sxx,syy,szz,sxy,sxz,syz,smises
5.145081306007861510e-01,4.567792040742568727e-01,-1.374878510620664018e-02,1.389939288557908879e-03,-2.596198379539063888e-03,-2.925822309315605912e-02,5.044664740562438965e-01
5.366466861252483511e-01,4.310990370015467810e-01,-3.404357710593403086e-02,-6.425091872609103860e-03,-5.203740085481282744e-03,-7.056097040635898182e-03,5.262576341629028320e-01
5.729158337808313295e-01,3.858460382483822615e-01,-1.557872132664417375e-02,-2.945280316354669664e-02,-1.918329200041242119e-02,-2.707235627825282584e-02,5.264375805854797363e-01
5.598872964465875235e-01,4.112224063954071918e-01,-6.182487521244561801e-03,-1.542715805662769196e-03,2.119165079757711137e-02,-4.228435018740003132e-02,5.148784518241882324e-01
5.395246642757389743e-01,4.597900217599553141e-01,-2.143116583336102110e-02,1.186280563483463855e-02,-3.863983355723726171e-03,-2.625779653044228376e-02,5.280500054359436035e-01
4.431805397258706813e-01,4.494976645840670915e-01,-3.076655731425292917e-03,-4.037581149998165087e-02,-1.785615598720113537e-02,-1.657532364485945695e-02,4.568104743957519531e-01
4.294727437361461897e-01,3.579687700104086656e-01,-4.584831540547229523e-04,-9.604350122326560379e-02,-1.671657780573003113e-02,-1.378366324197399101e-02,4.339277148246765137e-01
4.265650293467282417e-01,4.171801268224920589e-01,-3.244149834356890860e-03,-1.015284585786451338e-01,-1.866999435718990491e-02,-4.813778653379461453e-02,4.687342643737792969e-01
4.437506836069191607e-01,4.276048309299277372e-01,-3.691595102029154862e-03,-4.216123239898895286e-02,-1.717852078185012205e-02,-1.095597401636029880e-02,4.470112621784210205e-01
4.490676933290749240e-01,4.136001890485405674e-01,-4.739157586622966267e-03,-5.580962147201450757e-02,-1.918944393204304391e-02,-1.205033588064876975e-02,4.494304060935974121e-01
3.909366632261150887e-01,4.368009895263363918e-01,-5.151649621902398835e-03,-7.475763639016717865e-02,-1.580687907831053798e-02,-1.847676636697325944e-02,4.423750340938568115e-01
4.210177422548510573e-01,4.498725856719553162e-01,-4.252560414198747196e-03,-1.013694791993042660e-01,-6.038120844497760903e-02,-4.240369231657025589e-02,4.910374283790588379e-01
4.264941271834891134e-01,4.462099592818732363e-01,-1.309759157895357129e-02,-1.060128258945450264e-01,-2.275338311112980183e-02,-2.831325669287738933e-02,4.898680746555328369e-01
4.159085076505895651e-01,4.380449730455772128e-01,9.147838651512807395e-03,-6.835340003730949743e-02,-4.508939129920416441e-03,-8.130718276639649009e-03,4.349992871284484863e-01
4.435699867028891630e-01,4.287525797213843637e-01,-4.193369873640051537e-03,-4.504394312213336193e-02,-1.775513338415671272e-02,-1.197446707600552558e-02,4.489316940307617188e-01
4.205026910824928299e-01,4.802796190857607783e-01,-1.842071795287197888e-02,3.781295193395434878e-02,-2.317497385214404085e-02,1.324479231326403800e-02,4.784260690212249756e-01
4.640849633440227162e-01,4.789890873652362657e-01,-1.676895019881236015e-02,2.601617647307493883e-02,-9.386365466201550267e-03,1.135476213076109034e-02,4.912137687206268311e-01
4.759450700908308685e-01,4.451042686280057281e-01,-1.032308701811035512e-02,3.485232548444717332e-02,-5.305860676386727794e-03,1.331973494277395066e-02,4.761005342006683350e-01
4.520019547398340665e-01,4.592197260358021893e-01,-1.578913981519675103e-02,2.311450245279786375e-02,-8.471852661098630902e-03,8.296330816861869142e-03,4.735838472843170166e-01
4.752064957212177587e-01,4.530546135376243289e-01,-6.986523911114039809e-03,2.582885684553153441e-02,-1.025579662608838705e-02,1.775664824635946396e-02,4.749549031257629395e-01
4.755951224751685524e-01,4.512020180493501176e-01,-1.512453022900167587e-02,2.533021504452094563e-02,-9.104398326853479703e-03,7.391565716618379335e-03,4.814229607582092285e-01
4.697570266932855620e-01,4.540683751416300651e-01,-1.974203275770358701e-02,3.441548521997533222e-02,-1.270005912867784928e-02,1.234577302386118298e-02,4.864877164363861084e-01
4.727532853267442103e-01,4.459180143011493569e-01,-1.677720950193722915e-02,3.351605890680051103e-02,-9.833362374213269752e-03,1.062847871941296346e-02,4.808560311794281006e-01
5.258212772673284130e-01,4.481781096391835306e-01,-2.844675330564211402e-02,1.506588747630554538e-02,6.008506381491529819e-04,1.059403232342290800e-02,5.207927823066711426e-01
5.030895801240450327e-01,4.865901994955211252e-01,-3.295579028919737308e-02,6.777054746248824257e-03,5.644901634290917444e-03,1.269989336745740854e-02,5.286678671836853027e-01
5.162946961842764804e-01,4.866444458019066888e-01,-1.754115599327321640e-02,1.374285382591771548e-02,-1.523572515449663281e-02,3.168904946217515530e-03,5.208882689476013184e-01
5.315504050615402765e-01,4.677415933639527124e-01,-2.651445471591301617e-02,2.461323936727986481e-02,5.630997862100563245e-03,4.423102202979831837e-02,5.363582968711853027e-01
5.218033378614979068e-01,4.198354959846278267e-01,-2.675995700774025376e-02,-7.920847027834636679e-05,-2.585691000584157927e-03,1.045652106353994618e-03,5.053777694702148438e-01
5.737511708810266731e-01,3.981413690375324443e-01,3.020354116952117529e-04,3.167648505350444121e-02,-5.811139304166572025e-03,1.401892205712042261e-02,5.125236511230468750e-01
5.046196671869787043e-01,4.783736003589178498e-01,-3.403880131190084590e-02,-1.433895243246586203e-03,1.558626062003350121e-04,-1.325742786938192974e-03,5.260376930236816406e-01
5.245302840710441838e-01,4.624621661158544450e-01,-2.278607239810431784e-02,3.168238933506445365e-02,-7.536861326872407348e-03,4.731145930308709724e-02,5.285202264785766602e-01
5.231896756359115663e-01,4.179162306926959558e-01,-2.959605970951312282e-02,-3.247469463569645567e-03,9.552290403867682092e-03,4.830832314041613035e-02,5.155262947082519531e-01
4.994390342536587646e-01,5.085122804704549360e-01,-1.969057234140197954e-02,4.308555113901398233e-03,5.324535155415404536e-03,-2.937736936664072079e-03,5.238842368125915527e-01
4.593106113609716212e-01,4.986659012828718596e-01,-3.254419811606257262e-02,-1.072618828034111425e-02,3.358071117039940472e-03,1.118760578324949021e-03,5.130397677421569824e-01
4.818305188133324979e-01,4.982162606298891072e-01,-6.741366445832952525e-03,3.251851293922625868e-03,1.214974951407979268e-03,2.543256296648260893e-03,4.970232844352722168e-01
4.881322513302377430e-01,4.934932109722076077e-01,-7.158486606672120889e-03,-2.086703679268127071e-04,2.356986406351228858e-03,-1.519643870205621204e-04,4.980098009109497070e-01
4.951857438920396204e-01,5.111851338796000732e-01,6.776959468415055809e-03,1.125092662046332445e-02,4.202331939726140124e-04,-3.744271549965158454e-03,4.970268607139587402e-01
4.797563408071333080e-01,4.728130295117067838e-01,-3.437214395472243389e-02,8.603439520111181172e-04,5.782307390404695970e-03,1.219949958480111155e-03,5.107969641685485840e-01
4.993621737260471871e-01,5.127128532338431910e-01,-1.227317775322567250e-02,1.458267147697454857e-02,6.307604277910348022e-03,5.848491849623723739e-03,5.192683339118957520e-01
4.929574371395463173e-01,4.779851896513137022e-01,-2.891376776009157989e-02,2.232227269508037671e-03,4.792550085818020680e-03,-4.924497682575123929e-03,5.147006511688232422e-01
5.041316713847164843e-01,4.542181482785209723e-01,-2.002629264405531018e-02,1.297673575801711575e-02,1.111122376468067809e-02,-1.238722468147220555e-02,5.024005174636840820e-01
4.981381769517609914e-01,4.771998329653627802e-01,-3.168353495938502906e-02,-5.048644987163867061e-04,-2.725293378759072443e-04,-1.731152712591371018e-03,5.196785926818847656e-01
4.879214704628255794e-01,4.985665451210949950e-01,-2.924625002992559120e-02,4.737509431648625688e-03,3.119614681852478279e-03,1.955764491757452060e-03,5.226749181747436523e-01
4.994842134709974735e-01,4.834497619292055237e-01,-1.376880911132033480e-02,1.131282325717227616e-02,6.286851764739012985e-03,-1.144162040634614163e-03,5.059273242950439453e-01
5.005339763269149866e-01,4.899799299958405019e-01,-2.335143225751978857e-02,8.470321766714746653e-03,1.576345643344499378e-02,-1.705847265983207253e-02,5.204535126686096191e-01
5.246264186420865894e-01,3.454006380497036677e-01,2.697711223266008318e-03,-2.822648700352491449e-02,-4.285389684990469419e-03,-1.963940268071823550e-02,4.632394611835479736e-01
5.057666743475524029e-01,3.679437086578588589e-01,3.836299355482797324e-03,-1.578074193252181068e-02,-6.728850585421108921e-03,-1.413872392799524723e-02,4.508152306079864502e-01
4.774522270414145453e-01,3.725986285311190249e-01,3.382252691879195083e-03,-3.031176218330497787e-02,-2.384511483350362088e-03,-8.792784584798015238e-03,4.347805082798004150e-01
5.388253963634723753e-01,2.934505196704686458e-01,7.107115720789258795e-03,-6.155978902821838961e-02,-1.050617555203070720e-04,-3.360827835869028765e-03,4.731443822383880615e-01
5.114285693478934913e-01,3.402418945741109146e-01,1.101874062426416723e-02,-1.143130244820566438e-02,5.932695644410915237e-03,-6.851998035844581413e-04,4.410786926746368408e-01
4.894781160109459295e-01,4.930048491424638968e-01,-4.265801511056255269e-02,2.954248568803901145e-03,1.345866727699347645e-03,2.782076985797246865e-03,5.339595675468444824e-01
4.927469983335556192e-01,3.142706928925333432e-01,6.782692782904164996e-03,-5.905548373768414877e-02,4.660158344109963796e-03,1.611342113027546940e-03,4.379698336124420166e-01
5.235486045783417364e-01,3.011554537807331622e-01,6.726107099270239864e-03,-6.312588122973172844e-02,7.449543434218604092e-03,2.266766066969806356e-03,4.623450636863708496e-01
5.188684793725294453e-01,3.393444726275595125e-01,1.002711426458469113e-02,-1.436241396007321112e-02,2.885338815691042367e-03,-1.550101083202693126e-03,4.477166235446929932e-01
4.466392510490319046e-01,4.545587914192257273e-01,-7.305008030494219984e-03,4.099308168102639566e-02,1.141683623880185988e-02,-5.263604120303468428e-03,4.639381170272827148e-01
4.098509730849715371e-01,4.389705979962640892e-01,-1.830793456603313496e-02,7.833800974869745137e-02,3.329886429406681003e-02,-1.418662447031128655e-02,4.679493308067321777e-01
4.501262864909688632e-01,4.594771489877295112e-01,-2.239298459370886452e-02,3.499561495597853372e-02,1.771229554246435065e-02,-2.812858483684382502e-02,4.845299422740936279e-01
5.136704065582023970e-01,4.308480086259449671e-01,-1.455789498604015408e-02,9.921151161300062471e-02,2.713132541364635802e-02,-1.415304615718111954e-02,5.239022374153137207e-01
5.056280580026546456e-01,3.993915127820262256e-01,-1.163906148780857741e-02,8.218280216305091923e-02,1.535342627654500899e-02,-3.427744231626587285e-02,4.983902573585510254e-01
4.931893409290549757e-01,4.465092194653459967e-01,-1.028267034446750383e-02,5.279773633953493972e-02,2.090086766204362831e-02,-7.664284232184181977e-03,4.919456541538238525e-01
4.459440112609511231e-01,5.147938498066977342e-01,-3.055684857381918418e-02,2.484266595092133722e-03,-7.075488275829031927e-03,3.316410117788175585e-03,5.145892500877380371e-01
4.770981419553188552e-01,4.302977937259980790e-01,-1.839109044210596178e-02,-1.143926684143204558e-02,1.916770185734068682e-02,9.306824454196999455e-03,4.756736457347869873e-01
4.304322582807447173e-01,3.720195590477056724e-01,-1.286725853114678575e-03,-7.466812035339231990e-02,8.272529000901767196e-03,4.904337759766153569e-03,4.261207580566406250e-01
4.715144471289570705e-01,4.642751593282838374e-01,-1.953976181456823502e-02,-4.038499839021941068e-02,2.344199609875786267e-02,2.810869026705664978e-02,4.965314567089080811e-01
4.322660227628694063e-01,4.302007214473527186e-01,-8.440705019607086523e-03,-4.363876085933768301e-02,1.445586745076407435e-02,1.424470286693458633e-02,4.475099742412567139e-01
4.421003999525203731e-01,5.062899833691748563e-01,-2.794624522027389091e-02,-1.111528443921442223e-03,-9.291521145919860031e-03,-2.164473295413743906e-03,5.054829716682434082e-01
4.782272317217914903e-01,4.305734797856357599e-01,-1.356975056912246291e-02,-1.962688737132768299e-02,1.536676940138427018e-02,1.437855148922894191e-02,4.724229872226715088e-01
4.574693393277329267e-01,4.655910759241480013e-01,-1.801886312328870865e-02,-3.422934927766448782e-02,2.243577652889087309e-02,2.601207683000941392e-02,4.869000911712646484e-01
4.709680935793001955e-01,4.251762422451518253e-01,-1.414797180509441699e-02,-2.674245500616543800e-02,1.466905017151756349e-02,1.407846755057208347e-02,4.675529599189758301e-01
4.821682782035050518e-01,4.765807133321748879e-01,-2.242818098732535237e-02,-3.101073651668307801e-06,2.696575502411919893e-03,-3.619714688538701319e-03,5.018869042396545410e-01
4.775173349232981757e-01,4.607705668328930804e-01,-1.994275935454831172e-02,2.121781973163181650e-02,1.372872236855623637e-02,-1.285246122473483396e-02,4.917598366737365723e-01
4.852135327180184809e-01,4.636808988583471236e-01,-1.823994913507753779e-02,9.586869675425517198e-03,1.103705159875582355e-02,-8.524736834556389045e-03,4.939104914665222168e-01
4.805070271439271234e-01,4.764703654999011828e-01,-1.717617631317308602e-02,1.120393388673540658e-02,1.308415726475909389e-02,-1.377164153731203454e-02,4.971469044685363770e-01
4.528676805406883776e-01,4.650218480372679819e-01,-1.829302467322785342e-02,1.347214122724765643e-02,7.813443280618602785e-03,-1.554311299577469489e-02,4.788727462291717529e-01
4.654570475919123651e-01,4.399906894188477802e-01,-2.121566017014619998e-02,3.945979529831839666e-02,9.544651719414445901e-03,-9.546617448556324326e-03,4.799197912216186523e-01
5.430538423424822181e-01,4.040876414851757858e-01,1.377442268140571802e-03,6.011608690931227045e-02,-2.924922505494034590e-03,-5.067962477884301042e-02,5.059871673583984375e-01
4.996897469858971319e-01,4.921080856041706308e-01,-2.087829222631643056e-02,-1.527896580736713000e-03,1.827941812062910867e-03,-2.580405009060323697e-03,5.168547034263610840e-01
7.571566446069473155e-01,2.458110109248318742e-01,5.941394160396851198e-03,-3.541914979138937464e-02,-1.400941164430080654e-02,-4.013763838735957129e-02,6.714562773704528809e-01
5.253155314133814979e-01,4.483856543647822823e-01,-2.519514555725776983e-02,3.156836930502221472e-02,1.828270663034961552e-02,-1.812852193599035280e-02,5.211601257324218750e-01
5.243391676704078908e-01,4.596401900426301257e-01,-1.616989315246203374e-02,7.053781647503858977e-03,-9.846760833598317084e-04,-2.782162782034800635e-02,5.136535167694091797e-01
5.199443715897136276e-01,4.660700387967667835e-01,-2.223173882552836877e-02,1.613571052082677856e-02,3.452652178427425243e-03,-9.258850430103228099e-03,5.183840394020080566e-01
5.111744447198235397e-01,4.593624840561807421e-01,-1.968311820464391237e-02,-1.754032351414841441e-03,6.299230686894861583e-03,-1.580178296251451286e-02,5.078058838844299316e-01
4.735644342348727109e-01,4.767689519078082139e-01,-2.024831336607191279e-02,5.778831502097223072e-03,1.642584364154448017e-03,7.231684793696924586e-05,4.955320656299591064e-01
4.941777777603387767e-01,4.917551155537014385e-01,-2.091212981014117789e-02,3.567446914587299716e-03,-7.273050319991145214e-03,5.423138472656855585e-03,5.141601562500000000e-01
4.966164068611881310e-01,4.938487128530784087e-01,-2.829736616153105677e-02,7.987988526116049934e-04,-1.068148538428918278e-04,-1.099220076291291355e-03,5.235407352447509766e-01
5.055437144259469218e-01,4.762025151322293315e-01,-1.406478224350515838e-02,7.884783831339366514e-03,3.323161337293179321e-03,2.177048065226050259e-03,5.058080554008483887e-01
4.406380366366959844e-01,4.334316360642412325e-01,5.267255856174268835e-03,-5.171623838743701074e-02,-1.984761360854941578e-02,-3.242464964102924341e-02,4.458943307399749756e-01
4.604370873516388518e-01,4.327228791683578324e-01,-1.329338906798066544e-02,-6.211631418076032224e-02,-4.195956551468867091e-02,-3.086455201844867310e-02,4.814296960830688477e-01
4.489372263181349854e-01,4.693579325091844501e-01,-5.843976696002783910e-03,5.704386081863271896e-03,2.555624438922081236e-03,-5.369048548625758067e-03,4.655465483665466309e-01
4.841809407108175201e-01,4.823194438139895013e-01,-4.283193368532378642e-02,3.569987589869528491e-04,1.830603711392234708e-03,2.390201438067429338e-04,5.260946750640869141e-01
4.638447235503185828e-01,5.180582169021730188e-01,-3.687589637101140738e-02,-3.398417542276106762e-02,-3.266599099833039643e-02,-3.536252167847795530e-02,5.396513342857360840e-01
4.338090876049329747e-01,4.659548623342626428e-01,-2.433274797800960565e-02,-4.940998020945255170e-02,-3.889631727390412130e-02,-3.519780292211596717e-02,4.911558628082275391e-01
4.630897323635008167e-01,4.686926685975316698e-01,-3.252751212055471353e-02,-2.295380921027482743e-02,-2.012013279113228359e-02,-1.877146895808633545e-02,5.022916793823242188e-01
4.605625716768716460e-01,4.826910883854982348e-01,-3.206099793083139193e-02,-2.680689079531262467e-02,-1.973665282135598706e-02,-1.798662438019669671e-02,5.082948803901672363e-01
4.925828741668457078e-01,3.944262948777211286e-01,3.402590051039322550e-03,1.294971607101543312e-02,-3.564821137352040684e-04,-8.875592623682612356e-04,4.488002061843872070e-01
4.335369386284694260e-01,4.387646021991368772e-01,-2.645984707807635949e-03,-8.276262965384934694e-03,-4.018745735069311625e-03,-3.723676066369611612e-03,4.391567111015319824e-01
4.347692543165022627e-01,4.909422874830432493e-01,-3.124072996490334653e-02,-2.303874889809671284e-02,-2.017580195660874376e-02,-1.734681920499319893e-02,5.002141594886779785e-01
4.422368529411070392e-01,5.007288967800952451e-01,-2.751956565649049669e-02,-2.155470360257562973e-02,-1.841889209012449388e-02,-1.007384929868306370e-02,5.042672157287597656e-01
4.874318920797504617e-01,4.869445846467309602e-01,-3.281393692957434993e-02,-1.475497844120355999e-02,-1.550557900477255759e-02,-1.646885396853690897e-02,5.221019983291625977e-01
4.541017410264138188e-01,4.782979812877663495e-01,-2.938124815855319705e-02,-2.102720917797757175e-02,-1.855696952046264822e-02,-1.807737964720342733e-02,4.993792474269866943e-01
4.703840158334560151e-01,4.979524501691967586e-01,-3.787206672947751596e-02,-8.282654122630723689e-03,-1.981683174116568788e-02,-1.988710855334663297e-02,5.250395536422729492e-01
4.664911219420526112e-01,4.621117443042571105e-01,-2.356979490334593086e-02,-2.669916516599367753e-02,-1.354937327064079620e-02,-1.892632464996761577e-02,4.917282164096832275e-01
4.545633519508819331e-01,4.572863485793888239e-01,-2.589636090105346122e-02,-3.633923596829358171e-02,-2.455169538080585398e-02,-3.150280238698228985e-02,4.908202290534973145e-01
4.468726344668497719e-01,4.280417338069313349e-01,-2.219738458984626961e-02,-6.121615042421616609e-02,-2.410999640632991228e-02,-3.042646906257684761e-02,4.767721891403198242e-01
4.811525623756929271e-01,4.661200158272692518e-01,-3.200715957578931237e-02,-1.566479908523421560e-02,-2.095096939237853229e-02,-2.027616298866283251e-02,5.090492367744445801e-01
5.563071688766104694e-01,4.315271989163996791e-01,-2.865393636581226033e-03,1.078479453596790059e-02,-9.585510306863567536e-04,-1.589195389848784695e-02,5.094897747039794922e-01
5.824096275370079789e-01,4.502325314206321316e-01,7.936203799136853920e-02,4.778511004048267841e-02,-7.677394872899070445e-03,-1.264339140322971455e-01,5.089400410652160645e-01
5.529172295655675473e-01,4.725771583153859923e-01,7.030354924283277462e-03,2.486887991395074146e-02,2.055855997039771760e-02,-1.209842434722875268e-02,5.139580368995666504e-01
5.600108854833684147e-01,4.303114391511977388e-01,1.767437844411240411e-02,2.658997463666393918e-02,-1.266938663846085486e-02,-5.180741366933400843e-02,5.012631416320800781e-01
5.147023723597456968e-01,4.401589678823883411e-01,-2.048959426867114075e-03,1.495262818659428249e-02,4.824345470432981481e-03,-1.803605167220536862e-02,4.855766892433166504e-01
5.136088676040164724e-01,4.791442787976255557e-01,-2.154613544975891859e-02,9.576688109852430839e-03,8.641524829073885319e-03,-8.394020977975943584e-03,5.194664001464843750e-01
5.131226844074091575e-01,4.825707020812154413e-01,3.153973642279206402e-04,1.100750281214560658e-02,3.053406927157777898e-03,-1.139938994184783866e-02,4.990178048610687256e-01
5.111541595496416068e-01,4.439321184097966833e-01,3.874025187641627621e-03,3.970493572891796441e-02,4.198168107493884839e-03,-1.138551239376388649e-02,4.826206862926483154e-01
4.895094721648035607e-01,4.553889166613784845e-01,-2.063374754536206890e-02,1.918984932750963240e-02,1.016138142562615296e-02,-1.132891964412377842e-02,4.957857429981231689e-01
5.204321052806306636e-01,4.587064227431489893e-01,-2.474462077431649476e-02,2.673508251732935673e-02,1.337279476274023417e-02,-1.886766742198823718e-02,5.206966996192932129e-01
4.877891554268625196e-01,4.800725564290943548e-01,-1.814800784029896308e-02,3.149904383377118838e-02,9.716526594688416202e-03,-4.296597319356619364e-03,5.054137110710144043e-01
4.636180728578906951e-01,4.342552644861253919e-01,-1.681416379142314232e-02,7.893684984613362488e-02,2.861302941932826471e-02,-2.464048645255595069e-02,4.904499351978302002e-01
5.127478970567174166e-01,4.503556543338581020e-01,7.528555121130875438e-03,-3.854567502524894242e-04,-7.993732321761927787e-03,-3.322776354008046690e-02,4.807515144348144531e-01
5.291319189338155038e-01,4.347332283386544094e-01,-3.737011104974874431e-03,1.644985740651267250e-02,3.164494608834553854e-03,-1.496809900932870308e-02,4.940366744995117188e-01
6.601013976900342861e-01,4.009324425239616518e-01,5.223247844516043514e-02,1.211017221224423845e-02,6.246854794394859911e-02,-8.428240484846029335e-02,5.590974092483520508e-01
5.407829603703864230e-01,4.345939609431732076e-01,-3.451480922900224124e-02,-7.986289704314850080e-03,-5.401650397537796112e-03,-8.422598280457977912e-03,5.307024121284484863e-01
5.715012712671867501e-01,4.726691239971812508e-01,-1.074696206516267960e-02,1.240990273079854538e-02,-1.828791352731090267e-02,-1.989849423328480735e-02,5.421154499053955078e-01
5.588872823726926953e-01,4.028068241080406398e-01,-5.513658152059175421e-03,-2.234212513955858778e-02,-1.457110851979127007e-02,-2.181930084427329344e-02,5.083112120628356934e-01
4.914406341853554405e-01,4.737133777274006863e-01,-2.702769602097027102e-02,-9.975751738394647225e-03,-8.751041602882989393e-03,-1.079571424594960583e-02,5.106961727142333984e-01
4.913591500114838917e-01,4.591456959028598073e-01,-3.348137347835761224e-02,-7.985459246110162071e-03,-5.368310531513962452e-03,-6.860887306197527812e-03,5.099091529846191406e-01
4.943683594625416511e-01,4.736396466995664856e-01,-2.731363938177649997e-02,-8.450236445510243138e-03,-2.976893827899766698e-02,-3.175857729451826705e-02,5.173650383949279785e-01
4.818912732703848345e-01,4.798633655334331727e-01,-3.250400380392176602e-02,-7.965444661135356874e-03,-1.161653399834574815e-02,-1.253194005441270187e-02,5.144218206405639648e-01
4.828715393622439733e-01,4.592166936482403039e-01,-3.348051202819996019e-02,-6.522447142884252834e-03,-1.187289661410788344e-02,-1.223950046178579228e-02,5.059295296669006348e-01
4.943252184268260296e-01,4.388103577930302923e-01,-2.877808987214014458e-02,-1.727321426537926918e-02,-1.577457909986298284e-02,-1.420456352223301195e-02,4.999258816242218018e-01
4.743890388673588365e-01,4.934263337289055418e-01,-3.716865266039531823e-02,-8.270980973479465049e-04,-4.246413938602330504e-03,-4.454593855017723904e-03,5.214480161666870117e-01
4.799721512255702427e-01,4.741001406334296453e-01,-3.399034478234108647e-02,-1.142353054794300465e-02,-6.503759922105376012e-03,-5.236143948013892609e-03,5.116391181945800781e-01
1.547770376560816397e-01,6.011747023617323160e-01,-3.425773507938054130e-02,8.124673862683635950e-02,3.562000398605332657e-02,1.763378686022046282e-02,5.864571928977966309e-01
4.627227640678100995e-01,4.528185382185694885e-01,-2.926029604364804859e-02,-3.192708165588120650e-02,-1.579592342655419118e-02,-1.710063986503774711e-02,4.918907880783081055e-01
5.119948694514799836e-01,4.641641105559624614e-01,-3.563034111599916454e-03,-5.581220132574211956e-02,-1.674891693979189619e-02,-2.069281676223145086e-02,5.048756003379821777e-01
5.115051134777000019e-01,4.636901620144756597e-01,-3.684683104900871031e-02,-3.930889034685892264e-02,-1.933912098813360056e-02,-4.284918802091708390e-02,5.366772413253784180e-01
5.187912875794056244e-01,4.716719969936812307e-01,-3.469865237260610913e-02,-9.289097825007674655e-03,-9.813591300880988508e-03,-1.304824541077376047e-02,5.324940085411071777e-01
5.094356838846009206e-01,4.342292999411686560e-01,-3.020665922094256661e-02,-2.167311042737245577e-02,-1.617487475900340060e-02,-3.792783903560720260e-02,5.126352906227111816e-01
5.015057005607832519e-01,4.390859888276003042e-01,-2.547536488491586315e-02,-1.901213682203378372e-02,-1.836004024452950883e-02,-1.328687415449299712e-02,5.013347268104553223e-01
2.943724830425240024e-01,6.047094358532735248e-01,-4.548078259008625501e-02,1.089802334750100132e-01,5.340959723254623884e-03,-5.693797039316681212e-04,5.941337347030639648e-01
4.946440206601260270e-01,4.388903217940604007e-01,-2.999871112706348208e-02,-1.706150031534997211e-02,-1.282628299623498995e-02,-1.516038688820558512e-02,5.011627078056335449e-01
4.822313803495503204e-01,4.304548849863902849e-01,-2.184310930847749299e-02,-4.027849929522807348e-02,-3.423081271305822987e-02,-4.172226569106848859e-02,4.942441284656524658e-01
5.067073323447424116e-01,4.585797243044982263e-01,-2.390399719873526063e-02,-2.054963740579547268e-02,-2.337079254775555753e-02,-2.171357951223208335e-02,5.124914646148681641e-01
4.874979400526370243e-01,5.117515992462199348e-01,-3.254210314619798705e-02,-3.476480298817538530e-03,-5.872071201822154883e-03,7.157310959175350318e-04,5.327138304710388184e-01
4.730604626922159106e-01,5.110419046368411822e-01,-2.892815628493472513e-03,1.769754142610888061e-03,7.579666497010513135e-04,1.413311533475538652e-02,4.966506361961364746e-01
4.914002371005450343e-01,5.107599767382917655e-01,-1.933615284617384855e-02,-6.860040928325021430e-03,4.031365320014700104e-02,4.650522944450086529e-03,5.255433320999145508e-01
4.770740347208337617e-01,5.017010395474683637e-01,-2.958043494048034905e-02,7.300997468079584683e-04,3.386098913583344104e-03,5.413589049815784076e-05,5.194407105445861816e-01
4.814336456589278779e-01,5.010466361288805626e-01,2.499768592872519957e-02,4.399514437478670680e-03,-6.575900510146733859e-04,-2.897727413866433861e-03,4.666423499584197998e-01
4.848523147482314277e-01,5.060123479352259812e-01,-2.838038047771285211e-02,1.569172219707180849e-02,-1.138349471888190634e-02,7.496656865274893382e-03,5.253680944442749023e-01
4.801373788198415316e-01,5.073028510768354815e-01,-1.811382748632328621e-02,1.724382204641629335e-02,-8.123148613572019755e-03,1.791108467028530672e-03,5.134462714195251465e-01
4.651054295035976782e-01,4.908126339446264308e-01,1.159648835526988497e-02,3.323154653193459429e-02,-2.590270043006252798e-02,2.166331250469905045e-02,4.740500152111053467e-01
4.851545683602698222e-01,4.930708019035514589e-01,-2.308209481343614922e-02,4.649965954618395444e-03,-3.290378375341859642e-03,-3.602909515982802985e-03,5.123736858367919922e-01
4.806566213890635653e-01,4.951021882860823231e-01,-2.214690677898567550e-02,8.033098931474441651e-03,-6.261136656961150890e-03,1.150942278408370253e-02,5.108736753463745117e-01
4.891722288279864994e-01,5.161490730759867862e-01,-2.571880194855380442e-02,1.322850784431046228e-02,-4.149526994717719387e-03,2.760499682009141895e-03,5.294621586799621582e-01
4.816715554695057966e-01,4.974555692807941520e-01,-1.992987475272589570e-02,5.325108444569249741e-03,-3.441461238532735490e-03,-1.054523379945173630e-04,5.097951292991638184e-01
4.686323147618581819e-01,5.070664840607872481e-01,-7.539014299708768352e-03,-1.646090185867970374e-02,-9.622266148381295944e-03,-2.576968575578804464e-03,4.976224899291992188e-01
4.655200216344934638e-01,4.926992702799262713e-01,-1.849618187352514154e-02,-1.453350857466097559e-02,-3.151580243790718262e-03,-4.684266993085314801e-03,4.988936483860015869e-01
4.896730269073962249e-01,5.014696759896397626e-01,-4.629935390240980109e-03,3.112329125098612509e-03,-1.193353195344943121e-02,-1.152408741492877940e-02,5.011590719223022461e-01
4.800660518500539098e-01,5.162125592691277909e-01,-2.614924792453227065e-02,-5.447468460360019651e-03,-2.303012788121612531e-02,-2.097051386615004023e-02,5.280699729919433594e-01
4.774926659342116908e-01,4.914679166605665506e-01,-2.843765893040861581e-02,-2.660227644847217975e-03,-1.187822883715373631e-02,-1.313809465580589517e-02,5.139977335929870605e-01
5.447386724186422668e-01,3.634736849529719427e-01,-2.539400880038467090e-02,4.000718128103312142e-03,9.981531866430189831e-03,-4.720713356578377234e-02,5.114641785621643066e-01
5.473464132958536510e-01,3.265068723752758695e-01,-1.409371793489844205e-02,-6.889502934937190423e-04,5.193153461318232578e-03,-3.393506560439757402e-02,4.934916794300079346e-01
5.187761692966424976e-01,3.873934642481888790e-01,-2.363484656423564534e-02,-7.663208628445416712e-03,-5.371050075188381172e-03,-2.188013448520099297e-02,4.918400645256042480e-01
5.348809897510673483e-01,4.209253534775505567e-01,-1.997763937440744098e-02,-2.743209530453979278e-02,-1.752838556408983783e-02,-1.145912263709711679e-02,5.110752582550048828e-01
5.199202077483467965e-01,4.171571248637502283e-01,-3.006910296843767760e-02,-1.832304585141541695e-02,-9.318165765919998646e-04,-2.455015816196743847e-02,5.092620253562927246e-01
4.671940405957159537e-01,4.671093839296379668e-01,-2.002568939885146504e-02,-3.762095738281034940e-02,-2.171433003543880164e-02,-3.091549038359022242e-02,4.958524703979492188e-01
4.317498186524221793e-01,4.594993950240060521e-01,-1.392160686983612283e-02,-4.949745393370365981e-02,-2.736122037816991065e-02,-2.466631210332745697e-02,4.724208116531372070e-01
4.053539500353805503e-01,4.420172329741493544e-01,-6.924332597784799148e-03,-4.528631729454778154e-02,-1.140875442052765448e-02,-1.378045451033827959e-02,4.399383962154388428e-01
4.550441234197260543e-01,4.601798358634704433e-01,-1.090809381243595944e-02,-4.301323177328549019e-02,-2.930738989381137180e-02,-2.024600730238574134e-02,4.784221351146697998e-01
4.455789556891631142e-01,4.872701667069925802e-01,-3.206499640938997864e-02,-1.276549272146102615e-02,-1.686914818401801311e-02,-1.952532302691550870e-02,5.022765398025512695e-01
4.241516595432779368e-01,4.920673221402102060e-01,-2.254875782422843811e-02,-2.483383757892450305e-02,-1.452319928843488414e-02,-1.255297348258254363e-02,4.872857630252838135e-01
4.027535405574184657e-01,4.882257695913854167e-01,-1.827686375816239828e-02,-3.733549781176153520e-02,-3.546628222769701577e-02,-3.226908546861936150e-02,4.812876284122467041e-01
5.121565515769674892e-01,4.747137714141811404e-01,-2.630066651997070570e-02,-2.189241281558021099e-02,9.701686628389428330e-03,2.127338853713313729e-02,5.236933231353759766e-01
4.992026341001038481e-01,4.797250970106080592e-01,-4.622075963693789147e-02,-1.876381096798220016e-02,2.702369681482313934e-02,2.785005504687376385e-02,5.411252379417419434e-01
4.812079462393219487e-01,4.792156465984492297e-01,-3.225436732304659548e-02,-1.151702327632350524e-02,2.792820952407835261e-02,2.234494569834946306e-02,5.165852308273315430e-01
4.864904579865160783e-01,4.308398936060672813e-01,-2.066780727267664153e-02,-2.637768321878472197e-02,3.126081218018039037e-02,3.196556810964176765e-02,4.900686740875244141e-01
5.491208986161597583e-01,4.302881337266502015e-01,-3.500712722630539009e-02,-4.195984554910060782e-02,4.199005939011471455e-02,4.708763732980576072e-02,5.505781769752502441e-01
5.215581350111887504e-01,4.193669438363336610e-01,-1.706823541692104040e-02,-1.617189756669878270e-02,1.702378519058454776e-02,1.354534185762963118e-02,4.977177679538726807e-01
4.749471579337333216e-01,4.943226138912750200e-01,-2.906607413085521285e-02,3.463027888790019913e-03,-2.721476116017017624e-03,3.922425613001444961e-03,5.140764117240905762e-01
4.859482820686190641e-01,4.942875563347317591e-01,-2.835434297800937253e-02,5.396097684730712107e-03,-3.790070786605399290e-03,3.827396707680289639e-03,5.186907052993774414e-01
4.537614650512323822e-01,4.920077564310109119e-01,-2.793910978041835858e-02,1.151846172501146646e-02,-1.691567828469468793e-02,9.098483150424115096e-03,5.034146308898925781e-01
4.873099640724340986e-01,4.932945110476656958e-01,-2.622871464925236040e-02,2.129670301291323661e-02,-1.550730704751870394e-02,9.061175919950032256e-03,5.188058018684387207e-01
4.803240402962398181e-01,4.634626191665750516e-01,-2.095069078707040289e-02,1.382818983531986998e-02,-1.124422842286013600e-02,1.121274279917299638e-02,4.944073259830474854e-01
4.700718811476725101e-01,4.702946314378626536e-01,-2.430347591569304022e-02,1.114105176127382253e-02,-1.260210935570461009e-02,1.114326035018718859e-02,4.957201778888702393e-01
5.037731841780535014e-01,4.700483933403829528e-01,-2.538597190772468037e-02,7.676687124808347432e-03,5.289062645579151525e-03,-2.705601814862743006e-03,5.134040117263793945e-01
5.102132208514386091e-01,4.667808262614643322e-01,-9.098792211301165445e-04,2.932904278998949444e-03,-5.167946328309890210e-03,-7.964970763178001734e-03,4.911518692970275879e-01
5.079945040179741911e-01,4.787527670708530692e-01,-2.427631985054135022e-02,-4.182342169384498966e-03,3.076178139805852817e-03,-1.400560041192553675e-04,5.183470845222473145e-01
4.980348353349396961e-01,4.672487530900245600e-01,-2.308545693372709984e-02,1.352742575130354459e-03,4.285843701288429355e-03,-3.480652730297134574e-05,5.064893960952758789e-01
5.043125988506509394e-01,4.692172392333421871e-01,-2.363329066272457091e-02,2.746903987249981610e-03,7.378137651270173097e-03,-4.395208002528146370e-03,5.115408301353454590e-01
5.095218013004489954e-01,4.682904440853091210e-01,-2.408128902446426967e-02,2.451109318023257828e-03,4.994273276078340339e-03,-1.468872508443663967e-02,5.149477720260620117e-01
4.977016001759031472e-01,4.683770159593003690e-01,-2.796886104043250221e-02,7.727980901485133683e-03,-1.522658192372912172e-03,1.780235458096783834e-03,5.118299722671508789e-01
3.897036784475760296e-01,4.362994152786723312e-01,-1.594994859693760203e-02,-1.109716709157917702e-01,-1.749018421573423840e-02,-1.855815042565057277e-02,4.738383889198303223e-01
4.912185342827820600e-01,4.962672867574083879e-01,4.655930499906429931e-02,-2.402056200991727292e-04,-7.460566408352362414e-03,-1.147710005069637988e-02,4.478332400321960449e-01
4.041122549369352557e-01,4.740015634316848692e-01,-6.342161314166594455e-03,-4.881419743421249596e-02,-1.093543728665505657e-02,-9.623251327700765162e-03,4.580706954002380371e-01
4.284468355518166183e-01,3.982267558176817990e-01,-8.680421693602335953e-03,-9.993358179866547453e-02,-1.929002433269408345e-02,-2.160553271940433145e-02,4.596306681632995605e-01
3.808467921522222799e-01,4.290992966366931061e-01,-9.153939494945639854e-03,-1.066482900037664661e-01,-3.276678868514549398e-02,-2.928498171454824162e-02,4.616955518722534180e-01
4.308289255497727011e-01,4.591261478779451455e-01,-1.255973842866059398e-02,-6.147759827990477433e-02,-2.947665773559998009e-02,-2.084858948929618414e-02,4.745419025421142578e-01
4.002019975258287454e-01,4.672031213000865657e-01,-6.094901401729913015e-03,-6.035304883190259484e-02,-2.498017667641328973e-02,-1.396426832482943609e-02,4.584464728832244873e-01
4.386368857340228189e-01,4.471960609582739110e-01,-7.315390174728431116e-03,-6.945998308435921698e-02,-2.522040870950536043e-02,-2.613658427074956603e-02,4.703140556812286377e-01
4.712255521489295829e-01,5.090194238940531912e-01,-4.670389562830168373e-03,3.182081675281379224e-03,6.165201259111254516e-04,4.065134370310061022e-03,4.959560036659240723e-01
4.753347174817147414e-01,4.985098805936715172e-01,-2.010058557186678030e-02,-1.961323119445714663e-03,-9.914091479398508613e-03,-2.027894233744540788e-03,5.077339410781860352e-01
4.650894116592144689e-01,5.131754612011667493e-01,-1.421318663247689296e-02,-4.880619643712553850e-03,-1.270977940161527146e-02,2.858599201979259569e-03,5.056397914886474609e-01
4.683449468984761666e-01,5.047353717646201332e-01,-8.951519059498369568e-03,-5.690076464592733717e-03,-8.562759443249010061e-03,-6.924177778538719713e-03,4.969568550586700439e-01
4.668067814975451202e-01,5.090522435348876495e-01,-3.223935657479048977e-02,2.366299432896266236e-03,1.089471992478093692e-03,-4.945983204498363272e-04,5.214741230010986328e-01
4.684593120134717958e-01,5.049874402341654189e-01,-3.349902859379683129e-02,-1.239133890410787971e-03,-9.614741543402468421e-03,-5.065992552474554017e-03,5.215275883674621582e-01
4.668325501431276336e-01,5.034390160886585974e-01,-2.664020443423315010e-02,-2.844434696967212961e-03,-5.319544814134438519e-03,3.848231331710133454e-04,5.128638148307800293e-01
4.733354074699636094e-01,4.660851640513952732e-01,-3.567878391461476451e-02,3.065539011356960557e-04,-7.876046783899394443e-03,-6.993572655311846653e-04,5.056138634681701660e-01
4.354597789607363434e-01,5.116238837329515343e-01,-1.623631541948944434e-02,5.363512092452644466e-03,-1.159676055640001570e-02,7.957777539531012828e-03,4.948869645595550537e-01
4.588536831060928689e-01,5.098322887295101413e-01,-3.010067589969933621e-02,2.148359880489095122e-03,-1.242734007747901305e-02,3.086903164193728275e-03,5.168240666389465332e-01
4.300760348650183307e-01,5.071710695864561913e-01,-2.529641685813216467e-02,-3.100018657930743264e-03,-2.500771010584912010e-02,-1.031623605330552959e-02,5.006385445594787598e-01
5.460432750833229543e-01,3.772686608405226849e-01,-2.799899900549301934e-02,2.935426989043136287e-02,3.520252681970766073e-03,-2.593339579470769693e-02,5.155244469642639160e-01
5.074843214692126292e-01,5.092768355884111919e-01,3.267758038565937717e-03,6.096303272291499903e-02,-2.105275862155009739e-02,-7.856417442017409741e-03,5.174994468688964844e-01
4.557643454109252534e-01,5.139895930224051002e-01,-2.550864677706393691e-02,4.926185877092149196e-02,-2.619952083335387247e-02,1.539278229809948155e-02,5.225766301155090332e-01
4.881372576642937222e-01,4.326221333323325147e-01,-2.550761992211370011e-02,6.037076742177754918e-02,-1.807773865094720531e-02,4.031690321357056517e-02,5.051619410514831543e-01
4.654404557633389228e-01,5.242546598417758830e-01,-2.755166150785259838e-02,3.920127490788544861e-02,-4.350386865981629644e-03,3.354353170466666673e-02,5.324826836585998535e-01
4.937763880703278652e-01,4.985569345175502320e-01,-1.302269780724579773e-02,1.267852816745768801e-02,-1.301513543415914673e-02,1.829246191855606399e-02,5.111606717109680176e-01
5.051340448230802194e-01,5.019642043987284641e-01,-2.561493617881466234e-02,2.388568168301326636e-02,-1.465458910850681896e-02,7.661358721163137077e-03,5.315581560134887695e-01
4.989308517538824650e-01,4.842929111960361244e-01,-3.509561379785636204e-02,3.345630644169487328e-02,-1.357990688867110815e-02,2.374284688152961814e-02,5.321502089500427246e-01
4.910256546823363322e-01,4.871114984819746585e-01,-3.339903269606930847e-02,-9.259203409322069433e-04,1.036766217144987918e-03,-1.378803751177139431e-03,5.224896073341369629e-01
4.575950526348885328e-01,4.909667362877634389e-01,-1.517703897502148402e-02,4.636155100620491243e-02,-2.243935855368511811e-02,3.795275331800514879e-03,4.984037280082702637e-01
4.746727147955327464e-01,4.795441713360463210e-01,-3.680774813721227057e-02,1.870567906764562457e-02,-1.109550432972271697e-02,2.540663204811579798e-02,5.171877741813659668e-01
4.745872180323665868e-01,4.972458285936826039e-01,-2.981553483216842215e-02,1.030992383720598024e-02,-5.635682858400051926e-03,1.119529237383231658e-02,5.168702006340026855e-01
4.879384980193707255e-01,4.887766474248077531e-01,-2.738397214763893528e-02,2.969400015349265339e-03,6.170382968047075957e-03,-9.390446085568063261e-03,5.161347389221191406e-01
4.854187103684374227e-01,4.645050161491646734e-01,-2.672046950893114392e-02,7.932686879634689298e-03,8.509392539924883619e-03,-8.928708887593355195e-03,5.026513338088989258e-01
4.868704877347219684e-01,4.797611605666591839e-01,-3.095983674865837587e-02,2.573050788116385424e-03,7.283705724612698964e-04,-3.410367469658086379e-03,5.143672823905944824e-01
4.128291155851534500e-01,4.962317697258237237e-01,-1.374274555209886728e-03,9.226385568832295644e-03,2.681535066725981159e-04,-1.789794563337671150e-03,4.618780314922332764e-01
4.745540406358472185e-01,5.039731264228763941e-01,-2.186935633049058580e-02,1.213129669775850523e-02,-1.257508168464851681e-02,-1.337980854381780283e-03,5.126668214797973633e-01
5.408974584140725517e-01,4.096925294949614882e-01,-3.076087299895186034e-02,5.132615572875768618e-03,2.501304326899593099e-03,-1.500359846443647706e-02,5.194003582000732422e-01
5.238623986230594998e-01,3.732572492598723590e-01,-3.247596985641454381e-02,-2.292629085616071094e-01,-5.774724936845629375e-02,-3.228681830953084725e-02,6.474742293357849121e-01
4.557090175280713584e-01,4.921254842737492474e-01,-2.651958674409432559e-02,1.647604815579185172e-02,-1.529224715036274149e-02,1.167976416276229196e-02,5.033456683158874512e-01
4.732020820055604649e-01,4.979805790145162003e-01,-3.134220846578278374e-02,-5.510429287547948191e-04,1.308559639120419503e-03,4.215315474192135071e-03,5.174360871315002441e-01
4.666340446961680932e-01,4.999137486400368480e-01,-2.902719623263172455e-02,-2.233248353466341443e-03,-3.596773577440736010e-03,6.539202040647458525e-03,5.132885575294494629e-01
4.791138395159790231e-01,5.050861746476904557e-01,-5.936152406318284669e-03,1.055870824311630658e-02,5.453077215391509934e-03,4.841493262383218116e-03,4.990389943122863770e-01
3.396158983517863494e-01,6.088747363397515322e-01,1.310746575566079652e-02,-5.250915167413203188e-03,4.204901521435334966e-02,-1.926736566034906520e-02,5.229953527450561523e-01
6.458976229534667546e-01,2.273407566910162214e-01,-1.672750903925490640e-03,-1.776522304431816732e-02,2.314633845022972571e-03,1.179537677312698755e-02,5.699758529663085938e-01
5.013371325165795200e-01,5.046319995097452438e-01,-8.560833320933602941e-04,9.797934593246912863e-03,1.580711173560024260e-02,4.723478752213744990e-03,5.049436092376708984e-01
3.776735160133476432e-01,6.214855714839999656e-01,1.399093693011566053e-02,-5.064991617464999901e-02,4.292543097973933880e-02,-2.928238645659072756e-02,5.442205071449279785e-01
4.717459076754919600e-01,5.730104099619152125e-01,4.291893523075834826e-02,2.399858574874387529e-02,-6.264216640118451269e-04,-1.558552220010795547e-02,4.899282753467559814e-01
5.049030681156578826e-01,5.024113987381561008e-01,4.493554296339741239e-03,-1.780766973447017905e-03,-3.912807173495789700e-03,6.156772954250992920e-03,4.993377625942230225e-01
3.788700338946024426e-01,4.612378594679665267e-01,1.525092350964540877e-03,-1.562600724828040466e-01,1.656624541383901542e-02,1.889593836644830327e-02,5.053719878196716309e-01
4.713809103985407423e-01,5.062106625240193614e-01,-7.029576002137327695e-03,-8.524434183088866121e-03,-2.040817924047836403e-03,-1.086172520159569069e-02,4.973299205303192139e-01
5.086167544044857269e-01,4.639713122378497090e-01,-3.492867805852001295e-02,-5.583096229283658098e-03,-7.515621210971286555e-03,-9.213754464828100704e-03,5.231497883796691895e-01
4.939734727195324582e-01,4.971264913988536760e-01,1.272181365002700293e-02,4.144235016928925729e-03,8.637976403212229565e-03,-2.731054288730422070e-03,4.831441342830657959e-01
4.957118155976867335e-01,4.849507132120327579e-01,-1.194502205908154480e-02,1.936793990329585720e-03,-3.170195754746360246e-03,-3.650549114482227819e-05,5.024039745330810547e-01
4.985233438841377152e-01,4.911090333719440038e-01,5.358004401595894972e-03,1.326981081769147090e-03,-4.728016788635956702e-03,-8.381543108951224758e-03,4.897893965244293213e-01
4.999120954033433040e-01,4.931495686793224698e-01,1.133161048611186494e-02,6.235859292378137173e-03,-5.868876999436858227e-04,-9.583810140142784428e-03,4.856396019458770752e-01
5.182174701500954495e-01,4.768804220530614701e-01,3.557991413387961988e-02,1.694558280264251912e-02,5.918089421950449049e-03,1.242151984392152013e-02,4.648939371109008789e-01
5.202512639338043865e-01,4.311503664307679839e-01,-2.680031618348688305e-02,2.135241275494880776e-03,5.203363059523100770e-03,3.356423381687907714e-03,5.085177421569824219e-01
4.962061636703032907e-01,4.892837710637792936e-01,2.663548066600229802e-02,3.714834365148876605e-03,-4.943082285906292249e-03,1.669173810157143986e-02,4.671665132045745850e-01
4.959378992020212484e-01,5.000902746036355317e-01,2.749530852012166404e-02,4.228876987531762430e-03,-3.312957983543821094e-03,1.058940434974647155e-02,4.709817767143249512e-01
4.879742164298371820e-01,4.993502929573354621e-01,2.597112185018918273e-02,1.234790689691093882e-03,-7.714612790879153269e-05,1.143508350876084635e-02,4.682188928127288818e-01
4.496623561831393223e-01,4.177372289720133747e-01,6.502776504963281301e-03,-7.232395687437313640e-03,-1.974496754385377580e-03,-2.999437492552610440e-03,4.283191561698913574e-01
4.365753404793398795e-01,4.233223584766934167e-01,6.179364009362420251e-03,-1.001920560499307104e-02,-2.869795385459652549e-03,-2.623760442870867304e-03,4.243333935737609863e-01
4.971802714458589678e-01,4.786569542943336364e-01,-3.493376659043367916e-02,-5.660551440226666367e-05,-2.428788042351435594e-03,-2.701541866510960652e-03,5.231362581253051758e-01
4.258984066680853164e-01,3.862341642154460408e-01,8.394169594542366664e-03,-6.854306999023000724e-02,1.038485077657307683e-03,3.928780881586467662e-03,4.164937436580657959e-01
4.449004008155945100e-01,3.985922707105450380e-01,7.560187072848334466e-03,-2.305038290390149652e-02,-1.618883081771947717e-03,-9.218638694468204650e-03,4.183482527732849121e-01
4.635804748578999934e-01,4.328647745224346033e-01,-1.658015995483197447e-02,-2.713424104276369875e-02,-1.671298528383340434e-02,-1.661147165886499646e-02,4.697060883045196533e-01
4.377753605953741411e-01,4.368902257939659695e-01,6.130388502700867548e-03,-1.521600296753469056e-02,-2.900229913586258555e-03,-1.135879347425534968e-03,4.320414066314697266e-01
4.575123027232255724e-01,4.344057403070800127e-01,-1.586463125344078628e-02,-2.696983199574595064e-02,-2.006354041578164993e-02,-1.846056705781181154e-02,4.670049846172332764e-01
3.907547037269791801e-01,4.268566655121883713e-01,7.847004055956785518e-03,-6.947776916127941516e-02,-1.285932653185271370e-02,-7.943686388291763475e-03,4.206093847751617432e-01
4.367899472510397008e-01,4.802951107277038112e-01,-2.155046549943173684e-02,5.689279464119870178e-02,-1.359159790764752004e-02,8.679366022874689113e-03,4.923407137393951416e-01
4.345243688362777634e-01,4.797027713865542609e-01,-2.899567501068334163e-02,6.637078963272967369e-02,-1.742686437043997408e-02,2.569351340191921435e-02,5.039244294166564941e-01
4.070162502004012195e-01,5.121549758496188876e-01,-2.859298604406118605e-02,1.007277621073763008e-01,-1.254081603137064890e-02,6.375843070189043775e-03,5.269165039062500000e-01
4.527745899695252429e-01,4.518764845309318212e-01,-1.758414916491846114e-02,-3.097827594510661059e-02,3.010296348699680047e-02,2.875886117969703865e-02,4.784291684627532959e-01
4.070256128275401286e-01,4.566913382055119430e-01,-1.730370113323925763e-02,-5.950999683116739436e-02,2.543468935994573979e-02,2.858226294676203746e-02,4.675602614879608154e-01
3.961814758872658770e-01,5.204144989085630613e-01,-1.635761724431883390e-02,-8.724779352329689597e-02,1.698473592914249292e-02,3.677387326867761347e-02,5.144242048263549805e-01
4.898271653752172550e-01,4.983405049920897611e-01,3.010444157157277090e-02,2.274377758889459689e-03,5.763899557447780923e-04,4.982350188732690040e-03,4.641360044479370117e-01
4.290517826704315363e-01,4.500617452768356785e-01,1.867241899945248917e-03,-6.898975603336898743e-02,1.341341743506910093e-02,1.387826962341891408e-02,4.553015828132629395e-01
4.051353769057562393e-01,4.162389894303215043e-01,-1.582160574954094567e-02,-1.006661945317051665e-01,4.648320322770606305e-02,5.467127143584710885e-02,4.773386418819427490e-01
3.328392076996176119e-01,4.361340233198977567e-01,9.081117755684875448e-04,-1.203247825798601373e-01,2.048049042296535074e-02,1.598286615521103682e-02,4.478768706321716309e-01
3.819880792395472513e-01,4.909891216956833171e-01,6.852763381087312311e-03,-6.293770897549402776e-02,2.252874122793668138e-02,1.821276259450653814e-02,4.559595286846160889e-01
5.098287868485475993e-01,4.660824484156547709e-01,-2.220370079442957056e-02,3.096712342669891323e-03,-1.060658339533335172e-03,-1.291520613173940870e-03,5.116004347801208496e-01
5.213622183429232892e-01,4.071181068222449739e-01,-2.626776277394021752e-02,9.242890739441309966e-04,4.313034958132151188e-03,-1.170997846312870662e-02,5.008558034896850586e-01
5.142969765635827528e-01,4.265618232546618538e-01,-2.503931227908412493e-02,-5.284875676496061936e-03,2.231987262041569813e-03,-1.859164533828847055e-02,5.023922920227050781e-01
5.122332825442400539e-01,4.731482378211217532e-01,4.799038603899408173e-03,5.102849283204942616e-07,-9.081083518477703689e-03,-1.560224502444913959e-02,4.900630116462707520e-01
5.256157318389002020e-01,4.540762969031159058e-01,-1.269132689971691486e-02,-1.441291495082748161e-02,1.571218058319041747e-03,-2.703834614734831540e-02,5.091227889060974121e-01
5.038370841870577488e-01,4.857651918010403858e-01,-2.543252329201511897e-02,1.196772436824758033e-03,-4.334890013265036736e-03,-1.292302888178548798e-02,5.210083127021789551e-01
4.710128184391447759e-01,4.812742297440831263e-01,-2.766117598808959244e-02,2.583624694559207100e-03,6.904589369014829149e-03,-9.251032263315866686e-03,5.042994618415832520e-01
5.088385781277735553e-01,4.655202923823600347e-01,-2.993415017486183993e-02,-8.296775081526769650e-04,-3.054252357339130863e-03,-1.068235981240488013e-02,5.188315510749816895e-01
5.102743618539188342e-01,4.423777214510019595e-01,-3.001133899443247932e-02,-1.121572308166582897e-02,-1.527962993797454122e-02,-1.949680098124972200e-02,5.119112730026245117e-01
5.141724219670669171e-01,4.621539466536602192e-01,-2.407307725101015539e-02,3.698001822882028816e-03,-1.871396009518314519e-03,1.209856749329304808e-03,5.142678022384643555e-01
5.165945913925780175e-01,5.064633130098281644e-01,1.145869909699603895e-02,1.761300599100713155e-02,2.034147399308920690e-02,-2.331658467813973665e-02,5.039347410202026367e-01
5.263305807015735693e-01,4.734507573519366463e-01,3.806797970895142713e-02,1.634350121285010893e-02,2.819913593122324973e-03,-4.285585799949260220e-03,4.650351405143737793e-01
5.131570925316216725e-01,4.747869549643637388e-01,3.817759831002487392e-02,1.174012123198782225e-02,-1.818844894263131878e-03,1.530660971092388020e-03,4.574747979640960693e-01
5.364948116735762662e-01,4.877448633533368327e-01,8.352460102881625881e-02,1.149483974157631226e-02,5.477432845405807819e-03,-4.524388269826693648e-02,4.382963776588439941e-01
5.306665516019936080e-01,4.851195345201838593e-01,8.228945997811570878e-02,1.593045273089764222e-02,3.408810311872647464e-03,-4.330652839934192450e-02,4.348756968975067139e-01
5.504012588582384291e-01,4.514519806027607607e-01,1.015092038433068611e-02,3.225766073412981300e-02,-1.605237032042442988e-02,-1.509302807573102700e-02,5.027744174003601074e-01
4.330169868932697286e-01,5.206677500323064756e-01,-3.503171663645243683e-02,7.677836070418727872e-05,1.370103239918440095e-02,5.158474148093599582e-03,5.180927515029907227e-01
3.777049181463844052e-01,5.535162584047460532e-01,-1.651303356883421225e-02,5.112855952219483302e-03,2.578742316604807142e-02,3.876681260501285350e-03,5.076848268508911133e-01
3.887273534027688715e-01,5.589892016543911435e-01,-1.836257718375733372e-02,-2.759891355240917318e-02,2.220894043775543253e-02,8.279001964215725734e-03,5.176810026168823242e-01
4.247973575304001548e-01,5.668446220234067967e-01,-2.010279203279141669e-02,2.768853485184063004e-02,1.880938171433632622e-02,-7.152908668870213912e-03,5.336902141571044922e-01
4.691982879060880296e-01,5.224194731105866740e-01,-3.507687316695329294e-02,1.056315161535906905e-02,7.450593775589870252e-03,3.104303269045330816e-03,5.333800315856933594e-01
5.002017959354101428e-01,4.764741074138645338e-01,-5.313886515657118004e-04,4.420322085392721506e-03,4.975634199159027424e-03,1.776235579648837966e-03,4.894464612007141113e-01
5.262495367260020540e-01,3.385890184590915619e-01,-8.618469646578752474e-03,-7.465728969712198682e-02,-1.794789640483719639e-02,-3.563086329417913811e-02,4.923645257949829102e-01
5.247797560551246132e-01,3.066785277350107530e-01,-1.299220687309543543e-02,-9.986491603106235904e-02,-9.545967024674858331e-03,-2.794578573664002405e-02,5.020093321800231934e-01
5.184571133956690225e-01,3.215358029552469188e-01,-6.202205315417264053e-03,-6.232005243008811174e-02,-2.109761022935418770e-02,-3.191012653577605246e-02,4.762040078639984131e-01
5.474565074904389483e-01,2.811533956179641525e-01,-2.209078389430640943e-02,-1.023451534193502849e-01,-8.854799851382566880e-03,-4.191163624444532027e-02,5.296770930290222168e-01
4.989971897262830414e-01,5.057730827674403740e-01,2.203619785259292030e-04,9.255918615540698058e-02,-3.336839671237208649e-02,-8.563421091972151346e-04,5.303282737731933594e-01
5.230462312527328628e-01,4.083263698636679928e-01,-1.114443141177301477e-02,3.821864630256624484e-02,-2.334151908579186301e-03,2.438702502948081330e-02,4.933766722679138184e-01
4.909959406381487756e-01,3.935166436267980572e-01,-2.552880279698949151e-02,6.122603548488943226e-02,-1.652779336581963049e-02,3.865254253286366098e-02,4.924398362636566162e-01
5.175459230632546426e-01,4.480775491796095134e-01,-1.490063090564658355e-02,1.444599985164835704e-02,-1.705473883094790755e-02,1.245013999160513203e-02,5.032898187637329102e-01
4.843569024796274824e-01,4.990647368512519111e-01,3.000304184796331874e-02,5.103581999389061354e-03,-5.407889400632112480e-03,-1.286462680318880159e-03,4.620683491230010986e-01
4.996057824275176307e-01,5.132275968665871435e-01,3.334509128835494440e-02,2.125853161690346473e-03,-1.685394691335340492e-02,-2.983640756718111209e-05,4.741325080394744873e-01
4.677803752865685727e-01,5.072957762656903347e-01,-5.318675361212221731e-04,2.769836729831561331e-02,-1.809719167704233397e-02,1.631264923776496248e-02,4.934225380420684814e-01
4.622153460859206864e-01,5.800983255304363873e-01,2.183181431311431719e-02,3.351563964761353209e-02,-2.029344209877903885e-02,-1.782973515512157811e-02,5.150794386863708496e-01
4.907616758955919978e-01,5.245426476999656140e-01,4.534437229789728407e-02,2.711517836798922956e-02,3.242283765136585050e-03,-1.942671632806808671e-02,4.668551981449127197e-01
4.993406880552129223e-01,4.811294885668969679e-01,-8.629494607897414404e-03,1.443501780071466652e-03,3.570536040439180672e-03,3.205847386982365373e-03,4.991892874240875244e-01
4.876107760115218070e-01,5.008615711559017969e-01,2.831680779990453090e-02,9.350515984715316448e-03,-7.185183832475754064e-04,-1.460611109072945842e-02,4.670293331146240234e-01
5.083122712878340721e-01,4.672931445560755126e-01,-2.868864344074728567e-02,9.356901693627663052e-04,-5.533628714433318566e-03,-1.226266890120024725e-02,5.182382464408874512e-01
5.023399348870224435e-01,4.779617263233766344e-01,-2.805474413622482954e-02,-2.441249636990079543e-03,-7.720791450960865724e-04,-2.252921972234322740e-03,5.186691284179687500e-01
5.037769384579653398e-01,4.724710025231204646e-01,-3.243554057661296453e-02,1.066011313806059868e-03,7.808201208867163222e-04,-3.569746537139966563e-03,5.213067531585693359e-01
5.039596660838383535e-01,4.663139937272972047e-01,-3.256588891927653107e-02,-6.363836317560810649e-05,3.034737795332393719e-03,2.592816403496106276e-03,5.187743306159973145e-01
4.990750208718535696e-01,4.459784516285236755e-01,-2.369135247732895300e-02,1.963967468893886015e-02,9.809783026700989381e-03,-1.861418877440514444e-02,5.008314251899719238e-01
5.048078595681336767e-01,4.556989815426165658e-01,-3.035328945765919384e-02,2.091521586867530098e-03,7.071346641434597333e-03,-1.366829347534312747e-02,5.130804777145385742e-01
4.955970698586980583e-01,4.826835819270391958e-01,-1.098305777773339598e-02,-1.742329908888144631e-04,1.341705224895971748e-03,1.852879471219416336e-03,5.002641677856445312e-01
5.011849863680122308e-01,4.617234860247607098e-01,3.932590293132476322e-03,-1.120781580372106874e-03,-4.364012742987087720e-05,-3.876770586409645971e-03,4.787940084934234619e-01
5.405880217192605697e-01,4.390285665071035903e-01,-2.761285145370812044e-02,1.139809280479295653e-02,-1.903645329530417526e-03,-1.054108219360463429e-02,5.255419611930847168e-01
5.158154432685442270e-01,4.255034752785944452e-01,-2.025467884274617658e-02,-2.508350027820198196e-04,-2.237924608048223393e-03,-2.490365054794275307e-02,4.989886581897735596e-01
4.718177856439618179e-01,4.689548586729275215e-01,-3.495071960528856048e-02,2.043690528627718772e-03,6.812639171591194703e-04,4.124468197105627884e-04,5.053573846817016602e-01
5.120511425125486848e-01,4.479184399764947200e-01,-2.178210792107787563e-02,2.258170828071549418e-04,6.721205718729176930e-03,-8.850528383746062572e-03,5.051984190940856934e-01
6.405615207550837686e-01,2.450327493951117153e-01,-2.122640302007111623e-02,-1.127081393488781925e-02,1.398283538864170030e-03,4.170498486533586770e-03,5.771388411521911621e-01
5.723914437649002540e-01,3.002394796167275337e-01,3.336079396065172453e-03,7.537525682275511910e-03,-3.993113882559388809e-03,-1.750792587377981643e-02,4.941245019435882568e-01
5.792698290208019296e-01,3.077091083257917914e-01,-2.607020758487454959e-03,1.627672181264379000e-02,7.250263091705898798e-03,4.045148888841424220e-03,5.052846670150756836e-01
6.441764369720355266e-01,2.456920968222431889e-01,-2.728048808230393307e-02,-1.361468283886942132e-02,1.307145021067395406e-02,1.474678743767843855e-03,5.857937335968017578e-01
5.645333128085212593e-01,2.875327997714476336e-01,-2.431659244094219741e-03,-5.376926686797911699e-03,6.872975757872579715e-03,7.585403474557832378e-03,4.914570450782775879e-01
5.684606154092820551e-01,2.721334777838770314e-01,-6.656724629933274962e-03,-2.407411006800520142e-02,3.258422219237595060e-03,-5.194911792027531857e-04,4.999181926250457764e-01
4.874586185915642522e-01,4.825495283278697922e-01,-3.010425035509406433e-02,-5.208654775221234273e-04,2.110849374731048854e-03,-6.702266971002456952e-04,5.151409506797790527e-01
4.780117100065514046e-01,4.091690144304051535e-01,-2.495851257036035831e-02,-6.821430097552667882e-02,-1.532091114285215674e-02,-2.223499191981222201e-02,4.891211390495300293e-01
5.024784538317961236e-01,3.756889480529288505e-01,-2.948477730543314079e-02,-8.354676756511579538e-02,-4.564488952724892606e-02,-4.699529241974869515e-02,5.151983499526977539e-01
5.507090213477352503e-01,2.832742433580658359e-01,-6.929731876517464251e-03,-7.101624259922194315e-02,-3.397114620129060292e-02,-4.315463335618674456e-02,5.074734687805175781e-01
5.009330445273392218e-01,4.161293281594948268e-01,-2.258122185058220044e-02,-5.160626342385125909e-02,-2.610650595622039660e-02,-3.307928420292467059e-02,5.001798272132873535e-01
4.797355573613596436e-01,4.698553574982924363e-01,-2.213746062899396572e-02,7.226616655073198102e-04,-8.526170145147450932e-03,-1.261216648139184692e-04,4.972275495529174805e-01
5.025456226941269477e-01,3.797823526064451616e-01,-1.032771761420170353e-02,-7.111333923346771502e-02,-1.685888056994192322e-02,-3.857633452607327207e-02,4.854238033294677734e-01
5.140498140575998631e-01,2.923946450279274467e-01,-9.844885388508028967e-03,-8.599081578489475852e-02,-1.419640156948060415e-02,-2.544001808975492052e-02,4.818736016750335693e-01
5.448902463552522946e-01,3.570743665611875173e-01,-2.094291236330786399e-02,-3.640191532981605638e-02,-8.491405274246681401e-03,-3.934366821257456043e-02,5.079418420791625977e-01
5.540784345853735360e-01,3.672470470423242483e-01,-2.557205333836753969e-02,3.750950509180615150e-02,9.804221486673344102e-03,-3.564782538941074080e-02,5.205048322677612305e-01
5.329447836809748651e-01,3.701011334565686983e-01,-1.668534325503234772e-02,3.942936251043673707e-02,7.557921416612251204e-03,-2.731321362889137933e-02,4.961662888526916504e-01
5.771115598400906599e-01,2.319623925963039679e-01,-1.824230317114472477e-02,7.858427485608548979e-02,2.053085172442679907e-02,-4.943063541009289769e-02,5.433318018913269043e-01
5.682003714553779394e-01,4.087940873511002327e-01,-2.398278203297909972e-02,8.003268687572905049e-02,2.417431106038500643e-02,-1.834128205773408529e-02,5.510640740394592285e-01
4.928718540117212887e-01,5.026673957441862850e-01,1.986213045963353130e-02,-4.740974596029129060e-03,-3.585095365472430046e-03,-2.514933718956212285e-03,4.781134724617004395e-01
4.877929906225122458e-01,4.373465255523810713e-01,-1.267426477871186341e-02,-4.593993836741765147e-02,3.774176574665017575e-02,3.026672461995196656e-02,4.910381734371185303e-01
4.851207860875302869e-01,5.025341356372750035e-01,-2.706862706445833933e-02,-7.460876549327862678e-03,7.007276581140397739e-03,7.985861153721733607e-03,5.215992331504821777e-01
5.015805482515052205e-01,4.640725036905944956e-01,-3.603727688469415824e-02,9.124754688255075439e-04,-5.214874806015915021e-03,4.495854557301857523e-04,5.199610590934753418e-01
6.052174146812852040e-01,2.761620505738974773e-01,-1.062601578593685980e-02,-5.243952300301290420e-03,-1.544456105765699451e-02,-5.534408050242112243e-02,5.430294275283813477e-01
6.231278145605281260e-01,2.705502052847382211e-01,-1.914479273583363783e-02,-2.435801201366431454e-02,-1.529683653425455495e-02,-4.192605307774024959e-02,5.640296339988708496e-01
5.757127493868628987e-01,3.578968102111958483e-01,-2.316335161261395825e-02,-6.888754390744962486e-02,-1.432471202159937493e-02,-1.684557669860301671e-02,5.397731065750122070e-01
5.426011564211958849e-01,3.679124715099090781e-01,-1.687889181326990284e-02,-5.893076240026759449e-02,-1.093989930265702563e-02,-2.627802540413646040e-02,5.085748434066772461e-01
5.443257113182382589e-01,3.045027166494562731e-01,-1.538676213376027890e-02,-2.177640397833918717e-02,-9.464909606862949298e-03,-3.375978702312860263e-02,4.916012287139892578e-01
5.618808965854885651e-01,3.140790845045103308e-01,-1.273881044008129404e-02,-2.840137963981433783e-02,-7.201965121774990541e-03,-1.373998655147471229e-02,5.023381710052490234e-01
6.141233549654716573e-01,2.839238836616506667e-01,-1.632679919961727011e-02,-2.698298190902505278e-02,-1.815417626302799625e-02,-3.241118841485110535e-02,5.519503355026245117e-01
5.403132823187848377e-01,4.966800612864306075e-01,7.223590270572854966e-02,3.677057412034059197e-02,4.810941923465567732e-02,-3.729658730657377241e-02,4.644883573055267334e-01
6.145861782515227301e-01,3.067371563344216678e-01,-2.753426762941668660e-02,-4.362756463089700887e-02,-4.999080336445423101e-03,-3.515306772615578446e-02,5.647174715995788574e-01
4.791314896311164584e-01,4.851603738728118564e-01,-2.922114426820171529e-02,2.986393759841400250e-03,-5.620930488473346517e-03,4.727755000852105864e-03,5.115780830383300781e-01
4.751709611245967801e-01,5.011261303105820630e-01,3.452901790728546416e-03,7.888547935367262037e-03,-1.750798664591243781e-02,8.408753663024442354e-03,4.865732491016387939e-01
4.759325077007057203e-01,5.002799937691592147e-01,-2.783663455030599421e-02,2.187227924350930355e-03,-4.433734281759625119e-03,5.432611997995994389e-03,5.165302753448486328e-01
4.883046330727104367e-01,4.949955495366523683e-01,-2.665757995566991889e-02,1.022960459437783493e-02,2.494068996557163506e-03,1.106308727141338405e-02,5.190146565437316895e-01
4.760035525173782478e-01,4.963635339972596872e-01,-2.877053425943554288e-02,5.878796513901660310e-03,-1.113194302057337638e-02,8.206108981746035314e-03,5.159128308296203613e-01
4.507438793693706591e-01,5.059708518330257032e-01,-2.748727675095163914e-02,1.288365724893408837e-02,-1.133121727462948862e-02,8.733066894794288409e-03,5.091937184333801270e-01
4.882609080280678748e-01,4.940377949514604405e-01,-2.700259516078229449e-02,-2.015451831145863640e-03,-3.789609673306324530e-03,4.277619366860539209e-03,5.182824134826660156e-01
4.963623270214826966e-01,4.164757435670639052e-01,-1.845495786539791405e-02,4.418213498478209406e-02,-2.525548868610309056e-02,3.337900447182395175e-02,4.913286864757537842e-01
4.437330846391260852e-01,4.828619867265678267e-01,-2.429358272076193037e-02,-2.094814867754333024e-02,-2.540499837899636015e-02,-2.551459940107283358e-02,4.940638542175292969e-01
4.785832836457067918e-01,4.826874490609498469e-01,-2.556023298946263900e-02,8.637770832434744916e-02,-1.253066260867582993e-02,1.210178640109831755e-02,5.287157893180847168e-01
4.951162197548047983e-01,4.875252636794558114e-01,7.876600380587567285e-02,-3.608810727885239551e-03,2.008801907448349439e-02,-8.098313343543094359e-03,4.143561720848083496e-01
4.878919247087853406e-01,5.070581977171297883e-01,-1.859814971220280500e-02,1.737964892317484661e-02,-5.288425634021308788e-03,1.451652300825330031e-03,5.173040032386779785e-01
4.821058763584812334e-01,4.923157038774466088e-01,-1.827046964289752440e-02,2.868397787624793124e-02,-1.337749490996513815e-02,1.486800180386386831e-02,5.091736912727355957e-01
5.009257140423872823e-01,4.812599007663737050e-01,-8.636322097844317813e-03,3.100542937314191075e-03,-3.788728623298110603e-04,-4.253123049544617037e-04,5.000490546226501465e-01
4.903865174347901701e-01,4.595157243856562435e-01,-1.529776381927766549e-02,2.829954602519894197e-02,-7.958507548497565157e-03,1.221373682559834424e-02,4.940636157989501953e-01
4.910654807908949593e-01,4.567355631414561357e-01,-1.248000130743426306e-02,2.880428313425340003e-02,-4.017613717350117415e-03,7.136350243644292747e-03,4.900410175323486328e-01
4.742198194818144086e-01,4.471263830032716768e-01,-2.295646182566429827e-02,3.409059239894554616e-02,-1.930621558033900759e-02,1.960589319169646350e-02,4.901081025600433350e-01
6.139788134867877334e-01,1.777725936209487989e-01,-2.768920575136613049e-02,8.073085004253510721e-02,1.058970650260211352e-02,-4.013416429339098680e-03,5.848515033721923828e-01
5.776440406499605551e-01,2.468469254836862248e-01,-1.653416506102106664e-02,1.642852763010546960e-02,-4.931857739072559657e-03,-7.479830639225894685e-04,5.165330171585083008e-01
6.503541848581148033e-01,2.786316836988236845e-01,-2.688146325442447582e-02,5.412838346149502489e-02,-1.858672501906941804e-03,-4.271829643188430198e-02,5.994635820388793945e-01
6.475942206852534078e-01,1.394337163250229106e-01,-3.583991087552934607e-02,1.555192812857822404e-02,7.461491355653382396e-03,-2.116860278088736336e-02,6.166457533836364746e-01
6.022927479711019938e-01,1.306548831790718124e-01,-1.396215826838952123e-01,-3.229419927580014227e-02,8.804685693585387329e-02,3.084911524903449775e-02,6.724616885185241699e-01
6.884010638620490230e-01,1.144159417274883128e-01,-1.231750945920466467e-01,-3.620445648109794218e-02,3.325780977893970369e-02,-8.512212200042742257e-04,7.276914715766906738e-01
6.329030374201910503e-01,9.898926321163906139e-02,-3.301502731791053358e-02,-1.123698382449629801e-01,1.844256357050774731e-02,2.560407384299795766e-02,6.433008313179016113e-01
6.461663228502432244e-01,9.626978867222255043e-02,-3.968252781638559323e-02,-2.174057233579099538e-02,3.015005794432856073e-02,3.310556762817663812e-02,6.348715424537658691e-01
6.398604571805782681e-01,2.121105537601414293e-01,-1.964701516334937947e-02,-3.059589590945135246e-02,-5.595441559370282342e-03,-4.799928637501339745e-02,5.879029631614685059e-01
5.733396298886968001e-01,2.266251161405783976e-01,-1.796807985390669327e-03,-3.214977458230891538e-02,7.363825177408104758e-03,1.328732527502078653e-02,5.053492784500122070e-01
5.520278750954522584e-01,2.173447764512298486e-01,3.861085036164224604e-03,-5.791041552228417405e-02,7.427410873368660337e-04,-6.212096973749610743e-03,4.890968501567840576e-01
5.017615851175739605e-01,4.091984397740168755e-01,-1.611281574516548742e-02,-5.382138917064206024e-02,-1.484923939711075939e-02,-2.900382018820360508e-02,4.906130135059356689e-01
4.916828095912224028e-01,4.519139366660656076e-01,-2.988664298788007434e-02,-4.226953399265646200e-02,-2.043117430209906091e-02,-3.021027215179245343e-02,5.120785832405090332e-01
5.052451799032788848e-01,4.433824864364204754e-01,-2.628137303318495155e-02,-3.925861124120735846e-02,-9.039769548453181758e-03,-2.408798932490821901e-02,5.099758505821228027e-01
4.767553808946914939e-01,4.545121434352558110e-01,-3.383557339452469837e-02,-6.412452054195383333e-03,-1.179322162451720835e-02,-1.256422622804188351e-02,5.008541345596313477e-01
4.648386439997740371e-01,4.673472666130847886e-01,-2.815109457356873568e-02,-2.361120508692341260e-02,-1.871562542013964839e-02,-2.053513106518205233e-02,4.982672631740570068e-01
4.737796778108980256e-01,4.585025518167984426e-01,-3.402443780230746118e-02,-1.117490056866100347e-02,-1.275201524885941420e-02,-1.293239604653201313e-02,5.017019510269165039e-01
3.649791822980077427e-01,4.732072487777788106e-01,-4.242113509035361218e-03,-1.328641321055705760e-01,8.102162289867695377e-02,5.856695252522987200e-02,5.205191373825073242e-01
4.263014194088123876e-01,4.401195628061950749e-01,-2.127203789253873101e-02,-1.202906675541237091e-01,6.013084568130457747e-02,5.343955106308771047e-02,5.191547274589538574e-01
4.688529520321554345e-01,5.122834907669164828e-01,-3.584269679796919794e-02,-6.267517004268234604e-02,7.660744723214009400e-02,6.057788165364783040e-02,5.647324919700622559e-01
5.146613995775759509e-01,5.076135521726186095e-01,6.686159698935545403e-02,3.727929936222702106e-02,2.848016706590407107e-02,-4.842644542837452187e-02,4.594086110591888428e-01
4.782077744176422840e-01,4.761326994413140890e-01,-3.896671174340599064e-02,-6.975319820012924887e-02,7.626166022300762126e-02,5.307641029862842502e-02,5.539819002151489258e-01
4.974922252047985216e-01,4.954388504068086840e-01,-2.783390676984331957e-02,-9.494019530536527279e-03,-2.978433533096298130e-02,-2.377309703430749085e-02,5.286967754364013672e-01
4.080541664284234038e-01,5.169990615001570644e-01,-1.775517952716509917e-02,-4.134620716823668440e-02,-4.590081469130553177e-02,-1.438189050309143097e-02,5.016393661499023438e-01
4.208184708880505220e-01,5.057112656506799198e-01,-1.611358199411894176e-02,-4.258577016781896207e-02,-6.227035222366730793e-02,-3.695487558907010334e-02,5.063390135765075684e-01
4.963631126164356200e-01,4.930112162060189540e-01,-1.915741316680885653e-02,6.133932036048738573e-03,4.680068806280233452e-03,-1.085534925655273764e-03,5.140299797058105469e-01
4.708187791794968824e-01,4.594541272672533760e-01,-8.206579559432158888e-03,-4.293259626169489140e-02,-3.024841479787638773e-02,-3.159005137386666773e-02,4.851997494697570801e-01
4.098698959597230074e-01,4.941596889636509227e-01,2.174370788731394555e-03,-4.743123934157673915e-02,-2.371728763377191351e-02,-2.465757354921391253e-02,4.668465256690979004e-01
4.496655361575049303e-01,5.088743197345828584e-01,-3.185448176439048540e-02,-7.377262534156485418e-02,-2.344136324885346886e-02,-1.810328726012475076e-02,5.318235754966735840e-01
4.968977957605625884e-01,4.912641885179365175e-01,1.085509305272641667e-02,3.275747842591830044e-04,-2.954383611218417555e-03,-1.033294979412913324e-02,4.836092293262481689e-01
4.810725648927232090e-01,4.952741867698501332e-01,-2.751550628845905733e-02,-5.096310269353730889e-03,-2.388030834828621524e-02,-2.674770093930604192e-02,5.196357965469360352e-01
4.902059654377250997e-01,4.874749404530255847e-01,-3.357083646798242338e-02,2.985860712762562701e-05,-6.505704069431714892e-05,-1.297501770116710586e-03,5.224214792251586914e-01
4.825549343725481499e-01,4.924745774891782224e-01,8.641293793005933033e-03,-7.274869276796709638e-02,-4.625211349531879734e-02,-1.002058775198009892e-02,5.019857883453369141e-01
3.926626621524189620e-01,5.421151462609192784e-01,-2.664764304263467221e-02,1.640460904194403213e-02,-2.110908371270427825e-02,1.301334545928916654e-02,5.132994055747985840e-01
3.752617590423721894e-01,5.079760695493542588e-01,-5.110470122058952125e-03,2.891782847643561624e-02,-1.144001407096564317e-02,6.849498392085887066e-03,4.645632803440093994e-01
4.058163605168437771e-01,5.153925129832050978e-01,-2.498277270898757729e-02,3.186333998617347368e-02,-2.744008795117171273e-02,5.854009226596693961e-03,5.002076029777526855e-01
3.697954029858854241e-01,5.470481500337420755e-01,-2.987742610917276664e-03,2.282010882588014072e-02,-1.084121371639639418e-02,1.453227395986646416e-02,4.888875782489776611e-01
5.332587089792852897e-01,3.525783942051828324e-01,-4.904466763108794591e-03,-1.081715974295010541e-01,-2.065067952966966047e-02,-4.254215271845290802e-02,5.165671706199645996e-01
5.034366746059785180e-01,4.432974621009235228e-01,-2.637084971806785694e-02,-3.992213716513397237e-02,-2.798397735728908389e-02,-3.557510673315657929e-02,5.132036209106445312e-01
5.403682726350758081e-01,3.208162697944046959e-01,-5.486500203504107720e-03,-5.351087852109209786e-02,-3.670297571656018845e-03,-2.132340911537835421e-02,4.861190319061279297e-01
4.765081125454307953e-01,5.022681960409246527e-01,-2.893713386430807333e-02,-1.527017438212753715e-03,-1.039756605733468562e-03,-4.006964891433434242e-04,5.188155174255371094e-01
5.215331546900190407e-01,3.465460159741223234e-01,-4.673292777651494312e-03,-4.928565118682060736e-02,-6.525298514590391688e-03,-2.216487404811663675e-02,4.736276865005493164e-01
5.004528688650109469e-01,4.238633067128345644e-01,-2.637694522529843155e-02,-2.145058280311317594e-02,-2.444454193405135381e-02,-3.596344710584285093e-02,5.001190304756164551e-01
5.458397605103210148e-01,4.044177570823295764e-01,-2.626413182233361399e-02,-5.432794314901592987e-03,-1.532314124038146666e-02,-2.498278766914268159e-02,5.187102556228637695e-01
4.733187913220622267e-01,4.981522077135821513e-01,-1.894210383906608230e-02,6.192502988930378462e-03,-7.550108686934568075e-03,4.253144678355960965e-04,5.054192543029785156e-01
4.834683852481753696e-01,4.934373845192823183e-01,-3.057479864677936643e-02,-9.858498313003052991e-04,-2.090685651079665554e-03,3.474581916731316750e-03,5.191497802734375000e-01
4.422754861212981892e-01,4.708782790693919473e-01,8.655634916499010956e-04,4.962695195596683595e-02,3.198816134445419583e-04,2.434664141819533126e-03,4.644275903701782227e-01
3.808759298013582040e-01,4.460934279067397812e-01,-5.353703437928181152e-03,8.925530331792150274e-02,-1.013686462176219792e-02,1.821422112167397911e-02,4.514628052711486816e-01
3.239526438126487662e-01,5.191281286736192380e-01,-1.333869180875829619e-02,9.953567022582769652e-02,1.475323414139909431e-02,3.755641186049225866e-02,5.022911429405212402e-01
3.760086066705677910e-01,4.785848734335369503e-01,-3.072677686723312984e-03,9.048241631381802319e-02,-1.105463895177934142e-02,2.599740571847748011e-02,4.691105186939239502e-01
4.515390595396655549e-01,4.695654992735136535e-01,-3.801680189096712237e-03,4.866729384781403461e-02,-1.405594794439716036e-02,1.579152300683782373e-02,4.736186861991882324e-01
4.171270676334221106e-01,3.363212800786156698e-01,-1.403289113815650579e-02,1.883076921526827541e-01,1.754174313217712541e-02,-1.971408180806209776e-02,5.158068537712097168e-01
3.631916234631260010e-01,6.045612707135363806e-01,-2.063086392461516150e-02,1.832907664960391481e-01,-8.779156984702586597e-03,1.158714293126263985e-02,6.321729421615600586e-01
4.243949791939397587e-01,5.267780743755197115e-01,-1.575888582533724325e-02,1.575238690794465435e-01,9.826405035998523468e-03,2.335074882364261001e-02,5.706564784049987793e-01
4.076593330409323257e-01,4.549333400254486071e-01,-8.807259372064946135e-03,1.033837931636549801e-01,-9.089064375661917369e-03,7.413935110864892757e-03,4.773307740688323975e-01
4.494655126058929029e-01,5.092277825251578793e-01,-2.708968638917819138e-02,-3.118768446547134227e-02,-2.065423819208945036e-02,-1.734991214899413159e-02,5.140596032142639160e-01
4.897194384213638951e-01,4.910630933862218939e-01,-1.163722150521318000e-02,-1.543204954449160261e-02,-1.163308919461741170e-02,-7.916135170510004912e-03,5.033313035964965820e-01
4.687649808333504975e-01,4.926743546742087809e-01,-2.561372216195745288e-02,-7.152137679696178932e-03,-6.753224083697260439e-03,-4.378976804931374728e-03,5.070996284484863281e-01
4.661603884561477118e-01,5.061558728613128055e-01,-2.787512340446041126e-02,-2.479850833194638306e-03,-3.284049146633040168e-03,-2.598214157610922309e-03,5.152678489685058594e-01
4.777652384160070431e-01,4.988878313154284649e-01,-2.703273478514434114e-02,-5.318156003228742892e-03,-1.325979679966572677e-02,-1.017312609309421745e-02,5.165777802467346191e-01
4.915465737028205107e-01,4.876674671093652047e-01,-1.961272080669890228e-02,-6.390609474897908544e-03,-7.005766369453196411e-03,-1.483763948538852594e-02,5.101433992385864258e-01
4.974552765554683953e-01,5.223280816427399165e-01,-5.365221717873458473e-03,6.485760861113050793e-03,-8.913910267205799737e-03,-3.038632121880728044e-03,5.160871148109436035e-01
4.669740630653002600e-01,4.931828604668858640e-01,-1.307468753178031573e-02,-9.542054676310043893e-03,-6.042931013373408801e-03,-1.014921956539192177e-02,4.943752884864807129e-01
4.869782145169099241e-01,4.699616976687455705e-01,-3.352691013579994772e-02,-1.061481896080814641e-02,-1.593227387942985906e-02,-1.534058082498905573e-02,5.139684081077575684e-01
4.729309782506787019e-01,5.019487735983036991e-01,-2.642429162059162229e-02,-4.637605118351498246e-03,-8.980499920336268427e-03,-1.273354926664545944e-02,5.152482986450195312e-01
3.557391440047311115e-01,5.128755911825234604e-01,5.788820713375442129e-03,-1.172788582091757216e-02,-1.559706419147255428e-03,-2.544360955005493374e-03,4.500959813594818115e-01
4.558639358187206447e-01,4.723387508448705363e-01,-2.312291202860417005e-02,-1.201742293205613869e-03,-1.625865752709223502e-03,-6.567242810633205571e-03,4.875783920288085938e-01
4.844513535901283641e-01,4.988168867790229721e-01,-2.872778834421657601e-02,2.822884313678752357e-04,1.320313174955540982e-03,1.806801454410047374e-03,5.205252766609191895e-01
4.877353121424670146e-01,4.911015280301201935e-01,-3.297613531831683487e-02,-8.681577192233594711e-03,-1.920869721769306177e-02,-1.751691082465942767e-02,5.245551466941833496e-01
4.921820094250580757e-01,4.921867432824252320e-01,-3.201409258552345705e-02,5.938623704730545266e-03,-3.339272014128083586e-03,-3.042606604268251105e-03,5.243577361106872559e-01
4.845430154091481256e-01,4.907153638169768906e-01,-2.716473803839325463e-02,-1.016747643914727058e-02,-1.610915945289534759e-02,-1.763901682120341818e-02,5.167818069458007812e-01
4.720368280571481945e-01,4.742487533386789966e-01,-3.227301257063008855e-02,-1.072034667769575060e-02,-1.901395545517959446e-02,-1.482336900064816845e-02,5.074813961982727051e-01
4.806321888766253991e-01,4.500554630655807520e-01,-2.402433638687456741e-02,-4.108364839978404653e-02,-3.143790149828471631e-02,-3.038618780508341513e-02,5.009800195693969727e-01
4.508363161111732520e-01,4.457453435975864964e-01,-1.734839101233354164e-02,-4.619053301302223496e-02,-1.683974074459385073e-02,-1.695997777282319541e-02,4.742928147315979004e-01
4.774837082151650591e-01,4.456763596033309627e-01,-3.190403971270550088e-02,-3.222888917604710413e-02,-2.702115945698857838e-02,-2.551659383407493473e-02,5.015427470207214355e-01
3.776952356162163182e-01,3.827195616974704007e-01,-2.659092388498043857e-02,-1.742529740617443923e-01,-1.458310937136268574e-02,-2.402564262726984701e-02,5.088868141174316406e-01
4.522955941116653111e-01,4.418363682547413185e-01,-2.158503391173333119e-02,-5.274099107218022109e-02,-2.453628202521619672e-02,-2.690323907667195244e-02,4.817033410072326660e-01
4.628968811260709137e-01,4.281295615162497015e-01,-1.765940601518450892e-02,-4.360120708181604299e-02,-1.839819713512707774e-02,-1.924899392183820890e-02,4.725100100040435791e-01
4.842905790667473842e-01,4.407943076222771150e-01,-2.050323051703217825e-02,-5.328135901446837824e-02,-2.228491448484803961e-02,-2.656321786083402567e-02,4.968656301498413086e-01
4.523982417249522991e-01,4.128854575641719427e-01,-1.212543857688008764e-02,-9.838588312523575963e-02,-3.856419965442507702e-02,-4.061180650425154359e-02,4.872758686542510986e-01
3.759756918305906526e-01,4.655441521283719686e-01,-1.608238925254834584e-02,-1.069419853602968512e-01,-5.114425098594053282e-02,-5.301940248873367179e-02,4.974316358566284180e-01
3.808865162139085103e-01,5.448003085328900763e-01,-2.283494991173345978e-02,-2.611263696363414974e-02,-2.644362241766103766e-02,-8.571008498232116773e-03,5.102921128273010254e-01
4.001151045829939856e-01,5.771542803106605168e-01,-2.064608946423496239e-02,2.527968218224893246e-03,-1.721213341200793223e-02,-9.990293156716375036e-04,5.327147245407104492e-01
4.353589900992836936e-01,5.449835868357024715e-01,-3.255385554270284754e-02,-3.502637208791849113e-03,-3.286043832814538462e-02,-1.792027855293963547e-03,5.343599915504455566e-01
4.352654127626233715e-01,5.150670325799378002e-01,-2.853464686031487174e-02,2.685516807312766756e-03,-3.235690957056459871e-02,3.463231576058269871e-03,5.115557909011840820e-01
4.018937500804821705e-01,5.306560477418630350e-01,-2.262128491703263578e-03,1.166391113650773817e-02,-2.256755920342749799e-02,-9.193084681748226253e-03,4.838918447494506836e-01
4.511758476100187765e-01,5.209117157278678745e-01,-2.717206753983336665e-02,1.320576572721208521e-02,-2.934112778527661267e-02,5.627425052104615029e-03,5.198448896408081055e-01
4.856070488464994117e-01,4.969975814338490894e-01,-2.476535316036826417e-02,9.433164469126870122e-04,-4.389144372958462929e-03,-3.277135757290559393e-04,5.162208080291748047e-01
4.716082837937463079e-01,4.984171379224128229e-01,1.393640208069829578e-02,3.158394502826901722e-05,-7.710971890935554122e-03,-1.128818756690552630e-03,4.718412160873413086e-01
4.640790466953624294e-01,5.064514943888305254e-01,-1.674728520250817754e-02,-5.891984864785361443e-04,-1.648220141829889393e-02,-1.002408134480150094e-03,5.041648745536804199e-01
4.695372871998976239e-01,4.880792962504364452e-01,-2.723942292281406052e-02,8.437093055676019243e-04,-3.864170653541957202e-03,5.332307913520804681e-03,5.064330101013183594e-01
4.700954950382956188e-01,4.883520561859028275e-01,-2.719161598105279687e-02,1.493543654940900078e-03,-3.915095739571533735e-03,5.239010700543604571e-03,5.067953467369079590e-01
4.831947945888874774e-01,4.910212246129905811e-01,-3.192383576470869677e-02,-2.230889926160690463e-03,-2.728568819375918903e-03,2.790763149331389626e-03,5.191345214843750000e-01
4.854057202660285730e-01,4.894029651082960619e-01,-3.193134398125235807e-02,-2.425646497242577460e-03,-2.038646173347593953e-03,2.092156083037489175e-03,5.193888545036315918e-01
4.816586038840142692e-01,4.915067538500197397e-01,-3.201971478312626296e-02,2.212577571829286744e-04,-2.376041171980385405e-03,2.696205967266986255e-03,5.187100172042846680e-01
4.496085265369766937e-01,4.133783538252873146e-01,3.661949079137971630e-03,-8.242797082850720700e-03,-5.484868537281072445e-03,-2.683287999883590550e-04,4.293233752250671387e-01
5.184942383993557113e-01,4.758804342929859321e-01,-1.870715860626565030e-02,1.089322758712419487e-02,-9.259380038358676693e-04,-2.254259232165934171e-02,5.190300345420837402e-01
4.990619177230971593e-01,4.921542652014042618e-01,-2.659837775360746059e-02,4.149082445796318380e-03,1.056384435593772262e-03,-3.765102504830402947e-03,5.223340988159179688e-01
4.771669056912618556e-01,4.983610428844759688e-01,-3.151066507982491771e-02,8.672017171357210936e-04,1.389409168019679691e-04,9.956162098727517219e-04,5.196040272712707520e-01
5.012280461614538885e-01,4.504504507975998773e-01,-1.700161771720765103e-02,1.064700513119547047e-02,9.859271401872144250e-03,-1.216518952733207370e-02,4.958846271038055420e-01
4.993348798666042976e-01,4.766863599089110615e-01,-2.503022655694997489e-02,6.368733387174969722e-03,6.358774042485699184e-04,-6.140200081122497780e-03,5.136454105377197266e-01
4.998343882851006281e-01,4.758407366083556300e-01,-2.605389689940401654e-02,5.405956097383340063e-03,3.667819753113751163e-03,-4.749444106749374332e-03,5.145016312599182129e-01
5.241117800494754508e-01,5.522168370494516809e-01,9.385090907544529903e-02,1.312224816142633019e-02,-5.148909720302716035e-03,-2.628302863847864490e-02,4.479680061340332031e-01
4.859268573335214225e-01,5.702134313541749044e-01,5.694842531879740211e-02,1.653339899979967831e-02,-1.480766208082569951e-02,3.922984436078858807e-03,4.783386588096618652e-01
4.835346685935861810e-01,5.676540325210798210e-01,4.363794964915473917e-02,2.119375311621492577e-02,5.519227826608919148e-03,-3.336489885454789559e-03,4.889389872550964355e-01
4.486254240026415485e-01,5.618757170511556875e-01,7.779273436792533136e-02,-4.134677758456365218e-03,-1.016683596099128284e-01,-5.115404181899694397e-02,4.808849096298217773e-01
4.976099058995981927e-01,5.474445510327778930e-01,1.174448106647782986e-01,2.989499466587280940e-02,-6.407161722865994946e-02,4.100910616210820536e-02,4.312728643417358398e-01
4.828234553696033604e-01,5.107965272901470177e-01,4.304240813925908071e-02,1.644679098996556718e-02,1.940841642029645861e-02,-1.924716742904758904e-03,4.565572738647460938e-01
5.221811369492082022e-01,3.803258142389684959e-01,-3.035954495104414841e-02,-1.031120053411791193e-01,-3.446866967693913708e-02,-5.601624856970031235e-02,5.402936935424804688e-01
5.227837443487830527e-01,4.669193700340505959e-01,-3.280943828893140291e-02,-1.648669858913345831e-02,-1.311316571992446854e-02,-2.376452738660143893e-02,5.327215790748596191e-01
5.039633418248948837e-01,4.643077279162002302e-01,-2.729751040751698943e-02,-8.233100413062020492e-03,-1.431811923179268642e-02,-2.492531806532477523e-02,5.151944756507873535e-01
5.170588680456769115e-01,4.605789459323760271e-01,-2.274566272588551819e-02,-7.574658728412876629e-03,-4.491837576045877058e-03,-2.075215686493372610e-02,5.153788924217224121e-01
4.693333588718052729e-01,4.883605807316113712e-01,-3.138210878945385529e-02,-2.529837327639950992e-02,-2.155469555929813777e-02,-2.384676285857007319e-02,5.153883099555969238e-01
5.035312966640710375e-01,4.616119274089315327e-01,-1.319050989914249961e-02,-6.720522019025203242e-02,-1.336846842276126317e-02,-3.333247914373869275e-02,5.143120884895324707e-01
4.995091424957802673e-01,4.788636235247800688e-01,-3.028900104523962744e-02,1.677559042621686470e-03,-5.053135991038635970e-04,1.476268744902280465e-03,5.197981595993041992e-01
4.982161613445366122e-01,4.817681077355500663e-01,-2.467899717332194820e-02,9.743665879012367546e-04,-1.312925397107392268e-03,-6.392831154476765441e-03,5.149950385093688965e-01
4.988725294373740904e-01,4.838068516449337553e-01,-2.224822719499924828e-02,2.977606531015712134e-03,-2.977954678039798891e-03,-4.766640150828268217e-03,5.138717293739318848e-01
4.861268716408247426e-01,5.011870942932320494e-01,-2.128788126772007683e-02,-6.020532548459897604e-04,1.109266561587231650e-02,1.398664773878585503e-02,5.160381793975830078e-01
4.878618673361519997e-01,4.675291141221668556e-01,-1.032587599379852783e-02,-1.075670370046889236e-02,1.601494907158690362e-02,1.680687263731227982e-02,4.903456866741180420e-01
4.966082128874936830e-01,4.878905450234898300e-01,-3.672105261678598742e-02,2.936585683698733282e-03,1.015265994205671179e-02,8.821831012594516172e-03,5.295614004135131836e-01
4.857768804704885035e-01,4.925658100477889878e-01,-3.345685651200802635e-02,-7.057276853472924409e-04,-7.295975003119550741e-04,1.446630327707595400e-03,5.226702094078063965e-01
5.014799758114905082e-01,4.994933577370961331e-01,-3.775276143390943195e-02,1.411378524732927013e-02,5.089156871798478088e-03,7.111306929765264309e-03,5.390098690986633301e-01
4.496514513021303006e-01,4.888096973276343515e-01,-3.340186298074782068e-02,-1.424038814929651188e-03,-6.286640309839718575e-03,-1.079491034184909201e-02,5.042455792427062988e-01
4.377162509713747873e-01,4.867971397641780995e-01,-2.608905461218524735e-02,-4.095666325187251669e-03,-5.207395083275932236e-04,-1.245568199520973723e-02,4.907186925411224365e-01
4.343686146561884232e-01,4.656406512809995180e-01,-2.228264139594393622e-02,-2.447894697721651400e-02,-8.341355303772043928e-03,-1.234621971223501605e-02,4.756599664688110352e-01
4.523175753002487420e-01,4.703568200690514400e-01,-2.786791567306567963e-02,-1.533350844481677980e-02,-1.053123506449041985e-02,-1.283664117481457534e-02,4.910174310207366943e-01
2.885914565208868576e-01,5.417133181488420490e-01,-1.112743258844217653e-02,-1.279265475136350527e-01,7.317211230995986776e-03,1.273245095874673757e-02,5.286871194839477539e-01
4.235509477348745611e-01,4.871764573014091271e-01,-2.186244429314493365e-02,-4.242373862173696823e-03,-6.267052760945778997e-03,-1.296073118418017769e-02,4.810994863510131836e-01
4.318541323658132147e-01,4.707308042800698589e-01,-2.209510130014985529e-02,-7.354731626596160143e-03,-7.588142790746993036e-03,-1.307500071952723796e-02,4.754757881164550781e-01
4.944144140662989351e-01,4.964765534849006068e-01,-2.152596694200198391e-02,-2.038311403988310802e-02,-2.388244474360195699e-02,-2.696733880734658931e-02,5.219213366508483887e-01
5.181748555184617633e-01,4.692994343631029519e-01,-5.657126776474896701e-03,-1.002801262891559603e-02,-1.016507424938713038e-02,-6.867511480141947657e-03,5.019356608390808105e-01
5.520212715751930954e-01,4.956418179978998029e-01,1.084124760104582252e-02,-2.249752661099315917e-02,-1.683230172942619049e-02,-3.709011415201184797e-02,5.215730667114257812e-01
5.243629561939158190e-01,4.767993402852106488e-01,-4.598938108831773786e-03,-2.821112103527634567e-03,-1.294908478887017017e-02,-2.631538354355689863e-02,5.094193220138549805e-01
4.872743149844291910e-01,4.794597069197533701e-01,-6.439191301761515440e-03,-7.103324534063447382e-03,-6.838330232687657440e-03,-9.499207277987278125e-03,4.904266297817230225e-01
4.554269650559039651e-01,5.228630823181547038e-01,-2.217645177027349757e-02,-9.058046080900399380e-03,-2.267199436186631556e-02,-7.876625538536491389e-03,5.165604352951049805e-01
4.685498456070541495e-01,5.250289163592049002e-01,5.052223238071140710e-03,-1.654630098053207904e-02,4.699335830931181297e-03,-1.664025466240428089e-02,4.958993196487426758e-01
4.704026946168455847e-01,5.061166018307878822e-01,-2.573850218936768464e-02,-3.386941600744511338e-02,-1.587836605593475128e-02,-1.521086030505609116e-02,5.196562409400939941e-01
4.226882005426114697e-01,5.246424517602489290e-01,-1.439855512122178993e-02,-2.752483640553593514e-02,-5.125423198982360928e-02,-2.377321454758743804e-02,5.077909827232360840e-01
4.370196241497383283e-01,5.204736668463694205e-01,-2.954205908106333212e-02,-1.985248992394908138e-02,-1.504123375059359183e-02,-1.002015519130562519e-02,5.155028104782104492e-01
4.744223767667651304e-01,4.995926458751102639e-01,-3.098412791672439104e-02,-9.550426596825957459e-03,-2.588766297299902736e-02,-1.036957263216019449e-02,5.209580063819885254e-01
4.554648769648990125e-01,3.577425791259137289e-01,6.072499288720056843e-03,-1.055074335928643109e-01,3.140977032598822171e-03,-2.918938820712241485e-03,4.483727514743804932e-01
4.915675169353872498e-01,3.721398344012523673e-01,7.323429283607685303e-03,-5.725589217795511859e-02,-6.854558120059780872e-03,-9.106427908058089063e-03,4.484948217868804932e-01
4.297167262528679421e-01,3.829098752285601259e-01,6.424022106498228357e-03,-1.088527517998027633e-01,7.840225388615852859e-05,-2.053286704926645789e-03,4.439752697944641113e-01
4.706901027508973989e-01,4.998952520775475916e-01,-2.862685787434615658e-02,-2.738925695835139635e-03,-3.746121052064518755e-03,-5.708362243415302916e-04,5.146052837371826172e-01
4.248624520999191301e-01,4.366965673397346093e-01,8.231875420350420747e-03,-7.746351663483511119e-02,-3.738091120273698796e-03,-4.352084940736516451e-03,4.435674250125885010e-01
4.882625725310590914e-01,4.736068824433526392e-01,3.932604805861789066e-02,2.337274313182738719e-02,-8.287227510632063851e-03,-5.010362328892870379e-03,4.439589083194732666e-01
4.945238489079851751e-01,4.889104018578388500e-01,-2.543600850957999926e-02,4.476696147118234756e-03,1.020451685541791387e-02,-8.596268496444245746e-03,5.177501440048217773e-01
4.999498656921330109e-01,5.082536298722832857e-01,5.132571998801682689e-03,1.509844053980704398e-02,4.564360875405638548e-03,-2.131665416378840383e-02,5.011302828788757324e-01
5.816258323799949892e-01,3.794829048448155051e-01,-6.748398738379346451e-03,4.381309149750948345e-02,-1.455071816963704641e-02,-4.212283117864912274e-02,5.289869904518127441e-01
4.745175861253544403e-01,4.921891612160176899e-01,-2.801745912216985213e-02,3.287172166825433773e-03,-8.904528262323734011e-03,8.249475821991560792e-03,5.120632648468017578e-01
4.787077798100746184e-01,4.905490088383700487e-01,-2.712290767493091836e-02,5.350498688222925237e-03,-1.791541360217063436e-03,2.946362268008808401e-03,5.119727849960327148e-01
4.838973403229599457e-01,4.832542662643595222e-01,-2.500723174470281807e-02,3.946161410527226042e-03,-5.501031344863459814e-03,1.485492949508990246e-03,5.087249875068664551e-01
4.811702484807240388e-01,4.893111695196226130e-01,-2.860786395924341807e-02,-1.609017037528265862e-05,-3.303832950176818772e-03,8.578506856291212481e-04,5.139309167861938477e-01
4.676201230350742755e-01,4.979339567389808874e-01,-2.802429753454915851e-02,4.849521732144190626e-03,-8.784408688055050929e-03,7.540037414412140322e-03,5.119373202323913574e-01
4.902781335412877972e-01,4.898066596572404063e-01,-2.235209866104104215e-02,-1.798013226358109989e-03,3.831468269632381726e-03,1.849267791375233064e-03,5.124571323394775391e-01
4.836902919479786345e-01,4.891824361020309375e-01,-2.934760012922593697e-02,2.159639683530131891e-03,-3.045216114686419978e-03,9.457184766825746120e-04,5.158490538597106934e-01
4.858058034181445550e-01,4.936778679073742793e-01,-2.588793356083168851e-02,2.526320230113365730e-03,-5.468983886871397679e-03,4.341463499994144444e-03,5.158352255821228027e-01
5.383063421219578260e-01,5.520398847501005735e-01,8.256789963128025045e-02,9.893389144611769437e-03,5.720944435577521303e-02,6.154203982806336071e-02,4.854067564010620117e-01
5.455709837785469585e-01,5.593474157962218252e-01,1.006367695346824243e-01,1.722056188257508821e-02,-6.052662558814841075e-03,-9.522220287240496656e-03,4.533843994140625000e-01
5.337804233194214376e-01,5.257904370501913505e-01,7.931327980946850653e-02,2.015262786512395012e-03,-4.467004372736158024e-02,3.659604975245746294e-02,4.615076184272766113e-01
5.376920454191568277e-01,5.237384441673056390e-01,1.142533802223332784e-01,3.558958862285752870e-04,-9.048006748132957425e-03,-2.231541843877024936e-02,4.187199771404266357e-01
4.900133602543060851e-01,4.943683058058057078e-01,-2.890696180208157662e-02,1.085369063586332688e-03,3.516900929276230072e-03,-3.223368351245689978e-03,5.211803317070007324e-01
4.793008184845011233e-01,4.982870161945907039e-01,-1.993700224707734003e-02,1.549958936218917213e-03,-1.168578794772869890e-02,-3.597463435665922138e-03,5.094439983367919922e-01
4.868184750324157095e-01,4.924292871310868014e-01,-2.625364030098448209e-02,4.582130811781149476e-03,6.524987778573400517e-03,-4.227385659529622058e-03,5.161371231079101562e-01
4.856580790588641561e-01,4.917203254327873196e-01,-1.700300192542980593e-02,5.800972656585683986e-03,6.389391291606355723e-03,-1.636933489493006813e-03,5.059482455253601074e-01
5.001241147540581578e-01,4.771602003409622927e-01,-2.349551492223744820e-02,3.330389845408487925e-02,1.455545865524028072e-02,-1.236636340442132803e-02,5.168194174766540527e-01
4.987545258930111691e-01,4.935811915099044267e-01,-2.572997812713262444e-02,1.197129658354540230e-02,9.163887565015450126e-03,-1.544999518306305886e-02,5.232546329498291016e-01
4.847456989023287699e-01,4.862562998791726820e-01,-2.703730203884907590e-02,2.963847912835082185e-03,7.885721241890816238e-04,-3.410057723905905464e-03,5.126015543937683105e-01
4.514523013103308724e-01,4.477716519323182709e-01,-2.449368155236164579e-03,-7.739187749746440081e-02,-2.946665637312312347e-02,-3.673765107645773909e-02,4.785310328006744385e-01
5.102027386891042626e-01,4.521666114533339220e-01,-1.004080529221967888e-02,-4.334927685749750959e-02,-1.350089918754820290e-02,-3.730574814714739118e-02,5.041706562042236328e-01
5.060720634488589109e-01,4.360310217732517035e-01,1.252955380707360122e-02,-5.562852208074801907e-02,-5.644086285828368160e-02,-5.264731298400623233e-02,4.909961819648742676e-01
4.817400570900500223e-01,4.412857612401835383e-01,-2.404902079385340397e-02,-4.382293698159507589e-02,-2.408073763740382900e-02,-2.034660382086310448e-02,4.957224428653717041e-01
4.933312950750223802e-01,4.727071362097340357e-01,-3.582894002309433557e-02,-1.798639942032003239e-02,-1.448731127330184394e-02,-2.065269063095546628e-02,5.219216346740722656e-01
4.864565807445044854e-01,4.974624072139982589e-01,-2.644833795845097368e-02,-5.562009717946899334e-04,-5.055973056430265906e-03,5.160716045540298183e-03,5.186473131179809570e-01
4.695683114622722920e-01,4.752460544423297573e-01,-1.743568864341310531e-02,-2.661175674542064565e-02,-1.763801224111957375e-02,-1.302595892107151834e-02,4.934947788715362549e-01
2.791180849653935869e-01,5.520853669140157738e-01,-1.503811836018018322e-01,-2.639726136224117004e-01,2.721831800623311648e-02,1.113985531296826301e-02,7.667199373245239258e-01
5.039663983701558880e-01,4.703326486432265474e-01,1.964117779204133107e-03,-3.809924814754067721e-03,2.572570128081388529e-03,-1.365226488472390601e-02,4.866989254951477051e-01
4.993884747159966775e-01,4.676164659832154902e-01,-2.532582968655283651e-02,-1.024569282450614634e-02,-1.336557464948504720e-02,-9.484849377310118970e-03,5.106701850891113281e-01
4.962349483031993080e-01,4.792864428876446037e-01,-3.253830006868269065e-02,-2.785513965544452863e-03,-5.273431787079603181e-03,-8.123241681640403639e-03,5.207985639572143555e-01
5.160781764277997397e-01,4.548623813902082924e-01,-2.101973795783190768e-02,-8.653473690593348200e-03,-6.950489899349990980e-03,-2.368966978616017863e-02,5.112688541412353516e-01
5.018807426725395704e-01,4.429054324272598819e-01,-3.008341445514328694e-02,-1.226689994441089275e-02,-1.644925865764548453e-02,-1.922688739064806751e-02,5.074084997177124023e-01
4.884746202768559531e-01,4.974609172496021747e-01,1.512839366927087870e-03,1.676318795995846269e-03,-7.019937227890523691e-03,8.897674017039235638e-04,4.916779100894927979e-01
4.983526788946781028e-01,4.624644911633426503e-01,-3.337105397585105049e-02,-3.942494147357099993e-03,-4.382550375984731010e-03,-5.857474050342004537e-03,5.149200558662414551e-01
5.015684902674484302e-01,4.616632554350089679e-01,-3.403850302210031931e-02,-3.597241176441725479e-05,-8.658048949310305498e-03,-6.868778955804280204e-03,5.171655416488647461e-01
4.315819238986788875e-01,4.363073711878627803e-01,5.285032283487645088e-03,-2.347217479215714386e-03,-2.003952881621213567e-04,-7.861010924296502923e-04,4.287007153034210205e-01
4.983599520979924424e-01,4.780527364549119751e-01,-3.376297138025818878e-02,-7.952907208620343818e-05,-1.820743461111998945e-03,-4.624133099753897740e-03,5.223364233970642090e-01
4.981559211957595767e-01,4.750825300172693555e-01,-3.060315734770541196e-02,-1.276845488290215963e-03,1.984593312513298433e-03,1.307525164854454660e-03,5.176293253898620605e-01
4.978009572289442963e-01,4.845689572180600369e-01,-2.462842515563273826e-02,-1.264363957789060204e-03,2.066863572866812094e-03,-5.855568758829015480e-03,5.160573720932006836e-01
5.020020722085554166e-01,4.677339048785349451e-01,-1.262389902550453691e-04,4.559719982761251990e-03,-2.464769491292843548e-03,-7.031012344399981302e-03,4.861368536949157715e-01
4.116582975934229283e-01,4.632090827416335821e-01,-2.627239803282888086e-03,-2.028557576801521753e-02,-1.063946464614645530e-02,-1.408357251853958880e-02,4.447649717330932617e-01
4.956334465294557345e-01,4.833644955999132353e-01,-1.212722015656614305e-02,8.585323026034077844e-04,-1.179425727222140367e-03,5.037634777608514941e-03,5.018209218978881836e-01
4.982517285779126670e-01,4.829285903791652457e-01,-1.064176297994545717e-02,5.547107673246955703e-04,5.721996529628034164e-04,4.813558089108589330e-03,5.014787912368774414e-01
4.763975389763887014e-01,4.752341120104297545e-01,-3.006226477937906649e-02,-2.357431917658414644e-03,1.582718409416390346e-02,1.875679014920729124e-02,5.076783299446105957e-01
4.709492749991061045e-01,4.864776823854309318e-01,-3.794551383371191910e-02,-5.507497116136932623e-03,9.115377664067133776e-03,1.046904873169872754e-02,5.174808502197265625e-01
4.859276830355575560e-01,4.790655715929501568e-01,-2.732559497129166681e-02,-5.555576163108196658e-03,6.339168556882300749e-03,9.111282043667380537e-03,5.103099346160888672e-01
4.925346432993454870e-01,4.884879981238688385e-01,-3.762666432124572857e-02,-1.106216802800782245e-02,2.275551441474690448e-02,2.293680377680028595e-02,5.314516425132751465e-01
4.672001915393937388e-01,4.716729255379553676e-01,-2.671818492357025399e-02,-3.468399732290915888e-02,2.613061871585270132e-02,1.971859649320432603e-02,5.029993653297424316e-01
4.379974298996373028e-01,4.315058745594638201e-01,5.326656827603637456e-03,-3.268058786962876709e-03,-4.824040994783635600e-04,-3.009395346540946650e-04,4.295002222061157227e-01
4.889394178895002940e-01,4.934000448470329259e-01,-3.014831780003729422e-02,-1.544989390534819195e-03,-3.616398005975761387e-03,2.971927391878197286e-04,5.213770866394042969e-01
4.823369898551573831e-01,4.917014254731412182e-01,-3.186711849481271841e-02,6.942999337469870670e-04,-1.523481349511228260e-03,3.101276331621452120e-03,5.189855694770812988e-01
4.658112720566479625e-01,4.462408723428694102e-01,-2.907730550418680115e-02,-2.245983158856454387e-02,-1.897471240455670186e-02,-2.015566611424857851e-02,4.893104732036590576e-01
4.845518349949059500e-01,4.907693260149814662e-01,-3.372878010093266488e-02,-7.036187705876074342e-04,-2.160239238210857936e-04,1.062707917117602214e-04,5.214187502861022949e-01
4.847050686809828424e-01,4.930386885546835796e-01,-3.289463694042188413e-02,-1.489613716402241007e-03,-6.566875400408672594e-04,1.316242979393850328e-03,5.218290090560913086e-01
5.165389732434246817e-01,4.771181278784498714e-01,-6.085876553845293024e-03,-2.329166188468775010e-03,5.551630159801148982e-03,3.224396568566391483e-03,5.042105913162231445e-01
4.953957153941773162e-01,4.888381373812594743e-01,-2.391045110469625090e-02,3.727837331403920486e-04,6.678117819687944164e-03,1.356340428282538230e-02,5.167229771614074707e-01
5.116387407116809172e-01,4.717958303483947846e-01,-2.006282245355450744e-02,6.617345882881283661e-04,-3.986254375269357095e-03,5.599259498797392806e-03,5.130813717842102051e-01
5.228408068931330588e-01,4.335991979657454198e-01,-3.425710588715091820e-02,-1.320508198503585889e-02,1.736039909365151221e-02,2.935693553044817911e-02,5.221288800239562988e-01
5.127334529421148090e-01,4.758599792778078763e-01,-3.103408192822176837e-02,2.754880489915125744e-03,-1.137335725534264997e-03,9.607893902053998500e-03,5.265887975692749023e-01
4.991230321951330984e-01,4.713386182991107787e-01,-3.481300352246868846e-02,-2.910971993780508884e-03,5.985228563778764548e-03,7.326517289167644963e-03,5.208824276924133301e-01
4.715945400722299508e-01,5.216462750616227551e-01,-2.784051242133384063e-02,-1.296399146904132077e-02,-1.889681862162558360e-02,-1.435013582299905603e-02,5.283288359642028809e-01
4.990066905251736573e-01,4.917637495644008316e-01,-2.479234350614106797e-02,3.760422850622801173e-03,-1.730466428465210959e-03,-3.055288384863456830e-03,5.202916860580444336e-01
4.989947158411484063e-01,4.725073400009566771e-01,-1.397974425152548328e-02,1.982725847311753598e-03,2.266864590553554788e-03,7.315943398387729155e-03,5.004445910453796387e-01
4.992246251928877943e-01,4.923636272525420132e-01,-3.729927790399456544e-02,3.659867231346430536e-03,5.401447326742012979e-03,-4.608031526575691208e-04,5.332468748092651367e-01
4.655441928381724992e-01,3.704463791337998524e-01,-3.512424058304985941e-03,8.377557306730738784e-02,1.024411785993457023e-02,-5.535984981549185550e-04,4.536763429641723633e-01
4.946631379696077024e-01,4.050278370977547504e-01,-6.044065415375332595e-03,3.935481532870293425e-02,1.161716056022746128e-02,-5.283475987615937099e-03,4.679702818393707275e-01
5.100033959067997724e-01,3.733085228337916783e-01,1.569198476208732984e-03,2.483120779038620538e-02,7.189997198909902493e-04,-4.918723506038331743e-03,4.578366279602050781e-01
5.226392052486181772e-01,3.606353031791512675e-01,-1.282824895917078489e-03,2.429292463073659536e-02,1.187535614343060951e-02,9.469567831441778188e-03,4.672522544860839844e-01
4.786030232901393178e-01,4.226053396676638929e-01,-4.020567472856340085e-03,1.198267637291720519e-02,4.685533476677831294e-03,-2.358558870265497435e-03,4.577649831771850586e-01
4.834762573373666550e-01,4.273437853289476229e-01,3.040696907397055782e-05,3.793170656539485847e-02,-3.285868296261513534e-03,-6.454669500595408560e-03,4.628256261348724365e-01
4.787998183016442533e-01,4.152533111085280337e-01,-3.123367586831959919e-04,1.147862844581293632e-02,3.753255702525499192e-03,2.180067395658270358e-04,4.511966109275817871e-01
4.723349349681685294e-01,4.675479810903342415e-01,-3.146600463163068406e-02,-6.205519128504204292e-03,-8.478483610483936173e-03,-5.203469797624735854e-03,5.018356442451477051e-01
5.367460857635399929e-01,3.980226962782416056e-01,-1.352564394645233703e-02,3.732059395465273793e-02,1.182550831120816187e-02,-1.230523703984093276e-02,5.007593035697937012e-01
5.111730221658932205e-01,4.289708337588277742e-01,-1.414427901514114794e-02,3.043180225615670781e-02,1.202705868010173380e-02,-9.193355853580467002e-03,4.929493069648742676e-01
5.526063241505184687e-01,4.056158568610893633e-01,-1.550786725918723574e-02,7.096048291285785015e-02,9.128561174197139666e-03,-2.121723281964114916e-02,5.268388986587524414e-01
4.906009883213133249e-01,4.331055680430897503e-01,-1.861429368887557168e-02,3.115073803238361735e-02,1.101882487806440589e-02,-8.861168029460341281e-03,4.866613745689392090e-01
4.639561514626964200e-01,4.349668391114035471e-01,-1.961274624887343609e-02,7.957123881841367263e-02,3.218415993804846220e-02,-2.195602035198018082e-02,4.941754043102264404e-01
4.899452483501552935e-01,4.599084610079122726e-01,-2.835974344631148059e-02,5.220217612804987223e-02,3.069614700145937777e-02,-1.835106603997247940e-02,5.157386064529418945e-01
4.163103600234404622e-01,4.807911268143644223e-01,-9.103323293445597653e-03,3.533012407910730152e-02,-8.095278880850688419e-03,1.068289654354410978e-02,4.656707048416137695e-01
4.383660635108651005e-01,5.290270547642765830e-01,-4.879402362079110489e-02,4.455122816042308975e-02,-7.588151711189754234e-03,1.805358259415416888e-02,5.448079705238342285e-01
4.376051094199950864e-01,5.257846010122970704e-01,-1.717153281779160157e-02,4.659315721145088768e-02,-1.603764696266441955e-02,1.919197285745043169e-02,5.129218101501464844e-01
3.992842761490802417e-01,5.382279375936848131e-01,-1.803091932137418363e-02,2.812783357448294871e-02,-1.047994703264587546e-02,7.873685194458950737e-03,5.043110251426696777e-01
4.652419158126924748e-01,4.872554181203767598e-01,-3.414414639619928193e-02,6.361558526573669881e-02,-3.526773730245648386e-02,3.744435156530039055e-02,5.300403237342834473e-01
4.725937289084188864e-01,4.755623995903586199e-01,-1.257076113126687211e-02,7.152286743245246659e-02,-1.676816879484567882e-02,2.933328810783334198e-02,5.055740475654602051e-01
4.066511384188202793e-01,4.583879385908271042e-01,-2.375569761930496071e-02,1.102369387638725967e-01,2.635940806455814699e-03,1.895836994398712380e-02,4.977451860904693604e-01
4.555946423434642512e-01,4.739586346093181413e-01,-2.065245509047985983e-02,2.487421491802415535e-02,9.436342522208261349e-03,-1.032456457280055140e-02,4.881981611251831055e-01
4.959308927297442215e-01,4.864746979471351596e-01,-2.412726531876541181e-02,5.894880869700630001e-03,-2.122865358225902159e-04,-5.253015314896489728e-03,5.155766606330871582e-01
4.408172253111839467e-01,4.496990151151845083e-01,-2.222298449395176956e-02,-5.560915582169734250e-02,-2.852202099477513242e-02,-2.709337343748770624e-02,4.822007417678833008e-01
4.917533361463229946e-01,4.003343076542604240e-01,-2.185556012066824927e-02,-5.029347664411262797e-02,-2.175959922126666918e-02,-2.598418999294262871e-02,4.860372245311737061e-01
4.821966747809289244e-01,3.933196867722296153e-01,-6.944802226353907759e-03,-5.481434709970093438e-02,-2.677192249508901153e-02,-2.905513146017859802e-02,4.662421345710754395e-01
4.453341189207672413e-01,4.133864539737841515e-01,-7.627940880649386468e-03,-4.452504793141900258e-02,-1.564436359531890322e-02,-1.450487384648486110e-02,4.461356997489929199e-01
4.619091858369451797e-01,4.968643088114287343e-01,-3.154236155010958775e-02,-8.242983694316325521e-03,1.331067781834866827e-03,3.408968912500690094e-03,5.120634436607360840e-01
4.711521559206402476e-01,4.992463671173338335e-01,-2.534559321190155146e-02,2.532721730415127184e-03,-3.438368852052456608e-03,2.119435428145411456e-04,5.111778974533081055e-01
4.820725935502956361e-01,5.254847337370054383e-01,1.161084615985086277e-02,-1.576162911713714296e-02,-3.160238901594889654e-02,-2.063380630636214332e-03,4.973900020122528076e-01
4.724264885134145109e-01,5.065843290568385893e-01,-2.560251528502327512e-02,1.073647779299290953e-03,6.060667227504453261e-03,5.190296646643415522e-03,5.161450505256652832e-01
4.690242969248397120e-01,5.031627836676642040e-01,-1.474318201892599323e-02,1.149773525185893153e-02,-2.518988342473898676e-02,8.887169651828969591e-03,5.042307376861572266e-01
4.685950014928443874e-01,5.067260924026896207e-01,-2.607390111033580649e-02,8.052185107856216044e-04,-6.300246371327482449e-03,2.925523534301198957e-03,5.149371623992919922e-01
4.886655706119179543e-01,4.954660196189789589e-01,-2.123018910061585940e-02,-3.544336121024172816e-03,-2.044371060806167081e-03,-7.204478179815137009e-03,5.135303139686584473e-01
4.800068007656057567e-01,4.999980544318280984e-01,-2.307962935708446350e-02,4.819997801370992478e-03,-8.433801390212566571e-04,-4.150595456741918571e-03,5.134943723678588867e-01
4.353710615318067689e-01,5.386675748594991209e-01,-2.428759577706107731e-02,1.053784290203343271e-02,-1.601100020008655936e-02,-2.580582851985473158e-03,5.201534032821655273e-01
3.955790302834385486e-01,4.781142936726640036e-01,-2.840169403645731450e-03,-9.775956225641847797e-03,-1.005927923652085582e-02,-1.411961838545713367e-02,4.467906951904296875e-01
4.930603345153122818e-01,5.111584927815311374e-01,-3.195798336039223919e-03,9.453553550608806769e-03,-6.738799463458273672e-03,9.554732223348771578e-03,5.062185525894165039e-01
4.588047990148637068e-01,4.502237471451585593e-01,-1.796557482704752573e-02,-8.108798069468658651e-03,-8.037185147226627233e-03,-6.256335007999985244e-03,4.730760157108306885e-01
4.945925836026278666e-01,4.964937375952747090e-01,-1.745552607358480390e-03,2.144741544595232113e-03,-4.787561563163738806e-03,-2.021639878621342337e-03,4.973867833614349365e-01
3.431890412335077967e-01,4.739811677549585767e-01,-9.661725626483436136e-02,-2.966977418438462299e-01,6.252430925438748344e-02,6.616472098624019693e-02,7.463304996490478516e-01
4.798040284692877133e-01,4.935878034845209705e-01,-1.173653724289508427e-02,4.827595144524352011e-02,3.687894191713477713e-03,-4.773160774437619426e-04,5.055794715881347656e-01
4.810724461743498548e-01,5.726901452371842005e-01,-6.287435052255874179e-03,1.287048398882025511e-02,1.425532121857702068e-03,3.859023380602299731e-03,5.395479202270507812e-01
5.235921097288945836e-01,4.527586191764294554e-01,-1.832679647488644203e-02,2.437691127460568305e-02,1.777188067939879795e-02,-3.544253026992106453e-02,5.165328979492187500e-01
5.188619585570689585e-01,4.326298954686179643e-01,1.882529291185519593e-02,1.375217090713241885e-02,1.979296637245658332e-03,-2.348120134297783379e-02,4.653887152671813965e-01
5.608510878362827912e-01,3.741222084075915832e-01,-2.494876771127707560e-02,4.231669635669817187e-02,8.476902893149092580e-03,-2.999951761423660587e-02,5.262423157691955566e-01
5.160733255228540095e-01,4.296875936441729715e-01,-1.855840288220367285e-02,7.398107544277511202e-03,6.039182004177133176e-03,-1.920908291555699018e-02,4.984873235225677490e-01
5.832711461222207516e-01,3.602473675841909584e-01,-4.157645532862858095e-02,5.010189252685717798e-02,6.817080261555374249e-03,-6.294133588930522771e-03,5.555241703987121582e-01
3.803261277131846363e-01,5.025782566576357802e-01,-1.474900098677023319e-02,-1.029895194526447427e-01,-6.258127418860423563e-02,-4.458789726997018643e-02,5.185197591781616211e-01
5.275851265154798408e-01,3.980502101202478826e-01,-1.702167285052830215e-02,3.060759630488273098e-02,2.117393601535487446e-02,-3.283892589480025964e-02,5.002208948135375977e-01
3.566178139472062636e-01,4.842321144796299937e-01,-8.799425245302305854e-03,-8.580703032162451116e-02,-3.122345929403598161e-02,-1.461705304405874067e-02,4.712768495082855225e-01
3.703724004341626408e-01,4.870388738965032438e-01,-7.936414778204003984e-03,-1.193958002854288297e-01,-2.613439071842331429e-02,-1.981522669987318200e-02,4.968476593494415283e-01
2.978006383724038364e-01,4.992275420455603019e-01,-4.078872144338552275e-04,-1.383669982712774360e-01,-9.606201794814151970e-03,-3.584202657599620465e-03,4.973127841949462891e-01
5.067366236727349760e-01,4.371175637521064195e-01,-2.136119052672719176e-02,1.383794543807659663e-02,-6.087302685597209377e-03,2.718561340013432234e-02,4.998712241649627686e-01
5.046619666633327395e-01,4.978457599301575609e-01,4.302872416156644508e-02,1.301712322519036139e-02,-2.056083624699322696e-02,3.702496633058041664e-02,4.646442234516143799e-01
5.054595312835485910e-01,4.807524629211176181e-01,-2.251294458764746542e-02,7.102971716050007073e-03,4.162467955778821637e-04,7.942509941028734477e-03,5.163931250572204590e-01
4.993019786692414197e-01,4.877346892901176512e-01,-2.443669020028571559e-02,3.197084597221441782e-03,-4.887573368850210015e-03,1.153088539111645329e-03,5.181545019149780273e-01
4.922689424863199159e-01,4.916330128244594255e-01,-3.935703655535094381e-02,2.835369652117871331e-03,-9.300868406351120833e-04,1.172533196942405868e-02,5.317214131355285645e-01
5.052639344646444597e-01,4.867020993778420346e-01,-4.034387315519083472e-04,1.558647696942807095e-02,-5.645397903609755512e-03,2.788153752740019000e-03,4.974994063377380371e-01
4.946387507977760833e-01,4.964727143075767790e-01,-1.390635633112202729e-02,1.509005818904276316e-03,-1.472839405544040499e-03,-4.321526056173943114e-03,5.095326304435729980e-01
4.928505133191404264e-01,4.858257073692768269e-01,-2.215300060022323825e-02,7.720588506330615906e-03,-1.174979644782887106e-02,-1.912302799687966943e-03,5.121173262596130371e-01
4.925531071094469415e-01,4.840102542589839185e-01,7.959061586593096926e-03,7.920886731165855538e-03,-1.087491200075952139e-02,-4.437205414257089191e-03,4.810058474540710449e-01
3.761309535949908800e-01,4.839248033320491249e-01,-3.836274010774520793e-03,-2.394873603729550521e-02,-1.183413809133587562e-02,-1.405249392614749300e-02,4.468623101711273193e-01
2.988971232919429566e-01,5.275177400564186048e-01,-7.356535407798237003e-03,-5.442470485831747001e-02,-2.525296688393350794e-02,-9.498191213186799389e-03,4.765968024730682373e-01
3.687784210578025079e-01,4.364923906716492996e-01,-4.385403174618662803e-03,-1.036801405840123008e-01,-2.303895705140336994e-02,-2.177069082144147613e-02,4.520705938339233398e-01
4.151600076012514906e-01,4.365129211970149581e-01,-7.896912074630280109e-03,-4.812415578997410875e-02,-1.786228681395895732e-02,-1.756068412921297020e-02,4.441809654235839844e-01
4.016798625288380276e-01,4.920977291400639997e-01,-1.107125374761108727e-02,-8.160027229924293746e-02,-4.530677319328032387e-02,-1.785065649996678619e-02,4.928983747959136963e-01
4.012651337800861584e-01,5.137768945942895460e-01,-2.125589275770767284e-02,-3.154923199390539251e-02,-3.140307751612941844e-02,-2.775733479879375493e-02,4.969682395458221436e-01
4.234485637618897735e-01,4.617404572328001056e-01,-1.453045499057786794e-02,-1.308618287705771641e-02,4.853706692809415905e-03,1.093932281413280763e-02,4.593542814254760742e-01
4.491244424624966647e-01,4.920970241733959583e-01,-3.503261289447784366e-02,-4.920360982713897595e-03,1.068542485796205622e-02,1.358112870195643355e-02,5.079652070999145508e-01
4.873420723029215362e-01,4.893968671147918004e-01,-7.131474139073279428e-03,7.446512910366099094e-03,-1.037217704920757703e-02,-1.140234816549181088e-03,4.960013628005981445e-01
5.081039103708271387e-01,4.716900352430239418e-01,-2.771391288607694126e-02,7.003406291507492838e-03,-1.204369143413912529e-03,3.871477978376718521e-03,5.187600255012512207e-01
5.163265041004473366e-01,5.004438568587783465e-01,5.261032669083287594e-04,2.913579772037084084e-02,-1.726014662676984834e-02,-1.291966892150832671e-02,5.119093656539916992e-01
4.975860215112451468e-01,4.845896888912729628e-01,-2.466059143629895090e-02,5.662022249241279587e-03,-4.433103011845330142e-03,3.849830717992901510e-03,5.160646438598632812e-01
4.976048289561515459e-01,5.013910116507571679e-01,-2.597818915874167134e-02,2.790058296780735612e-03,-4.732601704951858515e-03,3.221898369393675320e-03,5.256021022796630859e-01
5.126484959872081859e-01,4.523400398728754102e-01,-1.338993277557137818e-02,1.491392365900189379e-02,-1.900755522185015867e-02,1.562106147679194479e-02,5.011109113693237305e-01
4.973271764617291923e-01,4.871815858516835296e-01,-3.119488950425874929e-02,5.032838060547248187e-03,-7.221439724026033208e-03,6.817865253230411676e-03,5.238780379295349121e-01
4.999801844236769210e-01,4.819249251300738446e-01,-1.441228640527736360e-02,1.053678125715729053e-02,1.024396079286690221e-02,-3.656218009627245323e-03,5.062865614891052246e-01
4.994642512660716349e-01,4.908295194548424334e-01,-1.341575066872280342e-02,2.033021112914064690e-02,9.869647712271974530e-03,-9.088663763571206561e-03,5.103644728660583496e-01
4.309502521446471612e-01,4.007971059065422170e-01,-1.580939139975146013e-04,-6.588324249563301538e-02,1.355650975184430167e-02,1.340683368264206088e-02,4.334474802017211914e-01
4.363566307969878322e-01,4.357502421897271327e-01,8.935990572519703079e-03,-8.062815148615655458e-02,9.808102666576850107e-03,9.845160498178493619e-03,4.500129520893096924e-01
4.285992333969809165e-01,4.617914352141890277e-01,3.255768864583397093e-03,-2.229986495629007748e-02,1.325223175138384203e-02,1.457737187924259062e-02,4.458621740341186523e-01
2.842045889709110540e-01,4.623355504494771617e-01,-9.780877600329057620e-02,-2.708581273177566584e-01,3.701955402588134880e-02,1.195479473525473853e-02,6.858175396919250488e-01
2.625597103205172811e-01,4.897691445979213687e-01,6.902059617959893645e-03,-1.679050450194413679e-01,2.846397794643286058e-02,2.390651707676896831e-02,5.136090517044067383e-01
3.571059223509895908e-01,5.199444086270375021e-01,-1.278303740298758484e-02,-2.543434099701431528e-01,1.975820889504252206e-02,-8.600473428387857278e-03,6.473261713981628418e-01
4.900069238474981659e-01,3.767685130115997483e-01,7.072041634584913528e-03,-1.324520759929494751e-01,1.484800461795306864e-02,1.165136023938884158e-02,4.950369298458099365e-01
4.330530188480837817e-01,2.388754351767390927e-01,-7.306272718862999449e-03,-2.448600066989770341e-01,2.549158974246113624e-02,2.435549173372279427e-02,5.742052197456359863e-01
4.146006998895556128e-01,2.614705515423833559e-01,-1.678706319482292653e-02,-2.382980480729573747e-01,7.312371044958207097e-03,1.719282061503520087e-02,5.611513257026672363e-01
3.550352854714686757e-01,4.979737015620139262e-01,-1.015622041184177649e-02,-1.412254417117111416e-01,2.656464201385047227e-02,2.570915908855440912e-02,5.195478200912475586e-01
4.892608937533767799e-01,3.688921944382183016e-01,-1.718067192454664216e-02,-1.383653306354889201e-01,4.425563485987874662e-02,4.804333728728141240e-02,5.293836593627929688e-01
4.974468276912711318e-01,4.887221044871201681e-01,-3.246513260310684990e-02,5.163589036055915744e-03,5.718997220170549296e-03,5.911595447695349934e-03,5.258730053901672363e-01
5.099405276717067226e-01,4.983615081545182957e-01,-1.637855086987116682e-02,-3.964219641934627335e-05,-3.226729881945046303e-03,1.397190861331898404e-02,5.212182402610778809e-01
4.917783234937849746e-01,4.891121203574553267e-01,-3.060193227615592981e-02,2.276678466932483859e-03,4.742349499352094266e-03,3.331114437424548876e-03,5.211638808250427246e-01
5.005190587114134448e-01,4.746322584215934559e-01,-3.798374319130820576e-02,3.896450939009949853e-04,1.247710644561422083e-02,1.440136871501482632e-02,5.270720720291137695e-01
4.939652740483404525e-01,4.336996860353775629e-01,-3.318202459183799968e-02,-1.806592387615325868e-02,1.396370059356603389e-02,1.606780134550776090e-02,5.020816326141357422e-01
5.216763414055819448e-01,4.144449263220527091e-01,-2.671254689531749049e-02,-2.171119011506856059e-02,8.645116037047907709e-03,2.043335520662659111e-02,5.062759518623352051e-01
4.986685721097057211e-01,4.870242623435603879e-01,-3.803917085745406323e-02,6.542802528797749852e-03,4.439298444375555826e-03,9.939296152831685483e-04,5.311607122421264648e-01
5.023640617352473914e-01,4.896982519037559878e-01,-3.808482420185316242e-02,7.104984350986535795e-03,1.154856176969482583e-02,1.031693409997020902e-02,5.350430607795715332e-01
5.023813029284103227e-01,4.929433799908554681e-01,-3.091381159191347594e-02,4.482872757498763093e-03,3.601965983197835588e-03,3.604251031616190724e-03,5.287700295448303223e-01
5.039305045499372637e-01,4.789483833705880933e-01,1.937843729343025068e-03,2.059888223940346472e-03,1.061457595105260235e-02,-1.669964629812202301e-03,4.903458058834075928e-01
5.134533493939885673e-01,4.780192804558456299e-01,-2.162834399308177780e-02,1.743623731473167545e-03,-6.563870727065540230e-04,4.267235114025449104e-03,5.183366537094116211e-01
5.153822814079649373e-01,4.258444714271029663e-01,-1.055729168391400519e-02,5.512657268745890793e-03,-5.039826570295202410e-03,3.231900621166488435e-02,4.907534122467041016e-01
5.242008934947596233e-01,4.110320276392719907e-01,-1.614866526959268800e-02,2.511287531226940456e-02,-2.333447769518415347e-03,1.162790224313293812e-02,4.959314763545989990e-01
4.514297122322954992e-01,4.197947355087319754e-01,5.280269336273957226e-03,-3.856085753011409545e-02,5.777005822630355315e-03,5.021805475432274124e-03,4.365464150905609131e-01
5.526776524370382582e-01,3.158917072290454153e-01,-5.519517858562195123e-03,-8.028632819309748907e-04,4.664520382349570532e-03,2.120982093879148628e-02,4.867188036441802979e-01
5.561073475665936350e-01,3.760238614792171807e-01,-1.332277119968577894e-02,7.638069014223983211e-02,-4.937652138800201207e-03,9.351037266072928858e-03,5.215105414390563965e-01
4.661430172381774151e-01,4.402647565575128485e-01,-3.220345729684398473e-02,-2.769080450708446065e-02,2.338756936755792201e-02,2.305905195174936043e-02,4.915882349014282227e-01
5.334785512749948833e-01,3.787038864526047766e-01,-9.707787093920672294e-03,2.979166093274365767e-02,-1.220733765108044863e-02,1.761539258335564906e-02,4.888514280319213867e-01
5.281200100484544357e-01,4.001185156037511126e-01,-1.796421075950643820e-02,1.450323548800378295e-02,-3.901594362181907711e-03,2.483507251115921882e-02,4.972120225429534912e-01
5.287249227862333978e-01,4.208686545375454058e-01,-8.103792580287649816e-03,3.930414173496034336e-02,-9.016453445002802630e-03,-3.442696024093238986e-03,4.968214929103851318e-01
5.179063258600670183e-01,4.278251023677767106e-01,-1.584334480280458202e-02,6.883307524132432735e-03,6.419686049027253797e-04,3.835277264615115367e-02,4.994784295558929443e-01
4.921952764822457027e-01,4.690284556820559780e-01,-3.775855490219270916e-02,-1.793702217456600136e-03,-7.803871971786132886e-03,-8.037498411289778835e-03,5.191305875778198242e-01
4.981847566245009018e-01,4.789448107769744833e-01,-3.761642157335021164e-02,7.760424639150519978e-04,-5.081889804804163441e-03,-3.151427635149148167e-03,5.265485644340515137e-01
4.354942893728253051e-01,3.922690931606662712e-01,3.819274003398764883e-04,-6.295419260108284232e-02,1.091753533972109579e-02,8.332819357032250976e-03,4.299289882183074951e-01
5.261366802952884836e-01,4.305675000567875665e-01,-2.602075265422720829e-02,3.048290734571929266e-03,3.856892298592032829e-03,1.446427241433079604e-03,5.111954808235168457e-01
4.603403807865802388e-01,4.389209872674683099e-01,-7.912743631756036233e-03,-3.001677578138338062e-02,1.086897564892467041e-02,7.951942888886068955e-03,4.614512026309967041e-01
4.606871492992292150e-01,4.487002499678770517e-01,-1.894989565467369852e-02,-1.508607811496430126e-02,2.000887586300943363e-02,1.835953357225929977e-02,4.768029749393463135e-01
4.496145390207868520e-01,4.194537772415944943e-01,-1.333499757398382002e-02,-4.600281265592638669e-02,3.268994613354308382e-02,3.565747180891531976e-02,4.632904827594757080e-01
4.571555334308997631e-01,4.769331434203475939e-01,-1.728091035476581050e-02,-1.276617081625925840e-02,2.042766355232615919e-02,2.168540841666365820e-02,4.878686964511871338e-01
4.409592624767589841e-01,4.697731839690749700e-01,-1.873057216045892481e-02,-2.608904802109217325e-02,1.749122606895743212e-02,1.841083392589487264e-02,4.789228141307830811e-01
5.221774125622151708e-01,4.223321662263148091e-01,-3.272355198471532667e-02,-1.209823497709243238e-02,-1.340168482141809725e-02,-2.852956293494348511e-02,5.156545639038085938e-01
5.036334462909179965e-01,4.639310757326986501e-01,-2.710612708355192302e-02,-6.339550280568147060e-03,-3.851598192069746306e-03,-8.111415317587977042e-03,5.123978853225708008e-01
5.041154211677124630e-01,4.783702414884973830e-01,-3.139069799175930875e-02,2.258488004552397857e-03,-4.922203912950128685e-03,-6.550268329998454493e-03,5.233159661293029785e-01
4.964062867820089320e-01,4.694952076682159525e-01,-6.235834352977753792e-03,-1.237701970189799931e-02,-1.484990461538049150e-03,-6.448094317285129294e-03,4.903443455696105957e-01
5.246335565112665300e-01,4.506520140961240983e-01,-1.053053126630137948e-02,3.205091340168725322e-02,1.785987016080260378e-02,-2.419059961279977980e-02,5.080116987228393555e-01
5.248863010400373064e-01,4.398885586422324190e-01,3.658110187569402205e-02,-7.253195171806095217e-04,-7.399247297614064758e-03,-6.527757217673322426e-03,4.521674513816833496e-01
5.142539093489832958e-01,4.322068769355666973e-01,-2.861767667906989221e-02,-4.728061876047640229e-03,1.546177242219299881e-03,-9.918760421406280087e-03,5.072175860404968262e-01
5.174369579102495731e-01,4.899454879270107588e-01,1.664244929713798449e-02,1.548484505829206964e-02,3.732573003644726545e-04,-2.153841185347420140e-02,4.897905886173248291e-01
5.251058163219131103e-01,4.463260418224885839e-01,-6.402321832064461482e-03,-1.976085045577707661e-03,-3.448608617434676879e-03,-2.830225999398347948e-03,4.968968629837036133e-01
5.902246045402693708e-01,3.703569720927136766e-01,7.369657164404175287e-02,1.800637810037715794e-02,-4.092457655881923811e-02,-1.181616298024970868e-01,4.994585514068603516e-01
5.797246817125560892e-01,3.313706337602748686e-01,5.536404135267308790e-02,-4.176237356767970033e-02,-5.000760657531634623e-02,-9.831030285193599616e-02,4.981325566768646240e-01
6.360236011214088769e-01,4.009951686958992956e-01,4.956026153610332274e-02,-1.108727580176961935e-01,-5.278011185195453925e-02,-8.047728613711191414e-02,5.709705352783203125e-01
5.897567912674004376e-01,3.218261515403992856e-01,4.735719741420363338e-02,-4.593946420273516823e-02,-2.059282017755547159e-02,-1.033265218899172555e-01,5.101875066757202148e-01
5.998879050081480369e-01,2.368978049055585344e-01,4.168395068927172042e-02,-4.562173757185485068e-02,-2.418583908556501405e-02,-9.473889902007805175e-02,5.250297188758850098e-01
4.465709046918898140e-01,4.783932050699085670e-01,-2.443977088820215027e-03,4.216923121938907781e-02,-6.701604741687727622e-03,1.374720817113536664e-02,4.721780717372894287e-01
4.410557521815360316e-01,4.399059755985587072e-01,-2.515025155656602784e-04,3.151646106108827589e-02,7.753802554337103740e-03,-3.475151649184890848e-03,4.443449974060058594e-01
4.340885646708771972e-01,4.367900116417617329e-01,2.937956108829409274e-04,3.564507216348174190e-02,2.834855346004602956e-04,9.240245612927548572e-04,4.395129084587097168e-01
3.965649821414022336e-01,4.474451962534529148e-01,-3.330791794859733201e-03,7.524167716606915135e-02,4.051601605420624384e-03,1.994442221767572104e-03,4.470987915992736816e-01
4.415224452955571754e-01,4.701743197227515880e-01,-2.849408861682245497e-02,-2.583923908881232898e-02,2.263443178579171294e-02,2.085887558636687761e-02,4.899474978446960449e-01
4.080593251780648134e-01,5.220402747855411585e-01,-2.243809041936473125e-02,-2.267653221037362575e-03,3.398272910149070097e-02,4.548604483313163291e-03,5.009292960166931152e-01
4.759683340368858206e-01,5.037764368432269269e-01,-3.396052931036425138e-02,-2.960274263273349020e-04,4.924521600267608469e-03,-2.834341099318711445e-03,5.244787931442260742e-01
4.989074308716547335e-01,5.309405290578043113e-01,-1.468949600106173037e-02,8.297121727508358427e-03,2.950490870585988426e-02,-5.775992645550678643e-03,5.330837368965148926e-01
4.984598161704444363e-01,4.944838465094486546e-01,-1.721635031305618346e-02,1.032059350893189823e-03,4.728638155289371058e-03,5.350627398090671374e-05,5.137681365013122559e-01
4.996249577057718660e-01,4.966129952126245861e-01,-1.665859112708834022e-02,2.721249594099914466e-03,3.829214031821951379e-03,-1.359373822561398860e-03,5.148538351058959961e-01
5.410273997100594201e-01,4.240145453896955186e-01,-2.930317613468347293e-02,5.076646263004391466e-04,-6.699944225021155567e-03,-2.528082261151925331e-02,5.237230062484741211e-01
4.982970730358498024e-01,4.733880966999539641e-01,1.926226432837629954e-03,1.878197871775837352e-03,1.842835847315074465e-04,-1.028332226157150676e-02,4.847353100776672363e-01
4.972511454088618943e-01,4.427055354857281633e-01,4.746353983027307155e-03,3.185091494215239183e-02,3.385944694669611437e-03,-1.385290305198081176e-02,4.715143442153930664e-01
5.002311640405782134e-01,4.679287446028195241e-01,4.095204147396186434e-02,-7.569478440975459851e-04,-7.340855025128631244e-03,-1.776896771599781278e-03,4.442046582698822021e-01
5.040967227022945529e-01,4.678804014131532907e-01,-2.509880821463844613e-02,3.584005656270060347e-03,3.619932250193608203e-03,-5.447379914889066005e-04,5.121257305145263672e-01
5.385503482685221055e-01,4.638735429068698846e-01,6.518306890535674469e-03,-5.386768895153506986e-03,-1.725958045670252655e-02,-1.810361189117873706e-02,5.008674860000610352e-01
5.576917833133581137e-01,4.033626418355921173e-01,-1.093737146654227832e-02,8.865096144840288461e-03,-2.167779075661675162e-03,1.202778704613967874e-02,5.099847316741943359e-01
5.129553499392369709e-01,4.666536648105593654e-01,3.958053391925087094e-02,9.456389198189970669e-04,-2.959506597610649103e-03,9.452605254406131786e-04,4.520410895347595215e-01
4.638509243235843238e-01,4.573982544745859302e-01,-6.255346430931230106e-03,1.035355373555537223e-01,-3.871593210898649235e-03,2.341237517507065852e-02,5.018528699874877930e-01
4.642509174830786178e-01,4.555739033960890527e-01,-4.187505381349876377e-03,2.765331953643648810e-02,-3.929579935359905733e-03,7.358684108845369234e-03,4.668491184711456299e-01
5.143810228952959696e-01,3.878026517077733382e-01,-4.614658905261082023e-03,6.319200177433519083e-02,-2.476047758204469036e-04,2.782555940195630476e-03,4.813398718833923340e-01
5.002674547299841290e-01,4.405744033808425275e-01,-9.490349797023012179e-03,3.227526311563500006e-02,-1.023910522138322433e-02,1.161016728277739288e-02,4.866531193256378174e-01
4.638493044178513269e-01,4.209935659028691268e-01,-5.920484372988366051e-03,2.037092067703150794e-02,-4.762693788320609446e-03,4.393871006808573385e-03,4.513965249061584473e-01
5.186556856774069413e-01,3.735425784217666911e-01,-1.685725452782393941e-03,3.540356838313267474e-02,4.449457940796847956e-03,-2.986844512504091467e-03,4.692025482654571533e-01
4.996966188661622343e-01,3.975765793878536236e-01,-1.025029412177652643e-02,2.179262449465634369e-02,-1.255919852470729382e-02,6.942597100961621880e-03,4.695115685462951660e-01
4.935752856663293553e-01,4.095842632851854903e-01,-3.289852149311933704e-03,1.308568561932494864e-02,3.008816652824553191e-03,6.528585557429132311e-03,4.613740146160125732e-01
5.006726277972730621e-01,5.217415323454286380e-01,1.038301206828042833e-01,-7.047581479288307638e-03,1.012127047302857109e-02,-1.967896519525390645e-02,4.097645878791809082e-01
5.243061969839941661e-01,5.492787988220615425e-01,9.155378963870852704e-02,-1.647291843709059594e-03,-8.411115820142706090e-02,-3.268532933544120167e-02,4.723795354366302490e-01
5.273397033429574332e-01,7.402455893414652266e-01,8.142841885423707238e-02,1.144014108091881143e-01,-2.791632809322569519e-02,2.656367940564610675e-02,6.187251806259155273e-01
5.096341807982400773e-01,5.191208412755856649e-01,6.815343659775890961e-02,5.164576648872348796e-02,-2.341694591338325943e-02,3.019362667354773960e-02,4.599622786045074463e-01
5.073743057400887935e-01,5.056659151520345175e-01,7.180913576269304377e-02,2.363205139757047768e-02,-2.463085083971119828e-03,-1.500091218654269094e-02,4.374294579029083252e-01
6.850962055421129238e-01,5.665415785855967279e-01,8.761273747745224050e-02,4.581672253346845414e-02,-7.794356273726531226e-02,-3.416271762961613917e-02,5.729150176048278809e-01
4.615493633067744295e-01,4.885105785351445129e-01,-3.286428034109473151e-02,-3.980030686507996136e-03,-5.924385205438273058e-03,-1.063466800217583233e-02,5.089144110679626465e-01
4.774010470499807646e-01,4.838797925122773069e-01,-3.881578216824316252e-02,8.102889392592331529e-04,-4.675218907423965044e-03,-6.408686264180455533e-03,5.196700692176818848e-01
4.695460099953738808e-01,4.719660314340020091e-01,-3.659233255097676940e-02,-5.612939124597468576e-03,-9.219254146690511811e-03,-1.018375610757227094e-02,5.080032944679260254e-01
4.706718762103626053e-01,4.530096379513743887e-01,-2.681785971302547145e-02,-1.346739155484917051e-02,-1.529941641519607168e-02,-1.415364849297748133e-02,4.907835721969604492e-01
4.735249272120628516e-01,4.731312014122733833e-01,-3.955091548732309059e-02,-2.192099974206637540e-03,-4.893314895749726300e-03,-5.099760687967937883e-03,5.130392313003540039e-01
4.685554987771124447e-01,4.682701208659659775e-01,-3.090321506212784231e-02,-7.573153132246708379e-03,-7.578364388220572637e-03,-7.654521962162964821e-03,4.998366534709930420e-01
4.997929046327375113e-01,5.471461722610144740e-01,3.395883972180230304e-02,9.588754713417985283e-05,-4.766355147684113447e-02,-3.513779365181178560e-02,5.018186569213867188e-01
3.937806082596705393e-01,4.505084532180259060e-01,7.744812434159975556e-03,-1.970667422070212713e-02,-6.692277701218927923e-04,2.115576957580882298e-03,4.187129139900207520e-01
5.106265533349636510e-01,5.424773434000220718e-01,8.746326114727070999e-02,-1.937266701482100173e-02,-7.445152945803402977e-02,-1.060500306282999468e-02,4.600566625595092773e-01
4.358487978693695863e-01,5.474167201580137920e-01,1.031671279943863206e-02,-5.121486234957309258e-02,-6.441290926525186644e-02,-4.725898091264505579e-02,5.177034735679626465e-01
4.646036993112829250e-01,5.478905329502790078e-01,6.881525925811177169e-02,-3.559996049408691715e-02,-9.891379335390983185e-02,-1.756492972164123631e-02,4.802380800247192383e-01
5.293957489723435383e-01,4.357937436015926203e-01,-2.072595850352249025e-02,-4.517315145476238740e-03,3.861569657852228360e-02,7.404676380125946311e-02,5.299870371818542480e-01
5.172923361015216992e-01,4.375682778932902250e-01,-3.225028652191025413e-02,2.179174567736972428e-04,1.750127763223990884e-02,2.139040033840440905e-02,5.165587067604064941e-01
5.081656174395363657e-01,4.372999613996196855e-01,-3.245764991505384334e-02,-2.239397933179628625e-02,2.029595833572215777e-02,2.475817511952841873e-02,5.133838653564453125e-01
4.980603338753447629e-01,4.340259638110524065e-01,-2.017378625323495989e-02,-1.547854727871860250e-02,2.370794849765944443e-02,2.165920604148318523e-02,4.932489395141601562e-01
4.680347718947065472e-01,4.745104665478638850e-01,-2.004680396851593605e-02,2.017187471463087120e-02,1.478035257708449485e-02,-1.257587654641636847e-02,4.937375485897064209e-01
4.797623135692067331e-01,4.829257113810007662e-01,-1.312874372700634229e-02,1.219659996029460146e-02,8.719569192845395833e-03,-2.296888375576863414e-03,4.951777458190917969e-01
4.799131756587172171e-01,4.988642260768204606e-01,-1.581980761932888502e-03,8.324052709707377429e-02,2.312388288587400101e-02,1.375176726482509743e-02,5.140817165374755859e-01
4.974978577299059568e-01,4.952635090392297768e-01,-4.709133386446462399e-03,2.490712956824064905e-02,1.118672663602814218e-03,-2.006074488017643015e-02,5.041496753692626953e-01
4.788001017758707345e-01,4.867266269263705314e-01,-1.946447045723831426e-02,1.338919039228294791e-02,-1.069424938049068873e-02,1.492876610419378684e-02,5.038148760795593262e-01
4.515382211112818345e-01,4.701766010371638549e-01,-1.547043052198454616e-02,4.867449006908789594e-02,-1.193103062947412432e-02,1.446950277215563324e-02,4.850891828536987305e-01
4.368302351389166116e-01,5.041915707294630788e-01,-9.613389323746113213e-03,5.790536512067578218e-02,-1.682174640593375389e-02,3.646909850418013181e-03,4.948438107967376709e-01
4.318625552975187687e-01,4.850993550831602108e-01,-2.828206101597158240e-02,7.242108138338354539e-02,-4.546048761972158736e-02,3.149247500015965595e-02,5.137835741043090820e-01
4.328040388172620379e-01,4.724864891673066225e-01,-1.355931141353489133e-02,1.289646031869673970e-01,-1.378404781199078690e-03,2.160512844462965376e-02,5.194510221481323242e-01
3.867116724337394396e-01,5.115628591867575903e-01,-4.777929277920978102e-03,4.072529466857887498e-02,-2.313301100442477151e-02,5.470943693333647252e-03,4.737095236778259277e-01
4.548994643662913617e-01,4.930519353865800980e-01,-2.170415078838333622e-02,3.870832811623640263e-02,-1.240878435931172183e-02,1.857283881149243351e-02,5.027742981910705566e-01
4.622920079772268043e-01,5.019053085184153051e-01,-1.398547597547322718e-02,8.990118850136830098e-02,-2.745738023768280051e-03,2.769848750850871510e-02,5.233042240142822266e-01
4.542828997669030588e-01,3.966863823199796024e-01,-9.802445299195605699e-03,8.299679134468343489e-02,-1.098807286721444759e-02,2.817079121119368118e-02,4.640811085700988770e-01
4.234774825224162376e-01,4.665106472242109836e-01,-2.657053872858139432e-03,3.327621068632296425e-02,-1.537647826852297540e-02,1.836668772072483011e-02,4.547786712646484375e-01
4.632199027232141164e-01,4.452483364264677723e-01,-8.142468889143328337e-03,3.897171032666991303e-02,-2.096995761551442850e-02,1.864970336868629688e-02,4.700567722320556641e-01
5.265219927618982609e-01,4.702498266949670658e-01,-2.070157274527933966e-02,6.474019552836988989e-02,-2.445962975608501067e-02,2.143392497492009260e-02,5.362589359283447266e-01
5.018712824274560447e-01,4.274390061862760604e-01,-2.779755676050787994e-02,2.826362115141153181e-02,-1.525957837332011895e-02,3.511852013759697577e-02,5.034478902816772461e-01
2.817118737091650060e-01,5.390089726862214992e-01,1.136411340898813016e-03,-6.059691185345781467e-02,-5.717264863947616252e-03,3.230330641970130274e-03,4.777666330337524414e-01
4.825985263075012188e-01,4.770090709932919282e-01,-2.982289584048519737e-02,-8.328367986262408262e-03,1.535649524390572673e-02,1.834236186036882280e-02,5.115346312522888184e-01
4.349442593514146749e-01,4.889362967330678766e-01,-2.482681218758109321e-02,-2.348834460473891647e-02,2.489587624737198482e-02,2.853570188119106121e-02,4.950615465641021729e-01
4.724872388679086099e-01,4.998933442907438351e-01,-3.939378031539148006e-02,-2.843611184818293047e-05,6.975708423053689038e-03,7.121023211233181750e-03,5.264029502868652344e-01
4.467268751784434500e-01,4.571547044492516587e-01,-6.214053814853237601e-03,9.277248934505301359e-03,-2.068455303082126964e-03,4.876024688518482315e-03,4.586172401905059814e-01
4.622838765495794755e-01,5.024140081952629400e-01,-2.705926227320398780e-02,-6.505074879430810739e-03,7.075227647916700231e-03,6.279491394639972503e-03,5.109794139862060547e-01
4.829189790599165422e-01,5.202775155953575092e-01,-3.705529125761725107e-02,-3.654203864238084057e-04,2.025577301492066315e-02,1.837056958718692040e-02,5.416992902755737305e-01
4.793381579708307916e-01,4.140897152974644113e-01,-2.148036299587419151e-02,-3.280204211066317654e-02,-2.406339525957532088e-02,-2.829749221399508949e-02,4.793393611907958984e-01
4.928442319742799560e-01,4.385299593475874280e-01,-2.858206975148586126e-02,-1.831628101911539352e-02,-1.945891010452351771e-02,-1.858546842140295849e-02,4.996930956840515137e-01
4.711356067170804351e-01,4.792057605437428092e-01,-3.312115778602758853e-02,-4.950524992082312552e-03,-8.672043852560791868e-03,-1.197823890734470501e-02,5.090569853782653809e-01
4.820406564728588750e-01,4.792400958551860102e-01,-3.713156220065805257e-02,-4.540710595224235237e-03,-8.605774769310384556e-03,-9.487909169624143824e-03,5.183123946189880371e-01
4.840867741137264146e-01,4.972100238517425108e-01,-3.529315358147444570e-02,4.750373987272661419e-04,-9.790101384648420158e-04,-7.129485071231632647e-04,5.260691642761230469e-01
4.800748932818563741e-01,4.841678925624662844e-01,-3.385842373490943746e-02,-4.348419970603359039e-03,-5.163460291279895094e-03,-3.613630678486234697e-03,5.161623954772949219e-01
4.819773796243007613e-01,4.780992830670169336e-01,-3.693272233202410382e-02,-8.307293240601488701e-03,-1.123087937752330172e-02,-9.723795754489636053e-03,5.178218483924865723e-01
4.593737978472392514e-01,4.807034677035649795e-01,-3.362778056772414148e-02,-7.711353668470891272e-03,-1.262084181244165458e-02,-1.268747078735095110e-02,5.051338672637939453e-01
4.903815421004744102e-01,4.753872382409585207e-01,-3.083289946929107517e-02,-4.910196235523933174e-03,-1.148998002598759262e-02,-7.592595416782741725e-03,5.145050287246704102e-01
4.898411337403120736e-01,4.806274251588914526e-01,-3.286097227770318208e-02,1.536416467885563561e-05,-1.851982450452503649e-04,-1.073338230168232850e-03,5.181601047515869141e-01
4.735742482473401793e-01,4.819610885688050961e-01,-3.355462754293192518e-02,-9.274808233600412288e-03,-7.846712819337554878e-03,-7.036203648574238141e-03,5.119516849517822266e-01
5.063551721867068922e-01,4.770348734395998269e-01,-2.021629541214808867e-02,6.376351296106226932e-03,-7.949423283712412020e-04,2.670830858366082545e-03,5.126823782920837402e-01
5.145698419291329095e-01,4.786433931938850472e-01,-3.082710137608940526e-02,6.985113613961541588e-03,1.670803721944887988e-03,4.050204575633823550e-03,5.285435914993286133e-01
5.507839814530430811e-01,4.124550117948287964e-01,-1.910424126284071544e-02,3.084089876416362674e-02,6.334159334388700553e-03,2.743368182718289999e-02,5.199106931686401367e-01
5.154396692012347403e-01,5.026631800007761441e-01,-1.396327228986155022e-02,1.749588028577405557e-02,-6.290244481375187498e-03,2.429462066213815621e-02,5.258084535598754883e-01
5.197338062054104313e-01,4.790669650666429802e-01,-3.126117013024209967e-02,9.451454549118351242e-03,-7.484695097150158988e-03,2.942628227289069160e-03,5.322631597518920898e-01
3.404971980895950545e-01,5.900962570252450412e-01,-2.031052763897767122e-02,-3.718803041118714462e-03,-3.899534735465431251e-02,-1.056103247239362523e-03,5.358600020408630371e-01
4.249719274591341467e-01,5.229007844488874346e-01,-2.511445682669311008e-02,-1.281420100092638126e-02,-1.265662938614122227e-02,-2.980313419922945434e-03,5.071923732757568359e-01
5.168479751906911446e-01,4.365888929503060067e-01,-3.165505029340670573e-02,-1.680562551289242409e-02,2.894467828021570627e-02,3.225478451541118757e-02,5.193809270858764648e-01
4.095899858137292404e-01,5.699934105371959880e-01,-2.262584916847198979e-02,-3.506428283558173792e-02,-3.979583493290095308e-02,-5.714558801125906723e-03,5.388935804367065430e-01
4.817047052069282076e-01,4.982853207994262235e-01,-3.537269998023950812e-02,-2.165552249576028414e-04,-1.741989472444526203e-03,-3.857966343926607354e-04,5.255731344223022461e-01
5.267043448869215272e-01,4.726019237911232573e-01,-1.829231887189330941e-02,7.969768234383931005e-03,-3.842574003308818573e-03,8.918909713168955353e-03,5.205153822898864746e-01
4.694608736482210332e-01,5.254112299580868672e-01,-2.841926251184268004e-02,-1.425525937167381081e-02,1.965947257065811526e-02,2.632667615094580471e-02,5.317142605781555176e-01
5.242727938725767478e-01,4.360271306428445959e-01,-3.124643410944166755e-02,-1.125523153184329259e-02,1.438931653369461550e-02,1.064404035312675224e-02,5.183703899383544922e-01
4.717797957027169975e-01,4.356305656529481096e-01,-2.150963492886182049e-02,-4.503127499754006058e-02,2.269312553318965017e-02,2.324335555072771023e-02,4.858583509922027588e-01
3.645360624847420183e-01,5.624443361501529903e-01,-1.688200596350142302e-02,-5.739863890113302419e-02,-5.694241359071371134e-02,-1.805611635934242093e-02,5.298324227333068848e-01
4.678815751042806892e-01,5.029657150676396515e-01,-3.557344678602980537e-02,-2.994757377866644199e-02,4.397787891595059812e-02,4.194123835285967078e-02,5.349122285842895508e-01
4.502465677223822516e-01,4.605198538066717084e-01,-1.774190252138219126e-02,-4.723517011506218194e-02,3.272396606372077188e-02,2.846762891905657913e-02,4.860697388648986816e-01
4.615053093113439808e-01,4.717401061624116876e-01,-1.872938380244520973e-02,-3.485026884571115757e-02,1.948857972530955093e-02,1.856877359004334774e-02,4.913884997367858887e-01
4.904917319447147928e-01,3.800579759338552632e-01,-2.012797318572029370e-02,-5.857873965360453627e-02,3.817509344755064260e-02,5.216041465992070358e-02,4.892514646053314209e-01
5.417325801660208828e-01,3.800064470196878874e-01,-2.201480276063072505e-02,-6.737892474961594547e-02,4.290228696123957186e-02,5.192885302715991025e-02,5.291740298271179199e-01
4.637725366609485311e-01,4.362022827836570249e-01,-1.636277462057433851e-02,-3.061272613916343407e-02,2.095216327293544095e-02,1.810421658051641208e-02,4.724026620388031006e-01
4.980279326245995453e-01,4.340428120692729208e-01,-1.769120999164836006e-02,-1.543861515299283817e-02,2.180272208863579669e-02,1.968394236868598393e-02,4.902708232402801514e-01
4.623534223170526758e-01,4.372727585706551734e-01,-1.948012611850558073e-02,-2.998302819596128030e-02,1.893523049188187979e-02,1.871813659420215256e-02,4.749016463756561279e-01
2.641938652080813021e-01,5.681437586682587249e-01,7.651557168942280107e-03,-1.049354490600519219e-01,-4.549054084669455766e-02,-3.872441360557357659e-02,5.290715694427490234e-01
5.078619171539147104e-01,4.388455057382705249e-01,-3.058573427399019495e-02,-2.309647497940892080e-02,2.019569657435088886e-02,2.699758402781618147e-02,5.123845934867858887e-01
4.361688749277624622e-01,4.913156605492532414e-01,-3.623828204936502262e-02,-2.180951233820856844e-02,2.248907302663248273e-02,2.249887583057490203e-02,5.066796541213989258e-01
4.646813291092812825e-01,4.581188708485380845e-01,-3.032787501738631875e-02,-2.794246685149311821e-02,2.324595828080183030e-02,2.716050318098764405e-02,4.980012476444244385e-01
4.382222751840700870e-01,4.420929089404062040e-01,-2.275911875664726747e-03,-2.410695461851794681e-03,-4.211152148191902450e-03,-3.662051975742639399e-03,4.425714612007141113e-01
5.013664321507877997e-01,4.952551497634800626e-01,-1.285939186478224361e-02,7.943333806463545588e-03,5.600948135351874364e-03,9.264670155413663732e-03,5.117263793945312500e-01
4.906515234866172248e-01,5.009971845835796689e-01,-4.190665446062818988e-02,-6.643410052185279302e-03,2.645644896370387064e-02,2.322648610281620798e-02,5.413737893104553223e-01
4.132468743255828247e-01,4.563010860339973274e-01,-1.535778554681377639e-01,-2.700783014633555412e-01,4.106571693915168908e-02,1.546361496736720943e-02,7.564070224761962891e-01
4.846563457429218236e-01,4.661268156289828379e-01,-3.292214751665456518e-02,-4.061944562174448978e-03,1.579474920131450355e-02,1.223526494476971996e-02,5.097914934158325195e-01
5.018446646157201929e-01,5.057640828397087507e-01,-2.729429104018060714e-02,5.238557799143800852e-04,1.256912652143960842e-02,1.037729404787364820e-02,5.318601131439208984e-01
5.053649561540605184e-01,4.855169025535326921e-01,-3.522909294875831154e-02,-1.295233247898579937e-02,2.360647393738763561e-02,2.181043754567116300e-02,5.343297719955444336e-01
4.954731008198136610e-01,4.326476485127742633e-01,-2.900767181096858272e-02,-2.678296150524673430e-02,-1.492510367974922425e-02,-1.471758489146302896e-02,4.995462596416473389e-01
4.902237932184457803e-01,4.881847956096399543e-01,-3.202700028898280982e-02,8.592325074179543633e-04,-1.439731228094411064e-02,-9.459691182956758357e-03,5.220897197723388672e-01
4.892570344009132266e-01,5.188599051417372987e-01,2.276467753919886317e-02,-2.899685537524116646e-02,-2.234817833628082850e-03,-2.235933943708914243e-03,4.846167564392089844e-01
4.676640695834992645e-01,5.094752488114064892e-01,2.270225003982656586e-02,-1.427772552501891182e-02,-9.009995321630896205e-04,-2.566970234554532930e-03,4.679501354694366455e-01
4.716776448709634750e-01,4.523716666304493650e-01,-2.865717422702390715e-02,-1.332086375729363802e-02,-1.671099911867029997e-02,-1.281990710911913058e-02,4.928603768348693848e-01
4.576404337719576221e-01,4.763398637945442382e-01,-3.339439298859303573e-02,-9.703535969773375430e-03,-7.835027098890423244e-03,-8.911305174085526817e-03,5.013499855995178223e-01
4.968215870998551331e-01,4.839125969133168947e-01,-3.125415783001161962e-02,-2.086257299613926766e-03,1.916058509583034621e-03,-1.370790065811284576e-03,5.217695236206054688e-01
4.839996609766070157e-01,4.394179097610373397e-01,-3.234701120580396605e-02,-1.952914249744363076e-02,-1.732333527516651331e-02,-1.659907274467636168e-02,4.984504282474517822e-01
4.901057648183271276e-01,4.635532583434741061e-01,-3.728236554250252688e-02,-5.304230813798681277e-03,-8.788929619247216884e-03,-7.184514850803725566e-03,5.150833129882812500e-01
4.681744961507352532e-01,4.944793352061829794e-01,-2.388438407430448773e-02,-3.070566278856658518e-02,-2.014371660850292414e-02,-2.557010361811999991e-02,5.116294622421264648e-01
4.228468143637095222e-01,4.274570357820549615e-01,-3.078883345895289114e-03,-3.805745447130392395e-02,-1.250911500458879409e-02,-1.220992180715011963e-02,4.343493580818176270e-01
4.427228962119862388e-01,4.250119796063051014e-01,-1.120735450511622933e-02,-7.485972737901235019e-02,-8.526903905217684404e-03,-9.330773253675782308e-03,4.643469452857971191e-01
5.474228083694903102e-01,3.068317489128337128e-01,-6.336318801222984298e-03,-5.856487029992685223e-02,-2.327138805324342405e-02,-3.740131284996664474e-02,4.974077939987182617e-01
4.794915513500720428e-01,3.863437601658344933e-01,4.012215359151638516e-03,-5.250087520728084073e-02,-1.735093496262077664e-02,-1.469107323136322786e-02,4.475342929363250732e-01
4.933473021115039048e-01,3.755569634602812235e-01,-8.187571381747638100e-03,-5.284753318744968981e-02,-5.402366244605932323e-03,-1.450539278722434537e-02,4.641478061676025391e-01
3.521852336746602585e-01,4.953274342787993834e-01,-3.411886741800990164e-02,-1.640798358805695412e-01,-3.919813796578784648e-02,-2.223663919391860588e-02,5.584589838981628418e-01
4.018104731069144231e-01,4.842725119155484315e-01,-5.921560224551536411e-03,-7.838777081479586517e-02,-2.997314533423769967e-02,-2.171955030409254001e-02,4.787610471248626709e-01
3.867597173789245613e-01,3.862396977300316392e-01,1.889858971612479177e-03,-1.327092331698139227e-01,2.943489903367760025e-03,1.023647429672364453e-02,4.484423100948333740e-01
4.741023205337716595e-01,4.910235250940643836e-01,-2.955898967613146411e-02,-1.885676715729539196e-02,-2.659554361916537102e-02,-2.574351815788696041e-02,5.173591375350952148e-01
3.723640162617883886e-01,4.762298443739115261e-01,-5.162306772402147637e-03,-1.504717932219105103e-01,-3.367980773195794475e-02,-3.878476412928188316e-02,5.180418491363525391e-01
4.733676998156610138e-01,4.574032837056142831e-01,-1.500214542751210356e-02,-9.830122416080339098e-02,-5.406004737792525355e-02,-5.658666673563782223e-02,5.275665521621704102e-01
4.640971009254127866e-01,4.854967231972533437e-01,-3.214978832188608582e-02,-2.087729212780900512e-02,-2.452422673371605633e-02,-2.228692660286626243e-02,5.118011832237243652e-01
4.628080107528808051e-01,4.940058263333304556e-01,-3.770367600199231450e-02,-5.102892097948017223e-05,8.565775901127122439e-04,-6.698055761222529957e-03,5.169496536254882812e-01
4.455387659273598033e-01,4.957621627077858917e-01,-3.723004896835335753e-02,-2.099361807045657408e-03,-1.158148795707536136e-02,-1.202017852807871733e-02,5.105717182159423828e-01
4.385062113490785229e-01,5.092769397729832725e-01,-3.563576744274704611e-02,-2.386314953751503612e-03,-1.662787905183875717e-02,-8.558146692166826441e-03,5.142380595207214355e-01
4.720110444565847052e-01,4.937336121575220949e-01,-3.537355889113441565e-02,-1.991180966731402775e-03,-3.632731846268632582e-03,-5.380439896789157572e-03,5.187205672264099121e-01
4.755982342048893918e-01,4.957722212821595864e-01,-3.693760979909066489e-02,1.193784662143317207e-03,-5.216707520058322910e-03,-5.278186620759530399e-03,5.230768322944641113e-01
4.796535212292512007e-01,4.776540624241824018e-01,-3.925557465680173941e-02,-6.386968582650104191e-03,6.639664188211325847e-03,7.715358414197154291e-03,5.183303356170654297e-01
4.747972976732053318e-01,4.785564985394216708e-01,-3.912421458982578981e-02,-7.909927293740487420e-03,6.964464372034513510e-03,8.412091973502228495e-03,5.163398981094360352e-01
4.885090732921524292e-01,4.858013250723337562e-01,-4.070861326064256769e-02,2.219191197649176672e-03,9.307376332320385854e-04,2.501668171643026042e-03,5.279032588005065918e-01
4.796719468425051924e-01,4.871741601611269123e-01,-4.387201895137493590e-02,5.115976563311232673e-04,1.519044631361015979e-03,2.042432623806578283e-03,5.273543000221252441e-01
4.827768990263884286e-01,4.821273029734463034e-01,-4.007279268263191918e-02,1.955408996582881382e-03,5.145740973166073109e-03,6.026272452999150396e-03,5.227164030075073242e-01
5.525913881689044072e-01,4.293408119113129584e-01,-5.772776045023575442e-03,1.392148398959195017e-02,1.081687669865695478e-02,-1.552004577789097874e-02,5.097034573554992676e-01
6.089785682640280751e-01,4.122591125016213942e-01,-3.610523766064577256e-03,1.792606226464604768e-02,-9.871610507295770776e-03,-6.427327504685574622e-02,5.541707873344421387e-01
5.107728630681895865e-01,4.314410949775844273e-01,-1.947299681420189277e-02,6.177960520383344624e-03,8.742067588133641681e-03,-1.976678486609413643e-02,4.968951642513275146e-01
5.145200766459657737e-01,4.831680318411424313e-01,-9.405526351822679487e-03,-2.090754093336394046e-02,-2.897903612436082688e-02,-3.762314338214658993e-02,5.168482065200805664e-01
4.995045605497398511e-01,4.908381626516579166e-01,1.655662844563199343e-03,2.436054168762988824e-03,-7.629603082717309123e-03,-2.069609092752483503e-02,4.950671494007110596e-01
5.382122784403193805e-01,4.073424473073359309e-01,-6.395772914473185633e-03,-2.970454366009744190e-03,-1.630974805592166899e-02,-6.619006754761784517e-02,5.063792467117309570e-01
4.685435356256537620e-01,4.715508172855294999e-01,-3.064514541659257851e-02,-2.055273811379667789e-02,-2.124315997315958174e-02,-2.631438505379157106e-02,5.053691864013671875e-01
5.050870221016635631e-01,4.158571066591548737e-01,-2.622845169649967723e-02,-1.282272598762870287e-02,-1.461437599193495841e-02,-2.399960428167861176e-02,4.956922829151153564e-01
4.922987308135753359e-01,4.969066871413295727e-01,2.292202324039838146e-02,1.179569696495525247e-02,4.534035383659283658e-03,-1.573826104769622883e-02,4.729912877082824707e-01
5.024444787904522869e-01,5.032893564429720135e-01,-1.038366439276394715e-02,-2.313652375614962120e-03,-8.644969009149497743e-03,-5.452751529182600990e-03,5.135719776153564453e-01
4.383074132366390208e-01,4.574158842928311985e-01,-2.918085464957326236e-02,-6.277853922672656239e-02,-4.788493905818767826e-02,-3.292062179346292444e-02,4.997969865798950195e-01
5.045815530432146145e-01,4.991717235690232846e-01,2.746252238087426578e-02,3.885579196045328958e-03,9.374706690043711418e-03,-1.147838975423173292e-02,4.751788079738616943e-01
4.821207272678953437e-01,4.826793780473751516e-01,-2.966018854745949840e-02,-1.141773720208694907e-10,-1.073196608879641533e-04,-1.853571778353378804e-04,5.120605826377868652e-01
1.802322579578863881e-01,6.070685534639288505e-01,-3.085230462706156640e-02,-1.167020049628892941e-01,-4.357082731089827882e-02,-2.642369315767187712e-02,6.045597195625305176e-01
5.116915093355089983e-01,5.214079002085078018e-01,2.812992193315388967e-02,2.800435502920792241e-02,6.920540020959746290e-03,-9.469703216732112613e-03,4.913147091865539551e-01
4.944073290381764130e-01,4.993220290174532616e-01,4.313122034530719739e-02,2.050245922321314827e-03,4.464233287097248495e-03,-1.432510164028888769e-02,4.545109272003173828e-01
5.007195590928599227e-01,4.852307623556186278e-01,5.995672531243406711e-02,2.787975486072150240e-03,-1.308776645988782295e-02,-1.989318869492600651e-03,4.338593780994415283e-01
2.021338066722668803e-01,6.091345832166010776e-01,-3.243741402644584326e-02,-5.300812480339337635e-02,1.514388670704938829e-02,1.619047173433994444e-02,5.710060596466064453e-01
4.932891990995699194e-01,4.985162834259465048e-01,4.031436454872250330e-03,2.110459556161292660e-03,-3.010427385770575188e-03,2.378387635155724926e-03,4.919506013393402100e-01
5.389639916195871905e-01,5.543401981493616404e-01,8.401998629879520175e-02,2.907950684504295030e-02,3.617382310746127677e-02,-2.474445801066893838e-02,4.717045128345489502e-01
4.637383089268627412e-01,4.590441708698116408e-01,-2.398337153714297232e-02,-3.005236910250179416e-02,2.024703189945271237e-02,1.689982248570989082e-02,4.903071522712707520e-01
4.754854738570178929e-01,4.759313238074794894e-01,-3.259303586591300039e-02,-8.518166423916085153e-03,9.048510998801641281e-03,7.542373910197846566e-03,5.089247822761535645e-01
4.757016042306032588e-01,4.631556119580244602e-01,-2.580910836145594578e-02,-1.007343438558167339e-02,1.197185409251807879e-02,1.837953773793539816e-02,4.971179664134979248e-01
4.711336824729688288e-01,5.004877387469632843e-01,-2.888658173471519985e-02,3.217872123451417585e-03,-7.466326572158720268e-03,1.632513111151550787e-03,5.155248045921325684e-01
4.607040201764041609e-01,4.814890200813816135e-01,-2.682888760517948556e-02,-1.407399784559755257e-04,1.040639230657213095e-02,1.506599696637855174e-02,4.992590546607971191e-01
4.914964874453804922e-01,4.665357056825789606e-01,-2.539723699705531690e-02,1.204947561944019405e-02,1.135636678055122750e-02,-7.525470090572927012e-03,5.058581233024597168e-01
4.651970445352529571e-01,4.940959656973210046e-01,-2.413802338677084602e-02,1.566474222386905063e-02,1.570792539814543434e-02,-1.555935761064370509e-02,5.065845251083374023e-01
4.891745067259174462e-01,5.020111851641310130e-01,-3.138141339868960600e-02,6.605228449796123405e-03,1.076267377720475059e-02,-4.387247408542523965e-03,5.275998115539550781e-01
4.808174353397098866e-01,5.101905997837825613e-01,-2.926904954150633120e-02,6.407332154479160324e-03,5.747493288259201451e-03,1.772807626574966983e-03,5.256096720695495605e-01
4.801468846960491588e-01,5.021429703176352177e-01,-2.496529751101639327e-02,5.524769204027030201e-03,2.157000955212297778e-03,-6.791212157907297077e-03,5.166977047920227051e-01
4.982651969169287209e-01,5.045046216691695395e-01,-1.244393434227092365e-02,3.819278703738144317e-03,1.586749211033922037e-03,3.128992642064259110e-03,5.139357447624206543e-01
4.932640957425994399e-01,4.924636315435226286e-01,-2.245170244012328897e-03,1.434528294876046862e-02,-4.997406199600348646e-03,-1.117612366837172910e-02,4.961858987808227539e-01
5.317090547291615232e-01,3.683347319037750811e-01,-1.298935265621070645e-02,3.092198226657890195e-02,1.181320425958392629e-02,-2.985507610998865483e-02,4.902641475200653076e-01
5.129549523763798913e-01,4.893999721014650195e-01,-1.863045830970189165e-03,2.756474825208329264e-03,-2.342315625675902343e-03,-1.019324755016721637e-02,5.038023591041564941e-01
5.342358005338895266e-01,4.013158537005619420e-01,-4.006641597853827230e-02,-2.067100751157654320e-02,-1.706253526360510669e-02,-4.840947900675744708e-02,5.294716358184814453e-01
6.040626298355196155e-01,3.286080914638505601e-01,-8.626564762945765352e-04,4.299576689351408687e-02,-1.499251247289375448e-03,-4.517486720183889332e-02,5.355888009071350098e-01
5.401717886973483873e-01,3.877903533210924625e-01,-2.009147570549968398e-02,-1.742044065635783498e-02,-1.366052573123854690e-02,-5.490503591634186831e-02,5.121086239814758301e-01
5.869602845551509240e-01,3.550233202887242423e-01,-2.243971308134595777e-02,-3.180512025625119570e-03,4.994586363776269168e-03,-4.217731805047451182e-02,5.378314852714538574e-01
4.655405635313771828e-01,5.214651861787560350e-01,4.462718061879344944e-02,-1.975919807114122004e-02,3.949461370523918435e-03,-1.587468278943110836e-02,4.536619484424591064e-01
4.800057723717850999e-01,4.917464349613899222e-01,-5.973599354433922759e-03,-6.050636912964396652e-03,-8.180731526436713780e-03,-3.160965651886113188e-03,4.923008084297180176e-01
4.306394691015646981e-01,5.173323776153135878e-01,1.387549538750959544e-02,-2.904807904915140959e-02,-6.831041392922972133e-02,-9.353144892354992718e-03,4.838709533214569092e-01
4.564540191836866656e-01,5.196760724336708659e-01,3.212576379688103501e-02,-3.768091742958090684e-02,-4.225985368359541638e-02,-1.772028698482386658e-02,4.705716371536254883e-01
4.673294563325567363e-01,4.862348121613873086e-01,-3.968140542767378820e-02,-6.844281682624545234e-03,4.628836548836876008e-03,6.553033452399607134e-03,5.170457363128662109e-01
4.595432043427443158e-01,4.775610062059956196e-01,-2.621714185532192376e-02,-7.644662987818452021e-03,1.362432073478100913e-02,1.513133675472021385e-02,4.964465200901031494e-01
4.918534795930247783e-01,4.902465641737918101e-01,-3.283223962077386204e-02,-4.282417855932474588e-04,5.555971272902078203e-05,-1.828001675167072095e-03,5.238941907882690430e-01
4.481368191878737361e-01,4.563099448812745207e-01,-9.593204531172350169e-03,-9.341955787123943158e-03,9.454185487419514838e-03,7.494953769911672989e-03,4.626263678073883057e-01
4.596807961753029415e-01,4.349508390153722370e-01,-1.965866026106388720e-02,-3.091059034701297212e-02,2.182713800565129827e-02,1.891500263739168824e-02,4.731731712818145752e-01
4.765565940024203417e-01,4.546603810080738217e-01,-2.003275733030746020e-02,-9.266394039595010276e-03,1.929425681402703249e-02,1.470528022338573118e-02,4.880882501602172852e-01
4.500627957850589222e-01,4.703059985340918847e-01,-1.908448376719312778e-02,-1.657310129671757393e-02,1.086448955941029214e-02,1.070767405854180718e-02,4.811736345291137695e-01
4.491445614929708841e-01,4.582231979658182852e-01,-2.487429376891736599e-02,-1.096517444748128407e-02,1.022651420279807599e-02,1.023174421665625639e-02,4.796543121337890625e-01
4.747950272757065493e-01,5.121782960166003651e-01,-7.243351661788244300e-03,9.572336569369359685e-03,2.256864812056239120e-04,9.901410829881289802e-03,5.023423433303833008e-01
4.971953361666080484e-01,4.917938805278967429e-01,1.971915095258613970e-02,6.161928383951494189e-04,-9.351778968161774536e-03,-6.741274026066343752e-03,4.752193689346313477e-01
4.756518002575865767e-01,5.010169126986215860e-01,-4.288417831785018564e-03,-3.328790233801720913e-03,-1.932507822814167903e-03,1.206857162267242593e-02,4.936001896858215332e-01
4.938681786357715375e-01,4.982385766163430763e-01,4.000756381330561329e-02,3.853592711594777329e-03,4.549642326021491497e-03,9.266561073530605631e-04,4.561812579631805420e-01
4.468607920893110097e-01,5.450573885242013805e-01,-2.523358734919722846e-02,2.106484911860746073e-02,-1.472103437347998915e-02,1.292373049554101233e-02,5.304301381111145020e-01
5.028462732145034808e-01,4.980161999555119956e-01,2.042286014801375504e-02,9.907222729744201081e-03,4.352801761815590538e-03,6.990027993295273509e-03,4.805449247360229492e-01
3.479274225288179201e-01,5.791832910539089774e-01,-2.353177141369289238e-02,3.758365886666971412e-02,-1.418216023627441764e-02,2.868938284961934995e-02,5.335481166839599609e-01
3.266532729933728785e-01,5.305854301861391287e-01,-1.496617715972453633e-02,5.708560032635517922e-02,-2.595368304454993835e-02,1.322563518798182750e-02,4.901848435401916504e-01
3.563817403036675380e-01,5.745613749144373728e-01,-5.999477392333141257e-03,3.083884202837802041e-02,-5.267314899877895834e-02,2.105234408317501610e-02,5.200892090797424316e-01
7.549566063982378061e-01,6.938815306982452080e-01,9.463864872194494016e-02,6.373535401703731007e-02,-4.080453036727770683e-02,-6.526154792013938444e-02,6.552708148956298828e-01
3.767342913330462562e-01,5.169950831700111937e-01,-5.200429780435500415e-03,-9.684412936739485167e-02,7.793722174193225272e-02,5.538703404510204181e-02,5.240990519523620605e-01
4.355875325371633133e-01,5.141190360549242611e-01,-1.314056545583025537e-02,-2.086577450547219201e-02,3.431066988018528774e-02,1.774332254335877004e-02,4.985435605049133301e-01
4.542097813612626656e-01,5.110724615245171298e-01,-4.336518022296853569e-02,-1.573620731805266265e-02,3.413502281189677995e-02,2.911321599368510427e-02,5.346857905387878418e-01
4.578708945455789991e-01,5.249474739795298994e-01,-1.563553043235044182e-02,-3.906277349680881139e-02,3.507020174055540396e-02,2.019927090535477560e-02,5.195770263671875000e-01
3.987312726351840420e-01,4.796348436062324305e-01,-2.135282368531155051e-02,-7.289049274400623279e-02,1.736277304124152210e-02,1.201401539796819601e-02,4.840235710144042969e-01
5.387649222835125817e-01,4.289353687742661903e-01,-1.785026821775681505e-02,8.742274306528029226e-02,2.113566362993537714e-02,-1.936672770663559057e-02,5.349240899085998535e-01
4.794114020834514545e-01,4.615736830859544226e-01,-9.975474973740960927e-03,5.610205987857020543e-02,1.830472962403811507e-02,-1.341484028434212876e-02,4.920117259025573730e-01
5.038690902127065385e-01,4.070546906523030417e-01,2.330198799996852088e-04,5.841549733351059093e-02,1.368183984761847660e-02,-2.747796485798858351e-02,4.767881035804748535e-01
4.373563358505412890e-01,4.970175938986998165e-01,-1.479203534076595217e-02,5.009953084630052594e-02,4.164601158302339012e-02,-6.951676649379553118e-03,4.978467524051666260e-01
4.357166949240574572e-01,5.045616174345164406e-01,-2.816122672428128526e-02,4.860156495922342973e-02,3.748783202296185335e-02,-1.154429156655133355e-02,5.133811235427856445e-01
4.782146226331094319e-01,5.294110809821407360e-01,-8.445821532898800665e-03,7.029406273332507171e-02,1.460041363701579387e-02,-1.859019273134115274e-02,5.299762487411499023e-01
4.689751913585420984e-01,4.925135872954550242e-01,-1.021912973735922270e-02,3.330582341803649260e-02,1.659020826657262027e-02,-5.734980846853584419e-03,4.956943988800048828e-01
5.242607233692511137e-01,4.325025606053025107e-01,-9.966060103106189061e-03,-7.613072445288680823e-02,-4.975781327463127401e-02,-3.570837068746524762e-02,5.229135751724243164e-01
5.149498711568789577e-01,4.589101217504326646e-01,-3.233277635777115355e-02,-1.682135293203293859e-03,-1.075895819585419994e-02,-1.023462768990064838e-02,5.221677422523498535e-01
5.684272687542673008e-01,4.465082323619118387e-01,2.530107298463524224e-02,-1.386939048355409834e-02,4.910573224595734913e-03,-2.749068300782845850e-02,4.965375363826751709e-01
5.217607058570941092e-01,4.895525320929927648e-01,-3.804764551357253666e-04,6.924011734488881868e-05,-1.370010651228423422e-02,-1.543246461879008331e-02,5.080640912055969238e-01
4.979898084462939245e-01,4.984224826396623231e-01,-6.514243807186348434e-04,-8.493471336841368000e-03,-1.631034381840961583e-02,-1.384427856439708615e-02,5.004482865333557129e-01
4.972675083090097869e-01,4.790958622741887107e-01,-2.538223169257863843e-02,-6.428800821246420834e-03,-1.234642669645387610e-02,-1.182778864966134262e-02,5.147781372070312500e-01
4.877627262815031894e-01,4.816088894695020328e-01,-3.371879208887063051e-02,-1.807053865881823795e-03,-9.829566486559148525e-03,-9.573303220776645250e-03,5.189858675003051758e-01
4.919169894713431024e-01,4.635244422495616856e-01,-3.296616363746052158e-02,-4.211262234889621980e-03,-1.183449686941956056e-02,-8.858068389067500631e-03,5.119711756706237793e-01
4.764791793313246648e-01,4.668071263155120221e-01,-3.486036323619901012e-02,-3.907034649603128434e-02,-3.881596787282693556e-02,-3.309228998868805893e-02,5.186528563499450684e-01
5.012225565499328628e-01,4.236960374789557893e-01,-2.732936286808795856e-02,-4.805147556957636845e-02,-2.995996497536193570e-02,-3.583763353283967584e-02,5.078123211860656738e-01
5.029853589450397067e-01,4.326063525202066828e-01,-2.779613570129912947e-02,-2.562921565378455113e-02,-1.643779684123871862e-02,-3.695954015742873577e-02,5.061674714088439941e-01
4.891921962899175580e-01,4.423481558374743328e-01,-2.782809270091168852e-02,-1.515709918782232220e-02,-2.218187255311836886e-02,-2.002770087665980275e-02,4.986518621444702148e-01
4.940769804451738967e-01,4.890957777712003907e-01,-2.761998093589002057e-02,-1.946466364854355056e-03,5.742386014304741784e-03,-4.105650002400939441e-03,5.193791389465332031e-01
5.004838967409969142e-01,4.637948784093315346e-01,-2.890634189471158466e-02,-1.523308865358872144e-03,5.769287947588278356e-03,-4.164960958904174483e-03,5.121876001358032227e-01
4.966758050347780395e-01,4.702424172900352417e-01,-3.112041785038804909e-02,2.043039247271896935e-03,2.177840687309995273e-03,2.921526365513774873e-03,5.151392817497253418e-01
4.992750629296807685e-01,4.762875678648889055e-01,-2.535525036846508762e-02,-9.200029720192637490e-04,4.981061541858936362e-03,-4.671331972880588511e-03,5.136612653732299805e-01
5.038596692057186743e-01,4.767591677361664448e-01,-2.804906755160474496e-02,1.572320637844403044e-03,3.078215757205360510e-03,-6.544580635397503204e-03,5.190478563308715820e-01
4.327653736366179338e-01,4.290577080158280987e-01,4.409962674679690497e-03,-4.301422428741605297e-02,1.119880164672766576e-02,1.424016828682724521e-02,4.341073036193847656e-01
4.946606335701418944e-01,4.841298098296310526e-01,-2.799747634585020295e-02,4.741056051923305502e-03,7.813254700816687180e-04,-4.644080423198949058e-03,5.176025032997131348e-01
4.838476789909236242e-01,4.548800652568005809e-01,-1.648025848677797667e-02,1.928622119345296121e-02,-1.165973721365575790e-02,9.998043296818352743e-03,4.883620142936706543e-01
4.685317053350819827e-01,4.627779259367854614e-01,-1.503304348265427359e-02,3.005357349613269058e-03,-7.931706632354040831e-03,6.196556865223111672e-03,4.810578525066375732e-01
4.747737313503431755e-01,4.487697588036113627e-01,-1.513745484004752617e-02,1.229934841377981584e-02,-7.362824422696725296e-03,7.401756326158451596e-03,4.782576262950897217e-01
4.687194935891108027e-01,4.714568314507618929e-01,-2.026861820767783540e-02,7.897687934912281729e-04,-5.349217018699263353e-03,1.040802343053999664e-03,4.904552400112152100e-01
4.703737347725747697e-01,4.750359911970643556e-01,-2.165813856771314772e-02,6.041074958750414572e-03,-5.922640240562779615e-03,6.077544852802803897e-03,4.947085976600646973e-01
4.958123019937668019e-01,4.880301655906011948e-01,-2.331841641110643515e-02,-1.009582746591811131e-03,3.664222459157253416e-03,-4.090506309531592027e-03,5.153744816780090332e-01
4.841565384819125351e-01,4.760622709391810758e-01,-2.744277786970278354e-02,1.484271513093880866e-03,-7.292663742939610450e-03,3.693008794149438712e-03,5.078045129776000977e-01
4.939915965075020732e-01,4.768642077259693246e-01,-2.784636101793119822e-02,5.954186147284918837e-03,-3.843799352698256625e-03,3.684286683536174434e-03,5.136748552322387695e-01
4.672646133298120064e-01,4.759353211172125953e-01,-2.532392050731818722e-02,4.314547271085508034e-02,1.321200371061406059e-02,2.140888103355441038e-03,5.031021237373352051e-01
5.440125818424201842e-01,5.000692196390796873e-01,-1.465115869939898063e-02,6.202960962916693327e-02,-1.666501328719241157e-02,3.385342371837284092e-02,5.525404810905456543e-01
4.999997897367025601e-01,4.840528251113057623e-01,-2.585576886917356765e-02,4.521160246296637361e-03,-5.409364393510112355e-03,4.263886081138248615e-03,5.182626843452453613e-01
5.149415277473647912e-01,5.009036893570265603e-01,-1.983452076442138168e-02,1.548232747996695045e-02,1.795205546149157821e-03,5.547001958890572168e-03,5.286742448806762695e-01
5.037601014407575573e-01,4.538431764636778887e-01,-1.870111011003511292e-02,2.536877710253619689e-03,3.146895722424118171e-04,2.283520982787820428e-05,4.993970096111297607e-01
5.352247117303047252e-01,4.064157462914799734e-01,-5.356069942727359479e-03,2.881555829069806091e-02,1.935774290426687735e-02,6.145220754471078344e-03,4.928652346134185791e-01
4.962463360355613418e-01,4.743887210801446264e-01,1.119653938463915921e-04,4.003979169799431331e-02,-1.189285582020880271e-02,5.105162362050398236e-03,4.910140633583068848e-01
5.223746326129260487e-01,4.803605011803169789e-01,-3.767580793317348853e-03,1.721290269023096828e-02,-8.464829759860077740e-03,4.693974384833071722e-03,5.075976252555847168e-01
4.934287265776048370e-01,4.489446875266747128e-01,-2.152047702420156750e-02,2.057402588080724237e-02,-5.438697184309506175e-03,3.908140426959394106e-03,4.956298172473907471e-01
4.562859984863709695e-01,4.927121117103091530e-01,-2.583546956576937559e-02,4.959058616959519800e-02,-2.639900582641964769e-02,1.490056117784564066e-02,5.113357901573181152e-01
4.400282251027590741e-01,4.846229140776348587e-01,-1.725927478390365533e-02,5.750775345839617692e-02,-2.810701326364195562e-02,3.285311757263598142e-02,4.970136284828186035e-01
4.861576789607879312e-01,3.897184256930087409e-01,-1.977559045241933378e-02,6.776699042375779192e-02,-1.068823254787040246e-02,2.343202577415225835e-02,4.819171726703643799e-01
4.219795299379647813e-01,4.809862933934576645e-01,-8.106211338628599439e-03,1.313574480864644449e-02,-3.787186298043967655e-03,8.542850524084662223e-03,4.632635712623596191e-01
4.406625361666716145e-01,4.333358042698630119e-01,-3.285731288955429097e-03,-1.022362764651147879e-02,8.033781798757178710e-03,2.155834047032268840e-03,4.409219920635223389e-01
4.549822286914320113e-01,4.599135368609597041e-01,-1.553572964895683084e-02,1.652339964420937793e-02,-8.230014052061680394e-03,7.419871589306201685e-03,4.742564260959625244e-01
4.801897293706526293e-01,4.822268874863934740e-01,-2.716748306289556991e-02,7.978663416260317609e-02,-1.616240603531228157e-02,2.573995073774138290e-02,5.294507145881652832e-01
4.750538038951476194e-01,3.966677039096004331e-01,-6.416852668645112168e-03,6.071981371005537309e-02,6.015646490233144371e-03,2.004487625329525683e-03,4.597815573215484619e-01
4.696506554558412816e-01,4.807288007866288293e-01,-1.904261782641181178e-02,3.843621439843773052e-02,-1.255414170472045170e-02,1.307583543902495968e-02,4.997753798961639404e-01
4.459429680936723983e-01,5.147083753610831591e-01,-2.960755874706638702e-02,7.350334244959497165e-03,1.135880633518961472e-02,-7.875962305781638098e-03,5.141144394874572754e-01
4.823392807990409814e-01,4.324714042649797641e-01,-3.753510500864198907e-03,3.833723591091461186e-02,3.170424494385462068e-03,4.823287196351019532e-03,4.680189788341522217e-01
4.999977422344981659e-01,4.954993019635948737e-01,4.123758260416487964e-02,2.811205644277968863e-03,-6.357928166263519766e-04,-1.165144663293477510e-02,4.570006728172302246e-01
4.951352395555758679e-01,4.930683282952826318e-01,1.009561289215807900e-01,3.392807577558280135e-03,-1.142472057699391551e-03,-1.049470633256635067e-02,3.936185538768768311e-01
4.888145123205108744e-01,4.961549177271544764e-01,9.085087093118776602e-02,5.573395540541543902e-03,1.045500042826416663e-03,1.397699442552353185e-04,4.018042683601379395e-01
4.921853889018167338e-01,4.938641275882866277e-01,6.553246955235297877e-02,4.559494802410597042e-03,1.110260119276759889e-02,-1.063547095893454912e-02,4.283961653709411621e-01
4.969618229560522904e-01,4.936646604890057022e-01,4.588351256433242931e-02,-1.219314149441912392e-03,6.732137163062510560e-03,6.464635877992378279e-03,4.497343897819519043e-01
5.395632454431408265e-01,3.868756093816233532e-01,-2.495743235684100281e-02,-1.475328567970818697e-02,-2.668482523478575390e-03,-2.277929219826620860e-02,5.079693198204040527e-01
5.048029712271180358e-01,4.619036050675340288e-01,-1.881601853351100306e-02,-2.029193920757299281e-03,5.583825447775639427e-04,-1.389265957257410913e-03,5.035606622695922852e-01
4.940428331944963780e-01,4.852912656778815004e-01,-1.968948128237746342e-02,-5.680633723443883395e-04,8.155950455521716403e-04,1.797044121024773998e-03,5.094253420829772949e-01
4.927861688758469194e-01,4.824563003227057001e-01,-2.510425623456641331e-02,-4.612246411090311499e-03,-9.827221040198818799e-03,-7.294828985818663410e-03,5.133036375045776367e-01
4.745735239717794318e-01,3.806357651090958583e-01,-2.052108987683604058e-02,-8.512334236149969591e-02,-4.649726674300131563e-02,-5.319459399539940708e-02,4.941131770610809326e-01
4.984171076096933772e-01,4.282670302001100326e-01,-2.127186525330104772e-02,-2.735718562734039058e-02,-1.208969259322783922e-02,-1.881220695859418465e-02,4.922264516353607178e-01
3.919915527625443818e-01,5.453962723797423084e-01,3.833625468496137945e-03,6.848359491338240623e-02,-6.936667436211903237e-02,1.833914351816237458e-03,5.121133923530578613e-01
3.448694274337225640e-01,4.996543364518669650e-01,-9.495997467213079801e-03,4.535640071561462122e-02,-3.414992634274322675e-02,1.408344565282790457e-02,4.633021950721740723e-01
3.990931303093758209e-01,5.183446821931765314e-01,-3.578212459476315388e-05,6.909144683158546796e-02,-6.834963676362861007e-02,3.038172810807521565e-02,5.022217035293579102e-01
4.498057071575919941e-01,4.807667525107193196e-01,-1.628856988017429730e-02,2.335650452632552845e-02,-1.530185643555799502e-02,1.285493914888207433e-02,4.852504432201385498e-01
2.958942147997685179e-01,6.015996692440873650e-01,-1.494508572188835149e-02,2.131058786272985520e-02,-1.422626404614555674e-02,1.631996499555175839e-02,5.365359187126159668e-01
3.017800201515045688e-01,6.072221640164414680e-01,-1.780068486709524000e-02,-3.894391334402683841e-02,-1.801426691378238409e-02,4.488451968206043732e-04,5.464102625846862793e-01
3.008099707283475865e-01,5.922014784987070790e-01,-2.677526680316572039e-02,-4.487864173697243830e-02,-1.526169626276858982e-02,1.355015394626066585e-02,5.431100130081176758e-01
2.163091945748320255e-01,6.358841859701436228e-01,-2.523823592565593854e-02,-2.230948598610367831e-02,-3.579311471227277636e-02,1.252936074438447053e-02,5.844169259071350098e-01
3.223790496518945670e-01,6.141812152391289414e-01,-1.311030118928707688e-02,4.270579125481159533e-02,-3.238986306827860984e-02,7.257259371900156783e-03,5.517017245292663574e-01
1.858665813035143000e-01,7.653727945909911679e-01,-2.908681687613917655e-02,-5.049291950064097034e-02,-5.050743512412525504e-02,-4.172579112655627753e-02,7.260330319404602051e-01
4.658110114526378132e-01,4.411875072699705802e-01,-1.402293294720308170e-02,-1.850545183149664846e-02,-1.045772714293639535e-02,-6.978204427793118642e-03,4.696097075939178467e-01
4.425288934123326468e-01,4.633800732459984473e-01,-1.930889992138024036e-02,-1.945818498568599453e-02,-7.407238881776863348e-03,-1.033556824051960060e-02,4.743202626705169678e-01
4.601144921914834263e-01,4.250892408679617374e-01,-2.059921252364599331e-02,-3.073586028139170881e-02,-3.051216441658795991e-02,-2.869580985530122488e-02,4.728347659111022949e-01
4.630927141326917074e-01,4.340348230585278078e-01,-5.385120222310024740e-03,-2.357367486364267753e-02,-1.483289517735501654e-02,-1.358607573062202596e-02,4.578032493591308594e-01
4.699731898820860843e-01,4.365230878198362863e-01,-2.303865383970365999e-02,-1.942010540302811436e-02,-1.411984359066395349e-02,-9.668762587414189355e-03,4.792684912681579590e-01
4.579681798601526466e-01,5.307824952826849518e-01,-2.720141231801931347e-02,1.186052169914758418e-02,-2.327645929154164434e-02,-9.549045622109935544e-03,5.275790691375732422e-01
4.055529697342087347e-01,5.590572845433862126e-01,8.098057326560104130e-03,-7.304650231192792546e-03,-5.433919578124267458e-02,-3.422662723347731639e-02,5.050522089004516602e-01
3.290813768226712455e-01,5.835751807959224102e-01,-2.269824222548288972e-03,-3.918633178174749099e-02,-4.678515737737787977e-02,3.048935293791101356e-02,5.223500728607177734e-01
4.817527858245536088e-01,4.715196947623190304e-01,-2.625521405334318992e-02,2.220562212358020635e-03,3.672427612251610331e-03,-2.705134812866921874e-03,5.030462741851806641e-01
4.672586144113555218e-01,5.078944362155920489e-01,-3.194340297347342261e-02,-1.438400358690637140e-03,-1.078158541213468727e-02,5.099043744980549624e-03,5.211260318756103516e-01
4.943676978816755607e-01,4.918644780494998980e-01,-1.232828436589028520e-02,1.186740888786751331e-02,-9.887927039268985113e-03,-1.141594919908109953e-04,5.061566829681396484e-01
4.698009614730245809e-01,4.868113435980343517e-01,-1.469005223672875671e-02,1.793786524078053862e-02,-8.955925652899566006e-03,1.189152428578633611e-02,4.948660731315612793e-01
5.108645176766661855e-01,4.979449562603918134e-01,-1.083880824674343657e-02,4.918631736246403124e-02,5.551180948899839956e-03,7.111151288304902104e-03,5.225927233695983887e-01
5.072816139543377956e-01,4.768780624951886038e-01,-2.341882160755126563e-02,3.452690554808814788e-02,-3.124560675095892567e-02,1.077507026610664657e-02,5.227673053741455078e-01
4.731058448472219569e-01,4.860770522038914132e-01,-2.358828030755666383e-02,1.990922479895788216e-02,-1.393345643861375154e-02,1.442173244677056460e-02,5.056793093681335449e-01
4.701850573369447117e-01,5.144200377787458978e-01,-1.571224350987276974e-02,1.669143677404733711e-02,-2.721325609917816732e-02,7.071915890526411091e-03,5.125954747200012207e-01
4.140296915801095490e-01,7.284699222714251521e-01,2.496954889421032497e-02,7.392283732599289059e-02,-7.776616372969867574e-02,-1.472874615963046772e-02,6.385639309883117676e-01
5.184415252790144368e-01,4.710145594196967211e-01,-7.775447226141041224e-03,1.203961300439403137e-02,-5.170824954101701154e-04,-5.194464169984362722e-03,5.046913623809814453e-01
5.072011879451294725e-01,4.707765937016802349e-01,-2.397168020683210221e-02,6.935487149864039309e-03,3.416798761004088275e-03,-6.519782234550190042e-03,5.142280459403991699e-01
5.110242640797398872e-01,4.507411929318167476e-01,-2.849427868815329612e-02,-1.630664586145580842e-03,4.992355239167704274e-03,-6.234250716221184999e-03,5.122399926185607910e-01
5.008441908197101000e-01,4.758946659341445340e-01,9.724035506730677181e-03,3.870763074189075611e-03,-1.519378710070633850e-03,-1.301806559497254052e-02,4.797171652317047119e-01
4.864333145633578659e-01,4.869074956558315237e-01,-3.121119286872126031e-02,1.757604114557677864e-03,3.471560235280459882e-04,-4.083045376845248139e-03,5.179393291473388672e-01
4.983306385527296323e-01,4.887680506826523885e-01,4.982837213163821000e-02,6.517134297872032543e-03,-1.655324698197976549e-02,2.934789195007145995e-03,4.448956847190856934e-01
5.251934942245086724e-01,5.038218833876344505e-01,2.811091807141241627e-02,2.108813597754889690e-02,-4.641604431819164323e-03,-4.643970653043760777e-02,4.947656691074371338e-01
5.825645094090607934e-01,4.779608515001299573e-01,3.014208595437611882e-02,1.820619634594665415e-02,2.798890845136138214e-02,-2.598961341192752503e-02,5.135152935981750488e-01
5.553712564626616111e-01,4.354793136765095496e-01,-2.796388122908227691e-02,6.369877027470161046e-02,-1.009470496062121574e-02,1.950042000184696797e-02,5.462013483047485352e-01
3.912205771986496106e-01,4.046304874641922789e-01,5.458257888779294298e-03,-1.147274873627135150e-01,-2.336176345401483681e-02,-2.947593964273315104e-02,4.448555111885070801e-01
4.917747390689188869e-01,4.854490688192732439e-01,1.221470928542212064e-02,1.127774193826055907e-03,-5.903281634528834664e-03,8.934458992765464611e-03,4.767935872077941895e-01
3.792564797511130958e-01,4.748025339133167266e-01,1.067130891999379383e-02,-6.586704400640351620e-02,2.611346169172946291e-02,2.633342834831501125e-02,4.442324042320251465e-01
3.812348197941698436e-01,4.363700236576650848e-01,8.729895147753075069e-03,-7.216626982220059050e-02,2.019080389223325278e-02,9.340459685466945966e-03,4.236113727092742920e-01
3.689687153469068948e-01,4.896950679272564777e-01,6.924437263217508853e-03,-1.409006753971517312e-01,3.651146748961660131e-03,3.942791938899340570e-02,5.036088228225708008e-01
3.781640943717304859e-01,4.401469126872135651e-01,4.862764606852254534e-03,-6.107723583683202090e-02,-8.472702601654604967e-03,-8.180334833896182184e-03,4.218310415744781494e-01
3.607224704995685149e-01,4.878644155600817545e-01,5.969020772478517145e-03,-5.499420981890445342e-02,-1.276777825069301889e-02,-3.518728658068860302e-03,4.435294866561889648e-01
3.235562803322734049e-01,4.899358336897637334e-01,2.879577988794956855e-03,-8.677140064984725787e-02,-8.837812735232219302e-03,-2.236968154107884209e-03,4.546503126621246338e-01
4.414511507120709721e-01,5.259830652253291161e-01,8.928396690424222903e-03,6.115138651345834904e-03,-4.494808521262192574e-02,-1.063598165828903014e-02,4.871304631233215332e-01
4.893253984280032665e-01,5.163007978354616778e-01,6.645765277845439023e-03,2.007574721624637987e-02,1.399966595163565537e-02,-8.729150280083249752e-03,4.987518787384033203e-01
5.063886120755358711e-01,4.970024906104482110e-01,-1.691683175838687436e-02,5.281190105073885893e-02,-2.669555003112205130e-02,1.311789896824843218e-02,5.291940569877624512e-01
5.183113829621096569e-01,4.960466876060677377e-01,-8.425087039407253009e-03,5.331314802013820131e-02,-7.476664437558165968e-03,9.953006104314631938e-03,5.246056914329528809e-01
4.913505174186020286e-01,4.865763660252724332e-01,-3.302837585391804609e-02,-6.660896849387030029e-04,1.209046544461900367e-04,-2.040553782618854776e-03,5.220214724540710449e-01
2.793763820549463039e-01,5.184930743586179114e-01,-3.898480995629227674e-03,-8.522683845840818562e-02,-3.367256471629641312e-02,-1.457539605939757107e-02,4.806109368801116943e-01
2.912374174733554089e-01,5.522934023716266072e-01,-8.628756757155076063e-03,-1.104112396610113095e-01,-3.356924390568608724e-02,-2.203097736830295778e-02,5.270298719406127930e-01
3.573681932571719511e-01,5.268300593872736748e-01,-2.471419300490884652e-03,-5.053908227564556099e-02,-1.545970386383466177e-02,-8.455995488017179623e-03,4.772578775882720947e-01
3.942708025977980091e-01,5.225987048348260666e-01,-1.676780034548391862e-02,-3.528219799605487178e-02,-4.121039608344245070e-02,-3.228359422305523280e-02,5.001245737075805664e-01
3.813945842822114574e-01,4.615326292191321844e-01,-1.526698967469058976e-02,-1.085160788433023743e-01,-6.162453424637711480e-02,-3.991852835518248238e-02,4.970418810844421387e-01
3.709087067460168918e-01,4.807927748476573671e-01,-9.332476286225466211e-03,-6.342947212556325487e-02,-1.992607077121335418e-02,-1.326904674564934050e-02,4.606837928295135498e-01
3.620099431685352975e-01,4.845706729754378772e-01,-6.035378290029425052e-03,-6.743082608895137331e-02,-2.778666901091344371e-02,-2.431274080816034355e-02,4.618622958660125732e-01
4.339016435530189120e-01,4.921920797915644297e-01,-1.539126266664903042e-02,2.881871875059990526e-02,9.662389067257684191e-03,-9.510017794256550236e-03,4.842461347579956055e-01
4.865868584697967680e-01,4.890244264044343314e-01,-2.780381850225444040e-02,2.029961086050443078e-03,3.655748293626111603e-03,-9.294205229501226878e-03,5.159158706665039062e-01
4.792467357681331475e-01,4.775540500844615011e-01,-2.520684368101488992e-02,8.428015426145400724e-03,4.255570789452659680e-03,-7.573196509746091612e-03,5.040454864501953125e-01
4.922213604198272252e-01,4.755892689224670011e-01,-2.937684127620932006e-02,2.911118978940952472e-03,6.115523859823833105e-03,-6.273952240234161731e-03,5.137331485748291016e-01
4.966342327717794825e-01,4.918216689106190698e-01,-3.020773877073534841e-02,1.786802890586622556e-03,4.623147962955149841e-03,-5.223159582382977568e-03,5.246005058288574219e-01
4.876433452991958961e-01,4.553795986108191696e-01,-1.765118978860069632e-02,1.580122592519990835e-02,6.002895487439358253e-03,-7.922782403669861168e-03,4.910257458686828613e-01
4.696194170414265123e-01,4.958624656534283415e-01,-2.924129593963292750e-02,1.185671587105728911e-02,-3.889881874284622110e-03,-5.885266755065444305e-03,5.130432844161987305e-01
4.331685399624602972e-01,4.909234673030695162e-01,-1.857210924675112285e-02,-3.580627611580724373e-02,2.190940244205267715e-02,1.879427207877422748e-02,4.897361695766448975e-01
4.337458344630357177e-01,4.350898031796952004e-01,3.635352674144498586e-03,-2.096334798713256342e-02,1.649671407030748119e-02,1.257034192350143381e-02,4.338015019893646240e-01
4.265141613475715854e-01,4.440362013310259481e-01,1.102596193490179566e-04,-1.132780763082033709e-01,5.619120004630067527e-02,2.883212174043867787e-02,4.899599552154541016e-01
5.102162519196252743e-01,3.759882337749347880e-01,-9.174107720781254915e-03,-5.558925406460489549e-02,2.869204644232613982e-02,3.029168127861859433e-02,4.822444617748260498e-01
3.747772863009974365e-01,4.315064299628307287e-01,6.144372052625246550e-03,-7.074969768015704208e-02,-5.466614616106714973e-03,-4.318721517561250993e-03,4.185484647750854492e-01
4.736756447018559135e-01,3.717277569182509400e-01,5.971717044017443854e-03,-6.364505393397762445e-02,-1.089113781773042196e-02,-9.448393556186929221e-03,4.407206177711486816e-01
4.712677601262106886e-01,3.287337809410934009e-01,-2.227938257658845789e-02,-1.119035012790290523e-01,-1.822263613066297736e-02,-5.207754819444836841e-03,4.818736612796783447e-01
3.905322778326356103e-01,3.732715793164376183e-01,2.328708810470370150e-03,-1.411082378216391708e-01,5.723617189161585121e-03,5.869972225132453689e-03,4.519242644309997559e-01
4.831395824976688069e-01,3.812397044964440651e-01,8.433940389331873178e-03,-6.605411696619326034e-02,1.117023443030261236e-02,7.815289263092935895e-03,4.483342170715332031e-01
3.920180183448325750e-01,3.866522820366773416e-01,-1.329852949779036786e-02,-1.364444153014708339e-01,6.269930804999998032e-03,3.007813057785201343e-03,4.670458137989044189e-01
4.912310209839423347e-01,4.925826955735747026e-01,8.085135501609724828e-02,8.253349474548362513e-03,-9.836307569903470632e-03,-8.177465996857261749e-03,4.119019508361816406e-01
4.854292512910067803e-01,4.858180897412414101e-01,-3.020698188683779151e-02,-2.380080547257439581e-03,-9.207540266828187833e-06,-6.043850659146535881e-03,5.159534215927124023e-01
4.946295393514404948e-01,4.983683062262997954e-01,9.634113666567645229e-02,8.534978068327441283e-03,2.439337977726247809e-03,-5.962781076599254181e-03,4.005993008613586426e-01
4.917113034655236081e-01,4.994299850034089605e-01,1.177137019530939410e-01,5.527886738290422805e-03,-5.701131015502120328e-03,-1.109300264609043791e-03,3.781711459159851074e-01
4.907902749311494617e-01,4.939840294534428300e-01,9.289315371310735703e-02,5.487163327131339141e-03,-7.372386309884779165e-03,-9.612219940085768967e-04,3.998240232467651367e-01
4.895279691599923044e-01,4.889744429088500599e-01,8.507456535355434335e-02,1.739626837801852609e-03,9.429977469251383387e-03,4.676154976584944931e-03,4.045991003513336182e-01
4.647210306812540881e-01,5.064915633334723388e-01,-2.026857485698363437e-03,1.640469005573044411e-02,-1.370266187181470548e-04,-2.658429331116172155e-03,4.898196458816528320e-01
4.769813690537784145e-01,5.186872471614975000e-01,-2.119818163807768441e-02,1.134295654911335847e-02,-1.548358635156954922e-03,-5.140717369095583467e-03,5.207415223121643066e-01
4.836467272151818708e-01,4.966073100485500769e-01,5.466236189858308947e-04,2.006171428342680939e-03,1.734301698167477115e-03,-2.628782248507989007e-03,4.897517561912536621e-01
4.989580204810005748e-01,4.943512296695131703e-01,-2.045334491331896043e-02,-7.395027173500963794e-04,-9.081677373013191537e-04,-5.283787765442190393e-03,5.172083377838134766e-01
4.884367364239847742e-01,5.087736286201804958e-01,-5.639291402767476757e-03,1.409869395777519144e-02,2.588702349142875739e-02,-1.309331948398665367e-02,5.076354146003723145e-01
4.793971550659478220e-01,4.946222229121645109e-01,-1.806216692695788995e-02,2.873171604612931654e-03,2.337981711417508497e-03,-4.531947560937886130e-03,5.053456425666809082e-01
4.849728463523502731e-01,4.679162909913002766e-01,-1.929014638257703362e-02,2.088441712526988014e-02,1.059481726175992913e-02,-1.479237148072171104e-02,4.982697665691375732e-01
4.465237305580445626e-01,5.459175330826975259e-01,-2.763556858037335973e-02,1.690346368628516116e-02,4.850022096942391975e-02,-4.895728149593272030e-03,5.383498668670654297e-01
4.843992418596297922e-01,4.967310787418203200e-01,-1.327891935452690797e-02,1.948294075595512426e-03,-5.028151889919060119e-03,-2.678869796177876621e-03,5.040651559829711914e-01
4.843827563098519473e-01,5.076094342379269264e-01,-1.810494554642905207e-02,3.861685386335616827e-04,-6.339550514333924629e-03,2.240637392004129428e-03,5.146266222000122070e-01
4.824295336407632417e-01,4.770733517955108582e-01,-3.935248165189414449e-02,-5.235976186670893411e-04,-5.766147813488138943e-03,-3.473505362177265604e-03,5.192563533782958984e-01
4.780364263595947572e-01,4.776009748594489679e-01,-4.022212243418138433e-02,-1.980856395300398720e-04,-2.383252465642576780e-03,-3.524526849131599283e-03,5.180934667587280273e-01
4.799530215148636314e-01,4.819951889664420008e-01,-3.851737986781561540e-02,-1.823701426716229680e-03,-1.121656238565385067e-03,-2.373393058629206208e-03,5.195239782333374023e-01
6.745801418309286257e-01,7.228442953539431226e-01,6.902905845278289876e-02,1.238871959502315795e-01,2.751252593586324055e-02,-4.154962449143254771e-02,6.721175312995910645e-01
4.687044175742510754e-01,4.597914219028190197e-01,-1.435941525376793759e-02,1.216684590404758584e-02,6.111846327471199235e-03,-4.744893080185136336e-03,4.793206155300140381e-01
4.778402543836386407e-01,4.773768034851412212e-01,-4.027912761337848480e-02,-4.231045185729420677e-04,-2.671872780766952876e-03,-3.799277615623713241e-03,5.179508328437805176e-01
4.776590249528924192e-01,4.821106919125835999e-01,-4.124283102195136497e-02,-8.747647329537400077e-04,-1.519542625739558504e-03,-1.083408167341423601e-03,5.211541652679443359e-01
4.716656831119375726e-01,4.985934710306931805e-01,-3.140131764321368868e-02,-1.131729847737717853e-03,1.964561243501088735e-03,4.931242392097535607e-03,5.171424746513366699e-01
4.812212644188794686e-01,4.820845269749054474e-01,-4.156173042878658075e-02,-3.477734506492981574e-04,-2.067153649898903316e-03,-1.127229278794358684e-03,5.232313871383666992e-01
5.030367671121238615e-01,5.510195505114527936e-01,-2.179691663344629493e-02,4.951431983174975522e-03,3.283359498488163525e-02,1.108795068105375252e-02,5.537257790565490723e-01
4.945679449499382763e-01,4.873623663630459735e-01,-2.884765061796074059e-02,-2.157496928541921370e-03,1.337775772837970951e-03,-3.836464954424865354e-04,5.198692679405212402e-01
4.874100151238580647e-01,5.453317916607529625e-01,-4.323796798381340789e-02,3.524817738316041865e-02,5.412176141796409823e-02,7.814033661631339736e-03,5.730412602424621582e-01
4.996693374790072140e-01,5.339464822033757052e-01,6.573219993781798109e-03,1.842389861595748399e-02,1.679799976408172940e-02,2.144393848588266316e-02,5.142616033554077148e-01
4.782960476075034939e-01,4.934725790825538194e-01,-3.966630996156456090e-02,-2.543204740986958722e-03,2.057828936204893818e-03,3.483860648357224761e-03,5.257800817489624023e-01
4.789374252536355847e-01,4.950725700997153922e-01,-1.314584910080413005e-02,-4.082093279942045446e-05,6.865556870683604297e-03,8.290966547757898375e-03,5.006932616233825684e-01
4.918734508008882900e-01,4.960876142814152345e-01,-4.047789530877948794e-02,4.903006397366023450e-03,1.091041640630766724e-02,5.018449888131906039e-03,5.349429249763488770e-01
4.674914390515689799e-01,4.912959595046203498e-01,-3.418571601802505855e-02,-7.525736485351184474e-03,1.061726760510895047e-02,1.328568570967193774e-02,5.150013566017150879e-01
4.446733693443183366e-01,4.507988045678263944e-01,-1.465118207297549935e-02,-6.751921797934249195e-03,-7.129351043690411449e-03,-7.464271898336399813e-03,4.629109203815460205e-01
5.188490362472023554e-01,4.969518580693338961e-01,-2.940098378271321922e-02,-3.681585647619914966e-03,9.218748489180965400e-03,2.663986659063621518e-03,5.379306077957153320e-01
4.890634404304020633e-01,4.847023523556897029e-01,-3.118253208355870054e-02,1.051044326400181732e-03,2.182054764508833955e-03,-4.306543289385167221e-03,5.181498527526855469e-01
4.897205269747314516e-01,4.803068423613723881e-01,-3.134239750365747090e-02,-3.936519989034732996e-04,2.342627430849735133e-03,-4.628407683863864155e-03,5.164990425109863281e-01
4.893949461532108858e-01,4.868398476962831345e-01,-3.103924914166217297e-02,-3.363004678218964853e-06,2.122638248905989612e-03,-4.090435090950138818e-03,5.192227363586425781e-01
4.908418842976669527e-01,4.884838869039509479e-01,-3.101769126237846619e-02,-1.057818341521186414e-03,2.478468606662587517e-03,-5.434980511132028909e-03,5.207905769348144531e-01
2.900502283820776128e-01,4.174450050600901907e-01,-2.842821751841476119e-02,-2.503793825868342870e-01,-6.026768057854120855e-03,1.863543908834941476e-02,5.894495248794555664e-01
2.944313207477697314e-01,4.879162980821678541e-01,-9.057457253028200483e-03,-1.091638380229716238e-01,-3.325928839463408726e-02,-1.892649385489243372e-02,4.779182076454162598e-01
3.219914082905152020e-01,4.506312041444551220e-01,-1.556536132674146700e-05,-1.141597902043806068e-01,-1.148151186233306587e-02,-7.107373590550188774e-03,4.486691355705261230e-01
2.439996224347883158e-01,5.291228707885067273e-01,-4.450844702398917829e-02,-1.637809377959997259e-01,-2.024710022484448382e-02,-5.147116015422157666e-03,5.732141137123107910e-01
2.570695475812288522e-01,5.450791068388841643e-01,-7.087091947734025510e-02,-2.497108420700420717e-01,7.655009794352018136e-03,1.736064680001850671e-02,6.878160834312438965e-01
2.822289578193329374e-01,5.420069258740265461e-01,-8.314667167919453927e-03,-2.491300243433582917e-01,7.297312866425912379e-04,-4.011074674895158398e-02,6.468404531478881836e-01
4.916064109838536589e-01,4.869412776324514303e-01,-3.324518377510093936e-02,-9.841305519051742837e-04,8.877067733623632316e-04,-1.594222183921824992e-03,5.225470066070556641e-01
4.752763222877109395e-01,4.183743016661338188e-01,-2.657291305540210313e-03,2.466897751359086940e-02,-1.662997519634779476e-03,-4.618636233019251212e-03,4.542697072029113770e-01
5.100118245099338754e-01,4.244118640043541002e-01,-1.273005008894917411e-02,2.559644865213516959e-02,1.209479682370694954e-02,-1.338054166821596447e-02,4.886524677276611328e-01
5.028790638170328453e-01,3.542288407888586343e-01,-1.401092381879798232e-02,6.069018648285053746e-02,1.963454936803133224e-02,-2.895054008467861859e-02,4.766100943088531494e-01
5.171721478074423617e-01,3.789892840967962195e-01,-8.145373595493554664e-03,3.423507698015011702e-02,1.829655730741763103e-02,8.694261089819988473e-04,4.764302670955657959e-01
4.937364326616165977e-01,4.216855835650012985e-01,-2.656927665790120852e-03,1.038922283347585296e-01,1.349759287156912686e-02,-7.993805918585469503e-03,4.989500641822814941e-01
4.806709038593072192e-01,4.459711666635632898e-01,-2.214736949198764515e-02,9.742012221650589443e-02,-2.174744378403265475e-03,-3.549079981770778686e-02,5.185052156448364258e-01
4.572707423756749989e-01,4.527492646159916867e-01,-9.820040696194021201e-03,4.676154261409243285e-02,6.038890761603812017e-03,-3.222621493781403085e-03,4.719987213611602783e-01
5.001052795919945781e-01,4.527521564862203585e-01,-2.164287610514370463e-02,1.146671373927674042e-01,1.801112595244176370e-02,-5.435297619572464906e-03,5.387620329856872559e-01
5.177564331771962181e-01,4.082708425006086328e-01,-1.242324772350000828e-02,1.146491399941242939e-01,1.316279431426439772e-02,3.835713894720930300e-03,5.244308710098266602e-01
5.051907677529432483e-01,3.369948031750249484e-01,1.513586795010624098e-03,6.080765565828290253e-02,2.277776613249269180e-02,-2.268113732355301129e-02,4.598441123962402344e-01
3.610382326959458710e-01,5.750349851804728019e-01,-2.102672145614503663e-02,-5.109243318473916801e-02,-4.056454202103904061e-02,-2.058945891445170331e-02,5.362540483474731445e-01
4.297013054004474863e-01,5.098725085794454381e-01,-2.952407375572713155e-02,-3.981679782694554255e-03,8.826577109011012404e-04,-7.052497689157232602e-03,5.043125152587890625e-01
4.781035769011166559e-01,4.970187329385832298e-01,-3.587512523157743161e-02,-2.603962710891936602e-04,-1.069253578322611848e-03,-1.475491865995502304e-03,5.237022638320922852e-01
4.084276578227274968e-01,5.450876041227252777e-01,-2.520960980096215165e-02,-7.516340740979899661e-03,-1.815442788866154789e-02,4.993706968070345421e-05,5.168523192405700684e-01
3.985393361485692343e-01,5.824028036141896125e-01,-2.734909493691206617e-02,-3.667800016432896850e-03,-4.239859685862201050e-02,8.160940277727493988e-03,5.469233393669128418e-01
3.561112550256387288e-01,4.994461875672623341e-01,-2.262857567449866325e-02,-6.798383050479589462e-02,-2.851162910305820794e-02,-2.164472254237033780e-02,4.857829213142395020e-01
3.486462950749330547e-01,7.055147257608755940e-01,1.027039143792263243e-03,-5.991601218940076357e-02,-6.304786732356468248e-02,-3.050880425666566489e-02,6.306629776954650879e-01
4.941487181045801647e-01,4.917445273997937960e-01,2.460499220715173241e-02,3.182891359417135135e-03,1.093590673054608761e-02,-1.042204728026490139e-03,4.687650203704833984e-01
4.855138832124892279e-01,5.201727203357324747e-01,6.333399083549406949e-03,-2.016456312480944136e-03,-1.353334411548781473e-02,5.504941420543406697e-03,4.980718493461608887e-01
4.669165793322949121e-01,5.059519366113216510e-01,-3.503560682982848062e-02,-2.676198755045276160e-03,-1.135908377184074308e-02,-6.691261005876907031e-03,5.230836868286132812e-01
4.478158331233643707e-01,5.043551027990242908e-01,-3.493718342381690878e-02,-1.391608520661853643e-02,-2.457502864352499941e-02,-2.154054011445394670e-02,5.170361995697021484e-01
5.831229197805146702e-01,4.506230197312093289e-01,-4.973429341234902878e-03,-5.178214215226710146e-03,-9.312967896111580893e-03,-4.085234184574915856e-02,5.392941832542419434e-01
4.924649978889967250e-01,4.900685269391433230e-01,-2.629844758510352376e-02,6.080852480507920217e-03,9.103604943398617422e-03,-1.767465929506444738e-02,5.188205838203430176e-01
4.883531325633058140e-01,4.880649321164647336e-01,4.791318322140608599e-02,-2.195143817373647593e-03,-1.392335287254585496e-02,-1.420053879173997780e-02,4.416576623916625977e-01
4.978306032947850679e-01,4.920040112673891297e-01,-1.230815255438111322e-03,-4.187473934095769092e-04,-3.331579928945920064e-03,-1.207863218856129392e-02,4.966486990451812744e-01
4.772114000166229886e-01,4.993194889385465518e-01,-3.669150089488815158e-02,6.868567471587994685e-04,5.536937624192184290e-04,-5.325956629690507165e-04,5.253090262413024902e-01
5.820182742858820424e-01,4.844261725996774626e-01,5.838925213574064355e-02,3.715022690183714983e-03,1.314241069091108029e-02,-3.631185400366532950e-02,4.869545698165893555e-01
5.340183004436532821e-01,4.943233293434927678e-01,3.898662220713666748e-02,1.272197832065540338e-02,-1.844666041458393677e-02,-2.196764404268151255e-02,4.795163273811340332e-01
4.342528043882569744e-01,4.976876713141923370e-01,1.158567899922691158e-02,-5.911650889977353163e-02,-2.038856260656216751e-02,-3.085819898440345446e-02,4.733617603778839111e-01
4.526212986744771460e-01,4.593217255805316368e-01,-2.675315505538777838e-02,-8.151726990402888284e-02,-3.082205859779422324e-02,-3.181458060340298238e-02,5.088010430335998535e-01
4.840175736180080124e-01,4.705096023743519651e-01,-3.218714151522983347e-02,-5.094079192803400991e-02,-2.618577528868736015e-02,-3.607235154729297733e-02,5.228981971740722656e-01
4.000889205964648365e-01,5.029613437308433355e-01,-1.549661134349877845e-02,-9.428493152348794981e-02,-4.744915293769553372e-02,-3.594408231180737379e-02,5.131720304489135742e-01
4.479739011461173481e-01,4.224576243684367016e-01,-1.719376360651975189e-02,-1.061276602203803515e-01,-3.120155696178793930e-02,-3.135244572294582088e-02,4.947943687438964844e-01
4.833557320145247527e-01,4.933048248287817961e-01,-1.752725056253051639e-02,-1.874177633057587671e-04,4.206238613097448950e-04,-3.975801608140139970e-03,5.059784054756164551e-01
4.311606423447776892e-01,5.133043896066756817e-01,-1.831601218096023942e-02,-5.450451111954215250e-02,-6.945589651278517851e-02,-3.496606330400421625e-02,5.222557187080383301e-01
4.343452966731604636e-01,5.186836129633605186e-01,-2.945775166204284146e-02,-1.398938597167454466e-02,-2.131711868977877872e-02,-9.072793778342965604e-03,5.133613944053649902e-01
4.629494902783892751e-01,5.071258023288058858e-01,-2.501088020733044370e-02,-2.112904748451551254e-03,-2.115660660204218661e-03,-4.172438454611506094e-03,5.115585923194885254e-01
5.319572116419089003e-01,5.261051335974155085e-01,6.841907466067886912e-02,2.323655439141143753e-02,9.886433012855386920e-03,-5.269181191402742999e-03,4.628018140792846680e-01
5.297579095025678475e-01,4.974641136094322125e-01,9.654096333739703439e-02,-1.103840640576841947e-02,-1.257255047003012945e-02,5.943008584026438813e-03,4.191363751888275146e-01
5.261569901967269036e-01,5.473942159738037772e-01,8.687233248586473389e-02,-1.061578459449847829e-03,-3.558858800603400402e-02,-7.382083670032446587e-02,4.721258282661437988e-01
5.761004105193505698e-01,7.110626177991512531e-01,8.050893011431931034e-02,8.665269321808700964e-02,-4.572596057618413812e-02,-7.818606031965386061e-02,6.146947741508483887e-01
5.283422299875851769e-01,4.958666136908457256e-01,8.305397301420980316e-02,1.235896304143639310e-02,1.633000009676778205e-02,6.789978086464611845e-04,4.314335584640502930e-01
4.508191796393591355e-01,4.700457666279890256e-01,-4.058947279385882734e-03,-1.684055506166235588e-02,7.356533787849348430e-03,1.199196847339276291e-02,4.663411974906921387e-01
3.724234175101804878e-01,4.369879827470848355e-01,8.389012898976644372e-03,-7.259003832274624202e-02,8.867521749608099288e-03,6.864863051718871935e-03,4.199744760990142822e-01
2.760502830345658021e-01,5.426427577489567611e-01,-4.945369425499113181e-03,-5.787949555352521480e-02,-1.201791689285374755e-02,9.574485033780633439e-03,4.854892790317535400e-01
3.749083993280187266e-01,4.382553528252367547e-01,9.711170910091659891e-04,-1.651690735185714631e-01,-1.465306892063084846e-03,-1.995393106719345853e-03,4.993901848793029785e-01
4.269795309716436504e-01,3.774501452427024284e-01,5.817460188111744923e-03,-7.385427214651101024e-02,-3.733346368345083401e-03,-6.197741441866765934e-03,4.189166426658630371e-01
4.160219722537847886e-01,4.564756863967803224e-01,-7.168561271372497767e-03,-4.168812471462335356e-02,1.500581317413467175e-02,1.882234648406885119e-02,4.525465965270996094e-01
5.423234794153958260e-01,4.502168777933821531e-01,-2.084619297142431549e-02,1.879997677269807169e-02,-1.984773177568663338e-02,-7.635728786412410499e-03,5.255369544029235840e-01
4.228031330532588949e-01,4.497339775071459433e-01,9.352069867904932998e-03,-3.282942766988873606e-02,-2.006241981847968568e-04,-3.570523489155840759e-03,4.313621520996093750e-01
5.430122436906205108e-01,3.523787227990829996e-01,-1.474920037645000015e-02,1.163245777623677507e-02,1.418706707129973980e-02,-1.393052543331237819e-02,4.926488399505615234e-01
5.952292381932633436e-01,3.537456818110770729e-01,-1.431400907516139354e-02,6.715151336120399328e-02,1.438254051802370821e-02,-3.178980705869484391e-02,5.475791692733764648e-01
4.959472947720684477e-01,4.841083479440720927e-01,-3.067778454391223431e-02,1.037602696290881605e-03,6.961506445025902748e-04,-1.689006070920578495e-03,5.208192467689514160e-01
5.465710019628020611e-01,3.524113239793991159e-01,-1.667446990035492682e-02,5.677911747637935658e-02,2.630826436367048396e-02,-2.971746792538905793e-02,5.098835825920104980e-01
4.622200814018117554e-01,5.071424638322238332e-01,-2.875134783656513315e-02,4.724081876104278127e-02,2.624174061903127714e-02,-9.739517935339177257e-03,5.236144661903381348e-01
6.074344518476868515e-01,3.052870769869553969e-01,4.588450033824031937e-02,7.410316688138954277e-02,3.888836794636895550e-02,-4.164714719674720428e-02,5.130056142807006836e-01
5.183378136320380136e-01,4.418822157633373049e-01,-2.047703745532092334e-02,7.886362877811132002e-03,1.093121470186084361e-02,-6.987629120847702914e-03,5.056313276290893555e-01
5.240037950035971726e-01,4.111713329452384991e-01,-2.291682180813914282e-02,2.981543669472981606e-02,8.953236459748190740e-03,-2.879413129514607483e-02,5.055072903633117676e-01
4.671622598624572409e-01,4.956799514162842923e-01,-3.057089124775475009e-02,-2.346866436822335217e-03,-5.008121774904610024e-03,-4.522716947063853965e-03,5.127366781234741211e-01
5.489503976073544234e-01,3.215584515953858746e-01,-1.644388833091198210e-02,2.558600626092687180e-02,9.739326486488805376e-03,-3.484179503374322528e-02,4.987003505229949951e-01
4.808909809085693543e-01,4.913867583816731721e-01,-3.580645233434692765e-02,-2.415359654257139520e-04,-8.134871881109697472e-03,-9.152217988229483306e-03,5.224552750587463379e-01
5.450664759829957351e-01,4.085172920302074240e-01,-2.265521475523224471e-02,1.001687797880549628e-03,5.616095356373468697e-03,-1.899597747036384232e-02,5.144043564796447754e-01
4.866081624744211798e-01,4.913609676419075090e-01,1.074262105736025763e-01,5.035306779892041382e-03,-6.678352473187173718e-03,1.872332822859081036e-02,3.832300603389739990e-01
4.926121970134453854e-01,4.928079783453239715e-01,7.608548023312089459e-02,1.459169393523572413e-03,1.117820948985700884e-02,9.526275140130283092e-03,4.174081683158874512e-01
4.854228010166581897e-01,5.502412898571056310e-01,5.971764640153648385e-02,2.386634840562694426e-02,-2.098759173143866993e-02,2.887342200418898698e-03,4.648388326168060303e-01
5.224262959852368216e-01,5.373012656192713843e-01,5.312806109406292832e-02,2.315815791411696481e-02,-1.852407088174935421e-02,-1.254711909041913293e-02,4.801598787307739258e-01
5.410142902806542864e-01,5.144716113287814974e-01,8.545186779222507800e-02,2.906237112621359517e-02,-1.882966379957666525e-02,-5.426626010748706458e-02,4.567075669765472412e-01
5.034167153430770814e-01,4.887961094349098645e-01,1.037128012742041250e-01,4.117686661290280957e-03,-7.227309364874803235e-04,-1.711400529705060379e-04,3.926647305488586426e-01
2.452934688543865760e-01,6.817223131373284506e-01,-6.749924359375136795e-02,-1.333851521665646855e-01,-2.102377458738289781e-02,-2.300467121841588344e-02,6.936206817626953125e-01
5.106328549102768788e-01,5.339722679597525001e-01,1.175083012373994151e-01,-3.974042466888466803e-03,8.860101367527954686e-03,-2.012001275302130812e-02,4.071415960788726807e-01
4.833076613592938164e-01,4.614910728815545538e-01,-3.106563381586613382e-02,-1.817683150519779772e-02,-1.732818780877139891e-02,-1.818641023879847066e-02,5.066736936569213867e-01
4.876085250823475326e-01,4.977785466585537000e-01,-3.213645419330685149e-02,-1.265105047131283994e-03,-2.623828283007257310e-03,1.768681673725493826e-03,5.249370932579040527e-01
5.110026655624788638e-01,5.158851873406563593e-01,-7.066888403968241139e-03,7.337379617396811403e-03,-1.902934314571195010e-02,-1.933025730367325667e-02,5.227984786033630371e-01
4.300163813560068937e-01,5.187022225415280907e-01,-3.201087198510493836e-02,-3.052451376816451428e-02,-3.106355921144417914e-02,-3.507865854512387527e-02,5.212401151657104492e-01
4.496144474611759034e-01,4.211058307561547642e-01,-1.534169547972863423e-02,-9.587549692227131937e-02,-3.322848861171446427e-02,-5.103891459449556162e-02,4.923873841762542725e-01
5.248742170244322658e-01,4.412356007022310012e-01,8.618364634251585166e-03,-6.795145171930097594e-02,-5.963187277857370100e-02,-4.709735635332515380e-02,5.113816261291503906e-01
3.399416071328472122e-01,6.082361582970636782e-01,-1.179581516777739036e-02,5.475808307832210654e-03,-1.682150855726902150e-02,5.622538797691320825e-03,5.395406484603881836e-01
4.597551065297584838e-01,5.099928015504171519e-01,9.924166865379890901e-03,-9.115660240302685124e-03,-6.255516815518872079e-03,4.702469758723637656e-03,4.773920774459838867e-01
4.672533617135279371e-01,5.025799168685537444e-01,-4.231419313894035916e-03,-7.834200755895713575e-03,-5.000317264400029431e-03,2.439543388656881164e-03,4.903863668441772461e-01
4.423690470977258982e-01,5.083707737500972046e-01,-2.455375890692607088e-02,-1.419221424758677040e-02,-3.076100683061474064e-02,-9.787725175961737092e-03,5.068739652633666992e-01
5.424506448916377455e-01,3.459846721945533110e-01,-1.450891876832760552e-02,1.715783503032489860e-02,-2.590075325581644387e-03,-1.403831606468309949e-02,4.907889068126678467e-01
5.461296040852513523e-01,3.674890157885022379e-01,-2.353721869297259461e-02,8.550105194563863836e-03,5.404947170957786345e-03,-4.998312641087520464e-02,5.123172998428344727e-01
5.433509933688485116e-01,3.886685115716385641e-01,-3.602196374703320325e-02,8.332088265489576151e-02,2.100319155420445061e-02,-2.147029796419588910e-02,5.417695641517639160e-01
4.241231055492908908e-01,5.081189191169541708e-01,-2.807686602297448930e-02,-2.016754280432651175e-02,-1.859760252394900004e-02,-1.082492250321473622e-02,5.021278262138366699e-01
5.327731348255959620e-01,5.413182388014572410e-01,5.261100534971652198e-02,6.910080418557408219e-03,-1.078366053512921398e-02,-1.349825724402541061e-02,4.855619966983795166e-01
4.883525697992458503e-01,4.978691566588694384e-01,2.402464178471741540e-02,5.291935774193259195e-03,-1.085135192754559368e-03,-2.668715089141772520e-05,4.692519009113311768e-01
5.933450465141617558e-01,1.679710576801353716e-01,-1.531731250024645496e-02,8.971481380853857379e-02,8.780187686191582783e-03,-1.054603370961865530e-02,5.632183551788330078e-01
5.568568642162549098e-01,3.298865306743974934e-01,-1.747953906745786101e-02,3.958707967990356125e-02,1.805729283047557976e-02,-2.173613038905472181e-02,5.080526471138000488e-01
5.825348328023792766e-01,3.148192365143441251e-01,-1.920838554582532387e-02,3.518952922375527537e-02,1.863528252400936322e-02,-1.763605089866778636e-02,5.275986194610595703e-01
5.396792065112883119e-01,3.463024409136606918e-01,-9.284195871353873031e-03,1.817853308900852990e-02,5.285668580227284932e-03,-1.300641123403920019e-02,4.839228391647338867e-01
6.091761254907169798e-01,2.576297328824759258e-01,-2.475674610608236126e-02,2.468157145477704005e-03,6.851182361078139542e-03,-4.986860417773891080e-02,5.569727420806884766e-01
4.987989553330495207e-01,4.896967026536440670e-01,2.384146097491002259e-02,1.637469356976160991e-03,5.535306804014366840e-04,8.221390920385526768e-03,4.706973731517791748e-01
4.549026408340914873e-01,4.288303180995293173e-01,-1.036205140223922516e-02,9.523394287181739803e-02,-9.353292697143748141e-03,2.649587212322328938e-02,4.843526780605316162e-01
4.486863924934368919e-01,4.785947571716697713e-01,-1.879317844190014908e-02,2.712272562529574257e-02,-1.745234433540989935e-02,1.437289423706132781e-02,4.869842231273651123e-01
4.903641587254154999e-01,4.979947958056853974e-01,-3.107701855409739089e-02,1.146289066967875244e-03,-4.797933944823902161e-03,4.288842047529123173e-03,5.254200696945190430e-01
4.099268588550671888e-01,5.066346236894789801e-01,-1.907446753970581943e-02,3.613864815705554456e-02,-1.381828219298297453e-02,7.332295773298237035e-03,4.894225299358367920e-01
4.756494462344302288e-01,4.836297836690754970e-01,-2.708936033411224464e-02,5.577028059027982522e-03,-3.918890850845065804e-03,4.328747386361447153e-03,5.069690346717834473e-01
4.755121509213360853e-01,4.943463700545446260e-01,-2.875279266432706482e-02,3.792451597194952412e-03,-3.478109577413323814e-03,3.817804524673281980e-03,5.140607357025146484e-01
4.794248608586956228e-01,4.630819741437196546e-01,-2.752672284410057069e-02,1.832080620996708736e-02,-8.794277399655166250e-03,2.931721719783360065e-03,5.002466440200805664e-01
4.675373041700838783e-01,4.893692333518210313e-01,-2.323767363316031620e-02,9.078380478962868108e-03,-1.300512367901202060e-02,1.308213084472616486e-02,5.033084154129028320e-01
3.757426713331692980e-01,5.182018142652505821e-01,-1.974798339147143533e-02,7.352976459120974528e-02,-2.955338161967861060e-02,2.898225260659827857e-02,5.043894648551940918e-01
4.554873526563502084e-01,4.635410811842683998e-01,-9.574447409586239743e-03,-9.568540665315337923e-04,-4.368819599624180084e-04,5.296813091269733133e-04,4.691449403762817383e-01
4.736222594295681487e-01,4.816133582261069024e-01,-2.500313785190078075e-02,3.163536065499494062e-03,-5.117957192886758884e-03,4.287359080359262782e-03,5.028314590454101562e-01
4.709223346970355939e-01,4.722080085786961590e-01,-1.318698886050961860e-02,2.119446410690759702e-02,-7.156049689519530278e-03,5.969086027371087351e-03,4.864093363285064697e-01
4.775055169589903503e-01,5.014974123946005502e-01,-2.162306664894875219e-02,-2.212225306385211428e-03,1.506610588857246408e-03,9.358250914335140835e-03,5.118244290351867676e-01
5.000422227429479616e-01,4.781874032369513028e-01,-3.310613913298537936e-02,-2.149364213238502339e-03,1.414491434314706520e-03,1.454751656111046574e-03,5.225889086723327637e-01
4.098921279770424420e-01,5.122457558471276151e-01,-2.007927962672662048e-02,2.932576986339839251e-02,-1.865942010587182467e-02,8.637254282101910000e-03,4.931623935699462891e-01
4.613241291743969130e-01,4.700473688852145893e-01,-1.848312893370540611e-02,1.378480565928023177e-02,-6.589390720801334075e-03,7.448901719751402535e-03,4.851219952106475830e-01
4.000283498887594602e-01,5.643145197253136569e-01,-2.239532818274414527e-02,4.301077288671164602e-03,-3.107409248632374971e-02,-3.328313154378921383e-03,5.270821452140808105e-01
4.181967659178379981e-01,4.982547988967849228e-01,-2.655618000763759756e-02,6.922578804193597890e-02,-3.742731487325824669e-02,4.273772942298231098e-02,5.136916637420654297e-01
4.302126544754364956e-01,4.946611788715563063e-01,-6.295843252480060048e-03,2.807748712590020165e-02,-8.127919971920919556e-03,1.392842699802529158e-02,4.753639101982116699e-01
4.148627171207986963e-01,5.329373071684859742e-01,-1.863316943489540245e-02,1.692677789365347116e-02,-1.260076899565934841e-02,1.015167595674846407e-02,5.046684145927429199e-01
3.110980484544465519e-01,5.842179528097994901e-01,-1.586701122337064174e-02,3.018387234952372988e-02,-2.177703059958307000e-02,3.282417487971579784e-02,5.274367332458496094e-01
3.674573776280942172e-01,5.864320420532549427e-01,-1.874304339628396487e-02,6.539738992943706919e-02,-2.638025101388668386e-02,2.574066074347747951e-02,5.464199185371398926e-01
3.512435475987168432e-01,5.101031892434562121e-01,-1.957745754238027214e-02,1.180584458787059254e-01,-3.280241151507976710e-02,-6.507284034319412228e-03,5.165476799011230469e-01
4.031987824794290853e-01,5.159326105807405805e-01,-1.512744065265914095e-02,-2.989700037975578928e-02,-4.573950825694814148e-02,-2.260560366068979990e-02,4.953343272209167480e-01
4.068758578893573175e-01,5.318121120768796173e-01,-2.142007745755258874e-02,2.337111820005520479e-02,-2.974740497393910804e-02,1.270269712976060048e-02,5.072805881500244141e-01
3.627642007242043443e-01,6.066015222670981810e-01,-2.770710238175555507e-02,6.672564531143011790e-02,-2.958057336064593215e-02,2.438823382406642495e-02,5.700020194053649902e-01
5.462825263523675146e-01,5.069831286850443597e-01,5.804874660347641990e-02,8.582200418115099039e-02,3.261598650671167915e-02,-2.138010709859620648e-02,4.973815083503723145e-01
5.580352060664894864e-01,5.030770254516229167e-01,3.559777309999112571e-02,7.216687990406954467e-02,4.480576171458369727e-02,-8.859251353253028149e-02,5.407788753509521484e-01
4.966639303386106707e-01,4.995681576380300304e-01,3.965098833565666725e-02,1.803151446044538560e-03,-9.984309388169139432e-03,8.468272985589563734e-03,4.590429961681365967e-01
6.959951039116825111e-01,3.869974399599241943e-01,5.415240854589892239e-02,8.606655369640747733e-02,-2.761493339957895449e-02,-7.678006749374000073e-02,5.927135348320007324e-01
7.588352975143737300e-01,4.667196176908630645e-01,5.746032007501966632e-02,1.587443666210222315e-01,-1.445317504199301363e-02,-6.947544291353008328e-02,6.805015206336975098e-01
5.053428857999422430e-01,4.890721750240129007e-01,2.651495676405252189e-02,8.392398495566310776e-03,1.044863452631382937e-02,4.558073835204687688e-03,4.715412855148315430e-01
7.065966802181914419e-01,3.869137934200013729e-01,3.044067381636222924e-02,8.212150326423323099e-02,-1.698513830502136265e-02,-7.677464554395718732e-02,6.180686950683593750e-01
8.278501277024790106e-01,4.007924675503518608e-01,3.340545511750298013e-02,3.768157752317036202e-02,4.752810273641992420e-03,-7.772025220435566095e-02,7.047663927078247070e-01
4.697248242974644272e-01,4.898661522424690995e-01,-3.814158698537073455e-02,-3.388154455591906207e-03,-1.086128638148266268e-02,-9.488242488627170873e-03,5.188655853271484375e-01
4.700716509697399070e-01,4.817294141894116200e-01,-3.298407480634923949e-02,-4.621485879883443820e-04,-1.313651134369735185e-02,-1.325787985640479102e-02,5.100108981132507324e-01
4.947360655968923160e-01,4.924502090444526914e-01,-7.193056161330924070e-03,-1.941055105412120780e-03,5.843794399503525125e-03,-8.952410172411252864e-03,5.011436343193054199e-01
4.593333339363539491e-01,3.840152729100503315e-01,-1.697318675088677065e-02,-9.335168049628138343e-02,-2.904439146694321947e-02,-4.010771773641262639e-02,4.797566533088684082e-01
4.492956237081984217e-01,4.734865290070857657e-01,-2.828548791939444751e-02,-4.120623753310041076e-02,-2.162980030776830848e-02,-2.065308122429075285e-02,4.979950785636901855e-01
4.700889665818903662e-01,4.917106090665404050e-01,-3.458265947886268732e-02,-2.125611810026030966e-03,-7.598633010392710600e-03,-5.974908625591431217e-03,5.161072015762329102e-01
3.325439178273749130e-01,4.977118136435134121e-01,-7.989425268047051221e-02,-2.661332411931311981e-01,9.995433030798714022e-03,-9.525724946246144978e-03,6.917802095413208008e-01
4.581745551933282812e-01,5.129253933861540604e-01,-2.292679381591183896e-02,6.251772953521570787e-03,-1.494732414518584393e-02,1.239631228458179697e-02,5.119037032127380371e-01
4.731123687779825171e-01,4.963125488061305157e-01,-3.516356786050950367e-02,-1.048020029341495234e-02,-7.364881430584517032e-03,-2.797911855231161645e-03,5.207595229148864746e-01
4.845682631049251787e-01,4.944638359674077277e-01,-1.962795415912321761e-02,-4.197170192236660685e-02,5.069306637766306245e-02,2.067679823917513773e-02,5.230467319488525391e-01
4.058346204185906969e-01,4.887497316745472720e-01,-2.361270813150351255e-03,-4.521802941010515109e-02,1.155503088566322591e-02,1.832760531192416734e-02,4.635587036609649658e-01
3.825178728970272113e-01,4.993512743299873824e-01,-7.770946977111503617e-03,-5.553676822070605784e-02,3.797661342573863813e-02,2.167529030818964378e-02,4.759866595268249512e-01
3.856864408829632218e-01,5.008530432277893407e-01,-3.097106259295051567e-02,-5.426134382469041673e-02,3.611098469725810417e-02,1.982110105002185887e-02,4.987738728523254395e-01
3.188822809877203679e-01,4.795318892616101669e-01,-8.881802242718561669e-03,-1.712124417704616874e-01,1.464346513540930664e-02,1.166469117275214379e-02,5.242950916290283203e-01
3.681580101229159352e-01,5.185725633803914825e-01,-1.778009247703216111e-02,-5.922540651900478487e-02,5.259570362414131561e-02,3.710791644324338417e-02,5.025697350502014160e-01
4.144436080613445039e-01,4.758815107971607894e-01,-2.078379302520133587e-02,-3.239171890386578767e-02,-2.645371153638332792e-02,-2.600611116097233111e-02,4.766686260700225830e-01
4.126665190855781651e-01,4.857522389643396110e-01,-2.264236978876882356e-02,-3.357664918682324445e-02,-2.468392160713288666e-02,-2.573162295022463769e-02,4.835768938064575195e-01
5.024170552344888740e-01,4.951539944860675058e-01,-1.342424819379339773e-02,3.287462922107661171e-03,1.111900969021045564e-02,-7.202916460023205472e-03,5.127937197685241699e-01
4.718952814915458038e-01,5.010974892670830849e-01,-2.370975478798525993e-02,4.019347573118414209e-03,-1.039287153813515593e-02,-7.964615220068786304e-04,5.111988782882690430e-01
4.882594059532280317e-01,4.942345180301355723e-01,-7.435608463185527928e-03,1.111687662407867582e-03,-9.927717311905087660e-03,4.342615184698783368e-03,4.990661740303039551e-01
4.866383916855128167e-01,4.992723710068625587e-01,-1.857220959675759397e-02,-1.472154213602063378e-03,-2.700213477865661890e-03,-4.759983134612073841e-03,5.117387175559997559e-01
4.905695695953428692e-01,4.971692353068464243e-01,4.617250299968400640e-03,4.040819582539141239e-03,-8.699009761097793031e-03,-7.014789690958910320e-03,4.897182583808898926e-01
4.859291332686407894e-01,4.960138725185073150e-01,-1.969412390091834775e-02,-1.059896656797298492e-04,-3.016672227143497777e-03,-5.986343662523082275e-03,5.108723044395446777e-01
4.371164058700267585e-01,4.358856155747409256e-01,-1.362690430567026212e-03,3.644412380450124528e-02,2.647237058533709764e-03,-3.565153985900499744e-04,4.424157440662384033e-01
4.216429936039206572e-01,4.538319773699833748e-01,-1.156241285939646479e-02,6.621694780468362351e-02,2.909397349191616619e-02,-6.424037241570305923e-03,4.674021005630493164e-01
4.637100129537300441e-01,4.850045532637559664e-01,-2.129498798977591534e-02,3.578767344131926487e-02,8.464413175287399671e-03,-1.454220475534042344e-02,5.007024407386779785e-01
4.532835028013588174e-01,4.113663867652574968e-01,-8.538705514361810689e-03,6.638429998710636271e-02,-6.912825587583057776e-03,1.500888771277435023e-02,4.579501450061798096e-01
4.792513137240714816e-01,4.413198125690602769e-01,-1.470338940528043148e-02,8.357513229541725652e-02,2.290871417177273509e-02,-1.951292419332488481e-02,5.003645420074462891e-01
4.909447256398058457e-01,4.910631089162353913e-01,-3.678456517639039358e-02,4.250491822223451122e-03,5.123830629545048261e-03,4.927114712423884442e-03,5.279834270477294922e-01
4.655606583076150051e-01,4.334466204598049766e-01,-5.537325186451502734e-03,6.968866523882177866e-02,2.575143842569698610e-02,-9.949881613989162293e-03,4.740165770053863525e-01
4.744879425891077585e-01,4.939857455131356212e-01,-4.067028165658420624e-02,3.688079325243644711e-05,-3.936251256710297889e-05,-2.265305024359379974e-03,5.251933336257934570e-01
4.395055434405227279e-01,4.755960562040724149e-01,3.977272069973725177e-03,3.755726808518147081e-02,8.042679785185333913e-03,-3.896312111912982219e-03,4.595400691032409668e-01
5.468692031007736931e-01,4.448968085176239762e-01,3.500174454012550118e-02,-1.735514023306840292e-01,-8.090902046144340942e-02,-6.977354910668305543e-02,5.872090458869934082e-01
4.053325654234556930e-01,5.102283826483390294e-01,2.478083711370482334e-03,4.961317329783737629e-02,-1.522578095583081940e-03,7.550302482435503060e-03,4.723505079746246338e-01
4.306646585851944264e-01,4.767294874462093546e-01,-6.727929972844326478e-03,2.284452998472124435e-02,-8.021556848248807131e-03,7.940310095660154180e-03,4.642525911331176758e-01
4.131662570562988912e-01,4.792209925713895036e-01,-3.400509424709152739e-04,3.304289189109751307e-02,2.948893279453769761e-03,4.551489703330804763e-03,4.539036154747009277e-01
4.808409365118653245e-01,4.320118334547458083e-01,-1.116132603072444995e-02,7.677035837774898175e-02,-2.784249795521414727e-03,-2.504139397323586636e-03,4.880057573318481445e-01
4.823568394220614786e-01,4.240696182893450850e-01,6.787417585716326585e-04,3.377589641042705315e-02,9.817155296354565172e-03,5.476445678458998758e-04,4.593995809555053711e-01
4.739989231985385354e-01,4.173077170202062480e-01,-1.180378299449946766e-03,2.983477872190430299e-02,-1.255583262037152786e-02,-2.775976061705517743e-03,4.530310928821563721e-01
4.796770058236415890e-01,4.108680803655528346e-01,1.434381197474909886e-03,1.915574104998692823e-02,5.648164667725706764e-04,-1.463108208686816219e-04,4.490491747856140137e-01
4.853391553689037630e-01,4.141667766969907571e-01,2.035839425983176909e-03,2.730928579153573885e-02,1.532552914973966951e-02,3.066151687783312974e-03,4.552142024040222168e-01
4.973984483134077372e-01,4.891646801116501520e-01,9.548286351631796176e-03,3.960067280172101722e-04,-1.177392520016605146e-02,9.069057137406223712e-03,4.844706654548645020e-01
5.112422031190441141e-01,4.975043228214622304e-01,5.088898889606535691e-02,8.802936645734038210e-03,-8.895818448132961076e-03,7.864681092841151536e-03,4.543621540069580078e-01
4.935583853287781042e-01,4.865225455310173697e-01,-3.316002459543243575e-02,-1.768318428267070142e-04,9.868512501694966244e-04,-1.612698104525239458e-03,5.232462882995605469e-01
4.955382919107773620e-01,5.190734600855412273e-01,3.041681178955518705e-02,5.686339057371544471e-03,4.919064511258556226e-03,9.472169667156181763e-03,4.777837991714477539e-01
5.177106909989794836e-01,5.429051228083486835e-01,1.007760116312167442e-02,-8.745816371566243709e-04,-1.446163804914261594e-02,-2.436213175476311006e-03,5.213090777397155762e-01
4.837761545520187223e-01,5.354332763912736937e-01,7.004999748880613719e-02,1.701104125245284787e-02,1.990162933063689688e-02,-8.893945809840929015e-03,4.444134831428527832e-01
5.013019040950318361e-01,5.413196750347328834e-01,8.879857307306604497e-02,2.101725401706422761e-02,-2.018691115100592834e-02,-2.280890358046083408e-02,4.386072754859924316e-01
5.421272985839137304e-01,5.287475825768673809e-01,8.458090612012969522e-02,9.340237658969198151e-03,3.696407642370743568e-02,-1.343897803214682066e-02,4.564082026481628418e-01
4.790705391434690874e-01,4.931480771366253402e-01,-2.906069093243290880e-02,-7.282354161487809840e-02,-3.505712500897330969e-02,-1.164303528915330843e-02,5.343708992004394531e-01
4.803513543580357203e-01,4.547538667927732980e-01,-3.011174673479805053e-02,-5.216934475925495002e-02,-3.563473079654768533e-02,-2.496008730211509916e-02,5.118639469146728516e-01
4.735104892148606082e-01,4.878903375881643578e-01,-3.348668348521810501e-02,-4.897241593439302133e-03,-5.425886182546626677e-03,-4.947936083616529500e-03,5.145650506019592285e-01
5.016176163389420850e-01,4.974602492155088540e-01,5.292996048101178408e-02,8.492515240555772310e-03,-1.205612007964129706e-02,-8.562878799357055704e-03,4.475990533828735352e-01
4.798367679080400849e-01,4.880032495119719371e-01,-3.788845961318865196e-02,-4.370790342641802458e-04,-1.691265027829733265e-03,-4.010756350041979647e-03,5.219113826751708984e-01
4.777384921055757294e-01,4.938857794919954136e-01,-3.332432204784091523e-02,7.520292848790481729e-04,-5.952295496145966133e-03,-6.171833565666604536e-03,5.195387005805969238e-01
4.660691764179683005e-01,4.925363226453276511e-01,-2.925970469352900949e-02,-5.080738306893812020e-03,-3.831584000215275138e-03,-6.184277969285562580e-03,5.093106627464294434e-01
4.663091628168776204e-01,5.049638703314672794e-01,-3.487322161597450343e-02,-2.006510510341038937e-03,1.159918164333571941e-03,-4.054026834657938538e-04,5.216010212898254395e-01
4.838167887157857061e-01,5.062624892078928518e-01,-2.671373858165837500e-02,1.315642847941050171e-03,-8.819306056441064343e-03,-3.189328092636753258e-03,5.223729610443115234e-01
4.730300726837717851e-01,5.030774100524787462e-01,-2.347095618860556288e-02,-4.954566158450700135e-03,-1.598668415222044906e-02,-9.355884673541212462e-03,5.132617354393005371e-01
4.470094415776220131e-01,4.705089534437295606e-01,-2.889171079207902837e-02,-2.091777002531334390e-02,-2.378820002932645686e-02,-1.782735774567542619e-02,4.921192228794097900e-01
4.783230716034920227e-01,4.958804347768401843e-01,-3.101257838512117004e-02,-1.259423472969685518e-03,-7.472145724375715142e-03,-4.133527589324898464e-03,5.185529589653015137e-01
4.892468669379538282e-01,4.647025387102225458e-01,-3.469374548701847916e-02,-4.976204035483001650e-03,-9.688712224485173871e-03,-8.872655768792939157e-03,5.126875042915344238e-01
4.688730859185418209e-01,4.831154644488547811e-01,-2.981392475089833516e-02,-1.110541687209818697e-02,-1.827622483016770605e-02,-1.900722347329231524e-02,5.083796977996826172e-01
4.835587015231997965e-01,4.304602572827349594e-01,-2.049376923333307010e-02,-2.983328795005412912e-02,-1.614206789413220530e-02,-2.174820677854834294e-02,4.847624897956848145e-01
4.557148568717865889e-01,4.534572589441433488e-01,-2.756234981781585658e-02,-1.271113602431942283e-02,-1.211281420329785724e-02,-1.421135275417296021e-02,4.837372004985809326e-01
4.377861449328878662e-01,4.666919159516634830e-01,-1.350769598724360643e-02,-7.707483782810677087e-02,-5.033120471983675015e-02,-6.364743507713438442e-02,5.050950050354003906e-01
3.609324953248727041e-01,4.911301636411409266e-01,-4.268142221532233993e-02,2.047250180483719539e-01,5.285450654706339707e-02,-8.252696205664688742e-03,6.055801510810852051e-01
4.835654232085672133e-01,4.881924427449125803e-01,-3.702063388651805065e-02,-6.899959045560667649e-04,-8.240063236432943264e-03,-7.312057045792684160e-03,5.232642889022827148e-01
6.681990817158596219e-01,3.114623158281613624e-01,4.056095281553429022e-03,1.712428238059750807e-01,9.183833820596398745e-03,-7.488004513615845181e-02,6.606581807136535645e-01
4.649810379806211258e-01,5.822397765212796727e-01,-1.683499107021746433e-02,4.281538685056308219e-02,-2.237959886759322004e-02,8.820942314586124097e-05,5.562332868576049805e-01
4.386481829384005771e-01,5.591819349567384023e-01,-1.187614627668548417e-02,1.349282222528366999e-02,-3.826247728014497279e-02,-1.777711295997155827e-02,5.269632339477539062e-01
4.657922077988688181e-01,5.166385520720697677e-01,-1.139561169578934274e-02,-6.796439655844590914e-03,-1.288762670495611704e-02,-7.487726493577527044e-03,5.053334236145019531e-01
4.711530692959317035e-01,5.019133472766074133e-01,-3.079654173822832242e-02,2.828034732289552884e-03,-2.911019926386102311e-03,-3.799869471381589568e-03,5.181046724319458008e-01
5.308314441895439773e-01,3.752996713526847161e-01,3.274734469094320310e-03,7.795160815651588568e-03,6.441358640066899115e-03,-1.237521170901769926e-02,4.703409373760223389e-01
4.250566236343212290e-01,4.876479097143641139e-01,-2.323808542523281284e-02,-2.564978579925995122e-02,-1.280920470012692110e-02,-1.511355517057836467e-02,4.858975112438201904e-01
4.125166017320445189e-01,5.120684674240919554e-01,-2.375540009055282509e-02,-3.131365379358523604e-02,-2.318489206252467849e-02,-1.153773753069898232e-02,4.986272454261779785e-01
4.528107220758694207e-01,4.603411432980744067e-01,-8.194464688465574742e-03,2.294449326693430088e-02,1.106732057730992758e-02,-1.683293576542998354e-02,4.678150415420532227e-01
4.523634744487666226e-01,4.385727917994121094e-01,-1.189944528134256885e-03,-3.073151069280675995e-02,-6.824434447497218850e-03,-6.558337991018784417e-03,4.502755999565124512e-01
3.697408508361514357e-01,4.819438156883122382e-01,-2.503491857349826599e-03,-5.812507039067665165e-02,-3.291520733778551672e-02,-2.720672109918006315e-02,4.566494226455688477e-01
4.486783792020239137e-01,4.753525690305261397e-01,-1.923315551426318937e-02,-3.741839166137653910e-02,-2.413627036667374132e-02,-2.638138698488043041e-02,4.900713264942169189e-01
5.033376245718683695e-01,4.455391258316876435e-01,-9.781432161189373975e-03,1.815883417019818410e-02,1.776325734363029887e-02,-2.203064373106175186e-02,4.902715682983398438e-01
5.078418054439568508e-01,4.387147901434325092e-01,-3.239750299011523449e-02,3.285585613520464882e-02,2.247382979182495702e-02,-2.006668824571201937e-02,5.150278210639953613e-01
5.517876767820343309e-01,4.521950824595623586e-01,-3.612447886610364867e-02,9.607946677786076417e-02,2.848182862109766011e-02,-3.418506536246924271e-02,5.750138759613037109e-01
4.927836326160758285e-01,4.929234709712982387e-01,-1.391902700133246240e-02,9.272026363141052871e-03,-2.352552055076919096e-03,-8.158295140610281534e-03,5.072402358055114746e-01
5.034910256554201435e-01,4.524216513026770858e-01,-2.381840374131038995e-02,1.323966966641819398e-02,1.252199913330371943e-02,-1.205476275812714451e-02,5.051397681236267090e-01
4.828319805171497059e-01,4.980990820569328736e-01,-5.554156643862939724e-03,-1.739286598897944085e-03,1.585131591253461161e-03,1.258685611893554544e-03,4.962173998355865479e-01
4.442091396081062626e-01,5.070225245989783414e-01,-1.867253232758225856e-02,-2.290093371367770889e-04,-1.259768664098874502e-02,-1.086820000635793995e-03,4.977549016475677490e-01
4.905518452676423946e-01,4.977997495262080352e-01,4.298874796237361906e-03,-1.727402839703560435e-03,-8.573215306689502269e-03,5.942586387788758922e-04,4.901523292064666748e-01
4.867307130411682170e-01,4.977904007330237190e-01,2.290285359481836203e-02,-1.577855613834115668e-03,7.497686930743287931e-03,-7.290964122138369986e-04,4.696446657180786133e-01
4.951912173235168968e-01,4.978156092110325170e-01,2.141627197401296812e-02,2.968350385386732317e-03,7.474558671643188185e-03,-2.724209114368133892e-03,4.753201603889465332e-01
4.598215286965720572e-01,5.247628736538885175e-01,3.890366054048288724e-02,-1.087762420647625516e-02,3.580128017975266804e-03,-6.035158353371880037e-03,4.574132561683654785e-01
4.949994720304007334e-01,4.928823571110623192e-01,-3.425209051099831203e-02,1.178198849405541005e-03,6.744495075299199258e-04,-2.069791339313032177e-03,5.282135605812072754e-01
4.728751977493155234e-01,5.206511566948393011e-01,-5.763779969578108897e-04,-1.073240288017984507e-03,1.461149249722856454e-03,2.627820243212885057e-03,4.990882873535156250e-01
5.160927723724568761e-01,4.874680395333161331e-01,-1.306711889954692563e-02,-2.417887302968167501e-04,-2.452944678251706406e-03,-1.427574966535076657e-02,5.160543918609619141e-01
4.934994182496759141e-01,4.766867948093496676e-01,-3.674172888725607544e-02,3.004466300180752016e-04,-2.666532004772459007e-03,7.665719487861826929e-05,5.220586061477661133e-01
4.748175898446929111e-01,4.928586531379526292e-01,-4.008803174695146909e-02,2.410868085382437650e-04,5.286946146036716841e-04,-2.919852504287559318e-03,5.241844058036804199e-01
4.233211063855070733e-01,5.080300115619031942e-01,-1.624496622367122001e-02,-6.886251308424642947e-02,-2.106762333120641706e-02,-1.120803328039632688e-02,5.035510063171386719e-01
5.146119287232115980e-01,4.543302247885244727e-01,-6.087804275465069637e-03,-2.331692819877368913e-03,-3.682739146850813172e-03,-5.865031945816181168e-03,4.934912621974945068e-01
5.630218880761471700e-01,4.766520644554468333e-01,2.980969797054550119e-02,-9.559464234020235637e-03,-1.147421276917653596e-02,-3.358598697478897693e-02,4.997746646404266357e-01
5.712324979158559524e-01,4.029158229787517809e-01,-5.284613214873112863e-03,-3.373379573179428187e-02,-2.126085704632276613e-02,-6.521323070264574417e-02,5.302766561508178711e-01
5.171165632343173169e-01,4.510206682331279748e-01,-3.880525194731698768e-02,2.139352744410159997e-03,2.855914420491548027e-03,-1.200163701740398527e-02,5.264445543289184570e-01
4.935470751981618776e-01,4.868678926980419819e-01,-2.972376443562424475e-02,-1.796556141246519536e-02,-2.510731251460963237e-02,-2.019643258885351483e-02,5.238750576972961426e-01
5.059776858037673408e-01,4.451215362448551760e-01,-3.298053723364618994e-02,1.836192325252086061e-03,-7.977750628217858408e-03,-8.926141847780308045e-03,5.116840600967407227e-01
5.050724061619583649e-01,4.584355827507132775e-01,-3.205558763005822431e-02,-3.984506150616111235e-03,-8.533398856083208861e-03,-7.480528914132703738e-03,5.158153772354125977e-01
4.966879329059946668e-01,4.762432040819629675e-01,-2.969908227208672979e-02,-7.077907788605167748e-03,-4.447072351823996850e-03,-1.207670781972159692e-02,5.170943737030029297e-01
4.374546284315481981e-01,5.194418892476241334e-01,-2.015623257594501005e-02,5.965322347808958009e-02,6.316407621189290555e-02,-2.383057536296309675e-02,5.272534489631652832e-01
4.845429711936299344e-01,4.666705183799003120e-01,-3.666904794855463390e-02,6.738945861764350509e-04,1.006811731286872888e-02,6.456920041015043032e-04,5.128086805343627930e-01
4.977392380230297730e-01,4.886166065184306961e-01,-1.885266270154245527e-02,4.185829448416682544e-03,-1.170660479115902090e-02,-1.317332179170160877e-02,5.130516886711120605e-01
4.741847855128199507e-01,5.056194340682101940e-01,-2.621584914349778250e-02,-3.640380125511313175e-04,1.622552610169679041e-02,2.023202766188882465e-02,5.187842249870300293e-01
4.894686332629357706e-01,4.980292881872360744e-01,-3.517401202490544332e-02,1.715059159002187399e-03,1.305854763843409747e-02,7.713237474781376064e-03,5.296351313591003418e-01
4.800368563889013118e-01,4.984302045530267788e-01,-3.501898006419884579e-02,-2.120293761344054732e-03,8.245499348830164291e-03,8.037033256054341643e-03,5.248863101005554199e-01
4.966194776403297095e-01,4.737055330380730567e-01,-3.871156857903995663e-02,-1.028447564424212705e-03,1.109985399232011651e-02,1.212116352569597363e-02,5.250251293182373047e-01
4.778524754104357952e-01,4.700905943931059650e-01,-3.359686027819996923e-02,-1.578861204474078794e-02,3.158171823729959138e-02,2.159435572085012175e-02,5.126498341560363770e-01
4.638191437142667461e-01,4.421387534711353484e-01,-2.125738320998510344e-02,-3.233702017086397679e-02,2.160424081896439655e-02,2.266582526073895529e-02,4.809689521789550781e-01
4.848369377218563203e-01,4.359437645449041332e-01,-3.194339223997516575e-02,-2.427446367104142688e-02,2.569614593376499251e-02,3.123677770175060237e-02,5.008605122566223145e-01
4.952772708242761390e-01,4.475897595182624089e-01,-3.194592352272102032e-02,-5.990678257844574833e-03,1.461920495778056689e-02,1.050553761957160812e-02,5.061386823654174805e-01
4.965481774594336928e-01,4.897931615267942518e-01,-2.393025824057204431e-02,6.932474848310977121e-03,-4.643659687331858597e-03,4.520723017058537671e-03,5.173951983451843262e-01
4.910529818983340178e-01,4.940856600885979444e-01,-2.782434397628141820e-02,1.934811892317929438e-03,1.483102217227279772e-02,8.721349245905384365e-03,5.212635993957519531e-01
4.857735545727327464e-01,4.629884021784245740e-01,-3.289888245278971279e-02,-7.840400706484227863e-03,9.657363079515559473e-03,6.157117400491598364e-03,5.082324147224426270e-01
4.894388992527203275e-01,5.026123646544120582e-01,-3.793932740057565089e-02,8.231221555401704165e-03,4.871233373989015958e-03,5.797064725888222136e-03,5.344380140304565430e-01
4.808379886090466959e-01,4.920533062454143236e-01,-3.551779935447646475e-02,-2.315456929939474842e-03,1.064815870689172009e-02,1.105231407227707727e-02,5.227454900741577148e-01
4.511373978972117449e-01,3.846536766113965444e-01,-3.595103432865398574e-03,-1.490100773108294085e-01,-5.638010229583253173e-03,-1.748587963980839828e-03,4.976805746555328369e-01
5.248233027519872973e-01,3.370669270514567994e-01,-7.823767462618758106e-03,-4.239804427025413436e-02,3.420240171549867453e-02,4.276819436037412880e-02,4.830600619316101074e-01
4.916426985120077031e-01,3.420888880258857734e-01,-1.245142222788875319e-02,-1.223046165487912812e-01,3.283255268894299389e-02,5.400558200479566723e-02,5.078848600387573242e-01
4.727145580416620696e-01,5.339737454540497419e-01,-2.983885939368258189e-02,6.102912748675621765e-03,-2.450605581910159786e-02,-1.255115190026813952e-02,5.380377173423767090e-01
4.667948693469337607e-01,5.012933884633435921e-01,-3.899432413552755827e-02,-3.025613582409017628e-03,-1.280866697726513147e-02,-6.344346648277383004e-03,5.245019197463989258e-01
4.998244348936669024e-01,4.751076403630897782e-01,-1.121271170190552002e-02,-1.841856903987340241e-02,-1.544575355392722830e-02,-1.386536648058218392e-02,5.014467835426330566e-01
4.190413826056597069e-01,5.033198045124429587e-01,-1.807380656657664453e-02,-4.024141211513652255e-02,-6.704707294554118624e-02,-4.095502057887692726e-02,5.083187222480773926e-01
4.907557924265325555e-01,4.878701476041779062e-01,4.750742111192779449e-02,-4.718163956075962367e-03,-1.700280387386012698e-02,-6.340634237560599171e-03,4.430045783519744873e-01
4.802210783992969523e-01,4.969016401529356974e-01,-9.312909293206939054e-03,2.338784436538732681e-03,2.043281164713458241e-03,-1.786665082111906248e-03,4.981224536895751953e-01
4.550291601217874016e-01,4.997117545747951084e-01,-2.799433679106094752e-02,-1.850837535818352503e-02,-2.223390662991148528e-02,-1.263130196277548883e-02,5.097845792770385742e-01
4.797483815501564219e-01,5.006042915516607517e-01,-3.275106105343394969e-02,-3.120225222826145383e-05,-7.810029844048965719e-03,-4.535248480442513434e-03,5.234730243682861328e-01
4.892971899415201609e-01,4.830350218817654473e-01,-3.591537130680838574e-02,-2.375863573777203027e-03,-9.410078495726019801e-03,-9.908878748065823999e-03,5.226620435714721680e-01
5.044800490332248533e-01,5.015098102522292933e-01,1.691077199305979217e-02,-5.675446384510374198e-02,-5.643397864327894670e-02,-4.597646651756331221e-02,5.117064714431762695e-01
4.963824901212327001e-01,4.920152453272188531e-01,1.617042765872378496e-04,-1.380456759948549793e-04,-1.665833038096030047e-02,-6.099175488875582460e-03,4.950062334537506104e-01
4.861784958997628081e-01,4.894077563059640035e-01,2.054980170710901666e-02,-1.918565092278144701e-02,-1.276525810325463989e-03,2.979356224387613803e-03,4.684655070304870605e-01
4.241627113883359446e-01,3.816840475426038770e-01,7.427704015934455395e-03,-7.303347518942288064e-02,-6.075804788249001198e-04,-2.366348918697046277e-03,4.168809652328491211e-01
3.876395096831275477e-01,4.368078532815931059e-01,6.752710522606619747e-03,-6.243860888393291259e-02,-1.217630822707251427e-03,-5.627679490490873626e-03,4.219183027744293213e-01
4.373752818230724482e-01,4.340536312357080595e-01,-2.069752579321271213e-02,-1.314263311919689758e-01,-2.499186061002802231e-02,-2.279052586620834014e-02,5.133914947509765625e-01
4.002867398780526331e-01,4.427072739282367220e-01,1.003418399608824174e-04,-4.814522582790167760e-02,-3.248708555248469576e-02,-1.079760679849601016e-02,4.351949691772460938e-01
5.006737283097827396e-01,4.761343765259948846e-01,-1.712588533384995504e-02,3.770207019520740305e-02,2.808597370657850249e-03,-1.211840828288729757e-02,5.106277465820312500e-01
5.045292381913075719e-01,5.058127803609200335e-01,-2.668821936436555076e-02,2.092110486748085391e-02,1.347107965730797753e-02,-1.059426734716818926e-02,5.339191555976867676e-01
4.943451102976784695e-01,4.770619486413409938e-01,-2.612659554662566386e-02,1.041827495426891730e-03,4.440986948232613155e-03,-3.487158366996637258e-03,5.121455192565917969e-01
5.001577847415521472e-01,4.858250611374524963e-01,-1.758348265301501456e-02,8.881666377566984922e-04,2.732453014084517545e-03,-7.574994002576153525e-03,5.109184980392456055e-01
5.334206795629300446e-01,4.960953865142470054e-01,-2.698263402123962651e-02,-3.138828943354230600e-02,2.979279016208927211e-02,4.106731029364870528e-02,5.524544715881347656e-01
4.855673482997869828e-01,4.919359960236709961e-01,-4.293087601058592773e-02,3.185824106247469125e-04,1.475421374276349911e-04,2.424641421999388941e-03,5.317280888557434082e-01
4.829389549768562939e-01,4.885198887659126799e-01,-4.312644312574887007e-02,2.631623031397624553e-03,1.010837542720583533e-04,3.248043875374920491e-03,5.289275646209716797e-01
6.124170633072139047e-01,3.516646390234754449e-01,-2.432095423052582639e-02,1.279053864821044079e-02,1.818229255724806330e-03,-2.796879002964769434e-02,5.569951534271240234e-01
4.446716694174537854e-01,4.593807273786211787e-01,-2.393304249181393839e-02,9.573849466746026105e-02,1.790172479555196192e-02,-1.391534008428776253e-02,5.057067871093750000e-01
5.412746683744269482e-01,4.613224088644394816e-01,-1.355432164254377625e-02,6.344621619396087486e-02,1.358055328295018627e-02,-1.367812762840614135e-02,5.320324897766113281e-01
4.925431271063430705e-01,4.532866732912410601e-01,-1.340661507795848362e-02,1.904849745019684265e-02,-1.249752315314899172e-02,1.355918412675266756e-02,4.896662831306457520e-01
5.303803148964980618e-01,4.968046518417910118e-01,-2.542863961349650648e-02,5.672145350957433219e-02,-7.264049781440597847e-03,3.369879039058031045e-02,5.519115328788757324e-01
4.810817758196200278e-01,4.870598796825899579e-01,-2.955174212263494971e-02,1.012771596150655040e-02,-8.817400912512006472e-03,5.377407371943638062e-03,5.142593383789062500e-01
4.829978601248138270e-01,5.298399340486723563e-01,-5.789036262290492285e-03,7.752222278340067940e-02,-4.873646038415150109e-03,3.357904291956326226e-02,5.343085527420043945e-01
3.856651038274876431e-01,3.804478713753869368e-01,-2.234268908408823529e-02,-1.731539429142496811e-01,-3.866054284738888042e-02,-1.499798355420915545e-02,5.093864202499389648e-01
3.608935053058326403e-01,4.845977856454586341e-01,5.576652614715182921e-03,-7.375872582554540702e-02,-6.208719817590262332e-04,3.334230509516590470e-03,4.492911994457244873e-01
3.679929889851170643e-01,4.501694181182799293e-01,3.747041361820357963e-03,-1.215593993986913146e-01,-7.492227243225414376e-03,-5.170343774018674662e-03,4.625355899333953857e-01
3.677290972049354068e-01,4.645263129362905419e-01,-2.094395952353944601e-04,-1.421917158126938807e-01,-1.661775321932758634e-02,-5.131352731524962615e-03,4.918605387210845947e-01
3.644945696706157756e-01,5.150512236316668879e-01,-1.417218552469839965e-02,-4.156470471140537304e-02,-4.845130365750563439e-02,-2.987215805200793550e-02,4.878207743167877197e-01
4.232040069585792375e-01,4.865945375379741589e-01,-2.634745121884235486e-02,-4.695982651056684887e-02,-3.400722712897908534e-02,-3.844993374447290557e-02,4.991317689418792725e-01
4.278180993537046839e-01,4.877326446793286419e-01,-2.160298892124762338e-02,-1.760815333194109406e-02,-8.221716701607970079e-03,-1.270866218048529415e-02,4.838526546955108643e-01
4.317637931608676038e-01,5.048218119103567991e-01,-3.112632839450224509e-02,-1.551556805373550778e-02,-2.328446952629318473e-02,-1.948544358512558500e-02,5.068632364273071289e-01
4.592708832725725943e-01,4.388287452544802902e-01,-5.962813173675807210e-03,-6.678634179329707987e-02,-1.447063535033690090e-02,-1.835774432529697908e-02,4.715616106986999512e-01
4.977638278052548548e-01,4.773737147133466641e-01,-2.571109876180249776e-02,3.252637441348970020e-03,3.540634369015269699e-03,-4.271231638272125590e-03,5.137042999267578125e-01
4.399766838499601374e-01,5.162394458495113136e-01,-2.812093175788732413e-02,4.632148518958946123e-03,6.690136500576770529e-05,-2.903216649437486124e-03,5.106069445610046387e-01
4.581889778782491374e-01,5.135389216125751943e-01,1.242805696695242768e-02,4.172733475879927996e-03,-6.182195058840076612e-03,-1.141874305657323944e-02,4.764423370361328125e-01
4.678958070267822400e-01,5.083291937162143226e-01,-1.032237371531219416e-02,-1.307230444466338931e-02,-1.819752250364818635e-02,-1.883748571068720457e-02,5.022291541099548340e-01
4.634381368005956459e-01,5.469095521081264177e-01,-3.096541236784261519e-02,-6.641807372628176151e-03,-7.940994250686237224e-03,-4.019125825235408782e-03,5.413324832916259766e-01
4.968225645157435810e-01,4.876917803510860683e-01,-2.791157913349184838e-02,2.393988471895289660e-04,-3.848671912075720195e-04,3.607158807380869258e-03,5.202669501304626465e-01
4.005606092479264690e-01,4.915296399175075881e-01,-1.669253337348375332e-02,-1.220076946338655849e-01,-3.810152945163103322e-02,-3.403063796962862986e-02,5.223214626312255859e-01
5.451584124107083928e-01,3.594263127852458384e-01,-1.328435111565851034e-02,-5.366354968098101079e-03,-1.302519114418752497e-03,9.374634581158676483e-04,4.926744401454925537e-01
5.043506861101478833e-01,4.836915785554661840e-01,-3.813620560074276744e-02,1.737462977325878160e-03,6.540296094663632098e-03,1.558638984125025953e-02,5.332707762718200684e-01
4.068730082139634940e-01,4.854895080907618565e-01,-1.247769711216195621e-02,-3.291752347734799855e-02,-4.095952046518656214e-02,-3.382947902856615202e-02,4.761517643928527832e-01
4.217503551619142810e-01,5.112775391005115466e-01,-2.187781462511378949e-02,-2.585114854214341784e-02,-1.348893170468874400e-02,-1.523737232275324850e-02,4.977801442146301270e-01
4.467670390332487695e-01,4.815232011000442625e-01,-6.815276950812243495e-03,2.311182421735030398e-02,-5.738237131820868656e-03,8.456529500655283679e-03,4.739466905593872070e-01
4.667009063188615192e-01,4.899597429062522158e-01,-2.126738861302068795e-02,8.938867705153060589e-03,-3.932001770699975265e-03,8.607677316207892546e-03,5.005117058753967285e-01
4.705790263219427061e-01,4.802069734954353963e-01,-2.855514486403487595e-02,1.053575241906948116e-02,-4.544420507338491066e-03,2.685742862100192960e-03,5.044302344322204590e-01
4.927558929163209922e-01,4.827811757189413022e-01,-2.265562505072027388e-02,2.157358521558237416e-03,-5.170638489136288735e-03,2.267297271547011155e-03,5.106045603752136230e-01
4.823737936103980051e-01,4.993346930561163299e-01,-2.949605344652339589e-02,-6.781342772461227027e-04,-3.266837799469487873e-03,4.518977348436870045e-03,5.206484794616699219e-01
5.302106515067196435e-01,5.075858989644367325e-01,-2.160791042784904192e-02,1.660385305178595922e-02,-2.987857813710114580e-02,9.375927745862431759e-03,5.443342924118041992e-01
4.772591811670623407e-01,4.902403642426050312e-01,-2.717938813772946549e-02,3.665400886225924325e-03,-7.256312143054822333e-03,7.675436666586783058e-03,5.114195942878723145e-01
4.845432950893962532e-01,4.971917826892280901e-01,-3.093883021552884527e-02,4.296646432569320960e-03,-7.935383842176870622e-03,6.169665639465438459e-03,5.222646594047546387e-01
4.042647528805223822e-01,5.247663021310785547e-01,-1.924898341922370859e-02,3.112692973599280599e-02,-1.943317263527804747e-02,1.886157551832114143e-02,5.000254511833190918e-01
5.088175404664930790e-01,4.845504092106612815e-01,-2.480760005384330391e-03,1.776727701902392278e-02,-8.167575708952559688e-03,-1.328077816629599220e-03,5.007589459419250488e-01
5.132781168696427532e-01,4.926169127845220208e-01,-3.525515651201832634e-02,8.218687236721648748e-02,-4.149061049882252911e-02,3.342662284080833573e-02,5.645908117294311523e-01
4.416471876704707311e-01,3.174950146967796538e-01,3.363499229408706270e-03,-1.182236416562357645e-01,8.775305929836598948e-03,1.167795189703203958e-02,4.423382282257080078e-01
4.887529752332679944e-01,4.138180375669136546e-01,-1.204005440461330956e-02,-4.505301222573152020e-02,3.268345110475349979e-02,3.503605590787975399e-02,4.815168976783752441e-01
4.870366370616366347e-01,3.643092905528616532e-01,-1.501315699944066884e-02,-6.851611233173478255e-02,1.109288499809365364e-02,8.061282624407493935e-03,4.691995680332183838e-01
4.510861422212224525e-01,3.762990759406988350e-01,3.300054961617115978e-03,-1.584548409643372902e-01,4.238832796740571625e-03,6.266033534324541056e-03,4.981088042259216309e-01
4.856335306434356180e-01,4.844917648683437772e-01,-2.916440337615727740e-02,2.973054351193933457e-03,-4.147987296608651384e-03,2.343026456736928883e-03,5.143199563026428223e-01
2.744867507706904020e-01,5.860694677230890992e-01,2.936704013141000491e-02,-5.934463538975275759e-02,-5.489498677723970987e-02,-3.631288241737740813e-02,5.070543885231018066e-01
2.591766740434725547e-01,6.209829693300932263e-01,-1.324234441351479497e-02,-8.482472905841464961e-02,-2.466525196324879585e-02,-3.195520140662731767e-02,5.745894908905029297e-01
2.542317666089085604e-01,5.703663445774034280e-01,-6.470260894834156673e-03,-1.165810780603940416e-01,-3.900781610836276392e-02,-3.875643270165229914e-02,5.478758811950683594e-01
4.079821046104575855e-01,5.400998370233364154e-01,-2.554319709594543575e-02,-1.058070195225218821e-02,-1.779316153345196841e-02,7.132912795345698739e-04,5.137731432914733887e-01
3.596383149339794638e-01,5.284497185385370610e-01,-1.158573035216808877e-02,-3.482703196971781521e-03,6.725234026687107241e-04,5.678937955368638588e-03,4.786501228809356689e-01
2.472168431372784858e-01,5.876298900589508323e-01,5.208026946488308884e-03,-7.441238632712401935e-02,-8.370046483031337581e-02,-2.583606494769363424e-02,5.444847941398620605e-01
3.446115191275562206e-01,5.420216324531736962e-01,-2.436402509073876121e-02,-2.654436458965731688e-02,-4.590923712407040530e-02,-1.350271872989114441e-02,5.068895220756530762e-01
4.336127274710411816e-01,4.425646372171108123e-01,-1.213355531093529560e-03,-2.004509618238021693e-02,-7.382572855519378870e-03,-8.943621041177886311e-03,4.411975443363189697e-01
4.068537794132726093e-01,4.552615145782216155e-01,-4.612708232797191332e-03,-3.858903638133254210e-02,-1.021721529740911467e-02,-1.434626141393433897e-02,4.438063800334930420e-01
4.812827089536976799e-01,4.894936069668891498e-01,-3.544353837807834307e-02,-4.048139630264816977e-03,1.007488362995187167e-02,1.103157359580813485e-02,5.215697288513183594e-01
4.583784647975004400e-01,4.628063166138987605e-01,-1.545614315125137805e-02,-1.512780726759428533e-02,-1.075913699289602829e-02,-1.301910578804461871e-02,4.776811003684997559e-01
4.543723422831615899e-01,4.559785911939504555e-01,-1.781080676142610120e-02,-7.247861411282681930e-03,-9.666338294261538761e-03,-7.961870734406873221e-03,4.736517965793609619e-01
4.561051857112893848e-01,4.470655680844839441e-01,-1.672002212600665061e-02,-8.358879578245855327e-03,-1.184210872555606711e-02,-1.061180043182186061e-02,4.694032073020935059e-01
4.541770202034501880e-01,4.575217474858414013e-01,-1.166577107133259794e-02,-1.012953161127931739e-01,-2.758242767105418061e-02,-5.280222929930367820e-02,5.099094510078430176e-01
4.538507993098402360e-01,4.845072918275034057e-01,-2.520310636800560111e-02,4.960785450319215445e-02,3.678928334312603354e-02,-4.232050615183386572e-02,5.117956995964050293e-01
5.516829957521072192e-01,3.731110757026388502e-01,-1.854723683016601399e-02,4.375460611417977125e-02,1.740327774934972288e-02,-1.266621483489811621e-02,5.122076272964477539e-01
5.833188438611537352e-01,4.844364231453517355e-01,2.690808952715995073e-02,1.109869788591363350e-02,1.052443457821695093e-02,-1.527485684511316853e-02,5.155125856399536133e-01
6.241281600505330651e-01,4.472616137421895899e-01,8.060307047501974465e-02,3.324941230608746690e-02,-8.291931748435760197e-02,-1.540841299210598814e-01,5.707355141639709473e-01
4.988198992972415757e-01,4.967202901490204159e-01,6.876836645371142698e-03,7.207022656029565301e-03,-5.483221993427215418e-03,7.092221828487466247e-03,4.913007318973541260e-01
7.707537234524290959e-01,5.470453294357272567e-01,9.878403750557107621e-02,8.024997467622563274e-02,-1.253214250616790579e-02,-1.544584031273449343e-01,6.653021574020385742e-01
5.302617151301994847e-01,4.722169973200103232e-01,3.430156183446830820e-02,3.709862773643773926e-02,-8.661793122034844999e-03,-5.306993155303923668e-03,4.743377268314361572e-01
5.541966835132239311e-01,5.102113231605377441e-01,6.705463099515124314e-02,8.656446792093104581e-02,5.714016886128819341e-03,-9.244918502802193516e-03,4.905604422092437744e-01
7.511240631891337172e-01,4.202008545064435663e-01,5.343359965281163637e-02,3.203678691540795542e-02,-6.805725461792679065e-03,-1.082866298281644352e-01,6.354495882987976074e-01
4.198817544350305631e-01,4.503570620291000859e-01,4.134365372385706561e-03,-3.480466887562555511e-02,5.590576457757461155e-03,3.427118877047042895e-03,4.361281394958496094e-01
4.693350608215542397e-01,4.910995459563521903e-01,-3.407922039062760700e-02,-5.369618098799055356e-03,-2.089512298294345441e-02,-1.721543537291660500e-02,5.168574452400207520e-01
5.331489250930809831e-01,3.487663680627628437e-01,-1.943476724895737417e-02,-1.209873627626981418e-01,-9.193820956837546812e-03,-3.109736610080302346e-02,5.334110856056213379e-01
4.953362554576289378e-01,4.722285331040191880e-01,-2.777047036666047131e-02,-1.267116681981782927e-02,-8.776796815093747609e-03,-1.487745355640200141e-02,5.132870674133300781e-01
4.797076839889197197e-01,4.126300119387496523e-01,-6.293713720840143910e-03,-4.765676746691039495e-02,-1.447838277047724595e-02,-1.447400317423035501e-02,4.649384915828704834e-01
5.012569501726249488e-01,3.963488453085912688e-01,-2.458035983618117593e-02,-3.660685250121642476e-02,-2.471837994297677171e-02,-3.904239052269829063e-02,4.927190840244293213e-01
5.525656566019671034e-01,4.892361349848561858e-01,-5.352425133214600006e-03,-2.252150681587576989e-02,-1.938529036403981859e-02,-2.325581943644358662e-02,5.331248044967651367e-01
4.988710522621460086e-01,4.748818050405323454e-01,-3.514469700704492272e-02,-3.038015514585723671e-03,1.378889572355443405e-02,1.010885166355416677e-02,5.232994556427001953e-01
4.961434701325580510e-01,4.963658912382721278e-01,-3.605509085280650394e-02,6.809866115490341605e-03,1.050455957685033324e-02,4.806505629978081832e-03,5.328162908554077148e-01
4.813796607451080178e-01,4.925902631101638507e-01,-3.907071358438241049e-02,-7.252168698766781659e-04,6.059650963190098619e-03,1.043294113457644487e-02,5.265616178512573242e-01
5.256599511052189033e-01,4.695406335569161094e-01,-1.107390444965100640e-02,-1.502612113967361981e-02,3.531637087172030676e-02,2.017365809959874648e-02,5.164799094200134277e-01
4.243616945166840404e-01,4.172145865831902167e-01,-1.195083257972900936e-02,-9.112398968883603234e-02,4.057847541137158537e-02,4.637525653534695785e-02,4.728677570819854736e-01
4.934612824711806511e-01,4.898649269342207901e-01,-3.238902758662659531e-02,-9.981464041760733548e-04,7.865191137934157261e-04,-1.972741892183749700e-03,5.240771770477294922e-01
5.091510839316448767e-01,3.960734140520721924e-01,-1.912773199187856044e-02,-8.641344537211548271e-03,1.876595244221207492e-02,1.382305761310179994e-02,4.837171435356140137e-01
4.928420315677687902e-01,4.164677455063876543e-01,-1.868260559461426551e-02,-2.673395631964142066e-02,1.885072137085447297e-02,1.422124280332394235e-02,4.819129109382629395e-01
4.961031089473397770e-01,5.149696176484128696e-01,-1.207778202359516273e-02,2.445628881045412012e-03,6.888830301162625520e-03,9.519262275158204070e-03,5.182890295982360840e-01
4.662046176482032012e-01,5.272659685756131420e-01,-1.143023016569721939e-02,-1.660135601635095992e-02,3.163190222221465286e-02,1.982847669274248603e-02,5.157873630523681641e-01
3.160617431921252662e-01,4.764553661745728474e-01,1.838432101423148612e-03,-9.400450685293655628e-02,5.851185275013919690e-03,1.429535535375915482e-02,4.495421350002288818e-01
4.733449797643063395e-01,5.121893260851051455e-01,-2.776877461642784928e-02,3.862896929744168151e-03,6.193466876534642514e-03,2.180551172314846176e-03,5.217886567115783691e-01
4.009751724513798132e-01,5.765492305315491617e-01,-2.541181459958985478e-02,-6.981527443731139031e-03,4.843026106509362716e-02,3.484933522842696002e-02,5.461874604225158691e-01
4.973596908517166071e-01,4.981246792285620173e-01,-1.024243709279515357e-02,7.261359669637977229e-03,1.153444184104162815e-02,4.058250651467558943e-03,5.085818767547607422e-01
5.068252229729420799e-01,4.847748195312979735e-01,-2.488501101330320431e-02,5.484823739956086637e-03,2.389066195778754339e-03,-3.045120427684689431e-03,5.211648344993591309e-01
5.252303069196775365e-01,4.187781256939032692e-01,-2.391673830731710915e-02,1.174298562641536321e-02,7.266696570246082565e-03,-5.482224169452487583e-03,5.050731897354125977e-01
5.259554548205815916e-01,3.949147777923648350e-01,-2.387807547183939949e-02,1.366542844529396693e-02,8.535828213153125871e-03,-2.575644663113538235e-02,5.002069473266601562e-01
5.378077095860333001e-01,3.491653792873670170e-01,-2.155964999260395754e-02,-3.225108450334066706e-02,-1.746273416915485044e-02,-4.706807375332255905e-02,5.036256909370422363e-01
5.937938362956347582e-01,3.237367977259768548e-01,-2.677068081160566271e-02,-8.419576080514580910e-03,-4.146044425284089834e-03,-3.049290634628664884e-02,5.417536497116088867e-01
5.926659219621120966e-01,4.414986538509680924e-01,-1.250054815277756859e-02,8.092390992045209522e-03,-1.258420895157103328e-02,-1.103320879756595693e-02,5.464735627174377441e-01
5.696731663453258321e-01,4.429585752213850425e-01,-4.550882338619943734e-03,-6.567581975651767129e-03,6.445164730066850478e-03,-6.539536766416502618e-03,5.228858590126037598e-01
5.386008834262447920e-01,4.240969057835002887e-01,-2.509382687255917732e-02,-1.447413692516401470e-03,-9.529203425223928964e-03,-2.181514603954130826e-02,5.177103281021118164e-01
4.189853522812630460e-01,4.570142100696324983e-01,8.282952124488596191e-03,-2.959123370302298855e-02,-4.681240390839960797e-03,-6.104239846755021154e-03,4.342184364795684814e-01
3.620731796381643219e-01,4.839219149638890327e-01,7.796741989860855870e-03,-2.838018826592564325e-02,5.167076588029663638e-03,3.567135564796099570e-03,4.313485920429229736e-01
3.941137413037817949e-01,4.503065876693902458e-01,4.043369211911673755e-03,-1.777787976464512837e-02,-2.264406104456134446e-04,-2.106120610575825964e-03,4.221295118331909180e-01
3.937735644709237093e-01,4.535898946688604605e-01,7.432409432903519519e-03,-1.413839784355226149e-02,-3.736522398390813328e-03,-5.263111487827458121e-03,4.203232824802398682e-01
4.875680617024389374e-01,3.298974484676423513e-01,2.455240125948021657e-02,-1.651677685295543374e-01,-1.734319121904026942e-02,-5.476637531258961300e-02,5.079184770584106445e-01
4.174157893468941616e-01,4.557936479511014438e-01,8.889460365414658671e-03,-3.583916358923278783e-02,4.494993448364465426e-03,8.203689962055909016e-03,4.337750971317291260e-01
3.482159445605076398e-01,4.883578568116897500e-01,7.166020414231089042e-03,-5.896921700927314214e-02,1.686874940019192576e-03,5.617114610605593306e-03,4.407782852649688721e-01
3.754809505854769247e-01,4.382940623660952495e-01,-7.159384200987162217e-03,-1.645201920993606959e-01,-2.759347291632636978e-03,3.738077588104802510e-04,5.055866837501525879e-01
4.667250087305310768e-01,4.883577094064742719e-01,-3.178281471168903360e-02,-1.923168694560186982e-03,1.018371409216987586e-02,1.432600777768515063e-02,5.105879306793212891e-01
4.568670508516814999e-01,4.769755749275966794e-01,-3.170522807371195517e-02,-1.319735413251935281e-02,6.510168035291467002e-03,1.082306490179293403e-02,4.999327659606933594e-01
4.583217509811232659e-01,4.585472305730872167e-01,-2.670144441140037683e-02,-1.275617229134576314e-02,1.028497456797848077e-02,7.798484369551357022e-03,4.861531257629394531e-01
4.561501680239610224e-01,4.920765008375972971e-01,-1.633951974225794634e-02,-2.621291560767805007e-02,3.590844209320179226e-02,2.262273416772491927e-02,4.989759325981140137e-01
4.753671278283164159e-01,4.999051285910578457e-01,-3.623286579078932590e-02,-2.389980344618767433e-03,3.474952056821499664e-03,5.792983874558637995e-03,5.244467258453369141e-01
4.495986501299115146e-01,4.500495707495549835e-01,-3.440101584643728838e-02,-5.446728499774290688e-02,4.355207986568076367e-02,4.216681549883153496e-02,5.043794512748718262e-01
4.668111509654976343e-01,5.022330776524518425e-01,-7.749085959804724588e-03,-2.008593117870048281e-03,-3.782525008567853148e-03,-8.375931716735250665e-03,4.934951364994049072e-01
5.104874238994746571e-01,4.775380710969283071e-01,-6.905962429194112406e-03,-2.445584797061889793e-03,3.208162042597180122e-05,4.273119734296166108e-03,5.018032789230346680e-01
4.864915584758155442e-01,4.688784110928716498e-01,-3.833603156784015642e-02,-5.906052876771983318e-03,1.129748442955313265e-02,8.427549539311917498e-03,5.169245600700378418e-01
4.966860003225403997e-01,4.644584348718378553e-01,-1.863272279072003546e-02,1.881056539864366800e-02,-1.598342610641756076e-02,9.835088930633581125e-03,5.020982623100280762e-01
3.725541989630148931e-01,5.351796859876869483e-01,-2.101142793716120893e-02,3.500580239131830668e-02,-3.775891845887532211e-02,6.460308869940077116e-03,5.034117698669433594e-01
4.688189306875767404e-01,4.895120104934075345e-01,-4.622641775980451673e-02,3.375896468491373231e-02,-3.988664786168964055e-02,7.146799362701721642e-03,5.335755348205566406e-01
4.753838671882519851e-01,5.085546707365438124e-01,-3.207487816186521679e-02,4.906053217043220005e-02,-3.025577506459143848e-02,2.938627199570901724e-02,5.366611480712890625e-01
4.148925539113959560e-01,4.789891154166538989e-01,-3.089837098404657478e-03,3.250569262722736996e-02,-1.327321954350966018e-02,1.773772877087338370e-02,4.585315287113189697e-01
4.995504885713724086e-01,5.155221206993142458e-01,3.102690102186500543e-03,1.587911952237229876e-02,1.775243462868967073e-02,-4.503488422240332911e-02,5.122801065444946289e-01
4.577678048062676086e-01,4.748430824105375758e-01,-8.322784571043462254e-03,1.972961837814620270e-02,8.396596606207557337e-03,-2.777893257993574450e-03,4.763329327106475830e-01
4.925272122557883825e-01,4.861724746247382267e-01,-2.881864682690471469e-02,7.270096851749175727e-03,5.842524064599988534e-03,-9.921955442967266697e-03,5.187342166900634766e-01
3.075490796265291649e-01,4.797281865334537265e-01,-4.454912381420042533e-02,1.926875428154236347e-01,1.028935090439887616e-02,-7.928808380091812921e-04,5.709183216094970703e-01
5.497281066435113495e-01,4.749018710518294051e-01,-4.625690381828490017e-02,2.318004712707709969e-01,5.100505039855199318e-02,1.230960081461486208e-02,6.968896985054016113e-01
4.909470986686553795e-01,4.910066781708524175e-01,-2.668466621689336016e-02,-3.007487849051273989e-05,2.134152701075971419e-03,-3.985930207197758458e-03,5.177208185195922852e-01
4.636049540739673458e-01,4.714266778537599123e-01,-1.942982519481406545e-02,2.415886522919171234e-02,7.189924290782402812e-03,-7.347507992447902155e-03,4.891113638877868652e-01
4.812849109289882854e-01,2.950526602447268720e-01,3.330405538305380997e-03,1.126487706361591484e-01,3.005943065167903522e-02,-1.129675867852692611e-02,4.639776051044464111e-01
4.394826849129093160e-01,5.421336961385604392e-01,-2.138931070855243366e-02,8.547212356674470379e-02,5.030910758497314506e-02,-2.809280745220713721e-02,5.496601462364196777e-01
4.841815913320850484e-01,4.870539980762568222e-01,-2.643931680208627677e-02,3.194710773872390776e-04,2.261330000225375472e-03,-5.352970799436633509e-03,5.121623873710632324e-01
4.930609377974987106e-01,4.757781981783303360e-01,-2.750246800433120420e-02,1.270302720839968291e-03,4.251918460828164187e-03,-4.168879066286701289e-03,5.122493505477905273e-01
4.959205536681995374e-01,4.775399561900076084e-01,-1.868057829026392724e-02,3.140901402695573524e-02,1.708436861827558606e-02,-1.107889953629642536e-02,5.098008513450622559e-01
4.864149159926650090e-01,4.892435472332574697e-01,-2.886356652767529951e-02,1.842647882586651107e-03,4.249827201820635149e-03,-8.075679775104701447e-03,5.169501304626464844e-01
4.863181842037043179e-01,4.838638146885897440e-01,-2.977853481080189324e-02,-2.163446751783041494e-04,3.900291536903838403e-03,-1.115770226471827359e-02,5.152809023857116699e-01
4.876149897151862422e-01,4.687127376381066135e-01,-2.596142511736504455e-02,8.908180707642838342e-03,4.618068420367592644e-03,-3.400564377285956400e-03,5.047246813774108887e-01
4.108881506116559557e-01,5.336922620867319278e-01,-2.195645910984772575e-02,-3.344769119333494689e-02,-5.122478617303291570e-02,-3.159141625215123456e-02,5.194349288940429688e-01
4.382968766135761918e-01,4.389490604298247889e-01,-1.779713507570501729e-03,-2.594087113473757256e-02,-7.386720697283026722e-03,-6.598799181028879197e-03,4.430213868618011475e-01
4.866589211745674937e-01,4.802324694556967533e-01,-2.598145471199697631e-02,-7.151153042443826602e-02,-2.929589595649800468e-02,-4.902508964852504703e-02,5.335483551025390625e-01
4.804665234631402826e-01,4.911767792257942800e-01,-3.600494034234924534e-02,-5.147011868392220764e-05,-1.142071330772857773e-02,-8.529633612540669235e-03,5.224926471710205078e-01
4.424696410186423901e-01,4.349528835370767288e-01,-6.386313889991890314e-03,-2.068464477503549961e-02,-1.638389237144641242e-02,-1.351029132670631717e-02,4.480967223644256592e-01
4.464282087979083435e-01,4.125064402412110809e-01,-5.353261723106905734e-03,-5.170456177094838457e-02,-1.343162420963642245e-02,-1.312746709148068965e-02,4.461056590080261230e-01
4.436884795094133693e-01,4.500553711831302151e-01,-1.690014223043284636e-02,-4.012092823115625401e-02,-1.806807377603024400e-02,-1.837326565791912864e-02,4.711009263992309570e-01
4.200858005587746469e-01,4.424856923551256371e-01,-3.479757579499476172e-03,-5.938105500203823273e-02,-5.288892397935600342e-02,-4.109609745931705471e-02,4.619892537593841553e-01
4.496167302196963367e-01,4.036701915248943617e-01,1.303767035248815098e-03,-2.018137807543164686e-02,-9.764316599731039450e-03,-2.523595976067718842e-03,4.289803802967071533e-01
3.663478654774388055e-01,4.983671914205342057e-01,8.065014247632840139e-03,-6.420286599902078062e-02,-4.655702781670142953e-03,-2.521143176652118709e-03,4.533719122409820557e-01
4.188302553933148653e-01,4.233275556540433415e-01,5.200154141152213416e-03,-3.239428029100736850e-02,-2.525092309309547641e-03,-4.026443849038731674e-04,4.196880757808685303e-01
4.255636738898107563e-01,4.261635139317459520e-01,9.772285821504911318e-03,-3.737238788236618009e-02,-3.754886474395713498e-03,-6.542143707266326498e-03,4.212992191314697266e-01
3.972992289138168598e-01,4.439638996423044270e-01,5.346869390361330687e-04,-5.100990587880266380e-02,1.277196050220382600e-02,1.405748633092407732e-02,4.324382245540618896e-01
4.526107006460712845e-01,3.896904290917115876e-01,-1.215149827430417329e-02,-1.540661321734075884e-01,3.550042419624921831e-03,3.785463873722907154e-03,5.118689537048339844e-01
3.949707549674690288e-01,4.325833513134319519e-01,-3.843216426326845347e-03,-6.954987479329488576e-02,-3.063419310623716543e-02,-2.148725884296781921e-02,4.406583011150360107e-01
4.489716651720391249e-01,3.722619003801304061e-01,5.401318228927309839e-03,-5.990760370410801172e-02,-8.434662082547792275e-03,-1.027850421943917424e-02,4.241579771041870117e-01
4.741479451260410816e-01,3.241357893047671079e-01,6.216089284028669670e-03,-1.075140943598594662e-01,-4.754558768877558826e-04,-9.839003322923357137e-03,4.541335999965667725e-01
4.885536751390294197e-01,4.781093091432127018e-01,-3.883596986386378402e-02,3.735120892306872898e-04,7.318868379818795414e-03,4.875550436855032380e-03,5.224682688713073730e-01
4.768761349411198003e-01,4.961396049618349569e-01,-3.364648588109075966e-02,-2.922951436838745645e-04,-1.257140005745799143e-03,-1.225082612530815299e-03,5.204309225082397461e-01
4.869591206271207673e-01,4.967133999582927228e-01,-2.841021681709399171e-02,-2.071046135402078436e-03,-4.135716332256574035e-03,2.452970982334300772e-03,5.203940868377685547e-01
4.797438533917377512e-01,4.775535365293696599e-01,-2.728056606055578870e-02,3.185716533828742390e-03,-7.495718358037969237e-03,4.298980207464637472e-03,5.061842203140258789e-01
4.783514405098021616e-01,4.760034150781805584e-01,-1.716928593563543659e-02,1.914583538759150223e-03,5.512467186056024815e-03,-8.235169745043945458e-03,4.946599006652832031e-01
4.651617984863332667e-01,4.812674661860137371e-01,-1.818873792843639370e-02,3.007820848809383048e-03,2.904419877367031555e-03,-8.383622523049368003e-03,4.918690025806427002e-01
4.296218090026795444e-01,4.694180507166426652e-01,-1.817041328742591277e-02,-9.833009652446274285e-03,3.500542335746478079e-03,1.479456038083516549e-02,4.700058698654174805e-01
4.381325028139164690e-01,4.212986512242615222e-01,6.629480264177756155e-03,-9.512121894349882464e-03,3.383376116099641624e-03,1.385114781804858055e-03,4.237049818038940430e-01
4.344644044475495237e-01,4.790588101973705659e-01,-7.162505210532854605e-04,-6.493426125217890976e-02,-1.028640210978877187e-02,-9.684305172692449573e-03,4.733134806156158447e-01
4.824337194068750168e-01,3.593966386231620125e-01,4.840112947751662453e-03,-3.040478590172598916e-02,-7.706950866959065907e-03,-1.233414537991548397e-03,4.329297542572021484e-01
4.781348928384895336e-01,4.967254799621578787e-01,-3.756245294677151847e-02,1.767790869119875176e-04,-1.513212737283063268e-03,-6.146219804111007021e-04,5.252471566200256348e-01
4.681523286346880308e-01,4.984613967621036590e-01,-3.848631922067213829e-02,-1.691891580438448879e-03,-4.189591429999980389e-03,-3.882596592019968949e-03,5.225548744201660156e-01
4.772195051868635129e-01,4.896792314756530096e-01,-4.009802292762248976e-02,-1.525555941917788069e-04,-1.108710653852373017e-03,-6.157541272820345624e-04,5.236632227897644043e-01
4.760064051815552366e-01,4.924051548953114477e-01,-3.699478906050135407e-02,3.937256958389876555e-04,-1.755730466712524961e-04,-2.491933029098074640e-03,5.214124321937561035e-01
4.398392882274378968e-01,4.353549989231570994e-01,1.522437945962407113e-03,-1.421376480359438747e-02,-5.775796253016603904e-03,-4.815229679032613855e-03,4.369805157184600830e-01
4.428710526446860696e-01,4.392647179779769484e-01,-1.354121464116397888e-03,-2.259169654633196717e-03,-4.467671069285473508e-03,-2.914096218469000837e-03,4.425467848777770996e-01
4.351868810595380666e-01,4.341058469238741058e-01,5.406251756734481440e-03,-1.378648072095323748e-03,-1.035924651711162193e-04,5.140444679317573203e-04,4.292487502098083496e-01
4.262109290067256917e-01,4.370460607926465180e-01,2.994874023894034121e-03,-1.028186264222070469e-02,-7.333457578848606023e-04,-2.717089856308376426e-03,4.291337132453918457e-01
4.842218701181562057e-01,4.963135064080187453e-01,-3.252648243055028532e-02,-3.270170316116504479e-04,-9.520876865497557469e-04,1.077475436161358597e-03,5.229052901268005371e-01
4.839292052967293367e-01,4.965838050462290099e-01,-2.990900508353211418e-02,-1.195729405672400813e-03,6.785747535254276408e-04,6.834283083483907962e-04,5.202877521514892578e-01
4.840640777642580272e-01,4.982036640822533613e-01,-3.061149730291734539e-02,-5.994567058560762267e-04,-3.778012739482160699e-03,3.102311948131466959e-03,5.219587683677673340e-01
4.831449140248930130e-01,4.978852996914152063e-01,-3.188638268152654831e-02,4.164542688707751798e-05,-1.094836824281993212e-03,7.427414474833738105e-04,5.225624442100524902e-01
4.958408001619578620e-01,4.927419114908965225e-01,5.517121778912453811e-02,6.842717929730089688e-03,-3.206210933354141941e-03,-1.337592682616250625e-02,4.399338066577911377e-01
4.957578152351593825e-01,4.935258897636304876e-01,5.214468097502450439e-02,7.052009029795162573e-03,-1.256661253553001574e-03,-1.040449840715066722e-02,4.430419504642486572e-01
5.023335329618354717e-01,5.020715459177644835e-01,1.122229941065828740e-01,1.002469818544092853e-02,-1.720203973035349179e-02,-1.264807393022025078e-02,3.921138048171997070e-01
4.964047337557505601e-01,4.962250615438354995e-01,7.808451611534289460e-02,5.687311729165529621e-03,-1.045241531350295412e-02,1.373500219689281895e-03,4.187447130680084229e-01
5.413437068322142220e-01,5.185944379909088742e-01,2.994853523498319792e-02,1.587204722136973875e-02,-1.268331529225806727e-02,-1.626357928473643258e-02,5.024346113204956055e-01
4.333460252144545333e-01,4.455174932529740728e-01,-1.351216103323560347e-05,-7.792283000602744092e-03,-4.255898505782578292e-03,-7.531261967863275668e-03,4.400340020656585693e-01
4.318941636093150960e-01,4.422056934868808242e-01,1.901671874853072541e-03,-2.927142660198006705e-03,-1.050386349699168435e-03,-2.935586270754584129e-03,4.353029131889343262e-01
4.777911347447957313e-01,4.972769738631296343e-01,-2.987184025236333529e-02,1.086468671168053582e-03,1.894925635564284356e-03,-3.889088084051706422e-04,5.176952481269836426e-01
4.320472550404489409e-01,4.363366319456211673e-01,2.307681646969816924e-03,-2.050845108598277431e-03,-9.611405500450057211e-04,-4.094623953354423109e-04,4.319186210632324219e-01
4.899846040311297557e-01,3.592784919979664093e-01,2.533733550254479994e-02,-1.268210779555102308e-01,-4.437435199603720348e-02,-3.295636913398210244e-02,4.792340695858001709e-01
5.600079392272975243e-01,4.104207000015872020e-01,-1.789197184207119706e-02,-4.060879951375134106e-02,-1.685088259976862818e-02,-5.189735342065275592e-02,5.327075123786926270e-01
4.995717848196403188e-01,4.905121980927193981e-01,-8.805105579513528014e-04,-5.960846452061473871e-04,-2.562047139377228531e-03,-1.186134008460296846e-02,4.964307844638824463e-01
5.607867645616377850e-01,3.942289546967873148e-01,2.438937229852006228e-02,2.587669027863766583e-02,-1.205239906883083523e-02,-6.768403865758941540e-02,4.922504127025604248e-01
4.999941364293729040e-01,4.948930153919219310e-01,4.245643017618766502e-02,-1.976520433451672560e-04,-7.257901298030803791e-03,-2.075339103221929531e-03,4.551965296268463135e-01
5.112423130808978478e-01,5.018023094421657504e-01,3.037540802971544496e-02,-3.866769527597960221e-02,-6.246554156073746891e-04,-1.341997875767494096e-02,4.814662337303161621e-01
4.845754619655207596e-01,5.235005188131325315e-01,-8.963904080869555813e-03,3.269177265620038658e-02,4.293068786599230449e-04,1.324064842906409918e-02,5.177258849143981934e-01
3.736467835181368491e-01,5.193698149368943806e-01,1.893856148726685840e-02,9.868280914966333361e-02,-6.102774837405161579e-02,3.393414605349257679e-03,4.890448749065399170e-01
2.429487789945430631e-01,6.794890768040879880e-01,-2.493784627524042730e-02,5.395946642410424238e-02,-3.952277403545618323e-02,-3.581371247294084376e-02,6.297165155410766602e-01
2.477791716035179781e-01,6.045885237520223221e-01,1.227684424492869741e-02,4.643245255720518383e-02,-2.552936908031074731e-02,-7.925601989392258660e-04,5.246224999427795410e-01
4.613505997838817096e-01,3.445396710271558804e-01,8.563512166074316312e-04,-1.004429057238598183e-01,-1.972282288463668778e-02,-3.391052426229412137e-02,4.547439515590667725e-01
2.629399009778356500e-01,6.779631760238953309e-01,-9.835770780101060762e-03,1.057743497741373828e-01,-1.493570615901278383e-02,-2.162882946612301044e-02,6.288850903511047363e-01
3.573939949073561828e-01,6.213026336031450825e-01,-3.569812503383401614e-02,6.200852980191750435e-02,-1.077200791451264454e-02,2.382596920578294170e-02,5.843765139579772949e-01
4.788866772181887277e-01,4.955811987443417554e-01,-3.651480381089611260e-02,3.401222656955774038e-04,-2.976015006124459270e-03,-2.357570351639757048e-03,5.239898562431335449e-01
4.669498980489601991e-01,5.004515135802932724e-01,-3.701841502817493357e-02,-1.953058530943720551e-03,-4.109620821216517124e-03,-2.874841762195900086e-03,5.216100811958312988e-01
4.841728828970231491e-01,4.914609471235585891e-01,-3.326422452435651156e-02,-3.501644844665348453e-04,-7.534545719512614984e-05,1.536538245807764821e-03,5.211265087127685547e-01
4.943707101835222995e-01,4.633846885878891708e-01,-3.631561399771887633e-02,-6.480628011616908386e-04,-7.684497603176732722e-03,-2.230831943034264624e-04,5.160647630691528320e-01
4.764875504562909869e-01,4.952152428152070129e-01,-3.677333988788311636e-02,-1.041929961644743252e-03,-3.790144108753238251e-03,-3.055275916615934721e-03,5.229474306106567383e-01
5.155625325638800716e-01,3.576031951949512067e-01,8.625801087357443109e-04,1.663445360817662408e-02,7.561660626460694513e-03,3.380310498084905871e-04,4.577854573726654053e-01
5.506634767933982211e-01,3.229903314758851285e-01,-7.974890277314683473e-04,1.882617612156606973e-02,1.085676644527645493e-02,-8.752948012855732516e-04,4.814671277999877930e-01
5.215426888613723388e-01,3.938650982078968354e-01,3.338793159930464327e-04,7.170158813339341797e-02,-7.416681715320638281e-03,-8.246991089477507392e-03,4.870378971099853516e-01
5.031360632916138664e-01,3.560543251432350398e-01,1.019373510132176586e-02,-3.051306090930956672e-02,9.052115012398969773e-04,-2.581632816612673686e-03,4.415178000926971436e-01
5.193853404097615867e-01,3.099756771020221735e-01,-3.982061333206610154e-03,5.888638183740693005e-02,6.524483537395210121e-03,-8.364084421678541839e-03,4.678761065006256104e-01
5.297093725445660706e-01,3.629934155166649745e-01,-3.103325672976275929e-03,1.039506131211385409e-01,7.278452526985191087e-03,-1.587919142053342142e-02,5.061499476432800293e-01
5.302556202273515096e-01,3.287220979321041070e-01,-3.945475323168190496e-03,9.087033145022941141e-03,3.233827469805428817e-03,-3.994222994124308444e-03,4.676046371459960938e-01
4.764790216237606568e-01,4.005548262733172882e-01,-6.663149866178719183e-03,-8.962197337837722946e-03,-1.477656596755783612e-02,-1.084674766342165475e-02,4.513951838016510010e-01
4.838836028662333866e-01,4.949336702638847951e-01,-8.091759762737738004e-03,-6.137536391336908268e-04,2.361584690223388332e-03,-1.312230156728592728e-03,4.976155757904052734e-01
5.208775023130994830e-01,3.664540322784596293e-01,1.047794137989721541e-03,2.667575384328680840e-02,1.924853377137231191e-03,-1.158647954099823054e-04,4.646951258182525635e-01
5.151559951488267064e-01,4.828155325280801824e-01,2.025793191252256431e-02,1.280692647493636600e-02,-6.136783505114679071e-03,-7.518359086730901607e-03,4.803533852100372314e-01
5.244965426114048812e-01,5.049393264172525875e-01,-2.916679724429549481e-03,1.932032160164916246e-02,-3.209636690154418076e-03,2.693183009856604804e-02,5.211133956909179688e-01
4.842478444945939042e-01,4.938961296904704756e-01,-2.992499688460620311e-02,-1.158901887259536183e-03,5.728843316573005396e-04,1.164780951789245317e-03,5.190730094909667969e-01
4.952552498192993591e-01,4.919286124903006208e-01,3.787214529102056471e-02,3.632078348068010134e-03,-3.956869025686449506e-03,6.253590194139715432e-03,4.559525251388549805e-01
4.812364220133581449e-01,4.855128232760653750e-01,-2.956819402907889804e-02,-1.084422838924489589e-03,-3.973796538163910062e-03,4.116041927274248242e-04,5.130062699317932129e-01
4.952228698446362598e-01,5.045307436169084170e-01,6.253085586094164761e-02,-4.307610846700623587e-03,1.646563292967292980e-02,-1.364310792160322063e-02,4.390488266944885254e-01
5.146184690549016061e-01,4.151231982340169990e-01,-1.929640503449309152e-02,7.609671701741430733e-03,-1.245265025986771502e-02,1.450480481301174088e-02,4.930644035339355469e-01
5.048986137596140900e-01,5.210443359246018646e-01,1.002062101926915472e-01,3.157042351613696674e-02,-6.375166711889852789e-02,2.192846428572701664e-02,4.326617121696472168e-01
6.905762433472042439e-01,5.792532470110050014e-01,5.380208737459518664e-02,1.334122326003666925e-01,-6.736984832929505430e-03,6.228135958950822837e-02,6.419938206672668457e-01
3.698840447853036784e-01,5.002594727882166969e-01,-2.133869427947687747e-03,1.028667063179796066e-02,-1.575614264416638245e-03,5.632665334726400484e-03,4.520145356655120850e-01
5.325168953805523575e-01,5.067910754037772136e-01,-4.402309416522842689e-02,1.578976270018061373e-02,1.717371273976311952e-02,1.943863518175118626e-02,5.665637850761413574e-01
5.903458656382647440e-01,3.617085109110987906e-01,7.928771028284486988e-03,5.402676224342992800e-02,1.562908060534104124e-02,3.619119123072000316e-02,5.212880969047546387e-01
5.024800262978932341e-01,4.832732320070378673e-01,-3.007785995686823588e-02,-1.389066733576365884e-03,-3.373991787122822446e-03,-8.162938413548627859e-04,5.232590436935424805e-01
3.588202877800148460e-01,4.852486578470290302e-01,-2.199868987152803212e-02,-1.460125015192421105e-01,-9.879025107259358993e-03,-2.686192125974058362e-02,5.249475836753845215e-01
4.670040593618740021e-01,4.826406229025192451e-01,-3.575396752359671915e-02,9.624062833876686519e-04,-7.136797665383968255e-04,-7.353125292842420738e-03,5.109188556671142578e-01
5.138203483492533863e-01,3.718543518299418649e-01,-2.623050899678092129e-02,-3.287244771300208007e-02,-2.262344585750777556e-02,-3.309126162455746506e-02,4.931559264659881592e-01
4.424995991239519810e-01,4.644093256081546217e-01,2.252090438335974110e-02,-1.226768947384450914e-01,-7.168687632416001487e-02,-2.511898628690252197e-02,4.985203444957733154e-01
3.740401243444491097e-01,5.326229787636106439e-01,5.079886688927637284e-02,-1.923390446347770233e-01,-7.318891659481817358e-02,-1.140325907301199121e-01,5.890305638313293457e-01
4.951213778527536191e-01,4.849173668870710996e-01,-3.134417919561227617e-02,-2.569156203441899460e-04,1.547798147125691590e-03,-7.474469113830518440e-04,5.214471220970153809e-01
4.380160063506208790e-01,4.310426406557239520e-01,4.918605495030647923e-03,-3.401790333661678170e-03,-3.199490807712426495e-04,1.302870438373562249e-04,4.296939671039581299e-01
4.908449874287270642e-01,4.850928056846807168e-01,-3.368184113745248398e-02,-4.189460918471951158e-04,5.818376620275799794e-04,-5.808583501706005925e-04,5.216769576072692871e-01
4.893812374102002316e-01,4.366814593484269480e-01,-8.609397051430267567e-03,7.959752042048512735e-03,-6.610935204638796435e-03,9.996618874312222057e-06,4.741825759410858154e-01
4.003982968024803468e-01,5.042490513729396273e-01,-2.409840507497190698e-02,-1.070081076108115106e-02,-1.472454819493446317e-02,-1.442189072863392721e-02,4.865024685859680176e-01
5.453156084783978841e-01,3.831111761812291405e-01,-8.479229807606958325e-03,1.927540272133783546e-03,5.375607929018497676e-03,1.107806401380010200e-02,4.935960173606872559e-01
5.783800832331127406e-01,3.632504296960920032e-01,-2.449995790431674925e-02,3.469878717871096446e-02,-4.006681997387743360e-03,5.864318914299081892e-02,5.422406792640686035e-01
4.033104982052935772e-01,4.884092376452054962e-01,-7.276415787254686407e-03,-3.712893086199475084e-02,-1.798950836341522280e-02,-1.421345116360838053e-02,4.652702808380126953e-01
5.651518480690767010e-01,3.175561259579682272e-01,-1.821995133588355520e-02,-2.220037194980897799e-02,1.701967183389255147e-03,3.972748831045747747e-02,5.132328867912292480e-01
4.954628661600133377e-01,4.934532906379460737e-01,-3.238754066610877169e-02,-9.028706317555065851e-05,-1.362054059408356835e-03,-1.019842094822454547e-03,5.268567800521850586e-01
5.425123181967614894e-01,3.846853360054904858e-01,-2.372175607483190118e-02,4.707038056626937003e-05,-2.177005795272748349e-03,-1.859943436411440679e-02,5.071640610694885254e-01
7.307283833308959586e-01,1.913681362600476721e-01,-2.175773453310769767e-02,-6.724691313702159390e-02,-1.952117012953184707e-03,3.816736290099996542e-02,6.850050091743469238e-01
5.739640639495267038e-01,4.247288172957212060e-01,-2.352993790614943403e-02,3.119808645182136492e-02,-5.810837387187594823e-04,3.948928684419303337e-02,5.456209778785705566e-01
4.933062280697384505e-01,4.886785660200599901e-01,5.362564507134182090e-03,1.591893815924090225e-02,8.527977852494317279e-03,-5.966740231951021649e-03,4.867623746395111084e-01
5.579448888213285329e-01,4.192309984261179401e-01,-2.760217875297288348e-02,-1.312885988110061748e-02,1.563648856880375457e-02,4.700052048036040125e-02,5.373650193214416504e-01
4.948224169401314043e-01,4.847197866312370484e-01,-3.163306504258678320e-02,1.085048968045496326e-03,-2.669240530479277933e-03,-3.883556035995797302e-03,5.215448141098022461e-01
7.896863222663798032e-01,3.233372335932864772e-01,1.659244120986663740e-02,1.285264230336540803e-01,-2.397398656260912864e-02,-6.397946830491182957e-02,7.198510169982910156e-01
5.582841746948623562e-01,4.128066176054093761e-01,-1.698989412531243248e-02,2.666311203851767092e-02,-1.802453674418982984e-04,2.485359432384360006e-03,5.201594829559326172e-01
4.872063689081702620e-01,4.934575440202362273e-01,7.860781829393259645e-02,-7.483268872188231528e-04,2.712825595474728860e-03,4.579296231207120350e-03,4.118649661540985107e-01
4.918132022635839373e-01,4.970889809239039114e-01,1.159381200105382148e-01,3.783184907098511521e-03,-2.429846319912822190e-03,-8.702283602559564638e-03,3.789205551147460938e-01
4.897845768496256191e-01,4.889973743973425324e-01,-3.144356219530719532e-02,1.161764078001970360e-03,2.034063788930149091e-03,-4.364915278698525657e-03,5.209056735038757324e-01
4.941562111740917529e-01,4.986341238206217774e-01,1.187960468500215971e-01,7.536911976416214680e-03,-1.490502692209093967e-03,6.494709780806475451e-03,3.780208528041839600e-01
4.946244089566191882e-01,4.986226623066057906e-01,1.096214195422707816e-01,9.119565846646818241e-03,1.044310305854446834e-02,6.845552527350418949e-03,3.879431486129760742e-01
4.816032954558452372e-01,4.983774930820131788e-01,-3.438768476776116190e-02,-7.744943717927969904e-04,2.467591015409151484e-04,9.967712536420988891e-04,5.245839953422546387e-01
5.134575147520547000e-01,5.116931688019841218e-01,1.001132704356603176e-01,-7.926287939311315103e-03,1.238066693024927369e-02,-3.274173370228989271e-05,4.132500588893890381e-01
4.988791349303217659e-01,4.948153119718356474e-01,-4.209980757570741527e-02,7.615483672681618021e-03,7.676084785452614093e-03,7.855933170179940292e-03,5.394554734230041504e-01
4.837848058854872235e-01,4.986502031331359053e-01,-4.136421902676190587e-02,4.330018435603948460e-03,2.023175432229039339e-03,7.398209904056947568e-03,5.329557061195373535e-01
5.324247906084025317e-01,3.430464836590998989e-01,-1.273928908747634647e-02,6.660268046745835072e-03,-5.096419289077281679e-03,1.316038333229421981e-03,4.796268939971923828e-01
4.806248174752488778e-01,4.948209422713033545e-01,-3.398109609108962426e-02,-1.077772488444699896e-03,7.481748498033408655e-03,7.329054547452393958e-03,5.221673250198364258e-01
4.797600332060893980e-01,4.902966629597165227e-01,-3.720212125918437307e-02,-7.424250538650676873e-04,1.189597238818486911e-02,9.462224756037456580e-03,5.229749083518981934e-01
5.065795288447392242e-01,4.577957831074731532e-01,-1.971246067104731603e-02,2.329728476307081977e-02,1.233149520520982791e-02,-5.147995620041359230e-03,5.058187246322631836e-01
4.971310931780826281e-01,4.822224011469709026e-01,-3.018803591351165716e-02,-7.140865217161678326e-04,1.396289049962354560e-03,-1.904293618761702077e-03,5.200426578521728516e-01
5.003769687921515441e-01,4.911813039069892195e-01,-2.092429518500704688e-02,3.748231397925430759e-03,2.344458611268067632e-03,1.422430538349098508e-03,5.168274044990539551e-01
4.741047534269758335e-01,4.892229656276045890e-01,-4.090458383240214157e-02,-1.683251697017654506e-03,6.224256725288041490e-03,8.691429130028006239e-03,5.230683684349060059e-01
4.319097459126627903e-01,4.749087575864938682e-01,-4.866049144833795026e-04,5.148431856347271060e-03,8.510300670748621190e-05,3.701315159874947643e-03,4.555532634258270264e-01
4.950855793302617602e-01,4.905870234105020877e-01,-3.342750608619388109e-02,-6.989310219867424982e-05,1.521866381629552369e-03,-1.645127882227051313e-03,5.262925624847412109e-01
4.763051563513903686e-01,4.855908732096807512e-01,-3.922967104412361516e-02,-1.426977420163857979e-03,4.502088950042253644e-03,6.673983337046454634e-03,5.204325318336486816e-01
4.777445915553358846e-01,4.968903716123246883e-01,-3.828914746312461759e-02,3.465426184531158332e-03,3.661586760022169859e-03,7.957925701992312612e-03,5.261211395263671875e-01
4.696946159346775396e-01,4.924669824085200487e-01,-3.574151005952297400e-02,-1.249484607470096502e-03,8.673090129997185161e-04,1.044886528541471606e-02,5.175216794013977051e-01
5.321057262674288024e-01,4.289113670502484599e-01,-8.684587019263667607e-03,-6.745174145332917537e-02,6.765486641248645572e-02,7.324222016593297246e-02,5.392316579818725586e-01
4.533413881011938984e-01,4.706816617520006574e-01,-2.491005502638116154e-02,-3.653495927258693641e-04,-5.419824975472247635e-04,-1.147116444040761907e-02,4.875594079494476318e-01
4.471070119417673294e-01,4.746180340540832598e-01,2.571749602981654448e-02,-6.341075633396885125e-02,2.718443002443271528e-02,7.451468869009788762e-03,4.520676434040069580e-01
4.809488414922125643e-01,4.842802087139499445e-01,-4.329918702671531339e-02,9.276443945794187644e-04,5.000241012644548652e-05,2.199913717383887926e-03,5.259379148483276367e-01
4.694838761148054651e-01,5.004706228232220777e-01,-3.534509142252106884e-02,9.772123454466828500e-04,1.197213836623102533e-03,1.104909865683693926e-02,5.213721394538879395e-01
4.684656680802690709e-01,4.840206652721488201e-01,-3.544848917587672954e-02,1.755899368814683222e-03,1.495589491720572322e-03,9.853237828612868357e-03,5.121689438819885254e-01
4.943238967097093317e-01,4.134585716634010533e-01,2.160415266879794904e-02,-9.286650198460050243e-02,3.560704336698274769e-03,2.297216853181439575e-02,4.682630598545074463e-01
4.435122858028882065e-01,4.947689886814260474e-01,-3.730315592187460894e-02,-7.366824994593981941e-03,9.430991400661722229e-03,1.028965450628569790e-02,5.091198682785034180e-01
4.219588573943560128e-01,5.390786248803809411e-01,-4.956188326331417704e-02,-6.384864451512893557e-02,5.364220356347768753e-02,5.652734133732777860e-02,5.672051310539245605e-01
4.989586584555778526e-01,4.964546490760413655e-01,2.401938960492661090e-02,9.175776162682983475e-03,-2.120735603545596121e-02,-1.657438726153586880e-02,4.762460589408874512e-01
5.469017977553023435e-01,4.968777027134996249e-01,-3.124411405038463041e-02,-2.554038488058192960e-02,4.258727755955277194e-02,4.167775357451874302e-02,5.660768151283264160e-01
4.825932576623462866e-01,4.759154373091205592e-01,-4.078829734368644155e-02,-1.720779037144357874e-03,-1.961012444934335727e-03,-1.160865835870905985e-03,5.200983285903930664e-01
4.773451502975467609e-01,4.777205887987156507e-01,-4.132313212358573740e-02,-5.447719386347153010e-04,-1.033307686590376586e-03,-8.251442959141311838e-04,5.188620090484619141e-01
4.816371210085304000e-01,4.945363533587224802e-01,5.749572334481867220e-03,-1.256377075841746006e-03,5.710417029620272131e-03,8.289619865292007991e-04,4.825749099254608154e-01
4.448803156032032358e-01,4.802849050974544176e-01,-2.490596056255656165e-02,-3.381654562187677484e-03,-1.051950126313715411e-03,-1.179633240534039632e-02,4.889174997806549072e-01
4.825503852186260323e-01,4.749186684216151200e-01,-4.081218066224562291e-02,7.447630816037377217e-04,-2.572101523281658270e-03,-2.492094790849577052e-04,5.196096301078796387e-01
4.805161535476122903e-01,4.769744282586070305e-01,-4.142548192606798629e-02,1.443977205697299080e-04,-1.967361232798567252e-03,-1.301108799131258601e-03,5.201959013938903809e-01
4.379000221230123779e-01,5.159418404425428761e-01,-2.640846810769992281e-02,6.659976095496416941e-03,-5.967659158214426961e-03,4.642020087837817922e-03,5.081465840339660645e-01
4.901947408259146322e-01,4.980432613573285705e-01,-1.938883244633482494e-02,1.125871938557691495e-03,3.605691848664094139e-03,1.593000957703147921e-03,5.136018991470336914e-01
4.818362099137073473e-01,4.902331641638241755e-01,-2.966328558693137607e-02,-1.397764539496442165e-04,-6.060212452629325664e-04,-5.248432441548145193e-03,5.158304572105407715e-01
4.930915534770238251e-01,4.950711023901672170e-01,3.434908734022518173e-02,7.641970179330495432e-03,-1.221651835146604984e-02,3.071888825186588380e-03,4.604431688785552979e-01
4.992809841949169547e-01,4.951997227376326305e-01,2.373091446361275114e-03,-2.392469012524189517e-03,-2.850088689238172907e-04,-8.065731376900017735e-03,4.950946271419525146e-01
5.583727332622145934e-01,3.040350557931398301e-01,-1.433100561804406814e-02,-1.882295262639596331e-02,-4.844662174754296551e-03,-3.819472713168834549e-02,5.025205612182617188e-01
3.371727396341006044e-01,7.734968634956695954e-01,-2.920453377349191415e-02,1.803879607666953599e-01,-3.360652528248334048e-02,2.328666127997788826e-02,7.662276029586791992e-01
4.943178439847002448e-01,4.906372116637597314e-01,4.718381628428081065e-03,2.580447532412609261e-03,-4.016769522967301304e-03,-5.282178498825944313e-03,4.879254400730133057e-01
4.967945237814521131e-01,5.011726777561877899e-01,-1.157297222025782668e-02,4.752549483198573177e-03,-3.588745728661283611e-04,1.137465223418456656e-02,5.110173225402832031e-01
5.038353757848745840e-01,4.861681159098720229e-01,-2.095588892540756198e-02,1.496071455325806432e-02,-4.107785808020963589e-03,8.475704607892996928e-03,5.170918703079223633e-01
5.317905938637296215e-01,4.855591755260746378e-01,2.154201928885229878e-02,2.917130023302958938e-02,1.946374943836221005e-02,4.404766462733409466e-02,4.984089136123657227e-01
3.562486875635982320e-01,6.845171856975041935e-01,-1.325876689433388433e-01,2.654652522680699955e-01,3.793885991045919948e-02,9.764521656792896076e-03,8.504177331924438477e-01
4.512096508497135394e-01,4.565210160637428460e-01,-3.381661122068835290e-04,3.028013546210578041e-03,5.954313534781943045e-04,-1.370220791749675489e-03,4.542644321918487549e-01
4.428685805340136228e-01,4.318806967849291301e-01,2.596235774516841843e-03,-5.722594217073644768e-03,-9.406573817088746757e-05,-1.309763110822378647e-03,4.350014030933380127e-01
4.840369893597670226e-01,4.986495919860857162e-01,-3.423114799804982678e-02,1.093284328702448863e-03,1.210702442053766607e-07,7.321431832345319177e-04,5.257316827774047852e-01
4.825266622889380908e-01,4.897160104273433623e-01,-4.295046315810718829e-02,2.592878902116515019e-03,1.987252915605012659e-04,3.325339344809068957e-03,5.291589498519897461e-01
4.823954000005433174e-01,4.843307432789031308e-01,-3.881100286468008864e-02,8.921592709939153579e-04,4.007136521311018343e-03,4.241595315011824699e-03,5.222768187522888184e-01
4.848062817765196320e-01,4.873995031487030616e-01,-4.395914623115226849e-02,1.774701487118117383e-03,1.945243779957962727e-03,1.927975941596239522e-03,5.300969481468200684e-01
4.898651339482051337e-01,4.825444619046829753e-01,-3.386767193162876222e-02,-1.365754581175402131e-04,3.363107499562033504e-04,-1.484079947601394398e-03,5.201178193092346191e-01
3.903894426533223161e-01,5.255879151386251280e-01,-1.364355628375241158e-02,-3.128632265274401518e-03,1.488730317906757084e-03,-2.041095422337203986e-03,4.859983921051025391e-01
4.949556526250195043e-01,4.931012952927418813e-01,-3.047182480416316119e-02,-8.733251791560707206e-04,1.213945534938120187e-03,-1.663596394094831029e-03,5.245170593261718750e-01
4.949480976252017550e-01,4.912005668362843247e-01,-4.182202505009779969e-03,-1.855696718469059198e-03,2.371603042999552175e-03,-6.271905725316382837e-03,4.974131286144256592e-01
4.818126923044810939e-01,4.839993465816999629e-01,-4.278661650878107237e-02,1.518634964476454257e-03,1.222789342390456595e-04,2.276197946113159808e-03,5.257174372673034668e-01
6.183590213627860876e-01,2.248420981204498903e-01,-1.191670669636307744e-01,1.364536269205202934e-01,3.107717738544749086e-02,4.786237293340999538e-02,6.886216998100280762e-01
4.304431346656292234e-01,4.692451706963259861e-01,-2.124200703890710695e-02,-8.407094058895085362e-03,-1.458601290462687231e-02,-1.620708663568630470e-02,4.740144312381744385e-01
4.788168138926857664e-01,4.759902862771267507e-01,-4.125129217452960795e-02,-1.945240646382588394e-04,-3.065140714869321777e-03,-7.554544812165465582e-04,5.186895728111267090e-01
4.860715846525605621e-01,4.927485963309814476e-01,-3.271341051197262928e-02,-6.270810184448910498e-04,-1.224685940452056821e-03,9.600445151099230986e-04,5.221636295318603516e-01
4.851529247437366132e-01,4.988801448664407778e-01,-3.111090037546504483e-02,1.279132946154219741e-03,-2.935179503220016872e-03,3.824818159473184452e-03,5.233337879180908203e-01
4.930662995136753657e-01,4.601370553917456530e-01,-2.824350553734933378e-02,2.327544168685843472e-03,-5.950676561885867057e-03,8.365557091490654490e-03,5.059785842895507812e-01
4.757111649060937197e-01,4.962522489097521694e-01,-3.117278765626840809e-02,1.636464732602612598e-04,-4.061793017592924687e-03,2.284091660489066030e-03,5.175234079360961914e-01
4.962947979871645265e-01,4.687117865892370672e-01,-5.187220365555605950e-02,-7.263073848091555762e-02,3.441924919848193820e-02,6.051999858559583417e-02,5.625793337821960449e-01
4.810732382322746026e-01,4.796776068788431990e-01,-4.279509099165779151e-02,1.056860006297095618e-03,3.187078941569990767e-05,3.334344526629410589e-04,5.231754183769226074e-01
4.319012491541346366e-01,4.365571656757136765e-01,3.676905791522466771e-03,-2.684510885825822503e-04,9.391789333674493414e-04,-4.826597135812337900e-04,4.305753111839294434e-01
4.815876399639415495e-01,4.970827552809021777e-01,-3.042042444577192084e-02,-1.747747460500141074e-03,-1.250959548493192760e-03,2.412952656997709167e-03,5.199589729309082031e-01
4.781079313608531667e-01,4.951677513609439307e-01,-3.161751938635859460e-02,6.579569118152943982e-04,-3.606654546710044793e-03,4.137488598465912173e-03,5.185543298721313477e-01
4.988585255259547768e-01,3.888297507816698140e-01,-8.568487411721559255e-03,2.252742548934162301e-02,-8.026831387579633215e-03,1.164128797267925675e-02,4.646280705928802490e-01
5.545574549702237954e-01,4.388984840031428525e-01,-1.902997699922770458e-02,6.953382789528701757e-02,-6.273906200079009017e-03,5.074620391503263661e-02,5.462485551834106445e-01
4.807734507579212169e-01,4.869406625149292900e-01,-4.098482900068028956e-02,-3.489497824254783175e-03,5.145975127265986493e-03,7.986815806778940069e-03,5.251617431640625000e-01
5.026071368846113385e-01,3.799268677765812452e-01,-8.531707334423987987e-03,4.729286549022536368e-02,-1.132767421626470691e-02,9.486543026595030056e-03,4.700760543346405029e-01
5.331977689896486572e-01,4.278634500853470413e-01,-3.085531117586742811e-02,5.353146947840816544e-02,-2.230292720905437120e-02,3.893733215809195430e-02,5.333614945411682129e-01
4.975099364239461419e-01,4.949220300064817724e-01,-2.354010725263649961e-02,3.593850920239559897e-03,4.440533502698447953e-03,2.837947384476818390e-03,5.198783278465270996e-01
4.919225358525464165e-01,4.963422315235427318e-01,-2.620867240941110454e-02,7.913547282766850242e-04,-2.456851484746613856e-03,3.152383391418733718e-03,5.204029679298400879e-01
3.366919040787862416e-01,5.150016500185178314e-01,7.271469403318131519e-03,-1.617620869374951365e-02,-3.649792965220755871e-04,4.124507498348052408e-03,4.470877945423126221e-01
4.965957310799415936e-01,4.223898145540929683e-01,-2.107086543273212209e-02,1.830230571731820965e-02,-1.081599492670770601e-02,1.171134639434529348e-02,4.866607189178466797e-01
4.855879338609936924e-01,4.916854059985024117e-01,-3.398020019963826632e-02,-4.584518005728719574e-04,-3.617986381898109284e-04,1.556170918218429192e-04,5.226445794105529785e-01
4.872290432040528030e-01,4.933930730038166845e-01,-3.190884651687775353e-02,-2.960256922265344474e-04,-6.165535865917500446e-04,4.678119668605424720e-04,5.222491621971130371e-01
4.849492122530424387e-01,4.891298991457932455e-01,-3.252326350338718974e-02,1.069109976475175619e-03,-2.986631593108603905e-03,1.535846302986493533e-03,5.196112990379333496e-01
5.003397102383646544e-01,4.759065607652072094e-01,-3.865728580227534295e-02,-2.047103962714611793e-03,5.708723076595684405e-03,5.064885308591901038e-03,5.273828506469726562e-01
4.959794724826840917e-01,4.869958831797664978e-01,-3.918777787341937158e-02,3.359985294483072704e-03,1.634115004027943780e-03,1.002079839234095750e-03,5.307747721672058105e-01
4.714989865008025749e-01,4.798048035975292502e-01,-3.458895832144481819e-02,1.166971479353436222e-03,6.924853886570875869e-04,5.537889761181067662e-03,5.103871226310729980e-01
4.966794596570033304e-01,4.869728384575963132e-01,-3.766310724395893761e-02,3.081643950305096129e-03,2.655244331126512675e-03,7.373126529253302888e-04,5.296043753623962402e-01
5.527343150227876922e-01,3.011636000336264107e-01,6.926893613646456505e-03,-9.925230159317410990e-04,4.165609955635377927e-03,-2.493735467185283477e-03,4.732420742511749268e-01
4.949503372465843265e-01,4.882910962394347854e-01,-4.161928984753454630e-02,1.955433750076208954e-03,1.706934440907426249e-03,1.517772468879552720e-03,5.332966446876525879e-01
4.595982699804879168e-01,4.065685256296945882e-01,-6.912556022232396735e-03,-1.220349860417824228e-02,-1.441879079193986168e-02,-1.162154051523939247e-02,4.440509080886840820e-01
4.801029597657735515e-01,4.019028567332630364e-01,-1.359444119011293806e-02,-2.400533619112199188e-02,-1.337189661983160215e-02,-1.206044242729585646e-03,4.620765745639801025e-01
4.812286574544074602e-01,4.904830473446499806e-01,4.860542985214549860e-02,7.425770190687970562e-02,7.526920353513112324e-03,-3.135293140872527640e-02,4.592534899711608887e-01
4.815825639454390794e-01,4.145170157345853257e-01,-1.935756530475568615e-02,-1.912676817062472501e-02,-2.004546038229269508e-02,-2.031225379990663979e-02,4.747459292411804199e-01
4.874446581376803422e-01,4.183691858851365519e-01,-2.311084815689762317e-02,-1.187765264722750146e-02,-1.633301756075236991e-02,-1.068247862982690463e-02,4.813910722732543945e-01
4.634684009578120545e-01,4.328673108843302808e-01,-1.444781949924989206e-02,-9.328188072698034503e-03,-1.053705970874159112e-02,-5.702289332563665984e-03,4.641198813915252686e-01
4.839023498515157562e-01,4.873736293144512732e-01,-4.413306317137960511e-02,-5.321506845462235314e-05,8.253212344042475937e-04,2.616628428910517962e-03,5.298008918762207031e-01
1.779597605039843766e-01,6.430871640186774929e-01,-2.912159777926170978e-02,6.220555138225059011e-02,-1.258648774317510516e-02,2.384776788049467258e-02,6.077297329902648926e-01
2.398842683951043775e-01,5.719440996523883491e-01,1.817154699101375392e-03,-5.033052311256177441e-02,1.392535359291869647e-02,1.965270920920486955e-02,5.053039789199829102e-01
2.803979648969833205e-01,5.859711362885560160e-01,-1.209950163701944970e-02,1.730824737338484617e-02,1.682625018273792988e-02,3.323406278013280903e-03,5.197021365165710449e-01
3.046950396755014889e-01,5.646787143706126777e-01,-1.135173916646919912e-02,6.993237191738939200e-03,1.570253464092109807e-02,2.432466637934348024e-03,5.005479454994201660e-01
4.773055661103302039e-01,4.783312108132827811e-01,-4.167725434598934520e-02,2.779993662962228652e-04,-6.973034559007967436e-04,-9.854540836814890126e-04,5.195008516311645508e-01
4.773608173000997157e-01,4.769678528761555070e-01,-3.948498537495731542e-02,-6.472448578395559532e-04,-2.291946751324220287e-03,-2.239997045300218519e-03,5.166804790496826172e-01
4.747188324309878915e-01,4.743185431432432875e-01,-3.977927424494887010e-02,-5.944244571071876856e-04,-2.176903066990865544e-03,-2.059472420054930634e-03,5.143253207206726074e-01
4.991927936482147277e-01,7.076428581942910689e-01,5.613124014924464333e-02,1.593066900690124355e-01,-7.635797498821263185e-02,3.497797896810950907e-02,6.552931070327758789e-01
4.735618166426784903e-01,4.752678972352011311e-01,-3.977988185531938781e-02,-4.590121026721055882e-04,-2.021673179319095036e-03,-2.245472882547445807e-03,5.142241120338439941e-01
4.924804467143166775e-01,4.953134265322259866e-01,-3.241311623490872318e-02,-1.074812209897015860e-03,-5.605207088455569113e-04,-1.753569856713049204e-03,5.263287425041198730e-01
4.937974474171707429e-01,4.945737665917935288e-01,-3.150630228604811567e-02,-2.908684404080171915e-04,1.472198678892614300e-03,-1.691825834152987235e-03,5.257069468498229980e-01
4.883617433266314034e-01,4.949073536154129371e-01,-2.932749370215165241e-02,1.089563079026861135e-04,3.341865247998818383e-03,-4.111664979573048662e-03,5.210737586021423340e-01
4.929223594398108865e-01,4.912711268374653217e-01,-3.195128351986009640e-02,-1.625039612829136610e-03,-3.111809439380226749e-04,-1.825286659094913161e-03,5.240673422813415527e-01
4.738272200020651193e-01,4.802529656449611717e-01,-3.950774891114489096e-02,-1.663285638287469127e-03,7.290178464421534672e-03,4.481020613405746825e-03,5.167984366416931152e-01
4.446662757941327593e-01,4.551293639591840745e-01,-1.337828409752161996e-03,1.103358676679757309e-02,9.171881205411479060e-04,-9.982416929267404811e-04,4.517371356487274170e-01
4.295244069760509320e-01,4.691452380486594853e-01,-6.850092254051975971e-03,-9.324550857230983272e-03,2.071181784180667514e-03,1.315934032417306367e-02,4.583396613597869873e-01
4.883888795125763682e-01,4.828307990724752252e-01,-4.134619556959312492e-02,-1.017332342969189124e-04,2.072323334876920945e-03,9.200281420371866263e-04,5.269926786422729492e-01
4.852988660708200674e-01,4.919112747038076883e-01,-4.110471110912539139e-02,1.499817449202904118e-03,6.384567853056436751e-04,3.852098848089324876e-03,5.297902822494506836e-01
4.876940902238304787e-01,4.843060050798740912e-01,-4.371050246517177440e-02,1.744282046463853158e-03,2.103435003908386489e-03,1.824441659626266365e-03,5.297492742538452148e-01
4.888910108199847615e-01,4.825663642620990346e-01,-4.220471306607526119e-02,2.102229707695950616e-03,3.282849329320233420e-03,3.252466277495557430e-04,5.280053019523620605e-01
5.175235079423184947e-01,4.551829326613371363e-01,-2.774435331901659030e-02,-2.829643564066841154e-03,7.588142016912520407e-04,1.752647624688446126e-03,5.169584751129150391e-01
4.395200449457600800e-01,5.060481001253038791e-01,-3.316211716856626301e-02,-7.064555898081689884e-03,2.040909866449820351e-02,8.556842850160981812e-03,5.108032822608947754e-01
5.001234677883910074e-01,4.841742010474937574e-01,-3.304083522194395384e-02,1.135865634004747798e-03,-1.538077396225633791e-03,6.654068047770790757e-03,5.255081057548522949e-01
5.008600452259667213e-01,4.517236545454026975e-01,-2.580928815235961071e-02,3.965464620445856292e-03,-4.778142360215188386e-03,9.024935452263049482e-03,5.042582154273986816e-01
4.999249649385115735e-01,4.868271904462204147e-01,-2.549952620040285556e-02,4.728789755069611606e-03,-4.579812894282723340e-03,9.719068484953663142e-03,5.193976759910583496e-01
5.524591647541228223e-01,3.709260718272396895e-01,-1.786837363617399532e-02,3.222103190044659643e-02,-3.441591992386168822e-03,4.148674420450795819e-02,5.128430724143981934e-01
4.577869271670368390e-01,4.435971545010193862e-01,-2.336484251037607152e-03,8.108553485035625494e-03,3.696592337213729443e-03,-2.491655783790560513e-04,4.534581303596496582e-01
5.417026049453926850e-01,3.281341732974081826e-01,-2.204890487763494500e-02,6.030982897717923619e-02,-1.431144659957630724e-02,5.365136535732763223e-02,5.130198597908020020e-01
5.455578151696640621e-01,3.771856053313580315e-01,-2.252316209315335938e-02,-2.438505104334036302e-03,8.746080558906762711e-03,2.705959756407127700e-02,5.077993273735046387e-01
5.631792280503900017e-01,3.173095247355231519e-01,-5.072654753079219869e-03,-5.050735756595142213e-03,5.791730369552157247e-03,2.073786463570321051e-02,4.950894117355346680e-01
5.541707952594678854e-01,3.237621246822967591e-01,-7.098627267621782089e-03,-2.633624222997141620e-02,1.677280709998976369e-02,7.473203545469730980e-02,5.083990693092346191e-01
5.696003651963710279e-01,2.439562973763328979e-01,-1.000202497055741047e-02,-2.946831307703163053e-02,9.199766717589642068e-03,2.547220351363910923e-02,5.079807639122009277e-01
4.795537896463037408e-01,5.001929239062773425e-01,-3.460739102984433657e-02,4.046698795469951026e-04,-2.312490029734388074e-03,1.660177234902632595e-03,5.248088836669921875e-01
3.636081808717477326e-01,4.878675397991179552e-01,5.845899409907540090e-03,-5.559763123155006537e-02,-9.943896734883560934e-03,-4.380030622548256036e-03,4.444288909435272217e-01
4.904884460961915771e-01,4.851250112906640988e-01,-3.353202368214280860e-02,-5.959239939101057407e-04,7.834765021118021331e-05,-1.129007321338523296e-03,5.213641524314880371e-01
4.886407282315612388e-01,4.827883319229718806e-01,-3.200457079622504031e-02,5.631386678771380626e-04,1.249261808386537822e-03,-2.098086433146499011e-03,5.177621245384216309e-01
2.774990755309511559e-01,5.494409251865807198e-01,2.265935059683810149e-03,-1.160799909102852058e-02,-2.776758913581254401e-02,-2.759889730941829811e-03,4.767528474330902100e-01
4.792782856521670132e-01,5.132598460275875629e-01,-3.780752154465316650e-02,-3.082725104969945198e-03,-1.399372461253480578e-03,6.104059535505895057e-03,5.350233912467956543e-01
2.884774664797937760e-01,5.504867530673134279e-01,-1.037550939506648451e-02,-3.942085216597569081e-02,-2.429322557818400577e-02,-1.171229791619691346e-02,4.930600821971893311e-01
4.913572079525465597e-01,4.957071548207138689e-01,-3.248054570265196395e-02,-2.385213049590850321e-04,-7.562290255682276290e-04,-8.235494165679015099e-04,5.260299444198608398e-01
3.352336642505927555e-01,5.493125945914112407e-01,-9.443656027134095243e-03,-6.624177762209012242e-03,-2.224911214234298260e-02,-3.532970223574766633e-03,4.899740219116210938e-01
3.093225135895976696e-01,5.310256439613139090e-01,5.049893222570656093e-04,-3.310966651243135023e-02,-1.408805081404391514e-02,-1.719329333825445408e-02,4.666447937488555908e-01
3.550670769863133458e-01,5.110616544231335601e-01,-9.274734863765732307e-03,-1.814261700250152654e-02,-1.480208458218387410e-02,-1.335001824566383992e-02,4.648591578006744385e-01
6.015502295209023131e-01,2.747139382328001589e-01,1.554701162318777863e-02,2.504410329917927669e-02,-1.439262432583565156e-02,-5.481120061335202631e-02,5.198177099227905273e-01
4.723630156245959277e-01,4.965836661809389652e-01,-3.757805685021298192e-02,1.344369239912224841e-03,6.708882565904987581e-04,7.918284226952424995e-03,5.226590633392333984e-01
4.926410550338043981e-01,4.955820257015546848e-01,-3.282824133554068657e-02,9.663744868083817873e-04,1.384884264691019825e-03,1.558825207409782502e-03,5.269609689712524414e-01
4.890188814910221282e-01,4.972444795226999559e-01,-3.945608993204724468e-02,1.695240332720799898e-03,-1.252141529726089834e-03,7.380893618849599736e-04,5.326494574546813965e-01
4.890216509534927591e-01,4.956067293018135977e-01,-4.142768860260531705e-02,2.361784170873710165e-03,1.992912339815071810e-03,1.084319073103732090e-03,5.338025093078613281e-01
4.782757708627979887e-01,4.746076916218563979e-01,-3.548677721622828241e-02,4.264837807111462355e-03,6.018297706734916826e-03,9.909743582363315928e-04,5.121006369590759277e-01
4.897541831808701618e-01,4.951080266016781306e-01,-3.380166131846318311e-02,2.507980669783485116e-03,-2.078059388283237316e-03,2.478494649356451345e-03,5.263009071350097656e-01
4.753792854467763229e-01,4.991467503848533993e-01,-3.155704503087053414e-02,2.549503146264915166e-04,-3.409653072494152077e-03,3.895755494085160250e-03,5.193058252334594727e-01
4.837249118368273093e-01,4.905704157207381177e-01,-3.083708806340995645e-02,1.894559365446303731e-03,-2.963241476585019418e-03,7.214720484765145981e-04,5.180559754371643066e-01
4.856083149754162331e-01,4.945032546493196568e-01,-1.889415778528397150e-02,-4.143608028805247968e-05,1.381037326985600595e-03,2.238054488123208258e-03,5.090286135673522949e-01
4.872961850004484674e-01,4.965247819131655693e-01,-2.256968108681622898e-02,-1.930178466300794043e-03,2.616431989971614459e-03,8.012098672085055193e-04,5.145749449729919434e-01
4.963635328202611330e-01,4.927709836264064780e-01,-3.009566573692928904e-02,1.774561878417338292e-04,7.712898155394674275e-04,-1.476746053801940252e-03,5.246801972389221191e-01
4.816281376535758163e-01,4.959199211620147763e-01,-2.936370108387620359e-02,9.320671255018546418e-04,-8.616729610054511736e-04,-5.889776798343698654e-03,5.183905959129333496e-01
4.585144284968027950e-01,4.726992496776425967e-01,-2.003631928561727671e-02,8.445520486539008498e-03,-9.308637990349170974e-04,5.184530567488090068e-03,4.861043095588684082e-01
4.945584530900906106e-01,4.905455092844337450e-01,-3.037917149348773327e-02,-2.933884155381590291e-03,1.892137042782215386e-03,-1.899095122188853820e-03,5.229880213737487793e-01
4.815902802738519783e-01,4.976454856996397336e-01,-9.811698041612970655e-03,5.007952591392990545e-04,-6.818220357744937243e-04,-2.146842908022817461e-03,4.996390640735626221e-01
4.351748564501917715e-01,5.080067833783683540e-01,-1.606993975721104917e-02,8.097431505667418081e-03,-1.154477265638701768e-02,5.274825763994552864e-03,4.924138486385345459e-01
4.881054732694357079e-01,4.840244117790110101e-01,-3.346883562109026489e-02,-8.676341044426376381e-04,-1.552156477333473160e-04,-5.894580175651300755e-04,5.195490717887878418e-01
4.788159915064230665e-01,4.951499135290187148e-01,-1.348981341085347951e-02,-2.363370224389400778e-03,2.228474923774243551e-03,8.316141047097872245e-04,5.007063150405883789e-01
4.711943848619621900e-01,5.818594713218765424e-01,-1.407056395452316311e-02,4.307987893946772090e-02,-2.681422170460584509e-02,-6.581034018921710698e-04,5.560185909271240234e-01
3.381723410700940846e-01,5.765764051374222543e-01,3.639783262482199078e-02,8.962104424122832591e-02,-5.730564837490965263e-02,3.675167478052383807e-02,5.077876448631286621e-01
4.157790453684903076e-01,5.673267699125249530e-01,-2.182762535032328755e-02,7.422889521918016320e-02,-3.850236818470841732e-02,6.549494924800529881e-03,5.494455099105834961e-01
4.547625275329156835e-01,5.080336514284981009e-01,-2.568645112955703080e-02,1.574795236459422890e-02,-2.174698457125455800e-02,3.144202965657925172e-03,5.113272070884704590e-01
4.967499176892609669e-01,4.959241444123827502e-01,-3.204662120477663745e-02,1.615371145461979912e-03,2.549209835400003711e-03,-1.288695525058789707e-03,5.284147262573242188e-01
6.403052008926544136e-01,2.638544395284406763e-01,1.713047794135080792e-02,2.375882007837431739e-02,3.102176893587071591e-02,-1.023980895753838216e-01,5.757637619972229004e-01
5.059410367246923723e-01,5.030152543343540117e-01,-1.763290219501456590e-02,5.105461486402213672e-02,-4.195536546913036097e-02,3.652611067480197177e-02,5.382465124130249023e-01
4.548849174071589174e-01,5.325280999135506566e-01,-3.241112041521226894e-02,2.157783942964918572e-02,-2.257763908610535553e-02,1.017460877341906308e-02,5.334395170211791992e-01
4.962352498269823053e-01,4.961190247151908705e-01,-2.914756012634300841e-02,-7.449091596558934112e-04,-1.140060456669908084e-03,2.034238847767379579e-03,5.253418087959289551e-01
4.993061687828706519e-01,4.866007274334037680e-01,-2.859512424779375728e-02,3.710600473215723213e-05,-2.435770757485065854e-03,2.190022776036452783e-03,5.216954946517944336e-01
4.980062211199548505e-01,4.908934023290455473e-01,-3.419557441816550858e-02,7.601203057742583237e-04,-6.492895566723677582e-04,-8.066363435438275069e-04,5.286859273910522461e-01
4.903455439484042389e-01,4.839599132216022559e-01,-3.300451245410124246e-02,-9.430210535224150658e-04,1.074055687304137190e-03,-5.993881073399934083e-04,5.201935768127441406e-01
4.965786328872759947e-01,4.996479040023444895e-01,-1.904497153192491465e-02,1.715152261809719690e-03,-2.287158993562026711e-05,4.244135663591459134e-03,5.172258615493774414e-01
4.518591753141786294e-01,4.604766051325549503e-01,-5.102644878984485821e-03,1.386799473487773269e-03,-2.540468963750559979e-03,3.695706448667562729e-03,4.614025354385375977e-01
4.654560788623026690e-01,4.695250288483654444e-01,-1.461038130787328804e-02,1.456537530379859325e-03,-3.863161402681491823e-03,3.367983369592950169e-03,4.822021424770355225e-01
4.612254556056780697e-01,4.574132833784226304e-01,-1.017969620965658573e-02,8.347816650987651896e-03,-5.178098148104321244e-03,6.854087361733519684e-04,4.698203802108764648e-01
4.937858303234821111e-01,4.913027168818056012e-01,-3.197623108632868805e-02,-8.651619084919282042e-04,5.575160691511098394e-04,-4.163516990703119286e-03,5.245774984359741211e-01
4.520560632982300042e-01,5.025032153018329506e-01,-2.165476409042044192e-02,4.130850571159264129e-03,-1.950443167738788192e-03,-7.466752381301264112e-03,5.010729432106018066e-01
4.939337805802357373e-01,4.917841018809872011e-01,-3.142975558050253859e-02,-4.810360280645484135e-04,-4.241923050119450565e-04,-5.004750892915172875e-03,5.243648290634155273e-01
4.331033412564180840e-01,4.824522217296828286e-01,-3.754047597325615993e-03,3.895981983852513097e-02,3.031429199105240956e-03,1.078009774984754233e-02,4.687941074371337891e-01
4.936670668869234113e-01,4.876149033330410831e-01,-3.047032674398625351e-02,-8.001865339790537220e-04,-1.353620404342540610e-03,-8.449033569016036870e-04,5.211468338966369629e-01
4.936491297330268813e-01,4.898233452569782376e-01,-2.977716674347125059e-02,-1.137230740109263730e-03,-1.193387643629832120e-03,-1.891794442705597469e-03,5.215420126914978027e-01
5.025985484793933367e-01,4.523723245455673614e-01,-2.524633079184174234e-02,3.773752062703157671e-04,1.311617746231159712e-03,-2.375683253618877597e-03,5.046322941780090332e-01
4.966369821843389931e-01,5.004466714115392012e-01,-3.164697224588625124e-02,1.976286155257457339e-03,2.207266272746240786e-03,-3.507111616894279405e-03,5.302587151527404785e-01
4.911980072585198087e-01,4.769656272603953195e-01,-2.966484630724020022e-02,-1.657295997364133754e-04,4.463470558947554671e-03,-3.833004697787320211e-04,5.139531493186950684e-01
4.872835929833574942e-01,4.958053663245419740e-01,-3.138044229937603236e-02,2.070039489711650218e-03,3.843895792213715152e-03,-3.804687602982667009e-03,5.230731964111328125e-01
4.962965000386252434e-01,4.956951839529820658e-01,-3.019170268773552213e-02,1.350209717010395069e-03,1.550635466996972203e-03,-6.465900379700948971e-04,5.262010693550109863e-01
4.966671218565903989e-01,4.363042409494390927e-01,-2.462400767340644503e-02,2.505094772889221791e-02,1.574537009859008560e-02,-1.930248705134007814e-02,4.976601600646972656e-01
5.031930317505153294e-01,4.525985982326607426e-01,-2.166534207660730793e-02,1.346847375768812569e-02,1.006711580068104898e-02,-1.297911286715618985e-02,5.028268098831176758e-01
4.630411586166969240e-01,4.896308288791157981e-01,-1.949515965249765115e-02,4.756821504300126451e-03,9.461040890863145177e-04,-7.010499718184453645e-03,4.965851306915283203e-01
5.441484018428556224e-01,4.181011609737659285e-01,-1.941115488819256107e-02,8.158865255101266671e-04,1.696400863428865549e-03,-2.290353692893246432e-02,5.138448476791381836e-01
5.138470276537419057e-01,4.538562726212016507e-01,-2.830497377300927875e-02,7.433240859143799319e-03,4.268200031483891654e-03,-3.706457036660934512e-03,5.150390267372131348e-01
5.041532090724619719e-01,4.181924675466748287e-01,-1.960914021384740913e-02,1.030793161846757164e-02,1.106825966152926929e-02,-1.269136958060708767e-02,4.877117276191711426e-01
4.517349858011134311e-01,4.819343157927219456e-01,-1.994045328415672280e-02,4.211830496223895916e-03,1.566666663605088394e-04,7.320632931768667959e-03,4.876967072486877441e-01
5.163766485933811712e-01,4.051272408530057767e-01,-2.375032159418327682e-02,1.936080046832567517e-03,7.135578089588938758e-03,-1.940531539990895948e-02,4.952963292598724365e-01
5.008704756297241989e-01,4.741490811183693976e-01,-2.118628012725121135e-02,6.370701910236723116e-03,1.086289263511472369e-02,-7.968454925435089486e-03,5.098759531974792480e-01
5.172380882831396631e-01,4.341665625798245554e-01,-2.618755277116313618e-02,9.560947128939548036e-04,4.549767295267001521e-03,2.066853038157085137e-03,5.070964097976684570e-01
4.858337165283965753e-01,4.223577615793179252e-01,-2.112546685480770625e-02,-6.201966643923571137e-02,2.477086649443623056e-02,3.832925260972171178e-02,4.966332614421844482e-01
4.851092147826454593e-01,4.482323119108592158e-01,-3.990897562292650136e-02,-5.554014576890111549e-02,4.658850566639394231e-02,5.163225553917542843e-02,5.304773449897766113e-01
4.891348967623138089e-01,4.819303847414583286e-01,-3.182226310587132900e-02,6.589101602126934453e-04,2.767832065156331303e-03,-2.052095117348795485e-03,5.174282193183898926e-01
5.237581444246744988e-01,4.971652222617465311e-01,-2.598732856849667039e-02,1.066603673268008527e-02,2.333716510236301389e-02,4.424079217492206395e-02,5.442010760307312012e-01
5.269108771194181973e-01,4.952430621465391813e-01,-2.379957925639414329e-02,-3.939995588752235288e-03,5.043022095928802184e-02,4.091918962613749072e-02,5.473064780235290527e-01
4.903196286119499980e-01,4.856906031414817138e-01,-3.417481746593292735e-02,-3.878614672627566230e-04,5.818470054436335279e-04,-7.779985739335738577e-04,5.221984386444091797e-01
6.380161302289875103e-01,1.127051219749873046e-01,-4.009934203897694283e-02,-5.465705235265125306e-02,5.275275609297836420e-03,-3.136175193826330147e-03,6.234146952629089355e-01
5.119959308210032534e-01,3.929543630740005011e-01,-1.627837216061839287e-02,-1.138885039580844402e-02,2.174089355941843590e-02,1.796162206531629751e-02,4.828384816646575928e-01
4.973916754242020399e-01,4.445934840268003230e-01,-3.584430962373974516e-02,-8.095112892206950909e-04,1.250911736619387052e-02,1.357160906549814347e-02,5.099003314971923828e-01
4.994249151963736089e-01,3.958517317255666468e-01,-1.622211925527383691e-02,-1.459737983590747752e-02,2.491396527561389254e-02,2.073431454675851368e-02,4.764485061168670654e-01
4.552088319468527988e-01,4.691574958657157568e-01,-1.894313542636466563e-02,6.833537841036472875e-04,1.426041770973588861e-03,7.875471184648635131e-03,4.814789891242980957e-01
4.910722467916543987e-01,4.856394920878905896e-01,-3.392581731332233730e-02,-3.600336009183260585e-04,5.188719629615529041e-04,-4.801800318699328269e-04,5.223047137260437012e-01
4.839277381625957108e-01,4.966818310703537964e-01,-3.182317736125006569e-02,2.917293048430242512e-03,4.021622395466160557e-03,1.601619443173987398e-03,5.223230123519897461e-01
4.914753466843005958e-01,4.962787091053322275e-01,-3.167886167067091030e-02,1.737996089900616797e-03,-2.606106410671909634e-03,-2.766401653024524792e-04,5.256005525588989258e-01
4.882648371642371865e-01,4.966672546217190676e-01,-3.658075724845383236e-02,3.289238112178499013e-03,-1.738654007196977294e-04,1.610412811921490411e-03,5.291349291801452637e-01
4.926696367012008415e-01,4.963376090615267411e-01,-3.595296711899043096e-02,1.905573062802519944e-03,2.127109993154968279e-03,1.736363114809043719e-04,5.304892659187316895e-01
5.508593858577446323e-01,3.253244522338415434e-01,-5.708117410393837021e-02,-2.227518578706307317e-01,-5.351146614679777591e-02,-3.808059118556977873e-02,6.671895384788513184e-01
4.952222887299293497e-01,4.976295370783146987e-01,-3.158268629958421725e-02,1.331535326145696398e-03,2.272205310228349318e-03,2.103878800736299625e-05,5.280324220657348633e-01
4.780461699200796444e-01,4.963043454197810789e-01,-3.770084686555102982e-02,4.220641946407888818e-04,6.023521181451946781e-03,8.257162471499582615e-03,5.254130363464355469e-01
4.810083877152798726e-01,4.856885298950455176e-01,-3.785816823201004766e-02,-2.361856083965254739e-03,5.141837044992689926e-03,7.575960535078825504e-03,5.214796662330627441e-01
2.895832682535591229e-01,7.016964337944359142e-01,-8.696330175711752819e-03,-8.584177576487664330e-02,7.144223777631282524e-02,7.191107798675054619e-02,6.592912673950195312e-01
4.741646183482710608e-01,4.924272280948330804e-01,-4.081455541614797955e-02,-3.002123728737024055e-03,4.447387671031185173e-03,6.810679271619884609e-03,5.245640873908996582e-01
4.948556663912551112e-01,4.958066301324344227e-01,-2.925949108187542169e-02,2.922816834327568889e-05,-4.446083884196079289e-04,1.494020266018407156e-03,5.245982408523559570e-01
4.821463022590494196e-01,4.899381156919074831e-01,-4.270285798590428561e-02,5.551629612784331099e-05,1.151512422557975524e-03,2.225659344677356592e-03,5.288059711456298828e-01
4.836891605839272468e-01,4.931143091250700938e-01,-4.271792868116375264e-02,2.448271251789142615e-03,2.081954639990361931e-03,3.277766208632538428e-03,5.312418937683105469e-01
4.296443231608729763e-01,5.148166164331898775e-01,1.252890846836829386e-03,2.659078184994148261e-02,2.792877575227627890e-02,-7.475705354506032626e-04,4.813767373561859131e-01
5.273816037264038581e-01,5.228544409096462786e-01,3.920565831818373370e-02,2.306018773977033462e-02,-2.470710493027146112e-02,1.199591917808369304e-03,4.894457757472991943e-01
4.806500835893123824e-01,4.707396598672540233e-01,-1.966971725779137481e-02,4.133160172292230268e-03,-4.914433669626629489e-03,1.294796521412947942e-03,4.955688416957855225e-01
5.174934844145288038e-01,4.882408696016061755e-01,4.635558235399628302e-03,5.496518138277881743e-02,-2.199649178053642712e-02,-2.338134365885550722e-02,5.109125375747680664e-01
5.225891748989350827e-01,4.884006562688628650e-01,3.275556901820325661e-02,2.780541644975850421e-02,-1.997758464344474849e-02,-2.980301789506290943e-03,4.773913621902465820e-01
5.003124103496310315e-01,4.203399404784526339e-01,-2.672531065575195486e-02,-3.410528752157182368e-03,-1.302072221813943553e-02,1.965206301308760218e-04,4.925032854080200195e-01
4.853749419594740599e-01,4.878961772285220766e-01,1.029771630484903056e-01,3.694493263165068812e-03,-7.578654184564471118e-03,-3.791835049078381460e-03,3.839986026287078857e-01
4.780977879987463597e-01,5.003975976309380513e-01,-3.060062298002474979e-02,-2.570444751501387991e-04,-5.677663530509981975e-04,-3.679981447997231463e-03,5.202471017837524414e-01
5.016837083222488447e-01,5.160148631709788880e-01,3.154121199678450171e-03,5.878561429759000118e-02,3.535500239662269645e-02,-6.192087801107171684e-03,5.197247862815856934e-01
4.728689877776632855e-01,4.857487970318559722e-01,-2.228914289135058846e-02,2.743506495268365972e-03,9.478382490636673690e-04,7.682039838254401537e-03,5.019236207008361816e-01
5.165123293478693922e-01,4.182814717798633564e-01,-2.156689223732100036e-02,6.845681043274268879e-03,6.872795070184860647e-03,-7.852857484415770931e-03,4.967795014381408691e-01
5.215885389668672989e-01,4.752975241767876113e-01,3.713237324625989766e-02,1.467354106568363563e-02,-1.407491822491032177e-02,-4.460549262181670756e-03,4.644508659839630127e-01
5.462007789226257515e-01,3.715310476363669623e-01,-2.412175697341212288e-02,4.452069614152294463e-02,2.605966825240598958e-02,-2.160891826129071949e-02,5.153092741966247559e-01
3.909626402309427928e-01,4.755204847338095897e-01,4.168740502154710814e-03,-1.211640901769693753e-02,-1.917292265937011039e-03,-5.818262312313860797e-03,4.359117150306701660e-01
4.398682735281082001e-01,5.105010186794807225e-01,-2.292917172661368408e-02,-4.963629895348809634e-03,-4.986119829678667577e-04,1.747636113816279646e-02,5.028419494628906250e-01
5.388599205869342157e-01,3.083819302044564226e-01,3.002605068572139491e-03,4.629803161459121290e-03,4.294962534222306408e-03,-2.387663905405822302e-03,4.657215774059295654e-01
4.872128489862159739e-01,4.903359003602334454e-01,-3.085267850579764826e-02,9.372775653941047220e-04,2.878156834526990251e-03,-3.835371470658967708e-03,5.197029709815979004e-01
5.389529681043856435e-01,3.375813284577232065e-01,-1.699208060996659775e-03,2.451965116122786434e-02,6.701538487596582841e-03,-1.816309561201672612e-02,4.763521552085876465e-01
3.433395739029509453e-01,5.286017808755572034e-01,-6.502631016294058153e-03,-8.333337339003633881e-03,-3.956267570870081532e-04,3.024195902975209283e-03,4.709144532680511475e-01
4.944354000185888776e-01,4.929041083338233653e-01,4.140233001117765710e-03,-1.781792997885397719e-03,3.919068172081514347e-03,-5.485243518029917463e-03,4.896802902221679688e-01
4.562185298937028177e-01,4.545077667704084945e-01,-3.345931706572380371e-03,1.552360276219678231e-02,6.652966800176270470e-03,-9.394641277925852053e-04,4.596461653709411621e-01
4.990103588657457401e-01,4.932088961423118367e-01,-2.355390399967483006e-02,3.482343305993576554e-03,3.938324910856076319e-03,3.415263013625117940e-03,5.198012590408325195e-01
4.966462954679199404e-01,4.908523149430049082e-01,-2.568005488724361962e-02,-1.872052203445763192e-03,1.818863725688937534e-03,3.222622732860769539e-04,5.194735527038574219e-01
4.589027883991155798e-01,4.630628790122486294e-01,-1.484870502895735411e-02,6.352917087488552453e-03,-3.727171301001739202e-03,3.119581297682398873e-03,4.760468304157257080e-01
4.821637315586210226e-01,4.862202644167223919e-01,-2.889992296546783912e-02,2.046344865149262414e-03,2.227043415223046053e-04,-2.978646306052021991e-03,5.131422877311706543e-01
5.426207220902905526e-01,3.685188056366078824e-01,-1.583453323820877001e-02,1.414157468095242863e-02,1.435784304076486405e-02,-7.655632597293317125e-03,4.963364303112030029e-01
5.163488521895198691e-01,3.818274275428270581e-01,-3.006068841626130528e-04,3.446168798872815964e-02,1.249556891389322008e-02,-1.044327252868779490e-02,4.689143598079681396e-01
4.928019460965207266e-01,4.871162606618579249e-01,-2.973933089456209933e-02,-7.654408579461342106e-04,1.634074101037343539e-04,-2.056669732080722551e-03,5.197357535362243652e-01
5.325991609465995369e-01,3.525792892809072598e-01,-2.019389280958516775e-03,2.778920602120094757e-02,3.601906088244542954e-03,-1.322239462362002037e-02,4.741964936256408691e-01
4.926205772147383422e-01,4.845505876521736255e-01,-3.237185889239424519e-02,-1.417162439280015814e-03,1.376758242596383798e-03,-2.533522751600753172e-04,5.210157632827758789e-01
5.143235442246992806e-01,6.106391278371239295e-01,-2.003947355467555758e-02,2.292081620003448561e-01,6.215264232349759083e-02,-7.557138695735833231e-03,7.180928587913513184e-01
3.595132171012148659e-01,4.960461732674905644e-01,-5.213163273470322601e-03,5.671995632481834776e-02,1.270190039568704684e-03,1.045190332129841866e-02,4.598345160484313965e-01
4.542085262817731617e-01,4.692601443022075269e-01,-6.924482329280778892e-03,9.377489012179896985e-03,1.694477829831219588e-03,-7.743672772017182009e-03,4.693222045898437500e-01
2.589419036906722704e-01,5.555366542749777814e-01,-1.061641026293125289e-02,1.223295362492307498e-01,-7.407131753557973097e-02,2.790244107962560477e-02,5.516054630279541016e-01
2.657249928385510551e-01,6.277349067386680526e-01,-9.178404161350894874e-02,1.662830126797296970e-01,4.942933838044752393e-02,3.385116058040146120e-02,6.942645907402038574e-01
4.897843224775734194e-01,4.852529085414896137e-01,-3.330711030977034914e-02,6.631179538062741564e-04,4.425421854154446954e-04,7.598350781601612175e-08,5.208423137664794922e-01
3.114465596792547752e-01,5.295584232071286479e-01,-2.869675019076567413e-02,1.849303596655527127e-01,6.767259888695025417e-04,1.782077287508664065e-02,5.839617848396301270e-01
4.129181498999829891e-01,4.919745067704318076e-01,-8.194471277088055672e-03,9.789628969961458246e-03,1.638705393824808117e-03,-8.708874912264800289e-03,4.662622511386871338e-01
4.407639389103328309e-01,6.179150866092770755e-01,-1.063099418231436277e-01,2.754286928923699307e-01,-1.335712149663936810e-02,2.519951007317682706e-02,8.109317421913146973e-01
4.092576792050598433e-01,5.578542883596313562e-01,-1.741666923598850225e-02,1.089426313159710114e-01,3.787970646476711886e-03,1.584162884888529882e-02,5.513036847114562988e-01
3.230733476003990190e-01,5.714483586663975379e-01,-1.203145189946380755e-02,4.608477475384943622e-02,-3.154746263786656346e-02,2.035905559711378553e-03,5.163202881813049316e-01
3.289965537568223519e-01,5.477953929795840171e-01,-1.333481446449946706e-02,4.954993484624072714e-02,-2.434572324764089704e-02,2.321159162958963060e-02,5.007249712944030762e-01
4.629149768322058378e-01,4.849437987255463822e-01,-2.167706461153101616e-02,-2.582791314078888845e-03,-2.870412820614429410e-03,7.741928709433989336e-03,4.961998164653778076e-01
4.452903528606476646e-01,5.221602722048566125e-01,-2.791483891048063271e-02,-1.436432266981849028e-03,1.382792996220662610e-02,-1.070439970323132893e-03,5.165178179740905762e-01
4.150339876668684980e-01,4.556962132581997005e-01,-1.558500905276100079e-02,-3.647693080332971294e-02,-2.340199214102910846e-02,-2.184545981507045667e-02,4.600678086280822754e-01
3.707778516182448358e-01,5.198199712526028193e-01,-2.339941540872542136e-02,-2.802338336257033380e-02,1.978855171774762667e-02,1.291796900293020606e-02,4.902750253677368164e-01
4.567590875076249501e-01,5.082693245428269169e-01,-3.167705799522241294e-02,1.202947346352442170e-03,4.126579569860075046e-04,6.611435666629869937e-03,5.162544250488281250e-01
4.354700893839351106e-01,5.782242166512916448e-01,-4.321038771674007295e-02,-1.134348279949567474e-02,2.352912375232777548e-02,1.373528733764571574e-02,5.660920739173889160e-01
4.519398937532284055e-01,4.291896794719912145e-01,-1.419923650319276920e-02,-1.832226074798990953e-02,1.600841618015443404e-02,8.299357437989901554e-03,4.573631584644317627e-01
4.794463900226566544e-01,5.126182937074263979e-01,-2.479630049139680548e-02,8.889454947016643682e-03,5.347106347052269643e-03,7.797388292813878762e-03,5.221043825149536133e-01
4.813531284017377176e-01,4.654971730320848211e-01,-2.138003740106225736e-02,6.492925864347709811e-03,-7.217110392272430355e-03,2.657780239846664009e-04,4.952814280986785889e-01
4.550321501580165684e-01,5.150899790083445229e-01,-3.171093159413168605e-02,-3.428725864933731063e-03,-4.084920760153560020e-04,2.259419359660606343e-03,5.194320082664489746e-01
3.771283268621404838e-01,5.190113189454654830e-01,-2.302184974791365857e-02,-2.681475522094313533e-03,2.686579118111375938e-02,1.273251401942508340e-02,4.895903170108795166e-01
4.995947409265834027e-01,4.747805660550983298e-01,-3.404624992453114674e-02,-3.496233948080825285e-03,9.202233547685005621e-03,9.807262675965038035e-03,5.222315788269042969e-01
4.966922760837380602e-01,4.497548532506743246e-01,-3.577600782462020401e-02,-9.584194179866591112e-03,1.320192835380752661e-02,8.367910061968327276e-03,5.116066932678222656e-01
4.996628290321261101e-01,4.671792502660466750e-01,-3.515493571810585083e-02,1.078204647450094547e-03,1.172470858740218280e-02,4.025214973555376989e-04,5.197391510009765625e-01
4.988883787108253642e-01,4.838038398066865642e-01,-3.475233027279212017e-02,2.091271244929886284e-03,1.377678807617061137e-02,1.305062240303314983e-02,5.272985100746154785e-01
4.224516038978542443e-01,4.831127699842258649e-01,-6.166209294955482534e-04,-6.934177989888152920e-03,6.018731771989761434e-04,1.804303485787430578e-02,4.576596021652221680e-01
4.984930105656056876e-01,4.833781941041533359e-01,-1.765886519966047841e-02,3.619083870922322477e-02,-1.375116649794466857e-02,1.828100978775020488e-03,5.131728053092956543e-01
5.043244431864644106e-01,4.265455129517344846e-01,-2.746221298125284260e-02,-9.385576468397683128e-03,9.924907167464780064e-03,-2.646629624114310206e-04,4.980409741401672363e-01
5.182348556949547547e-01,4.451231238545931834e-01,-5.318890437855822162e-02,-2.058447407385475061e-02,2.657377881051490795e-02,3.612642277485904330e-02,5.453417897224426270e-01
4.933389716218938847e-01,4.032777292963312110e-01,-1.928602133817614028e-02,-1.193293791207542670e-02,1.911313696903640946e-02,1.444316198282193965e-02,4.763157665729522705e-01
4.883298471638869431e-01,4.923495584569657080e-01,5.307232878955420174e-02,7.526074913794061905e-03,3.894346130270463606e-03,4.963327093786130788e-03,4.376119375228881836e-01
4.516312998292008052e-01,5.006205946537801710e-01,-3.114336817020152415e-02,-1.210137471587796262e-02,3.535016366661636322e-02,2.964252168590895270e-02,5.156999230384826660e-01
4.871130018849327836e-01,4.903559673902597726e-01,-2.853289386978319353e-02,-7.976603526737354757e-07,-4.332348050297363251e-03,1.734679818150037340e-03,5.173381567001342773e-01
5.147712860140314373e-01,3.523555913289990738e-01,-8.912315693430927777e-03,-1.435138208241420327e-02,-1.125419744608191844e-02,-1.154899278998683734e-02,4.657970964908599854e-01
4.935865686614483994e-01,4.928013388589333466e-01,-1.034774419127892919e-02,-1.378228729940540092e-03,2.385856872202728445e-03,-1.571501953719857533e-03,5.035721063613891602e-01
4.879770140851031890e-01,4.893407215556883072e-01,-3.176265987031956506e-02,6.783982247258058679e-04,-5.036796163219151370e-03,2.727391331568177878e-03,5.205187201499938965e-01
4.519226977647520238e-01,4.593650625747127680e-01,-3.033843955863035902e-03,1.834351361386430540e-02,-7.051354995171336959e-03,6.499919012622300610e-03,4.601218998432159424e-01
4.442301353907341932e-01,4.611629183375052232e-01,-5.488338162925709973e-03,9.904416741298769852e-03,-2.559877098920834964e-03,3.734398852216141290e-03,4.588073790073394775e-01
4.399478924380821332e-01,4.615246137880811839e-01,-7.016738425407176294e-04,9.700957857127101569e-03,-5.219370239275729090e-04,2.486113287574507474e-03,4.521582126617431641e-01
4.201609128275403116e-01,5.263784670477209549e-01,-2.552352317080330835e-02,-4.957307697550009280e-03,-1.982220680174698443e-04,8.772612513272926710e-03,5.075047016143798828e-01
3.635274870057802477e-01,5.124604554534593071e-01,-9.386629901635967776e-04,-1.440632229511154896e-02,7.080808605965690887e-04,1.519847215286200537e-02,4.589278101921081543e-01
4.491829311674236935e-01,4.546607284246160230e-01,9.249516927395395882e-04,1.865838924180865388e-03,1.166706297405400864e-03,1.010966397214854619e-03,4.510413408279418945e-01
4.283807896299477447e-01,5.219317285552902419e-01,-3.041908361169098907e-02,2.676855946202759060e-02,2.265018791711783525e-02,2.431749710796305254e-04,5.156153440475463867e-01
4.811413746785531131e-01,4.817565819281519612e-01,-2.556278635919345676e-02,2.089171522632695278e-03,-3.504396669193149579e-03,3.840070734464270334e-03,5.071049332618713379e-01
4.855882241487188278e-01,4.913498994837890432e-01,-3.339638461310057149e-02,-1.285388966900506648e-03,-1.131852434909277243e-03,2.712772831061784724e-04,5.218979716300964355e-01
4.857238843726451316e-01,4.905614306170643646e-01,-3.343237419261535504e-02,-8.426572415494598157e-04,-1.316318793347060270e-03,4.226041049752776377e-04,5.215994119644165039e-01
4.383688702989211872e-01,5.137802724510367458e-01,-2.407667102385324664e-02,2.101130286172084825e-03,-3.218319515487284670e-03,-4.248328797578047010e-03,5.044946670532226562e-01
4.851987321561495037e-01,4.931356122784856799e-01,-5.876460963365692791e-03,3.115965423448175233e-04,-6.862493346634274127e-03,-4.331928051108863316e-03,4.952911436557769775e-01
2.958076231336591588e-01,5.465834202301488309e-01,6.435500171929453561e-03,-9.999034510142612575e-03,1.131332183697967295e-03,3.368060032751666807e-03,4.685403406620025635e-01
4.821721094168425203e-01,4.885804145801043719e-01,-3.198862692077497627e-02,1.704957676258145972e-05,-1.191393334047505161e-03,1.160138366492384845e-03,5.174026489257812500e-01
4.518375912594340127e-01,4.740709831569621668e-01,-1.088353423738480652e-02,2.580127111550414073e-03,-1.211849687130994550e-03,5.832082088589526057e-03,4.743621349334716797e-01
4.846340859446049976e-01,4.908075597454342742e-01,-3.352281924066663477e-02,1.081169491862245664e-04,-3.928587890379619195e-04,-1.101188664992858854e-08,5.212715268135070801e-01
4.935179668115803331e-01,4.931137645669006475e-01,4.428585973542675802e-05,4.933335840783138922e-03,-9.884255010387015677e-03,2.440971516458706209e-03,4.936607778072357178e-01
4.856697293496588519e-01,4.904268178642101628e-01,-3.388918471486368489e-02,-3.388052567617800973e-04,-5.952776522274572232e-04,4.260036821832850068e-04,5.219556093215942383e-01
5.202914961071054556e-01,5.504805928211091715e-01,6.235630223685301177e-02,8.587147017245827865e-03,-4.217380623555750177e-03,-9.475850468288993592e-03,4.743254482746124268e-01
4.947230953069663983e-01,4.994791426245238641e-01,9.356256097950121919e-02,6.945039670247766216e-04,-2.132799588540418550e-03,2.937714640385792695e-03,4.036103487014770508e-01
7.054948500444988557e-01,7.446054763416461997e-01,1.141055227458109833e-01,9.034769773014776628e-02,-6.034097956624822484e-02,3.141048274582739636e-02,6.424731016159057617e-01
4.311879489828868706e-01,5.628587282313324280e-01,6.841406681781797561e-02,2.753776030390351140e-02,-9.907751497074303304e-02,-3.119152970084586307e-02,4.809902012348175049e-01
5.952117729604630147e-01,5.725885408905617702e-01,8.233027128472758527e-02,6.742092061624828381e-02,-7.478526396793259978e-02,-2.751158608065347108e-02,5.335186123847961426e-01
5.177182492505923994e-01,5.322507089435222216e-01,9.778922785020571773e-02,1.358149022317087923e-02,-8.258077003354553566e-03,-1.894274909585950267e-02,4.295213818550109863e-01
4.966507143876539576e-01,4.855309599289061584e-01,1.103031549826357094e-01,-1.832278620532755767e-02,3.260078615693596821e-03,-8.925780633162953837e-03,3.825834095478057861e-01
5.330197484275200903e-01,3.264100583239446518e-01,-2.408335626425411879e-02,-2.222051930825009736e-01,-3.381089623429860136e-02,-7.668867932521787611e-02,6.380807161331176758e-01
4.946802649316386358e-01,5.582072837885314609e-01,8.036590985445568602e-02,1.696973731587064077e-02,-9.697899644000015917e-03,5.793878361580006957e-03,4.508425295352935791e-01
4.956128309057081238e-01,4.880506579751050511e-01,-2.423725682498251155e-02,1.021580932970516775e-04,-1.599473355682541381e-04,-4.212919646226718703e-03,5.161622166633605957e-01
5.220840879900403575e-01,5.204710542891688441e-01,7.780059193794641725e-02,-6.172175692304988220e-02,-7.796422698255260630e-02,-1.100645378125965357e-01,5.125235319137573242e-01
5.198634030789326399e-01,3.595600924086639338e-01,-8.697943327474311204e-03,-4.164565612755279783e-02,-8.992128244072205429e-03,-1.143612933465257102e-02,4.755860865116119385e-01
5.022520361052887905e-01,4.937777101428542093e-01,2.082986510041617834e-02,-6.122774364399974356e-02,-5.228224469435802102e-02,-3.552454749818898666e-02,5.009912252426147461e-01
5.780517549075406825e-01,4.108469044107578849e-01,-4.900167110160441597e-02,-4.571202115772017571e-02,-1.254736460257731279e-02,-5.601634881538186672e-02,5.765948891639709473e-01
5.344780685252272789e-01,4.317397489574822389e-01,-2.081343538141433580e-02,1.111921556225396734e-02,7.643228791448055705e-03,-2.713992855855943895e-02,5.144025683403015137e-01
5.313186812564518746e-01,4.570387605172705481e-01,3.712153860128059035e-02,1.852799701674906138e-03,-1.774231465383556416e-02,-1.817668986299440792e-02,4.636650085449218750e-01
5.015863085634684193e-01,3.647735075456961518e-01,3.535401646043023760e-02,-1.403080413529419201e-01,-4.888666868021618317e-02,-1.015901377715802967e-01,5.191282629966735840e-01
4.943028052306117637e-01,4.951561883520287366e-01,-2.425900491522103852e-02,3.753885852397348660e-04,-4.566759500406181865e-03,-1.216206753074180981e-03,5.190539956092834473e-01
4.912632937878646522e-01,4.982298428624729603e-01,-3.524176893688635293e-02,1.749112602883280069e-04,-1.175301239402175508e-03,-1.173313439783113348e-04,5.300267338752746582e-01
4.942754625149865522e-01,4.967349831845510044e-01,-3.480627573000172337e-02,2.363945727212325135e-05,9.029153474300018797e-04,-7.151967119215585714e-04,5.303195118904113770e-01
4.947409985057554804e-01,4.841112282452437743e-01,-3.227941682270768498e-02,-5.322063072823751293e-04,1.531588731020143033e-03,-9.806904446943636529e-05,5.217943191528320312e-01
4.945487082305627946e-01,4.787438822527554927e-01,-3.639711262652634005e-02,-5.035707615136814910e-04,-6.747453462199016301e-04,-2.447846081229628108e-03,5.232416987419128418e-01
4.401459588208955775e-01,4.538254085595400666e-01,-3.757364722339284757e-03,-1.707369815822502466e-03,1.607561299408023520e-03,6.546349245988378023e-03,4.510595202445983887e-01
4.863660312783459894e-01,4.840144148679217939e-01,-4.305187771945628850e-02,3.517747897894169277e-04,3.372316993304963657e-03,2.136477753991619048e-03,5.282916426658630371e-01
4.851099206096493033e-01,4.999415060581915426e-01,-3.467636077435626296e-02,-7.167987515882555437e-04,6.617346378844587290e-03,-1.660419733026937978e-03,5.274923443794250488e-01
4.742782083145808958e-01,4.802083086927775302e-01,-2.416147095105047882e-02,5.356495081023919958e-04,-3.565644361758619346e-03,2.234310643939285777e-03,5.014848709106445312e-01
4.808978367197798698e-01,4.853192058475773729e-01,-3.147576989080552723e-02,2.759050136209026133e-03,-2.271042852219785652e-03,1.764753187467825966e-03,5.146448612213134766e-01
5.437167456367610896e-01,3.527812863921231945e-01,-7.316375484139214791e-03,-3.528254535808805076e-03,6.909662251490726256e-03,1.232347686563010393e-03,4.848373234272003174e-01
4.821480178752491907e-01,4.852304887127539268e-01,-3.242048474176778550e-02,2.484349996201665276e-03,-2.862133306961210568e-03,1.506576840232570508e-03,5.161649584770202637e-01
4.758284160815370867e-01,4.856498183979761074e-01,-2.917188225954048253e-02,2.408678479001236279e-03,-4.928124377598042333e-04,2.742938764462108086e-03,5.100218653678894043e-01
4.152880275266335186e-01,4.496138226344847943e-01,5.092604038498760310e-03,-6.764351233349327752e-03,3.766186381705439751e-04,1.370086698797552769e-03,4.285582304000854492e-01
4.574169800652725382e-01,4.528627301085295098e-01,2.216749179194621444e-03,1.620000986822980882e-02,4.361353914937567654e-03,-1.031244802560415431e-03,4.538749456405639648e-01
4.226462335708758289e-01,4.760421149471031343e-01,-6.892211158517180802e-03,-4.123042891748476650e-03,2.726847159460608905e-03,1.183764015497350622e-02,4.591118395328521729e-01
4.241202656345752775e-01,4.155542585690296109e-01,5.528403106310642023e-03,-3.284999407255611431e-02,2.204260769660059630e-03,1.300104553548470142e-03,4.182868301868438721e-01
4.415852554002074326e-01,4.509923353728046980e-01,3.318739105915846643e-04,1.140543514886766321e-02,1.272115929529637384e-03,6.955417893660216988e-04,4.464756548404693604e-01
4.430160951749513853e-01,4.527767636322629352e-01,-9.812090467853362696e-04,1.318166517834284956e-02,4.157825532708184940e-04,-9.836782447993235902e-04,4.495411813259124756e-01
4.570359802844626840e-01,4.564338193583066250e-01,-5.035946588526962753e-03,2.169678207404143744e-03,3.167072723173541826e-03,-2.568166055067192758e-03,4.618404209613800049e-01
4.672755982340984771e-01,4.847385003664635428e-01,-3.676588377874723257e-02,-7.148183212442202296e-04,-9.325663807285166544e-04,-8.708867340774520058e-03,5.132216811180114746e-01
5.060913158608399964e-01,4.936979592502357406e-01,-3.563267267838293728e-02,4.730449832684921301e-03,1.165600956436848917e-03,2.816875936411796996e-03,5.357235074043273926e-01
4.985977931426003318e-01,4.938841162120388706e-01,-3.533501698264440716e-02,4.594268210202910076e-03,2.447621600331642555e-03,2.953615150263559121e-03,5.316927433013916016e-01
5.460991651102885536e-01,6.115934286971046463e-01,-3.491098023801952888e-02,2.662607040303177075e-01,-1.675464729112129125e-02,3.431610484070193867e-02,7.726411223411560059e-01
4.538108447524750177e-01,4.542481270758889078e-01,-2.075979428201618626e-02,1.951159022730067712e-06,-2.923169494340454189e-03,-2.011257354248723473e-03,4.748291969299316406e-01
4.992349701940421158e-01,4.893879147153428200e-01,-3.868414375628043134e-02,3.376819518526336539e-03,5.370016949940412815e-03,8.083844344411070595e-03,5.333608388900756836e-01
4.374232250263752064e-01,5.153852131587405294e-01,-2.810877476588458102e-02,2.704449743028380405e-03,-1.770755323623374872e-02,7.892941881291498651e-03,5.101386308670043945e-01
5.243152337306932198e-01,3.315517169008937448e-01,2.652877333927217141e-03,-1.936631981465311222e-02,1.622118840629011363e-02,1.232139866382524727e-02,4.594582915306091309e-01
4.449706878112806852e-01,4.375338480480092107e-01,-9.038279730395115674e-03,-6.712535662069019776e-03,-7.286394471632750072e-03,-2.704741471147807056e-03,4.506877660751342773e-01
4.956536380305293088e-01,4.940547936347486901e-01,-2.702605304335958802e-02,3.215483736597367619e-03,9.108420603656011130e-04,-3.964143698337548212e-03,5.219593644142150879e-01
4.959307974730203794e-01,4.725071586216257336e-01,-2.280669565731568982e-02,-8.742347982545953375e-04,5.937726778926626266e-03,1.247893937701411229e-02,5.079978108406066895e-01
4.962607567419519694e-01,4.982661369401105711e-01,2.408810665957716868e-02,4.981132447731634848e-03,-1.063071167442923397e-02,5.590764816318680858e-03,4.737142026424407959e-01
3.505519197167352718e-01,5.506455020054175087e-01,-5.408431825995596576e-03,-9.641075169212470894e-04,-4.542986712494348836e-03,6.377275338825109420e-03,4.880136251449584961e-01
4.888128458681780808e-01,4.926760118035272140e-01,4.725151904350272103e-02,6.314907020485428270e-03,3.548482091871409724e-03,-1.291404257085965526e-02,4.442464113235473633e-01
3.240479347151983269e-01,5.680226320673213980e-01,-2.088738661608535718e-02,9.096203924703584465e-02,1.985307489816261206e-02,1.217318113944788893e-02,5.376883745193481445e-01
5.281160969894006518e-01,3.565359255526964755e-01,-5.411359337348276011e-02,-2.328793343938612703e-01,-1.916806721176997352e-02,-2.287848358946709126e-02,6.587131023406982422e-01
4.933497498511372203e-01,4.941919476856023730e-01,-2.956264356979376728e-03,5.680929930698054575e-03,2.481837528789326754e-03,-6.438647053312676789e-03,4.969688355922698975e-01
4.987406089938649645e-01,4.941545668328184426e-01,1.819012530859087651e-03,4.806791935106764085e-03,-2.071986284591559573e-03,-5.757995598119768250e-03,4.948281049728393555e-01
5.066499884104390672e-01,5.039980022169237017e-01,-2.889882048736658327e-02,-3.356666061007101964e-02,1.719010976756239067e-02,3.386664414671886059e-02,5.413933992385864258e-01
4.987898618099554371e-01,4.987050321772039108e-01,-1.865364531104035661e-02,4.572935368178401155e-03,-1.309531292920807681e-03,3.581868570651108169e-03,5.175038576126098633e-01
3.806037729209906795e-01,5.078843232874649116e-01,1.437929670188686782e-03,3.579890927011915996e-02,-1.055158739803634419e-03,7.513326335086777628e-04,4.605184495449066162e-01
4.972412113099111686e-01,5.014214007425630282e-01,8.355516819509767323e-02,9.528726413520276564e-03,-6.962366630396366399e-03,-1.146107875669096290e-02,4.167670607566833496e-01
6.285634490244118577e-01,2.302981563736530846e-01,5.216649457778499421e-03,2.449216297087062483e-02,-2.990946534661290124e-02,-2.843701524808732103e-02,5.530175566673278809e-01
4.745878339433411419e-01,4.460970314963554895e-01,-8.716979892610443592e-03,2.480059046844284697e-03,5.930632324996661445e-03,-1.064232767857080679e-03,4.698434770107269287e-01
4.905314614286585551e-01,4.636515143546013351e-01,-2.648301899066268783e-02,3.562294454138419282e-03,6.343612615605681224e-03,-5.884251914043710577e-03,5.043727159500122070e-01
5.361716535372815784e-01,2.277928935202128691e-01,9.281250795112772067e-03,-1.259928534141398770e-01,-1.132337391402917469e-02,-5.031754345296746145e-02,5.155889391899108887e-01
5.183393817596386732e-01,4.931571531921817853e-01,-7.182060446148330612e-03,8.745719306847673027e-03,3.164986001468007631e-04,-8.275187425716019549e-03,5.138174295425415039e-01
5.032260442161654579e-01,4.424082478902311433e-01,-4.632496954785764176e-02,5.042820373195434219e-02,4.575863445241708412e-03,1.702763727791099801e-02,5.299474596977233887e-01
4.499977173238800532e-01,4.573773412932511384e-01,-1.980136229317441821e-02,-8.112190442231010518e-03,1.410529692713636011e-03,7.860070513353802427e-03,4.739423096179962158e-01
4.627731564429437006e-01,4.639246614383067402e-01,-8.941290414466451786e-03,3.613269134474179304e-03,1.508744267493408947e-03,6.203538457527880360e-04,4.723411798477172852e-01
5.863620247765453097e-01,4.617476550132131319e-01,5.689815503197104274e-02,3.128013970656056547e-02,7.552834890525154075e-03,-8.882917221982323738e-03,4.829338788986206055e-01
4.369215213910049855e-01,4.701552412242824275e-01,-1.169119395141637874e-03,6.751630439760286997e-03,-9.257532083213937434e-04,2.982755132809775458e-03,4.557996094226837158e-01
5.429276298970151515e-01,4.694394674852002125e-01,-1.271820049588828772e-02,-1.677436016762596030e-02,1.891462700424552737e-02,2.263102150031520016e-02,5.260829925537109375e-01
5.802513505922255455e-01,5.381423876905115922e-01,6.633736202247197955e-02,3.059681824236719361e-02,7.691545658013920414e-03,4.398262585482331892e-03,4.972769618034362793e-01
4.954867262082166546e-01,4.827609890144681781e-01,3.198900226166323524e-02,-8.099107702973428954e-03,-6.554425294976753101e-03,-9.028772892270866797e-04,4.576263129711151123e-01
5.258006014531517724e-01,4.599665924293837582e-01,3.944846604207352669e-02,2.275438854034293051e-02,-1.899280825688992591e-02,-1.283168994266170940e-02,4.604165852069854736e-01
4.154167499144248987e-01,5.143934924994906233e-01,-2.352619186030308063e-02,8.947078504678704011e-03,1.745694985648388667e-02,-1.045110998481738225e-02,4.973876774311065674e-01
4.215597412264348587e-01,4.856697092618096345e-01,-5.221446288690478887e-03,5.680478841643092636e-02,4.965039375640293261e-03,-2.467505383569856131e-02,4.745461940765380859e-01
4.162366160878289700e-01,4.919274054283191422e-01,-1.567102678687171124e-02,2.347368759964055598e-02,7.506379580859201539e-03,-1.100098228175006194e-02,4.766024351119995117e-01
4.527508784928855889e-01,4.924773848008430210e-01,-1.487462658001681426e-02,1.945902613001352158e-02,9.722626887934500070e-03,-8.057961363510503586e-03,4.903501570224761963e-01
4.972403651076064413e-01,4.985310151544659618e-01,-7.159377564949442885e-03,1.412756879269709163e-03,-1.394715835218396024e-02,2.235966870266836715e-03,5.056444406509399414e-01
5.143303777280248124e-01,3.910617814325405561e-01,-2.492173835272709637e-02,5.861445285808667555e-02,1.068460398542317967e-02,-2.229299161587260450e-02,5.016527771949768066e-01
3.932492730628431854e-01,5.146291259838549070e-01,-1.713456958536457853e-02,5.137371748021309992e-04,2.637264669446980764e-02,-8.952900581573682189e-04,4.848195910453796387e-01
5.806367506810973245e-01,4.785660635081062653e-01,7.996388824581263099e-02,6.288423395726499762e-03,-4.794394503514901734e-02,-5.311569942724881505e-02,4.748326539993286133e-01
3.815024576697695902e-01,4.769138480543376191e-01,1.072260409952952021e-02,-1.301373270017146949e-02,-8.883657954384573531e-05,3.677561027667496964e-03,4.272075891494750977e-01
5.105280125794764423e-01,3.804270725843251211e-01,-2.748310652422425449e-03,-1.061987501584931229e-02,1.419884062243226969e-02,1.793780433057624076e-03,4.631996750831604004e-01
4.656879116879822922e-01,5.138297266869276125e-01,-3.152679125399676652e-02,2.602297796106861974e-02,1.741496664516629239e-02,-1.246956487292667261e-02,5.261984467506408691e-01
4.958884027247916215e-01,4.979953760326816803e-01,-2.652892242453230853e-02,1.710877908531906145e-03,-3.052989268908261854e-03,-3.500772237378382769e-04,5.235094428062438965e-01
4.960535830652454958e-01,4.981799009631598940e-01,-3.274232227202950041e-02,4.172803055421531182e-03,5.687106697313413541e-03,4.301589958254362772e-03,5.300554633140563965e-01
4.900826526845286635e-01,4.971031426893718908e-01,-3.386378691321600964e-02,1.204107315600175384e-03,7.647815208471987584e-03,5.319662696881868359e-03,5.277425646781921387e-01
4.958889458475027046e-01,4.954098354614697719e-01,-2.730128078951049586e-02,2.725109059005040302e-03,-3.533293809296103507e-03,8.238590981574996260e-04,5.230098962783813477e-01
4.869527734732799207e-01,4.861004315989310154e-01,-4.334293204073230710e-02,2.221875195892366889e-03,3.306371120338651159e-03,3.027967814115953803e-03,5.299409031867980957e-01
4.323969924935029407e-01,4.365531841261671153e-01,3.281915649240574329e-03,-3.486751854752827718e-03,-7.651083583242071322e-04,-2.781631069477655954e-03,4.312794208526611328e-01
4.753993003887405644e-01,3.701739219828329430e-01,8.744622026241599677e-03,-1.780563390830413109e-02,6.086027400561092038e-03,-8.206855760101233136e-04,4.252050220966339111e-01
1.451207178992908742e-01,5.826456327312907746e-01,-2.342946960897265840e-02,-1.526747055219330462e-01,2.108930990001764080e-02,1.332827500509775089e-02,6.044650673866271973e-01
4.782559934646277711e-01,4.688386100040421445e-01,-2.859176067907859276e-02,-1.480330171681232612e-02,-6.980530753816676162e-03,-8.176491410126001877e-03,5.032040476799011230e-01
4.439673062746619103e-01,4.472353918957839847e-01,2.639028699361223307e-03,-1.152415215595184624e-02,6.983574068951760305e-03,8.459151407579367649e-03,4.438276886940002441e-01
3.815162503281607220e-01,4.760940624139358146e-01,8.102382866844615172e-03,-1.323516213571951025e-02,-6.362054214575648499e-04,2.035954891137978923e-03,4.292303621768951416e-01
4.363998870768560634e-01,4.393541791838549426e-01,2.643527394457001467e-03,-1.291869192677945390e-03,2.595685842853729872e-03,4.268524712684325720e-03,4.353327751159667969e-01
4.532974541622036280e-01,4.513872041768145493e-01,-1.110040345279394991e-02,-1.937895063227257656e-03,5.416664943774407437e-03,3.925072641342477325e-03,4.636026322841644287e-01
4.442052647666049903e-01,4.359775015113299679e-01,-4.423678514606732559e-03,-1.102299185692854483e-02,5.799163933313348021e-03,1.109650764459913343e-03,4.450994431972503662e-01
4.960095047955346281e-01,4.830803461357988660e-01,-2.880598146892032752e-02,-4.915281146245278063e-05,4.166984076734873759e-04,9.476750798693253826e-04,5.184749364852905273e-01
5.019443587738628976e-01,4.841309348651573474e-01,-2.992403946586996710e-02,2.373666788879509430e-03,2.943518831414316736e-03,-1.818629429698126031e-03,5.232396721839904785e-01
5.461856277088772416e-01,2.987719189561576227e-01,6.615576747804108315e-03,-1.130032175698443206e-02,6.000303053392310772e-03,-5.940966616551987415e-04,4.683423042297363281e-01
4.964185641438005336e-01,4.827295520935321882e-01,-2.797871261549572663e-02,-3.164876367753480615e-04,1.051953619535665393e-03,9.099906822416116816e-04,5.176944136619567871e-01
4.609299641008917092e-01,4.744764124391436244e-01,-2.288111382428276164e-02,-3.719147017588142652e-03,5.456937918176785716e-03,1.122555502095310548e-02,4.912427663803100586e-01
2.901851299766176062e-01,5.545302689539982621e-01,-4.939892432616665996e-03,3.835111521735995455e-02,5.945120185957185333e-03,7.380249835689323482e-03,4.895649552345275879e-01
4.005487615308467308e-01,5.519809422199764004e-01,3.791237290290100370e-02,-2.235674547136997925e-01,-9.649351330367708646e-02,-1.089139686174545874e-01,6.502450704574584961e-01
4.954188549363416905e-01,4.847310954292192720e-01,-3.108259228387899586e-02,5.457986415413826884e-05,4.744867260689987986e-04,-1.102103687840046533e-03,5.212439298629760742e-01
1.704167208718029292e-01,6.138435268421656987e-01,-1.275575937146605776e-02,-6.556410411894378343e-02,-1.865305315448953158e-02,1.178144812758229014e-02,5.707532167434692383e-01
5.049126716403028459e-01,6.099597533186913445e-01,-3.645495809883875227e-02,2.540509456108854813e-01,-6.137392095755871309e-03,4.018037094594827108e-02,7.480407357215881348e-01
4.981463518003991231e-01,4.913794157406802809e-01,6.815080155577080134e-02,2.155227566744955664e-03,-3.948678331837996922e-03,1.170513749118032125e-02,4.272048175334930420e-01
4.985903876758178144e-01,4.962918279414472167e-01,4.901581608100902265e-02,5.851482320837723440e-03,-1.189085031101643625e-02,1.712296517653995277e-04,4.490169286727905273e-01
4.897393475649951533e-01,4.964345763581607951e-01,8.121018137075458609e-02,4.260594606985486539e-03,4.679006981949006792e-03,2.669550269513724840e-03,4.120893478393554688e-01
5.073517632407988920e-01,4.949230638850175001e-01,8.327286608357897801e-02,5.123755033029700305e-03,-3.508152620505233625e-03,-7.006376075066186697e-03,4.183175563812255859e-01
4.945543568753191788e-01,4.869338317172984820e-01,6.771410028090174560e-02,6.994220796018675232e-03,6.870035864717759233e-03,-9.241790764092393251e-03,4.237245619297027588e-01
4.989843747944818220e-01,4.970211523431475320e-01,1.051135100077956741e-01,5.467497401233721577e-03,-1.557912225867864875e-02,1.315414990723092533e-03,3.939388990402221680e-01
1.961977250913581605e-01,6.008361235879496887e-01,1.544809279599346219e-02,-2.524451862900474811e-02,7.101581675539471450e-02,2.069800648446279770e-02,5.365330576896667480e-01
4.905289154365496396e-01,4.965130870337500779e-01,-6.633203111601204682e-04,5.586990311589034317e-04,-8.933539589459185346e-03,3.213655185094194035e-03,4.944859445095062256e-01
4.950063172994706995e-01,4.913149613447453934e-01,1.043974958292448463e-04,-2.580630070391547615e-03,-1.664570435010407842e-02,-6.538602727553684962e-03,4.940588474273681641e-01
3.538107680043423575e-01,5.352671734672649340e-01,-2.662239797813492626e-03,1.632707107267463223e-02,9.330997683828936781e-03,6.314999123811778498e-03,4.752518236637115479e-01
3.456257562497795366e-01,5.308758258850085898e-01,1.136567366850982364e-02,9.985115958310125661e-02,-3.992186500080254635e-02,-7.672049931512167111e-03,4.927856624126434326e-01
4.818390553810745214e-01,4.967963466739985234e-01,-9.436434934420978582e-03,3.054702985931111885e-04,8.670592259171812778e-05,3.176828730781452309e-03,4.989529550075531006e-01
4.809741460177666683e-01,4.952501191518612345e-01,-2.013197272747058175e-02,-6.823947581317952021e-04,1.131645116833344998e-03,-1.300843485537373856e-03,5.084046125411987305e-01
4.737759885832746876e-01,4.539814503750722041e-01,-9.002710433453686711e-03,5.996700816156437346e-03,-4.337757868608157867e-03,7.939768944015296748e-04,4.733676612377166748e-01
4.721623133396457561e-01,5.059234399770302648e-01,-2.470440782283511716e-02,-3.458761390853250239e-03,-2.029603325751041035e-02,-1.012720454580407631e-02,5.161109566688537598e-01
4.868981410612014393e-01,4.944942492582748983e-01,1.945880566504354370e-03,5.036386263767319953e-05,5.090085228676241406e-03,4.468129027311234375e-03,4.889353513717651367e-01
4.904544163040391869e-01,4.842668175330465674e-01,-3.298123390545087963e-02,-1.291368417812784790e-03,9.149853161767117606e-04,-5.199323462493806976e-04,5.203774571418762207e-01
4.904941302600562825e-01,4.856938065019651418e-01,-3.357783060560609600e-02,-1.012600432038544048e-03,1.380520799080382473e-04,-3.392083853710733455e-04,5.216916799545288086e-01
4.903344776417338791e-01,4.856868740419734154e-01,-3.395862233513291528e-02,-7.685043766772900941e-04,3.735351915980598806e-04,-6.094699112601103001e-04,5.219879746437072754e-01
4.127923787813991829e-01,4.986433915067865486e-01,3.286032953142170587e-03,8.121321577444039555e-03,-1.481900339937722256e-03,1.524806013830775362e-03,4.587306380271911621e-01
4.926799977021556476e-01,4.862890535028218664e-01,-3.277834142157720621e-02,-8.079013346438698815e-04,9.590400610179958653e-04,-7.488066476336578290e-04,5.222983360290527344e-01
4.392193705733472564e-01,4.359500826772690352e-01,3.992649122369518189e-03,-2.912396979381417367e-03,4.972743675585044622e-05,2.081261383086208691e-04,4.336308240890502930e-01
4.298835386751844179e-01,4.606160295742395272e-01,-6.030876894052905612e-03,2.350511298950677154e-03,6.018586291527685053e-03,1.070491881592870211e-02,4.525832831859588623e-01
4.523686543682179928e-01,4.215763207832271542e-01,9.490980291851858208e-03,-3.692128491228212350e-02,-2.009536745492662094e-03,-3.371257084459765470e-03,4.331135153770446777e-01
3.561651280377710616e-01,5.781398563763044951e-01,-9.149625741603273354e-03,-3.699938981527713805e-02,1.694084160854572585e-02,-1.660914207215298186e-02,5.192434191703796387e-01
4.517739843994919013e-01,4.421207275876944953e-01,-3.990861069804174655e-04,1.119979913608649957e-02,7.827674183473184522e-04,1.024294482578493688e-03,4.478504359722137451e-01
4.386057823613505047e-01,4.631884080178569896e-01,-8.771853854548983254e-03,-3.044090546356432482e-03,-1.706081654331150161e-03,-7.110972187064797806e-03,4.603661596775054932e-01
2.446813214710273909e-01,5.435106656042916207e-01,4.503616170139945751e-03,-5.197876142339407507e-02,8.672304447552816459e-03,9.823201388611094848e-03,4.768405854701995850e-01
4.757041627973532805e-01,4.955326952952570640e-01,-3.519875897050217528e-02,1.166292138272433630e-03,-8.670132358864230532e-04,-5.584307503984847288e-04,5.211071968078613281e-01
4.916202839226004873e-01,3.788942060861321126e-01,-7.983453432109210990e-03,-2.328431634530037445e-02,-1.159222539808513197e-02,-1.383583154870461976e-02,4.567237794399261475e-01
5.343252199965571325e-01,5.248491863655366796e-01,4.695132075497127078e-02,9.161736855095428678e-03,-2.471721825438273970e-02,-1.953425674663255077e-02,4.860392212867736816e-01
3.909545677801773422e-01,4.758817491171637437e-01,4.137709630936514671e-03,-1.206628042967774171e-02,-1.922758334968528715e-03,-5.663727890518383337e-03,4.361597001552581787e-01
4.830122306120593900e-01,4.445329344967255403e-01,-2.441108218564680410e-02,-2.748597954753197268e-03,-1.210639775802995616e-02,-1.038100705841898518e-03,4.897952377796173096e-01
5.093794211789477444e-01,5.018788570270712457e-01,7.463183231592451783e-03,-1.509012997261872241e-02,1.067945736645309167e-02,1.702542195878234757e-02,5.001063942909240723e-01
4.708926110480277094e-01,5.014783086042274851e-01,-3.764756353067721939e-03,-4.048357279928806521e-03,-7.434945811758613765e-04,8.620030170351891327e-03,4.909445643424987793e-01
4.322703111483833238e-01,4.413034748867828982e-01,3.293320079580663862e-03,-4.237687203929361643e-03,-7.354167175980468691e-04,-5.759955236687849204e-04,4.336293041706085205e-01
4.679773758251219995e-01,5.309650565487729068e-01,3.183680731778004702e-02,6.518102377886629550e-03,-2.086802103244104339e-02,-2.582933990129357774e-02,4.744395315647125244e-01
5.050597627237527476e-01,4.847524961249127795e-01,-1.508818150609769759e-03,9.042657762308734318e-04,1.295141339563805546e-02,4.746006215260114083e-03,4.973030686378479004e-01
4.877627823702053167e-01,5.385388639703148073e-01,6.948385444911553410e-03,1.920576886674653372e-02,3.346532613734040651e-02,3.397501967683774944e-03,5.125188231468200684e-01
5.007620891607410529e-01,5.294091883937819265e-01,5.756599552167573908e-02,1.082586279701933801e-02,4.906067573103734675e-03,-2.330519992133224527e-02,4.604268968105316162e-01
3.153055631764964395e-01,5.216347411670343437e-01,7.000735524257839515e-03,-2.705510017915909934e-02,-6.178985376032610118e-03,-2.572423069156848548e-03,4.511831104755401611e-01
5.067892909416275016e-01,3.402645864924686570e-01,5.929144942860065104e-03,-1.817045966771878990e-02,-4.458380313231619096e-03,-2.239970657137740472e-03,4.430021941661834717e-01
4.436135281085811233e-01,4.537474882273715426e-01,-9.046856698199046143e-03,-4.370292153816051489e-03,-1.507800915186715586e-03,-6.184073832632783901e-04,4.578827619552612305e-01
3.779134361705092648e-01,5.018897372009621938e-01,-1.137653530699944682e-02,-2.550300348230493536e-02,-1.670225859199897175e-02,-1.593070985167931511e-02,4.676847159862518311e-01
4.782028854181155086e-01,3.549635479446361375e-01,8.988351608852807040e-03,-3.446569694975722131e-02,-1.119485581501569217e-02,-1.006605437421393030e-02,4.263427257537841797e-01
3.942642085694044174e-01,5.090173442182155394e-01,-1.021647362813049575e-02,-1.272501195047119442e-02,-1.760327339236195457e-02,-1.605925297619648778e-02,4.747393429279327393e-01
5.150291772999324724e-01,5.277937044308950165e-01,5.996657242322533943e-02,-1.791971286144363740e-01,-7.278511462869627358e-02,-1.092503965798464760e-01,6.009063124656677246e-01
3.420105528953850671e-01,5.133271740821618856e-01,8.422167241623479406e-03,-1.286505937345490229e-02,-5.624927243274320879e-03,-3.524576937535130444e-03,4.454307556152343750e-01
2.820176692956513076e-01,5.222060889588677757e-01,4.396679560630833983e-03,-6.477606358161454303e-02,-9.192109688701976047e-03,-2.643621031391678831e-03,4.629335701465606689e-01
3.832741170192864311e-01,4.826101993479728902e-01,-9.093036560732292717e-03,-5.023801566397647494e-02,-1.841829005507688438e-02,-1.768882901112701911e-02,4.607860743999481201e-01
3.556269323420295780e-01,5.111171511293750580e-01,-1.113047590774357554e-02,-1.161251039236221340e-02,-1.328086894270927732e-03,-1.140672751199290139e-02,4.653123319149017334e-01
3.873913187123148028e-01,4.836448690618895263e-01,-1.136355952695150551e-02,-4.799854441070066507e-02,-1.472263558096070964e-02,-1.607900338975244009e-02,4.636693000793457031e-01
3.798735732336506743e-01,4.851279668668834200e-01,-1.129935904823564652e-02,-2.255816663975107259e-02,-1.552752048458249691e-02,-1.703518429201739473e-02,4.564952850341796875e-01
4.866988128713400918e-01,4.840788871115440095e-01,-4.074711839437605843e-02,5.903165600785365182e-04,1.060615741377898087e-03,2.646579838430829137e-03,5.261650085449218750e-01
3.393787575644443000e-01,5.441265221521680573e-01,9.521368572870114733e-04,3.653194784003229324e-03,2.987696868500692993e-03,1.477838826277190964e-03,4.752048850059509277e-01
4.966321661779383723e-01,4.818578597583960121e-01,-3.511198736699239209e-02,1.586474269123474418e-03,-1.317364673502345379e-03,-1.591315314909434947e-03,5.245324969291687012e-01
4.884692875403442436e-01,4.809192579868206141e-01,-3.872196680868966734e-02,6.377775516826858244e-04,7.325500055911301177e-03,4.022869693026092340e-03,5.236583352088928223e-01
4.975499712214298542e-01,4.830395418231174798e-01,-3.944910001216778150e-02,-1.642263440713007030e-03,4.982501003349812906e-03,3.743046659704932048e-03,5.300104618072509766e-01
4.961217097385117736e-01,4.799921461753640650e-01,-3.965644332013457118e-02,3.168044662857575754e-04,5.882996110147142854e-03,5.292963520850838509e-03,5.280764102935791016e-01
5.267915365934789929e-01,2.874742673117252623e-01,4.643559514857009685e-03,-8.198914608101333379e-02,-8.163158073001934578e-04,-2.052166661239349967e-03,4.744823873043060303e-01
4.850590189978726263e-01,3.786181873307481460e-01,-2.367538453532191944e-02,-1.480768942117969278e-01,-8.264900103201265613e-03,-1.160982688708145361e-02,5.313942432403564453e-01
4.909156426507882975e-01,4.770556297042385374e-01,-3.984534584480314834e-02,-2.079850182555675279e-03,5.333852247621193553e-03,2.816287996303222865e-03,5.240849852561950684e-01
4.720824154535582240e-01,5.263087552306086048e-01,-4.198822532207074909e-02,9.142876891280100893e-02,-3.966133263806610049e-02,4.572657020083019386e-02,5.754604935646057129e-01
3.692864921646721310e-01,5.321498256265857485e-01,1.110428043230082817e-03,7.395814010693504796e-03,-8.716081321083672760e-04,6.443109839774349701e-03,4.715202748775482178e-01
4.857283134980997508e-01,4.955854417065268525e-01,-3.233730981682469974e-02,3.803198589467921128e-04,-1.482355634346796966e-03,1.299437593782157199e-03,5.230754017829895020e-01
4.841585212753060086e-01,4.936672165979959503e-01,-3.314356567033677203e-02,-1.462895500991382575e-03,7.317423954030832561e-05,1.381522845386456413e-03,5.221330523490905762e-01
4.828593054486898795e-01,4.949862153553711841e-01,-2.976540309112268856e-02,-8.622502508228983191e-04,5.427933232324472831e-04,1.503938680410454778e-03,5.188040137290954590e-01
4.940781940979984688e-01,4.950069975332844763e-01,-4.362844872573878874e-03,8.107772397926718555e-03,1.994592624845426486e-04,-5.018432422789187962e-04,4.991045594215393066e-01
5.027383337712484357e-01,4.869844441315078765e-01,-3.969792389222842610e-02,8.478399986537028463e-03,3.834706178148325744e-03,3.267068969028339483e-03,5.350061655044555664e-01
7.091909801976598038e-01,4.907963920625852405e-01,5.079764491510835311e-02,1.517111178647047864e-01,5.546420315178793477e-03,-1.068342419786228459e-01,6.639052629470825195e-01
4.403449655855000699e-01,5.022601904977587184e-01,-3.583130121589067629e-02,-5.676792119007593659e-03,-1.622367654427935360e-02,-8.241939791560985371e-03,5.110283493995666504e-01
4.905089476663815340e-01,4.928013187998241396e-01,-1.408573353223380176e-02,5.342124030952960859e-03,4.675289021890270853e-03,5.543678093389202421e-03,5.059853196144104004e-01
4.861694435830590244e-01,4.910162593494151739e-01,5.298400996847807409e-03,2.229419134956805125e-03,-7.118105283740700645e-03,-7.297239419124534193e-03,4.836505055427551270e-01
4.706880955211387718e-01,4.489014902611374036e-01,-2.536220945976719321e-02,-5.019551711410299294e-03,-1.130265992348589675e-02,-1.229985920480819667e-03,4.860007166862487793e-01
4.515441348653775888e-01,4.554069070321693502e-01,-2.172060985257767696e-02,-6.034334544539301159e-04,-4.421965076233142986e-03,-2.898223845562178120e-03,4.752972722053527832e-01
4.643539551772764007e-01,4.612445202726425109e-01,-2.935000149265065694e-02,-2.434209175159826426e-03,-3.954914632665058709e-03,-7.616120732325671119e-03,4.923990666866302490e-01
4.334641379891349677e-01,5.070966829013675570e-01,-2.601560345951570152e-02,4.964823524316873708e-04,5.504268736624673680e-04,2.061193297690882588e-03,5.003902912139892578e-01
4.711264856871699713e-01,4.970802492976079123e-01,-2.871373352802841783e-02,1.839937148494094014e-04,3.816905036775796378e-04,6.357785139381554387e-03,5.134280920028686523e-01
4.024590851938580904e-01,4.565569314856675054e-01,-3.701750508151080421e-03,-3.819141209876691229e-02,-1.172017743628040246e-02,-1.556182356213745704e-02,4.420180618762969971e-01
4.641171446816747537e-01,4.714273358227313304e-01,-3.039685364338601259e-02,-1.600467991972579765e-03,-4.824435941884541897e-03,-4.995761021527458240e-03,4.983622133731842041e-01
4.563251781501542759e-01,4.732616863174569644e-01,-2.919013313886142935e-02,-1.229706574930317271e-02,-6.074813094207296565e-03,-9.742452299395123680e-03,4.950596094131469727e-01
4.954454884981551732e-01,5.131206836801691651e-01,-1.750556712325507247e-02,9.301470564540196759e-03,5.329411637245948762e-03,-6.829922265929192285e-03,5.224772095680236816e-01
4.809114938624551860e-01,4.887571771423052103e-01,-3.191879612786174825e-02,1.021361732915843177e-03,-1.513293541588907375e-03,1.098327086603474029e-03,5.168109536170959473e-01
4.852797856708812030e-01,4.902250911854098003e-01,-3.308277642367246640e-02,-8.155092693436035876e-04,-9.986596692756685711e-05,3.213632006982733956e-04,5.208550691604614258e-01
4.931726179101331153e-01,4.806676001748291793e-01,-3.451929199407105520e-02,8.264922848207368342e-04,-2.997902800647857680e-03,-2.611171258638464616e-03,5.215992927551269531e-01
4.731154130871639274e-01,4.684374231521081788e-01,-1.952732798365847122e-02,9.397798869309954492e-03,1.819392574904405086e-03,-4.771555752442716014e-03,4.906703233718872070e-01
4.852927931422597041e-01,4.886507653400579132e-01,-3.266036176055342466e-02,8.183085280270074391e-04,-3.109710277844634357e-03,1.305959696654232982e-03,5.196750760078430176e-01
4.853037945404362619e-01,4.935979129201737425e-01,-3.298430954289305328e-02,-3.404105181536744014e-04,-2.844589560765290771e-03,2.853653863791120061e-03,5.225314497947692871e-01
4.388536377984090242e-01,4.542328697472902688e-01,-1.003010142188875964e-02,-5.362428107031859750e-03,-1.898586708696886616e-03,-1.184872240623662670e-02,4.573345482349395752e-01
4.851788347167537152e-01,4.935518208752678326e-01,-3.057353357256736848e-02,-2.664995911846311538e-04,-8.063874827431299647e-04,-1.901865468213438865e-04,5.199916362762451172e-01
4.201417146751234011e-01,4.812435020139658737e-01,-9.801818179587862279e-03,-5.994999291881782620e-03,-1.826121366418084237e-03,-1.154380163959813077e-02,4.640827476978302002e-01
4.855967080485978915e-01,4.930503849002850214e-01,-3.344010699174082557e-02,-5.453967072824423244e-04,-6.968738889724241910e-04,1.352943479454407931e-03,5.228109955787658691e-01
4.841461342539374879e-01,4.926071052363796277e-01,-3.341017475145002802e-02,-2.892190131331722402e-04,-6.562760207539332564e-05,1.083349834082142490e-03,5.218418836593627930e-01
4.857421681438022221e-01,4.936351389548471191e-01,-3.289996119035093480e-02,-7.203057789244452034e-04,-7.168611170808695827e-04,7.326333635743725436e-04,5.226378440856933594e-01
4.742522352495791571e-01,4.712727175968429716e-01,-3.158683890866881283e-02,-3.046695294854085030e-03,-7.891316797198013114e-03,-5.003217424056008097e-03,5.046430826187133789e-01
4.712178591734191846e-01,4.752386340520954322e-01,-3.472607180918496628e-02,-1.591647459070514746e-03,-1.141996644581682891e-03,-2.002277964284961565e-04,5.079777240753173828e-01
4.834091031739661259e-01,4.768787607865073164e-01,-4.123326864579174300e-02,-5.017933508898035936e-04,-4.751467075719785146e-04,-8.890745184023117519e-04,5.214115381240844727e-01
4.869566007871173330e-01,4.755923750364444702e-01,-4.026823481334179666e-02,-6.866259540877839903e-04,-2.902743279174664452e-03,-1.719516696293828511e-03,5.216696858406066895e-01
4.733860913887100730e-01,4.746976693115538826e-01,-3.868775053444650780e-02,-3.869321587222835680e-04,-8.517176164794654485e-04,-1.287814909548201702e-03,5.127382874488830566e-01
4.761021238813654133e-01,4.726314251796285282e-01,-3.772039313896941026e-02,-9.549738440832269450e-04,-3.600374782606108760e-03,-2.161930560249301220e-03,5.121502876281738281e-01
3.765445447044007965e-01,5.351285872326383419e-01,-1.421783744621074597e-02,-5.196357769777787926e-03,-2.904371507234455602e-03,-4.138313988790868862e-03,4.898678362369537354e-01
4.721822447076617912e-01,4.696790558471719002e-01,-3.585484007782524518e-02,1.225842721899094746e-03,-5.118424312032065875e-03,-4.311963306124751236e-04,5.068726539611816406e-01
4.779107328993931758e-01,4.771595471582602555e-01,-4.190775776943123088e-02,-2.204694053309444197e-04,-2.506216439913809177e-04,-5.172556407796435321e-04,5.194444060325622559e-01
4.767380649840946005e-01,4.769735427713319709e-01,-4.094606122730642950e-02,5.843615387765740932e-05,-2.965728889188363722e-04,-1.400236499376863010e-03,5.178078413009643555e-01
5.121067961868613905e-01,4.027655395304218233e-01,-2.304144057632612208e-02,-2.301894936474611214e-02,-9.141038532685887355e-03,-1.154471396041929429e-02,4.920015335083007812e-01
4.774934545693169108e-01,4.746171321003371801e-01,-4.082206336944499414e-02,1.093416241321369404e-03,-3.889133602596532807e-04,-9.384826221967446785e-05,5.168873071670532227e-01
5.185379156932171663e-01,4.106650068144954147e-01,-2.339621680628078959e-02,3.070669098099577336e-03,1.155969507948665168e-02,-1.526233006779940254e-02,4.979931116104125977e-01
5.405525289640220610e-01,3.079846270738789693e-01,1.068896406956176826e-03,-1.421299790811371769e-02,9.518441731830740854e-04,-1.948112262778408516e-03,4.693441987037658691e-01
4.780460258258013573e-01,4.777575796173243461e-01,-4.163826303383266758e-02,6.593121984117277320e-08,-2.711071740357751895e-04,-8.149077257281290903e-04,5.195422768592834473e-01
4.720997878379609158e-01,4.463549662224735037e-01,-2.474005178145588513e-02,-2.280604366212957406e-03,-1.030201041780712083e-02,-1.306622456727759467e-03,4.848305881023406982e-01
4.827030833263947773e-01,4.977586273567784492e-01,-1.659838665618657005e-02,1.383939811705131757e-03,1.990834039955864491e-03,-9.273262260680394152e-04,5.070168375968933105e-01
3.782309400478172656e-01,5.282989784761803476e-01,-2.545488877878548939e-02,-2.066492643116273759e-02,-3.523334298468173975e-02,-6.037319152022748965e-04,5.010682344436645508e-01
3.900192685281424487e-01,5.428645005555490233e-01,-1.718475869411084656e-02,4.167901835501089218e-03,-7.635648938713334203e-05,4.319539395326157938e-03,5.015217661857604980e-01
4.794499444791812115e-01,5.084772395472583195e-01,-2.612015014630325593e-02,1.529865361973368858e-03,-7.374594568372310963e-03,4.719598910383340849e-04,5.208549499511718750e-01
4.300247037437878728e-01,5.255407024233273994e-01,-2.857459726021271962e-02,-1.582571546886173347e-03,-9.241295125360848503e-03,-3.263762251722052837e-03,5.133574604988098145e-01
4.791697703341215031e-01,4.981856084279346897e-01,-3.483746524102326880e-02,2.160834377002734301e-04,3.201494673218853860e-04,9.552675405790785577e-04,5.237771272659301758e-01
4.942335508926514187e-01,4.841328470062205014e-01,7.402808043825698237e-02,2.255091107772431904e-03,2.542987169669868892e-03,-1.968476843550357423e-03,4.153029918670654297e-01
4.692447247257041099e-01,5.046858724848571898e-01,-3.177913500485318732e-02,2.044132945856349994e-03,-1.989173766304553996e-04,7.160505429002094651e-04,5.196653008460998535e-01
4.918517780387975380e-01,4.890511166324102432e-01,-9.145634231201460462e-03,2.511428570445891056e-03,-5.181676973550490735e-03,-7.004768755394026603e-03,4.998497664928436279e-01
4.356528147509770577e-01,4.982933958742977731e-01,-2.568173066739759536e-02,-4.351249087560484646e-03,-9.433205045977498563e-04,-1.141265969143437538e-02,4.960865676403045654e-01
4.416281446642358333e-01,4.852388668120199977e-01,-2.378486962107256852e-02,-3.624939019643080764e-03,-1.052001664950147353e-03,-1.042133217693424346e-02,4.890569746494293213e-01
4.693430052744260728e-01,4.992397544347788596e-01,-2.716829788412999935e-02,3.214922845334718289e-03,-7.784147854751475269e-03,5.595400735869716230e-03,5.124139785766601562e-01
4.614300781748860159e-01,4.994134477274210226e-01,-2.362769842391526653e-02,2.307841636243216244e-03,-1.362781776036802719e-03,7.377090766933096233e-03,5.053045749664306641e-01
4.773771786723512989e-01,4.926592419479385310e-01,-3.872613153974568956e-02,-1.140967468863655530e-04,-1.292082070818739064e-03,-2.490741607538104769e-03,5.239341259002685547e-01
4.452158695926221599e-01,5.068350404714839774e-01,-3.011261239118367961e-02,5.443563454881233569e-05,-1.291811714707002609e-02,3.087900035458399865e-03,5.094631314277648926e-01
4.737057466262935557e-01,4.720969390474083482e-01,-3.941777428680609541e-02,-9.900574494997487537e-04,-3.318093097144716574e-03,-5.245902076818170952e-03,5.124366879463195801e-01
4.434220560866122263e-01,4.308054636398537252e-01,2.470735921247246836e-03,-8.862360541010867732e-03,4.417280034779898570e-03,3.270297863306962077e-03,4.351553618907928467e-01
4.330833647970970257e-01,4.374668469894503753e-01,6.469762489554442553e-03,-1.725312002021033367e-02,-3.025572750690846968e-03,-8.747676828013819855e-04,4.298967421054840088e-01
4.262971067875667153e-01,4.373324452016050801e-01,5.071021562632671564e-03,-8.097677645636893948e-03,-5.258544271342153369e-04,-1.515060619891870405e-03,4.270901679992675781e-01
4.744916347394032563e-01,4.927418958656049064e-01,-3.871641186762836417e-02,9.115921894295943412e-06,-8.018764831095618543e-05,-2.600227106999620195e-03,5.225916504859924316e-01
4.361347720125481331e-01,4.234445424659095680e-01,5.414648494407037216e-03,-1.390796162725006779e-02,7.825239236487608035e-04,-5.591375172726823937e-04,4.252034723758697510e-01
5.811643763059672896e-01,4.791138569518137436e-01,1.394863463348638977e-02,2.117873351920355335e-02,-6.841982039420040941e-03,-2.985757598728337736e-02,5.276588201522827148e-01
4.579080564677214249e-01,5.058349491783513674e-01,-2.973796291422148297e-02,4.087731811428645459e-03,1.209988682193830346e-04,2.103853875601270455e-03,5.133521556854248047e-01
4.641262240149509055e-01,4.629115625002253598e-01,-9.450921316123017668e-03,2.652905631670116060e-03,-4.197739103875329047e-04,6.759362331401066407e-04,4.729953110218048096e-01
5.037473321751568811e-01,4.958429859537211715e-01,-1.413136429108180492e-02,4.526637698633289263e-03,2.312114537412591694e-02,4.109303825666969084e-02,5.204790830612182617e-01
4.751062554598121102e-01,4.907343181270864552e-01,-4.080539404390332026e-02,1.474161489406107745e-03,2.208547671661013261e-04,-2.521496096154119630e-03,5.239250659942626953e-01
5.100463772791248296e-01,4.921124163501956472e-01,7.215480104768634551e-03,1.155093791595540424e-02,-4.211637941392856743e-03,-6.440114051200894474e-03,4.946925342082977295e-01
5.684280950676796618e-01,5.453190015547022540e-01,-5.843546675002975199e-03,3.731745481465487818e-02,1.817625367278943166e-02,1.848770174957440823e-02,5.685467123985290527e-01
5.282231325844395364e-01,4.912762466391456528e-01,4.721268632969682910e-02,1.849488814398145622e-02,-2.973846889712654720e-02,-1.528761566761993942e-02,4.683425426483154297e-01
4.699772984360460204e-01,4.780759531980561805e-01,-2.464554587409628628e-02,3.942227114700488227e-03,-4.983511956149624250e-03,3.007047925608685290e-03,4.988701045513153076e-01
6.355856829467014801e-01,4.194310656529349757e-01,5.856799696273151667e-02,-6.346954555501223283e-02,3.872689430832502305e-02,7.432245288468633526e-02,5.367524027824401855e-01
4.663475836154931109e-01,4.702198834990536369e-01,-1.967006990791136944e-02,-7.661719627911517698e-04,-1.325495060570926632e-03,-1.427462338838615154e-04,4.879725873470306396e-01
3.154410886167355876e-01,5.455094871581438465e-01,-6.234474871120720962e-04,-9.867980687489421449e-03,-1.294283333875140230e-03,-9.315635025972234407e-04,4.752309620380401611e-01
5.807925103146986956e-01,3.197013247866922758e-01,-2.780068084278175533e-02,5.788938745090271148e-02,1.172215459913013291e-02,5.305545652764926540e-02,5.464122891426086426e-01
5.200647976643391068e-01,5.069984651585155433e-01,4.077788607100973906e-02,2.478044562863430250e-02,-1.912719241844111975e-02,-1.071021441648869164e-02,4.763486385345458984e-01
6.322057827085082460e-01,4.699214413162885462e-01,6.765489641814870225e-02,4.724698298842935906e-02,3.637189723079918557e-02,-5.376499403764595925e-02,5.222774744033813477e-01
4.456678396298053846e-01,4.833150283742235764e-01,1.424900184509503287e-02,-8.656774001438988231e-02,1.508305619851980917e-02,3.770140172404793950e-04,4.763885736465454102e-01
4.847719766566853661e-01,4.911153984441243847e-01,-3.129435942951191985e-02,-1.039724920096053934e-03,-3.132988644499659116e-03,3.073100494844961065e-03,5.193258523941040039e-01
4.823710407957137458e-01,4.883337338597374400e-01,-3.131483112248761858e-02,2.346720085546889520e-05,-2.124074939903596460e-03,1.882378805572124288e-03,5.167164206504821777e-01
4.718341487363812425e-01,4.913629843489627502e-01,-2.897062961485852295e-02,-7.220078280936534235e-04,-4.933013876614511430e-04,4.627609986420557625e-03,5.109143257141113281e-01
4.817471918868102554e-01,4.788532882598540708e-01,-3.707938425783613434e-02,1.528371682327426921e-02,-1.367027445940039929e-02,1.256661494960300586e-02,5.190598368644714355e-01
4.178061653338567272e-01,4.653255414394469325e-01,-7.100194856564379098e-03,2.248229542188102947e-02,-1.023244474600364627e-02,1.644873448667413113e-02,4.534721076488494873e-01
4.556925321705056486e-01,4.655603617328973876e-01,-2.250697254632660904e-02,-4.192396459559233693e-03,-1.304556842346581494e-03,-1.854695755603370029e-04,4.832689464092254639e-01
4.401773917135008984e-01,5.078476905097031313e-01,-1.746338479959813617e-02,2.336124089020328101e-02,-8.018283261392899694e-03,1.299081318905433331e-02,4.973122179508209229e-01
4.671092915663103140e-01,4.785180886157733848e-01,-2.158620335877459162e-02,7.335850771101060271e-03,-5.170358289149820305e-03,4.822893720625087352e-03,4.948133826255798340e-01
4.765766564224721558e-01,4.776670248355767701e-01,-3.948067945360728137e-02,-6.798760511883018007e-04,-2.072225825798245345e-03,-2.450095377235165205e-03,5.166346430778503418e-01
4.718909191701988748e-01,4.747567968299838403e-01,-2.160334970903748930e-02,2.570195046399126673e-03,-4.049477453276572637e-03,6.160782122889578785e-03,4.951181411743164062e-01
4.480736442093146144e-01,4.892164490785593234e-01,-2.235717291397837370e-02,3.820895650678907823e-03,-3.909345945268535155e-03,8.653436198091486384e-03,4.926124513149261475e-01
4.106754538521878439e-01,5.240920201463772354e-01,-2.629520344019498079e-02,5.160689313183012064e-03,-1.543070194402603942e-02,-2.131620880980969034e-03,5.041569471359252930e-01
4.743705107637345431e-01,4.983945382997290174e-01,-3.113740675363635413e-02,-5.094439927966207325e-05,-3.736719939951011447e-03,2.753505503230880853e-03,5.180003643035888672e-01
4.843823053084119756e-01,4.960390487203915066e-01,-3.086919265993887107e-02,-3.821213313278338988e-04,-3.484979399228937263e-03,2.299255011096275857e-03,5.212282538414001465e-01
4.753073477189897478e-01,5.004642870471025518e-01,-3.103392924396913832e-02,-6.000679871295353657e-04,1.073024728797336612e-03,-3.411573316712257758e-03,5.194148421287536621e-01
4.840530486747869343e-01,4.821086284485743834e-01,-3.225398749326080505e-02,-3.656562971309035509e-04,-4.185446698534385501e-03,5.514079437709553354e-04,5.153898596763610840e-01
4.355477536172108755e-01,5.036197512351672234e-01,-2.946827372418869828e-02,-3.141798893273989833e-03,-1.765447046696438449e-03,-1.072818952597826524e-02,5.029040575027465820e-01
4.843261195524031781e-01,4.963340475249969908e-01,-3.289854038294981464e-02,-8.732052390831371302e-04,-1.268568232553572185e-03,9.921652737409161499e-04,5.233415961265563965e-01
4.749898160308313466e-01,5.014395984456753164e-01,-3.625413288155299174e-02,3.136023154120073844e-03,-2.490451457090417028e-03,-1.423426380838716454e-03,5.250204205513000488e-01
4.812397040971613804e-01,5.021575651381147143e-01,-4.776021988136702756e-03,4.371030435525054963e-03,8.824995562844707665e-05,2.502359038408224524e-03,4.968816637992858887e-01
4.747617557482374240e-01,4.859987016177028663e-01,-4.044636304259130455e-02,-5.282917530055773942e-05,-2.414002617307219609e-04,-2.565538444088177709e-03,5.209366083145141602e-01
5.054204291751226430e-01,3.931496647019877555e-01,-1.304516062918054109e-02,-1.045987920904832731e-02,-1.333581274287547018e-02,-1.204236033651143959e-03,4.733591377735137939e-01
4.931376944666104323e-01,4.934989266827365384e-01,-3.165929614564022554e-02,-4.569042331189311699e-04,-2.080129296109346250e-03,-9.005941755602177344e-04,5.249930024147033691e-01
4.761385547221335113e-01,4.975070556558611745e-01,-3.505566622348088579e-02,-8.730141037223782886e-05,-2.821954217863393666e-04,-1.164779695999157297e-03,5.222105979919433594e-01
4.740715381848563670e-01,5.099288483505420855e-01,-1.336324008364303539e-02,1.254257635919133699e-03,-2.691893350762030596e-02,1.191792424490426168e-02,5.088823437690734863e-01
5.125601742517713610e-01,4.378798213551216567e-01,-2.989625536971018960e-02,-5.874304841658050010e-04,-3.553493043167817861e-03,-9.909197101610454222e-03,5.095672607421875000e-01
4.750375126397889392e-01,5.044947256085620113e-01,-1.459027001056628636e-02,7.133635951754392461e-03,-5.868595880324121647e-03,4.254648339801062919e-03,5.053082704544067383e-01
4.807594745634075628e-01,4.985089631593107029e-01,-3.188327292470621854e-02,-2.680668411324211111e-04,1.748682617207496801e-05,-4.477786210295941994e-04,5.217447876930236816e-01
5.245930102491487279e-01,5.129286075142189816e-01,4.644225367701187990e-02,1.097134012764008903e-01,4.442007427574641565e-02,-6.452686533772147848e-02,5.269805788993835449e-01
4.914314983951671989e-01,4.962101222955558333e-01,-3.166115531470214961e-02,1.657333612717446208e-03,2.537430157924556811e-04,1.207607090699175899e-03,5.255104303359985352e-01
4.905395915195115419e-01,4.941375127430989167e-01,-2.987950184410365084e-02,1.898482808632672705e-03,1.065310847646367375e-02,9.002772104619529217e-03,5.227961540222167969e-01
4.489586267643847495e-01,5.068688179947598016e-01,-3.625058512102058428e-02,1.447341606202665314e-03,8.454673516546617335e-03,8.771415916647082311e-03,5.170412659645080566e-01
4.847600502728289795e-01,5.034844172194051781e-01,-3.800384592338679202e-02,-7.231073555429469316e-04,-8.166254119586604035e-04,5.535771531685679953e-03,5.324627757072448730e-01
4.894082093497324482e-01,4.943632817427671688e-01,-4.068527749343719968e-02,2.123450857350989932e-03,1.855266521261403779e-03,1.052616973160583726e-03,5.326138138771057129e-01
4.861314054749635849e-01,4.948950847606204961e-01,-4.089473298895274223e-02,3.210372625886543513e-03,-1.997734508706711201e-05,2.558914572441014536e-03,5.315097570419311523e-01
5.112770927027929790e-01,5.190536649324897223e-01,1.160221479655360044e-01,-1.149870555932371204e-02,7.837456136424739150e-03,-2.200306946360245167e-02,4.017387330532073975e-01
5.620344827152781164e-01,5.486902637980539676e-01,1.154448147748034503e-01,2.858165258633315470e-02,-4.399753996728842861e-03,-1.983588217632357986e-02,4.442411661148071289e-01
4.332014717026612116e-01,5.181546113181982882e-01,-2.072953711810682220e-02,3.300943030845913256e-03,1.617749341191970433e-03,9.622221588362421529e-03,5.021469593048095703e-01
5.756710723805702479e-01,4.951242267310764777e-01,1.190053356167173337e-01,2.397757846136735344e-02,-2.963775089528879192e-02,-1.312306784230149112e-02,4.279310703277587891e-01
5.445029621692709654e-01,6.288253921958121273e-01,9.265999246532646838e-02,1.499870186624866798e-02,-1.955875098673600862e-02,-5.222786268637046730e-02,5.092922449111938477e-01
4.498060130803183121e-01,5.239749774922840553e-01,-2.421282227003768162e-02,5.112719237773857839e-03,1.415963689941664464e-03,4.836707776513374420e-03,5.152736902236938477e-01
4.611345586920573281e-01,4.276197987295252689e-01,-1.113344647234504325e-02,-5.191053786028550568e-03,-1.188574183842440284e-02,-1.128315643490937145e-03,4.569910764694213867e-01
7.038795047737524957e-01,5.568710936673295642e-01,7.933326432840009934e-02,-1.537975705522506321e-02,3.068690066786802784e-02,-9.299430575864971182e-03,5.689024925231933594e-01
4.895209504112051357e-01,4.860282178564461764e-01,-3.175475275304256995e-02,-1.017195347439395648e-03,2.977351111221465674e-03,-2.181192417414207566e-03,5.195804834365844727e-01
4.850206610159397136e-01,4.828713662575724319e-01,-2.892587202133117819e-02,9.020324218989564033e-04,2.812598829885992963e-04,-2.934760437976426627e-03,5.129030346870422363e-01
4.912754138648181002e-01,4.853126430164787508e-01,-3.152974878016856497e-02,-3.322151100050143376e-04,2.947177344651201718e-03,-4.047148155132527896e-03,5.199220776557922363e-01
4.910868248315609641e-01,4.852326617901948635e-01,-3.415820433677152490e-02,-2.250538287820400820e-04,5.770883266398456118e-04,-7.752223595120252917e-04,5.223453640937805176e-01
4.899422733556185183e-01,4.855917692621998794e-01,-3.369183736892505943e-02,-1.075789332925297095e-03,1.400409285785469483e-04,-1.085868038205267108e-03,5.214792490005493164e-01
4.757206405656747572e-01,4.928588641147846339e-01,-3.750366397344795377e-02,4.087393297985184417e-04,-1.538291196330017789e-03,-2.830295983483323893e-03,5.220347642898559570e-01
4.728280818792008899e-01,4.908071433541186801e-01,-2.894416654572024017e-02,-1.057731288116311313e-03,-6.939112392885222287e-04,4.856356488511017269e-03,5.110729932785034180e-01
4.472088345302031032e-01,4.608556124199243431e-01,-1.896585959505692198e-02,-3.691877171184688479e-03,-5.492445899244564542e-03,-8.643197601850265838e-03,4.735212326049804688e-01
4.104368175395465279e-01,5.284547029439439214e-01,-1.436416021070513471e-02,3.737372088767994347e-03,7.303641254474343980e-04,1.124586243174508123e-02,4.949152767658233643e-01
4.559673553326159534e-01,4.630681024202357166e-01,-2.357669330828415788e-02,1.047960969968292876e-03,-1.443734835027342530e-03,-7.005184064261718579e-03,4.832957684993743896e-01
4.542369858559600071e-01,4.518602171755848884e-01,-1.560913400564012399e-02,-1.679780965160350154e-03,-5.111641595846821637e-03,-3.318836501108997101e-03,4.687901437282562256e-01
3.899838948967726537e-01,5.594333635248351921e-01,2.079338897694699151e-02,9.184158917470430783e-02,1.170425326496023627e-01,-1.952934789516261663e-02,5.432490706443786621e-01
4.735386714118064999e-01,4.709407454875961241e-01,-2.149753357980294100e-02,4.308066311555073559e-03,-9.006155807983542982e-03,1.326972941102582413e-03,4.940504133701324463e-01
4.950476454778094948e-01,4.954584084870532479e-01,8.292833844846886349e-02,8.247399002855301808e-03,-4.558691031250705281e-03,-7.622777058063706472e-03,4.128589332103729248e-01
4.660264862419521981e-01,4.827129420890722278e-01,-1.909311821610021331e-02,-1.333190028136572655e-03,-1.320702178070225002e-03,5.818353268446100485e-03,4.937879443168640137e-01
5.420789318804393186e-01,5.162020863389678027e-01,8.687490078154042061e-02,1.733987177841327804e-02,-1.492602177949583532e-02,8.694205721246371643e-03,4.448575377464294434e-01
4.823996732360867901e-01,4.853032589148136289e-01,-2.938577636777583990e-02,2.114762827452754384e-03,-8.659693915041881884e-06,4.315779532239958759e-04,5.132570266723632812e-01
6.804716713525239546e-01,6.315916241790011654e-01,1.039032669582120039e-01,5.467951831088526532e-02,-4.697770768888726717e-02,-4.937127741861530722e-02,5.740562081336975098e-01
4.860684636541799386e-01,4.930804248406956969e-01,1.109686444216896883e-01,1.931784472966303684e-03,1.001938167338339760e-03,-7.568633806034954017e-03,3.789001107215881348e-01
4.967462868322907177e-01,4.927346298539975744e-01,1.151880879007718406e-01,1.072078281993124344e-03,-5.011837732331844361e-03,-6.497856404893456207e-03,3.798388242721557617e-01
4.921430334712135757e-01,4.858674662198214644e-01,8.864862638423065544e-02,2.631923863014009636e-03,4.731482310630368720e-04,2.786227777083365598e-03,4.004493653774261475e-01
4.931771929802855059e-01,4.884373245056601309e-01,1.032375214238215322e-01,6.984328117834804131e-03,3.407146988441230560e-03,-3.060609613592431689e-04,3.878254890441894531e-01
4.760644117062718950e-01,4.813125311501749160e-01,-4.078484181798108787e-02,-5.036592179210225327e-04,-8.432902928612575006e-04,-1.262223545761975577e-03,5.195005536079406738e-01
5.085684631894352714e-01,5.087021884435456442e-01,7.471764020261545403e-02,5.756808683993748336e-04,-2.013610281383501881e-03,-7.828806865072590604e-03,4.341446757316589355e-01
4.669431416348929220e-01,4.787131414797602402e-01,-3.475135548141583541e-02,-1.980917300237593475e-03,-1.262506134736140042e-03,-5.045248049090648654e-03,5.077733397483825684e-01
5.315472457755614499e-01,3.470337419314087346e-01,-4.141807269972430650e-02,-7.156909736568888708e-03,1.285703733395115178e-01,1.109960167444896117e-01,5.859348773956298828e-01
4.930650067659194669e-01,3.308158328019816241e-01,8.038789679827684775e-03,-9.459710367618032190e-02,2.513834017428387760e-02,8.687855635004265720e-03,4.602697193622589111e-01
5.190026379852220595e-01,3.454487432471778918e-01,-2.326167597127798414e-02,-3.567702210336742841e-02,1.691522109890296333e-02,3.120597211774046864e-02,4.875016212463378906e-01
4.756071028525856725e-01,4.752326683137517160e-01,-4.112378450327303092e-02,-7.189524597197298917e-05,-2.349738176914284308e-04,-1.464720357245415626e-03,5.165501832962036133e-01
4.745979092493570750e-01,3.901993957640011446e-01,4.032857826431091031e-03,-1.204335838646193244e-02,-5.738180176884992607e-03,-1.302483402772630682e-03,4.351764917373657227e-01
5.842805131082544623e-01,3.922578447332803475e-01,-3.587601381441896109e-02,1.660882440097165985e-02,2.698530523112684012e-03,1.343454229866377150e-02,5.511565804481506348e-01
5.251282718775001079e-01,2.941279092670739947e-01,-2.012363809736184006e-03,-6.319508628826021879e-02,1.189008573310196444e-02,1.547071161844353580e-02,4.717963039875030518e-01
4.971232394057322201e-01,4.725622692734879893e-01,-2.647637542171116243e-02,5.907483719475071365e-03,1.029944542294329406e-02,-6.724233125205962384e-03,5.123068094253540039e-01
4.823612956884690828e-01,4.882729986679600342e-01,-3.184539301370770126e-02,-1.553553817175901122e-05,-2.533953326375579587e-03,1.285073967236505590e-03,5.172113180160522461e-01
5.610247141697205508e-01,2.631754115250455883e-01,-1.645973931161448522e-03,-1.128070048167667677e-01,2.048700722814020270e-02,3.239712378670556343e-03,5.264868140220642090e-01
5.252762313525647375e-01,3.441380872475454100e-01,-2.093000334509242943e-02,-3.909998997673182902e-02,2.171881512550534118e-02,3.073347890600525850e-02,4.909670948982238770e-01
4.854088820719532071e-01,4.878899637429892078e-01,-3.244808422365202949e-02,7.162175469049840860e-04,-2.860378277298635669e-03,1.785007512770005406e-03,5.191363096237182617e-01
4.860391928829977948e-01,4.903539909159863597e-01,-3.245235552239977839e-02,-8.251746331012142733e-04,-2.785144646378030341e-03,1.976041518542295469e-03,5.206978917121887207e-01
4.672191992193496235e-01,4.861339619530572476e-01,-3.556583328689594259e-02,-2.800897936047590784e-04,-6.294943138600556489e-04,-7.511567595158598863e-03,5.126707553863525391e-01
4.850464460801956479e-01,4.903935935075692809e-01,-3.388808857731751001e-02,-5.713852810946132895e-04,-6.504956780903386115e-04,4.526451588168674809e-04,5.216314196586608887e-01
4.842193255396927132e-01,4.904744894935137989e-01,-3.398624355271778752e-02,-6.249808604914984999e-04,-3.761297638887621579e-05,1.025702206511972968e-03,5.213654637336730957e-01
4.847315542013113099e-01,4.906444763285480737e-01,-3.375440154399561576e-02,4.863541653363044745e-04,1.900091577182528089e-08,1.509419169406470856e-04,5.214682817459106445e-01
4.809586832171371396e-01,4.896497751135694410e-01,-3.160054942312628956e-02,1.485157319848801494e-03,-2.957423152689113346e-03,2.961514759773459151e-03,5.170167684555053711e-01
4.839236198562458791e-01,4.701805094935260776e-01,-3.067338587468915190e-02,4.546105488416709445e-02,2.965768604139153164e-02,-1.206333996953558828e-02,5.169160366058349609e-01
4.953749997420431317e-01,4.903284545984394338e-01,-3.424971840655655075e-03,-1.445123029728024710e-03,1.886757398868357371e-03,-6.772836332866134790e-03,4.964516162872314453e-01
4.869014443467460929e-01,4.732653812419940209e-01,-1.895702778384861231e-02,1.774448810749853014e-02,3.691192060054365384e-03,-1.339608588782350423e-02,5.007041692733764648e-01
4.567691769273174440e-01,4.492066332692891129e-01,-1.111327517915727814e-02,-1.047163959942204112e-02,7.116337180122917806e-03,7.242337115780026792e-03,4.648344218730926514e-01
4.616030874073852042e-01,5.005876885870836901e-01,-3.564691952642917716e-02,-1.206857754806424702e-04,5.378812003341425403e-04,-6.267344573007478485e-03,5.179587006568908691e-01
4.604534005098409599e-01,4.657904393687295475e-01,-2.636293072866369158e-02,-7.902809577182277889e-03,1.070340133330895463e-02,7.996928615453247763e-03,4.902445077896118164e-01
4.680507621949951402e-01,4.668717472067746010e-01,-2.759187449808325754e-02,-1.593900809465292195e-03,5.519695972940849224e-03,3.990185198084490910e-03,4.952024221420288086e-01
4.562967713455822194e-01,4.655653728767152333e-01,-1.969300103029492099e-02,-5.373965346894451611e-04,1.853603999995314094e-03,8.382256911052168857e-03,4.809219241142272949e-01
4.505828116140367379e-01,5.039479952016789888e-01,-2.576148171253772601e-02,7.510358589739529744e-02,-2.788846558924605156e-03,1.528897422548105428e-03,5.216549634933471680e-01
2.913956685292620752e-01,5.674207605928147657e-01,-2.061005872159527019e-02,-5.180727632005243267e-04,-5.646412456324406692e-02,-1.138710924819808868e-03,5.188719630241394043e-01
4.834654164108048713e-01,4.963495657243111037e-01,-2.989581080029751758e-02,-6.523671713412093924e-04,8.203995219544133691e-04,7.000864862173966858e-04,5.199276208877563477e-01
2.155696940898153557e-01,6.246068354027950464e-01,-3.678268480672042262e-03,7.966920848619002404e-02,-2.811334232522277876e-02,2.249053737692108257e-02,5.727056264877319336e-01
4.503199915586565405e-01,5.026821933486433913e-01,-3.154508512095927086e-02,1.644250152891085304e-03,3.289015901087540580e-04,-2.080739155059472493e-03,5.100869536399841309e-01
4.915845038194750494e-01,4.903788625825156178e-01,1.746483556059330589e-04,9.049607200269736001e-04,-2.427710641882211036e-03,-7.719967932409534453e-03,4.910107553005218506e-01
2.068354747311109965e-01,6.534028733431225255e-01,-6.049170890446481375e-02,7.423273248245651490e-02,-4.613730228425739349e-02,1.113767071238385559e-02,6.430827975273132324e-01
4.589661663132102998e-01,4.523548866129990520e-01,-5.694457386616447181e-03,5.046364450807332667e-03,-3.547471212485868268e-03,2.475307820511972977e-03,4.615341126918792725e-01
4.127329608267733541e-01,5.040749780767228572e-01,-1.612600767061489471e-02,3.504325141037279573e-02,-2.478837928397252879e-02,1.956772446434752386e-02,4.879676103591918945e-01
4.749190188831312609e-01,4.900948023211099125e-01,-3.860250176147761447e-02,-1.268270417720119723e-03,-5.909730781575588295e-04,-1.291040254620841798e-03,5.212855339050292969e-01
2.142701118296427565e-01,5.708695409254894715e-01,-9.524823621108735594e-04,9.280189287170517720e-02,-2.753080519087549444e-02,1.473059290254536552e-02,5.281984210014343262e-01
4.828522779740351267e-01,4.950657970554592779e-01,-3.309766186465795679e-02,-5.723360209137932702e-04,5.283225275461279988e-04,1.826928765288084655e-03,5.221751928329467773e-01
4.668619876619801712e-01,5.227821231712772576e-01,-1.275068389724004492e-02,-5.345745160212934770e-03,-1.598634039947596439e-02,4.046607242902695162e-03,5.107611417770385742e-01
5.321313613942335596e-01,4.394406159876320106e-01,-2.564725550778290675e-02,-1.335743203893138397e-03,2.122225044966884536e-03,-3.460417694180125195e-03,5.177474617958068848e-01
3.692860833679005861e-01,5.705385686484301111e-01,-1.010068677693398698e-02,1.256299001781435373e-02,-4.347148891376301921e-02,2.967480791762821049e-02,5.192051529884338379e-01
4.555139338363830559e-01,4.793729637337413862e-01,-1.700138560415753730e-02,1.170701389868666377e-02,-9.338052673154156880e-03,1.002445378236065804e-02,4.858888387680053711e-01
4.779313341895414791e-01,4.991231719603399508e-01,-3.666031874878750152e-02,3.705218357621863036e-04,8.622255641404964624e-04,-8.684740536534283186e-04,5.255128145217895508e-01
4.425404647456063767e-01,4.438576147796775562e-01,-1.493232527014032307e-02,-1.686484168426633651e-02,-9.635705988366714478e-03,-7.435268149262414146e-03,4.595468640327453613e-01
4.818707637731257654e-01,4.882343446133471931e-01,-3.229666337699116374e-02,3.409990204764287453e-04,-3.033439128426638435e-03,1.474934408773223181e-03,5.174118876457214355e-01
4.873853394959629659e-01,4.905493663737132692e-01,-3.284276209641662225e-02,2.824353338782202528e-04,-1.643781141732145092e-03,-1.818937450136366945e-04,5.218253731727600098e-01
4.588506727654640960e-01,4.698118157462774502e-01,-1.410223025905105176e-02,8.521445958807835966e-03,-3.457209395198993038e-03,5.218125224505918737e-03,4.788779616355895996e-01
4.868534127269572021e-01,4.871787836156142304e-01,4.379267326469010735e-02,4.248358179702638225e-04,-2.873373879584614483e-04,-4.666457852298545698e-03,4.432981014251708984e-01
4.744257267214959661e-01,4.716719048346947885e-01,-1.916386419305582400e-02,4.654918365908991551e-03,-6.385189522985024798e-05,1.264821619249968752e-03,4.922893643379211426e-01
4.732031164037391324e-01,4.826046293456894842e-01,-2.430211445856378383e-02,1.169780611926002313e-03,-2.286783727892074437e-03,3.434580537915940101e-03,5.023269057273864746e-01
4.025761773986621939e-01,4.544663537320076108e-01,8.646947550193739840e-03,-1.981894813463283209e-02,1.944047907854172660e-03,7.505891759256308644e-03,4.238780736923217773e-01
4.842734695471040962e-01,4.883265926052842154e-01,-3.390796147203134492e-02,-6.572708756256672976e-04,-3.509074107873521388e-05,8.700656746294611259e-05,5.202211141586303711e-01
4.124620428159075924e-01,4.605777051130538480e-01,-3.440494252348658133e-03,-3.881585909523245503e-02,1.256313986950792667e-02,1.514641577792718435e-02,4.483115077018737793e-01
4.781170644759095145e-01,4.884058342170483624e-01,-2.889357307804574226e-02,-8.392561583855635918e-04,-5.631125663783686282e-04,2.890036410385346272e-03,5.122599601745605469e-01
4.290661911958155716e-01,4.363469610245818697e-01,2.178396433419438338e-03,-9.216765620520908989e-03,2.898425160410294469e-03,1.867754936322093108e-03,4.309115707874298096e-01
4.403662964612840014e-01,4.472659354884045979e-01,-5.783813534278758883e-03,-1.063575067035602874e-02,7.696661607752407035e-03,9.324410642390217399e-03,4.505038261413574219e-01
4.224885914675779452e-01,4.514734677188693146e-01,4.052919796210363579e-03,-5.418749754159509630e-03,2.687221042138115534e-03,5.043786610366671024e-03,4.338696897029876709e-01
4.564402063672499121e-01,4.564104145810153335e-01,-5.617168363113600460e-03,1.728615559452155361e-03,-3.138222355023662785e-03,2.309737355412308599e-03,4.621014595031738281e-01
4.134220801986768778e-01,4.694290770869861129e-01,-6.048396147046275484e-03,-7.535022339920973040e-03,5.313400125137697320e-03,1.283596452234843192e-02,4.509266614913940430e-01
4.926482601398132211e-01,4.437501051449243006e-01,-3.399966211615507161e-02,-3.439946504886924519e-03,-1.193546175394168823e-02,-9.697537933316912467e-03,5.047196745872497559e-01
4.642213458115735936e-01,4.744642325011704242e-01,-1.332861795201389921e-02,-2.958128031538807129e-02,-1.580473588778211202e-02,-1.384440442507155894e-02,4.868263602256774902e-01
4.960606876324824555e-01,4.776832008364449988e-01,-3.778332436514936221e-02,-3.038697006473599685e-04,-5.241582595431138261e-03,-3.141053041832102873e-03,5.250035524368286133e-01
4.953649939226526522e-01,4.850940815533609785e-01,-2.915343387105462369e-02,9.114164151855488807e-04,-7.422542191213941237e-03,-1.109510480342475527e-02,5.199758410453796387e-01
5.039179856638904553e-01,4.588357973857181138e-01,-3.214594927652597578e-02,-5.796057128868808278e-03,-9.439904539876975420e-03,-9.656033932839532680e-03,5.156334638595581055e-01
4.937577087581473956e-01,4.697616801944347609e-01,-3.806031149931687896e-02,-1.325849257990894311e-03,-5.337922131451298784e-03,-4.777576094400889407e-03,5.203882455825805664e-01
4.984476013584342446e-01,4.357223870126776255e-01,-3.653346054482881078e-02,-2.671287398412439465e-02,-1.044425568167188338e-02,-3.549810607619202640e-02,5.126701593399047852e-01
2.149752081622877953e-01,7.601299056475957494e-01,-6.741010200763219995e-02,1.210384740478146759e-01,2.096645805532947743e-02,2.292862577208507752e-02,7.600826621055603027e-01
4.874668098055599530e-01,3.893208018494236367e-01,-8.237185785924194814e-03,-5.745701379679252208e-02,-1.486248604910648911e-02,-1.846607473879219308e-02,4.672186970710754395e-01
4.172278793958434928e-01,4.903230266686654515e-01,2.440729826343490672e-02,-1.291247793519181841e-01,-6.395696914769656571e-02,-3.414713411163187995e-02,5.041362643241882324e-01
4.344487793278558052e-01,4.374837835269537734e-01,5.525102293803207942e-03,-1.505086741751209684e-02,-2.564434846963997185e-03,-8.098982781107312524e-04,4.312630295753479004e-01
3.921581988468521018e-01,3.864256111617185296e-01,-2.858211421111028772e-02,-2.168101352090797129e-01,-4.571262840007511707e-02,-4.205050440972527004e-02,5.720462799072265625e-01
3.589173062337969178e-01,4.861712688618839984e-01,-1.775131820775160962e-02,-1.268670556143115247e-01,-3.722538177739051490e-02,-2.857022945361327795e-02,5.107808709144592285e-01
5.694921496366162073e-01,2.146389264099276550e-01,-1.884661855518976470e-02,-3.359830588377944044e-02,-6.973345033783684768e-03,-4.784469619597130075e-02,5.231531262397766113e-01
5.711716005441469513e-01,3.227294484174145772e-01,1.879733335632349789e-03,1.520561791277774341e-02,4.171738259414282946e-03,-8.036005430927061865e-05,4.951025247573852539e-01
5.596156113540211585e-01,2.915279208102158348e-01,1.780340745863973062e-03,-4.623452870740147637e-03,-4.871197055973199019e-03,-1.492092776653902199e-02,4.840512871742248535e-01
4.778365228090079020e-01,5.019540687555472669e-01,-3.471288086835250253e-02,-3.199832218270559398e-04,4.817010727132998603e-04,1.313560661914266528e-03,5.250296592712402344e-01
5.678935231979534981e-01,3.137787954152410630e-01,4.409853796895291111e-03,2.977285309993994971e-03,6.092629677539133752e-03,9.367427445864827049e-03,4.891828298568725586e-01
4.823636690168575658e-01,4.885291728014411472e-01,-3.798935161297795071e-02,-1.421186941219606530e-07,-3.206617190520309746e-03,-7.846561377763590101e-04,5.234942436218261719e-01
6.013866444679576428e-01,2.792159668555213581e-01,-1.970357651963922097e-02,-5.312454311981246874e-02,1.347981359204063895e-02,2.886856435878241284e-02,5.485999584197998047e-01
5.483733463212738801e-01,2.817365573796308253e-01,7.949898901737251222e-03,-6.609941613987618814e-03,-2.893994180303052755e-04,7.159274243575339779e-03,4.683385491371154785e-01
4.766290262485244345e-01,4.971101210791714076e-01,-3.831744456829627721e-02,3.677937062340259520e-04,7.149097033653542500e-04,-2.347527807542222188e-03,5.255040526390075684e-01
5.554144980308162172e-01,3.060716973247836759e-01,9.749156994145913302e-03,-2.175349126063133576e-02,3.827047007288818942e-03,-1.884049602448847373e-03,4.746988415718078613e-01
4.817436413783662275e-01,4.982395686422369518e-01,-3.336412838547603288e-02,-6.197643613861398421e-04,5.901936376393687473e-04,1.971345201576053807e-03,5.235639214515686035e-01
4.457092868906747940e-01,4.684453280663213315e-01,-7.367849260296377434e-03,8.080926724632720576e-03,-3.690812508241972292e-03,7.566780815273269414e-03,4.653015434741973877e-01
5.613703316546192479e-01,3.267083959157445761e-01,-1.652148298328326437e-03,-6.338079253358554557e-03,5.163367745959273822e-03,-9.256464673048303560e-03,4.903041124343872070e-01
5.102005683319025264e-01,4.570866263860783318e-01,-3.306592205243136240e-02,1.122766928744121408e-02,7.266042541276639295e-03,-8.201260737472164375e-05,5.192698240280151367e-01
4.846010017263700509e-01,4.772970257353644774e-01,-3.991936885094726772e-02,-9.848866384059358926e-05,7.652069222644536546e-03,5.867072055901749461e-03,5.211744904518127441e-01
4.944618848892368135e-01,4.736985675575269283e-01,-3.447531201333781103e-02,-9.040866777631869538e-04,1.102700808262943241e-02,9.031613231398375255e-03,5.194565653800964355e-01
5.000452194255036176e-01,4.895019817283035035e-01,-3.778359021918220595e-02,1.381145236479315586e-03,6.141049500563227140e-03,6.308813645628354519e-03,5.328590869903564453e-01
4.857271116354427987e-01,4.926597411724505382e-01,-3.315070416369364503e-02,-1.145497418105372901e-03,-1.675336308422311921e-03,-6.216059610168293057e-08,5.223904848098754883e-01
4.864484428361692814e-01,4.542870090450020770e-01,-3.063307957668653936e-02,-3.196866392589008208e-03,1.489912140897413015e-02,7.478192573404577985e-03,5.026350021362304688e-01
4.959646539588447034e-01,4.880584703342426556e-01,-3.899173988286891435e-02,4.511434895075927369e-03,8.327096817167851592e-03,4.207002764857764414e-03,5.313506722450256348e-01
4.085991788173954364e-01,4.510672377345539275e-01,-2.680746660046806618e-03,-3.807555583602139498e-02,-1.212460548568662817e-02,-1.358603957616413317e-02,4.401874244213104248e-01
4.823285180626744051e-01,4.907105110549297988e-01,-3.390676025366667901e-02,-9.668027303629258499e-04,-1.158640329719537107e-03,1.405023606327425315e-04,5.204834938049316406e-01
4.588073646440640196e-01,4.603649805985070009e-01,-9.862786991558236682e-03,-1.435195210438261655e-03,-6.371359165999036615e-04,4.686741129822026195e-04,4.694594740867614746e-01
4.641061468345583085e-01,4.548701878735149084e-01,-2.152646153024823095e-02,-1.399094233136948581e-03,-7.504429449405191840e-03,-2.211487196378151415e-03,4.812780320644378662e-01
4.750313718249870032e-01,4.725582780775438585e-01,-3.599151811339096341e-02,-1.664598533212569790e-03,-2.472144184179887391e-03,-2.446989235789747211e-03,5.098345875740051270e-01
4.738016015984372609e-01,4.578841882621938475e-01,-2.047931071182296225e-02,-1.086169431769272442e-02,-1.528134648844476848e-02,-1.242889639242203415e-02,4.880750179290771484e-01
4.828723606479802810e-01,4.944851469834875557e-01,-3.350408470823235119e-02,-4.444430506612408681e-04,6.003112086035516069e-04,1.377330439103904456e-03,5.222867131233215332e-01
4.914166734268936576e-01,4.957948621097756359e-01,-1.965041431338077071e-03,-2.653545901589598761e-03,-2.505164143562984679e-03,3.271395035532717252e-03,4.956580102443695068e-01
4.280865631625866974e-01,4.519485695307705608e-01,1.244380927378774260e-05,-4.736269700981787789e-03,-3.978617279467455518e-03,-7.664296505479234120e-03,4.408203363418579102e-01
4.383216393311533676e-01,4.456649557495417913e-01,-9.242801531844369034e-03,-9.091505548894925764e-03,-2.237632226836524640e-03,-6.771621930535150040e-03,4.517244994640350342e-01
4.277128346924202740e-01,4.641442301590436026e-01,-1.698686181765240999e-02,-1.599503464582432630e-02,-4.463202377506570590e-03,-1.366013606505751821e-02,4.654816687107086182e-01
4.838247364537784367e-01,4.919076104207912303e-01,-3.321576895551964226e-02,-9.243281947159070035e-04,-1.846100076259484934e-04,1.658378665824164315e-03,5.211394429206848145e-01
4.810651577914872856e-01,4.872483674317255042e-01,-4.100380712436269004e-02,2.381698746088763597e-04,-2.328709612606997669e-03,-2.597904515851843284e-03,5.252227783203125000e-01
3.840225026922216567e-01,5.417029476514652053e-01,-1.821044019060635843e-03,2.724321534931707992e-02,7.753414944457647645e-03,-5.249066330887830088e-04,4.868121743202209473e-01
3.379815288438696719e-01,5.378201532244704097e-01,-2.277483856305551058e-04,6.801810310432155823e-03,1.963622948949432642e-04,4.225551738366646604e-03,4.712756574153900146e-01
2.646521761020981800e-01,6.029995032626389584e-01,-1.507725035854295959e-02,1.710936031354614792e-02,2.529462062895687299e-02,1.676563303838879068e-02,5.394572019577026367e-01
4.850481741985614992e-01,4.904544077287941173e-01,-3.410140894360980113e-02,-3.830826571349565599e-04,-7.601156398100492430e-04,5.916767578857854521e-04,5.218768119812011719e-01
2.785238574800829037e-01,5.726705416111270708e-01,3.609571107424491831e-03,-7.534047835324913719e-03,1.116804840571100285e-02,1.161789335143375776e-02,4.938771724700927734e-01
3.131267528350944462e-01,5.528737462082928822e-01,-1.293551144649240925e-03,-1.884091287390247732e-03,7.794190103419815566e-03,-1.997985693664700198e-03,4.815858602523803711e-01
3.161187218990094694e-01,5.640950406930811400e-01,6.010310288696640857e-03,-1.218517537152713492e-02,-2.194284020226161362e-03,7.214992659801250027e-03,4.849485158920288086e-01
4.915798365693737626e-01,4.863257965755488632e-01,-3.341203566797107394e-02,-1.091555084355941415e-03,1.709967942507002736e-03,-5.314053971182740137e-04,5.223972797393798828e-01
3.491512057610849373e-01,5.323541489375220870e-01,-4.505123822400813882e-03,2.061471450106500299e-03,2.623109126004141353e-02,4.549516714229999773e-03,4.749379456043243408e-01
5.037411823654480703e-01,4.421218463125663467e-01,-2.126069492389986992e-02,1.180120850448442525e-02,7.853325123241465186e-03,-6.916272303988045891e-03,4.978152215480804443e-01
5.911736562236160619e-01,3.554173441691440005e-01,3.699672786471347452e-02,6.857642124292179361e-04,1.261001483868153840e-02,-7.195225891357938386e-02,4.980484247207641602e-01
4.811868637054417253e-01,4.776974438801447898e-01,-2.733210178122946754e-02,1.024257445723948667e-02,5.289717258823945119e-03,-8.532032839164826327e-03,5.073916912078857422e-01
4.981620351535435698e-01,4.780243425432625926e-01,-3.434921912082466999e-02,5.792553008241358749e-04,-1.236590230700062654e-03,9.694605282094029795e-04,5.227414369583129883e-01
5.325159295577368557e-01,4.195669760664017534e-01,-2.578267537470996240e-02,1.878750681671998921e-02,3.558984550763310238e-03,-9.819189792234886069e-03,5.126224160194396973e-01
4.633548075935545740e-01,4.955235130168887947e-01,-3.517592301693001078e-02,1.076495568487458076e-03,-5.227120589364805253e-04,-8.554494686136386583e-03,5.155857205390930176e-01
5.421316570060112916e-01,3.458878559923918017e-01,-1.288287231116969078e-02,-2.067429625792651174e-02,-1.371802558223470664e-02,-4.641897102895966437e-02,4.959290325641632080e-01
4.989682238396742076e-01,4.729834755229158638e-01,4.372798404715599885e-02,2.258761942136094242e-02,-1.723475409787844420e-03,-6.123628598045039589e-03,4.446814358234405518e-01
5.395230107486701510e-01,3.325337786879131174e-01,-1.043021116810483040e-02,-3.200930411624406703e-03,1.952655588864564288e-03,-2.269854756901601781e-02,4.827489554882049561e-01
4.792570949700440952e-01,4.975026050987761406e-01,-3.764019501736204365e-02,8.789090899406516982e-04,-1.764830264477433661e-03,-7.266323472398803548e-04,5.262699127197265625e-01
4.957645180894038606e-01,4.851017476766592007e-01,-3.027157734764951424e-02,-8.193768722423093280e-04,2.288072050972365153e-03,-2.908040220332300339e-03,5.208279490470886230e-01
4.903430302471949442e-01,4.814401007667319377e-01,-3.193387204707542892e-02,7.685697194938501120e-04,2.635679750083102114e-03,-1.803228709370616537e-03,5.179140567779541016e-01
5.335960962459995738e-01,4.981310536873088668e-01,4.169117320170506735e-02,2.002996376490318899e-03,-6.637505018695056061e-03,8.501631557420140373e-03,4.755458235740661621e-01
3.066923327910022201e-01,5.318601956822206489e-01,3.426043099858833152e-03,-7.400779669865736876e-02,5.951644647118184417e-03,2.037552416474201419e-02,4.782677590847015381e-01
4.940136641150130181e-01,4.759368919618433558e-01,-3.765776088684058553e-02,3.800300557041758152e-04,-1.525851842473980495e-03,4.111054328506728276e-04,5.228750109672546387e-01
4.822271577265673237e-01,4.926524607801623934e-01,-3.614578479771074493e-02,1.427399215528830445e-03,-3.919085765697198458e-03,-3.217847283309462937e-03,5.237429141998291016e-01
4.997962230187765753e-01,4.548143575096117441e-01,-2.288061023542325989e-02,2.556120762178600448e-03,9.333952873935673356e-03,1.510945272985337109e-03,5.019873380661010742e-01
5.066884949725498632e-01,4.712630612928425666e-01,-3.078593001966367648e-02,8.017425692041648495e-04,5.927748959436179854e-03,1.547225427363286849e-03,5.207763314247131348e-01
2.759023953296976805e-01,4.622727469510143350e-01,-9.306168622764449117e-02,-2.152556247938043343e-01,7.671669480571280397e-02,5.984722665040882739e-02,6.379958987236022949e-01
4.803047060404682655e-01,4.841960010726945596e-01,-4.340272780863241309e-02,-6.561081890639559790e-04,2.139906126368665545e-03,1.753275848138361945e-03,5.256869792938232422e-01
4.421632875116854322e-01,4.625093758147951206e-01,-6.469195618415080062e-03,-5.412926069996776800e-03,2.870804284877312407e-04,1.121719568737385327e-02,4.596505165100097656e-01
4.520694559263260803e-01,4.548743687077734243e-01,-9.454567368691324525e-04,3.140104108634265544e-03,6.434068580109456167e-04,-4.281633771907320039e-04,4.544583857059478760e-01
4.419585665037967237e-01,4.749280927138043173e-01,-1.724017369040836689e-02,-7.034767055367173449e-05,2.647551340458384733e-03,1.383435372026885560e-02,4.771637618541717529e-01
4.927287284528846234e-01,4.815844916691941480e-01,-3.161712521224285810e-02,1.293722671519365909e-03,2.854779737458371710e-03,-2.307112146590880545e-03,5.189073085784912109e-01
4.820978112987082120e-01,4.892981415921122124e-01,-2.970080915892264750e-02,4.578749933502616258e-04,-2.659170905571794398e-04,-5.486707355582889911e-03,5.155249238014221191e-01
3.876968753512531340e-01,4.758184469005299899e-01,-1.278047540711696461e-02,-1.096492956761514759e-01,3.536979655540666012e-02,3.328356425553945924e-02,4.965718090534210205e-01
2.983003120089062765e-01,6.478109028157175153e-01,-6.533949507209946272e-02,2.000655246954810840e-01,2.598091298307110206e-03,2.941115043644046065e-02,7.100573778152465820e-01
4.022616685647391610e-01,4.406075680497451019e-01,-1.840440968599998950e-02,-8.919881415089758736e-02,-4.765806927485475436e-02,-4.424820420528562809e-02,4.807473719120025635e-01
2.966469263085165231e-01,3.651806182176420834e-01,-1.801615042685761336e-02,-2.682039020244250671e-01,9.716342846124806712e-03,8.485422733575984089e-03,5.844432711601257324e-01
4.450739165454341562e-01,4.469698379449662529e-01,-1.346365816524019987e-02,-2.643340349582134000e-02,1.280995294186122908e-02,1.139919804410706450e-02,4.627179801464080811e-01
3.824247999852306013e-01,4.437810812982976305e-01,-9.915878201758626664e-02,-2.965831862754170212e-01,7.982768313562892126e-03,-4.245382764599406160e-03,7.275751233100891113e-01
3.851446974702175674e-01,4.384318049171722631e-01,6.451843811650925797e-03,-6.666809798063924597e-02,-7.822147352049124008e-03,-4.474814891661769295e-03,4.242697060108184814e-01
4.988017758584457617e-01,4.816678596679022650e-01,-3.179348350502125831e-02,-3.899171321222971395e-04,1.841272324159916709e-03,7.632482554170869028e-04,5.222510099411010742e-01
4.916708072530812101e-01,4.846446064956034805e-01,-3.355700441131620471e-02,-3.365545095259522769e-04,3.872688595211757159e-04,-5.819282795865774165e-04,5.217519402503967285e-01
3.841756944155315656e-01,5.114898202926092541e-01,-9.001241484570432494e-03,2.215175675183609152e-02,1.623065348163096541e-02,2.013994560621499598e-03,4.723648428916931152e-01
4.918729751078324552e-01,4.846830960590103876e-01,-3.118508435084937913e-02,-8.034620538388542862e-04,2.091828180724242432e-03,-2.565490817484255334e-03,5.195339322090148926e-01
4.929193223130944324e-01,4.871544205544401374e-01,-3.273532850630272995e-02,-1.951349855252799362e-03,1.480736022631920501e-03,-9.538456755542703332e-04,5.228158831596374512e-01
4.929693730136819330e-01,4.856114491587898985e-01,-3.337544824878374561e-02,-7.362533599872990572e-04,1.808093663379470696e-03,-5.800043859150515006e-04,5.227165818214416504e-01
5.153497397564378302e-01,4.372365395000182842e-01,-2.557394683683711367e-02,2.390066528726678477e-03,7.686973439178377415e-03,2.697674897710507225e-03,5.066192746162414551e-01
4.329925359341890156e-01,4.702704918424808200e-01,-1.385280990680914925e-03,8.531707790738999805e-03,1.267924057873951425e-03,-2.960494745240176790e-04,4.544115960597991943e-01
4.908722055599269440e-01,4.839581367778023613e-01,-3.354202921817550642e-02,1.627291526239767910e-04,-3.575305936703077944e-09,-8.473629659847736935e-05,5.209916830062866211e-01
4.913970639250829775e-01,4.851804387999537616e-01,-3.134265429580518347e-02,-9.259140555192477400e-05,2.484196949532914683e-03,-2.607953605554492495e-03,5.196967720985412598e-01
4.936396051022114428e-01,4.832026222206378119e-01,-3.272040374002055385e-02,-1.258280436052400210e-03,1.347671242379528279e-03,2.298987635266269334e-04,5.212298035621643066e-01
4.913564191413070104e-01,4.807739248753614136e-01,-3.166395842976099662e-02,1.421666186071908835e-04,2.621010748194585720e-03,-2.391986792864553551e-03,5.178467631340026855e-01
4.654860559584593771e-01,3.681748004967060339e-01,-1.456222722085659393e-02,-8.416302448426440930e-02,-3.624812051624702602e-02,-4.278784538562010326e-02,4.731661081314086914e-01
4.448421213206094071e-01,4.632041834757452681e-01,-1.888844980104703586e-02,-1.760842407102501108e-03,-5.213810851960431168e-03,-9.520392867815695090e-03,4.735620617866516113e-01
4.240369982540547200e-01,4.311593989647682923e-01,-4.727496816256171464e-03,-2.996958468661524086e-02,-8.559225454166628083e-03,-9.861368351179218214e-03,4.360614717006683350e-01
3.698741966962247885e-01,5.012006315807173706e-01,9.534429074320449615e-05,1.056846040531426827e-02,-1.009323937014152588e-03,7.153317239450663473e-03,4.505956172943115234e-01
4.980779889794527682e-01,4.956494124499083442e-01,-3.167552081516017415e-02,1.772534402268991210e-03,-7.698912832233700007e-05,2.287710992044575051e-03,5.285671949386596680e-01
5.002070106049150144e-01,4.714480989053009274e-01,-3.462277171097644102e-02,-7.280991012077578416e-04,1.006791738339041155e-04,5.435719515912934650e-04,5.210483074188232422e-01
5.029145943337260949e-01,4.964406256665681028e-01,-3.171559730377865316e-02,2.812203764736437468e-03,-1.122402979537181393e-03,1.612812805276100719e-03,5.314559936523437500e-01
4.968087473966985579e-01,4.817314251500593447e-01,-3.298438757120142339e-02,4.296289836874612669e-05,3.916181804264141962e-04,9.686388315287874137e-04,5.224208235740661621e-01
4.518337186561199870e-01,5.132020821139865463e-01,-2.326491119779755534e-02,2.354473801760410389e-03,-1.635641972219787493e-03,-3.319041695022879532e-03,5.086241364479064941e-01
4.955956237929272090e-01,4.961541220651741746e-01,-2.985823618618366204e-02,4.809609111032398941e-04,-1.082192452552618043e-03,1.579014200491324609e-03,5.257444381713867188e-01
4.927240261328104109e-01,4.892465292333857407e-01,-2.727020489255815860e-02,-1.504897389678993549e-03,4.933260809209233551e-03,-4.995265116425821710e-03,5.184134244918823242e-01
5.812044751376141960e-01,2.226026658327511232e-01,-7.504543109487848973e-02,-9.849811510639129575e-02,-6.422163841358562164e-02,-1.723132646552681321e-02,6.052243113517761230e-01
4.941153667067256783e-01,4.954646253597547734e-01,-2.445080570986862822e-02,1.221244471877115092e-03,-5.775809359359039292e-04,-4.227031276911593499e-03,5.192990303039550781e-01
4.808807535786401299e-01,4.820768999823376033e-01,-2.521991336189893795e-02,2.816848470623843984e-03,4.052241942847086692e-03,-4.856504789630940698e-03,5.068417191505432129e-01
4.980988722724993822e-01,4.774977711301868766e-01,-3.325041726051974900e-02,-1.587811243507691828e-03,7.086081711081418724e-04,3.318589406117572992e-04,5.213631391525268555e-01
4.915918050471260736e-01,4.854410524341588040e-01,-3.163115810082772761e-02,5.106684397362132462e-05,2.685193768920358590e-03,-2.407160065220226557e-03,5.202123522758483887e-01
4.791031098275854716e-01,4.671375140900829726e-01,-2.641509922814760936e-02,4.267362765065728022e-03,4.771496780766651055e-03,-3.517088721023003267e-03,4.998030066490173340e-01
4.857503762370946054e-01,4.729744066921152124e-01,-2.574632544414423574e-02,1.688419755849318495e-03,5.207615371252438154e-03,-3.603962014144207991e-03,5.053573846817016602e-01
4.884164971462211513e-01,4.812094729229415835e-01,-2.950737929472574406e-02,3.204737393942090791e-03,3.817969294188845210e-03,-3.465601978751828619e-04,5.144310593605041504e-01
4.952525818573406680e-01,4.874877491251425887e-01,-2.496915488296108654e-02,-1.454378139880085257e-03,1.100803594447891326e-03,-2.743810551352389698e-03,5.164146423339843750e-01
4.820717463149872817e-01,4.904542566076298682e-01,-2.988172028559255011e-02,2.741365116147255796e-05,-1.858589363969205695e-04,-5.044108514114912373e-03,5.162698030471801758e-01
4.803072038852764791e-01,4.516360483014612015e-01,-2.861424664600392687e-02,8.324101119057188136e-02,3.671229822372045620e-02,-3.411370821053703872e-02,5.230234265327453613e-01
4.593665829521654809e-01,6.072648701341740729e-01,-4.406354574926940604e-03,1.834850456442862522e-03,-3.128488137052298085e-02,-2.946779112199739495e-02,5.577650666236877441e-01
4.859611583656402445e-01,5.185045348774932616e-01,4.404936881687859795e-03,4.372719298605581839e-03,4.993505280801620316e-04,-1.636256619088915110e-03,4.986913502216339111e-01
4.774483257216709520e-01,5.167943856329659802e-01,2.391168794235898343e-02,8.313373768447828577e-03,-1.202505995055860866e-02,5.832991952732939460e-03,4.752175211906433105e-01
4.849248342248106969e-01,5.004415818795876492e-01,-4.506527733141918457e-03,3.007059159113548152e-03,-1.059754381598463496e-02,-7.330172346882226318e-03,4.978990554809570312e-01
4.876007599047277319e-01,4.988081745763619512e-01,4.916765907892600707e-02,8.821096692364201186e-03,1.374209236461204978e-02,1.574314938670718679e-03,4.450508952140808105e-01
4.718703085981909018e-01,5.244169150400438406e-01,-3.298805134953081142e-02,4.803851744170596280e-03,8.757604303279715573e-04,1.120448930535812918e-03,5.331481695175170898e-01
4.761916715498619723e-01,5.368406709752429062e-01,1.260218023707943003e-02,2.641558724971716093e-02,-3.572981231334185909e-02,-5.777400426213452796e-03,5.027256608009338379e-01
4.663626819557849523e-01,5.001758370169024914e-01,-5.687415451139044009e-03,-2.733138244589144051e-03,-1.030267876692031979e-02,-7.200311228742792974e-03,4.903391599655151367e-01
5.519192010900998424e-01,5.499189971799679499e-01,9.046457580650996144e-02,2.803382192759440797e-02,5.428637712781541474e-02,-1.606732320677368292e-02,4.732806384563446045e-01
5.565389204886856955e-01,5.499837211020754957e-01,8.687686324776305868e-02,2.633942947762549919e-02,-6.994965091493637009e-03,5.098426531040804732e-03,4.688845872879028320e-01
5.619616731361148920e-01,5.272942678524250582e-01,8.342089910288874588e-02,5.414551213160384568e-02,-7.621952507016810895e-03,-1.123806897070843067e-02,4.721882045269012451e-01
5.370587321110964485e-01,3.561863573440665065e-01,-1.825732975781912959e-02,-9.007975094846756847e-03,-4.015606162696640571e-03,-1.345900359054263886e-03,4.908631742000579834e-01
5.237068066702443847e-01,5.301379049118972731e-01,4.764567177399187115e-02,2.701004656094241341e-02,-9.790402541914254922e-03,1.270018369324852313e-02,4.823870062828063965e-01
5.030018401878963985e-01,5.476067308581057391e-01,4.456699188823665114e-02,2.095306862233291961e-02,9.214689404533808748e-02,1.905634118417539463e-02,5.103726387023925781e-01
4.984931675264255291e-01,4.691116366179934882e-01,-3.813750985813485483e-02,-3.210634661566987577e-04,-5.069044559246949078e-03,-4.344416498029648153e-03,5.226879715919494629e-01
6.836238785442994015e-01,6.579105640298681390e-01,6.135302990941554624e-02,1.399420522610229367e-01,3.367040839448386808e-02,-5.000637325634724184e-02,6.644816398620605469e-01
4.964571828265285092e-01,4.809540840459383126e-01,-3.484080668562100636e-02,7.762295913281390403e-04,-2.340097840840449101e-03,-3.005101375102633022e-03,5.237618088722229004e-01
4.991761021892457961e-01,4.632774547205610882e-01,-3.774764046151396490e-02,-6.178179396457376266e-04,-6.144338305963704949e-03,-2.322711432215065531e-04,5.200149416923522949e-01
4.970363531444250693e-01,5.329138428063704414e-01,6.864128272242286943e-02,5.369047436771803676e-03,-4.876764568896703629e-03,-3.237165682618297138e-03,4.476254284381866455e-01
5.494158076802434509e-01,5.218054970503082091e-01,6.977152622765453449e-02,8.590385184990039641e-03,-9.419733627277443108e-03,-8.535380617386123525e-03,4.672087132930755615e-01
6.578424844949897210e-01,1.082546605671169671e-01,-3.525059587639917114e-02,-5.981098905262034748e-02,-8.801441840110883763e-03,4.648396554402246285e-03,6.422916650772094727e-01
4.582637148200652266e-01,4.538495335348021742e-01,-1.203572872740388267e-02,-9.912347084441852987e-03,1.047655710141855677e-02,9.850154843460126250e-03,4.690844118595123291e-01
5.623094320149206737e-01,3.133388234153808294e-01,-7.350142257141090152e-03,1.685747776404617274e-02,2.147621755563198544e-03,-1.403597343357684823e-02,4.961121678352355957e-01
6.438562135928980190e-01,1.659644794836510617e-01,-3.872233166328153953e-02,6.878287913851460766e-02,-3.640021797887677598e-03,8.602552481501709453e-03,6.185065507888793945e-01
6.585223557799043670e-01,1.155697052149139148e-01,-2.598436758457331464e-02,1.254456444325811049e-01,3.310075592400342492e-02,-2.524072317135183600e-03,6.649873852729797363e-01
2.513707497923605705e-01,5.317118187679856778e-01,-7.965323630640955277e-02,-2.315916343994177951e-01,-4.228421053440965111e-02,3.125644036063002923e-02,6.709444522857666016e-01
4.528275256211163891e-01,4.076568487839299371e-01,8.704377025803233803e-03,-3.696449932494448587e-02,-1.448203850629808031e-03,7.058797854543303642e-03,4.283448457717895508e-01
4.212456055651812026e-01,4.276870880771027061e-01,3.882067069947092719e-03,-7.720845390248627649e-02,8.790912928538766394e-03,1.828937667126098732e-02,4.427652060985565186e-01
4.380375962522300437e-01,4.320182127210059342e-01,1.894883313638795475e-03,-5.073346866574372435e-03,-2.662144119554406274e-03,-1.252127588105848323e-03,4.332834780216217041e-01
3.571688247070550215e-01,4.840467816276095014e-01,6.920609488526630049e-03,-2.483054162948615876e-02,-5.372277512217263351e-03,-1.823377046004030820e-03,4.302985370159149170e-01
4.866615219483683141e-01,4.747748852092255056e-01,-4.048154086669636387e-02,8.049543862018361138e-05,-2.774039548870781136e-03,1.467630359808561296e-04,5.213236212730407715e-01
3.481116517448849534e-01,5.056307900418879342e-01,4.793894029386902567e-03,-5.579341126631744835e-02,4.627969817776399555e-03,1.503270537324852274e-02,4.547959864139556885e-01
4.552865946653236184e-01,4.690558006547045911e-01,-1.095242492949921598e-02,4.646127862398324523e-03,-1.375448520027685879e-03,5.511853771619385292e-03,4.734445512294769287e-01
3.627556531848572519e-01,4.839480254838591233e-01,-4.664014636878766051e-03,-2.790524743852266024e-02,9.603234568310007116e-03,1.911662984542795291e-02,4.448846876621246338e-01
4.178535451533257894e-01,4.320344084931435624e-01,6.966999386882666290e-03,-9.575358569163383571e-02,2.636472268761602331e-02,2.413570015715934408e-02,4.540866911411285400e-01
3.517466649218272678e-01,4.841863151219295558e-01,9.213711070681640525e-03,-2.747456836372820857e-02,1.807741181456023246e-04,4.006118854935973063e-03,4.272550046443939209e-01
4.865439047677426743e-01,4.884701163714897376e-01,7.358017674664529828e-02,1.448700327788689669e-03,-2.107818961409184486e-03,3.855989163730746613e-03,4.140077829360961914e-01
4.812677685757398294e-01,4.808900839277913120e-01,-4.219738498261266235e-02,-2.022505796310269694e-04,-1.939739330293321776e-03,-1.948600801673885247e-03,5.232982039451599121e-01
4.942131059580703312e-01,4.970926631787707661e-01,8.728506480534159451e-02,9.379764388576784101e-03,-3.710084725507557237e-04,1.143967185981960809e-02,4.091790020465850830e-01
4.872487216696517187e-01,4.767567050855067712e-01,-4.045838410099972249e-02,-3.960602790520251524e-05,-2.419810251246517618e-03,-1.272410189388952732e-03,5.225615501403808594e-01
5.358671036085340678e-01,4.833417713796774873e-01,4.529014615638998764e-02,-1.535140493445971421e-01,-8.870886581075791699e-02,-8.531160006322061062e-02,5.777530670166015625e-01
5.042599145811695882e-01,5.288312722026773383e-01,1.184500466776961525e-01,2.964538840711223103e-02,-6.081481083736900439e-02,3.939662508982476330e-02,4.210950434207916260e-01
4.824262206677771281e-01,4.879844435223049115e-01,-4.088993812933788830e-02,1.349371377120860615e-03,-2.016687431251070525e-03,-2.422161294134023493e-03,5.261508226394653320e-01
5.448978322683309949e-01,4.921114668458368424e-01,7.649910677442417484e-02,1.844938875349523208e-02,-6.684981694227698761e-04,2.458193506492977343e-03,4.455326199531555176e-01
4.739672753312947906e-01,4.691645631122249860e-01,-3.513184490887222289e-02,1.286437135170689829e-03,-4.669017487204329096e-03,-1.359696744312240612e-03,5.067897439002990723e-01
4.811368091808879144e-01,4.759040189097543117e-01,-4.023849860486550245e-02,-2.930875243158892430e-04,-1.536282346321048370e-03,-7.880885148260786260e-04,5.187875628471374512e-01
4.828633625374850746e-01,4.753087715173990313e-01,-4.107723970962723348e-02,1.371707649384735226e-03,-2.346317618911590488e-03,-1.039897262106803731e-04,5.202257633209228516e-01
5.460132528322350076e-01,5.408968818281797430e-01,1.006059165034880465e-01,2.255660299778770861e-02,-1.882670181761704128e-02,-2.448130488294810586e-02,4.477976560592651367e-01
5.024090053559622238e-01,5.524276105531615855e-01,1.092964728692627507e-01,2.915493184822388201e-02,-1.379331417690101173e-03,-1.622752873456095521e-02,4.243206381797790527e-01
4.920504671756941173e-01,4.959876831829053145e-01,6.798551585293277633e-02,6.423473111155906818e-04,1.283609984250700352e-02,8.285242510202846938e-03,4.268696308135986328e-01
4.927528276174749089e-01,4.881695495060759393e-01,-3.144495158033211446e-02,1.161458270899745539e-03,-3.871794372358117447e-03,2.864116535368922255e-03,5.219917893409729004e-01
4.888656627484031514e-01,4.961539810402414430e-01,-2.573202837856364278e-02,-1.737287746238048254e-03,-7.986601714322099158e-03,4.151624569478156064e-03,5.185234546661376953e-01
4.712936688219601100e-01,4.703166802395165602e-01,-3.484406298301551130e-02,9.574263582893021351e-04,-1.132024960137006280e-03,-4.784363257185920808e-03,5.057243704795837402e-01
4.842711740207853444e-01,4.894423254858810690e-01,-3.212496802080749836e-02,6.703577319574767317e-04,-3.250640741292351241e-03,2.711910347802333043e-03,5.190541148185729980e-01
4.920713271981175252e-01,4.948065952599954853e-01,-3.030859010486058880e-02,-4.342587142908050269e-04,-1.001604907067517140e-03,8.431414592509413634e-04,5.237583518028259277e-01
4.896261570876395686e-01,4.932831128452503378e-01,-2.851413663522855968e-02,-1.209728384948609422e-03,-2.091380253975269523e-03,-1.620624416533157121e-03,5.200028419494628906e-01
4.862949979245148047e-01,4.983098729410903038e-01,-2.850559746412695272e-02,1.858584270855550592e-03,-4.107521630144593885e-03,-1.408716240229289113e-03,5.209761857986450195e-01
5.479577213892334875e-01,5.549745969208867979e-01,7.748690730529173010e-02,2.418427288754197713e-02,-9.102438884215906245e-03,4.685366942391423761e-02,4.829930067062377930e-01
4.780720647207459262e-01,4.762575920318267708e-01,-4.070622871410173316e-02,-2.537890812610933190e-04,2.610600607080423934e-08,-3.978685452836162807e-04,5.178740620613098145e-01
4.646984603120598578e-01,5.337940825111933130e-01,6.985987455683401182e-02,-2.504899644865284103e-02,-1.031475864239330964e-01,-3.072215207252787517e-02,4.739045500755310059e-01
4.626330734061057104e-01,4.702380525403183076e-01,-1.414086710184775386e-02,1.427679543395258318e-03,-3.350356389917413975e-03,3.829294170825802302e-03,4.807087182998657227e-01
5.270104354141585956e-01,5.434621424578351956e-01,6.304634505674466816e-02,1.427367041700060204e-03,8.331846456529599237e-03,-2.254200698588054632e-03,4.726478159427642822e-01
4.939342779498830938e-01,4.879671118338408942e-01,3.652292504773535509e-02,-5.818009466595187255e-04,4.913553650898227002e-03,1.568834384701322388e-02,4.553494453430175781e-01
7.090987184087538253e-01,2.417561413661402647e-01,-2.745844592529261829e-02,-1.043420247886843039e-01,-1.275298514773148123e-02,-4.602067969725925911e-02,6.754290461540222168e-01
5.102550693840486318e-01,5.118031394111494103e-01,7.577121649059176400e-02,1.962195414616545175e-02,-7.185157463383819339e-03,9.329509945319679892e-03,4.370609521865844727e-01
4.652400351571909232e-01,4.556795340279313766e-01,-2.237366117658978748e-02,-6.004621678667294155e-03,1.381107578418351925e-02,2.258794373918445418e-03,4.836242198944091797e-01
4.899999058172057609e-01,4.759658347091810238e-01,-3.914081657100410006e-02,-1.762270930866093759e-04,-4.794716064454022063e-03,-2.981695525848612836e-03,5.223567485809326172e-01
5.249879269328435738e-01,5.297880189394972295e-01,7.192033373052592049e-02,3.378611404038414385e-03,4.356035173747077778e-03,-4.422130376254224636e-03,4.556510448455810547e-01
4.865203178449092336e-01,4.753663348217651574e-01,-2.926462404128815642e-02,-1.546426854800853632e-03,3.474418589555817744e-04,-3.256644645231093760e-03,5.103379487991333008e-01
4.069874217643876246e-01,5.044446619562616974e-01,-2.288918048414101403e-02,-7.411641202498073060e-03,-1.434455075318183045e-02,-1.548742575795984330e-02,4.875326454639434814e-01
4.696927425701625802e-01,4.644345690029254015e-01,-2.642660251494743928e-02,-1.779930791664878498e-02,-1.555445508583398403e-02,-1.506892588300720592e-02,4.958939850330352783e-01
4.386348545373051078e-01,5.037964380232764494e-01,-3.375645335504667832e-02,-5.773976938247125934e-03,-7.923954873536627128e-03,-9.687887632531158588e-03,5.086759924888610840e-01
4.271336491296680027e-01,4.813335014652484478e-01,-2.188329629252189212e-02,-4.928206806832700557e-03,-7.190512588805203845e-03,-1.389887684393384219e-02,4.792681932449340820e-01
5.724175899429652103e-01,3.875084324023922999e-01,5.943847487929332374e-02,-1.158945996951370530e-02,6.070723348451019519e-02,4.626815644452059173e-02,4.694312512874603271e-01
4.990999044509956128e-01,4.714681637120096136e-01,-3.304522356408312600e-02,8.032496874775603597e-04,1.437294439813651412e-03,1.549986950725447312e-03,5.188961029052734375e-01
4.368174534817429455e-01,4.742833305270793276e-01,6.648501014271390730e-04,6.794237609249670524e-03,-9.067375842755118860e-04,5.735674369624744508e-03,4.563039243221282959e-01
4.809711309696964587e-01,4.459428046159191750e-01,-8.002064910085371352e-03,2.477143489603245326e-03,9.184228164497251767e-03,-1.063078557895575510e-03,4.727247655391693115e-01
4.532111002620564655e-01,4.428612657990551593e-01,-9.254368749751495926e-04,1.291316032137064182e-02,-1.240203042832916085e-03,6.672746238119528668e-04,4.496143758296966553e-01
5.144198450691859215e-01,4.995217276942056639e-01,-2.411049899213107972e-02,7.741024843726008325e-03,6.359657333303841021e-04,5.926532223161035638e-03,5.315074324607849121e-01
5.375306011342342316e-01,4.519677192071586136e-01,-1.307266418429103849e-02,4.881395229835201049e-02,-1.903200182757967124e-02,1.292375751757774208e-02,5.216415524482727051e-01
4.966709399984968742e-01,4.927694021942948810e-01,-2.435242369072976309e-02,6.612691577473042877e-04,-7.227862133104303016e-04,-2.042440963613008798e-03,5.190984010696411133e-01
4.423235272262400763e-01,4.627293808328679647e-01,-1.991977365885633233e-02,-4.169571494138114495e-03,2.010667051124609157e-03,6.972030851481698238e-03,4.729987978935241699e-01
5.062692168824580730e-01,4.843509010525013370e-01,-3.587193273094230195e-02,3.167954990856454347e-03,1.218980182984327493e-03,6.994447195880138489e-03,5.316916108131408691e-01
5.100463719012526820e-01,4.657029390123306745e-01,-3.282225566173102571e-02,1.023324829876444192e-03,2.486493644669707150e-03,1.748650950343804116e-03,5.221406817436218262e-01
5.506947340858192597e-01,4.071772120601140355e-01,-1.924309028514364917e-02,2.437390859043423938e-02,-4.626208310068006570e-03,1.511028345348058854e-02,5.159086585044860840e-01
5.244702147004142168e-01,4.396656707947523834e-01,-8.681592789394343423e-03,-2.994137843423896276e-03,7.196502483903166256e-03,2.279669332931702833e-02,4.979661703109741211e-01
4.981913249440018676e-01,4.940899810768260014e-01,-4.869127454742994132e-05,5.994266479827786709e-03,-1.166699388977592748e-03,-7.404184736616883228e-03,4.964804351329803467e-01
5.019322514658197676e-01,4.659240261312141973e-01,-3.541203579056800832e-02,1.138468590174830349e-03,-2.413619691021405989e-03,1.778653128952982021e-03,5.203052163124084473e-01
4.611836621905596179e-01,4.552772505923414759e-01,-2.039866843310450539e-02,8.425681908164748450e-04,8.227583841470438586e-03,1.476125218610306079e-03,4.788776040077209473e-01
4.584924734223516651e-01,4.900604313771323994e-01,-2.290441274118987236e-02,9.346022663174771011e-03,1.071726291730471273e-04,8.656586629814430611e-03,4.984205961227416992e-01
4.959831446810533673e-01,4.758161123032417228e-01,-2.947628103854094128e-02,-2.869709420153500687e-06,5.647649607812655487e-03,2.092973896269402750e-04,5.157646536827087402e-01
4.984174273661010068e-01,4.975623663099612015e-01,-2.983866517715716427e-02,6.390076636329232972e-03,-1.499334079946388221e-03,4.469945165550819922e-03,5.280082821846008301e-01
4.894465878544401738e-01,4.884278847443404015e-01,-1.485394749758767174e-02,7.932262406306375517e-04,-1.446618808810948330e-03,3.838737501252091101e-03,5.038439035415649414e-01
4.965826201005444362e-01,4.243061287760898637e-01,-8.541411360302730849e-03,7.193020325651763858e-03,1.071765350042936694e-02,-4.733439467849839068e-05,4.736722707748413086e-01
5.002737762516969999e-01,4.714776206713768847e-01,-3.721577023834543585e-02,-1.641520659523915127e-03,-5.111354068410159726e-03,3.536285327639726236e-04,5.237684845924377441e-01
5.126759927019270968e-01,5.047161252037504209e-01,-3.082658089638939947e-02,-1.136930798334573507e-02,9.696912723690548699e-03,3.922302765982194767e-02,5.444422960281372070e-01
4.838215940779246882e-01,4.658016050883129200e-01,-3.671791359389525722e-02,-2.079960243726772327e-03,-9.274562736175601466e-03,-1.323836378118162325e-03,5.120373964309692383e-01
5.274238476134807119e-01,3.851757664882080601e-01,-1.668327135182606780e-02,4.922047582076003423e-03,-2.612503709254017457e-03,2.437170057627427791e-03,4.888761043548583984e-01
4.514176516276643403e-01,4.846066237161028023e-01,-3.391957462750555541e-02,-4.025660067609853829e-03,-6.636108552458303000e-03,-1.141949819865524171e-02,5.033224821090698242e-01
5.074954154377303572e-01,4.712731090532721878e-01,-3.480615346869359028e-02,1.385831111932262416e-03,-7.031988114517103350e-04,1.094826752938658819e-03,5.251385569572448730e-01
4.628214255261660082e-01,5.177414748400679390e-01,-3.476496727696826161e-02,-5.042440746134326662e-03,-1.183981898084335987e-02,-6.772725729029443857e-03,5.277976393699645996e-01
4.724946419216414784e-01,4.881391865175003231e-01,-3.487946035572642156e-02,-1.974021981380773803e-03,-4.274751620431811207e-03,-7.135137820648307719e-03,5.155871510505676270e-01
4.781466082404022266e-01,4.884589908158407656e-01,-3.950899796401913244e-02,6.261541373717157506e-04,-4.691275304320924322e-03,-5.518779214446767334e-03,5.230396986007690430e-01
4.687404260877778839e-01,4.940707602812666188e-01,-3.652533654146261632e-02,-1.331809335058111452e-03,-4.448424094265074347e-03,-4.823914504529570359e-03,5.185250043869018555e-01
4.431706181967389746e-01,4.961863120137040006e-01,-3.517564264131695095e-02,-3.073433041387758219e-03,-1.156638016701991810e-02,-1.323638089193099852e-02,5.078788995742797852e-01
4.776167139627728320e-01,4.796971878996660887e-01,-3.843740962995162436e-02,-6.822437832251365686e-04,2.269180521669878717e-03,3.597066080780102551e-03,5.171512961387634277e-01
6.083300854611619624e-01,6.356488830763165065e-01,9.104130567489288062e-02,-4.734212992462237535e-02,-9.814256357332265535e-02,-1.019776384374230516e-01,5.910023450851440430e-01
3.241414807205947879e-01,5.112642339529201996e-01,-2.694915807828768273e-04,-1.929778683232692346e-02,-2.148036452185392645e-02,-1.138208086446294148e-02,4.514999091625213623e-01
4.733565059369441164e-01,4.567169073978580296e-01,-2.286658815431474867e-02,-1.962310133225538336e-03,-6.242475187944323232e-03,-1.821877608702924178e-03,4.882578253746032715e-01
5.286506494569497283e-01,3.999119131948155603e-01,-8.429155702967872088e-03,1.075245077372921354e-01,7.511362084165029707e-03,1.500172377240797938e-02,5.209744572639465332e-01
5.403882025210906548e-01,3.239110470700743427e-01,-2.028349420172892437e-02,1.883841564270208324e-01,1.181081384229691611e-02,-3.427657047859698162e-03,5.888649821281433105e-01
5.129717709065608755e-01,3.829767688124827152e-01,-1.495193387695509246e-02,6.216913874954007463e-02,7.500825591933487496e-03,-1.881647515809556706e-02,4.896944761276245117e-01
6.354598932043167281e-01,2.574759973099944865e-01,-2.590557724614406254e-02,4.770874006382170435e-02,-2.486863162962284039e-03,-4.806200143353824700e-02,5.865725874900817871e-01
5.941610384394895306e-01,2.652010734841473427e-01,-6.595178656899680636e-03,5.878134093477691696e-02,2.530395017867963139e-03,-1.049059351239066754e-02,5.312373042106628418e-01
5.483280522020452796e-01,3.092867591225172408e-01,-1.588961398580668316e-03,5.450097351636939980e-02,1.543676157168324091e-02,-1.034479396829803693e-02,4.878970980644226074e-01
4.980940256408682987e-01,4.943307004177016628e-01,1.354366949124780062e-02,7.557105439465857527e-03,8.454207813069596067e-03,1.429381905341865940e-02,4.837131202220916748e-01
4.981196867423334229e-01,4.920728165769547302e-01,-3.726027197793935208e-02,1.609592613326520181e-03,5.903249428826319242e-04,1.744501441408994290e-03,5.323991179466247559e-01
6.967548150739037993e-01,2.719749889362049200e-01,-1.093599347552657308e-01,2.900989137698125053e-01,8.207426649940816749e-03,4.671748493433243443e-02,8.643260002136230469e-01
4.774011426471879149e-01,4.777622269182116854e-01,-4.087065109936971474e-02,8.294845135699577352e-04,-4.040034336480507918e-04,-1.508135830761375565e-03,5.184614658355712891e-01
2.860558785107096824e-01,6.152403385933942204e-01,-7.484140497349300869e-03,5.739515933358659179e-03,8.978713016947368133e-03,-2.185834626282110935e-02,5.412310361862182617e-01
1.991268197312976163e-01,5.700320991768017542e-01,4.455603436873678547e-04,-2.376492118838510054e-02,3.888083303624221762e-03,5.497082743309606064e-03,5.025606751441955566e-01
5.136473536458133760e-01,4.736096121034740758e-01,3.856830339800543239e-02,-3.698924854356416131e-02,3.807289581196098352e-03,-1.217595348137934068e-02,4.613836705684661865e-01
2.711673956663265828e-01,5.640209427450482149e-01,-1.361429247312628821e-02,-2.353397178476426127e-02,2.758482978908664146e-02,1.301221150041791119e-02,5.046933889389038086e-01
2.847634346883703427e-01,5.622238424531562639e-01,-7.899978213220193446e-03,-1.885748130824488680e-02,6.288598560939756728e-03,1.379580700610084053e-02,4.955755174160003662e-01
5.087540870745093091e-01,5.306742759225666628e-01,-3.367067829630188136e-02,-2.739149202898930394e-02,3.501609063059391014e-02,3.704272073716329688e-02,5.627085566520690918e-01
5.177345477990852318e-01,5.028346207430726134e-01,4.877924086109708401e-03,-3.692054963079700360e-03,1.327413652219480364e-02,3.556065107465262998e-03,5.061717629432678223e-01
5.288698418727826311e-01,4.900613658477026013e-01,7.054623353736005908e-02,-4.639409527531687324e-03,4.934840259728776046e-02,4.713675716490065004e-02,4.558681547641754150e-01
5.209553209178608979e-01,5.397605244352740028e-01,5.343689703217030518e-02,1.926513048079740373e-02,2.906021905290027789e-03,-1.636143624529021873e-02,4.792293310165405273e-01
5.016018522852918604e-01,5.192803979809919035e-01,3.006361737323753891e-02,-3.270949819406517457e-03,2.774911379714080362e-02,3.034617400052874812e-03,4.830804467201232910e-01
4.805798104967042295e-01,4.686833504093070868e-01,-2.108416538488577796e-02,4.526200800024050234e-04,5.931414006866956093e-03,-1.559286286584687356e-04,4.959299266338348389e-01
4.858238932995055936e-01,4.685747701614944583e-01,-2.279227600202582416e-02,4.525213716047976056e-04,7.528456072515976941e-03,-1.559116953314740718e-04,5.003853440284729004e-01
4.964831863786967059e-01,4.549133404576297668e-01,-2.540369866266606325e-02,2.658636621604965229e-03,6.652120256590420867e-03,1.574728056641781391e-03,5.025540590286254883e-01
4.580252527417670860e-01,4.695059035415623527e-01,-1.417503659279106820e-02,5.917730892336271233e-03,-3.731599730224154522e-03,5.115561565422026280e-03,4.782796502113342285e-01
3.977616977209507132e-01,4.203292297118116916e-01,-3.786070099082561313e-02,-2.676826031150012497e-01,-2.242179495179453044e-02,-5.543588941823818922e-02,6.525309681892395020e-01
7.427586407671977753e-01,3.481618098584826071e-01,2.166202543819739645e-02,-2.352036608312634350e-02,-2.514880900736097061e-02,-7.153888790903072115e-02,6.403553485870361328e-01
4.027307224556470056e-01,5.437386642329421482e-01,1.307289484771534394e-02,1.370438669270059862e-01,-6.302438790289521808e-02,-1.150828065328062325e-02,5.434316396713256836e-01
5.075755321671806541e-01,4.374179736657108908e-01,-2.642520721881380652e-02,2.934751415106191374e-03,3.717178175797848302e-03,2.732987449300795443e-03,5.026971101760864258e-01
5.109521429922001534e-01,4.309049206101753793e-01,-2.654088533144027817e-02,-3.903100050377930402e-04,-3.389926974731158772e-03,1.474634757854355067e-03,5.023175477981567383e-01
7.130285679893633155e-01,3.093114029279767085e-01,-1.102924215505418637e-01,2.390340823226808908e-01,2.437016589240919781e-02,-2.516227396127514171e-02,8.267703652381896973e-01
3.772129235103898193e-01,4.781808473208515320e-01,-3.315387001126551825e-02,-1.491057765083055042e-01,-2.078854732982959863e-02,5.245233637369684128e-03,5.367550253868103027e-01
3.884819621842441340e-01,3.494878048786813629e-01,-1.871558787150567893e-02,-2.119909841350836599e-01,-2.326371061820283609e-02,-6.337405195538239194e-03,5.366718769073486328e-01
4.585697978293091781e-01,4.702937383670088289e-01,-1.070471029207203939e-02,9.500656768490036482e-04,-9.229871581226279514e-04,4.616488075163896129e-03,4.753177464008331299e-01
4.198054253919583090e-01,3.719174267244031995e-01,-5.567578458813626785e-02,-2.484790405682610615e-01,-3.047312187420260846e-02,-1.913576426645675205e-02,6.282640099525451660e-01
6.461550118555743349e-01,2.641730690227189760e-01,-2.921717033049947565e-02,3.182936433868144895e-03,2.074450807364789859e-02,7.117798986278221773e-02,6.004815697669982910e-01
5.089409889169969059e-01,4.201327967889312287e-01,-2.747543864756840648e-02,-4.492493944689143932e-03,-8.903016834008216362e-03,9.936466795230148360e-04,4.982896745204925537e-01
5.107574344055040294e-01,3.577035954156760900e-01,-3.935443631943091880e-03,-1.181955952198439352e-02,1.436995694633842573e-02,5.393094058218222964e-04,4.589095711708068848e-01
5.167440152592712721e-01,3.854222854353179795e-01,-1.361549450520938009e-02,2.878892896028297649e-03,5.010741950116987670e-03,1.787515367279395853e-03,4.785275757312774658e-01
5.637700766527551366e-01,2.940533830749640920e-01,-1.560858490275041088e-02,1.669611784589402140e-02,1.421573897055371368e-03,8.139984320627067062e-04,5.029940009117126465e-01
5.460224266238200563e-01,3.154590513847350675e-01,-7.790970896084770114e-03,2.439011822640979599e-02,6.940453897057913268e-03,-3.092419510527589285e-03,4.838775694370269775e-01
5.450790350735039702e-01,3.790853546037687982e-01,-4.637892347521654912e-03,-2.158043020696105046e-04,5.977837479060046574e-03,2.484678315783118638e-02,4.903595447540283203e-01
4.962457938182464057e-01,4.016691303012995262e-01,-1.819403035044908634e-03,9.304729186527565393e-03,5.293558046936455014e-03,3.927176682534531168e-04,4.585331082344055176e-01
4.963957558997336705e-01,4.875755422705578823e-01,-4.190142368998861500e-02,1.604621143649118077e-03,3.759112500891826497e-03,-5.155473004229073515e-04,5.339893698692321777e-01
5.047955502922168991e-01,4.202332481731197444e-01,-2.765550891874701822e-02,-4.903531910592206708e-03,-1.137338146073966355e-02,5.269521765934637213e-04,4.960752427577972412e-01
5.565115721045281738e-01,3.019852276006277925e-01,6.351258782581470363e-03,-1.891031205819933975e-02,3.835230811658808976e-03,-8.321290886292386987e-03,4.782827496528625488e-01
3.638503904711625214e-01,5.135825874552145676e-01,3.097207428184867162e-04,3.679433147699279899e-02,5.367105022547937962e-03,-3.013036476700516053e-03,4.617254734039306641e-01
4.963512953791495708e-01,4.882368988820772748e-01,-4.062104673253608134e-02,6.401536765840361602e-04,2.787240084429385648e-03,3.517625626442324582e-04,5.329848527908325195e-01
5.584227267178729637e-01,1.946830916416054658e-01,-7.083550360162671478e-03,-1.655122209504319986e-01,-5.728092844081434688e-03,1.556159906713948382e-03,5.733196139335632324e-01
6.204422250862817734e-01,1.249712622605016199e-01,-3.673043103144774113e-02,1.634956235057380136e-01,8.317053978972536316e-03,3.387952999391814074e-02,6.600006222724914551e-01
4.842208453975043181e-01,4.445368576720060139e-01,-2.495628964744517342e-02,-4.137524363972804216e-03,-1.141470481463317289e-02,-1.165437031849256158e-03,4.909952282905578613e-01
6.397877222872605518e-01,2.352950864542726617e-01,-1.967892126730103053e-02,5.278565755062802206e-02,1.098935046693871875e-02,6.607003460729024558e-03,5.836209058761596680e-01
5.175810259403484936e-01,3.984825618406839798e-01,1.932132053132251670e-03,3.975825986028000414e-02,3.843135534485475104e-03,-3.540239299135250028e-04,4.727071821689605713e-01
5.092482466217878034e-01,3.539356967719948788e-01,2.831084201615707840e-03,-1.122700755374225583e-02,-6.693919448611030699e-03,-1.941465629458326032e-03,4.499458372592926025e-01
5.948783723379378330e-01,2.322244064678170850e-01,-1.912749659658585788e-02,5.259871504922045311e-03,1.364207603915567300e-02,1.371526721556237324e-02,5.357752442359924316e-01
4.532616441707216781e-01,4.333720091338443270e-01,-9.269817253112044853e-03,-6.658264853748387634e-03,-1.173263831640448777e-02,-2.905272003680674665e-03,4.535445570945739746e-01
4.275176704826967322e-01,4.428946881301307759e-01,-8.987964266931436352e-02,-2.776560362944501259e-01,-2.822577290684432846e-02,-2.301505537547146943e-02,7.149477005004882812e-01
5.084475931141178018e-01,3.895592069169178107e-01,-1.227736939186796494e-02,-8.829005584898314690e-03,-1.178017476841182291e-02,-1.936425331968663144e-03,4.733309745788574219e-01
5.759060611287598608e-01,2.373294389557182305e-01,-3.794814791689637978e-03,2.209084725124768958e-02,3.797711803971125840e-03,3.548605657946716022e-03,5.059240460395812988e-01
5.659850626155443765e-01,2.872470034192449728e-01,3.934181559006655338e-03,4.135753445004287585e-03,6.915696506672796640e-04,-1.045802461377127665e-03,4.868132770061492920e-01
5.453487767776128425e-01,3.278575920688105438e-01,-1.356606391162396008e-02,-4.601079856068909443e-03,1.086794106567807831e-02,-8.610042511070913063e-03,4.886403679847717285e-01
5.512074391784852478e-01,3.311127619893884377e-01,9.968954424449116836e-04,1.939443463912272209e-02,9.237779313642061757e-03,-7.095061068274025051e-03,4.812591373920440674e-01
4.418031419761003775e-01,4.309306367496945622e-01,6.064291811479161076e-03,-4.001135793788761566e-03,1.970949989577204086e-03,-9.371186855926272476e-06,4.304749369621276855e-01
5.585651191995961717e-01,3.463079305143834108e-01,-1.009144083870366915e-02,1.387038693310048941e-02,5.686456954292006850e-03,-1.541661752976204725e-02,4.991083443164825439e-01
4.255505746728261984e-01,4.884441591435110253e-01,-2.058960034144313722e-02,-2.648164681614013569e-02,-1.165926522661471336e-02,-1.664462216714704401e-02,4.841474890708923340e-01
4.508418209176486835e-01,4.525011616041361151e-01,-1.288031777865639160e-02,-2.359910965026039767e-03,-4.114951133237882905e-03,-5.888109105634905215e-03,4.647386074066162109e-01
4.251701050747537791e-01,5.025614002295267779e-01,-2.265049528608081841e-02,-2.170938381689037008e-02,-1.298921306566813358e-02,-1.513240127767690076e-02,4.937581717967987061e-01
3.934726127230812054e-01,5.071844627625898827e-01,-2.461885460462287512e-02,-1.882846419074998140e-02,-2.193240852626614223e-02,-1.335465698905164041e-02,4.881746470928192139e-01
4.148586941047089360e-01,4.903765065975724813e-01,-2.123420426382388593e-02,-1.279841088102295389e-02,-1.422253717739973590e-02,-1.621781561291383081e-02,4.803124368190765381e-01
4.939312013458403983e-01,4.938079204624395979e-01,8.896832986831654244e-02,4.925876986734272454e-03,-1.387117417593496625e-02,-1.691325294041297203e-03,4.057137072086334229e-01
4.937014646360103898e-01,4.990105035519142862e-01,7.054203179646645339e-02,6.150636631742149169e-03,6.106370194759569436e-03,-8.195855097728743655e-03,4.263396859169006348e-01
4.314613818296094139e-01,4.613884855222437631e-01,-9.548445791081217049e-03,-5.030775123416834395e-03,-1.529120301845982586e-03,-1.225496853634659190e-02,4.572930634021759033e-01
4.330046256450441056e-01,4.697079231394672982e-01,-1.242480740775042669e-03,8.466091266108316180e-03,1.285722156491963478e-03,-4.885057408545755760e-04,4.539566934108734131e-01
4.540095968362564682e-01,4.788231146042656317e-01,-9.248372170358620803e-03,7.502535969890450351e-03,2.184190023670239730e-03,-4.438935966478684166e-03,4.764042496681213379e-01
5.539847727396137733e-01,7.483203420301264286e-01,9.308210166754898873e-02,1.307121312683738601e-01,-9.552449818973081375e-02,-3.956113445744560003e-02,6.504570841789245605e-01
5.302776907414523677e-01,5.265926580058367668e-01,5.857250512305661738e-02,8.163734860605611696e-03,-7.367537286048718090e-03,-2.752604980965076692e-02,4.726700186729431152e-01
4.939756224121037986e-01,3.936371835609288605e-01,-1.919689040763561394e-05,8.814006253858324216e-03,-1.262967725569626989e-03,1.779179881704766634e-04,4.525151550769805908e-01
4.747060275992501799e-01,4.366283697371161621e-01,-7.433732859324915232e-04,4.641827125655652829e-03,5.743853217249201421e-03,-2.927281315958310949e-04,4.577793180942535400e-01
4.509529425209628517e-01,4.548868862470179519e-01,1.981232036247781991e-04,2.308639976506947269e-03,1.508071012360646512e-03,1.223667576736479651e-03,4.527647495269775391e-01
5.314998921717646319e-01,5.233328121364552166e-01,6.785583165229858160e-02,2.167877981160143755e-02,7.533803811947502663e-03,-2.030449676649367236e-02,4.626693129539489746e-01
5.326519305691810313e-01,3.304250500169853000e-01,2.372459656517389437e-03,5.606665286442218295e-03,7.749397482588718869e-03,-1.215574279084309563e-03,4.638255834579467773e-01
4.582128705222155429e-01,5.221861198104453816e-01,6.167237221714610973e-02,6.064026875544539785e-02,-2.359511770496096686e-02,8.183649940744101847e-03,4.467748403549194336e-01
4.884380992576843328e-01,4.991809085686675918e-01,6.838108445045276707e-02,3.133401731822947362e-03,-6.574167769009391440e-03,4.195577103732392281e-03,4.257790744304656982e-01
4.925648361502956707e-01,4.893306932868269898e-01,-2.749745855325580468e-02,2.849818383265793290e-03,-4.229523650337929999e-03,-4.280102147869337473e-03,5.185810327529907227e-01
4.963953892353233921e-01,3.935923651333984030e-01,1.963165622355766970e-03,9.273433631093975019e-03,8.132917029610116149e-04,4.985860365670769217e-04,4.521761536598205566e-01
3.442381503570972612e-01,5.546759601630562031e-01,-1.810349688425055836e-02,1.284223063245564997e-02,3.425220271145110879e-02,1.214120066498825066e-03,5.058109760284423828e-01
4.359198548321762123e-01,4.990172764023597107e-01,-1.825197674931378078e-02,4.801541970878148158e-03,-9.173429358764119412e-03,1.114894732393465621e-02,4.894945621490478516e-01
2.655816489942226521e-01,5.995277679946788840e-01,-2.351653658721586382e-02,6.674578728780987402e-02,3.464103187359219432e-02,4.485976280138600711e-03,5.555775165557861328e-01
5.237989650491761129e-01,3.565218866537012143e-01,-1.378004997484177929e-02,-8.783015487461950932e-03,-8.116794469228170300e-03,-1.421643327924353899e-03,4.769521057605743408e-01
4.082821687174512659e-01,4.795753011572575497e-01,-3.345208041881542194e-03,-1.009018306692445813e-02,-2.066712652787155123e-04,1.527088566662103582e-02,4.526269733905792236e-01
3.835731766548235444e-01,5.253195129478399616e-01,-1.817998117283003978e-03,2.285421230734725750e-02,9.034555291699971138e-03,1.993462566848531754e-03,4.744153320789337158e-01
3.734259039712584660e-01,5.426974484257611753e-01,-5.399993643908695962e-03,9.365885385901652482e-02,-1.919076594475447456e-02,-1.245221727678020793e-02,5.139769911766052246e-01
4.896685779977698605e-01,4.507166051356357728e-01,-3.407053593634118416e-02,-2.367056012611952476e-03,-1.176398484920564147e-02,-5.886668967425024053e-03,5.059201121330261230e-01
5.339509269098879907e-01,3.303580811260702355e-01,-2.932370609855516896e-04,5.052276100428148078e-03,7.057282621607743368e-03,-6.258428262911486380e-05,4.672521650791168213e-01
5.590296665927554365e-01,3.033553263974619330e-01,1.173475684172919919e-03,1.676563801698453609e-04,6.481278684683303148e-03,-1.171145794417776309e-03,4.838115274906158447e-01
5.428482307659459050e-01,3.849044879245056006e-01,-1.272170662024363352e-02,-2.552715133144135742e-05,6.488250864828895223e-03,1.463364836164003473e-03,4.959718883037567139e-01
4.160236138294459707e-01,4.925796498427632564e-01,-6.567205387150831797e-03,1.068502227051885446e-02,1.353330313664347952e-02,-1.024492428890849335e-02,4.669074118137359619e-01
5.315950033258324270e-01,3.805688298044180295e-01,-1.581470011692209798e-02,-1.411295409845167437e-02,1.869144344053613044e-02,1.832029560094708409e-02,4.923876821994781494e-01
3.833317667546390917e-01,5.098766047895282316e-01,-8.021829306726624420e-03,2.611297021933057377e-02,1.205738554190893992e-02,-9.909950679037819732e-03,4.706075191497802734e-01
5.544082588083196761e-01,2.853795532445528860e-01,2.007868940197554686e-03,-1.034387805389816624e-02,1.980758817098139148e-03,-3.618227615000387757e-03,4.788351655006408691e-01
5.082910235654515274e-01,3.539992231453390481e-01,7.207131814028266970e-03,-1.138170659637993166e-02,-5.014876344061818675e-03,-1.093852067339221197e-03,4.450230896472930908e-01
4.095447062572561969e-01,5.422648431334524677e-01,-8.801225047186778117e-03,9.869450873093447985e-02,3.407572311854604324e-02,-6.557901582759958874e-03,5.300803780555725098e-01
4.397411100754304858e-01,4.343984349455406457e-01,1.460949851230464169e-03,-6.950358730965038728e-03,-5.929656990553932444e-03,-3.858736398182789889e-03,4.359719455242156982e-01
5.053311334444825498e-01,3.896341359921677849e-01,-9.911614390524792206e-03,-9.560890919433368690e-03,-1.210671921957242984e-02,-1.402496129675421047e-03,4.690082073211669922e-01
4.872637035348561518e-01,4.874399261457346144e-01,-3.209786180221591012e-02,8.776116046692362688e-04,-2.138589068202525860e-03,-1.394951278945811288e-03,5.194707512855529785e-01
5.475163167273267018e-01,2.987900477580509029e-01,8.563233062351960356e-03,-1.351030477182799117e-02,6.890417650844004802e-03,-1.531977587401540507e-03,4.679534733295440674e-01
4.275559868710484546e-01,4.638049768737244616e-01,-4.901746326720413105e-03,-2.167712510748172686e-02,-1.188072994874242970e-02,-1.415839688216220284e-02,4.543614983558654785e-01
4.451699871963901156e-01,4.463156458212674815e-01,-7.178591028397796059e-04,-1.177833636272650197e-02,-5.424736544508625136e-03,-6.660088808165701667e-03,4.471752047538757324e-01
4.201684965938214944e-01,4.498987945670214206e-01,5.462675907269065601e-03,-3.042913919449425492e-02,-3.291602414798336113e-03,-1.437392914489215049e-03,4.336019456386566162e-01
5.088890009911113399e-01,3.370445333111132813e-01,1.051762320769994430e-02,-1.806556405261647638e-02,6.585762935861600234e-03,-8.019039216253869245e-05,4.397401809692382812e-01
3.891616853572754109e-01,3.978081513189056229e-01,-5.426558292807026618e-03,-1.197356680371390730e-01,-1.713476569135933408e-02,-1.940753538609852474e-02,4.518927931785583496e-01
4.539445856309773930e-01,4.210030986819014442e-01,2.160784779122293386e-03,-3.514340770964021615e-02,-9.247318565448392133e-03,-5.235617247202868987e-03,4.408574104309082031e-01
4.763950634067236622e-01,3.957895598626473554e-01,2.600215185048493360e-03,-1.136172239600046971e-02,-5.335486720656073406e-03,-1.098615286069177296e-03,4.396187365055084229e-01
4.241216492231507651e-01,4.343187163656823668e-01,5.009197387947472713e-03,-9.238718619400509979e-03,-1.268453443028629089e-03,3.220231412857282914e-04,4.246105849742889404e-01
4.391900630391872284e-01,4.379373580744378436e-01,2.226503257093448429e-03,-1.206644671220094035e-03,2.660081317019947090e-03,1.222419695587737779e-03,4.363730251789093018e-01
4.218898807871046541e-01,4.364888113831683070e-01,4.830426320978020716e-03,-9.714107201567937291e-03,1.171539306090342179e-04,1.886964992691951299e-03,4.248931109905242920e-01
3.900314552301678006e-01,5.283370101007767161e-01,-1.406868609002459580e-02,1.278132856161828639e-02,1.444442977298858281e-02,-7.004804376497148453e-03,4.894669055938720703e-01
4.609837471477550297e-01,4.034926480954682537e-01,-3.045465838459493479e-03,-2.005817945343400452e-02,1.106858946122824330e-02,1.477101495702259600e-03,4.399225711822509766e-01
3.183067122592483922e-01,5.618111480722299822e-01,5.285730072854488704e-03,1.895420144758966016e-02,-7.066535551129748266e-03,1.065785612746950571e-02,4.848369956016540527e-01
3.820021655906259972e-01,5.342855726379751591e-01,-1.840801642462153165e-02,-9.454366089348143973e-03,2.743689450249003556e-02,1.590108253474325356e-02,4.977744519710540771e-01
3.388267060199884328e-01,5.373929445526209880e-01,-7.396209373302820023e-03,1.180943813119611843e-02,1.605993748748137454e-02,3.674780633755022740e-03,4.788316190242767334e-01
4.718205816026152521e-01,4.267082580704346650e-01,-1.622412597923617028e-04,3.194778193509091591e-02,3.586717136164564550e-03,-4.475197404339335898e-05,4.545451104640960693e-01
4.668463373640147629e-01,3.872844819393637117e-01,-1.444799711471079218e-01,-2.582106957448351281e-01,2.166471783099228887e-02,1.172482344575282755e-02,7.302399873733520508e-01
2.967576663032063800e-01,5.775881903305616349e-01,-8.335466453412876398e-03,7.506071548218887224e-02,1.315102264957688366e-02,6.877656762202179197e-03,5.245857238769531250e-01
3.954647725227717903e-01,5.182807193519093358e-01,-2.692947814057566891e-02,-5.127723832787791682e-03,-1.587401320874861493e-02,-1.492671459143911578e-03,4.962045252323150635e-01
4.687000701130569214e-01,4.339331484566867347e-01,-6.294158984611053498e-04,7.916924529346064041e-03,-1.578895153840411845e-03,4.989846783807009569e-04,4.531644582748413086e-01
4.804223041962421004e-01,4.857315286913027053e-01,-2.992297628190909720e-02,1.179215083210528045e-03,-6.249975379149183032e-03,6.031253947638134721e-04,5.131398439407348633e-01
3.234752578963912550e-01,5.327329003247607275e-01,-3.878133805153644031e-02,1.549744496567253549e-01,-1.008428874213973883e-02,3.453481644270590956e-02,5.716273784637451172e-01
3.019791726978602875e-01,5.223887170733365615e-01,-7.084150723770832325e-03,5.211167194374356770e-02,6.743066832160634488e-03,3.840283317157768689e-03,4.696259498596191406e-01
3.952121788746624231e-01,5.341275919238307468e-01,-1.003855656419455622e-02,1.921518633566439774e-02,-1.435036892468723700e-02,1.215941516339608466e-02,4.919250309467315674e-01
2.821414477795611275e-01,5.452179600230220302e-01,-1.295079381326558199e-03,2.636658970568620669e-02,-7.940679795462587259e-03,1.302924796888996206e-03,4.758054912090301514e-01
4.894050642150650221e-01,4.869801075737623663e-01,-3.157254999936459638e-02,2.622412834230377301e-05,2.108402205376138077e-03,-4.059630491593729969e-03,5.198297500610351562e-01
5.455562403288776174e-01,3.036936916324272095e-01,4.676035860135652200e-03,3.330001488260266821e-03,1.768111890603690133e-03,-1.973031202643192681e-03,4.693447947502136230e-01
4.834733704230038120e-01,4.837410929700315942e-01,-2.762726443978685831e-02,5.267562130449125399e-03,9.170129190088612339e-03,-9.522378824704452044e-03,5.118284225463867188e-01
4.897837130203712142e-01,4.948470474613382297e-01,-6.464775083472540373e-03,-2.711195854971248324e-03,-7.687567577899839279e-03,9.521992786269730920e-04,4.990019500255584717e-01
4.944107860030068080e-01,4.911804989688442480e-01,-1.663807738795819446e-02,9.650261301565051615e-04,-1.678936992932757242e-04,-2.579886362833550949e-03,5.094638466835021973e-01
5.099792627263226574e-01,5.314116534537642877e-01,1.838526560014747124e-02,-1.215983865168266016e-02,-6.233679393835377114e-02,-4.185677596346654844e-02,5.196318030357360840e-01
4.428926662982827223e-01,4.378459695061387436e-01,-4.426358619019188367e-03,2.766862907705766941e-02,-6.562137926950108689e-03,1.449487887603439704e-02,4.482392668724060059e-01
4.972194230492382738e-01,4.929792473699067257e-01,-1.229941886820812291e-02,-1.611081331853717784e-03,-5.706868428341359267e-03,3.745936902428349553e-03,5.075574517250061035e-01
4.684752752101796203e-01,4.444504250986739402e-01,-4.386469110968571616e-03,4.745206600404655757e-03,-4.684660086748624989e-03,3.843730212445926799e-03,4.615113139152526855e-01
4.976666882823074234e-01,4.910692172462750582e-01,-2.486582180714486112e-02,-1.231600695943072497e-03,2.260630703069460307e-03,-4.347677957116609696e-04,5.192849040031433105e-01
4.927508152662335439e-01,4.764744833716989536e-01,-2.921844410160201466e-02,3.046090251755964162e-03,2.149086957376091737e-03,-1.787873342936066416e-03,5.140742659568786621e-01
4.934759769995239465e-01,4.861144549989936947e-01,-2.102125267492721550e-02,-1.691182907530846429e-04,-2.552250182180115876e-03,-3.651604782130674597e-04,5.108758807182312012e-01
4.813909769134674943e-01,5.018963379474543629e-01,-3.262086419624637967e-02,1.403442344414711348e-03,-1.047772495382076705e-03,-4.248509625678568123e-03,5.246255993843078613e-01
4.106260281050896910e-01,5.187551826728398208e-01,-1.676401655806813995e-02,3.735172290478527661e-03,7.300828866974446970e-04,5.628567855757818893e-03,4.906179606914520264e-01
5.337205439729517664e-01,3.304428298046827583e-01,4.534966966357023566e-03,6.148676605640354328e-03,4.040641201410139632e-03,-8.377153796552709239e-04,4.625495374202728271e-01
4.954571276830797566e-01,4.930517864818785290e-01,-1.145083815051572973e-03,1.014968320875549515e-02,3.569743210559269027e-03,-5.731646665437533164e-03,4.958536922931671143e-01
5.384413491594848278e-01,3.028457819965474918e-01,4.769728859956079425e-03,-1.282844395782679718e-02,-5.656992327734201333e-03,-2.300945498291225109e-03,4.638810157775878906e-01
5.813916120297072387e-01,3.952597942512012796e-01,-3.541417698953819304e-02,6.064312383847325627e-02,1.706854249206169859e-03,5.464402412739468445e-02,5.659387707710266113e-01
2.771332531264656396e-01,4.050473724512255180e-01,-1.876656082136093917e-02,-2.544651705535018738e-01,-2.420467876416105765e-02,-2.844406894134213909e-02,5.832759737968444824e-01
4.454169147130910833e-01,5.029335844155062851e-01,-2.945094079708815427e-02,1.371508617969599986e-03,1.430263948720665243e-02,-5.207543138435634725e-03,5.067752599716186523e-01
5.107990126420913768e-01,4.318658213543521418e-01,-2.377610576280347887e-02,-5.408421775329792618e-03,1.516000079453229746e-02,9.701479686703575562e-04,5.005850195884704590e-01
4.739293612692317414e-01,3.958432267738752897e-01,4.015202508023341110e-03,-1.193400839885218508e-02,-5.813970103220561340e-03,-7.784877869121820245e-04,4.367533326148986816e-01
5.084622847143795976e-01,4.976431841069182127e-01,-2.538847940354499455e-02,7.953233015044657017e-03,1.034006221881583060e-02,8.698147687874094314e-03,5.292214751243591309e-01
4.843898673627988760e-01,4.984103864725142330e-01,-3.569868473534881792e-02,4.121291125931611510e-04,5.807771126050788497e-03,-5.042844164364531636e-04,5.273358225822448730e-01
4.499706628983680679e-01,5.084505806899047853e-01,-3.167086272094649102e-02,5.681353369350672974e-04,1.005701344647792414e-02,6.807975545621781227e-03,5.138173699378967285e-01
4.416886276911684006e-01,4.201273721804452133e-01,1.926666461787518436e-03,-1.405077474900261192e-02,-9.432531752430129562e-03,-6.253654082564520308e-03,4.305231273174285889e-01
5.233380831506843078e-01,3.617925060394087122e-01,-3.494652447932844463e-03,-1.530075089170087471e-02,1.209554220919554363e-02,-1.231485312986900006e-04,4.687040746212005615e-01
5.207099842685694036e-01,3.383204430395380102e-01,-9.184540523040629623e-04,-2.156698575338806545e-01,-5.422019741219748223e-02,-6.216764214797502325e-02,6.084217429161071777e-01
3.951374544607008099e-01,3.422664161271999905e-01,-4.758067106293228932e-03,-2.037507442694927173e-01,-7.617045456261462011e-02,-5.942246450867734453e-02,5.423198938369750977e-01
4.279918912193940717e-01,3.105179385344097875e-01,-3.157851032215816534e-02,-2.068988833469494193e-01,-3.048327223709381903e-02,-4.703474040978525283e-02,5.557548403739929199e-01
5.193971325286356189e-01,2.928520998113415263e-01,-5.354026662665489766e-02,-2.211607858417508898e-01,2.346013157293305642e-03,-7.400187624632623140e-02,6.426238417625427246e-01
5.062227037028763643e-01,3.985321408653852426e-01,-3.651166684773904381e-02,-1.030451216729491859e-01,-4.473612113504974591e-02,-3.002845654691035926e-02,5.369119644165039062e-01
4.937908834326086849e-01,4.843948400823790412e-01,-3.381715355439363080e-02,2.117716672784206340e-03,-3.459329355743226680e-03,-1.354291407867016205e-02,5.235462784767150879e-01
5.061685651833982558e-01,4.367871688076617742e-01,6.086385315202114121e-04,-3.113039858349296238e-02,-2.055984123030967642e-02,-3.734518635599761577e-02,4.834124445915222168e-01
4.910744596741198897e-01,4.856009090954183649e-01,-3.556044669919194989e-02,2.846725061197640742e-03,-5.490856972606369263e-03,-8.305870153752345844e-03,5.242265462875366211e-01
4.931792543179958632e-01,4.841804931937331302e-01,-4.835269139847830910e-03,-1.153882603908472446e-03,-2.264729177295058890e-03,-3.284816086249840034e-03,4.936290979385375977e-01
4.924811148395946692e-01,4.812683252908369624e-01,-1.760958347328500651e-02,2.047516071570939684e-05,1.251755569424017065e-03,-2.818415953399446201e-04,5.045826435089111328e-01
4.427929916130987076e-01,4.372118549515762176e-01,-2.251807265513106060e-03,-2.300765361495314340e-03,-4.729053339933902630e-03,-3.332705233194978561e-03,4.424120783805847168e-01
4.854714597018349176e-01,4.875691660683463824e-01,-2.490444300373284570e-02,4.242107923736009430e-05,-5.586642777944917856e-03,-3.627732412100941311e-03,5.115581154823303223e-01
5.036610609753949808e-01,5.037792785108556881e-01,3.776729424236940913e-02,1.218930264337634607e-02,1.330072618178559582e-02,9.599416513871921949e-03,4.672954082489013672e-01
5.012707917505648814e-01,4.947081124476141456e-01,4.723916374244463423e-02,7.583941543743988496e-03,-4.114071342233304590e-03,7.853281682299283195e-03,4.512388110160827637e-01
4.980147557797574009e-01,4.989443102009826769e-01,1.088981803304966967e-03,8.327614414555829445e-03,5.726797130651041685e-03,9.824685933223678558e-03,4.979899823665618896e-01
5.045972615363016889e-01,5.064328551566729120e-01,1.080100778563093944e-01,1.136180837322090832e-02,2.434469702962863569e-03,4.390686354248268287e-03,3.980899751186370850e-01
4.941147829592711371e-01,5.013720857617589566e-01,7.315188846061254635e-02,5.049459776512734387e-03,-4.798463695187223099e-03,2.546492782299434893e-03,4.248323142528533936e-01
5.094590394290715585e-01,5.192515050900378126e-01,1.036210143876402645e-01,-1.008351459194918760e-02,7.318772987871310226e-03,-2.102075234623726127e-02,4.129962325096130371e-01
4.697489920815259845e-01,4.338976702716323408e-01,1.227211896198843188e-03,7.901674346299316504e-03,-2.256419881253317241e-04,4.847433718886840089e-04,4.518727958202362061e-01
4.055335850176436940e-01,5.238018101555735884e-01,-2.573512735789207362e-02,2.713241910965052874e-03,-1.772040906411831429e-02,5.897598131807011909e-04,5.019468665122985840e-01
3.995575328898720024e-01,5.968811183826533417e-01,-4.690497418538308594e-02,1.064533369247291222e-02,-3.502804802277385832e-02,-1.772889907243195432e-03,5.747984647750854492e-01
4.563211303525344098e-01,4.631084453447762428e-01,-9.416198856250834748e-03,2.571374950487663371e-03,-3.972466850727257755e-03,6.810108840282990371e-04,4.692408740520477295e-01
3.930835684238445649e-01,5.376462455099326743e-01,-9.888404314120358141e-03,7.999781142216874641e-03,-1.965066674813586989e-02,9.210715399008645096e-03,4.930967688560485840e-01
6.741495661284739871e-01,7.343540926061140617e-01,8.403209594564375884e-02,4.563833760531259970e-02,-6.383996346144787948e-02,-3.664880286351679395e-02,6.402308344841003418e-01
3.520742646381812002e-01,5.725630334526197185e-01,-2.377627185618846894e-02,3.897944749233488854e-02,-3.362616226548506559e-02,1.750761296833998120e-03,5.298200249671936035e-01
4.930322322131418522e-01,4.325231145332845140e-01,-1.034873593992002849e-02,7.643155080577624869e-03,-6.765534958291418571e-03,-2.295307595836154949e-04,4.763479232788085938e-01
4.991121004470942535e-01,4.917604082009401356e-01,-3.054034592705373585e-02,3.125573819729962274e-03,7.006785202697382500e-04,-2.505980306189628873e-03,5.260623097419738770e-01
8.010800833734144089e-01,3.249012138794168392e-01,-5.082977477682049106e-03,1.166406279323812800e-01,1.509937918911586664e-02,-6.626851521895489594e-02,7.398925423622131348e-01
3.400858353204093687e-01,5.472919606839470319e-01,-1.192324450202553177e-02,-1.498263409625118225e-02,-4.432301437207767508e-02,-7.153550030251644778e-03,4.964914321899414062e-01
2.977311507059777207e-01,5.461257120820929289e-01,4.260122839688074148e-03,-9.771261741873872933e-03,-9.334497359844767458e-03,-8.290463021083656174e-04,4.703951478004455566e-01
4.818072188547177781e-01,4.964335893543109779e-01,-3.477976961205564432e-02,-3.703206265520337173e-04,7.487181654607457954e-04,5.027227569766469896e-04,5.240560173988342285e-01
5.146592490454209301e-01,4.057846508571902877e-01,-1.104318736277876134e-02,8.969076117281976970e-03,-7.366771320122092286e-03,-2.655721835937603203e-03,4.810471832752227783e-01
3.502285423976579937e-01,7.592783089694437049e-01,3.209425315549496727e-02,7.849174459294148976e-02,-9.349452213856890292e-02,-3.871809773571442681e-02,6.692292094230651855e-01
2.979361093675378380e-01,5.452373552111160482e-01,-4.486995769126811417e-04,-9.802624024051262083e-03,-7.399264309968727783e-03,3.641727098508765800e-03,4.737875461578369141e-01
4.711959360724372048e-01,4.953448343578558122e-01,-3.104283715546130029e-02,3.863739678159711045e-04,6.066311610957569054e-04,4.496375553885966977e-03,5.147987008094787598e-01
3.245258343318468408e-01,5.453154995035276453e-01,4.513663661011413364e-03,-1.096570171027693059e-02,1.059582109927082426e-02,2.561795436737038419e-03,4.717292487621307373e-01
1.921799160887195379e-01,6.193625243534488511e-01,-7.177237926769663989e-03,-3.976199536150348129e-02,-6.081921266199361714e-02,-3.306231447296811149e-02,5.714101195335388184e-01
5.032386415924818834e-01,4.500693529967197959e-01,-2.241442751663580424e-02,3.105987084015922849e-03,-8.936007247510568616e-03,-1.381927547827883343e-03,5.014616250991821289e-01
4.906444505947581969e-01,4.919919899211807612e-01,2.825074326405996317e-03,5.475062488135764172e-04,-6.506417100234143484e-03,-2.627639357066520638e-03,4.886466264724731445e-01
4.172207500103228828e-01,5.062049850051668631e-01,-1.952053141719028995e-02,1.309649295429664469e-02,-1.193094985048613610e-02,1.174977088446186972e-02,4.887535274028778076e-01
7.888625740184035395e-01,5.264309018040882471e-01,9.952205340408420975e-02,6.163718704109378416e-02,-5.464123997203110261e-02,-5.079789903240735510e-02,6.255010962486267090e-01
3.353081038836521199e-01,4.002316761317354366e-01,-1.803997417378416790e-02,2.034151981020860811e-01,5.408749168810547160e-03,2.299890528506090201e-02,5.270848274230957031e-01
3.179855652899309382e-01,5.369858132875515722e-01,3.909851169104028301e-03,-2.001972435178954457e-02,-3.777821551973706976e-03,2.549015920489203918e-03,4.654588997364044189e-01
3.230728945137587016e-01,5.468603858737448586e-01,7.106665310079418596e-03,-2.810217258217803660e-02,-8.537094943654986463e-04,4.925277055835104376e-03,4.723017513751983643e-01
1.217915127453367274e-01,7.523973208718630623e-01,-8.488092923368945053e-02,-1.248547779418889142e-01,1.891185295881140510e-02,-5.843990437330937385e-03,7.865415215492248535e-01
4.742491962021151974e-01,3.829630421333759527e-01,8.857516201101034437e-03,-1.590914999926412721e-02,3.721275483319664689e-03,8.703672584725438612e-04,4.280676245689392090e-01
1.698477922803867946e-01,6.809753361612747025e-01,-8.523094915520751380e-02,-9.656834618979340257e-02,1.944414991453349145e-02,2.684656692300759276e-02,6.985464096069335938e-01
2.907384423957350972e-01,6.302764735392867301e-01,-2.115038526471851865e-02,4.047290312511624827e-02,2.023538052771926485e-02,9.386326854989787694e-03,5.699699521064758301e-01
5.444603922224551251e-01,2.988174124731081682e-01,7.067639477260578840e-03,-1.330225278636643776e-02,4.677789805283629615e-03,-1.441530328033312214e-03,4.666126966476440430e-01
4.983796248541461082e-01,4.810821599654985237e-01,-3.755309283003416265e-02,2.269905868283917869e-03,3.647731122112785572e-03,6.473785168738862422e-04,5.275503993034362793e-01
5.294489719419878115e-01,3.551160168528210148e-01,-5.545917677293565884e-03,-8.605321550341530137e-03,7.880725841836584700e-03,-3.023397969926483898e-03,4.730540812015533447e-01
4.875717540073088441e-01,4.964450043254006184e-01,-2.678135332066117202e-02,-1.377521481358807021e-03,-2.476639584379149335e-03,7.945065828458581104e-04,5.188716650009155273e-01
2.398057564885547888e-01,6.118492288689996172e-01,-3.576415505650964999e-03,-3.360022282636794533e-02,1.603931615946099787e-02,6.620763182068169564e-03,5.408236384391784668e-01
2.935705220900475254e-01,6.066950136750306477e-01,-2.101218863773640644e-02,4.276252072738655208e-02,1.462429763372891448e-02,2.289334015292866786e-02,5.506474375724792480e-01
4.939362661276074373e-01,4.912142816924641719e-01,-2.770287801637782987e-02,-4.584658440711106633e-04,-1.800538049533335298e-03,-1.021343785653664599e-03,5.202964544296264648e-01
2.776757351646306771e-01,5.667622886194694232e-01,-1.887852871949974309e-02,-5.532439348739633632e-03,-2.252247907889778217e-02,5.143543523681013904e-03,5.088598132133483887e-01
2.622665273699220645e-01,6.016332029623853161e-01,3.825688338594257498e-03,2.858443207042118267e-02,-6.420935182969518887e-03,1.880670729090633264e-02,5.227844715118408203e-01
4.302540525119603609e-01,5.913269062321333536e-01,2.644464221451203745e-03,-1.077541120459045432e-02,-5.551738752563432217e-03,-1.925851668030415659e-02,5.284166932106018066e-01
5.285981411072693259e-01,4.828737712602381160e-01,5.278958679082002003e-02,-1.148684626229029386e-02,-8.173088386134629707e-03,-1.245168246842573434e-02,4.558396935462951660e-01
4.775433307694900709e-01,3.828967350585336105e-01,1.217783918606651916e-02,-1.517509276764432077e-02,6.854363100041122557e-03,1.475268704810033969e-03,4.269848763942718506e-01
4.903607677108642315e-01,4.999846671997517644e-01,4.134581479795768066e-02,-2.839923373709722296e-03,-2.659564065020454410e-03,1.098507977023254964e-02,4.543520212173461914e-01
5.020950891373539005e-01,4.866075945845570461e-01,4.067172709591987401e-02,-1.844045638909288425e-03,1.056233187276824081e-02,-2.279811168084398907e-03,4.542747735977172852e-01
4.964625173647028156e-01,4.801338495590325994e-01,6.378689886419164345e-02,8.452318140697458572e-04,6.531171784254174301e-03,6.266212550473961723e-03,4.250384867191314697e-01
4.913408941495943094e-01,4.804119668499934326e-01,5.931612406301772777e-02,-1.525742663075887453e-03,-7.049290483264997187e-03,-1.319062544802685616e-02,4.274591505527496338e-01
4.497492531171056185e-01,4.154794820482241580e-01,5.648958374011081585e-03,-8.549754374124113321e-03,6.690041153392273796e-04,-5.096219330359210179e-04,4.282542467117309570e-01
4.720293267068442766e-01,4.491563631157342584e-01,-1.518567314969815341e-02,-1.933828498161670878e-02,2.119313359864703414e-02,1.835986855764634024e-02,4.798314273357391357e-01
4.591664077957364754e-01,4.896545416399068484e-01,-1.734962972159292960e-02,1.047908748163020078e-02,-7.734176566119565881e-03,1.033540631613233396e-02,4.933097362518310547e-01
4.521074972398922975e-01,4.930275270844087787e-01,-2.544266316602689093e-02,1.570573370595335083e-02,-8.470072067730774479e-03,1.067919402995115216e-02,5.005670189857482910e-01
4.791569927377578586e-01,4.656505474775310960e-01,-2.240011546080200588e-02,3.249253739118704732e-03,-8.146447617537218647e-03,-5.118049870664740557e-04,4.951759874820709229e-01
4.447913573753163874e-01,4.846668808360620195e-01,-2.738504199753488688e-02,-3.446406705674892601e-03,-1.087466072448517928e-03,-1.265020048046771629e-02,4.938503503799438477e-01
4.697519195115848478e-01,4.463146123840360247e-01,-1.464018919845772038e-02,1.391241933465469684e-02,-7.491788047354893537e-03,4.892846272631776704e-03,4.739757776260375977e-01
4.683118789288849282e-01,4.541145499060306179e-01,-9.353977255161183280e-03,6.947564286545192778e-03,-7.007069825725350393e-03,8.054745849772594829e-04,4.710400104522705078e-01
4.944237527782762709e-01,4.031205355154187653e-01,-1.192292407277240063e-02,-1.346309015168230087e-02,2.295724512240157264e-02,1.295813133723856987e-02,4.702347815036773682e-01
6.143802781583344030e-01,1.572020300060898990e-01,-2.082611194460026738e-02,-1.321582324651107698e-01,-2.063126258767527046e-02,-2.351778886428605719e-02,6.143534779548645020e-01
5.878819965221329102e-01,3.138070513676562423e-01,-1.064436314580452514e-02,-7.525459437886019079e-03,9.019959167420049315e-03,-1.567263049191548047e-02,5.200583338737487793e-01
4.759972163957628677e-01,4.985573684013548945e-01,-3.864226283312233168e-02,2.622967576507521242e-02,-1.120879374963397977e-02,1.955969840495450432e-02,5.296807885169982910e-01
5.274463170607487372e-01,4.055463439956992211e-01,-9.897316555844914987e-03,6.197517548935902419e-03,-8.901653315188084439e-04,-2.768766583041579188e-03,4.880944788455963135e-01
6.322973722556801679e-01,2.333333577721896368e-01,-3.520469088461097851e-03,-2.597018131073151187e-02,6.853673306043372299e-03,-6.218953499728581587e-03,5.586130023002624512e-01
5.773291882944862063e-01,2.332570026010916397e-01,-3.101779239013280343e-03,-1.735094938378481041e-02,-1.955109931885851051e-03,-4.938051217307434793e-03,5.065208673477172852e-01
6.208969002220291467e-01,1.022653862933300961e-01,-4.058002654326620107e-02,-1.001313549006255521e-01,2.343296049377615198e-03,-1.633211616883415221e-02,6.279833912849426270e-01
4.915382103599999497e-01,4.616589609285636220e-01,-2.231801051790016643e-02,3.947378013099286063e-03,-8.623874041544984589e-03,3.545282844026622867e-06,4.998571872711181641e-01
5.643633739113009806e-01,2.901293833570558478e-01,1.601314715588775250e-03,-4.571511509737457429e-03,2.117723017262154554e-03,-1.467382574437841106e-02,4.881588220596313477e-01
4.663989186428037503e-01,4.985816441503363450e-01,-2.959874182613775329e-02,1.123612671017932586e-03,7.418876935222236922e-04,1.273748064082957585e-03,5.128569602966308594e-01
5.512744671582430200e-01,3.593127018987486432e-01,-4.591423311128217666e-03,-5.040931193150859253e-03,7.754140388503397499e-03,-3.820314078600018856e-03,4.893174767494201660e-01
5.990592827202518844e-01,2.584849717895562615e-01,-1.071212515894004458e-02,1.379381358575306957e-02,-1.809416962865591574e-02,-4.191091979536631235e-02,5.356884598731994629e-01
4.676125666621575583e-01,4.727217452199495851e-01,-1.487802479409172651e-02,2.994571331100104490e-03,-7.441779924315797441e-03,6.960984647518518760e-03,4.854140579700469971e-01
3.443696855592219275e-01,5.328452506714679293e-01,-6.735269877179150821e-03,4.926734321930471838e-02,-3.323056583216303650e-02,2.292908133231625137e-02,4.869746267795562744e-01
5.433378195818725498e-01,3.412190688225257285e-01,-1.103693702516428399e-02,-4.202190526187331299e-02,-2.864799459052401465e-03,-1.786260106047712209e-02,4.923547506332397461e-01
5.585665610842078799e-01,2.906223460909199696e-01,1.623134641005774537e-03,-4.670579549324708341e-03,1.969736379439761818e-04,-1.420597311470248210e-02,4.831369519233703613e-01
4.854758414279752854e-01,4.909690448853158973e-01,-3.220439764307914121e-02,-3.693939528519796429e-04,-2.065457927576698754e-03,3.291272050991750787e-04,5.204615592956542969e-01
5.628938513848046332e-01,3.088308644777008061e-01,3.531480569178624407e-03,-9.827571773363514510e-04,3.066827925854681385e-03,-2.253981970355523317e-03,4.851467311382293701e-01
4.994187493748344919e-01,4.871453570893851115e-01,-3.742151575058783042e-02,3.551858288389654790e-03,1.802688319609198255e-03,-8.703799397031233755e-04,5.308569669723510742e-01
5.425494909614745342e-01,3.548540176437315341e-01,-5.402152531577220085e-03,-9.907632612181306933e-03,1.410160905710967395e-02,-3.000929600818844165e-03,4.832707643508911133e-01
5.007229946651621244e-01,5.627010717826215203e-01,1.835474925740759877e-02,1.839354160264302374e-01,-7.328065804665899463e-02,-1.829431866252992020e-02,6.205059289932250977e-01
5.577486384131191688e-01,3.317708260833330813e-01,-1.028678713274017165e-02,-3.116044589613259797e-03,-8.812681615315554745e-03,-2.112605776522500506e-02,4.969586133956909180e-01
5.619279820818627869e-01,3.445161800885038206e-01,-8.478281861647840589e-03,1.170329442948808175e-02,6.781310900031947871e-03,-1.771316619590001737e-02,5.001082420349121094e-01
5.040167359195193431e-01,4.997174618390304301e-01,-2.055606003724552711e-02,4.911155029790327704e-03,8.950807176108957573e-04,5.363698325422262131e-03,5.225905776023864746e-01
4.091505540629122861e-01,4.993261337557995949e-01,-9.684034110300165921e-03,3.276911002361116571e-02,-5.246473139036290922e-03,9.203380918043764861e-03,4.742160141468048096e-01
4.897033834809987329e-01,4.988193457655960561e-01,-3.293407672838533085e-03,6.081424421359435178e-04,-9.040650798804346355e-03,-2.888466200990971820e-03,4.978899657726287842e-01
4.947294693956206801e-01,5.034833130049204408e-01,5.223495765034619209e-02,6.986256353052987603e-03,-5.240558938062206016e-04,-9.446280611157218191e-03,4.473997056484222412e-01
5.009861052255433211e-01,4.896260170053275962e-01,6.283408434382481422e-02,7.503682336710758467e-03,4.199047769862058674e-03,-2.157605556956284417e-03,4.328562915325164795e-01
5.115477680650917236e-01,4.971902448754010884e-01,4.178510035926463750e-02,-4.763503298463933784e-03,-8.857006768470646225e-04,-7.773227954023814550e-03,4.630228579044342041e-01
5.345425092959502633e-01,3.595243746696354936e-01,-1.265069099479032566e-02,-1.015246914318636675e-03,-4.023528109841127687e-03,-2.231218110885387334e-03,4.840966761112213135e-01
4.793590859685158412e-01,4.989054024028156675e-01,-3.503517010303613954e-02,-4.712391636123131701e-05,-1.300423574883597527e-03,4.629472871929988316e-04,5.244461297988891602e-01
4.756628291071527403e-01,4.986117174742322744e-01,-3.773088791461592928e-02,-2.420338884089597714e-03,6.733705312247731563e-03,1.306675530596703751e-02,5.258777141571044922e-01
4.618368444839245912e-01,5.120296931912027283e-01,-3.447055041126190211e-02,-9.578153251486975616e-04,-6.586663345775561375e-03,-7.258820384157588582e-03,5.234906077384948730e-01
4.712249771447351021e-01,5.049254081797680538e-01,-3.580480712696437751e-02,-3.252476474006603955e-04,-6.391770868135935278e-03,4.435428001996589249e-04,5.248099565505981445e-01
5.014730778925863275e-01,4.737181568278561183e-01,-3.485843427488821700e-02,4.783694730226241356e-04,1.531327834617930185e-03,-1.793657917819414371e-03,5.230233073234558105e-01
5.130778515116297678e-01,5.045459046004218129e-01,4.483001911152473262e-04,2.498439911328338703e-02,-1.642000537615763076e-02,-1.251059538763283144e-02,5.115067958831787109e-01
4.221705530505053261e-01,4.270963421373602520e-01,4.853465352337993366e-04,-3.386106840478295826e-02,6.692733091899902807e-03,8.179397475081395807e-03,4.285960793495178223e-01
4.372052810524016953e-01,5.097044807487924878e-01,-3.245773066251633754e-02,-4.189451533464092631e-03,-1.122154011255307136e-02,-6.262097214160625321e-03,5.103310346603393555e-01
4.442119780029756271e-01,4.543267933061418407e-01,-8.523816811965290174e-03,-7.312856430768927647e-04,-1.703350602666533608e-03,-5.759185452242341664e-03,4.579969048500061035e-01
4.382130901647245391e-01,4.993271266870266678e-01,-3.297747676940399053e-02,-2.782810074175111510e-03,-1.074697847329660581e-02,-7.714751392280388455e-03,5.050743818283081055e-01
4.886002438613243903e-01,4.384368955558963776e-01,-1.543090277542463751e-02,3.901966037147611838e-02,4.234669552513409957e-03,-9.704414308269708120e-03,4.859874546527862549e-01
3.383975751527775744e-01,5.768887350934570613e-01,-2.807096703784889291e-02,1.065457734002416140e-01,-1.900167027049004878e-02,1.822291404187694266e-02,5.609921216964721680e-01
4.417164038027557860e-01,4.393124792950580115e-01,-4.134066368785882517e-03,-3.070917731708039042e-03,1.033533723254356470e-03,6.740426227371524269e-03,4.448420107364654541e-01
7.007161016116838503e-01,2.558650651185823133e-01,-4.726790913160028307e-02,2.929424069612016068e-01,-1.465301758006760588e-02,2.606833454952152754e-02,8.275020718574523926e-01
4.855612703217736525e-01,4.072597229432415311e-01,-1.931223003803217431e-03,-1.114261182765958862e-02,1.505887857215665142e-02,4.827935706930614628e-04,4.546010792255401611e-01
4.677124471124405325e-01,3.915167957654392406e-01,-1.025060352543150088e-02,6.752940524118672405e-02,-3.766114372578845799e-04,7.148398275586984041e-03,4.600762128829956055e-01
5.262017129910696589e-01,3.868611833731143146e-01,-2.061682634983025286e-02,6.986474599973882538e-02,1.910053022484215629e-02,-1.261941642124222301e-02,5.083776116371154785e-01
4.604584012699481921e-01,4.413356686298433584e-01,-3.413767250321775304e-03,3.705415067970595916e-02,-9.461766790733145555e-03,1.236088233557925201e-02,4.599114656448364258e-01
4.824239711509730189e-01,4.024252220722432938e-01,-3.143548588697703261e-02,1.828888497531123425e-01,5.976764411469209781e-02,-3.206822270670776215e-02,5.860800743103027344e-01
3.121500975379627452e-01,6.132861675056653361e-01,-1.800713218997568310e-02,3.229092249909512602e-02,-5.225749610458649969e-02,4.659851590017406037e-03,5.572205781936645508e-01
4.026961930428601955e-01,5.101160174138643644e-01,-9.620218020054471797e-03,2.779847367121240920e-02,-9.661834149163873314e-03,1.249362499435752172e-02,4.784364104270935059e-01
3.035898551714195648e-01,5.093858826559215514e-01,-5.959182120250960946e-02,-2.030252988140532067e-01,5.225511445073967309e-02,4.808263083467079202e-02,6.227195858955383301e-01
3.026293547132287709e-01,7.329485323567177524e-01,-1.601586498706331074e-02,2.355077817793296557e-01,-5.704776129258368189e-02,-1.002868226394423856e-01,7.938235998153686523e-01
3.007007657180216786e-01,6.124433685209598188e-01,-1.968902944876871342e-02,-2.690996518585993952e-02,-5.114861787198232701e-02,-6.470538668720658346e-03,5.566496253013610840e-01
4.636662775250292579e-01,4.842471906449057339e-01,-3.576822595716483422e-02,-7.065192727384847536e-04,-6.445310026035751781e-04,-7.702802227632523854e-03,5.102136135101318359e-01
3.468477958027865737e-01,5.787119185997501303e-01,-1.858055350350140689e-02,8.957058418176946923e-02,9.616629555781987942e-03,1.328036307156977604e-02,5.448887944221496582e-01
3.278094258747803469e-01,5.491468837765244304e-01,-2.008392558509286552e-02,4.232598399158533919e-02,1.549958516439864029e-02,1.770120543750415207e-02,5.040407180786132812e-01
4.999526430067559035e-01,4.922657083328289551e-01,-3.500835710756794450e-02,4.631871819912587555e-04,-1.830183324707768361e-04,-1.161974684350653916e-03,5.311637520790100098e-01
4.536846180601655787e-01,4.541275689626289025e-01,-1.241612287691434835e-02,1.025062931900468568e-05,-5.059200602698561006e-03,-6.530840920458364472e-03,4.665418565273284912e-01
4.530548100687146751e-01,4.428432523424332690e-01,-1.730491238559384026e-02,-9.566981926349391735e-03,-9.237522423689543266e-03,-1.184084484928210439e-02,4.663589000701904297e-01
4.640486222027802587e-01,4.719620551292761368e-01,-2.049287827255108496e-02,1.786869416387295260e-03,-5.412567735051069563e-03,1.075363956368949499e-03,4.886495769023895264e-01
5.881283559291193841e-01,5.192531716735365732e-01,5.740770410840784210e-02,-1.120950835091484923e-02,-2.818211309671262918e-02,1.040089229475447685e-01,5.339175462722778320e-01
2.238446892749033079e-01,5.690742015364347317e-01,-6.101690858670127948e-03,-1.085164257912634746e-02,-2.293527836605725040e-02,3.344264672543833996e-03,5.033963918685913086e-01
3.565671839129153642e-01,5.102930131279781456e-01,3.833456403112833755e-04,3.419997336909186281e-02,1.253454482325832252e-03,1.005807922534930447e-02,4.572421014308929443e-01
5.032847031985612229e-01,5.345906152365517139e-01,-2.268216137160106172e-04,1.146953906903146470e-01,-7.389628778373348583e-02,2.415120566635460889e-02,5.725938677787780762e-01
4.844231141751192959e-01,4.888622492606312653e-01,-2.773611669351144782e-02,4.259477665433669333e-03,-8.284397430651705904e-03,7.939393897984437995e-03,5.148298144340515137e-01
4.969818088768860331e-01,4.016649633267057595e-01,2.922166975753148765e-03,9.183275181720879088e-03,7.884734938238430538e-03,-1.274841143043969492e-04,4.544530510902404785e-01
4.794029146153309107e-01,4.864367948466219449e-01,-2.663387530451638563e-02,2.429965054161693869e-03,-7.554258414496993479e-03,5.491078375973163991e-03,5.098641514778137207e-01
4.736708135396506258e-01,4.617718644958175300e-01,-1.486168586731251295e-02,3.721066884057121216e-03,-8.196356702401395855e-03,5.934852036415238022e-03,4.830541610717773438e-01
3.561682399366976615e-01,5.240781477876770289e-01,3.191148856215297869e-04,3.535763629006390130e-02,-5.712090110377381460e-04,1.575463310508858463e-03,4.672599434852600098e-01
4.996457815289817028e-01,5.752963513914958193e-01,6.882871926869071899e-02,-1.186318978830478224e-02,2.475898743137700669e-02,6.844283779131352108e-02,4.901350736618041992e-01
4.120203179822577999e-01,4.713461288342383204e-01,1.439785869002618846e-03,3.827183180886028352e-02,-1.320228243463238615e-03,7.425099308865782018e-03,4.483511745929718018e-01
6.433476306361961550e-01,2.816826567593610497e-01,-1.807125841748968842e-02,-4.222191957852251538e-04,1.720630837154966258e-02,2.407953094932218860e-02,5.759276151657104492e-01
4.427560473275620190e-01,4.422526283316420836e-01,-8.905747838636457470e-03,-2.858360542258734337e-03,-5.517864662482321533e-03,-1.751675695967732293e-03,4.515487849712371826e-01
5.311403039596835907e-01,3.797346430025732578e-01,-2.098080064852841931e-02,-3.744848024144169902e-04,1.123782673277024880e-03,1.815997055181442846e-02,4.951370358467102051e-01
4.956800623207472389e-01,4.834283596657160675e-01,-2.979358908602186551e-02,3.511390612070176853e-04,-6.327159471087156865e-03,-9.652629124918773486e-04,5.195748209953308105e-01
4.894090628579381708e-01,4.908277014403593652e-01,1.619598830143326174e-02,3.193741876340945932e-03,-8.472239432058782313e-03,-7.905853468309426840e-03,4.743810594081878662e-01
5.472430926009208552e-01,3.107752109835472121e-01,-1.641536333778581547e-02,2.432841922301659174e-02,-6.369838620494368622e-03,1.124595633214102962e-02,4.925622344017028809e-01
5.455464308746098556e-01,3.255363840841615231e-01,-1.127601236655739747e-02,2.625031777251985582e-02,-7.265721494106609953e-03,2.395642771264888324e-02,4.897922575473785400e-01
3.359412166929627852e-01,6.102550933635073616e-01,-3.060996611469068984e-02,1.953313953258102031e-01,8.062159003167028437e-02,-5.822989677481215862e-03,6.665000319480895996e-01
4.838697471148929452e-01,4.905954048508735510e-01,-3.399918410445978978e-02,-8.002058386286109047e-04,-1.257837010131442599e-04,7.040526583545587361e-04,5.212675929069519043e-01
6.092762829753557430e-01,1.887571548925294773e-01,-1.021397079878683112e-02,1.653419460043187988e-02,1.905409615875628196e-02,5.027122885519366008e-02,5.564062595367431641e-01
4.899374929336295925e-01,4.858833483593327784e-01,-2.938048506362661572e-02,8.917260931344120952e-04,-5.845349495745610045e-03,-8.141451121993003930e-05,5.174041986465454102e-01
5.817941250542790765e-01,3.617205884299269369e-01,1.687445470346848886e-02,-2.922116412548123390e-02,1.751696497768756577e-02,3.199913393028112202e-02,4.997966885566711426e-01
5.406711611001843165e-01,3.628132562031211594e-01,-3.144557994722402272e-02,2.244212111250072986e-02,1.026114092944621463e-02,6.307964401077889582e-02,5.205376744270324707e-01
5.324559399689826611e-01,3.813993295055468358e-01,-2.523983858141731762e-02,5.920458846845122643e-03,1.065229254207269169e-03,2.834415234911137962e-02,5.021133422851562500e-01
4.861055954733669582e-01,4.886257518300350933e-01,5.024341424788092425e-02,-1.238564255120022705e-03,-2.486422416671575999e-02,-1.682178242341457117e-02,4.402145445346832275e-01
4.425508063081576293e-01,4.834966939918765583e-01,-1.858734865718497664e-02,1.074772239953873838e-02,-9.571240643433859968e-03,1.078800714015463319e-02,4.839185774326324463e-01
5.032589422105797627e-01,4.320522367728124591e-01,-2.533392838108483591e-02,-3.998429746357660963e-03,1.096969898999733926e-02,1.181305076541201661e-03,4.972470402717590332e-01
5.530146928690637953e-01,5.427055355397373271e-01,7.726226632989213750e-02,1.414204716013713753e-02,-3.254434387124834072e-02,-6.456048687030697779e-03,4.748099446296691895e-01
5.024010631598118115e-01,4.897509873353782517e-01,7.102833935508129359e-02,4.922012350447218035e-03,-1.485389458908361639e-02,-1.307989056344247523e-02,4.266537129878997803e-01
5.119661375318118601e-01,4.398579240867565021e-01,-2.419312543622709200e-02,3.120268162229161354e-03,-6.433768792141773482e-03,-3.931516946999766282e-03,5.041871070861816406e-01
4.935883290143609492e-01,4.959564276893337897e-01,6.958066494798453849e-02,5.983813054180560365e-03,5.414015002377519509e-03,1.305647352069568001e-02,4.260269403457641602e-01
4.732846325741842941e-01,6.386269402994639854e-01,9.030731707492611893e-02,2.283786839785407682e-02,-4.569733768709241528e-02,-6.110349645247752787e-02,5.063224434852600098e-01
3.203909304042102946e-01,5.375200562236488455e-01,-1.327035795464182044e-02,-1.105739369195061182e-02,-3.113386312322450472e-02,-5.247607001049870747e-03,4.840246438980102539e-01
7.508079191547141207e-01,7.360180234056646897e-01,1.063027010699543196e-01,7.963419909692609489e-02,-1.869465371820277014e-02,-6.467206467439511053e-02,6.623399853706359863e-01
4.982418648103432157e-01,4.788884792914350763e-01,-2.889651906464363318e-02,2.419407551470740322e-03,1.280718691215185917e-03,-6.200646917606912958e-03,5.178661346435546875e-01
5.222662880527143558e-01,5.684653072183687428e-01,8.786928598220605791e-02,1.850024400547230219e-02,1.818301560839654524e-02,1.653721656471062980e-03,4.614441096782684326e-01
4.955553369849950429e-01,4.977413371351724347e-01,3.589710021390779549e-02,1.337619880779624976e-03,1.017882627689739757e-02,-8.197924429943952498e-03,4.613167047500610352e-01
4.930629422190574984e-01,4.960695008465640932e-01,5.886213151221714179e-02,5.210134566480071998e-03,-9.329253030043614323e-03,-1.268987863044414820e-02,4.366582930088043213e-01
4.855334348773382436e-01,4.965570019200582497e-01,5.129140367193046890e-02,-3.189705265094880220e-03,-2.291035520276721305e-03,-1.809719234974493593e-02,4.410253465175628662e-01
4.737812941905762965e-01,4.661694105470647886e-01,-2.727495929849599321e-02,-4.639152768937995427e-03,5.707876507619743731e-03,6.593159049003110075e-03,4.975882172584533691e-01
4.881954268641435779e-01,4.987142222223633903e-01,1.075330001893712306e-01,1.152297690358839756e-02,-5.826415311208018276e-03,-5.000353355766871608e-03,3.867736160755157471e-01
4.676534823480517078e-01,4.916519591269039591e-01,-3.495453353429062160e-02,-1.552963542593178590e-03,4.636666406104586707e-04,9.478058885848628101e-03,5.152959823608398438e-01
3.463448232248400038e-01,5.443906616114223551e-01,-1.126182443306350534e-02,3.304597575641294444e-03,-1.734231545338650593e-02,3.539919181374159059e-03,4.887737631797790527e-01
4.380828862337808882e-01,3.469356391001577888e-01,-2.603765569993737872e-02,2.048801450646968725e-01,3.421736657764622852e-02,-9.513914403454492089e-03,5.577849149703979492e-01
3.916562325999708438e-01,5.232325473817504013e-01,-5.718995545380745060e-03,7.556183753234524403e-02,4.009676906172122968e-02,8.004199234518812392e-03,4.996486604213714600e-01
4.549932898204526177e-01,4.362511192923911318e-01,4.908315103551719183e-04,2.255270972935874071e-02,1.114607265562051787e-02,-1.222645321068242807e-03,4.475583136081695557e-01
4.180296902893352873e-01,4.506108793576562022e-01,6.437196060574856826e-03,-5.455350358694942975e-03,-2.405281821519217236e-03,-6.486986113512823848e-04,4.289382100105285645e-01
3.152158239046743970e-01,5.168237964832732567e-01,-2.719496635013879393e-02,1.683558768653772297e-01,8.675383270553885771e-04,9.061457393256729456e-03,5.587515830993652344e-01
4.876223261065996128e-01,4.873288629600506239e-01,-4.447416863011682819e-02,1.387391406526009008e-03,1.931324163651305069e-03,1.758968472409081765e-03,5.319744944572448730e-01
4.849116550458932862e-01,4.422241472490910374e-01,-2.107005848908688472e-02,-3.835453348310024872e-03,1.458796302580859898e-02,1.099278706339837288e-03,4.867512881755828857e-01
3.764918423068095432e-01,4.953210384666674737e-01,-3.633682124221354615e-02,2.132920071942163709e-01,-1.382085921404207704e-02,4.581558849897437308e-02,6.139663457870483398e-01
4.563440875411454156e-01,4.406318906788453393e-01,-6.300825787873387540e-03,1.008477124436461120e-01,-2.019767863058357857e-02,1.154822771592684157e-02,4.890324473381042480e-01
4.866313396637382827e-01,5.030248339946860048e-01,-2.848598628783188813e-02,-1.703876573231086948e-03,-6.013541293516093227e-03,2.552537003564070276e-04,5.236186981201171875e-01
4.681126159711975765e-01,4.599728896390624655e-01,-1.950743262543302992e-02,-1.608371498339220625e-04,7.509973762796185240e-03,1.754891695170579915e-03,4.837861061096191406e-01
3.090214616325906438e-01,5.098370233367830462e-01,-6.799891608706698509e-03,8.596659404460697818e-02,-2.595258792480765325e-02,1.584010695979962829e-02,4.779497385025024414e-01
4.527112864960164407e-01,5.770632325948572561e-01,-3.744738613830150831e-02,3.149184066639344401e-03,4.133469032415997696e-02,3.449091819373136664e-02,5.704343914985656738e-01
4.450742356359146390e-01,5.295504309968493972e-01,-3.462688401650598768e-02,5.219400261431457987e-03,1.440238722114486544e-02,4.719606111313655664e-03,5.277722477912902832e-01
3.817701168168005088e-01,5.230651923182567664e-01,-1.888810765509263412e-02,-6.231929716142007442e-03,2.795911268484596243e-02,1.087631114964387850e-02,4.898151457309722900e-01
5.111857074271504153e-01,4.751856012340113233e-01,-3.425512926926488344e-02,-2.923274151219812291e-03,-6.767697921409803309e-04,-8.852291855503362087e-05,5.283870100975036621e-01
4.683243142769594192e-01,5.049936925358662343e-01,-3.440187042284548191e-02,-6.054828710798220576e-03,2.135575435133056990e-02,9.325937362966930239e-03,5.236907601356506348e-01
3.706258857869997314e-01,5.742351316991225474e-01,-2.632164463191483117e-02,1.375852832623138296e-02,4.131309681317478499e-02,2.316292380380823718e-02,5.358582139015197754e-01
4.846716534873919402e-01,4.862166205139217823e-01,1.055879717869477874e-01,4.316804410563293906e-03,-4.069910665163997167e-03,1.889039028894266880e-03,3.800115883350372314e-01
4.900662403154203428e-01,4.948643008709568969e-01,-3.090101654701149503e-02,-1.445406051122474680e-04,-1.917150348357501543e-03,9.879522706391290036e-04,5.233961939811706543e-01
4.755638344434161557e-01,5.299128836698432377e-01,-3.213134644772192017e-02,-2.528495584781669664e-03,3.898897324734147251e-03,8.637032264668338677e-03,5.372053384780883789e-01
3.869467482977494988e-01,5.206707778920831586e-01,-2.125976867515022573e-02,-5.705643207790678587e-03,2.350086379422233404e-02,2.261527080120077221e-02,4.923317730426788330e-01
3.745302243441318013e-01,5.278287861332277009e-01,-1.855357968457471696e-02,-5.128400642628487723e-03,2.813658017529896069e-02,9.236439064744314878e-03,4.909015595912933350e-01
3.944430392564973187e-01,5.196491258478750375e-01,-2.501237623799734688e-02,-3.546944076736980277e-03,-1.910244272996021453e-02,-9.143500555610421104e-03,4.955008029937744141e-01
5.161253726474932524e-01,4.149475890436379877e-01,-2.791451115289095286e-02,-4.158470541044873882e-03,4.788597721292314410e-03,-4.425633572858136792e-03,5.013492107391357422e-01
2.486239193777172729e-01,5.583251322960378626e-01,-1.859332377691480520e-03,1.287584563743217163e-02,-1.726841315279274355e-02,7.390220848398351000e-03,4.876345694065093994e-01
3.163677337826976133e-01,5.540580935339010082e-01,3.536589210559326624e-03,1.110416899030944142e-02,-9.402461601601580163e-03,7.150640128155839881e-03,4.790673255920410156e-01
5.022318783828593203e-01,4.746049465096789932e-01,-3.629184233984389385e-02,-1.105958854551176117e-03,9.862051753837806564e-03,2.317524482727064707e-04,5.255367755889892578e-01
3.373684856261005560e-01,5.607703467623155191e-01,-1.532467604470844069e-03,1.849813905118741567e-02,-3.467881683840869480e-04,8.215351287062879621e-03,4.916327297687530518e-01
4.976964231915669279e-01,5.152184060833367996e-01,1.163683976237706030e-01,-2.750507281609786397e-03,-9.666624862599761114e-03,6.432735612475384834e-03,3.909307718276977539e-01
4.894633211371132164e-01,4.906315036091957182e-01,4.263488407616472520e-02,4.876929955704992041e-03,-7.821670611809545051e-03,-5.313521625436494998e-03,4.477930068969726562e-01
3.105565482591985949e-01,6.125129348440749855e-01,-2.659517510676834284e-02,3.446931806104335666e-02,-2.608207100596186129e-02,1.965699924027437470e-02,5.598378777503967285e-01
3.523212599496960418e-01,5.341491973791379078e-01,-8.400584490743878696e-03,2.945949536130199053e-02,-2.738175762665327403e-02,8.017744736445226242e-03,4.835459291934967041e-01
4.054585545250516954e-01,5.135839486050106650e-01,-2.349002372025177365e-03,5.190042571169953267e-02,-1.350626824835953269e-02,1.488740101323656265e-02,4.810255467891693115e-01
3.433109738969803981e-01,5.305914603251792316e-01,1.669051227544238181e-03,6.143536315218467436e-04,-3.482638021937000099e-03,1.927007522139288775e-02,4.657548367977142334e-01
3.685478384685501041e-01,5.460317149282440941e-01,-7.394768669436169173e-03,2.131334395852716584e-02,-1.436379634409498847e-02,1.217668330154524775e-02,4.919183552265167236e-01
5.046042265085317613e-01,4.647013329751678024e-01,-3.016232652122358138e-02,-4.275222870698930019e-03,-6.548835789356638459e-03,-1.582972376344089424e-02,5.168790817260742188e-01
4.970182461923522421e-01,4.894670898753682442e-01,-3.533821159350858387e-02,5.621701587184227021e-04,1.078574356394579109e-03,-7.647997037524608549e-04,5.286272168159484863e-01
4.996705622287943016e-01,4.873906729474720700e-01,-2.440045186835776425e-02,6.128146601210038031e-04,2.353187589692726689e-04,-3.461589530628068120e-03,5.180761814117431641e-01
4.963672708960479296e-01,4.794583427305931234e-01,-3.983973403497537147e-02,1.778230832993900421e-03,5.758943242125826208e-03,3.086742162527162259e-03,5.280859470367431641e-01
4.951776615606491294e-01,4.790845624362614630e-01,-2.447766440472565197e-02,-6.043025643500204123e-04,5.808621893437918623e-04,-9.862019140881020038e-04,5.118035078048706055e-01
4.679856139464230180e-01,4.731541592480332237e-01,-3.452735643148163724e-02,1.807585202085087387e-03,3.352857021708332500e-04,1.191554023032723132e-03,5.051313042640686035e-01
4.997009977415058923e-01,4.765205583790937949e-01,-8.749526887139869036e-03,-8.454946008104855567e-05,-4.224988131540424654e-04,-1.277830047917632734e-03,4.972711801528930664e-01
4.941548413014339447e-01,4.903989559024007905e-01,-3.896204957047727513e-02,4.645365797939982576e-03,9.266367835881847426e-03,1.018143199366494667e-02,5.318446159362792969e-01
5.049225486914972194e-01,4.668253628902867547e-01,-3.006922141933615622e-02,-7.748079346674467075e-04,-3.687362380258758093e-03,-8.374918300240374522e-03,5.172416567802429199e-01
4.892798405183953481e-01,4.743458463363916522e-01,-3.600386368261088155e-02,7.141040533969916001e-04,9.986553378173985626e-03,3.670186255316834601e-04,5.182687640190124512e-01
4.998925111933806287e-01,4.810110046646931536e-01,-2.863591522773795139e-02,1.277504033873310026e-03,-7.378852716426027533e-05,1.542939769085081760e-03,5.193567872047424316e-01
4.999443251641361718e-01,4.808173102507391494e-01,-3.129642976427798873e-02,1.274547196435207950e-03,-2.174682948819773014e-04,-2.632784801184272997e-03,5.219649076461791992e-01
4.470269157117849335e-01,4.836308081242203238e-01,-2.381128700342072246e-02,-3.303950323945300648e-03,2.956751899958120697e-03,1.584557999111478599e-02,4.909940958023071289e-01
5.008768668931286028e-01,4.795320605927522184e-01,-3.142898662958637512e-02,1.887201587610640781e-04,1.152884319783085499e-03,-1.906819984661287321e-03,5.219752192497253418e-01
8.112073383168381113e-01,1.535624438566671468e-01,-3.255470287025613585e-02,6.349184776874203240e-02,3.359757732063902661e-03,-7.210376735798823891e-03,7.757698297500610352e-01
6.263304917420888795e-01,1.536214701827023077e-01,-1.287586113652720854e-01,-4.670267648044115760e-02,-4.214311268378609365e-02,1.274608547344144825e-02,6.701006293296813965e-01
5.824285340056919447e-01,3.304277197423530210e-01,-1.696659558987928529e-02,4.270545902747698713e-02,1.526446587347970660e-02,3.330113623009026830e-02,5.303093791007995605e-01
5.691167438807923640e-01,2.450071459797877604e-01,-2.021938546950430293e-03,1.637528617759495195e-02,4.376000804977255541e-03,2.397439071560532580e-03,4.970050752162933350e-01
6.169936862142691991e-01,2.517887604514106870e-01,-6.152191219036928782e-03,4.702171010836340981e-02,1.555324458354286760e-02,1.736597977261174208e-02,5.498845577239990234e-01
5.751874226537947443e-01,2.315369205516076834e-01,4.213755619936032648e-03,-5.019055266299301404e-02,1.968886364473570235e-03,-3.250044444183267534e-03,5.054619908332824707e-01
5.736358909606404932e-01,2.349583315525751170e-01,-2.988925381020635097e-03,-4.634756795534433066e-02,5.654377166466973380e-03,-9.065514616554177715e-03,5.086212158203125000e-01
6.045788552774887803e-01,3.232595948104004524e-01,-2.967207468670274295e-02,7.508990429100576014e-02,9.787299273471368119e-03,3.542202650336730152e-02,5.691702365875244141e-01
5.590555745666951903e-01,2.878829413545883620e-01,-3.879886195354675937e-03,-5.334756772013632235e-03,1.105102382794630710e-02,6.862971978032718877e-03,4.882328212261199951e-01
4.853503978151086917e-01,4.906203778987180963e-01,-3.328505482535476512e-02,-7.228523015987358509e-05,-1.718077010848252130e-03,5.732863131023744171e-05,5.212989449501037598e-01
5.629480818660679287e-01,3.410546424376299512e-01,2.057643202689196649e-03,2.731758461919634590e-02,5.117245394096900379e-03,-5.981295746653760275e-04,4.916251301765441895e-01
5.617034147159714053e-01,2.454890676129209137e-01,-4.016685464686253759e-03,-1.587478954844206633e-02,8.846168176946016606e-03,1.480662931602454851e-02,4.927376806735992432e-01
4.848524391919373233e-01,4.343149207121894118e-01,-2.258624143916088123e-02,-2.150243671627345352e-02,-1.568395188993863126e-02,-8.734294610616028312e-03,4.865770637989044189e-01
5.518871609442169701e-01,3.435558520954341555e-01,-9.100759463726848519e-03,-6.614647877415044674e-03,2.381470541525410566e-03,8.314064164786389311e-04,4.913129210472106934e-01
4.908821566104151213e-01,4.889478326949516784e-01,-3.369448435492006233e-02,-1.783253659323469353e-03,-8.946326079590358389e-05,-2.127484173702921637e-03,5.236342549324035645e-01
4.928670446149607254e-01,4.906548290454090799e-01,-3.181698700851903761e-02,-1.373845342241513832e-03,-2.450690557083225521e-04,-1.701291510210034552e-03,5.235952734947204590e-01
4.950342986966195791e-01,4.916611751680919351e-01,-3.186527387891957552e-02,-8.745345660829268982e-04,8.300451511061518548e-04,-4.315682450321022055e-04,5.252258181571960449e-01
5.689649951040133269e-01,3.542689981447327829e-01,-4.528727201106580447e-02,8.776843203401507587e-02,7.585348094868084312e-02,6.513911729099103320e-02,5.870461463928222656e-01
4.937126290830186059e-01,4.910393536711448181e-01,-3.400999379332969585e-02,-1.708389842295496633e-03,4.640141310828257634e-03,-2.552629284373832044e-03,5.264793038368225098e-01
4.913481272412415501e-01,4.859412743313111793e-01,5.532108508616839782e-02,1.637940667762716434e-04,-7.327461862942116592e-03,1.455291750835061601e-04,4.335348904132843018e-01
4.954945234554346545e-01,4.956929720690701480e-01,-3.050510623277413735e-02,7.547007320783972193e-04,-5.407337614620464673e-05,1.639146910120605578e-03,5.261081457138061523e-01
4.681812394340206795e-01,4.894424347902491812e-01,-2.865244412521400497e-02,4.756928253390945056e-03,6.261932720547001840e-03,-9.294569277379738023e-03,5.082358717918395996e-01
7.660771937892714156e-01,8.805809483189025455e-02,-4.554871591922876606e-02,-9.008490249458533938e-02,-8.456892935624512470e-03,3.192302544248769997e-02,7.718589901924133301e-01
7.372665824697073322e-01,1.911815718594851166e-01,-7.665809539048817900e-02,9.999657975638846785e-02,1.959853541503996793e-02,6.041715433640911653e-02,7.472021579742431641e-01
5.010986082455284318e-01,4.893931193211649155e-01,-3.719502319543388502e-02,1.203052646170780539e-03,2.074013673027086738e-03,-1.053158012711830722e-03,5.325567126274108887e-01
5.987944781055779542e-01,2.935503222536923751e-01,-2.572526000890429376e-02,3.072865849822054712e-02,2.295212599831413305e-02,6.162181069983983794e-02,5.553132295608520508e-01
5.418752675172116007e-01,4.011093638959972174e-01,-2.469402279674748346e-02,1.826480658623488157e-02,1.263691023590378729e-03,2.764705041378953329e-02,5.141603350639343262e-01
6.018239821731633521e-01,2.524825682032653673e-01,-3.067266211209568327e-02,1.559726198253002238e-01,2.354578097692371953e-03,-8.148615418898984893e-05,6.116642951965332031e-01
6.395329497496848870e-01,3.243293516589887959e-01,-2.610803334281974752e-02,7.647353872827289401e-02,-1.199018909493416649e-02,4.584906245482373716e-02,5.974119901657104492e-01
5.753517314751930289e-01,3.971313318632975764e-01,-1.624511642636566888e-02,2.930008754886152811e-02,-8.031647216136401576e-03,1.228617658512964721e-02,5.287121534347534180e-01
5.192447032730609369e-01,4.954773265427128703e-01,2.156781167713883729e-02,7.055279115592820276e-03,-8.187164727828429717e-03,-7.026616134334657399e-03,4.867414534091949463e-01
4.971536893631032239e-01,4.856003127104444594e-01,-4.009853120519218939e-02,8.285509423729512128e-04,2.787820745444882353e-03,-3.607283778960739635e-04,5.315939188003540039e-01
5.111909486068748620e-01,5.279796101986085066e-01,7.724422268036157391e-03,1.158899478405989170e-02,-1.222371721664637471e-02,-7.680264757692597914e-03,5.130702257156372070e-01
5.182163545223115175e-01,5.100886023061909080e-01,8.502043341850096247e-02,4.524015585554778257e-02,-5.051068462788157326e-03,-4.065866182907747206e-02,4.420178532600402832e-01
5.373030530575628738e-01,5.491952476514422310e-01,1.105291289000561172e-01,3.408763785728233936e-02,-2.207727708959924748e-02,-1.100678725671713591e-02,4.389353692531585693e-01
4.939463400929104964e-01,4.887130253102702770e-01,-3.949299810779638431e-02,3.650948774933739788e-03,4.173860483034246005e-03,3.997418988669161274e-03,5.309740304946899414e-01
5.694499057067385905e-01,4.073829693205793800e-01,-2.697970053979653615e-02,-9.012510662930206876e-03,-1.839617075050370421e-02,-1.685790478298014204e-03,5.353502631187438965e-01
4.969422044767856095e-01,5.010165526450715001e-01,6.979503808351722460e-02,1.098383369391615471e-03,4.395599416417280900e-03,-5.754297115977265349e-03,4.293862581253051758e-01
4.996802324491544933e-01,5.292720416298736241e-01,6.743136239706015722e-02,2.042170505551134732e-02,-6.798930127559103809e-03,-5.194566336523710227e-03,4.494180083274841309e-01
4.952621970076780400e-01,4.856128817656348851e-01,-3.773827968543164157e-02,7.659805938177045165e-04,3.012865512976728791e-03,-2.879574591146060142e-04,5.282695889472961426e-01
4.938386849633049636e-01,4.913235549518696343e-01,-3.935255387650771208e-02,4.970945969554117598e-03,4.182279750472778224e-03,3.257099274137403161e-03,5.320870280265808105e-01
4.711784951952564526e-01,4.859357210353543177e-01,-2.432846733208821055e-02,2.167623328155699261e-03,-2.693870706618388053e-03,3.815452879701816593e-03,5.031269788742065430e-01
4.825341738656343527e-01,4.839815899272382205e-01,-4.292067001488397704e-02,1.353750641346943652e-05,1.337688842972817923e-03,8.040549582252237877e-04,5.261870026588439941e-01
4.742246909203417515e-01,4.855288769008985206e-01,-2.995798041006070278e-02,8.445144755183940687e-04,-3.984249797872874144e-03,4.150091995629488317e-04,5.099780559539794922e-01
4.994834231731961616e-01,4.206426152307684574e-01,-1.348393106953282850e-02,-4.661230868421801198e-03,-1.002309442379441425e-02,4.034187065518171677e-04,4.788273870944976807e-01
4.782790277164845616e-01,4.825573057807051591e-01,-2.976384102071782944e-02,-1.495349234568218999e-03,-6.192172364364608274e-04,-1.675763234672368650e-04,5.102032423019409180e-01
4.624677642366766261e-01,4.477651761363860006e-01,-2.042346220973101367e-02,-3.546143387192082514e-03,8.654413375415196882e-03,1.536709962693366465e-03,4.759935438632965088e-01
4.893326843039839114e-01,4.837651211194286538e-01,-2.592809302137744076e-02,1.666335323308999923e-03,-6.792182817203631061e-03,2.635224155642643118e-03,5.126631259918212891e-01
4.909569172658182490e-01,4.743145479252138252e-01,-3.690247054738571286e-02,3.219805588801648885e-04,1.033440150831500121e-02,5.715743228935268438e-04,5.200474858283996582e-01
4.963493947520699612e-01,4.956650441527277740e-01,-3.126344833618488472e-02,-4.394056563588623603e-05,1.971074369533226244e-03,-3.759508408535014684e-04,5.272824764251708984e-01
4.988059618473442702e-01,4.929260930979291189e-01,-2.345700596476396615e-02,-8.944659071656609452e-04,2.704246931418460148e-03,-1.676987293369900430e-03,5.193795561790466309e-01
4.802520721652320246e-01,4.919150813238355457e-01,-2.996855651007690469e-02,-9.443076242105950206e-05,-9.339394997134729164e-04,-2.962675012662964544e-03,5.161790251731872559e-01
4.903124837184516527e-01,4.967277284409036264e-01,1.924860181642795709e-02,-6.858500765703060323e-05,6.500890368611149904e-03,-7.291046519331190927e-04,4.744393825531005859e-01
4.839797558807067412e-01,4.983191510823389847e-01,-2.492717052409187950e-02,2.036701806195720128e-03,-5.090275071594179378e-03,-1.268765427327936261e-04,5.163133740425109863e-01
4.531792530038688538e-01,4.603994141729437217e-01,-2.015218881011143770e-02,2.213781850228014464e-03,3.701959295619907785e-04,1.748093534229583790e-03,4.770079553127288818e-01
4.701032286251787262e-01,4.941798441696982347e-01,-3.942197466370367387e-02,-2.068813914915828504e-03,-4.397063836087366541e-03,-5.627728045255911242e-03,5.221389532089233398e-01
4.681638864938161282e-01,4.984080732494297061e-01,-3.323453689449440418e-02,-3.151492852190186135e-03,-1.003955266294563262e-02,-7.792030977363265110e-03,5.176811814308166504e-01
4.823790891694097471e-01,4.928518358160780544e-01,-3.696183248659068443e-02,2.358913186132199739e-03,-4.357826454709423300e-03,-2.186939961134502439e-03,5.247395634651184082e-01
4.764743754698808065e-01,4.982033782424420409e-01,-3.797950493106688752e-02,-1.676814473949034094e-03,-3.275504605237564322e-03,-3.896198659078129335e-03,5.257372856140136719e-01
4.796350262554901489e-01,4.822499559667383640e-01,-4.276652719016510451e-02,1.173321389474087702e-03,1.397399671637640050e-04,-4.228877488625920188e-05,5.237179398536682129e-01
4.565906441831343310e-01,5.675492569885471905e-01,-2.205025273380784023e-02,-5.127972570845357918e-04,4.294396741089001601e-02,1.895676837785598839e-02,5.487528443336486816e-01
4.502914198147351943e-01,5.488315821352210966e-01,2.489249560733908240e-02,9.942781063884820192e-02,6.537927402155015166e-02,1.758987401948571005e-02,5.253593921661376953e-01
3.753333272790569386e-01,5.063673728437381172e-01,-7.426213107342538589e-03,3.165488081788371544e-02,-1.668301087416738243e-02,9.043636674623651076e-03,4.668144583702087402e-01
4.749328858008086129e-01,4.669155101254355289e-01,-3.493354905246892628e-02,-8.723165920782505103e-04,6.481189654701203888e-03,9.585616878359023030e-04,5.060349106788635254e-01
4.957767140728552846e-01,4.615902714414664154e-01,-2.844708364006698353e-02,-1.690802283681425936e-03,-6.516385663981688614e-03,-6.520244056570382619e-03,5.082533359527587891e-01
4.972878331688396214e-01,4.806774021676157860e-01,-3.950678382703648461e-02,-6.449703445147817469e-04,6.106818564311377977e-03,5.109650043048822622e-03,5.288661718368530273e-01
5.034299114705739209e-01,4.728205010174750811e-01,-3.858306594901556030e-02,3.744739402905977645e-03,1.054913043827563311e-02,8.967925662845252499e-03,5.279597640037536621e-01
4.992670260314599484e-01,4.911071068807660867e-01,-3.299973543376233387e-02,7.754771644627936680e-03,7.242418126425930087e-03,6.595279849872563716e-03,5.286771059036254883e-01
5.046658425761709754e-01,4.822709013547954449e-01,-3.525627356954330605e-02,-7.548935419560490190e-04,1.415208468728012181e-03,7.239876871965349008e-03,5.292361378669738770e-01
5.043964843288766264e-01,4.921488612437558974e-01,-3.424055773200845865e-02,1.480494716980735367e-03,1.332400031061109925e-03,2.041162536707697827e-03,5.326417684555053711e-01
4.949968071804905501e-01,4.876868335083239803e-01,-2.777726471288555210e-02,-1.389273000678886748e-03,1.677744027763815879e-03,-2.098715580117928216e-03,5.191841125488281250e-01
4.916603724185537594e-01,4.850964831633252095e-01,-3.363647354890531016e-02,1.276038676348132329e-05,5.392020950702261246e-04,-5.820895343686332624e-04,5.220476388931274414e-01
4.961139595152105897e-01,4.815848623709654830e-01,-3.861210831440925473e-02,1.589325197085074328e-03,5.649163719501612384e-03,1.992112861681955265e-03,5.277207493782043457e-01
4.982179880019841356e-01,4.901649834065613387e-01,7.818285326450463701e-02,5.827474947990283517e-03,-9.296277535660597835e-03,-8.936799290790204298e-05,4.165008962154388428e-01
5.121128294973538164e-01,4.829963366979480588e-01,-1.666096507412695438e-02,6.279643772993957805e-04,7.045558638714336137e-03,1.462267631639079142e-02,5.156016349792480469e-01
5.223200309779555406e-01,4.752728208610925709e-01,-3.488692158859335590e-02,5.621386545581319623e-03,7.892950037634960392e-03,8.383078515612414280e-03,5.356962680816650391e-01
4.435962233754516815e-01,4.974467413411677308e-01,-2.255308580331977231e-02,1.580928416994431540e-02,-8.140567758811053083e-04,-8.709576814407074888e-03,4.962628185749053955e-01
5.155736932833032693e-01,4.332178953010916711e-01,-3.008002085098837597e-02,-2.927658935429399822e-03,7.234257700682824276e-03,1.420480193319106389e-02,5.102653503417968750e-01
4.914079244976862215e-01,4.846722748097138100e-01,-3.350668038218301836e-02,-4.888164719420962871e-04,9.043173130606051038e-05,-9.605796277434423304e-04,5.215827822685241699e-01
5.032914861587342026e-01,4.737437196442785825e-01,-2.130342483499347850e-02,2.025909764583093235e-03,-2.597892657610667067e-04,9.873144823365343284e-03,5.107614398002624512e-01
4.928421304145799708e-01,4.926432202147680295e-01,3.353316731915578774e-02,-7.473756875649393292e-04,-5.285847801623326514e-03,1.055490179748027734e-03,4.593062698841094971e-01
5.117232835715515016e-01,4.496638660758222050e-01,-2.623281733544358119e-02,3.137340774442246190e-03,-6.361615253501370221e-03,7.801632523007842948e-03,5.100945234298706055e-01
4.956689866426229329e-01,4.906972819972979516e-01,-1.419062364253187436e-02,-2.649806600435744737e-03,2.595435814937115723e-03,-4.307674369823702096e-03,5.074875354766845703e-01
5.047997746212576908e-01,4.746066936274448977e-01,-3.056248405744116381e-02,-1.239390861738742583e-03,7.600113334945491836e-03,1.614619522553702516e-02,5.218430161476135254e-01
4.472413147380751020e-01,4.401317561005316237e-01,-4.576309153486390890e-03,2.986292446619860305e-02,4.418827541879955141e-03,-1.832934300821826255e-03,4.513552188873291016e-01
4.233884518203367975e-01,4.828678865436314416e-01,-1.350375559781014090e-03,1.076463347312743915e-02,1.342471260407204509e-03,-4.046203295785513114e-04,4.577746391296386719e-01
4.928860153795397991e-01,4.878048978482339426e-01,-3.113302479250906751e-02,-1.852877909347009537e-03,1.590036627952135136e-03,-1.423211490808140188e-03,5.215200185775756836e-01
4.543469235448552856e-01,4.631003561150125458e-01,-3.045743429003711089e-03,1.198341564689630288e-02,4.528422368548493636e-03,-3.497460729611219944e-03,4.624039828777313232e-01
4.925150517226448699e-01,4.850004526029405572e-01,-3.271275245674759580e-02,-6.584270362173899301e-04,1.319988825026124695e-03,-6.310577736626999572e-04,5.215185284614562988e-01
4.126028486345089119e-01,4.636706047936075548e-01,1.029792561005160589e-03,2.393803924749550102e-02,-1.655425162991504273e-04,4.381353513273756987e-03,4.413560628890991211e-01
4.552573593830633314e-01,4.550833512171338358e-01,-1.929401394945573500e-03,1.378154616157814712e-02,5.654525108379951370e-03,1.418059138639325440e-03,4.578339755535125732e-01
4.574529312030837236e-01,4.460974492826130233e-01,-6.130253796464257832e-03,7.020934054237641664e-03,2.633700167337299503e-03,-3.297392458211264622e-03,4.582307338714599609e-01
4.569713399451156288e-01,4.548895939574472691e-01,7.991831887954048419e-04,1.516900209321708770e-02,3.447299881137185374e-03,-1.043833418964730184e-03,4.559352397918701172e-01
5.069789219794884616e-01,3.832868319821113867e-01,-1.551284181436901610e-02,-2.280928209290332756e-02,-1.010432111039719950e-02,3.826501927006721549e-04,4.749071598052978516e-01
4.676156420447536988e-01,4.586040247840640349e-01,-4.485466101947943596e-03,1.106244141370330523e-02,6.848705722357208842e-03,-3.630751924800529329e-03,4.682452976703643799e-01
4.697341059952550024e-01,4.348568365167855276e-01,3.914346553845482468e-04,5.626048926013496598e-03,3.964278171269341490e-03,-2.027370923602360030e-04,4.530692994594573975e-01
4.753624608263985474e-01,4.324348926627273881e-01,1.223139456986821472e-03,2.575423498305915923e-02,1.010373287510366730e-02,-4.132697155171873894e-03,4.567762613296508789e-01
4.764539454701943733e-01,4.128181131471400644e-01,-9.796513617201241253e-04,1.524969833499319367e-02,5.264936121607790252e-03,-3.344579492809677916e-03,4.499164819717407227e-01
4.941434633676751176e-01,4.981671072140619883e-01,9.788755041218177855e-02,8.948008902531605357e-03,6.449332692664501063e-05,-2.895621425342575096e-03,3.986159861087799072e-01
4.986748022629670096e-01,5.001301947013769844e-01,-2.909337014414636879e-02,7.250550504681805598e-03,2.020764072133173113e-03,9.216194087980142738e-03,5.288990736007690430e-01
4.898189007097369929e-01,4.979328093212922468e-01,3.850093850688218744e-02,4.678296339422539744e-03,1.647535207700019395e-03,-3.948500066378259413e-03,4.555614888668060303e-01
4.838954067837406559e-01,3.670254522355667626e-01,7.723235925081228803e-03,-6.655208443154943254e-02,1.212733937119547800e-02,1.381017277844823025e-02,4.461493194103240967e-01
3.557582601711259396e-01,5.105116495123244169e-01,3.291914130113093861e-03,-1.248628642643582337e-02,-2.218598009590091319e-03,-4.876266340080210281e-03,4.508661925792694092e-01
4.945791075494908040e-01,4.918690492099727085e-01,-1.418459532257504430e-02,-2.607365370024804577e-03,2.566336525791678216e-03,-4.276233127571467223e-03,5.075077414512634277e-01
4.747640606234501126e-01,4.940154182681301132e-01,-3.858480791667134868e-02,-1.279603087718971172e-06,2.703470041024851620e-04,-1.698028901187522690e-03,5.232487320899963379e-01
4.953935219323185035e-01,4.904582215817834823e-01,-2.096479683116808657e-02,1.043511081585812980e-03,1.567270249837675235e-03,-9.236407708638946432e-03,5.141677260398864746e-01
4.747542898895615870e-01,4.867225492410839349e-01,-4.120126677399893467e-02,-7.763961916957942461e-05,-2.171390997980231804e-04,-2.583451907973993364e-03,5.220619440078735352e-01
4.562116183083381182e-01,4.127954409800493885e-01,-3.383772260233175455e-03,-1.568191070534973725e-02,1.056514662957465031e-02,5.645011594869691176e-04,4.407182931900024414e-01
4.715177782937280404e-01,4.653303196649172246e-01,-3.519687183088709981e-02,-1.017641156341283137e-03,-1.145340156903085693e-03,-4.957883662260778937e-03,5.037296414375305176e-01
3.868326027174268100e-01,4.349846711342917338e-01,5.096486554580004213e-03,-6.313114520008367148e-02,2.263685031990595939e-02,1.775992324233394148e-02,4.252794682979583740e-01
4.560405274940134701e-01,4.009630246013320409e-01,2.273507435628152606e-03,-1.827501236574681151e-02,1.078415046184547782e-02,6.244228393030638521e-03,4.305966496467590332e-01
4.267125856170550513e-01,4.479024120352138594e-01,1.827489945653348880e-03,-9.239488973926842513e-03,5.128037054924755936e-03,8.414873827672223958e-03,4.364940226078033447e-01
4.967954755931330291e-01,5.080774432948174102e-01,-1.370731359234489410e-02,7.286531078239980204e-03,-3.533758999809287569e-03,2.515212274072941082e-02,5.182610154151916504e-01
4.765291323546317903e-01,5.001660966623738824e-01,-3.668596339496965619e-02,6.486246074877861922e-04,8.317254506627775592e-04,-2.045074700631561364e-04,5.254357457160949707e-01
5.076490293539903664e-01,4.853361685524548719e-01,-2.723351670842116823e-02,7.566025132588766883e-03,-7.079993082059137834e-03,6.347091403057363544e-03,5.245048999786376953e-01
4.754371406300829106e-01,4.827908304336441248e-01,-4.136821675561025424e-02,1.666446644417505065e-03,-3.604406771595600450e-04,-2.442961560770937068e-03,5.205467343330383301e-01
4.973448282186815339e-01,4.759698007319325130e-01,-3.287597410885950699e-02,-7.136837309874977499e-04,1.397895659447726804e-03,1.653765893264198686e-03,5.198779702186584473e-01
4.879436663675653651e-01,4.944014207864608768e-01,3.896386696209508393e-03,4.251909315451544991e-03,2.855283449018428468e-03,-1.759845035266677932e-03,4.873985052108764648e-01
4.959177985302991587e-01,4.847664493365435590e-01,-3.267027650944603900e-02,1.553825770729000150e-04,-1.193112233624464254e-03,7.343656129941179833e-03,5.232602953910827637e-01
5.000861113593837448e-01,4.841465954902508528e-01,-3.142151218505634391e-02,2.233037148534217260e-03,-4.006893462232762569e-03,4.754227255063813579e-03,5.238447785377502441e-01
4.926002285568623074e-01,4.988666023111302250e-01,-2.460572890555101644e-02,-9.391931086084150723e-04,-4.643430037492683911e-03,3.113523186919976444e-03,5.204600691795349121e-01
4.943304736530835797e-01,4.936392801773523131e-01,-1.011535468852869935e-02,2.701108556498192821e-03,-3.299396367169444601e-03,-5.151364813925751740e-03,5.042336583137512207e-01
4.872173527681409322e-01,4.845313102966398722e-01,-1.334203909272979605e-02,-8.456375520085417791e-03,-1.335560769546955025e-02,-4.284020493919829878e-03,5.000271201133728027e-01
4.560618632982325060e-01,4.536463732228578905e-01,-2.403313187430322628e-02,-1.618990812883094009e-03,-1.124827876820368383e-03,-6.384269778397666344e-03,4.790316522121429443e-01
5.031038881380689443e-01,4.590312328232857841e-01,-2.801530902120147326e-02,3.469606216450234551e-03,-7.956269881058802493e-03,9.203577934726470816e-03,5.109816789627075195e-01
5.093576389183703812e-01,4.228346653749133210e-01,-2.914934753322290240e-02,-5.654372208616170736e-03,-2.791771207514289355e-03,9.920873476438943610e-04,5.010040402412414551e-01
4.927545428181234199e-01,4.944558834317006046e-01,-2.936639074479674427e-02,-1.174684318631644131e-03,-2.688194244632693096e-03,5.873160918014086506e-04,5.229993462562561035e-01
4.650281191374461276e-01,4.942720378878180387e-01,-3.640632408871796732e-02,-7.895848018268820934e-04,-6.440239748343177303e-04,-7.893714030383892910e-03,5.168613791465759277e-01
5.038815162888790056e-01,4.654013395616292126e-01,-2.676165841507077703e-02,4.681727929848041557e-03,-4.616868430425759805e-03,-1.153557051017745604e-02,5.130034685134887695e-01
4.937280190157671278e-01,4.952676121706994783e-01,3.152197759032382418e-02,8.762358631677772194e-03,8.516859855173888189e-03,4.527085830607214222e-03,4.635275900363922119e-01
4.764427467094420887e-01,4.956761231655227862e-01,-3.562760190727132237e-02,-6.385902254986099884e-04,9.835183642908489629e-05,2.636847891039168445e-04,5.219542980194091797e-01
4.613544414841288521e-01,5.088877322005253001e-01,-3.057767621505447231e-02,1.835947106006915151e-03,1.485529561341630486e-03,-1.168373839986901246e-04,5.173553228378295898e-01
4.926161246087608081e-01,4.934750433059696961e-01,-3.102910604880604328e-02,7.621892866747191500e-04,-3.855936325770431376e-03,1.234185049570381493e-03,5.241237878799438477e-01
4.934622566601705174e-01,4.598754970206804793e-01,-2.812986601411571197e-02,2.324813394035029224e-03,-7.088597515457206732e-03,9.829493491731122745e-03,5.060876011848449707e-01
4.335636555094387612e-01,4.702302487516614171e-01,6.634733960832472910e-04,5.962971181822071358e-03,1.197483751465473452e-03,5.129427308125237769e-03,4.525592625141143799e-01
4.410455473719852026e-01,4.605581196089072460e-01,6.258562408494872109e-04,1.142077006840258244e-02,6.084713527139902533e-04,4.326647789552343082e-03,4.509906172752380371e-01
4.486567421575003989e-01,4.365227641118853974e-01,-4.455591248982204711e-03,3.102787348074200965e-02,-7.137805465513901403e-03,6.309516927262636722e-03,4.506888389587402344e-01
4.193451477425055307e-01,4.755657500248652858e-01,-6.788000169037466947e-03,1.401188039033638387e-02,-6.662738829518443165e-03,7.193868728886258605e-03,4.578046500682830811e-01
4.157365651549471686e-01,4.755841500785885634e-01,7.957921884482743735e-05,1.406843072456410819e-02,1.623627052938752006e-03,6.183363275759370947e-03,4.493828117847442627e-01
4.931285741140266077e-01,4.794970325736349626e-01,-3.025749796691368232e-02,2.183803379794000885e-04,-3.475125713508148747e-03,-7.545950813972391496e-04,5.167420506477355957e-01
4.964752008154625362e-01,4.807806760075432617e-01,-3.037563416484523326e-02,9.304102842849214542e-04,-7.821376921713179414e-03,-1.396854971689754851e-02,5.199239850044250488e-01
4.931068256369235403e-01,4.817342877464946271e-01,-3.759901559479617017e-02,9.109122100659939464e-04,-2.929866616664819623e-03,-3.185857150508591105e-03,5.251678228378295898e-01
4.965181814203334376e-01,4.838408431607083560e-01,-3.159003738974885955e-02,1.513888838037105765e-03,-2.319426019471637276e-03,-4.057700594293641230e-03,5.219544172286987305e-01
4.964737965207298154e-01,4.787206932590747921e-01,-3.530028522917222356e-02,-1.544477767574321586e-04,-1.284436285918907385e-03,-1.163899039624841092e-03,5.231322050094604492e-01
4.962950688800081833e-01,4.749183487205180243e-01,-3.087601544062390513e-02,-2.304977053907250508e-04,5.071510771018681620e-03,3.576280349690680722e-05,5.168892145156860352e-01
4.417630772168311681e-01,4.809643392824087815e-01,-2.614066350925764448e-02,-4.607609331090596269e-03,-1.481239277199170165e-03,-1.350749115939234822e-02,4.893165528774261475e-01
4.911554536268740168e-01,4.880010172711960470e-01,4.257229265561041087e-02,4.399040109100550537e-03,-8.118290553222653680e-03,-4.851448903213906837e-03,4.473792016506195068e-01
4.912860022343502608e-01,4.807709682508733984e-01,-3.768772229198519286e-02,1.052517346271929092e-03,-3.860409652961056728e-04,-2.705401633967424637e-03,5.238199234008789062e-01
4.776317312674637217e-01,4.762857733389415094e-01,-4.074249228049914295e-02,4.838446745057090829e-04,-1.418242811323623632e-03,-2.429572436378892399e-04,5.177092552185058594e-01
4.905450370018020201e-01,4.924556347897255382e-01,2.441000110209062823e-02,4.191407046042958801e-03,-6.828399945161935450e-03,-8.544049338199698890e-03,4.675336480140686035e-01
4.836131224548966268e-01,4.771404540224568613e-01,-3.926544610762178200e-02,2.268082277199983765e-04,-5.591443403217505152e-03,-3.416891249310176262e-03,5.197965502738952637e-01
4.807226425344780507e-01,4.772783387016487633e-01,-3.645417009413043363e-02,-6.369193626736432273e-03,-1.087060767392900203e-02,-9.176881169456193449e-03,5.161697864532470703e-01
4.803664627367545958e-01,4.832161064124719796e-01,-3.797441145287872022e-02,-9.380434932595795071e-04,-7.112602915720249615e-03,-8.257942235915751231e-03,5.201167464256286621e-01
4.822525201141224516e-01,4.683185146889886630e-01,-3.728474027780298572e-02,-5.668498468933572641e-03,-8.533047681635815701e-03,-8.655698863261833409e-03,5.132382512092590332e-01
4.316535977134518531e-01,4.519380840213248485e-01,2.962042850218060686e-04,-6.639269560730295949e-02,-1.760771560306915659e-02,-1.983791079085930192e-02,4.588738679885864258e-01
4.913391446380403482e-01,4.868212010089325581e-01,-1.517314700269345451e-02,6.364008166421485091e-04,3.975905677235954880e-03,-1.663104714560138591e-03,5.043249726295471191e-01
4.539533895345987391e-01,4.419312380707803856e-01,-8.040684538503706236e-03,-4.747971226323689960e-03,6.417022462345287146e-05,-1.800131256736870649e-03,4.561866521835327148e-01
4.963033334966534538e-01,4.914217330098950010e-01,-3.109239008851361064e-02,-4.668927116594257811e-04,1.757571674198861542e-03,-4.090162606389993391e-03,5.250291824340820312e-01
4.605705107071338400e-01,5.023640208051025624e-01,-2.616679793944759469e-02,3.813622682107771326e-03,8.126725352605484315e-03,-8.217757745896194649e-03,5.093591213226318359e-01
4.824613710987146753e-01,4.762108328021323889e-01,-3.895928843249368834e-02,-1.343162178690424612e-03,-5.249060170350832236e-03,-2.647151669068884862e-03,5.184288620948791504e-01
4.929355266967797022e-01,4.746007423840251094e-01,-3.873367064236810098e-02,1.401251613762360479e-05,-2.786228089775320393e-03,-3.797312258147490750e-04,5.227656960487365723e-01
4.792085628246813833e-01,5.009240581322380592e-01,-3.050636492338987260e-02,1.039043168859841385e-03,-5.494829888116376133e-04,-3.642241579326907681e-03,5.209544301033020020e-01
4.445524574561598996e-01,4.420041923201166734e-01,-8.480030016290607264e-03,1.005550292431650611e-04,-1.669401781397419470e-03,-1.016023894752131693e-04,4.517730772495269775e-01
4.965674519347487159e-01,4.909294633187611390e-01,-3.081039193165729939e-02,3.790244032816855475e-04,-4.087224814369956431e-03,-3.879280373231170070e-03,5.246727466583251953e-01
4.622312285668583320e-01,4.957591450068181138e-01,-2.829940084599952277e-02,1.348447517909946713e-02,1.420173682919345474e-02,-1.129023539180625153e-02,5.096310973167419434e-01
4.928051024944868352e-01,4.909622844019307930e-01,-2.739908107327576614e-02,-1.459779774177128895e-03,-4.531410739170075013e-04,5.155674546819524404e-04,5.192927718162536621e-01
4.689283823209061119e-01,5.004952085602313305e-01,-2.866553154988477070e-02,9.321702296193543069e-03,-3.563841359011900821e-03,-7.244667268773020107e-03,5.145482420921325684e-01
4.902476027453763763e-01,4.745570700668585440e-01,-4.046725518930016641e-02,1.568880495569920748e-03,-2.758708930882345940e-03,6.715307621649252098e-05,5.230750441551208496e-01
4.748654013392869522e-01,5.001252027309851522e-01,-1.683567350071873969e-02,8.529066555710179340e-03,4.363519402538583794e-03,-8.405216493263164765e-03,5.052875876426696777e-01
4.046774713133969859e-01,5.172035856057985992e-01,-2.469965659178341433e-02,3.170139073656551981e-02,-1.712724312819154451e-02,7.948337914202114815e-03,4.994271397590637207e-01
4.707115454637894603e-01,4.834449205866127031e-01,-2.636177624635915873e-02,-8.855694813813460090e-03,-8.562202074486850376e-03,-6.967110932914196732e-03,5.041570067405700684e-01
4.796984894559627177e-01,4.831443181240244189e-01,-4.032050941624570894e-02,6.684114674993800768e-04,-2.293432234766816860e-03,-3.281817898677640358e-03,5.217978358268737793e-01
4.842982511767766063e-01,4.980456793011601158e-01,-3.378578722318065219e-02,5.980508770238630737e-04,-2.626471665419783958e-03,6.319273334973376111e-04,5.251145958900451660e-01
4.908566849592827519e-01,4.971702784223902549e-01,1.319047746988949443e-02,3.408761661618687090e-04,8.343692852625891540e-03,-2.227209615136768739e-03,4.810870289802551270e-01
4.773144311624151204e-01,4.777189865744435604e-01,-4.119955570231459419e-02,-1.944466590932549639e-04,-9.184874335392541420e-04,-6.727472159974328455e-04,5.187202692031860352e-01
4.939358960035137303e-01,4.940888658617250684e-01,1.566508175044112328e-02,-8.623894540793792130e-04,4.415029536424841181e-03,2.525920637013256455e-03,4.784307777881622314e-01
4.825578850530932717e-01,4.978812145780796006e-01,-2.617891226763602308e-02,3.359361914262400431e-04,-6.334614006189061113e-03,-9.577046560655167774e-04,5.166884660720825195e-01
4.735231386547839039e-01,4.988490075216117647e-01,-3.111572151069103009e-02,2.612137735330598656e-04,-3.807082496547774947e-03,2.938839685024455944e-03,5.178337693214416504e-01
4.950850644283480428e-01,4.999628579308733611e-01,-1.579964951128132178e-02,4.643472611516010623e-03,3.473477825347182947e-03,-2.147542323809783354e-03,5.134527087211608887e-01
4.930699003783560186e-01,4.997522756649590003e-01,2.954946566128557883e-02,2.778387583839705965e-03,1.031284199445433279e-02,4.554575851889475571e-03,4.673304259777069092e-01
3.871868502824583613e-01,5.379630082791653223e-01,-2.964525502023696024e-03,3.122875074114884325e-02,6.545107620570348242e-03,1.728662571921636302e-03,4.866623580455780029e-01
3.450701915898025107e-01,5.471637514118976586e-01,-1.202891245516257701e-02,-1.108139465966689365e-02,5.335360318890282382e-04,5.450206934494663917e-03,4.909046292304992676e-01
4.857314682845909615e-01,4.704929795987864427e-01,-3.945967805848754617e-02,-1.872340357672937390e-03,-6.193889585138814304e-03,-4.093154277133675273e-03,5.179099440574645996e-01
4.774376388306827979e-01,4.739466424400822220e-01,-3.965347423383447367e-02,-3.091511767874703187e-04,-2.316630186182951079e-03,-2.042968857736463060e-03,5.153825283050537109e-01
3.315704202267886758e-01,5.452795596850523729e-01,-1.128112605461933926e-02,-2.485294188715445919e-03,-2.265879988410005041e-02,8.621040960361054306e-04,4.879040122032165527e-01
2.880355406958309272e-01,5.405732158840115265e-01,-1.289216991853542327e-02,-4.219407936235142903e-02,-2.247231529404847619e-02,-5.220307265569658697e-03,4.870997369289398193e-01
3.296056187305355656e-01,5.478006758623534811e-01,-2.281672838316600727e-02,-7.786823567631478982e-02,-4.882707101997486171e-02,-2.139477225661166881e-02,5.248078107833862305e-01
2.759487657377394654e-01,5.522181300637210022e-01,-1.009671617737295524e-03,-1.488523991024867828e-02,-2.406103493925805872e-02,-2.565151088002905200e-03,4.816296398639678955e-01
4.780411020028483837e-01,4.820311965472644511e-01,-4.222723785865128976e-02,7.662316783078861266e-04,-4.432059713503419128e-04,-1.604485794039232699e-03,5.222844481468200684e-01
3.092548583029023357e-01,5.603898867138826789e-01,-9.204396441480189317e-03,6.857787534186893241e-03,-1.128002652996592386e-02,-2.317640243825609594e-03,4.949750304222106934e-01
4.762961716004520674e-01,4.956725102869137256e-01,-3.049685117335881879e-02,1.019212227214378198e-03,-3.425953451802039168e-03,-1.109068214839655940e-04,5.167908072471618652e-01
4.063941056055612733e-01,4.630143692966994795e-01,-6.209022330630697972e-03,-1.056781175100076492e-02,-9.642087202283582820e-03,-1.512724723944966487e-02,4.450947642326354980e-01
4.462948283165576457e-01,4.486633028638713494e-01,-2.704890883102772925e-03,-8.776259289597234878e-03,-8.087267562872726273e-03,-9.378323577667295116e-03,4.509555995464324951e-01
4.475004490629195253e-01,4.489073400784509005e-01,-1.425558078067684642e-02,-5.287198060219326819e-03,-9.008729842842658556e-03,-4.928770414922766137e-03,4.628935754299163818e-01
4.263515048968747889e-01,4.621212217824383628e-01,-1.031003521280648982e-02,-7.838993388523863085e-03,-1.756808617959701316e-03,-1.172350114867491862e-02,4.562652409076690674e-01
4.256829508872810308e-01,4.544895004061805244e-01,-3.447083095836800393e-03,-4.123590163879507949e-03,-4.907071013877601154e-03,-1.071887750036873421e-02,4.447607100009918213e-01
4.066971458521608240e-01,4.539548328875778749e-01,-4.458936362754351013e-03,-1.454317583509145799e-02,-5.850037342510615128e-03,-1.168927997550111252e-02,4.380182623863220215e-01
4.244803585086892039e-01,4.211414872198144810e-01,8.250023554726315655e-03,-3.062226086459242380e-02,-4.536555359352790855e-04,-3.818376308457659650e-03,4.180031418800354004e-01
4.616668769592218169e-01,4.354603939070043062e-01,-5.396752526584447374e-03,-2.358061768988944928e-02,-1.402667681974580256e-02,-1.280054491724507901e-02,4.575424194335937500e-01
4.472809630948685888e-01,4.513537805276199300e-01,-1.427326341692747302e-02,-1.037345688796328588e-02,-9.148603504088042085e-03,-6.885129088673665014e-03,4.643757641315460205e-01
4.713735093110555385e-01,4.549162860174765788e-01,-9.241047207862451707e-03,4.223030755912166208e-03,2.449855406020493183e-04,-7.839877727663413553e-04,4.726596474647521973e-01
5.303352089116677437e-01,2.916754984262969197e-01,-1.261279254960290253e-02,-8.510741046137380861e-02,-1.290912555429734286e-02,-2.924195192403570079e-02,4.969569444656372070e-01
5.436621038769381409e-01,3.766387387845370194e-01,-1.669316699717515728e-02,9.459821665192200135e-03,1.712023836145718219e-03,2.410524460372764043e-03,4.985951185226440430e-01
5.518905057908853884e-01,3.313722805244587177e-01,-3.305496854454359479e-03,-9.300194362249752239e-03,-2.780407328610047524e-03,-1.687104956862810548e-02,4.853623509407043457e-01
5.143648762806194430e-01,3.957660298194931037e-01,-2.172961517126242859e-02,-1.266488862595064636e-02,-1.184711452073634354e-02,-1.942662883360393028e-02,4.898134768009185791e-01
4.899758354824461093e-01,5.010364919089924651e-01,-2.617054392648537897e-02,4.732091327605683628e-02,1.424547716218825880e-02,-6.419901428524386541e-03,5.288559198379516602e-01
4.859325682203850527e-01,4.950160060565043096e-01,-3.156137476047088386e-02,-2.920972056736072402e-05,-6.516136889691502825e-04,-5.573382583285152805e-03,5.221853852272033691e-01
4.937534492200573721e-01,4.947938329220517018e-01,-3.011242797996266374e-02,8.921089473033404433e-04,9.374711991685640705e-04,-3.005284973285414062e-03,5.244174599647521973e-01
4.977344084691862625e-01,4.896979954398439361e-01,-2.742413336373900057e-02,-1.835969225803092382e-03,1.700425325797658583e-03,-2.215410776659657282e-03,5.212189555168151855e-01
4.702262770720101459e-01,5.370803955967724530e-01,1.828366726505326056e-03,2.032584171752728833e-02,3.149197656322972379e-03,-7.479138394801366704e-03,5.065741539001464844e-01
4.956696003592042654e-01,4.876403021340049992e-01,-2.513271000250028031e-02,-1.251297412034082374e-03,4.106146827864092354e-04,-2.966845417019471111e-03,5.168650150299072266e-01
4.440190743140460805e-01,5.131423025773038660e-01,-2.834307402279284682e-02,2.821464895121390294e-03,1.401653402752826155e-02,-2.028398457882528601e-03,5.110585689544677734e-01
5.180017330518815744e-01,5.271267660638007113e-01,4.576550959801289897e-02,-3.943921693673174862e-03,-9.086639811727515587e-03,-2.589468040314497899e-02,4.792759716510772705e-01
4.937705227499850080e-01,4.944521342959117272e-01,-2.283922381495767651e-02,-3.331211144516334709e-04,-1.166410748249642687e-03,1.045462075529904420e-03,5.169583559036254883e-01
5.019466693615451947e-01,4.221373379585363073e-01,-2.813716454234344022e-02,-2.131683327585487397e-02,-1.191913187686203558e-02,-2.052500755982129832e-02,4.981023967266082764e-01
4.794269489833361542e-01,4.687957158455015039e-01,-1.553238084312219547e-02,3.882142424262369912e-03,7.764403188291679574e-03,-7.120628899290089818e-03,4.901162385940551758e-01
3.665738898427343129e-01,5.302507992075831122e-01,-3.266153138608340889e-03,6.235429542074508343e-03,-2.675153456723432938e-03,7.067498754973225612e-03,4.737024605274200439e-01
4.957780639095281661e-01,4.821996302169833104e-01,-2.113313401765948285e-02,2.630775608085252309e-04,-1.399980106018490532e-03,-5.296763420628806431e-03,5.103459358215332031e-01
4.928640697101903112e-01,4.881972257322951814e-01,-2.644357485546400266e-02,3.887720711997479529e-03,-4.157729471797241665e-03,-4.259946012999590685e-03,5.171366333961486816e-01
4.862540790311258299e-01,4.829470329161558162e-01,-3.964368263269274495e-02,1.078770646312152397e-03,-3.814854157365770923e-03,-3.409692428382541871e-03,5.243303179740905762e-01
4.660464148933975981e-01,4.574845671225526433e-01,-8.035340328624962503e-03,8.445855226370419314e-03,7.352694918974957659e-03,-4.300259878086050772e-03,4.703184664249420166e-01
4.663699556143227065e-01,4.440656513159466634e-01,-8.754028770178834407e-03,9.453708580731320574e-03,7.339790930003554752e-03,-3.878800002602890516e-03,4.648847579956054688e-01
4.686469124872371106e-01,4.563130724969096663e-01,-1.545262982763506709e-02,7.397325462170816976e-03,4.609587586606660008e-03,-2.824914395803961205e-03,4.783152937889099121e-01
4.812621573426423272e-01,4.407023459991838421e-01,-1.702486101838340815e-02,9.532759936335203840e-03,9.530586033456280026e-03,-5.548898343825079543e-03,4.799605309963226318e-01
3.978629540897999917e-01,4.986558015292231749e-01,-8.066369482046809036e-03,5.381403881276855539e-02,1.187905048542515184e-02,-8.373838147787710656e-03,4.745251834392547607e-01
4.927452364704780763e-01,4.840179307916581131e-01,-3.748979737285351721e-02,1.926996974761477745e-03,-2.986086425350904881e-03,-2.747574490124078499e-03,5.259832143783569336e-01
4.900162386861939279e-01,4.421223268377990623e-01,-2.411977302411477675e-02,-4.136497982402270041e-03,1.550343565741539413e-02,1.273282845603992356e-03,4.927300810813903809e-01
4.673584526100482694e-01,4.587052441082400955e-01,-1.349580680437961755e-02,4.007751516269785971e-03,3.785673145347067531e-03,-6.966421699221231681e-03,4.768349230289459229e-01
4.172634345183138249e-01,4.589477998247290524e-01,-5.264468531887889213e-03,2.769381632095443274e-02,4.708685228355836624e-03,-4.014919757180501932e-03,4.475443363189697266e-01
4.550836630094609037e-01,4.538743866381217407e-01,-3.393714686229121202e-03,8.972890240729081493e-03,6.406215687606611232e-03,-2.772575742210845514e-03,4.582971334457397461e-01
4.902392536825725955e-01,4.886690095069763928e-01,8.505734871878384284e-02,7.340588935100691645e-03,4.086329042957297965e-03,1.613823776917039723e-03,4.046704471111297607e-01
5.465476825209437672e-01,3.137350656782018077e-01,-1.150267728804310607e-02,-2.498430316727854802e-02,9.450457137233761245e-04,-1.590765798345092352e-02,4.881958961486816406e-01
4.886422613434426854e-01,4.765833596752114820e-01,-3.938887646894101424e-02,1.794720003158205225e-04,-6.228959662242490938e-03,-3.763053000917580826e-03,5.222583413124084473e-01
4.924888473137198908e-01,4.870768292112450659e-01,-2.653044716270169801e-02,3.103134132317124285e-03,-4.330462690022007614e-03,-4.741939382198846926e-03,5.164822936058044434e-01
5.820060079548738941e-01,2.460626291574707081e-01,-7.983255980614667457e-03,6.027379016273341425e-03,5.553634054494359547e-03,-4.548263480204716575e-03,5.128409862518310547e-01
5.981997717963751793e-01,3.119855526350749919e-01,-2.162546617643068547e-02,-4.673084760140062272e-02,-3.068762114998625692e-03,-4.012257836734874072e-02,5.478212833404541016e-01
4.759269580971937641e-01,4.202058650091978764e-01,-9.334406870702360859e-03,-7.582898036609195952e-03,-1.307983670776510093e-02,-2.191871136496177392e-03,4.606997966766357422e-01
5.458003645625780775e-01,3.043571167330102467e-01,8.420843489845453167e-03,-9.079797321239955338e-03,3.681671985554540397e-03,-4.092163330455545964e-03,4.665438532829284668e-01
4.823876075581189360e-01,4.616588785099619563e-01,-3.289111511831716017e-02,-5.945931735909379227e-03,-1.115665490372685746e-02,-7.336916494701534695e-03,5.058673024177551270e-01
5.298453704304387779e-01,3.494491056393924100e-01,-9.978109731797024651e-03,-2.325864793356053131e-02,-9.418129604134510557e-03,-2.147578514293370724e-02,4.794191122055053711e-01
4.838826379369342567e-01,4.856403712231954772e-01,-2.709621414032431508e-02,-3.291108900248107668e-04,-4.196584618300565860e-03,-4.488315901985101726e-03,5.119709372520446777e-01
4.775950956989547525e-01,4.778045748194372222e-01,-4.118047838043376041e-02,2.043982360395719341e-07,-9.854712672930090404e-04,-6.949892241510231784e-04,5.188845396041870117e-01
4.761983848992513146e-01,4.778689616214152336e-01,-4.142346646964367718e-02,-7.939755702578354599e-04,-7.713622617630106187e-04,-1.431778597000209121e-03,5.184686183929443359e-01
4.953280130103551171e-01,4.787897403412939568e-01,-3.571068355543233208e-02,-6.479362680265838897e-04,7.721238296648079858e-04,1.564572969783176474e-03,5.229756832122802734e-01
4.773504439137582489e-01,4.858459496963449809e-01,-4.151629626755515279e-02,-3.707420975931537415e-04,-1.301583314719682426e-03,-2.946627838123553472e-03,5.231963992118835449e-01
4.525310513051554739e-01,4.277963197387338323e-01,2.279152804100681440e-03,-4.863616862584840654e-03,-8.745159572196830461e-03,-3.366587428136078551e-03,4.387893676757812500e-01
4.816944432312564306e-01,4.830998912014262681e-01,-4.106401029492956489e-02,1.780623714799847409e-03,-1.914572547585923672e-03,-2.384489440923685203e-03,5.234984755516052246e-01
4.815803674652658906e-01,4.856683208475223168e-01,-3.843786330828552478e-02,3.623840129595783349e-04,-4.832919975336593364e-03,-4.722552956256101733e-03,5.222057700157165527e-01
4.735501166789315430e-01,4.607022855713552856e-01,-3.137542478675153790e-02,-3.781005775842779387e-03,-7.913590249031500143e-03,-4.646837880480226939e-03,4.989220499992370605e-01
4.755182052324820052e-01,4.778535933833764071e-01,-4.054814505943227232e-02,-7.494170402784816653e-04,-3.353227160707367084e-04,6.498068553025233956e-08,5.172399282455444336e-01
4.934424310463821906e-01,4.847788984830909698e-01,-3.096877428777755625e-02,-1.991516457692268070e-04,3.907780872554970572e-03,-3.191508358810933241e-03,5.202071070671081543e-01
4.638259879760319171e-01,4.654386226448817832e-01,-2.883049596209752430e-02,-2.542730996693422880e-04,-2.608169829425707829e-03,-4.151007053189061623e-03,4.935380220413208008e-01
4.650404632036281294e-01,4.723079444876789323e-01,-3.519758581568860345e-02,3.265989580146913974e-03,-5.027320126654756397e-04,-8.485800577017646278e-04,5.039457678794860840e-01
4.545049046648237390e-01,4.599587819751183027e-01,-5.058273566247661890e-03,9.196826260668974212e-03,2.000592428714757093e-03,-5.857293471509017989e-03,4.627127945423126221e-01
4.976358746088730411e-01,4.917103884815260395e-01,-2.359934895174109482e-02,-2.143421055996346403e-03,2.682657793858178163e-03,-1.701063645538021096e-03,5.183404088020324707e-01
4.569731467139859227e-01,4.590685232072029276e-01,-1.010269251415357727e-02,8.534202639959426878e-03,1.595862675998621638e-03,-3.526195852506921590e-03,4.684083461761474609e-01
3.661033318606959908e-01,5.509535069930984186e-01,-1.014849982917148674e-02,6.706332502188680142e-03,-2.518530396465247078e-03,6.720467424463557335e-04,4.954195618629455566e-01
4.744819061829588791e-01,4.818321737456675580e-01,-4.022887721647983028e-02,1.032436802598183300e-03,-2.071410982338368727e-03,-3.621404048203481513e-03,5.184784531593322754e-01
4.672265995153522256e-01,4.638943431398787620e-01,-1.494366001850344627e-02,-1.151968703756867384e-04,2.353443449164014777e-03,-4.203599149494758290e-03,4.805852770805358887e-01
4.679972216907609672e-01,4.460419220372362492e-01,-5.144193649476491714e-03,8.595124200497373038e-03,6.859520150122291361e-03,-2.557022246654407343e-03,4.629679024219512939e-01
4.686321917463091014e-01,4.516169026312968349e-01,-8.720475613915590340e-03,6.506119072937140146e-03,5.999379597204726640e-03,-1.030200399574847164e-03,4.693303108215332031e-01
4.608082261426694748e-01,5.137279979572557664e-01,-1.299584362974087748e-02,-6.079034718990201924e-02,8.072330450354892051e-02,4.980464790753609539e-02,5.389258265495300293e-01
4.956504961140448806e-01,4.949098753192477385e-01,-1.338310941717058000e-02,8.893860287260283229e-03,6.055069437218579646e-03,6.341964351671484749e-03,5.091235041618347168e-01
3.129379749344945449e-01,3.676012888803726897e-01,-2.262488597491404962e-02,-2.547228012875545899e-01,6.377031911393746949e-03,5.500070506757978595e-03,5.734085440635681152e-01
4.321211255391516626e-01,4.680772610208615014e-01,-2.605485000986540456e-02,-2.569239030810743091e-02,1.492379464097500809e-02,1.712319208669110457e-02,4.808537960052490234e-01
3.949823986880585114e-01,5.200149164561789217e-01,-7.663067092770758926e-03,6.978070394825581363e-03,1.201058775829544996e-03,9.216170540914461751e-03,4.780224859714508057e-01
4.947471677676166246e-01,4.626547153339494178e-01,-3.120305807078904703e-02,-7.959787924794226727e-03,1.465487867272209296e-02,1.157481090708586957e-02,5.118699669837951660e-01
4.697348368240846228e-01,4.943840719301977327e-01,-2.824743549546104848e-02,1.697340460637752153e-04,1.538093564987423265e-02,1.529032364717996736e-02,5.121328234672546387e-01
4.971093772560336022e-01,4.914986525534240647e-01,9.682931255908300283e-03,-4.585190667205906465e-04,2.869412517272420648e-03,-2.846301272464050319e-03,4.846966564655303955e-01
4.947355983903833909e-01,4.989639436562981478e-01,-2.399736890156922708e-02,7.465352052720510868e-03,-2.903509765005513228e-03,2.937798500113232981e-04,5.210450291633605957e-01
4.785867786758445375e-01,5.004507059308940242e-01,-3.375804254331110643e-02,-2.617534169748631737e-03,9.925248383332493582e-03,4.140370892240710123e-03,5.239700675010681152e-01
4.016103863878079938e-01,4.939108286091383193e-01,2.521389021876152547e-03,1.120589565518189182e-02,-7.893622873227646971e-04,8.398136197337154052e-03,4.530095458030700684e-01
1.771275868023246547e-01,7.867611196917436711e-01,-1.220321943487672756e-01,1.271385649718376476e-01,6.176842049444170729e-02,2.901723912017263249e-02,8.402333855628967285e-01
4.827377574744752819e-01,4.970167984872524425e-01,-3.723665791153352167e-02,1.638787352257540251e-03,2.400628833108965198e-03,3.965188931632516491e-03,5.273277163505554199e-01
4.856562398616399712e-01,4.887613299949997714e-01,-3.692003485510225724e-02,-1.914530791628601912e-05,3.580500148721855059e-03,3.640017318834371397e-03,5.242103338241577148e-01
4.918758454404112967e-01,5.013317823222314118e-01,-3.473933272270213202e-02,8.443525730298429705e-03,6.136494933211124846e-03,6.675185241205675371e-03,5.318393707275390625e-01
4.770474230381588354e-01,4.998648582207932956e-01,-3.577839015060896299e-02,-2.735686541832213839e-03,6.998018889928803339e-03,5.687068808105284930e-03,5.248606801033020020e-01
4.889264922553485659e-01,4.809516343848922459e-01,-3.128996292041891225e-02,-1.208276955432718283e-03,-2.386067367470882244e-03,3.480450006498169574e-04,5.162963867187500000e-01
4.973209940710857091e-01,4.880463364933591563e-01,2.342194489116095069e-02,4.366434334786025925e-03,8.244648222552688338e-03,1.120127126722381562e-03,4.696125686168670654e-01
4.872455200679950971e-01,4.833182217847643014e-01,-3.717973490290971128e-02,-2.849788166428350502e-03,-7.785339634155436124e-03,-9.843340729187870577e-03,5.229479670524597168e-01
5.003116759945196446e-01,4.754015596878927719e-01,-3.066439419427574586e-02,-1.601083921024040995e-04,-3.956873551104731802e-03,-1.022455611619775898e-03,5.190179347991943359e-01
4.853802657148327260e-01,4.908436287259339559e-01,-2.367175103285906745e-02,1.384773513861838230e-03,-6.126322749522160500e-03,-5.403581311505281821e-03,5.120067000389099121e-01
4.872760789919900470e-01,4.925315096593185782e-01,3.983580158240163094e-02,1.530507090471254798e-03,-3.101771157400439165e-03,-7.332845834393680179e-03,4.503100216388702393e-01
4.864712666736976110e-01,4.759330272922129290e-01,-4.055580378858864021e-02,-8.094869787663469367e-04,-2.957327806991918648e-03,-1.260852597768803663e-03,5.218693614006042480e-01
4.803670393367214797e-01,4.819439662908428512e-01,-4.119608212292652505e-02,4.634763676586064053e-04,-2.126403004796879274e-03,-2.570798833385411902e-03,5.223859548568725586e-01
4.892561032369190377e-01,4.818489802464595018e-01,-3.842261337182117931e-02,3.164586054892867860e-04,-1.406567288860705381e-03,-2.886288380246463531e-03,5.240442156791687012e-01
4.745352884594108978e-01,4.858988332762054774e-01,-3.998661375742568191e-02,-1.248296402681366201e-03,-1.773378937345500414e-03,-3.725778620802849567e-03,5.203503370285034180e-01
4.818447440705909690e-01,4.759774872593391382e-01,-3.934722932906636883e-02,-2.217781823587476695e-03,-5.743760016780617358e-03,-3.595496603806023952e-03,5.184303522109985352e-01
3.570332323258071927e-01,4.900248725827229812e-01,8.382133942899994139e-03,-2.385875356762000646e-02,-6.244288324713045263e-03,-5.325180815784692941e-03,4.330378770828247070e-01
4.823601665824879259e-01,4.921879960261681952e-01,-3.472902048588794033e-02,1.349657996586506011e-03,-3.432684029955064553e-03,-2.927973982481970727e-03,5.221362113952636719e-01
4.492166244904121641e-01,4.247382175298157758e-01,8.460973540259320025e-03,-3.617124141951413158e-02,-5.300387504131282880e-03,-4.251617683821022446e-03,4.337503015995025635e-01
4.625130567542157234e-01,4.494365020420525991e-01,-2.316468093788476290e-02,-2.258802151460066136e-03,-6.660090202379826893e-03,-1.924148445990914646e-03,4.794396162033081055e-01
4.120829588790215769e-01,4.557700250623769600e-01,9.674562893483007464e-03,-3.522652324556876241e-02,-2.192086350623586363e-03,-2.237823795683907980e-03,4.303176403045654297e-01
4.530921006382737648e-01,4.326023394540911005e-01,-3.311305587372359582e-04,-2.209342474311236110e-03,-3.295552261436404413e-03,-1.520492292371996646e-03,4.435945153236389160e-01
4.733742503834068582e-01,5.046380635677213400e-01,-3.153665359081159192e-02,2.981153281289267327e-03,-6.382598717941341537e-03,4.493407468816778736e-04,5.213898420333862305e-01
3.985260799228907969e-01,4.523639106586628822e-01,5.693651817982814389e-03,-1.571453443767812860e-02,-1.898105682873936625e-03,7.166007083068614766e-04,4.232236444950103760e-01
3.993498066194335894e-01,4.520690162522843503e-01,4.101651573082842894e-03,-1.902009448493489560e-02,-1.386940174722662688e-03,-4.930438137275907316e-03,4.254428148269653320e-01
4.330737264877315140e-01,3.691474189243775239e-01,5.474823835030340202e-03,-7.373646209300473153e-02,3.850286876752249000e-03,2.115189939327317276e-03,4.194778501987457275e-01
4.555637483573056201e-01,4.146898070358841504e-01,8.047108080482090475e-03,-3.825048104096209073e-02,-6.161935253436100560e-03,-8.703362878305575048e-03,4.340282380580902100e-01
4.614170620166797021e-01,4.055015077097523513e-01,6.051131108342489018e-03,-2.344632562593117892e-02,1.816323596851287039e-02,-2.640353387800535839e-03,4.332233369350433350e-01
7.261117774397943814e-01,7.277740877435896483e-01,7.773926737636466244e-02,4.199417010238042786e-02,4.740323397299817804e-02,1.386468227341102616e-02,6.588443517684936523e-01
4.224661199127103250e-01,4.249451602290880148e-01,4.514208663679408762e-03,-2.834404915777701678e-02,-3.118873659989945812e-03,-1.708292234450820230e-03,4.221068024635314941e-01
4.305086262817454656e-01,4.492184145041223653e-01,-3.448607093350652963e-03,-7.626275333990596532e-03,-5.607565428583301780e-03,-9.311718766754737905e-03,4.442039132118225098e-01
4.759813570598336319e-01,4.928532916474752112e-01,-3.963191270657545617e-02,9.890604947947907993e-04,-7.730890719490398494e-04,-1.428568160978991490e-03,5.242632627487182617e-01
4.875479509373329412e-01,4.871599541608736539e-01,-2.467377441096196833e-02,4.374843369837460032e-04,-1.604928848212031902e-03,-3.963922107377482705e-03,5.120819807052612305e-01
4.825892381020866484e-01,4.858620344233582911e-01,-3.837289397101240063e-02,9.992051791775388801e-04,-4.937946904948512308e-03,-4.744907758230682698e-03,5.227436423301696777e-01
4.969928132363538587e-01,4.979093704413954935e-01,-8.738164047340790663e-03,9.742558756284130927e-03,5.429093592711312609e-03,6.990690674296907298e-03,5.067030191421508789e-01
4.513912776835677376e-01,4.178449704555660116e-01,7.068972503870618596e-03,-1.239547535991707312e-02,4.500279625774546155e-03,1.615056753696263083e-03,4.291524291038513184e-01
4.044047059653180787e-01,4.502879385230881826e-01,3.677435835479081483e-03,-1.858207096301796660e-02,2.889227066132028961e-03,3.152446520955262590e-03,4.268079400062561035e-01
4.957772453672125712e-01,4.892004464901207883e-01,-2.279277204375046439e-02,2.432911614332193464e-03,-5.136287569289934652e-04,-4.600135869150824217e-03,5.153926610946655273e-01
4.003995243819428729e-01,4.541997940266435663e-01,3.808678331033266140e-03,-1.665411987791856965e-02,-1.368189290696579128e-03,-6.991010721557775962e-03,4.271999299526214600e-01
6.155307113988284229e-01,2.577502203519214663e-01,-7.197684483348176787e-03,-1.975967642522130641e-02,2.792546250458102525e-03,-1.033132636798082772e-03,5.423977971076965332e-01
4.748502309500661767e-01,4.871250588875569165e-01,-3.962536655197984592e-02,-1.360639246430914379e-03,-2.629491592022865486e-03,-4.315101475961482039e-03,5.208004117012023926e-01
4.747658214484817840e-01,4.910772638835289028e-01,-3.947766622845388929e-02,-3.746990638989389677e-04,-3.600321693391680088e-03,-6.366102830664268492e-03,5.227440595626831055e-01
4.780153334762620165e-01,4.827257512054074495e-01,-4.191052399916539439e-02,4.603450098107031511e-05,-1.044695139262327363e-03,-1.161081572167147434e-03,5.223039984703063965e-01
4.959689195536025053e-01,4.928907447526909014e-01,-3.042568378556970154e-02,-4.520491115442094106e-04,1.454362219183079948e-03,-1.707737948663756678e-03,5.248772501945495605e-01
4.696129710209051566e-01,4.861404098039130428e-01,-3.970009378096822639e-02,-1.761753949394484270e-03,-2.425440107349202071e-03,-4.265763600020402828e-03,5.178533792495727539e-01
4.744415557119723292e-01,4.880014036264490596e-01,-3.983959059883840359e-02,-5.959922782726576789e-04,-2.328132284058423169e-03,-4.635543551766306905e-03,5.212718248367309570e-01
4.866262352411952485e-01,5.293888634218287814e-01,5.095538385921671853e-02,-2.269415108846083162e-02,-1.574212895185321190e-02,-1.873206358505501851e-02,4.621789157390594482e-01
4.738246298010672097e-01,5.078337851696563821e-01,-3.368273892513795609e-02,3.826610321155316137e-03,-8.209723946323940367e-04,3.556396177276549640e-03,5.254180431365966797e-01
4.976500492827155009e-01,4.863940573366286602e-01,1.961566159350691674e-02,-1.425165676143220345e-03,5.650912624403432076e-04,5.930509063134917908e-03,4.726260602474212646e-01
4.782002207428166507e-01,4.965333516075217668e-01,-3.647891062018709940e-02,4.905726119102926100e-04,3.556922076581681765e-04,-1.159006207137040128e-03,5.240911245346069336e-01
4.754158406289675787e-01,4.975104490576197080e-01,-3.841515419949242949e-02,2.349357794281034875e-03,2.599339325192498136e-04,-1.975642660648176466e-03,5.252540707588195801e-01
4.969890399639078082e-01,4.956236209692750916e-01,3.778161565009563461e-02,6.129060567394448676e-03,1.271114185337787229e-02,1.428392957927887563e-02,4.598432481288909912e-01
4.983586746632152620e-01,4.943140926956968162e-01,-2.333150611531015217e-02,5.190523240949265586e-03,-4.746741106661391159e-03,-2.335342588497751198e-03,5.198382139205932617e-01
4.733271838005960186e-01,4.974690442548364011e-01,-2.719929584170271974e-02,5.346804436151096282e-03,-6.483268396946866366e-03,7.322692734409399183e-03,5.133867263793945312e-01
4.333479567529679999e-01,5.281257734609046128e-01,5.451640770326154906e-02,5.574586048117844556e-02,-5.765976649170004992e-02,4.226206984874045919e-02,4.615798890590667725e-01
4.902392027640574135e-01,4.907672132008117916e-01,1.207835387270322913e-02,-1.424332839780384713e-03,1.867840510697378435e-03,-1.018393878813779983e-02,4.787674248218536377e-01
4.896015940873812422e-01,4.900529664636257277e-01,7.267322564141448504e-02,2.800579730471398736e-03,3.426760291780512561e-03,-4.029035318448622761e-03,4.172830283641815186e-01
3.919164806695122349e-01,5.339066505265688267e-01,-1.088834426834156544e-02,3.413495135268462127e-02,-1.363419038294339837e-02,1.189999025010596116e-02,4.940499365329742432e-01
4.030544818324882095e-01,6.640322131356889424e-01,3.793839656508096736e-02,2.028889650463322133e-02,-7.526881974352159221e-02,5.141417385368873133e-02,5.682144165039062500e-01
4.826762995853877136e-01,5.089018373699812914e-01,-6.473488885141653881e-03,1.566303780709413576e-03,-1.732679701419897252e-04,2.509344317854190348e-02,5.046582818031311035e-01
5.006452989071709103e-01,7.261833056681851195e-01,4.987346171211481938e-02,1.305299817621008440e-01,-8.565947405244635215e-02,3.048844234794880620e-02,6.569964289665222168e-01
4.743246506004829000e-01,4.776769484379871922e-01,-2.007145909553248453e-02,1.946754384477875424e-02,-9.282660452572710080e-03,5.238714089773962787e-03,4.975679814815521240e-01
4.516486344374268658e-01,4.817604976850202170e-01,-9.985975370163213682e-03,3.438331576490439353e-03,-1.156885255703442002e-03,9.761270661906433152e-03,4.777439236640930176e-01
4.876690268157895525e-01,4.971119333868015966e-01,4.187102537136444536e-03,2.961853460428578045e-03,-1.420497738814685204e-02,-6.058102135686045621e-04,4.889194071292877197e-01
4.890619686946142686e-01,4.926836258155306014e-01,-2.335132945305140595e-02,4.278385343900754229e-03,-5.299738276541825048e-03,-4.973270640729087963e-03,5.144411325454711914e-01
4.889198447565751282e-01,4.939637991292283870e-01,-1.154759163866742044e-02,3.557464300666455040e-03,-7.378251713458310393e-03,-3.961433859073221729e-03,5.032551884651184082e-01
5.107331463229733970e-01,4.422483609205461463e-01,-3.194162206728157205e-02,-1.863100198827760809e-03,-3.556304370338131187e-04,-9.084311747751320359e-03,5.121322870254516602e-01
3.531492308457394591e-01,5.039018715126722947e-01,-9.405169500252774650e-03,-6.748365547590989832e-02,-4.442279491073974212e-02,-2.091702228183768206e-02,4.792942106723785400e-01
2.954025613802189754e-01,5.672886394705836111e-01,-1.807895787680924293e-03,-3.843016362226986393e-02,-1.075816770847741292e-02,-2.860512093423011465e-04,4.978368878364562988e-01
4.981663453126801144e-01,4.588349933494613175e-01,-2.698964071940546106e-02,2.857696382393744988e-03,6.691647436538690832e-03,-3.883616923990291288e-03,5.068379640579223633e-01
4.942780271355573518e-01,4.862691577092861372e-01,-1.959633613031125376e-02,-1.152691272270880063e-03,2.219618342481104699e-03,4.976646204184058701e-04,5.099362134933471680e-01
4.501311692622115279e-01,5.100878351117502651e-01,-2.999633732512829720e-02,-1.570993734636620762e-04,7.231954099796429169e-05,2.038592798049158536e-03,5.127539634704589844e-01
4.897904658817506807e-01,4.929258733360973865e-01,-3.188403288914254397e-02,-2.227445228842792849e-04,-1.623924163241094584e-03,-5.964847525608876202e-04,5.232579708099365234e-01
4.396792617593596741e-01,4.850748300218583609e-01,-1.829709831646608720e-02,1.778513155022190539e-02,-8.080474403075818199e-03,1.174502009243667128e-02,4.838924109935760498e-01
3.177702683139397299e-01,5.441878438555184383e-01,-4.975008032845340544e-04,-9.218740357618031983e-03,2.538444464335463686e-03,3.168730402310205359e-03,4.742627143859863281e-01
2.999298003407641633e-01,5.573730743480889149e-01,-6.705124150272134820e-03,-4.657077053940394951e-02,-2.536975493137779911e-02,-1.000077323424574012e-02,4.979764521121978760e-01
4.782651320859647726e-01,4.923749933156944536e-01,-3.867746564492380301e-02,3.266970019921176588e-04,-1.433926029479225782e-03,-2.520725334248125841e-03,5.241643786430358887e-01
3.171734203053125922e-01,5.337968491758063871e-01,-5.133692239679243929e-03,-2.280841414485263244e-02,-2.214609518605501967e-02,-8.128217889119928805e-03,4.731353819370269775e-01
5.102504268318261982e-01,5.069474231579547130e-01,-1.957078217169216927e-02,5.302902110931196483e-02,-2.244672082973641486e-02,2.010400415266007726e-02,5.386387705802917480e-01
4.793173835951410888e-01,4.906785663141072229e-01,-3.170330402772736367e-02,8.208175990220130348e-04,-2.633182081133734684e-03,2.993627370732509368e-03,5.168430209159851074e-01
4.832464041569014546e-01,4.954518771480265205e-01,-3.279679143193980906e-02,5.877017961316264878e-04,-3.750855379577838766e-03,-3.008772791497178940e-04,5.222945809364318848e-01
4.833840860576132936e-01,4.910635860232001604e-01,-3.473254371690881470e-02,1.297545549125350218e-03,-3.441852248964131882e-03,-2.917942450745988903e-03,5.220620632171630859e-01
4.831818936626850469e-01,4.960128607765936781e-01,-2.881753149249055568e-02,8.732072738234921772e-04,-4.041507390694976977e-03,-2.241288848765297763e-03,5.185979604721069336e-01
4.590296931022086468e-01,4.973919989888291870e-01,-2.700673901275513211e-02,2.372549259700661856e-03,-6.963436602374437588e-03,9.267402686303213150e-03,5.067233443260192871e-01
4.978516475623528947e-01,4.729153005827565481e-01,-3.115024227248147648e-02,2.509682220382249373e-05,4.023290471736795139e-03,5.974816102204475983e-04,5.170329809188842773e-01
4.587927055648191588e-01,5.066615748635687755e-01,-2.854976474952936050e-02,8.753544954955103097e-03,-9.905802094151020323e-03,5.037789680469006645e-03,5.135397315025329590e-01
4.838829090253021770e-01,4.971035450101661812e-01,-2.729296458424035343e-02,4.670467213135517243e-03,-8.432952611930548403e-03,7.262814633715800570e-03,5.183345079421997070e-01
4.889702066375581913e-01,4.957462452821672083e-01,-3.856636292053938764e-02,6.061205029252672181e-04,4.558726966398980729e-04,2.529267406941526890e-03,5.309767127037048340e-01
3.825758407522697468e-01,4.757189500096327128e-01,1.288691518240664413e-02,-1.563225607433492426e-02,-1.089882310307000064e-03,3.717717878617908187e-03,4.249207675457000732e-01
4.822343462812959114e-01,4.963071236089345861e-01,-3.344131141740391833e-02,-9.712260472876536660e-04,3.600135643544330965e-04,1.637351049475068571e-03,5.228648781776428223e-01
4.842630574775288466e-01,4.944261520172844038e-01,-3.217334669039195738e-02,-7.242724590779709305e-04,-6.314703277295868195e-04,1.621617694816879923e-03,5.216024518013000488e-01
4.860347190354920022e-01,4.938860879337333420e-01,-3.210147018107989414e-02,-7.512607383916117027e-05,-9.158761789735303700e-04,1.701175369477512470e-03,5.221168994903564453e-01
4.913977185585318708e-01,5.314983605043572812e-01,4.076107459719419124e-02,2.682137624788818661e-02,-1.149617744120447552e-02,-9.202696198218635742e-03,4.749326109886169434e-01
4.906781873320714693e-01,4.964894975292332147e-01,4.030308444703356585e-02,7.679159116410008874e-03,-6.537308165110046650e-03,-1.176807205741160593e-02,4.541028141975402832e-01
5.036659749364749139e-01,4.964241963198404162e-01,7.289890647186436645e-02,3.199845232260027650e-02,-3.411827159493457245e-02,2.738849443930282956e-02,4.373870790004730225e-01
5.574397767739613929e-01,4.326599975297594769e-01,1.533320144332200874e-02,9.952365571533344779e-02,9.360032801419606793e-03,4.692620442282521148e-02,5.276262760162353516e-01
5.398747700131556471e-01,4.879352438568622108e-01,1.453414016346998849e-02,3.540309353233220963e-02,1.899012727877220225e-02,4.741899982123318202e-02,5.128179192543029785e-01
4.867881167012660937e-01,4.838600012980925347e-01,-4.292313937121139400e-02,-5.161692252592616940e-05,2.360648378065583093e-03,7.678201379619214052e-04,5.282707810401916504e-01
4.923827399456887632e-01,4.822406267655867662e-01,7.231056392989693160e-02,2.832633458416905330e-04,3.810119586058281597e-03,-5.102366050071033797e-03,4.152408540248870850e-01
4.988140827686380341e-01,4.929668407234293337e-01,9.019878060450459145e-03,-2.534102432572996402e-03,-1.121092643891261726e-04,-8.613165570286743927e-03,4.871452152729034424e-01
5.036376726642188828e-01,4.811998726496677370e-01,-1.464986337798918070e-02,1.510480162787165501e-02,3.105668361837205828e-03,-1.227502388453312852e-02,5.085878968238830566e-01
5.290995107306125655e-01,5.070507794111912547e-01,1.644746419170373120e-02,5.975159503731414246e-02,-1.343801532985833790e-02,-2.836834350736230307e-03,5.130999684333801270e-01
4.829135599688388902e-01,5.146504297473484257e-01,-2.937031821004282284e-02,1.390929244759379554e-02,5.187535280453068817e-03,-9.559056094242563209e-03,5.297504663467407227e-01
5.145020567939906364e-01,4.734165716052771700e-01,-3.567645086866561011e-02,-2.845043765627011667e-03,7.065202706137172634e-03,-1.461381473677096123e-03,5.309995412826538086e-01
4.972568492130038931e-01,4.928454105745727065e-01,2.023573514770060644e-02,1.280937100586936354e-03,6.311777264099974714e-03,-1.393749811063997547e-03,4.749679267406463623e-01
4.493533857336784454e-01,4.841372093119281628e-01,-1.865619351093933398e-02,1.940140972390709193e-02,-3.052103177612159376e-03,1.079239950379873476e-02,4.878818094730377197e-01
4.640807965967169157e-01,4.673072235975599953e-01,-1.435319730793954696e-02,7.261585087525487380e-04,-3.706699948315066162e-03,3.179047303624114949e-03,4.801314771175384521e-01
4.471110171037507852e-01,4.592807732395627340e-01,-7.867784908249131348e-03,1.970403854641573221e-02,-5.751119721086176730e-03,8.459393071088356503e-03,4.627844691276550293e-01
4.589452512114286509e-01,4.587751027520109437e-01,-9.509227124970709433e-03,6.042064777742505582e-03,-4.269401070630678315e-03,8.363909119814958619e-04,4.685469269752502441e-01
4.751177993737855654e-01,4.400157900686658685e-01,-9.802432799420723875e-03,1.209533715966269046e-02,-6.000627430485156767e-03,-9.403685538425712441e-05,4.689403474330902100e-01
4.859919605825228084e-01,4.829422661801733296e-01,1.110299314545674376e-01,5.568174536257659976e-04,8.985672539026160182e-04,-3.428915343337753021e-03,3.734982311725616455e-01
4.948008819658005208e-01,4.946783726331506204e-01,3.468228900938374881e-02,1.427046501514416844e-02,-2.866237510682811268e-02,9.239888547695647436e-03,4.636641442775726318e-01
7.575645124842849132e-01,4.929487169650034750e-01,5.671023686786819118e-02,9.233215737776773180e-02,5.520661808384186298e-02,1.523128971825175870e-01,6.928764581680297852e-01
4.915336647490110566e-01,4.924815160483132503e-01,4.011865768761646578e-02,3.667233611693233170e-03,-2.269033214619501151e-03,-7.330693457987206424e-03,4.521297216415405273e-01
4.642412666612019123e-01,4.734514508788751908e-01,-2.573718888478421229e-02,-1.625476437415763380e-03,3.637182282153146422e-03,7.184078461184960872e-03,4.948524534702301025e-01
4.663123600980411676e-01,4.661303220687602611e-01,-2.576289532483144740e-02,-3.719823314053119696e-04,5.257633491183361617e-03,3.636608438724475093e-03,4.921092689037322998e-01
4.578172025491249464e-01,4.442421891981094828e-01,-1.227456642081903304e-02,-5.579990540608569145e-03,1.075580038205907300e-02,6.156252898633365715e-03,4.640508890151977539e-01
4.522358575040844597e-01,4.491894635206021835e-01,-1.006573892699741402e-02,-1.138934590659569949e-03,6.166457260033071652e-03,4.171763274318323472e-03,4.609705805778503418e-01
4.665267268083465035e-01,4.546570652301873405e-01,-1.933657122875581669e-02,-5.603368235140479200e-03,3.614719726201388698e-04,1.363479622962405526e-03,4.801428616046905518e-01
5.093081226559412755e-01,4.002706176502545676e-01,-2.197042945754718035e-02,-2.010425523532799810e-02,-8.173889786675037766e-03,-1.312306040450864596e-02,4.880024790763854980e-01
4.861066632949294641e-01,4.978133175213023121e-01,2.981963319594865824e-02,1.081644748417967587e-04,1.180862686256280939e-03,5.077936689539039490e-03,4.623397886753082275e-01
4.857356736459937929e-01,4.887792393645085109e-01,9.377504728833174763e-02,1.849276771269983601e-03,8.943360685495655707e-04,1.952970755240024002e-03,3.935218751430511475e-01
4.907087676464533810e-01,4.907253644098902301e-01,-1.163226805242290052e-02,2.802797891810098960e-03,-7.052316116351497327e-03,-4.571500397608769736e-03,5.025836229324340820e-01
5.002265031411075036e-01,4.780466080572900456e-01,-3.051348303934664496e-02,2.549479432696324845e-03,-3.432987375749987306e-03,-7.624765926294081080e-04,5.200593471527099609e-01
4.763707784798800748e-01,4.962394112819344949e-01,-3.163961756524702462e-02,-3.372012837953131223e-04,-1.968413344088890430e-04,-1.696465393244053071e-03,5.182392001152038574e-01
5.398034561951143839e-01,3.359170652420593872e-01,-1.042883790405058075e-02,-8.510978302637490361e-03,-8.312979774703022073e-03,-2.148046492617928030e-02,4.836829602718353271e-01
5.065924805498072114e-01,3.965213856489030464e-01,-2.291709347331488678e-02,-5.060413975680898638e-03,-6.678816420057659409e-03,-1.718210191244387564e-02,4.850862324237823486e-01
4.973721979717851127e-01,4.596825683906460847e-01,-2.836514799981748602e-02,7.471919408711519967e-03,-8.742404920403462273e-03,5.062837341433415114e-03,5.084083676338195801e-01
5.072137539732163303e-01,3.527622284696729782e-01,-9.461217319145454052e-03,-4.467706386391744056e-02,-1.423340258111492965e-02,-1.616186424690554610e-02,4.673184752464294434e-01
4.796174416139559193e-01,4.201153973226851579e-01,-8.791755901482012359e-03,-6.687126604552559757e-03,-1.110433645179892577e-02,-2.110170590057506516e-03,4.621040225028991699e-01
4.290351282719379045e-01,4.762656766596262692e-01,-4.715297875660440230e-03,3.526424981233334394e-02,-1.468427715066984891e-02,1.041612162074156966e-02,4.642838537693023682e-01
4.591583625667068347e-01,4.966528037771028581e-01,-2.302619315851600623e-02,1.419443001439723608e-02,2.027565644517478199e-02,-1.227780276719216135e-02,5.042588710784912109e-01
4.922152665581104314e-01,4.842697177542069076e-01,-2.841272382698906140e-02,8.128725885309735083e-03,2.694962358798422795e-03,-1.158394913641145685e-03,5.169177651405334473e-01
4.794367427658446923e-01,4.962359880522816402e-01,-3.584048035491127493e-02,3.208059297079880338e-05,-1.208468951802490424e-03,-1.396226210072481957e-03,5.238886475563049316e-01
4.649703753194131539e-01,4.953984677899854194e-01,-2.683657515779064306e-02,6.292501603858371116e-03,8.713613526561910655e-03,-5.706306966588118104e-03,5.081426501274108887e-01
5.337464010500380107e-01,4.893399136262763238e-01,7.844815962100387674e-02,3.545821879772702821e-03,-1.294456434997803135e-02,-4.091069209554436259e-02,4.411481320858001709e-01
4.561406828862619722e-01,4.955809877247050466e-01,-2.175307673192561353e-02,5.829389072947423200e-03,-7.070686333701292799e-04,-5.216436626193481259e-03,4.989702701568603516e-01
4.170057490466414496e-01,4.968558537553952603e-01,-2.108035112936412769e-02,1.100383530917879889e-02,1.949178646670201784e-02,-1.093006286954526646e-02,4.849104285240173340e-01
4.842947887062462042e-01,4.984572635641240090e-01,-3.424782545968985126e-02,1.658601177770913657e-03,-2.142381604237333405e-03,2.828331317697035138e-04,5.257881283760070801e-01
4.727880043708992952e-01,4.739811617612089134e-01,-1.781992302467166889e-02,1.569745925146719123e-02,7.695094835360297841e-03,-6.439872645253408127e-03,4.922643899917602539e-01
4.809711008202977034e-01,4.738163936325369141e-01,-2.796469700293641170e-02,7.675315318218310472e-03,-8.531151766080869586e-03,7.586268163394669500e-03,5.059577822685241699e-01
4.542572809889737773e-01,4.755984915420402581e-01,-1.248641838935665715e-02,1.784987101392417064e-02,1.277089488960726077e-02,-2.204142426609767124e-03,4.792971014976501465e-01
4.863929502826752627e-01,4.942384764712740575e-01,-2.873046268042322993e-02,1.629731005250394235e-03,-4.192554800157958367e-03,-2.159458059074630988e-03,5.191625952720642090e-01
4.759646925729892342e-01,4.966616774124898437e-01,-3.549355447318514045e-02,-2.655219609300582431e-04,-5.000431298738049982e-04,-3.162199883806274129e-04,5.221157073974609375e-01
4.732642366976362869e-01,4.821548154880034298e-01,-3.899319576942300580e-02,-2.062851327448969076e-03,-4.005180920993518107e-03,-5.919170004843672846e-03,5.169206857681274414e-01
5.125215694621266804e-01,4.944251889362891728e-01,-3.031114495624237515e-02,6.662822589537599829e-03,2.007935616741428342e-02,2.518230921121960772e-02,5.370444059371948242e-01
4.822834819754506785e-01,4.537679731887540591e-01,-1.197320279552410716e-02,5.000983888578278136e-02,5.562730136925798236e-02,-4.660799663364534329e-02,5.042934417724609375e-01
4.868247417314181535e-01,4.822348800405875657e-01,-4.233216131756828426e-02,9.234477779026613233e-04,3.263843666083372265e-03,3.073675990628154265e-04,5.269100069999694824e-01
4.782113267895061748e-01,4.675853510367902199e-01,-1.782730447616098779e-02,4.515377827263820920e-03,6.467435796919878722e-03,-6.770269234319515814e-03,4.911420345306396484e-01
4.698207088222686734e-01,4.650661035580665459e-01,-1.484323178543145438e-02,1.741246770306151444e-03,3.070997867638837735e-03,-4.248618556571516318e-03,4.823991060256958008e-01
4.469040627667813514e-01,4.873455947231827845e-01,-2.045416486653212074e-02,-2.483787121505137436e-03,2.351855059154276881e-03,1.255743654635605756e-02,4.893547594547271729e-01
4.809279007623823432e-01,4.673543819797639221e-01,-2.089130888006496267e-02,1.948204388774228560e-04,5.269375983806816148e-03,-9.289958333555148632e-04,4.952588379383087158e-01
4.845957995345356872e-01,4.952897696822783358e-01,-2.895783596220902201e-02,6.073031350601883031e-04,1.345772745551381119e-03,2.424926183275394418e-03,5.190065503120422363e-01
4.627061443992173673e-01,4.282473527726500806e-01,-2.265027893024129657e-03,-4.018322556588590708e-03,1.116856128931422061e-02,1.206627791059705634e-03,4.492107331752777100e-01
4.201505939461540606e-01,4.200441050781701380e-01,-1.413586241411189937e-01,-2.816181385792274616e-01,7.017555399772616026e-03,1.753143853167853441e-02,7.444655299186706543e-01
4.734362059372799747e-01,4.980784717552679264e-01,-3.120736773025994948e-02,1.520412442656284306e-03,-1.006686320818932960e-03,2.775228703865779273e-03,5.174369812011718750e-01
4.752738704589994923e-01,4.474239468479214166e-01,-2.123636106802623269e-02,-2.651729366143267203e-04,1.415584615414054726e-02,1.220177219832702629e-03,4.838141202926635742e-01
4.266663433486966861e-01,4.385950971375676133e-01,1.469448578836018982e-03,-9.842462907139783168e-03,-1.337349763039031745e-03,-3.571262801735996563e-03,4.316723346710205078e-01
4.544120876023642897e-01,4.284791349426180784e-01,-4.310170292980253226e-03,-6.162426287069488334e-03,6.377359001955589315e-03,8.185476270581882327e-04,4.465876817703247070e-01
4.702031284858728677e-01,5.141043284174807715e-01,-3.240911561120768392e-02,5.158711172287356109e-03,-5.511182341544150487e-03,2.516640741986748628e-03,5.261194109916687012e-01
4.908077955904049383e-01,4.881951385800136767e-01,6.411790997936134273e-02,7.234159891785426309e-03,-6.136512319662520629e-03,-6.193025887434853473e-03,4.258418977260589600e-01
4.516185196337338947e-01,5.066286229574741284e-01,-3.073708650662315689e-02,1.149569851602704612e-03,-6.780778019161461806e-03,4.307716248357361215e-03,5.122743844985961914e-01
4.996248955610808618e-01,4.952219593407307663e-01,-5.405216988265071354e-03,4.668900154597440885e-03,1.030846279279213837e-02,3.562610222728205579e-03,5.032628178596496582e-01
4.600259603824927712e-01,4.990557796828105075e-01,-2.946877973035738618e-02,8.880658787818771632e-03,-1.156622768944396557e-02,4.929439697684260061e-03,5.108269453048706055e-01
4.865470093079037883e-01,4.867199400453979807e-01,1.057609023309877272e-01,5.485639539777317081e-03,-4.596430767423951083e-03,1.750067769444403273e-03,3.810863196849822998e-01
7.083121071327944662e-01,5.472672748459121994e-01,6.557231963901122285e-02,5.800996691441297898e-02,-8.927897119154894895e-03,4.860313896025205554e-02,5.941054821014404297e-01
4.729780765867851455e-01,4.735390875808257460e-01,-3.279997509428772551e-02,-3.120087055887727293e-03,9.131409908293339900e-03,7.995751144090061657e-03,5.065240859985351562e-01
5.009200011865251323e-01,4.977997926446555699e-01,-2.006691348242994888e-03,1.094554751582164746e-02,-1.330248536505954917e-03,6.393612757880124016e-03,5.018596649169921875e-01
4.995655176780421924e-01,4.910284778750527712e-01,2.375787590891859091e-02,7.036457809623068542e-03,8.607043525863528055e-03,1.606126571971983052e-03,4.719982147216796875e-01
4.630758782353500136e-01,4.735637489666109645e-01,-2.580385587850353435e-02,-4.533631573349357347e-03,7.638056604587016574e-03,7.127998931783691844e-03,4.946006536483764648e-01
4.765825877338284444e-01,4.730718635320865229e-01,-3.886044104759123208e-02,-3.640964713174077091e-03,2.745674775990889199e-03,4.664478715872779138e-03,5.138208866119384766e-01
4.817976224540253538e-01,4.728587482306543244e-01,-3.860348348895797921e-02,-1.518379031935249406e-03,4.509142348007286021e-03,4.636713197909656317e-03,5.161180496215820312e-01
4.897779602689706913e-01,4.857944641585644208e-01,8.482036775967960462e-02,5.685957871760073147e-03,4.017720991154116912e-03,1.166024909370916773e-03,4.031660556793212891e-01
4.702528751060097711e-01,4.734240618380781140e-01,-3.498681700857808607e-02,-1.961533394013181136e-03,1.213815485527639610e-03,6.695898840799577138e-03,5.069811344146728516e-01
4.615091486128538589e-01,4.760893049036579727e-01,-3.119508927721614810e-02,-6.559591241967615031e-04,5.628795694457707291e-03,1.025953957937891098e-02,5.005655288696289062e-01
4.818239423349721662e-01,4.950672351629294976e-01,-2.788190238865789761e-02,3.189759374130139540e-03,3.149304222981146473e-03,-7.500504055660832566e-03,5.166765451431274414e-01
5.050770135482376411e-01,4.919930649943387024e-01,-4.486720946968725254e-03,1.137774762527350020e-02,-5.814921235365850096e-04,-9.267503089169550068e-03,5.037919282913208008e-01
4.522213283079569157e-01,5.619361943630657441e-01,-5.101123866806311913e-02,3.025990808584503103e-02,3.985688071700099755e-02,-3.533528171654335900e-03,5.727500319480895996e-01
4.895149481468924479e-01,4.965688724178705105e-01,-2.570704639502552347e-02,-1.842932419248850297e-03,-2.384441948401511569e-03,1.532964783417412914e-03,5.188179612159729004e-01
4.101928405674158951e-01,5.456885088380033499e-01,2.554499024760026327e-02,8.670157869022974972e-02,7.112731349917437995e-02,1.841893863279226579e-02,5.071269273757934570e-01
4.905190809236031901e-01,4.966020798271617021e-01,2.188021723824762343e-03,2.776703722884169348e-03,-9.440299438429564441e-03,-2.014063447139453466e-03,4.917086660861968994e-01
5.921908019374593213e-01,3.871858641535681489e-01,3.340000038356827350e-03,8.293939494341009966e-02,-2.318518518950216101e-02,7.044483401931676825e-02,5.524417161941528320e-01
3.943419398428836820e-01,5.259226847117928205e-01,-2.667214436164344615e-02,-3.327554948244954274e-03,-1.515201459353120693e-02,-3.014841558907700486e-04,5.006854534149169922e-01
4.971568620723759713e-01,4.264597377924810861e-01,1.959842385260374131e-02,1.223147930343550377e-01,3.010938394149199546e-02,-3.763862147635781835e-02,5.011492371559143066e-01
6.064709904614588032e-01,5.493888244441408331e-01,7.212888001249390113e-02,4.142211747783795112e-02,8.748665320404429291e-02,-8.275247036722500893e-02,5.540139675140380859e-01
5.115142117920413734e-01,4.988135084063855529e-01,7.576695783684228580e-02,5.978828695197865861e-02,-1.344253888753437799e-02,-3.183664309746437465e-02,4.458805024623870850e-01
5.406611316090207398e-01,4.679315942322734845e-01,-6.201474723152078372e-03,1.790985646635187278e-01,7.829599985746291124e-02,-5.378181145806219636e-03,6.158584952354431152e-01
4.793483953574494416e-01,4.990419564525487295e-01,-3.450241406596443738e-02,-6.429403028421658891e-04,-7.471272803136046756e-04,1.558335150601132904e-04,5.239780545234680176e-01
3.880509504118630493e-01,5.372792750885965196e-01,-1.336295015603694569e-02,2.931621066568029007e-03,1.086018972097509269e-03,6.324768585605716840e-04,4.932900369167327881e-01
3.865792349055812704e-01,6.121300532372087044e-01,2.503935096198395271e-03,1.108160538728921174e-01,9.545050518959675989e-02,-3.257253967692121110e-02,5.936087965965270996e-01
4.953957240278626939e-01,4.838826196184942141e-01,-2.874084371813340200e-02,-9.750334322070317885e-05,1.023984998662097381e-03,2.693998324582692287e-04,5.184791684150695801e-01
4.957695190583278344e-01,4.822758498953629291e-01,-1.016924724376561118e-02,-3.042196914287652039e-04,1.623795234705113343e-03,2.429097504507429176e-03,4.993546307086944580e-01
4.955654487750654758e-01,4.765571712981305774e-01,-3.830548176596099141e-02,5.107461863038199922e-04,-4.469755431909827083e-03,-4.154535940354233715e-03,5.247323513031005859e-01
4.919447494831274414e-01,4.760913620259576984e-01,-3.786902614656284527e-02,-1.136105408869259514e-03,-5.012375644421764552e-03,-4.080783850268739250e-03,5.221913456916809082e-01
4.932652440354474699e-01,4.768414967738975885e-01,-3.870363348208527565e-02,3.568478307590680176e-04,-2.652414226929008644e-03,-1.217854690532375840e-03,5.239748358726501465e-01
4.875838452527122557e-01,4.969961831710618672e-01,-2.850316564794747043e-02,1.846601779688921948e-03,-3.272536142251292711e-03,-2.260088838614404856e-03,5.209123492240905762e-01
4.965820431234264087e-01,4.755276197481735356e-01,-3.848977194495772913e-02,2.079273505990942260e-03,-1.622626757124281298e-03,4.150054518653062147e-04,5.248817801475524902e-01
5.005180293836810623e-01,4.932750025125153259e-01,4.075100468812026255e-02,9.400204557007499698e-03,-8.687264483850098973e-03,-1.492362035117014533e-02,4.574578702449798584e-01
4.449918708150418234e-01,5.083607818027150449e-01,-2.750184012707157510e-02,2.248645084175457216e-05,-1.346449615027072930e-02,5.536037333032263821e-03,5.077825784683227539e-01
4.847221016609941091e-01,4.912086815752407798e-01,-3.407804450521612072e-02,-1.573771795932607488e-04,-6.329414931907505378e-04,2.819755436400637485e-04,5.220751166343688965e-01
5.563789758959909459e-01,2.927186207546393915e-01,8.080953169798177349e-03,-1.185326891697521291e-02,5.836595023181831432e-03,-3.023691959003876103e-03,4.755356609821319580e-01
4.874047577168374445e-01,4.782489128085317676e-01,-4.007913439349991558e-02,-9.317159812874460005e-04,5.954987985822320605e-03,2.491624546802846066e-03,5.230880975723266602e-01
5.521054528962776597e-01,2.460610422463332392e-01,3.748197545836606803e-03,-9.634748722401048626e-02,3.928235124656255343e-03,-2.761128316482874909e-03,5.044351816177368164e-01
5.234217743264566458e-01,3.146005701336533344e-01,2.700086282802882653e-03,-5.892605503756218055e-02,-2.888125077460100901e-02,-3.111428577995767331e-02,4.710022807121276855e-01
5.949205980742646727e-01,2.536036361572588937e-01,-1.352298913884825149e-02,-2.806707226748223274e-02,1.395041451927635581e-02,1.099341930279762458e-02,5.313552618026733398e-01
5.450376440926005817e-01,3.161242087790975264e-01,4.551288461194236135e-04,-8.271296416407442412e-03,1.193539190446047359e-02,1.604045965748039995e-02,4.750933647155761719e-01
5.275400886337727746e-01,3.149786053765652460e-01,8.711426813022726812e-03,-1.790548887799292554e-02,3.555393252155481399e-03,-3.433507685230091123e-03,4.528991878032684326e-01
4.449173580424307106e-01,4.896654032277021895e-01,-3.416564258459486858e-02,-8.567320758357881497e-03,-7.447281897498245901e-03,-1.173728316893646491e-02,5.037467479705810547e-01
5.570615421559987901e-01,3.095768825258671253e-01,4.139092798325971767e-03,-7.931886644481155046e-02,1.539577299697750083e-02,-4.899705733667510284e-03,4.997895956039428711e-01
5.349374131960231704e-01,3.282442468242217082e-01,9.535537013846684395e-04,-1.986443149851417622e-02,1.189734619291517130e-02,1.570228582507236098e-02,4.688689708709716797e-01
2.486854261695573831e-01,4.859527702680656591e-01,-1.478045334778602671e-01,-1.896106746422530076e-01,-1.389534611801565046e-02,9.391867184526907220e-02,6.651858687400817871e-01
3.719707584980709858e-01,5.059968992807541976e-01,-2.795534227200824340e-02,-1.474172615530984221e-01,-2.938608468918609690e-02,-1.780938625984566231e-02,5.479435324668884277e-01
2.848653003590365662e-01,5.829687057717050092e-01,-2.876111037590273201e-02,-1.017925284013622977e-01,-8.281284691784594754e-03,3.617388092086221054e-03,5.586147308349609375e-01
2.888326846855472363e-01,5.453413607701347310e-01,-7.150197319654993944e-03,-1.063417159978454068e-01,-5.561099497769357537e-04,1.029020967468588597e-03,5.130833387374877930e-01
4.996502864033491864e-01,4.941517142998301804e-01,-7.517822849306854405e-03,1.112136237710812867e-02,5.434207723485272486e-03,5.112151053093459858e-03,5.049743056297302246e-01
4.902493186447849371e-01,4.961025237869582938e-01,-3.225267402379916604e-02,2.799385574278626110e-03,1.140436477980835174e-02,8.549723962725873372e-03,5.260550379753112793e-01
4.479104052166115735e-01,4.676197566090705138e-01,-1.118308308959353736e-02,-4.970250464406765489e-02,3.236635698917324222e-02,3.575897894945380406e-02,4.843486249446868896e-01
4.969233185071313952e-01,4.953080354148698961e-01,-2.869420013963136507e-02,7.444226018474493604e-03,2.707330552600762438e-03,3.426860131601438403e-03,5.250245928764343262e-01
3.334596202741109128e-01,4.767193131041882470e-01,-2.056512683627714777e-02,-1.104508434991601229e-01,2.514705129694758470e-02,2.115106247040858187e-02,4.862218797206878662e-01
4.948822676400410070e-01,4.951354935447274674e-01,-7.743743878226738708e-03,9.164643977275364894e-03,6.273657292224573724e-03,4.957723386315152428e-03,5.031938552856445312e-01
4.130830549534991181e-01,5.130502177164085742e-01,-2.096138199378316802e-02,-2.040708559180140144e-03,3.672486705139622887e-02,5.977098831078852571e-03,4.959274232387542725e-01
4.021588609699232597e-01,5.220892519196757009e-01,-1.349771305388192122e-02,-3.039636836901737655e-03,1.216764610351187166e-02,6.326320488407298839e-03,4.874376654624938965e-01
4.917846215937355936e-01,4.968139968845038945e-01,-2.605694232501087892e-02,2.230015227827128379e-03,-1.728083773458380726e-03,-6.824801663688608109e-04,5.203987360000610352e-01
4.823260368058380210e-01,4.933053215360122534e-01,9.618577875722955639e-03,-3.602029164235301655e-04,3.309094693586599450e-03,-5.727405869076475364e-03,4.784292280673980713e-01
5.279432915925845737e-01,4.146766486663019946e-01,-2.536208669957640272e-02,-4.224120439294330558e-03,1.145672802814780636e-02,-4.427188580231953934e-03,5.067654848098754883e-01
4.911238984864903512e-01,4.942142640696133293e-01,-3.024888305718398396e-02,2.645437031930602742e-03,-1.874375097270420841e-03,-1.823192681546224143e-03,5.229644775390625000e-01
4.768001611912238147e-01,5.063972536172902661e-01,-3.513696690112450005e-02,4.790701313409889694e-03,4.977792897848834323e-03,8.385937288799823891e-03,5.276946425437927246e-01
5.248596671122187640e-01,4.304642583592203642e-01,-7.507728694837678685e-03,2.920017317146315905e-02,-7.408896465117690774e-03,4.817205920026097765e-02,5.017536878585815430e-01
4.855979607641595086e-01,5.034889521931870116e-01,-3.234894964000034623e-02,-5.991671179048657257e-04,4.874261176406904233e-03,1.424669768383647857e-05,5.271887779235839844e-01
5.065900495066717468e-01,4.810708190563725006e-01,-3.890574065156987560e-02,7.485881398360297659e-03,2.513946126934752182e-03,6.125932187912772747e-03,5.334753394126892090e-01
5.110671899240293303e-01,4.043430685683598313e-01,-1.842968557375473937e-02,-2.816493666094311860e-03,1.780579542659081055e-02,1.279790201274402621e-02,4.865317940711975098e-01
4.980376829315553144e-01,4.940263121431566207e-01,-2.454425940700427633e-02,2.087599802489005681e-03,-1.726222077723753127e-03,-3.384740045661875554e-03,5.206419825553894043e-01
5.073873319261869019e-01,4.412791003686815650e-01,-3.201466028550442600e-02,1.514597987565635944e-03,1.224704455091115037e-03,1.413177253478407197e-02,5.101729035377502441e-01
3.248792431641939760e-01,5.396866859032385388e-01,-2.112838476626055506e-02,4.344521706782440706e-02,-3.304381159661027439e-02,9.624596522815973693e-03,4.994042217731475830e-01
4.982478539203356593e-01,4.909695113442553716e-01,-3.518198714486930889e-02,2.084112071446091174e-03,2.149438609487471278e-04,-1.430746627955708150e-03,5.298463702201843262e-01
4.970065369078782713e-01,4.958357608440535635e-01,-8.861751467857115205e-03,8.675780527014386248e-03,5.431871804607737650e-03,7.071928100913066860e-03,5.057432055473327637e-01
5.133413743508586924e-01,4.386030720107169656e-01,-2.968637069667923178e-02,-1.371429362374941162e-04,4.616021675268707804e-03,1.310713084767294902e-02,5.103521943092346191e-01
4.986052197655920781e-01,4.940058996770678723e-01,-3.678178624969702382e-02,4.634211253529941024e-03,-2.331591813291881803e-03,-2.457345096263400565e-03,5.331949591636657715e-01
4.943734556754998399e-01,4.976065291824123826e-01,3.641694515994259307e-02,-3.776595764953413433e-04,4.674529989693198238e-03,1.941523174986899136e-02,4.608818292617797852e-01
5.349029062693595460e-01,4.900163961776458632e-01,6.751721395997739572e-02,-6.349567760966914887e-03,-7.239061414199662176e-03,-3.379571431508208296e-02,4.507654309272766113e-01
4.829614072468811914e-01,4.932056831193709634e-01,-3.154824977407055808e-02,-7.277176253627355663e-04,-2.646611355394234977e-03,3.910258040237162350e-03,5.197734236717224121e-01
4.915209470835087413e-01,4.978399890639589875e-01,-1.831010002661448421e-03,-1.539041215831283291e-03,-2.523880493207147045e-03,2.982585541744060473e-03,4.965949058532714844e-01
4.978321384323360355e-01,4.957775020852838721e-01,-3.210557251852436123e-02,9.618478001575579911e-04,-3.988447249223712955e-04,2.360813001959627139e-03,5.289322733879089355e-01
5.397699387238141799e-01,4.591104350514698673e-01,2.280419081268802994e-02,-2.019532984363148903e-02,1.161042854165331671e-02,-2.678201453985176034e-02,4.856347739696502686e-01
4.753118140271385128e-01,4.890428743112742449e-01,-2.767209177064139380e-02,3.358150840848144435e-03,-9.500267474776578902e-03,7.682959226353315053e-03,5.104601383209228516e-01
4.765091633188213160e-01,4.001310394219849131e-01,-5.589185753780534505e-03,-9.550923574318907761e-03,-1.560723489513842974e-02,-1.307767413844959647e-02,4.504976868629455566e-01
4.814335534068238109e-01,4.767721891205389251e-01,-4.219835159451734707e-02,-3.492430366853048625e-04,-1.853890006348217706e-03,-7.528536239463028785e-04,5.213287472724914551e-01
5.338035289364093661e-01,5.325527531176145191e-01,4.093116653100942193e-02,-4.522252257397928535e-03,-1.187825235799214174e-02,-2.785357663375168102e-02,4.950962960720062256e-01
5.136066833695562828e-01,4.498503844619605729e-01,-2.349013203483973911e-02,1.126911232615909660e-04,-4.685112899674570043e-03,-9.768508823339281701e-04,5.082945227622985840e-01
4.842192098405438960e-01,4.966270143802658521e-01,-3.288845900616238493e-02,-7.753753021805241154e-04,-1.253139537438136214e-03,9.472291552972176383e-04,5.234307050704956055e-01
5.367965060044421755e-01,4.832026859652911455e-01,6.581272258285558729e-02,-1.387571272931710335e-02,5.557233070777648463e-04,-1.866288423498952548e-02,4.484190642833709717e-01
5.140840804140065501e-01,5.008958786623158854e-01,-1.650027233274869998e-02,3.444796208860588949e-03,-4.091327000969500159e-03,1.293987394586519971e-02,5.246754884719848633e-01
4.814021953655632791e-01,5.395886910630298683e-01,-3.192323344836822674e-03,1.317666786189970046e-02,1.292139318977578817e-03,1.682385029944354765e-02,5.174837112426757812e-01
4.878655108296366394e-01,4.951259477704867962e-01,-2.684001363073990065e-02,-1.915988662975977481e-03,-2.551438643390945612e-03,1.166877090319693323e-03,5.184072852134704590e-01
4.869878799908997635e-01,4.945826274555893409e-01,-2.692249140391861362e-02,-1.146012581157877753e-03,-2.860620311401751957e-03,1.446407207425174290e-03,5.177831053733825684e-01
4.606186685594607644e-01,4.302171142233840451e-01,-1.902497507437861390e-02,-1.193349734393355129e-02,-1.183416776004477498e-02,-5.714004947387869501e-03,4.662034809589385986e-01
4.942383186026659825e-01,4.971130360420701333e-01,-1.466039023044818368e-03,2.195704911466371274e-03,-5.324223944325144446e-03,-1.126518607953925230e-03,4.972518384456634521e-01
4.849905519190207404e-01,4.873809728667021779e-01,-4.326294403655933651e-02,9.775891555263917405e-04,1.259525814562391117e-03,2.285572619927558977e-03,5.294747352600097656e-01
4.521624733382349492e-01,6.255714510154045671e-01,4.635804256292846981e-02,-7.866084867239937772e-02,6.631105027568556798e-02,1.860622290565646861e-02,5.458119511604309082e-01
4.431150553288544236e-01,3.816344469851413179e-01,-1.288147344873877276e-01,-2.924153975997522137e-01,6.138948627662005331e-02,6.401493779125838612e-02,7.588418722152709961e-01
4.899434446051975645e-01,4.984107651354813817e-01,-2.494265272097972996e-02,3.614845374244877053e-03,1.812752116358224645e-03,-1.402455784131381505e-03,5.192244648933410645e-01
4.713726241482616430e-01,5.323007571658238124e-01,1.803482256505489767e-02,2.054663706116022833e-03,-3.124992552938933230e-02,3.831688394239126240e-04,4.896847903728485107e-01
4.848543459809437906e-01,4.923816820164347297e-01,-4.345793423938903999e-02,2.404420189182779680e-04,5.210543107484039670e-04,2.922929520826463880e-03,5.321409106254577637e-01
3.330389236456910984e-01,5.414758939561065132e-01,2.192003478997339716e-02,3.752842266412447642e-02,3.719113403809015672e-02,1.533510385295322118e-02,4.627848267555236816e-01
4.417661280463544560e-01,4.348496382759436951e-01,-7.570474219240452829e-03,-1.963119964017875224e-02,1.089466521203032688e-02,1.407452673766315838e-02,4.482743442058563232e-01
4.595101184573479602e-01,5.020882261110051203e-01,-2.827918756205216599e-02,-2.966172395564114442e-03,3.939330044043412582e-02,3.374337373001003865e-02,5.182839035987854004e-01
4.220842919910249846e-01,3.689847631447595866e-01,-2.160490702271555818e-02,-2.816063893284548314e-01,-2.037212548790320529e-02,1.368660091871157398e-02,6.448515057563781738e-01
3.912278145851467714e-01,3.462805808739542468e-01,-9.992517943513329337e-03,-2.400884980386476519e-01,-2.359911942882690281e-02,-5.110505517324821084e-02,5.721867084503173828e-01
4.081901315029725641e-01,4.383639041713517925e-01,-6.506544861511920352e-03,-8.896906612924868063e-02,-2.637616827691332405e-02,-1.836764832466894481e-02,4.606977999210357666e-01
5.497185386183145450e-01,5.751443592153823170e-01,-1.806634954121144609e-03,-9.999327881358446857e-02,9.873200959822055200e-02,7.060643125594175118e-02,6.269332170486450195e-01
4.890773217467342948e-01,4.929433219545854006e-01,-4.154269288742956645e-02,3.699221666022712608e-03,4.167061799790465308e-03,3.853638631216775405e-03,5.326927900314331055e-01
4.891934202199329507e-01,4.965615822478165464e-01,-1.947714276836459701e-02,4.575878237920337314e-03,1.148034279744159728e-03,-2.774636073855741430e-03,5.124820470809936523e-01
4.564830660294794118e-01,4.600430805723957350e-01,-2.311993058308448035e-02,-5.748156567607968365e-03,-1.630905960429364279e-03,-6.421231913820690460e-03,4.816325306892395020e-01
4.921218068238852328e-01,4.945021146725096517e-01,-4.128819863164545634e-02,6.128740878101688293e-03,3.449112551232692142e-03,3.469976387952227251e-03,5.347766876220703125e-01
3.934208928473486577e-01,4.556505376501563953e-01,-1.203479553854447381e-02,-1.537210877062879510e-01,5.377296326174041061e-03,5.168190867545597450e-03,5.143496990203857422e-01
3.556321292277500046e-01,4.549877734481633240e-01,-2.205904042327455628e-03,-1.238061470711637052e-01,-3.959991511023926158e-02,-2.144507977614501168e-02,4.749114215373992920e-01
3.548191367787378869e-01,4.948812572065303672e-01,5.658300924660797371e-04,-6.171677555162156936e-02,-1.566686292164785541e-02,-5.274800873415173147e-03,4.549472332000732422e-01
4.434594646328975931e-01,4.132594456367530422e-01,4.747376467841790681e-03,-6.174676203033335753e-02,-2.123865375718600457e-02,-2.194513149895699691e-02,4.408709704875946045e-01
3.214577883416713799e-01,5.404553530650960669e-01,-1.016427472102821028e-02,-6.098768108513046016e-02,-1.874791737874880251e-02,-8.301875002102372322e-03,4.929272234439849854e-01
4.781262419421529741e-01,3.843607603159245878e-01,-5.030145592672174981e-03,-4.499166950898993156e-02,-9.857890239690372813e-03,-1.361434426819082763e-02,4.514963924884796143e-01
5.055521278978689637e-01,4.773497754839046703e-01,-2.745543300899255801e-02,1.365604072997910964e-02,-4.133752934210952606e-03,9.399175735109897498e-03,5.203230977058410645e-01
4.932617623491309944e-01,4.978871188937803449e-01,2.952334087685082320e-03,7.863976883301936754e-03,2.954055053584439105e-03,5.198941374530326349e-03,4.929354786872863770e-01
3.855695792119386844e-01,4.305698724442139635e-01,5.718681017567173175e-03,-7.423657584873891158e-02,-8.880309408638311849e-03,-7.612917483395956371e-03,4.246749281883239746e-01
5.603683663789236213e-01,3.700443502512031357e-01,-3.707546842972864187e-03,1.137468883547603921e-01,1.425840804174616228e-02,1.950550644353571395e-02,5.362966060638427734e-01
4.939669745878780271e-01,4.987849701294113647e-01,-1.718343497775831619e-02,2.058437298384608021e-03,-1.633867412767926177e-04,2.677179401077966862e-03,5.136097669601440430e-01
4.856544650859496715e-01,4.790809349709485021e-01,-2.770676050408588109e-02,1.608302624903632785e-03,2.801590579459135259e-03,-2.490037152602778570e-03,5.101551413536071777e-01
4.842134115585592924e-01,4.858882350626986257e-01,-2.970014391149100597e-02,-7.240987008614409911e-04,-5.616734173602573252e-03,3.571161028466162340e-05,5.148464441299438477e-01
4.874583551133754855e-01,4.794755317633975222e-01,-2.762295812885401380e-02,5.101309091635521922e-04,4.421533217961806650e-03,-3.971856934731588309e-03,5.112410783767700195e-01
4.910948642653613083e-01,4.808481518811534849e-01,-3.163520508525707875e-02,1.250403111008491111e-04,2.568964746770408501e-03,-2.450455220353935006e-03,5.177193284034729004e-01
4.884910129451546790e-01,4.808815418526179997e-01,-3.209770590456756389e-02,9.686518663145585618e-04,1.156670651701436139e-03,-1.681462238316826880e-03,5.168408155441284180e-01
4.877421632002525431e-01,4.712195798575573580e-01,-2.804259953172139053e-02,1.964896257625786853e-03,4.468935058704122561e-03,-3.327947323634539243e-03,5.078282356262207031e-01
4.883593352075923377e-01,4.849877667882291354e-01,-3.190474209469873479e-02,3.848806204783701687e-04,1.129088851234270885e-03,-2.009450920378807320e-03,5.186023116111755371e-01
4.912187002326650065e-01,4.919294435194143666e-01,5.572461337037271090e-02,3.122327562014656430e-03,-7.300170590224820330e-03,-1.017711567077283488e-03,4.360703527927398682e-01
4.921738087697837827e-01,4.931255552970736922e-01,-3.173599745329808153e-02,-1.106781961243904827e-03,-1.661316959224993627e-03,-5.769000805182976322e-04,5.243986845016479492e-01
4.927326471565157684e-01,4.945794574431022772e-01,-2.831769386327032123e-02,-1.229467575237715680e-03,7.422061451179475270e-05,-2.774147524007941450e-03,5.220026969909667969e-01
4.897791243848023113e-01,4.959324121808608710e-01,-1.399293844816390520e-02,-2.077502706352994926e-03,-4.293718306006022792e-03,3.280086870896285409e-03,5.069758892059326172e-01
4.882233907128351591e-01,4.803692550817321161e-01,-3.142284293107922011e-02,1.597328039318197859e-03,2.137176866534605969e-03,-4.621939791822549624e-03,5.158468484878540039e-01
4.804325294041137395e-01,4.932347588310003750e-01,-3.068198228815899320e-02,5.869268697194419569e-04,-1.103162502319398729e-03,2.054291827195703617e-03,5.176511406898498535e-01
4.880117541654587221e-01,4.784089783444618882e-01,-2.937943842019807850e-02,-3.522305703872180690e-04,2.643221136729251037e-03,-3.063381368962665328e-04,5.126783251762390137e-01
5.399337479762256198e-01,3.877238430569519556e-01,-1.947963146172376758e-02,5.799589246830056527e-02,9.404988841736317343e-03,1.543606885774023545e-02,5.118922591209411621e-01
4.024632134132850592e-01,4.641569678330231818e-01,-4.663826274923954518e-03,7.097982636117486366e-02,-1.101572624196335180e-04,7.952682854405809104e-03,4.582356512546539307e-01
4.147890199658046395e-01,4.888096083066905129e-01,-2.398215810281156823e-02,-1.191184597462516086e-02,-1.517071022131228665e-02,-1.422343996533029058e-02,4.818716943264007568e-01
4.919908149922018747e-01,4.963468620581473756e-01,1.310608971665661038e-02,4.460960752327015715e-04,2.345375921630183866e-03,-7.909365300953685382e-03,4.812903106212615967e-01
4.571442878693742773e-01,4.879555988442320080e-01,-2.219813710519996652e-02,1.569200825513263411e-02,-1.985776465497950116e-02,1.615800251144596314e-02,4.981893301010131836e-01
4.555130805365044111e-01,4.539525043733826926e-01,-5.493813423782245575e-03,3.773894426821606390e-02,-6.048288849262114381e-03,9.949906840166364980e-03,4.652846157550811768e-01
4.777235846365633365e-01,4.802530083007065520e-01,-1.493357788895588456e-02,6.002158427778314653e-02,-1.108473628087321833e-02,1.675297369181924859e-02,5.059466361999511719e-01
4.384957466396955938e-01,5.160256352615293363e-01,-2.875961056361986401e-02,4.288169835792410983e-02,-7.537740447374713902e-03,5.592855916716933141e-03,5.160867571830749512e-01
4.870921431997057294e-01,4.929618670045671225e-01,-3.189447714725096583e-02,-2.157959493280396657e-03,-2.229742280785192241e-03,1.968072285976750057e-03,5.219850540161132812e-01
4.774081889367211007e-01,4.918690626229947349e-01,-3.174731169064909375e-02,1.443864674386051124e-03,-2.647856523813748534e-03,2.973451564264368522e-03,5.165898799896240234e-01
4.838041826143625324e-01,4.821305546565690658e-01,-4.286251594539930432e-02,1.189868514992242386e-03,1.995623888518901004e-03,-4.340334553846593397e-05,5.258473157882690430e-01
5.313859943563583599e-01,4.406725592317184415e-01,-2.271038825032967168e-02,1.240111777855135572e-01,-3.595253522352461709e-03,3.329309634610386204e-02,5.607923865318298340e-01
5.898879417596389896e-01,3.832468783232726439e-01,-1.855624465750610463e-02,1.269645396611867594e-01,-5.600623818819145533e-02,7.881050210001963596e-02,6.029748320579528809e-01
4.173622684243387670e-01,4.224781082424038381e-01,-3.399515671912700654e-02,1.696656080650324749e-01,-1.417099634747113687e-02,6.433856820965025425e-02,5.526652336120605469e-01
4.920767082430267947e-01,4.849692807256809068e-01,-4.256962139343839491e-02,4.132400877089367872e-04,3.548321978556297305e-03,8.305906281325480109e-04,5.311662554740905762e-01
4.443876884868372956e-01,4.497872147910828566e-01,-1.174333117577852637e-02,-7.254948385312313952e-03,3.847856749378322609e-03,7.182380027181778891e-03,4.592435359954833984e-01
4.819207579913216133e-01,4.795084092621121341e-01,-4.301824173052953837e-02,2.941763226658885254e-04,4.880319778107316251e-05,2.135652632266029066e-03,5.237503051757812500e-01
4.836474913579706936e-01,4.840728649352189494e-01,-4.295895718229547633e-02,1.142452139807612662e-04,8.931270376908101785e-04,9.941668909016598398e-04,5.268244147300720215e-01
4.928208139139053645e-01,4.939920546946376390e-01,-8.210445251689513224e-03,1.582303689175933734e-03,-2.046342118023898853e-03,3.389766258140137524e-03,5.016722679138183594e-01
4.843850709873886440e-01,4.953535545476787094e-01,-1.813112039966857658e-02,-6.556538282364112770e-04,1.242886938591717706e-03,2.447128433500316176e-03,5.081127285957336426e-01
4.764633247712590780e-01,4.928351512169251158e-01,-2.616863529123208965e-02,2.584813664537108108e-03,-5.250298513929971093e-03,4.249030699261200153e-03,5.111681222915649414e-01
4.756925615730566714e-01,5.023243609455815273e-01,-1.248877250923075000e-02,6.609797795099596127e-03,-3.560897591190953764e-03,2.997662507012947581e-03,5.022225379943847656e-01
4.746157566676413309e-01,5.002770233589182158e-01,-2.874938575438845678e-02,1.347582053500933881e-03,-2.573469141431459963e-03,7.519181875900413613e-03,5.168625116348266602e-01
4.876543163900952660e-01,4.850961567471410163e-01,-4.280981472051326175e-02,1.062907244717397909e-03,2.406337650660346061e-03,8.325081638047353251e-04,5.292112827301025391e-01
4.907830116937522136e-01,4.829910792210093673e-01,-4.207808809378338344e-02,8.059196292142498151e-04,2.591558161981503614e-03,1.077198690019946694e-03,5.290323495864868164e-01
4.837875398191874288e-01,4.994156774514714181e-01,-2.827402923284932923e-02,-2.929852678710995542e-03,-6.542969510741740609e-03,4.691422667966835269e-03,5.202634334564208984e-01
4.881976227628914700e-01,5.037387835390761959e-01,-9.974370249927588805e-03,1.395109301934264979e-03,7.869993557024185064e-04,1.023358005666789340e-03,5.061322450637817383e-01
4.920949906722326683e-01,4.829290553286325061e-01,-4.052568837790415657e-02,8.495151294825578278e-04,3.900785140793978402e-03,1.119345674420295974e-03,5.281462073326110840e-01
4.841757734285369597e-01,4.971172232202888397e-01,-2.987288976662411111e-02,-8.041358937345496763e-04,2.516407396941063371e-03,-9.220671084369284291e-04,5.206626057624816895e-01
4.625435789284172428e-01,4.704781835164157933e-01,-2.899841826939369982e-02,-2.906959914589623845e-03,-3.332893320214925723e-03,-8.898790548986328791e-03,4.958557486534118652e-01
4.614953964689114674e-01,5.386693771168138412e-01,-5.242227909474628245e-02,-4.533989151297940223e-02,4.447795416666453644e-02,3.708549397876347714e-02,5.709257721900939941e-01
4.786864230420594390e-01,4.978072654504705485e-01,-1.798227493203891081e-02,-1.630168706080911602e-03,4.513314795382786584e-03,8.549346974067419808e-03,5.067844390869140625e-01
4.973240789139755647e-01,4.959144339256179590e-01,-3.633607347333123183e-02,7.319495552060364084e-03,2.055771460648620017e-03,7.699882236500196070e-04,5.331210494041442871e-01
4.974000964903312338e-01,4.747299962830278108e-01,-3.649852341409454137e-02,1.300399000905648320e-04,7.575987565048416215e-03,2.252787453593651915e-04,5.230970382690429688e-01
4.181708374926491611e-01,3.815442595235062906e-01,1.128299194865239885e-02,-1.509232480391963227e-01,6.381634550535880690e-02,8.096387964254493641e-02,5.022079348564147949e-01
5.035361679859344797e-01,4.742343976474151512e-01,-3.471924832441086739e-02,1.595297316729748409e-03,1.200562958998077634e-03,-1.957452101814065575e-03,5.242414474487304688e-01
3.779544643603045539e-01,4.537347085988503448e-01,-1.190493254219959773e-02,-1.045122345612499171e-01,7.523997949951813369e-02,2.744930047903374609e-02,4.891713559627532959e-01
4.934914448796391406e-01,4.861323773643427271e-01,3.639892791766352609e-02,-5.457215492568399939e-02,1.265454782847200317e-02,1.593610996103350663e-02,4.645434319972991943e-01
4.979855900788201506e-01,4.958495999046467206e-01,-2.524720141482872382e-02,2.597260290096231432e-03,-4.293999593126082595e-04,-4.093902897985333619e-03,5.222361087799072266e-01
3.111031793942596324e-01,5.036568829962538851e-01,2.253643727971305077e-02,-1.092313650418690468e-01,9.388213136133610748e-02,6.812003791800161356e-02,5.020650625228881836e-01
4.934320375894030164e-01,4.988654689946822041e-01,-2.278302678205673670e-02,5.195902738070745652e-03,2.883337538225990392e-03,3.109097644685458132e-03,5.190830826759338379e-01
4.980758129417320323e-01,4.967289686627904821e-01,-3.307676503800144330e-02,2.790785165989427552e-03,2.122673115997572926e-03,1.189182107412302142e-03,5.305191874504089355e-01
4.941779983247035490e-01,4.961975229583661662e-01,-3.055261259135938490e-02,3.283077752832107440e-04,-1.980362615796639209e-04,1.691483967585450917e-03,5.257518887519836426e-01
4.802047483202569467e-01,4.861116026969401482e-01,3.096014346299985620e-02,-9.205974731996101335e-03,-3.314015698967258221e-03,-4.989596265531727470e-03,4.526269137859344482e-01
4.692757259132701586e-01,4.838560207456675255e-01,-3.690868138875819104e-02,-4.583800982831546036e-03,-9.051893498084511228e-03,-9.743624486080272595e-03,5.142073631286621094e-01
4.766794113860872706e-01,4.816117009089518342e-01,-4.068759594512239008e-02,4.085638024635645897e-05,-2.117869417418766741e-03,-2.632368186645788616e-03,5.198836326599121094e-01
4.899462005417352106e-01,4.986125383542059919e-01,-1.743819560704246152e-02,-1.288780302623405343e-04,7.296980729200771816e-04,2.736665170625773164e-03,5.117961764335632324e-01
4.916906770232450929e-01,4.964492963482824983e-01,-2.021006546505166312e-02,-2.476911869161805939e-03,-1.203890411595108685e-03,2.686253504178324515e-03,5.143397450447082520e-01
4.626845703704747792e-01,4.722708229017266723e-01,-2.977603521667637754e-02,-4.569764412443855358e-04,-6.794002009396477894e-03,-7.993386926201394987e-03,4.976554811000823975e-01
5.191025362953872735e-01,5.100611534276131565e-01,4.749693613535710401e-02,1.557992938801999044e-02,-7.405600079822860157e-03,-1.613288276891618883e-02,4.689383506774902344e-01
4.899340990583429534e-01,4.944133262449093014e-01,-2.580818503815279774e-02,-2.754395175468729150e-03,-2.473062365754659462e-03,2.045769933886900770e-03,5.180482268333435059e-01
4.476772970425564324e-01,4.866816651223754286e-01,-3.414348885668705424e-02,-4.339086083330675504e-03,-8.661505361138193901e-03,-1.210823086215156302e-02,5.031769871711730957e-01
4.924288841712521347e-01,4.985898884021258137e-01,-2.003737511735403931e-02,-9.719511419270642633e-04,-1.390129308531990468e-03,2.170822146501067123e-03,5.155964493751525879e-01
4.911337182392122580e-01,4.683961152936454431e-01,-2.779039798506155456e-02,3.789239650891388332e-03,-8.674491974502636024e-03,6.995077604038293928e-03,5.083460807800292969e-01
4.856058893058329273e-01,4.895024260181368714e-01,-3.233777625182154836e-02,-1.569134014620405604e-03,-3.134004864461545879e-03,1.776824048753524853e-03,5.199474096298217773e-01
4.658750224433886311e-01,4.878894576167844832e-01,-3.668139738699138785e-02,2.545781488302239571e-04,-4.647352815317117090e-04,-8.247291662377460517e-03,5.141167044639587402e-01
3.893336875325421609e-01,4.524190714316609352e-01,-2.244087933676586211e-04,7.564060966329588798e-02,7.863604718955854653e-03,-3.192492931936975406e-03,4.446248710155487061e-01
4.896795814996291463e-01,4.925266773547343768e-01,-3.105684526055935146e-02,-1.577215209177218599e-03,-1.930504388639032402e-03,9.222836831844876933e-04,5.221861004829406738e-01
4.784003935116570849e-01,4.585312198322066823e-01,-4.445563147518261093e-03,9.845448356551189661e-02,5.868924657454204115e-03,2.017817499298297720e-02,5.043271780014038086e-01
4.888518782660518092e-01,4.944970436881698239e-01,-2.985760216410554557e-02,-1.881119744235438141e-03,-1.396960361842970125e-04,1.230848726393570175e-03,5.215695500373840332e-01
4.397391660083348475e-01,4.890495500907027226e-01,-2.746825833056298904e-02,-6.418539380816861567e-03,-1.012444366980221099e-03,-1.252651680407077146e-02,4.943175911903381348e-01
4.869274470487309769e-01,4.926410448721809110e-01,-3.387390386304456324e-02,-3.731663669310857469e-04,-1.105088775927121113e-03,1.035213801507108402e-03,5.236884951591491699e-01
3.523914118420634622e-01,5.246751707437731227e-01,4.629993695536849252e-04,9.607482397530260967e-03,-1.623558479730802598e-03,-4.711970825513907128e-04,4.630899727344512939e-01
5.810976549036825922e-01,3.569671548497523883e-01,-3.307587702394715334e-02,5.279948646039950289e-02,2.582406542868222882e-02,-2.649687402839677811e-02,5.497807264328002930e-01
4.841202076880940508e-01,4.908317186767251483e-01,-3.397205962029986592e-02,-5.421359655551927790e-04,1.690289430102658917e-05,8.576300304427872476e-04,5.214833617210388184e-01
4.783368971352663368e-01,4.096003632195717725e-01,2.239417391480258424e-04,1.667397888701234801e-02,-4.394013829914446734e-04,6.910497104147239047e-04,4.486523866653442383e-01
4.832989697864180645e-01,4.863061000835154912e-01,-2.739902638215457875e-02,3.612591626313119923e-03,-5.903328777824326870e-03,5.217996461806007416e-03,5.124281644821166992e-01
4.857079251863408165e-01,4.916878772971915446e-01,-3.430968362245800929e-02,3.276884620959031653e-05,-5.010182289183645089e-04,5.311607307638651406e-04,5.230347514152526855e-01
4.653115976524094810e-01,4.314535294567422574e-01,-6.254681040811671533e-03,7.117220121260653398e-02,-3.630679403928839099e-03,1.740830356459191139e-02,4.729692935943603516e-01
4.787991004248602911e-01,4.168202660696229134e-01,-1.692632506855085150e-03,1.298972587538307563e-02,5.165479969846330580e-03,2.988783235567108094e-04,4.533430039882659912e-01
5.484411952648147182e-01,3.171776596886070054e-01,-8.010546255520722969e-03,8.981969922898293268e-02,-1.556305966371759539e-03,1.597221013464664163e-02,5.093227624893188477e-01
5.630194338449499014e-01,4.583858361690940075e-01,-7.242399826472623037e-03,3.476708251080380240e-03,-1.246473415502580631e-02,2.462073431004637922e-02,5.280143022537231445e-01
4.961834355010702469e-01,4.957173756491898842e-01,-3.329234169494404982e-02,2.578599230028439868e-03,1.502631390910946774e-03,1.701374748349968654e-03,5.292763710021972656e-01
4.991546052456968807e-01,4.921150978384252750e-01,-3.508549536027610882e-02,3.003991521271842657e-03,1.149651832039103429e-03,2.530340233111477450e-03,5.308026671409606934e-01
4.969206212646269938e-01,4.921439449741460415e-01,-3.345611184060964804e-02,1.087419535329543991e-03,1.574711731681074142e-03,1.309645690977280508e-03,5.280199050903320312e-01
4.962100493814339819e-01,4.917726429305186442e-01,-2.866552057201365855e-02,2.751538007943857365e-03,1.426630573744123521e-03,-2.240785438702839159e-03,5.227129459381103516e-01
5.012418716124183993e-01,4.818480846227395364e-01,-3.424276682667798388e-02,1.002832151620844077e-03,2.492092958096473691e-03,5.989367812258547530e-03,5.261787772178649902e-01
4.965551875077749422e-01,4.861967784643695945e-01,-2.660233075795626068e-02,9.380896569688778469e-03,-8.188806871050911818e-03,5.079329741001121189e-03,5.185793638229370117e-01
4.032923937249766055e-01,4.938479399423567617e-01,2.912077864097251112e-03,1.118269259505580773e-02,2.389707728882994463e-04,8.370350743906714366e-03,4.531521499156951904e-01
4.560467160642438511e-01,4.692757620843284738e-01,-1.503367033471464387e-02,8.273093843884292767e-03,-2.856398102659521519e-03,5.501657915072303597e-03,4.781676530838012695e-01
4.899900727339537854e-01,4.925056336161183768e-01,-3.220380253601512477e-02,-5.183934959391861162e-04,-1.486287742819252270e-03,-8.820148761857991826e-05,5.234633088111877441e-01
4.755777065340235366e-01,4.887957860839535762e-01,-2.685937603399529694e-02,6.218181807581998378e-03,-3.731610720864399211e-03,5.337536178336725091e-03,5.094135999679565430e-01
4.854138045899112353e-01,4.908722982439672200e-01,-3.340748327464621026e-02,-1.448013188753725705e-03,-3.042802242712049510e-03,1.944601678900927891e-03,5.216155052185058594e-01
4.858317094978272244e-01,4.711659350936395763e-01,-2.685153593551636853e-02,2.814539424332724356e-03,-8.202291953906376207e-03,5.810201578703490591e-03,5.058331489562988281e-01
4.758151586110057063e-01,4.756628168263876688e-01,-2.031475234271223895e-02,-9.602098909533604944e-05,-4.964884976050795012e-03,9.484485760831225677e-04,4.961310327053070068e-01
4.854752549355655367e-01,4.863005422393106847e-01,-2.988965295859918880e-02,-7.356672575343116817e-05,-5.477287193189789641e-03,3.320192871190839543e-04,5.158656239509582520e-01
4.811586086309654342e-01,4.880346312744981430e-01,-3.206130426532460831e-02,9.904394254425337094e-04,-1.094952768480355687e-03,1.151311641745594297e-03,5.167024135589599609e-01
4.891678117841800066e-01,4.944980364259526917e-01,-2.914279907749112164e-02,-1.600030831281218672e-03,6.001238108462893499e-04,1.283956145563532525e-03,5.210093259811401367e-01
4.221923311530470513e-01,5.214762195337501183e-01,-1.626727513445275219e-02,5.289345451394281139e-02,-6.220470455087639093e-03,1.369781685126524214e-02,5.046862363815307617e-01
4.797139170535394403e-01,4.934856055262291652e-01,-3.070370782330966719e-02,-1.343608768460620178e-05,-3.395590833633170286e-03,3.490741680463863537e-03,5.175096988677978516e-01
4.791794828923285898e-01,4.921094018085151456e-01,-3.216061560892097271e-02,1.291475272265201315e-03,-1.746647871933901426e-03,2.071337900588179903e-03,5.179522037506103516e-01
4.810715431434069433e-01,4.915066538707068000e-01,-3.205682168751317063e-02,-3.405329290250842366e-04,-2.332076910834635346e-03,2.729448049709191394e-03,5.184623003005981445e-01
4.874401044631813118e-01,4.916291436572077789e-01,-3.346892477957241763e-02,-8.826334435164634278e-04,-1.433505931278991705e-03,5.505804857465322480e-04,5.230251550674438477e-01
5.258927053559625531e-01,5.593576402491610144e-01,7.323779633006732848e-02,1.837118511684003586e-02,7.970714674520533449e-02,5.997808192249070441e-02,5.020246505737304688e-01
4.852791859410068298e-01,4.920190351060063083e-01,-3.179485235357953909e-02,2.425983255989976712e-04,-2.097141637965761231e-03,2.120245179340042585e-03,5.205025076866149902e-01
4.874309463241900953e-01,4.912515375514544536e-01,-3.220871746531811519e-02,-7.217114606131218519e-04,-1.582882509029226187e-03,1.449298101109367421e-04,5.215691924095153809e-01
4.837504338813717331e-01,4.833486834099220419e-01,-1.045385662642384084e-02,1.155533916634242375e-02,9.756559544312737829e-04,-8.706953124630909674e-03,4.946416616439819336e-01
4.885767596473388208e-01,4.851144753905470841e-01,-2.779256885663317078e-02,1.095309669792191801e-03,-5.980677788403755690e-03,3.687242194667994261e-03,5.147942900657653809e-01
4.875455824415196870e-01,4.938598558556079876e-01,-2.952352299962712756e-02,-1.378332809776471480e-03,-2.172343991931858457e-03,4.678258174862999540e-04,5.202746987342834473e-01
4.849578042023386937e-01,4.874961670032246230e-01,-2.985303474674655400e-02,-4.308985800752346252e-04,-5.782795383015623854e-03,6.380264882899944635e-04,5.161836147308349609e-01
4.869414706398659254e-01,4.922558897086071750e-01,-3.239349261587615159e-02,-1.145187825519247563e-03,-2.306419831412019616e-03,4.809829057356705705e-04,5.220322012901306152e-01
4.914196104472569049e-01,4.787677102357569825e-01,-2.735689434146854060e-02,1.907286594326590553e-03,4.775502061989811767e-03,-2.049881375384244447e-03,5.126573443412780762e-01
4.768341806515800085e-01,4.815967369290938827e-01,-2.374455740450959196e-02,1.258976413538241863e-02,2.971047947097123915e-03,-7.921061057743452455e-03,5.036625862121582031e-01
4.973145478922438856e-01,4.854158767342889313e-01,-2.571488170409347296e-02,2.116405065165954252e-03,3.800084415227215906e-03,-3.897346352632044542e-03,5.172816514968872070e-01
4.916956732223175530e-01,4.871764764003963522e-01,-2.801440027728752113e-02,-1.286723292470638019e-03,4.126285109762089544e-03,-5.019794417615646223e-03,5.175924301147460938e-01
4.814089427553174261e-01,4.342132455906476673e-01,-1.107679286451329626e-02,9.976667681275168051e-03,8.106110326687806719e-03,-2.933314014334505279e-04,4.711925387382507324e-01
4.682398257569327926e-01,4.672960775628071106e-01,-1.484983769246744911e-02,8.843590963859303267e-03,4.657151107868844932e-03,-4.986325595713685631e-03,4.830060899257659912e-01
4.977010227906989992e-01,4.231427154055160678e-01,-2.140489653242538814e-02,9.737311791619482002e-03,-1.118581618080260152e-02,1.985323657593328697e-02,4.880250990390777588e-01
4.903025668072672483e-01,4.407183511307692370e-01,-2.017919721820943257e-02,4.755396907385416212e-03,1.206999922408268783e-02,-9.756637180402594201e-03,4.883941709995269775e-01
4.809902397563998733e-01,4.753121935030468204e-01,-2.615401761848490381e-02,1.145429137438205456e-03,2.109136395246714868e-03,-3.438937687763383988e-03,5.043815374374389648e-01
4.940192345799509499e-01,4.932419683432405222e-01,-1.239857115041559377e-02,-7.011068863898684651e-04,5.163698377036468222e-04,-1.762512355603901727e-03,5.060410499572753906e-01
4.896826074610447499e-01,4.956221814279716531e-01,-3.083554694111539929e-02,-5.279996440263857397e-04,-2.256609845181371636e-03,1.606209368317559980e-03,5.235359668731689453e-01
4.878410868607522266e-01,4.582807063174383355e-01,-2.237646614874722051e-02,3.893502555889747502e-03,7.497465244653953378e-03,-1.521564820357551749e-05,4.963140785694122314e-01
4.594901313280295718e-01,4.744646186740836269e-01,-1.298911154975446181e-02,2.231091740901899878e-02,5.127087288619219460e-03,-8.237143278920243394e-03,4.819872975349426270e-01
4.583052717685341393e-01,4.433320295433418323e-01,-1.858058612051349812e-03,8.384479733803377674e-03,3.118703173236105596e-03,-2.520007151872662881e-04,4.531275928020477295e-01
4.447530346227528963e-01,4.714574678888222570e-01,-1.179653779594030949e-02,1.073923701405922818e-02,5.370737080282802372e-05,-7.931919769692102537e-03,4.710385203361511230e-01
4.639446485024368294e-01,4.783372687565943249e-01,-2.141491112040505573e-02,3.988650850049327637e-03,-3.190082403903250156e-04,-7.908117309232335149e-03,4.929526150226593018e-01
4.765270744839723016e-01,4.753428733505617454e-01,-2.004767961023273815e-02,-4.345060833526417411e-05,9.442786050567501463e-04,-5.084583174813367933e-03,4.960646033287048340e-01
4.951380476397116981e-01,4.887780641001693294e-01,-3.030305347121925452e-02,-1.757548696566250656e-05,-2.243764012646423927e-03,-4.800510120807306778e-04,5.223052501678466797e-01
4.931582954597826252e-01,4.961936039361822259e-01,-2.931351569308526805e-02,-1.920315485462140723e-04,-1.983094513505441209e-03,2.334280439738249061e-03,5.240229964256286621e-01
4.885484795254244617e-01,4.870658250582031168e-01,-2.777057474415384197e-02,9.151628531437746650e-04,6.047209685036736976e-03,-7.274326950878007639e-03,5.158420205116271973e-01
4.914948601332341793e-01,4.663382767475482971e-01,-1.803514449988641299e-02,1.202432550829639346e-02,1.305993244374255811e-02,-5.988267504144477275e-03,4.984863698482513428e-01
4.768053811864109703e-01,4.649603384723532962e-01,-2.065378271623369288e-02,-1.691424307000247455e-03,9.540073401413960491e-04,-8.713835262255362516e-05,4.916552007198333740e-01
4.982761658727730136e-01,4.940494437279714379e-01,-2.888253318778860601e-02,1.909109914132395844e-03,-2.424453735129897518e-03,-1.574662253294903391e-03,5.250923633575439453e-01
4.797707932988216628e-01,4.551689027617226713e-01,-1.627125417829466958e-02,4.624426507914906372e-03,7.745972169180380916e-03,-5.347889465622985249e-03,4.845506548881530762e-01
3.340314436728255565e-01,5.569791700970280202e-01,-3.209042785266402742e-03,-5.954766374635308418e-02,1.843871099099520308e-02,1.006927910868992380e-02,5.005853772163391113e-01
2.816853150417797935e-01,6.117531890675406148e-01,-1.393573378520324146e-02,-5.197584700174066180e-02,2.663997686199395809e-02,1.928387411631050929e-02,5.525040626525878906e-01
2.047079403012785348e-01,5.631120165324027260e-01,-2.733559632433449349e-02,-1.174003954844371755e-01,5.565920792226065200e-02,2.899916945607213664e-02,5.644716620445251465e-01
5.338492675916890473e-01,4.171750982570524569e-01,-2.598615483662425341e-02,2.533181607247587952e-03,-4.442584175690776453e-03,-2.653262645448753454e-03,5.116735100746154785e-01
4.633503939715195585e-01,4.635276310383090737e-01,-2.614151216298882252e-02,-3.987836071740229887e-03,7.870405730332850208e-03,4.933337393107565909e-03,4.898935258388519287e-01
4.556559126240403712e-01,4.536391578448089046e-01,-1.991798114851622836e-02,6.852751899593789026e-04,1.429721952746027371e-03,3.003853306174634379e-04,4.745769500732421875e-01
3.227036958025885638e-01,5.561137029969134282e-01,-3.107600244123215338e-02,-7.102560105501146137e-02,7.843295211628047159e-02,5.239535573444213667e-02,5.513990521430969238e-01
3.314332215545964799e-01,5.532937793125939363e-01,-2.736588981766713280e-02,-6.391029385874375315e-03,6.802200290214072131e-02,2.962291613568579854e-02,5.236395001411437988e-01
2.837933733578812956e-01,5.570033091437980310e-01,-1.338209007247920246e-02,-1.227591450589314744e-02,1.339376907728190812e-02,8.415723957450106998e-03,4.953291416168212891e-01
3.669143639579585670e-01,5.345865846792525744e-01,-1.000459849801210721e-02,2.899922647198178993e-02,-2.971840826059182761e-03,-1.414522031390017410e-03,4.857325255870819092e-01
1.700179419263717628e-01,6.394398237754730374e-01,-2.432660942443448659e-02,-3.261085389439175725e-03,3.656758552474796004e-02,3.467497964530160542e-02,5.975005030632019043e-01
4.926780509818316500e-01,4.961814431661530911e-01,-2.394422869857415481e-02,-2.480908517245274374e-03,-4.413711925152588068e-03,3.462837510225960300e-03,5.184917449951171875e-01
4.924772472797482870e-01,4.962393167867159560e-01,5.361071201480255288e-02,1.156880619919525843e-02,4.474876719346976110e-03,5.506913199854387812e-03,4.413859844207763672e-01
4.405029709040113595e-01,4.408752743328204771e-01,-4.386567821434372849e-03,-4.052970813231558840e-04,1.614575236086369025e-03,2.807235831576458999e-04,4.450854063034057617e-01
4.987495244843127007e-01,4.967618679708618590e-01,7.637932268005409586e-03,8.385137652797761132e-03,7.839944247161332799e-03,-3.884277413035918617e-03,4.905700385570526123e-01
4.498439642034648411e-01,5.103417807145456120e-01,-2.363368968566620376e-02,1.380776722966452034e-02,-1.490541777078659147e-02,1.130218663958745817e-02,5.080424547195434570e-01
4.821782630048500051e-01,4.837519738002604153e-01,-4.326169672042695646e-02,1.308253473740927887e-03,4.786804673925105905e-04,2.270553011383410081e-03,5.262488126754760742e-01
4.960897636165122471e-01,4.863750007182299218e-01,-2.885734284279117823e-02,6.802919982927655221e-03,-7.711562808055199940e-03,5.565655283613908481e-03,5.205519199371337891e-01
4.889363561788039325e-01,4.933586646877198278e-01,-3.241148456736508976e-02,-1.452209695808312972e-03,-3.340208669780222919e-07,-1.396085682333650770e-03,5.235846042633056641e-01
1.463048481360560982e-01,6.536696180483725360e-01,-2.749048803706416466e-02,2.552522301813474337e-02,-2.723674556377871439e-03,1.772157886930943865e-02,6.154026985168457031e-01
4.895916885880592373e-01,4.909208466700579199e-01,-3.183700080811580069e-02,-1.136129335233477308e-03,-1.250227267074543059e-03,2.383759554776742283e-04,5.221028923988342285e-01
4.999760198280354118e-01,4.762449229401257700e-01,-3.945882913093817779e-02,3.996573060541219725e-04,5.167597357852217813e-03,7.256911929493642215e-03,5.281953215599060059e-01
4.973409551799837236e-01,4.920425305495663704e-01,-3.393973919654919014e-02,8.176522255613213408e-04,1.834216731190772050e-03,1.039583269131322003e-03,5.286659002304077148e-01
4.920809761428707185e-01,4.932788105010946778e-01,-2.795127888512216607e-02,-2.640731241657955151e-04,-1.118754934041356211e-03,-1.172479751570469197e-03,5.206399559974670410e-01
3.674008055843278608e-01,3.041479743750473697e-01,4.476382509845666657e-04,-2.427917822134722514e-01,-2.011948859125218050e-02,-7.114740713936561385e-03,5.418989658355712891e-01
4.991711603612283832e-01,4.874860338781674685e-01,-4.080419744330515686e-02,1.423934983918299230e-03,1.995755565245921348e-03,-4.620592262120720934e-04,5.342461466789245605e-01
4.927872507815478920e-01,4.850666147459634647e-01,-2.801038120156151834e-02,1.641186826930898313e-03,-7.135709420783688771e-03,6.044704891065447692e-03,5.172420740127563477e-01
4.857012772990260130e-01,4.949563017680425059e-01,-3.230824601579196376e-02,-7.262982124274030378e-04,-7.220189662909158243e-04,1.579589298330740703e-03,5.227086544036865234e-01
4.915721015941769134e-01,4.960722993245899048e-01,-5.366839143145452073e-03,-1.138855431977114051e-03,-2.440377121734278992e-03,-3.873780556012175816e-03,4.992711246013641357e-01
4.223916400866604137e-01,4.907138520045954966e-01,-2.481887508832619771e-02,-4.360332438186241381e-03,8.588197297208678563e-04,1.635674095396125183e-02,4.858821332454681396e-01
4.925740160059571826e-01,4.945684069847233744e-01,-2.514345350263819112e-02,-1.176959635669814087e-03,-1.486649539305359528e-03,-3.186179553347273739e-03,5.187572836875915527e-01
4.165397703641077198e-01,4.495711471404566506e-01,5.120202133913898113e-03,-5.180509131000992848e-03,-8.908109215261056585e-04,-1.783760215811978434e-03,4.289980530738830566e-01
5.058573610261790643e-01,4.946922729747114666e-01,-3.455373396230920768e-03,-6.085534823940831617e-02,-4.031392271224040758e-02,-1.380809065934439882e-02,5.199955105781555176e-01
5.233182900899826517e-01,5.261839005508869294e-01,9.587420197812390743e-03,-3.223034280972350563e-02,-5.747311542231327286e-02,-3.081119747602073869e-02,5.303523540496826172e-01
4.333187797959685006e-01,4.370315501483452159e-01,5.121300594230882020e-03,-1.639721023564261540e-02,-1.485628146002582976e-03,-4.342267745167949504e-04,4.310109615325927734e-01
5.349696221860895662e-01,5.377107439447863513e-01,6.044912334010293931e-02,7.210731105422587932e-03,-2.431807161398126006e-03,2.864942891747212627e-03,4.761053323745727539e-01
3.367462572636027440e-01,5.135337185726560616e-01,9.268305971678492128e-03,-1.645396461971687999e-02,1.279799536391289773e-05,4.405783269451939849e-03,4.441396594047546387e-01
4.849340251374750221e-01,4.831319918724034101e-01,4.812436414362269987e-02,-1.347487041536208317e-02,-1.698680783721455770e-02,-1.265566647024137653e-02,4.380749464035034180e-01
5.230102889755516848e-01,5.349126378217925470e-01,2.322006536361720386e-02,-7.522278130417154804e-03,-2.175295222122423586e-02,-2.287026060728351504e-02,5.089588165283203125e-01
4.095454790929516919e-01,5.228803560359525093e-01,-7.481830737344374871e-03,6.296555181351494272e-03,-1.824587603889426222e-03,-2.828246483240541738e-03,4.839144945144653320e-01
4.352537883508386107e-01,4.328314476029065383e-01,3.042283001780277107e-03,-1.437542081771311714e-03,-1.828688539297275049e-04,-1.138845482890482250e-03,4.310172498226165771e-01
4.692461453815246486e-01,4.840591201860793280e-01,-3.540125597899890231e-02,2.186755415834507749e-03,8.535330897040235756e-04,9.214744454015958916e-03,5.124793052673339844e-01
5.284740416949611497e-01,3.786863611758465864e-01,-1.176013189385644031e-02,-1.667130394014783301e-02,1.270134216892039071e-02,1.446230903557250112e-02,4.850918948650360107e-01
4.916379206144694258e-01,4.673999443389361685e-01,-3.608227714164025102e-02,-2.022685545724180883e-03,9.652784070759503482e-03,4.169096226985015159e-04,5.163114666938781738e-01
5.360104878596995137e-01,3.505842719752631509e-01,-2.175733792648554266e-02,-2.037264872574199789e-02,1.699243935320212187e-02,2.721919145805973966e-02,4.963839948177337646e-01
4.909694593457689660e-01,4.865997317121436572e-01,-3.172251789647267950e-02,-1.090213071151308923e-02,1.623921780773436227e-02,2.007419285602613651e-02,5.227797031402587891e-01
4.643621335241133186e-01,4.502366699235864633e-01,-1.842337099775515075e-02,-1.034164028346266917e-01,-4.401782896976402099e-02,-5.339273454899882976e-02,5.224095582962036133e-01
4.965103220820014096e-01,4.743691579092445543e-01,-3.660635522469596337e-02,2.034693512738903597e-03,9.807160944495402558e-03,2.969906788404163482e-04,5.226863622665405273e-01
5.644741538626076860e-01,4.436437552435545384e-01,-3.467956837383184832e-02,-3.947615559669424845e-02,3.639689377982009005e-02,4.872711223299447392e-02,5.629933476448059082e-01
4.888537515812936829e-01,4.805710586111009430e-01,-3.665484546450981096e-02,-3.236819462671599538e-03,1.914000327326063206e-02,2.435215880564178814e-02,5.241991877555847168e-01
4.912555961839473184e-01,4.859930326498756448e-01,-4.270049128319586274e-02,6.800994255109133781e-04,3.578796865603644291e-03,1.348878139226689392e-03,5.313869714736938477e-01
4.865483980223234139e-01,4.771783843608702336e-01,-4.229375430486748133e-02,-1.015804325160978364e-03,2.542336447469532856e-03,7.681152831639104922e-04,5.242431163787841797e-01
4.780539519058213949e-01,4.817007897613881373e-01,-4.249911609065470941e-02,1.557734231453780855e-04,2.386215924275280134e-03,4.388865842067585297e-04,5.224030017852783203e-01
4.865821807401657928e-01,4.428854814406291140e-01,-2.202003737528279714e-02,-5.043873485399369937e-03,1.210126824265021772e-02,1.131610539010414118e-03,4.887543916702270508e-01
5.297449753555920626e-01,4.277589393496919468e-01,-1.985377802502863442e-02,7.929882937546296751e-03,1.630680481618024605e-02,3.378971862075694221e-02,5.107055306434631348e-01
5.208232597283874998e-01,3.382871467957030420e-01,-1.184739661956107915e-02,-4.590172803522118983e-02,1.810120047204312466e-02,1.451710606313881893e-02,4.772441089153289795e-01
4.628133008900380818e-01,5.381693957447990506e-01,-2.597623487405997800e-03,7.339496580509185034e-03,-1.829633104338548215e-03,-1.657985270519933205e-02,5.082851052284240723e-01
4.939317712269524208e-01,5.015859228387196111e-01,-3.307950507210372093e-02,2.118724460804872339e-03,-1.084697227130058901e-04,-3.187967225068359667e-03,5.309211611747741699e-01
4.663015945642680071e-01,4.729290449680718655e-01,-3.619169613430345267e-02,-8.942470142043249231e-04,6.086618828021956792e-03,1.019567236922512945e-03,5.059548616409301758e-01
4.687298446362841986e-01,4.744526732423876014e-01,-3.501002799405544819e-02,-5.679384742554470164e-04,1.689382448291644597e-03,5.687548187752544150e-03,5.067306756973266602e-01
4.608451040472826277e-01,4.315973118210374437e-01,4.301923325597312164e-03,-2.808746686158509684e-02,1.294485135356789746e-02,1.150847655710664393e-02,4.463193714618682861e-01
4.911674385398507869e-01,5.012321206393715034e-01,-7.340042226915144408e-03,1.000553983864094915e-02,-3.337221937324947717e-03,-2.924134944323579510e-03,5.039719343185424805e-01
3.508004903553291198e-01,5.339781878255862591e-01,-1.090297029826847730e-02,1.881793770956646491e-03,-3.800642109123667477e-03,-4.169672140317663873e-03,4.803598523139953613e-01
4.968214450662246096e-01,4.980857120086193968e-01,-2.579853944427729084e-02,5.517090003416573983e-03,3.639766490151776814e-03,3.902501825543892747e-04,5.233789086341857910e-01
4.429702060266684782e-01,4.326103620257690241e-01,4.325809196018048919e-03,-2.352576134328588069e-03,-4.354548747106392129e-03,-1.036629457306601073e-03,4.336457848548889160e-01
4.883198129356149386e-01,4.971080017948731333e-01,-2.831936850726268773e-02,-2.554506654844724352e-04,-6.313952429431108140e-03,3.584980493132028899e-03,5.212407708168029785e-01
4.957551911052219262e-01,5.073531891034761543e-01,-3.425790649122684162e-02,5.506062088812747023e-03,4.934179371352119536e-03,4.041668421148591692e-03,5.361049175262451172e-01
5.052303140359857281e-01,5.026600887719607780e-01,-1.972418903117223454e-03,-2.085242107140393084e-03,1.683981703338499614e-02,-5.474438841026026473e-03,5.068641901016235352e-01
4.807291728248396234e-01,4.816702508760346002e-01,-2.982607188713104485e-02,9.304399980636123609e-04,-4.486011802029938808e-04,3.433335628161659873e-03,5.110641717910766602e-01
4.697716870078835760e-01,4.791737751215758845e-01,-2.420323675033259070e-02,7.166447724405355414e-03,4.167197981337184345e-03,-7.602651751884346651e-03,4.991228282451629639e-01
4.786342916051237739e-01,4.791807133487018255e-01,-2.369885157626550054e-02,2.154319547293139653e-03,3.810642873025392365e-03,-7.544924502168527843e-03,5.028336048126220703e-01
4.908316433973788362e-01,4.850869633470334952e-01,-3.326839577432416650e-02,-3.604086931892263928e-04,2.597009849052388784e-04,-6.121746662396767603e-04,5.212531089782714844e-01
4.715146338519322633e-01,4.811550898740517557e-01,-2.191224270138436570e-02,1.297466584641646971e-02,1.122076714905528676e-02,-1.287065455774297901e-02,4.996995031833648682e-01
4.887300255089512824e-01,4.817527932601486929e-01,-3.200893830818785091e-02,2.890292260836122538e-05,1.516659112393483038e-03,-1.893361512873709736e-03,5.173026919364929199e-01
4.866695831205938294e-01,4.752115286448980180e-01,-2.945914362030588318e-02,-1.947277216390992226e-03,4.215008063663070056e-04,-1.133888786005728491e-04,5.105078220367431641e-01
4.793698714855836318e-01,4.876303240305582820e-01,-2.922758362975652613e-02,-4.311781527646646852e-04,-3.541050051618457352e-03,6.383849552640379890e-04,5.128160119056701660e-01
4.345256470794575110e-01,4.329626173434076297e-01,-6.660647707167305365e-02,2.050196129945082157e-01,2.953165657415769349e-02,-1.847135906650354195e-02,6.165156960487365723e-01
4.901523592302709509e-01,4.856069243975572602e-01,-3.094077308600567955e-02,5.541405524585227803e-04,-5.273975173419596582e-03,1.044427307334664940e-04,5.189166665077209473e-01
4.820132263916188098e-01,4.730357589709710542e-01,-2.619094699197954679e-02,4.935803296166012396e-04,3.094971190828569706e-03,-2.472913698063629664e-03,5.038228631019592285e-01
4.975353218997334848e-01,4.850735445163438797e-01,-3.152830342522744411e-02,4.148503033108560055e-04,2.513097897513285640e-03,-1.759408657475240766e-03,5.229715704917907715e-01
4.899682988794632488e-01,4.923419246164830176e-01,5.318478001219911766e-02,7.901641344424985974e-03,3.622346648940003543e-03,4.837707834534231768e-03,4.383139610290527344e-01
4.925415218915489834e-01,4.955921124332310912e-01,-2.973121539280321191e-02,6.085175588649028786e-03,-6.026780008682812093e-03,5.872656174116456032e-03,5.241134166717529297e-01
4.938319828948010137e-01,4.968815314565804275e-01,-9.714396886788490004e-03,-2.155632645884432951e-03,-2.571777999514846674e-03,1.830613391933048765e-03,5.051214694976806641e-01
4.727449013322692073e-01,4.507646728099171662e-01,-9.894038294547380374e-03,2.962117580750453158e-03,-7.166831585691452178e-03,4.855895433797476394e-04,4.722246229648590088e-01
5.174648633978922163e-01,4.514576333916438533e-01,-2.472435399178174453e-02,4.867977356528384834e-03,-1.052782072471442933e-02,-2.792805914033312780e-03,5.128008127212524414e-01
4.960285876142046524e-01,4.833348861938357444e-01,-3.027141503759217533e-02,-9.897466748329020224e-05,1.757850074739520816e-03,-2.406740547032188739e-03,5.200949907302856445e-01
4.927020409875920715e-01,4.789826814295448099e-01,-3.157433297201056588e-02,3.498380450498701864e-04,3.004002505722888888e-03,-2.457559655795076015e-03,5.175970792770385742e-01
5.029356173324146528e-01,4.517828869109237200e-01,-2.520599930557332335e-02,4.190936963695528032e-03,-3.672274767184209067e-03,-2.806353236944596902e-03,5.046296119689941406e-01
4.902063236508961697e-01,4.852169492899009451e-01,-3.193107958709312522e-02,6.786158705359310274e-04,1.854450074584534838e-03,-2.005592527272943675e-03,5.196835398674011230e-01
4.995091234180914497e-01,4.821688069243662000e-01,-3.347416023865024126e-02,2.724117940315587405e-03,2.564437321579066901e-03,-3.125302279363824549e-03,5.245960950851440430e-01
4.948744712989789907e-01,4.786146832562417353e-01,-3.159797163977323686e-02,8.472226444612477279e-04,2.821529472477801379e-03,-2.273251313269777744e-03,5.185738205909729004e-01
4.977822227881112394e-01,4.756680389833305989e-01,-3.161106997204238267e-02,8.743271134833295512e-04,2.431812021908480882e-03,-1.885328318516924341e-03,5.187194943428039551e-01
5.020458105996308262e-01,4.709926776550111271e-01,-2.873904708126528984e-02,6.740308363399073396e-03,5.535577207873409317e-03,-5.845313069369547851e-03,5.162799954414367676e-01
4.979721993653227763e-01,4.667081942794231164e-01,-2.813594486376125303e-02,-1.050174034505939045e-05,7.143914931238119076e-03,-3.111417650609342228e-04,5.113437175750732422e-01
4.920138658799877995e-01,4.947487609356527316e-01,-3.495400356636041428e-02,5.764690793773731038e-03,3.762679487627475401e-03,4.150239876206228027e-04,5.284756422042846680e-01
5.058616684680620201e-01,4.350895324044602441e-01,-3.456084786612995119e-02,-4.538944251859113044e-03,8.279359192728623015e-03,7.394805095729970129e-04,5.090063214302062988e-01
4.869172191146248219e-01,4.880160841009359984e-01,-4.434314424435714663e-02,2.028354223939078660e-03,3.184738063430526782e-03,2.896027373085089101e-03,5.318745374679565430e-01
4.720349893012781850e-01,5.318828179407347756e-01,-3.071114722256740315e-04,7.496793386747480255e-03,1.374570420223280632e-04,1.814649325303321903e-02,5.060771107673645020e-01
4.317622749243026359e-01,4.409734545866174082e-01,5.522075571597062638e-03,-1.395720106763661096e-03,5.608804084856052960e-04,2.427658134661278728e-03,4.309480190277099609e-01
4.907770187312708865e-01,5.014664199132075062e-01,-2.588834674417606063e-02,5.602859638435317598e-03,6.129368747414517052e-03,-1.909383203870114757e-03,5.223007202148437500e-01
5.038433479533742654e-01,3.910136191661851557e-01,-9.889725984618180643e-03,-9.009692010956761588e-02,2.491856872179468163e-02,2.920500659158397488e-02,4.974553585052490234e-01
4.772658746258213736e-01,4.975091065636424448e-01,-3.435359914978752816e-02,-5.181163586026143976e-04,9.214120822612857295e-03,5.201065748146046358e-03,5.223578810691833496e-01
4.913631474378116204e-01,4.948515182742283525e-01,-3.265186282855736533e-02,5.692876297809929854e-03,7.741837534401498425e-03,7.668537707348724308e-03,5.261989235877990723e-01
4.908502930591822633e-01,4.952722598828902534e-01,-1.450944807344789478e-02,6.791824363073075202e-03,-1.280863860124635285e-03,3.982641228360115845e-03,5.077731609344482422e-01
4.825861667123204635e-01,5.057977108100514263e-01,-2.758946951032331674e-02,-3.604385189410836288e-03,1.669947968252803380e-02,8.716940981368851912e-03,5.232241153717041016e-01
4.928711727365742701e-01,4.975709177730242572e-01,-3.100216626987817303e-02,1.139183278435580791e-03,-1.864711962823663207e-04,2.852465468281536586e-03,5.262659192085266113e-01
4.901027546191372153e-01,5.015288376279954941e-01,-3.239094159776279014e-02,4.493286558289438098e-03,1.077819174306091608e-02,8.057680206519890823e-03,5.288706421852111816e-01
4.807028464116125388e-01,4.982955268412712635e-01,-3.718681624885883386e-02,9.857410319724234544e-04,9.991080018912619140e-03,1.310889463371043250e-02,5.276818871498107910e-01
4.190621777004402970e-01,4.545439520341729711e-01,3.428945856605969400e-03,-7.835502657478751395e-03,-2.313654787346485268e-04,-3.719678804741592508e-03,4.347219765186309814e-01
4.893678190154076013e-01,4.943301851905870237e-01,-3.821647499103369983e-02,9.250636578129980319e-04,8.940648716609633220e-04,2.342108962213292848e-03,5.301030874252319336e-01
4.838928345325740898e-01,4.771283588051451474e-01,-3.505082968047368297e-02,2.237749681783726403e-04,5.893817418765508361e-03,1.062789915207210329e-03,5.156992077827453613e-01
4.716675131804933807e-01,5.833988526912103900e-01,-3.424962850775614687e-02,4.159485769151591988e-02,-1.650158849334115371e-02,-2.791615537713709391e-03,5.753203630447387695e-01
4.519284021986573752e-01,3.989754252339436924e-01,3.576803132397055052e-03,-1.823906301111249614e-02,-7.573429403846784584e-03,-5.862854449771804028e-04,4.257378578186035156e-01
4.152104265115504345e-01,4.515952104920842869e-01,8.924211657032221634e-03,-6.326064656260606787e-03,1.081670738043743812e-03,4.101847314114078109e-03,4.258509278297424316e-01
4.749788780755876405e-01,5.292850252363565655e-01,-2.434621426523647658e-02,4.316324254957874980e-03,-1.510038800775244383e-02,-1.034850411497216689e-02,5.295775532722473145e-01
1.641414747183742029e-01,6.142399658538846285e-01,-1.979288674944512660e-02,1.065514979459233624e-01,-3.920594205083533651e-02,2.169403556950955450e-02,5.994096994400024414e-01
4.752894112139987026e-01,3.831377201188224113e-01,-2.136810135143829559e-03,-1.518786696351291654e-02,1.468224799021831083e-02,1.257144465398568828e-03,4.401994645595550537e-01
3.651472167047735695e-01,6.159115216166011209e-01,-2.113645693626409194e-02,7.157873918693227755e-02,-3.481655943282955384e-02,1.097054303211265729e-02,5.730027556419372559e-01
6.437924522211586620e-01,3.049136405994455901e-01,-7.077398499706344381e-03,6.130208162070078376e-02,3.695201837378236237e-02,-5.366636873761949922e-02,5.847348570823669434e-01
4.170596930694336901e-01,5.138103859013010144e-01,-2.762079535970990429e-02,-1.117676090890487150e-03,2.123811520856009553e-03,2.822201599258207169e-03,5.001657009124755859e-01
4.696217825213025998e-01,4.435609442860051210e-01,-2.566894071141523348e-03,5.043192955132487151e-03,-8.484225974422401895e-03,6.944272880372527948e-03,4.601875543594360352e-01
2.933613038251086658e-01,6.430449487534009023e-01,-2.574703723004656553e-02,1.982492373603849667e-01,-4.431778898440728170e-02,-7.879188307159459836e-03,6.779989004135131836e-01
3.179898289762421726e-01,7.229283552929637313e-01,2.703760079258638038e-02,1.240457126385111769e-01,-1.064041767336209171e-01,-3.481681917716721031e-02,6.709771752357482910e-01
5.128727548628274624e-01,3.812754388541839679e-01,-1.170029517945875286e-02,3.050047317796028556e-02,-6.768662221584702786e-03,1.805752624783264065e-02,4.768320918083190918e-01
4.927497761466916870e-01,5.022437303038590484e-01,-8.076627200654051819e-03,1.109990625720968626e-04,-2.046958129552065020e-03,1.061375252840144256e-03,5.056560635566711426e-01
4.655496379365268722e-01,4.632864786008508706e-01,-9.628777677206767915e-03,6.369200502292656461e-04,-5.004695921794198241e-03,6.088999591251422492e-04,4.741325974464416504e-01
4.653658938728805206e-01,4.759343751762256103e-01,-2.039238550673166950e-02,-1.263967152803395326e-03,-1.785627515738731532e-04,9.031448504161338191e-04,4.911352694034576416e-01
3.112552935752784244e-01,5.614984336030508505e-01,-5.443600554456529128e-03,1.772779742744887491e-02,-2.136916057725619933e-02,-4.772274307348478226e-03,4.945226013660430908e-01
2.249752022755591718e-01,6.031162561582624759e-01,9.329622379409707733e-03,4.439148310245258702e-03,-7.271930167843722315e-02,2.542540594658909605e-03,5.357059836387634277e-01
4.268580624043819549e-01,4.842155572834295763e-01,-2.267117780196065135e-02,-2.635051750525973721e-02,-1.637394798854128336e-02,-1.479451207067351490e-02,4.844525754451751709e-01
3.381148320152896902e-01,5.308359809512218641e-01,1.344479807394161064e-04,7.976432543724312416e-03,-5.819222151690587344e-05,1.101787961721958052e-02,4.659004211425781250e-01
4.302102327292172124e-01,3.994390211018196135e-01,-1.925490672011570537e-02,-1.076117298711831288e-01,-2.768616509651198460e-02,-2.472735201783510250e-02,4.775038659572601318e-01
4.644695850991052977e-01,4.880879274299275150e-01,-2.014586935605267026e-02,7.861728128694316173e-04,-7.591448261392857869e-04,5.445919665285249220e-03,4.969389736652374268e-01
4.699443694094048163e-01,4.290691741248802149e-01,2.057004994497624306e-03,1.204587616227834751e-02,-8.600043275395154087e-04,1.040225328501680159e-03,4.493385851383209229e-01
4.341686663686268322e-01,4.676837929754504852e-01,2.898013178729841322e-03,8.718582080683962010e-03,1.458477407145355315e-03,-9.082407302572693053e-04,4.492311477661132812e-01
4.761326382289065018e-01,4.924492851765635004e-01,-3.853269264862085874e-02,1.104812290112610522e-03,-2.376070881231586059e-03,-5.223905919964626221e-03,5.231125354766845703e-01
4.687028368600663075e-01,4.913210891988012419e-01,-3.976022736038697936e-02,6.801636175487878633e-05,-3.938598700669677412e-03,-6.278630903823642119e-03,5.202995538711547852e-01
4.686119969229974869e-01,4.873130818640641904e-01,-3.970137393399347792e-02,-1.621304395222925411e-03,-2.349931725053572285e-03,-4.256653065944346337e-03,5.179932713508605957e-01
4.883593184746251037e-01,4.629681449598110898e-01,-3.445260654685206037e-02,-3.898004819832169652e-03,-9.348561764351585521e-03,-7.900181840952971365e-03,5.110746026039123535e-01
4.888983475476224028e-01,4.637687709071903752e-01,-2.200556369871636830e-02,3.000841347875291693e-03,-9.799555223675237778e-03,-1.153044582807940350e-03,4.991338551044464111e-01
4.724923447704630908e-01,4.753406314565136181e-01,-3.900290668932848703e-02,-9.914461347704569411e-03,-1.637069858425569454e-03,-2.158828997267439424e-03,5.132341384887695312e-01
4.991797842462303847e-01,4.927226335219916376e-01,-2.993280941697290531e-02,5.838486801267577398e-04,-3.180835046453398766e-03,-1.566133903340490453e-03,5.259505510330200195e-01
4.767972807860894058e-01,4.859828619771082714e-01,-3.569157521092536367e-02,-2.571879212950379991e-03,-4.824853086244211033e-03,-7.016389584302884334e-03,5.173723101615905762e-01
5.079808888186925220e-01,4.349862415305630892e-01,-2.680724722385235959e-02,-2.415385088996657194e-03,1.347842654221419710e-02,2.695445780695077901e-03,5.028659701347351074e-01
4.707510090997927832e-01,4.799559513039401981e-01,-3.626526314727129829e-02,-6.143504048365048230e-03,-7.636075537978447361e-03,-6.022174266011029106e-03,5.120685696601867676e-01
5.400724421309498480e-01,3.977392853564152286e-01,-1.898928256987214569e-02,2.934648817905975357e-02,7.651082144575057026e-04,1.219418633413199213e-02,5.062284469604492188e-01
4.683595656767003401e-01,4.600239834390342786e-01,-2.794181821813851441e-02,-2.576467094935280810e-02,-1.700122533868438784e-02,-1.554442049268568195e-02,4.958135187625885010e-01
4.439710647556112111e-01,4.411753004894344299e-01,-9.547237259656393693e-03,-2.377787618200301410e-03,-1.524008972947598880e-03,-6.662954282243685467e-03,4.523006081581115723e-01
4.773662021645199705e-01,4.759345378841359220e-01,-4.077462509538554158e-02,3.360634662327420134e-05,-1.533663242104119518e-03,-2.990410627030596485e-04,5.174335837364196777e-01
5.055998359836958445e-01,4.350294444330622956e-01,-2.416491490261318820e-02,-3.092524503554511164e-03,1.333770081795134475e-02,1.984387621553216231e-03,4.988179504871368408e-01
4.919470885585490727e-01,4.874803007985594183e-01,7.904841714873928060e-02,2.671580803769134805e-03,1.317555716261934427e-02,-3.314212688219128795e-03,4.113831222057342529e-01
4.703880943018232119e-01,4.825029464789361566e-01,-3.997123611078667871e-02,-1.028821903950344775e-03,-2.493515326058230730e-03,-5.055316503145573619e-03,5.166186690330505371e-01
4.250440934545228755e-01,4.515663399265289479e-01,-4.626423951367253373e-03,-6.164252882247344030e-03,1.411359563757232679e-04,7.231610921924477159e-03,4.438321292400360107e-01
4.592225323978639251e-01,4.568828037853379653e-01,-5.536754592505410688e-03,1.051552351528423253e-02,-3.528895276098747372e-03,4.808260209397197463e-03,4.640664756298065186e-01
4.813910657832226603e-01,4.430443731513165062e-01,-2.483979198400010358e-02,-5.745681320981197229e-03,1.582865653929345362e-02,1.431416680787802242e-03,4.890651106834411621e-01
4.875899469183603285e-01,4.955735800678015002e-01,-4.077251594318431760e-02,1.982606132303401780e-03,4.329903729717494727e-04,2.008220275557610381e-03,5.324221253395080566e-01
4.549493727641878982e-01,4.521268308187426088e-01,-4.614352724858106214e-03,8.398398286879528440e-03,-3.971990437647682747e-03,4.498554002200043193e-03,4.585076868534088135e-01
4.340879007598019146e-01,4.708909891533328840e-01,2.337965053775814539e-03,4.110391736422036590e-02,9.284934396773725966e-04,5.005843496476669076e-03,4.569448232650756836e-01
4.875504436066877556e-01,4.955468759123712319e-01,-3.828750598366187363e-02,-9.555310438745027416e-05,1.601440780806254649e-05,7.212852009138545455e-03,5.300287008285522461e-01
4.485622112938133510e-01,4.553174958881962553e-01,1.800391051313798840e-03,1.778200811480486546e-02,1.878099270639545107e-04,1.536805260534714274e-03,4.512377977371215820e-01
4.118901912922927067e-01,4.739952523800500250e-01,-6.519380000450269996e-03,2.390804018222577113e-02,-2.158983952328496179e-03,7.174309168923696453e-03,4.547440409660339355e-01
4.522469544352999971e-01,4.550835181496794002e-01,-2.084743417945927879e-02,-1.934601025291422588e-03,7.641576514606453555e-03,1.179829134053341205e-03,4.747197926044464111e-01
4.127382151614308325e-01,4.724434144768883681e-01,-8.262899129100609308e-04,2.123806493036543147e-02,3.899547035617726169e-04,4.376177612873442292e-03,4.479992687702178955e-01
4.454817064151246342e-01,4.578161487325257961e-01,8.545188370556733304e-05,7.224274116566866549e-03,1.347997370058566773e-03,1.866164204085516516e-03,4.518806636333465576e-01
5.893452812966670784e-01,3.420857491200330336e-01,-2.717535125389480832e-02,-2.386626415793607903e-02,5.212649008247344923e-02,8.587966034748109601e-02,5.663749575614929199e-01
4.875579607346058886e-01,4.943543220636957836e-01,-3.675140146667754681e-02,1.903755726442738676e-03,6.716125693963126853e-04,3.298415247243988591e-03,5.277828574180603027e-01
4.535235557114146721e-01,4.762467413665418814e-01,-3.226227329290676238e-03,5.924570636294904102e-02,-3.060748196907638052e-02,8.463009249789526373e-03,4.827742874622344971e-01
4.698899144600776068e-01,4.902819013489804201e-01,-2.635454522345237471e-02,3.690299683236733519e-02,5.639389093837320586e-03,-4.606920931716974865e-03,5.109191536903381348e-01
4.611190777042541988e-01,4.561726029523625048e-01,-2.511106151000602749e-02,-1.264624832915866789e-02,1.116729349619765936e-02,1.124432177896287667e-02,4.850487709045410156e-01
4.363852464051171665e-01,4.408917168571511169e-01,2.445303900627693316e-03,-1.712215936293513645e-03,2.150101642265798453e-03,2.051551012066664056e-03,4.362510740756988525e-01
5.012994676048452281e-01,4.774421372151034237e-01,-3.516188944676779116e-02,-7.827005594214692151e-04,-1.554106369917998337e-03,-3.709878601543797200e-03,5.249873995780944824e-01
4.948303571105683862e-01,4.808851454188789454e-01,-1.916881731720843085e-02,-5.948710163498332343e-04,-1.395009802557350444e-03,1.900700314236976026e-03,5.071878433227539062e-01
5.130686237410992945e-01,4.115628132063946509e-01,-3.089747486186789072e-03,-2.878041241400021433e-02,-1.886276711293378289e-02,-2.826658033998367611e-02,4.798741042613983154e-01
2.627298030783273286e-01,6.998989528114838432e-01,1.233911230499129541e-02,-6.065482198284288806e-02,-7.115843072279411097e-02,7.083068065402951807e-04,6.241030097007751465e-01
4.721393220537556390e-01,5.236087659992387788e-01,6.742908392932789319e-03,4.821101539639107217e-03,-8.691004437553821738e-03,-7.901212867067925610e-03,4.936397969722747803e-01
3.735680421643304827e-01,5.971959076562938229e-01,-2.211432265842516731e-02,1.436519896943225238e-02,-3.504389950969322154e-02,3.033095295676268167e-03,5.471658706665039062e-01
4.556414136664752590e-01,4.526089076369265163e-01,4.456752899262284018e-04,3.443193526203342826e-03,-1.601077913426388142e-03,6.036638657903198053e-04,4.537359476089477539e-01
4.943558583211823398e-01,4.948265707557836235e-01,-2.460985435223822515e-02,-6.411558051695430958e-05,-4.380733972704899636e-03,-8.283755525447230933e-04,5.192586779594421387e-01
4.584758042294470037e-01,5.262247629532342819e-01,-3.098734387228657683e-02,1.877106577106788660e-02,4.810491580286826996e-02,2.427930208316176827e-03,5.341738462448120117e-01
4.618659325500679702e-01,4.681379433843424476e-01,-1.392353435423981933e-02,5.099800994635700011e-03,-5.917737747835547131e-03,5.359949487852561437e-03,4.792372882366180420e-01
4.102795804550797287e-01,5.799434599055189876e-01,-2.841159314408359116e-02,-3.272273635666859450e-03,4.534296730541272080e-02,1.831044252323666549e-02,5.503378510475158691e-01
4.946164534101253896e-01,4.868362560864487598e-01,-3.109179971545367183e-02,-1.452948478188632268e-03,1.997392194857419440e-03,-1.644140977748910579e-03,5.218869447708129883e-01
4.471038971542663498e-01,4.547369829048892864e-01,-6.458350388081623983e-04,3.324844185849703659e-03,-6.447586379031167722e-04,2.757083008125309469e-03,4.516780078411102295e-01
5.002469470620016789e-01,4.964121415508425117e-01,-1.935738031819583815e-02,4.693405810709117671e-04,3.844370089911018033e-03,-9.482223890513220583e-04,5.177436470985412598e-01
4.944652153724620192e-01,4.908668183416111663e-01,-2.754468809771282167e-02,-2.937926951443074492e-03,1.701009499431494279e-03,-2.216119549329038756e-03,5.202674269676208496e-01
4.971160268124648618e-01,4.896215821339874319e-01,2.001370811870012423e-02,-4.441716177857519578e-04,6.274032927585333763e-03,-2.127903532684894457e-03,4.735392630100250244e-01
4.805483592470299326e-01,4.959504033715117499e-01,1.714527539167376435e-02,8.023342021795059828e-03,1.674220979849986440e-02,-8.596549476247428850e-03,4.726232290267944336e-01
4.646549940668814882e-01,4.813564875568878687e-01,-2.227297157242058567e-02,2.526063293799479803e-03,-1.161400539087848729e-03,9.509607400057209364e-03,4.957869350910186768e-01
4.407531225364966776e-01,5.130357065587913823e-01,-2.807309972118687824e-02,-5.986496019291621474e-04,-8.636598805245030916e-03,-1.893117009101155310e-03,5.090641975402832031e-01
5.770697584234365518e-01,2.055124956521630630e-01,-1.061835169933350309e-01,-2.448666487505409273e-01,4.667870733371123210e-02,5.205981084440135936e-02,7.386261224746704102e-01
5.403226944753101169e-01,3.188810494542709262e-01,-1.585547771959477936e-02,-1.053032523159299627e-01,1.206798065848896546e-02,5.249446947508432451e-03,5.186477303504943848e-01
4.923101304587245153e-01,5.005367056948032412e-01,-5.308243970011283785e-03,1.597813896825891989e-03,-2.277047917051980286e-03,-9.899984784152572430e-04,5.018082857131958008e-01
3.380381044286617787e-01,6.011775882918657388e-01,-3.909919609647294347e-02,-8.657839743476059002e-03,-3.186777150149667365e-02,1.187450198608843398e-03,5.603484511375427246e-01
4.841242366258616814e-01,4.985771442908688567e-01,-3.004567753395342988e-02,2.522737346854917774e-03,-9.542298853025023286e-03,1.211675622103989798e-03,5.218309164047241211e-01
4.310251364481608172e-01,5.182671602041678538e-01,-2.866292902703010403e-02,3.467193156756990559e-03,2.414612627006608968e-03,8.902234450215668971e-05,5.090009570121765137e-01
3.948038274818728710e-01,5.289676253749276968e-01,-9.293228575389556045e-03,4.170844863585707225e-03,6.462078480641859218e-04,5.825069890478199418e-03,4.854531884193420410e-01
4.673072272852160647e-01,4.958111628505649238e-01,-3.166780909101318819e-02,-2.679557228077179051e-03,-7.343566109618561780e-03,-9.163051746248925683e-03,5.142436623573303223e-01
4.368715436914768491e-01,5.328399092086070210e-01,-2.580598126629535249e-02,3.778351014094389823e-03,-2.173402675039469087e-02,-8.300956502433681425e-03,5.189889073371887207e-01
3.375460665848549202e-01,5.847063525243791915e-01,3.339827412713058941e-02,5.367604639949831447e-02,-5.142857363776884294e-02,-6.150237329460699412e-03,4.954380691051483154e-01
5.032601717626741245e-01,4.831554993687457999e-01,-3.292867849626007759e-02,3.947081443528578626e-04,-1.036394651567065870e-03,6.835987252447122201e-03,5.265611410140991211e-01
4.898022835265421482e-01,5.281420983104576639e-01,5.728126669084204758e-02,1.256404069358444710e-02,-7.589536314539208940e-03,-1.162528575355171491e-02,4.540693163871765137e-01
2.987594079834179350e-01,4.628059531361699563e-01,5.262078932668445841e-03,-1.195348410518067561e-01,-1.187013759465395044e-02,-1.484351242640885105e-03,4.522103667259216309e-01
3.267836407170158219e-01,5.413490346419022048e-01,-2.632654605142387139e-02,-1.183314980881404049e-01,9.530531872701916013e-03,9.983637835886812958e-03,5.376512408256530762e-01
3.571870866922598475e-01,4.853805811429312000e-01,8.662586968490870731e-03,-6.938400761013230333e-02,-1.589536522089723784e-03,2.859547174292508746e-04,4.438825547695159912e-01
3.533716421152389153e-01,4.762354121178782318e-01,7.385195637656993828e-03,-3.155290011939630712e-02,-3.267582446559558641e-03,-2.127265815329871038e-03,4.246689081192016602e-01
5.090721985695237928e-01,3.804673644591382575e-01,-1.064710435319138337e-03,-1.094547714578722811e-02,1.407272978224765290e-02,1.429655508878424153e-03,4.605784118175506592e-01
5.507414735753384250e-01,3.614350315724426665e-01,-7.897782113775841939e-03,4.444459950577395006e-03,-1.185960082329465086e-03,-2.027330360219787089e-03,4.921753108501434326e-01
4.969775561540206166e-01,3.884249348588947326e-01,-1.339803138163297991e-02,-4.874305788344451135e-02,1.819640996147817505e-02,1.392160507278048139e-02,4.749386608600616455e-01
3.243578050346137553e-01,5.107085797087898005e-01,1.138583951870270061e-02,-1.923790075767394664e-02,7.681858365140853927e-03,5.646032054679421194e-03,4.386155307292938232e-01
3.082122613896168817e-01,5.303774893385835298e-01,1.034799701652977522e-02,-3.471883078689066288e-02,6.857460485120941800e-04,8.693330742586878254e-03,4.561797082424163818e-01
2.551322388239318784e-01,5.510024411920197984e-01,3.282307838372244824e-03,-7.161174374291737199e-02,-9.509712621901570198e-03,-1.603015253577986252e-03,4.910663962364196777e-01
4.857360272993894168e-01,4.152742164458645413e-01,-1.656566880670223840e-02,-9.513570965341994548e-03,2.141085807728823620e-02,1.501668328481619782e-02,4.734998047351837158e-01
5.532638483194008971e-01,3.404865613805984070e-01,-1.241411197340458461e-02,-8.639431376142775454e-02,3.077964997961538107e-02,3.426268635175913624e-02,5.231235027313232422e-01
3.077459421806224005e-01,5.476358255953706067e-01,5.929444393248051171e-03,-3.117636884800689678e-02,-1.551500304841545164e-02,-4.129206713431496020e-03,4.740593433380126953e-01
4.759612775685266861e-01,5.088832746095007797e-01,-1.220945000885242937e-02,-7.787330129037056507e-04,5.901451121873901862e-02,3.523291767227674370e-02,5.192688107490539551e-01
4.569826239178670368e-01,4.271370931090404111e-01,-1.950224012876922153e-03,-9.416838596767361513e-03,1.172269523862614661e-02,2.165893782468297519e-03,4.455394446849822998e-01
4.850898684238951208e-01,4.900045429680870424e-01,-3.614824794997389956e-02,-6.992622787370585818e-04,4.002663859892611163e-03,2.750642182552450344e-03,5.237817168235778809e-01
4.860625173321897474e-01,4.905350691088209425e-01,-3.066862567199596379e-02,1.334073742863799194e-03,2.716639395182743593e-03,-3.518026424020053496e-03,5.190441012382507324e-01
4.851131098546840326e-01,5.007912696067050584e-01,-3.161655784172512362e-02,1.042903254184435625e-03,4.691106908774875239e-03,-3.709272563179030324e-03,5.248497724533081055e-01
4.536912110354732741e-01,5.136860821902781149e-01,-2.617871387938536243e-02,9.237405602704687121e-03,1.202231159974467833e-02,-2.657152880251984449e-03,5.132007598876953125e-01
4.852454446318570924e-01,4.960349091482992856e-01,-3.279604006713193742e-02,2.017314636840868544e-06,5.667727385451710488e-03,-1.018500868029377851e-03,5.236145853996276855e-01
5.143775856963860305e-01,4.228779982004287064e-01,-2.538670005436954868e-02,-9.851588681906700909e-03,5.455761494530688045e-03,-1.669640764059564762e-03,5.007177591323852539e-01
4.289314186566414167e-01,4.437076834552000082e-01,4.061320655714795169e-03,-8.279996292865418953e-03,3.366433216524517338e-03,5.252298630116811889e-03,4.328202307224273682e-01
4.656802621444590118e-01,4.269285475269585794e-01,-2.461974430674918057e-03,-9.144125978455826254e-03,7.925360414819586016e-03,2.187848069450953718e-03,4.505232274532318115e-01
6.466014722922258651e-01,2.259334467385860912e-01,-2.622081803170811520e-02,-1.513184610558232154e-02,9.592564091640068402e-03,6.462343666716551492e-03,5.896650552749633789e-01
5.885271177304931545e-01,1.999512239964220117e-01,-2.443472053263712196e-02,-8.803099795426079510e-02,2.277740584065210058e-02,3.948800178919740361e-02,5.639272332191467285e-01
4.921500800956331023e-01,4.900461934168497402e-01,-3.493516523891426750e-02,4.109674600146847809e-03,6.633871598676600000e-03,5.794195003201038641e-03,5.263057947158813477e-01
4.351523504463815084e-01,4.360539510025692733e-01,4.307682440883253694e-03,-3.416707603137478927e-03,1.783186127116603023e-03,1.521304533765010776e-04,4.313479065895080566e-01
4.276144738154683544e-01,4.885212862505227127e-01,-2.426953795485997656e-02,-2.632952465870739417e-02,1.638416908196655211e-02,2.317686652839697978e-02,4.898246228694915771e-01
4.751466704516787987e-01,3.701836521262938939e-01,1.039017176267093001e-02,-1.775141859992261650e-02,5.407012230681756786e-03,-4.857656506435727465e-04,4.233997464179992676e-01
5.457414848641685134e-01,3.793828910003270161e-01,-1.535873160996675812e-02,-1.565766613567594638e-03,1.272296026482604321e-02,1.629371466607051552e-02,5.004540085792541504e-01
5.694998809419303809e-01,3.529810128655945789e-01,2.818407830182756424e-02,4.701169449896881736e-02,-2.111856341105671636e-02,7.198990193378461411e-02,4.961996078491210938e-01
4.532314177858198789e-01,4.526812999717562680e-01,-7.379511242245340163e-04,3.062018174629260823e-03,5.263634119541114637e-05,7.550023394356810118e-04,4.537274539470672607e-01
6.714015535427482195e-01,1.638524827903341807e-01,-1.054055774520434030e-01,-2.461545828367259908e-02,6.820432604575084323e-02,6.979077980914640510e-03,6.947568058967590332e-01
6.288055751950304417e-01,2.880786443438201894e-01,-2.598865337690448030e-02,-6.164937584447065938e-03,2.792120200495356100e-02,2.654465783532792764e-02,5.712363123893737793e-01
4.532542212090704403e-01,4.509189618620358386e-01,9.349570347633728851e-04,2.039466366204877382e-03,1.294947991619745369e-03,1.217274554900006330e-03,4.511804878711700439e-01
4.929809895932872887e-01,4.850244322699688304e-01,-3.268543102938936684e-02,-4.003531363516268145e-04,1.253512762382222485e-03,-6.361205797472345956e-04,5.217397809028625488e-01
5.906131994197090229e-01,1.816657534465128399e-01,-7.161157068089585298e-02,-1.289810740000996714e-01,6.580492119310990540e-02,3.301573183296595965e-02,6.333512663841247559e-01
5.716019229838376070e-01,2.755898482256543547e-01,-9.631338536251976556e-03,4.851062235948785939e-02,-1.833179827284261293e-02,1.406690722722350392e-02,5.119226574897766113e-01
4.623977612336073184e-01,4.778991720787957864e-01,-3.071951936465006083e-02,-2.020695926099401463e-03,6.162644242717520669e-03,9.487693771228199527e-03,5.014430880546569824e-01
4.230111421549321848e-01,4.764951927017033739e-01,-1.212617302611590508e-02,-5.302917162402801150e-03,1.209211855587490232e-02,1.890932376238841847e-02,4.659116268157958984e-01
4.339515425540722005e-01,4.629186476686900087e-01,-1.406534242035489823e-02,-2.645987467608826998e-02,8.863580741402588004e-03,1.067710475607866472e-02,4.660622775554656982e-01
5.371109026713976053e-01,3.492400698346974086e-01,2.099472474227925822e-03,1.267397993326426983e-02,5.906938933475194310e-04,-3.039543258333711321e-04,4.706408977508544922e-01
4.578393061938031416e-01,4.638691703264442578e-01,-1.264546280884476515e-02,-5.662992643059254656e-03,8.659337751331493138e-03,1.097861673772619444e-02,4.742488563060760498e-01
4.947441317462797361e-01,4.841455100385947397e-01,-3.140995506185878527e-02,-8.620870881373623052e-04,1.562480025264411645e-03,-7.193245642964962759e-04,5.209463238716125488e-01
4.404262938621685830e-01,4.647009717926290362e-01,-1.350176764716187749e-02,-2.458289108362624650e-03,5.647346117455211492e-03,1.171774655459572809e-02,4.671023786067962646e-01
4.566348493318882484e-01,4.750056712240239287e-01,-3.177709607027445760e-02,-4.273843994381854895e-03,6.948935322165475555e-03,1.081605630949125652e-02,4.984043240547180176e-01
4.863385310918548199e-01,4.865063818034612853e-01,-3.730859636042299643e-02,-7.237979543929134226e-04,1.208600109439879680e-02,1.229264286481343213e-02,5.245830416679382324e-01
4.864879917660205333e-01,4.867007467133410703e-01,-3.959910567757696231e-02,-5.884651994823476709e-04,2.839688639872322597e-03,3.327329329547160357e-03,5.262490510940551758e-01
4.900006024623597689e-01,4.997760793498668974e-01,2.915196525036345410e-02,1.112056213466490733e-03,-4.436892331246394469e-03,1.028860083752175178e-02,4.662213921546936035e-01
4.769994581067469319e-01,4.914343549107524911e-01,-3.763460189809197942e-02,-2.151664208691910721e-03,6.018881788119942802e-03,8.628042213892824289e-03,5.223324298858642578e-01
4.916043011398097962e-01,5.003685130886323940e-01,-3.877742972907710639e-02,4.724918850812324066e-03,1.036593663178031824e-02,8.259062856186933158e-03,5.353727340698242188e-01
4.867815828818754520e-01,4.949117687395180876e-01,-3.007818557002189808e-02,4.925956004125472965e-03,1.309944878118110556e-02,7.558738032755158570e-03,5.217003822326660156e-01
4.894195944882389626e-01,4.944290423157226000e-01,-3.266718058234385769e-02,4.624583270732680884e-03,5.893852406211795526e-04,4.813044430885972565e-03,5.247377753257751465e-01
4.846909526006576430e-01,4.949600872199307888e-01,-3.775266314579295290e-02,4.133645660757050665e-03,-1.554309427078027377e-04,-3.357614626191686804e-04,5.277020931243896484e-01
4.560467473450343645e-01,4.596277258450170433e-01,-5.923353142668730253e-03,4.485576450849881880e-02,1.012809953661762512e-02,-1.014344847603800177e-02,4.708885550498962402e-01
4.453610493751179455e-01,4.577413991611521960e-01,-1.698354996125239769e-02,9.549110744449214316e-02,1.570889505051418361e-02,-1.386224259664681907e-02,4.983093738555908203e-01
5.453998202504760640e-01,2.988449735660261841e-01,9.205067281384482492e-03,-1.144472701022143657e-02,5.082897046783425507e-03,-1.146722853804672338e-03,4.653677046298980713e-01
4.638122732145208427e-01,3.807983376455003621e-01,-4.481937769114152648e-03,6.675015823481529609e-02,1.521544979140714536e-02,-6.936208942999873631e-03,4.489113986492156982e-01
4.699049813127378905e-01,3.720291868211282327e-01,-3.486319339534194039e-03,7.226508446137167030e-02,4.846059242728771761e-03,-1.220556604759734289e-03,4.506518542766571045e-01
4.479322537600316512e-01,4.788645939962318243e-01,-1.746029531945891833e-02,1.380907958687223325e-02,5.633686941151854963e-03,-1.101463748213084987e-02,4.826737642288208008e-01
4.180822336154118024e-01,4.552696163652615868e-01,5.485180046658655328e-03,-3.668688580067545196e-02,3.985224473745351860e-03,6.532276565456625154e-03,4.372368752956390381e-01
4.761588417247084593e-01,4.348831914928039666e-01,-1.975903055247313356e-02,1.543718257599582463e-02,7.987156427891590679e-03,-5.509284264819373604e-03,4.776675105094909668e-01
4.661832955719257821e-01,4.402664594791338426e-01,-8.792161039977208770e-03,3.832410819143874242e-02,1.284460314021711180e-02,-1.313693102421651000e-02,4.683827459812164307e-01
5.400111066061471510e-01,2.069864287822515969e-01,-2.156754709090166755e-02,-1.869406318264146827e-01,-4.424288097239135326e-03,1.169710497406015268e-03,5.866512656211853027e-01
4.809511639842678488e-01,4.535829576543807251e-01,-1.846475241370654219e-02,2.947984319556397684e-03,8.297499515589612518e-03,-5.825844527018640695e-03,4.866534769535064697e-01
4.781086054056277179e-01,4.582393766960566328e-01,-1.835500111093280040e-02,6.961610690090721566e-03,6.459857756367358775e-03,-6.739165567783553766e-03,4.872508347034454346e-01
4.397429354618909714e-01,4.319022469966892763e-01,-1.097459721232507679e-02,-1.292995227807420822e-01,-1.571974405392735944e-03,-3.239080847466522389e-02,5.029749870300292969e-01
4.330332408424367729e-01,4.249757396678468524e-01,4.478675564742351511e-03,-9.839264765641323254e-03,-1.134782748486624655e-03,-1.659120517971116775e-03,4.249393045902252197e-01
4.765285000013110839e-01,4.873887325683596838e-01,-4.144850726506832395e-02,9.019581500086757417e-05,-1.094180749760372212e-03,-2.534097184732158736e-03,5.235134959220886230e-01
4.776990402663454649e-01,4.838165425751198567e-01,-3.934242029744222657e-02,-1.034431737192280029e-03,4.267310533974066206e-03,7.084085797382940440e-03,5.203275084495544434e-01
4.652973608942089223e-01,4.584352406984009143e-01,-2.363291647001181106e-02,-3.175365672400847980e-03,5.443278883052520174e-03,9.708882039067303488e-03,4.859493076801300049e-01
7.222731650197597997e-01,1.547172765486101997e-01,-8.864600045474552159e-02,-2.293409828904846917e-02,3.173830067041765596e-02,6.481379265824161080e-03,7.240121364593505859e-01
4.240460458140105082e-01,4.380011410479918155e-01,4.955055035708699762e-03,-9.549053632239949685e-03,-1.193192716431467140e-03,-1.071260073129133702e-03,4.265697300434112549e-01
4.733522238849725561e-01,4.631857990209148346e-01,-3.342705961185149510e-02,-3.733269986812054811e-03,9.190872229785165826e-03,6.106009294106370250e-03,5.021787881851196289e-01
4.404427177494248946e-01,4.303702668870148518e-01,4.281814152103213811e-03,-4.483371444004909979e-03,2.582576744914433578e-03,8.353180917427525422e-04,4.313084483146667480e-01
4.763856490411121358e-01,4.608944329930319550e-01,-3.353367805882284669e-02,-2.542985371527891128e-03,1.023194654542570678e-02,5.377408987272433265e-03,5.027709603309631348e-01
4.494964825146028353e-01,4.133332110441108043e-01,1.005235287893430085e-02,-8.435532945057234652e-03,3.935877393706608066e-03,-3.296178927847572947e-04,4.228326678276062012e-01
4.808119313589921395e-01,4.797841527395957928e-01,-4.245501839930615473e-02,-1.185671386957716858e-03,2.775992044676029932e-03,6.230582077767640118e-04,5.227810740470886230e-01
4.764260039623856580e-01,4.592686543758702777e-01,-3.052365791599437328e-02,-2.442371359591756583e-03,1.635497498260015531e-02,8.939966254228824336e-03,4.996544122695922852e-01
4.223683524495706054e-01,4.884462443958418332e-01,-2.072338190024664017e-02,-4.885645734064088253e-02,-3.293682787386583571e-02,-2.926298735708077192e-02,4.929091930389404297e-01
4.529140302334626611e-01,4.132887875297195368e-01,4.385690052504331859e-03,-7.021305574782516108e-03,-7.364666537570903337e-03,-4.625477588409253197e-04,4.304486513137817383e-01
5.303833166592786252e-01,2.976391581704266320e-01,-8.205486425381589011e-02,-2.554853889771714348e-01,-4.997073839126421439e-03,3.700261689707905633e-03,6.947253346443176270e-01
4.475472314692382492e-01,4.900081971756631294e-01,-2.965112287618926201e-02,-6.069804941543291074e-03,8.953082384644182184e-03,1.478991524869230877e-02,5.007901191711425781e-01
4.463953965771432220e-01,4.393403858168045684e-01,-9.707361031443761945e-03,-9.177375988870148729e-03,-6.746950742803135663e-03,-1.805006575662535494e-03,4.530570507049560547e-01
4.710866504395130328e-01,4.775588914450087374e-01,-3.267855725026941327e-02,-2.675508759764847009e-03,8.565472752995182890e-03,7.264743105571526936e-03,5.074265003204345703e-01
4.817503710036207254e-01,4.867646083351424013e-01,-3.944717470759351308e-02,-2.215562822259398612e-04,9.038816932453664493e-03,9.469439729721168542e-03,5.242133736610412598e-01
4.512670367060170884e-01,4.546376603649731063e-01,-1.346906108024958915e-03,2.729692621856633604e-03,7.256571270647626777e-04,-3.806114081082740818e-05,4.543349742889404297e-01
4.895247532328392825e-01,4.905791704387957308e-01,-3.967712324313360517e-02,5.842723520642062636e-03,7.005081322590121957e-03,8.653909142883189215e-03,5.301773548126220703e-01
4.894417673528349555e-01,4.851757821306192930e-01,-4.126478883040557433e-02,1.892767841790299853e-03,2.289275153417975710e-03,6.738865227874685400e-04,5.286127924919128418e-01
4.843932987657734168e-01,4.863162653329691221e-01,-4.008912933287034353e-02,7.942156584749053777e-04,7.705258149890557851e-03,4.810742251512747057e-03,5.256838798522949219e-01
4.885508302406204040e-01,4.732638406738677861e-01,-3.937237095246537422e-02,-2.064512361628256971e-03,1.377073711139341697e-02,1.169045258567187259e-02,5.213999748229980469e-01
3.951371945671989239e-01,4.970962813457348028e-01,-1.818997061950322625e-04,-4.385869643108620403e-02,9.322575377068469810e-03,1.525795039657954454e-02,4.622868299484252930e-01
3.208143747908935861e-01,4.704346939420915308e-01,-2.127168055919670397e-02,-1.551366531948139837e-01,2.789555165523413191e-02,1.028306343224388505e-02,5.152145028114318848e-01
3.185736015364777352e-01,5.204097903162834271e-01,-6.470120142184293544e-02,-1.636661240053161048e-01,1.808320944246400233e-02,2.296464335858456468e-02,5.898466706275939941e-01
2.100277739936267096e-01,5.204841623155880281e-01,-2.599004094223303363e-02,-1.839197717548456124e-01,1.037436664424034975e-02,8.949531613783855491e-03,5.721917748451232910e-01
5.313305541722838088e-01,3.596941948486155338e-01,-1.487378934779309825e-02,-5.566393383439917179e-03,5.989320370201119993e-03,9.540381454882033421e-04,4.839968979358673096e-01
3.817845516586282351e-01,4.901737151128140457e-01,4.628966382351107356e-03,-6.148442244963867737e-02,2.342436731746224202e-02,1.602840947560111098e-02,4.567624628543853760e-01
4.506896942273957984e-01,4.418778556998095297e-01,3.167588498163009803e-04,1.292040091962166209e-02,9.608678680862373480e-04,1.321523425860515267e-03,4.466023147106170654e-01
4.879075484554362685e-01,4.648209959214199549e-01,-2.811711049259341122e-02,4.868912641253241025e-03,6.555615444269647860e-03,-5.865185665219617428e-03,5.051776766777038574e-01
4.950724224227357473e-01,4.894732154908917887e-01,-3.232035374748487566e-02,-3.570885554388123287e-04,1.058370194918570317e-03,-2.032017096906000263e-03,5.246309638023376465e-01
3.116144888510834488e-01,4.199102536816638476e-01,-1.420964939117962678e-01,-2.517249616805967705e-01,3.289960003691481949e-02,9.534528954001132012e-03,6.784783601760864258e-01
4.964642172188578062e-01,3.868736971156421789e-01,-8.577161661812437998e-04,1.421272483686503336e-02,7.646222234888552446e-03,6.319705524942133930e-04,4.534534215927124023e-01
8.180486957492048017e-01,2.884808338638121805e-01,-1.683111763533245986e-02,1.054848520967235220e-01,2.448069637947606486e-02,-7.082095944350719208e-02,7.652233839035034180e-01
3.117710604283958631e-01,5.632328128322519056e-01,2.326487127390675091e-02,4.408748678776721469e-02,4.762056647700783213e-02,-8.839367844504715174e-03,4.815452098846435547e-01
3.407328719980926568e-01,5.224500043749386036e-01,1.136204787807182370e-04,-1.127641813720098446e-01,1.295632388383874747e-02,1.532058990570202284e-02,5.002939105033874512e-01
4.907731032736249999e-01,4.929532320398098411e-01,-4.167320441741806381e-02,4.807651910941126809e-03,2.404956309710765908e-03,3.004438176937321032e-03,5.336463451385498047e-01
4.901490836170453447e-01,4.948859365733774274e-01,-3.047738790606463466e-02,1.334610568058798965e-03,3.567717611357947537e-03,-3.018419337891404576e-03,5.230787396430969238e-01
4.687804852507745368e-01,4.894594521681526200e-01,-2.856673681885535387e-02,3.380299702854330096e-03,6.912434265911495367e-03,-9.843267309890275929e-03,5.084632039070129395e-01
4.721133178174274914e-01,4.309140176442035619e-01,1.848856532085052518e-03,7.879908607363813461e-03,4.700952316908740998e-03,-1.043725979961639301e-03,4.513616263866424561e-01
4.706968233806375634e-01,4.838894573774424335e-01,-2.744048537225551865e-02,3.589041163359408312e-03,8.343479990355846809e-03,-9.797356792410862741e-03,5.053929090499877930e-01
4.920857755703249570e-01,4.876201982998925044e-01,-3.292811731564404543e-02,-1.640407325659762805e-03,-1.210331466404398436e-05,-1.822407657038643608e-03,5.228126645088195801e-01
5.572408393932870574e-01,3.165965519274789863e-01,2.028577412211240993e-03,-3.936692301716183603e-03,1.022085654965611094e-03,-7.175946741652852571e-05,4.822979569435119629e-01
4.978360683604532433e-01,4.911423916935920841e-01,2.627681656171299007e-02,-2.732913848130409662e-04,-1.105305636572024018e-04,8.566326212943219456e-03,4.684835970401763916e-01
5.185552016160405175e-01,3.982802643446003432e-01,-1.093466265558334927e-02,3.403576078903035752e-03,1.069184192218473016e-02,9.748093898587870555e-04,4.811670780181884766e-01
4.835777004705412718e-01,4.870144566709770917e-01,-2.502038293159897231e-02,6.211003085445527053e-03,8.473899764881652821e-03,-1.233711936390861040e-02,5.110963582992553711e-01
5.226878188566448369e-01,3.654622248869996981e-01,-1.359263678485922444e-02,-1.088317097447952242e-02,-1.591798502790273996e-03,-7.141084509265595206e-04,4.778745174407958984e-01
5.477197828291859860e-01,5.115188906914600597e-01,7.222008866503148994e-05,4.942517432940969624e-02,-1.257010809041548302e-04,-1.538994513975136882e-02,5.379983186721801758e-01
4.866167467239981836e-01,4.775106936745020514e-01,-4.096851176255827953e-02,-2.629297171361359730e-04,-2.808522774213757702e-03,-1.454527101652968541e-03,5.231205821037292480e-01
5.005325917914869027e-01,4.918259131597038647e-01,-3.898191051813826302e-03,1.028649632164337080e-02,-3.183964045130106314e-03,-9.700762919351155894e-03,5.007638931274414062e-01
4.869812980819401838e-01,4.960885649903874484e-01,-2.983550395067685601e-02,7.027800353755320022e-03,3.442255084059497611e-03,-5.494801389446856386e-03,5.216930508613586426e-01
5.117274577496104815e-01,3.401496783892307141e-01,4.712985735157382283e-03,-1.689057790505372331e-02,-6.209152223636052285e-03,-1.922913170225359469e-03,4.477642476558685303e-01
4.191766307882103804e-01,4.495225114359771568e-01,4.591473813974122908e-03,-9.123834314368667320e-03,8.830786347738926062e-05,-5.505915585153817009e-03,4.309563636779785156e-01
4.755086721266649219e-01,4.163982478855401403e-01,-8.991533605930690509e-03,1.854090831444692514e-02,-1.235064319055784697e-02,1.158927309549145218e-02,4.598775207996368408e-01
4.941312710273589870e-01,3.733193029778303362e-01,-5.176175050607023653e-03,2.897032187806866319e-02,1.258259737487923448e-02,-9.225416884047510716e-03,4.547848701477050781e-01
4.760281923253708580e-01,4.281014167771977630e-01,-9.270821765825776328e-03,1.454667976399170136e-02,8.591864056987551235e-03,-4.397356177178765959e-04,4.641229808330535889e-01
4.454510960517677476e-01,4.353109571142875778e-01,-1.465792222240136500e-03,-1.333355478497334941e-02,-5.827900169250317328e-03,-5.255906284737306075e-03,4.427458047866821289e-01
4.752152814306900841e-01,4.232780145188703713e-01,-6.066680077422337281e-03,1.232683166450128549e-02,7.218914625629657342e-03,-2.288381940231838923e-03,4.582152664661407471e-01
4.921588620196530872e-01,4.880537229863634030e-01,-1.101433232910753457e-02,1.849025949888257045e-03,3.224291774087432397e-04,-6.964138462361548279e-03,5.012889504432678223e-01
4.247743922240585501e-01,4.607018951480744140e-01,-1.357550897005949109e-02,-3.167559805415729596e-02,-2.251718922562098366e-02,-2.409130494087733179e-02,4.641793966293334961e-01
4.572671517695908183e-01,4.419865935334869045e-01,1.556385215034095104e-04,9.617643654786612456e-03,3.503214429300618646e-03,-4.097500115368860963e-04,4.500159323215484619e-01
4.853219346866437522e-01,4.921339148694264809e-01,-4.280012086131684823e-02,1.438706920054297822e-03,1.125002409854514640e-03,3.175261434350145229e-03,5.315986275672912598e-01
4.652635473709673675e-01,3.494275355022646856e-01,-8.514046439209610462e-03,-1.041325415519305519e-01,-2.660623295674125269e-02,-2.367156263014156062e-02,4.683355093002319336e-01
4.869121331355765747e-01,4.588690342296108948e-01,-2.328718135253560195e-02,5.016523972542076548e-03,6.831918341654585024e-03,5.476980845853018703e-04,4.969895482063293457e-01
4.957992137812250455e-01,4.833933226268959382e-01,-2.250889381276183210e-02,3.156527655841093183e-02,1.625968463729264568e-02,-1.788897896170037541e-02,5.168262720108032227e-01
4.525933708024427737e-01,4.328894539974437183e-01,-9.725201807431527179e-03,-4.263847034560505796e-03,-7.577873320121041381e-03,-1.391517569290913556e-03,4.530450701713562012e-01
4.633091454439417500e-01,4.638860367040266164e-01,-1.403082705281838427e-02,1.363225367066102020e-02,5.460522593727641476e-03,-5.940620022309416222e-03,4.784161448478698730e-01
2.969722734000597719e-01,5.533689299182185106e-01,4.504312031298862706e-03,3.496712006692136773e-03,8.684256942722752299e-04,4.285861240586515304e-03,4.757716059684753418e-01
4.790731267283540595e-01,4.910288760523320306e-01,-3.522930806066038034e-02,-3.398111224322531137e-03,5.158824788581693223e-03,7.084862078023519000e-03,5.206379294395446777e-01
4.880776420821704153e-01,4.912028398253075467e-01,-4.052338191146703794e-02,3.552383803626115843e-03,2.038295747713975668e-03,4.378622248417323587e-03,5.302722454071044922e-01
4.910076804090467428e-01,4.833553497917722486e-01,-1.348378483036244413e-02,9.235022934408981463e-03,8.446166632231949696e-04,-1.485673428481925143e-03,5.009733438491821289e-01
4.447435882084487258e-01,4.704534273558172996e-01,-2.143635178457226065e-02,-1.521302186929059108e-02,-8.862112730334010396e-03,-1.292201661348771694e-02,4.810415804386138916e-01
3.503674795997128721e-01,5.328642779490888604e-01,-5.168247654181779005e-03,-7.472090895818228433e-03,-3.814016333742517714e-04,1.444661105883749547e-02,4.747514128684997559e-01
4.911606110595109209e-01,4.851072530616665213e-01,-4.029339878626619909e-02,2.075380684592351491e-03,3.457591634110061644e-03,8.192029747976948151e-04,5.285013914108276367e-01
4.973225738021929132e-01,4.727385817522498090e-01,-3.752224906738987897e-02,-5.220625836292946357e-04,1.007380572555955679e-02,1.063298424345911035e-02,5.236021280288696289e-01
4.896469498363040795e-01,4.642878114171346549e-01,-3.716212334546759033e-02,-5.604842495247652420e-03,-8.414110692875903172e-03,-8.316089254610085219e-03,5.150976181030273438e-01
4.906277197005207147e-01,4.915650981703161282e-01,-2.243051291146397341e-02,5.764511946056684322e-03,4.808386418109981096e-03,-5.324324074486387615e-03,5.137749314308166504e-01
4.938347360703866373e-01,4.858563262466053523e-01,-3.947085252578352854e-02,2.173453496038919679e-03,9.210834167438577968e-03,5.239339022813758670e-03,5.296929478645324707e-01
4.759463903558454057e-01,4.645767324261079745e-01,-3.038069799263920512e-02,-8.804842494247637832e-03,1.657114929468855510e-02,1.012333598233435689e-02,5.020990371704101562e-01
2.791569295867909473e-01,5.645488741079698336e-01,5.766735553520585533e-03,-7.404191620324575632e-03,9.980256530366495363e-03,7.671693910121978044e-03,4.846173524856567383e-01
4.296518397236659403e-01,4.989106979937362185e-01,-2.092297165112194657e-02,1.529091737792475682e-02,1.078092649792485556e-02,-1.189185480778593047e-02,4.904030263423919678e-01
4.993010724423554425e-01,4.841013323210489050e-01,-1.524307497180132920e-03,3.607800033353868261e-03,6.524327682082124193e-03,1.590280792523325951e-03,4.935777783393859863e-01
4.985544326114425551e-01,4.845196978798054221e-01,-2.065340333767490266e-02,3.057959328475642370e-03,-3.997206663661135272e-03,-7.053072837933115763e-03,5.125544071197509766e-01
5.212022787838641591e-01,4.113803131339116015e-01,-2.291507283671595507e-02,3.551919484282983677e-03,-2.382120524347732817e-04,-1.624780528096033197e-02,4.991978704929351807e-01
4.925602197160157125e-01,4.836129934181239154e-01,-3.325981911945297131e-02,-3.404276990554047340e-04,1.039701195160752873e-03,2.234339333393601309e-04,5.214076042175292969e-01
4.894620744602830031e-01,4.629912213835138957e-01,-2.176754397259372809e-02,6.618277198105508227e-03,1.044042328525334774e-02,-1.102618279249316553e-02,4.993464648723602295e-01
4.982525194369495924e-01,4.289491305951094735e-01,-1.059902695502190628e-02,7.644669071510476997e-03,8.035646304205936938e-03,-3.188268296816973955e-04,4.783691763877868652e-01
4.909630838164691924e-01,4.838218858059618599e-01,-3.333581563883791787e-02,-7.761594766737464884e-04,7.158730209557580791e-04,1.295284110902139080e-06,5.207682251930236816e-01
5.070697631834788499e-01,4.405536998163771534e-01,-2.372871816917460075e-02,8.586284175881885624e-05,8.634631833663452757e-03,1.836512763776641322e-03,5.010973811149597168e-01
4.366817071469235034e-01,3.632843155630007814e-01,-3.417084640462314526e-02,2.020989887574323740e-01,3.130899454723745645e-02,-2.100050679099410914e-02,5.650891661643981934e-01
5.208637990152155117e-01,3.433393705919329797e-01,-9.932770509439192708e-03,5.217448918171126333e-03,-9.853531433180013569e-04,9.669070999533064051e-04,4.681003689765930176e-01
4.939142698263853104e-01,4.869350429429308846e-01,-3.164005386510920781e-02,-7.336922328487280190e-04,6.733547408369509532e-04,-4.024126349787418046e-03,5.221490859985351562e-01
4.985357045390754749e-01,4.981057683077866338e-01,3.459467833803359094e-02,8.950342600488537387e-03,-5.292040658502462219e-03,-1.139485873526674929e-02,4.644952714443206787e-01
4.920846175040692883e-01,4.869194850869052460e-01,-3.258672276621010777e-02,-1.266592582155877953e-03,1.675124240689261656e-04,-1.471299153498285611e-03,5.221188664436340332e-01
4.936225243754312486e-01,4.792655255521038882e-01,-3.127257080344253426e-02,1.804816610763844659e-04,3.924497376613731402e-03,-3.200655102300925276e-03,5.179402232170104980e-01
4.932198085913689356e-01,4.788637733639455885e-01,-3.930986150217025132e-02,7.032174988209745565e-04,-2.502073094927833447e-03,-1.467784812047521863e-03,5.255241990089416504e-01
4.942420348869797087e-01,4.836752059273687898e-01,-3.021893526627134063e-02,-4.445195501032762897e-04,3.046564902041914557e-03,-2.356289679155975508e-03,5.193015933036804199e-01
4.908487185398835440e-01,4.955615476418079313e-01,3.399466237470061269e-03,1.490213653238267079e-03,-1.285116770426559217e-02,-2.058940949900187403e-02,4.916300773620605469e-01
3.930852787766740963e-01,5.045281262609830897e-01,-1.036679905000842394e-02,-7.939545832132955533e-03,-1.035192128347290578e-03,-1.438212127897192140e-02,4.700721204280853271e-01
5.803952609827037756e-01,2.043709328068052111e-01,-1.088396035831110387e-01,-1.208991604680607346e-01,1.418161065059021092e-02,-1.070722579316014597e-02,6.340875625610351562e-01
4.694383352527519704e-01,4.755764651270903975e-01,-2.471287730917698378e-02,1.999727128245498350e-02,1.407130906673064417e-02,-1.372592971667393157e-02,4.996149837970733643e-01
4.923573398870070283e-01,4.655423821308458665e-01,-3.724840403687978974e-02,6.056231884488525634e-04,-8.352051745216046083e-03,-3.119432239161770817e-05,5.169239044189453125e-01
4.090206696208157355e-01,4.788943343522357177e-01,-1.427105869846856390e-02,8.302097392955724853e-02,3.191895720704654438e-02,-2.427437929870500041e-02,4.890161454677581787e-01
4.671549808149209615e-01,4.722691231821103397e-01,-3.627464348153780493e-02,-7.119488859874125667e-04,-1.057425711030212864e-03,-8.712834247066663165e-03,5.062358975410461426e-01
4.883907315646557890e-01,4.587157325005883912e-01,-2.821714805371239310e-02,1.811629867425687199e-02,5.984774528374452694e-03,-2.112099793706012640e-02,5.048408508300781250e-01
4.510686859820496886e-01,4.536428434837581070e-01,-1.553235790980583841e-02,-8.230038551088429948e-04,-3.678096667795951839e-03,-4.932023289263458461e-03,4.680169522762298584e-01
4.732326130016768495e-01,4.781624486343296621e-01,-3.961504436343388225e-02,-4.955336260267440620e-05,-2.062768591159574831e-03,-2.535253284897045524e-03,5.153613686561584473e-01
5.555188188878424915e-01,5.012030743999225102e-01,-1.189203010729183996e-02,2.636177105602554027e-01,3.520385804876700192e-02,-5.127899264088673498e-02,7.170602083206176758e-01
4.776242507094253242e-01,4.809067241188987873e-01,-4.176500187208159742e-02,-3.435928586118261008e-04,-1.053998248812358738e-03,-1.876632862523523997e-03,5.210519433021545410e-01
4.627945723427035474e-01,4.326246001003292152e-01,-1.079716155993509785e-02,-1.649582587853692505e-03,-1.178813558534959859e-02,-1.044618762648127138e-03,4.597166776657104492e-01
4.651426319701627010e-01,4.648729267413447275e-01,-2.863540671523201464e-02,-6.936535199772226505e-04,-4.678022957833265390e-03,-2.026972872313753064e-03,4.937236905097961426e-01
4.524531453859148566e-01,4.894762653314820300e-01,-2.193520194980491667e-02,5.503980722366805245e-02,3.045606838214453063e-02,-1.788168030217738083e-02,5.067627429962158203e-01
4.413978647743208583e-01,4.512315066440959477e-01,-9.194946995081221264e-03,-2.534180486163666209e-03,-1.723046427677807878e-03,-7.092747588564368190e-03,4.557857513427734375e-01
4.520260637894417122e-01,4.567086929549861729e-01,-1.079732947595835046e-03,3.619406721430254870e-03,5.904406865334030623e-04,3.504587239728034170e-04,4.555098712444305420e-01
4.434874145232329257e-01,4.940819845885712769e-01,-2.146954601684381014e-02,9.895271733503739620e-02,1.741702385707107059e-02,-2.002412627670657405e-02,5.232179164886474609e-01
3.937030561253636041e-01,4.965225629838649901e-01,-1.423258456929304971e-02,1.642737562541332630e-01,7.224217801256307969e-02,-1.041341547638381659e-02,5.620203018188476562e-01
5.203385402171549767e-01,3.241175240995229356e-01,6.355226008182557340e-03,1.889297926575302378e-01,6.137618285534491083e-03,-6.537406130372042101e-02,5.673137903213500977e-01
4.956560989890718694e-01,4.947626016302660856e-01,-3.181158880109780096e-02,2.543207627787568694e-04,-1.194520917967274156e-03,3.832342754989251105e-03,5.270675420761108398e-01
4.977947660473989178e-01,4.543901903903163619e-01,-2.334961248258810018e-02,1.722875873860911814e-03,8.811891561917660487e-03,4.426660293035323450e-04,5.010966062545776367e-01
4.620623072658376351e-01,4.895119140382253597e-01,-2.182461159282572671e-02,3.814102886735679879e-03,-7.748689262938239335e-04,-8.751247183822559797e-03,4.984553456306457520e-01
4.939555592798141603e-01,4.954722339148502908e-01,-2.588737992422956991e-02,1.167312335725674034e-03,2.239960580371608127e-04,-4.047182355971821327e-03,5.206542015075683594e-01
4.908395639303068103e-01,4.846692483812107821e-01,-3.321301509425644838e-02,-3.203510281847794577e-04,2.725268455269722620e-04,-6.358296300342570519e-04,5.209965109825134277e-01
4.966980882756162896e-01,4.544063443644180134e-01,-2.215841031447196574e-02,1.840737295119400548e-03,8.760212846001905543e-03,5.635619543838255160e-04,4.992981553077697754e-01
4.957096859525857435e-01,4.929271907757203364e-01,-3.240386163124575614e-02,2.244030194141626055e-04,-1.327043937448417910e-03,-1.043488399503720871e-03,5.267360806465148926e-01
5.082497062072397487e-01,4.873352403664272803e-01,-1.556816799972937648e-03,1.538174057111834150e-02,-1.039350585651381033e-02,2.993606963269988082e-04,5.007113814353942871e-01
4.930419454011137348e-01,4.962085196005543430e-01,-2.946873860463300465e-02,8.576280285213242816e-05,-1.564622331545041092e-03,1.327329440500703761e-03,5.241132378578186035e-01
4.910520645604254386e-01,4.849610881731836187e-01,-3.136855493937013017e-02,-6.163779756161416774e-04,2.613219860431494675e-03,-2.926042048442505442e-03,5.194474458694458008e-01
4.970814463495961122e-01,4.911993235959212223e-01,-2.516081598782032858e-02,2.973869725213505280e-05,3.845919371612211649e-03,-6.186599152477855086e-03,5.194794535636901855e-01
4.887873466149083024e-01,4.984325602970856584e-01,-4.196117467667959122e-03,4.284125471360306862e-04,-1.360086503535907348e-02,3.103532495129112181e-03,4.984626770019531250e-01
4.926273513333894183e-01,4.947828445025457822e-01,-2.957552522486017743e-02,-8.803559684943631407e-04,-1.614676659668358352e-03,1.169143205316168022e-03,5.232975482940673828e-01
4.900953989500257402e-01,4.709105074286811243e-01,-3.951998811280338364e-02,4.372025788107308233e-04,-4.874397053980813674e-03,-2.192992741478342646e-03,5.203711986541748047e-01
5.176236568936765092e-01,4.403306726787069025e-01,-2.634221593607971590e-02,-2.317049871436949356e-03,5.006448230489952793e-03,1.209326795656756560e-03,5.098274350166320801e-01
7.938470407860305222e-01,1.021145984562507603e-01,-4.725838690903150230e-02,7.573238413215405140e-02,2.598225658357537077e-02,-2.074125369164333058e-02,7.903506755828857422e-01
4.948413008048178074e-01,4.877139289960930046e-01,-2.778452887240684399e-02,-1.456675031929527322e-03,1.640794871123130551e-03,-2.093180801865897941e-03,5.191254019737243652e-01
5.605500012003717947e-01,2.832442682329875949e-01,6.290363637774076810e-03,-1.722377119861983816e-02,4.416300872305677951e-03,-1.639039348701371718e-03,4.809983074665069580e-01
4.989298685893939211e-01,4.878913100810204351e-01,1.186484919942596139e-01,5.000384974579060978e-04,-6.823290968861035755e-03,-4.955948032350305545e-03,3.751694560050964355e-01
4.944317233857297156e-01,4.948944990294644741e-01,7.676418364470394273e-02,2.518895556926423543e-03,-6.244277013736012662e-03,9.890020829866170374e-04,4.180653393268585205e-01
4.908976302372659584e-01,4.880167508944842636e-01,9.246800341939670487e-02,6.494461410868093872e-03,1.069277381666407754e-02,-5.544332080456553652e-03,3.977039158344268799e-01
5.000450592573308928e-01,4.875756996216457084e-01,9.078966461414417211e-02,6.091137724494718499e-03,2.834435111704508223e-03,1.151572512681576241e-03,4.033381938934326172e-01
4.975874246525817113e-01,4.904925141430545033e-01,7.705613332960881134e-02,3.296759938638399879e-03,-1.256513377970297496e-02,6.941964027706110964e-03,4.178086817264556885e-01
4.986895597335402330e-01,4.849249723763873199e-01,-2.807675486532079656e-02,-8.776429795650351898e-04,4.985600893124160753e-04,5.049568165306084081e-04,5.200243592262268066e-01
5.016453902784807628e-01,4.600182595814986120e-01,-2.716315318122608513e-02,-3.374669090543002629e-03,-4.048683430926782942e-03,-7.939819561302036838e-03,5.095399618148803711e-01
4.926884385147263234e-01,4.873868974536527676e-01,7.046699727442418126e-02,6.486803846225413931e-04,-2.852621381189716920e-02,-7.821240237356317029e-03,4.227134287357330322e-01
4.924419685277964254e-01,4.921864772381260855e-01,3.382806224484924407e-02,-2.617302617235699354e-03,7.115913876145972365e-03,1.234899342551546916e-02,4.591726958751678467e-01
5.083919128698211054e-01,4.950886919420269816e-01,6.414216684882723118e-02,1.434262398998847714e-02,-1.499933731872609040e-02,-2.084755988351262232e-02,4.407048821449279785e-01
4.981977868232905227e-01,4.811566224159401495e-01,-9.485201475832372164e-03,-1.485713040282869864e-04,2.372524014865831643e-03,6.908376613327000008e-04,4.993989467620849609e-01
5.025809975765700433e-01,4.637598120806488700e-01,-3.278808780891678820e-02,-2.080385219549442562e-03,1.764319598663613127e-03,6.382305749497603747e-04,5.170754790306091309e-01
4.946964973995205961e-01,4.813759667557377941e-01,-1.794597403686737369e-02,5.273296487365607740e-04,-3.161876865107994452e-03,1.177188665337001007e-03,5.061482787132263184e-01
5.128474100301523286e-01,4.268859129700453559e-01,-2.738818226409511780e-02,-3.832316839259421615e-03,3.935551175213939518e-03,2.459333201642345795e-03,5.029046535491943359e-01
4.967155645882261883e-01,4.787433073587172294e-01,-3.733630534122983624e-02,4.696276950722329735e-04,-1.629454091606704388e-04,-1.612239745069479540e-03,5.253044962882995605e-01
4.987690774834231400e-01,4.758284298143474755e-01,-2.712015819446556009e-02,8.322473919816541013e-04,-1.984974355557333602e-03,-2.221309246004512313e-04,5.148160457611083984e-01
4.802714944267976738e-01,4.446063610717910786e-01,-2.445278905144582238e-02,-2.773195541244043074e-03,-1.082895391733805848e-02,-1.039052976387830991e-03,4.882577657699584961e-01
4.945521056530650106e-01,4.953109577085201831e-01,-2.306873005776821639e-02,3.387585839481048293e-03,-1.147342061087955681e-02,-1.129179192826357606e-02,5.187837481498718262e-01
4.975255764694088700e-01,4.642671139747767128e-01,-3.706050641626862374e-02,-1.618297369204880955e-03,-8.044433114383924346e-03,-3.477458001637557280e-04,5.189520716667175293e-01
4.986741600902339089e-01,4.207128644291273645e-01,-2.671836490090329086e-02,-5.510353564925509103e-03,-9.821541502334316109e-03,-1.703749149272248270e-03,4.914714395999908447e-01
4.457141320982447308e-01,4.342452982402676964e-01,-1.477044438449703900e-03,-7.231963510461067619e-03,-5.795335844685404504e-03,-3.514917666196235545e-03,4.419020712375640869e-01
4.732266753056196262e-01,4.728486899591778370e-01,-3.860405713739883948e-02,-1.363655523038528146e-03,-1.738703422622657436e-03,-2.213803467975348008e-03,5.116705298423767090e-01
4.734338813855072381e-01,4.768631310983242888e-01,-3.931093065423635347e-02,-1.682249417352480510e-03,-4.401713146530735268e-03,-3.023432801147878449e-03,5.145593881607055664e-01
4.936563115665218993e-01,4.746050090830716828e-01,-4.028670017154245553e-02,9.578315301559586824e-05,-2.398088100352810739e-03,-2.141066005063017614e-04,5.246934294700622559e-01
4.979836043670704537e-01,4.833234623678354103e-01,-1.058726810746180025e-02,-1.366414166544519752e-03,-3.631196411696919774e-03,5.663428836695212978e-03,5.015425086021423340e-01
4.966947590469910634e-01,4.769264230754657330e-01,-3.540156793083437670e-02,-5.923540480449733959e-04,-5.953213651177999277e-04,-8.746834664288741896e-05,5.224947333335876465e-01
4.735829268897798761e-01,4.783003584374069250e-01,-4.046658159214988615e-02,-1.201291489120777031e-03,-2.159057675620525054e-03,-3.785428122301294496e-03,5.164837241172790527e-01
4.725915865220748913e-01,4.491722234880124454e-01,-2.456946858076891615e-02,-4.239317960740412723e-04,-1.063810679447533929e-02,-1.621518476204711475e-03,4.862327873706817627e-01
4.734814755653361518e-01,4.713354321186405405e-01,-3.570102184767720566e-02,-3.634801921006294129e-04,-4.539354904361967910e-03,-9.637986531964461276e-04,5.081768035888671875e-01
4.989401065995039408e-01,4.658722032057827089e-01,-3.386307956656453566e-03,1.417651874164715031e-03,-3.121818068977275009e-03,-7.032159505197170188e-03,4.868244528770446777e-01
4.965326033061316924e-01,4.765247907880897360e-01,-3.522428834570362488e-02,-1.816675635983598701e-04,-1.257104384263877219e-03,-8.047189996541200365e-05,5.220452547073364258e-01
4.424698017182564502e-01,4.868008473722066354e-01,-3.063097631805750121e-02,-9.951354824263403120e-03,-1.678218875521276729e-02,-1.798244691029291312e-02,4.988735020160675049e-01
4.981038313698212261e-01,4.817979098586075981e-01,-3.333099999452238116e-02,6.564109314265092294e-04,2.048973271983136636e-04,-2.303337180505054399e-03,5.234889388084411621e-01
4.227490724779245923e-01,4.198557901260325798e-01,4.144445918682237995e-03,-3.361784641412327024e-02,5.358416565919630996e-03,5.190447901570451050e-03,4.214077591896057129e-01
4.758130821421723278e-01,4.827755105174909023e-01,-4.067300604605661452e-02,-1.766070894141916117e-04,-4.349148768340514151e-05,-4.978854055907479606e-03,5.200738310813903809e-01
5.423244428770299663e-01,3.630783941110005686e-01,-1.008938550276783364e-02,-7.024154101445923004e-02,2.423103564664378165e-02,7.455654084627579177e-03,5.049772262573242188e-01
4.772111096882850623e-01,3.439539813667555901e-01,-7.679823848161571043e-03,-8.393502377995867847e-02,2.961620937992422847e-02,3.572390772902473560e-02,4.646038413047790527e-01
4.164261202712766785e-01,4.129913434791030458e-01,-1.824304389588732311e-02,1.923810094541546223e-01,4.027132644347664048e-02,-9.599550395980231340e-03,5.510256290435791016e-01
4.887554598137844319e-01,4.789165750976900338e-01,-2.913732956076925396e-02,1.114527005061016632e-03,-9.428055485685051386e-05,-6.240250172839708611e-04,5.130488872528076172e-01
4.913925997082830843e-01,4.778190345535334727e-01,-2.923007254067111482e-02,-8.112292682880342936e-05,3.051083173360567662e-03,-1.126933284457971304e-04,5.139975547790527344e-01
5.109288468311290465e-01,3.750986087105183664e-01,-1.367071421184790081e-02,1.779930251855757484e-02,1.251639591286349967e-02,-1.698414607004133589e-02,4.740083217620849609e-01
4.358673590952403254e-01,5.107657613723290968e-01,-2.572882158309347522e-02,-1.029689655384976969e-02,3.916097184677930828e-04,3.363323468359726964e-03,5.035932064056396484e-01
4.434210630954493193e-01,5.385590582917396674e-01,-3.096680178795724325e-02,9.396330171299748305e-03,-4.678460950561164067e-02,-3.435000143692798664e-03,5.348775982856750488e-01
4.886946144997362240e-01,4.840124840014917718e-01,-3.344999632258194300e-02,-2.781940050624049222e-04,9.461522712460337893e-04,-1.219363247233786856e-04,5.198222398757934570e-01
4.701613827098708454e-01,5.021077602417955976e-01,-3.194732048412951553e-02,-9.513586128156992488e-04,-6.973968365264679274e-03,2.868974093567574667e-06,5.189632773399353027e-01
4.669421214667096587e-01,4.995138678958007672e-01,-3.176965734786618700e-02,-1.124879924421982522e-02,-2.134067863651326405e-02,-1.619459482640067671e-02,5.182189941406250000e-01
4.912999058734682789e-01,4.836384036624356009e-01,-3.282418990332758302e-02,-4.745397149584899854e-04,1.411894166228945232e-03,1.761511707645685432e-04,5.203421115875244141e-01
5.044798909249771368e-01,4.453935128864946469e-01,-2.356336951800280799e-02,6.950040586183054564e-03,7.292032959502170800e-03,1.388458995797910676e-03,5.014289021492004395e-01
3.672893381305049054e-01,5.844013055034535942e-01,-1.509196196291689995e-02,-8.815308868946356924e-04,-5.812077959774906294e-02,-3.277943764557433859e-02,5.382680296897888184e-01
4.880281804895655329e-01,4.779107820727557243e-01,-2.983606091752571965e-02,7.782668757921268679e-04,4.861096945239870397e-03,-2.078196709208946164e-04,5.129513740539550781e-01
4.954624239740674785e-01,4.749233619261449268e-01,-2.960621033104338107e-02,-2.290451563471052046e-05,4.865425392688775205e-03,3.312706162970825859e-04,5.151755809783935547e-01
5.031397540867039719e-01,4.446422925261788173e-01,-3.560320623294793707e-02,-3.434927331601415976e-03,1.214238109976262942e-02,1.351773728648586990e-02,5.130075216293334961e-01
5.059970678422194279e-01,4.338196252064124847e-01,-2.968533526865113625e-02,-1.410573899539957043e-04,7.971997021143456541e-03,1.493272366500593938e-02,5.043418407440185547e-01
4.953042474389308669e-01,4.827472708579109151e-01,-3.259449312210765948e-02,-8.282050473345579748e-04,1.369855352756421847e-03,4.880809247106597721e-04,5.217416286468505859e-01
4.987942856504956057e-01,4.759395056024348092e-01,-3.330332466781865675e-02,-1.321789389752809588e-04,9.357336726947593870e-04,1.831792679414791843e-03,5.210584998130798340e-01
4.967938876854955943e-01,4.840804225197345989e-01,-3.009817634740580283e-02,8.707385918086417485e-05,1.422955211632180366e-03,-2.076866424422454342e-03,5.206700563430786133e-01
3.946809295831461006e-01,5.343842912303812254e-01,-2.841647036455047237e-02,-1.658582544310196550e-03,-1.916791825119958451e-02,-7.468817957892302795e-03,5.088363289833068848e-01
5.000536419958885315e-01,4.638341414005486274e-01,-3.390712891519626071e-02,2.029134793215670092e-05,-2.054207940217937962e-03,9.252389124592462835e-04,5.168185234069824219e-01
4.997488258889650758e-01,4.821473666296698934e-01,-2.898446992775455255e-02,1.410690318817998674e-04,-1.901271161256773022e-04,-2.300804646031610629e-03,5.201714038848876953e-01
3.018914197389728216e-01,4.894539685301456666e-01,-1.302380109292078370e-02,-1.503533802589655799e-01,6.308988173440266412e-02,5.689109043675238953e-02,5.318710207939147949e-01
5.271126817378164464e-01,5.545144754606496917e-01,7.573394840372427161e-02,3.717860865245234403e-02,-2.588064135518524170e-02,-8.950083437559415087e-03,4.725025892257690430e-01
6.230346893599868485e-01,5.239362078253111399e-01,5.353832579806599989e-02,2.408127977569765252e-02,6.747258517186645321e-02,7.909299345302756717e-03,5.415675640106201172e-01
5.196948109859135245e-01,4.491219564348670756e-01,-2.690045745059205240e-02,2.494436940038630320e-03,5.193733616375135684e-03,-1.686801158081168567e-02,5.158733725547790527e-01
4.950475771658468527e-01,5.035207909941090687e-01,9.093503644581052425e-02,7.776074927994806006e-03,5.729505043896721515e-03,-1.378311576644749084e-02,4.094541370868682861e-01
5.003082579127960949e-01,4.968388796970137911e-01,6.933533986590434406e-02,5.656401692854808386e-03,1.189806827704350915e-02,4.264857081046121573e-03,4.299182891845703125e-01
4.983828600187556468e-01,4.770853315821665941e-01,-3.509284245678734315e-02,9.514907224926883291e-04,-2.542990804914677517e-04,6.625433210261833135e-04,5.231562256813049316e-01
4.997840843448202452e-01,4.764831850324852680e-01,-3.826514019344640083e-02,1.539475243455923988e-04,-1.334488919315505442e-03,2.157602439045586671e-04,5.267906785011291504e-01
5.118642323534574601e-01,4.635445068208645103e-01,-3.332792753850222223e-02,7.389049865745669129e-04,-2.217192148718921067e-03,9.036557114152940322e-04,5.227280259132385254e-01
4.993400177569925491e-01,4.373299820557387529e-01,-2.396320542503244111e-02,-4.312922560374222135e-03,1.511814324134839668e-02,1.015673380164545383e-03,4.959697723388671875e-01
4.998996304711678662e-01,4.697602525431324727e-01,-3.471187547904952542e-02,-1.050604261908292647e-04,-1.794856394845130172e-03,-4.774292132908458837e-03,5.202721357345581055e-01
5.140251345388793247e-01,5.344085858395767330e-01,4.674997940200253943e-02,1.751907010884665508e-02,8.310475140532615212e-02,1.268777459966733551e-02,5.004089474678039551e-01
5.371720675456824745e-01,5.306936846163283761e-01,8.053307220102967623e-02,4.189357875648475928e-03,-2.024506726389387404e-02,-1.772386630846317992e-02,4.558810293674468994e-01
4.938865557641078374e-01,4.643548584529805234e-01,-3.641272154085356538e-02,-6.042163790858410361e-04,-6.685276758551128573e-03,-1.458935023145810101e-04,5.162984132766723633e-01
4.622051756712196591e-01,4.863048485563937762e-01,-3.351043473951192952e-02,-6.345217778127693574e-03,-8.306633164802054714e-03,-1.197363390749021927e-02,5.089393258094787598e-01
5.484209215374066249e-01,2.855447831734917452e-01,3.541266712886570467e-03,-6.374671614760320064e-03,-1.383114692110854697e-03,-1.272882092706040247e-03,4.721168875694274902e-01
5.866781504025768701e-01,2.486862988028004096e-01,-7.588299429735378965e-03,-2.190795986840473469e-02,1.196104541970635649e-02,-2.824019292472661202e-02,5.203801393508911133e-01
4.856273112255866664e-01,4.745483138956843039e-01,-4.067298911434619191e-02,-1.069269921684071374e-04,-2.621988239875841856e-03,-2.146732101201501164e-04,5.208691358566284180e-01
4.841887710869257622e-01,4.820130105163802359e-01,-3.980654601980782026e-02,-5.097579977174209473e-04,-4.303207154174744885e-03,-3.642313168077931235e-03,5.230027437210083008e-01
5.646213924451818356e-01,3.286667274516317239e-01,4.239404297630977592e-03,1.141325965659503207e-02,9.238284345909668349e-03,9.710611470517837435e-03,4.882699549198150635e-01
5.415276511317868025e-01,2.893663719802755385e-01,-1.725986394456646700e-02,-4.679439964450690659e-02,2.419951969744731091e-02,4.518420502867035587e-02,4.993746578693389893e-01
4.897738261685157246e-01,4.769477906482048057e-01,-3.970205498277751266e-02,2.019206834214078898e-04,-4.352405107409391114e-04,-9.595646977057767152e-04,5.231840610504150391e-01
4.858926404077615335e-01,4.950148697516034701e-01,-5.638469723072248030e-03,-1.864505941322240287e-04,-2.899772841278796306e-03,-2.529918338540654201e-03,4.961999952793121338e-01
4.825934090313864777e-01,4.662757093114292539e-01,-3.631992004162237775e-02,4.045583445600137791e-04,-8.251259594813872139e-03,-1.100844827348729476e-04,5.111503005027770996e-01
4.858308295017427225e-01,4.662041702397592413e-01,-3.754336613276232359e-02,-3.282299219227109472e-04,-9.163328562520946588e-03,-3.872698290604842538e-04,5.140878558158874512e-01
4.747106414187233225e-01,4.720296779246542229e-01,-3.560219203741438188e-02,8.391586760651075470e-04,-4.737958364525494438e-03,-1.043212907154054091e-03,5.090490579605102539e-01
4.783999742868678684e-01,4.695071632184534272e-01,-3.635787049260369441e-02,-2.393074359555205622e-04,-7.726531651456692434e-03,-5.978938687783208255e-04,5.105462074279785156e-01
4.841807966755800052e-01,4.517562448824414267e-01,-3.287063336156131887e-02,-4.101769008294221114e-03,-1.146705580505613664e-02,-7.127283571874907554e-03,5.022208094596862793e-01
4.749529253109412430e-01,4.774434140931884119e-01,-3.931092721246581823e-02,-5.141024228298364702e-04,-3.456410144680416123e-03,-3.886872548605487844e-03,5.155931115150451660e-01
4.807258951186076379e-01,4.776222494933702323e-01,-4.136002349965339775e-02,-1.452942635562291091e-04,-2.163222515469434733e-03,-1.111789518368701876e-03,5.205581188201904297e-01
4.609409739108148996e-01,4.744294013571677127e-01,-3.026905597324297537e-02,3.763500955704211109e-04,-5.925058089723815591e-03,-8.363506185760344325e-03,4.984079301357269287e-01
4.604312123061193862e-01,4.493260902774850463e-01,-1.422678529582277474e-03,1.251417806767432268e-03,2.789185522262225669e-03,-9.871037869119303639e-05,4.564334154129028320e-01
4.893895888670502514e-01,4.743193368401795174e-01,-3.805071924879382950e-02,-1.633885208344329487e-03,-4.847140989575162914e-03,-4.362655082429590936e-03,5.201992988586425781e-01
4.893480601775150873e-01,4.643780620641361212e-01,-3.651312256153704805e-02,1.132979222908209790e-03,-8.132038502711953082e-03,1.673722753755171172e-04,5.140282511711120605e-01
4.709727143673175798e-01,4.987247400767660377e-01,-2.445792591493667345e-02,1.176564593466421791e-03,1.256766188612102979e-02,7.145998031274362200e-03,5.104920268058776855e-01
3.781232106356762768e-01,5.287974054281822101e-01,-1.791040140640470790e-02,-1.472147178807596893e-02,1.646557671071650214e-02,1.956002806301637004e-02,4.917607903480529785e-01
5.004039037100225240e-01,4.242257757706152654e-01,-9.715060582438039827e-03,6.710869444196734465e-03,1.192535379580938679e-02,1.034011367939943125e-04,4.772067964076995850e-01
4.939664966875104701e-01,4.847797219685797132e-01,-3.209805404725979416e-02,-7.952485823122403376e-04,1.598061170479515066e-03,-3.113740251356046478e-04,5.215412974357604980e-01
4.947828290212978875e-01,4.956303510564080139e-01,-3.228611354761001806e-02,-1.263942543982524331e-04,-9.908426919100017573e-04,-7.926278046245059791e-04,5.274978280067443848e-01
3.450798371170307743e-01,5.822332357891979449e-01,-4.718759898560354049e-03,-6.354880406621295219e-02,4.678994943810976803e-02,3.350353582857406448e-02,5.325480699539184570e-01
2.691452806903158468e-01,5.171607798411169687e-01,-2.629923397072131408e-03,-7.485515295199261787e-02,1.134507595157852392e-02,1.520536640064666656e-02,4.697526395320892334e-01
4.923470857519129940e-01,4.888571360493634277e-01,-3.341605218071797001e-02,-7.987989352713993673e-04,7.037923333204050905e-04,-1.191177593032791571e-03,5.240342020988464355e-01
8.067216695220100764e-01,5.372296968118546179e-01,4.604970802943320063e-02,7.739347156976317255e-02,-4.426733947928955352e-03,-1.388549691022538390e-01,7.225807309150695801e-01
4.697142265951130269e-01,4.367474815715220449e-01,-1.646021176171297284e-03,4.630002236789150169e-03,3.028718591630823881e-03,-2.949776574448917995e-04,4.558729827404022217e-01
3.849571393594443669e-01,4.920683931371924724e-01,-2.141205013542685220e-02,-1.410690994527111219e-01,2.216090788772151141e-02,2.316690469530557905e-02,5.319026112556457520e-01
5.632726544506800881e-01,3.110439915647062459e-01,-7.420777426483005090e-03,-2.970193075556432517e-03,1.429932882169931280e-02,2.055142508049935535e-02,4.972645342350006104e-01
5.521133800184443441e-01,4.946725897136786676e-01,1.134720736541884878e-01,1.885966473428093287e-02,-2.305365551278362041e-02,-1.262181543748561001e-02,4.167123138904571533e-01
4.941324689104662493e-01,4.914060387046577660e-01,-1.659950808255783450e-02,-2.766725534331009387e-03,2.792278852783767681e-03,-3.627033933185197945e-03,5.094584822654724121e-01
4.340745173337039464e-01,4.898393874404046722e-01,-1.789618965193701117e-02,-2.401290597627924253e-02,2.079199167895393052e-02,1.949342164220223272e-02,4.865779280662536621e-01
5.294905859844563079e-01,3.754395777525657563e-01,-2.220366293101322386e-02,6.435041116500089808e-03,5.458791916002890023e-03,3.082857134200573876e-02,4.961592853069305420e-01
4.881634139023154906e-01,4.871417351884131386e-01,4.387735458827657364e-02,1.071234792326266347e-03,-2.588498356614130058e-06,-4.671352532383809056e-03,4.438537359237670898e-01
4.917128697554915551e-01,4.789919764661488832e-01,-3.201284740840087961e-02,1.382188113724348638e-03,2.347331831125153319e-03,-1.481548801038041520e-03,5.175104141235351562e-01
4.930771642861961346e-01,4.882397034475318143e-01,-3.118304899277563047e-02,-5.843625689061592151e-04,2.361592563173553396e-03,-4.754659998824749094e-03,5.219402909278869629e-01
4.912665988506716985e-01,5.001116180500375652e-01,-3.356281520346193759e-02,4.558766767227642757e-04,-9.401030840815892062e-04,6.716897254550697680e-04,5.293117165565490723e-01
5.298927111052769146e-01,3.956671391325690124e-01,-2.339425288493846011e-02,1.153245277260184914e-02,1.123650765492002377e-03,7.625900270603585239e-03,5.004547238349914551e-01
4.778457131577354966e-01,5.128889888155166998e-01,-3.402541291633193188e-02,-3.433694224810224845e-03,3.485067510837464673e-04,4.072572679133405001e-04,5.302960872650146484e-01
5.469387029599863670e-01,3.595597863906711544e-01,-6.744682399038803844e-03,1.936525783790170709e-03,3.505065124103714201e-03,-1.847492319149201048e-03,4.878380000591278076e-01
4.921522840317943404e-01,4.951169674693483014e-01,-2.929979400691784530e-02,1.797884613845710400e-03,-8.025570531960663336e-04,1.618138641102962903e-03,5.229593515396118164e-01
5.486541264213249391e-01,3.246325383475566762e-01,1.017394899516299578e-03,-1.528727915739088849e-03,8.785607582128674223e-03,1.329670740087034175e-02,4.776799976825714111e-01
5.731881000632381706e-01,4.416555855138114550e-01,-4.719354930935398817e-02,8.236264326601631242e-03,1.530097734577071621e-02,3.871922489391987215e-02,5.709441900253295898e-01
5.279202338116036897e-01,2.913673951762896785e-01,-1.188940740451949196e-04,-5.725120372556765508e-02,9.575224849982759759e-03,9.054196251277079471e-03,4.692840278148651123e-01
7.626404811762932390e-01,5.383081508505288548e-01,7.070175697255665082e-02,1.371881008281748693e-01,-6.687875935298063200e-03,-8.727828842843621260e-02,6.732966303825378418e-01
5.802702806143968939e-01,2.807099998965448262e-01,-2.181350003051418796e-03,-6.317580846408960005e-02,9.234954903331552001e-03,1.371458161366709977e-02,5.170111656188964844e-01
5.743244658680444203e-01,3.230910239576717524e-01,-6.656232346113732934e-03,-5.855621893150459584e-02,2.527386831164421532e-02,4.820613159791499458e-02,5.233252644538879395e-01
5.015424152923994017e-01,4.779247976774051998e-01,-3.295013398220469902e-02,-2.938984007367023503e-04,9.420405962820741722e-04,6.940344995515172885e-04,5.230879783630371094e-01
6.423274389326429912e-01,1.835499140605175994e-01,-3.323851431694263558e-02,-1.993858975016867263e-01,2.122102683858254069e-02,-5.223470839099259716e-03,6.911069154739379883e-01
4.599580821857023882e-01,4.606458544140978884e-01,-1.744679328775983196e-02,-1.516748125624722832e-02,-1.157049314080704251e-02,-7.388638333757885368e-03,4.790613651275634766e-01
5.477816892084741429e-01,6.065637830334129621e-01,6.196733775133156374e-02,-1.182227055591613951e-01,-9.117247332677717864e-02,-7.196095034205753083e-02,5.919715762138366699e-01
4.615712967552180745e-01,4.316962670969553550e-01,-4.628371176564505252e-03,-2.721573119279335068e-02,-1.249072072315981011e-02,-1.603181691574674314e-02,4.558158814907073975e-01
4.895426476176804043e-01,4.999629216705175350e-01,-3.632120438669861340e-02,9.798034864964941422e-04,-6.153939510862446944e-04,2.105376640993770598e-03,5.311669707298278809e-01
4.931735901043594605e-01,4.958158866012971622e-01,-3.236917811254730326e-02,1.030524335578387020e-03,-8.698413822175881955e-04,-9.704500554624891822e-04,5.268767476081848145e-01
4.997165940061872869e-01,4.899323160189646975e-01,-1.892468575190581204e-02,6.945288626975857607e-05,4.147604748400269756e-03,1.380144940331695571e-03,5.138748288154602051e-01
4.917993389530324055e-01,4.967477115466889526e-01,-3.136487516950869914e-02,2.133242082985981839e-03,7.960159247761505828e-04,1.938486725696244965e-03,5.256813764572143555e-01
4.424978555354593390e-01,4.200266960053572474e-01,-1.629621230930244913e-03,-1.473003264344632975e-02,-7.817687125097847259e-03,-5.522068779988703602e-03,4.343959689140319824e-01
4.974953492333885618e-01,4.957411846501951214e-01,-2.349912134726617197e-02,6.855295837567715669e-03,4.339602259180282834e-03,2.824623757197493139e-03,5.203323960304260254e-01
4.440842314654533940e-01,5.012005499303768818e-01,-3.220449825457527560e-02,-3.592203630767947398e-03,1.193390681540205424e-02,1.562322870875157074e-02,5.084440112113952637e-01
7.646994876886457071e-01,2.075627091177970618e-01,-1.247057269196799600e-02,7.745444694657382945e-02,-1.710769555653628843e-02,3.876740224187616435e-02,7.104850411415100098e-01
4.896135154734255757e-01,4.956743815231856032e-01,-3.391121071088326611e-02,6.390787423758152903e-04,-4.294285966148530978e-04,1.268984661831969564e-03,5.265876054763793945e-01
4.855112007481967584e-01,4.930664096298366106e-01,-4.133458682572060949e-02,1.655943643632157552e-03,2.409007285564047571e-03,3.813131515750249351e-03,5.307289958000183105e-01
4.521238520111600101e-01,4.061741878570441222e-01,-2.384330434046288971e-03,-2.228230176313566319e-02,-9.777851428027711095e-03,-4.180615807402927495e-05,4.354088604450225830e-01
4.452027206036737739e-01,4.384109907037525566e-01,-1.718553530282607156e-03,-9.013398718781193142e-03,-7.092805667482807511e-03,-3.690209142119868242e-03,4.440550506114959717e-01
4.540011510274105655e-01,4.715677056096869713e-01,-2.939560662674245428e-02,-7.221763445767734324e-03,-4.420378335356623528e-03,-1.009178183249591527e-02,4.929434359073638916e-01
3.628871114694963707e-01,5.078565353400408267e-01,-1.681990550014167418e-02,-5.462302418419877348e-02,-4.306871201460420878e-02,-2.910288325416230878e-02,4.871305227279663086e-01
4.827451940736863234e-01,4.933414874381670812e-01,-4.288092704292645330e-02,1.554919684338017987e-03,-3.493626400670200903e-04,4.227805682319276878e-03,5.310612320899963379e-01
4.920791203156812399e-01,4.943407910339574496e-01,-3.806435139355984765e-02,3.097401620858331386e-03,1.847939368764057967e-03,2.238187655278997719e-03,5.313287973403930664e-01
4.912945312511634022e-01,4.830710148599517972e-01,-4.242959234762094800e-02,8.682208650250461185e-04,3.890882969834452351e-03,3.005828176050481478e-04,5.297055244445800781e-01
4.759557457096615929e-01,4.773709158899872018e-01,-3.635649712878208373e-02,-2.444491694506438061e-03,1.012572298896377218e-02,1.323236786789718216e-03,5.133435726165771484e-01
5.530728237390101221e-01,4.983541417303813947e-01,-3.196527070185134489e-02,6.370664663933620075e-02,-2.427722551876227222e-02,2.666169372790812633e-02,5.738705992698669434e-01
4.697666878881945896e-01,4.894180209137504733e-01,-3.509745365780125859e-02,-6.057459282251518879e-04,7.195800487932154993e-04,9.359515257533109964e-03,5.152287483215332031e-01
4.225270560724438962e-01,4.835072055177322414e-01,-1.793892492865706290e-02,-6.442462785777152041e-03,2.760135212561743746e-03,1.626657129602987820e-02,4.748996794223785400e-01
4.869855899457652959e-01,4.930563970348561531e-01,-4.170111589586311673e-02,2.361708961244666886e-03,2.334909941419649731e-03,3.437850066807640690e-03,5.318125486373901367e-01
4.823640821460247752e-01,4.846548709934217491e-01,-3.929022993775471706e-02,8.169694525603044075e-04,4.753047546717768974e-03,7.264296189954467034e-03,5.230215787887573242e-01
4.839801653663774461e-01,4.840858066209376975e-01,-4.325750189303445570e-02,2.964068115752274669e-04,1.302515600721956953e-03,1.309814003633613666e-03,5.273004770278930664e-01
4.840363805191930102e-01,4.772602568802741807e-01,-4.284933367458909625e-02,-3.842792397033686973e-05,3.947201891930911949e-03,6.235013584633736141e-04,5.235763192176818848e-01
4.479655560693567296e-01,4.698700602573904206e-01,-2.523427601753508442e-02,-3.832667705924987841e-03,-9.814918736129204201e-04,-1.195800150313424196e-02,4.850144684314727783e-01
4.869441447286627089e-01,4.861177424737586072e-01,-4.290774822026349744e-02,1.773244655515251664e-03,3.415910282492780337e-03,2.284772901298277349e-03,5.294959545135498047e-01
4.839798577101189214e-01,4.843126751255804052e-01,-4.358278515257135721e-02,4.336429304728325516e-04,1.246190161456139141e-03,1.607208934590954917e-03,5.277414321899414062e-01
4.355172930497068773e-01,4.945969402149297256e-01,-2.390107243966671513e-02,5.533246759730926952e-03,1.286609822872270133e-04,1.545126479644350244e-02,4.924490153789520264e-01
4.227967768884088873e-01,4.642090198613444407e-01,-9.919673577834520195e-03,-1.623172101290512245e-02,-1.677858058506525750e-03,-1.267982559062342217e-02,4.562449455261230469e-01
4.765039192641699062e-01,4.886525060456280434e-01,-3.843961867360107254e-02,-7.100984929288692077e-04,-1.844601653917535972e-03,-5.457188101882814221e-04,5.211361646652221680e-01
4.636924901618869610e-01,4.890595808197546468e-01,-3.344551278971552577e-02,-8.667902078208897590e-03,-8.379761452654118509e-03,-1.173440348843849887e-02,5.111259818077087402e-01
4.762013051636489469e-01,4.801999196218930122e-01,-3.960329501919929163e-02,-4.663534604155661692e-03,-4.112790593010525082e-03,-5.583867329263319038e-03,5.180177688598632812e-01
4.498069142041014601e-01,4.849327720569305833e-01,-3.320336863858108778e-02,-1.531371962372517562e-02,-2.649633592672181667e-02,-2.148913832880493258e-02,5.056619048118591309e-01
4.838934556840349677e-01,4.690147404972501155e-01,-3.787081534486996803e-02,-2.624420797319115383e-03,-8.185666741125858029e-03,-6.246693118455480011e-03,5.148153901100158691e-01
6.085445961026190176e-01,6.724621907844912094e-01,6.269760171150839945e-02,1.203168157657552723e-01,8.010169530106354963e-02,-1.600844408329036087e-02,6.327477097511291504e-01
4.916069201614957640e-01,4.759626477750841800e-01,-2.975239654838779391e-02,-3.707337167358718005e-05,4.498745049994909428e-03,1.472772153428837899e-04,5.137750506401062012e-01
4.943581220955139965e-01,4.870392575566695470e-01,-2.665767630624266138e-02,-1.099681365126723050e-03,2.275845238478167634e-03,-2.366276791220236955e-03,5.174299478530883789e-01
2.552547984206123277e-01,5.478671968944366366e-01,-1.531478373814915139e-02,-1.033731278113352164e-01,7.838164370596974184e-02,2.913102240284983976e-02,5.394783020019531250e-01
4.952033213505110387e-01,4.867645033822630141e-01,-2.692572668988452156e-02,-1.398969482727600638e-03,4.883312719651733473e-05,-3.765366437113955300e-03,5.180079340934753418e-01
4.882024782415163577e-01,4.702591453240771435e-01,-2.804534406625375231e-02,1.081269985759679550e-03,5.163101019493403221e-03,-3.007068065619918681e-03,5.076230764389038086e-01
4.815002298173301498e-01,5.018704093788507459e-01,-3.031807239106609764e-02,-6.464068069501502324e-04,-5.627459501321381346e-04,-3.627166682782537351e-03,5.223413109779357910e-01
4.966472922486522279e-01,4.604150893722706028e-01,-2.799435307730324674e-02,2.372047119257049939e-03,7.528280288438811939e-03,-5.219430931665320142e-03,5.077611207962036133e-01
4.915248862026647125e-01,4.768644211725532323e-01,-4.008962409397931470e-02,3.747549328529947038e-04,-1.006948868896371380e-04,1.660213162968871752e-04,5.244385004043579102e-01
4.962027826271858677e-01,4.961867181597906518e-01,9.833219096741618870e-03,2.530618233138324721e-03,-9.037057111461577197e-03,-2.707438025029891733e-03,4.866556823253631592e-01
4.903728009608984140e-01,4.789684876467570906e-01,-2.959676851549308818e-02,-8.422468471987463231e-04,4.892948129349761199e-03,-7.969523701379340515e-04,5.144359469413757324e-01
4.950238286762079776e-01,4.922548500711920738e-01,-2.502069620166569308e-02,-8.864558367371987299e-05,-2.780081017006413423e-03,-1.913961772973472170e-03,5.186985731124877930e-01
4.997005962507028998e-01,4.836612728149218832e-01,-2.446917284873217913e-02,-3.177387934881082537e-03,5.625724577233650985e-03,-7.339970134932815270e-03,5.166146755218505859e-01
4.200520482471817307e-01,5.318493362064012908e-01,-2.429357551687633121e-02,-5.500624961473718098e-04,-4.223021610770981080e-04,4.204399287312200230e-03,5.095809698104858398e-01
4.984812808958873909e-01,4.778400327356413513e-01,-2.837731969841150725e-02,2.420928094362540493e-03,6.288736768709352748e-03,-4.919607236745434341e-03,5.170491933822631836e-01
4.995934208036837409e-01,4.962288456352983435e-01,-1.993534644094069330e-02,1.197589159458237835e-03,3.096227316992916732e-03,-9.707622306230766392e-04,5.178893208503723145e-01
4.604080285724679866e-01,4.541073901749379527e-01,-2.378451799863828819e-02,2.475360328370164193e-03,-1.555730719120406412e-03,1.792644120522311453e-04,4.810999333858489990e-01
4.962569820143802324e-01,4.874696298842548514e-01,-2.491259003533363714e-02,-9.373911695687616851e-04,1.340336522342868092e-03,-2.742143044247931545e-03,5.168614983558654785e-01
4.942723411962265945e-01,4.834777150727300188e-01,-3.197597279839203832e-02,-3.319153080699112791e-04,-4.648518999223105383e-05,8.355499425097004862e-04,5.209372043609619141e-01
4.853367035661507733e-01,4.795165462273750512e-01,-2.951055050171119687e-02,1.622239088602482702e-03,4.632391601360107353e-04,-3.658149160078462934e-03,5.120095610618591309e-01
4.987685502464700993e-01,4.929994688329258912e-01,2.094821843738764455e-02,7.254164671157910943e-03,7.124448142456664759e-03,3.761211628846525615e-03,4.753330945968627930e-01
4.941322736910493951e-01,4.877593921663217480e-01,-2.998257881734678332e-02,-1.107993118476589692e-03,3.154851819826254809e-04,-1.769101957445160401e-03,5.209704637527465820e-01
4.989292030534526190e-01,4.942486494777571515e-01,-1.870918484958067340e-02,1.912156632386291478e-03,4.294670516008536679e-03,4.519680293831316361e-04,5.153789520263671875e-01
4.947605480827695912e-01,4.855291617980367347e-01,-1.832695671425105255e-02,-1.064649072850018963e-03,1.998762205766741167e-03,1.219188481267388961e-03,5.085541605949401855e-01
4.972651212143717192e-01,4.822381477553362439e-01,-1.145395076512878418e-02,-8.715090105604344920e-05,1.287644185907739621e-03,2.292250603293799916e-03,5.013952255249023438e-01
4.952986829997519380e-01,4.950909329439101558e-01,-3.270373963437084308e-02,2.105291238788695000e-03,1.855239950253351330e-03,1.482811305271082396e-03,5.279272198677062988e-01
4.999134645944852129e-01,4.952709143926272706e-01,2.219476896981831260e-02,5.840472337049159614e-03,7.107657463794336133e-03,1.017376321900432482e-03,4.756846427917480469e-01
5.293536534211575884e-01,4.310069198361655141e-01,-2.540467740485913284e-02,1.977418932551796519e-03,3.382346307848359268e-03,-1.619809223444505135e-03,5.127612948417663574e-01
5.125519757105541085e-01,4.680242501565234914e-01,-3.362660424948898941e-02,2.314944600041411726e-03,2.120699601159602762e-03,4.707900555784746131e-04,5.253607630729675293e-01
4.973783129414109938e-01,4.851788342807208387e-01,-2.930743369328853154e-02,-8.845168419515645787e-04,4.471347281757766397e-04,3.028762567362518784e-04,5.206962823867797852e-01
4.875487061672420519e-01,4.915663135744375856e-01,-3.140425903155019682e-02,-1.882744941811953889e-04,-1.013900421000051748e-03,6.365867875954382693e-04,5.209776163101196289e-01
4.908635761872963688e-01,4.911874496535209023e-01,-4.395941382338508507e-02,5.795320577461452426e-03,2.844324244623876782e-03,2.618658608926468113e-03,5.351210832595825195e-01
2.943508032534156715e-01,5.660650342217518061e-01,8.659273894880969991e-04,1.440419507685834636e-03,-9.609692793980077405e-03,5.202899508578362128e-03,4.899698793888092041e-01
3.094409570082231054e-01,5.519528217850531160e-01,2.011080462452963236e-03,5.078784048279603438e-04,-1.240572304627089208e-02,3.754591173384479348e-03,4.778967499732971191e-01
5.229015318921396149e-01,3.868909076905331368e-01,-1.873335871665782193e-02,-1.538345233572855665e-02,1.338467870356000941e-02,2.400969222355005608e-02,4.910966753959655762e-01
3.465694809776624918e-01,5.340523960462740805e-01,-1.487765641616667356e-02,8.554409874565419014e-03,-2.320628090792821452e-02,1.045049184318118558e-02,4.855118989944458008e-01
4.908341414848349515e-01,4.915137283607172725e-01,-4.283118201251934209e-02,5.623363837283899477e-03,2.962337625966254741e-03,1.833502724367851600e-03,5.341283679008483887e-01
4.956245379984161037e-01,4.909250551715750865e-01,-2.150530485414009485e-02,4.141461554754379513e-03,1.910805073687888702e-03,-3.336546713028927264e-03,5.148892402648925781e-01
4.602623411502949069e-01,4.565190161773426958e-01,-2.025224090476118732e-03,-4.076735978631774066e-06,3.950981488939168777e-03,-3.071784143252423091e-03,4.605089128017425537e-01
3.220242096094142470e-01,5.667834605891608479e-01,-1.474825107523369816e-02,2.139807864507414954e-03,-2.858550098057600561e-02,-5.510343470180202943e-03,5.082392692565917969e-01
4.911121720464928231e-01,4.884107294830213886e-01,-4.257539017014833060e-02,1.884457596003812681e-03,3.570694936211429686e-03,1.571393980864173008e-03,5.323948860168457031e-01
4.545715715682775993e-01,4.494677898790830906e-01,-1.318820416787935823e-03,1.230584649589624123e-03,1.506013583094468545e-04,-9.746659143542315640e-05,4.533651769161224365e-01
4.861419666555442110e-01,4.675432682983873267e-01,-3.582458213111822110e-02,-1.083965457011025263e-03,1.205634935207695532e-02,4.985081790778352886e-04,5.133492350578308105e-01
4.953447543278205467e-01,4.949108908507264815e-01,-1.291739723793355887e-02,1.017499261460664411e-02,5.880344237363195094e-03,5.422689903337371553e-03,5.085396766662597656e-01
3.141680558297700321e-01,5.388261271914365214e-01,1.384371002698947528e-04,1.211962407610708663e-02,-8.056997960748353907e-03,-1.032198032515922476e-03,4.693332910537719727e-01
3.858323949995960400e-01,5.455896062795722035e-01,-1.658685914149643503e-02,7.171393655052100968e-02,3.280518557077385933e-02,2.000595914942081711e-03,5.200213789939880371e-01
3.935265208278992399e-01,5.279910193099304205e-01,-1.695298198693845348e-02,2.950839257646529698e-02,1.837119925715368154e-02,-3.101066845413821393e-03,4.954014718532562256e-01
7.481708496918177964e-01,7.187117514332812540e-01,9.852433188895870497e-02,6.231780125281677352e-02,-3.107622319130477762e-02,-8.146705073262669461e-02,6.619884967803955078e-01
4.923820970956090948e-01,4.874160704404866817e-01,-3.330573446581674979e-02,-5.071437640950017680e-05,1.058726565800732723e-03,-1.372906666087514264e-03,5.232310891151428223e-01
3.490078006319640158e-01,5.680319474415983505e-01,-1.030411166805728085e-02,2.568965798236877776e-02,7.392045022430966672e-02,1.320101529143833871e-02,5.240896940231323242e-01
5.367227880478688817e-01,3.502556682288410772e-01,-3.531891166650313885e-03,-1.769369114835119342e-02,-1.295583988263129815e-02,-5.578150017891859297e-02,4.865006208419799805e-01
6.099426952104533006e-01,4.713791309484566261e-01,6.922945298872323905e-02,-3.751709493161606290e-02,-1.039994098385419452e-01,-7.302867061242733493e-02,5.378822684288024902e-01
3.819317051631397897e-01,5.254825436181129739e-01,-1.634397275001236993e-02,-2.225563253301040580e-03,1.327175927542798874e-02,1.004957922310616017e-03,4.867745637893676758e-01
3.830645183667688580e-01,5.491608501145612831e-01,-5.478589274052036995e-03,2.381308224334563461e-03,2.621753266113033623e-02,8.627604201693285860e-03,4.953702986240386963e-01
4.999723186631349625e-01,4.897834203414386245e-01,2.295075500498977572e-02,3.837070634801411674e-03,6.181265879398884465e-03,7.347587456950212086e-04,4.721795022487640381e-01
3.085789528014275529e-01,5.540887096419893076e-01,-1.808685118219360843e-02,-3.104417045395243928e-03,3.197727985533019984e-02,1.198872671504393021e-02,5.007124543190002441e-01
6.877602081092659692e-01,3.497785678428981804e-01,3.344452522955826401e-02,-9.953383141028854242e-02,-5.715530329267261983e-02,-8.568539143509862344e-02,6.186768412590026855e-01
3.850026131963603104e-01,4.860413282623207154e-01,-6.881640690799495363e-03,-4.010505511072354201e-02,-8.444115180687324779e-03,-1.271881286611977434e-02,4.570580124855041504e-01
7.911908729197554280e-01,3.694868951611970376e-01,2.168313309770503183e-02,1.230001423395962606e-01,1.965867050521476894e-02,-8.759835774381967421e-02,7.176620960235595703e-01
5.145661154497649381e-01,4.172531127265933781e-01,-2.719866099790924086e-02,-1.686134836223187120e-02,-1.331287463032079267e-02,-2.460507891829119553e-02,5.034471154212951660e-01
4.948890147672682094e-01,4.838719720032702565e-01,-2.011913306782503463e-02,2.088264924518615142e-03,-2.631761725728133661e-03,-5.315313632508077493e-03,5.097053050994873047e-01
2.707160689801364484e-01,4.459212427280765390e-01,-3.191462118720070351e-02,-2.218474408673483389e-01,-8.171009413480204847e-03,-4.666294585397113247e-03,5.685236454010009766e-01
3.437577044692320394e-01,3.895762490882467288e-01,-6.494502918298533656e-02,-2.564142845672336968e-01,2.687076343948167564e-02,-4.320111841605564496e-02,6.267961263656616211e-01
4.392190011028259677e-01,5.670112676077525560e-01,-4.228917424490064025e-02,2.725706855301946938e-02,4.116463447340631965e-02,-4.892904633459504472e-03,5.631147623062133789e-01
4.938807340622167197e-01,4.918524027253837194e-01,3.111187392316028255e-02,1.367184640383329718e-03,2.812671077693192686e-03,-6.431357073121984555e-03,4.619241356849670410e-01
3.555496760962988945e-01,5.464746362189989437e-01,-2.051498621211050866e-02,-7.893663595595486193e-02,-3.558131580007010270e-02,-7.482104722871851625e-03,5.218583345413208008e-01
4.841087162439563496e-01,4.939757910247551953e-01,7.379352847850512154e-02,2.982245524557696446e-03,-1.639844354877603109e-03,2.798652556740645336e-03,4.154067635536193848e-01
3.243257103134958852e-01,5.591531774125513277e-01,-3.560047802691646002e-03,-9.421142957704360665e-02,-2.863398133959689767e-03,7.125060001086752984e-03,5.161917209625244141e-01
2.434413174839990535e-01,5.528979768621669066e-01,-2.535702568463443773e-02,-1.332786291708767390e-01,-6.675559255486136767e-02,-3.859471148252009015e-02,5.677363872528076172e-01
1.766338651582093355e-01,7.758754928806196327e-01,-1.141032170758635167e-01,-5.396281059565226357e-02,3.080281106762826349e-02,2.294045292854158050e-02,7.943560481071472168e-01
4.956178311504889078e-01,4.953379359923859582e-01,7.922221940072915469e-03,3.002083681061500607e-03,-2.352673260979249988e-04,-7.072025812430467531e-03,4.877374470233917236e-01
2.627290853370292667e-01,6.067910787859012167e-01,-1.164383136470042990e-02,-3.485597287675383515e-02,-2.958842164261920107e-02,-9.621407883985473586e-03,5.427793264389038086e-01
3.592038113764055018e-01,5.225032375078173530e-01,3.404742195394772075e-04,-5.100944240079217235e-02,-1.284039379368709377e-02,-1.174594894331323913e-02,4.719811379909515381e-01
5.238636399322166293e-01,5.250662268072174843e-01,2.945292071513000431e-02,2.196924056042712584e-02,-2.784254693903431138e-02,-1.538610712528917616e-02,4.995215237140655518e-01
4.930064165878411120e-01,5.237855773856597841e-01,8.905176675786902196e-02,4.768233903948011082e-02,-3.823933765892398307e-02,2.690908314556354416e-02,4.358210265636444092e-01
2.055788723978809462e-01,5.701235115124717590e-01,-1.871035310238633453e-03,-3.350725828195900285e-02,5.196781219259319178e-03,9.622001677567867950e-03,5.052524209022521973e-01
3.497982449020837770e-01,5.242602402085015934e-01,-9.281372910949547972e-03,-1.835624818831477906e-02,-2.031709387210452189e-02,-4.547045032724418220e-03,4.736371338367462158e-01
2.934735056311086332e-01,5.543153656679442598e-01,-7.431232154785860633e-03,-3.240177390528304474e-02,-1.788911065970712547e-02,2.629551559706819457e-03,4.911223053932189941e-01
2.576420049784046151e-01,5.184764705269467866e-01,6.570847306251625941e-03,-7.544970179998827797e-02,-5.074282629460087624e-03,7.834364647502478629e-03,4.624918401241302490e-01
3.101159177535678935e-01,5.560672476349757254e-01,-6.537148650513135983e-03,3.348257174545757331e-02,-1.189563135786649321e-03,5.136771609681184923e-03,4.920255243778228760e-01
4.865908392864246590e-01,4.962104884197011123e-01,5.122231411810906909e-02,-1.017012991049571591e-04,-1.855710829261753361e-02,-5.123511488547258935e-03,4.415181279182434082e-01
5.087157725796546126e-01,3.415598363890479661e-01,9.683371658971207108e-03,-1.378344880221986195e-02,-8.024228599276853405e-03,-7.726176586890621568e-03,4.410220086574554443e-01
3.140404556381493073e-01,5.655406342961859512e-01,5.928620605537560095e-03,3.134136626675249494e-03,-1.891116970463407963e-03,2.776273577423933429e-03,4.855293333530426025e-01
4.850615649641528693e-01,4.984384318734422781e-01,1.727374208917670240e-02,2.270660478311886925e-03,-1.314534659394373667e-02,-1.923022991505643139e-03,4.751914143562316895e-01
3.133158952165930877e-01,5.332011878442217689e-01,1.009917353536837759e-02,-2.965579126454972320e-02,-1.661320858183428818e-03,4.715451562906120865e-03,4.579041302204132080e-01
5.016248606977390390e-01,4.682732115116748917e-01,-3.280041280033235696e-02,-5.841618392858167683e-04,6.731171201690661771e-03,1.489702862505957418e-04,5.186865925788879395e-01
5.010503700417036077e-01,4.897524023562002116e-01,-3.408909147150540608e-02,5.520903015700733647e-04,-2.227420132115960454e-03,-1.642630703343945977e-03,5.296034216880798340e-01
3.521364585134986180e-01,4.795711414088760227e-01,8.993898975429737153e-03,-3.448036549602275652e-02,-1.531288939712533272e-03,-4.362479322773856090e-03,4.258467853069305420e-01
4.824896887402086998e-01,4.881430806577795600e-01,-4.435326308116843697e-02,1.550178032253848610e-03,2.124793415815429652e-03,2.639115305824953073e-03,5.297315716743469238e-01
4.718082914757232293e-01,4.794497037819528407e-01,-3.966146525535524381e-02,-3.967947012761750304e-03,9.124678635480054645e-03,8.251694934419913363e-03,5.158190727233886719e-01
4.979667873684237578e-01,4.817874172217013751e-01,-3.229505182946990072e-02,-2.785008857262588028e-05,-6.951306513932499617e-04,-1.981129034357609949e-03,5.223727822303771973e-01
3.206183133587359180e-01,5.298385023565995722e-01,2.498548345143569716e-03,-3.019004359293087775e-02,2.015861750783422626e-02,1.923876239087630308e-02,4.653967916965484619e-01
3.079804199049286928e-01,5.475839719103094971e-01,9.542513118538931138e-03,-3.094941032442772091e-02,9.692890403635359958e-04,4.079521090203041232e-03,4.700087010860443115e-01
4.748620515208612503e-01,4.682112663777263650e-01,-2.610994188633852797e-02,2.673602437343098551e-03,1.335374973561401224e-02,1.634659448205982163e-02,4.990424513816833496e-01
4.925093945626023428e-01,4.048275932217975659e-01,-6.034026736451369999e-03,1.029630312149173305e-02,-9.980261507004369731e-03,1.711379681913474324e-02,4.626185894012451172e-01
4.986451627190445768e-01,4.161405930116415797e-01,-9.440996842869919803e-03,1.698540896942810421e-02,-3.327539261875628838e-03,-2.687246151879727450e-03,4.732435941696166992e-01
4.907895013648185811e-01,4.931773164071459603e-01,-3.667728722252766582e-02,5.282649919302748014e-03,5.110023397063134971e-03,5.186658368017967036e-03,5.288943052291870117e-01
4.915089974602825373e-01,3.936090554984829071e-01,-6.779813205694096290e-03,-7.270965015446324842e-02,4.133175984180154083e-02,6.144569411193170211e-02,4.913302659988403320e-01
4.830113663062526319e-01,3.959363514701316200e-01,-1.315436925347301944e-02,8.189333079252202052e-02,-1.288922459594845152e-02,2.812173453414765906e-02,4.832693934440612793e-01
5.373754247504303194e-01,3.808872252957984372e-01,3.199345142273435361e-03,1.156097259283137418e-01,-3.551795231459933117e-02,8.622666867579670269e-02,5.407651066780090332e-01
5.044244792740496530e-01,4.777255168735869417e-01,-3.105480424082801560e-02,8.055811822603051392e-04,1.545144028003816962e-03,1.288896586416858527e-03,5.226550102233886719e-01
4.861918677733462202e-01,4.970014692855319050e-01,-1.916294418608038841e-02,1.295995742335679865e-02,5.126771667775634721e-03,-8.555518853416797646e-05,5.114154815673828125e-01
4.710108500718637181e-01,4.186283198994036336e-01,-7.073826101147484557e-03,1.417898495457425335e-02,-4.601452592181603032e-03,1.346133272903433410e-02,4.554952085018157959e-01
4.745687036925864688e-01,4.413458211520533969e-01,-7.060359092254164803e-03,3.883727327927821021e-02,-5.983323904284481957e-03,8.721255626177129919e-03,4.710942506790161133e-01
4.622284057507026755e-01,4.688837027663506074e-01,-1.379719595536921251e-02,1.314300722224228182e-02,-4.574180336957335037e-03,6.691110305677568440e-03,4.801333844661712646e-01
5.632620732640348793e-01,4.834971746975449403e-01,6.222829578422794938e-04,-9.423925396415388026e-03,-1.186699771676324490e-02,-3.295221687413829592e-02,5.310305953025817871e-01
4.932538627138136622e-01,4.768437280735868256e-01,-3.907454734305337851e-02,-2.060421134136692744e-04,-2.227773111139974126e-03,-6.005409467238150044e-04,5.243313312530517578e-01
4.806554066989590646e-01,4.723269285748423751e-01,-1.934779825078664084e-02,1.576898015803283523e-02,-1.209270718694381401e-02,1.336632482708140050e-02,4.976233243942260742e-01
4.921792234191102455e-01,4.854385140000760934e-01,7.397712179380927511e-02,1.879315668282856028e-03,3.035783965589206046e-03,-2.281394102962570284e-03,4.149377346038818359e-01
4.928374330318423535e-01,4.883193771654810167e-01,1.100845932959977902e-01,4.867919960136247483e-03,-1.387711298354409994e-03,-3.269724062662582482e-03,3.806570470333099365e-01
4.935889636895798294e-01,4.913198300965060938e-01,-4.258593206574790013e-03,-2.499885499886042584e-03,2.380166674312531559e-03,-6.273715373113538350e-03,4.968716800212860107e-01
4.869766607405256464e-01,4.809227108988106680e-01,-3.981823348532681495e-02,1.695144660880717872e-04,-3.202206241918454863e-03,-3.091812470106567595e-03,5.238509774208068848e-01
4.956436934495128677e-01,4.874749204302309957e-01,-2.398295745079398467e-02,1.417024825590838550e-03,-1.392333916209698760e-03,-2.714624010172871343e-03,5.156237483024597168e-01
5.024211090696776294e-01,4.703910435031570803e-01,-3.415080393573266537e-02,-7.409207822785844133e-04,-8.629785585017474845e-04,-5.630630075216545849e-03,5.213903784751892090e-01
4.998330058991182767e-01,4.731363979052886082e-01,-1.022742489867561888e-02,7.427621270741477551e-03,5.376244903697302395e-03,-5.005067594084764218e-03,4.975789785385131836e-01
4.869174632786960055e-01,4.770393556382191425e-01,-4.046030137847261843e-02,-6.505814786397830381e-05,-2.412171803993097639e-03,-1.278895195553957304e-03,5.225301384925842285e-01
4.924373108203554117e-01,4.969627135173066979e-01,-1.355420606344409640e-02,8.681104503508363726e-03,6.901027168455672704e-03,5.879623118070506985e-03,5.087341070175170898e-01
4.874189916252965604e-01,4.925842334777124076e-01,1.273914804147657787e-02,1.532672012008004948e-03,1.798074916413420002e-02,1.641128615858648485e-02,4.791496992111206055e-01
4.786452749074542323e-01,4.935675032203727941e-01,5.049185897066016393e-02,-5.536073929158460104e-03,-2.163350980894057293e-02,-8.284847755535897432e-03,4.377543926239013672e-01
5.022414875132301670e-01,4.774166116346615363e-01,-3.486729565612045612e-02,-5.096906388366839995e-04,-4.291440134019101796e-04,7.536215141178514813e-04,5.251395106315612793e-01
4.958593014866267135e-01,4.874860333578692195e-01,-2.600759881318981392e-02,-1.086919472018932830e-03,9.001679017550865119e-04,-2.401748416255886955e-03,5.177535414695739746e-01
4.928211851019104750e-01,4.978527700633152420e-01,3.636283983166921363e-02,3.331897065057006554e-03,-7.000449887413462760e-03,-2.544751731106857824e-03,4.592123627662658691e-01
5.840028032676838343e-01,5.054034054390977859e-01,8.090381058358486754e-02,-4.308098002284064393e-02,-2.498400137747448790e-02,-1.216912684249752963e-01,5.211621522903442383e-01
6.996919283324937178e-01,5.828970333284269056e-01,6.064601914086459322e-02,1.364719721628203930e-01,-5.673656373137513087e-02,7.744373933205364602e-02,6.564350128173828125e-01
5.135328077481109421e-01,4.313470807763260528e-01,-2.676586351946896869e-02,1.464005189507299170e-03,1.133587092450518904e-02,-1.605193092943066205e-03,5.046503543853759766e-01
5.008901539559578175e-01,4.911397604809693007e-01,2.152408084529711108e-02,2.880240434108299712e-03,3.291714776521868346e-03,8.571010373219790576e-03,4.748585820198059082e-01
4.988442119297182842e-01,4.891990564435352296e-01,6.816863124483030223e-02,-4.062384943784270942e-04,-3.792581561568593549e-04,-1.198014573286318440e-02,4.264411330223083496e-01
4.875802014911305160e-01,4.911111499072735587e-01,6.236516397549107804e-02,5.541363487618849483e-03,-6.175073672491508334e-03,-8.440012982707367079e-03,4.274832308292388916e-01
5.007688471542395270e-01,4.923796838665207565e-01,3.361000236921568574e-02,5.234143947215662805e-03,2.945217849562256456e-03,-7.975306167653491499e-03,4.633440673351287842e-01
4.923651687737307103e-01,4.902160241930103024e-01,8.612930196519413828e-02,8.166548162310249478e-03,4.292700030596284175e-03,2.581603467005596977e-03,4.055052399635314941e-01
4.575718478780610443e-01,4.409158198735327883e-01,1.697965164453030251e-03,1.111355267830058460e-02,4.210385751967113226e-03,-3.386242635792535726e-04,4.482515156269073486e-01
4.834248451071629926e-01,4.767013653730320932e-01,-4.149720520204097651e-02,-7.533679043525901139e-04,-6.748121527850918728e-04,-1.098375037344324857e-03,5.215992331504821777e-01
4.970561129499463382e-01,5.212827753514972517e-01,4.824059466761204673e-02,-1.997983745985099438e-02,-1.392624540530968888e-02,-1.617539980987748455e-02,4.641766250133514404e-01
4.963464610605918814e-01,4.880902866593734846e-01,5.662310078608540076e-02,3.577000436285812483e-03,5.576876655916855260e-03,-5.205171520902003579e-03,4.358983039855957031e-01
5.012242513024662838e-01,4.594417915619407600e-01,-2.904207591725099791e-02,2.556178096236776023e-03,-6.225741510918692684e-03,6.107356885256459700e-03,5.109012722969055176e-01
5.064645130355328595e-01,4.751406304547737269e-01,-3.351037009771989927e-02,2.782682298364884746e-03,5.514948529061210842e-04,-1.120476926450174630e-03,5.250408053398132324e-01
4.856957542461868282e-01,4.596422173320562354e-01,-3.312857609965669248e-02,6.333304687763720861e-04,9.892321912905323311e-03,5.185553865545956820e-03,5.066711902618408203e-01
4.983001714318294750e-01,4.885978239532294265e-01,-4.078677781778589084e-02,1.779550606958412318e-03,7.685566810440731247e-04,-1.441895018573207104e-03,5.343182086944580078e-01
5.721512689871521840e-01,5.040362163239987536e-01,-1.526700028250960184e-02,2.926608620249615197e-02,-6.491532035030215218e-03,2.291242177552741885e-02,5.603201985359191895e-01
5.220401202843580890e-01,4.066249081479486605e-01,-1.454456862582070853e-02,1.679853349630055018e-02,-3.911257972874076019e-03,2.379847744056394487e-02,4.918387234210968018e-01
5.163678610799721236e-01,4.175570714945415762e-01,-2.682229880654646292e-02,6.376586186044083844e-03,4.049455470063072215e-03,-2.686423088692965148e-03,5.013371109962463379e-01
4.897546350658685821e-01,4.982654565301959382e-01,2.389585045399983398e-02,6.004619728221046067e-03,8.940671166609771197e-04,6.501714744183931076e-03,4.704243540763854980e-01
4.944177266885406707e-01,4.961624745768152822e-01,-2.926447030690332296e-02,-1.399573423442327844e-05,-5.129421791805577162e-04,1.548965249196974057e-03,5.245643854141235352e-01
4.965912625109943357e-01,4.921604860244223612e-01,-4.038615677241647051e-02,2.838932401460751969e-03,2.821574949508895858e-03,7.591367840092903135e-04,5.348223447799682617e-01
4.964647254611038729e-01,4.976836013905867051e-01,-3.503163862255781469e-02,7.413549742476306312e-03,3.528654876593046840e-03,4.009648563658122986e-03,5.323421359062194824e-01
5.014036850713206039e-01,4.791741791763041158e-01,-3.749286144090108186e-02,-2.361285434108838146e-03,3.356436343030175413e-03,9.359797998464119972e-03,5.284293293952941895e-01
5.050726294505321068e-01,4.370253849407195190e-01,-3.320895016852559722e-02,-5.807124823507818674e-03,-9.215095309358715264e-03,-9.951511923029418213e-03,5.083324909210205078e-01
5.182861236477632749e-01,4.257697604279011006e-01,-2.858400313058290232e-02,4.593848498052900665e-04,-1.670637697603600961e-03,2.032987174389566578e-03,5.070041418075561523e-01
4.982088672187895417e-01,4.874278861663979279e-01,-3.554954994159720272e-02,1.928767005353853713e-03,7.782080031561516235e-04,1.693906976780566167e-03,5.284708142280578613e-01
5.687827226828807703e-01,3.687277275799852871e-01,1.454035438396983348e-02,-1.941546812447891290e-01,-8.183528702159149903e-02,-7.059409461201521241e-02,6.200462579727172852e-01
5.421470458007823234e-01,3.537638279800247032e-01,-1.616455131409105794e-02,-1.734370522889056368e-02,-9.216934587195326628e-03,-4.190431804562436829e-02,4.984463155269622803e-01
5.145699089206825505e-01,3.492449882800268135e-01,-3.973764292462211856e-03,-2.305824690836377408e-02,-9.713574918947564737e-03,-2.363203033130845468e-02,4.626502096652984619e-01
5.129148159345484626e-01,3.576400531393024718e-01,-6.115664711097257289e-03,-1.138708457731099286e-02,1.432722463756161066e-02,1.132513909683071306e-04,4.625099003314971924e-01
5.007380027933214794e-01,4.754034997372331706e-01,3.630985901152616879e-02,1.060471423013400246e-03,3.419395176835260397e-03,-1.533217171697145347e-03,4.523436427116394043e-01
4.973384797317592643e-01,4.838540766316710151e-01,-2.410201952369533940e-02,4.061780371693212094e-04,-1.009059991262872651e-03,-3.570214470437857446e-03,5.148713588714599609e-01
4.989633139803358874e-01,4.792876792094742378e-01,-3.300946754646422177e-02,3.686598205651566438e-04,7.767854621678996511e-04,6.112151893807129567e-04,5.224161148071289062e-01
5.061745444329945887e-01,4.682833510673261035e-01,-2.047861796519190314e-02,-6.073890341357734285e-02,-4.032790242824865756e-02,-4.893635053763153303e-02,5.310129523277282715e-01
5.018599096818797678e-01,4.595258511445590166e-01,-3.186173629818034314e-02,3.735681294490644355e-03,-8.369492861602170763e-03,-1.086381938190500614e-02,5.144535303115844727e-01
5.385627885063228870e-01,3.616104410827304383e-01,-1.333609518421358109e-02,-5.664301546992503433e-03,-2.960077576723465619e-04,4.221117703153762354e-04,4.882025718688964844e-01
4.833286466422903049e-01,4.848609610917608559e-01,1.143317584827823752e-01,-2.675293183139024374e-04,-1.665808939423469746e-03,-2.604332509014954319e-03,3.698044717311859131e-01
5.545256715750644938e-01,2.942868666424024449e-01,-2.781271130199519659e-02,-1.129164631429259019e-01,-5.330042978837578813e-03,-4.445933129110453408e-02,5.473213791847229004e-01
5.128611244830867388e-01,4.670873951100563137e-01,-2.696041958144218542e-02,-2.134409710881437789e-03,3.586144034651181107e-03,-1.868067086374772603e-02,5.195113420486450195e-01
4.953145046571953980e-01,4.924154281097144481e-01,-2.351596972078429104e-03,4.156579225746726523e-03,-2.626240925869957263e-03,-1.040949703790876139e-02,4.966233670711517334e-01
4.933475060869386142e-01,4.806694467080367961e-01,-3.450973233265097750e-02,9.196600201045481131e-04,-2.990006172334438734e-03,-2.610810197151125587e-03,5.216814875602722168e-01
5.374278110450105839e-01,3.957154023809185683e-01,-2.448063703246239342e-02,-8.312183652462125025e-03,-1.986970465942539555e-03,-2.263478258867902132e-02,5.078880190849304199e-01
5.200576694910505893e-01,4.003514945715783702e-01,-2.165115352995217179e-02,-1.619920620440126963e-03,-7.922095056279457315e-03,-1.478640320042802839e-02,4.937450587749481201e-01
5.802814072061166506e-01,3.086902317243129801e-01,-2.791929383332186765e-02,-6.545778418301503865e-02,-2.104041398201052585e-02,-7.041781032137106600e-02,5.545684695243835449e-01
7.735862986374573147e-01,1.610045468790401169e-01,-1.411450802985669828e-01,-1.108716303977185236e-01,1.164348540373886035e-02,4.745988246788750489e-03,8.300566077232360840e-01
4.945970251023547037e-01,3.293745727891454478e-01,3.969132220856819160e-04,-9.202566468369549613e-02,1.107442010831612665e-02,1.291452395622650316e-02,4.649233222007751465e-01
4.884994202770419069e-01,3.662672303756794867e-01,7.163342288955376613e-03,-6.364466452496311821e-02,5.259697800325204356e-03,1.550332117243926559e-03,4.472499191761016846e-01
4.875851008611019610e-01,4.872985029783474253e-01,6.211541951522625560e-02,1.369818704009989922e-03,-4.407442569204212540e-03,-7.633145429381735063e-03,4.256069660186767578e-01
4.978205667754129204e-01,3.566651289563389504e-01,4.378069430954367736e-03,-2.247419726711088681e-02,1.595175012845710324e-02,1.701124776309655140e-02,4.437398612499237061e-01
4.952507168222335387e-01,3.540076909536489791e-01,9.962145996243454427e-03,-3.486830566599604525e-02,5.008003717864117563e-03,-6.328795640509302404e-04,4.366174638271331787e-01
5.774274570961233088e-01,2.771803217492390670e-01,-1.336648716795302283e-02,-6.734199412889017855e-02,1.683799044961675415e-02,1.953840239245301091e-02,5.266899466514587402e-01
5.238887678783576973e-01,3.023914128873801954e-01,1.222147450111787936e-03,-6.278392186244570461e-02,6.874519608651165001e-03,-8.618712990493096774e-04,4.673774242401123047e-01
4.879109118313759152e-01,4.884758450019540121e-01,1.149410867358404142e-01,3.747484822838537902e-03,-3.168117577742478666e-03,-3.781603627277905534e-03,3.734068274497985840e-01
4.628641783697083900e-01,4.665512219969304430e-01,-2.778757105047896525e-02,-3.257641871226504057e-03,4.753343750836118257e-03,6.567709804327339675e-03,4.927380681037902832e-01
6.990162550300214050e-01,5.104593910321449934e-01,7.512884370927669364e-02,-1.880063500978494673e-02,-4.902341250521209670e-02,-1.196692601572518222e-01,5.986513495445251465e-01
5.460351254251424313e-01,5.455666109973262845e-01,5.377878982287997989e-02,3.396313016069947566e-02,-1.748609900056077859e-02,9.012782766515882449e-02,5.204159021377563477e-01
4.796740366021468027e-01,4.787985571546935493e-01,-3.936729193527077619e-02,-8.334957594015908336e-04,3.937673179029470977e-03,2.455773897392930435e-03,5.186684131622314453e-01
4.736609301222434176e-01,4.775729768182777057e-01,-3.019353452979628427e-02,-2.881771465768611165e-03,6.786786219482854148e-03,9.493603948392806760e-03,5.062501430511474609e-01
4.738215006491811043e-01,4.704030227704122380e-01,-3.480912881648945412e-02,-3.466997543486739428e-03,5.937935783133716817e-03,1.288887432875025600e-03,5.070748329162597656e-01
5.074886068179056409e-01,4.514205169589899924e-01,-2.967831542853271998e-02,4.282090745968828056e-03,-1.933435094908536600e-03,-1.372219608523516168e-02,5.120596885681152344e-01
5.132212644330843565e-01,4.724700388680855845e-01,-2.119890986332417793e-03,3.724406865625958050e-03,-2.222805059572803728e-03,-1.259258319429345380e-02,4.967580437660217285e-01
4.949997661385398540e-01,5.288375221674863624e-01,6.223057419722594075e-02,1.124144598969790271e-02,-4.380496439271562917e-03,-1.294896617241399379e-02,4.516833126544952393e-01
5.220533351665530564e-01,3.982395320047823484e-01,-2.511564586813647137e-02,1.031599453117601397e-03,-9.511729171867970719e-05,-2.392710568687598724e-02,4.986957311630249023e-01
4.915613132659041318e-01,4.805609790995573616e-01,-3.759399826504750131e-02,6.572951643379436586e-04,-8.530163080796734215e-03,-8.772026057929798587e-03,5.241716504096984863e-01
7.399536251444160939e-01,2.932882395924188978e-01,3.823507111614687926e-02,9.837740055207928880e-02,-5.409048098403960309e-02,-9.003855322129358796e-02,6.637906432151794434e-01
4.957076932475148467e-01,4.958532101305183071e-01,-3.381352768896422889e-02,1.962840709838738120e-03,1.493519971482548713e-03,1.873485825729341277e-03,5.296211838722229004e-01
5.304068543229991661e-01,5.100874630423362088e-01,4.046074528253218450e-02,2.907994433368452786e-02,-1.096327102286537639e-02,9.054943003352032820e-04,4.831196963787078857e-01
4.903393413791327093e-01,4.990991869496176903e-01,1.029467846450615731e-02,-2.047603254702892728e-03,4.940424247315494156e-03,-2.204010343417251837e-03,4.845875501632690430e-01
5.463770378611527700e-01,3.426844929906935899e-01,-2.431256438047008084e-02,2.245405337782059585e-02,5.650308605812861401e-03,-4.340513051781388215e-02,5.081263780593872070e-01
4.853712909786388474e-01,4.979227488170647753e-01,2.577102820577192865e-02,-1.559523861668272700e-03,-3.056762069372143207e-03,5.696596330161584655e-03,4.661451280117034912e-01
4.980072586303702087e-01,4.903725485103116455e-01,1.978904846662910000e-03,1.310699443882066325e-03,1.236010524719030547e-04,-7.985920763293689190e-03,4.924549758434295654e-01
4.204227897184799612e-01,5.147086320445634078e-01,-2.498749789985788006e-02,-1.319112830929239800e-03,-4.723986263564042558e-04,3.652211964102613975e-03,4.993214607238769531e-01
5.005130385258126369e-01,3.815835348453595066e-01,-1.302594359126219015e-03,-1.004013500911917801e-02,1.456151412294359564e-02,1.219621849554055086e-03,4.552202224731445312e-01
6.100985283098017131e-01,3.712202757237161865e-01,-4.579537943214884166e-02,2.720318853283391902e-02,-9.845320762150690935e-03,-2.067742935547414035e-02,5.782511234283447266e-01
4.918073969741590945e-01,4.997592177179476236e-01,-1.998834754992917517e-02,4.163261805729711815e-03,1.704153466877270269e-03,3.107778985788703114e-03,5.159045457839965820e-01
4.983944730268651258e-01,4.857977407226994337e-01,-2.867891449933357428e-02,9.365215332583195010e-04,-2.279182637009181337e-03,2.035321160149676598e-03,5.209186673164367676e-01
5.419223527333045798e-01,5.564596090018815167e-01,6.380493505305401269e-02,1.453363153322998098e-02,-1.821036788557994779e-02,-1.743666762493702518e-02,4.881585240364074707e-01
5.145592451669491751e-01,4.818119616667605465e-01,-3.246765571186266408e-02,2.717197364860705639e-03,-4.716900130789741449e-03,-3.117951583322441014e-03,5.315216183662414551e-01
4.983351278764845960e-01,4.845775606490195786e-01,-3.319148844159608425e-02,1.025847941356308529e-03,-1.646635929594895010e-03,-1.590607650456121215e-03,5.248010754585266113e-01
5.016029164176254440e-01,4.989179862864583370e-01,8.649208798680568799e-02,1.368729151530980424e-02,-7.019030785942774941e-04,1.300427793202803620e-03,4.144613742828369141e-01
4.589156886564277893e-01,3.843204623247210017e-01,-2.825826275463055870e-02,-9.482421210853851645e-02,-2.612395222053559216e-02,-3.741247654131264061e-02,4.896768331527709961e-01
4.856567411348221008e-01,4.859854838046010483e-01,9.356600977431106525e-02,2.030099692826301157e-03,8.718924592231135084e-04,2.301778955695027440e-03,3.922941386699676514e-01
4.951341436514163918e-01,4.961940072764188803e-01,8.052825748163355835e-02,7.872233795081538116e-03,-6.051160615073129453e-03,-5.862426374988092236e-03,4.156169593334197998e-01
5.016742754337446542e-01,4.721188293102054345e-01,-3.170393256075004773e-02,-4.657116026380454777e-04,5.966579556573508919e-04,-4.946829349662441172e-03,5.193040966987609863e-01
7.849489665704599828e-01,2.023900467324987185e-01,-1.017395068414648773e-01,7.302133200086567688e-02,4.394791044285294851e-02,4.038082075600667176e-02,7.973239421844482422e-01
5.368656070370292355e-01,5.217371810503794727e-01,4.522380301113260170e-02,3.048114275584152058e-02,2.273333209485274120e-04,-1.210433269086334286e-02,4.875753819942474365e-01
4.789959798446483119e-01,4.659120093809259178e-01,-3.504936744184222741e-02,-2.056038513269953065e-03,-4.982955376071887890e-03,-8.252070136436234511e-04,5.077177286148071289e-01
5.090331253860354010e-01,5.586532105323253061e-01,1.003728301880693619e-01,1.123302967575945041e-02,7.187276965837254179e-03,-4.835493362024101405e-03,4.362875223159790039e-01
4.997131137653022526e-01,4.799481912406639017e-01,-3.301988929852484045e-02,5.488099810313131887e-04,2.005324747791610053e-03,1.648907813466012453e-03,5.231508612632751465e-01
4.954351119119816405e-01,4.737246532798151666e-01,-3.770856328007116121e-02,-4.639979023787519177e-04,-1.447501037757498860e-03,4.730082264683414437e-04,5.226340293884277344e-01
4.971978103253297809e-01,5.023761835043308865e-01,6.553406408928597049e-02,-2.048791496948788003e-03,7.707839625691578593e-03,-6.888885456534938299e-03,4.346595406532287598e-01
4.983322315696008253e-01,4.908926368807652874e-01,4.408779514290062096e-02,3.940643032915266616e-03,1.007362486548520585e-02,-7.740816166250497933e-03,4.511593282222747803e-01
4.952920974572537771e-01,4.925377390071117301e-01,-1.958164969866132976e-02,5.737728245161033934e-03,-2.422827853985504501e-03,-4.213775527122562078e-03,5.136672854423522949e-01
4.250384025423797896e-01,4.808638962748809087e-01,-2.100389851307477018e-02,-6.610854897218168894e-03,-1.489480171895299007e-02,-1.678892200318710462e-02,4.781349599361419678e-01
5.203331811100633253e-01,4.948500757269651551e-01,6.556932661779091287e-02,6.632656870498607887e-03,-2.818107035313158898e-03,-4.814625476215524807e-03,4.428274035453796387e-01
5.419377542855901009e-01,5.020229215633997821e-01,8.751869339140694315e-02,1.150710500090130518e-02,-2.560182761652854411e-02,-6.223744274567666801e-04,4.385391473770141602e-01
5.036165680349609097e-01,5.760174954622909738e-01,2.469048077165419963e-02,3.604424772476075289e-02,-1.636121257767219131e-02,-1.582281077607409006e-02,5.241550207138061523e-01
4.851725250270503276e-01,3.928500987596359462e-01,4.412351024594274307e-02,-1.022857370494165696e-01,-5.199983688574326413e-02,-8.014684613658627776e-02,4.702111780643463135e-01
4.974612359848398779e-01,4.811314050690720379e-01,-3.230024048539770209e-02,-6.389285334328511463e-04,8.574793072190813048e-04,-4.331450409742855566e-04,5.217920541763305664e-01
4.789473359274207809e-01,4.701466022560925051e-01,-3.884812991073066657e-02,-2.018028001244249765e-03,-5.038694929088992185e-03,-2.915421233719445344e-03,5.135625600814819336e-01
5.181825331600310447e-01,4.894550678033634528e-01,-3.129424883898307419e-02,4.683778848327591754e-02,2.460936617285189917e-03,-1.492981253425421269e-03,5.418220162391662598e-01
4.926894518173973170e-01,4.907826483747222968e-01,-4.275732809769172693e-03,4.491384988396245233e-03,-5.423690291519529111e-03,-5.246772860236455227e-03,4.962476789951324463e-01
4.792765319915123223e-01,4.446811204114807792e-01,-2.630104921067527579e-02,-4.470976841868386405e-03,-1.433449994473926653e-02,-1.231092019094418791e-03,4.898936748504638672e-01
4.862753715284072742e-01,5.176640335940444482e-01,1.342085597299841337e-02,1.375257579873093508e-02,-3.082459727627739812e-03,-5.807914273126118902e-03,4.900163412094116211e-01
5.070372632980937322e-01,5.100735460405483312e-01,5.701788142477570709e-03,1.400213735949527513e-02,-7.043245127995548249e-03,1.302090306513121673e-02,5.040975213050842285e-01
3.592851119319227515e-01,5.441724827430147737e-01,-1.413525887338434872e-02,-3.277064869189650047e-03,7.062418816627413255e-04,-4.837832374235535274e-04,4.926471710205078125e-01
4.623364030791731194e-01,4.929366337835657808e-01,-1.165402019698280611e-04,3.758479755798883881e-02,-2.001155109769399768e-02,1.757293467981119531e-02,4.850937426090240479e-01
5.004741375575050277e-01,4.970833656476303930e-01,-2.918237572716964046e-02,-5.098645259171490866e-04,-5.998768559646422763e-03,6.037307326068401016e-03,5.281757712364196777e-01
6.268839936481753750e-01,1.846562034371023453e-01,-2.892664587962801015e-02,-6.732935431314163166e-02,4.490671236075166259e-04,-5.360741257327036879e-02,5.982114076614379883e-01
5.119101820727935959e-01,4.974284230013534813e-01,1.736998767624947648e-02,7.526982711647817702e-03,-1.571353238315211995e-02,2.277198287217784348e-02,4.899840056896209717e-01
3.952520248430392846e-01,5.015453795340496512e-01,-1.239143668812492383e-02,-8.960753273767788074e-03,-9.400354454761200573e-04,-9.347894889178160610e-03,4.704327285289764404e-01
4.931202567093289080e-01,4.839504138996654214e-01,-2.082830062692964113e-02,1.315403890483150817e-02,-1.116445199349779503e-02,6.755574261917531367e-03,5.104354023933410645e-01
4.925781582508846901e-01,4.931265157504949315e-01,1.992177278791268380e-02,4.804130290845101681e-03,-1.017413077364944657e-02,-7.513269240594488280e-03,4.735110104084014893e-01
4.588118125499265343e-01,5.206334888266070937e-01,-1.892655406853188671e-02,1.214821928171372703e-02,-5.639001159561621984e-03,3.188126142086840017e-03,5.120147466659545898e-01
4.947915257243563070e-01,4.924427316643985586e-01,-2.076237816472614739e-02,-1.994895580816133471e-03,-6.898033500677512066e-03,4.944217594802240330e-03,5.146051049232482910e-01
4.960284486886074595e-01,4.948045403819477106e-01,7.831961049778513040e-03,5.628493689017186226e-03,2.226291398745314579e-03,-8.207555576710106812e-03,4.879055321216583252e-01
4.749690248094480260e-01,4.954484982028054540e-01,-2.994113913708046359e-02,-4.546955350001966739e-04,6.863150248026755971e-04,5.149009884655874995e-03,5.155342221260070801e-01
4.796023803045034728e-01,4.977273601932078462e-01,-7.794290669778047853e-03,3.082533211118729417e-03,4.304150787076341245e-03,-4.585110924212099093e-03,4.968553483486175537e-01
4.921142843117572441e-01,4.986195915146401370e-01,7.954742049683666272e-02,5.000438012558157050e-03,1.496084426440829306e-02,1.237443271614297640e-03,4.167597591876983643e-01
5.769897395317362676e-01,7.112578982053014975e-01,7.529039062461717613e-02,1.013775923635943516e-01,6.712539243457237015e-02,3.345628167705480549e-02,6.203225851058959961e-01
4.922438886670092995e-01,4.963768458213782542e-01,8.402886021324856847e-02,6.174815719531164850e-03,-8.297065672707534811e-03,-1.163515266030580586e-02,4.111821651458740234e-01
4.917300203852227325e-01,4.984238102483682376e-01,-1.819114196264665084e-02,-6.513686819147062766e-04,-5.661199584988444410e-04,3.841759263905773249e-03,5.133460760116577148e-01
5.162532324004158735e-01,4.687122418730109707e-01,-2.248802349432377223e-02,7.207198522965291287e-02,-2.736763473652071080e-02,2.306915190844137722e-02,5.350856184959411621e-01
4.936156019610248302e-01,4.902885573672020048e-01,8.990369799685271612e-02,5.836707417082878657e-03,-1.102921933025179476e-04,3.446368179260526129e-03,4.022301137447357178e-01
5.945503299661433205e-01,5.579492484521997309e-01,7.747115655761688258e-02,-8.032527521999255349e-02,-8.237349248549767633e-02,-4.136087102768687407e-02,5.427979826927185059e-01
4.924280322051282077e-01,4.974015172166407206e-01,-2.558007516038640627e-02,-6.131117288995322628e-04,-2.141322783301416541e-03,-3.623950945081300893e-03,5.205647945404052734e-01
4.981263969508530898e-01,4.989631885022908220e-01,9.851624011510862200e-02,8.902866307234344467e-03,-9.015295489412735591e-03,-8.413605658778303608e-04,4.006333649158477783e-01
6.270254086745979949e-01,5.521973285219456962e-01,9.979959897299178762e-02,3.115960486106099468e-03,-3.568100086383588915e-02,4.418396584264195487e-02,5.038056969642639160e-01
4.625749166178744209e-01,4.570504289143114685e-01,-2.534241908271339661e-02,-4.710548173962480871e-03,-1.236286793963472033e-02,-2.258214629821342356e-03,4.857352674007415771e-01
4.730762076064582988e-01,4.786049763369460974e-01,-4.043306435739851823e-02,-7.693188092380216000e-04,-2.262795498890141609e-03,-3.501910213376205599e-03,5.163480639457702637e-01
4.779198951431828934e-01,4.770137550627067125e-01,-4.174643363749186431e-02,-5.329600782453485343e-04,-5.077147451551729555e-04,-4.901792512446951711e-04,5.192161202430725098e-01
4.777031299057574731e-01,4.771615077416461181e-01,-4.168725425333708046e-02,-4.990875532180133380e-04,-2.701500349681172490e-04,-8.133534163796971635e-04,5.191226005554199219e-01
4.744406510208060701e-01,4.614277103758906429e-01,-3.225005435827332789e-02,-1.888409907130151558e-03,-8.032413842830191456e-03,-3.824087696765398735e-03,5.005590915679931641e-01
4.925576484672921085e-01,4.908593380598249567e-01,1.977363286772010342e-02,3.632335909518981821e-03,-1.018801440849980561e-02,-7.976497105263678777e-03,4.725108742713928223e-01
5.036534740335469884e-01,3.541702928765232961e-01,-1.993777845827204853e-02,6.021636160121556641e-02,1.679379301072535594e-02,-2.958581499543308166e-02,4.822603166103363037e-01
4.928897386893971166e-01,4.873092308949059648e-01,-2.759605588333574611e-02,1.958899034930045892e-03,-4.175691649073107366e-03,-4.684807184932727152e-03,5.178433060646057129e-01
4.780863823642814703e-01,4.761199866787536594e-01,-4.038598318894615069e-02,1.125191588012369043e-03,-1.671908348284781385e-03,-6.610005723144897656e-04,5.175049901008605957e-01
4.811366938585486808e-01,4.770653053993768600e-01,-4.193979556480026405e-02,-1.859284968945559640e-04,-1.637382927399507393e-03,-5.474861066383290495e-04,5.210614204406738281e-01
4.814226934803524927e-01,4.769487521556312060e-01,-4.193109784574228227e-02,-9.598859346667771371e-05,-1.649899490301112454e-03,-5.426696559092514640e-04,5.211399197578430176e-01
4.230567264675930694e-01,5.127168472729073390e-01,-2.564417029315324559e-02,-2.592421742115771574e-02,-1.772266594454474653e-02,-5.905505516218965273e-03,5.026580691337585449e-01
4.965101254083181259e-01,4.964468844357187161e-01,-4.217506508875201732e-03,2.887203370028518538e-04,-1.029025257222975290e-02,-6.502720540769936670e-03,5.011399984359741211e-01
4.929315907744945546e-01,4.870695113549947108e-01,4.043582446674198749e-02,1.103319626180663485e-03,-8.827881954632455647e-03,-4.499477845427421636e-03,4.499248862266540527e-01
4.867235454166266573e-01,4.877819887908700913e-01,-3.597222250605558447e-02,1.228024808192174728e-03,-4.730224582058959945e-03,-4.735358343819735978e-03,5.233585238456726074e-01
4.016817973203098413e-01,4.915223672040195391e-01,-1.076400661550575011e-02,-1.238011311046962985e-02,-1.318612519009799804e-03,-1.179259071176892021e-02,4.648864865303039551e-01
4.741183912439189130e-01,3.867332835960681781e-01,8.354507411247047433e-03,-1.242548671139025000e-02,-6.443245944463461654e-03,-4.618800959705850542e-03,4.295614659786224365e-01
4.732858149676789639e-01,4.307289856361461444e-01,-2.176349833936969125e-02,-4.598993735817856303e-03,-1.563470807044834224e-02,-1.142915067759611887e-02,4.764513075351715088e-01
4.538396747607581494e-01,4.797294367648768376e-01,-3.399256429146046976e-02,-4.402202102826348155e-03,-7.211726570897711817e-03,-1.207593369029820972e-02,5.019283890724182129e-01
4.716394981665386066e-01,4.681006168671766332e-01,-3.872759477658510585e-02,-6.785599956811684368e-03,-5.091473598291794585e-03,-5.382135869936218245e-03,5.089044570922851562e-01
4.776978077749080565e-01,4.825210649405794472e-01,-3.995625646082356930e-02,-6.804652645035655324e-04,-2.697979672855826266e-03,-3.231391594541435305e-03,5.201349258422851562e-01
4.938073831687884718e-01,4.917959104774514145e-01,3.354149889865309930e-02,-6.875460922348168233e-04,-5.078066088089057753e-03,8.735764140595156640e-04,4.593516886234283447e-01
3.373211656802249658e-01,5.041450756105945175e-01,9.024419622671864261e-03,-1.059237662726311702e-01,-9.103272287821237430e-02,-4.467165190060768537e-02,5.048601627349853516e-01
4.223559183899820435e-01,5.308548436057400899e-01,-4.299214271009710320e-03,-6.824334122286966620e-02,-2.494792146204546576e-02,-4.146461224304842652e-02,5.109744071960449219e-01
3.538138095368984493e-01,5.642776484029303763e-01,-2.428809194706765817e-02,-9.938168315030064537e-02,-4.175494687575949382e-02,-2.543162387514405487e-02,5.510296821594238281e-01
3.959844097406648999e-01,4.816262895154567181e-01,-1.979737730830749554e-02,-5.461626057713953042e-02,-3.646548091296830663e-02,-2.444088560554048481e-02,4.801535606384277344e-01
4.700646824888788933e-01,4.997512710524225632e-01,-3.542998448601575312e-02,-1.955299917038192965e-03,-5.864042215660884849e-03,-4.567178959441128838e-03,5.211427807807922363e-01
4.101980251748171269e-01,4.967226333230598811e-01,-2.344386013303567662e-02,-9.814800520494099123e-02,-2.029054281295195744e-02,-1.797279020110214773e-02,5.139608383178710938e-01
2.456661947407884350e-01,6.953986404464510551e-01,-2.908482312391252878e-02,-9.479987383819205027e-02,-4.453183631480182175e-02,-5.615936562096568267e-03,6.590271592140197754e-01
5.276890480916027748e-01,3.827648735172048955e-01,-2.189711893133400311e-02,-7.475112399611569432e-03,1.092571481138976050e-02,2.815285865058589354e-02,4.962893724441528320e-01
4.908181478579769497e-01,4.637577947493289887e-01,-2.531496161643842502e-02,2.943514040675608220e-03,-9.145177658704600407e-03,-1.251021244639948004e-03,5.034287571907043457e-01
5.633900272887099048e-01,2.633301325927460135e-01,-7.328162877763277905e-03,3.053321952621245675e-03,1.011646184097346468e-02,2.253426518441291673e-02,4.963506162166595459e-01
4.977804320026177898e-01,4.773518712761849470e-01,-2.543391565354852224e-02,9.163127984452560564e-04,3.971947795796732308e-03,-5.247514097260706431e-03,5.134340524673461914e-01
5.574816298559757133e-01,4.270502767559259394e-01,-8.946902192298933354e-03,-7.360609466106294782e-03,7.005185199585682761e-03,2.588485156225240127e-02,5.160362720489501953e-01
4.924028537745401279e-01,4.949452867470086614e-01,4.909348609816066578e-03,3.321757409088820813e-03,3.243077977108648792e-03,-9.674655891527467189e-03,4.891229569911956787e-01
5.155199491076636331e-01,4.463365644057213366e-01,-3.090244788840790235e-02,5.603446733329299403e-04,-2.721133325072245743e-03,1.220002943519778865e-02,5.157810449600219727e-01
4.920204911195666386e-01,4.957427276635607560e-01,-9.894211059827684451e-03,-1.963973598079566275e-03,-2.113262246121586085e-03,1.652766973775434810e-03,5.038190484046936035e-01
5.264294939803312312e-01,4.335668240991971678e-01,-3.059575951162091245e-02,-1.097588349072555185e-03,4.549693645824933082e-03,1.529933371064649654e-02,5.176308155059814453e-01
5.268950494417884434e-01,4.266779137007505329e-01,-2.646289913349064715e-02,-6.355540090534140315e-04,9.546029585230014769e-03,-2.859807375716590452e-04,5.109475255012512207e-01
4.915229351168769467e-01,4.790857488211945903e-01,-3.169474789499737710e-02,1.030408728833574240e-03,2.437200464320314012e-03,-2.358147893863087822e-03,5.171477198600769043e-01
4.254669405620125078e-01,4.604526127664671509e-01,-3.015967773120414863e-02,1.207343715665362832e-01,-9.880274702685855337e-03,1.862567599600930754e-02,5.194458365440368652e-01
4.925193169704423779e-01,4.955326395403644724e-01,-2.938931176487502572e-02,-8.745322177316915309e-04,-2.072108991957845314e-03,2.243240899783283983e-03,5.234507322311401367e-01
4.724723719957230061e-01,4.634210999185554569e-01,-1.362559719337602671e-02,3.183968631288584469e-03,-6.937161181650760254e-03,4.801977375178854805e-03,4.818893074989318848e-01
4.848785239855862295e-01,4.923255325592175158e-01,-3.338242993694456873e-02,-1.145914324299322253e-03,-9.221492054853164082e-04,4.812911930684363030e-04,5.220311880111694336e-01
5.000173714969567973e-01,4.736107978034294064e-01,-2.863559716840607949e-02,1.828841630642373496e-03,4.430741510908480104e-04,-5.585997904666229613e-03,5.160577297210693359e-01
4.854696275898380264e-01,4.534977912978588321e-01,-2.250437880192251994e-02,6.605977837143676978e-02,-1.709733845271557695e-02,2.858791727697243545e-02,5.091555714607238770e-01
4.888910129856997577e-01,4.923336007023582095e-01,-1.985254659336860295e-02,-1.126465738787563837e-04,-2.008581129513417954e-03,-2.181592688118411637e-03,5.104994177818298340e-01
4.778969574335931725e-01,4.934768247114139639e-01,-3.160357206131803043e-02,-7.269248888998622131e-05,-3.868451620835481296e-03,3.741728998542806755e-03,5.175503492355346680e-01
4.749513552424207696e-01,4.968495873633949067e-01,-3.130283268559441723e-02,-8.228239407092931019e-04,3.496258997413591633e-04,5.138697943971252957e-03,5.176297426223754883e-01
4.924623534029772265e-01,4.978519298825271333e-01,-2.126909989652814303e-02,-9.026361623094140193e-04,-5.428977293821766158e-03,5.727671906831391380e-03,5.166305303573608398e-01
4.709119177999137595e-01,5.077700684676631493e-01,-3.330598155020025875e-02,2.968306471057883221e-03,-1.045929885679800810e-02,2.807894030468842308e-03,5.239818692207336426e-01
5.473583224895585131e-01,5.317717872887642860e-01,9.342511500897571208e-02,6.178936438456027191e-02,2.730869634490580219e-02,-2.967653236836094791e-02,4.642803072929382324e-01
4.868013570393723288e-01,4.806915899523092062e-01,-3.984018227816910063e-02,-4.582626087331241133e-05,-3.199199583378364940e-03,-3.087845079044429075e-03,5.236700177192687988e-01
4.969206472317471701e-01,4.963659669412157083e-01,1.094970677105971957e-02,7.852354850364291761e-03,6.530633651346857624e-03,-5.950452971043126288e-03,4.861251413822174072e-01
4.636013590690544195e-01,4.865003998732456703e-01,-3.561415449175325820e-02,-1.132498210557553609e-03,-6.359580413263163368e-04,-8.803479166187903188e-03,5.112823247909545898e-01
5.002188207858646596e-01,4.815108547684736617e-01,-5.922654452427456029e-03,2.193573864806857947e-03,-3.371356848910172892e-03,6.493780031547729268e-04,4.971016943454742432e-01
4.791543092957291639e-01,5.195710151528302179e-01,6.780000034874850146e-02,3.283425027719667766e-02,1.224443041215496179e-02,-4.182660960062376324e-03,4.372733533382415771e-01
5.160357778497018932e-01,5.280805449718355415e-01,6.866422789710419083e-02,2.403946231926340493e-02,2.311175896575217662e-03,-6.358845393074674494e-03,4.555720388889312744e-01
4.621195839093384938e-01,4.999440311309529261e-01,-3.381927677564022794e-02,-2.739481581772057819e-03,2.728112768731636383e-04,-3.297087908411942651e-03,5.159457325935363770e-01
5.056181192851738615e-01,5.182472892045988377e-01,7.478680587723873785e-02,1.622562647609021233e-02,-1.644201148588756919e-02,-1.196299801463844396e-02,4.395979046821594238e-01
4.977159264591577981e-01,4.932424179642934670e-01,7.132472391547933777e-02,1.267507274650007129e-03,-2.337158956110118365e-03,1.122246527567685899e-02,4.246422648429870605e-01
4.957218555804376869e-01,4.884703536818414404e-01,-2.749511222738920679e-02,8.904897860756445229e-04,-3.540212263301960576e-04,-1.737184536502295405e-03,5.196405053138732910e-01
4.561124590457679706e-01,4.971935412421438216e-01,-2.194989094668731155e-02,8.113591122956304719e-04,4.717869038748598456e-05,9.283485626547108641e-03,5.001310706138610840e-01
4.981608474124914476e-01,4.945198151619607518e-01,6.907337142250713491e-02,2.300806737661416183e-03,-4.019019808153080457e-03,1.030440557841639723e-02,4.277264177799224854e-01
4.863803075930446251e-01,4.934835124949346064e-01,-2.199784421230194242e-02,3.120281713240346481e-03,-6.856342942036888245e-03,-6.009958266094701969e-03,5.122387409210205078e-01
4.756040937161806204e-01,4.870805879827834195e-01,-4.096842298866859577e-02,3.105429721919682824e-04,-2.792533300897634971e-04,-3.179615863153175022e-03,5.224348306655883789e-01
5.536634533778806988e-01,5.475361150892932294e-01,8.944006876929150307e-02,2.840764172231435847e-02,5.310117308210039744e-02,-3.104786290435517654e-03,4.728694856166839600e-01
5.186180312497838951e-01,5.286110456947181735e-01,7.766024323165943155e-02,4.991772813857016725e-03,7.018258818893764739e-03,4.180159711508753956e-03,4.463463723659515381e-01
1.815372822122474361e-01,6.187593243307515367e-01,-1.283054143674949854e-02,1.259519933421598403e-01,-5.035872960200251519e-02,4.375347810080461829e-03,6.076026558876037598e-01
4.034805087955906089e-01,5.366888059029338853e-01,-2.514292893839059628e-02,9.479141799775500990e-03,-1.467477651461339058e-02,3.512964014669325580e-03,5.094225406646728516e-01
4.863965121649466150e-01,4.881160515518456755e-01,1.030689655096021506e-01,4.305363050864532623e-03,-7.377249634317537517e-03,-3.749358449281432748e-03,3.845297992229461670e-01
5.908765587569579925e-01,1.938013523733581323e-01,-6.566787607845570029e-03,-1.135540398930304506e-01,3.188581978138747830e-02,8.364646546721220266e-03,5.650848746299743652e-01
4.859390610450944892e-01,4.937038186341884405e-01,-3.587820604969427229e-02,3.940585632029605656e-03,-2.927489018251852419e-03,-2.909971460587468250e-03,5.258355736732482910e-01
5.622378569624102429e-01,3.251592126544387562e-01,-1.929459462979565831e-03,3.817000446304927991e-02,6.606556784951450600e-03,1.058752564665871830e-03,4.952213466167449951e-01
3.027644835140896884e-01,5.412325684916334811e-01,-2.523982566313742737e-02,1.579864123584817370e-01,-7.726843075330297461e-02,1.303078989348260049e-03,5.791958570480346680e-01
4.863443652301583930e-01,4.919870543052778378e-01,2.410227780294726951e-02,8.516723589390703475e-04,9.225544305421539207e-03,-2.462489287440874051e-03,4.653854072093963623e-01
4.919773027470928373e-01,4.979929937047921085e-01,-9.760895404180458534e-03,-2.541354920775399512e-03,-2.047324344306830982e-03,1.522746403371167149e-03,5.048114657402038574e-01
4.334117217522492349e-01,5.115626186602396652e-01,-3.013519070363535057e-02,-2.158499237705642851e-02,-2.665788503343156576e-02,-1.528910155073274352e-02,5.113128423690795898e-01
5.446955611591600688e-01,3.109957663731183208e-01,-7.795493424567201401e-03,-1.055004676957325624e-02,1.500682287479977207e-02,2.055863523298442214e-02,4.827239513397216797e-01
4.964797558100414454e-01,4.846268525016820261e-01,-2.767907152182030872e-02,-7.313767297940199736e-04,-1.781748441210820799e-04,-2.755788746078385604e-03,5.183576345443725586e-01
4.916096896689847173e-01,4.366375665761466074e-01,-9.786366364141485530e-03,7.929846626867940312e-03,-7.083630093079515931e-03,-5.651184744722214093e-06,4.766511321067810059e-01
4.965418932795613860e-01,4.822085939986755498e-01,-2.781746504207477377e-02,-4.863508822730864883e-04,-1.953534399398907219e-04,-2.670425747396009807e-03,5.173631310462951660e-01
4.871595787539172440e-01,4.924682322071346485e-01,-3.236843595781485616e-02,-1.371780304816715233e-03,-1.652824048780404632e-03,-1.727265943945933047e-04,5.222159028053283691e-01
4.903037106610836915e-01,4.855847420733100384e-01,-2.966108440386716616e-02,5.538970728115135723e-04,-5.927859593714433252e-03,1.043962921714004848e-04,5.177241563796997070e-01
5.281239993828334978e-01,3.246730369122194371e-01,-6.564654357949228913e-03,-2.342800401100304797e-02,1.303795536663695381e-02,2.374541055630976366e-02,4.715394377708435059e-01
5.416569358803366985e-01,3.153137120515440150e-01,2.562283853983660098e-03,-1.054967394134487396e-01,5.725228652329121884e-03,9.614922110931610824e-03,5.035853981971740723e-01
5.780277638178367150e-01,2.659307862903987907e-01,-5.369019602098012989e-03,-1.071328845497858673e-01,4.702308918080193127e-03,1.447318954644485813e-03,5.386881828308105469e-01
4.788320686030806961e-01,4.915364267076651195e-01,-2.939329596514239640e-02,-6.246006697776848690e-05,-4.331140496852016594e-04,3.213438957196699825e-03,5.147258043289184570e-01
5.277882896199941332e-01,2.719089606183500707e-01,6.006511120358992706e-03,-6.746116507832768117e-02,-4.993006094566546788e-04,-5.628804786461562813e-03,4.668684005737304688e-01
5.863557245260624384e-01,2.827379456129560653e-01,-1.997555087960545261e-02,-9.270808490599580232e-02,-9.653075273760778480e-03,-3.697364776667315389e-02,5.530763864517211914e-01
5.353470438549319255e-01,5.148008899322505938e-01,6.679426170412250396e-02,3.183744597405788190e-02,-1.390287399015468703e-02,-5.846530337841291357e-03,4.626663923263549805e-01
4.852115891690675364e-01,4.930494684633868196e-01,-3.279481693090013916e-02,-1.008119012916956162e-03,-1.797635983440202926e-04,1.139273043883730092e-03,5.219762325286865234e-01
4.904640172703970125e-01,4.944063331298733655e-01,-2.481130693861482994e-02,-2.164315733934826964e-03,-1.957641734913441716e-03,1.810786197266704483e-03,5.172919631004333496e-01
5.029189087033771877e-01,5.015990679993993506e-01,1.042557502397093994e-01,8.600663824129873430e-03,-7.604132123233710283e-06,-7.092349316127827871e-04,3.982854485511779785e-01
4.854670157621658877e-01,4.879336894904574007e-01,-3.255988326356035190e-02,1.426545514845110538e-03,-2.680703450830577723e-03,1.229759472948597793e-03,5.192956328392028809e-01
5.100924475638208833e-01,4.727351306556230037e-01,-2.144395230974760480e-02,-2.342351475873011410e-04,3.486724300960255922e-03,6.671694568339985032e-03,5.140427350997924805e-01
4.862855661162892584e-01,4.956433275195604171e-01,5.337692976760416430e-02,3.908118076027620319e-03,-9.384436511114368617e-04,-1.246488165343667687e-02,4.382500350475311279e-01
4.984127564457763171e-01,4.991225432083807867e-01,-1.069416078855700558e-02,4.817899840925783488e-03,3.803337192754918314e-03,1.604956590772020630e-02,5.103307962417602539e-01
4.855432465560003408e-01,4.912455630719083088e-01,-3.279843859670389383e-02,-2.074084013725914846e-04,-5.099985702896524210e-04,-2.540446637272813428e-04,5.212172865867614746e-01
5.383223817723093996e-01,5.016369058664360558e-01,1.667925470608233596e-02,2.332898076743439991e-02,-2.177178559836483521e-02,3.902338598213004727e-03,5.073668360710144043e-01
4.656452492452551883e-01,5.013504946662664663e-01,-3.493420505354355443e-02,-5.969866008009479252e-03,-1.144796325673312978e-02,-7.897110610506260717e-03,5.200145840644836426e-01
4.986409140874696333e-01,4.702606269216135226e-01,-3.412227780625487483e-02,2.278252662969810702e-04,-1.891605916493823954e-03,-5.302732183973933415e-03,5.192468762397766113e-01
5.726565309423798933e-01,4.906598898869876657e-01,1.028895726026124446e-02,-7.155421810332038279e-02,1.134616815166581338e-03,3.636483589832367747e-02,5.442422032356262207e-01
5.653701684179106568e-01,3.972152882018441522e-01,4.503471123611796356e-02,-7.947805637555352756e-03,2.551031854673562957e-02,6.167502117869656103e-02,4.744274020195007324e-01
3.945662772338540680e-01,5.005505143430590831e-01,-7.143656945069465358e-03,7.582111470033731440e-03,-1.809471264064862334e-02,1.172445479284233739e-02,4.655593931674957275e-01
4.827541447615444348e-01,4.758339715966162231e-01,-4.153042579483262609e-02,-1.564446303898251551e-03,-4.946588514930256447e-04,-8.830012240665753099e-04,5.208689570426940918e-01
4.673129588753367480e-01,4.791509164529050846e-01,-3.582808188189734455e-02,-5.220165773507322565e-04,-7.110848046631912866e-04,-7.629482451486453189e-03,5.093370079994201660e-01
4.399875994887937347e-01,4.682779600150372978e-01,-2.116354828325839321e-02,-2.518799210260450408e-02,-1.288244158276154877e-02,-1.350618415858661353e-02,4.790149033069610596e-01
4.756304320951625364e-01,4.862398661674101064e-01,-4.112048204391177686e-02,2.792660488267667595e-04,-2.756970539237473981e-04,-2.726045837236492232e-03,5.221582651138305664e-01
5.396823581269903913e-01,3.918651302067431841e-01,6.089255721314312808e-02,-6.383263307846764878e-02,-7.823255904146267370e-02,-9.822413621967573949e-02,4.897397160530090332e-01
4.548878529856200115e-01,4.699512979300396465e-01,-2.014144123333150294e-02,-1.492999205538716317e-02,-1.520798804215362302e-02,-1.613687374074795206e-02,4.849526584148406982e-01
4.628062712178393490e-01,4.443163763100158592e-01,-1.824220097650647299e-02,-2.870295194945359472e-03,-1.067328010855752088e-02,-4.793198917154121996e-03,4.725361168384552002e-01
4.764558047257886342e-01,3.838858834768419381e-01,-1.423355862882119682e-02,-8.335901618777785682e-02,-3.467497129954785068e-02,-4.367496537055016309e-02,4.838366508483886719e-01
4.828507973174337442e-01,3.833322596079443700e-01,-6.954720410515979889e-03,-2.051432168118368440e-02,-1.523970417426915094e-02,-9.173688738575219367e-03,4.508662521839141846e-01
4.830030549019708186e-01,4.133105322521215541e-01,-2.176603450334224643e-02,-1.520748435938752696e-02,-1.384817358610053797e-02,-1.364307573321941504e-02,4.757076501846313477e-01
4.598896774044235469e-01,4.237404932332172192e-01,-9.461374184532245213e-03,-8.963815377988364544e-03,-1.094554977262812007e-02,-2.171711181923577545e-03,4.530398845672607422e-01
4.751365453640269410e-01,4.915374435690678667e-01,-3.934263719823388739e-02,-6.128975677966792997e-04,-3.697752898926649594e-03,-6.412800491966209708e-03,5.230308175086975098e-01
4.585409710988057053e-01,4.057947398893939628e-01,-6.065757019271145190e-03,-1.491227700907924239e-02,-1.458049632088296091e-02,-1.315730008923677793e-02,4.426732063293457031e-01
4.710149179958551535e-01,4.689040832961824390e-01,-2.239425198416206131e-02,9.711512909967308371e-03,1.153589058079639018e-02,-1.195954080173425305e-02,4.934843778610229492e-01
4.748657502456005708e-01,4.763492147931994714e-01,-4.054085385509376138e-02,-4.557451181441899281e-04,-1.389614326115716416e-03,-3.798937556006580138e-04,5.161565542221069336e-01
1.113112684795150020e-01,6.491788251280057320e-01,-4.631641361959948355e-02,-8.200715276385056249e-03,5.287150393242333324e-02,3.057607768826172204e-02,6.405649185180664062e-01
4.858664864851042209e-01,4.942371139398129554e-01,-8.087145107611215522e-03,-1.472049466105077508e-03,-3.880826214042950879e-03,1.184112745897925425e-03,4.982477724552154541e-01
2.590856991557912159e-01,5.376541990676784177e-01,-2.082010803970474333e-02,1.344867739335088574e-01,-9.390511401538202685e-03,6.587148350139794897e-03,5.371921658515930176e-01
4.061033115773934887e-01,5.160886610135303476e-01,-3.467000103188233595e-03,4.725711892117288176e-02,-4.295833005325081291e-03,1.256268590342536629e-02,4.817882180213928223e-01
4.521560467715256548e-01,4.681753329527215124e-01,1.220737198111554456e-04,4.474802313812780569e-02,9.931819900890198963e-03,4.867981456787976759e-03,4.671260714530944824e-01
4.776989225813906836e-01,4.772395757908497460e-01,-4.158705923319744313e-02,-7.679543962066366723e-04,-4.934385471285889771e-04,-7.302086507140467591e-04,5.190604329109191895e-01
3.151785428247251830e-01,5.429775935694887146e-01,3.345170061486324453e-03,1.527646560652188602e-02,-7.413030981880894439e-03,-2.097969129970619266e-04,4.701413810253143311e-01
4.781458102012967615e-01,4.995735135153744344e-01,-3.814776653590329358e-02,-2.361883904274895420e-04,-3.136846152123812562e-05,-1.772553297960163549e-03,5.273431539535522461e-01
4.270436981242135555e-01,5.058240234461387486e-01,-1.275169655181401795e-02,1.812340686179396768e-02,1.614737366680479846e-02,-4.066994587675773487e-03,4.858917295932769775e-01
5.638295489882270140e-01,4.332457777035839119e-01,-2.854791799321598766e-02,9.872171600402636360e-02,8.584035305820037973e-03,-2.479299053311798812e-02,5.673723220825195312e-01
4.535912817653889872e-01,4.609688376085462336e-01,-2.321833732410094608e-02,-2.716003825628869779e-03,-1.002999805197699826e-03,-7.800021020378354250e-03,4.807569086551666260e-01
4.167584047927870849e-01,5.269257867532513018e-01,-2.920250217601916276e-02,-2.461367789753253574e-03,1.930751486735246807e-03,-2.500820201943886479e-03,5.100945234298706055e-01
4.945181269067286389e-01,5.154042979037147809e-01,-3.034746077822048083e-02,6.800903788392409499e-02,-1.974303534275340458e-02,3.889911105953107462e-02,5.535946488380432129e-01
4.431750048654859997e-01,5.169589941834583646e-01,-3.581406189796593198e-02,4.070913581928695991e-03,-1.473292164769738656e-02,-6.758111213291206551e-03,5.206286907196044922e-01
3.971841188946774182e-01,5.375253292665582716e-01,-2.214361042492113407e-02,1.167576465649264317e-02,-2.087546117766141476e-02,1.980483322323311167e-03,5.060715675354003906e-01
3.426665529319896653e-01,5.546893589573428374e-01,-1.260387404636853503e-03,-2.180705896114925983e-03,-4.985630831624219802e-04,9.295142005679995698e-03,4.862447679042816162e-01
4.148686660073312993e-01,4.998121174394644095e-01,3.689977829249846408e-04,3.069617613223105460e-02,1.151483274952563125e-03,7.940048599257138601e-03,4.661054313182830811e-01
4.434011614541901736e-01,4.611750687437149443e-01,-1.695869705466646060e-02,-4.918892634233253819e-03,-1.027100260746463892e-02,-1.241163869921845485e-02,4.704048335552215576e-01
4.874815583502202232e-01,4.954119630708606614e-01,-2.742873851581378863e-02,-1.011794382553697592e-03,-1.847866856050260935e-03,2.136347014183606792e-03,5.189469456672668457e-01
4.752522763691562901e-01,4.341754540959259501e-01,-4.731091489838912256e-03,2.592320561904135762e-02,9.088781667894478208e-03,-2.246346916256587722e-03,4.632862508296966553e-01
4.377370835801586146e-01,3.513768853676203507e-01,1.488227063985991805e-04,-9.639259514311178390e-02,-1.439648553092826716e-02,-1.328531219365594596e-02,4.360931515693664551e-01
4.888565063225387419e-01,4.938932447722974572e-01,-3.156641354275813161e-02,-2.254698203103222900e-03,-3.195611829422911540e-03,1.204656406518806811e-03,5.230075120925903320e-01
5.051055809272964048e-01,4.980643844034382539e-01,-8.598327529500682243e-03,4.377501830495855902e-03,-1.149520372912244889e-02,-7.030436114263894504e-03,5.108095407485961914e-01
4.808577553521988235e-01,4.880179992136843836e-01,-3.194598123139574808e-02,5.902755252253012079e-04,-1.526728014766603938e-03,1.187218038354006470e-03,5.164329409599304199e-01
4.856675021660827873e-01,4.907948519440430424e-01,-3.436145605694218563e-02,-4.593758230896346833e-04,-5.003024741281904796e-04,5.422732764834821764e-04,5.226136445999145508e-01
4.959882287240954812e-01,4.936410697191483954e-01,3.434447073201007949e-03,-2.346491380390921481e-03,-3.292330981416728697e-03,-3.339652313800192240e-03,4.914683401584625244e-01
4.900676996972612720e-01,4.864245605032903597e-01,8.051917657899698710e-03,-1.212215500061830913e-03,3.944796702122688637e-04,4.198707996770206612e-03,4.802647233009338379e-01
5.009098379984672222e-01,4.876379583940980700e-01,-2.773876630633831386e-02,3.641359078540266567e-03,-3.361083495132442811e-03,-2.053311159898331059e-02,5.234193801879882812e-01
4.875934557890191368e-01,4.929680417320022601e-01,-3.146616016594749876e-02,-1.824502521067703506e-03,-1.803415244798904724e-03,1.814920715037628097e-03,5.217960476875305176e-01
4.843799240701247011e-01,4.905091954750652739e-01,-3.351258213559221710e-02,-7.334862805993405200e-04,-2.060453520589855579e-04,8.350456933516177361e-04,5.209878683090209961e-01
4.895773370474040265e-01,4.879441132589379393e-01,6.563193462963246017e-03,-4.009595673964239798e-03,3.793052602821396849e-03,-1.796711741989679648e-03,4.823043942451477051e-01
3.171163289149786513e-01,4.239367503049586983e-01,-2.316316484485345106e-02,-2.251154400500882669e-01,-3.448953136172468875e-02,-2.031280309248613067e-02,5.660272240638732910e-01
4.467358124031153288e-01,4.462136755226467910e-01,-1.621050884614438914e-02,-1.181091035811821129e-02,-1.074926889448028430e-02,-9.959838828637665800e-03,4.638324975967407227e-01
4.373047549333872186e-01,5.205160533317191307e-01,-2.661605791382348762e-02,-6.934793082129896147e-02,-4.709792416233331280e-02,-3.568104893829557311e-02,5.344638228416442871e-01
4.013692770193358905e-01,4.807020275436383883e-01,-1.712912217068313092e-02,-1.370705199011612585e-01,-5.715439160317125483e-02,-5.242164247114364933e-02,5.376282930374145508e-01
4.964125547839487451e-01,4.758613870960312631e-01,-1.169632208073884128e-02,2.631235727258307826e-03,-1.901751673415445071e-03,2.854846122518653502e-03,4.982075989246368408e-01
4.711568626430429063e-01,3.960019820463368534e-01,-1.650673244855793698e-02,5.400087289335896851e-02,-1.534870824966815331e-02,3.720181936714199444e-02,4.694898128509521484e-01
4.775698543144513142e-01,4.873623396169964872e-01,-4.165089141119038274e-02,1.356621864871352941e-04,-9.904444716831157895e-04,-2.508302693762959421e-03,5.242064595222473145e-01
4.762519237212632373e-01,4.808838009696205229e-01,-4.136521625034400573e-02,4.478425256968293286e-04,-1.437515628538616291e-05,-2.778142230285527998e-03,5.199713706970214844e-01
3.566747532013655464e-01,4.809503146203044643e-01,-7.043654246416786169e-03,-1.512568894010434262e-01,-8.124074840828481719e-03,-3.455481441937498580e-03,5.116703510284423828e-01
4.772629454559191853e-01,4.809091394427948973e-01,-4.134793754319826542e-02,-4.498056183152614662e-04,-7.491649357754967759e-04,-1.926557653116222962e-03,5.204564332962036133e-01
7.327459910545428556e-01,2.484085531610917552e-01,-5.674078496054962839e-02,1.696514713523763485e-01,2.318760595641168251e-02,3.741098813715396099e-02,7.534260153770446777e-01
4.858232385174016121e-01,4.958624369927476794e-01,-3.125792755678274970e-02,2.261009601089896195e-03,-5.104097598223661728e-03,-2.431371340709919792e-03,5.222796201705932617e-01
5.544434949525716139e-01,3.495698470827351967e-01,-2.416101661821512536e-02,-2.174793114296535643e-02,1.163917638003227929e-02,2.866443303958578909e-02,5.123532414436340332e-01
4.916205454780657735e-01,4.954030567564416954e-01,7.560626529965697173e-03,1.214141134543761944e-03,-2.053938271374744669e-03,-8.638329606358794918e-03,4.862100481986999512e-01
5.572317466388190255e-01,4.738546022906083843e-01,-2.389468317106957507e-02,5.354796721122054987e-02,1.716797948314296171e-03,1.050840086032092842e-02,5.524032115936279297e-01
5.189813766429630659e-01,4.102833712826629009e-01,-2.055121345658578180e-02,2.268736741535854612e-02,-9.259623084095639986e-03,7.499302717208343287e-03,4.962203502655029297e-01
5.159889248463872535e-01,4.532014901477221525e-01,-3.024672300767616839e-02,8.869554336883807288e-03,-1.120230876263727865e-03,1.336480551740569511e-02,5.184540152549743652e-01
4.792536580919820599e-01,4.964871621847593008e-01,-3.561074290205179516e-02,-2.410077615506720839e-05,-5.206710037054932717e-04,-6.675621363284737000e-04,5.236959457397460938e-01
4.841813948683661994e-01,4.944864385891156733e-01,-3.309698307948011342e-02,-1.024592522305203812e-03,3.175207950086136920e-04,1.629254389160931463e-03,5.225180387496948242e-01
4.937074411090532355e-01,4.989052682223552582e-01,1.282018323221628675e-02,-1.543701686812880411e-03,-5.828044147119464287e-03,-6.383044081039845018e-03,4.837462306022644043e-01
4.955056736954318586e-01,4.919410210668634376e-01,5.604496168458777960e-02,2.558075764115231524e-03,6.682416144530029488e-03,3.641635251735913636e-03,4.379101395606994629e-01
4.951552458558770020e-01,4.936569314094525485e-01,3.024606842218119374e-02,2.953091468062377187e-03,3.318074804467057489e-03,-2.294187708563896842e-04,4.642257690429687500e-01
4.952522012333566703e-01,4.988640451286774358e-01,6.974177905333867056e-02,6.455558017421843611e-03,-1.556209958647115053e-02,-4.861860231141565923e-03,4.284057915210723877e-01
4.846545507192481228e-01,4.936513303658212060e-01,-3.043430247092188123e-02,2.603329108353971341e-03,-1.093007794772455320e-03,-5.664247309525757314e-03,5.197612643241882324e-01
4.030388663183679943e-01,5.436235159451556775e-01,-3.169719962253680912e-02,1.067242390822510101e-01,-9.283025085305120910e-03,-3.329513290025989860e-04,5.516391396522521973e-01
4.858627287210909862e-01,4.950982494556886992e-01,-3.284724702188418499e-02,1.767863239832025059e-03,-4.873050142419317089e-03,-8.642312149370094069e-04,5.234680175781250000e-01
5.304722028593146232e-01,5.024365327506633561e-01,6.709222088773153514e-02,1.920200637268131699e-02,-2.865846107465027867e-02,-2.220507866449213628e-03,4.539831578731536865e-01
3.608334998316782283e-01,5.473700633912640390e-01,-2.720279410640269457e-02,7.104368762523063929e-02,-1.495359416209683309e-02,9.662932542867768912e-03,5.233006477355957031e-01
4.863391210497074457e-01,4.974763864590008300e-01,2.265720644894403391e-02,2.539756754510459321e-04,8.907275387048184390e-03,-3.239465020237074135e-04,4.696036875247955322e-01
4.954512679247550788e-01,4.944178640594226737e-01,5.155430310797720628e-02,4.613604211808226656e-03,-7.174295446546984957e-03,-1.295930834183221401e-04,4.436272978782653809e-01
4.598798723260886234e-01,4.408078102020454025e-01,-5.461188191868471264e-03,2.809925774435849746e-02,6.674114235559890258e-03,-9.628802531842327664e-03,4.591421484947204590e-01
4.840470948714755695e-01,4.982281853027868967e-01,-3.425456363919232583e-02,-2.069020781652961515e-03,-2.622504175862054959e-07,1.259605848411873754e-03,5.255524516105651855e-01
4.938029164302661922e-01,3.891693048472696925e-01,-5.935984535183069788e-04,1.090382737627920012e-02,2.459294629078031744e-03,2.795235163670349490e-03,4.517121613025665283e-01
4.468749718765749890e-01,4.326714808968786241e-01,4.496976358299709098e-04,3.276544153497989997e-02,3.320886269778681055e-03,1.345071153593684521e-04,4.431820511817932129e-01
4.782386243420573280e-01,3.886668660355329097e-01,-5.611198076772350163e-03,1.996045231862050018e-01,1.548632405559244654e-02,3.936748949189683433e-02,5.689369440078735352e-01
5.068534028631924704e-01,3.640571531049158205e-01,-1.295432785220174132e-02,8.493333878927931957e-02,1.978507722715119529e-02,8.437670890041576444e-03,4.892782568931579590e-01
4.958690093491822104e-01,4.835475072684540243e-01,-2.939454285310866277e-02,7.757092450972281807e-04,8.872823375551048327e-04,-2.248339726282871486e-04,5.192165970802307129e-01
5.041120936521974460e-01,4.143717059480495069e-01,1.053036022688802475e-03,3.093661108674638019e-02,2.396940289561975707e-03,1.702117824699202111e-03,4.678399264812469482e-01
5.821281199875126822e-01,4.574040285659298766e-01,2.864842505727227540e-02,4.056453512560249247e-02,3.978534137682310581e-03,7.337934604449224997e-03,5.079459547996520996e-01
4.650376110413919628e-01,4.980421988584505799e-01,-2.999410143182623667e-02,1.737634768684052228e-02,1.348483494360343607e-02,-1.593666518120948061e-02,5.144873857498168945e-01
4.829704729142294539e-01,4.906369186281648309e-01,-3.362639476585166376e-02,-8.795219486953142259e-04,1.927312996005161100e-05,4.232990188924143533e-04,5.204752087593078613e-01
4.803922976702992287e-01,5.030965852654177839e-01,9.918861840424841869e-03,2.098167815271010858e-02,1.066626933020545231e-02,1.148051929901425586e-03,4.839508831501007080e-01
3.695616776760279332e-01,5.342089932485589721e-01,-1.045497840155529268e-02,7.414238824505243672e-03,-2.886807222826523640e-03,-2.565057659439060902e-04,4.840250313282012939e-01
4.919138621425356850e-01,4.823823547908672738e-01,-3.754092404055048293e-02,2.881085049718624426e-03,3.326636584780648821e-03,1.237423490699497610e-03,5.248137116432189941e-01
2.974799130199398123e-01,5.757795619032337608e-01,-2.485434046803108865e-02,3.991340191099127660e-02,8.582296533717368586e-03,6.260813949211684569e-03,5.255219936370849609e-01
4.643985911104265840e-01,4.614312298658298506e-01,-2.931426498870520758e-02,-2.991689296672735924e-03,-5.748478872898876019e-03,-7.296313625795307518e-03,4.925259947776794434e-01
4.124871170346992577e-01,5.178994698804194607e-01,-1.300934641497492050e-02,4.539358531561874660e-03,1.480827654633867438e-02,-7.434784794026285532e-03,4.877469539642333984e-01
4.958204556126826201e-01,4.765544161373144738e-01,-4.527439396285748430e-04,4.159347110479750219e-03,4.443305420359830969e-03,1.660370164615316592e-03,4.870487153530120850e-01
4.987502370330251789e-01,4.759088389383708817e-01,-3.068575504176435098e-02,-5.203124819159918009e-04,4.729820431266849520e-03,1.717483868886055236e-03,5.184668898582458496e-01
5.629876683352561528e-01,3.211218524732319946e-01,-1.980633774270890157e-02,1.871584482194068796e-02,6.052029891191336441e-03,4.883932913946038108e-04,5.082828402519226074e-01
5.065022034689943276e-01,4.664300081228734407e-01,-3.242825785383757209e-02,-1.064124223606606164e-03,1.881602542985305821e-03,2.712976711993279628e-03,5.200882554054260254e-01
4.534577527656678542e-01,3.984377504668429326e-01,8.096263266635650435e-03,-2.757437274410926703e-02,-5.595911375031539965e-03,-5.268371447341820696e-03,4.234719872474670410e-01
4.509646011157441570e-01,4.388865970594161281e-01,-6.504335270491878873e-03,3.040567068045771371e-02,6.757156125319358463e-03,-3.523948741172926256e-03,4.548034071922302246e-01
4.688979322467346500e-01,4.917525842254080737e-01,-3.955956952099171087e-02,-5.057997114872569413e-04,-4.193910919421880122e-03,-6.474333040682787518e-03,5.204337239265441895e-01
5.428578357846625124e-01,4.410875106963830783e-01,-1.747924337733569589e-02,1.062129480413118998e-01,1.672462076461992200e-02,-1.577604991350465419e-02,5.502167940139770508e-01
5.112934068859421588e-01,3.281208528034982308e-01,-2.210609018170972551e-02,1.914202905173430225e-01,1.871993370780247051e-02,-5.152962957042719026e-03,5.756902098655700684e-01
8.071954209386076329e-01,4.500544018958256842e-01,3.998979649000905523e-02,8.885522962824986271e-02,-8.538914597155534969e-03,-1.300962793579609200e-01,7.189111113548278809e-01
4.765564833065262240e-01,4.971126085497669655e-01,-3.632481637773565808e-02,-2.496382803949589240e-05,-4.426055496901927511e-03,-6.139277532358896824e-03,5.236262679100036621e-01
4.869421745289139736e-01,4.806427183792935098e-01,-3.748672899233551625e-02,-6.802466707709033588e-04,-3.936404820821000697e-03,-2.057933423303986986e-03,5.213658213615417480e-01
4.600309991878547833e-01,4.665599320420450447e-01,-2.260617300428902077e-02,-4.821937515005791691e-04,-1.430446073043254319e-03,-6.078099340324174225e-03,4.860555827617645264e-01
4.962276814878832099e-01,4.804278493284068752e-01,-2.024587433488655996e-02,9.848923588565911599e-04,-2.974234730822711888e-03,-4.389922897826923145e-03,5.088434219360351562e-01
5.033353021960497164e-01,4.209005325797612884e-01,-1.792158945033789363e-02,1.562377650850223405e-02,1.455334830035222293e-02,-1.832051617647083644e-02,4.877593517303466797e-01
4.780643004421478715e-01,5.018106520919920488e-01,-3.620444400355526948e-02,7.790823472365504456e-04,4.414604293404843531e-04,-3.493793595380055724e-04,5.265462994575500488e-01
5.264637270466512309e-01,4.192634175112143202e-01,-1.864006248921473707e-02,1.174139267823173620e-02,1.676343249601244811e-02,-1.695140865884422685e-02,5.023080706596374512e-01
4.545090521805794648e-01,4.516048711577559382e-01,-3.799906665891694679e-04,3.662162996922034564e-03,-8.057277895855117795e-04,4.467540489934531192e-04,4.534910917282104492e-01
4.865762418102252407e-01,4.950805843488471636e-01,-2.481708181928016232e-02,4.470755372790614218e-04,-4.375371684541143683e-03,-3.572693683774243872e-04,5.157546997070312500e-01
4.966980281986431711e-01,4.148079192023116368e-01,-1.769406650279803372e-03,6.760965803802799351e-03,1.018987673571714915e-02,-4.043637535969875352e-03,4.635233581066131592e-01
4.063115845936057235e-01,4.491639522244989524e-01,-1.483513533393682193e-02,-5.099327113070029754e-02,1.450620444716030008e-02,1.636587319844666488e-02,4.544048607349395752e-01
6.196011190283751136e-01,3.620019148883491522e-01,1.863626666400564069e-02,3.397897639596390157e-02,-1.831599021322076123e-02,7.660481109043519587e-02,5.429393053054809570e-01
4.391777453249182672e-01,4.631638306211784961e-01,-5.045797098991666729e-03,-2.030546680690539091e-02,-1.614637232007383114e-02,-1.561841552279575988e-02,4.596911370754241943e-01
4.851604376231108962e-01,3.562627832139786399e-01,6.713212224999320910e-03,-3.239537220319731181e-02,-1.273881613722362485e-02,-3.392693019104204774e-03,4.330419898033142090e-01
4.841643492894195377e-01,4.952591950242374308e-01,-3.324453956880701888e-02,-8.606168006254012910e-04,3.528524713048509565e-04,1.346418364665259194e-03,5.230522751808166504e-01
4.751268433248504452e-01,3.738731718882700727e-01,6.370685461111191827e-03,-1.504820637225196857e-02,-9.529721913408360778e-03,-1.050779312210126451e-02,4.287241399288177490e-01
4.218778229197431839e-01,4.841566219888659983e-01,-1.186139216037063182e-02,-5.972799342279455637e-03,1.212737968519180323e-02,1.895409327749589604e-02,4.697309136390686035e-01
4.715119222755679851e-01,4.322572334372088987e-01,-2.303287883077886899e-02,-6.755744813207103378e-03,-1.495981958763688627e-02,-1.076646068863959180e-02,4.773451089859008789e-01
4.730215816892140435e-01,3.753346922312925105e-01,-8.325191160648170996e-03,-2.802438273149988196e-02,-1.549236380273946549e-02,-1.216286739126131236e-02,4.446752965450286865e-01
4.817627509369858951e-01,4.960413944301469980e-01,-3.549148933836682174e-02,1.066786208200897401e-03,-1.612134112272555712e-03,-5.031789129478517154e-04,5.245507359504699707e-01
4.695404898179964537e-01,4.496152789549120454e-01,-2.676599728643169751e-02,-2.994464189204453994e-02,-2.855237263533532896e-02,-2.974906495112846633e-02,4.945896267890930176e-01
4.731054012888344373e-01,4.733400179853211598e-01,-3.085195728689260619e-02,-1.192871674304155343e-03,-7.812985056893618011e-03,-6.856468167452682040e-03,5.044003725051879883e-01
4.504495263675286632e-01,3.922162259142890628e-01,6.686014855617983255e-03,-2.407818850159222646e-02,-7.478567694061576641e-03,-6.706095562809240643e-03,4.201396703720092773e-01
4.843427924316351385e-01,3.745612290003295652e-01,-8.808670680528762897e-03,-2.103973099299165372e-02,-1.917762721693019173e-02,-1.727975302639335464e-02,4.521487951278686523e-01
4.855161036846062927e-01,4.843774013057068895e-01,-2.916433642403326587e-02,3.094409963883713519e-03,-6.121697014879599018e-03,4.313857613224834561e-03,5.143035650253295898e-01
4.644370211880503030e-01,4.729645721525076452e-01,-3.058492667055345837e-02,1.406118661870848531e-03,-6.282329986445370391e-03,-7.640206938409363317e-03,4.996401071548461914e-01
4.819536855337573922e-01,4.722821300559826296e-01,-3.950993583828116273e-02,-1.422946673067108361e-03,-5.784085016004289481e-03,-3.761595351349998530e-03,5.168398022651672363e-01
4.565051891188542932e-01,4.515640006327032441e-01,-1.085919388839839961e-03,3.831181933389116775e-03,-2.185729685151867449e-04,3.852892535819673041e-04,4.551896452903747559e-01
4.545344859264798254e-01,4.502310267872450256e-01,1.458306188896751898e-04,1.800880033051885810e-03,1.267663387771064644e-03,9.980071206231418742e-04,4.522716701030731201e-01
3.800490950908870791e-01,3.870682030586141131e-01,-4.952218326617463529e-03,-1.457380374889390429e-01,-6.678724057381782084e-03,-1.968814021714222588e-03,4.635103344917297363e-01
4.864041879712475147e-01,4.957763752761122911e-01,-7.962544579953823032e-03,-3.906077713746008138e-04,-4.172802540849992158e-03,3.802290864334538132e-04,4.991720318794250488e-01
4.714967901420020757e-01,5.060880044530902122e-01,-3.226209721095235627e-02,-1.292674826840702843e-03,1.939410549067036981e-03,1.916410820091451030e-03,5.219411253929138184e-01
4.169178194684281524e-01,5.198751576456512868e-01,-2.738268952114492061e-02,-2.078661125962139738e-04,2.187451962942228104e-03,3.047879988260499343e-03,5.037752389907836914e-01
4.780706631172847443e-01,4.985791510484263167e-01,-2.727588079194281923e-02,1.221517577195972476e-04,4.686490132913918231e-04,1.373991234736571514e-03,5.159127712249755859e-01
4.825684325717748413e-01,4.720777410992528234e-01,-3.913411870038163709e-02,-6.116763947645619849e-04,-5.290800930332664222e-03,-2.810568501108586317e-03,5.166423916816711426e-01
4.783613265527215663e-01,4.724624010458555734e-01,-3.924471514251087756e-02,-1.617846927860123411e-03,-4.952386137691896541e-03,-2.955119262879273012e-03,5.147864818572998047e-01
4.846933382761621223e-01,4.885413304254850875e-01,-3.360354359970518789e-02,-6.630710924371353604e-05,-3.957819779717622181e-04,1.065362202185515545e-03,5.202353000640869141e-01
4.703461258531927980e-01,4.836781567018587635e-01,-3.945181290523053219e-02,-9.946296643211778414e-04,-2.511307540297237888e-03,-5.952396450185668680e-03,5.167170166969299316e-01
4.853284940229130040e-01,4.919984140595099475e-01,-3.267916218672428652e-02,-9.690482438813751874e-04,-3.400842566734806494e-03,1.132436640822852151e-03,5.214142799377441406e-01
4.756456170639062897e-01,4.872499436236866210e-01,-2.949290097200735206e-02,-2.790568772869335586e-03,3.568327556188233046e-05,5.041516051125927286e-04,5.110630989074707031e-01
4.829975116735113483e-01,4.870504883869182233e-01,-2.905517693060905016e-02,-8.148340415698142802e-04,-3.495878392266706103e-03,4.948098053242769084e-04,5.141294598579406738e-01
4.799802159676245239e-01,4.735157653280087087e-01,-3.908112536361396661e-02,2.316719087251670260e-04,-4.085354335661738230e-03,-4.796712810863041493e-03,5.159750580787658691e-01
4.710773961708042412e-01,4.782921897513517928e-01,-3.567415769921711277e-02,1.181392784513322653e-03,-1.100716444860523916e-03,-8.042896713994255112e-03,5.105949044227600098e-01
5.603177138981110250e-01,3.272658380627000430e-01,-5.039566971608233636e-03,9.734068577267411190e-03,9.705290641575126456e-03,2.523201658884421938e-02,4.946324527263641357e-01
6.011194805596487001e-01,2.974208955535866394e-01,-2.837845869894034534e-02,-2.029253263967304571e-02,2.449362746367579353e-03,-2.449571656550618426e-02,5.480660200119018555e-01
5.450596343922244902e-01,3.321303904343176350e-01,-8.972339694453490555e-03,-7.790496725216060001e-03,1.010286545381952486e-03,-2.880180504913137582e-02,4.868207573890686035e-01
6.240019674861495558e-01,2.864453515180784282e-01,-7.682957744592266991e-03,9.490709111886837246e-02,1.195749527409671348e-03,-1.463559777264736642e-02,5.721973776817321777e-01
5.179848525976651352e-01,3.483931481696660448e-01,-1.052052535938857725e-02,-4.721828538062522451e-02,-7.704803831871776844e-03,-2.241862947444761903e-02,4.762601554393768311e-01
4.621340450943391409e-01,4.693634736858671719e-01,-1.368647879934026257e-02,1.273573090175004856e-02,-5.545166202413413098e-03,7.264875510887248804e-03,4.802442193031311035e-01
4.885114487013846318e-01,4.947548826272949452e-01,2.861461489612082687e-03,8.737029489136728623e-04,-6.868388030659777245e-03,-2.153341385606179388e-03,4.889629185199737549e-01
4.691582628333278437e-01,4.811376439279811956e-01,-2.528395769364749635e-02,5.775092115836803590e-03,-5.793680203655919222e-03,4.962871957416717730e-03,5.008137226104736328e-01
4.734848531610366673e-01,4.818001091354908727e-01,-2.612011076481807192e-02,5.382081867993416006e-04,-2.154743360531737907e-03,3.064269702307390302e-03,5.038567185401916504e-01
4.622991009589405564e-01,4.942753070275635041e-01,-3.667145788414494234e-02,1.647542589297178921e-04,9.196870032533539449e-04,-7.305715178580194855e-03,5.158604383468627930e-01
4.637865653458482784e-01,4.888602320134219914e-01,-2.752390364176260373e-02,3.547681258462078574e-03,-3.960563065583780004e-03,5.296989293828564989e-03,5.044825077056884766e-01
4.888134179386227629e-01,4.641551947238076181e-01,-2.430402285946875462e-02,-1.645883162159584787e-02,-3.687178746325413953e-03,-6.839468073316415028e-03,5.022338032722473145e-01
4.606762191873050583e-01,4.691228105455098052e-01,-4.633297252156332036e-03,1.209538308711996697e-02,-5.074947497192569025e-03,6.529317326163737271e-03,4.702750444412231445e-01
4.661861473935787759e-01,4.806023736409442693e-01,-2.044147184659711458e-02,4.510417055340523577e-04,-7.993228495822045972e-04,5.372473246216149037e-03,4.940837025642395020e-01
4.906662073909995314e-01,4.941406363017871728e-01,-7.800909592935278969e-03,-1.644740821093166553e-03,-4.590645445525584276e-03,1.233426117857185523e-03,5.002892613410949707e-01
4.496723848616129282e-01,4.200863184903088632e-01,2.774108356330295955e-03,-8.954290260305690363e-03,-5.327720796174250859e-03,-1.526909758013115072e-03,4.332483410835266113e-01
4.974311659178382028e-01,4.935141019919865313e-01,-2.430083500905716454e-02,1.292675759585721869e-03,1.224306390475815619e-03,-3.238060942050131549e-03,5.198239684104919434e-01
4.706208272081221500e-01,4.793173534020442328e-01,-3.813801902421326551e-02,-5.687102195478381181e-03,-6.814930581882311725e-03,-8.676275257297399318e-03,5.136125087738037109e-01
4.988345213470751771e-01,4.976913026406708518e-01,6.305896666668586725e-03,-2.129051959681898479e-03,7.305333583888368003e-03,7.029614354591836797e-03,4.922851026058197021e-01
4.092895186384997164e-01,4.810982033414559211e-01,-1.074347263904079641e-02,-8.542793187421075102e-03,-2.094618802702823829e-03,-1.318679173058360382e-02,4.609772264957427979e-01
5.031252753745946160e-01,5.003500052553262467e-01,1.205161518759390593e-01,1.045605552683638410e-02,-1.328826983985751005e-02,-2.945626330815536223e-03,3.823863863945007324e-01
4.879472673173548269e-01,4.978511996790765393e-01,7.471208487088654149e-03,3.449390759141503660e-03,2.340447474258198959e-03,6.283327207316899768e-03,4.856794178485870361e-01
4.912364649975499153e-01,4.607947440896812408e-01,-3.344676325725043364e-02,-8.197803869170358984e-03,-4.574708496378278137e-03,-8.981540934615894756e-03,5.106401443481445312e-01
4.619293184388217344e-01,5.085332861083933231e-01,-3.597978832702020124e-02,-8.820245939117850103e-04,7.644400598590372345e-04,-6.210683889736572441e-03,5.228859782218933105e-01
4.972442074751660668e-01,4.992250218392968453e-01,7.909929953230493416e-02,6.927250331007725817e-03,-9.091479842592559493e-03,-2.082633574463698799e-03,4.196216166019439697e-01
4.877500552149699464e-01,4.996320508868231647e-01,6.230110078027151221e-02,3.301456999822070977e-03,3.171707134332548295e-03,-4.559370558867290209e-03,4.316577613353729248e-01
4.397672031136186654e-01,4.441179556627647962e-01,4.532930306553328847e-03,-1.198661162024461727e-02,6.551994709186683558e-03,4.880880644194250662e-03,4.381468892097473145e-01
2.974532738597760462e-01,5.784955682491377260e-01,-7.009343907544129948e-02,-2.142659484806782588e-01,-2.367108703040082460e-02,-2.843536222570871436e-02,6.776487827301025391e-01
4.482022609572059446e-01,4.470411646114854642e-01,-5.442817822464918187e-03,-7.595594872932107458e-03,8.225857158076095230e-03,9.227936882789796944e-03,4.537620842456817627e-01
5.730038072033853958e-01,3.431053121493174429e-01,5.186535708967143776e-02,8.102553748470898510e-04,2.463485405411882170e-02,5.814893526913572641e-02,4.653989076614379883e-01
5.574632546325622995e-01,2.872836756073046116e-01,-1.464114855080889122e-02,-2.025988303514933697e-01,6.016197276117065534e-02,7.775971695606525083e-03,6.163669228553771973e-01
5.159166208807690612e-01,2.696085073000072385e-01,-9.559019975946048131e-03,-1.397273110016834241e-01,2.226114765993425656e-04,1.759889849205597753e-02,5.165886878967285156e-01
4.997666183327897915e-01,3.749865977975186393e-01,4.269052051663391190e-03,-4.908835923906488402e-02,1.137022255747875341e-02,1.639437392074459196e-02,4.557223618030548096e-01
4.777970623972040976e-01,4.978771623893135101e-01,-3.073599545012234424e-02,2.784759610438899014e-04,-3.088393244974757101e-03,2.778031117400721339e-03,5.189146995544433594e-01
4.695393390387540555e-01,4.508448100756866084e-01,-1.009586832684244984e-02,3.746100499618382294e-03,-5.605932705893485260e-03,4.751336548569346082e-04,4.707121551036834717e-01
3.539934889603823520e-01,5.245272541825569679e-01,-9.508228705613352982e-03,-5.118327011478025768e-02,-1.978217990890616257e-02,-1.294391084412658925e-02,4.824317693710327148e-01
4.451708794994125862e-01,2.916535154209821679e-01,-2.877317252081809662e-02,-2.087637173704259552e-01,4.221704189690310069e-03,4.830727929093153045e-03,5.534458160400390625e-01
4.238284655685525815e-01,3.518741237533252741e-01,-2.039316094728216289e-02,-2.898475591403632534e-01,1.490754563979061059e-02,1.199838169725444235e-02,6.509070992469787598e-01
4.789586725509331622e-01,4.917554316616564725e-01,-2.866599101911121439e-02,3.241176445048353765e-03,-5.548244912440283838e-03,5.933781077383167533e-03,5.143656134605407715e-01
4.763734727903228827e-01,4.921684982005541942e-01,-3.003414527336467632e-02,4.310852397201366009e-05,2.785591731025273757e-04,4.343620278050304429e-03,5.145422220230102539e-01
4.860415709673548967e-01,4.948725878692304958e-01,-2.754452235238319391e-02,-2.052133094254443482e-03,-2.196645675373752257e-03,1.999035246846198564e-03,5.180957913398742676e-01
3.793688709455694807e-01,7.375794879643247093e-01,2.623292755448858316e-02,1.202459231796557636e-02,-8.635367150306459683e-02,-1.180776711732054590e-02,6.346178650856018066e-01
4.442984155944231794e-01,3.690971287985050364e-01,-1.199766388907164139e-02,-1.237413933808212685e-01,4.649596239752813720e-02,4.332349949470384876e-02,4.874417781829833984e-01
3.762857745236802276e-01,5.838448746788262866e-01,-2.069846713768802582e-02,-5.154850539224879041e-03,1.690202434327131922e-02,6.727654578363401888e-03,5.330548882484436035e-01
4.724049283446572489e-01,4.700245390642541765e-01,-2.080830712811110317e-02,2.595107304031542706e-03,-5.803978035225500903e-03,2.595866318663677319e-04,4.921507835388183594e-01
5.120618234396159263e-01,5.004436158799459022e-01,-9.752691059905338467e-03,5.675444494871948603e-02,-2.330491546725199647e-02,3.409781323492105942e-02,5.302295088768005371e-01
3.228090872316672910e-01,4.638373148885283626e-01,-2.783372524674687654e-02,2.007750731613065498e-01,-4.637799954530071912e-03,1.878385903439479948e-02,5.606645941734313965e-01
4.469689612055432471e-01,4.118944511816639009e-01,-7.628342992329506522e-03,-4.439605172058120469e-02,-1.650451886814873273e-02,-1.538192555364368413e-02,4.465245604515075684e-01
4.941224790187080940e-01,4.762775573679600694e-01,-3.977159164723148566e-02,-8.339581558028446792e-04,8.783833794572518464e-03,5.167629232064982654e-03,5.254975557327270508e-01
4.823848058406195460e-01,4.843611394299286443e-01,-4.394344051729331957e-02,6.422503791515951285e-04,1.878557638635903158e-03,1.513590795981521134e-03,5.273368954658508301e-01
4.637250481341416708e-01,4.922864080487805438e-01,-2.930158664879178865e-02,2.271550673549180190e-03,-5.143526231720077849e-03,6.034978549488525731e-03,5.081108212471008301e-01
4.820290699110469368e-01,4.150051182909221259e-01,-1.259050943111122978e-02,-8.941311863241221958e-03,1.984176201601787343e-02,1.364236740805024710e-02,4.668711423873901367e-01
4.808006434838411058e-01,4.991474608519885781e-01,-2.935779186698228571e-02,-1.523877239767969672e-03,-3.304582370753407928e-03,2.360245002416719133e-03,5.196291804313659668e-01
4.946601552119630485e-01,4.382508068182650041e-01,-2.448661908555116451e-02,-2.556694094343663504e-03,1.522369900369856602e-02,9.230619413767327279e-04,4.940932095050811768e-01
4.854911431427407775e-01,4.883473463702444617e-01,-3.733683961319839151e-02,1.365838377058581268e-03,4.709004263473968478e-03,3.265720171162546110e-03,5.243611931800842285e-01
3.265336287283844285e-01,4.750857923752930811e-01,2.534459235521702158e-03,-1.473361239930994493e-01,7.230002783394622046e-02,4.490823925499178720e-02,5.118885636329650879e-01
4.538383929270288775e-01,4.781412638409740512e-01,-1.852569351153843247e-02,6.574484812687234579e-03,-6.870365738659598570e-03,9.067820512343947523e-03,4.855061471462249756e-01
5.229445933997592943e-01,4.002482493676414177e-01,-1.557569199880570743e-02,1.576217300602741900e-01,-1.579620023946537791e-02,5.800523244185837313e-02,5.695263147354125977e-01
4.789329160614900216e-01,4.878787519978577958e-01,-3.012339819688614195e-02,7.364351852623396682e-04,-5.351958760906823419e-04,5.213248985757801962e-03,5.136694312095642090e-01
4.873862082655683325e-01,4.911370287949502478e-01,-3.393156948218833957e-02,-9.233840818002491584e-04,-9.420952070942613344e-04,4.552767189440891675e-04,5.232088565826416016e-01
4.607605216285444727e-01,4.906378181786391623e-01,-2.677109436556951438e-02,2.796572051126851657e-03,-7.983952156957080035e-03,7.701608203871163419e-03,5.035260319709777832e-01
4.683908198627776409e-01,4.993330761826100250e-01,-3.099709387820898110e-02,2.476559590407379527e-06,8.130954390117817957e-04,4.273113880917555306e-03,5.156109333038330078e-01
4.872709620879505654e-01,4.945666446071437794e-01,-3.179307147206766881e-02,-1.218586693758126269e-03,-2.290304500846887352e-03,1.517884420715836027e-03,5.227760076522827148e-01
4.202437324684827336e-01,4.520816451322902108e-01,5.208087878683875793e-03,-6.630238635558174769e-03,-2.054368455518813200e-03,-5.656788015006170185e-03,4.321141541004180908e-01
4.136586690406671707e-01,4.507177686639154413e-01,8.258699476649145055e-03,-8.899949962949382440e-03,-1.245798729152076175e-03,2.612621796939200696e-03,4.254515469074249268e-01
5.677434193121104755e-01,3.563989070180355601e-01,-2.426727685759111353e-02,-2.059457874789331899e-01,-5.179698968369007839e-02,-4.377770407237073502e-02,6.411429047584533691e-01
4.238257577934386178e-01,5.095707011675749687e-01,-2.948520406319926623e-02,-4.917397095861568250e-03,4.988752999922030454e-05,-2.594592290307290959e-03,5.018016695976257324e-01
4.832941521712518229e-01,4.928100170090933818e-01,-3.319597045741695673e-02,-1.000809284078927556e-03,1.597405501680067860e-04,1.250077308071048969e-03,5.213206410408020020e-01
4.861047056958456292e-01,4.918524400832861021e-01,-3.345858502518250788e-02,-9.782856187514413215e-04,-9.769069907661796434e-04,1.702596309364283120e-03,5.224747061729431152e-01
4.849731609882733663e-01,4.930414261159792311e-01,-3.345703022839352503e-02,-9.486950221429971217e-04,-9.434603346915801381e-04,1.667350787325160748e-03,5.225241780281066895e-01
4.235271609794027947e-01,5.220181626682487419e-01,-2.755016423249756485e-02,-4.039043749982147540e-03,-3.914085662823275252e-05,-9.248242175844689772e-03,5.078423023223876953e-01
4.416960234901160520e-01,4.366879015976939393e-01,2.700019975964695895e-03,-2.677887833524422549e-03,3.818236935801919488e-03,2.952135652204541504e-03,4.366181790828704834e-01
4.974372514562650505e-01,4.715575770945009682e-01,-3.772979027505918292e-02,1.634466379601592077e-04,-2.597044063437111642e-03,1.363267846034916858e-03,5.227326750755310059e-01
4.887131381066345814e-01,4.943054121063849005e-01,1.686310874179047792e-02,3.491498903026657788e-03,-6.483099038789244366e-03,2.177827838017869309e-03,4.748571813106536865e-01
4.941711643925443820e-01,4.978410959918163070e-01,3.766094180983053930e-02,2.838549782763444881e-03,-1.274144424907743163e-02,-8.035155212110416459e-03,4.591245055198669434e-01
4.945997347244555087e-01,4.805341630663296781e-01,-2.690459108480253159e-02,-6.545439971386141347e-04,2.641656409831002507e-03,-3.515442343789662236e-03,5.146733522415161133e-01
4.367206196989558697e-01,5.005801108499532415e-01,-2.711451347955140534e-02,-4.072956315966104815e-03,-9.513315040714004269e-04,-1.269062368619666877e-02,4.993765950202941895e-01
4.972222626787169419e-01,4.752410610828855519e-01,-1.227844065431915599e-02,-1.760445583041001785e-03,3.535198380118914456e-03,1.163316188975550662e-03,4.989244043827056885e-01
4.948870369446026762e-01,4.777194795593874277e-01,-3.514573296767886657e-02,-1.371568635230590010e-03,-1.307134706296777735e-03,-1.360139415294046774e-03,5.216765403747558594e-01
2.850025197944127120e-01,5.503807073282398488e-01,-1.298751538606403577e-01,-2.586081535654595198e-01,-2.015233399207802881e-02,-2.151553694992032126e-02,7.455804347991943359e-01
5.003552947050042832e-01,4.808431659628726318e-01,-3.368727614760341771e-02,1.207137348832513059e-03,-5.477829841967783503e-04,-2.795998723939442741e-03,5.245861411094665527e-01
5.120069378604933386e-01,4.475595507392241545e-01,-3.323197574714953362e-02,-6.747805411225312432e-03,-2.085875684751667750e-03,-9.423529846011923644e-03,5.164453387260437012e-01
4.979601360550321987e-01,4.523838621715741692e-01,-3.081504738087748052e-02,-1.598886673262788286e-03,-3.907238916822754378e-03,-1.393269194833821317e-03,5.075826048851013184e-01
4.934175502313763451e-01,4.962817146819480940e-01,-3.320994549077399549e-02,3.304319408646334984e-04,1.291631727867369357e-03,1.544756492891391541e-03,5.280772447586059570e-01
4.329580000529791306e-01,5.164077310193206927e-01,-2.576944588957902349e-02,-9.886760714168545995e-04,3.550774926895966695e-04,8.275400281119562121e-03,5.058499574661254883e-01
4.983523231598599446e-01,4.666781532872582572e-01,-3.759125737489421581e-02,2.403074104521382703e-03,-5.090742389649310744e-03,3.345168279930547960e-04,5.209209322929382324e-01
4.963809692003854357e-01,4.954785221701182296e-01,-3.308540903512435793e-02,1.465678720943816354e-03,1.983143699482848524e-03,1.372878946291341412e-03,5.290383100509643555e-01
4.164529466989878026e-01,4.538057044980230437e-01,1.366442453970606596e-03,-3.318710348550152345e-02,5.985605364625903001e-03,9.808584696300621728e-03,4.392003118991851807e-01
5.011474095371143411e-01,4.704675954650983094e-01,-3.184742970937248785e-02,7.016813196404673124e-04,1.087562978743860948e-03,-5.431907747728759693e-03,5.184265971183776855e-01
1.532305133873325398e-01,7.952900312318311737e-01,-3.851449760144753931e-02,9.502821500538544477e-03,-4.605474650002774895e-02,-1.865944666527005052e-02,7.614439129829406738e-01
3.358227237672458676e-01,5.894609602972424867e-01,2.590084271889686596e-02,-2.082462699138329931e-01,-5.392806274122268623e-02,-4.793498182010681036e-02,6.202495098114013672e-01
3.418906341940813887e-01,4.883435567402999444e-01,5.436639716995261828e-04,-2.810573484083860735e-02,-1.641455176458176193e-02,-8.390422964356630819e-03,4.374320209026336670e-01
4.778766875605169884e-01,4.804958045927029686e-01,-3.927274080949111346e-02,-2.777042329772034840e-04,3.425799500168895222e-03,4.222517228552199152e-03,5.185496807098388672e-01
4.741280000607946965e-01,4.789027018937224156e-01,-3.956104440760960239e-02,-3.576827706761924897e-03,8.309265265984577820e-03,7.973756713166012602e-03,5.165154337882995605e-01
4.737290404694359802e-01,4.840979235980160666e-01,-3.924750625631157064e-02,-2.173375877460359540e-03,7.247359146906912075e-03,6.176787671047015253e-03,5.185148715972900391e-01
4.824897044701224602e-01,4.843188445155057753e-01,-4.381709764777691474e-02,8.311676947356779008e-04,9.295383780311424577e-04,1.552798884122411549e-03,5.272350311279296875e-01
4.836458734371069657e-01,4.839449690375960955e-01,-4.268062940814448813e-02,7.957160422156957518e-05,9.096844316730898650e-04,7.743094449684158895e-04,5.264801979064941406e-01
4.837548127880310078e-01,4.836864240607424148e-01,-4.268861647697619333e-02,1.994992517648780463e-07,9.329437096097049692e-04,7.157460425853312720e-04,5.264132022857666016e-01
4.780691931003182016e-01,4.795524459015007013e-01,-3.938063846515948985e-02,-3.507139849558744038e-04,3.032633316598982564e-03,3.403428862710168069e-03,5.182535648345947266e-01
4.817890566295613963e-01,4.837408342865791577e-01,-4.257292443853660791e-02,-7.747278672836374960e-04,9.887326560298245184e-05,-1.978232855839563116e-08,5.253423452377319336e-01
4.560893793045043276e-01,4.993603537441426710e-01,-2.539923454039383355e-02,3.208820272926607344e-04,-6.866593260715270382e-04,9.896373387004688688e-03,5.048105120658874512e-01
3.158917544315570369e-01,5.945129816364729258e-01,-1.586924071476519815e-02,6.622351216394381512e-02,9.068047752256596511e-03,2.241639504412132680e-02,5.431773662567138672e-01
4.935902106038926318e-01,3.943988194154700033e-01,1.092069656556782231e-03,1.319349986488766585e-02,2.787532440130448155e-04,-3.602930622777071623e-04,4.517351090908050537e-01
4.901946979669836724e-01,4.960450171568954736e-01,5.290509270887144844e-02,5.057367793963178301e-03,-2.500825062314580068e-03,-1.180976727705586315e-02,4.408271908760070801e-01
4.625761045186191356e-01,4.708481858664216868e-01,-1.462414401973488598e-02,6.350770414623240845e-04,-2.605962776885043138e-03,4.678680907663755953e-03,4.814802110195159912e-01
4.922620523987060182e-01,4.981697188610690885e-01,7.894548516481503242e-02,7.272272334385614448e-03,4.897147520000810772e-03,4.905159859180506336e-03,4.166653454303741455e-01
4.964957083792125303e-01,4.984713244717634550e-01,1.037458389851459994e-01,1.043508896501022659e-02,-6.124510547102162729e-03,-6.134254436381643937e-03,3.944418430328369141e-01
4.319386136706789836e-01,4.960952880460890446e-01,-8.899911471143717723e-03,1.203260274427406934e-02,-3.611759824295562556e-04,9.284136550622877279e-03,4.768970012664794922e-01
4.787496514105828993e-01,4.484465523187342040e-01,-2.070522002196484301e-02,7.411661042302617949e-03,-1.233595976322105978e-02,1.258628136897863882e-02,4.861429631710052490e-01
4.190783555007298045e-01,4.962922469226852540e-01,-6.676030370614371989e-03,1.618932863772860539e-02,-6.174150687453193107e-03,1.360454429850478306e-02,4.707003533840179443e-01
2.952065135392617501e-01,6.059073862855157699e-01,-3.093372561311852342e-02,3.214867570990132071e-04,-3.707871827788546820e-02,1.959321802188127709e-02,5.563371777534484863e-01
4.031356754609942694e-01,5.014561397925370034e-01,-3.451273718163561099e-05,9.411887391651753421e-03,-4.452973625588544553e-04,6.228891281425957480e-03,4.606904983520507812e-01
4.427115366245714667e-01,4.747918703416837971e-01,-9.270112590149981457e-03,5.907146363001423463e-03,-3.687953533121712899e-04,9.304302940514975334e-03,4.692345857620239258e-01
4.791106340963863786e-01,4.612934522973850537e-01,-6.612045922341602822e-03,5.343761744656599227e-02,-3.499149420087404108e-03,9.672101728038057580e-03,4.862858057022094727e-01
5.604862921140301157e-01,3.327176393238105434e-01,-2.966243610395491448e-03,1.032659506139002176e-01,1.228615099109555027e-02,2.789837810144975977e-02,5.251665115356445312e-01
3.402536053506244329e-01,4.608694979124964841e-01,-7.340796329213250537e-04,-1.015421062784848255e-01,1.451065508544993783e-02,6.310856608959138428e-03,4.512570202350616455e-01
3.929265885097231736e-01,4.528079986282697589e-01,7.251687376932103302e-03,-1.884786965335669834e-02,1.083422995305336774e-04,3.986871607018749840e-03,4.201655685901641846e-01
5.661284800802868222e-01,3.350717247037410251e-01,-2.019556744177664065e-02,9.660369410032211557e-02,-4.491270933479557873e-03,2.890463585354182893e-02,5.406040549278259277e-01
4.829972818943720769e-01,4.001001545834342865e-01,-1.018498469559758757e-02,-1.657504006656111001e-02,-1.218000710228710377e-02,-1.383530668969905732e-03,4.587943851947784424e-01
4.675536244700811972e-01,4.951213949523845526e-01,-3.670635623891194133e-02,-3.287049613604354180e-03,-1.129925560184817310e-02,-1.199661495349977139e-02,5.194098949432373047e-01
5.588808863454863829e-01,2.144079522228106160e-01,-2.657027309403042770e-02,1.470527793281494466e-01,6.091235511430841652e-03,9.520327627434880613e-04,5.698509812355041504e-01
3.860484271131144340e-01,4.782159073494662849e-01,4.584112743906965104e-03,-1.345961270961952908e-02,-1.320732858586684197e-03,-6.272740711529422794e-03,4.357008635997772217e-01
4.545319833644928531e-01,4.153348875895775949e-01,9.816658778041442712e-03,-7.236864387989158133e-03,4.858559640425539131e-03,4.449492387701996145e-04,4.267377555370330811e-01
5.005085865992870975e-01,4.968348151308043525e-01,-2.215772717468772468e-02,9.102540444857103522e-03,1.754321730430016130e-02,1.113560534537771929e-02,5.223191380500793457e-01
3.709107638313292044e-01,5.345822792159615755e-01,-1.275035425746978701e-02,-9.461112319411131913e-03,5.499303041838548233e-05,-8.469267396876433568e-03,4.870958328247070312e-01
4.093685337564884064e-01,4.778280645546328920e-01,-1.001791147518221736e-02,-8.408463778168812075e-03,-2.063165223188233137e-03,-1.201283091305032323e-02,4.581926465034484863e-01
4.959349971600298668e-01,4.948802261471291208e-01,-3.133338037668403908e-02,-6.738844893559711377e-04,1.867985093899634770e-03,-5.657281585013218105e-04,5.267539024353027344e-01
3.861039270509232235e-01,4.758128363490639057e-01,4.352024622888195360e-03,-1.334749127655530249e-02,-1.327828622676415285e-03,-5.035932204390066412e-03,4.343323409557342529e-01
4.343844560877607730e-01,4.372616581987338602e-01,5.372889276328562946e-03,-1.464667318404790954e-02,-1.324535725530741120e-03,-1.656704170043679820e-03,4.312199354171752930e-01
4.955645354224998966e-01,4.949343223725713448e-01,-2.541004993118517463e-02,2.509171092866793393e-04,-9.838918625076601039e-04,-2.625227894737376579e-03,5.206825733184814453e-01
4.416348609112314971e-01,4.425930532341342816e-01,-4.706621457572834899e-03,1.491580723615967119e-07,1.326742425620432023e-04,1.291039654323800773e-03,4.468269944190979004e-01
5.462782647820988435e-01,3.818564412250322060e-01,-2.090308283698394387e-02,2.619007987341597388e-03,1.224690254763198712e-02,2.593676325082155953e-02,5.078985095024108887e-01
5.402146946792162341e-01,5.009843014186994292e-01,-1.007798964765560523e-02,2.242494038521669272e-02,-1.247923310100905459e-02,-1.177692265484782397e-02,5.340082049369812012e-01
4.748649843894144906e-01,4.788964189067929644e-01,-1.899308361923729427e-02,1.494028853334435775e-02,7.430591309350820413e-03,-1.261665237550720596e-02,4.972080290317535400e-01
5.822292899447223391e-01,4.765046242981083591e-01,-2.196743312064936005e-02,1.415394873262187979e-03,-1.230163681856471201e-02,5.001490118951923414e-02,5.659658908843994141e-01
5.003249559221270015e-01,4.984547479138466963e-01,4.112692234009107661e-02,1.480339927085950330e-03,5.171212061470572673e-04,-1.311884294601504443e-02,4.588368237018585205e-01
5.120048682915212535e-01,4.137550174486391841e-01,-2.028035919953830035e-02,9.631863315194858985e-03,-1.054165743155291608e-02,1.314018486834392374e-02,4.917452037334442139e-01
5.299581842942041598e-01,4.059398020996268786e-01,-2.735402677805531813e-02,2.007393674562615079e-04,5.466521981028395899e-03,4.423092760869880985e-02,5.126591324806213379e-01
4.837923964402611743e-01,4.978941339094710705e-01,-9.585595370330324272e-03,2.534402128648527986e-05,3.091743758257407045e-03,-4.522122669454113728e-04,5.006071329116821289e-01
5.543225925519341679e-01,3.862242326346021493e-01,-2.150633799262641199e-02,2.633702959503249341e-02,1.621064598913300389e-02,-2.421457720229476529e-02,5.173668265342712402e-01
3.039227551016168150e-01,5.443175479935404848e-01,9.863900958849092238e-03,-1.257769351751454948e-02,-1.592974973539894572e-03,4.433650333140078809e-03,4.642108082771301270e-01
5.490737615356234835e-01,3.500300182034081220e-01,-2.739793646553467799e-02,-3.608573185724703314e-02,-1.343521357188172741e-02,-4.785174513485768860e-02,5.181818008422851562e-01
3.353527230340946907e-01,5.442702047150953515e-01,-1.117397035899286850e-02,-6.576816265620529130e-03,-2.250780711008532400e-02,-1.927424855457092963e-05,4.876190423965454102e-01
4.712084730187875437e-01,4.684604976533186527e-01,-2.134497499632631579e-02,1.492192524990266578e-03,5.456786561132674976e-03,-1.012394148115529184e-03,4.912860691547393799e-01
6.001292539178375574e-01,3.120691693582365867e-01,-1.800201860795586084e-02,6.011016377598578375e-03,-5.338054143082340310e-04,-1.902781274188120389e-02,5.368438959121704102e-01
1.977259231260656558e-01,6.960813815330946230e-01,-1.483208703981607757e-01,-1.734559061029559146e-01,9.250661287838852012e-03,2.420177052790272593e-02,7.955096364021301270e-01
7.130213533773758217e-01,2.437116655045774016e-01,-2.782644415839369278e-02,1.569419984381631786e-02,-2.835511722568474433e-02,-5.620681898717989206e-02,6.588236093521118164e-01
4.320083266529901045e-01,4.702813173267798019e-01,2.749576839448097942e-04,6.333241812035780502e-03,3.095497979668610455e-04,5.479865997164377542e-03,4.523195326328277588e-01
4.562453560432325195e-01,5.301267937293914212e-01,-5.933071201343953494e-02,-3.795694132602595722e-02,5.133056035455969834e-02,2.976358445547012260e-02,5.694321393966674805e-01
3.770914228635103838e-01,5.325192049490619084e-01,-2.261177223181065621e-02,-6.237090336264652229e-03,2.490609581721696039e-02,1.684294164344813174e-02,4.988728463649749756e-01
4.788345506443072996e-01,4.336191989837422378e-01,-8.191369793308367342e-04,8.793542780112335519e-03,4.680966585661564330e-03,-6.157247673691777518e-04,4.590460062026977539e-01
3.888829350524444228e-01,5.627753109451895108e-01,-1.562905481953941189e-02,1.814462561043815592e-02,1.507040492021242614e-02,1.572378321280618139e-03,5.156418681144714355e-01
3.974670198665100629e-01,5.104325121111933372e-01,-2.257158510519596817e-02,4.832121897519887910e-02,8.730344739323610270e-03,-1.747635566433157830e-02,4.947658479213714600e-01
5.005941108374988291e-01,4.996199448484229810e-01,-1.597031225907818985e-04,7.080883084804512860e-03,-5.910164874337390552e-03,-4.657178470272491620e-03,5.005874633789062500e-01
6.335365046220984286e-01,2.439319649434862902e-01,-3.040361641121663849e-02,1.368865450496512259e-01,1.544160977564077927e-02,-3.346221613307385351e-02,6.278712749481201172e-01
4.490162544367062303e-01,4.549537390384930657e-01,-1.294396363780370152e-03,1.624533837400549347e-03,-1.518881864067195752e-04,4.533722997491459778e-04,4.533180594444274902e-01
4.358623417172211578e-01,4.748966209291880514e-01,-5.485774213440097746e-03,3.529983372951689055e-03,-2.494017591449708502e-03,6.752508128661023623e-03,4.623119831085205078e-01
4.605486508640403431e-01,4.605727100834036691e-01,-4.682171575927152052e-03,1.383727472611147313e-02,-4.580702088373188839e-03,3.764224870320905664e-03,4.659729301929473877e-01
4.577198584109914981e-01,4.422811450252872589e-01,-1.372920818778766705e-03,1.066031927012478682e-02,4.201280052431978843e-03,-8.811830622611878600e-04,4.520098865032196045e-01
3.953736859022800587e-01,5.009149163891642997e-01,-1.084871438060003301e-02,3.870727543715826290e-03,2.024489590708287816e-03,1.079544122570724914e-02,4.684396088123321533e-01
4.541592283353759751e-01,4.563613177104955398e-01,-5.196645183631554143e-03,5.427645703069235682e-03,3.277270712394599137e-03,-2.763430753168802812e-03,4.606166779994964600e-01
4.534135877201603826e-01,5.208576249177820916e-01,-3.402726481738532760e-02,5.456249019680004669e-02,3.279887997695624807e-02,-1.186015948820777835e-02,5.362860560417175293e-01
4.488780885530642140e-01,4.605004579736008408e-01,-9.931731804971866140e-04,2.532173959252603541e-03,-1.471854166133021327e-04,3.137298363365885728e-03,4.558471441268920898e-01
4.876377462837172549e-01,5.316063447750287718e-01,-2.412474548979032241e-02,2.952909212170770625e-02,1.428569931482410668e-02,-1.052045867054699109e-02,5.384196639060974121e-01
5.336806111515615125e-01,6.650948034017609700e-01,8.167118567295716947e-02,9.454065563811554773e-02,6.951086167815770378e-03,-2.571655371504420751e-02,5.567094683647155762e-01
3.399903031393675668e-01,6.846628584563353437e-01,-3.323578173928853907e-02,1.063391329415130579e-02,6.009939556496824570e-02,4.656423934419225835e-02,6.359382271766662598e-01
4.425502186982341879e-01,4.817095555145508023e-01,-9.018522025787290008e-03,5.466611275251100251e-03,-3.732383822777337939e-04,6.000858813410013363e-03,4.725770056247711182e-01
4.839030634039126477e-01,4.913006854033842852e-01,-4.172556074246452917e-02,7.284088080245824069e-04,5.003079040812867962e-04,3.240830039641464690e-03,5.293982028961181641e-01
9.041323060423683833e-02,6.256740934818724176e-01,-2.927478871480368450e-02,8.656554117115801417e-02,-1.058627559809797829e-02,1.785331500936089902e-02,6.234315633773803711e-01
2.976034828301261093e-01,5.689778691977991354e-01,-2.995036030104980540e-02,6.701918292994150927e-03,-3.277818199609466160e-02,1.024992209584023838e-02,5.229707956314086914e-01
4.118574548048227202e-01,4.650175962587647094e-01,1.712323554724726193e-03,2.114196138818189019e-02,-2.143613955564711068e-03,1.039399524919384921e-02,4.410524368286132812e-01
4.347444954852084376e-01,4.240749565070305316e-01,4.762931197642927827e-03,-1.272920925121748259e-02,-1.352550178681449083e-03,-8.350946699524543909e-04,4.253280460834503174e-01
4.935271905951515992e-01,4.950866234581159375e-01,-3.834535301802094454e-02,2.662265205224726133e-03,1.445397829402704027e-03,2.410755893773384399e-03,5.326961874961853027e-01
5.195425748064407268e-01,4.384984848143591574e-01,-2.087718631048907092e-02,2.215103109134261908e-02,5.830326540403945809e-03,-1.726136498893315191e-02,5.072392821311950684e-01
4.514157051214613969e-01,4.723669875436058430e-01,-5.500071109884596687e-03,2.809544927792679073e-02,1.568103478641175511e-02,-9.506823181883974211e-03,4.713394045829772949e-01
4.709760991601790181e-01,4.714113926168316260e-01,-3.480376011595159857e-02,1.009896519899447856e-03,-1.209090571770200752e-03,-4.618521334216090998e-03,5.060682296752929688e-01
2.619957165162649093e-01,5.528292943823374106e-01,-2.894065404760559623e-02,-7.377226392513321074e-02,-5.079772624420233161e-03,2.808226724601576153e-04,5.198527574539184570e-01
4.558470797823699350e-01,5.180781243167225103e-01,7.985256403591106666e-02,-4.573059780317632883e-02,-5.264883306742614011e-02,-6.822562471759566205e-02,4.440685510635375977e-01
4.953614020994790978e-01,5.515569745676800473e-01,4.889445392339392127e-02,1.228295441657898009e-02,-3.460728293504113204e-04,-1.864194139777315684e-02,4.786185026168823242e-01
3.951283958334563806e-01,5.070224723901461950e-01,-1.054650080988450700e-02,-9.272725271755698565e-03,-8.517568499816857925e-04,-1.277611020483950845e-02,4.724773466587066650e-01
4.529258620193406526e-01,4.604623150259120612e-01,-5.697781835500015379e-03,2.050009476570672454e-03,-1.507101205612805051e-03,3.815899093458868883e-03,4.625061452388763428e-01
3.097577926206704357e-01,4.136092582040376553e-01,-4.618882751485137161e-02,-2.362622013015380495e-01,-5.373195400311431280e-02,-4.422896574929879171e-02,5.970244407653808594e-01
5.069249225317289387e-01,7.128781994363388996e-01,9.507632492573037108e-02,-5.044574915790799724e-02,-7.841608243419066759e-02,-4.392731496631389898e-02,5.733480453491210938e-01
5.569957811405978898e-01,6.634280645945141996e-01,1.038670295701285551e-01,6.719203386000774381e-02,3.383816340680313034e-02,-3.306332918556437184e-02,5.339849591255187988e-01
3.094692757076702994e-01,5.477323981010607801e-01,2.953630770747228684e-03,-1.138554514531202669e-02,-3.130908674362943046e-03,-2.389893405619225846e-03,4.734849035739898682e-01
4.994539844992517685e-01,5.318922554995290097e-01,1.115710098592488375e-01,1.327802032462343899e-02,-1.619585463689177107e-02,8.739733614741404880e-03,4.069799482822418213e-01
4.922193953788189802e-01,4.973067380892403078e-01,6.613477247489540911e-02,5.946448145579416589e-03,9.519961420822236828e-03,2.053939389695112836e-03,4.291063547134399414e-01
4.417474618675062414e-01,4.702620232540956069e-01,-7.479675698972898523e-03,7.470362040407609039e-02,1.136383881697127646e-02,-1.047267271435119509e-02,4.825825691223144531e-01
4.822894186013272355e-01,4.456982566525473644e-01,-9.104078317494934680e-03,4.337031879528027538e-03,5.714529735060913489e-03,3.802644997648202429e-05,4.743207991123199463e-01
4.909683464794044605e-01,5.021306685765442035e-01,6.766401590184667469e-02,4.396731341157597908e-03,1.513674905700782870e-02,-4.313338189737471288e-03,4.299272000789642334e-01
4.081764720427034643e-01,4.843341148744815250e-01,-3.111958828088456919e-03,-8.953748872988403010e-03,-2.114648760074100777e-04,1.293487382908876417e-02,4.549983441829681396e-01
4.901592963976756367e-01,4.945690179418280596e-01,-1.887403959239619677e-02,5.236149919753266442e-03,-2.951037875939473403e-03,8.768000710669245426e-04,5.113607048988342285e-01
4.901875384381383371e-01,4.356208299255061034e-01,-1.455422916336929218e-02,-3.382425577440606457e-02,1.692718370806012632e-02,1.842954723363567776e-02,4.852941930294036865e-01
2.167676766186892590e-01,8.169045857965914204e-01,-1.248719537030227311e-01,1.030385530556146290e-01,1.066376617837026287e-02,3.280927230669702932e-02,8.469555974006652832e-01
4.487166700399740638e-01,3.591547700590758119e-01,-7.552675926915108917e-03,-1.515894097598122769e-01,8.549572476397226950e-02,9.220721585053641423e-02,5.401034951210021973e-01
4.938946992845442141e-01,3.869317077176775421e-01,-1.757149104220090408e-06,1.359405601518619278e-02,8.439087455581825367e-03,4.249562641872639047e-04,4.509043693542480469e-01
4.047442683178744671e-01,4.245711734382102143e-01,-3.893326193150525860e-03,9.041877204106123223e-02,1.675921429875946653e-02,-5.409056681690568337e-03,4.482598006725311279e-01
4.340991747641614329e-01,3.865779323163469616e-01,6.982513493460129617e-03,-6.589493685827793601e-02,1.025822098891432908e-02,8.293541843876966330e-03,4.218272864818572998e-01
3.092115585334461181e-01,5.534071527547699265e-01,4.413368129411177065e-03,-6.099710449538175289e-03,7.919263688220674576e-05,1.254166206634658954e-03,4.765292704105377197e-01
1.564489152686647233e-01,6.534423627229022369e-01,-8.134655789378922308e-02,9.894610563942338177e-02,-2.086079460345230743e-02,2.520472106436271592e-02,6.740283966064453125e-01
4.973188486992736745e-01,4.930277318010925502e-01,9.756358021007716097e-03,3.102828756986920813e-03,-1.990650631163974876e-03,4.786406590136951453e-03,4.855439364910125732e-01
4.533303341299170786e-01,4.491683164861411948e-01,-1.214382796001667320e-03,3.967554170636961031e-03,3.601410125890651404e-03,-6.114041904741085616e-04,4.525744616985321045e-01
4.121885303202976192e-01,4.757208834915604978e-01,-6.047725484443211563e-04,1.400110839031170999e-02,-4.389067466958925380e-04,6.252128929833009226e-03,4.487386047840118408e-01
5.582007663344674686e-01,6.896712182774554778e-01,7.949680243096429733e-02,5.618276748903508477e-02,3.821465353337104992e-02,-5.156160889291573624e-02,5.755030512809753418e-01
4.277344039897988393e-01,7.073620672177205471e-01,2.628079581308712109e-02,1.274309223559380311e-01,2.774634722097774064e-02,-1.114720314055019654e-03,6.345418691635131836e-01
4.606970757788008131e-01,4.489882904737569347e-01,-1.161660341164827415e-03,4.835788380439661263e-03,1.943133115657906041e-04,-5.776287325683863300e-04,4.561951756477355957e-01
4.298082419055798686e-01,5.287058644905651139e-01,-2.384855059099744157e-02,4.265971318571712759e-03,-2.586111040352416165e-03,-5.299247572717328408e-03,5.104994773864746094e-01
4.606596192329959205e-01,4.551857019921851100e-01,-9.668519601749414605e-03,2.530171774980293376e-03,5.355546809504209416e-03,-8.009850073025231044e-04,4.677298069000244141e-01
5.467440841512647420e-01,5.728555441095478651e-01,2.493674719082167313e-02,-4.270630879263591362e-02,7.657529638751510437e-02,-1.678392430262572177e-02,5.572232604026794434e-01
4.820415670409859965e-01,4.681722371231197277e-01,-2.020129031667350361e-02,2.775770445655973816e-03,-1.747628842934563362e-05,-1.071138779996047043e-03,4.954805970191955566e-01
4.087882415176165574e-01,5.321373672562116353e-01,-2.783450098844514331e-02,1.102474503424017956e-03,3.489512126302025258e-02,1.025957259703335137e-02,5.135015845298767090e-01
4.311225365998992975e-01,4.363123095104549654e-01,6.033443705326990703e-03,-3.925513043858171701e-03,-2.036675379280152964e-04,1.110146630142997684e-03,4.277661144733428955e-01
4.983036977208554763e-01,4.828047350147408046e-01,1.018356892671649638e-01,-1.716285008250777785e-03,-1.892677748091696477e-02,-3.886363820976375307e-03,3.903986215591430664e-01
4.135941742302313706e-01,4.540380546328682820e-01,5.952975422993667109e-03,-8.060340379542249231e-03,-6.804398042983223014e-04,2.157245559274697209e-03,4.295391738414764404e-01
2.757509430404397333e-01,6.239111233897383091e-01,-1.484487583791954668e-02,-7.346169196565327866e-04,2.960653345141020520e-02,1.323542960876006661e-02,5.567693710327148438e-01
4.927633106722461021e-01,5.135177032718583057e-01,-1.123602381205679457e-02,2.220122131270673566e-02,2.994034434385148963e-02,-3.117429454073868903e-03,5.187517404556274414e-01
4.908504089788633395e-01,4.964502033276275150e-01,-3.939689528550505138e-02,1.062015491468514027e-03,-2.661544493407875817e-03,2.240876166660351037e-03,5.331065058708190918e-01
3.831902191875679042e-01,5.091651294054112542e-01,-3.887109154977808068e-03,-1.253279579298487503e-02,7.940294762478044546e-04,1.446558890187036456e-02,4.642859399318695068e-01
3.824724083716006806e-01,4.801011651850769502e-01,7.747059295056313299e-03,-1.463829305414004849e-02,4.330106910879341967e-05,4.123667721473406322e-03,4.326988458633422852e-01
4.968196660847505886e-01,4.953136219536788953e-01,-2.088589874467389196e-02,4.051427800684019760e-03,2.313706416348378959e-03,1.458026352858810167e-03,5.170235037803649902e-01
4.775845326043568484e-01,5.111146555346024467e-01,-2.280160392958124893e-02,-5.549898570631611738e-02,5.496139643826333104e-02,2.866227244719804154e-02,5.376391410827636719e-01
2.624193839810684548e-01,7.296139371782988103e-01,-5.748989512680008351e-02,9.882814901433768784e-02,6.482968535751623684e-02,4.538280949973754613e-02,7.198340296745300293e-01
5.117191917140014867e-01,4.982158449671753031e-01,1.619008694225126943e-02,1.425924807664075145e-02,2.402129372225349571e-02,1.920370781332270474e-02,4.924302101135253906e-01
4.731385876563771742e-01,4.822741115852773319e-01,-4.021998630183826196e-02,-4.071386737385561221e-03,-2.101641140996956744e-03,-4.337624692290886069e-03,5.181020498275756836e-01
4.819747615043981082e-01,4.664039221907239630e-01,-2.222516481666536592e-02,2.683324987718542758e-03,8.761509505221653366e-03,-1.279256990616040469e-03,4.968561232089996338e-01
4.773874875431515230e-01,4.768251280989975749e-01,-4.142763421381645550e-02,-7.539140809344971198e-04,-1.133410743024110398e-03,-1.090663674068387875e-03,5.185429453849792480e-01
4.312553790188821123e-01,5.136594734153215880e-01,-2.602449564354814004e-02,1.615539539632566534e-03,-1.459270552284913256e-03,1.216919150764389501e-02,5.040193796157836914e-01
4.456631735589670074e-01,5.066940374877598741e-01,-2.566023008874873668e-02,-1.625561946519440656e-04,2.405483684197925239e-03,8.644006867084570028e-03,5.048538446426391602e-01
4.761713557646597428e-01,4.820775955143287161e-01,-4.174539222402490202e-02,-1.481171351522474850e-04,-8.548707288036934806e-04,-2.303253833316093978e-03,5.209124088287353516e-01
3.378036960537556532e-01,5.103370980059023232e-01,1.139115733401602215e-02,-1.875631525526340326e-02,-1.509539458651062071e-03,4.808299782257906274e-03,4.401835799217224121e-01
4.764934295077751236e-01,4.793173179953360563e-01,-4.083489037363857710e-02,-1.734303523487942637e-03,-2.216741810814830144e-03,-2.833122496970031084e-03,5.187921524047851562e-01
4.763730997884991769e-01,4.808197317134185189e-01,-3.569994405192555842e-02,-8.654967998799627596e-03,-6.382696478021601671e-03,-6.512410347283824688e-03,5.147715806961059570e-01
5.274715947201288335e-01,3.980975525983192487e-01,-1.252175229166019310e-02,8.997308962835646800e-04,7.299671305540487640e-03,4.887872280954549259e-04,4.885000884532928467e-01
3.941702605365416390e-01,5.060464015865907550e-01,-2.986198064262568508e-02,-6.777445377455695169e-03,-1.981522951410409975e-02,-1.066429135177103180e-02,4.913406372070312500e-01
5.011990633714131782e-01,4.957276523131781687e-01,3.989089409086710170e-02,7.790772727470743862e-03,-1.184864342079097223e-02,-1.194236847902115789e-02,4.597197771072387695e-01
5.017594503723498134e-01,4.958212467494713671e-01,3.741903404290541912e-02,8.110503369519886721e-03,1.312967371365321954e-02,9.588752476359298227e-03,4.624719321727752686e-01
2.973885246882140287e-01,5.342267677864811493e-01,6.010881581979765631e-03,2.844977732080932386e-04,1.140399470683381433e-03,2.566856129929012600e-03,4.582865536212921143e-01
2.293998780933441672e-01,7.194184827527676518e-01,-6.797095764955513042e-02,2.235564972438659204e-01,2.907669727486161468e-02,2.291307928002377092e-02,7.926593422889709473e-01
4.341328563700040943e-01,4.702382929304132486e-01,-5.868146236314153441e-04,8.107106027587417801e-03,6.611615686890267045e-04,-4.554433702687431663e-04,4.540700912475585938e-01
4.739056410336877634e-01,4.703129083506619734e-01,-2.134870340570160785e-02,1.665450654462398081e-03,5.356183434027347520e-03,-8.629100195677446043e-04,4.935656785964965820e-01
4.006042198864907533e-01,4.928484069640599596e-01,2.132675882650258981e-03,1.614103423291588998e-02,2.120854622610480566e-04,4.955229705321411750e-04,4.525789618492126465e-01
4.955083431455472587e-01,4.898762158319123761e-01,9.476698947941009088e-03,-2.119709330947335078e-03,2.560873112783326917e-03,-3.161581310795252928e-03,4.833055138587951660e-01
4.954157687584315184e-01,4.956567698552514223e-01,2.265118571245366974e-02,3.038672115785020968e-03,-3.287836986667199042e-03,6.829977478729798088e-03,4.730966389179229736e-01
4.993161556037976068e-01,5.022456197979069392e-01,4.809622531537610657e-02,1.562736797337271194e-02,-4.117036644480086618e-03,5.331482011243370185e-03,4.536503255367279053e-01
5.350062387260676733e-01,3.417040532685310383e-01,-7.533842358584508236e-03,-8.635195373788247253e-02,3.416432767337165832e-02,3.630416233815585841e-02,5.066229701042175293e-01
5.018598610712723396e-01,4.998391379562914238e-01,8.538191806302347642e-02,8.524346778300107008e-03,-1.122649602122508493e-02,-1.271227434961745735e-02,4.167700409889221191e-01
2.864576705019598046e-01,5.695633328377702753e-01,-9.158400697260982160e-03,1.505378615454862345e-02,8.265541922679635334e-03,1.436377891581871557e-04,5.021086931228637695e-01
5.425135818385273812e-01,5.332702475771202710e-01,3.517557349331312810e-02,2.005132826202075599e-02,-1.063171873306285702e-02,-8.683902146912989006e-03,5.045387148857116699e-01
4.681929474814898740e-01,4.506921542709546591e-01,-9.528805216273972256e-03,5.541197954936017724e-03,4.672462020053945973e-03,-4.860534414263631984e-04,4.693848788738250732e-01
4.939671801849382371e-01,4.897739087481566278e-01,1.061561833758591367e-01,1.690771885582490787e-03,5.602228664868347772e-03,4.787606278275579469e-03,3.859536945819854736e-01
5.190043022599923894e-01,2.378718654396517751e-01,-4.491360818628997720e-03,-1.430035852131459895e-01,1.463380451224739927e-02,1.390194937205946508e-02,5.181542634963989258e-01
4.109918240998592931e-01,4.985625479852680009e-01,-3.775057473566117983e-02,1.913284066541157680e-01,4.753268279737388885e-02,-1.745877492806814299e-02,6.048530936241149902e-01
4.494730049631827096e-01,4.528415680560173850e-01,-1.131522737740220386e-02,-6.836582321684778760e-04,3.283199371119571372e-03,6.009751611762042742e-03,4.626353085041046143e-01
4.714019025807726360e-01,4.193537990315948649e-01,-1.653865853312896927e-02,-1.229872398639115724e-02,2.186880161003415188e-02,1.640453702565531496e-02,4.670058488845825195e-01
4.902375522467660174e-01,4.979856741344788063e-01,8.303579770113111991e-02,1.033200299261196817e-02,6.601358314072503126e-03,4.197138819479811697e-03,4.117428660392761230e-01
5.103138367186372815e-01,4.981889412495936198e-01,3.877535407869936446e-02,6.328380846934976781e-03,-1.240522879285312248e-02,-7.868741165094750648e-03,4.664180278778076172e-01
4.950262083515332145e-01,4.964694935086656491e-01,1.066823486603589721e-01,8.350837859873021587e-03,-7.551031977451789362e-03,-9.791294958047730423e-03,3.899248540401458740e-01
4.332806845008718710e-01,4.536691216611970501e-01,-3.105645807643053757e-03,-7.509119234066024239e-03,8.231276977250835420e-04,1.257683839351756393e-02,4.476512968540191650e-01
4.994584042653341660e-01,5.236880222138096119e-01,2.851656386516593367e-02,3.275099406965860382e-02,-6.719216210913420487e-03,-1.830520573857328387e-02,4.879985749721527100e-01
4.551315392536656734e-01,4.644346273824295213e-01,-2.114173932606949746e-02,-4.976311064369024623e-03,2.431326873864419775e-03,1.403941710331663845e-02,4.817021191120147705e-01
4.265069963919332352e-01,4.781429991270341739e-01,2.949460492559397018e-02,1.138422091161663957e-01,-3.284349888848900334e-02,1.092813095955686570e-02,4.725036919116973877e-01
4.364373569140660436e-01,5.055080670008090804e-01,-2.338078477535043831e-02,-3.142482102144208717e-03,3.430502783932499848e-03,1.309541563493475495e-02,4.985407292842864990e-01
5.104890237850481238e-01,5.443747320873673079e-01,5.002201061679828475e-02,1.008628880685390411e-03,1.073681952605879016e-02,1.082156196097309314e-03,4.786791801452636719e-01
3.502010891152939620e-01,5.428843716036455547e-01,-3.970993088573182561e-03,-5.181010695293471018e-03,-5.594157196707916658e-04,9.107368767618140293e-03,4.807681739330291748e-01
4.308936558319397259e-01,5.305979485719822808e-01,-2.621729344274581486e-02,5.261557883243257218e-03,-1.276659372855688031e-03,4.435598100060075474e-03,5.144066810607910156e-01
4.948542520836436975e-01,4.979790247532233094e-01,5.968190240970910887e-02,6.284714612495600518e-03,-2.314930105237122601e-02,1.253434358944983213e-03,4.387202262878417969e-01
4.704572628684704494e-01,5.077860136485748965e-01,-2.559378328994443841e-02,1.896419005841948769e-03,1.184291706446892641e-02,7.205330267048483395e-03,5.162987112998962402e-01
4.896948137883173069e-01,4.947006993454631241e-01,2.658544353505587488e-02,8.947084111507769277e-03,1.034485358555830604e-02,6.718892548044225199e-03,4.663799405097961426e-01
2.888578230507320432e-01,5.414381821564322461e-01,-1.390857844822716294e-01,-2.665951513660140826e-01,2.164407633819484533e-02,4.163760358319034544e-02,7.581874132156372070e-01
6.268328951556267903e-01,2.730173822659366367e-01,-2.209775775948996657e-02,6.770865092623570836e-02,1.429475560931307626e-03,3.199820873966822271e-02,5.775169730186462402e-01
3.831679436160930208e-01,5.103901765103368016e-01,-3.624109827035870701e-03,-1.225257580178896327e-02,7.510150219126906883e-04,1.376252640762522586e-02,4.647821187973022461e-01
5.719771266283875111e-01,2.059005300809192418e-01,-2.143831403355911380e-02,-2.376814689555863669e-01,1.266360653917474564e-02,5.688148672933912575e-02,6.697637438774108887e-01
7.870985999020283508e-01,2.192545349745978478e-01,-2.567913591549703112e-02,8.277678706709808848e-03,-3.683389724333077913e-03,2.974661988290936560e-02,7.241715192794799805e-01
5.473587473063309394e-01,4.997641404810453380e-01,-1.643987419526254934e-02,2.211470487704882224e-03,-2.810444554041338899e-03,2.872688303150878336e-02,5.438882708549499512e-01
3.769937927466804894e-01,5.190879965526584705e-01,-1.048986857899447678e-02,1.022540163372184265e-02,-1.652632211423226598e-03,-1.651015406163642034e-03,4.751037657260894775e-01
4.835614848790238951e-01,4.950839091714295259e-01,-3.286628588772505521e-02,1.079314412688410843e-03,-2.011597373650638159e-03,-2.319575704846704375e-03,5.223147273063659668e-01
5.120070627728231516e-01,5.237466128247252328e-01,2.334972892823383717e-02,3.373142597034394646e-02,6.579211965805216791e-03,-9.979271186408003244e-03,4.985002279281616211e-01
4.624325347315376700e-01,4.411780619076111631e-01,-7.505865125598476517e-03,-4.572383935031687670e-03,1.062965804090512147e-02,4.699230718910427269e-03,4.601885378360748291e-01
5.829173398043129284e-01,3.528130787514768274e-01,-3.392784335501680681e-02,4.957402463771539911e-03,1.344978365267334927e-02,6.352956014828489706e-02,5.515720248222351074e-01
6.732792275292656115e-01,4.077760020904476201e-01,-2.583177271422720800e-02,-6.512564229811598771e-02,5.936267247965681254e-02,7.412465437527628043e-02,6.429705619812011719e-01
4.495065680123431218e-01,4.747498542316782033e-01,-2.092551972518846837e-02,-2.502133049649714596e-03,1.944980630919580702e-03,1.354911027782277656e-02,4.841484129428863525e-01
5.602048580889621432e-01,3.729775967194125519e-01,1.940289608706829982e-02,6.452965779670442881e-02,-2.247260924759037978e-02,8.775815917446079528e-02,5.132053494453430176e-01
4.493897114489605604e-01,4.654605388868146010e-01,-1.717970477431257637e-02,2.401431002337474363e-02,-1.659234359543729220e-02,9.932679912327338489e-03,4.778026938438415527e-01
4.298078970047830571e-01,3.358442006469671282e-01,7.289143578946943869e-03,-1.770684990652449664e-01,5.641759350836068887e-02,7.236086303694919120e-02,5.166882276535034180e-01
4.905521905679874894e-01,4.827625792188794951e-01,-3.362725450225001467e-02,-6.888280385652343924e-04,7.719759481327420983e-05,-1.546967530026758625e-05,5.203297734260559082e-01
4.881764469992857514e-01,4.662366476419455563e-01,-2.057189957830796168e-02,1.081863017087335852e-03,5.162700764698575397e-03,-9.783388892086477238e-04,4.982275962829589844e-01
4.415807863825695345e-01,4.942639885988077131e-01,5.812960549205214988e-03,-2.056554958209876605e-01,8.176638640366422350e-02,3.978680568885566149e-02,6.060655713081359863e-01
6.100432636668685626e-01,3.994608566076444656e-01,1.110233978126878851e-02,-3.087816501711724421e-02,9.848112835776190455e-02,7.525655173029054124e-02,5.708724856376647949e-01
4.712881837909877469e-01,4.616265330550799462e-01,-1.501953549531553911e-02,7.002950486023349144e-04,4.520838003988329745e-03,-2.753768841240010565e-03,4.816384017467498779e-01
4.954492990755945403e-01,4.174055169162397272e-01,4.348122398382114895e-04,1.313149193927846611e-02,8.648045995999564112e-03,-1.492170642586393599e-02,4.625008404254913330e-01
4.543972897496653118e-01,4.728389445307485395e-01,-1.118284148888964991e-02,4.521349855291247576e-03,-2.842248278416182488e-04,-7.546117347752277250e-03,4.753140211105346680e-01
4.593732037949234126e-01,4.530371038112840920e-01,-1.406631777104860870e-02,1.825331186556404875e-02,5.356364396072315313e-03,-7.378083840955769121e-03,4.716294109821319580e-01
5.110208512285590032e-01,4.999193057553950048e-01,-1.509102749408353095e-02,-8.511809434228509441e-03,-4.708546501466766634e-04,-4.688529479553646233e-03,5.209224820137023926e-01
4.807425836520658469e-01,4.793904653738272348e-01,-2.592183849130530460e-02,2.967932085448091368e-04,2.342487677869032909e-03,-3.973102246109725538e-03,5.060530304908752441e-01
4.684773484355014284e-01,4.726081053457346082e-01,-2.063496322515273595e-02,2.857218169773845934e-03,4.977315251653389051e-04,-5.657675424964520201e-03,4.913141429424285889e-01
5.732514991461873377e-01,3.831000217222580440e-01,5.486283530814373144e-03,-5.765446488110204798e-02,2.437547333114385446e-03,2.502047064522825576e-02,5.122709870338439941e-01
4.915557742371570171e-01,4.964160065084304296e-01,1.045971449405366793e-01,3.788501639663458161e-03,2.698375841207128513e-03,9.309644283462365291e-03,3.898284435272216797e-01
4.824160200377035079e-01,4.897930889587168712e-01,-4.076551598513528107e-02,2.945136485201825874e-04,3.314001556525888320e-03,5.872588853274132541e-03,5.270384550094604492e-01
4.982877493993618234e-01,4.892616510091873927e-01,6.026998885434653452e-02,4.157834093916056364e-03,-3.419473403292134627e-03,-2.097742542669088148e-02,4.351948201656341553e-01
4.795003754491057868e-01,4.990992466836141062e-01,-3.877794358818359433e-02,-1.909334838854557159e-03,7.312808902143014440e-03,7.465574017893912041e-03,5.286707878112792969e-01
4.432931732534112212e-01,4.643042340810287771e-01,-1.337351487271626338e-02,-5.317602295673634280e-03,6.023302229707686375e-03,1.095234346037335382e-02,4.681180417537689209e-01
4.607005635228699769e-01,4.654233597501956088e-01,-2.621242085357750051e-02,-3.557677298709231804e-03,1.052407948945260907e-02,5.847376390219130061e-03,4.897744059562683105e-01
4.363634770756249504e-01,5.092328301777021560e-01,-2.591283798317134401e-02,-2.208989813628066574e-03,4.038636238106862314e-03,1.256241295327945214e-02,5.032217502593994141e-01
4.677799596473258270e-01,4.870421360603748306e-01,-3.526999093699251242e-02,-4.663672425358131855e-04,4.484068354646637486e-04,1.174038132524736835e-02,5.133565068244934082e-01
5.477933887617205677e-01,5.081213747789299351e-01,7.764045727371837735e-02,-2.029256257122222587e-02,-8.865374716898974383e-02,-1.249865630105336523e-01,5.250185728073120117e-01
4.735166289917380755e-01,4.758214882477359575e-01,-3.545591987960644564e-02,-8.123106096573278834e-04,1.364646556972534674e-03,1.039024602723206264e-02,5.104536414146423340e-01
4.885648389590538376e-01,4.840834789295827001e-01,-4.004006906583557068e-02,1.698003864948069994e-03,6.198388122311560174e-03,3.092579595499148071e-03,5.265234708786010742e-01
7.627514008495686060e-01,5.000731187899606356e-01,7.446344449242775498e-02,9.212604457607338759e-02,-3.297565921375352621e-02,-6.717134462979376663e-02,6.357685923576354980e-01
4.655065374924669541e-01,4.467964633323258106e-01,-1.234095864724082947e-02,-1.051907913506128778e-01,2.568162632858467936e-02,3.007687085965008930e-02,5.075781345367431641e-01
5.590542232500248510e-01,4.753411951052110007e-01,7.357642095567701324e-02,-1.072137122098089715e-02,-5.748131483921312818e-02,-5.852301359649377671e-02,4.717920422554016113e-01
4.663144036105386636e-01,5.127544702899214935e-01,-3.387943408174975968e-02,2.050051966795776465e-03,-1.420792476331463787e-03,2.914396102053086988e-03,5.249987840652465820e-01
4.308016620430369370e-01,5.055583412544590871e-01,-2.482066244273528621e-02,8.559306542137806034e-03,-1.744270747767563386e-03,-3.258080395864197329e-03,4.974955618381500244e-01
4.994850400851222338e-01,4.863137017180384492e-01,-9.712791745259408138e-04,2.197030651044402233e-02,-6.615316874435690948e-03,1.163146388537280272e-02,4.960076510906219482e-01
4.943173057670183779e-01,4.966294197555162215e-01,-2.706977448635872197e-02,8.401409094674573881e-05,-4.106159913434800739e-03,-1.142079524317714733e-03,5.225991606712341309e-01
5.549540365574874290e-01,4.907750924537210846e-01,2.272832780543354581e-02,7.884134164783007659e-02,6.501621262890962434e-03,-1.495207693101762575e-02,5.221789479255676270e-01
4.355362494357365444e-01,3.232037475398898407e-01,2.254159820953172133e-03,-1.274654346438640617e-01,5.799550780171721168e-03,3.657473234101802240e-03,4.478433132171630859e-01
5.249040792394848998e-01,3.230546165319926888e-01,7.494731866023562894e-03,-2.998380818261582245e-02,1.343120751175722397e-02,1.139813587023770849e-02,4.556806683540344238e-01
5.258296966724297361e-01,3.369250598657388407e-01,-6.647017039078162437e-03,-4.594584594825500135e-02,1.198165042072736608e-02,1.639552350554282500e-02,4.756041169166564941e-01
4.665835113166618697e-01,5.007710270341330094e-01,-3.244813887200304059e-02,-8.452502641931526790e-04,-1.855740179578627830e-03,7.729976322133053253e-03,5.171593427658081055e-01
4.934462877024723415e-01,4.970922382189668642e-01,-3.642109079052679999e-02,1.272927562467504083e-03,2.130164645905832221e-03,3.649178948752974288e-04,5.317174792289733887e-01
4.903979793572240120e-01,4.994655362786705743e-01,4.174972601373422298e-02,9.616378500222014930e-03,-1.218183405129413810e-02,-1.931160309145284150e-03,4.540588259696960449e-01
4.771867612691839122e-01,5.122939806833335386e-01,-3.231309571881713083e-02,4.547590383613484520e-03,-5.516105000960868417e-04,-3.746785478786948329e-03,5.280292034149169922e-01
4.987290141188959192e-01,4.929807209698559012e-01,-1.702821003347221307e-02,-1.396387586378745492e-03,3.601591865663110112e-03,-7.151907796771436905e-04,5.129523873329162598e-01
5.187022297708486773e-01,3.386300673850572984e-01,-2.221379183936106338e-02,-4.717425791345485064e-02,9.779528097813470003e-03,7.516446578356535818e-03,4.845047593116760254e-01
4.833230312429544484e-01,5.041839689531339985e-01,-3.121250088703275694e-02,3.408784998027723605e-03,-2.272220524659663947e-03,-7.194406195990692837e-03,5.254724621772766113e-01
4.301392080728405620e-01,5.135598003952499546e-01,-2.701140923696759844e-02,4.960321670244258706e-03,-2.693217911686946343e-03,3.167914931117326444e-03,5.041896104812622070e-01
5.143228462313282900e-01,4.361317221329936156e-01,-3.532914769862988136e-02,-8.751588039295786492e-03,6.345945386196620228e-03,1.074701144424012288e-02,5.157037377357482910e-01
4.950106650304123557e-01,4.912330617542238764e-01,-3.114062255670807522e-02,-4.196529104385549633e-04,1.001054500171527162e-03,-7.108606660401904555e-04,5.242775082588195801e-01
4.934744845937246716e-01,4.907838557571438942e-01,-1.844514328341034792e-02,-1.293605272176417660e-03,-1.993677567850279941e-03,-3.739927002351947291e-03,5.106372833251953125e-01
4.741674839920257400e-01,4.663750962375362574e-01,-1.956699689748103710e-02,2.149395213195958462e-04,1.853086561498626123e-03,-5.427004504483145392e-03,4.899855852127075195e-01
5.023571683787499964e-01,4.502387243998796085e-01,-1.047946091211732211e-02,6.062719639412153701e-03,-9.931015817284690947e-03,-2.108047488443217776e-03,4.892943501472473145e-01
4.484604771270818135e-01,5.577767841630977275e-01,-8.814184376585709746e-03,6.456547485214662874e-02,3.514618735180614472e-04,-2.501737369692152296e-02,5.342488288879394531e-01
4.819104730328442887e-01,4.790989548903343276e-01,-2.967362723522187773e-02,6.553627771598698150e-04,3.265458898686026366e-03,-6.146166062692483582e-04,5.102178454399108887e-01
4.988591408248045367e-01,4.999125952335083389e-01,6.706450051309958971e-02,6.003397915770434905e-03,1.254182353423712905e-02,7.430806900153021435e-03,4.331838786602020264e-01
4.830115358258232350e-01,5.337474846825660535e-01,1.767389756409909474e-02,-1.561323016534201143e-02,-1.051397618762870377e-02,-2.061750398550157501e-02,4.950361549854278564e-01
4.223283558313224995e-01,6.417534883568152271e-01,6.932792661794306976e-02,-9.854322291209949292e-02,-7.251566619157155669e-02,-1.050787112305015536e-01,5.729278326034545898e-01
4.872763038294243287e-01,4.890711964029558212e-01,-3.181906382628024721e-02,2.621561725475335955e-04,-4.169002576851423719e-04,-6.049719598499800344e-03,5.201014280319213867e-01
4.683103672765340231e-01,4.794104322129406626e-01,-2.111775968585105634e-02,1.116039259957561213e-03,3.104022238871457346e-04,-8.531157846844071579e-03,4.952960312366485596e-01
4.929761016064267976e-01,4.847663177972408866e-01,-3.199697706071918946e-02,-7.625204131662716329e-04,1.082753733409978249e-03,-7.003613216035101379e-05,5.209217667579650879e-01
5.016214015166123863e-01,5.353903752012081352e-01,7.760428877291986050e-02,-3.106998866430735889e-02,-2.410928603314014401e-02,-5.847173048876710272e-02,4.584169685840606689e-01
5.479259020219057197e-01,5.440382281892544025e-01,8.567143535861343473e-02,2.743935396023094303e-02,-2.993821393237020012e-03,3.812534931614504352e-02,4.674863517284393311e-01
4.974386970237463235e-01,4.871918973257156060e-01,-2.006202724584321695e-02,-1.405910120361059676e-03,5.887361177840113972e-03,-7.220148353185620524e-03,5.127139091491699219e-01
5.014085192583159767e-01,4.979615478959744657e-01,5.690201693697899410e-02,-3.827790945629545166e-02,-2.058345355890877151e-02,-3.466825187450809503e-02,4.531423747539520264e-01
4.838854845394444659e-01,4.791225025725258657e-01,-2.961144191527381730e-02,2.228908912958989588e-04,2.990259419379171142e-04,-3.936485940541116328e-03,5.111779570579528809e-01
4.732509889692008143e-01,4.848877381241062379e-01,-3.455639229165996529e-02,-9.491859573377227268e-04,1.368093277699018208e-03,5.822129288414820344e-03,5.138316750526428223e-01
4.896995974579645972e-01,4.971187051608086938e-01,-3.196752003180819424e-02,1.139956847482729522e-03,-1.397608108137077471e-03,5.012007218095726555e-04,5.254259705543518066e-01
4.818472421659982796e-01,4.848046991450343235e-01,-4.324707208259420677e-02,4.587455378433011864e-04,2.550432956644137867e-04,3.436519344664375891e-03,5.266137123107910156e-01
4.776091262643175073e-01,4.848946579407361623e-01,-4.127056319798122486e-02,-8.982189633603725925e-04,3.666613921228131529e-03,5.910651221017146698e-03,5.227017402648925781e-01
4.649034209983944343e-01,4.680520032981115852e-01,-2.762284416251631347e-02,-5.536373137872151228e-04,4.208890173454511892e-03,5.351078951234722499e-03,4.942497014999389648e-01
4.583327117149273988e-01,4.543121598243186066e-01,-2.030591119323638116e-02,-9.146883813779158393e-03,7.881466485050949225e-03,1.920730170199776415e-03,4.771112203598022461e-01
4.835653096293791586e-01,4.872121948457764917e-01,-4.334884259571797349e-02,1.321121086749305572e-04,9.090028902924363529e-04,2.234390598555343038e-03,5.287635922431945801e-01
5.616485602617377060e-01,3.273477540047533552e-01,-1.027848215113776886e-01,-2.041000032405196341e-01,4.386580396815434324e-02,3.022301264705642282e-02,6.886034011840820312e-01
5.019743809793325573e-01,5.283905050965115313e-01,1.048330496551955204e-01,-7.730480607748732060e-03,-2.067485837018895583e-03,5.424320786647125747e-03,4.113275408744812012e-01
4.952517560275409014e-01,4.845595961948114816e-01,9.736086678397332106e-02,1.584589201080773523e-03,-9.723724874881645858e-03,-1.426468532146161951e-03,3.930324018001556396e-01
5.281809946342242990e-01,5.347165333073874427e-01,5.984597883601899815e-02,-9.567347546736063675e-04,-1.388146700257578310e-03,5.631039317100226295e-03,4.717466235160827637e-01
4.897724422154818291e-01,4.954749689400609336e-01,-3.695891303282167195e-02,1.949412855053720946e-03,-2.597750345850351628e-03,1.091082884556036003e-03,5.296388864517211914e-01
2.842916880053648065e-01,4.131862640173314949e-01,-2.235491496221633789e-02,-2.469961457350522416e-01,2.197938447386506722e-03,9.834232136464721510e-03,5.774919390678405762e-01
4.851762378181505575e-01,4.959735518634394436e-01,-4.140233035323204192e-02,3.404112126033098391e-03,9.187515127090854327e-05,2.363584279180995767e-03,5.321078300476074219e-01
3.774028860313210498e-01,3.812125326145060500e-01,-1.588201662882093856e-04,-1.359709626030139173e-01,1.822659936549721887e-02,1.044822276266370135e-02,4.481006264686584473e-01
3.096706986561842956e-01,5.471909971643963422e-01,-6.954870066683715990e-03,-1.987402451193987299e-02,5.697984682135717738e-02,2.883162495894753263e-02,4.952690899372100830e-01
4.879377894611735544e-01,4.988644665563116698e-01,-3.942922122084507874e-02,1.142366583349791343e-03,-8.425558038595809367e-04,1.498860150602565871e-03,5.329263806343078613e-01
4.847215264071537133e-01,4.802327600868669388e-01,-3.890708463412806406e-02,2.102148119839448125e-03,3.960849957531752466e-03,4.248667332948417343e-03,5.215085148811340332e-01
4.364981707817441881e-01,5.057705884526871865e-01,-3.398248407091636336e-02,-5.244384491486119536e-03,1.650698845115417673e-03,7.849114357164586886e-03,5.089376568794250488e-01
2.734987761245209481e-01,5.418247439066443683e-01,-2.961425460686828437e-02,-2.460530430043971761e-01,-3.958300308838457078e-03,9.792245742640601561e-03,6.535827517509460449e-01
4.616066092665770948e-01,4.232824179046182911e-01,3.514091380648953766e-03,-3.217263699863182058e-02,1.026804127351672695e-02,7.716416002876330497e-03,4.442540109157562256e-01
3.238926034813393584e-01,4.794840722787036547e-01,-3.498456103109726101e-03,-1.414522885151515974e-01,-5.428484244156634060e-03,-5.319233776206501452e-03,4.924757778644561768e-01
4.838903907249623160e-01,4.923950840544217278e-01,-4.273030340426992035e-02,5.039349783512036976e-04,3.063185331223312511e-04,3.204395152173110124e-03,5.309541225433349609e-01
3.845088891780062967e-01,4.757098600686510137e-01,9.354541102688795906e-03,-1.046549244783516984e-02,-5.036219190839526022e-04,-1.544552919610705762e-03,4.284965991973876953e-01
4.906953852885189704e-01,5.001506101828391282e-01,-3.516569434412003536e-02,1.639955455680308877e-04,-1.819641297495996901e-03,-1.366871540921091527e-03,5.306665897369384766e-01
3.593420476136436337e-01,5.162895986051325714e-01,-2.283741571702913031e-03,-4.218617209529400280e-02,1.611407501450985019e-02,1.147897869491856619e-02,4.676273465156555176e-01
4.774875162383735994e-01,5.001338321613769677e-01,-3.387047129130010825e-02,1.511212781404902214e-03,-3.500405820616141607e-04,2.490369375203780461e-03,5.230736732482910156e-01
4.937286026818542561e-01,4.941720218482228977e-01,6.085051221990100956e-03,9.136021225619344634e-04,-6.245134142533021251e-03,3.536900934121056433e-05,4.879878759384155273e-01
4.898986029787917307e-01,5.199038148114061286e-01,-3.693318544341095411e-02,6.692392385369007324e-02,1.688812340396413439e-02,-3.615361616870668010e-02,5.589929223060607910e-01
4.921501717448240054e-01,4.997231705357251252e-01,-3.218003119740375784e-02,-1.667717346287673976e-04,-1.061765752017311375e-03,-2.752135432916908223e-03,5.281822085380554199e-01
4.108458441489817314e-01,5.212214165896206230e-01,-3.397365432638738136e-02,-1.323745066984477817e-02,4.746844905337789522e-02,3.156577042070640715e-02,5.190559029579162598e-01
4.929060869752788232e-01,4.948309326876703662e-01,-3.174815949132864246e-02,-6.319342300790000257e-04,-7.120240581150929365e-04,-2.622375000588665541e-03,5.256415009498596191e-01
4.929621465470500064e-01,4.929928824386523578e-01,-3.251791366833034491e-02,-1.659428632125204296e-04,-8.602095415130567432e-04,-1.441886305519917821e-03,5.255035758018493652e-01
1.114787800305053200e-01,6.509202739067877497e-01,-3.258977041924235318e-02,-2.050080582949349514e-02,5.869575407254256499e-02,1.688536143908387147e-02,6.339725255966186523e-01
4.996181255420029110e-01,4.884371953970797486e-01,-2.418975955960289692e-02,5.026414629880488795e-03,6.250777399020820187e-04,5.378056522006571631e-03,5.184658169746398926e-01
4.870764007800177930e-01,4.703233145638254231e-01,-3.634329483665343918e-02,4.115588264362347003e-03,9.865871348144407416e-03,4.859229006847341119e-04,5.155807137489318848e-01
4.872501498896736338e-01,4.889831591276470046e-01,-2.992856608322502776e-02,2.468248604235327498e-04,-8.438640989625932707e-04,-6.873865965392511428e-03,5.181864500045776367e-01
4.935483039831637386e-01,4.912260759495785667e-01,-2.736228289376929634e-02,-6.074620032621521780e-04,-7.185903660735955528e-04,-1.518229478651934232e-04,5.197559595108032227e-01
4.948013683380597660e-01,4.995948596687268539e-01,7.048181839774292357e-03,-5.103053711253494225e-03,-5.982125377338417919e-03,2.968581031595945129e-03,4.903836250305175781e-01
4.899758870305220837e-01,4.515147334987059113e-01,-3.478448013249096915e-02,-4.378909578128304184e-03,1.486942196593240943e-02,1.029080752414022679e-02,5.076498389244079590e-01
4.928510083086947713e-01,4.889363503761954832e-01,-3.280928568199559248e-02,-5.598526696452733745e-04,5.599846961948909727e-05,-1.715543640657261762e-03,5.237232446670532227e-01
4.875113638999418186e-01,4.833795060392032106e-01,-4.009207324986263643e-02,3.382170217404732769e-04,6.147349960674761832e-03,2.841613605501757452e-03,5.256808996200561523e-01
4.864670297147540845e-01,4.828054188595575780e-01,-2.926392048579606886e-02,-4.871384037027578790e-04,4.576210254451938729e-04,-3.644792518435664187e-03,5.139499902725219727e-01
4.921258960781300651e-01,4.847794746724328752e-01,-3.332417736465875802e-02,-9.586417577663562672e-04,4.069758124708443313e-05,-3.435746038832649275e-04,5.218186378479003906e-01
4.839951064252235313e-01,4.699549921318454393e-01,-3.408706479772938280e-02,-5.360363530524118493e-03,1.495430163564542142e-02,1.096282213350826401e-02,5.122987031936645508e-01
4.738924319688098685e-01,4.637920758430274515e-01,-1.972228180993396141e-02,1.526566287428340061e-03,1.998112262743960508e-03,-5.604353140198997663e-03,4.887586534023284912e-01
4.964208521187829515e-01,4.769996622040987289e-01,-3.471388594558372231e-02,2.684374473907581260e-04,1.240817232627277646e-02,1.181578312273781108e-02,5.225389599800109863e-01
4.890638770760273868e-01,4.848956428397385165e-01,-3.186168349254769883e-02,-4.729143706493445015e-04,1.225392948922213870e-03,-2.049018004280101120e-03,5.188711285591125488e-01
4.908208455642331103e-01,4.846868273215303446e-01,-3.353842784207794470e-02,-8.293647350978325091e-04,2.988140181978873658e-05,-1.028953504543100210e-03,5.213243365287780762e-01
4.920725101293498271e-01,4.899431633515612949e-01,3.668180532171239072e-02,-1.945388695620617033e-03,9.089568738513284724e-04,-3.866898445154506696e-03,4.543943703174591064e-01
4.932545233537348750e-01,4.924572615321838320e-01,3.692977266572811113e-02,-6.585110137315377144e-05,7.164439420696451510e-04,-4.266645764041584674e-03,4.559882283210754395e-01
2.959986443314317484e-01,5.784730378101032855e-01,-5.480791104813032000e-03,4.651580504339895838e-02,8.486949316361944162e-03,2.612895353025020129e-02,5.143901705741882324e-01
5.412100606995791097e-01,4.748346689096802353e-01,5.428335362043079648e-02,3.953872152893132819e-02,-1.658938723581166938e-02,-2.652672175694272688e-02,4.656285047531127930e-01
4.880007860215133109e-01,4.877643251515518807e-01,9.718455460373393029e-02,4.232203912931250915e-03,-2.927113985697023853e-03,-5.592537797623760298e-03,3.909197449684143066e-01
4.801972069635798146e-01,3.507874910884628550e-01,-4.231900166418778308e-03,-7.978615315206900871e-02,-3.400415512201222790e-02,-2.893394178914573261e-02,4.623920917510986328e-01
6.363780988858519505e-01,5.199656337273977913e-01,7.725027939510581421e-02,-8.003648322418645267e-02,-6.161516545110695686e-02,-1.180866754491401854e-01,5.775175690650939941e-01
4.857215125405334177e-01,4.859357335455346538e-01,9.356708505612110205e-02,2.037494270065993811e-03,8.459628747065452755e-04,2.321750779416022203e-03,3.923008143901824951e-01
5.009272831925982716e-01,4.807656528878848645e-01,-1.937407506711502636e-02,3.567473659477439496e-03,1.599985113226571470e-02,1.474195092908835332e-02,5.119453072547912598e-01
4.714158254815551397e-01,4.703165631901756738e-01,-2.070551735191900056e-02,-6.878393420484103056e-04,2.414636778692653876e-04,-7.400898170399098849e-04,4.915759265422821045e-01
4.005815566052900456e-01,4.939648933634359640e-01,2.108860995217232137e-03,1.602179327271268175e-02,2.056767919552104093e-04,-1.264172307004075717e-05,4.533010721206665039e-01
4.959216582284288743e-01,4.952084476350842035e-01,-3.096340678144754444e-02,-2.254073340991129910e-04,1.656968527971223364e-03,-9.578127800328282027e-04,5.265393853187561035e-01
3.882435290720772647e-01,5.461987710798505979e-01,6.877150191227970888e-02,1.298284171552963571e-02,-9.102004523535503488e-02,9.640784037765571385e-03,4.506805539131164551e-01
6.252809533081911120e-01,5.324673242394331041e-01,-1.089530825704498884e-02,2.564112401713525835e-01,2.021644864288114907e-02,-7.166486124830540039e-02,7.537656426429748535e-01
3.396613093161267583e-01,5.304548731804209494e-01,2.918975573033111282e-03,4.472722573244308081e-03,2.392712000470289570e-03,6.903423830660854882e-03,4.628887772560119629e-01
7.635538900328451284e-01,4.020675233667557746e-01,-2.790284363789707900e-02,3.924176740322644907e-02,2.860190591181073494e-02,7.111446910010403577e-02,7.022970318794250488e-01
4.412889617405197917e-01,4.919147880284627239e-01,-1.098947776767922324e-02,8.212506853757147937e-03,2.542012015284192926e-04,-7.198880749589348441e-03,4.799726307392120361e-01
4.991521704044216690e-01,4.927069684987787634e-01,-3.311110490098023718e-03,6.406149070745234195e-03,-4.915187989946047560e-03,-3.733578819352218435e-03,4.995095729827880859e-01
3.019990368401657133e-01,5.536355839879503193e-01,6.990422180625566195e-03,1.198471177026390100e-04,-3.113944940320715823e-03,8.667326149932893728e-03,4.741734862327575684e-01
4.786801762929223103e-01,4.457906117860981898e-01,-1.054389213146300630e-02,5.274138210871235667e-03,8.045795105492385343e-03,-2.483675160682408643e-04,4.739297330379486084e-01
4.999653205593013183e-01,4.927509722752042576e-01,3.777641498470851733e-02,-6.256202494751722867e-03,2.816546123706044607e-03,8.425486660208865919e-04,4.587805569171905518e-01
4.620535669023381753e-01,4.895069653783398755e-01,-2.094768189133616731e-02,3.813063460764777677e-03,-7.776237557145260779e-04,-9.154008871909289496e-03,4.975949525833129883e-01
1.935878723138274582e-01,7.361143460068205746e-01,-1.214920017072878000e-01,-6.233415284250794913e-02,1.965564419285770192e-02,2.342969956590384636e-02,7.609283924102783203e-01
3.037466795386344343e-01,5.479126244788870004e-01,4.827287424047865816e-03,-1.127408262208361329e-02,2.228510545516916531e-04,5.217728999491047688e-03,4.716130793094635010e-01
4.916818528802098798e-01,4.907981382275418136e-01,2.437632597461869555e-02,3.925843414440543556e-03,-6.715835280706909834e-03,-8.711241525136474012e-03,4.673023223876953125e-01
4.435898585100464531e-01,6.023419241296756876e-01,4.651274915272807231e-02,-1.584510038772862783e-01,-8.582985748293173178e-02,-5.852717132675328005e-02,5.946478247642517090e-01
5.269578718917496962e-01,4.802581794512428282e-01,-3.890971295397976926e-02,8.118684345160682297e-03,3.194883631360980782e-03,1.155978807149644211e-02,5.446011424064636230e-01
4.956901185442801894e-01,4.763151093562590921e-01,-8.467212108577759633e-03,1.081406144601513956e-03,-1.708533740720022572e-03,-7.152214421361711419e-04,4.947683811187744141e-01
3.014776876804424743e-01,7.311845277685763422e-01,-1.424191972488743629e-01,2.362311486779536673e-01,1.220224936190639382e-02,9.177347704862406919e-03,8.605537414550781250e-01
5.322403489934111054e-01,4.238086437829642894e-01,-3.979719232341794033e-02,-9.073435907950691548e-03,2.782598136754943149e-02,5.774376856131525904e-02,5.380801558494567871e-01
4.928217589205837745e-01,4.874581211792399227e-01,-3.137687594953142423e-02,-2.322833123111320459e-03,8.870002266343433297e-04,-6.421985605056962929e-04,5.215564966201782227e-01
3.097100816410812141e-01,5.364958052121655552e-01,4.072256714149902201e-03,-1.272247721189375888e-02,-3.276913452242426021e-03,2.433272094112137567e-03,4.633530974388122559e-01
4.667860228499790543e-01,3.748673341791842750e-01,-1.494155607195890578e-02,-7.997814936138228359e-02,2.596124525719561288e-02,2.991377242602916500e-02,4.691766202449798584e-01
4.734572432299480327e-01,4.651368845681637110e-01,-1.365470213020841816e-02,7.045023792007332306e-05,4.589938598371447014e-03,-4.160480156866325739e-03,4.831247031688690186e-01
4.902482160782630771e-01,4.943498374905949122e-01,-1.405928521686844457e-02,-2.658766123637205849e-03,-4.300335582542071620e-03,3.301871901306048084e-03,5.064787864685058594e-01
4.568011885306445530e-01,4.182057431203251019e-01,-9.013155137639727865e-03,-1.980294314363535702e-02,1.163082570376465334e-02,5.664624670690685329e-03,4.496363699436187744e-01
4.771254301843527723e-01,4.074589910533987225e-01,-2.776394761905109920e-03,-1.085440355991409977e-02,1.074956624350892342e-02,5.006209100716781882e-04,4.499188661575317383e-01
4.573290454887889434e-01,4.681232225568669469e-01,-1.955746129405405709e-02,-4.099879163063418520e-03,1.622883152906740315e-03,5.093974501762029306e-04,4.824354350566864014e-01
5.286888514897210012e-01,3.561198735191536957e-01,-5.704621628483452778e-03,-7.099434126527107321e-03,1.152873110312824072e-02,-1.644436036794408003e-03,4.729638099670410156e-01
5.798642589418179227e-01,2.612061201725522919e-01,-9.707726954943152187e-03,1.157022959153928554e-01,-1.210823012311286126e-02,3.495084821429150779e-02,5.527493357658386230e-01
3.972645170993854835e-01,4.531706484535472090e-01,9.172614037815496335e-03,-1.706874869108061105e-02,-1.229778302173986518e-03,-1.414470287369282153e-03,4.199072420597076416e-01
4.987853630606129407e-01,4.833347969471763483e-01,-3.123610455507241923e-02,6.229732972716570246e-04,4.622062624509358747e-04,-3.309403002043560457e-03,5.225006937980651855e-01
4.886678036131772984e-01,4.984326452669974872e-01,2.697573999693114732e-03,5.774947210596491527e-03,4.161505902834235562e-03,5.079450388847106534e-03,4.911590814590454102e-01
6.495345162250760751e-01,9.891438118545115010e-02,-3.347230285436419983e-02,-1.072851844416723432e-01,1.667102016941240591e-02,2.559337959131386883e-02,6.564546227455139160e-01
5.703744989723291692e-01,3.100749515208357510e-01,3.985558740133787747e-03,1.105801270109123269e-02,4.233113266920637656e-03,-6.958735063360161482e-04,4.914708137512207031e-01
5.671154876421926616e-01,5.408665361579134689e-01,5.893173491858327839e-02,-4.861746436056640225e-02,1.854846564499964406e-02,7.817778020736318445e-02,5.215926170349121094e-01
4.951652405177599525e-01,4.826585827177385934e-01,-9.672271843888358145e-03,-5.133246890594758260e-04,1.970127114983527376e-03,2.015212535717206873e-03,4.987264871597290039e-01
4.909918193236704198e-01,4.921266466297142261e-01,2.287782594864451458e-03,4.463629494983475748e-04,-1.309446658516807104e-02,-2.250159658984117808e-02,4.913465976715087891e-01
5.021726572261938637e-01,4.728048383040996949e-01,-3.077073679007502616e-02,4.690148202300319720e-04,2.834053800720925768e-03,-4.059196594792991927e-03,5.189546346664428711e-01
7.501408988063276162e-01,1.910995187844708731e-01,-9.406542210852081309e-02,-7.612801989017911608e-02,3.506720159025324829e-02,2.491777974515732227e-02,7.590807080268859863e-01
4.401020771174806168e-01,5.011230135479036729e-01,-2.542572291253919481e-02,-4.204921569175702582e-03,-3.468407352038021954e-04,1.202117304687193300e-02,4.993331134319305420e-01
5.010201480459457457e-01,4.858698433656130633e-01,-2.311616097996671559e-02,1.983758576760361655e-03,2.911779803543408218e-03,-5.057150998294035818e-03,5.168380141258239746e-01
5.499089115099714542e-01,3.219782161286214306e-01,-7.304461823465835391e-03,-2.649773722425443831e-02,7.748155525640901091e-03,-3.125468289553419605e-03,4.875950217247009277e-01
5.482520316994805576e-01,5.399566256553278709e-01,9.958348381013754080e-02,1.428126719606369333e-02,3.299237881512533110e-03,-3.024149848543256081e-02,4.483732283115386963e-01
4.897960050122843190e-01,4.918648628374764353e-01,1.850265521512295397e-03,-4.756654066716706837e-05,-9.552611073379287804e-03,-2.631382954311973013e-03,4.892845451831817627e-01
4.948798928101739159e-01,3.778615405293900831e-01,-3.399335158701444204e-03,-2.863375363785155420e-02,1.486249918527847956e-02,2.867041985713061924e-04,4.547419846057891846e-01
6.504292147389914014e-01,1.627916464240284078e-01,-2.571476136621458908e-02,-1.576890684883629906e-02,1.460126670544621003e-02,2.888017128028396927e-02,6.075653433799743652e-01
4.729587032494715348e-01,4.858485786060879885e-01,-2.931962626822509632e-02,-1.188959680397721141e-04,-6.737127128025903119e-04,2.428515005633926499e-03,5.088644623756408691e-01
4.677870616679356552e-01,5.139755892529027648e-01,2.524426765844794973e-02,1.195199840083631046e-02,9.709377151258170857e-03,-2.355877396726265699e-03,4.681302309036254883e-01
5.110441577450304251e-01,3.369969917400564841e-01,1.010982592362913435e-02,-1.755629523772410730e-02,7.409197673159054719e-03,-1.793390572063111249e-04,4.417361915111541748e-01
4.823181084878644942e-01,4.700442007336518291e-01,-2.091431083553446646e-02,-2.177184106766009205e-03,5.109111980561222011e-03,-6.459875569724270487e-04,4.973033964633941650e-01
4.962433665735829225e-01,4.698609519322620720e-01,-2.265513699030335948e-02,1.355124857372073379e-03,3.125865581708249519e-03,-5.052004798893092868e-03,5.063331723213195801e-01
7.765909782308652032e-01,3.511375236309245973e-01,-2.727998654650143351e-02,2.232025631317589853e-02,2.072261440377747010e-02,7.580845108249617548e-02,7.107975482940673828e-01
3.381997562300598781e-01,7.231408590199932540e-01,-4.871543167744879499e-02,-1.360902330939220894e-03,5.395782655045291976e-02,4.086974942358192336e-02,6.786556243896484375e-01
3.767776127338852699e-01,5.341486242930894024e-01,7.992478956503346055e-04,-8.814476176376359606e-03,2.472864406801777298e-02,1.902072814588255667e-02,4.779607057571411133e-01
4.957304505012955498e-01,4.155659987365417640e-01,-7.578819771115130610e-03,1.264539871787460738e-02,1.367505452838481926e-02,-6.011165308523164219e-03,4.696255922317504883e-01
5.822374738719364728e-01,2.758128447352882762e-01,-1.825631615301948063e-02,-7.131599478199608655e-02,2.154155121156655153e-02,4.414689682409588672e-02,5.412759184837341309e-01
3.223667893325358746e-01,5.233534244528381674e-01,-3.462080612384899059e-03,-4.374576683458378940e-02,-9.713747506206461520e-04,1.267897159524089545e-02,4.671975076198577881e-01
3.893805736662597772e-01,5.634881659285289057e-01,-1.298252565304586215e-02,-9.138811852949953879e-03,-3.105984118464515109e-02,-2.408445740562634163e-02,5.168644785881042480e-01
3.131514283045970792e-01,5.353352594989287949e-01,4.440142404045777091e-03,-1.683888415689052329e-02,5.182779825313251106e-03,-1.729769858342155957e-03,4.628165662288665771e-01
2.130648500107924226e-01,8.069622540743497385e-01,-8.810205909251817014e-02,8.992262262506243997e-02,9.647506757925657095e-02,5.561578503810812174e-02,8.268843889236450195e-01
4.795889212028848769e-01,4.818673562317462022e-01,-3.927809078976618462e-02,-1.834901432874119472e-03,-4.176238962818012469e-03,-3.160659896313281099e-03,5.200988054275512695e-01
5.492396277393021276e-01,3.207059826268601754e-01,-2.640595323226152535e-02,-1.864243104367935000e-01,3.743811251514060634e-02,7.108987075921578691e-02,6.129186749458312988e-01
4.714876524455543505e-01,4.639459497625202378e-01,-1.416047234522199716e-02,1.704252276162143134e-03,3.800588845560257806e-03,-3.552298600957054693e-03,4.820148050785064697e-01
2.898768690636016609e-01,5.597165916769291094e-01,5.547681597397158271e-03,-8.938237261554249358e-02,2.713211786153122210e-02,4.162014515472495756e-03,5.065647959709167480e-01
1.354009821721164630e-01,6.222315832759108822e-01,-2.645408416512445848e-02,-7.788406942605619054e-02,4.309321305039896105e-02,2.305109761163205706e-02,6.061022877693176270e-01
4.416951336239831605e-01,4.382405534278925874e-01,-1.733643245498200924e-02,-2.444260539272608695e-02,-1.636064872313103616e-02,-1.915124770762791778e-02,4.613369703292846680e-01
4.168425440629404122e-01,4.357139102865910663e-01,8.758382558490207526e-03,-8.939046668940762996e-02,-1.222656427921832434e-02,-8.159646592491864164e-03,4.463295638561248779e-01
3.694455769088615948e-01,5.121028695417949583e-01,5.773346047699245975e-03,-3.504775970175171701e-02,4.948002992133691998e-03,1.131144206940370121e-02,4.567618966102600098e-01
6.911238973650970507e-01,7.484082258133064602e-01,9.470399595197664944e-02,3.114541421263599535e-02,-7.231448394379759448e-02,-2.750920444568112980e-02,6.434533596038818359e-01
5.429413940353977619e-01,3.492110947624453843e-01,1.797018375604197971e-03,1.486264805981382317e-02,-2.013794193042435943e-03,-2.286728428437817800e-03,4.756292104721069336e-01
3.247481852500073152e-01,5.155981382049281692e-01,5.190533316422552002e-03,-1.155997671878596783e-02,-7.815820858708735427e-03,9.495903663096109254e-03,4.476416409015655518e-01
4.983434906429168865e-01,5.001974548627955430e-01,-2.660663797670959063e-02,7.325010311542376820e-03,5.372264535165835984e-03,6.213309811714724275e-03,5.262249112129211426e-01
3.271091634253601166e-01,5.605142946380403668e-01,-2.128668928206295385e-02,2.021503447374258661e-02,-3.816430015172853768e-02,-3.941419848009132141e-04,5.126118659973144531e-01
4.813698584442090422e-01,4.954629550099796109e-01,-3.232236914618569212e-02,8.770130034645407750e-04,-9.367784008124669867e-03,-2.990402708565760830e-03,5.211623907089233398e-01
3.399580269950122080e-01,5.671471148996929390e-01,-7.038002911787744065e-03,1.960688947418492978e-02,1.480331439787551003e-02,6.248430807663617323e-04,5.026596188545227051e-01
3.444819358552900224e-01,4.999022975755287312e-01,-1.331344423750030481e-02,9.976138826730136799e-02,4.480679996627367871e-03,4.199187416454907076e-03,4.875980317592620850e-01
4.876042470369411630e-01,5.002511005549400425e-01,-3.595747869508392203e-02,3.459508124381059733e-03,-4.697875373720029543e-04,-1.287494826236843838e-03,5.300375223159790039e-01
5.226779716579064150e-01,4.022383727048467472e-01,-2.409230287942404347e-02,1.413352183090173068e-02,-1.091801283137893396e-02,2.179971826891773448e-02,4.999932050704956055e-01
3.719623219250441926e-01,5.425767897539091056e-01,-1.201144520801400439e-02,2.004130662701442828e-02,-1.522975886907397026e-02,8.285184331061895904e-03,4.941288828849792480e-01
4.419615202708299107e-01,4.038036750759245175e-01,-4.741676319706017440e-02,1.384815689217027967e-01,-3.409562266577993023e-02,1.128749319728894335e-01,5.670226812362670898e-01
5.496109296797366817e-01,3.026301009086642124e-01,-2.360048214354737439e-02,1.342793703597700283e-01,-1.010117553065166193e-02,3.428459740164394726e-02,5.531038641929626465e-01
4.942804961417636145e-01,4.952183931517234461e-01,-2.862135658312958686e-02,4.229988271648639519e-04,-2.107966949687702356e-03,-4.230912763056104281e-03,5.234359502792358398e-01
5.110955637156610054e-01,3.653393234761824759e-01,-1.518830629434808621e-03,3.297472136747253008e-02,1.198519532076633507e-03,2.227886279088212712e-03,4.610670804977416992e-01
4.950703272805688782e-01,4.960735201266343597e-01,-2.796516484077177234e-02,8.883749728744786550e-03,5.327043149915505413e-03,5.616745299126568378e-03,5.239354968070983887e-01
3.549649982216281918e-01,5.095521601939521084e-01,3.879625630697214334e-04,3.285378936062369193e-02,-5.469446737674260204e-04,9.336118650410943007e-03,4.559995830059051514e-01
4.413282341758443805e-01,4.898594841006648215e-01,-9.786152634365663516e-03,8.229712111608110045e-03,2.643548875095798898e-04,-6.818615230056401105e-03,4.775934517383575439e-01
3.767237107141205299e-01,5.315630659738375119e-01,-1.207124082137339682e-02,7.290749917188969753e-03,-2.067430204509114380e-03,-6.733133316346424403e-03,4.854336082935333252e-01
4.837483993686541028e-01,4.848307006479295467e-01,-3.035500544535379985e-02,-9.279644898324549600e-04,1.127570511916856338e-04,-6.182421657408841351e-03,5.147593617439270020e-01
3.408252763947736685e-01,6.135174014079229909e-01,-2.412607427540985894e-02,2.579015812577565084e-02,6.400462336940035413e-02,2.107727137346164861e-02,5.680561065673828125e-01
4.925847855309768430e-01,4.919627436036578261e-01,4.074317574197627856e-02,3.411629791410898845e-03,-8.884058448506327796e-03,-3.497094428124136040e-03,4.518722593784332275e-01
5.238469535369645325e-01,3.827238927380806621e-01,-1.771229932499907012e-02,6.191214744252603042e-02,-1.130927813989469552e-02,1.664604260426399626e-02,4.994896948337554932e-01
4.368378791828168017e-01,4.961795902744532971e-01,-2.788118455763455295e-02,-3.923125157589026427e-03,-9.701892185275926049e-04,-1.030991592205132354e-02,4.974237084388732910e-01
1.405968764872938259e-01,7.870565671172162769e-01,-1.184793956946998406e-01,-2.321223596580879178e-02,-1.337478025156461133e-03,2.152843119326962665e-02,8.096451163291931152e-01
1.834197892742553126e-01,8.032625266625126326e-01,-7.118812889113945719e-02,2.037573764048239769e-02,-1.514512991845299444e-02,1.188369085247189920e-02,7.805154323577880859e-01
1.376218133172443236e-01,6.268335086953643609e-01,-2.181401091656462454e-02,-7.262141960613936742e-02,-9.485102532898245092e-04,9.951175349789936203e-04,5.988096594810485840e-01
4.885850030790959697e-01,4.932952502942793416e-01,-5.659564181653586878e-03,2.154011248686511868e-03,-6.623524215343926276e-03,-4.313611345909840883e-03,4.968191385269165039e-01
3.732001149833640841e-01,5.395525090800192825e-01,-3.839548677072024407e-02,-2.282505878038352254e-01,-2.079749022780719159e-02,-3.325392673004885780e-02,6.530421376228332520e-01
4.689765801795997002e-01,4.973278493695256763e-01,-3.600622395882352444e-02,-2.014083762181056124e-04,-4.950286772869606777e-03,-6.072696740126232694e-03,5.199159383773803711e-01
4.683584343044192577e-01,4.036887623507809941e-01,-8.420192574180307421e-02,2.225918401274765701e-01,-2.772566585991220744e-02,4.523323705766469499e-02,6.563968658447265625e-01
4.854455770782605817e-01,4.915215710677931504e-01,-2.590267653184030738e-02,7.472513765686512530e-04,1.667632206623359970e-03,-5.899642546872661819e-03,5.145244002342224121e-01
3.106304473629762919e-01,5.604982582339601560e-01,-2.153165881417729022e-03,-2.913589163771626318e-03,1.993035380168488996e-02,1.609102843682534700e-02,4.903222918510437012e-01
1.625877425789929720e-01,6.516724967667494317e-01,-1.216877813113475260e-01,-4.314515725170785937e-03,1.197794880245475063e-02,3.773260775877848583e-02,6.810351014137268066e-01
2.385542537487159720e-01,6.000048032550222565e-01,-1.409453174363741734e-01,-2.624399837051316631e-01,3.957873770627159254e-02,3.984016995366601588e-02,7.924153804779052734e-01
5.323091192754358936e-01,3.360288883124620818e-01,-1.185756115496722218e-02,4.325306571729024829e-02,-1.034834894274960088e-02,5.218138479380173347e-03,4.835799634456634521e-01
5.495969413323009700e-01,4.011755261373670112e-01,-1.848362734776010097e-02,2.025574706237332975e-02,-2.940340416303388518e-03,2.508110262667434184e-02,5.133937597274780273e-01
3.627551907632327599e-01,5.093779022881143037e-01,4.316153727307869836e-03,-1.302227856424669795e-02,-8.596868503206271921e-04,-5.018843435424167471e-03,4.506867825984954834e-01
3.627985612888899314e-01,5.076457652439895218e-01,5.267696905442098565e-03,-1.295050075153244412e-02,-8.217904305368547340e-04,-4.665264975030792780e-03,4.485162794589996338e-01
4.915818857972095723e-01,4.982395111910697949e-01,2.620846565947132500e-02,1.780755556097072655e-03,-1.708774394131243194e-03,5.774486485361395721e-03,4.688638746738433838e-01
4.404521604752772435e-01,4.625901206408363775e-01,-4.261740766730359731e-03,4.476936488522585689e-02,4.244353941098222976e-03,1.494089476229552328e-02,4.635107517242431641e-01
4.833660949876709134e-01,4.883458745718690652e-01,1.145907838083799202e-01,3.879382094173766237e-03,-1.732003549560664525e-03,-2.630681300439384473e-03,3.713911175727844238e-01
5.640993808798206999e-01,3.086525303266805520e-01,2.678319929078520900e-03,2.053431348488102617e-02,4.602917129907327723e-03,7.785681472454131398e-03,4.884095191955566406e-01
4.889352341978568384e-01,4.946014511185417017e-01,-1.496051129541942082e-02,2.345692122768118070e-03,-6.942617124135502110e-03,-5.018491645279730994e-05,5.069115757942199707e-01
4.851645502221993977e-01,4.903813177591067052e-01,9.665968289227311327e-02,6.179400474507637867e-03,8.353920298386267006e-04,3.715230543244354370e-03,3.913413286209106445e-01
4.835801476399421706e-01,4.955837922012303887e-01,-2.965459132704850731e-02,6.407260965570660445e-04,-1.758998585014813184e-03,1.620992798975741389e-03,5.193583369255065918e-01
6.948876920159340331e-01,7.293759837936905077e-01,9.035466398800068299e-02,4.366322360593310331e-02,-9.277161921807401679e-02,-5.283872375894393958e-02,6.537689566612243652e-01
4.922793992483835979e-01,4.910693096401425040e-01,-4.283134228125096143e-03,4.427516935856198356e-03,-5.511030541529886133e-03,-5.186729152517545634e-03,4.961910545825958252e-01
4.837463742981035209e-01,5.063679038638739804e-01,-2.329734744513778377e-02,9.743963584952979734e-03,-3.699419671852644063e-03,-7.849863867487678806e-04,5.190404057502746582e-01
4.595249564808556730e-01,5.048858870363920337e-01,-1.809260081810215581e-02,4.853633078067222384e-03,3.865385918769632034e-04,8.802916762407327414e-03,5.021403431892395020e-01
4.857555105496994541e-01,4.944328287909198760e-01,-3.233438682943851061e-02,-9.732276197712159136e-04,-7.223211810422865749e-04,1.582911518423081153e-03,5.224940180778503418e-01
4.916783373420567926e-01,4.967850704835781173e-01,2.392730640694240574e-02,6.232905401111064891e-03,1.090223131883826966e-03,6.351313414469397095e-03,4.705814719200134277e-01
4.764849393263810295e-01,5.000146274799779356e-01,-3.355873821390470413e-02,1.085493557014324080e-03,-4.966674963747284149e-03,-3.145012749960327978e-04,5.222807526588439941e-01
2.577187556074364561e-01,7.203082043533119982e-01,-2.765019520463518621e-02,-6.676398968878738405e-02,-4.822131126885280394e-02,-2.260556736810166376e-02,6.703091263771057129e-01
4.887536786292099866e-01,4.892555288431943428e-01,8.580296683254828860e-02,5.901466014030558142e-03,4.315899537947170093e-03,2.588845454122585231e-03,4.034256041049957275e-01
4.589840907332304321e-01,5.024606516654691601e-01,-2.957000133105303075e-02,6.445311543469329878e-03,-1.273931275709744987e-02,5.435730740341251574e-03,5.123632550239562988e-01
4.619935218654723785e-01,4.971749711422798756e-01,-2.925765277870001624e-02,1.705247472983636428e-03,-4.383290147757369463e-03,7.457775470411434453e-03,5.099819302558898926e-01
4.417833939572730628e-01,4.960888081893353729e-01,-1.927983174527786447e-02,1.115038603087715151e-02,-1.094570514073934728e-02,9.398465891459631752e-03,4.914916157722473145e-01
5.687537575737439122e-01,5.261997242547091780e-01,1.044701349795140732e-02,2.524034284824093755e-01,4.239132455065170932e-03,4.287239662878409435e-02,6.974593400955200195e-01
3.953557583290444599e-01,5.019507276519842298e-01,-8.324683576913571859e-03,4.299918185990427716e-03,1.164723070895352193e-03,9.099274791856480638e-03,4.665389657020568848e-01
6.207334887947557611e-01,7.453149469274096273e-01,6.597887843225286320e-02,6.419028397766969596e-02,7.908973456758487675e-02,2.282439170309216031e-02,6.519777178764343262e-01
4.853461432748970017e-01,4.895075605640056837e-01,-2.547208607425321958e-02,8.846465831606325223e-04,-8.596016138665091288e-03,8.580378205365208830e-03,5.133451223373413086e-01
4.864683889273196393e-01,4.967608528623380648e-01,-1.816927687388131263e-02,9.239799505385263190e-05,-4.528554165835786682e-03,6.033288517511553942e-03,5.100292563438415527e-01
3.836380929552757890e-01,5.327256062676620774e-01,-1.268097491289027490e-02,3.661638680382867713e-03,2.020522052525080756e-02,-1.458292579270833262e-03,4.895441532135009766e-01
5.047804954495589413e-01,4.717432799973926283e-01,-2.618130103789523266e-02,-1.846541635913287460e-03,5.297105141641471858e-03,1.102302004036135111e-02,5.156833529472351074e-01
3.430811119669634479e-01,5.448311801064834592e-01,-1.264789074202077312e-03,-1.198968651599782199e-02,-1.375112770211829594e-03,1.324511928746948883e-02,4.792830348014831543e-01
5.683634247012852025e-01,2.752679710808560998e-01,-3.439837865331413225e-02,2.463606642151284359e-02,3.910903527864733990e-03,3.727985659075647162e-02,5.278219580650329590e-01
4.962715594726562207e-01,4.948998085125579927e-01,-1.344740660758869666e-02,9.602186131783809961e-03,5.816254277312757695e-03,6.444362887851597284e-03,5.095279812812805176e-01
5.049203289243395787e-01,4.742415333796067278e-01,-3.612511572521315273e-02,1.750438578717747329e-03,6.108999295763518217e-03,-5.004990934008208842e-04,5.264927744865417480e-01
4.947033920543852936e-01,4.822933172270075231e-01,3.474856315535440610e-02,7.933215662016230435e-03,-2.726921531911607847e-03,-4.541331126414169077e-03,4.541776776313781738e-01
4.984340210029067908e-01,4.831927208314122923e-01,-3.427446920882154524e-02,1.111107737594556246e-03,2.189136122248037594e-03,6.303318951741849856e-03,5.253843665122985840e-01
5.292242561311790716e-01,3.784791024735894016e-01,-2.214078284653131501e-02,-5.975417352073896307e-03,1.491307595161337277e-02,2.717608677071275611e-02,4.965901970863342285e-01
4.916399734928849075e-01,4.951524264161976108e-01,-1.407523710363367542e-02,-2.170370758518603421e-03,-4.479194626584073399e-03,2.963696469768477629e-03,5.075797438621520996e-01
4.902095763958375096e-01,4.764473042584193019e-01,-3.924155180165095347e-02,-8.644587793096518815e-04,-6.546536959799399182e-03,-3.587736885512020704e-03,5.228679180145263672e-01
5.352156014989127852e-01,3.617361354963747888e-01,-6.969067457774480445e-03,-2.729570487209793408e-04,5.671905749237344564e-03,-2.409829622712132344e-03,4.797036349773406982e-01
4.798583148802982867e-01,4.769387528658440845e-01,-3.917734713446840988e-02,-2.855834174166128913e-04,-4.680840847703962061e-03,-3.018974918651313663e-03,5.176721811294555664e-01
4.938444731855052283e-01,4.921298572891144030e-01,-1.548419603989181770e-02,3.081886154213842044e-02,7.344862114882508633e-03,1.544879170025605271e-02,5.121255517005920410e-01
4.124203759049835938e-01,6.205961252661351679e-01,-1.019614517235944429e-01,3.077268078317358935e-01,-3.917477051565329202e-03,-3.653612861472698391e-03,8.361704945564270020e-01
4.864364330905538436e-01,4.774102889533866634e-01,-4.098338184146549379e-02,-4.118234573302172251e-04,-2.788290230012158318e-03,-1.442869855602231044e-03,5.229939222335815430e-01
4.825349494388224136e-01,4.776311342431085460e-01,-4.121960180603673196e-02,-5.116228046601012337e-04,-1.437348784024835039e-03,-1.297161832083590632e-03,5.213314890861511230e-01
4.988831692380268912e-01,4.961582224732606905e-01,-1.262891602861615503e-02,1.165289984480178537e-02,4.829520872939780697e-03,5.361429880948655191e-03,5.107071399688720703e-01
4.652638155734635239e-01,4.961386944108350239e-01,-3.998841474762687698e-02,-3.529611015082470549e-02,3.279522025032247101e-02,2.758493380178542176e-02,5.301693081855773926e-01
4.866985782485927503e-01,4.745177264790586547e-01,-4.065314506179112941e-02,6.328355886801931014e-05,-3.119932601800095608e-03,-2.100211897545871116e-04,5.213961601257324219e-01
4.711918057978126684e-01,5.014449206143452020e-01,-3.235971962000799840e-02,-1.283504424748123807e-03,-6.020668134269688103e-03,-1.283714524314049244e-03,5.194535851478576660e-01
4.305733574630363769e-01,4.688344024663532728e-01,-1.952214828100079513e-02,-2.702019138194257722e-02,1.849754787422553878e-02,2.614278504316088977e-02,4.759601652622222900e-01
4.953274888919780850e-01,4.956848063156132356e-01,-1.286855323146696151e-02,9.563278324571860417e-03,5.750909717443830269e-03,5.505115964887438706e-03,5.088314414024353027e-01
5.301714864253319615e-01,3.389302876337628168e-01,-1.210178640728604149e-02,8.195006917931641627e-03,-2.893061295863933770e-03,3.009856487432096758e-02,4.794505834579467773e-01
3.954282682553144079e-01,5.556493045063068958e-01,-4.723724632264314494e-02,-2.620497720915567624e-02,7.007831203058970115e-02,5.587341963734813316e-02,5.645408630371093750e-01
5.038144769890871011e-01,4.691796611844187836e-01,-3.512295023387146387e-02,-1.593430080651920752e-03,-1.311075362338796641e-03,7.041205594668745486e-04,5.224953293800354004e-01
5.375435296536839047e-01,4.647124402268544285e-01,-2.247130228354643489e-02,-1.763309114267350847e-02,-1.020455305665080893e-05,-2.343613992721249942e-02,5.298254489898681641e-01
4.836570098487600888e-01,4.809092652536062773e-01,-3.764254194116439800e-02,-1.411588132911139421e-03,-8.327052553020283798e-03,-7.383038533203781228e-03,5.202940702438354492e-01
4.950866030675858953e-01,4.907021351835136880e-01,1.682964404061876307e-02,7.179254440126348058e-03,-6.967063957788462158e-03,-1.213076234797426378e-02,4.768581986427307129e-01
4.686321534517426390e-01,4.656708248138112793e-01,-1.454262254519800290e-02,-1.905780842993279713e-03,2.913253720371356947e-03,-4.926596894937499208e-03,4.818142354488372803e-01
5.313102554800855915e-01,3.811011159133069759e-01,-1.379850095620022143e-02,4.562953782669097735e-03,1.177156792443627246e-02,-1.249919322811237970e-03,4.881688952445983887e-01
5.409788916528646130e-01,5.017627753364437559e-01,1.230844861078574382e-01,-2.722312138962897348e-03,1.163646121445660771e-02,-3.498948422715233899e-03,4.003131687641143799e-01
2.980374825324859644e-01,6.004420851809526560e-01,-2.872055101528214749e-02,2.554929286003446848e-02,7.877882635719146709e-02,2.527340985015159511e-02,5.652657151222229004e-01
4.022175558869520717e-01,4.990326435449027320e-01,2.543320892409772771e-03,1.611168262998853226e-02,1.692984671012882003e-03,-3.124138300265603442e-03,4.567535221576690674e-01
4.949426309107678446e-01,4.758619707349983075e-01,-3.113525271243250403e-02,-2.870542724633228552e-06,4.413100301415479911e-03,2.094447858777117926e-04,5.168584585189819336e-01
4.675931827237193028e-01,4.549618778173939448e-01,-8.130579933726178599e-03,-4.938204086529426884e-02,-2.678311203997434456e-02,-3.051067358199074583e-02,4.824148714542388916e-01
4.979235948344279405e-01,3.718577894301933195e-01,-1.314343185217020649e-02,3.722490983181926671e-02,1.163785152953896590e-02,5.072896637890417053e-04,4.660667181015014648e-01
6.772465237434659446e-01,3.867655243053422232e-01,4.218256884263349438e-02,-8.307463248839251635e-02,-6.359492829521468105e-02,-8.754949400930042702e-02,5.992022156715393066e-01
4.998177092655778919e-01,4.206738591747886113e-01,-2.501331452532468136e-02,-5.230207897255968914e-03,-1.115571633131937079e-02,-2.044608161860089843e-03,4.905529022216796875e-01
5.524972003912220764e-01,4.527800762784717770e-01,5.556454078691708265e-02,-3.569994364350876498e-02,-2.525505737034705947e-02,-2.649306057566389386e-02,4.638700783252716064e-01
4.737233981662245519e-01,5.035524463493969982e-01,-1.723319463792311046e-02,5.508475678989905623e-04,3.575274126451379996e-03,1.011365451446598438e-05,5.065690279006958008e-01
4.630342789819339999e-01,4.907821134016229214e-01,-2.160208687424158835e-02,4.470476483290653294e-03,1.441406621546521827e-03,-7.459477340054272015e-03,4.993226230144500732e-01
5.596729871569754433e-01,2.853868624697517009e-01,6.461084343654055484e-03,-7.216605005608008050e-03,6.755979285412575149e-03,-1.393545581277871913e-03,4.794131219387054443e-01
5.576402849498904857e-01,2.577408504845937753e-01,-3.310363571845054143e-02,-2.398924040639887900e-01,2.388056614999502919e-02,-3.448678283291097685e-02,6.630823612213134766e-01
6.553043592482638013e-01,5.684846594649645146e-01,1.015818624607300880e-01,-3.949519120367371572e-02,-7.759227048984579378e-02,-1.544444820829511400e-01,6.003106236457824707e-01
5.072857338073761824e-01,4.484842592410096529e-01,-2.829096753101612016e-02,1.446062542166981144e-03,6.565615809184705692e-03,-7.625956943702307846e-03,5.090357065200805664e-01
7.814691960943456195e-01,4.860617646721307472e-01,3.552393158653133209e-02,1.376222452513429784e-01,1.885973649511019437e-02,-9.248982022615820364e-02,7.119634151458740234e-01
5.217684982114652037e-01,3.420976033277129402e-01,6.210587035257508770e-03,1.593197870336665878e-01,2.103116705600094338e-02,-2.019436725246889774e-02,5.330568552017211914e-01
4.911199532424090908e-01,4.748744303988996496e-01,-2.698131390310792854e-02,2.949626545549444492e-03,3.467819571615640695e-03,-2.896236907789234791e-03,5.102581381797790527e-01
4.988928739829893710e-01,4.966394469793504740e-01,-1.978766773283263669e-02,2.877381496725325838e-03,4.740587231701288463e-03,-8.493829902452935943e-05,5.176466703414916992e-01
4.827597104133589667e-01,4.941665744554156747e-01,-1.765104987901888745e-02,1.005096977892068130e-03,-8.264977784006047540e-04,-2.740804089337064552e-03,5.062378644943237305e-01
4.933549568581106493e-01,4.839601664705688311e-01,-2.865181453392723343e-02,-3.997563840799081493e-04,1.538842061418620741e-03,1.959509903218451378e-04,5.173807740211486816e-01
4.692600448393665635e-01,4.587258556363219553e-01,-1.430067154418940278e-02,8.886822171899982914e-03,5.237445850225392122e-03,-4.770182931989592687e-03,4.787854552268981934e-01
7.079110349368830102e-01,3.593602186130268605e-01,-7.924292718062275753e-02,2.391658943773069812e-01,9.301442493642873149e-03,-1.237909653055902122e-02,7.994098663330078125e-01
4.790238447229805407e-01,5.037372820429656395e-01,-3.444893739157955936e-02,7.442711839812499565e-04,-1.864861390504716663e-03,2.631264949589505030e-03,5.262961387634277344e-01
4.987540759456008943e-01,4.831769004525462430e-01,-2.854214057473108967e-02,7.924880798184641677e-04,6.354196144842802138e-04,7.826058335822959821e-04,5.196874737739562988e-01
3.768482461987019416e-01,5.220079893762550327e-01,-9.460755140489940374e-03,-8.458895509999628595e-03,-1.740431568167756515e-03,-8.011449574008061916e-03,4.762339890003204346e-01
4.716707674933532934e-01,4.091316121714431153e-01,-1.575774015179942644e-02,6.607853625449669477e-02,2.199880037122232262e-02,-2.284265540531055239e-02,4.765822589397430420e-01
4.541155721613301388e-01,4.790245082431127122e-01,-2.054402095973084652e-02,5.076124845219323785e-03,-8.264907631538458187e-04,-8.376838866906984732e-03,4.878886342048645020e-01
7.664938991116807543e-01,2.500062344151720573e-01,-3.091625766674510611e-02,-4.613812970792487145e-02,-7.777951092383766397e-03,-6.983575210815014256e-02,7.155199050903320312e-01
4.828532277159754971e-01,3.829561300875476970e-01,-3.293193929604865122e-03,-1.679650996538789229e-02,1.166897550622665418e-02,9.815987826660792746e-04,4.461064040660858154e-01
4.588880394056509826e-01,4.681190185078011323e-01,-6.706708077833745119e-03,8.724599918133643314e-03,-4.795998747442444844e-03,7.466689218165793902e-03,4.707719087600708008e-01
5.449173977559824689e-01,3.291803474786568762e-01,-6.563652611549342097e-03,-4.272549668179266742e-03,1.906394657658894848e-03,-2.530946355078721177e-02,4.834111034870147705e-01
4.975018581452448352e-01,4.800261592440651093e-01,-2.834697490624432659e-02,-3.909570801586115642e-04,-6.399716724784193338e-04,9.774890502089207938e-04,5.173367857933044434e-01
7.824299338566802486e-01,2.323061621751084105e-01,-3.858907624025875727e-02,-5.939067717516664097e-02,-2.139613042232939299e-02,-3.568101104709640176e-02,7.354052066802978516e-01
4.755332992678171777e-01,4.963567898502312947e-01,-3.841921047705704195e-02,1.446979634502004036e-03,2.565867535190788384e-04,-1.722179809703452405e-03,5.246888995170593262e-01
4.393250911180520690e-01,3.710662516866805039e-01,-5.189629598005396360e-03,-1.290454349273523482e-01,-3.362677750181611303e-02,-1.315271602779692107e-02,4.751631021499633789e-01
5.584652808430483617e-01,3.154695211542830613e-01,-7.470075990942681710e-03,-7.251755334294214539e-02,8.423972443241646568e-03,1.880000297434909762e-02,5.087823271751403809e-01
8.203979800514800136e-01,1.489551031926103219e-01,-1.281406721269323090e-01,4.185960975974742371e-02,2.246906976887449309e-02,-6.737441627381767460e-03,8.488692641258239746e-01
4.939178900197787048e-01,5.214752313521048288e-01,-3.096823106203799858e-02,-3.999464035212711710e-02,3.006483409361484366e-02,3.471058527249409886e-02,5.494126081466674805e-01
4.922281522996998504e-01,4.941669028256255869e-01,2.323322398819610557e-02,9.381393123279435295e-03,-6.343144319750007067e-03,6.513134382189600564e-03,4.705117046833038330e-01
4.847050010781184248e-01,5.000015588654331822e-01,-3.140601401456827313e-02,8.212728263151233745e-04,3.365902791862262003e-03,2.439813424081569652e-03,5.239781737327575684e-01
4.919943002752451000e-01,4.974520487914808609e-01,-6.146630594413560189e-03,5.083443027949086611e-03,-4.916115858086328103e-03,-4.961460343592881579e-03,5.011155605316162109e-01
3.988777997459074798e-01,4.521832077623998414e-01,5.951467155830281186e-04,-1.647101024830102331e-02,5.013823833704715224e-03,9.906072413496854953e-03,4.288179576396942139e-01
5.677042094329576294e-01,2.865113935347077811e-01,-1.128670744149662397e-02,-2.622640411941509764e-02,-2.616644550076139587e-03,-1.610374531866173159e-02,5.043349862098693848e-01
5.409166737942667780e-01,2.300309465488122318e-01,-9.120828202935382656e-02,-1.520671645176580045e-01,2.917522087866412234e-02,3.563907783532628548e-02,6.127402186393737793e-01
3.002370659521936269e-01,7.325457603058154188e-01,-5.383354436620435557e-02,-1.077634416786417554e-01,7.137712544411682625e-02,6.150934061453511986e-02,7.258083820343017578e-01
5.702512374412374019e-01,2.018176048980027670e-01,-1.324453778785630309e-01,-1.606320562249279327e-01,1.345959572043184047e-02,-2.297112201679170698e-02,6.709420680999755859e-01
4.925811641012861064e-01,4.924600513888747200e-01,-8.560041683910224464e-03,5.581109614240319095e-03,-7.594608473179038574e-03,-7.782456923769631198e-03,5.015276670455932617e-01
4.359757040670988459e-01,4.409770111236995249e-01,-1.407465780776495645e-03,-1.470403218570837112e-02,-9.953653441700752169e-03,-8.328480874593700498e-03,4.412147700786590576e-01
4.989223736580665758e-01,4.980457854088432557e-01,-2.140015771475156647e-02,7.883569961550885782e-03,3.178017102773616435e-03,9.696363950005625759e-03,5.203642845153808594e-01
5.528704814808164114e-01,3.144862526559837890e-01,3.313240272800166419e-03,-2.268619339585119070e-03,9.674232281791414478e-03,1.008849738361941584e-02,4.779497683048248291e-01
4.947564380697541120e-01,4.965509866101039949e-01,6.213261336272091206e-03,2.682217131457813146e-03,-6.885574134090167130e-03,-1.951708451538164196e-03,4.896219074726104736e-01
5.759782648057087950e-01,2.497604826416502943e-01,-1.138975788412775469e-01,-2.194995561879823642e-01,1.117272108288466965e-02,1.165078699388595249e-02,7.089561820030212402e-01
6.622864094857585648e-01,7.623813827905709384e-02,-4.174119460722697239e-02,4.423644456851468995e-03,1.577273826462845946e-02,-2.263263189594837133e-02,6.548702716827392578e-01
3.632469116651999563e-01,5.269742777296397840e-01,-4.578457723792284106e-03,-2.016071498402374415e-02,6.767691070078432310e-05,1.345915558673719571e-02,4.733794033527374268e-01
4.286067557489718904e-01,4.980213842561809767e-01,-6.438187418284369024e-02,-2.069478225172868835e-01,5.044018658575909198e-02,5.390044125166379430e-02,6.533815264701843262e-01
4.907592951357039879e-01,4.953189807170162995e-01,-2.773341347958824255e-02,4.804150123257251308e-05,-1.742386105022930088e-03,-7.428584746055622023e-04,5.207978487014770508e-01
4.310520078204783667e-01,4.394658546483343198e-01,4.984852070554490755e-03,-4.297563173173455514e-03,-3.311322413274043358e-04,1.422683128404541718e-04,4.304006099700927734e-01
4.606324933652800602e-01,4.823404095579196804e-01,-2.001352981767912098e-02,-1.722296987094749693e-04,8.454662444418087938e-05,-9.303011832807602313e-03,4.921233654022216797e-01
4.973698930071477342e-01,4.997414943366254025e-01,9.787294199518853377e-02,1.129403975808294935e-02,-2.121138616802404567e-03,-3.845028328861315250e-03,4.012373387813568115e-01
4.548017260848411514e-01,4.760419873386770862e-01,-1.924773807373736378e-02,-1.970202836263848858e-03,2.130462496523033260e-03,7.808997144846903382e-03,4.852331280708312988e-01
3.091828286329793563e-01,5.459844987095372471e-01,-3.729803906892814602e-03,-6.161778918849328789e-03,1.162111258878592216e-04,8.876941272627489332e-03,4.779517948627471924e-01
4.935535977028612242e-01,4.891355596618445212e-01,-3.182188225012461125e-02,-7.802801778965184291e-04,-4.330691226999336223e-03,3.160583578643173103e-03,5.232645869255065918e-01
4.803072315382590496e-01,4.694881985015847969e-01,-2.105135361070603617e-02,1.207442554801665307e-03,4.887060614238018449e-03,-6.771668623751347232e-04,4.961155652999877930e-01
4.825267791829103148e-01,4.822605134593662135e-01,-4.292348770845244577e-02,9.556414696177098662e-04,2.165606167030231701e-03,4.157439480092162880e-05,5.253331661224365234e-01
4.903113834160955919e-01,4.937593107805531290e-01,-2.796207012233792311e-02,-1.646409607026555260e-03,-1.984849547366308864e-03,-1.881579711677326639e-03,5.200353860855102539e-01
4.851524338504148437e-01,4.962395123217732684e-01,9.038980142702457421e-02,2.107316863822957312e-03,-6.916943209600765613e-03,8.115244695437498143e-03,4.008636176586151123e-01
4.856188548858129117e-01,4.981015708312827028e-01,-2.786666046522984219e-02,1.370187822060989951e-03,-4.757559320366019050e-03,7.404886542287594667e-04,5.199115872383117676e-01
4.847183874041969265e-01,4.875938520573506740e-01,6.192393057152484337e-02,2.337403554248490469e-03,-6.793935301114104215e-03,-9.201422747771454899e-03,4.247210919857025146e-01
4.802539543863639793e-01,4.830531187789740555e-01,-2.456982046267375264e-02,7.629871496677040517e-03,-6.468993658178483208e-03,3.978360293152657760e-03,5.065724253654479980e-01
4.576022865059269362e-01,6.501923615899989350e-01,7.954759747119366509e-02,-1.198258581602184430e-01,-1.141903073469897612e-01,-9.267561491502322724e-02,6.006539463996887207e-01
4.813149066196060200e-01,4.808072148002074941e-01,-4.219928717539567220e-02,-2.212250695509039870e-04,-1.934924819038283785e-03,-1.957416391125629297e-03,5.232824087142944336e-01
2.456472997809530379e-01,6.244792866739553583e-01,-2.171656077203432123e-02,-3.106827858076205082e-02,-4.133619964067359459e-02,-8.980121936567087319e-04,5.694798231124877930e-01
4.949285305871566898e-01,5.553408702741307046e-01,-3.585716479617029329e-03,6.039594809148587234e-02,2.372687049001928269e-02,-2.247486783755088535e-02,5.444536805152893066e-01
4.922611796473780332e-01,4.866299508458893919e-01,-2.177740500079206054e-02,3.513971974019384093e-03,-5.562052784553924052e-03,1.195865609657919583e-03,5.113773941993713379e-01
4.991082350146635038e-01,4.984635933667757035e-01,5.330625147542483733e-02,9.455518470181535629e-03,-1.800130411975678010e-02,-1.844478115362789506e-03,4.468814134597778320e-01
4.357433845440400466e-01,4.050467963124468884e-01,-4.445036208895508656e-02,2.340350762189232214e-01,6.832517005415208837e-03,2.519909791046115108e-02,6.189913749694824219e-01
3.053117568613320509e-01,6.762860270017314601e-01,-7.812495819464304603e-02,2.210098053095362058e-01,3.390057002551209037e-02,4.084292762555624678e-02,7.628099322319030762e-01
4.892173838541022945e-01,4.936346717584743082e-01,-3.130501260624635185e-02,-2.142841537310609130e-03,3.480049263511794232e-04,-8.358849375279564812e-04,5.227605700492858887e-01
4.681962850828649270e-01,4.591742314175976669e-01,-1.336518419788818024e-02,1.039203278513224638e-02,4.659213981423469993e-03,-6.669188361849642636e-03,4.776617288589477539e-01
3.266967477697685918e-01,5.662470380328405994e-01,5.132999572958218959e-02,-5.805726806710757859e-02,-9.789457808111581838e-02,-5.469343082056864896e-02,4.970024824142456055e-01
3.500975795365149912e-01,5.308543752094898593e-01,-1.258267611206814740e-02,3.036866737765113369e-03,-2.326172969025824475e-02,4.694022394765446846e-03,4.811278283596038818e-01
4.155669662245607965e-01,5.811206998798421619e-01,-2.114221511577912826e-02,7.497900088814878072e-02,-3.784706381879299197e-02,2.968725998428705173e-02,5.605609416961669922e-01
4.943412305639305337e-01,4.791825501085411609e-01,6.272402923746589476e-03,-1.584392641030192474e-03,-4.459795861235100719e-04,2.251238202838935776e-03,4.806930720806121826e-01
2.383977310119951010e-01,7.942002798957307208e-01,-3.284803283124893003e-02,1.334595121407230744e-01,-2.536179729581950967e-02,5.496306021397522924e-03,7.672707438468933105e-01
4.665361801810308795e-01,5.059307278332523250e-01,-3.257016305483667606e-02,3.526745085904634935e-03,1.830662730939478693e-03,2.124152244007955145e-03,5.199827551841735840e-01
6.171262619250958981e-01,3.717342207418864453e-01,-9.070135441783749863e-02,2.698145173200377500e-01,5.021469087428167763e-03,1.286938221015239588e-02,7.787901163101196289e-01
6.325949954605873948e-01,4.909062318255738022e-01,-3.248604476638672356e-02,2.451440572539015927e-01,4.506945665935937345e-02,-3.578599163675698358e-02,7.472593188285827637e-01
4.968449314124339100e-01,4.767210945831010238e-01,-2.896437390827522051e-02,-2.144128997069766514e-03,-6.303359626266449856e-03,-1.295126967358898804e-02,5.166578292846679688e-01
4.890465919920007343e-01,4.913253480119108563e-01,3.793729209922547252e-03,3.228713577595398402e-03,2.954980540415769706e-03,3.329855875277135113e-03,4.864895045757293701e-01
5.023669416633190776e-01,4.676494819176592599e-01,-3.309976392475322271e-02,1.107350354758378274e-03,1.635449637379681126e-03,1.352239263566503563e-03,5.189961791038513184e-01
4.935787810494941530e-01,4.860304825652622673e-01,2.876304777525151568e-03,-5.319133515709884076e-06,5.055058754537962787e-03,5.158227753139541655e-03,4.871328473091125488e-01
2.691923180504463553e-01,7.310081195229429785e-01,-1.133351641972961676e-01,2.525409581244745238e-01,4.401675065575842705e-02,1.508052263493720423e-02,8.567869067192077637e-01
4.895747187611244611e-01,4.370355849512130852e-01,-2.073245383486349569e-02,6.851513552971171504e-03,1.237627597553697840e-02,-1.099614425000867285e-02,4.871609210968017578e-01
4.707590332895305041e-01,4.820021536900710446e-01,-2.615977943425890073e-02,3.127205468863408690e-03,-2.396454352894524485e-03,3.813172390600552426e-03,5.027244091033935547e-01
5.444042738743706256e-01,3.222664656857915921e-01,-1.251423053563205379e-02,5.654348536594241970e-02,5.558826087452096998e-03,-1.136651226391684893e-02,4.958452880382537842e-01
4.706931969709699515e-01,4.755993449554601349e-01,-1.170467455161006143e-02,1.131097780522965224e-01,-8.806048670786310525e-03,2.608168713318630844e-02,5.251222252845764160e-01
6.289753854190780480e-01,1.322508392542016686e-01,-1.929725516887742520e-02,4.949791101147136413e-02,1.631679861066412038e-02,-4.978549026550376996e-03,5.943087935447692871e-01
4.844440958431651678e-01,4.934310526832716981e-01,-2.096502616036166611e-02,-2.106286289940331583e-04,2.238454864627343211e-03,-3.440659443534914083e-04,5.099772214889526367e-01
4.228222806945744483e-01,5.339758732745072400e-01,-2.246783901746557399e-02,3.082450267581497705e-02,-2.180302544373475052e-02,1.405398277068611868e-02,5.147845149040222168e-01
4.858422061318230512e-01,4.888239380031236259e-01,7.494946709786037831e-02,7.796199839678732762e-04,-5.958842535678010631e-04,4.247138064397800589e-03,4.124608039855957031e-01
4.947052398398904538e-01,4.851105845207678846e-01,-1.129855479711000532e-02,1.714377798271474098e-03,-3.385141387104865021e-03,-3.577452575330055794e-04,5.013188123703002930e-01
4.942118385485663179e-01,4.996840459443390170e-01,-1.796500103547038485e-02,1.301124651979632682e-03,-4.743444151999666632e-04,3.887383103061862327e-03,5.149843692779541016e-01
4.977792237283221732e-01,4.695904935453076856e-01,-2.272203094863245454e-02,1.507292645112405472e-03,3.544418537101572987e-03,-4.770991864877393261e-03,5.071061849594116211e-01
5.184969764757012545e-01,4.477989653525482616e-01,-3.710222913032829029e-02,-2.912541530730433821e-03,-3.622706254499221453e-03,-1.299671736513060769e-02,5.243858098983764648e-01
7.005387587724678511e-01,5.542816973738067254e-01,3.753709897655937988e-02,1.834768800384406484e-01,-2.915928161506892158e-02,5.882213052219945754e-02,6.913145780563354492e-01
4.893522216698297234e-01,4.641344313201519745e-01,-3.265432237793353121e-02,-4.677472380740372616e-03,-1.118029978318927503e-02,-8.762958390665267008e-03,5.105232000350952148e-01
3.999171912766267822e-01,5.417324995985283165e-01,-2.578891065517108228e-02,-2.876885686858185465e-02,-5.136267237946434694e-02,5.056918252201918727e-03,5.217115283012390137e-01
4.899742362696118958e-01,5.079984552573750811e-01,-3.809411825197839274e-03,5.972530925042642512e-03,-2.141362436560688594e-03,1.180871382914049951e-02,5.035735368728637695e-01
5.314680132467460849e-01,3.530611930389541686e-01,-3.761843142772725024e-03,-6.625446423398412797e-03,1.097796683073867449e-02,3.394048601776542213e-04,4.725514948368072510e-01
5.038184916138872538e-01,4.045517248785193698e-01,-1.241342039678611231e-02,-1.006790706542029651e-01,-4.970636025507745720e-02,-4.193885061314539531e-02,5.178824067115783691e-01
5.020535576962450452e-01,4.886131513301703033e-01,-3.010213726684857205e-02,1.755382305242866349e-03,-7.312698796914050663e-03,-1.165766502836506529e-03,5.257296562194824219e-01
5.222493341924516752e-01,5.628268374990563760e-01,-4.281816346043687549e-03,-1.225617187545705866e-01,5.513614948792365522e-02,8.172280226068112663e-02,6.119369864463806152e-01
5.082074153559646978e-01,4.486757628546906851e-01,-3.486180867960664287e-02,-4.378449905426230922e-03,-8.952976794136332725e-03,-1.167630812920738767e-02,5.165708065032958984e-01
4.913414885964058065e-01,4.796435851987679300e-01,-3.244129224552338986e-02,1.902403612182268467e-04,-1.321047515715575169e-03,-4.905982800326301897e-04,5.180387496948242188e-01
4.118633793207299165e-01,5.235787791739012764e-01,-1.425787456196209169e-02,-7.055528573773278223e-06,4.288949630786340061e-02,8.323043309221241082e-03,4.973834455013275146e-01
7.098206033988938568e-01,6.458741238357041947e-01,5.278242250128839519e-02,9.040875640876663843e-02,-1.187640248943011220e-02,5.376324247955690389e-02,6.537498831748962402e-01
5.177494458559450674e-01,4.562204299418027853e-01,-1.923007648569846628e-02,-7.212911880352793070e-03,1.343328341737738555e-03,-2.714210599621680320e-03,5.091921091079711914e-01
4.935391088788035896e-01,4.870687380865544869e-01,3.076964360951323085e-02,-1.246720478349590613e-03,2.781305588973841895e-03,-6.849413338452263987e-03,4.597518444061279297e-01
4.764524223243039036e-01,3.901555633171124304e-01,6.468214938234073674e-03,-1.201361064929116519e-02,-7.769047854444688893e-03,-1.320254094874373854e-03,4.340431094169616699e-01
4.951384679147728951e-01,4.935500048162842490e-01,6.479230364221350014e-02,8.159898297912303398e-04,6.735389859299807137e-03,4.826305924091300360e-03,4.297961592674255371e-01
4.756765972784743890e-01,4.733242311730638807e-01,-3.937375516770869055e-02,-9.074865750326909430e-04,-3.796237759815758971e-03,-3.041043075411624212e-03,5.139496922492980957e-01
4.868104477740572422e-01,4.694829817889458745e-01,-3.975680273506110307e-02,-2.239614529312426369e-03,-5.232223536286200599e-03,-2.316915664658907026e-03,5.182301998138427734e-01
4.813565946680634644e-01,5.299723697633224040e-01,9.523531201355017739e-03,3.417775200126199533e-03,-4.538500662960064450e-03,-1.000986027019395118e-02,4.983230829238891602e-01
5.027218699451199146e-01,5.021821527033226706e-01,2.892387314189820424e-02,1.439260302242707616e-02,2.084340355993205465e-03,1.386444361387874618e-03,4.742039144039154053e-01
5.156536423888122833e-01,4.510218932364347122e-01,1.825986190538203546e-02,-2.252160626891147946e-02,-2.133632230397900301e-02,-1.394184555101768072e-02,4.721238315105438232e-01
4.965865160487694663e-01,4.945835723343081636e-01,7.755278678197297104e-02,6.060606253176494158e-03,-1.248296483710420110e-02,8.416383235619424516e-03,4.189798831939697266e-01
4.895048331511455131e-01,4.697621874280782928e-01,-3.830429558656994748e-02,-1.067293377012048291e-03,-4.866636286438536657e-03,-3.834744870882078431e-03,5.183343291282653809e-01
4.063739053200952633e-01,5.208431704365177328e-01,-9.327260060254027874e-03,-2.014912052386731989e-01,7.028772986317223526e-02,9.223573419474233315e-02,6.289953589439392090e-01
5.506153853071238391e-01,4.831404788965221186e-01,6.787581420636940033e-02,2.278694491379879700e-02,3.421965401364909093e-02,-6.387580169235537730e-02,4.715173244476318359e-01
5.069404510714792256e-01,7.188502772997460433e-01,5.655690996505785550e-02,9.326115487812657034e-02,6.137800257776729329e-02,-1.522723951607759391e-02,6.174804568290710449e-01
5.134389833430870187e-01,4.757732444764372071e-01,-3.434233679135656470e-02,-1.484398005471681756e-02,7.662717165319438140e-03,7.636507972241655083e-03,5.309073328971862793e-01
5.461816517773956381e-01,5.892852357034302768e-01,-2.363082141103700629e-02,1.980649628902344250e-01,6.276729021459294400e-02,-2.583690726361671103e-02,6.947057843208312988e-01
4.933821739503698733e-01,4.965870959886676261e-01,-3.148359711761061774e-02,2.467462737141138188e-03,1.753414412454683702e-03,-2.895758979445487726e-04,5.265018939971923828e-01
4.999946161672934597e-01,4.885984307544993799e-01,2.073932365111502696e-02,5.629928741165910085e-03,7.210618465314378410e-03,3.454499473606989328e-03,4.739627540111541748e-01
3.994978363078331429e-01,5.322658200966641218e-01,-1.667007270281412046e-02,1.344305812020481390e-02,2.555241923751256500e-02,-4.178015715218707377e-03,4.986282587051391602e-01
4.552217046727845551e-01,4.565015063180842270e-01,-4.473754329318846423e-03,1.391492283626311055e-02,-3.949655732114086201e-03,6.811945487792978558e-03,4.611688852310180664e-01
1.098122101328448535e-01,6.227372113037525914e-01,-3.971223833687761995e-02,5.735307458421719934e-02,4.683352813912112361e-02,2.191774654234234648e-02,6.164688467979431152e-01
5.656241968837201206e-01,6.402709631072736052e-01,-2.003676909089779912e-02,1.846478886965960686e-01,6.747355852892568395e-02,-1.763903972905310827e-02,7.135577201843261719e-01
4.913662722393218329e-01,4.790549579629447829e-01,-3.821003081211610253e-02,1.694967284237314156e-03,-3.900231235143770004e-03,-3.315128426851851693e-03,5.236124992370605469e-01
3.139523664878542952e-01,5.559532774869133664e-01,-2.052825509494610179e-02,1.322365236774008558e-02,1.781292853272831850e-02,4.395317109993213470e-03,5.029123425483703613e-01
5.136309536832425193e-01,4.703452460005125291e-01,2.223988848475166868e-02,1.339670001302283586e-01,7.709309862885591448e-04,9.245865962987943540e-03,5.255172252655029297e-01
4.964241445684540732e-01,4.945873962955311676e-01,6.300509025474854141e-03,3.439000568200962626e-03,-7.340738154727726589e-03,-2.433250104257573144e-03,4.894274473190307617e-01
4.916727881930707533e-01,7.061585189588304168e-01,1.444485698896463832e-02,1.255796380313018157e-01,1.327018097844905320e-01,1.023789098320989667e-02,6.903359293937683105e-01
4.942508761577053544e-01,4.685534327407933075e-01,-3.832696086778752953e-02,-2.273544590092565695e-03,-4.794517869892799163e-03,-4.332664186519434406e-03,5.203406810760498047e-01
4.816707441214179708e-01,4.483957539379124779e-01,-1.707730294712073160e-02,8.286438792924002636e-03,-9.443686080767565993e-03,1.110429457762833645e-02,4.838434159755706787e-01
4.901987761272704747e-01,4.942576589957792255e-01,-6.474554817768929382e-03,-2.801414448857857467e-03,-7.587842374182361335e-03,8.084552065868146281e-04,4.989138543605804443e-01
4.676300502016791372e-01,4.818524036597620075e-01,-1.995719189160177764e-02,3.011590897001450735e-03,-9.434981772980293108e-04,1.211252985235130415e-04,4.948819577693939209e-01
7.129167905778357461e-01,3.026583299876507427e-01,-1.226141341959645081e-01,2.414749359146799723e-01,2.643891862095702761e-02,4.600612037087856848e-02,8.408433198928833008e-01
7.057629783055162642e-01,3.165851747764457658e-01,-4.342053941415580098e-02,2.273905580230514700e-01,5.333925552908466185e-03,-8.393732735993279445e-03,7.593324780464172363e-01
3.246590487996222074e-01,5.071369772154349365e-01,2.575961517049296656e-02,1.895512958421201044e-01,-3.460783900250346407e-02,3.730982968039135705e-02,5.410544276237487793e-01
3.877188077670992161e-01,5.296067368058561264e-01,-1.783410546366231975e-02,1.116571566072581227e-02,2.249015459141512612e-03,4.026381061970877966e-03,4.925304353237152100e-01
5.918600873180143163e-01,3.333552701286999764e-01,2.280625139570707782e-02,1.410673207846287469e-01,5.260688955131175015e-02,-2.364240759121787050e-02,5.596634149551391602e-01
4.625304494528266197e-01,4.432749973305029623e-01,-1.383326861199896118e-02,-4.000420579665964725e-03,-9.558546773597836194e-03,-4.517221845906061427e-03,4.674440026283264160e-01
4.202929462845882425e-01,4.749514698860153872e-01,-1.000489554114158963e-02,-7.509260082286335104e-03,-1.810395399552940229e-03,-1.457147781112400411e-02,4.609546661376953125e-01
4.919296941911101007e-01,4.441193246500164671e-01,-1.668674745545800642e-02,5.748603095148217997e-03,-1.123674291782308932e-02,1.056880152504506044e-02,4.873113930225372314e-01
5.315585053780984559e-01,5.083817040966381873e-01,5.698248325183996599e-02,-7.773423473414869944e-02,-9.485908169630863362e-02,-6.085798734606447102e-02,5.205708742141723633e-01
4.716034512216680241e-01,5.004997032497404685e-01,4.532672903665069253e-02,3.789047272112576210e-03,1.577976920821654418e-03,1.052289177308798895e-02,4.418680369853973389e-01
3.130204709400670748e-01,5.943047281336788501e-01,1.559740041848572956e-02,-7.342552240863059118e-03,-5.837229643736132484e-02,1.082905172347796777e-02,5.118371248245239258e-01
4.679203162182334896e-01,4.708056162159214852e-01,-2.086357478007644373e-02,1.297437490668152402e-03,-8.996759354074033987e-04,5.584333995342362703e-03,4.903359413146972656e-01
4.796836110434073985e-01,4.879937051687804894e-01,-2.953836112899210775e-02,-2.343520679115715301e-04,-3.807537770849150297e-04,3.317221562961192392e-03,5.134602189064025879e-01
4.089524836267658947e-01,5.973967825090675809e-01,3.790861383410609742e-02,3.881099028432454662e-02,-8.792790122253962837e-02,-3.630137369382949869e-02,5.241870880126953125e-01
8.156253271692570639e-01,1.534771800121328966e-01,-1.150362318792702010e-01,3.438697026998635640e-03,3.722027641681326798e-02,1.137422275842448621e-02,8.324151039123535156e-01
8.126241876011328635e-01,1.908882330444533482e-01,-1.290321402370368520e-01,1.247347922629333528e-01,3.598600373618034837e-02,5.637955244443711850e-02,8.648166656494140625e-01
4.677158780129051507e-01,5.622489152574405846e-01,8.119465352256144408e-02,1.776253888303189893e-02,-6.231524987869346138e-02,-3.293458874938033631e-02,4.590471982955932617e-01
5.581584212233520192e-01,3.008831364986053192e-01,-7.114712974973236292e-04,4.953075200561287555e-04,5.385016550744684515e-03,-4.264655713976899637e-04,4.845936298370361328e-01
5.582729492541507188e-01,2.680212878091358109e-01,-2.104972670497617937e-02,-4.763085290043152231e-02,-2.279067633776197740e-02,-4.544392240239008424e-02,5.160147547721862793e-01
7.182801118023043330e-01,1.912109153563879838e-01,-1.249823402434982467e-01,-1.514149970299900894e-01,-2.019206642195434370e-03,-4.288320139896953376e-03,7.831237316131591797e-01
4.900796346843903084e-01,4.890318824468563585e-01,-3.200885934399011479e-02,1.043955305949962253e-03,-4.350928437211347422e-03,3.073954321421214133e-03,5.216501355171203613e-01
4.698456450086969660e-01,5.373627148174798807e-01,-1.370878324383667524e-02,1.388621863468596576e-02,-3.033646576786105942e-02,2.181785369219017487e-02,5.251657366752624512e-01
5.141280121111868606e-01,4.805077504888414786e-01,-3.918950561262396493e-02,2.784333490583264931e-03,5.384192912531798273e-04,9.165978850180720935e-03,5.375537872314453125e-01
5.597643748119587315e-01,3.317528511806555613e-01,-2.610751576401304508e-02,7.283735975125617268e-02,2.734459706336378124e-03,4.094374749885421050e-02,5.316173434257507324e-01
5.462484114384709155e-01,3.168313396866169196e-01,3.708866969401869440e-03,-4.355825424831834443e-03,5.428100358107799429e-03,-1.374703155781493568e-04,4.718674421310424805e-01
3.630177136574717633e-01,5.626722019696661636e-01,-2.238155377638295640e-02,2.117462821366985354e-02,-1.172219731117951982e-02,5.838498402095024936e-03,5.169146656990051270e-01
3.045642952894188626e-01,5.430855312491066345e-01,-1.880289756655395550e-02,-3.812802606457831034e-02,-1.835643250414447161e-02,-1.451854929504120192e-03,4.939302504062652588e-01
4.963024245285369007e-01,4.945163333608807998e-01,8.165334632646015223e-03,2.851106570552100743e-03,5.196463389161650077e-04,-6.507160705341961601e-03,4.874026775360107422e-01
3.877099069004133480e-01,5.319411881686918475e-01,-1.773180413156411062e-02,-2.521311312902283115e-03,2.238242288866349773e-03,6.824482803652630325e-03,4.937983751296997070e-01
7.638045142704095181e-01,2.462728315987621763e-01,-1.184834918657099445e-01,1.610751095367464192e-01,3.954096532590209434e-02,1.540581791619084415e-02,8.203031420707702637e-01
5.390629499345566122e-01,2.228075592624625401e-01,-1.336758324530530617e-01,-1.982354283115782545e-01,-4.114718263379769925e-02,9.012924624218054265e-04,6.803023219108581543e-01
5.493244816609073045e-01,2.809558672058359852e-01,-2.970869479861310003e-02,1.434357506055394249e-01,4.453093021706553203e-03,9.095313960452962657e-03,5.602998137474060059e-01
4.067263190363213377e-01,5.187886872909230895e-01,-2.239431190519575177e-02,-1.236433531610150321e-02,9.392715972938503249e-04,8.890760751352847283e-03,4.954686462879180908e-01
4.922566003594009421e-01,4.983221139174957570e-01,-9.723460535125294513e-03,-5.011025630703847119e-04,-2.004646710127856377e-03,2.625972789550966996e-03,5.050733089447021484e-01
3.087890789753359733e-01,5.574167216695733451e-01,-3.466375280007094606e-03,-1.317270106414747920e-02,1.294491626774281999e-02,8.234606693402698324e-03,4.880381226539611816e-01
4.118050804491367178e-01,5.215696953527950708e-01,-1.417768072837682913e-02,2.012079576185121788e-02,2.037886837382476071e-02,-4.482898462612393622e-03,4.927353560924530029e-01
4.806191593436047182e-01,4.880078381661567821e-01,-2.666259839737550319e-02,6.575400864325932565e-04,-4.826825692235303666e-03,5.179417474107102931e-03,5.111645460128784180e-01
3.640057670873079743e-01,5.912332338133591270e-01,2.442962903211554071e-03,-2.515314479449766785e-02,3.993510194787535522e-02,4.811383920614092577e-03,5.208348035812377930e-01
5.204621240131005466e-01,4.353302027550123299e-01,-2.146040349543337777e-02,2.401759723341768613e-02,6.620089965079827693e-03,-1.266673383175753037e-02,5.070856809616088867e-01
4.840621023299446213e-01,4.966266283529808812e-01,-3.244231197444547021e-02,-7.350376915564629365e-04,-1.345864602717857395e-03,1.284881590041070777e-03,5.229113698005676270e-01
4.654303719472150380e-01,4.817409880667409272e-01,-3.508046486418281429e-02,-2.695172530110080417e-03,3.060209042805133502e-03,1.443177240568407731e-02,5.095247626304626465e-01
4.448635877838629238e-01,4.552152699930840929e-01,1.651006498797069622e-03,9.697262201324529859e-03,2.788754403524095545e-05,1.597313159459707969e-03,4.488009810447692871e-01
4.761336082325459129e-01,4.984343558342335667e-01,-2.961546789458024964e-02,1.752300511701941545e-04,-2.677989959877067564e-03,2.471930954356404888e-03,5.172986984252929688e-01
4.146028316491608412e-01,5.188503161697111121e-01,-2.363666710469775056e-02,3.179592128884662673e-03,-1.347727290879615139e-02,9.513328518482281129e-03,4.994532167911529541e-01
4.918948347223563444e-01,4.631373957699048138e-01,-3.410928280943031909e-02,-5.370056650359258422e-03,-8.537628142051990193e-03,-8.100401344592157021e-03,5.127210021018981934e-01
4.978514824938459205e-01,4.912275269457841986e-01,-3.751725097629055039e-03,-5.203719890965272793e-04,-4.695733040668799603e-03,-7.419131177854306619e-03,4.985570609569549561e-01
4.925927933348072107e-01,5.003388653708769063e-01,-4.059264740104429059e-03,8.846861379081682629e-04,-1.641759323155140247e-03,3.699168310721621684e-03,5.006214976310729980e-01
4.928743489060941618e-01,4.772078656563093491e-01,-3.942063650296945276e-02,-3.571684493483250349e-04,-2.444438507000258349e-03,-1.221672341948103115e-03,5.246589183807373047e-01
3.993777981276859235e-01,5.318241182897236463e-01,-1.900738209608204832e-02,7.521840250868381313e-04,-2.372495169406542773e-02,5.691799612105459191e-03,4.997892379760742188e-01
4.698648279757350332e-01,4.861283613202961318e-01,-2.440854864774039124e-02,5.220322577588249260e-03,-4.707935934978571893e-03,3.768143033937231337e-03,5.027923583984375000e-01
5.329935522949149629e-01,6.507962667112172639e-01,-2.010284038517040628e-02,2.316775967478921783e-01,-2.966277266234787491e-02,5.971288120123069421e-02,7.478699088096618652e-01
4.291649669831384406e-01,4.819558904797706655e-01,-1.129474866638946473e-02,1.615427559130781440e-02,-6.133713661086875619e-04,9.212176878995692944e-03,4.701941311359405518e-01
3.264975681199138169e-01,5.259298234542337802e-01,-8.012193207932560846e-03,6.121799418033507106e-02,1.900647123126807808e-02,-1.203446683640402477e-02,4.807735383510589600e-01
4.511575308788132732e-01,4.660761807150949343e-01,-1.334928892852144111e-02,1.101980740875706070e-02,2.185881941550135796e-03,-8.813245392770400338e-03,4.727902710437774658e-01
5.010276026205646716e-01,3.917350032190462517e-01,-8.115218136867308196e-02,1.965706447788548583e-01,-5.247302415297417678e-03,-3.796311855669631200e-03,6.350560188293457031e-01
5.300120033151678456e-01,3.304325853596684071e-01,-8.386446778724798712e-04,5.341645818959316061e-03,-3.723756075102568745e-04,-1.826635094553388620e-03,4.645250439643859863e-01
4.222495648169408700e-01,5.154751126366809988e-01,-2.742274901733310344e-02,-1.206711626794992713e-02,-8.239876676952556656e-03,3.459287248781453138e-04,5.034461617469787598e-01
5.159868557975089143e-01,3.086377573468326863e-01,8.186791922674740984e-03,-3.362395141510543528e-02,-1.059109062995719670e-02,-7.376566687800944870e-03,4.466028809547424316e-01
5.310053899869925376e-01,3.120432522572187950e-01,8.975838377247802313e-03,-2.755149550900135025e-02,6.012038497292964551e-03,-1.200085366576991242e-03,4.566667973995208740e-01
4.201827119545639144e-01,4.421351089615859209e-01,-1.368078358292296182e-02,-7.869528599490316356e-02,2.666898374915734060e-02,2.953357862541276455e-02,4.707154333591461182e-01
2.968622054925718623e-01,5.527415151469525778e-01,2.548745245208872134e-03,-5.755848142568272983e-04,1.992909957812611949e-03,4.566453628955594035e-03,4.769473969936370850e-01
4.754069293994840351e-01,4.972590002957801847e-01,-3.021480245338437065e-02,1.163433253375237416e-03,-2.053880397131789375e-03,1.648850789685402454e-03,5.169183611869812012e-01
4.829459398203380660e-01,3.725933173897606476e-01,1.083134828806575634e-02,-6.932898537875531453e-02,-3.917371300139573138e-03,-1.496445317808842157e-02,4.450934529304504395e-01
4.960800413008824572e-01,4.992678397028330606e-01,-1.264535436859420825e-02,4.477162451345247443e-03,-1.682878410636779853e-03,4.743142647007668466e-03,5.104601383209228516e-01
4.899740410212388708e-01,4.987884061475518216e-01,6.717376325480317600e-02,1.434691909420091407e-02,7.387016249056395888e-03,-2.783068080862232882e-02,4.308936297893524170e-01
4.844886880150652275e-01,4.957161038904456807e-01,-3.970854739193135918e-02,-3.063267955020144073e-04,2.142620695876332193e-02,2.614184428182851627e-02,5.331246256828308105e-01
6.514926593054444215e-01,4.841391172118647557e-01,7.608052551556498955e-02,-1.209960106470558613e-02,-8.589478715731692360e-02,-4.882174233814189773e-02,5.408629179000854492e-01
4.816301514149887719e-01,4.967054432514685369e-01,-3.331140035290730550e-02,-7.123190573188618912e-04,2.851197380329483053e-04,1.261377612807027719e-03,5.226485729217529297e-01
4.691957527246964910e-01,4.810500408389395410e-01,-2.527619609633791065e-02,2.257623636226867899e-03,-5.783840015371394423e-03,3.063425988395033616e-03,5.006480216979980469e-01
4.935984644511573483e-01,4.942654883704070690e-01,-2.815276313082615278e-02,7.167127280753965782e-03,5.593497349521398161e-03,5.940513761059791273e-03,5.224238038063049316e-01
4.992720806470616890e-01,4.471409578084301062e-01,-3.448520016368661345e-02,-4.660113312060044054e-03,1.393765935576451315e-02,1.036192346719238926e-02,5.106458067893981934e-01
4.848172726870558225e-01,5.284889396025235220e-01,4.996251274325613778e-02,-4.042856614424378270e-02,1.027496334693246693e-02,4.509182843217821729e-02,4.704430401325225830e-01
2.985993291985505893e-01,5.828015532891734907e-01,-9.739223256465168177e-02,-2.144017831425828469e-01,4.157517721517942771e-02,5.110572881024381953e-02,7.078468203544616699e-01
3.314946356622023305e-01,7.138261552408990962e-01,9.485470011855734462e-03,1.459839862763780971e-01,-5.273305842497233442e-02,-2.247148232491552947e-02,6.684105992317199707e-01
6.184702317911194847e-01,3.628525246175642871e-01,-4.773957385040034085e-02,3.176392960996133469e-02,1.761722179815196701e-02,5.584455801181682083e-02,5.934599041938781738e-01
6.313050327712017573e-01,2.332131768692929930e-01,-1.490536221614646717e-02,-3.010499820032042778e-02,1.391339463173533499e-02,1.161628720279795322e-02,5.679070353507995605e-01
2.790889337465893849e-01,7.279053349091444414e-01,-4.087306886009611784e-02,-5.346788231788780765e-02,3.758140591300071498e-02,5.001335826451897004e-02,6.839104890823364258e-01
5.367318510598665382e-01,5.340537899360924268e-01,8.122671647878043633e-02,1.662955428738064137e-02,5.627462325960404244e-02,6.291878734019937247e-02,4.779944419860839844e-01
4.944528904784477596e-01,4.879941807440012491e-01,-9.054792018959534339e-03,3.313948248318082396e-03,-4.687865029687690935e-03,-7.194918665160161993e-03,5.005635619163513184e-01
7.954884130044124202e-01,3.418657182193579613e-01,4.468543325806462185e-02,1.624792989922378347e-02,-2.144211675808830112e-02,-8.070069448599503925e-02,6.712722778320312500e-01
4.972171283949092802e-01,4.970446762208128866e-01,2.355030999514845513e-02,3.566193208642323958e-03,8.341893360932264509e-03,1.938540934310187258e-03,4.738531410694122314e-01
5.508509660648901463e-01,7.096080735119760785e-01,7.613589418274868681e-02,-3.914792606210532044e-02,-9.755984005532992998e-02,-6.232914183536984731e-02,6.088750362396240234e-01
3.809647611939399048e-01,3.881797065063296026e-01,-8.985942410869585117e-04,-1.428874404435126200e-01,-8.815976456944573866e-03,-9.109043998596307035e-03,4.586494863033294678e-01
5.805211580970726093e-01,1.166019310506036383e-01,-2.706815886185925946e-02,-1.235931939897230575e-01,9.301020814027673514e-03,-1.042821054554078685e-03,5.904253125190734863e-01
4.901745233744636554e-01,4.919230385910534631e-01,-3.139607164702445941e-02,-2.478045278222165042e-04,2.061820302026565015e-03,-4.821071415409532851e-03,5.225261449813842773e-01
4.772729548987135750e-01,3.364693457939476051e-01,3.948771566885722617e-03,-6.082543060575904686e-02,-1.178801033398570522e-02,-1.841599069139988540e-02,4.356021285057067871e-01
6.198148231594575730e-01,3.135387574697378610e-01,-1.306723024843869929e-02,2.160945510103095060e-02,2.461796323409231289e-03,3.584351385231900750e-02,5.529751181602478027e-01
4.797409877846509074e-01,4.711261818744879593e-01,-2.364023653796132329e-02,1.459524255495317155e-02,-1.426472323984836338e-02,1.065744946897142706e-02,5.007200837135314941e-01
3.805332335190298454e-01,7.274559796917841048e-01,7.449507805043331654e-03,-1.870641685675989221e-02,9.655103750291862963e-02,7.336466029837948599e-02,6.588940024375915527e-01
5.002051417628435859e-01,4.803011671272108263e-01,-3.014548506339909117e-02,6.041929767065230914e-04,-3.830994963635604689e-04,1.312708517215305194e-03,5.206905007362365723e-01
7.215671918650454764e-01,1.792664359782167316e-01,-4.672856803022296113e-02,1.308424474151050065e-01,-3.004873589723620550e-02,-1.671241924300022677e-02,7.229294776916503906e-01
3.813062061292421534e-01,5.501593107064723931e-01,-2.147342058868223491e-02,-9.821583269452492052e-04,1.268558320639840038e-02,1.535564859019298255e-02,5.098494291305541992e-01
6.955136662927696722e-01,1.956521664686732276e-01,-1.318947809434264928e-01,-1.468482621856987691e-01,-6.231496508602118317e-03,-2.444232220593211408e-02,7.664715647697448730e-01
6.980416452474555999e-01,2.182757507972266642e-01,-4.528815613829845210e-02,-1.097778662134850092e-01,4.447836408200910724e-03,-2.880034371610485852e-02,6.817561984062194824e-01
5.651963575816327801e-01,3.493249288198572722e-01,2.677779069705493731e-02,-1.749970669439245008e-01,-8.018396986288944817e-02,-5.009451494868354116e-02,5.821980237960815430e-01
4.884201074214975513e-01,3.693814235480497032e-01,2.929597578120779477e-03,-2.930244324995856520e-02,-7.356417587920131493e-03,-1.704338661573222757e-03,4.413910508155822754e-01
3.435863581656650179e-01,6.828465084086017267e-01,-1.117817539332269794e-01,2.475988619104572963e-01,2.646067396132562033e-02,3.332628928714548994e-02,8.162682652473449707e-01
4.259431682721163126e-01,5.201695401297674604e-01,-8.765763810794913180e-03,1.092256847099663947e-01,2.285123231412705333e-02,-1.479568153245621603e-02,5.261421203613281250e-01
4.934236154797129181e-01,4.949515282438811115e-01,-3.127103043296214357e-02,1.293657217332541264e-04,-4.388483741588437674e-03,6.187504501111649709e-04,5.255163908004760742e-01
3.112637650592511296e-01,4.838748124940723816e-01,2.150539346745955482e-02,1.827060952454540588e-01,2.577091544865763376e-02,-2.319227132888505155e-02,5.172239542007446289e-01
3.013192337998645276e-01,3.971038879998771698e-01,-2.448851960781084358e-02,-2.505401759155648778e-01,2.447538102816087385e-02,2.824920183101939722e-02,5.822672247886657715e-01
3.493596966369881818e-01,5.102280791030087137e-01,3.857667616037896430e-03,-1.526312596973099754e-02,2.097473253662863676e-02,1.844758116498365630e-02,4.515199661254882812e-01
4.806290303763987026e-01,4.246985518111500157e-01,-1.222081680889647304e-02,-6.801912707327282051e-03,-1.344526910443523057e-02,-1.299165603859157034e-03,4.681346416473388672e-01
5.769045331589122139e-01,4.930144171880284643e-01,-7.493345541788570818e-02,2.562888254774345898e-01,3.472254868554271179e-02,-1.615163939208541857e-03,7.602132558822631836e-01
2.916266034158888631e-01,5.773086277930485899e-01,-7.886146360721268955e-03,-6.722546215868925590e-02,4.582588558268473750e-02,3.303060363106322811e-02,5.291676521301269531e-01
4.297333991171020107e-01,5.065604985705129959e-01,-1.736831840068014943e-02,-2.313591729534664881e-02,2.444809894806691114e-02,2.649044461427811289e-02,4.956369996070861816e-01
3.986886063048832307e-01,4.959135177495137548e-01,-1.317884441925054606e-02,-4.314242837413023723e-02,1.342383909936114249e-02,2.155344776734996123e-02,4.760770201683044434e-01
4.857158061848849684e-01,4.961186494997512630e-01,-3.237487882822853713e-02,-1.312098714287216871e-04,-1.772568224833889544e-03,1.405527898679073380e-03,5.233843922615051270e-01
5.757850141181596326e-01,7.621284272000432569e-01,9.089401804255192729e-02,7.678109600338522966e-02,-9.439333628926298292e-02,-9.735093813321490236e-03,6.363175511360168457e-01
5.410839050719357113e-01,7.284301322779931365e-01,7.331752579344974485e-02,1.282528189146575348e-01,-1.002299778400682767e-01,-8.595673509524786801e-03,6.490334272384643555e-01
3.995715386173432360e-01,4.915189240599879827e-01,-1.773965404277799696e-02,-1.341584225534056367e-02,1.988681518749682922e-02,2.246522024550378846e-02,4.735125005245208740e-01
4.940717948225693545e-01,4.962240526813462838e-01,-3.085356664686589312e-02,7.795676397049110034e-04,-2.589221221788838979e-04,2.022466761224740468e-03,5.260183811187744141e-01
4.925029342267119858e-01,4.952931407631729899e-01,-7.550956765867811171e-03,-2.808321855522732642e-04,-1.105488594860282083e-03,-5.086108708249244617e-03,5.015360713005065918e-01
4.956039395449307605e-01,4.923342847755132201e-01,-3.244416657300136508e-02,-2.189116364979969056e-04,-9.761344642724135122e-04,-7.724399335631431133e-04,5.264254212379455566e-01
5.210274105625227747e-01,5.067143160800341439e-01,1.826784609177167784e-02,1.443990717786534407e-02,-1.583744260497397952e-03,-2.418264168769993644e-02,4.981600642204284668e-01
4.995257183283196012e-01,4.971817990714394453e-01,3.468712057181722042e-02,1.412970545663379002e-03,-1.742954057112641730e-02,4.006536608337865103e-03,4.647110700607299805e-01
4.997894369204581855e-01,4.956850497706614678e-01,-3.045630206288391095e-02,3.056601221245094230e-03,-4.028755831189134197e-03,1.090139765709747296e-03,5.282815098762512207e-01
5.267296834685735174e-01,4.276279988979208024e-01,-2.574167970661994653e-02,-4.505498005409305090e-03,2.951774154127613341e-03,-1.741174821742561430e-03,5.102852582931518555e-01
4.954991393630636676e-01,4.982011943825376821e-01,2.483626386638532191e-02,3.475174713175301078e-03,-7.604926555548305626e-04,7.251284913444990855e-03,4.722269773483276367e-01
6.137919014732813316e-01,2.712497620128528908e-01,-1.258848237532322889e-02,6.566061725239331903e-02,1.987023377666239515e-02,-4.210737847947516009e-03,5.561451911926269531e-01
5.528787073359517912e-01,4.026492364369002042e-01,-4.316479367674841416e-02,2.708327507301467457e-02,6.206199085445857772e-03,4.067491863968597521e-03,5.391281247138977051e-01
4.982508121703814741e-01,4.963201631632815358e-01,-1.843145311978328094e-02,2.815010426510097374e-03,4.060000346217130726e-03,1.490283805405392351e-03,5.157970786094665527e-01
4.827941114707959835e-01,4.956747952692384662e-01,-3.330053339417093916e-02,1.230018534171586615e-04,3.405051636892269477e-04,1.366225014658133206e-03,5.226597785949707031e-01
4.914720280260577168e-01,4.753764965835717837e-01,-3.939994653188499951e-02,-2.490770842716608091e-03,8.951252839906104555e-03,5.218574785888557485e-03,5.233355760574340820e-01
7.998557832937416290e-01,1.346123104600475406e-01,-4.030813010549311182e-02,-8.425223868970058150e-03,-9.175681184714793576e-03,-2.141952588365943905e-02,7.689945697784423828e-01
5.387261846961518552e-01,4.577810222878698210e-01,4.310233708997518454e-02,-7.871912752418771392e-03,-6.102920469771570995e-03,7.624979640398360514e-02,4.793918132781982422e-01
4.715949034388488004e-01,4.565244341329793842e-01,-8.292193827209026757e-03,2.563878937806578391e-04,5.645046314861974952e-03,-8.694589079725401808e-04,4.726358950138092041e-01
7.213957100671699596e-01,7.072343765372732793e-01,5.946384871213400425e-02,7.481692826373277649e-02,2.542169157568644616e-02,4.931493482233713366e-02,6.745427250862121582e-01
7.516131189643683319e-01,6.515642204512392954e-01,5.516865564599815475e-02,1.034385303997338440e-01,7.540043772257754018e-03,5.788826348515698633e-02,6.838775277137756348e-01
6.540998239010812343e-01,2.278007938452744630e-01,-1.384824079676952868e-01,-1.862221140324825663e-01,1.661020645285569627e-02,1.082486270476488988e-02,7.597734332084655762e-01
5.374240928419348196e-01,1.873852301145831623e-01,-9.755918077470365768e-03,-2.113040169568816129e-01,3.367474534818051032e-03,-1.974537128299546068e-03,6.036495566368103027e-01
6.879677102002740297e-01,4.185303779656325274e-01,3.237956654724705174e-03,-5.403974458018436650e-02,8.524960215804301689e-02,7.841698996224330531e-02,6.371582150459289551e-01
6.088425701822941516e-01,2.802633612512865913e-01,-2.814829135470220400e-02,5.041874359304084063e-02,1.019404957300494748e-02,-4.018853965274199469e-02,5.632077455520629883e-01
5.424127574963877318e-01,4.121686166052124789e-01,-2.337139578917485361e-02,-3.288410640067644577e-03,7.892684791479662914e-04,-1.754585715509373103e-02,5.141430497169494629e-01
5.506879465045866340e-01,5.019309049872200390e-01,-4.682813519865464125e-02,2.819938674415664592e-01,2.252876704000334948e-02,-9.341579794467088499e-03,7.553910613059997559e-01
4.954087043380682731e-01,4.889283198829352806e-01,3.181487011590933278e-04,2.133661837204712478e-03,-1.727527400427242331e-03,-7.971706422043419588e-03,4.920991063117980957e-01
5.292951864596096012e-01,4.265201461715242282e-01,-2.807180300663009165e-02,-2.945084443286999278e-03,-3.324712508247108095e-03,2.519358744695940518e-03,5.138243436813354492e-01
6.162881582770384226e-01,1.910062942307356737e-01,-5.891375676232388225e-02,-4.249400961396143650e-02,3.045519474663537299e-02,-2.070653633086783768e-02,5.992472171783447266e-01
6.558201868077181418e-01,1.945287699294350192e-01,-1.268895054858221738e-01,1.127399130724814208e-01,3.757245992973188425e-02,-7.161809220310537925e-04,7.118528485298156738e-01
4.934736217003835579e-01,4.965112080113611714e-01,-2.619644069475346448e-02,2.487725019649173874e-03,-3.579982226627127437e-03,-4.614979760731404475e-04,5.212507843971252441e-01
5.393032238303911985e-01,6.421184027668691563e-01,1.153500871919410642e-02,1.856109575755682528e-01,7.459021004370668118e-02,-3.625171583288952504e-02,6.836379170417785645e-01
3.117229162295134248e-01,5.614547549435433549e-01,-6.298956761317398012e-02,1.740096498891527121e-01,-9.031803357249271538e-03,-1.204502860440176447e-03,6.224469542503356934e-01
6.419305585366845701e-01,6.679370091375566032e-01,5.952520890741275217e-02,1.317733344473173696e-01,5.603469793880238442e-02,-8.554687832523912017e-02,6.621825695037841797e-01
4.950636139862862883e-01,4.915744256453965511e-01,-2.678649478880185120e-02,-1.856997522254574590e-04,-2.691871636791161662e-03,-8.040804303727870899e-04,5.201371312141418457e-01
5.082343434373726154e-01,4.636510564922869948e-01,-3.572923681697109943e-02,-3.440182188139257174e-03,-4.936376369824586885e-03,9.618796443945950680e-05,5.232026576995849609e-01
3.189821917596896705e-01,4.898264174723343523e-01,5.321336723672409619e-03,-8.780863093168070344e-02,-1.175004469774413619e-02,-2.948818739984074636e-03,4.524703025817871094e-01
4.894719645709452172e-01,4.953464618815879295e-01,9.452153927671480549e-02,6.936896254678462034e-03,1.863155512289517033e-03,3.668086772964077816e-03,3.981653153896331787e-01
4.948537505245962365e-01,4.928416055207240354e-01,-3.251250815006323514e-02,-5.165786899615377320e-04,-9.996196675274510515e-04,-2.155029049992212772e-03,5.263798832893371582e-01
4.931945317780853655e-01,4.907417161236304892e-01,-6.413781633242465752e-03,9.097481225721124444e-04,-5.364731117939542868e-03,-2.279802618978696467e-03,4.984911680221557617e-01
4.938140671845853147e-01,4.929571925626646811e-01,-3.662988336372019482e-03,-3.905191728346910367e-04,-4.056445485065026876e-03,-4.915837979962818516e-03,4.971722066402435303e-01
4.795415066314654418e-01,4.787314130771704312e-01,-2.483436877562106293e-02,2.803908944662286250e-03,-6.570785953332575202e-03,2.661973225524804764e-03,5.041443109512329102e-01
4.950453173783319061e-01,4.955110004948537483e-01,2.840576662933802510e-02,2.779732260242374995e-03,-5.580539226946889045e-03,4.903353925401010213e-03,4.670746624469757080e-01
4.922101593039309719e-01,4.873662678838072138e-01,-3.045932651429622551e-02,-1.637133972109711556e-03,-4.184528475913715305e-04,2.029859106724251467e-05,5.202726721763610840e-01
4.854621826711112975e-01,4.822108618790391654e-01,-2.917982691422632557e-02,1.467115691701877372e-03,9.328819917082597710e-04,-1.937600716399995576e-03,5.130438804626464844e-01
4.993131716342057436e-01,4.703495209817806777e-01,-3.098983671834720788e-02,-4.501688176239321965e-03,6.399123246251891758e-03,2.863273341716957628e-03,5.166322588920593262e-01
4.768315169385957120e-01,5.157126935781261023e-01,1.331311401572482511e-02,8.744350329429436547e-03,-1.352800789318327028e-02,3.656190619091956653e-03,4.849759936332702637e-01
4.978670162548337608e-01,4.957606704059987490e-01,1.226819171504791584e-01,2.652182704265122672e-03,-1.657102012400317676e-03,2.136755696991418684e-04,3.741757571697235107e-01
6.174267079058619601e-01,7.049952558677324843e-01,6.344746421239405576e-02,2.548571701371559264e-04,1.174019728857409184e-01,6.550903192722702661e-02,6.459849476814270020e-01
4.708072029120574653e-01,4.895903451865909473e-01,-2.817438070276112594e-02,3.443946256621725852e-03,7.119497574421490213e-03,-9.685452534580590508e-03,5.090942382812500000e-01
3.255636234527032880e-01,5.157955970869075868e-01,2.449787113690815588e-04,-1.145146271315878803e-02,2.922063758838991041e-02,1.081217991244797123e-02,4.552055299282073975e-01
2.797255941708927107e-01,6.889273437397767097e-01,-7.818165365817447698e-02,1.123466647867426699e-01,3.868554429283614648e-02,7.144372075465030281e-02,7.068716883659362793e-01
2.053399082430114042e-01,6.716850657047986894e-01,-3.241704271331719012e-02,-9.501740107034961635e-02,5.248778465822227790e-02,2.010561662050961568e-02,6.491883397102355957e-01
4.949932198581749598e-01,4.923228489335762514e-01,-3.020098508960344930e-02,-7.775595644539103025e-04,7.399336336847014105e-04,-1.488175902136702365e-03,5.238737463951110840e-01
4.949988362883366855e-01,4.839054565728945212e-01,-3.368936217064388838e-02,8.132394820233449558e-04,-1.833480532313914698e-04,-3.720992990674638901e-03,5.232713818550109863e-01
3.816086718148515855e-01,5.108211801981438205e-01,1.731161771892320012e-02,-1.600162800633637694e-01,-1.179911895457708970e-01,-4.346880711236403988e-02,5.663302540779113770e-01
4.681864774351840452e-01,4.675406111754399352e-01,-1.456968831487698290e-02,2.909252864862682531e-03,-3.966777860275700826e-03,3.396891542209069283e-03,4.825446605682373047e-01
4.483420344378190592e-01,4.817391568709202820e-01,-1.813212318716128646e-02,3.718139042872208901e-03,-6.688876577544825182e-03,1.066880361901210821e-02,4.845715463161468506e-01
4.632158821818471717e-01,5.140593153153325545e-01,6.069282424045868707e-02,-4.307858598762632357e-02,-4.707364828201117402e-02,-5.588430704860845866e-02,4.545984566211700439e-01
4.882636607970530229e-01,4.980377026881023239e-01,2.328381461502548877e-03,2.904960604369000426e-03,4.716572818316026525e-03,3.971759309383288139e-03,4.910372197628021240e-01
4.893347258040151582e-01,4.966341711259516511e-01,1.748438072828378820e-02,5.591463873056788832e-03,-8.383942555267677454e-03,5.561535681069865698e-03,4.759598076343536377e-01
6.627702856198944836e-01,4.590557823572766205e-01,8.378511294423307554e-02,-5.984792503417106502e-02,-5.781958929387916862e-02,-4.886589443463033866e-02,5.354568362236022949e-01
5.209977789618114308e-01,4.225531211915234953e-01,-2.567120626914171089e-02,-4.269878413337100179e-03,-9.801945261893424757e-03,6.772139850994920735e-04,5.050405859947204590e-01
3.955899242223673840e-01,5.183762934909523779e-01,4.449858774100484693e-02,-8.681166193482894866e-02,-7.489381149200022292e-02,-6.150373651222704185e-02,4.819076955318450928e-01
5.085919193189318843e-01,4.998421620420711031e-01,8.114843514884811926e-02,-1.896780542884240420e-03,-5.184123746031016160e-03,-4.919490506396787671e-03,4.233302474021911621e-01
4.930245786003700781e-01,4.970694391783770927e-01,1.950174128284742903e-02,2.847955417302523804e-03,8.024124807945395149e-03,2.360298699418327765e-03,4.758043587207794189e-01
4.931845124518295931e-01,4.916455906203688886e-01,4.121883679101434605e-03,1.882695557159441398e-03,4.604907585262457519e-03,2.939568976840754595e-03,4.883975386619567871e-01
4.942944239897955061e-01,4.929046159754976730e-01,6.992995333324925067e-03,3.648857073808734548e-05,-5.470770575987725197e-03,-2.025777287500095652e-03,4.867129027843475342e-01
4.933254897964579611e-01,4.918154184806478035e-01,-3.459086416639833850e-03,-1.738610146721467466e-03,2.028414733102462501e-03,-6.874696043311566591e-03,4.961957335472106934e-01
7.784424259634985521e-01,3.306462038888237642e-01,3.692839924038043842e-02,5.202351984963834303e-02,-4.233538758650268879e-02,-8.907455367256086887e-02,6.749935746192932129e-01
4.885184587369830744e-01,4.722151960315946750e-01,-2.789278465178568478e-02,7.584308348770629239e-03,6.253770482034805810e-03,-6.222079154467851855e-03,5.088548064231872559e-01
4.573743760541607029e-01,4.957371653223811014e-01,-2.832665769557124458e-02,2.064473584692560690e-03,1.083254996563448938e-02,-7.582040834316727644e-03,5.065050125122070312e-01
5.085039882215156570e-01,4.971689901292952740e-01,6.681618795504606911e-03,2.561431860271912815e-04,-5.160086197818629893e-03,1.226361534855265143e-03,4.963371753692626953e-01
5.335500209227653778e-01,4.327544594598659033e-01,-1.797485676591031867e-02,1.237452350563934995e-02,9.835184535658738139e-03,-3.341433953182793709e-02,5.126863718032836914e-01
7.517206812578367536e-01,1.967024169297605374e-01,-5.216489869807966473e-02,-8.376586352479224729e-02,-5.172395113226787959e-03,-8.931210913410866231e-03,7.276508808135986328e-01
4.958314178838203468e-01,4.982427432166927073e-01,-3.193618941405745870e-02,4.173555971605437398e-03,-2.171552440492105236e-03,-1.281916090092561039e-04,5.290402173995971680e-01
4.584015553170419643e-01,5.009369561931756865e-01,-2.540338878076559004e-02,7.109254472128082904e-03,-1.456531444974659695e-02,6.173768071493173845e-03,5.073043704032897949e-01
4.955636127490002374e-01,4.974801178367910248e-01,7.566340220549022666e-02,6.327597237782842804e-03,-1.208763285197983484e-02,-5.803890261504560978e-04,4.215258657932281494e-01
4.907633899033417846e-01,4.911535519709975817e-01,8.280910840493371783e-03,4.702761496660995064e-03,-7.286196493843396724e-03,5.271169970018262574e-04,4.829121828079223633e-01
5.434401563352013742e-01,5.489889056026953096e-01,8.187651500163817264e-02,2.710890164730979032e-02,1.064218621034607008e-02,7.346675498248708344e-03,4.672678709030151367e-01
5.204625908976288073e-01,5.063470554615555619e-01,3.422077013200069961e-02,1.625448701702547887e-03,3.877977942731439948e-02,-8.734357455734231921e-04,4.840337038040161133e-01
4.682320649573294968e-01,4.954296478479421340e-01,-3.710886501581250885e-02,-1.552786086531416808e-03,-4.418741097237717345e-03,-3.095355227315803055e-03,5.195649862289428711e-01
4.911217277558977967e-01,4.971690213233508349e-01,4.694524399139582416e-02,4.169509620886680673e-03,-8.170242090175918251e-03,1.354620335398035906e-03,4.475190639495849609e-01
6.345562104541832005e-01,5.557413567938433996e-01,1.299953119966035242e-02,2.005703187970064305e-01,-2.457304209455352800e-02,6.995017522913693497e-02,6.933487653732299805e-01
4.984138340237988518e-01,4.967896445867049371e-01,5.096236162715622742e-02,5.736235162211954924e-03,-1.396093559904029377e-02,2.612875821094455195e-03,4.474289119243621826e-01
4.588889845165644576e-01,4.887187419330666360e-01,-2.221466136070682218e-02,1.701541357896976586e-03,-2.648900726780395237e-04,8.610249782482221753e-03,4.969235658645629883e-01
5.057031665194510195e-01,5.191540401913870006e-01,7.554660885470831921e-02,-5.710663108619546541e-02,-7.417811265682298927e-02,-1.116460067405417450e-01,5.046649575233459473e-01
7.783726643242806498e-01,6.514005198537839991e-01,9.793066162000413355e-02,8.553793992844893612e-02,-2.196000938881851119e-02,-6.501173070773509644e-02,6.548302173614501953e-01
4.845853174225737692e-01,4.942807388820432690e-01,9.948130863286880343e-02,5.464856312640782761e-03,-3.817217638053462415e-03,-9.780370505611106838e-03,3.905804753303527832e-01
7.133334447985689719e-01,7.170453757720482990e-01,7.164048073751161372e-02,6.467120402287671044e-02,-1.095066495850966111e-02,2.529968893231704027e-02,6.549752950668334961e-01
5.899304168308354690e-01,2.776054404368429318e-01,-2.116523739474707178e-02,-6.953274205127105145e-02,-1.586272152642796349e-02,-5.221070727322889987e-02,5.509641766548156738e-01
5.144151302484099020e-01,5.025789267494986667e-01,1.133144011708109300e-01,-2.768322550556187155e-03,-2.022594554324723751e-02,7.918260572269103081e-04,3.968960940837860107e-01
4.728039861827710855e-01,4.994720952680981041e-01,-4.247339642925690439e-02,-2.427136067472440326e-04,1.024505807293918554e-02,9.819515837203422054e-03,5.296865105628967285e-01
4.855727436834551547e-01,5.266092594391913462e-01,-3.844930159667603320e-02,5.336069636701738783e-03,5.385438229569695229e-02,4.808517200830258326e-02,5.599196553230285645e-01
5.847920765457135239e-01,3.354810997664648964e-01,-2.142906148143441936e-02,-2.342741710080718104e-02,1.970598929326968646e-02,7.299529606667801152e-02,5.452695488929748535e-01
5.968577428085484193e-01,3.591251994590702323e-01,-1.705464935367473345e-02,4.848334524631554496e-03,5.240384774388802056e-03,2.260476253718035622e-02,5.377211570739746094e-01
5.311142165093789558e-01,6.579918197039611449e-01,6.318765967777023596e-02,-6.965919179937681005e-02,-8.815187930512322079e-02,-4.394847357393812798e-02,5.814520120620727539e-01
4.911296829061728708e-01,4.941233896225080691e-01,1.824074878025250257e-02,-2.316698407700832144e-03,-5.642188545945249316e-03,2.696432082606007013e-03,4.745334684848785400e-01
5.467052614185823334e-01,2.743554081720803728e-01,-1.063320435537767894e-02,-8.235539713297365672e-02,5.988668029598977205e-02,9.343701997218190058e-02,5.388019084930419922e-01
5.015829140054059998e-01,4.482223089679736594e-01,-2.398257823189486881e-02,-5.874958822113229145e-02,2.192919173163144705e-02,4.465390726298475860e-02,5.184602737426757812e-01
5.935489288567237232e-01,2.744399065904005730e-01,-2.397207008152379970e-04,2.194608015896971909e-02,-1.655007242118282026e-02,1.634605325214156385e-02,5.176875591278076172e-01
5.848622336061057858e-01,3.857501805942234463e-01,-2.952882057497024926e-02,-1.862284276373531167e-02,5.538843078648929275e-02,7.807390341239096865e-02,5.686123371124267578e-01
4.683307072034600393e-01,4.473175640474273962e-01,-2.853094515798976216e-02,-2.091415692853311123e-02,-1.707817099154821869e-02,-1.600983134174522107e-02,4.897229671478271484e-01
5.646778940124725921e-01,3.023221105300566425e-01,-1.108067650403138371e-02,9.837179934446644777e-03,6.387911907724111611e-03,-1.364428778287167521e-02,5.002460479736328125e-01
7.094649181025876050e-01,6.559713007795190398e-01,7.348825967419797545e-02,8.194888844801534455e-02,7.018288840745909654e-03,7.715911485099483103e-02,6.414533257484436035e-01
7.877757835699998878e-01,4.762374022189418965e-01,4.617642795867848982e-02,1.282298831164618014e-01,1.528002976630745552e-02,4.296067462963058109e-02,6.866986751556396484e-01
3.078678691426003922e-01,5.638338869482877325e-01,-1.266046131972176081e-03,-6.636661020391383323e-03,3.444892028804919133e-03,7.388788000862025161e-03,4.904504716396331787e-01
3.091689498229609478e-01,5.572535918404519784e-01,3.031862890438496994e-03,-1.289978286324609813e-02,6.613235655681470350e-03,4.327168126515405951e-03,4.815603792667388916e-01
4.285344273213953503e-01,4.757741900273589897e-01,-6.694874633879632775e-03,1.349327837135047038e-02,3.368553834160692602e-03,-6.164372302834377794e-03,4.614222645759582520e-01
3.170126977563206272e-01,6.268648098058634544e-01,-1.051309325259952576e-02,3.437407433089333109e-02,5.689050809788130832e-03,1.098454685527900862e-02,5.556706190109252930e-01
2.405215806756477170e-01,7.719917917188424683e-01,-7.760874135533873952e-02,7.522977345814034489e-02,-3.932352764494494862e-02,3.153734378697604229e-02,7.598326802253723145e-01
4.612544598911216820e-01,5.009976890231557789e-01,-2.769577596746264359e-02,-6.054039361763552049e-04,-5.108788137236419669e-03,6.970537759523492451e-03,5.102053284645080566e-01
3.189075057570436300e-01,5.647104309095241081e-01,5.430655468691147902e-05,-1.209944413771530617e-03,2.399323265679571306e-03,1.942256534908070806e-03,4.904023408889770508e-01
4.191969568174638283e-01,3.602096350871180075e-01,-1.380582907836686024e-02,1.886067505386968823e-01,1.921609491902818295e-02,1.008508813511587929e-02,5.230293273925781250e-01
5.255517498632814588e-01,7.155312685067554135e-01,8.478700099030966886e-02,1.894988070469368069e-02,-3.290781701059947162e-02,4.188026887910236556e-02,5.689375996589660645e-01
2.263183066317552561e-01,5.710923289750284848e-01,-9.202438046532201987e-03,-7.459576580458266402e-03,-2.326977203524879106e-02,5.550641876360211217e-03,5.073700547218322754e-01
3.479538124115710285e-01,5.362420300179674415e-01,-1.289797013235555179e-02,-5.131463804711656855e-03,-1.816914709483385959e-02,8.173802788533216998e-03,4.846445918083190918e-01
4.802651559996005126e-01,5.103026917871817947e-01,1.528942398669252967e-02,-2.274032512970345504e-03,-1.470833713478178657e-02,1.463638818621091449e-03,4.813962578773498535e-01
4.727138704929553792e-01,4.056449603270816939e-01,-2.646730148029446950e-02,-1.273803543072732913e-01,-1.923273438621269857e-02,-2.505596080929804043e-02,5.214124321937561035e-01
3.270284234616021579e-01,5.519420983707855610e-01,-1.036089604651702079e-02,-7.064297308358595041e-05,1.416438249877201468e-02,5.108625689307044922e-03,4.908985495567321777e-01
3.374869743296027291e-01,5.507098877451592767e-01,-9.697408021947129253e-03,1.653663279071567252e-02,1.353718200469098028e-02,4.323294406607274855e-03,4.913806021213531494e-01
3.299342236408467910e-01,5.586400523906782656e-01,-1.052282088669415083e-02,4.869700950314122950e-02,1.122929487164266681e-02,4.715022891323286149e-03,5.036278963088989258e-01
3.157534151981681303e-01,5.777302460616826618e-01,-1.048315307235631044e-02,2.212497018896408471e-02,4.167700873956549368e-03,-4.589560605472992397e-03,5.119691491127014160e-01
3.088465297059362347e-01,5.494290871383676889e-01,-3.754969514277450848e-03,1.896236054298693768e-02,5.178396012790567257e-03,6.075364061338158275e-03,4.817426800727844238e-01
5.504953735991928720e-01,6.493552415863426130e-01,-1.618362208787299528e-02,2.523777765036362419e-01,-4.064874498595343055e-02,3.703671109086787566e-02,7.662087678909301758e-01
3.992299172651776473e-01,4.992029826179602559e-01,1.372286982497250563e-04,1.475213894338347695e-02,1.721799985717276105e-02,1.113557874742980396e-02,4.594370126724243164e-01
4.808493133642202100e-01,4.694752169465213898e-01,-2.400679956626189382e-02,5.114433560261096023e-03,5.409215806854476664e-03,-6.935581724750007095e-03,4.995771646499633789e-01
4.202500968512954960e-01,4.998074213656200082e-01,-1.098058336801366330e-02,6.787937622545689442e-03,-1.941451470740387442e-04,1.041725516450977239e-02,4.765088856220245361e-01
4.457663606275348855e-01,4.768016058975688143e-01,-2.637523583940648564e-03,3.268660095633896950e-02,4.461831940854430259e-03,-5.634381619284020704e-03,4.683009386062622070e-01
4.501183401849154775e-01,5.100385327325860363e-01,-2.778455844206167979e-02,-1.207525897406513992e-03,2.596268361742702299e-04,-3.201849577002406459e-03,5.105418562889099121e-01
4.645063583885395420e-01,4.712902082176027019e-01,-3.007080807809353606e-02,-2.154521843926624175e-04,-3.147014578833191075e-03,-4.958597334406892286e-03,4.981077611446380615e-01
4.650767167068394770e-01,4.665486296057377857e-01,-3.036296926613174518e-02,-1.617593503178114912e-03,-3.049045062188400490e-03,-4.348022982066785530e-03,4.962704479694366455e-01
4.537373903484454019e-01,4.587712371306368331e-01,-2.373667845671711962e-02,-2.855737592851944739e-03,-5.637876212266436197e-03,-1.256145461106859037e-03,4.801405072212219238e-01
4.154145493765615815e-01,4.997263406721439982e-01,-4.101249038635568223e-03,3.467680850802250248e-02,4.941675275659765821e-05,1.306931905306051717e-02,4.717965424060821533e-01
5.464397364056041706e-01,3.137438313200238693e-01,-6.591737705227462829e-02,2.284358326468409195e-01,-1.119666342945374593e-02,2.654028287092740843e-02,6.675879359245300293e-01
4.951636438763517001e-01,4.888053438351577795e-01,-3.685934968971937842e-02,1.453814794518098552e-03,3.712755898423895917e-03,1.679987511281293535e-03,5.289255976676940918e-01
5.466222614858504691e-01,5.329146183812754067e-01,-6.689444668393396132e-02,2.801763023782273265e-01,-4.507029876879967145e-03,3.088750065190489294e-02,7.788453698158264160e-01
4.655461525064383821e-01,4.584240399142464062e-01,-2.331223092498185823e-02,-2.524012987011256103e-03,-7.638624440317992842e-06,-1.257494303010019479e-03,4.853610992431640625e-01
3.387162051540735241e-01,5.362888487516569436e-01,-3.785596019965031811e-03,-8.917537831024616862e-03,-2.182884287092640846e-02,-8.817799918056867803e-03,4.753027856349945068e-01
4.629372205315868127e-01,5.022886772346502049e-01,-3.205164527367815319e-02,-2.627736838898388997e-03,-7.136006210750866705e-03,-2.930592391275659101e-03,5.159847736358642578e-01
4.202674279596579354e-01,4.994121626175911377e-01,-1.496787371044394632e-02,6.883759665686648745e-03,4.175193255720332391e-04,8.357786309900546926e-03,4.800963103771209717e-01
4.603035316550787570e-01,4.565562289139025176e-01,-5.650227575275446057e-03,-7.311640834707416095e-08,1.687098088913053942e-03,2.128872829243395924e-04,4.641008079051971436e-01
4.804457478509229773e-01,7.160538316859947905e-01,4.604207044367558677e-02,1.477783339305706045e-01,-6.965630920847858121e-02,9.044985779680114052e-03,6.533632278442382812e-01
4.520682264071231860e-01,4.986302720356107221e-01,-2.283136781479983002e-02,2.614142505357954557e-03,-6.939228167850257378e-05,8.191213175254371051e-03,5.000317692756652832e-01
4.213292331238954191e-01,5.338596598872255017e-01,-2.621042416665320118e-02,-1.135930920148050909e-02,-9.818219333529908111e-03,-7.891130872739607685e-03,5.139842033386230469e-01
3.449379632314752420e-01,5.641990370491460904e-01,-1.485263209021048247e-02,-2.454552622909897744e-03,-2.362858145716717137e-02,-3.965858456379460321e-03,5.080875158309936523e-01
3.472999564748129875e-01,7.711384112572261529e-01,-2.535304910847574478e-02,1.778929624490858397e-01,-4.159210476166183557e-02,2.787787013630328020e-02,7.608633041381835938e-01
4.911888311395865014e-01,4.616556483623227569e-01,-2.108581563815503657e-02,3.989650522490725999e-03,-8.212517561972349639e-03,-1.435607001697953666e-04,4.984160661697387695e-01
4.798906036656431784e-01,5.152828003903533460e-01,-2.645435387730288301e-02,-2.249888305964243759e-02,-2.101671004282841884e-02,-1.734396416522940298e-02,5.284928083419799805e-01
4.974676807942828294e-01,4.255269090849504998e-01,-2.033383839542690641e-02,1.374242938357674894e-02,-8.436815422565694528e-03,1.439573442111793077e-02,4.872829318046569824e-01
6.960219902775363066e-01,6.184083640334433474e-01,5.864814872169460402e-02,1.450633247281759020e-01,-4.911874478206586236e-02,4.672914005305701945e-02,6.631133556365966797e-01
3.461884597368966587e-01,5.300831540425349209e-01,-1.574787044185194107e-02,1.039489397894956778e-02,-2.376831340061029418e-02,1.244491954741782508e-02,4.835875630378723145e-01
5.104747892467094150e-01,3.526047708093137945e-01,8.842146720646815172e-03,-1.190457684253826490e-02,1.506787626172315098e-02,9.913678030296337040e-03,4.458324909210205078e-01
3.572721369893132604e-01,4.988691805781172439e-01,-2.043466090909012989e-02,-6.964664678671958487e-02,-3.371037329460323251e-02,-1.024362424975467506e-02,4.842212796211242676e-01
3.028704311564783813e-01,5.586622126845245395e-01,-2.379633857451496359e-02,-4.554150423354211275e-02,-1.162623072418548544e-02,-5.265108138106319030e-03,5.122597217559814453e-01
4.838652978886011091e-01,4.829307517680772044e-01,-2.807628394617905920e-02,3.478205590513116108e-03,-6.932542166315776126e-03,4.900680160449681676e-04,5.116520524024963379e-01
4.854212944841214683e-01,4.855941567568636819e-01,-2.932893477883502520e-02,2.330024409139280111e-04,-3.706328079724098903e-03,5.503106757062881582e-04,5.148777365684509277e-01
3.870062667774638587e-01,5.337317451919845190e-01,-4.902144055097817921e-02,-2.483990851057017168e-01,-3.497007808128445305e-02,-3.678849343257419718e-02,6.844414472579956055e-01
3.895769386803618062e-01,4.947013668650727114e-01,-2.934233881478326422e-02,-1.271398875678723672e-01,4.257987397406634567e-02,4.264875777360963710e-02,5.384911298751831055e-01
4.869761242854087069e-01,4.905843403694508109e-01,-3.365102942013287191e-02,-4.170108785078030641e-04,-1.148847526911648143e-03,1.424536906148815931e-04,5.224449634552001953e-01
7.550316232299221220e-01,3.613312300894100382e-01,-2.798432519673060836e-02,6.405765084000095144e-02,5.070450894306599565e-02,7.418096869320035813e-02,7.045365571975708008e-01
5.116574559472298889e-01,3.390534270031020925e-01,9.730432656908372113e-03,-1.668903654797636305e-02,6.455758214084610959e-03,-1.140918437650343580e-03,4.427784681320190430e-01
5.495981733634458521e-01,3.287633162892263372e-01,-3.134060262188320678e-02,-6.539132947396586459e-02,-3.169901403297979009e-02,-6.978384417587449318e-02,5.370458960533142090e-01
4.926325162751952202e-01,4.964707942172916222e-01,-2.373211592581891960e-02,-1.439515799841606511e-03,-2.588213075700786597e-05,1.718440147599821803e-03,5.183089971542358398e-01
4.923013853267945716e-01,4.934701413143423587e-01,-3.042529917469244394e-02,-4.518703783384074189e-04,-3.988636188175574346e-03,2.365108056100875562e-03,5.233742594718933105e-01
4.778801594267012010e-01,4.995304848276195253e-01,-4.021865595779039460e-02,2.753672391119277134e-03,4.217477552302742461e-03,6.444293795622483070e-03,5.294457674026489258e-01
6.260685934574256040e-01,4.266555874827774875e-01,-2.803201189058757148e-02,-8.625020631297852791e-02,4.396622056392336664e-02,6.685919185201245896e-02,6.153891682624816895e-01
4.829544831457550091e-01,4.957052187571960866e-01,-3.142404153149058743e-02,-1.513707552192887322e-03,-2.744610695171350798e-03,4.045492014792664848e-03,5.209463834762573242e-01
4.964860736442102129e-01,4.930086623900744591e-01,-3.529416887645631107e-02,4.969153155755147953e-03,3.531275592966081570e-03,4.012725520942572038e-03,5.302007794380187988e-01
5.458374680557869230e-01,3.079558994414013373e-01,4.870762852151655498e-03,-1.366081425736317273e-02,-3.474214585267357356e-03,-2.264009803643060505e-03,4.702744483947753906e-01
6.524422172128285791e-01,1.486427287472412706e-01,-9.700870503427269642e-02,4.713361983784782744e-02,4.870770824605676758e-02,2.405185831185526271e-02,6.733759641647338867e-01
4.901416973422262346e-01,4.929326669152759854e-01,-3.288296041880739429e-02,-1.466539947826610648e-04,-1.921003968011744016e-03,-7.984505290743933734e-04,5.244381427764892578e-01
4.896853821046528443e-01,4.925551221858022188e-01,-3.292961785978865130e-02,-5.842354025513766787e-04,-1.075914080823609171e-03,-5.124485815124691875e-08,5.240600705146789551e-01
5.674501451957626452e-01,3.866258094468667528e-01,-2.521074619531982197e-02,1.017878869400239694e-01,-3.188854228171766197e-02,5.882432306261028976e-02,5.668251514434814453e-01
7.717283582560329203e-01,2.573756350441369078e-01,-1.181021520338536024e-01,1.996182009040724792e-01,1.614093900183694117e-03,4.327411700342706502e-02,8.507869243621826172e-01
6.240949519207991125e-01,2.590211789895465189e-01,-8.381331658973423249e-03,1.978816016380352798e-03,7.641106661764578839e-03,2.435492414692708857e-02,5.516982674598693848e-01
5.636352459226998679e-01,3.001903727791037091e-01,7.071161367150358146e-03,-2.262995564251991769e-03,3.913372612056513142e-03,-2.393414035355385244e-03,4.823083281517028809e-01
5.397868169545790851e-01,3.781666804226296863e-01,-2.454936519223399616e-02,1.566913274225524219e-02,5.227166315181025480e-03,-1.773243214610821863e-02,5.051239132881164551e-01
8.317710162207599955e-01,2.242384469324479879e-01,-4.363195995618851519e-02,1.019414493222212531e-01,1.452319501666659261e-02,-1.791761230749214229e-02,7.977232933044433594e-01
7.547894139419824011e-01,4.802271277079747103e-01,6.127761179171076211e-02,1.547480440052655115e-01,3.993801329148385926e-02,-8.801640393822110497e-02,6.824936270713806152e-01
5.676900438533398763e-01,2.307693890238707857e-01,-4.787457736097455729e-03,-1.277139439739486682e-01,-4.502877404504846554e-02,-6.428730720696108902e-02,5.619434118270874023e-01
5.295190468071188095e-01,4.794487844710468849e-01,-2.410631430793791496e-02,1.335615186309311794e-02,2.498503328709685348e-03,-8.596719757185128027e-03,5.310965180397033691e-01
5.015433161947213669e-01,2.505663153162860923e-01,3.232544579199275736e-03,-1.858746831393904564e-01,-6.341120565844743026e-03,-2.867502500939917223e-02,5.408087968826293945e-01
6.893333959856537962e-01,3.193605669471898389e-01,-1.251181351662724595e-01,2.192715477206248487e-01,4.190505672946027993e-02,1.445936753982019971e-02,8.056187629699707031e-01
4.823549162269463730e-01,4.644121060980369586e-01,-3.671983720096033688e-02,-6.456415241960617411e-03,-1.030048080722298018e-02,-8.348819369841482471e-03,5.109788179397583008e-01
7.998583924651432309e-01,1.195076315785092436e-01,-1.327804350303812275e-01,-5.437548195515281430e-02,3.366358791231723047e-02,3.527325030451618215e-02,8.450877070426940918e-01
4.953343522936495269e-01,4.290093999724767238e-01,-1.003436880398744790e-02,8.355111892640126880e-03,9.118377054307956128e-03,-1.673645183640714261e-04,4.761690199375152588e-01
5.799794714996832079e-01,3.319523230229414756e-01,-1.573774388639365140e-02,5.703687149651984895e-02,1.529308063129820351e-02,2.318566722173985226e-02,5.298267602920532227e-01
5.283273450612866462e-01,3.634580862786027655e-01,-2.439226655233106555e-04,8.442487065680882863e-03,1.132596483273696705e-02,-1.432639267305857716e-04,4.690661132335662842e-01
5.296528149095135474e-01,4.334286395387513258e-01,-9.912628333591688712e-03,4.202210881982285443e-03,-1.328585123700131397e-02,-1.763988787493856944e-02,4.999867379665374756e-01
5.036051543394159946e-01,4.464244623405367318e-01,-2.403156709911802302e-02,1.216748921934984219e-02,8.840886387477892711e-03,-1.993952598717734642e-02,5.033596158027648926e-01
6.062759389557161871e-01,2.027585132461826867e-01,2.913360218098787202e-02,-1.541984372351537860e-02,-3.634455646393767309e-02,-7.650422581876580030e-02,5.341042876243591309e-01
5.679255198841806074e-01,2.591729955776551075e-01,-2.505173749867412036e-02,-1.208971768331535135e-01,-3.386741540945876344e-02,-3.974047331558152457e-02,5.620446801185607910e-01
5.758138560004655293e-01,2.786862981980910425e-01,2.446575213694635043e-02,-1.022899819597217347e-01,-5.837234692919530260e-02,-7.475141212610278418e-02,5.355593562126159668e-01
3.460781596737653176e-01,5.375771025861124652e-01,-2.393224859854070630e-02,-4.753985113334190625e-03,-1.340489886001380512e-02,5.358363623739768704e-03,4.951052069664001465e-01
8.506748505940165961e-01,1.684365787013030191e-01,-1.335127305575061207e-01,8.551400542233368596e-02,2.915077189663270452e-02,6.343736368996898134e-03,8.872608542442321777e-01
4.919381170366076139e-01,4.240900386897721863e-01,4.495880451944012091e-02,1.270366650600587566e-01,2.069959454926071848e-02,-3.895938974742342575e-02,4.778295159339904785e-01
8.231994247875672466e-01,2.081414214241135152e-01,-8.116422742959095160e-02,3.503177062764124827e-02,8.941044286791941962e-04,-2.271961445579140371e-02,8.032225370407104492e-01
4.914215018464004880e-01,4.796061588074925774e-01,-2.892732906056355580e-02,1.996113779706544869e-03,4.317987517962995105e-03,-3.947790290509693191e-03,5.146542787551879883e-01
4.888271519432966228e-01,4.905942537765730638e-01,1.648455129013259857e-02,3.256986891667691848e-03,8.395899381858144134e-03,-4.193348528822919002e-03,4.735413193702697754e-01
4.962641508521552502e-01,4.798712397423257059e-01,-3.270801644267196107e-02,1.817910053529150785e-03,4.133890860088345037e-04,9.740178987773074433e-04,5.209819078445434570e-01
6.345736696222774587e-01,5.295689165145265331e-01,2.779826858657880040e-02,2.234029879149279085e-01,-2.792272025226988016e-02,2.084900578916827618e-02,6.847319602966308594e-01
4.918155843531217819e-01,4.969294205640319984e-01,2.942578434204290438e-02,6.989266556544668045e-04,5.765760528494933562e-03,-5.535039524589227371e-03,4.651754200458526611e-01
5.862138424188956254e-01,7.364619507980376678e-01,5.825809587634189768e-02,1.029704514403109311e-01,-9.295654105820151669e-02,1.382776702846721419e-02,6.625264286994934082e-01
5.854704218340905930e-01,7.298340808612640007e-01,6.817830055358187202e-02,1.055986170128830753e-01,-9.267199181118984663e-02,1.724421730960068455e-02,6.505534648895263672e-01
4.097830561951792405e-01,4.718958862366058327e-01,2.465516837614978307e-03,2.393862542601478405e-02,5.335873559008099017e-03,-5.916822750963182664e-03,4.438184797763824463e-01
4.949859118814606829e-01,4.849968892385170260e-01,-3.927640791645509166e-02,1.767027856277508108e-03,1.664003999215841198e-03,9.111400149321380532e-04,5.293575525283813477e-01
3.890658462503532866e-01,5.800132199387091347e-01,-2.849585764943085575e-02,-1.182176843337675969e-02,-2.925716163973087966e-02,-2.486798618100565308e-02,5.435010790824890137e-01
5.359863450012198882e-01,5.454970126969145294e-01,-9.347597102820071058e-04,-9.385689811785120906e-02,6.403839659455236311e-02,8.299816757331965333e-02,5.940348505973815918e-01
4.807466603226815405e-01,3.859881514164958949e-01,-1.056375590419872390e-02,-4.987008367225635036e-02,3.401802542096490217e-02,2.894019370748046605e-02,4.661057889461517334e-01
3.763049512047381695e-01,5.032595027775195184e-01,2.601158213429710653e-02,-1.483011966835958984e-01,-1.161035716590306938e-01,-5.819128341710638058e-02,5.476064085960388184e-01
3.055799174926877027e-01,5.570965439319133239e-01,-6.693000124305070742e-03,2.324987909057111852e-03,2.219815589425741184e-02,5.805240508572164122e-03,4.908283054828643799e-01
4.699090091380921930e-01,4.080341963783167269e-01,1.054423300676715636e-02,-3.146106150141219499e-02,1.035527939335686813e-02,8.184462051282223247e-03,4.357905685901641846e-01
4.751555784639908686e-01,4.480430179219389575e-01,-2.228457295969055174e-02,-6.692446620772576904e-03,1.229472745012171256e-02,1.038196713699532110e-03,4.850628972053527832e-01
4.954945641071741846e-01,4.974996348071926699e-01,-1.990085497008065030e-02,4.909688684537523613e-03,1.703710450613440648e-03,3.107094997495126344e-03,5.165073275566101074e-01
6.039488341229566348e-01,2.455311614962433497e-01,-3.428533527865806896e-02,9.591042865002476908e-03,3.684088612839991894e-02,6.123960618647803032e-04,5.580327510833740234e-01
4.591062229039339915e-01,3.783378107074097940e-01,5.248571974714566490e-03,-1.472810982962461379e-01,2.451614215554721605e-03,-1.199864450157390235e-03,4.908670485019683838e-01
4.207624209297265994e-01,4.262289925252784606e-01,3.141706138989674990e-03,-3.259256867801023361e-02,5.656106003869566280e-03,4.920746033753115034e-03,4.243528544902801514e-01
4.423823402188216680e-01,3.738967968003380493e-01,-1.237909137338856491e-01,-2.785013296769578428e-01,-9.523906798017690509e-03,-2.628242849991597324e-03,7.207284569740295410e-01
5.004082605855555421e-01,4.519751272823614441e-01,-3.689163952661139723e-02,-1.479200635213655246e-02,1.358646419874040730e-02,2.211277783342332354e-02,5.173885822296142578e-01
6.641678246571028899e-01,2.195680448837464549e-01,-1.263652870929952154e-01,-1.742476100505031267e-01,1.359328449562253321e-02,9.605617561235823762e-03,7.503722906112670898e-01
5.254628493620968621e-01,3.177472689223649893e-01,5.002229736055852083e-03,-2.192993268669411050e-02,-4.203599242819941809e-03,-1.989983619448083395e-03,4.554392397403717041e-01
5.195711100600022281e-01,3.533508409512400306e-01,-8.927197418163723697e-03,-2.043199101018196989e-02,-1.570337560499434834e-02,-1.522408578380425072e-02,4.709352552890777588e-01
3.391297222667488120e-01,5.523173696391459053e-01,-3.063568774743380407e-02,-2.186767295506234221e-01,-3.762344118579644126e-02,-6.321351969167124385e-02,6.486122012138366699e-01
4.873905690027648951e-01,4.972639948588940539e-01,2.025541519873225171e-02,2.542628034240743823e-03,-2.040892087029859761e-02,-3.819493952883227378e-03,4.735374152660369873e-01
5.434189573370480364e-01,4.369647154062449301e-01,-6.180532723423393104e-02,-4.329711986057502293e-02,5.600277303136216162e-02,4.367017485570334062e-02,5.778878331184387207e-01
4.520874464706916562e-01,6.825346018944583593e-01,-9.805212511380667628e-04,-6.915219603060948628e-02,7.404537114182699331e-02,7.980446591159046088e-02,6.424058079719543457e-01
5.019717717818623637e-01,4.974325114809795556e-01,2.689387127819553580e-02,6.281640044869966910e-03,9.962394046331432898e-03,3.347643020476157201e-03,4.732999801635742188e-01
4.463000343825990202e-01,4.461797795421724722e-01,-5.852408297241817881e-03,-5.148305185909185337e-03,6.798825862963197089e-03,1.006822550359977135e-02,4.526695907115936279e-01
4.820898899605280397e-01,5.005373563348747279e-01,1.796922001383477463e-02,3.860854512716580499e-03,-6.368050201478834584e-03,-1.373922957086118161e-02,4.743867814540863037e-01
4.648778988665237533e-01,4.627852491237266497e-01,-1.922004456485176815e-02,-7.153074491523663501e-03,1.718932318520039262e-02,1.827880164529699369e-02,4.851643145084381104e-01
5.081714949541388249e-01,4.397475844468366479e-01,-1.448679466931074300e-02,-1.000042935684391978e-03,1.571945922205472343e-02,2.186617126975415326e-02,4.942366778850555420e-01
4.975133730920360819e-01,4.899374954425496087e-01,-4.075542720432051569e-02,1.452454051286274648e-03,2.419666653638523086e-03,-3.040057261620110213e-03,5.345693826675415039e-01
5.266974958635926019e-01,4.464468778408901550e-01,-5.261794821649473652e-02,1.152959275276369032e-03,2.763974680895730715e-02,4.007005614636039575e-02,5.501534342765808105e-01
5.016703542030584995e-01,5.787987391116281577e-01,-1.692562874197250933e-02,-6.328725219089171607e-03,2.919749247530218847e-02,-1.323736862361103543e-02,5.639967918395996094e-01
5.778168808830692615e-01,2.776697805101875360e-01,-1.327793648883876243e-01,-2.009513944150881637e-01,4.262109685543945259e-02,4.041377516226235533e-02,7.164117693901062012e-01
4.004283210722446862e-01,4.596039254063304380e-01,-4.040887619751465376e-03,-1.964721241751829842e-02,9.713867893757785824e-03,1.585176518191020942e-02,4.395756423473358154e-01
3.219724369172286549e-01,5.254434455087209077e-01,-2.040502714123010319e-02,-4.382965375059939134e-02,2.731634148184312882e-02,1.958590081909673472e-02,4.872772991657257080e-01
7.735477534724521931e-01,1.791225735152493781e-01,-5.836244584525790424e-02,-2.071992011257432417e-02,6.616717835186704255e-02,1.087400175553654147e-01,7.751147747039794922e-01
7.578109236041913332e-01,2.054222845081357107e-01,-1.229541399874815033e-01,-6.989451145884897909e-02,2.916604485070047742e-02,2.531181404151214092e-04,7.820253372192382812e-01
3.461938658390947277e-01,5.880999053674551558e-01,-3.237870227332828588e-02,2.994463754222123977e-02,5.013697939846650797e-02,3.815142644147982015e-02,5.549887418746948242e-01
6.255685029962056998e-01,2.222435662702140213e-01,-5.344953724001866302e-02,4.481084994996519660e-02,5.774930133056688925e-02,1.088875062011535333e-01,6.336166262626647949e-01
7.563922565088146976e-01,2.916942137415169389e-01,-8.281485032048585548e-02,1.553148534064995034e-01,3.529554215599200323e-02,7.031406138738996447e-02,7.881450057029724121e-01
6.263578045706381658e-01,3.882899419590436496e-01,-1.197539047447732097e-01,2.601020559978115543e-01,1.861873487312323827e-02,2.821097971322993406e-02,8.013242483139038086e-01
8.103309500312549929e-01,1.508531653981197984e-01,-1.458987314112201172e-01,-1.665024810257413872e-03,3.013193839983896449e-02,1.779942542515006512e-02,8.499155640602111816e-01
5.195415455441758645e-01,3.637134383962933870e-01,-1.960056642134183624e-02,-2.028938478291948330e-02,-1.487258542778952149e-02,-1.036305538182432338e-02,4.828704297542572021e-01
8.501681749850555914e-01,1.677295190486994270e-01,-1.348557533056126689e-01,9.328228543782429716e-02,3.018389686851612880e-02,-5.374305345660466623e-03,8.903375267982482910e-01
5.439448085306216596e-01,5.342755635003832992e-01,1.139370259621791392e-02,9.846577035470407968e-02,1.221112827238595433e-01,3.890194484211276465e-04,5.936120748519897461e-01
4.953909477387667404e-01,4.788050210509540161e-01,-3.146399465945148854e-02,5.197925273060400187e-04,3.844280065766606837e-03,-2.883468640376111655e-03,5.188284516334533691e-01
4.905636611389552204e-01,4.898053929902486114e-01,-1.348667517319351861e-02,5.032206961797517503e-03,4.256496425695093129e-03,3.691883952957396992e-03,5.038415789604187012e-01
4.948018741535690768e-01,4.827608203248718310e-01,-3.268193586621997992e-02,-9.367448751708034368e-04,1.637921458257180982e-03,4.995163473108105157e-04,5.215784907341003418e-01
3.800692906342975075e-01,4.799058499587913751e-01,-3.330903653935901598e-03,-3.483978345407171689e-02,-4.991136125865592817e-05,1.744286800751619626e-02,4.469839036464691162e-01
4.512918862951061927e-01,5.517463812196570228e-01,-3.433525818912508409e-02,5.744463305497069655e-02,5.042277183652627004e-02,1.871741647107494702e-02,5.597198605537414551e-01
3.249609643275344628e-01,5.434175262191801581e-01,-2.477114830564508541e-03,-6.734353448102987005e-04,-9.815757539040944734e-04,1.284697743403605610e-02,4.764130115509033203e-01
4.373524509429446150e-01,4.255474826839654168e-01,3.702865815259248627e-03,-1.190387501827870793e-02,-4.413788124965867601e-03,-1.059406801252204058e-03,4.284378886222839355e-01
3.175678414303082508e-01,5.357823935885432931e-01,-1.934984174925674649e-02,2.815176690263734502e-02,2.987522459124140536e-02,-2.535436353381189615e-03,4.896181225776672363e-01
3.484400472604673449e-01,7.132275837843589095e-01,-5.126534630429324668e-02,4.401244922410510289e-03,4.806691443461685864e-02,3.777345519798354367e-02,6.707546710968017578e-01
1.826247156444821829e-01,7.433477025989521092e-01,-6.527061134972522716e-02,2.688999322167234113e-02,8.394146002603030537e-03,9.091030687598347648e-02,7.362320423126220703e-01
4.446708940823097533e-01,4.490205895104966149e-01,-1.996935182081249760e-02,-2.048221074247012080e-02,-7.625409082258631857e-03,-8.980399610150343465e-03,4.686208069324493408e-01
3.156914983299551336e-01,5.369608444484889054e-01,3.902945877475139103e-03,-1.194493199721056997e-02,-2.352718292926242948e-04,-2.773502168015193944e-03,4.643412232398986816e-01
3.243201917465185491e-01,5.457633761114817350e-01,-3.509274664362127538e-03,-1.087740254045421219e-02,9.069168783091123912e-03,1.213428151214944635e-02,4.797376990318298340e-01
1.811508847610451001e-01,5.939761139951222901e-01,-1.132386633937817466e-01,-7.338056980629897863e-02,1.974096855627108238e-02,8.127375254386769166e-02,6.447951793670654297e-01
2.100403442518834207e-01,5.221035324500011843e-01,-1.522139353435539300e-02,-1.995259190255206094e-01,1.523818288237991682e-02,3.155310418218285062e-02,5.844119787216186523e-01
2.860660346584789626e-01,5.428896576017834263e-01,-5.897674145386733180e-02,-2.668453483244829783e-01,-2.495037086959457293e-03,-2.820045739405575846e-02,6.997512578964233398e-01
4.582344984222426199e-01,4.605841285459247314e-01,-1.866093654360606591e-02,-7.015095456262606527e-03,-7.387296504761729603e-03,-8.758257077535530274e-03,4.786405563354492188e-01
4.314228660131284032e-01,4.359520106843490783e-01,-2.068481220442730528e-03,-1.025032353040625926e-02,-3.031742258382891502e-03,-5.166004534065403095e-03,4.362584650516510010e-01
4.584049531045799597e-01,4.483101470128704191e-01,-1.555396906291250936e-02,-4.507746934453107750e-03,-6.369930349036520383e-03,-3.840426022543515314e-03,4.692348837852478027e-01
4.543317467707619350e-01,4.448000732515604572e-01,-9.043431413240821115e-03,-8.264449606847190221e-04,-6.133038508166660172e-03,-1.531600416613664289e-03,4.588165283203125000e-01
3.824564440258159670e-01,5.321006969767969608e-01,-1.146330684553464874e-02,2.600618985541616052e-02,-1.412181009084253688e-02,1.112866234198802394e-02,4.894004464149475098e-01
4.384851558374744940e-01,4.412022012043892438e-01,-1.470287204166531581e-03,-9.134918268911303282e-04,-2.782992516410864349e-03,-4.629567955252693150e-03,4.414222240447998047e-01
2.416531645232080361e-01,5.668768525455010199e-01,-3.648997573116152804e-03,-1.639891450958240113e-02,1.590370152281568236e-02,1.066518215693136422e-02,4.976228177547454834e-01
2.401056541373060016e-01,7.529777895386782216e-01,-1.186938111941371332e-01,1.843858881860146182e-01,2.636806996120253516e-02,2.296069098460930963e-02,8.255028724670410156e-01
3.666167217402684919e-01,5.228405858483631263e-01,2.155152412299798925e-04,3.081592158714515847e-02,3.302305335407592496e-03,3.129941001310704383e-03,4.677684605121612549e-01
4.936974231484309028e-01,4.849626141326607298e-01,-3.210194001843963418e-02,-3.659192220284475253e-04,5.559785606180206972e-04,-8.491522489614197755e-04,5.214901566505432129e-01
7.948486287898126612e-01,3.490732293154883426e-01,5.282511260713657064e-02,2.705267661040713922e-02,-2.304386911674521227e-02,-1.013848027044870204e-01,6.731745600700378418e-01
4.428237888902150088e-01,4.451264601590634307e-01,-9.493550691062724312e-03,5.415259363361899555e-04,-6.197103939497194047e-04,-1.526036698976544108e-03,4.534830152988433838e-01
4.966097854890872965e-01,4.884207315649781167e-01,-2.503208235275600213e-02,-3.490029768229160152e-04,6.047863794119520036e-04,-2.803634260803774571e-03,5.176201462745666504e-01
4.635371330598943018e-01,4.767476575944310513e-01,-3.783689212742602503e-02,-1.135359843468792575e-02,-6.794599453293617176e-03,-7.653535627580503563e-03,5.087974071502685547e-01
5.660495300661324558e-01,4.947467947139779776e-01,3.211447425844132786e-02,2.034154915867884827e-01,-9.070590570858502732e-03,-8.062484084975841958e-02,6.292703747749328613e-01
4.757542448309201033e-01,4.883177179667551049e-01,-4.146289539354430786e-02,-8.062675140488873298e-05,6.873086230062122604e-03,7.955393717038605414e-03,5.239284634590148926e-01
4.893567557409219670e-01,4.860482011066747376e-01,-4.278780811705817921e-02,1.848348055085106707e-03,2.835155648079695171e-03,2.248107233759030852e-03,5.305446982383728027e-01
4.763027817199407821e-01,4.831384824838373948e-01,-4.146545045441557553e-02,-1.225093161404530165e-03,-8.666651820904864309e-04,-1.309087445504152460e-03,5.212311148643493652e-01
5.079695820652998517e-01,4.521228331914149967e-01,-3.085981006513410785e-02,-3.480622217819935756e-03,-3.585428090486461519e-03,-1.049850158653356253e-03,5.132663249969482422e-01
4.690323679120336209e-01,4.825552868394796802e-01,-3.792016748137727600e-02,-5.100079060274946043e-03,-5.476912187721691069e-03,-7.071416103849694108e-03,5.141568183898925781e-01
4.906977168044361348e-01,4.858724450838595721e-01,-2.992904677181063011e-02,6.988341521479353750e-04,-5.751574803818739617e-03,5.149411980916145109e-05,5.183281302452087402e-01
4.739981208975146965e-01,4.790518049062622019e-01,-3.920930363193092516e-02,-1.803778550122711296e-03,-6.021252447156218678e-03,-5.399830738114564689e-03,5.159525275230407715e-01
4.759298784236055679e-01,4.830607222355018937e-01,-4.126991234487731308e-02,1.266947933715326666e-03,-1.401506310107260571e-04,-2.922047372043886683e-03,5.208311080932617188e-01
4.856508485024260691e-01,4.790902903012802527e-01,-2.977366501204470328e-02,-1.950785321837435573e-04,2.669344740118506989e-03,-8.058110789212219070e-04,5.121986269950866699e-01
4.770935022918588730e-01,4.870506785156546448e-01,-4.169296324653548602e-02,-2.825709221399965777e-04,-9.189661590921205641e-04,-2.460488390110267699e-03,5.238560438156127930e-01
4.774724998139818766e-01,4.899781438470390271e-01,-4.016596440071246166e-02,-1.546567187670505486e-04,-1.257348197337349515e-03,-6.352202204898884253e-04,5.240089893341064453e-01
3.785697329589592375e-01,5.578972387725367188e-01,-7.353275800520059358e-02,1.979196026561639010e-01,-7.357343371347495851e-03,2.593353994332400769e-02,6.613062620162963867e-01
3.901291045304730032e-01,5.147726235540954765e-01,-1.052419805102494665e-02,-3.454725327504318266e-02,-1.565738897769909307e-02,-1.594765614425901201e-02,4.807045757770538330e-01
4.902205540911479531e-01,4.959495089888685260e-01,-2.473531607296075574e-02,-1.482513965236903616e-03,-1.907714266648541596e-03,1.443436874643968994e-03,5.178670287132263184e-01
4.222167262544073707e-01,4.700972995082223771e-01,-7.236390105195222855e-03,1.804878760248420852e-02,1.365102145755854243e-02,-1.021149369581491988e-02,4.573118686676025391e-01
4.479140402300950119e-01,4.767362613660044435e-01,-9.688815749030799118e-03,3.311555192288361763e-03,3.468975861284532094e-04,-6.185070220557422130e-03,4.728300571441650391e-01
4.818761055243444003e-01,4.504345534079342017e-01,-7.465738674351463100e-03,1.714878699043621488e-02,9.315460250793808697e-03,-4.363260095288612819e-03,4.756658971309661865e-01
4.642474855927871125e-01,4.573399273056985015e-01,-2.961747786853263786e-03,3.307319027162443359e-02,5.931573959455222617e-03,-3.934599855768890209e-03,4.674809277057647705e-01
5.098837749599123281e-01,4.258954550390243732e-01,-1.845304678957826461e-02,2.536281317222129766e-02,1.399440692054359538e-02,-7.209324930974493270e-03,4.944623112678527832e-01
5.495695595476612905e-01,3.017831549233205846e-01,-9.480875314005765553e-03,1.431892614391543257e-02,7.936713305413883174e-03,-1.491367255211510819e-02,4.867049455642700195e-01
5.175000034743388877e-01,3.619493388283872015e-01,-5.174584845291096968e-04,1.669777590097614728e-01,1.399486059610143517e-02,-5.814535973071632141e-02,5.534754395484924316e-01
3.233257941243771194e-01,6.968844800404518924e-01,2.339385024585083350e-03,-2.454857947900886475e-02,-6.905334599318391220e-02,-3.605289400244033465e-02,6.184642910957336426e-01
4.932379884683204541e-01,4.875545850490047295e-01,-2.669110607346519837e-02,-1.416832843997441844e-03,2.011540236689170896e-03,-2.249849691680721759e-03,5.171430706977844238e-01
4.561837610688267430e-01,4.522617451075600092e-01,-8.763927490494760608e-03,1.631536506181846188e-02,7.552738909320838058e-03,-4.619851318511601114e-03,4.641141295433044434e-01
4.208234007765169760e-01,4.398904051003499349e-01,-1.396250715132152376e-02,-7.789927937329746421e-02,-4.219091506218109605e-02,-3.289790698018299486e-02,4.737977683544158936e-01
3.030504228913083464e-01,5.881624609466976628e-01,-6.229171269653333010e-03,5.674309853363731365e-02,-2.697274820394148648e-02,-3.456286898127942063e-03,5.263077616691589355e-01
4.920911289337974170e-01,4.325402212208739883e-01,-9.413008645032971966e-03,7.862852731316509122e-03,-6.760653866186480329e-03,-4.380135521912065059e-04,4.748798310756683350e-01
4.974350520384910324e-01,4.542440780718025595e-01,-2.245668447509957533e-02,7.912181203215845962e-03,-7.338997483900638191e-03,-8.170233381043028563e-04,5.000496506690979004e-01
3.905035038931187197e-01,5.251309771670787940e-01,-2.588123562948918543e-02,-6.706580547344213970e-04,-2.246303983773248469e-02,-2.258047330750793946e-03,4.990872144699096680e-01
2.257090669449673404e-01,5.963438450293871984e-01,-1.326448312305056332e-02,-4.988510982992781610e-03,-3.423445030331420669e-02,-1.480178841661560288e-02,5.360021591186523438e-01
2.818163214858784293e-01,6.330176102927088655e-01,-3.002209606221178939e-02,4.132881267766802535e-02,2.342685001226919514e-02,1.682637719041100988e-02,5.811399221420288086e-01
1.372376043492610220e-01,6.476486231185076825e-01,-2.475227777325189615e-02,1.722344881701541423e-03,3.080274658886912945e-03,9.441963708592265858e-03,6.080677509307861328e-01
4.928059631331295765e-01,4.903716575391295907e-01,-3.038949377400862462e-02,3.560585905753997529e-04,2.804334475788817539e-03,-3.630356407620620365e-03,5.220434069633483887e-01
1.576419925017202017e-01,6.886129763471591225e-01,-1.229048749576438504e-01,-3.564327136435880422e-02,-1.191562793389549374e-02,-1.236145518100273573e-02,7.171434164047241211e-01
4.913937432557613505e-01,4.936224807114928947e-01,1.822553887555578012e-02,-2.438515500019786900e-03,-5.640633116631915862e-03,2.693130701744724572e-03,4.744288623332977295e-01
3.881813595437299536e-01,5.299558928448816486e-01,-1.801464278018660714e-02,2.529093419190337876e-03,2.397620188240083897e-02,-2.941845173015286349e-03,4.944220781326293945e-01
4.857752126220872269e-01,4.934471792954697733e-01,-3.139562197866263560e-02,9.663820840983319274e-04,-5.129419891458977462e-03,-2.951756877812614088e-03,5.211526751518249512e-01
1.485366899466669943e-01,6.354179156229997627e-01,-7.404817621862735955e-03,-4.500119427623586188e-02,-3.020530817965432283e-02,-1.117283806786064856e-02,5.886280536651611328e-01
2.901634446486927588e-01,5.993432900331546742e-01,-1.013964611954337736e-02,-1.642271492096726918e-02,-2.053163087404731926e-02,1.433655902212380151e-02,5.303887128829956055e-01
4.915983278235980247e-01,4.849622186336458030e-01,-3.240519126752960943e-02,-1.096373012489590621e-03,1.714282353418086812e-03,-5.903645760763226186e-04,5.207301378250122070e-01
4.902653094850473181e-01,4.850038885759466734e-01,-3.294987214063888059e-02,-1.075832557996295310e-03,8.606303107142068915e-04,-5.840935852184045993e-04,5.206108689308166504e-01
4.922433212049034390e-01,4.869262677437926623e-01,-3.203777771182680922e-02,-1.763434793463788518e-03,3.724945624458788132e-05,-5.596759594307657753e-04,5.216527581214904785e-01
4.914445467780853005e-01,4.856240024415914847e-01,-3.352800615353795921e-02,-5.415167044003648842e-04,7.491069732782826545e-05,-3.998160058814490773e-04,5.220879316329956055e-01
5.063581134904064918e-01,4.745853925800529449e-01,-2.257867796043366848e-02,2.784509302074271095e-02,-6.022157642055624149e-03,-5.293275743652111091e-04,5.161526799201965332e-01
4.932126535379731669e-01,4.867662160495500601e-01,-2.118657976403359733e-02,2.103157460051248971e-04,-2.762049274031134084e-03,-1.911665044753620840e-03,5.112397074699401855e-01
4.946620233575058645e-01,4.868560531062858798e-01,-3.127392501430420468e-02,-1.415482810242091544e-03,1.185723314529754961e-03,-3.979101001904405965e-04,5.220869779586791992e-01
4.876353502390602945e-01,4.780095260227495979e-01,-3.105865375002497819e-02,9.594924284774077917e-04,2.689428568886534018e-03,-2.343061701844905559e-03,5.139884948730468750e-01
4.936888887016406824e-01,4.849024535315741846e-01,-3.151986435631898287e-02,-3.773765195863494908e-04,5.604088972166520804e-04,-3.247661354148914182e-04,5.208727121353149414e-01
4.746739883398655713e-01,4.763720919968585932e-01,-4.066855939384067531e-02,4.759529218537856621e-04,-1.006450497320628379e-04,-2.435901170761575968e-04,5.161945819854736328e-01
4.929631922211273887e-01,4.856010289645144029e-01,-3.300914887315120616e-02,-1.385886033489137480e-03,1.217637634704993354e-03,-4.132257824893704199e-04,5.223404169082641602e-01
4.842768309382348146e-01,4.769826566251383348e-01,-3.913988738105100840e-02,-2.299093237340461404e-03,7.053277487825937789e-03,4.692246753047811351e-03,5.200303196907043457e-01
5.114369612865163894e-01,2.769830051730337028e-01,-1.084644805985879312e-02,-1.677524430713264736e-01,-2.565619192459061421e-02,-5.703720567036975331e-02,5.490485429763793945e-01
4.631576605653194845e-01,4.716555184774882115e-01,-1.174681350337081209e-02,2.127822044517867391e-03,4.835210226355439109e-03,-1.069770545409933285e-02,4.796552658081054688e-01
4.880425060114436109e-01,4.839646014665346385e-01,-2.936851113173544192e-02,4.598743320667347681e-04,2.693082494556988532e-03,2.141830897201769859e-04,5.154060125350952148e-01
4.872271176504352486e-01,3.625081203981104228e-01,1.237116615231659278e-02,-1.569676665260936466e-01,-3.144453832890169859e-02,-8.410583270052986171e-02,5.290781259536743164e-01
4.799146334334625230e-01,3.537019542324985055e-01,-2.338080116370427897e-02,-1.153939453573793461e-01,-2.433683452550424592e-02,-3.198933262039160147e-02,5.005074739456176758e-01
5.610609765191258980e-01,3.622173403463639918e-01,-5.084372488426264214e-02,2.418298648499505321e-01,5.188822833710141774e-02,3.335988436645235394e-02,6.922092437744140625e-01
4.801135004534491380e-01,3.787152576691033556e-01,6.718541234508768056e-03,-3.917323720827248223e-02,-9.925017504736309559e-03,-4.496060804344123064e-03,4.374274313449859619e-01
4.918539237098652483e-01,4.906692016320173266e-01,-3.354107424069324717e-02,-4.115174252981265474e-04,2.940832927267179159e-05,-1.960505115948941394e-03,5.248150825500488281e-01
4.937550595857951863e-01,4.873954559307853152e-01,-5.974392961294372473e-03,-4.430293561542930723e-04,3.424194281074753078e-04,3.618361124258263027e-03,4.966206848621368408e-01
4.933777385333629750e-01,4.904498813998736662e-01,-2.039283152583748482e-02,-1.468361944014414874e-03,-2.122597654925359543e-03,-3.255452226402616531e-03,5.123634338378906250e-01
3.708688670791915332e-01,4.900143662677962642e-01,3.465483243460687479e-03,-2.104812773460811373e-02,-1.847894818631879398e-03,-5.581621968518992588e-03,4.408946931362152100e-01
4.859162529921650098e-01,4.900082874566020763e-01,-2.611654341654862099e-02,2.959932757713845414e-03,2.561031143854950592e-03,-4.924938007390054079e-03,5.142064690589904785e-01
4.870780483125525251e-01,4.882884289474460626e-01,-3.142794780200647287e-02,2.827044735587640840e-04,2.603368533790707817e-03,-4.756657153647045680e-03,5.191974043846130371e-01
4.923037416481090833e-01,4.906949221106458037e-01,-3.357922628810783294e-02,-1.477380910866053733e-03,1.149494073608162787e-03,-1.640876205650356650e-03,5.250980854034423828e-01
1.888147537612583360e-01,6.048289169870255666e-01,2.260105960181024720e-02,1.433985063982904685e-02,-4.334236761069144850e-02,5.186844531745055456e-03,5.255238413810729980e-01
5.816816815707657184e-01,3.563300091397952896e-01,-2.376323633612287267e-02,5.183335440595266547e-02,1.531209901649329547e-02,-3.005454364029348444e-02,5.407238006591796875e-01
4.445841362681222653e-01,5.211669876664168921e-01,5.169436568697893808e-03,5.614660459268493945e-04,-4.736425720099545628e-02,2.050986676558564682e-03,4.892295300960540771e-01
5.677067855190660595e-01,3.273635118538405497e-01,-6.822900170183054946e-03,-8.723907108201109026e-03,-6.400746039404454218e-04,-6.884838614038506568e-03,5.001366138458251953e-01
4.680058744046698971e-01,5.067384872524808292e-01,-2.400550361368192220e-02,1.480365847480697578e-03,-2.762236494019141512e-03,1.892740439708660719e-03,5.125158429145812988e-01
4.777628608124909748e-01,4.768504446350604331e-01,-4.167980985345687284e-02,-7.018628469496534595e-04,-7.904209037205942468e-04,-7.597394947645809199e-04,5.189919471740722656e-01
4.640904905277346004e-01,4.576465068486763044e-01,-2.327892533807063291e-02,-2.049288124314479088e-04,-6.412473522115657264e-03,-1.742180838408210119e-03,4.843164980411529541e-01
3.907870331628600091e-01,4.583226847960968353e-01,-2.191249685962509686e-02,-1.439587400316643673e-01,-3.169741402421760029e-02,-1.844993008985817973e-02,5.186151266098022461e-01
4.815782202899382414e-01,4.782254259060376156e-01,-3.830750643375957498e-02,5.529327485168603756e-04,4.507557150106471233e-03,3.483473523888974688e-03,5.183122754096984863e-01
5.480220653495584404e-01,3.278317929121847829e-01,-7.352220059145431197e-03,-4.922648482843620076e-03,3.177421530673477535e-03,-2.649627625393154509e-02,4.866677224636077881e-01
5.251933128778137894e-01,3.869118748971430710e-01,-2.456780379959594418e-02,-7.116825167732585000e-03,-1.287627803280208712e-02,-2.060512976866388582e-02,4.972527921199798584e-01
5.352954134174551237e-01,4.257743474712777365e-01,-3.093307457584260067e-02,-5.628792599408218890e-03,2.291741192703699594e-04,-2.237547161969920956e-02,5.217210054397583008e-01
5.328409538495975095e-01,3.621972504207229271e-01,-2.008532414705743729e-02,1.944356580434637369e-02,1.401162163660369352e-02,-1.846411837723782243e-02,4.931929111480712891e-01
4.720725766967686088e-01,4.337574205600154276e-01,8.105709351057255319e-04,1.035902840238394490e-02,7.036151140441474459e-03,-2.115479137986178552e-04,4.538392126560211182e-01
4.722129693974249642e-01,4.290293442463427587e-01,-3.380339330566473066e-05,1.185095148438233131e-02,-9.258530902456753265e-04,8.654854471020221110e-04,4.526750147342681885e-01
9.073868356847256122e-02,7.149885011193490847e-01,-4.446289214587773042e-02,4.101509153857400836e-02,2.677017508526820244e-02,-1.743036694387847460e-02,7.074425220489501953e-01
5.535375084216553887e-01,2.846916955092251289e-01,-6.263062559003440555e-03,-3.251922616600447236e-02,-5.956155677682173919e-04,-1.595914175637181201e-02,4.889707267284393311e-01
3.952376035429586709e-01,5.324452920493216723e-01,-2.106565622722328390e-02,1.943743575071561758e-02,-1.527331358189141196e-02,3.086496981666301404e-03,5.011149644851684570e-01
4.571307424635419059e-01,4.468830325882728882e-01,-1.113174023322804906e-02,-6.000776256187335435e-03,6.986728051625760300e-03,4.612250980828141826e-03,4.635670781135559082e-01
4.330106422947291867e-01,4.647103989209755981e-01,-3.377191068859641820e-03,-4.660189292218349690e-03,1.005715397526854658e-03,7.584835033855428718e-03,4.533358216285705566e-01
2.464105170257707977e-01,7.083397927816077466e-01,-3.900119711786131926e-02,9.923687343035610120e-02,-5.245211156818865156e-02,7.127066731063175752e-03,6.816366314888000488e-01
4.515341667351936428e-01,4.580813081658635100e-01,4.044105687325827425e-04,1.455812774394814324e-02,8.423242691755003378e-04,1.712076443759744321e-03,4.551497101783752441e-01
1.793091908257042066e-01,6.301251903528470866e-01,-1.637632942781541701e-02,-7.243377195821501004e-03,-1.263026106705312547e-02,-4.286787888783299798e-03,5.748366117477416992e-01
4.706264965965067937e-01,4.664672292961126177e-01,-3.508974377288565094e-02,1.488959096856657012e-03,-7.456269947160620078e-04,-8.495795921020308085e-05,5.036577582359313965e-01
1.582588536262866385e-01,6.145168133237386421e-01,-2.722375277412777961e-02,2.748103578804337102e-02,-3.882901091567580315e-02,1.993292670875176226e-02,5.789505243301391602e-01
2.579606772047021712e-01,6.059277813516561473e-01,9.290708685356086072e-04,4.089370205579214573e-02,-3.439737632406753010e-02,-1.697700364582095537e-03,5.340037345886230469e-01
5.382084853451070128e-01,4.979623655532225968e-01,-3.351477180521439392e-02,7.994720222125520359e-02,2.481236704117607134e-02,-1.915831749809263768e-02,5.723637938499450684e-01
5.013096618985368735e-01,5.029229771816696726e-01,1.199172204779830331e-03,2.682760742827034004e-03,1.741360592100313289e-04,-9.092578513825473954e-03,5.011882185935974121e-01
5.369661903635660760e-01,5.324201743344726401e-01,-8.754371856109832706e-03,5.392946616443120705e-02,1.266954798024755996e-02,-1.697660235150533561e-02,5.526500344276428223e-01
4.992647513517520785e-01,4.704803937046724838e-01,3.958512956955956286e-02,1.631283028071729268e-03,-4.961738386118771764e-03,-3.570112134242196637e-03,4.461192488670349121e-01
4.971526515404447455e-01,4.961616548997980214e-01,9.075716964277225074e-03,-1.213206180964519938e-03,-6.950278294775629091e-03,7.951529815744746640e-03,4.879297316074371338e-01
4.977038267169331398e-01,4.929677809532480581e-01,8.600956211036125953e-03,1.483145741799832013e-03,1.304929284340439026e-03,-9.050234131738884441e-03,4.870164990425109863e-01
4.920526560856814946e-01,5.184052868202593256e-01,2.009368680988288247e-02,4.049953691691297354e-03,-4.218750860933468023e-03,6.176704616621755267e-03,4.858951866626739502e-01
2.974142153679574241e-01,7.442645084686103640e-01,-9.379342206929680570e-02,1.776261910219163465e-01,1.200409442537788904e-02,2.565685027995462386e-02,7.903101444244384766e-01
2.969628675503530602e-01,5.523269979717539968e-01,6.628748220629976373e-03,-5.697187944291340041e-04,1.888319401033754013e-03,6.409320322873699599e-03,4.730544984340667725e-01
4.128198766598151770e-01,4.964587362694333206e-01,-9.390650804369737870e-03,1.090947788672364666e-02,1.328319447550554240e-03,-7.192485519775471126e-03,4.701998829841613770e-01
4.703758322203639430e-01,4.747136057142645749e-01,-3.466483414606447155e-02,2.088871037806172646e-03,-7.458825141469806446e-04,-4.054995565944568593e-03,5.072866082191467285e-01
4.445864546374695969e-01,4.694244469753585669e-01,-3.250373055858901683e-03,4.956155548262657778e-03,6.051161735879212814e-03,-3.988888647908351431e-03,4.610091149806976318e-01
4.872065421517138839e-01,4.791556469264822704e-01,7.891276512098449603e-02,4.541579066371578821e-03,3.263898871378768940e-03,9.427557748341386726e-03,4.047739803791046143e-01
2.744493303499434544e-01,8.079243700939481299e-01,-2.405390096059190075e-02,6.851259955494473641e-02,6.748245307695381612e-02,-6.838571218902283338e-03,7.488843202590942383e-01
4.228754312546357808e-01,4.550505284523801430e-01,-1.325904619599371781e-02,5.733695442377482326e-02,3.202686719440119185e-03,-4.964433791727017146e-03,4.639487862586975098e-01
4.865023843561012695e-01,4.916664820210494002e-01,-3.091565403938578704e-02,1.070662965879125998e-05,3.993753074220650519e-03,-4.018368239716961152e-03,5.201119184494018555e-01
4.832188057452080354e-01,4.956225385657093696e-01,-2.986519100736934051e-02,5.062709698041958960e-04,-7.454435930189953579e-05,1.480162201386067689e-03,5.194040536880493164e-01
2.624190934951282084e-01,5.979329222074694083e-01,-7.073181413241258486e-03,-4.333155885034085941e-02,-2.181530086086818157e-02,3.531075144913267856e-03,5.317066907882690430e-01
4.800428157691481457e-01,4.106048112112704596e-01,-1.836329968333272333e-04,2.029420062786124052e-02,6.870585387030519846e-03,-4.572383320324394410e-05,4.510768055915832520e-01
4.739528461684417993e-01,4.568621716738989758e-01,-2.387735921138317563e-02,-1.196884754160131153e-01,-5.741400143007460016e-02,-2.971118640495853946e-02,5.432606339454650879e-01
4.561354881533974392e-01,4.629792745185946634e-01,-2.408389465007537700e-02,-3.557918583710493760e-03,-1.737386992646285967e-03,-1.132733972546029304e-02,4.841239154338836670e-01
4.982305825650665265e-01,4.725314948981735874e-01,-3.008368797326305133e-02,-1.099189977652141256e-02,-1.947720633269648186e-02,-2.590469205494049312e-02,5.193389058113098145e-01
4.000433303252895478e-01,6.708064118062994075e-01,3.284445815188780093e-02,-8.076619096259177177e-02,-1.020108615438647393e-01,-3.003608339852457607e-02,6.008878946304321289e-01
4.855039563477397957e-01,4.872495496837931928e-01,-2.691650011903434780e-02,1.370518315887835461e-03,-4.573343190506185159e-03,-4.862414961636035357e-03,5.134311914443969727e-01
5.122113481612415864e-01,3.953192894391631684e-01,-1.792726707489988858e-02,3.940264926613415084e-03,-1.414575072008611781e-02,-1.408912454314558381e-02,4.837190210819244385e-01
4.413038740449261033e-01,5.127846657056488455e-01,-3.129056128762186528e-02,-6.528230766796058282e-05,-1.299868755135434421e-02,-8.205081014646172649e-03,5.127819180488586426e-01
5.271305758705381317e-01,5.913585423451405143e-01,5.506469120977874887e-02,-1.150167096019393161e-02,1.557479885464051195e-02,-2.557204963018324187e-02,5.102721452713012695e-01
4.901596986329903594e-01,4.976980067128499718e-01,-1.058321138106416148e-02,-4.483923828085058000e-04,-5.663181722251004434e-03,1.084393057510488481e-05,5.046502351760864258e-01
4.892328974960367116e-01,4.889210258778597940e-01,-4.430095586430793375e-02,3.083975350595025752e-03,1.561766568724409386e-03,1.393492215680791884e-03,5.334170460700988770e-01
4.841578323169518638e-01,4.840735111520100276e-01,-4.375128256496957357e-02,1.527104826898468258e-04,1.546078788654920442e-03,9.784355148830963834e-04,5.278765559196472168e-01
4.475627358048978044e-01,3.908313526394409654e-01,8.743664120137772944e-03,-2.623018691884685533e-02,4.569882427487835866e-03,9.835382241224100851e-05,4.159477949142456055e-01
6.242675472404092263e-01,4.836269914681875504e-01,2.570499552312699443e-02,8.175860595447714818e-02,9.574144879029571065e-02,4.036662635793326903e-02,5.884860157966613770e-01
5.005927716843747710e-01,4.859498457703926855e-01,3.818078177775230397e-02,7.738063932127593747e-03,-1.358332032911400977e-02,1.044302985655778948e-02,4.564301967620849609e-01
4.991060075998283718e-01,4.881767259507600043e-01,4.909052284101228514e-02,5.774480738097488748e-03,-1.239932860762438249e-02,3.237047158365359513e-04,4.452826380729675293e-01
4.748947397228214795e-01,4.738419363919440519e-01,-3.817857989052220180e-02,-8.185503289661744250e-04,-1.764793970254209619e-03,-6.666458203353464165e-04,5.125601291656494141e-01
4.901884194394954264e-01,4.917733173324553286e-01,-1.874788575435282212e-02,4.601484434153275266e-03,3.847833392795769157e-03,-1.718304737055272426e-03,5.098451375961303711e-01
1.437801717351140929e-01,5.626813788913809233e-01,-1.668251665958150887e-02,-1.511944883120639738e-01,2.647536463973388168e-02,3.185479490514523532e-02,5.849537253379821777e-01
3.045865448264118425e-01,5.381020265733748031e-01,2.075984858480833806e-02,5.846619409399794742e-02,4.436323149819662581e-02,-2.155112905379941417e-03,4.664098024368286133e-01
4.511583826885684489e-01,4.321582939960832981e-01,-3.954913039227569982e-02,-7.016931388090971722e-02,4.584450558608435533e-02,4.748125862161358540e-02,5.095793604850769043e-01
3.716338077332647649e-01,7.402665682116322809e-01,2.426711247928980963e-02,-1.301913541111075073e-02,9.303466548883423948e-02,5.890005499215725943e-02,6.492202877998352051e-01
4.644468740728341372e-01,4.617457496195383482e-01,-3.105353642259273128e-02,-1.607983342532320328e-03,-4.789148760702305850e-03,-3.548596905718979198e-03,4.942710697650909424e-01
4.782724207282361695e-01,5.053053961209700295e-01,-1.281171815671150460e-02,1.432511398458667998e-03,7.199001912834274326e-03,6.186382364484348771e-03,5.054169893264770508e-01
4.369595475396707562e-01,5.087955652027004172e-01,-2.604625100376362079e-02,-2.764872199555792193e-02,6.184354181714291077e-02,2.938423772957012708e-02,5.187993645668029785e-01
5.218053545775915847e-01,5.493477476645306501e-01,-2.877220958062992606e-02,2.354260202977473751e-03,2.739377398671460906e-02,1.572537071944018344e-02,5.675105452537536621e-01
4.654093154955093459e-01,4.707959626950931620e-01,-3.548526800270496162e-02,-1.036556343974165016e-03,-4.593866489099234472e-03,-1.302308542668340237e-03,5.036806464195251465e-01
4.655569084358229803e-01,4.630219393645221837e-01,-3.110509369768410526e-02,-2.046158003891097854e-04,-3.809692555939916004e-03,-2.938064180735847075e-03,4.954695999622344971e-01
5.557989565901513274e-01,4.596712543853733735e-01,-3.625450748731828821e-03,2.942104318093517051e-02,-9.705112793210249333e-03,-4.514609203202107207e-02,5.267009735107421875e-01
4.998620771424211462e-01,4.807947910007837056e-01,-2.646001048353446850e-02,-2.263212609548195245e-04,-1.667594223165255277e-05,-4.907611732418775026e-03,5.171222090721130371e-01
4.946806335406361832e-01,4.870091762864059426e-01,-3.264450838388577303e-02,-1.100445591571611167e-03,1.480346879787513246e-03,-9.536097977216007006e-04,5.235438942909240723e-01
4.822746832487728175e-01,4.766751724663792489e-01,-2.941876842347390664e-02,-1.706204142350587771e-09,-1.074009544271926827e-04,-2.803957106748224994e-03,5.089399814605712891e-01
4.137096906131395024e-01,5.458987863960657050e-01,-2.073952800195166812e-02,1.770681639276737718e-01,5.922351513382873717e-02,9.378231583098852950e-03,6.070379614830017090e-01
5.131845687599922989e-01,4.853004192793243798e-01,5.454817666929084874e-02,9.713246035213124116e-03,1.733872688594797692e-02,9.456007232867466843e-04,4.466808736324310303e-01
4.749267805122484587e-01,4.704999638064079059e-01,-3.466418192265735554e-02,-3.286057807890466979e-03,1.491739057324474604e-04,-1.371952324402999105e-03,5.074295997619628906e-01
4.777759891207817855e-01,4.598477835531353808e-01,-6.274584279477468662e-03,2.095464133367124296e-02,1.698614760496381867e-02,-1.721020066074719149e-02,4.785600006580352783e-01
4.651518341008417101e-01,5.048953080525437898e-01,-3.093759955351738089e-02,-1.212530988534346902e-03,-9.051479366425014758e-03,-4.497989974906993656e-04,5.173503756523132324e-01
4.571899675664164997e-01,5.126784604972958181e-01,-3.347964009073317593e-02,-1.388211513596379057e-03,1.449198034843641493e-03,-2.996751908549431624e-03,5.206737518310546875e-01
4.574368540645173953e-01,5.023407485209551160e-01,-3.328921566067333249e-02,-3.192550657594798221e-03,1.346382263304659894e-03,1.639023135150150488e-03,5.146921873092651367e-01
2.633225289221544085e-01,7.899266371884432480e-01,-2.053823469219345776e-02,1.372424508803777865e-01,-4.318567022665861094e-02,5.347100487003747689e-03,7.546908855438232422e-01
5.128827585071706885e-01,4.656280780922202878e-01,-2.190804551084107876e-02,7.195721841357657911e-02,1.182327907812006501e-02,-2.155511261019302238e-02,5.294427275657653809e-01
3.121164202039636848e-01,5.600192366265852595e-01,-8.204683511730537226e-03,-6.003231370651672394e-02,1.180332235065657299e-02,2.783424948479792937e-02,5.069751143455505371e-01
4.781287452568113716e-01,4.983671179482760394e-01,-3.459013795191462348e-02,-1.115700353552213833e-03,-4.321590279701638306e-04,4.722887301771293333e-04,5.231364965438842773e-01
5.588919744512654830e-01,3.464910150553779933e-01,-9.445384520610611290e-03,1.415892502975580995e-02,7.176003788238444377e-03,-1.377687756524163115e-02,4.987298250198364258e-01
4.698298256353731772e-01,5.019697328707610762e-01,-3.282989491563981233e-02,-5.905027788038793565e-05,-5.338587554603770567e-03,-1.710528464389356402e-03,5.195666551589965820e-01
4.410571247903202763e-01,5.130710574176369221e-01,-2.964707516006465093e-02,-2.529594215918105470e-03,-8.913464478948042100e-03,4.240130411767809027e-03,5.108397006988525391e-01
4.823203311006173943e-01,4.810049167275075033e-01,-3.039092992374231583e-02,2.994473459769528105e-04,-1.310237139219789842e-04,-6.035334738208220952e-03,5.121618509292602539e-01
5.003365043559320213e-01,4.629602581802169103e-01,-2.688131875831323292e-02,1.384065505151965692e-03,-1.238209325720993949e-04,-8.187810631442742071e-03,5.097618103027343750e-01
5.543422158054278626e-01,3.136802515693573601e-01,1.741271948058287222e-03,1.395299522237830256e-02,7.221758634768788744e-03,-9.001352049346120730e-04,4.806650578975677490e-01
4.831796820965040817e-01,4.974478798083870057e-01,-8.102390239515644410e-03,6.132234873352077585e-04,1.100943376692927345e-03,2.313150343193265835e-03,4.985902011394500732e-01
4.815841313547762903e-01,4.736482845870518821e-01,-2.571271838711874924e-02,1.897914396915171198e-03,4.211586181043305149e-03,-4.108482397605102594e-03,5.034897327423095703e-01
5.314409612657935433e-01,3.746174153728858425e-01,-1.162738207441937899e-02,7.727971848966602025e-03,1.296653325986748227e-02,4.060499900975287724e-04,4.848040938377380371e-01
5.233496928036195373e-01,4.183048061275472240e-01,-2.077500184058461707e-02,1.366016717432963663e-02,1.081176989172784840e-02,-1.291702524167643445e-02,5.013577938079833984e-01
4.933341062030018875e-01,4.916504946999728509e-01,-3.266802689808950833e-02,-1.952236174311410780e-03,-3.112575280018217401e-04,-1.434431904875032443e-03,5.251793861389160156e-01
4.873086003468661276e-01,4.559898713947114768e-01,-2.020858360987870528e-02,1.570931040716576008e-02,3.879228364923454492e-03,-1.099374159985728322e-02,4.937690198421478271e-01
4.869558751506344318e-01,4.861400733891699799e-01,-3.148374158801670042e-02,9.211671419514212917e-04,2.532506792258591103e-03,-4.459614446996103092e-03,5.181108117103576660e-01
4.802729015027041859e-01,4.737915352397278901e-01,-2.602715308118458415e-02,1.165286711210361623e-03,4.806529600043791053e-03,-3.630288024127438073e-03,5.032029151916503906e-01
4.697893627388995963e-01,5.052297757245510779e-01,-3.353687240783609358e-02,-4.095960877692570584e-04,-5.425314333613412594e-03,-1.496140197996530816e-03,5.220411419868469238e-01
4.540432155508523082e-01,4.816031078920031128e-01,-1.987928329629023994e-02,7.263512293853079636e-03,-4.209967164120800832e-04,-6.882263047763881834e-03,4.885941445827484131e-01
4.778730085587689080e-01,4.716660473177141100e-01,-2.273039041906116386e-02,4.848444608891302327e-03,3.224310283246371867e-03,-4.113339864985521288e-03,4.976821541786193848e-01
4.889565045643275432e-01,4.956234648626620665e-01,1.001750280886715139e-02,2.476637058279578928e-04,4.844659071485370866e-03,-1.999210597170912942e-03,4.823926389217376709e-01
4.919460444251059772e-01,4.870834876369913857e-01,-3.307821914672265384e-02,-1.483024553906710534e-03,5.701167711784978654e-04,-1.131970509183432335e-03,5.226208567619323730e-01
4.816173563157895021e-01,4.696714463101488990e-01,-2.393335667315482640e-02,1.931783682563515108e-03,4.490819212477889510e-03,-6.880909842060655736e-03,4.998987019062042236e-01
4.868406616991637348e-01,4.854610524932837512e-01,-3.175943009134607475e-02,4.670850136200229200e-04,2.939320405831909785e-03,-4.012518698577071698e-03,5.179839730262756348e-01
4.926856914921962094e-01,4.887526880301442112e-01,-3.193209427263660194e-02,-5.442020590565676110e-04,-6.035190548341127885e-04,-1.166909236939602532e-03,5.226681828498840332e-01
4.943886716180520002e-01,4.912652238188657261e-01,-3.676495959033859728e-02,3.330634661237095312e-03,3.359515300025353070e-03,2.781033498849944888e-03,5.296841263771057129e-01
4.796140900736935997e-01,5.129663773262992388e-01,1.789321633324569838e-02,7.463753687134509068e-03,-1.504035872452392023e-02,-1.234781414409062174e-02,4.806257784366607666e-01
5.865701154837618114e-01,4.100062046546558148e-01,-2.742774400122927059e-02,-6.129778873624433522e-02,-1.650210100811589850e-02,-4.448982455727402974e-02,5.637247562408447266e-01
4.717189402329039494e-01,4.895566209916285549e-01,4.286928625448616081e-02,-1.034890262450355140e-02,-3.012500924198548841e-03,-7.082745940388244371e-03,4.386101961135864258e-01
4.972066190272097508e-01,4.918385134753237020e-01,-2.090431001366538366e-02,7.210133885806121676e-03,4.852232080942766104e-03,-6.444771981155194597e-03,5.157883763313293457e-01
5.815947786553929966e-01,3.811947297658936362e-01,3.693997821786176861e-02,-1.652692615604734253e-02,-5.101477248383555485e-02,-9.665773710478187120e-02,5.141159892082214355e-01
4.943623455185471305e-01,4.922579487971188716e-01,-3.670922133081738759e-02,2.852511154508326988e-03,3.519003984322877261e-03,2.609977774480427143e-03,5.300998687744140625e-01
4.957541947036587793e-01,4.958487359322610311e-01,-2.932794172228858631e-02,3.230819975488075525e-03,-3.554643199362628094e-03,2.781095952849062160e-03,5.252174139022827148e-01
4.943249616082899256e-01,4.844224494337796560e-01,-4.032041032543748349e-02,2.836621190559151032e-03,2.620073176654949890e-03,-2.178053010608271801e-04,5.298058986663818359e-01
4.720944937909692385e-01,5.066220297271269990e-01,-5.540745866785767859e-03,2.833943754304054773e-03,-6.305541941187128244e-04,9.960264821157888138e-03,4.961270391941070557e-01
4.384702999563762638e-01,5.249895088066982574e-01,-2.792793419378752917e-02,-1.173734488846517321e-02,3.488527209365819767e-03,-3.901362106349646336e-03,5.156168937683105469e-01
4.842391480552810656e-01,4.970988361365933361e-01,-1.490897552246156499e-02,-5.202446994359714904e-04,1.444583031558682035e-03,-4.124032635692762017e-04,5.057080984115600586e-01
4.916330537754879382e-01,4.927646166242088954e-01,-7.824846135457530494e-03,-1.857654049960236718e-03,-4.423596735175505668e-03,9.919146492002616812e-04,5.000966191291809082e-01
4.988198693884765555e-01,5.690058926408605444e-01,1.567641255874308026e-02,1.265777748999134984e-02,-3.140370703924966894e-02,-2.494037388841639172e-03,5.250918865203857422e-01
3.817655747333509875e-01,6.940524101643065213e-01,5.951664408057144584e-02,3.349372252775107556e-02,-9.472232992762452675e-02,-4.512294723061569673e-02,5.817149281501770020e-01
4.757659463962199964e-01,4.248093786459909982e-01,-1.063872348821137681e-02,-6.162007995617368658e-03,-1.194640444687943698e-02,-1.087811604335147623e-03,4.636228680610656738e-01
5.089843216712437446e-01,3.162853689425282888e-01,5.112132254999846026e-03,-9.631272373873049630e-02,-2.794590320578560667e-03,-2.496368237617560895e-02,4.729120731353759766e-01
4.965378595681911311e-01,4.930514440501947981e-01,-2.100995774484187839e-02,-2.683336625219346922e-03,2.575115301676651324e-03,-2.789702725670399446e-03,5.158762931823730469e-01
4.671739507226740917e-01,5.155107680874100318e-01,-3.372289497254660207e-02,1.558147215917103125e-02,2.705363933388094805e-03,-3.612755535816261632e-03,5.274801850318908691e-01
1.884204258646786645e-01,6.920774039143525735e-01,-1.284518621853618092e-01,-1.129028783898786831e-01,1.486422756941419357e-02,4.175481924947326007e-02,7.468652725219726562e-01
3.089503712368115163e-01,7.715307481021853597e-01,-3.072535002242970936e-02,7.268227840768567982e-02,4.506561601246714122e-02,1.973283670895888131e-02,7.138603329658508301e-01
3.453315054871308187e-01,5.538555120969728129e-01,-5.666003408385633655e-03,3.885973077359335982e-04,-7.235706610198542905e-04,2.265392998207386727e-03,4.897859990596771240e-01
4.128779475130787135e-01,5.357411375956625532e-01,-7.703380785872626646e-03,1.047628538247127733e-01,-8.045943419892708068e-05,8.530689006149807380e-03,5.261198282241821289e-01
3.523188284618913313e-01,5.326176717316554177e-01,5.723446451410041380e-03,7.513779532952953415e-03,-2.762291037700366318e-03,5.831261483689333287e-03,4.641347229480743408e-01
4.097011488569153315e-01,5.141251719954548216e-01,-8.837605263499914710e-03,9.375139075335979857e-03,-1.524689435103316303e-03,-7.527011255319866062e-03,4.798178672790527344e-01
5.179876930420270753e-01,3.987096468739762534e-01,-8.859820655768291253e-03,-3.345043904628619558e-02,-2.535995674577710968e-02,-3.726277450888643844e-02,4.882683157920837402e-01
4.761586770701822791e-01,4.785709517224752130e-01,-4.154852355034727163e-02,-3.312455901925456911e-04,-8.094759826439933397e-04,-2.868737544166775118e-03,5.189435482025146484e-01
4.772301117651855940e-01,4.813089392489975360e-01,-4.230770353164869935e-02,-4.831923231552978545e-05,-4.628266821573539364e-04,-1.622391204106311650e-03,5.215973854064941406e-01
4.757348025681009118e-01,4.785524182985884112e-01,-4.094587850066888635e-02,1.027943285618273302e-03,-3.872089848337655874e-04,-1.765819031377785855e-03,5.181077718734741211e-01
4.804940414599161991e-01,4.776927522193290532e-01,-4.136837652201053039e-02,-2.309531949026846992e-04,-2.129169706477345141e-03,-1.121253241792153580e-03,5.204842686653137207e-01
5.063483691268384490e-01,4.524177919916948509e-01,-2.981081422220849264e-02,-2.849341452371980180e-03,-5.059853147368788620e-03,-1.560523153390860418e-03,5.114374756813049316e-01
4.783002106383686947e-01,4.753261055046764105e-01,-4.075805668155896289e-02,4.379202079430072634e-05,-1.531791817369103402e-03,-3.004027236816865314e-04,5.175846815109252930e-01
4.820758772163595829e-01,4.683746213864986574e-01,-3.623117472246828452e-02,-5.296108907021305611e-04,-7.724868536063291165e-03,-5.982013732034835527e-04,5.117708444595336914e-01
4.584915294473447256e-01,4.615006283490077355e-01,-2.930391245706776004e-02,-6.468900418544387167e-03,-6.579197491032935836e-03,-2.951027940009459324e-03,4.895945191383361816e-01
4.724287113005527505e-01,4.592143994778857818e-01,-3.181852516312794199e-02,-2.252183987085594735e-03,-8.676159918257205644e-03,-3.967171555765321156e-03,4.980611205101013184e-01
4.971285777707210030e-01,4.386430197477469983e-01,-2.154430938999757350e-02,-6.141109833635156889e-02,-2.483139000379038647e-02,-4.058089240415833909e-02,5.101092457771301270e-01
4.807869434191684443e-01,4.752557818492043062e-01,-4.088540887095187815e-02,3.393822418972175861e-04,-2.608848996178522034e-03,-2.740610563284084943e-04,5.189490914344787598e-01
5.021867521818474955e-01,4.959549554702040175e-01,2.210585504393292045e-02,1.212249847066102990e-02,4.020219668253751169e-03,5.104474869096097510e-03,4.775900542736053467e-01
4.989176214243216112e-01,4.765058234706876505e-01,-3.069493110646426270e-02,9.876244737336498450e-05,2.742475413807338950e-03,-3.744455134102128539e-03,5.188322067260742188e-01
5.980917668606893223e-01,3.427870957849276090e-01,3.119548579746683759e-02,7.364563708485261095e-03,-8.249734829104788184e-03,-7.905778639367211369e-02,5.108208060264587402e-01
4.901960738754543301e-01,4.814371351008747690e-01,-3.743742342341743745e-02,5.258905107475420190e-04,-7.551529971048295993e-03,-9.541073942214197898e-03,5.237340331077575684e-01
4.964598450843963340e-01,4.787648590438803309e-01,-3.181316944313972161e-02,5.029457320918753792e-04,-2.425843522516121092e-03,8.502397393938303715e-04,5.196713209152221680e-01
4.947645113900066560e-01,4.891928481948792928e-01,-1.981137433378393764e-02,3.715976737496010616e-03,-2.617540398842189107e-03,-5.290712889694678539e-03,5.119553804397583008e-01
4.868271800477505518e-01,4.656939758684455755e-01,-3.501803337139858252e-02,-9.929091142385588695e-04,-7.105302923246764601e-03,-8.388129342675190118e-04,5.117590427398681641e-01
8.296479996958620040e-01,1.489088662399554452e-01,-1.137264084663427988e-01,4.852668062191115711e-02,7.317912227938920544e-03,-2.007466115641877089e-02,8.482943773269653320e-01
4.686740802677138995e-01,4.730674106192364059e-01,-2.084609852249652562e-02,4.679756394049329818e-03,-4.691484812100931746e-03,8.166782457476606544e-04,4.918675124645233154e-01
4.818619463273724479e-01,4.999964906932233832e-01,2.462466074808394856e-02,5.484740014288699015e-04,3.322520602712894598e-03,4.717693196797646121e-03,4.666769504547119141e-01
4.961824707700801529e-01,4.983397394083426413e-01,5.516559728966069498e-02,1.264466082769809133e-03,3.138529403483885337e-03,-1.588227432220700244e-02,4.429932534694671631e-01
5.184148865943681850e-01,5.036395880374715528e-01,3.366260132053072729e-02,8.065205728829923700e-04,5.605895193698552485e-03,-2.326283638134094695e-02,4.793333113193511963e-01
4.903011358284278254e-01,4.969946540543404567e-01,-1.404645726639902614e-02,-1.907562926213334778e-03,-4.485452009129606808e-03,2.972605506086884331e-03,5.078237056732177734e-01
4.873375152593125703e-01,4.945780689847834588e-01,-3.138956664142295017e-02,-1.111630246411108918e-03,-1.762796061506745077e-03,1.514830812682759409e-03,5.224040746688842773e-01
4.858890483809644723e-01,4.921841047829011995e-01,7.518958394159502845e-02,2.481223120578394340e-03,-6.029596993864667345e-04,3.682455812949320985e-03,4.139556586742401123e-01
5.035432894823963501e-01,5.135594625197766883e-01,1.033210493666574803e-01,-1.211138775184683429e-02,-3.656976169971447223e-03,-1.713597002653534720e-02,4.069987237453460693e-01
5.051395966332741239e-01,4.965874401100729973e-01,-1.603890795586859763e-02,8.153853197253941448e-03,3.239228217535740969e-03,2.707057473283971168e-03,5.172000527381896973e-01
4.951827359928004935e-01,4.888160021212512030e-01,-3.312326798416459495e-02,-5.560093560841198950e-05,-2.832246243062502486e-03,-5.569898880117364398e-04,5.251753926277160645e-01
4.906899008912353199e-01,4.974433479755250298e-01,-2.789153890559165072e-02,-9.217444373140178462e-04,6.820175852692305805e-04,-3.375382809426838611e-03,5.220274329185485840e-01
2.094147871636620750e-01,7.250849421359079061e-01,-2.358455996681690925e-02,-6.620266616901221424e-02,4.980267052451935184e-02,8.906034047419511199e-03,6.791041493415832520e-01
4.423001187758218711e-01,3.725624377714477076e-01,-1.179567421109949110e-01,-2.818452287760974118e-01,1.212921042053520353e-02,1.097030278096738226e-02,7.202726602554321289e-01
3.906304216066354140e-01,4.800858075349760390e-01,-7.683365465793179361e-04,-9.751092949233529719e-03,7.539718451887463153e-03,1.500697897313706120e-02,4.442290067672729492e-01
4.203107657956369758e-01,4.506372854831597330e-01,1.704801883606610335e-03,-6.931851502821350687e-03,-1.455030062821540239e-03,-3.335399514884661992e-03,4.347751140594482422e-01
4.317139581853541297e-01,4.520128513540807025e-01,-9.264900878727777567e-03,-4.920675386116690059e-03,-1.523398631769998322e-03,-8.055736836356568176e-03,4.517743587493896484e-01
4.611997163128137567e-01,4.443474523857049441e-01,-2.282740695441776158e-02,-3.723933624210324506e-02,-2.903455879353777566e-02,-2.949344938967984539e-02,4.854978919029235840e-01
5.427863720453430796e-01,4.648775746317043156e-01,4.912298969694917083e-02,-5.666090618259227163e-02,-4.443759781428060357e-02,-3.319111226381882968e-02,4.797635078430175781e-01
1.734652491168743593e-01,5.373716542672509755e-01,-2.570786954001633151e-02,-1.817207199098496984e-01,3.424046473272117364e-02,2.555882588653125495e-02,5.908658504486083984e-01
4.195063219996492121e-01,4.576682218259520152e-01,-3.798618840958500886e-03,-2.920615465456642690e-02,-8.000124768154202523e-03,-1.131742522945753185e-02,4.471384286880493164e-01
4.249952210190795499e-01,4.209313927935455779e-01,6.566859555862114561e-04,-3.002999462825700280e-02,-6.290409298294937640e-03,-5.804068137832837926e-03,4.257704019546508789e-01
3.851097549855588276e-01,4.845858174568092869e-01,-6.692455113671003097e-03,-1.443913132755030720e-02,-8.276979764950889371e-03,-1.476960454539721218e-02,4.515139162540435791e-01
4.551471728181354370e-01,4.902980651604276763e-01,-3.033629738844834112e-02,-2.519308351912150079e-02,-1.861852009685104406e-02,-1.721144371964029168e-02,5.077673792839050293e-01
2.989025124508123410e-01,5.050558756164003071e-01,-3.434553570357135044e-02,-2.571622817006822270e-01,-3.000115249698368652e-02,-3.141057024299671180e-02,6.529250144958496094e-01
4.568210101625052033e-01,4.270915309978887131e-01,4.871754869975042368e-03,-4.836627835912057916e-03,3.108541384808291390e-03,6.002066806231802585e-04,4.379566311836242676e-01
4.750812216611859373e-01,3.788026902852166811e-01,8.941983695518296305e-03,-1.350550297751077454e-02,1.099330853339467763e-02,4.118701677664113846e-03,4.273602664470672607e-01
4.864347918429196005e-01,3.934813947717396010e-01,-2.254222822223772571e-02,-4.834294486221539511e-02,-2.188555222172471060e-02,-2.697066542595501562e-02,4.806423783302307129e-01
5.115705402219479225e-01,3.480226144866945259e-01,3.945910366242755263e-03,-1.368872366324339236e-02,1.757630768277420805e-02,1.529994143804451652e-02,4.512215852737426758e-01
5.860128845582577295e-01,3.816198428584585134e-01,4.235548299491970203e-02,-3.209569024614439964e-02,-1.078758648133981354e-02,-9.737168475249183275e-02,5.080386996269226074e-01
5.864836609926921129e-01,2.240060704313824314e-01,4.161797572589942540e-04,8.181064125350663574e-02,3.726078790058176288e-03,-8.118583619147512476e-02,5.498388409614562988e-01
8.081956647181089970e-01,1.581919129962903181e-01,-3.954859210571409767e-02,4.295191078400104057e-02,1.685479354431445448e-02,3.491834915111960251e-03,7.723740339279174805e-01
6.239445313140858929e-01,3.054439443481860583e-01,-1.754601312219156162e-02,9.525736368125503617e-02,1.703698448731928716e-02,5.914888132073153719e-03,5.803750753402709961e-01
5.179133010765167855e-01,3.471063754901104192e-01,-9.191499640787692549e-03,5.965765307742493945e-02,7.778819652688271670e-03,2.818625053571776479e-02,4.798159599304199219e-01
3.586488371221512317e-01,5.430483304883602091e-01,-5.269904654815638079e-03,7.011613632866593726e-02,-9.503807771460721227e-03,-8.524513505421276935e-03,4.987827539443969727e-01
6.314402833602891230e-01,3.438797426609377927e-01,-2.778150852257044168e-02,2.191077224067855198e-02,-7.753455334633290504e-04,-2.527416090765979839e-02,5.753752589225769043e-01
5.895576274982251563e-01,2.687539364475498571e-01,-1.863738177983254030e-02,-7.768387604432451521e-02,-1.184400997204538251e-02,-4.709115114944620317e-02,5.503479838371276855e-01
5.106358977129318300e-01,3.988825384574343769e-01,-2.402249758871877194e-03,1.191487134841676676e-01,-1.418867006065998790e-02,9.887465303726578059e-02,5.393375754356384277e-01
5.665925074123034921e-01,2.810493563680841467e-01,-1.025987155065610779e-02,-2.477339377569004464e-02,1.382610643123954701e-02,1.105858455814638826e-02,5.023533105850219727e-01
4.782766264525095679e-01,4.204367659824457260e-01,-3.774736431471914511e-03,2.266711038654140031e-02,5.408675680313765333e-03,4.212148458445093280e-03,4.577330648899078369e-01
2.109040765671959528e-01,6.533499485274929519e-01,-8.499533137602188759e-02,-1.760746366058902057e-01,-5.078102276677960714e-02,-3.397067899961467990e-02,7.200272679328918457e-01
3.416895782079839572e-01,5.787026724425423652e-01,-2.626235321865050265e-02,-2.414037458226233474e-02,7.189745336414121724e-02,2.097939061471980338e-02,5.452978014945983887e-01
3.750930375999897426e-01,4.910267879728733020e-01,-8.589454915591265838e-03,-1.874038335635208954e-02,-1.716166318436702920e-02,-1.509666962759033913e-02,4.558020830154418945e-01
4.777855410946937886e-01,4.838996975777419274e-01,-4.131302305682460485e-02,-5.004665664128978963e-04,3.668807323857668605e-03,5.905616518089610092e-03,5.223220586776733398e-01
3.711365230814965832e-01,5.234678232022988986e-01,-1.403020878068905741e-02,-1.038840879415306798e-02,1.242961062490080765e-04,-2.641681756426511596e-03,4.801832139492034912e-01
3.272162708017283816e-01,5.238028537064366441e-01,3.427071693515026940e-03,-2.751049795435052056e-02,-1.737536618701996998e-03,-5.783050039796970056e-03,4.577316045761108398e-01
3.695941483708560238e-01,4.881304050898441771e-01,3.954251176680689817e-03,-2.250440283342522788e-02,-7.509969680709844631e-04,-5.444019724392971417e-03,4.389702975749969482e-01
2.906031372161186344e-01,4.410740099078208076e-01,-1.050501104719205603e-01,-2.678200089908967518e-01,-2.184337551674384037e-02,5.411446599445266306e-03,6.748475432395935059e-01
5.236642977220464790e-01,4.835657163367403366e-01,-2.498390924100790667e-02,-4.110051183193357688e-02,-1.808738387898414443e-02,-2.776805756062485434e-02,5.375733971595764160e-01
3.378040912207060376e-01,5.101459857671273301e-01,1.114654825822714024e-02,-1.880336866919799649e-02,-1.461529563153533828e-03,5.019264514834064980e-03,4.402798414230346680e-01
5.383636005687943982e-01,3.168858830617482525e-01,5.340795431305611629e-03,5.718043004661579193e-03,9.313375272493477908e-03,1.809189173146029395e-02,4.652453958988189697e-01
4.498649958668325954e-01,4.522856675068388510e-01,7.787965906809746208e-04,1.902990783086849769e-02,9.287963590709563070e-04,5.828389000393955710e-04,4.515101015567779541e-01
4.555818682335707748e-01,4.577130867448453433e-01,-5.049626914678750911e-03,1.839527258296212199e-03,-3.837076948919458663e-03,2.418794625031422171e-03,4.617786109447479248e-01
5.377710206476816746e-01,2.975904898998419368e-01,-2.945322550071421963e-02,1.678261131364760517e-01,6.588345767121409589e-03,-4.423262970166425348e-03,5.726076960563659668e-01
5.577596946673262224e-01,3.689732923781686713e-01,-1.493693685568975305e-02,1.040537648427054124e-01,4.710530382609870968e-03,5.476076052504284634e-03,5.367890596389770508e-01
4.518172272008314505e-01,4.689123789122685571e-01,-9.141431926709131517e-03,6.806443802579589288e-03,-8.380476773113960639e-04,5.380416539833745258e-03,4.699821472167968750e-01
4.469635710255280836e-01,4.605401174935784270e-01,-6.667923562616584476e-04,4.009359335815713445e-03,-6.117951670226812145e-04,1.009213924605000976e-04,4.546250402927398682e-01
4.602068520465033563e-01,4.528422823311656353e-01,-5.073636710888174139e-03,6.042395919751015684e-03,-4.621798898226036831e-03,2.781318025848774581e-03,4.618553817272186279e-01
5.563527206829896876e-01,2.567334195894449556e-01,-1.173386691677377192e-01,1.524347107389669165e-01,4.315088845691104208e-02,5.333080983007451592e-02,6.523867249488830566e-01
4.867106480860833861e-01,4.875897882344197853e-01,-3.598362382608655263e-02,1.119739226442414970e-03,-4.734221243864456669e-03,-4.776266383452740412e-03,5.232676267623901367e-01
4.535850656233969547e-01,7.089930797999500767e-01,6.453945686460066389e-02,-3.073204952071830962e-02,-9.483223482417271755e-02,-5.463509272124383170e-02,5.955861806869506836e-01
4.853861639854744059e-01,4.914000168288660264e-01,-2.217408342154059131e-02,1.508073753907742407e-03,-6.883058431559611889e-03,-6.060109685125547596e-03,5.108474493026733398e-01
4.793943424844060441e-01,4.927766364123390419e-01,-3.860732001427258364e-02,1.016748387616468480e-03,-1.701144418861770709e-03,-2.525697164299738236e-03,5.248502492904663086e-01
4.734697429540957181e-01,4.600846744349048612e-01,-3.315225274186683890e-02,-6.269493516354222949e-04,-8.878818248526912718e-03,-2.821579656216920487e-03,5.003253221511840820e-01
5.141616174341363532e-01,3.679618555908832356e-01,-1.343437783151990583e-02,-1.871952326507749301e-02,-1.017955144722109719e-02,-4.594280765143433161e-04,4.732443988323211670e-01
3.421272306767071392e-01,5.625230651463024589e-01,1.605368029133708019e-02,-1.367873946394935203e-01,-7.371184020041961216e-02,-2.250013599882431936e-02,5.483748316764831543e-01
4.799309387805292815e-01,4.360583975551590163e-01,-2.061889712032355382e-02,-2.532882789386114303e-02,-1.503883257334104329e-02,-1.180389988862694944e-02,4.832552969455718994e-01
4.867114884738863445e-01,4.981684455802002365e-01,-2.709686966500624017e-02,6.061082952949873063e-04,-6.179655662671602531e-03,-2.952809627114656894e-03,5.197679996490478516e-01
4.023643984120597317e-01,4.854725477827642743e-01,-2.686255375029478198e-03,-4.418930121835169811e-02,-1.162832985598681937e-02,-1.508085026636054454e-02,4.599804878234863281e-01
4.821614975584221918e-01,5.688228258088173783e-01,-6.701963000864785691e-03,-2.118195871471488870e-02,-2.868956936574033195e-02,-2.103172408580573916e-02,5.422227382659912109e-01
5.151100396373492485e-01,4.625221474722849280e-01,-2.827834429940545569e-02,2.138899168769234360e-03,-1.009306716699646363e-05,-7.639571185662418981e-03,5.192779302597045898e-01
6.198429218595792323e-01,5.478432443601564117e-01,8.176068249617862715e-02,-7.201581916955523965e-02,-9.351041447396694906e-02,-1.195976488994058146e-01,5.836753845214843750e-01
5.461325148321566347e-01,5.550764241725301140e-01,1.058868194353703718e-01,1.905610052964254106e-02,-2.428475427009040358e-02,-1.291095226368104906e-02,4.485448896884918213e-01
4.825977482008156905e-01,4.679037962376070281e-01,-3.275431630517372517e-02,-5.278395103532068297e-03,-1.079937828799459355e-02,-8.302991697974729246e-03,5.087940692901611328e-01
4.782108547302860724e-01,4.731073124725280188e-01,-3.973718297490796969e-02,1.184760155636166749e-04,-2.780402456811057257e-03,-1.968131363111568725e-03,5.154490470886230469e-01
3.762688039807204343e-01,5.075769891124740640e-01,-1.336263179792507305e-02,-2.039809147606650927e-02,-2.319604975421479589e-05,-8.089842784486335134e-03,4.708087444305419922e-01
4.667059468296333447e-01,5.067133011002726839e-01,-3.072680118698611906e-02,9.526144747313492400e-04,-9.247637714372826043e-03,-6.547030035713210508e-04,5.188462734222412109e-01
4.957598284585315040e-01,4.950659796823202452e-01,3.376849992548558443e-03,5.776248779566691034e-03,3.056909607118442774e-03,-4.253672912065880295e-03,4.922217428684234619e-01
5.341395958697645607e-01,3.881155936174828236e-01,1.375789123595039243e-02,-1.455981728890863025e-01,-8.818461996278326859e-03,-5.937814273411490262e-02,5.390166640281677246e-01
4.962269293370817902e-01,4.757010516780070808e-01,-3.087228497939370486e-02,-1.490826903724501483e-03,2.067322757099956856e-03,-4.085500209849414477e-03,5.172091126441955566e-01
5.278696794227278888e-01,4.994451829619694916e-01,7.084084677898888627e-02,2.474949217603696766e-02,-2.673820350583408501e-02,-1.501404601019700955e-02,4.487217068672180176e-01
4.952555857575711151e-01,4.955841141189268328e-01,-3.054807989784635858e-02,7.478342782164557967e-04,1.900356309046986100e-03,1.104431477189800326e-04,5.259799361228942871e-01
4.854488155826542917e-01,4.977793347446073380e-01,-3.132434125232619326e-02,8.745612229430927429e-04,3.713195866854210239e-03,2.740446413564678278e-03,5.231106877326965332e-01
4.945015636439704099e-01,4.850049264474819433e-01,2.228133445396118795e-02,-1.409151154279335164e-03,7.368486576227206188e-03,1.763772710481886254e-03,4.677347540855407715e-01
4.903989009836099977e-01,4.977303126864950356e-01,-3.374963838325201193e-02,1.992809179524476781e-03,-8.626989367078644446e-04,5.564416601000297252e-04,5.278667211532592773e-01
4.346870896748615820e-01,5.032063203425243270e-01,-2.319995904428717726e-02,7.969479269259341359e-02,2.882685786624419183e-02,-8.011529804920517264e-03,5.171738862991333008e-01
3.376059267495548633e-01,5.879876957268170834e-01,1.983962936440220037e-02,2.121091964006483269e-02,3.874012630277080121e-02,6.321835847725162244e-03,4.992007017135620117e-01
4.963313311986732312e-01,4.944455082515831768e-01,-3.055204156056540166e-02,7.146707313888363625e-04,2.016012851846913940e-03,-1.232732345748280579e-05,5.259560346603393555e-01
4.899300323397609014e-01,4.232352702063641448e-01,-2.096208153187800738e-02,-3.386735788110967205e-02,-2.530661809463363374e-02,-2.736277989961120177e-02,4.888696670532226562e-01
6.322672836027680709e-01,4.209311020983356189e-01,3.949220127579505801e-02,-1.130626515870663817e-01,-6.160902485221535219e-02,-1.007415333762924636e-01,5.924133062362670898e-01
5.310404801453356693e-01,4.918999521662835717e-01,3.985008484643531856e-02,1.356458278462882583e-02,-3.374746860639639499e-03,1.983085426028339225e-03,4.734685719013214111e-01
5.143605968164266518e-01,4.778963446075815136e-01,-2.595859597163130417e-04,1.006522998208982458e-02,-2.009747994647427885e-03,-2.411332739273140072e-03,4.977266490459442139e-01
5.919572190727480088e-01,4.552254013533217902e-01,-3.601752847954386993e-03,-1.379019861876376943e-02,3.423792855125494007e-03,-4.505170398060429765e-02,5.464877486228942871e-01
4.699499543423520942e-01,4.782344241028325116e-01,-3.265789401644036971e-02,-3.834763089901581552e-03,-8.034222460186557849e-03,-8.895977457980982356e-03,5.072694420814514160e-01
5.179966962953467258e-01,4.619423405467401045e-01,-3.219915906623277424e-02,-4.859356396396557511e-03,-2.347686028494009106e-03,-7.627569502974293134e-03,5.246700048446655273e-01
4.545221217220357102e-01,4.673520026090586255e-01,-1.029534156752553997e-02,5.901547139963293602e-03,-2.533439258426248392e-05,-5.448761267653175547e-03,4.715686440467834473e-01
7.118272270165952875e-01,1.514886106099409546e-01,-3.800233190230251079e-02,-1.438826627060597607e-01,-5.257847801794822765e-03,-3.192990531301271445e-02,7.220203876495361328e-01
4.728190954548318059e-01,4.680453319412560820e-01,-2.065113888577096990e-02,6.046804407765944515e-03,8.662145906264206259e-04,-4.922013821820756668e-03,4.912886917591094971e-01
5.148360431525986769e-01,4.311379615179002922e-01,-2.703992692032103351e-02,4.691661720664039477e-03,2.338698367313934642e-03,3.439039312535910418e-03,5.053700208663940430e-01
5.142780747966895216e-01,4.490492116919470034e-01,-2.777482179379558991e-02,4.146917187646984720e-03,2.054272330254496275e-03,-1.655737151133463564e-02,5.134251117706298828e-01
5.209016084173786476e-01,4.589999196150900129e-01,-2.343613968980556850e-02,2.762098297173208247e-02,8.665333869375025852e-03,-1.980869408993197328e-02,5.197414159774780273e-01
4.951330667330295920e-01,4.834276683028717603e-01,-2.976967262354718313e-02,-6.935604891026799813e-04,1.354662852394744165e-03,4.980039816303180556e-04,5.191564559936523438e-01
4.305225560080960800e-01,5.176091353618544888e-01,-2.238089506785173599e-02,5.848093322938607667e-03,-1.360107975846709368e-03,-9.947829008785961588e-03,5.025459527969360352e-01
4.005217712949113440e-01,5.068857202756354985e-01,-1.161197729103580212e-02,2.772250389262177067e-02,-1.256672632341239828e-03,-4.935652232200028744e-03,4.768512547016143799e-01
3.003676623340045815e-01,5.410106530697005311e-01,-7.546523426352647057e-03,5.536907975492123130e-02,5.136537416016771426e-03,1.494025978524544766e-03,4.859018921852111816e-01
5.099802319445384535e-01,4.517304469081169227e-01,-2.962037897681851772e-02,4.069424596037492931e-02,1.634003815500460061e-02,-3.689902048969418563e-02,5.224786400794982910e-01
4.866093566673898030e-01,4.889381641086367747e-01,-4.120392767852221194e-02,1.219082933795759272e-03,1.279057070769032672e-03,3.093128639309127015e-03,5.290175080299377441e-01
5.157431924011646185e-01,4.922181608801363684e-01,2.051050589572944727e-03,4.724163960915717629e-03,-6.656957386385921327e-04,-6.834147033472313948e-03,5.025503039360046387e-01
4.590046364310931271e-01,4.575445170700985775e-01,-1.056622179203065004e-02,7.936447798623151237e-03,5.941416337536758021e-04,-4.180738794563157272e-03,4.691010117530822754e-01
5.827190994493931520e-01,1.856977775332676606e-01,-9.646523281982455345e-03,8.306958133893881102e-02,2.831769344167675909e-02,-1.865513689663761757e-02,5.454288125038146973e-01
4.988695413704122839e-01,4.968253543870134736e-01,-2.282554554481736053e-02,-6.592439373494217989e-05,4.718316829842018195e-03,4.208337166523621643e-03,5.207911729812622070e-01
3.802291879918412443e-01,4.961991091051832226e-01,3.220250620334158542e-02,1.762289049239709193e-01,7.531197962405010438e-02,1.091330080744165425e-02,5.342986583709716797e-01
5.871537242574742521e-01,4.365310368797100660e-01,-1.597802390323954658e-02,3.319043873414412316e-02,1.515643958708014216e-02,-3.293288491290190939e-02,5.503248572349548340e-01
3.926223649723555864e-01,5.020042940074056492e-01,-1.505053523410365690e-02,3.660357072975203852e-02,1.012518154300335975e-02,-3.119657336259317338e-03,4.765604436397552490e-01
4.304732097556554504e-01,5.222344155881422090e-01,-2.660420551395326072e-02,1.154638897872202084e-03,-2.547930122726431781e-03,2.978958623039306211e-03,5.092464685440063477e-01
5.351906767475085314e-01,5.293585793591836230e-01,1.131462493952192783e-01,2.055036414722942462e-02,-2.332733036197743096e-02,-9.866924734227876855e-04,4.226067662239074707e-01
4.849232545563855190e-01,4.898050813739002196e-01,-4.329377044724697088e-02,9.945517979636046835e-04,1.250245056580929050e-03,1.773972690981926587e-03,5.306909084320068359e-01
4.940787809612473547e-01,4.875878488940248445e-01,8.660105127773742861e-02,4.918566827705506649e-03,7.644811601523360256e-03,-5.855966702010504191e-03,4.047049582004547119e-01
4.919590423988259298e-01,4.886187275170444932e-01,8.354778375411531233e-02,-1.885663645005093215e-04,7.627332505929871470e-03,3.053939354852137130e-03,4.070003628730773926e-01
5.695483620320430651e-01,5.481792930245157347e-01,7.001656594477362328e-02,2.622265360113483490e-02,-3.885474992501800062e-02,-5.288521390699109370e-03,4.959737658500671387e-01
5.754499606178454796e-01,5.908917913305116176e-01,4.878603140292520068e-02,6.816470101343601040e-02,1.260518523986495498e-01,5.291624062582336169e-02,5.964502096176147461e-01
4.965395935110912262e-01,4.989666658828539880e-01,3.379866985770552112e-02,1.338603263245725569e-04,5.420664949140931166e-03,-4.659640153672624588e-03,4.641244411468505859e-01
3.483814269209208891e-01,5.737384470834024919e-01,4.695940917536978176e-02,8.952966094495434790e-02,-6.675500257442032459e-02,3.757462968911021162e-02,5.012180209159851074e-01
4.477834403508003103e-01,5.135674255834369317e-01,-2.687272783316646541e-02,1.960031831426097340e-03,1.068091247251994405e-02,-4.647885528503814534e-03,5.111451745033264160e-01
4.756334768641343747e-01,5.140286966008227321e-01,-1.604777782448446599e-02,2.304356400979279754e-03,4.423787365053439072e-03,-9.759445739654211416e-03,5.123116374015808105e-01
4.849529527158193964e-01,5.002582082099541472e-01,-3.285872831572411723e-02,1.235079638894337212e-03,5.338153152980070447e-03,-8.965739294592227045e-04,5.257194042205810547e-01
4.763523890194002464e-01,4.966839178224298768e-01,-1.762104345965603835e-02,6.075250037981498727e-04,3.680715637541540162e-03,1.014969278256882277e-03,5.044910311698913574e-01
4.943415346638971863e-01,4.888702816670922879e-01,-3.959278597039905812e-02,1.928429799461020989e-03,2.025951163616914515e-03,2.089133304494544558e-03,5.312542319297790527e-01
6.139138673672031032e-01,4.937756982655623350e-01,1.569826343741553831e-02,-5.726371793517018999e-02,9.197729754377387268e-02,8.266283434499124838e-02,5.967770814895629883e-01
4.939899797009055793e-01,4.889234913229474899e-01,-4.224738798324390032e-02,3.517272497296583360e-03,3.505463978550206472e-03,7.516563446368808429e-04,5.337930321693420410e-01
4.886291009988956713e-01,4.850679853723751100e-01,-4.275332574625795301e-02,7.285512740477044762e-04,1.989419446715167111e-03,1.108092048125774174e-03,5.296270251274108887e-01
5.776662449025729007e-01,4.234813829070176450e-01,-4.496603286446893000e-02,-2.814335018863924585e-03,3.114848128348660442e-02,5.887422346158100589e-02,5.733903050422668457e-01
4.915620589922377048e-01,4.913017942594679055e-01,-3.402177747605461544e-02,1.957732923517098520e-03,2.978366513557808778e-03,6.225794888572826202e-03,5.256006717681884766e-01
4.956515956975544590e-01,4.959315279800217136e-01,-1.694052535661194625e-02,7.626976980529540096e-03,-1.168334555958987653e-03,6.501178967733595333e-03,5.130298733711242676e-01
5.282651710341574880e-01,3.264986298046397284e-01,-2.974834390639941040e-02,9.375999338224209889e-02,-8.109112000582591184e-04,4.446797265997053106e-02,5.213514566421508789e-01
4.487764107466232777e-01,4.836107305001130507e-01,-1.801873348010579745e-02,2.374324778375253367e-02,-1.144944659702312913e-02,1.296291397906761816e-02,4.878116846084594727e-01
4.751319145816702560e-01,4.929275061565707716e-01,-1.362811790900492204e-02,1.069769852255794858e-02,7.441698907966434089e-04,4.682887373781607823e-04,4.982433915138244629e-01
4.520787968575529225e-01,4.974489654004008998e-01,-2.055251385572126610e-02,2.626777630957151822e-03,-9.517807175662473319e-05,8.709606148621424140e-03,4.971221983432769775e-01
4.662288382379627949e-01,5.062337048194034406e-01,-3.076842349530817255e-02,9.278931133514142478e-04,7.762534482856547685e-04,4.217758632117630212e-03,5.182149410247802734e-01
5.443374780798839740e-01,5.247545546127303506e-01,3.834825002069425226e-02,7.684679042368534885e-02,-1.256798897593843466e-02,2.148323203097277090e-02,5.158241987228393555e-01
4.443409216288616292e-01,4.758883862476093185e-01,3.880278089445393652e-02,1.123975137886496639e-01,-5.041078067745746044e-02,7.431828455034406554e-03,4.732221066951751709e-01
5.430799159557274658e-01,3.784759479000304738e-01,-1.121666369956786369e-02,2.207218830413868599e-02,-2.669697317275172670e-03,-1.624045452098527844e-03,4.945610165596008301e-01
4.547928729266925707e-01,5.061863808973201539e-01,-3.111150093773779046e-02,-3.148192903801721575e-03,3.809825537036647521e-05,-1.636280484844390704e-03,5.135703086853027344e-01
4.737553678192302220e-01,4.938590237370908964e-01,-2.691158757660327971e-02,3.877125502552428854e-03,-9.008178547980166817e-03,4.674193271490166383e-03,5.113617777824401855e-01
4.918673956086584975e-01,4.906744788000654278e-01,-3.939702492155944258e-02,4.313605781674743032e-03,1.037716284086060911e-02,1.060284899718480153e-02,5.313432812690734863e-01
4.931813961220063991e-01,4.961551422008219081e-01,1.596565817819084465e-02,-1.894148557401456384e-03,1.909602302746480056e-03,8.117124360772129052e-03,4.789386093616485596e-01
4.978914144931499419e-01,4.894281614996150997e-01,6.312384811478666258e-02,1.196133287273134713e-02,-8.852848308996921767e-03,-1.324197211653255213e-02,4.319783747196197510e-01
4.972844800074157634e-01,4.876222533077230747e-01,-2.674677122329843781e-02,-6.527833170698846580e-04,3.160965186284786814e-04,-2.440067009644894883e-03,5.192862749099731445e-01
4.933112297171541316e-01,4.924833983890967715e-01,3.697065779431096821e-02,5.395092857977190799e-03,6.630697708932439512e-04,-8.712183693432804313e-03,4.562740027904510498e-01
4.980138115542512844e-01,4.902652430943553186e-01,2.347430915852932731e-03,-5.117363268463633909e-04,1.126794850074953327e-03,-8.832575137624400219e-03,4.920804202556610107e-01
4.935238984652369765e-01,4.876506219551425270e-01,-3.281906352472357957e-02,-7.859356650869017604e-04,6.616280771390225341e-04,-1.084773748391120590e-03,5.234374403953552246e-01
4.928243100097923213e-01,4.895248664490625123e-01,-3.205723642390373440e-02,-6.735000300430048128e-04,1.760666541889955412e-04,-2.324489775399978496e-03,5.232564806938171387e-01
4.572765428186211789e-01,5.043677886636483976e-01,-2.080292971830688398e-02,6.396634648064472572e-02,2.911112485499012248e-02,-1.996474828421441680e-02,5.189452171325683594e-01
4.994211593023060725e-01,4.158699070770117689e-01,-1.107721295869090739e-02,1.431107822490734240e-02,-5.291777032633300688e-03,-1.564439223968934478e-03,4.750183224678039551e-01
5.203975701448942948e-01,3.801179659310974790e-01,-4.451949195189930375e-03,2.878203579781116184e-02,4.376092149653254895e-03,3.951284213815447338e-03,4.734017550945281982e-01
5.617379155387234313e-01,3.295462144395607251e-01,-7.718456853200994505e-03,1.216791374684689057e-02,2.028756376745166905e-04,1.545914747757894982e-02,4.971234798431396484e-01
4.806270462380632935e-01,4.765002496401625764e-01,-2.727236005723560064e-02,2.515994263591741446e-03,-7.666094865241820065e-03,4.261392649136912757e-03,5.060954689979553223e-01
5.582440504250267832e-01,3.136634048778377815e-01,3.963944209673053720e-03,1.364659896318197972e-02,3.970903000486469825e-03,-7.881925558068931907e-04,4.817549288272857666e-01
5.537308138563057369e-01,3.108729128509563067e-01,-9.873843492039624525e-03,-1.409523151115951332e-03,4.133132670855696814e-03,2.197128680719606653e-02,4.911819994449615479e-01
7.423244509089100829e-01,3.717618148381922061e-01,-3.950212760182514327e-02,1.466866360537553149e-01,2.685714074024345144e-02,4.660248698287711155e-02,7.294408679008483887e-01
5.203527568212731325e-01,3.759378990174247481e-01,-1.101674323496271146e-02,3.107203677546510612e-02,-2.229242148173705930e-04,2.624091290400374851e-02,4.810757339000701904e-01
5.338659501896471093e-01,3.888745333963527506e-01,-2.488730655217974430e-02,6.042357040571195211e-04,-3.702353451369635594e-04,2.931363667555128560e-02,5.047699213027954102e-01
6.671830213975482593e-01,1.599457480221200545e-01,-1.094371635613951010e-01,1.131339630831373344e-01,4.268082524629746022e-02,-1.821422332499075120e-02,7.150915861129760742e-01
5.693595530657094006e-01,2.381966650366755256e-01,-1.841309163669424542e-03,1.909045087653587700e-02,9.466101597965528858e-03,9.652355732630317139e-03,4.984179139137268066e-01
5.226592357285255730e-01,3.944259179131340276e-01,-2.303035278810700026e-02,-5.126992654309877467e-03,-1.286904595632657085e-02,-2.364082215619232180e-02,4.964853227138519287e-01
5.424647052893851740e-01,3.783647626290287391e-01,-1.661295054940470362e-02,-4.141899690695216400e-03,-2.783351021717380379e-03,2.680970946919152866e-03,4.978436231613159180e-01
6.070170507119319048e-01,2.488526261066445477e-01,-1.291790275726926729e-01,-2.075537061115182158e-01,-5.563489950513761904e-03,-4.209869153031198588e-03,7.320989370346069336e-01
5.972914865048659649e-01,2.215662928534795073e-01,-2.464343686382580723e-02,-5.540249491229452816e-02,-2.208444360719925489e-02,-6.239415605192397823e-02,5.627134442329406738e-01
4.742902307512587567e-01,4.893617147706240678e-01,4.251109277518994034e-02,1.083184679091007407e-01,2.849842518068382985e-02,-8.461151814190430442e-02,5.022752285003662109e-01
5.313153626520221717e-01,3.073172870229745612e-01,1.319531987670585771e-02,-1.217482393993734729e-01,-1.102257892792799475e-02,-6.080862788081287801e-02,5.084201693534851074e-01
4.534352109248753204e-01,4.422622841579613717e-01,-3.651792059665592838e-03,-1.400959053925040446e-03,6.062467127777792023e-03,1.233931127154411526e-03,4.517378509044647217e-01
4.429790321834655709e-01,4.353585120014613619e-01,2.655931931869526252e-03,-1.625262448698525791e-02,4.350880872085739239e-03,4.182992647383807980e-03,4.375942647457122803e-01
4.413501239727949943e-01,4.529541151609666749e-01,-4.229485851903802551e-03,-5.228526035861177576e-03,9.263354419781889924e-04,4.809969605466431750e-04,4.515878856182098389e-01
4.502484990189008496e-01,4.789662211608815001e-01,-2.591341790524309685e-02,-3.102693682153663188e-02,-2.036473128459228080e-02,-2.036804733687512525e-02,4.965943098068237305e-01
4.894308071823119111e-01,4.892129441412216284e-01,-2.898526336886758648e-02,6.963560887283160071e-04,-9.621600944275405382e-03,-1.449015381980617301e-02,5.191833972930908203e-01
4.853487625806887085e-01,4.868301590115642341e-01,-2.500338473003471673e-02,-5.734622408989576564e-03,-7.569917050692057982e-03,-5.015057236168249735e-03,5.114328265190124512e-01
4.990815373252666109e-01,4.732428231564524412e-01,-3.176383574958846490e-02,7.833653645939962141e-06,4.982192438480936760e-04,-5.053981259184965949e-03,5.184838175773620605e-01
5.490226054859248528e-01,4.850232085750012523e-01,2.068092337736321396e-02,1.374610184091299044e-02,-2.183785709972968503e-02,-1.708275165571320961e-02,5.022950172424316406e-01
4.904781470747570093e-01,4.787216610244452442e-01,-3.181368135062195845e-02,-5.413481641088768379e-03,-5.250678288235239438e-03,-1.232831487241518864e-02,5.171201229095458984e-01
4.827018593151197745e-01,4.801875626451745371e-01,-3.841552437308315415e-02,-2.312790848843331894e-03,-2.160237040002213529e-03,-1.388280112008538278e-03,5.198992490768432617e-01
4.357538089453841801e-01,5.377395986265239847e-01,4.367844174245083533e-02,-3.383441673101734298e-02,-7.741594176203460409e-02,-2.766124556165006076e-02,4.773046672344207764e-01
5.232198524353082192e-01,4.878054281690620275e-01,3.505201277570813012e-03,6.795447921301492160e-03,2.850383310289324724e-07,-1.561383269685684590e-02,5.038075447082519531e-01
4.936302244044943888e-01,5.069294597330633589e-01,3.330813892045370039e-02,1.934122212208982602e-02,2.326024627576028358e-03,2.630233304621731969e-03,4.683529138565063477e-01
4.849609649111162879e-01,5.045699038068282016e-01,-2.997823762128387637e-02,6.060890579859336963e-03,1.089522930251816957e-02,8.674747746098845913e-03,5.256770849227905273e-01
5.988020244617953125e-01,5.609332663934971652e-01,7.764320997583135098e-02,-5.286068868728251158e-02,4.894369774522386307e-02,8.148027644404076675e-02,5.373929738998413086e-01
7.234711408352321182e-01,7.307638221576930881e-01,6.273642162627413033e-02,5.371284120229290193e-02,2.451375777484107732e-02,4.336278075315425778e-02,6.764178276062011719e-01
4.964358006759803654e-01,4.939323781420844606e-01,-2.869928456336917622e-02,6.286719013284052752e-04,-1.954341092796792884e-03,-7.468157162376812090e-04,5.239015221595764160e-01
4.366212536856660664e-01,3.964018439408553696e-01,-7.687551576095519312e-03,-9.312667172911676117e-02,2.734377622452432294e-02,3.342717910368005196e-02,4.612710475921630859e-01
4.851539201521053446e-01,4.891653453387082573e-01,9.657528995188208176e-02,3.230931241108615532e-03,1.465851558917511017e-03,3.845357884976960839e-03,3.907049000263214111e-01
4.897149797583073561e-01,5.202455381894731667e-01,5.357889551577477150e-02,1.910035314370519882e-03,-3.247880691226570637e-03,1.302833584809287223e-02,4.527848064899444580e-01
4.511275708318354116e-01,5.236885999885201315e-01,-3.489777630040191703e-02,-8.858048985112092905e-03,3.283034066112099081e-02,2.330285776985564078e-02,5.308956503868103027e-01
4.498301586525818574e-01,4.664814881285082038e-01,-2.358058251848854647e-02,-1.387510413434836672e-02,8.855861382940156609e-03,1.476090229974990307e-02,4.834712147712707520e-01
4.917232502907812886e-01,4.940827078866397715e-01,8.480547309693498015e-03,5.292273219958606133e-03,5.980881725341191365e-04,-7.197622581192229634e-03,4.846749305725097656e-01
4.968510750675617649e-01,5.309806622090724737e-01,3.846282265460093663e-02,-1.204731367350152238e-01,-7.546364298025819151e-03,5.826772618294469991e-02,5.299308896064758301e-01
2.522610412555950643e-01,5.874646405383179282e-01,-1.206281562509670113e-02,-7.445971468148462891e-02,-7.041008988200142538e-02,-1.104478161423705883e-02,5.501838922500610352e-01
3.853074290723847439e-01,5.789128038787827446e-01,-1.867858551286472046e-02,1.213908143020051983e-01,-3.479188778173918778e-02,4.955927244058260656e-02,5.780212879180908203e-01
3.712889473402240514e-01,5.423816186202853329e-01,-1.457686473496300206e-02,8.270808319285165300e-02,2.664777102921850327e-02,2.732223384987216355e-02,5.187250375747680664e-01
4.840775981224246793e-01,5.151496723498610875e-01,2.338877440376935235e-02,-3.107243978695635456e-02,1.912648200902842838e-03,-2.800311314488438969e-03,4.800471067428588867e-01
4.878984047018660175e-01,4.937594291091560450e-01,-2.691543471810792232e-02,-1.099326614805600823e-03,-2.506784039202418837e-03,1.128404268110111321e-03,5.177946090698242188e-01
4.351018328625598230e-01,5.250104959531025628e-01,-5.181615979617215650e-02,2.442213335079255754e-01,-9.531748474920614597e-03,3.192495408820226338e-02,6.864497065544128418e-01
4.160869410269203983e-01,4.839234326290555721e-01,-2.321421436105841618e-02,-1.361960653755193637e-02,-1.451617844843147882e-02,-1.505693876257709930e-02,4.788075983524322510e-01
4.020816677169162245e-01,4.840533247483604362e-01,-1.065281103005472074e-02,-1.404955640031723373e-02,-1.227600487118468741e-03,-1.394476725878516371e-02,4.605232775211334229e-01
5.093668790413158343e-01,4.971231507630214930e-01,4.824082982704086531e-02,8.458921422993157316e-03,1.103718460935140463e-02,-1.463790358151803106e-03,4.557716250419616699e-01
4.294475504202377447e-01,5.207412998981768570e-01,-2.857027799328043516e-02,-1.735988702949611872e-03,9.684907220878927539e-04,-1.570163559180119597e-03,5.098512768745422363e-01
4.367097453959672970e-01,5.604571343194597599e-01,-3.555051232213163326e-02,2.864515249610071618e-02,-3.373295861908089111e-02,-4.780080043575074458e-04,5.501456260681152344e-01
4.697781395380365987e-01,4.720485946740993199e-01,-3.494185604006150303e-02,-1.583614101276729306e-03,-1.212206945615332309e-03,-5.122930512637123221e-03,5.059486627578735352e-01
4.392147333384975871e-01,4.401346184917489524e-01,-3.009304337193929868e-03,-3.875936456101556227e-03,6.421800521784744829e-03,1.321678772242310639e-03,4.428812265396118164e-01
4.498408308976850067e-01,4.536518364823924343e-01,-9.846072376575143448e-03,-2.288156702009973547e-03,4.515886426760041573e-03,5.896255475011604255e-03,4.618004262447357178e-01
4.337897036820630436e-01,4.449305225231367511e-01,-4.509686070488683196e-03,-1.085039225998096074e-02,1.158310380412784241e-03,5.655482268886535303e-03,4.444847106933593750e-01
4.523994791025783835e-01,4.397916653443411650e-01,-3.879471035044101956e-03,-5.834373262726156271e-03,7.339022911110969606e-04,1.120323385414634778e-03,4.502269029617309570e-01
4.382691124486753909e-01,4.380795062530431494e-01,7.366514544466518100e-03,-1.365914733341768925e-02,3.281177484997631170e-03,2.810852358568978297e-03,4.315218329429626465e-01
4.402700126978787987e-01,4.436812504153893055e-01,-1.094806420759741883e-02,-1.026332537007853055e-02,6.735990873280475570e-03,4.506406811365428963e-03,4.534993469715118408e-01
4.322045501322322458e-01,4.365252685763555962e-01,5.404166388286557599e-03,-1.305865294397430282e-03,-2.203204119957890520e-04,2.643769726966805570e-04,4.289834499359130859e-01
4.494602559149670773e-01,4.852289116375843037e-01,-3.354587975667594479e-02,-3.337759213636733776e-03,-6.538969484771147214e-03,-1.096434024285981856e-02,5.023675560951232910e-01
4.371350124195215181e-01,4.660004563888225371e-01,-2.899527224148656934e-02,-2.554569062836053311e-02,-7.808984834688071849e-03,-1.188755212725540154e-02,4.838701784610748291e-01
4.858753256264669029e-01,4.872650287521950729e-01,6.371282950797441114e-02,4.293882941181357410e-03,-7.381008524384292599e-03,-6.435613706073713136e-03,4.232644438743591309e-01
4.926729728875866576e-01,4.822921773210298024e-01,-3.073723469769301664e-02,1.386512900136486516e-03,-3.458604374879348589e-03,-2.378779763292949165e-04,5.183381438255310059e-01
5.123745243630963841e-01,4.314424780292934747e-01,-2.511187194636405051e-02,-8.364812012853443945e-02,-3.739263041462723147e-02,-2.859608076561183376e-02,5.287538170814514160e-01
4.817207131681835452e-01,4.815786041428413711e-01,-3.996929844357771655e-02,-8.241310281859721932e-04,-3.847437156444664073e-03,-2.290479883907666457e-03,5.216785669326782227e-01
4.612635880133055810e-01,4.956635732474959921e-01,-1.069764992414701243e-02,-1.040841001598987597e-01,-6.178551517392797537e-02,-4.970453151915064927e-02,5.399358272552490234e-01
4.723486680344036737e-01,4.457136504735099702e-01,-2.236161086336024839e-02,-1.289096480985717739e-02,-1.479955731141587363e-02,-1.042882984239268916e-02,4.834800660610198975e-01
4.600847892903711100e-01,4.290169985904306316e-01,-4.319304854396815996e-02,-1.167032300106893988e-01,-2.866154359814142641e-02,-2.819575055958223331e-02,5.332226753234863281e-01
4.717958930730652423e-01,4.970316430883058301e-01,-2.446923403559053689e-02,-6.711764206786736443e-03,-9.761430946120972993e-03,-1.055172979440074932e-02,5.100926756858825684e-01
4.981592187709130704e-01,4.419988670006131937e-01,-3.369445397462772496e-02,-4.440235640878022368e-03,-1.087658545103444528e-02,-9.522055858743341816e-03,5.067931413650512695e-01
5.054997176508038148e-01,4.224013113243320072e-01,-2.631801489461921273e-02,-1.209012578939647285e-03,-7.761830530710002798e-03,1.594667546213216554e-04,4.957090318202972412e-01
5.232689018706858652e-01,4.001627676872691053e-01,-2.137598356284076129e-02,-1.291964420646600151e-02,-8.971002580260662926e-03,-1.372138085279282251e-02,4.960353374481201172e-01
4.771142631173698745e-01,4.927636254350261646e-01,-3.872135062431347752e-02,-7.798805815687735743e-05,-1.172707036396091482e-03,-2.602422355473237719e-03,5.238589644432067871e-01
5.947329313721698707e-01,4.109721218023844047e-01,-4.696710439593521080e-03,-1.732854954428574012e-02,1.615669757851827433e-03,-3.956317440710416938e-02,5.371561050415039062e-01
4.718856370960258784e-01,4.640723810143566608e-01,-1.820885819807033235e-02,9.075334093211351316e-02,1.770728350521152267e-02,-1.137882138700864118e-02,5.123104453086853027e-01
4.865991852203109813e-01,4.841759207731078374e-01,-3.864221208904128346e-02,6.654269677764103287e-04,5.834579365648366947e-03,6.045220805885940032e-03,5.242372155189514160e-01
3.319513274401310610e-01,5.420032743857241542e-01,-2.199776402800096564e-02,-1.155121787156463964e-01,2.553659230410191411e-02,1.871970733910969381e-02,5.355243086814880371e-01
4.385108824203486910e-01,4.309673063641681345e-01,5.528728045661845947e-03,-9.010627053161935143e-03,4.501167350700351066e-03,3.735701029693360310e-03,4.296631813049316406e-01
4.040830704809131868e-01,3.057904538136320127e-01,-2.280344715320611892e-02,-2.359822795362204462e-01,-1.104164085815674198e-02,-1.010323236712486715e-02,5.636209845542907715e-01
4.557548269478960412e-01,4.873981652521224284e-01,-3.332628478449445319e-02,-2.827645375931938081e-03,8.535145853938663763e-03,1.340574390635485350e-02,5.064182877540588379e-01
4.117479115787208155e-01,4.947921889336320822e-01,-1.945248422386691711e-02,-6.751347570339290283e-02,-2.801268127941650143e-02,-2.297138210444709880e-02,4.962360858917236328e-01
4.626694001582766225e-01,4.406371996664414370e-01,-2.043800302679732450e-02,-2.674933147740337150e-02,-1.458203083715121744e-02,-1.347614111748019275e-02,4.759869277477264404e-01
4.276316720789492543e-01,4.359748597770901624e-01,2.042443577301267243e-03,-1.211834219901394838e-02,2.465383700142793812e-03,4.101129733922035357e-03,4.304135441780090332e-01
4.120833430834880962e-01,4.501993810517505024e-01,-1.019230798974202212e-03,-2.074884635150887197e-02,-9.760073789219407894e-03,-8.192222184544307659e-03,4.354664981365203857e-01
3.550545821205547403e-01,5.286314584002247408e-01,-9.111777267200471542e-03,-4.666584207371501924e-02,-1.483327129393011146e-02,-1.033397877658001271e-02,4.831878244876861572e-01
5.092266898780890561e-01,3.654086347691813952e-01,-8.192471351530339341e-03,-8.865548424365092550e-03,-1.191074203876948435e-02,-1.257608850017929471e-02,4.638187885284423828e-01
5.173945932560225502e-01,4.009578678437140109e-01,-2.357700849113369967e-02,6.607268738830506666e-03,7.689113596830128745e-03,-1.708625243062264140e-02,4.943712949752807617e-01
4.348460530054669149e-01,6.162592303160197016e-01,-9.044131381396208758e-02,2.715247693918005911e-01,1.086932311766093499e-02,3.123856587367465978e-02,7.928370833396911621e-01
4.932328581487117614e-01,4.052989548896874239e-01,6.206518239748604060e-04,4.047799509983501104e-02,1.265250007116753943e-02,-3.240249340286260275e-03,4.609870016574859619e-01
5.062516679939953468e-01,4.049191017733925757e-01,1.759904834427450382e-03,3.825204285918306496e-02,5.239167339083188914e-03,-7.505285023189228744e-04,4.670465588569641113e-01
4.629730028790680074e-01,4.565461090934374022e-01,-9.910655381721644730e-03,2.670275699255209891e-03,1.443648603335625233e-03,-3.202788363372273493e-03,4.697653651237487793e-01
4.964300821997573721e-01,3.952505774789332738e-01,-1.127679895463140625e-03,8.305637359886040502e-03,4.358716238023325334e-03,-2.208726325546335814e-03,4.557816982269287109e-01
5.146804706016830933e-01,4.590364942536494519e-01,-3.042310059641434306e-02,6.390234771506586760e-04,1.369770962383809769e-03,-4.737749252455049354e-03,5.195927619934082031e-01
4.722974799553260605e-01,4.779841721240976615e-01,-3.783037296670072047e-02,-4.961364220042824465e-03,7.155507537157341363e-03,6.775279852053057821e-03,5.133506059646606445e-01
4.645518896517257246e-01,4.666985326086584007e-01,-4.392962033102854047e-03,9.494137550030944117e-02,1.112119536744970300e-02,1.716959268520312429e-02,4.992169439792633057e-01
3.648332237060936123e-01,5.561653507689137133e-01,-1.675536964550156105e-02,7.712288155161370340e-02,-5.194434737689572999e-03,2.490772284195649777e-02,5.244176983833312988e-01
5.497125342067665787e-01,3.691267146485960327e-01,-3.320531292061684736e-02,4.745347154936342682e-02,2.834332268084178638e-02,-2.681081235573805344e-02,5.276928544044494629e-01
4.409339706473355269e-01,4.732433447147288419e-01,1.286627527480599387e-03,3.655469442156704385e-02,7.967383545897752106e-03,-1.120212613660668925e-03,4.612389206886291504e-01
4.734543613168573639e-01,4.193592449193278004e-01,-3.820231071257396138e-03,1.768464213447091052e-02,-8.127389145077500848e-03,5.834659125454316059e-03,4.540238082408905029e-01
4.536872857344311782e-01,4.168335919844307624e-01,1.381273490448919894e-04,2.496391175267938245e-02,4.025284112341025004e-03,-4.366852221492595700e-04,4.384846985340118408e-01
4.694905585482876953e-01,4.405277935505494957e-01,-1.062682838536005425e-02,1.046670838361129889e-02,-6.753707239224292572e-03,9.647522498555477727e-05,4.668099582195281982e-01
4.583557235520409612e-01,4.650185400567984351e-01,-2.954391923010746268e-02,-6.313922056329108502e-03,-6.319085372452318446e-03,-6.568600732183245416e-03,4.916401803493499756e-01
4.620359644856139036e-01,4.204303887871130851e-01,-8.734320146070340130e-03,2.388219928159094826e-02,1.845390172121399996e-02,-1.000136186171607204e-02,4.547546803951263428e-01
4.724226236689428315e-01,4.291340053404940624e-01,-6.850783361701751062e-03,3.390043771054844501e-02,1.310207003509869170e-02,-1.455480503850408933e-02,4.641422927379608154e-01
4.811659625597655143e-01,4.182488933346192872e-01,-2.579081361644064430e-02,1.845945529025140031e-01,-1.188669087911799205e-02,6.730565012926080504e-02,5.876282453536987305e-01
7.565347213282104244e-01,5.819273768104165079e-01,8.449138627449059857e-02,6.915044258749424022e-02,-5.950547279257988736e-04,-1.124816993736931503e-01,6.458243131637573242e-01
5.006786920221181214e-01,4.945109895800728905e-01,-1.010517495955032263e-02,4.284153826657329141e-03,-7.348241610576971509e-04,7.635033292690471523e-04,5.077856779098510742e-01
4.956034692235533612e-01,4.903630534507374406e-01,-1.657474590896479416e-02,-2.542605632950163501e-03,2.783445601727959403e-03,-3.620795375990288820e-03,5.096586346626281738e-01
4.880821389071631211e-01,4.912561528685700507e-01,9.180194697512134017e-03,-1.304363057573905394e-04,-5.711289088492555767e-04,-8.850788778323835995e-03,4.807423651218414307e-01
5.447162172258014357e-01,4.091341974303971396e-01,-2.355306138744517330e-02,3.206044743305967466e-03,-2.938438180898639198e-03,-1.368465988942944335e-02,5.146687626838684082e-01
4.954056272293592134e-01,4.918416206868650997e-01,4.133673826715700272e-03,-1.829284249486898620e-03,3.949115610699755960e-03,-5.518312722706000990e-03,4.896510243415832520e-01
5.592088223997420116e-01,4.486961428809132513e-01,2.170427781355610541e-02,5.370571008423054987e-02,6.253149618940229137e-02,-6.020648278201558290e-02,5.224758982658386230e-01
4.965915600332808655e-01,4.939727173017356421e-01,2.734226551225016344e-02,4.458223440981313838e-03,8.070538735960421442e-03,-1.168017230228593668e-02,4.686546325683593750e-01
6.626235308181264161e-01,2.397273381188589070e-01,-3.370910774840918389e-03,4.387211187006978715e-03,2.296996016484279327e-02,-6.565718497702643930e-02,5.960842967033386230e-01
5.447075528150834289e-01,3.843301780312353699e-01,-1.053786708131537742e-02,2.151716013137453670e-02,1.579365541220400723e-02,-3.589846101813008034e-02,5.009720325469970703e-01
5.188188180655376458e-01,4.282711193607734446e-01,-2.635708050481117004e-02,6.965505265659818887e-04,-2.545217851370316486e-03,1.105907378315788142e-03,5.060393214225769043e-01
5.577305964893369827e-01,4.551040156842777185e-01,-1.976266640721580092e-02,1.058087125063661990e-03,2.610994548788186584e-02,-3.722869483568687354e-02,5.394172668457031250e-01
4.301401682677116756e-01,4.776346649831503255e-01,7.529864183668100175e-02,-1.179069997422369648e-01,-7.949083723806758817e-02,-9.296230443326269910e-02,4.812585413455963135e-01
4.799403749156989640e-01,5.117935614328830152e-01,-3.061480469276406380e-02,3.843120994302637403e-03,1.577088962055573154e-02,4.315441942474861764e-03,5.280060172080993652e-01
5.142645692431683235e-01,4.808753943372424677e-01,-2.829471393314586525e-02,2.205533317814763195e-03,7.362736911493159096e-04,-4.581978790805176123e-03,5.267342925071716309e-01
5.101364367575370595e-01,4.374610179018725287e-01,-1.673909177916560465e-02,3.242052941551207268e-02,1.565330208718216862e-02,-1.739249286394416866e-02,4.993841052055358887e-01
5.028770698190647703e-01,4.427837893234211064e-01,-2.581998011963126949e-02,7.969990440385014627e-03,5.978282791070082397e-03,2.110810446958602364e-03,5.016689896583557129e-01
4.870433833764650222e-01,4.630460165872863909e-01,-2.619805287367998892e-02,6.349241836274974009e-03,4.551340323993357390e-03,-3.122297520383510595e-03,5.018849968910217285e-01
5.238634339544006036e-01,4.599968181987297289e-01,-4.356721489313930551e-03,5.278869080675908064e-03,4.574465322804846328e-04,-2.943662152307594156e-03,4.994697868824005127e-01
4.962000858959432215e-01,4.967072906023042300e-01,4.058158149757679078e-02,6.716923979749366350e-03,1.586083774363715448e-02,7.208220011379691018e-03,4.570180475711822510e-01
5.007393213405139099e-01,4.937661375138060471e-01,6.992635300732524817e-02,4.283864580042213988e-03,5.296225995197092161e-03,1.287069393476615066e-02,4.281126856803894043e-01
5.218921511863952034e-01,3.939798194278489873e-01,-2.185773815419611577e-02,-4.407778141511139829e-03,-1.011271392825633351e-02,-1.665769406528577745e-02,4.936301410198211670e-01
5.907137190734045307e-01,3.881360912255486517e-01,-9.706419623200068791e-03,-5.057474670614592674e-03,7.152366416506072966e-03,-4.814750156539274878e-02,5.358125567436218262e-01
4.978053887460474058e-01,4.918926137335766224e-01,2.669191282293020828e-02,1.997046416393015976e-04,2.238167871577191874e-04,9.051741154921459642e-03,4.684478044509887695e-01
4.876839417028465129e-01,4.938222711277356902e-01,7.871786458341900605e-02,2.537711252143167243e-03,-2.244852514599638381e-03,1.329731550414072448e-02,4.127543866634368896e-01
7.353112337763315631e-01,5.064240936700238338e-01,9.742434101501062926e-02,9.243451089911735793e-03,-2.160565834104175367e-02,-4.668350460667013146e-02,5.669918060302734375e-01
5.560915666882626507e-01,7.424879694404523667e-01,8.968480159962910481e-02,5.374743540191711383e-02,-2.912275778898297876e-02,-5.700489574362761769e-02,6.001456975936889648e-01
5.910338284379144103e-01,4.838552412424538263e-01,6.877972074260019220e-02,-1.983179788046775249e-02,-2.904410416499025871e-03,-3.001116822926126401e-02,4.818395674228668213e-01
5.637174670854099290e-01,4.432972952090490915e-01,1.130974571452308952e-02,3.253208423930463444e-02,2.853342644593852284e-02,-1.177108164422871472e-02,5.090848803520202637e-01
5.127641727627356705e-01,4.464734791929652058e-01,2.661552998068300591e-02,-2.212833835626355425e-02,-3.491538130552225908e-03,-8.381530897775834460e-03,4.585020542144775391e-01
4.967424716978722787e-01,4.849778988645784272e-01,-2.826773614490651898e-02,-1.249918310820874500e-03,1.041603376057391710e-03,6.821275235239954594e-04,5.192368626594543457e-01
5.461122524942538803e-01,4.789680831223672719e-01,4.205433171648820245e-02,2.646471629153383451e-02,-1.010236716360239304e-02,-1.935311587518070975e-02,4.777751863002777100e-01
6.974423270975854683e-01,3.064912056284870845e-01,-4.671649707971292642e-04,6.415037805332372139e-03,5.556129287028878372e-02,-2.287764370466568650e-02,6.148387789726257324e-01
5.222102997011837111e-01,5.114359538593178378e-01,4.943525784079838559e-02,2.667577826557159318e-02,-1.911650946399203951e-02,-4.959906547778353963e-03,4.710025489330291748e-01
4.891643457849599863e-01,4.208657490165911286e-01,2.848664865700306636e-02,-1.361089353193528084e-01,-3.816727938262523545e-02,-9.814680181509510826e-02,5.237084627151489258e-01
4.952833883772865819e-01,4.932730819367808217e-01,6.690209660072776732e-03,1.416749183821932635e-03,-1.954561350043375854e-03,3.739068817051494076e-03,4.876520633697509766e-01
4.953217118743088454e-01,4.918041695591475193e-01,-6.965595754026998598e-03,6.811079543123915031e-04,-2.877473006936900890e-03,-6.171691710254102910e-03,5.006781220436096191e-01
5.099515675493081490e-01,6.785542209116066648e-01,4.731801092945969733e-02,1.931044889407966814e-01,1.294284458191836094e-02,-9.502206666787990641e-02,6.781710982322692871e-01
5.010203184500894302e-01,4.816096009926106314e-01,-2.402780817232658128e-02,3.703653329922358857e-04,2.686356922155620948e-03,1.633753680343230912e-03,5.156460404396057129e-01
5.379493216207931194e-01,3.749108086136141438e-01,-1.369172456200823396e-02,1.017165430473885440e-02,6.459542491305364856e-03,1.240947810472261409e-03,4.913154244422912598e-01
5.041989986292614301e-01,4.663258297363449545e-01,-2.925483702806819242e-02,1.133964025702685098e-03,3.662908637646429891e-03,-1.133240184078123823e-03,5.156081318855285645e-01
4.989115670403470038e-01,4.821073399387220126e-01,-2.138423723732923998e-02,1.048662783092643149e-03,-8.169319122152245973e-04,-4.833214971624895731e-03,5.121741294860839844e-01
4.842603016797440429e-01,4.846494438098451485e-01,-1.577324065756285920e-02,-2.551806180199006971e-03,9.618194528762550937e-04,-3.570463153371843394e-04,5.002509355545043945e-01
4.853454779285657494e-01,4.926344065899342373e-01,-1.187554005382501776e-02,1.831939658786379708e-03,-9.809446632870113397e-04,-7.008769507548015532e-03,5.010652542114257812e-01
4.649318937770268167e-01,4.976034295905985561e-01,-3.560306999083656665e-02,-4.220458386237142568e-05,-5.196591873424077608e-04,-5.993466594640955644e-03,5.177494883537292480e-01
4.748048790248248219e-01,4.893385686803581880e-01,-4.027135713646129433e-02,1.919589766666200768e-03,9.833868143015499159e-06,-2.337203537832639039e-03,5.225209593772888184e-01
4.745964355196820028e-01,4.793086424600976336e-01,-3.529440979572379122e-02,-5.554842481371235346e-03,-4.227694422074114965e-03,-6.849908487103774889e-03,5.125432014465332031e-01
4.900833845354573559e-01,4.772955486804143499e-01,-4.017382199364905038e-02,-2.337451318327424688e-04,-1.050554140224579762e-03,-1.311463369065025628e-03,5.239885449409484863e-01
5.179255275656984292e-01,4.374853419411113276e-01,-3.116467685509410890e-02,-2.405935738261255781e-04,-2.147656332697878753e-03,-1.051767619725387307e-02,5.139529705047607422e-01
4.952131559217262113e-01,4.766743159979048849e-01,-3.538968258288832658e-02,5.018605439511329659e-04,-6.653821302827094594e-05,-8.279944531477899904e-04,5.215832591056823730e-01
5.409594660249227305e-01,2.631737422686054595e-01,-3.082766862718633316e-03,-9.990524113542521845e-02,1.353459484442746594e-02,5.319427309947589132e-03,5.025905966758728027e-01
4.904024443093801255e-01,4.705070009930818475e-01,-3.950388482252248368e-02,-2.785905158711434381e-04,-6.589607450450049586e-03,-3.901843926901071413e-03,5.204132795333862305e-01
4.795638070500526928e-01,4.818364468945320334e-01,-3.904287754662094656e-02,-1.796689221231375635e-03,-3.359641030703702617e-03,-5.648936703544207502e-03,5.198807120323181152e-01
4.766236534339791109e-01,5.049979196152176719e-01,-3.445664683288196528e-02,2.442738154350819740e-03,-5.092821780462837566e-03,4.966405805783599258e-04,5.259336233139038086e-01
4.233919292543748547e-01,5.192887755277834083e-01,-2.884947249678088133e-02,-1.069642764695492160e-02,-2.605478382440686719e-02,-1.271899057990948101e-02,5.098550319671630859e-01
4.853511178320684682e-01,4.924451407792795887e-01,-3.239926415663541004e-02,6.660330888741179559e-05,-2.931755410323703265e-03,1.472156514765478146e-03,5.213645696640014648e-01
4.796298060503259575e-01,4.943174720683233270e-01,-2.406393287034375161e-02,2.456642614799546195e-02,-7.449494095230011458e-03,1.055045186139405566e-02,5.134512186050415039e-01
4.844638131591006980e-01,4.970445008476698234e-01,-3.140891881047308543e-02,-6.121400249648933835e-04,7.667418170797280245e-04,-4.613985398214872778e-04,5.222800970077514648e-01
4.841632728165423116e-01,4.960661413987074164e-01,-2.674775875056056851e-02,-8.056614203677987807e-04,2.597083084165442007e-03,1.062282688774796209e-03,5.169899463653564453e-01
5.750118223437410414e-01,2.446650370176187417e-01,7.635985636663233933e-03,-1.030781523913530395e-01,-4.370784793962820269e-02,-5.996164030330430883e-02,5.403759479522705078e-01
4.300067210812987262e-01,3.563121701419268983e-01,-2.516742214199468863e-02,-2.155374167363224291e-01,-4.740882070124890352e-02,-7.183511918062709944e-02,5.836637020111083984e-01
4.796379764473122087e-01,4.299129204920967284e-01,-2.155730547251843987e-02,-4.936562840811949820e-03,-1.515091160330645989e-02,-1.123971291349672684e-02,4.794664680957794189e-01
4.292312623666274529e-01,4.228521956643079838e-01,7.224594794028815770e-03,-2.886375236459815669e-02,-7.861479475968062916e-03,-3.407777027211711472e-03,4.220875501632690430e-01
5.178820342353644968e-01,3.807727669013658556e-01,-4.024788880178281625e-02,-1.114108183357649801e-01,-2.810429178168260753e-02,-4.513288023062848875e-02,5.472666621208190918e-01
4.744048062644259378e-01,3.984163929637533075e-01,-1.200838825101496754e-02,-7.771842564318785784e-02,-4.429744619539070088e-02,-5.357976906928738070e-02,4.878830611705780029e-01
3.910166869547256341e-01,5.680031088148237428e-01,1.909059978447613659e-02,-1.873886371332551537e-01,-6.833711401420426712e-02,-7.191614662047031425e-02,6.085624694824218750e-01
3.888860715782099242e-01,5.277285679896888126e-01,-2.299765364142125623e-02,-7.787023218808228169e-04,-2.356510192189644609e-02,6.805302366434025103e-04,4.977766275405883789e-01
4.500601069021102352e-01,4.603375639556172572e-01,1.120864320396708358e-03,1.706453959227110379e-02,-9.645306420065063438e-05,3.789771414197932401e-03,4.551733136177062988e-01
5.449704474480323579e-01,5.269371541269319836e-01,-2.865128956277318562e-02,4.969847564808996948e-02,9.641532573621840532e-03,-3.214402306740078968e-03,5.716139674186706543e-01
4.503116085720613171e-01,4.777205225474960848e-01,-2.053277294284061583e-02,8.013478368457968223e-03,9.851687019211062893e-03,-1.197673469394669975e-02,4.860711395740509033e-01
4.636641067888694900e-01,4.726274698912073524e-01,-1.297595524741873563e-02,4.072289367244390917e-03,3.224840953495741649e-03,-7.961516276728905495e-03,4.814659953117370605e-01
6.984157747353668677e-01,3.333620073765237168e-01,-1.014958282751727281e-01,2.533424005822420000e-01,8.587203181780118585e-03,3.117068118860422815e-02,8.226756453514099121e-01
4.659782672661643144e-01,4.530288085311291457e-01,-1.715797584452483093e-02,1.933994146829668553e-02,8.011793019561385190e-03,-7.364365402126532047e-03,4.783401787281036377e-01
4.622619033726383941e-01,4.719672662356805271e-01,-1.843400903129333024e-02,2.547996215731913872e-02,4.547424303322744957e-03,-8.912676035937695113e-03,4.879304468631744385e-01
5.043537297043578782e-01,4.575720874151716355e-01,-3.136173454101315317e-02,7.847402370302503788e-03,5.833634181219083011e-03,-1.151738749711445596e-02,5.145898461341857910e-01
4.943236008868387987e-01,4.912104549936207043e-01,1.425610737390536897e-02,1.187868579201141472e-02,3.061651388312589418e-03,2.947964328185848255e-03,4.790171980857849121e-01
4.782392516935067284e-01,4.626090878792468164e-01,1.714269826156028520e-02,-3.689290337621121962e-02,-8.616571451649901459e-03,-1.794043189252909551e-02,4.592590630054473877e-01
4.900987512306825833e-01,4.750859750085639766e-01,-3.976580046871452945e-02,-1.312651088244586083e-03,-1.530673633395884543e-03,-1.597912118009802178e-03,5.225389599800109863e-01
4.873161575719607286e-01,4.747632276045934407e-01,-4.087630377059486841e-02,1.503935797126461273e-04,-2.657218017514728636e-03,1.062020160928432553e-04,5.220496058464050293e-01
5.947853113800141145e-01,3.048666958734224663e-01,-3.474451345069162755e-02,-6.370868500775214716e-02,-1.475281470196090558e-02,-3.428694414833646092e-02,5.605393052101135254e-01
4.990805958174525658e-01,4.713303614558145282e-01,-1.074982624505727014e-02,-2.292268437632663178e-02,-2.403519535869307402e-02,-2.522045495435228102e-02,5.017637610435485840e-01
4.331217157472958545e-01,4.442631112936087368e-01,-2.327151996341303430e-02,-7.246564522787049545e-02,-4.299698774471277796e-02,-2.978885900853917718e-02,4.873047769069671631e-01
5.028241651768908804e-01,4.584722068600638467e-01,-2.843858646547203772e-02,2.751780609529934016e-03,-8.031212246771012725e-03,7.094979380728443953e-03,5.108932256698608398e-01
3.313295454681136620e-01,4.813842964131704871e-01,-6.516321351144382934e-03,1.880799364153321884e-01,-3.048145913242231164e-02,1.003605844492178739e-02,5.445762872695922852e-01
4.006133366861649447e-01,5.017851624228417684e-01,-8.146130326296185942e-03,6.911334508301559577e-03,3.902391433696380304e-03,1.180048780986825245e-02,4.682752490043640137e-01
4.182056098809626143e-01,5.196903809377559913e-01,-2.128641585565477223e-02,1.159233795100571285e-02,-1.542017315079425958e-02,1.369262865573386140e-02,4.997330307960510254e-01
4.793480920256832922e-01,4.953482100162819313e-01,-3.101529102086991729e-02,4.574589453040639182e-04,-3.007189264690164707e-03,3.503947485918989385e-03,5.186108946800231934e-01
4.766652795455426084e-01,4.289655151649610643e-01,-3.636917228941660696e-03,3.620964507698558321e-02,-9.310431305136005961e-03,7.045401191623329798e-03,4.630308151245117188e-01
5.223956113972655357e-01,3.840982897965236620e-01,-1.096401920478867753e-02,6.043372353882935782e-02,-9.766746770023830918e-03,1.367235566104646124e-02,4.915690422058105469e-01
4.894005028281525060e-01,4.458650374736115030e-01,-2.070861220465358699e-02,5.533583548432595249e-03,-1.362611140321220299e-02,1.166592774479651394e-02,4.908726513385772705e-01
5.851346589948589472e-01,5.475783408458710921e-01,-2.451035309542498597e-02,2.796117633126046220e-01,-3.775698506606444543e-02,2.508540104090090442e-02,7.686964869499206543e-01
6.341926004019100560e-01,3.496158528889009576e-01,-2.555188394205359925e-02,2.556118762820147050e-01,-2.724398580864609287e-02,-3.477055512865751680e-02,7.282614707946777344e-01
5.644381343023859854e-01,4.499555395276543801e-01,-3.430742936021419220e-02,3.328122138019488918e-02,3.424530419626452965e-02,-3.469834582993098354e-02,5.599192976951599121e-01
6.625462062927085505e-01,3.002179551881999364e-01,-2.427208161984956147e-02,1.047282534582888447e-01,1.415072250103880346e-02,2.071514635126434078e-02,6.236501932144165039e-01
6.606721643195647697e-01,1.305259423981368905e-01,-3.052252942326760810e-02,-3.088634252043395093e-03,-5.814961182469719457e-03,-1.162891938698050985e-02,6.268226504325866699e-01
5.371961982701005667e-01,3.528664132757358685e-01,-1.175137768850342823e-02,5.849438440587251264e-02,2.847332307829738424e-02,-2.847383404795425510e-02,4.992622137069702148e-01
5.347651774395603130e-01,3.641453506395816997e-01,4.359412129710971140e-03,3.357666920213998180e-02,1.257216081863229105e-02,3.329520678891152805e-03,4.731101989746093750e-01
5.191725411520689004e-01,4.363978956638381868e-01,-2.585172087097331595e-02,1.332236577264615980e-02,1.380015072770355428e-02,-1.235319150757358160e-02,5.102455019950866699e-01
3.634711498733411705e-01,5.143689217171433237e-01,-2.936167505877107509e-03,-1.436805274284366427e-02,6.642779117231153085e-04,1.512699178260470262e-02,4.621922075748443604e-01
4.157895416946918998e-01,5.223676462566946288e-01,-2.597287657739255629e-02,-4.569388295352282635e-04,-2.284795617737017843e-03,1.048940067019087444e-02,5.039260983467102051e-01
4.329375389779422934e-01,5.318180356821520238e-01,-2.971722444402619123e-02,8.789404384920545751e-03,6.114630513998351065e-03,1.456645606103241933e-03,5.195426940917968750e-01
2.959295130607940139e-01,5.641583304846052860e-01,6.771133972672482848e-03,-5.314967822695630673e-03,2.287045563143489876e-03,5.925736017142232970e-03,4.830379486083984375e-01
2.775645124775669714e-01,5.037604004660906076e-01,-2.619636178438644603e-02,-1.543717481893211174e-01,-6.604022920132331109e-02,-2.982342753281183242e-02,5.471643805503845215e-01
4.927528937830993883e-01,4.943227240504217690e-01,-3.802662160522057855e-02,2.706936001013598558e-03,1.737951623325566675e-03,2.361843192946757285e-03,5.316110849380493164e-01
2.520618323874506683e-01,6.308242204060278135e-01,-1.024226651755433815e-01,-2.439574835500230299e-01,6.619729001935303891e-02,6.142390213259345949e-02,7.787145376205444336e-01
2.957937249351172415e-01,5.461666226609466213e-01,5.423336388181987378e-03,-1.009335955930414086e-02,9.576118178241565171e-04,2.660595487849663852e-03,4.690757393836975098e-01
4.917738122603542150e-01,4.681319817293214669e-01,-2.796868330333068808e-02,3.397438032424053588e-04,4.762820339562510129e-03,-2.637502012338198074e-03,5.084218978881835938e-01
4.876224363333895861e-01,4.292993077430322657e-01,-1.092637806343688123e-02,2.635086629975054093e-02,1.234709618365708965e-02,-1.053696050003420127e-02,4.751306474208831787e-01
4.981907805897963781e-01,4.392496535001679803e-01,-2.000439244814611328e-02,5.001041588734553636e-03,1.345950905306903499e-02,-9.045988419667026423e-03,4.922614097595214844e-01
7.271077768631351024e-01,2.129355957335281047e-01,-3.592504385705796999e-02,4.360071058676774636e-02,1.292807186864946764e-02,-2.892235290304591769e-02,6.804232597351074219e-01
4.788822600574592636e-01,4.373664351622789104e-01,-8.391475135411941011e-03,6.626595810708879250e-03,9.338530600300626316e-03,-3.094199149450856806e-03,4.683500528335571289e-01
4.817811894832130237e-01,4.271398659261357311e-01,-8.825793472166554299e-03,1.104906700719164407e-02,9.578165442633122459e-03,-2.827418147910661962e-03,4.664106667041778564e-01
5.364499320242128722e-01,4.927022727544140279e-01,-2.788205667519766395e-02,8.316553171333981864e-02,2.448132140380775840e-02,-1.682096991182102999e-02,5.648828148841857910e-01
4.437611242243789667e-01,4.365119148140790273e-01,-3.907016881795066787e-04,3.220388533306046963e-02,-1.681418823011552471e-04,3.023139600980058461e-03,4.441198110580444336e-01
4.474033437090304544e-01,4.522105446240292093e-01,-1.568948467338870945e-02,-5.102208173163055513e-03,-4.177910911144918152e-03,-6.192833983906035657e-03,4.657786786556243896e-01
5.067869236261418608e-01,4.600059639071254480e-01,8.807274580220902926e-04,1.326192850244876801e-03,-6.413245168086991084e-04,-1.372884053272206955e-03,4.842261075973510742e-01
4.528357339190773323e-01,4.326699488647157699e-01,-2.152361618448911385e-02,-3.956765296359263107e-02,-2.344418056500907621e-02,-2.626591113675789263e-02,4.735746979713439941e-01
4.968177519135864584e-01,4.784493900579035452e-01,-3.171093303770966543e-02,-6.016225527809352909e-04,-4.829528744229458041e-03,-6.444309572791968648e-04,5.196576714515686035e-01
4.970473630768645901e-01,4.959567747892391631e-01,1.297383653465916664e-02,7.482629382415422435e-03,-6.431616503854636208e-03,-3.433951496113747497e-04,4.838314354419708252e-01
5.799116487692690391e-01,3.406894930230648932e-01,6.563474151342962859e-02,-4.599762668053086236e-03,-3.334225932698409861e-02,-1.029914416019464402e-01,4.836339950561523438e-01
5.061846356440931061e-01,3.697447255399187171e-01,-8.200056915978248817e-03,-1.322607182105371183e-02,-1.761024962621238546e-02,-1.696606925720950745e-02,4.640512466430664062e-01
5.387527704777397286e-01,3.650987014450501889e-01,-1.551668626861635314e-02,-8.543482807354913638e-03,-8.205496361926620241e-03,-4.034207936400994229e-04,4.914678633213043213e-01
4.807515922052570945e-01,4.294430422349662657e-01,-2.280510765057774947e-02,-6.298211955583045592e-03,-1.552633374794965167e-02,-1.039256851210255440e-02,4.811770617961883545e-01
5.444849775801404723e-01,3.226160797735021513e-01,-2.649840389773894245e-03,5.674467069975265565e-02,8.479240485900547963e-03,-9.981780980302107711e-03,4.872007668018341064e-01
4.855737038039686371e-01,4.300643445148339961e-01,-2.512203830612685929e-02,-1.210395329752995616e-02,-1.261408784490680030e-02,-1.386891761580486514e-03,4.862773716449737549e-01
5.075087254169559081e-01,3.103169095519573428e-01,-3.819474917474696696e-04,-8.938425181686930621e-02,-6.698240065824743496e-03,-5.792895094623366596e-03,4.699889123439788818e-01
4.890846712452801004e-01,4.973300880355617792e-01,4.448131904536728465e-02,9.192347109810053429e-03,-6.011509867914511911e-03,7.639080024055808910e-03,4.493807256221771240e-01
4.583631688132874249e-01,4.533175832582432285e-01,-2.317575369302948829e-02,-4.890581605048299405e-03,-7.230975436862709799e-03,-1.626120954336201640e-03,4.792828857898712158e-01
4.999630273600821351e-01,4.902363762833400473e-01,2.507659708572973489e-03,1.434356721751330489e-03,-3.103898222619382030e-03,-8.841030403737107704e-03,4.929375648498535156e-01
4.978778602161384459e-01,4.884035120059032065e-01,-2.603536242276521806e-02,-6.681842361448024408e-04,1.255388559710175636e-03,-2.652788875874144588e-03,5.192670226097106934e-01
4.914838257146572076e-01,4.883194228393576974e-01,6.708685725431823288e-02,9.700013717238279570e-03,-1.547665173785047052e-03,7.411194936935339497e-03,4.233604371547698975e-01
4.979757453412451129e-01,4.898443823040030121e-01,2.571142951496036000e-02,-1.168251722195314543e-03,-1.206854427733053577e-02,-3.605992733562834746e-03,4.687639176845550537e-01
4.914969822049021220e-01,4.916863152303739826e-01,2.696541403509544743e-02,1.965585771310245870e-03,-1.726446743828862406e-03,1.010228511562633394e-02,4.649777114391326904e-01
4.785372298182440920e-01,3.737709542098935911e-01,9.519686332108534543e-03,-2.956715948080840609e-02,1.819156079790059527e-02,1.689146897966269101e-02,4.316104948520660400e-01
4.702326460419881671e-01,4.499047171373579679e-01,-1.834849602534055490e-02,-1.903013494510372161e-02,1.896406343506314499e-02,1.877048848461888506e-02,4.820946455001831055e-01
4.774108666013532898e-01,3.944722022074557688e-01,2.802674625068946046e-03,-1.156685075470611536e-02,1.165255128796125264e-02,5.960763460942828176e-03,4.400950968265533447e-01
1.561420773154965635e-01,5.438770431760966417e-01,-1.705211423121447134e-02,-1.919113963473010054e-01,6.381415063198451554e-04,7.586005309655906217e-04,5.983151197433471680e-01
2.817047853694137349e-01,6.150284444980803622e-01,-3.212562607492364108e-02,-8.448253094612834246e-02,5.555110991658005620e-02,7.531885154126911897e-02,6.015727519989013672e-01
4.045668833890592175e-01,3.509310439214303745e-01,-1.090278568200386822e-02,-1.946928342820994640e-01,1.346906914210145578e-02,9.771627562527619715e-03,5.174499154090881348e-01
5.183715805780652053e-01,3.745789028019437250e-01,-2.368343823049318120e-02,1.139643821452937652e-03,9.237640026868259441e-03,3.019392828166027679e-02,4.894398450851440430e-01
4.621043261287561266e-01,4.647302150120500297e-01,-2.926710984664881998e-02,-2.413520847310631975e-03,-3.803119970569669977e-03,-6.560606007808558564e-03,4.928824007511138916e-01
4.890051348589829483e-01,5.076682508832413010e-01,1.310887271031685453e-02,1.386873907344215139e-02,8.890543017497783487e-03,-2.339749436540334432e-02,4.880202412605285645e-01
5.301946110262124590e-01,4.243197311406584626e-01,-2.675088181058099535e-02,9.276991258746010785e-03,3.875578498692502406e-03,-4.876313160358503561e-03,5.126459002494812012e-01
4.737598782838042810e-01,4.645390177800166054e-01,-2.742616865322866637e-02,-2.684556818810010081e-03,5.780498925636604925e-03,4.124483702389646414e-03,4.968138635158538818e-01
5.370821650005372927e-01,2.868267332868728037e-01,-2.628565277070726847e-03,-8.337653975632451642e-02,6.137103234160889986e-03,-5.101054849835186429e-03,4.897916913032531738e-01
4.959170289739878168e-01,4.777511123427735096e-01,1.318566579699420593e-04,-4.241966261777649154e-04,2.697006867560448884e-03,5.280130285726524972e-03,4.870652258396148682e-01
5.313745975079734452e-01,4.408146046467670276e-01,-1.980576257315747046e-02,-1.834410234030162470e-02,4.507309945313750510e-02,4.534562447838338950e-02,5.247465968132019043e-01
4.998249612455838431e-01,4.922433489414874686e-01,3.457849183987782293e-03,1.959913485583583952e-03,5.903011165941668068e-03,-4.589927574811531429e-03,4.928019642829895020e-01
5.349851632510864707e-01,3.627740156003077532e-01,3.475580615751538982e-02,1.013543794897118905e-01,1.958395208658034528e-02,-6.984741862270303636e-02,4.902506768703460693e-01
5.314979636266072838e-01,4.714722895921849011e-01,3.808543008345582903e-02,1.017442838209870783e-02,-3.621547546667056375e-03,-1.858658023580868281e-04,4.666814804077148438e-01
4.981854959939723271e-01,4.925032692390598488e-01,2.295546691524263938e-03,2.842466034023879724e-03,1.000297738777048469e-03,-7.215562444007990982e-03,4.932593703269958496e-01
4.998872704529510047e-01,4.911171126718152369e-01,2.643830260520335651e-02,2.204860054211959901e-03,-2.520689307128542653e-03,8.552151584385075944e-03,4.693950116634368896e-01
5.068324937314361289e-01,4.537656865015523566e-01,-3.050471971388768466e-02,8.734613744336336937e-04,6.695404014871472395e-03,-1.272986891252933864e-02,5.134739875793457031e-01
4.966119073942115714e-01,4.748012405033228966e-01,-2.910186058507463480e-02,2.746765988411287683e-03,1.231988788384039092e-03,-2.326551832230989904e-03,5.151969790458679199e-01
5.315738025394660671e-01,4.914987133747498183e-01,3.362007931204336053e-02,1.260672822502351131e-02,-8.003576039977601184e-03,-4.253113226117891110e-02,4.854936003684997559e-01
4.928379904320943083e-01,4.819554691543257441e-01,-1.301848150002143933e-02,7.324208192130743410e-04,-6.565173190093856123e-03,9.065398593123647972e-04,5.006371736526489258e-01
4.927362162812399249e-01,4.762017819075032854e-01,-3.727266093512698886e-02,9.471306240623969400e-04,-5.355555159881701319e-03,-4.859030994225950993e-03,5.220909714698791504e-01
4.839736241150970342e-01,4.595237900252088226e-01,-3.277605044535808476e-02,-1.094550542813953371e-02,-1.065642195558892148e-02,-8.429726964995221117e-03,5.058723688125610352e-01
4.374807904450594975e-01,4.601613757323400611e-01,-2.591329968261568695e-02,-5.888080636601267931e-02,-2.420797346128007385e-02,-1.694969682026620933e-02,4.886505305767059326e-01
4.967244001253032781e-01,4.774208113365007167e-01,-3.362060246623049808e-02,4.250827364522914232e-04,-1.846410507455721476e-03,-1.013707097148198316e-03,5.209748148918151855e-01
4.982310731506054413e-01,4.888894842229185023e-01,-1.666538947130202786e-03,1.599509783576366813e-03,1.085009208033604075e-03,-7.818969189840024175e-03,4.954893290996551514e-01
4.962827906524513444e-01,4.701640253483257426e-01,-3.820040871282148753e-02,-1.696314089070638108e-04,-5.223476402146229845e-03,-4.636175558046535389e-03,5.220544338226318359e-01
4.945215799314047755e-01,4.907593680804483993e-01,2.032461660759066202e-02,2.645200344631190234e-03,-3.526240847823610726e-03,-8.115493387242763562e-03,4.725978970527648926e-01
4.865629857549644832e-01,5.015613054115987124e-01,1.015243803785052523e-01,7.622248620768962146e-03,-6.339770450743784959e-03,-1.609315477153250556e-03,3.931376934051513672e-01
5.946784557938158411e-01,3.195300104526145879e-01,4.290157388281140571e-02,-4.939626903492506244e-02,-3.091441751704506954e-02,-8.489147891147261205e-02,5.100496411323547363e-01
4.978513088151960142e-01,4.700972043211429363e-01,-1.921234613903860522e-02,6.834565948867138419e-03,1.889742975743316684e-03,-3.967305688556382881e-03,5.039568543434143066e-01
4.970861672029615042e-01,4.915624942590165469e-01,-5.440472064073220704e-03,-6.628816663597727381e-04,-5.676862510363848806e-03,-3.007570245772254753e-03,4.999128580093383789e-01
4.987222755912483763e-01,4.943037340794176338e-01,-1.897364366272802361e-02,-3.877317257357608665e-04,3.170060325863156923e-03,9.798741919390873897e-04,5.155333280563354492e-01
4.211203815021993258e-01,5.139245818941327038e-01,-2.811021033606075914e-02,2.869973782025490860e-02,3.476183610498857074e-02,-2.029395618571358528e-02,5.093554258346557617e-01
5.002556632247553425e-01,4.946179889558764975e-01,-1.683592185291860055e-02,2.532489578646236359e-04,3.636406435139726348e-03,-6.756977105945965708e-04,5.143359899520874023e-01
4.879990251129678880e-01,5.017386352587144271e-01,-3.337553789360792056e-02,2.051874668033947142e-03,4.975428485518709927e-03,-3.030259245893388107e-03,5.284866690635681152e-01
4.573703085299080096e-01,4.978295340610754405e-01,-2.843137356398939275e-02,1.028754548626981298e-02,6.985637835448156238e-03,-7.900613498709447777e-03,5.078843832015991211e-01
4.938939929586404487e-01,4.930840132892001515e-01,-2.737736672792356885e-02,-8.667838896590067139e-04,-1.611104355390750387e-03,-1.665009325976270780e-03,5.208844542503356934e-01
2.517544751256136082e-01,6.407357419528996179e-01,-2.011453484009212422e-02,1.413544495849969884e-01,-1.471107527137229323e-02,-1.413646725314908481e-02,6.262292861938476562e-01
4.041424002472487897e-01,5.088924382842995309e-01,-7.960265480568273766e-04,1.496186426665570002e-01,8.663680258304298776e-02,-2.348419681452843660e-02,5.556029081344604492e-01
2.348765218667233368e-01,7.376024966585770226e-01,-1.220374592271602499e-01,1.962379231920086398e-01,5.714515148462184085e-02,3.899110983747156034e-02,8.303231596946716309e-01
4.734756137171358681e-01,4.743997545099791768e-01,-3.943886634809584679e-02,-5.736834176813844499e-04,-4.468488472189664600e-03,-2.920747319865924126e-03,5.134614109992980957e-01
3.873695882115993916e-01,5.330006378939611267e-01,-1.415548503811631109e-02,3.505105776426493958e-02,8.594584588806401804e-03,-7.800461261313767353e-03,4.949698746204376221e-01
4.845375608002406853e-01,5.075953846786322998e-01,-3.455940682870750624e-02,4.403171388327810007e-03,9.235056286033296175e-03,4.111462197257251955e-03,5.313448309898376465e-01
3.924329941096147967e-01,5.203845575119773192e-01,-1.871162770223011584e-02,6.513696374563298155e-03,2.452648643332537917e-02,4.215174987141389381e-04,4.898474812507629395e-01
2.970060947946048246e-01,5.539015015359673999e-01,6.339895023901975790e-03,3.327596509957788176e-03,1.299522964403970748e-03,3.109615419515128400e-03,4.745737016201019287e-01
5.635286120819968936e-01,3.145354512559864757e-01,2.029180294639443272e-03,-1.610880029031418789e-04,2.845391219189568905e-03,-4.646919682030065243e-04,4.873342812061309814e-01
5.209387532370970408e-01,3.723940841757431008e-01,-6.012887582174109014e-06,2.350067848194409281e-02,1.032647647062032679e-02,-4.071466217059711498e-04,4.669503867626190186e-01
5.287345770640383691e-01,3.676220818985055372e-01,-1.407809672747445395e-02,7.980128628004949654e-03,1.461394396957013501e-02,-1.507567747255347985e-02,4.844197630882263184e-01
6.168168321768114915e-01,1.850837306272146709e-01,-2.089151312374348812e-02,1.314523002705955124e-01,2.670179855929028997e-02,-8.050323128911357137e-03,6.098508834838867188e-01
5.471964361473888872e-01,3.480568099342575272e-01,-6.309394975657245386e-03,1.454730685798258545e-02,7.828533298285575426e-03,-2.076149796754027041e-02,4.877624511718750000e-01
5.218009634240112771e-01,3.695879481261685751e-01,-1.150816973762014417e-03,6.718661475641229952e-02,-1.300384974127326027e-03,-1.167659868258495411e-03,4.802068173885345459e-01
4.762254638030487541e-01,4.393133248812026714e-01,-5.517904901835513076e-03,3.863127377142191315e-02,-8.063301216431532567e-03,1.053586407629880650e-02,4.697469472885131836e-01
5.604809269097441593e-01,2.571223736462075471e-01,1.059256411391124031e-02,1.294302611106147027e-01,4.066533302476400824e-02,-5.308627990263975471e-02,5.396872758865356445e-01
5.317354326880338045e-01,3.150333953824163147e-01,8.888991918231003986e-03,-2.697146662773949877e-02,1.550505446598004653e-03,-2.880459093498038557e-04,4.574014842510223389e-01
5.996171648066703774e-01,2.872443800974389672e-01,-2.068315952691079929e-03,6.079565860530531524e-02,-4.797348440765907170e-03,-7.334306741684631101e-04,5.317997932434082031e-01
6.326931611840423963e-01,1.364656299726166311e-01,-7.307661740068638334e-03,2.471219155650199520e-02,-1.054396968579757394e-03,1.502838623745777515e-02,5.837548971176147461e-01
4.605371087843244116e-01,4.800987778619102420e-01,-2.826712248321572307e-02,-1.212114374366767347e-02,1.259031906337484095e-02,1.262228941310825255e-02,5.002682805061340332e-01
4.716140977607068407e-01,4.680024015514441249e-01,-3.551864239798740996e-02,-1.062675173516812151e-03,1.253354575399729959e-03,6.125685642970699757e-03,5.054559707641601562e-01
4.740326605049399733e-01,4.442023150299250212e-01,-2.146933743183820908e-02,-2.634070779181306356e-03,1.423799305456443717e-02,1.291742800185533089e-03,4.819388687610626221e-01
4.844172322144416620e-01,4.529130649212830262e-01,-3.467762925863993040e-02,-3.602809644825889952e-03,1.514160319189873302e-02,1.086578711949206730e-02,5.051527023315429688e-01
4.591459889336358957e-01,4.670538002118516108e-01,-3.093036546586430680e-02,-1.603518466571098380e-02,8.177133146170552716e-03,1.075601501877353379e-02,4.954107999801635742e-01
4.716778326718175651e-01,4.862344904353621544e-01,-3.500766098222807265e-02,1.703849201592092313e-04,7.942813141099687013e-04,9.211901986089208322e-03,5.143678784370422363e-01
4.712519970552739856e-01,4.796466318994485611e-01,-3.402388389838456595e-02,-3.345309876972542631e-03,1.406730721003199335e-03,1.009447431561562568e-04,5.095638632774353027e-01
4.826159852795917637e-01,4.788527251813852192e-01,-3.920510598901377763e-02,5.219662539146846980e-05,4.038125541615871124e-03,2.486750790360639594e-03,5.200145840644836426e-01
4.817662133946480907e-01,4.872492772463043464e-01,-4.261585837389397780e-02,-7.436691344753256481e-05,3.505579660814174851e-04,2.030753975823242682e-03,5.271570682525634766e-01
4.749760771120775660e-01,4.602259124855553885e-01,-2.594466967175168559e-02,-3.431149302393762465e-03,1.116363471740958874e-02,4.883408908880866942e-03,4.941975772380828857e-01
5.326809299330984571e-01,4.747208349545037898e-01,-3.573486483713178563e-02,5.926061848587492464e-02,-2.079982423654521545e-02,1.069887687075742923e-02,5.528898835182189941e-01
4.438422474884141100e-01,5.146128565268769384e-01,-2.204946815224256840e-02,1.993434701067093359e-03,-1.064817048341273019e-02,-1.383613595304715959e-04,5.053583979606628418e-01
3.814253165377671784e-01,5.259682844514772526e-01,2.726793060667925817e-02,1.432769229917020826e-01,-6.049553225478589841e-02,4.973822739684809202e-04,5.196881890296936035e-01
3.532679060765686607e-01,5.386558971281416586e-01,-1.662335042348106473e-02,1.420609556165302600e-01,-2.398542509110226234e-02,1.664355113078586426e-02,5.503294467926025391e-01
4.148703222962956128e-01,6.105339446131998749e-01,-4.440899656706753795e-02,3.044080868593282418e-01,1.579623561765729212e-02,4.330575416267540972e-02,7.895907759666442871e-01
3.081936234334146651e-01,5.975353083042106439e-01,-1.460222599223409690e-02,1.015519345161268183e-01,-1.421011885292283901e-02,4.503916935248679365e-02,5.647510886192321777e-01
4.061422228740849127e-01,5.157971355530968083e-01,-2.018597350189832440e-02,2.932609265315075115e-03,-1.939541966952178231e-02,3.378220788780522156e-03,4.916477501392364502e-01
4.812265382494432253e-01,4.794932896397331445e-01,-4.836484681783587147e-02,9.904661111148928276e-02,-3.222906730082136795e-02,2.080721423286031185e-02,5.598194003105163574e-01
4.961762444129235172e-01,4.993459041023725620e-01,6.914925289703055533e-03,-3.163164473182456210e-04,-6.175904157074474377e-03,7.873465856453713135e-03,4.911600351333618164e-01
4.930919018503533979e-01,3.935010793531729112e-01,-6.614497543745601060e-03,1.459607189739094701e-01,-2.994579559132068414e-02,8.305516482383192012e-02,5.451210737228393555e-01
4.730585869468187377e-01,4.638592654395183867e-01,-3.190491857675303855e-02,-7.126062741151782155e-03,-9.197680089430546047e-03,-5.285757863647549612e-03,5.009165406227111816e-01
5.311902930469039052e-01,3.799577743100752136e-01,-2.312326834275801879e-02,-5.796576360171554372e-03,1.257855067554589264e-02,2.642421905890547651e-02,4.989736974239349365e-01
4.906565859528493334e-01,4.705445887681403150e-01,-2.671074964729430734e-02,3.246626667757922160e-03,-8.472822503509367525e-03,5.570635970377887415e-03,5.079451203346252441e-01
5.116173886830233108e-01,3.680915434330908065e-01,2.302767545185879783e-03,3.462253737654128610e-02,-6.532736710254978671e-04,-7.458708640903104117e-04,4.588031768798828125e-01
5.180782917979069868e-01,4.272194676162359150e-01,-2.584600044797619178e-02,1.501503168441324643e-02,-7.344950316651586292e-03,2.084423791656117228e-02,5.067842602729797363e-01
6.275980688575718558e-01,2.064713770545448246e-01,-2.554242042452081751e-02,-4.345878665530662766e-02,3.931607525611581500e-02,4.269155517753745605e-02,5.870743393898010254e-01
4.763210238513191364e-01,4.782246295515743539e-01,-4.090313289282165865e-02,6.522047668623620826e-05,-8.989516026697957072e-05,-1.777227598840150358e-03,5.181877613067626953e-01
4.775883428262932551e-01,4.808425978864659944e-01,-4.133417649781118142e-02,-3.122234992208708956e-04,-7.734824013973036656e-04,-1.922211902490955941e-03,5.205699205398559570e-01
4.772016823845050548e-01,4.831828482775216149e-01,-4.158367057830125724e-02,-4.663323924577288246e-04,-7.649279108999570151e-04,-9.345194744394413758e-04,5.218064785003662109e-01
4.913200800479488595e-01,3.934240812504865015e-01,-2.667383722127308898e-02,-1.278945868686198195e-01,-3.825905852915324062e-02,-3.329097331229875084e-02,5.328968167304992676e-01
4.639261731306509318e-01,4.793090442278626906e-01,-3.346432697086509922e-02,-9.276067362330190844e-03,-8.343593873871967687e-03,-1.143603549429986210e-02,5.061072707176208496e-01
4.829268932308165008e-01,4.698621125711470725e-01,-3.984342916071981211e-02,-1.821534719931898905e-03,-5.708913147396920545e-03,-2.474326926694339103e-03,5.164840221405029297e-01
4.827037858374377266e-01,4.808288833287318598e-01,-4.111140033133547922e-02,-7.748869191815567362e-04,-8.003051382199317726e-04,-2.437439130285925289e-03,5.229008793830871582e-01
4.060877633688799726e-01,4.855494791922894127e-01,-1.868630957368033751e-02,-7.549921769926005999e-02,-3.276205921977184965e-02,-2.763970680337160535e-02,4.930646717548370361e-01
4.707047985787562450e-01,4.554189743309040583e-01,-3.334017012840145844e-02,-5.835176065503979922e-03,-9.976516589087663575e-03,-6.238892465077350985e-03,4.970993399620056152e-01
4.713510391197325844e-01,4.667542123993996261e-01,-3.251750288233951069e-02,-9.469088032609075667e-03,-9.402912091313208112e-03,-7.828155482957991143e-03,5.023012161254882812e-01
4.687179350069281547e-01,4.864231862156903619e-01,-3.955827606365713844e-02,-2.429969652161059236e-03,-4.452287474479487903e-03,-6.399349654313903762e-03,5.175493955612182617e-01
4.807111050115963624e-01,5.069908174070600904e-01,6.129465803491884746e-03,-2.928917527891924596e-02,-2.397129733994188272e-02,-3.934507898028895279e-02,4.973246157169342041e-01
7.122135337589886595e-01,2.508976279142559052e-01,2.295091583763880783e-02,-9.197136207298127475e-02,-6.722661811626899631e-02,-6.793111477460876679e-02,6.501583456993103027e-01
5.015703035452004910e-01,4.848168536238715576e-01,4.797701005757643022e-02,-7.057185960632718358e-02,-3.833245342222645069e-02,-3.672107637551564469e-02,4.709807932376861572e-01
4.953267798891358709e-01,4.955872866231164631e-01,-2.372221814012720476e-02,5.174814100649146806e-03,-1.477488840814481820e-02,-1.522421472678239449e-02,5.205551981925964355e-01
5.224806712252640928e-01,3.891488709344297914e-01,2.861290015675627130e-02,-2.172430093888992331e-01,-7.362971212547755884e-02,-6.205821136387035253e-02,6.043473482131958008e-01
5.100424672055016151e-01,3.094764173964510423e-01,-2.276493127936651817e-02,-1.686485693948627795e-01,-3.056477351860082195e-02,-2.302018432345823845e-02,5.540458559989929199e-01
5.331038302142416807e-01,4.008988190717689970e-01,5.057295193134647704e-02,-7.515299692045970814e-02,-7.218828332447037310e-02,-6.518342798209919575e-02,4.815030694007873535e-01
6.234988364752223067e-01,5.171835379849831771e-01,1.028850186843612846e-01,2.205108325875207789e-02,-7.816909956470145804e-02,-1.844865967998808032e-01,5.906677246093750000e-01
4.575573097718887983e-01,4.700012736032312399e-01,-2.911404047280230500e-02,-6.114711424523461628e-03,-1.070820195965642603e-02,-8.502571504140861436e-03,4.936932623386383057e-01
6.257032031269316175e-01,1.749949098661708058e-01,-2.204363542820786392e-02,-4.650343860905945675e-02,-1.568853226212621466e-02,-5.371412728940567344e-02,5.887705683708190918e-01
5.448921616112971655e-01,3.791796150594513026e-01,-3.204858663190657264e-02,-1.003895794318497847e-01,-2.753998957996361963e-02,-5.809300185061185701e-02,5.543905496597290039e-01
3.830463399997742213e-01,4.769055784823014177e-01,9.086907692802070891e-03,-1.261927440115691648e-02,-3.004637662681084402e-05,4.086575648044508957e-03,4.292815029621124268e-01
4.931283187170508731e-01,4.557587799568942888e-01,-2.867302787785941387e-02,-2.188783094768268628e-02,-1.237861015358979536e-02,-1.804423838600339308e-02,5.069983601570129395e-01
5.015245402054513413e-01,4.701589936347481125e-01,-3.558230763540887187e-02,-1.166665719608644047e-03,-1.530383510858535556e-03,-5.394589145397321768e-03,5.222253799438476562e-01
4.154299389124443964e-01,3.607033090609345072e-01,2.089016772492116591e-02,-1.840520758839425675e-01,-6.424788244967288842e-02,-5.064228985824738294e-02,5.086920261383056641e-01
4.817151976164281146e-01,3.707609942531722158e-01,2.561310601721095148e-02,-1.137413024408622658e-01,-3.404415446471333734e-02,-4.678218076177592666e-02,4.675334095954895020e-01
3.067701131282183358e-01,5.378769602246245007e-01,-2.033899986234638524e-02,-1.951006508489308844e-01,-4.421743498638364828e-02,-3.945936773690181948e-02,6.006141304969787598e-01
4.301048648611933145e-01,4.780608653900022542e-01,4.293624126023892762e-02,-1.179487667018265240e-01,-7.544012697425542258e-02,-9.647618068277045988e-02,5.074433088302612305e-01
4.894826565895049053e-01,2.955680227858936138e-01,5.286390351566694346e-03,-1.658459800252329308e-01,-2.926614024720749357e-02,-5.340092927689955166e-02,5.213399529457092285e-01
5.691052778864039707e-01,1.728780285997159050e-01,-2.920903816715439416e-02,-1.599402118017253793e-01,-1.626403895271534214e-02,-3.565679175985080052e-02,5.993813276290893555e-01
4.710863873518430500e-01,4.786811833978573683e-01,-3.926698060149930170e-02,-2.061610541226981379e-03,-2.973376906696073921e-03,-4.927271330153558566e-03,5.143018364906311035e-01
4.629412752656947294e-01,4.331082153955309044e-01,-8.428671587269231935e-03,-6.448193356688627052e-03,-6.844494317681446699e-03,-2.892980134139844055e-03,4.575015008449554443e-01
4.447331324288057441e-01,4.334914512471503278e-01,-1.951407568341168020e-03,-5.696402510087839738e-03,-7.098360322142463485e-03,-4.159198947193219059e-03,4.415114521980285645e-01
3.876737951869987930e-01,3.801541601107260027e-01,-1.167462387630108234e-02,-1.733477920805084338e-01,-2.816099550140047439e-02,-2.113109487467999120e-02,5.003996491432189941e-01
4.771544256135734630e-01,4.723905556820651719e-01,-3.933553141257095653e-02,-2.390647851662927766e-03,-3.974213306821803085e-03,-4.811011593081558277e-03,5.142548680305480957e-01
5.079560328349230769e-01,2.276043934018248116e-01,-7.102846331174528238e-04,-1.738024432467398517e-01,-6.798652851929477998e-03,-1.100757155869867311e-02,5.346560478210449219e-01
5.572493178459101415e-01,2.861548759079853288e-01,-4.900077070320918438e-03,-2.959011691501365476e-02,2.679556148546072616e-03,-1.270741069734011332e-02,4.901441335678100586e-01
3.997865505283842436e-01,5.874063546916699075e-01,-2.579485987696505944e-02,-1.234021081579913214e-02,4.708073323867579402e-02,2.251628879600991312e-02,5.520831346511840820e-01
5.124191873385234297e-01,3.126052470923122439e-01,4.635015059823166528e-03,-3.577583635414812585e-02,-6.367696544274033775e-03,-2.178220071407851229e-03,4.475305974483489990e-01
5.373015915352727934e-01,3.368910266185157765e-01,-4.507079268102509584e-03,-1.081296029480290771e-02,-8.097635060021427661e-03,-1.958746266893176408e-02,4.762723147869110107e-01
5.324019030532365360e-01,3.101839197324431918e-01,9.929065441075746179e-03,-2.747210847606004758e-02,4.564743039268116982e-03,-2.600681247138356307e-04,4.567085504531860352e-01
4.768808277118647965e-01,3.536253842593660712e-01,-1.593588215313967993e-03,-1.191392481497448447e-01,4.540165196612609526e-03,-3.367876949474599840e-02,4.808349013328552246e-01
5.605947010925138585e-01,2.590888396841041774e-01,3.516844531713914090e-03,-9.394945464791150391e-02,3.368945037033224937e-03,-1.479833089065231595e-03,5.097051858901977539e-01
4.799971895983971004e-01,3.486006661783127569e-01,1.014418727710503232e-02,-3.895290837304036385e-02,5.191549252674276631e-03,2.446195563724960450e-04,4.253502786159515381e-01
3.032914576230130721e-01,3.901508090959195929e-01,-3.095798034969163282e-02,-2.483237085185340531e-01,-3.062243396284286198e-02,-2.325299977343043070e-02,5.811447501182556152e-01
3.254264458905328228e-01,4.829576043530569573e-01,-6.852274360615917548e-03,-7.992103959424388948e-02,-1.550830534615495106e-03,-1.050985253316854239e-02,4.550496339797973633e-01
4.841791965801558462e-01,3.720483707941609208e-01,-7.686181867968600034e-03,-6.788958380938826809e-02,-2.359419426452317656e-02,-2.761767343580003725e-02,4.659794569015502930e-01
3.460289401242164775e-01,5.240738575271004507e-01,-3.946258200482832823e-03,-1.840044286979940907e-02,-2.225482881716945444e-02,-5.786271120872018073e-03,4.680768549442291260e-01
3.174814657270047524e-01,5.494284224498429126e-01,-6.075654970464083870e-03,-2.213540673288877034e-02,-1.340321750472918405e-03,8.242671484670775761e-03,4.849905371665954590e-01
3.849861523239758165e-01,4.759685897222215578e-01,7.832779892939456534e-03,-1.058285133070223719e-02,-4.423723322095840516e-03,-3.796329062301722138e-03,4.304355084896087646e-01
1.879797529751071616e-01,5.273951296297667568e-01,-2.333516233590005040e-02,-1.796657143237458121e-01,2.178055029189340103e-02,1.439389653350068091e-02,5.748602747917175293e-01
3.875646477992332750e-01,5.232574646847355515e-01,-2.432196811804476777e-02,-6.672197427561444086e-03,-2.108904132306724591e-02,-1.271500325468168623e-02,4.958890974521636963e-01
3.984310409508759476e-01,4.623989181236431989e-01,-1.053872047658666045e-03,-1.366490073733487090e-02,7.903243210106465980e-03,1.407627946420309320e-02,4.365504384040832520e-01
5.462835496834721472e-01,3.317518348556037777e-01,-1.099500759790594806e-02,-3.350266791671605189e-03,2.163621361022200103e-03,-2.207242269658086717e-02,4.884041547775268555e-01
5.024130589418596138e-01,4.368811683676518953e-01,-3.365819455619872835e-02,-2.113454151644641576e-03,-8.304763848619306499e-03,-1.153032847506290856e-02,5.071057081222534180e-01
4.895056878860112315e-01,4.916255736222699402e-01,1.832877001769706027e-02,-1.607176793894822889e-02,-1.328257781027906287e-02,-1.294814125059326818e-02,4.741499423980712891e-01
5.750946419705542656e-01,3.696118501332747996e-01,-3.958707462667648835e-02,4.844173446936409638e-02,1.085288962777207489e-02,-2.960751816886854001e-02,5.511562824249267578e-01
4.027671256270227151e-01,4.275848192003112724e-01,-3.893581255335082369e-02,-2.518112642479244379e-01,-9.092612518901522362e-03,-2.369900251102807776e-02,6.315371394157409668e-01
1.572288438068600025e-01,6.189442893574336191e-01,-3.031169875463624042e-02,-1.065193176658271179e-01,1.126947264051033530e-03,2.056525650998683799e-02,6.084855794906616211e-01
4.142365477847027577e-01,4.543327480020836751e-01,6.297685707430666913e-03,-3.408960378668763475e-02,-2.577987811159791580e-03,1.070451481277963812e-04,4.334568977355957031e-01
3.621342817640322287e-01,4.737893810034035091e-01,3.313661075227014585e-03,-3.489468723883314832e-02,2.159706594196422053e-02,1.822486613902823613e-02,4.328185617923736572e-01
3.842861302912043420e-01,4.743790696109199123e-01,4.321686066932706183e-02,-1.416577697553794146e-01,-7.760014282127672414e-02,-9.343722632955948904e-02,5.095396041870117188e-01
4.856293001109028840e-01,4.792249640434597668e-01,2.422827957049045189e-02,-1.525737519994483163e-02,-4.918594722554923970e-03,9.489947554759912149e-04,4.590758085250854492e-01
5.051466783523315129e-01,4.135515421875401998e-01,-2.344228771744177875e-02,-4.843931433998745206e-02,-4.243437672256532983e-02,-4.232607419759686768e-02,5.071443915367126465e-01
4.923976091686611545e-01,4.883517531541701762e-01,-1.202492280863831642e-02,2.319976670466544766e-03,-4.648355507973270934e-03,3.150781221103815880e-03,5.025220513343811035e-01
2.268241100569043101e-01,5.700362337360922460e-01,-2.670734203982838562e-02,-1.212402135382155410e-01,-3.287247579280889315e-02,-1.081553622980980676e-03,5.625217556953430176e-01
3.097252457474161114e-01,6.020799245701879965e-01,-7.061628014100429507e-03,-2.940137696090797635e-03,-1.458621791349214679e-02,7.887396396374684454e-03,5.284790992736816406e-01
4.865736430780660537e-01,4.876636841476477136e-01,-2.699454459060007805e-02,1.549377131676228138e-04,-5.544863719376752313e-03,-2.555195631116565381e-04,5.142040252685546875e-01
4.571765836152552609e-01,4.570982612311880189e-01,-2.989573546338969434e-02,-9.094553471844939868e-03,-6.763506725294033892e-03,-8.278069709690229205e-03,4.876394569873809814e-01
4.235924164704957806e-01,4.443632544747154745e-01,-1.515672577918603103e-02,-7.406024324146585902e-02,-3.666252077733517245e-02,-2.699962459393394354e-02,4.740459322929382324e-01
4.852105460656450653e-01,4.948827345981124948e-01,-1.171594280117815856e-02,1.059488292065588868e-03,-7.182560253601867097e-03,1.204831750110676438e-03,5.019943714141845703e-01
4.914506076049696692e-01,4.911534831014123803e-01,-1.256996607994720350e-02,3.797469696132579463e-03,2.564850228059625033e-03,-4.910651164227033266e-03,5.040063858032226562e-01
4.165224334696993602e-01,5.065224528015540573e-01,-2.662476404110641903e-02,-1.672513475727197343e-02,-2.271126399270601004e-03,9.730249742313679118e-03,4.954809844493865967e-01
5.359342485888169971e-01,5.210816942511786731e-01,6.278620356603287211e-02,6.367173070937123640e-03,7.952485235125977825e-02,4.152524716156913431e-02,4.912529587745666504e-01
5.038712874255326657e-01,4.685606159024179873e-01,-2.677081864953478885e-02,-1.730463273704233376e-02,1.746847631977222967e-02,2.072975500646326644e-02,5.169076323509216309e-01
4.683856803105360678e-01,5.050008281108848696e-01,-2.388719131408689744e-02,1.763274703671909157e-03,-2.348538306373304605e-03,1.411090286512017931e-03,5.115953087806701660e-01
4.159460964596216614e-01,5.004104713720126663e-01,-1.737022462744247653e-02,2.886605789708486525e-03,-1.742563748071936439e-02,1.264761799229576281e-02,4.826104938983917236e-01
4.505217097261600134e-01,5.047647929849310433e-01,-1.956282704004647099e-02,1.173281403641613686e-02,-1.176483252047458121e-02,1.247895003539867438e-02,5.007154941558837891e-01
4.815552263812055145e-01,4.793674568218143639e-01,-2.581018710430110774e-02,1.721865985529061295e-03,3.693668089399932547e-03,-3.941019210633911821e-03,5.063703060150146484e-01
4.897119624621796286e-01,4.782620988234652093e-01,-3.556528696129540590e-02,-2.817464339053822337e-03,6.826467311121179292e-03,4.774845790441521916e-03,5.198701024055480957e-01
4.452512448310376736e-01,4.893450272438485404e-01,-1.861035551503209540e-02,3.824907595884613140e-03,-5.315061139822145446e-03,1.128471975070700732e-02,4.879302680492401123e-01
4.721931944833304695e-01,4.855145613302686014e-01,-2.015987903651483837e-02,3.306116538524390969e-02,-1.947532455797868975e-02,2.506917523265330197e-02,5.054208040237426758e-01
4.463291045298627968e-01,5.412464241632291007e-01,6.118522840984680355e-02,1.000935614969860055e-01,-4.196627534120197373e-02,5.464451290240805031e-02,4.880570173263549805e-01
4.868385404531165861e-01,4.978866346115859431e-01,3.260532965624340918e-04,5.703980635594262105e-03,5.482346770007311739e-04,6.064467312900482035e-03,4.923416972160339355e-01
1.783311627952534062e-01,7.228650857488869708e-01,-3.182706074103064386e-02,4.881583977994174983e-02,-1.766575572944432612e-02,3.913707648352251871e-03,6.806269884109497070e-01
3.354741429485534332e-01,6.098659986667760435e-01,3.615614507330905392e-02,2.721457231835899132e-02,-4.947688596054215099e-02,5.648708909095000175e-02,5.158979892730712891e-01
5.957338939695113744e-01,3.089452864619575134e-01,-1.351897204218721615e-02,-2.483832881777866923e-03,-4.858200754938759094e-03,-3.750096412848386712e-02,5.319945812225341797e-01
3.241047214075695737e-01,5.268461212802999505e-01,6.775881121715787714e-03,-1.900713438373278705e-02,-9.059279417492543734e-04,3.461754249378902991e-03,4.552577137947082520e-01
5.652587412461522742e-01,4.465055204737865546e-01,-3.247535897003223093e-02,-3.740742274098163289e-02,3.876726018118317046e-02,5.601440601390141050e-02,5.643802285194396973e-01
4.044335286402297447e-01,4.442829771192027266e-01,-1.970651545591228793e-03,-5.431542324641176755e-02,9.617299666500073174e-03,1.354277838674406570e-02,4.388912320137023926e-01
4.347763834173558606e-01,2.527446961018673943e-01,-2.223991782522771743e-02,-2.461668834376663784e-01,6.643638474364344133e-03,2.862758345111432456e-03,5.837460160255432129e-01
4.302972261638830509e-01,2.521983751710765720e-01,-1.447698096676552915e-02,-2.482180045196360485e-01,-5.841446621005887477e-03,-9.452349905815787476e-03,5.792551040649414062e-01
4.912843850147070035e-01,3.978544259295139218e-01,-1.257054783431060807e-02,-2.167007579114030996e-02,9.444709562623361879e-03,1.233893192315787049e-02,4.665371775627136230e-01
4.887716690953572973e-01,5.029534760059212184e-01,4.824449563621752146e-02,8.803243531578682640e-03,3.722220591205183376e-03,-1.077877971361091390e-02,4.484812021255493164e-01
5.209055251120953134e-01,2.719456344054411723e-01,2.757714791001397714e-03,-7.288985028386868459e-02,7.804098099154179423e-03,5.105133477294237533e-03,4.665403068065643311e-01
4.967202178407290614e-01,4.905406684010095164e-01,-3.025466793674225219e-02,-1.799906996365395560e-03,1.891476136406415902e-03,-1.898456609375810200e-03,5.239422917366027832e-01
4.902470659114846474e-01,4.860889474255997156e-01,-3.389081541052002544e-02,-3.146481784469163149e-04,-1.179275935029286447e-04,-2.071917815330068160e-03,5.220838785171508789e-01
4.841283850370515784e-01,4.762299515867021160e-01,-2.724257469611190974e-02,3.108174407317935029e-03,5.536146691788164549e-03,-8.402919787718742678e-03,5.077955722808837891e-01
4.829766586263438688e-01,4.525581001646659107e-01,-3.373122415984508571e-02,-2.915438255322434866e-03,-1.178305823800013946e-02,-6.161876134501965280e-03,5.027432441711425781e-01
4.798003805468925020e-01,4.767482378152060885e-01,-4.072230322950232129e-02,-5.622845295175954872e-04,-1.780457553234806103e-03,-1.669852315254986711e-03,5.190214514732360840e-01
4.894751234189377298e-01,4.759956024699117938e-01,-3.943163380213643432e-02,-7.486715607091331377e-05,-1.186959340146889839e-03,-8.163215605959643498e-04,5.223034620285034180e-01
4.900821604944343157e-01,4.766164911860375497e-01,-3.941827767348887734e-02,-7.497746596311201600e-04,-1.266204392997303044e-03,-6.798413624976319940e-04,5.229051709175109863e-01
4.826289195107567043e-01,4.538134790405151664e-01,-3.334653881492288807e-02,-3.795178235222068999e-03,-1.133469820276085914e-02,-6.765297195277476458e-03,5.027512907981872559e-01
5.090092528198839616e-01,4.366480024854104136e-01,-3.292562573785351443e-02,-4.136659022172885052e-03,-5.679447414716680062e-03,-1.165071186960110923e-02,5.101664662361145020e-01
4.921221475088078945e-01,4.706683793896663803e-01,-3.813896333035110553e-02,-1.058761728903432481e-03,-5.047268344392838620e-03,-4.720784542724211497e-03,5.200073719024658203e-01
4.849871553090101539e-01,4.439697875207851419e-01,-3.369002587109204416e-02,-9.372318533914389405e-03,-1.068742405467264060e-02,-6.938821951973291394e-03,5.001842379570007324e-01
4.956096213957789098e-01,4.958671633369196030e-01,-2.566304108060779576e-02,2.084116844073745367e-03,-1.893365051951546732e-03,-1.568644355356598212e-03,5.214313864707946777e-01
4.929344726679257271e-01,4.944549813163476859e-01,-2.540194259277200883e-02,8.670688499552575701e-04,-2.533241923925381393e-03,-7.768599769751992237e-05,5.191190838813781738e-01
4.923451042291909774e-01,5.033411554999268622e-01,-3.165029034381017237e-02,8.065713676730831274e-04,9.600454232222839068e-04,-7.306956090932132406e-05,5.295835137367248535e-01
4.488811545218763799e-01,5.045517330946166501e-01,-2.871727659906142538e-02,4.515502733328669721e-03,9.379282828249280862e-03,-1.125926675024911585e-03,5.080516934394836426e-01
4.928967287594097080e-01,4.976102782344422604e-01,-2.609282225143899625e-02,1.238751006755213968e-03,-2.619177229900429733e-03,1.673618769300069754e-04,5.213865637779235840e-01
1.453858248066731140e-01,6.953262283363527141e-01,-4.407020556397811539e-02,-1.686868345666374391e-01,1.362289499050523510e-02,-2.284949615196480224e-03,7.269495725631713867e-01
4.887506310137105792e-01,3.571470177339202690e-01,6.743933445195526843e-03,-2.916006521407456947e-02,-7.367156664051588595e-03,-7.712241913820029951e-03,4.348658919334411621e-01
3.952246773015706260e-01,5.899162265287640761e-01,-3.510620435898664793e-02,-3.917993691823855318e-02,-3.674785136377347466e-02,-1.530115433225612796e-02,5.623433589935302734e-01
4.589024230621046585e-01,5.059160395815407441e-01,-3.370818138638825845e-02,-1.056988876400663220e-03,1.158746981495761830e-03,-2.448730967936144087e-03,5.177453756332397461e-01
4.443271496252168551e-01,5.052786618512555838e-01,-2.857108598776619823e-02,-1.802575105353144231e-03,-8.562978942115740191e-03,-3.350870262013197856e-04,5.063613057136535645e-01
4.801875245393018021e-01,4.648805097492157423e-01,-1.780758875053434220e-02,1.992384753215737173e-02,-5.895545837148826254e-03,7.641098669502794163e-03,4.920172095298767090e-01
4.489045351893656832e-01,5.146429762630350124e-01,-2.838126730065509973e-02,2.513349777283668644e-03,-1.219634627183240234e-02,3.128723724910124904e-03,5.138033628463745117e-01
2.501425554842142129e-01,6.111046886927060662e-01,-2.841938785940301138e-02,-7.260387870632437068e-02,-9.819653044567767247e-03,1.458012071962681150e-02,5.702470541000366211e-01
3.155705263517513126e-01,5.247066820097394668e-01,-7.548818448750049814e-03,-4.567149329863490204e-02,1.020850129095442899e-02,1.131213445953276227e-02,4.718836545944213867e-01
4.591416148313653967e-01,5.128502025357538630e-01,-2.885829903225600734e-02,4.840522176517890462e-03,-2.025762323687608363e-03,-8.236926630954789167e-04,5.170328617095947266e-01
4.523579093642375870e-01,4.270734374366952912e-01,5.509948749060888940e-02,1.314135274821953969e-01,-4.563912202911360461e-02,2.805536358137521863e-02,4.569767415523529053e-01
4.905801402975202841e-01,4.933612400918508389e-01,5.322116821472122616e-02,7.089599794771852745e-03,-9.831720370332990358e-03,1.898702753901255818e-03,4.392704665660858154e-01
4.907144097473808975e-01,4.926495613260701845e-01,2.160204704592216807e-02,-1.478646495980737944e-03,6.651348481249874656e-03,1.368086957638731029e-03,4.702370166778564453e-01
4.915764896345806712e-01,4.970161689870521426e-01,-1.083715952226660395e-02,-2.050569742043002915e-03,-4.546318460035747924e-03,2.275490143947615459e-04,5.052294731140136719e-01
4.303085818016751940e-01,4.923828183013055915e-01,-2.014517490264883248e-02,-3.379693989778696089e-02,2.529432859551442384e-02,1.917585962306373945e-02,4.910932779312133789e-01
4.952722971363283655e-01,4.968701613920332161e-01,-1.135206017799650358e-02,-3.073636177075915812e-03,-1.286829604327435284e-03,2.240648100938086047e-03,5.074728131294250488e-01
5.411957128739970369e-01,3.387990096031456844e-01,-1.968195425026675327e-02,-1.899518491078216464e-01,3.396037705938451806e-02,7.661466557351241657e-02,6.093790531158447266e-01
5.329009591551725489e-01,5.199627793030445755e-01,8.073832673338698918e-02,8.064202216572249199e-03,6.355415114621786044e-02,8.470180319650241763e-02,4.822903275489807129e-01
5.354417740635002421e-01,3.261343127602324699e-01,-1.597936311092484907e-02,-1.011458917558365200e-01,4.026327674254241012e-02,7.387347516914125056e-02,5.332776904106140137e-01
5.715107362771993937e-01,7.060137531156076562e-01,4.543304401237507895e-02,-2.026435758971556825e-02,9.471767000067510267e-02,5.944683931423463963e-02,6.358898282051086426e-01
3.299354592395821184e-01,4.599284363337117210e-01,5.307193873549220786e-03,-9.691531720420309970e-02,1.558248463912007171e-02,2.033786468840693626e-02,4.411667883396148682e-01
4.919197989189582620e-01,4.949837013517429662e-01,-2.899845024248676184e-02,4.653661326602056073e-03,2.812556270169389375e-03,3.438928691569274020e-03,5.225757956504821777e-01
1.765788291543292088e-01,6.813961506093375586e-01,-3.131784041875557145e-02,-1.050162243962175224e-01,3.572954241756880287e-03,3.508973428502207281e-02,6.631959080696105957e-01
3.286833258881189379e-01,5.207294759784065752e-01,4.216045254315958779e-03,-2.843001542189985131e-02,-7.161077269589895397e-04,-1.353348720166840102e-03,4.548684060573577881e-01
3.556385220400786751e-01,4.948645000891306878e-01,-1.679014284794028145e-02,-6.688376637143768344e-02,-2.802437897793977339e-02,-1.954704716515939800e-02,4.762997031211853027e-01
3.168935049692318540e-01,5.638718771838713284e-01,-1.175710180281031025e-02,-3.479544798696691810e-02,8.821342803797651080e-03,-2.893573968094042843e-03,5.040534138679504395e-01
4.825478214645654296e-01,5.333241087621696241e-01,2.665925706854160859e-02,8.738492169008207910e-02,2.793694350829945168e-03,-2.501899972370467268e-02,5.083016753196716309e-01
2.634441976816955799e-01,5.710142386021253014e-01,-1.360931634818290936e-02,-5.172771214986662119e-02,4.503638203545830970e-02,2.396104318041488226e-02,5.219250917434692383e-01
4.940222213613955637e-01,4.957469647128537882e-01,-1.731585801525586943e-02,5.484726168889219114e-03,1.297416373716564660e-03,3.694903717398161959e-03,5.123355984687805176e-01
2.706904490893959347e-01,5.996023143838502545e-01,-2.382786691711175076e-02,-2.060479228588225908e-01,2.299355651241503581e-02,4.092420325795561448e-02,6.525123119354248047e-01
1.978272099474986667e-01,5.811770478426443454e-01,-1.268632740787760116e-01,-1.490458655971787505e-01,1.555048295163995696e-02,3.025730904922911690e-02,6.685559153556823730e-01
2.185699365509366499e-01,6.557066945559570925e-01,-1.366842860491507550e-01,-2.308714673874128209e-01,-5.875818608966442043e-03,3.737238692160309295e-02,7.979895472526550293e-01
3.832621643939738143e-01,4.773551042586505755e-01,-4.214994716964681754e-03,-1.249604559165252808e-02,1.086591681203227105e-02,1.684371796624466525e-02,4.439872503280639648e-01
4.818246761454262339e-01,3.770127564733355974e-01,-5.334524912149030129e-03,-1.508547479753290510e-01,-1.429603590982603430e-02,-2.850852596943653436e-02,5.182396769523620605e-01
3.044637456616261506e-01,5.331370967343274092e-01,-5.900493199167744507e-03,5.779360116072818077e-02,-2.541793446737985671e-02,2.296972063085803498e-02,4.828362464904785156e-01
3.481623789671697833e-01,4.787356849112675006e-01,1.093180924153769329e-02,-3.488855323543803288e-02,-1.208626547224328973e-03,3.599727844139521352e-03,4.224950373172760010e-01
2.785414070127497088e-01,5.489657023146475856e-01,9.250227399857702260e-03,-1.149147500030005611e-02,9.187720417791757702e-03,5.461574894126731278e-03,4.681974053382873535e-01
3.431499226234643873e-01,5.493447195066730737e-01,-2.078427943137056699e-02,-1.147370689989672676e-01,-2.979295071162873371e-02,-1.782883457796474030e-02,5.414018630981445312e-01
1.497032015225330248e-01,7.194780045116757616e-01,-1.048941428969709655e-01,-1.592536990662143659e-01,2.142933066906316936e-02,1.498407756218919640e-02,7.827277183532714844e-01
4.932069519540838720e-01,4.973622019792877103e-01,1.782599355720759782e-02,5.348480277000473848e-03,4.152318644327405127e-03,3.672644545596479970e-03,4.776585102081298828e-01
4.818828236561428224e-01,4.976407359526194285e-01,1.646114818760457954e-02,6.409046462209376028e-05,-1.565324296072727675e-02,-4.616908836932006634e-03,4.743403494358062744e-01
6.450726421476769001e-01,7.566090034729044955e-01,8.376125159491731864e-02,7.578905269077849949e-02,-1.056252976373517199e-01,-5.549572661449311134e-02,6.708642244338989258e-01
4.551527147638223525e-01,5.193899048135659502e-01,3.611279475532680472e-02,6.618919095226142961e-03,-2.009168603375270298e-02,5.854377957402703142e-03,4.561623632907867432e-01
4.861633674977754449e-01,4.990180307609073385e-01,8.920141258767394499e-02,7.533347700846584893e-03,-4.617381586835987185e-03,-6.231750537558374860e-03,4.039771854877471924e-01
4.925007469127007376e-01,4.994053751447522504e-01,3.505936915632573703e-02,4.721978476075626777e-03,-9.290846505081809883e-03,3.512904514927757838e-03,4.613259434700012207e-01
3.812086388441286444e-01,5.688374297859553064e-01,6.731835757496218431e-02,2.661339601724243761e-02,-9.492331993122647693e-02,1.093348335591283818e-02,4.713186621665954590e-01
4.414005777259530361e-01,4.743036762534074136e-01,-7.299324615918867387e-03,5.482995308350712207e-03,-3.394006808584921434e-03,8.227337376659163426e-03,4.663749933242797852e-01
4.809379866245540591e-01,4.776931409330347211e-01,-1.693863215651242315e-02,1.590339590317885535e-02,-1.550235728705808523e-02,1.634659152661244175e-02,4.985553920269012451e-01
3.718117717879551587e-01,5.479773149659072917e-01,-2.676211372164283286e-02,-7.095927169626227438e-02,4.956976421349443968e-02,4.395999574523949682e-02,5.370149016380310059e-01
4.631767475926732436e-01,4.533825806276520765e-01,2.213971066329367687e-04,1.019535331982772269e-01,1.196721309528235751e-02,4.786491847664301087e-03,4.914990067481994629e-01
4.937745594993228071e-01,4.092119719107049636e-01,-8.720974992747376753e-03,1.383354323875660499e-02,-1.320388234032551789e-02,1.072248856365888223e-02,4.675492644309997559e-01
5.153569609040045130e-01,3.052274035934331997e-01,-1.779539392519979835e-02,1.153532414988446692e-01,1.402719983095848319e-02,5.464027951503642143e-03,5.069258213043212891e-01
4.483854585059638409e-01,3.022389477071159014e-01,-5.327128847699597047e-02,-2.652354372593926368e-01,-3.330244340061139924e-02,1.016740238770590631e-02,6.437310576438903809e-01
2.982393434574904800e-01,5.087313963121046223e-01,-5.821334580250078772e-02,-1.986139628271621493e-01,-4.670599290004768568e-03,8.718479512352593844e-03,6.041786670684814453e-01
4.869374245655693212e-01,3.579775447065581262e-01,7.926224270954351780e-03,-3.484298089692531436e-02,1.095007436214475056e-02,2.341779550502254455e-03,4.339670836925506592e-01
4.340014812748704820e-01,4.102209672467639345e-01,6.312538546209167656e-03,-2.529140513850421448e-02,4.521003418599636725e-03,2.171336007093376940e-03,4.186969101428985596e-01
4.584685490694350163e-01,2.835407464539743683e-01,-1.345417333967240670e-01,-2.169000191420961121e-01,1.209074407641726363e-02,3.814026290389545965e-02,6.515108346939086914e-01
6.088612946662442793e-01,9.386946268410684135e-02,-2.750582914998958572e-02,-1.149217558411057549e-01,3.453641430789185490e-03,-4.795792361939922588e-03,6.182084083557128906e-01
5.231042985240138554e-01,3.126817452073296644e-01,9.564937972232234742e-03,-2.156048360665959243e-02,5.330840107974448711e-03,-1.255743982481104856e-03,4.488035440444946289e-01
3.598728835527282843e-01,5.268752508949046121e-01,-7.662088505922703963e-03,7.556957399743104153e-02,-1.470365172595063455e-02,-1.102164589157744387e-02,4.924390912055969238e-01
3.728595380083102317e-01,5.241243289203908473e-01,-6.127653595499493733e-03,7.710367498064819511e-03,1.920950031319397858e-02,-4.566803892566335434e-03,4.745394289493560791e-01
4.103624244410132849e-01,5.038559337702920304e-01,-9.216171305756915011e-03,1.096192123448799620e-02,-1.028080870526884311e-03,-2.887157593732039666e-03,4.737127721309661865e-01
3.187396980966078486e-01,5.269339616206720756e-01,-9.633759119688278805e-03,4.741510759673247394e-02,2.336179019438311757e-02,-9.711043566484537162e-03,4.777072966098785400e-01
3.116792748461515994e-01,5.516010538716686895e-01,3.431493250499517700e-03,2.172575383269457691e-02,1.028200712862461065e-03,1.675553602491264543e-03,4.774537980556488037e-01
4.885865210938311609e-01,4.880509142205526341e-01,-3.808317074110506573e-02,2.112594526190199242e-03,1.281510491384187794e-02,9.134234586720565985e-03,5.271200537681579590e-01
2.003095340531964030e-01,6.269067514143478181e-01,-3.292327061873895344e-02,-4.070239518560254260e-02,-1.802251627584014818e-02,-8.433523775332196076e-03,5.848393440246582031e-01
4.627378550012710146e-01,4.651801992975180267e-01,-9.959908341037826407e-03,1.678483171682841049e-03,6.628212792819597162e-04,-4.326188926836970795e-03,4.739931821823120117e-01
4.574105214966376898e-01,4.448524012054788646e-01,-5.568079270658110591e-03,1.085473792192487470e-02,5.289756122267762380e-03,-1.857169589273453478e-03,4.573188424110412598e-01
4.670426508396429144e-01,4.676327281758800858e-01,-1.485027592520093975e-02,4.188079089190382444e-03,3.349407249685749498e-03,-4.897629235445181278e-03,4.823522865772247314e-01
4.482316193030447260e-01,4.674023137029383879e-01,-3.096074393552861181e-03,5.341088671716760251e-03,5.571232495712344183e-03,-4.248954226658638138e-03,4.614643156528472900e-01
4.629574901306445778e-01,4.563394723656301055e-01,-9.592659959620886134e-03,6.324348156041935268e-04,5.772307056436796384e-04,-4.592629012552585147e-04,4.692791700363159180e-01
4.606704749210126515e-01,4.521060998674735210e-01,-5.015826289711033947e-03,1.803985855965220065e-03,4.351474456076406816e-03,-1.475642509239058356e-03,4.615429341793060303e-01
4.478504081815252724e-01,4.899160253088856720e-01,-2.033674215638259231e-02,6.322830689237822835e-03,9.125784317990371514e-03,-1.279325720766835012e-02,4.914509952068328857e-01
4.534501336545073702e-01,4.623508837503919056e-01,1.462680679785444138e-03,4.185756181198129616e-02,1.148898845718690671e-02,-1.964983594741899833e-03,4.626647233963012695e-01
4.948618928503619174e-01,4.884436219226949705e-01,3.630685635940877898e-03,1.934919404283934026e-03,-9.642072216116009432e-04,7.199731344821976757e-04,4.880696833133697510e-01
4.961712499461637393e-01,4.867682558892574840e-01,-2.638700634966906211e-02,-6.734654483714480871e-04,2.941956652076747111e-03,-5.608862554420943232e-03,5.180382728576660156e-01
4.962476153056787354e-01,4.924760726256385279e-01,-1.339524998476115947e-03,-6.790107613307253161e-04,5.702062419048100836e-03,-1.583432409385825135e-02,4.965698421001434326e-01
4.786663377033185118e-01,5.186121162836135889e-01,-3.359614003841215890e-02,7.179640192546327994e-03,4.194726237732475382e-03,-3.227042640134449199e-03,5.335821509361267090e-01
4.935163095748588136e-01,4.888122216574573020e-01,2.235542615642621689e-02,-1.700139806816928405e-03,2.870269927727843277e-03,9.995416969629416712e-03,4.691816568374633789e-01
4.947179980579992642e-01,4.913245173458283821e-01,-7.754440652388339128e-03,-2.799293278549788927e-05,-2.648731561772464573e-03,-5.566023818642206779e-03,5.008981227874755859e-01
4.922068088667721497e-01,4.869277194575905021e-01,-3.171073322364187375e-02,-1.748467271523498640e-03,3.112094605705227439e-03,-3.963067280549600717e-03,5.213798880577087402e-01
4.769669524561819252e-01,4.839512580332852032e-01,-1.291280933471095071e-02,1.146498633607881054e-02,6.379742137597063829e-03,-4.511185489574921423e-03,4.939938485622406006e-01
4.540556078163747733e-01,5.413217989321468249e-01,-1.436728389045766052e-02,-1.086806021994604632e-02,4.825683996876904691e-02,1.997714190467139370e-02,5.257857441902160645e-01
4.110732944188932869e-01,5.270044273890921449e-01,-2.400792884092217694e-02,3.099389470536495841e-02,1.351373308346847171e-02,7.362527870620294394e-04,5.065634250640869141e-01
4.399354156636939850e-01,4.562841096865885571e-01,-1.032261896570335624e-02,-1.089448673292693105e-02,6.635703247848834078e-03,7.028307449692887225e-03,4.593441784381866455e-01
4.933526170006794498e-01,5.116017800981035313e-01,-3.922403871567969880e-02,6.663857080263557719e-02,2.246978397030805624e-02,-2.707464327543396276e-02,5.574279427528381348e-01
1.434808812395600985e-01,6.256016423667450921e-01,-3.981076852324580417e-02,6.263362710729872274e-02,-6.039992689448688695e-02,2.133868553131781226e-02,6.152108311653137207e-01
5.452968229814790790e-01,2.879842819639250595e-01,-4.377157946131027266e-04,5.168730500143618733e-02,1.101575565581778583e-02,4.547800891944397093e-03,4.817181825637817383e-01
3.379455774539385504e-01,5.379173292154852959e-01,-2.044172255165177532e-03,8.079722751630276367e-03,-2.606966322038031485e-05,8.726278840795673175e-03,4.732804298400878906e-01
4.571164639490743475e-01,4.568564272390996939e-01,-4.988705091980849549e-03,1.163050164547722171e-02,5.270335715225903800e-03,-2.593345937955171803e-03,4.625261127948760986e-01
4.558696297393284302e-01,4.549315268216564956e-01,-3.170291436915828598e-03,1.546828957772925124e-02,8.088197394590119355e-03,-2.351089899605653642e-03,4.595851898193359375e-01
5.098231989561722299e-01,4.072393302509226265e-01,-1.074936683411165106e-02,1.368529454868401898e-02,8.699782615975530653e-03,2.350834855889426711e-04,4.784412086009979248e-01
4.487212874031817345e-01,4.709493815931733440e-01,-1.379188772668504814e-02,1.305680363467503005e-02,3.718339793639784726e-03,-8.861648915756137335e-03,4.748492538928985596e-01
4.942429755094491783e-01,4.883600174510216996e-01,-3.053356228186487886e-02,5.090394225597280262e-03,7.421830372575335087e-03,-6.455975421366739325e-03,5.222124457359313965e-01
4.961743349060230290e-01,4.929595961674775872e-01,-2.389422870601470850e-02,-1.783373957849706442e-04,3.176089225765838528e-04,-2.552597431105444077e-03,5.184879302978515625e-01
5.223004141975041703e-01,4.538168730820518748e-01,-1.792430977155912153e-02,5.072330148099019054e-02,-8.294935319863664877e-03,1.440822019422409971e-02,5.177683234214782715e-01
4.946168240104807934e-01,4.983370242608465839e-01,-1.584851466254760810e-02,5.155629290303845313e-04,-4.085570632442457085e-03,3.494030346648047906e-03,5.124209523200988770e-01
4.889046943931273370e-01,4.978824278072799814e-01,2.078111175167857150e-02,1.790697114668310819e-03,1.171652551597176899e-02,5.215003846778839929e-03,4.732082188129425049e-01
4.913261901992994618e-01,4.936129463901234304e-01,1.057915241900370118e-02,7.845116456562233618e-04,2.361816558908861122e-03,-4.691643486479304438e-03,4.819822609424591064e-01
5.102929915666600813e-01,4.829256177020434526e-01,2.091525016144740734e-02,1.424376565402482066e-02,6.315185851756268884e-03,-6.346468520814745572e-03,4.771746993064880371e-01
4.937808063633347677e-01,4.937234454886982871e-01,1.244810896170900349e-02,1.642072765010392228e-04,-5.841476904760320443e-03,-2.602739923717650727e-03,4.814315438270568848e-01
5.195686124862795019e-01,6.894915565374957200e-01,6.151286633282004868e-02,2.037108319911581922e-01,-9.695889243796679269e-02,-4.543664900489002151e-02,6.895026564598083496e-01
5.546976285475226920e-01,4.122001510434477600e-01,7.514170233205219596e-03,1.205653559252748558e-01,1.008259979880556795e-02,8.968468013695152230e-02,5.565842390060424805e-01
5.977918593276863035e-01,5.010168989580582322e-01,7.573049543539001061e-02,6.578041938652879998e-03,-5.712457777325285341e-02,3.397973275810702021e-02,4.947467148303985596e-01
6.260117891177972016e-01,5.757546073905864814e-01,2.420455972379625953e-02,1.581862246095660229e-01,2.694637649218515826e-02,5.151740581410197556e-02,6.478130221366882324e-01
5.509195118357337329e-01,3.392608418559465711e-01,2.832691978578527614e-02,-8.703978811362421061e-03,-9.237511953809203827e-03,4.861892414423493042e-02,4.635362327098846436e-01
4.713741767951080686e-01,4.996313782516130786e-01,-2.902195636995841266e-03,1.054416848993202510e-02,-1.178441715968414280e-02,5.109321663210346018e-03,4.898639917373657227e-01
4.748830882507018014e-01,4.949777955532459472e-01,-1.145166517783646754e-02,-5.313825821479514940e-03,-2.314183749173321508e-03,3.338650738503568059e-03,4.968221485614776611e-01
6.903188629661657361e-01,2.834688770769093757e-01,-2.195358457028850907e-02,-1.365315839862799203e-02,7.202627556716405255e-02,1.202953088538447624e-01,6.652866601943969727e-01
4.956167102988722206e-01,4.979053257829325618e-01,-1.270968060544086509e-02,3.475707079424982839e-03,-1.573809383063053081e-03,4.768812221415450955e-03,5.095843672752380371e-01
4.881787824222171834e-01,4.993037688277213726e-01,6.681922928156780461e-03,1.051206501573966013e-03,-7.109770335829834927e-03,8.186413460727679989e-03,4.875198900699615479e-01
2.680792007600869553e-01,6.004455741363199373e-01,-6.177366481243395935e-03,-4.823980078185786946e-02,-8.341250771767149894e-03,-1.905269196023200075e-03,5.329527258872985840e-01
2.996987461754429538e-01,5.643868623065821932e-01,-2.403913674037805315e-04,-2.977678369490745821e-03,-6.679588655549554936e-03,6.646225857049330339e-03,4.895983934402465820e-01
1.753692952989381326e-01,7.830145163073025660e-01,-8.204633207114786497e-02,1.858458561726020197e-02,-1.329066527670131649e-02,1.335240145110545883e-03,7.703793644905090332e-01
4.229967273504459668e-01,4.370919379641358682e-01,5.654417231968356106e-03,-1.299938331318329678e-02,-1.820873850767968586e-04,1.157241244683682212e-03,4.251668751239776611e-01
4.256192026688218055e-01,5.353796375648084416e-01,-8.377642722324940561e-03,1.041280041655383432e-01,-3.495350389606066005e-02,9.981958558314794547e-03,5.334120392799377441e-01
3.989080298923550760e-01,5.290184815569867194e-01,-2.007596766594521576e-02,9.132036193742877270e-03,-2.253949571961848253e-02,2.496618484428394461e-03,4.987820088863372803e-01
5.052813668962516935e-01,4.044747723425751174e-01,-2.379922735216843943e-02,-7.425131819802408863e-03,-1.656514404965013162e-02,-1.443464669873457257e-02,4.882285594940185547e-01
4.959393458128557031e-01,4.128953609619254728e-01,-2.255627061833603841e-02,-9.319300371129310423e-03,-1.913829138071787214e-02,-1.884622072010131918e-02,4.848721325397491455e-01
4.941278411116141744e-01,4.362683364555583476e-01,-2.608276908468976085e-02,-7.360125660546249123e-03,-1.260190754944833652e-02,-2.467121102661246328e-04,4.944762885570526123e-01
4.927421219585958467e-01,4.364119772378868278e-01,-2.127189320568340092e-02,-1.887698818944377049e-02,-2.016317337097696047e-02,-1.699951036230386986e-02,4.915125966072082520e-01
4.862547161139792462e-01,3.935670039331487513e-01,-2.194884976838118451e-02,-4.399236352144005741e-02,-2.206626572800458874e-02,-3.106132063780602665e-02,4.794985055923461914e-01
5.360382771462461893e-01,3.343626630651794218e-01,-3.316595903387586919e-02,-4.175153296728965208e-02,5.823953154613451802e-04,-2.793013110354120726e-02,5.073881745338439941e-01
4.788014059416461077e-01,3.859781368034435611e-01,-7.742528047586128004e-03,-4.906646703914322588e-02,-1.049265432837048762e-02,-1.800208022563591637e-02,4.568409323692321777e-01
4.571044886138223573e-01,4.744642542033822297e-01,-3.334274810505921671e-02,-4.209350861917757897e-02,-1.603269048374923039e-02,-1.313325253952372061e-02,5.059229731559753418e-01
4.759473256888352433e-01,4.995196682282402878e-01,-3.189637814525769777e-02,-1.146620654341842099e-03,1.521571386595813621e-04,-8.661445214433724287e-04,5.200367569923400879e-01
4.770718611501624240e-01,5.348708263201867874e-01,4.188002021674763764e-02,1.928273592830795011e-02,-1.861000861236518540e-03,8.522354054632332726e-03,4.682200849056243896e-01
2.471714137329452110e-01,6.772743302205637139e-01,-9.681347623044789241e-03,-1.226469909326778907e-01,-6.252745901493962644e-02,-2.962884011944505458e-02,6.487869620323181152e-01
3.931779165870663562e-01,5.096281770734412131e-01,-2.354221333154343787e-02,-1.313133788649248693e-02,-1.403263188847122915e-02,-1.537958298067620098e-02,4.874024391174316406e-01
3.928832398848054464e-01,5.221475145448430943e-01,-2.917946313973462935e-02,-8.075082452631039340e-03,-1.988100603322132121e-02,-8.960976577971561940e-03,5.010250210762023926e-01
3.851548639980834632e-01,5.479401666923910952e-01,-1.343359445112662920e-02,-1.113094462075100016e-01,-2.619418644733680079e-02,-1.567114992444289256e-02,5.387213826179504395e-01
4.398947905655490320e-01,5.683195594193881650e-01,7.638166854044459164e-02,-3.757679857145156815e-02,-1.050103610314849639e-01,-9.480996211372716420e-02,5.095126628875732422e-01
4.669200350268556399e-01,5.006275041868353259e-01,-2.502115965276952014e-02,-7.416202400812831920e-03,-8.378974270907791830e-03,-1.022476407678962404e-02,5.103074312210083008e-01
3.047361944615535334e-01,6.757647701310054433e-01,-3.586619888823139313e-03,1.289073357232629544e-02,-8.731346336964818100e-02,-2.780406471144835842e-02,6.105819940567016602e-01
3.343014795216083246e-01,6.883739558191492858e-01,-2.734477204018059826e-02,1.388521257707300560e-01,-6.052634256677346530e-02,-5.310608269524547120e-02,6.793343424797058105e-01
4.423421511025459330e-01,5.011716231598026816e-01,-3.313382147266596967e-02,-1.387417478524213821e-02,-2.157502277333100266e-02,-1.622144561944009744e-02,5.101702213287353516e-01
4.570380171031547811e-01,4.536750213991399550e-01,-2.194975384175845701e-02,-7.854552364245713514e-02,-2.680361824453146233e-02,-2.681023488847150693e-02,5.006492137908935547e-01
4.663431640324608995e-01,4.984147329181189967e-01,-3.008828256744938701e-02,-3.426665361460238222e-03,-4.091980336223547537e-03,-5.710098846733067599e-03,5.133978724479675293e-01
4.316187788535459369e-01,5.044255491520542867e-01,-2.965124521278839076e-02,-5.016533293942971629e-03,1.104191802019706967e-03,-7.592316046898227484e-03,5.019028782844543457e-01
4.800266256518204711e-01,4.910325977716651358e-01,-2.749526491109544057e-02,-5.465332034174434596e-04,-1.492268069798058762e-03,-4.581394956690651964e-03,5.131821632385253906e-01
4.740169650289554060e-01,4.905603279278885065e-01,-3.917442339440874166e-02,-1.335921241015246936e-03,-1.506996428587266835e-03,-1.847743084342328042e-03,5.216813087463378906e-01
3.708753226946185366e-01,5.197826170364774345e-01,-9.912308676483627679e-03,2.829565023548360342e-03,-9.519600378935612946e-04,-1.083787305920619337e-02,4.735544025897979736e-01
3.618474082292962857e-01,5.324164667901412074e-01,1.442454446892282860e-03,7.166473386352895450e-03,-5.307742675397513800e-03,6.170283153854987275e-03,4.699066579341888428e-01
3.393137362263943801e-01,5.505271418048524046e-01,3.450726090659939072e-03,2.478187458376052144e-03,2.607211147453854586e-03,5.723492237714843632e-03,4.780072569847106934e-01
3.635257710376604279e-01,5.169705717796536648e-01,-2.303837751338827511e-02,-4.232919504549959716e-02,7.957179603737506157e-03,1.200747656590431776e-02,4.881507754325866699e-01
4.164449663688176706e-01,4.616514765837528289e-01,-3.624848889548781816e-03,-1.224517338485103107e-02,2.281762315428197130e-04,1.200194720351827928e-02,4.453923106193542480e-01
4.404337246655818938e-01,4.919090662315361295e-01,-2.378863362430388984e-02,-3.588972026928919333e-03,2.414715195179389581e-03,1.521344339377708743e-02,4.927459657192230225e-01
3.751459241761901930e-01,4.836193211039145901e-01,-1.504448266615332486e-03,-1.725580529469520480e-02,8.082435106593514190e-03,1.586997201084030390e-02,4.430952072143554688e-01
2.556045985725196035e-01,5.458849577714177670e-01,-5.496236996841447064e-02,-1.365927076867824164e-01,-1.194122372065568177e-02,1.347199411054737870e-03,5.720768570899963379e-01
4.429176326926628215e-01,5.134184781983535117e-01,-3.192202082653766704e-02,-1.221588249593223707e-03,9.332989893698948047e-03,6.277240696040837717e-03,5.141047239303588867e-01
4.961144140921454060e-01,4.981127332257288542e-01,-3.522098316301075505e-02,1.748068154374786366e-03,1.433411900112917031e-03,-4.941237689693168912e-04,5.323524475097656250e-01
4.963079517731356916e-01,4.980659380050422302e-01,-3.229790624319017756e-02,4.979875147906721953e-04,2.456150199261454819e-03,1.751889024290801701e-04,5.295048952102661133e-01
4.561732552076049330e-01,5.102301361554788528e-01,-3.259692064019725777e-02,8.748251569226778851e-03,-6.997221443532734278e-04,5.114536836071949776e-03,5.182175040245056152e-01
4.554109981659566486e-01,5.186983020948670031e-01,-2.675721176748313557e-02,5.327845818114421150e-03,2.103413101192000423e-02,-3.458881449740993166e-03,5.181263685226440430e-01
4.880244565337434337e-01,4.953779796083642717e-01,-2.930776674160207040e-02,1.605331231494897947e-04,3.250678578488497023e-03,-4.228439176506591096e-03,5.211298465728759766e-01
3.994931523214894087e-01,4.821240764029369741e-01,-1.339171243736786421e-02,-2.023824684014134678e-02,1.375768268833498301e-02,2.023290590154055296e-02,4.630804955959320068e-01
4.037519824597705087e-01,5.230838475225089157e-01,2.468672803330274057e-02,-4.227577059397377018e-02,6.891430768700622378e-02,1.913225374256001879e-02,4.731516838073730469e-01
4.779732884289689121e-01,5.224297194159881474e-01,-4.409723840158052965e-02,9.299291976737785598e-03,-2.983361668640000484e-03,-7.568485213513197370e-03,5.460782051086425781e-01
4.511157593371890595e-01,4.959634075409442566e-01,-3.632372189713972688e-02,-9.589273160928507220e-03,8.565407956508556964e-03,1.359433709615662234e-02,5.123665332794189453e-01
5.224241482173163087e-01,5.601778722345044370e-01,2.403754779699174282e-02,2.831258926448940519e-02,-6.139785790653713542e-03,-1.534541159709216195e-02,5.213969945907592773e-01
5.428272360616916981e-01,5.358521305054394501e-01,4.738671958949830509e-02,2.853211492563179075e-02,8.962268172962913060e-02,-7.525109670884367469e-03,5.184235572814941406e-01
3.692478667338215947e-01,5.571203536126785316e-01,-1.055219812985919159e-02,-7.754894718843322043e-02,-2.275169160317128125e-02,-3.810741950282921925e-02,5.242605209350585938e-01
4.559987612416176450e-01,4.343271063547842203e-01,3.512977143588219553e-02,-1.341186926187190598e-01,-3.805104167036184315e-02,-5.584752398848837063e-02,4.859458804130554199e-01
3.912063826370154596e-01,4.016003050039016475e-01,3.555648808192832244e-02,-2.024949076681879234e-01,-6.808037453771452474e-02,-7.430502459952412209e-02,5.327031016349792480e-01
3.911373414793894998e-01,3.998369656933947747e-01,-2.257831263252629839e-04,-2.070865407893709431e-01,-7.521908970638005454e-02,-7.500639757102528504e-02,5.649350285530090332e-01
3.143243456882598985e-01,6.215191395632702065e-01,-2.160246367248691568e-02,6.493451311521288710e-03,-1.064951701009530551e-02,-1.306759501999512491e-03,5.575681924819946289e-01
4.065552380941389599e-01,4.566321883135480153e-01,1.094992939384376029e-02,-3.558614008639544163e-02,-9.597065052420595101e-04,-1.050615772532286591e-03,4.273490011692047119e-01
4.727047302588027744e-01,4.938133335541093905e-01,-3.648067043917896379e-02,-4.196652815321613716e-02,-3.594808237816417978e-02,-2.981313366339105250e-02,5.313100218772888184e-01
3.640263889010964538e-01,4.878012615332016355e-01,8.221947347664071426e-03,-5.423833584584893119e-02,-1.131049607687537387e-02,-5.507960029549859200e-03,4.418787658214569092e-01
4.452758390094200824e-01,4.156048197463225180e-01,-1.683237544994098389e-02,-1.586426427607366130e-01,-3.410149857395762540e-02,-9.248299898314377501e-03,5.291133522987365723e-01
4.934831845174204590e-01,4.788084012094278030e-01,-3.895235710137118224e-02,9.564205832907794269e-04,-2.267028198085896135e-03,-8.748513410008191106e-04,5.252714157104492188e-01
4.896422302166932861e-01,4.755275187243746537e-01,-4.028647375026206401e-02,2.017527636535432732e-03,-2.758332721826314490e-03,1.600820555352030128e-04,5.230478048324584961e-01
4.933000622615766884e-01,4.759919600837372311e-01,-4.006940739996395218e-02,3.375228052782226697e-04,-2.963580213500674552e-03,2.945555413859491474e-04,5.249551534652709961e-01
4.926319593109689809e-01,4.499732132920229999e-01,-3.210995651084325164e-02,-6.049281379785165225e-03,-9.404803949643053204e-03,-9.689828642448817392e-03,5.054165124893188477e-01
4.997513296117051529e-01,4.411607961680001910e-01,-3.194853779624834411e-02,-5.193614504300754844e-03,-1.097516334394139578e-02,-9.143682962281129978e-03,5.056462287902832031e-01
4.982652977072352662e-01,4.809145269901069497e-01,1.301422005050673070e-02,-1.438703639138644080e-03,-3.005192566190905204e-03,-2.727428991829051238e-03,4.768708348274230957e-01
4.918665939225534967e-01,4.608777302752562477e-01,-3.139844043174810917e-02,-6.741103069773652159e-03,-9.418064228738585661e-03,-1.094841748660757390e-02,5.092281103134155273e-01
5.035208388926871725e-01,4.580969221303468064e-01,-2.131010358705631713e-02,-1.008473066244405802e-02,-7.814759988829697926e-03,-7.638091988750572367e-03,5.043156743049621582e-01
4.576393490495251903e-01,4.333566907206493068e-01,3.149787080669153028e-03,-3.397673540054581970e-02,1.291089829986366219e-02,1.277683192547077011e-02,4.478473663330078125e-01
5.117606158998296850e-01,3.926057179236323025e-01,-1.138394506712880894e-02,-1.200719555701722750e-02,1.354017343139250762e-02,1.552681648003342157e-02,4.767060577869415283e-01
5.444967945566119294e-01,2.499301727140659235e-01,-5.234358722110005191e-02,-2.173655108794127766e-01,-3.071087978692646492e-02,-2.003887547550809584e-02,6.426166296005249023e-01
5.240375869286053589e-01,3.515536601605919742e-01,-1.057876301655319429e-02,-1.135585060898092052e-01,-1.350386363483616070e-02,-3.814196261993717946e-02,5.166727304458618164e-01
5.343744788837293536e-01,2.044836623236272188e-01,-3.187527678149210120e-02,-1.601868869735283141e-01,1.641406692090138656e-03,-2.327274975866735346e-02,5.668144226074218750e-01
5.072006125668651055e-01,2.541269527182221655e-01,-1.236715412843419903e-01,-2.178493642313655276e-01,-5.422927452069388476e-02,9.639358431341338296e-03,6.736950874328613281e-01
5.254303359921714822e-01,1.951799412745950368e-01,-2.472859708759284070e-02,-1.616109581950010698e-01,1.994133203248819181e-02,-1.669772703033754833e-03,5.564221739768981934e-01
4.606867574221612527e-01,5.031135357306879552e-01,-3.263412306962909515e-02,-7.633112185805251450e-03,-7.987199592742849977e-03,-9.760689522161631118e-03,5.164760947227478027e-01
4.627259484051400307e-01,4.985119995396349868e-01,-3.568199243415892674e-02,-7.929225903607534966e-04,1.037278097302573373e-04,-5.344513146146040103e-03,5.173149704933166504e-01
4.453750817801233608e-01,4.981853200767030754e-01,-3.356369336894660105e-02,-4.721833703636536123e-03,-8.967104366541028479e-03,-1.063099374149313429e-02,5.080465674400329590e-01
5.022398723116328068e-01,3.749792156639931706e-01,-2.556262413015791823e-02,-6.846709295405019324e-02,-2.218354731514389500e-02,-3.068764828926442631e-02,4.959506094455718994e-01
4.778954496106817551e-01,4.866357187781104043e-01,-4.144540455871897899e-02,3.374107089374401213e-04,-1.275984645081917109e-03,-2.910044367887149215e-03,5.237949490547180176e-01
4.799600148771065999e-01,4.950539463320946520e-01,-2.061169778956739584e-02,2.866137082992824682e-04,-1.609180224782983770e-04,8.104774505714085111e-04,5.082890391349792480e-01
4.637072748993755766e-01,4.883183000570799348e-01,-3.455343851072267825e-02,-4.104200636022464418e-03,-8.822092370566934905e-03,-9.502702488403843434e-03,5.115535855293273926e-01
4.652015426816023536e-01,4.599566551404307146e-01,-1.474429364449381108e-02,5.442541672075034039e-03,4.383256065928140856e-03,-5.168741664178271543e-03,4.775823652744293213e-01
4.239259134049176980e-01,5.192917766343873032e-01,-6.793379604488558599e-03,1.061632562311257411e-01,4.279149763629728348e-02,-1.180234530782601522e-02,5.247978568077087402e-01
4.603475979441953303e-01,4.568143337830452566e-01,-9.439283523462904668e-03,-1.364687019857875822e-03,-2.841369325684760263e-05,-9.469115091744721583e-04,4.680390954017639160e-01
5.057737366172985194e-01,4.177490092088673168e-01,-2.125686045746644215e-02,1.380723846666377826e-02,1.104297336106915654e-02,-9.362488663043712356e-03,4.902230203151702881e-01
4.314729072247718289e-01,4.790043689838446861e-01,-7.744943204369469925e-03,1.681440449734655090e-02,2.067052228135309467e-03,-8.151144186351487117e-03,4.659490883350372314e-01
5.022897816183582442e-01,4.634483845349467446e-01,-2.554131581426921649e-02,3.129392808292081750e-04,1.458402074718010127e-03,-8.992724435138026856e-03,5.097665190696716309e-01
5.270944349224290226e-01,3.994556353607727761e-01,-2.248036257436003549e-02,2.423748754087104700e-03,3.219584549514678280e-03,-1.321240093340628891e-02,4.987479150295257568e-01
5.565630575538353941e-01,3.772320906252014105e-01,1.155833032770431368e-02,1.224286549487290654e-01,3.088956447654963439e-02,-4.064889451536137649e-02,5.331410169601440430e-01
4.880632256185548634e-01,4.693819129681094937e-01,-1.881158555401613031e-02,8.189720872447164152e-03,1.214781189560218064e-02,-1.312136927840977865e-02,4.989613294601440430e-01
4.201729588085952871e-01,4.539328645320483968e-01,1.779964582174331511e-03,-4.177326659269073664e-03,4.602600022082732438e-03,9.473875601592435247e-03,4.366949796676635742e-01
4.330613798731578479e-01,4.627369790870432542e-01,6.934218433597982845e-04,-2.682411508381758042e-02,1.001610412000786439e-02,1.375648682838943176e-02,4.513100385665893555e-01
4.269701817753615569e-01,4.377700069517419523e-01,6.285597124618957920e-03,-1.084580614156218856e-02,-2.529602776031326158e-03,-6.111436411597003914e-04,4.266247749328613281e-01
4.364065889559178846e-01,4.311824897420843961e-01,2.134359174929545411e-03,-2.542031069326673026e-02,1.388799007989978580e-02,1.257996233474647542e-02,4.351355433464050293e-01
4.452694550547253716e-01,4.489564960321080767e-01,-7.978231603418595164e-03,-1.303621095896469184e-02,8.879197457009553596e-03,7.344085743620927184e-03,4.560990631580352783e-01
4.530721570034482171e-01,4.316216343853982451e-01,2.576741751277478176e-03,-1.724508488316636723e-03,-3.947648421208312802e-03,-1.805691223143672487e-03,4.402366876602172852e-01
4.400886352942006141e-01,4.912962014407628031e-01,-1.434104104228289822e-02,7.489351970820062356e-03,1.040535115415850906e-02,-1.073259211286321096e-02,4.829466044902801514e-01
5.434957534128079804e-01,4.458404675282294227e-01,-2.552313086384633278e-02,5.550541040745747903e-03,4.910509590503254118e-04,-1.345992916613106966e-02,5.276248455047607422e-01
4.432542202511108309e-01,5.139777668570910674e-01,-2.377641189638712849e-02,8.518469567601633097e-03,-2.414492675970127816e-03,-2.194875427333392408e-03,5.063586831092834473e-01
4.578738006795292081e-01,5.009370505138810437e-01,-2.646945850893867025e-02,6.201975105882800987e-03,7.609356528582239890e-03,-7.916390454279427155e-03,5.077177882194519043e-01
3.719371969085701335e-01,5.358169271866042305e-01,-2.215041632223369028e-02,3.581381101788944782e-02,4.751959829953530945e-02,-1.975809527701525431e-02,5.084663033485412598e-01
5.012461985121292596e-01,5.039015500989505458e-01,-2.947183592180441236e-02,4.168997625914206556e-02,8.367429707505529002e-03,-9.762055594248851900e-03,5.373899936676025391e-01
2.843441212852047539e-01,6.052762226953155578e-01,-1.025813793467039714e-02,4.570034471972878737e-02,5.594652684592629766e-02,-1.963451038864891599e-02,5.487689375877380371e-01
4.925142550301466193e-01,5.184605468047046584e-01,1.377311884651205576e-02,3.439139788819080973e-02,3.758957181178645274e-02,-2.515896829730404627e-02,5.019701123237609863e-01
3.892602177463597712e-01,4.833038041833691567e-01,-4.310698898264853085e-03,-1.930652169331739665e-02,2.285136829285977999e-04,1.580136284421561343e-02,4.501360952854156494e-01
4.057151028889049993e-01,3.775518198734332809e-01,-9.634937042280034003e-02,-2.308557997771337467e-01,6.587832471201193751e-02,1.109687097336294927e-02,6.418680548667907715e-01
4.880447794798749572e-01,4.958230171950052667e-01,-4.124915556788449900e-02,1.892195931320368859e-03,-1.195304642523858452e-03,3.713104615453840726e-03,5.332784652709960938e-01
4.146095985054294442e-01,4.426405374960334926e-01,6.184991035703801820e-03,-8.162687136764855411e-02,2.355203473368372435e-02,1.697332235633377748e-02,4.489567279815673828e-01
4.222537357786440015e-01,3.016745711467064273e-01,-1.308183150320456900e-01,-2.340101346056650267e-01,3.598879312182265422e-02,-3.865518194719115563e-02,6.529850959777832031e-01
4.162483666086513878e-01,4.402569603680742683e-01,-1.631442345802985860e-02,-7.576927902327987296e-02,3.014981144929571033e-02,2.685473110987283973e-02,4.692395031452178955e-01
5.281501564919471869e-01,5.293443825807171432e-01,1.711999471989805732e-02,2.481928853114283642e-02,-6.110548681426582196e-03,-3.504541764009147086e-03,5.135760903358459473e-01
5.370728180320440970e-01,4.965401194758200520e-01,4.238154642863584121e-02,8.056713376856551242e-03,-2.887515300020446533e-04,-9.851497522443766492e-04,4.759297072887420654e-01
4.978264766102785677e-01,4.924374755816343097e-01,3.730273955686252974e-02,-3.785662512728211744e-04,-1.251664781197995820e-03,-8.674975588115437994e-03,4.581051170825958252e-01
5.454679307516860920e-01,5.143725521264609357e-01,1.027832155156090943e-01,2.217102947406626723e-02,2.119385827547431989e-02,-4.814772842921088980e-02,4.392585158348083496e-01
4.926694734421817046e-01,4.865155619492259609e-01,1.629164014694406415e-02,-2.498427753371170574e-04,-9.506588938966080080e-03,3.024606761371138441e-03,4.736463725566864014e-01
5.537716591298299518e-01,5.510113046626401445e-01,1.145113869889308744e-01,2.596952589739537354e-02,-2.170372588877635470e-02,-1.050517773536322787e-02,4.421675801277160645e-01
5.139099099470213483e-01,4.838897974119296119e-01,4.895813182623159898e-02,-1.567625820959351324e-01,-4.740022130389807964e-02,-8.677171263702014581e-02,5.533310770988464355e-01
4.901152397459302978e-01,5.218576504576568631e-01,1.474511039770037835e-02,2.984209077161449793e-03,-5.680942161084216041e-02,-4.584046922346161207e-02,5.080220699310302734e-01
4.881279310588766407e-01,4.985880391301503178e-01,-1.302212046751843877e-02,5.859792620773171534e-03,-1.854604914562722057e-02,-6.386104522699006560e-03,5.077008008956909180e-01
6.829793347131178916e-01,3.872589042223131828e-01,4.826974893653479537e-02,-9.822930407603645830e-02,-2.623865846915019243e-02,-8.833371720095868629e-02,5.975208282470703125e-01
4.952596822965111278e-01,4.809932814406708834e-01,9.979054189436120659e-03,2.737109600793693164e-03,-5.892954769172177067e-03,-1.113558237468554701e-04,4.784394502639770508e-01
4.988135478181762172e-01,4.881664471546761086e-01,1.471201740422811710e-03,7.082520635098671054e-04,-4.483925924155653629e-03,-1.751029811108155421e-02,4.931015670299530029e-01
4.946233078603782252e-01,4.871516701315742326e-01,5.039371827710126261e-02,3.618915696777668008e-03,-7.493755585105782782e-03,-5.742560262751737754e-03,4.408892393112182617e-01
4.587102559859570494e-01,4.516843663611874726e-01,-1.518156650929641804e-02,-7.577282477532032434e-03,-6.090143517686797195e-03,-6.260346131195236065e-03,4.708443582057952881e-01
4.542114769962920517e-01,4.568414515448840918e-01,-2.300602810502982987e-02,9.636818485373708793e-04,-5.849844014773223971e-04,-9.635937978281251814e-04,4.785448014736175537e-01
4.652805316884683351e-01,4.565167396555956936e-01,-2.266650990523993991e-02,5.314198650965321589e-04,-5.828327333293172909e-03,-9.682514096086672394e-04,4.837338328361511230e-01
4.320924063577640806e-01,4.623347462521245621e-01,-1.961627840092800001e-02,-9.091664743546980232e-03,-5.819793660585934232e-03,-1.001980336699236605e-02,4.682593643665313721e-01
4.465524751221389144e-01,4.702445720412792296e-01,-2.422468542614741871e-02,-5.074652849227113786e-03,-9.946074887738482178e-04,-1.056705204586859924e-02,4.834887385368347168e-01
4.529725946404379866e-01,4.385698738518373774e-01,-1.616474187271371710e-02,-9.069025997079435686e-02,-5.069251834714920413e-02,-4.366683602263179975e-02,5.016414523124694824e-01
4.730688064768773238e-01,4.547582945944967925e-01,-3.237301154032229400e-02,-5.366436388707536247e-03,-9.225837039262652778e-03,-5.188139787909636438e-03,4.969650804996490479e-01
5.479654554675468248e-01,3.808476261217090264e-01,-1.047164168037684195e-02,1.395064502700769926e-01,1.383699662148881945e-02,-5.250204130175076256e-02,5.600763559341430664e-01
5.365881017777391904e-01,4.000937302970912768e-01,-2.564798816911112445e-02,7.147689239178869024e-03,2.791800530444828784e-03,-2.207746496869881017e-02,5.095458626747131348e-01
6.745627643513043559e-01,3.210691624434366398e-01,-5.188529164106903124e-02,2.118742702742207884e-01,2.062098765333279446e-02,3.345622770845286392e-03,7.292949557304382324e-01
5.834359880020164590e-01,4.408924921284885778e-01,5.306306953784950542e-02,4.993320933182388011e-02,-4.814009699262473616e-03,-9.848278630658113819e-02,5.125026106834411621e-01
5.840095782752281472e-01,3.221338170502293652e-01,-9.866348714753170324e-03,4.394961906788841938e-02,2.218757566631556280e-02,-7.745423820857655697e-03,5.226828455924987793e-01
5.817877070184703792e-01,3.444312159455246158e-01,-1.594720014966877208e-02,4.017445445489496031e-02,2.544512978446501761e-02,-2.874223641730276613e-02,5.301052331924438477e-01
5.092240969402095363e-01,4.180368088877886024e-01,-2.066347260675283071e-02,1.414300445682188656e-02,1.185600054149041870e-02,-1.222586444344536151e-02,4.921860694885253906e-01
6.122683481047037635e-01,1.869758441978721930e-01,5.013986792898783573e-02,-1.782220655469343371e-02,-9.212691838783006876e-03,-4.705970181045846662e-02,5.154070854187011719e-01
5.821347711025043337e-01,4.293720907728990066e-01,2.002132841010151321e-02,3.595718808892207213e-02,1.415432470121028800e-03,-1.791603226669374535e-02,5.082181692123413086e-01
6.035906394270832420e-01,4.224469056704689973e-01,5.705349923283270508e-02,6.609415916715730144e-02,8.378924574843245321e-02,-6.137455980417244605e-02,5.272398591041564941e-01
5.383465649460369429e-01,3.897843121347657758e-01,2.653367705329012782e-02,1.413367823311705851e-01,4.381233433707750705e-04,-6.937715459841900523e-02,5.313713550567626953e-01
5.097028103995721038e-01,4.708800015765580715e-01,-2.840979360831352718e-02,5.176114017875902903e-03,6.763949834365083971e-03,-5.835176299733096060e-03,5.200971961021423340e-01
5.241277812651246037e-01,3.947343860074742361e-01,-4.358157940089663063e-02,1.822410648534891764e-01,5.245872366552395416e-02,-2.266004523915486277e-02,6.123808622360229492e-01
5.037227520205789233e-01,4.591079186936370959e-01,-6.243960419740790524e-03,5.852412274740104170e-02,-3.707142601506526521e-03,-2.178535384657837373e-02,5.010436177253723145e-01
4.528217137854707586e-01,4.777648704038882643e-01,-8.827463553762349147e-03,2.921617962500365137e-02,1.067938832572594247e-02,-1.129072155636882957e-02,4.780611395835876465e-01
5.003527832986006674e-01,4.355839156632343445e-01,-2.115143015664860959e-02,5.892840035698517810e-03,1.366720852951755667e-02,-1.003794287346220990e-02,4.933064579963684082e-01
5.235641652430953474e-01,3.677305963667077959e-01,-7.781214905020505945e-02,1.690887119594322030e-01,4.830838922299740545e-02,1.616119582542361113e-02,6.211124062538146973e-01
4.816275522123757424e-01,4.341783002011094239e-01,-5.279408067742297206e-03,2.754110899787850023e-02,6.864662556891091075e-03,-3.416549256241794338e-03,4.676305949687957764e-01
3.586725658571127129e-01,4.112414575275351591e-01,-2.930091457067371397e-02,1.834539855186379242e-01,4.979700745808324919e-02,-2.814072742542986227e-02,5.333510041236877441e-01
5.582608414634322447e-01,3.885305290752699148e-01,-1.573369154803627712e-02,7.455371683313666287e-02,-4.816687809882327920e-03,-3.242786215011716350e-02,5.298612117767333984e-01
5.025304251599066463e-01,4.542628358773967978e-01,-2.784826960105485361e-02,7.833712742178186583e-03,5.270162887970699685e-03,-8.919681696302262860e-03,5.084656476974487305e-01
4.951419972447561602e-01,4.909602150523192376e-01,9.321988273244774525e-02,6.435621146937961674e-03,8.288882819417076747e-03,-4.492768463542843281e-03,4.003361761569976807e-01
4.906568205017101114e-01,4.837111614420963601e-01,-3.171987493561673199e-02,-1.543072377104502940e-03,3.414784960168832165e-03,-2.858059729298891710e-03,5.190029144287109375e-01
4.783013123006160106e-01,4.898485788688247133e-01,-4.097943227175127046e-02,1.246816542504140118e-03,3.635931206369200606e-03,5.874210513591810075e-03,5.252903699874877930e-01
4.937949053207634220e-01,4.881621047543926450e-01,-3.178270809332200963e-02,4.548661144701957731e-03,4.559805547568787296e-03,1.207993656802395328e-03,5.229071974754333496e-01
4.545707315196704790e-01,4.874195781458413590e-01,-3.369240796313405228e-02,-1.968536969397582069e-03,7.861033420273548511e-03,1.362535500651724379e-02,5.062339305877685547e-01
4.674501791697431852e-01,4.993762577205010378e-01,-3.465725731661850606e-02,9.483104088154374004e-04,3.808307964601815232e-04,1.141730249993973614e-02,5.191875100135803223e-01
4.609112837806811358e-01,4.217028617928714196e-01,-1.443895082672996821e-02,-1.229556700079299791e-01,5.030050823861566961e-02,5.186518709022103213e-02,5.194921493530273438e-01
4.862867004947212246e-01,4.854550512598547751e-01,-3.715014009628125891e-02,-1.951125536285046053e-03,1.082029006461569971e-02,1.181043879317064324e-02,5.237677097320556641e-01
4.891222653037943235e-01,4.929713189596341971e-01,-4.319160441733688183e-02,2.812750889158693868e-03,1.771685722087695250e-03,3.129068688427555887e-03,5.343073010444641113e-01
4.631719765522228083e-01,4.911591533019277200e-01,-3.627123703907714214e-02,-4.203277304720294191e-03,-7.931315497457985808e-03,-8.923810397503739028e-03,5.144758820533752441e-01
3.519360844827622015e-01,5.292794061234306069e-01,-1.892892118453948225e-02,-3.437624486539377772e-02,-5.429252160055189624e-02,-2.300604740236295020e-02,4.987363815307617188e-01
3.781092430379309199e-01,5.039815235636009305e-01,-7.733912736490600182e-04,7.118010148207369603e-02,2.798593397085350105e-03,1.515261867082577348e-03,4.715049266815185547e-01
4.266413184759811905e-01,4.755395527339432715e-01,-3.594672951045763121e-03,1.281406690900446441e-02,5.157136739258089304e-03,-5.458705808579448517e-03,4.573768675327301025e-01
4.361358734905629309e-01,4.380386803472657853e-01,-9.011166936393366633e-03,-2.372476629391422759e-02,9.787657250723707375e-03,8.247149057883590775e-03,4.485382735729217529e-01
3.498429159160352242e-01,5.306932806998825303e-01,-1.196233519438816284e-02,3.672278198723650123e-03,-2.715378194811624707e-02,1.136997020316755577e-02,4.813343584537506104e-01
4.747036649001030728e-01,4.397316136008739829e-01,-5.155427031056702969e-03,3.868363707791890732e-03,7.247439586702163032e-03,-2.324204734495304275e-03,4.635998308658599854e-01
4.119402757643611523e-01,5.086126583746779506e-01,-1.508185974211023739e-02,6.718205279448727710e-03,3.630710159180127513e-04,8.414578121766025029e-03,4.830351173877716064e-01
4.945859555187505086e-01,4.537495224539416228e-01,-1.486349045999973972e-02,1.639676100920616289e-02,-1.311993492171610598e-02,1.644506331273848723e-02,4.924799799919128418e-01
4.431453374793513644e-01,4.574123994435173035e-01,-1.464616295545173585e-03,9.187919755100434557e-03,-4.925070802266875904e-04,3.816177136414154736e-03,4.522416591644287109e-01
4.155687342441287124e-01,5.075717433827739988e-01,-5.885363109833174899e-03,2.480051410525051930e-02,-9.431107452837334676e-03,1.395061061048668768e-02,4.770314991474151611e-01
3.096153803971691820e-01,5.257482336063254991e-01,-4.195451148441942113e-03,3.832267370671221807e-02,1.036166494909420040e-02,1.938837701229573869e-03,4.666419625282287598e-01
4.343193959785884850e-01,4.701718049777712238e-01,1.947901742347379894e-03,6.760977488343447757e-03,-7.694635700661916957e-04,3.000849588971435736e-03,4.515506625175476074e-01
4.507515918037738878e-01,4.824106760720384690e-01,-1.846930463143631185e-02,3.781738696165614505e-02,-1.270347820504990830e-02,1.437856286091205443e-02,4.913455843925476074e-01
4.969242824580887286e-01,4.828395524228424329e-01,1.666660295809579972e-02,9.379280674977296534e-03,-1.105257730289944083e-02,-1.184292752831731660e-02,4.744814932346343994e-01
5.301156976583770719e-01,4.513370798552439611e-01,-5.064347063874241606e-02,7.455837356174813482e-03,3.929636195368670266e-03,2.030577125676558820e-02,5.469789505004882812e-01
4.989498676961315882e-01,4.932284318002143619e-01,-3.408239338187674106e-02,3.882554469075706963e-03,1.172963238395880684e-03,2.946481610888794338e-03,5.302658081054687500e-01
5.612326789730457399e-01,5.444899632720607840e-01,7.952467847648247989e-02,-3.799058345486409916e-02,-8.074278834843746921e-02,-1.562213238940690814e-02,4.988767504692077637e-01
5.644416453734621975e-01,2.456742245950310766e-01,-1.517436179705389243e-02,1.344366321319133140e-01,7.753659196445186925e-03,9.453941025274139112e-03,5.545023083686828613e-01
4.960450546097247004e-01,4.957610126045167709e-01,-2.281041819212165089e-02,4.939998889955910313e-03,2.507682806038208628e-03,3.559393734960446774e-03,5.188388824462890625e-01
4.871864654540241646e-01,4.946488770277042146e-01,4.246758739558920137e-02,5.045111850888166910e-03,5.654655967443348273e-03,-4.309864687479159594e-03,4.487507641315460205e-01
4.873608261816723131e-01,4.937240009914771743e-01,4.514702962420757970e-02,1.805094626596146423e-03,5.053238771218878517e-03,6.545168900817412497e-03,4.456706345081329346e-01
5.045053179279294087e-01,5.006995257050930181e-01,-2.480043780772556161e-02,-3.639805443216832023e-03,3.278992884876830161e-02,1.929889033811949678e-02,5.315517783164978027e-01
4.897520306339598339e-01,4.924838687228574319e-01,-3.039761532114371168e-02,-4.724241487905806477e-04,-2.202917439227330271e-03,2.554860909517649723e-04,5.215356945991516113e-01
4.953345090603745726e-01,4.966202702856447049e-01,-2.390850825867274487e-02,7.487093978307269833e-04,-1.741225110757837146e-04,-2.843226753122775428e-03,5.199121236801147461e-01
5.193194110284260478e-01,4.409851917078850825e-01,-3.071990497488746863e-02,1.746772771080915432e-03,-5.158394662035112668e-03,1.414405319733750589e-02,5.160249471664428711e-01
4.962103142619676555e-01,4.910240492999152773e-01,-3.020333959536813939e-02,-1.799847915478485372e-03,-1.477701227466081445e-03,-4.058016823411470853e-04,5.238558053970336914e-01
4.933518547462191206e-01,4.888236252293570727e-01,-3.049346764683658062e-02,8.383160532797671828e-04,-1.349740858731194757e-03,-5.189851213774748220e-04,5.216040015220642090e-01
4.970397897755479688e-01,4.606526045726160312e-01,-2.731205391517854686e-02,7.086418819423720428e-03,-8.296586656070328164e-03,3.743283303745083366e-03,5.075316429138183594e-01
5.138062440442077161e-01,5.360084621790093262e-01,2.017121431709872903e-02,2.760187519552297422e-02,-1.601324101790290236e-02,1.827516167023245791e-02,5.091022253036499023e-01
4.944070851336867523e-01,4.927775746916496225e-01,-2.246540361614124404e-02,4.364324375182139309e-04,-7.926900524591416058e-04,-2.108247338821828826e-03,5.160749554634094238e-01
4.903632251468417746e-01,4.933000676467397261e-01,-3.092814252119441276e-02,-1.389918224727755254e-03,-2.100227355038478735e-03,1.026089540391939524e-03,5.227872133255004883e-01
4.382588226542220022e-01,4.352945212061233304e-01,5.700148440999364130e-03,-1.710955220269924984e-02,4.328082199960232856e-03,4.152577395154139622e-03,4.322264492511749268e-01
1.885656729455314484e-01,5.251613430753079292e-01,-2.242751719794100485e-02,-1.975770163451559258e-01,-3.580028330546259491e-02,-2.227749077680226883e-02,5.926871299743652344e-01
2.472054819131713488e-01,6.098608883773724010e-01,7.866062196056622380e-03,-7.363439832539456220e-02,-1.559827855622837080e-02,2.111248420946880769e-02,5.421561002731323242e-01
1.743349132814829283e-01,8.055689817402856834e-01,-8.676598125945295115e-02,2.279345214667773470e-02,-5.271924408447635838e-03,9.097135481824862244e-03,7.958242297172546387e-01
3.459963371881915606e-01,4.912918945479710642e-01,-2.032214121705228083e-02,-1.265708051937251277e-01,-2.757279992592803763e-02,-1.857363426609514104e-02,5.098045468330383301e-01
2.540707038228325332e-01,5.657025532343207264e-01,1.594006536743131086e-04,2.258309406639955400e-02,-1.388330564141936757e-02,1.110677989674420732e-02,4.931434988975524902e-01
1.438913398695649826e-01,6.627607086503680689e-01,-6.457326636152563304e-02,-1.280401425656761683e-01,1.634820527721221953e-02,1.064116754816245812e-02,6.864205002784729004e-01
1.903905261998252163e-01,6.722749301665181809e-01,-2.184929901719240286e-02,-5.192500736159845823e-03,-3.995072723563356659e-02,-2.756977314095149234e-02,6.218382120132446289e-01
2.590213163973389965e-01,5.822780205049237212e-01,-8.693038561025101529e-05,8.632692518577929700e-03,-9.297543659857496895e-03,8.445518421119830796e-03,5.060507059097290039e-01
4.832975642586028742e-01,4.842107161812161387e-01,-4.328723899056180491e-02,4.482709817711918290e-07,1.121662546789708829e-03,1.337806057989671202e-03,5.270506739616394043e-01
4.833607074361445655e-01,4.815474824006164001e-01,-4.257523206115298997e-02,-1.142582839146980694e-03,-1.072376306953345394e-07,3.634205186418894046e-04,5.250357985496520996e-01
4.820729514223370260e-01,4.874114656853167915e-01,-4.323299804724983764e-02,1.450611920989187996e-03,4.730434909000045423e-04,3.949535374487035677e-03,5.280463695526123047e-01
4.856954442299674657e-01,4.880439763851318613e-01,-4.400063793880498730e-02,1.253447855883312121e-03,1.212248490608425818e-03,2.770191210080804288e-03,5.309045314788818359e-01
4.781669281608364463e-01,4.725509319987792889e-01,-3.443697988770072493e-02,-3.174602136446233545e-03,-1.588314222330541414e-04,1.211887852206735335e-03,5.098531842231750488e-01
4.654730564113842006e-01,4.689817665862104912e-01,-2.580470492146902384e-02,-1.488408331556925670e-03,2.940843928468675050e-03,5.835795804061983186e-03,4.931781291961669922e-01
4.026102022451116813e-01,5.229999297017435822e-01,-1.909642499116043224e-02,5.264949382408136078e-03,-1.169492472471844909e-02,1.087362331214536924e-02,4.939104020595550537e-01
4.549528091115196959e-01,4.064445310464001593e-01,2.221886254520966109e-03,-2.372348161745552533e-02,-4.783225807982849354e-03,-1.281320718946374728e-03,4.325726628303527832e-01
3.462908970621481064e-01,5.568834868884877665e-01,-1.107096326353373961e-02,1.286293802065591879e-02,-2.139621397652404639e-02,3.696418145728616166e-04,4.991840124130249023e-01
3.351348176241444321e-01,5.342747578695346000e-01,-1.317060446358875314e-02,3.134856923164711096e-02,4.833719136171101514e-04,6.067098939283865032e-03,4.831089377403259277e-01
4.056314521180132693e-01,5.200729687531708834e-01,-2.009521807012626393e-02,5.034284743600743461e-03,-7.008381429217104726e-03,1.313509582239284074e-02,4.937629401683807373e-01
4.503221162991166149e-01,5.101894401198528994e-01,-2.290161805468882150e-02,1.122436251854619718e-02,-1.247520860856454056e-02,1.284413236460744956e-02,5.071441531181335449e-01
4.527222790739434122e-01,4.539157534205761069e-01,-3.131046960368644161e-03,9.450790925406958240e-03,-6.491339808148758467e-03,6.060194820187935448e-03,4.570035934448242188e-01
4.511338968142156181e-01,4.434329149454611096e-01,-2.951042159126671116e-04,1.489927890208041401e-02,-1.429820831597529386e-03,5.228101842966243655e-04,4.483792185783386230e-01
2.787545576654299473e-01,6.341258872413390035e-01,-1.387274968266333230e-02,4.385990965108208656e-02,-5.614097587224886957e-03,6.117720941608884716e-03,5.673524141311645508e-01
4.094449280037244510e-01,4.617932228801739369e-01,1.189402665367933487e-03,2.681288855764654006e-02,3.290995948299925140e-04,4.363717228987080304e-04,4.392517507076263428e-01
5.226637907922045967e-01,4.309958502527618251e-01,-2.131913660974354974e-02,1.030403855350203318e-01,2.214101585067580064e-02,-1.302142709106979962e-02,5.369226932525634766e-01
3.664101258066690403e-01,4.638541595592792222e-01,-1.405591778770326483e-02,-8.312899588966204956e-02,4.388699433351170298e-02,3.019280481296816518e-02,4.696469008922576904e-01
4.396973568897583062e-01,4.383509031290859781e-01,1.521107859551951158e-03,-1.435474882871394693e-02,5.168627942677609874e-03,1.118420290482967719e-03,4.383062124252319336e-01
3.836578140659123726e-01,5.292582057270855955e-01,-1.704652109097071211e-02,-8.820849397277218118e-02,4.537370640016104295e-02,3.877430977031489506e-02,5.235790610313415527e-01
4.448436300925202591e-01,4.979549665487772447e-01,-2.999165888848154271e-02,-5.165899805207026761e-03,1.032475639855512731e-02,1.582489619729660069e-02,5.046381354331970215e-01
4.867723601082972751e-01,4.962163747680206627e-01,1.141111726600718690e-02,8.086045456835838294e-03,-5.240470647555551392e-03,7.854614252723502929e-03,4.806354641914367676e-01
4.545489189309973588e-01,4.444767659951943672e-01,-2.899314376394845905e-03,-5.064756633381158057e-02,3.063963561950180936e-02,4.081106210254987349e-02,4.693201184272766113e-01
4.362639402337156191e-01,4.919499308653164094e-01,-1.865000914811881794e-02,4.821107067648222611e-02,-1.246314628469837905e-02,1.522106809762945046e-02,4.934712946414947510e-01
4.846610394492072982e-01,4.954139184449079525e-01,-2.979601949891813595e-02,3.866034885637387609e-03,-4.001477111124814891e-03,2.417304485169603171e-03,5.200230479240417480e-01
4.779617750782271246e-01,4.917795165881382879e-01,-2.863696553203493034e-02,3.286764140574216075e-03,-4.976356275519530289e-03,5.894623751204381562e-03,5.138522982597351074e-01
4.710279583625388566e-01,4.980560002653606766e-01,-2.831563879338860890e-02,5.262446014368622662e-04,1.685405551244019244e-03,5.310500380344842543e-03,5.134829878807067871e-01
4.987990526125277713e-01,4.781704455047096625e-01,-2.355900013230377565e-02,3.508011335618918623e-03,3.412959401110479164e-03,3.875007299814253910e-03,5.124693512916564941e-01
4.805666767661347372e-01,4.873690749226966545e-01,-2.917466593236056616e-02,-3.606449163282831878e-04,-3.653395605715440732e-03,5.817498622758066409e-04,5.132167339324951172e-01
4.553237727162671167e-01,4.938943742650734325e-01,-2.223755383727804569e-02,1.034667564392127148e-01,-3.233102159863184000e-02,3.970273244789375433e-02,5.366127490997314453e-01
4.337585601291847337e-01,4.943298443428509881e-01,-1.989346157264998416e-02,2.959156834076977563e-02,-1.154328259156768566e-02,8.552130169997408313e-03,4.900953769683837891e-01
4.155461937188358879e-01,5.043200918010771749e-01,-2.199730861756815647e-02,4.039210113277175510e-03,-1.602081934579958206e-02,1.172561514219516016e-02,4.892841577529907227e-01
4.483465171119737080e-01,5.021243300397130183e-01,-2.571409222301945796e-02,3.439072182305627241e-03,1.918853064255883695e-03,7.047889677796232225e-03,5.033040642738342285e-01
4.892272942777239897e-01,4.878331251845591798e-01,-3.212971160106053992e-02,-4.270192825501889738e-04,-4.579042237592823202e-03,2.951255343278078990e-03,5.207473635673522949e-01
4.884152505042627102e-01,4.926040959303977784e-01,-3.189351474914076112e-02,-1.368152890016855004e-03,-4.569120161708069977e-03,2.699200388043406125e-03,5.225020051002502441e-01
4.912366302592955924e-01,4.902371951374606129e-01,-3.044021411122710408e-02,6.620864696602434657e-05,-1.729113579670106841e-03,-1.849556707945760204e-04,5.211865901947021484e-01
4.929693254728988450e-01,4.876328448909185154e-01,-3.066744423379469398e-02,-1.994518570237463397e-03,-5.207947290589400730e-03,4.253091948811575472e-05,5.210785865783691406e-01
4.907335506430356986e-01,4.955819328755131092e-01,-2.984376309096431479e-02,-1.265242472260519509e-04,-1.330094466766591071e-03,1.979352661381562125e-03,5.230346918106079102e-01
4.887590325411617087e-01,4.927897147928753663e-01,-1.997265851528334801e-02,9.006107959436490283e-04,-1.199020218034677412e-03,-2.501767141688566488e-03,5.107839703559875488e-01
4.904063181225489787e-01,4.932801434994877887e-01,-1.716670035840750508e-02,-1.191056259959892631e-04,-3.860439640984618913e-03,-1.161333661975377796e-03,5.090639591217041016e-01
4.906378313325294727e-01,4.958448749634942754e-01,-1.718143224821544468e-02,-1.484342322939954982e-03,4.963666723927274288e-03,1.436395337400284394e-03,5.105276107788085938e-01
4.466387706852066319e-01,3.912083571439906593e-01,8.188774508439300437e-03,-2.435989519519560914e-02,4.946868863718162194e-03,5.032082847438618415e-04,4.157665967941284180e-01
4.898748916484733651e-01,4.929433039415832551e-01,-1.755726764064996503e-02,-1.162443494020182384e-03,-3.950047818035597527e-03,-1.048011203940239430e-03,5.090265274047851562e-01
4.928304979668066688e-01,4.842726767765399565e-01,-2.989991699805238934e-02,4.197912901008922352e-04,-5.264781761990606525e-03,-4.340145084081770306e-04,5.185856819152832031e-01
5.528157035881157144e-01,5.301501154083576584e-01,6.683126114821302810e-02,2.774834026842720042e-02,-7.490212257551305541e-02,4.669014696091246946e-02,5.013584494590759277e-01
4.887215825552620463e-01,5.504547983818165457e-01,2.064635098315281692e-03,1.733239988414783384e-01,-9.224154715434453033e-03,7.458774365929872474e-02,6.146200299263000488e-01
4.080083541172500050e-01,5.667342176472074389e-01,6.056929657397491784e-02,3.137616204054581581e-02,-8.807375862939864630e-02,-3.414409324295652332e-02,4.803927242755889893e-01
3.275369646398779144e-01,5.660530055012165107e-01,3.567189975101364707e-02,-1.893035048665295608e-02,-4.849700163330606523e-02,-1.894539935216916354e-02,4.699971973896026611e-01
5.002396710470629060e-01,4.944880972809974073e-01,-1.051697011520408287e-02,8.652819970708975836e-03,-4.373530112606545221e-03,-5.914429383173294003e-03,5.082860589027404785e-01
4.980840736537188174e-01,4.260065770079759506e-01,-1.717618638735124437e-02,1.502427412789809381e-02,-9.979491774919368313e-03,1.268450888703583079e-02,4.847765266895294189e-01
4.898827254096369543e-01,4.894113009264025038e-01,-3.177930316059085492e-02,1.468358581382842813e-03,-4.762765333066509670e-03,2.666822279704361785e-03,5.215184092521667480e-01
4.896574729833248485e-01,4.874284452953525637e-01,-3.056810426138262260e-02,1.471198018782203607e-03,-7.886607665149134461e-04,-4.472375697561059051e-03,5.191804766654968262e-01
5.708229287462797119e-01,2.992303207717758595e-01,-3.040053839327583329e-02,-8.383931603929976883e-02,-2.369653838694337974e-02,-5.019666252627635189e-02,5.497955679893493652e-01
4.929063020059775146e-01,4.600181092168559305e-01,-1.904570344171546692e-02,-9.346569875233216515e-03,-9.068678538550298263e-03,-9.642111947649904813e-03,4.971187114715576172e-01
4.947905228603873828e-01,4.813786899645247086e-01,-2.548974133285270005e-02,9.407671157927585334e-03,2.082950139671065157e-03,-1.244941907342327417e-02,5.144287943840026855e-01
6.681196470648538277e-01,5.820450642531997953e-01,7.844457294232559663e-02,-3.721843465321926503e-02,2.437918267405930067e-02,1.607050027119473132e-02,5.577480792999267578e-01
4.007313486228516464e-01,4.754903829755078304e-01,-6.009318831849297382e-03,-7.701378798908533121e-03,-9.827892969069449217e-03,-1.485497507851823128e-02,4.500712454319000244e-01
4.372981243484280189e-01,3.986919006704702229e-01,-8.367098076694390318e-03,-5.735975461429118627e-02,-2.456265988406737544e-02,-2.847503699422386514e-02,4.438641369342803955e-01
3.816899134238520563e-01,5.201110126163648317e-01,-2.221857721674941333e-02,-9.754874063482606161e-02,-2.986866365099621196e-02,-1.914908555231286183e-02,5.201304554939270020e-01
4.393501027629728162e-01,4.296911488754863173e-01,7.280219625429573682e-04,-7.355683996531870925e-03,4.619355290995631573e-03,4.076870701354871548e-03,4.341914355754852295e-01
4.332168288613968410e-01,3.790712537845292718e-01,7.599540023347672868e-03,-7.011807057553280653e-02,4.636200952214760860e-04,-4.291263590936567063e-03,4.193352460861206055e-01
3.638885202527931684e-01,4.942163767228704430e-01,4.630034280592776330e-03,-2.339625536787485680e-02,6.354569715224891481e-03,8.525690558648345296e-03,4.414235651493072510e-01
3.852210503219330451e-01,4.365564391073188943e-01,5.006308353511235154e-03,-1.085113460760377402e-01,-8.059554512893314648e-03,-5.122842833267861676e-03,4.497941434383392334e-01
2.754481864430141647e-01,4.811049729797617358e-01,-2.541138949535182157e-02,-1.877113156310918074e-01,-2.575360985242746911e-02,-1.526644703569519923e-02,5.505275130271911621e-01
4.879976875592564323e-01,4.157338947729624645e-01,-6.220850961095258924e-03,-3.828931320624216761e-02,-1.748842002668396858e-02,-2.087402710134929687e-02,4.694494903087615967e-01
4.573213012979194803e-01,4.926732402727919125e-01,-1.824053091022992401e-02,2.459343258502813198e-02,2.713208932418575883e-03,-1.143805523972370869e-02,4.964372515678405762e-01
4.817335296901794073e-01,4.673048546962678129e-01,-2.430238842192311566e-02,5.229524778841060373e-02,2.630018893325995408e-02,-2.479221709249961395e-02,5.109819173812866211e-01
3.694952771746370379e-01,4.309719547556688513e-01,-2.175693516034615804e-02,1.881232039730042493e-01,5.134494761918717565e-02,-1.019210001731041780e-02,5.434170961380004883e-01
4.998083799944740280e-01,4.735211972547489490e-01,-3.021965295585010702e-02,1.336482806294561881e-03,1.988724228394261710e-03,-5.199956316230801463e-03,5.174805521965026855e-01
5.024729386073693016e-01,4.697288830098657608e-01,-2.930669613428144027e-02,2.727993144148222176e-03,2.317791184314760538e-03,-2.010855316205647364e-03,5.162360668182373047e-01
4.996651091780917042e-01,4.858489555463775256e-01,-2.796617510936105777e-02,-1.025237273373649479e-03,1.353638894330541154e-04,-3.821580515138753905e-03,5.209057927131652832e-01
4.989892663380658400e-01,4.779158917295516229e-01,-3.104033684563728412e-02,3.774818982698296532e-04,6.400669535811594636e-04,-1.415723385264347576e-03,5.198207497596740723e-01
3.159576343422200173e-01,5.487440066767398372e-01,-3.192636538666421275e-02,8.478047936822935560e-02,5.953211809472078175e-02,-2.471981329933200036e-02,5.387244820594787598e-01
3.213305888775587205e-01,6.088670364661129542e-01,-2.468874013630317776e-02,5.934472694723954417e-02,5.767149881646843612e-02,-1.179413750998377190e-02,5.682080984115600586e-01
4.831294347769256037e-01,4.984086231600535211e-01,1.391031245615903522e-02,-1.751577241581745315e-03,-1.077005099353737887e-02,1.836983338630635834e-03,4.774270951747894287e-01
3.323478967034085851e-01,5.363584207098386347e-01,-8.255098996093335195e-03,2.640423021639139861e-02,2.041791348213754104e-02,-2.926077760642129162e-03,4.800887405872344971e-01
3.890936387197017066e-01,5.394265721989697226e-01,-2.296927939738413471e-02,1.576099518924426596e-02,1.558040153283209162e-02,-4.220530059871742228e-03,5.058353543281555176e-01
3.442949410759973961e-01,5.956364780330134501e-01,-3.891329328269815813e-02,-1.279347829763692601e-02,6.327931709185474762e-02,2.483034355349852604e-02,5.662956237792968750e-01
4.937215536401688420e-01,4.957920615439856959e-01,-7.219559337232839269e-03,-2.337430731518734626e-03,1.528449100446627879e-03,3.112587971938936878e-03,5.020318031311035156e-01
4.913592373263929725e-01,4.965071554169829815e-01,1.598177860283150897e-02,3.335517374674478591e-04,-5.291017627403321426e-03,-5.128261853487956802e-03,4.781429171562194824e-01
5.036541339556102059e-01,5.235167396238908921e-01,-3.004120314871711050e-02,7.055921950682014776e-02,-7.245609420896772374e-03,2.060693034900343626e-02,5.587424039840698242e-01
4.929541497560395724e-01,4.833034769954826504e-01,-2.435280649254900620e-02,5.474980436866536820e-04,-4.310834628675588517e-03,3.361040534924177470e-03,5.126380920410156250e-01
4.934342824050997889e-01,4.943802857322006084e-01,1.395305573812771760e-02,6.847393882842236178e-03,3.586457720633780873e-03,1.988510400605496449e-03,4.801539778709411621e-01
4.922969744965545180e-01,4.861624354732377862e-01,7.407281039218099883e-02,4.866997762707356116e-03,1.023806791499039595e-02,2.300180269974552889e-03,4.156739711761474609e-01
4.993663806954792284e-01,5.232385338438598765e-01,9.172873331715680756e-03,2.642987507465612701e-02,-9.732939822241607614e-03,-8.144933014644336125e-03,5.051141977310180664e-01
4.749693854032552842e-01,4.958472596183179926e-01,-3.509586953059434800e-02,6.597944070520578644e-04,-4.044255089288263487e-03,-5.718490170414564089e-03,5.209606289863586426e-01
4.667673171833256474e-01,4.938240533447546543e-01,3.962788352468427089e-02,-9.908839124496906722e-03,5.503704238541066020e-05,-7.731891806883747602e-03,4.418269693851470947e-01
4.690247709685671507e-01,4.936213787926512220e-01,-3.683842148226224023e-02,-1.180559038129510479e-03,-4.961791072455130555e-03,-4.293632643524259405e-03,5.187277197837829590e-01
3.551095907034116927e-01,5.453808612116617383e-01,4.975690100140639505e-02,-1.067819889837872405e-01,-1.023751517585965165e-01,-3.195721767499754007e-02,5.062175989151000977e-01
5.219812575213399475e-01,5.377958929058095361e-01,5.471862376375447035e-02,-7.078121090159669726e-02,-1.031649076902687034e-01,-2.250733249906824995e-02,5.238823890686035156e-01
4.273236256586222526e-01,4.399815787457970195e-01,4.907358003188971862e-02,-1.310868779075695656e-01,-7.079675640789483138e-02,-6.319342715296712154e-02,4.760139286518096924e-01
4.224279555320785140e-01,2.634239185505150016e-01,-1.885798845242961375e-02,-2.420056354883615424e-01,3.244466896826639357e-02,4.645080168178716135e-02,5.789477825164794922e-01
5.324485306906143744e-01,2.339322329060652683e-01,-1.025360958097221165e-02,-1.477433857894425440e-01,1.089234968039567639e-02,9.778483918778403325e-03,5.364319682121276855e-01
4.868277196904101101e-01,3.825443831029096686e-01,1.868938773689265975e-03,-5.678366348295698501e-02,1.296379536079641376e-02,7.628655240925246578e-03,4.536946415901184082e-01
4.992557630120836309e-01,4.820642347513884873e-01,-3.931835051878973530e-02,1.369858222522032107e-03,6.012677387918293100e-03,5.044663349831663215e-03,5.303670167922973633e-01
5.123282808820185386e-01,4.471470482499091403e-01,-1.892366290718833222e-02,1.716383216145930812e-02,-1.163808826117911088e-02,3.994147741145329111e-03,5.031774640083312988e-01
4.543586769864280672e-01,4.239939319685370744e-01,5.810973383471307319e-03,-5.977652107972040128e-03,6.072319355384850521e-03,2.685486965820214986e-03,4.344381093978881836e-01
4.918904264943513294e-01,3.704399611183732399e-01,1.888588448644201723e-03,-2.314902763391401413e-02,1.291265354580687502e-02,6.864526539442411014e-03,4.445112645626068115e-01
4.390732481385620223e-01,3.767801572260932597e-01,-2.983316539326535954e-02,-2.555186515740472952e-01,1.466488673586681217e-02,3.859938824420790227e-02,6.289104223251342773e-01
4.678669931159037398e-01,3.170851995565215353e-01,9.199671939069620219e-03,-1.608007131242975563e-01,6.830005107780337537e-02,6.882900160116900423e-02,5.193551778793334961e-01
3.136936620096161810e-01,5.092546421373700394e-01,-3.622481835451579757e-02,2.194187917105469288e-01,-9.067107898812255123e-03,1.183287559533887636e-03,6.113935708999633789e-01
3.363657942464973183e-01,7.139938385635189455e-01,-2.617943509707482130e-02,1.309864856540011724e-01,-1.829005547880833277e-02,4.508726284086683050e-02,6.852180361747741699e-01
3.935703068221753642e-01,4.808245943304134684e-01,-1.008730362463394759e-02,1.649831624539368768e-01,-4.614853812773962727e-02,2.813008974043878369e-02,5.442379117012023926e-01
4.149497568557661831e-01,5.328749148996616558e-01,-1.544477661055015938e-02,1.059051764074555035e-01,-1.527144829353190155e-04,1.332451891273502345e-02,5.329920649528503418e-01
2.819229094585329332e-01,5.418885829922427400e-01,-9.710264714854369150e-02,1.501057493427487011e-01,4.718105263653122466e-02,6.548420354135627008e-02,6.300111413002014160e-01
3.417503593138105367e-01,5.482899588624996490e-01,-3.222706768737537697e-03,4.934719594574256407e-02,-4.339814659201625402e-02,-3.950158593672470179e-03,4.959012567996978760e-01
3.914815117073715545e-01,5.918607248806084797e-01,1.430399409785731990e-03,7.263291461289421436e-02,-6.215976281270113590e-02,4.497133281297860385e-02,5.513032078742980957e-01
3.343233959804005062e-01,6.027808010636506175e-01,-1.783615442323766009e-02,2.276453791113364211e-01,-4.484483881944337919e-02,2.522970362606140327e-02,6.738216280937194824e-01
5.284863970365978325e-01,3.323431656150471758e-01,-3.401084884969302058e-02,1.885879578915277965e-01,2.525679808162790974e-02,5.199164295813933287e-03,5.943369269371032715e-01
5.015788200805013641e-01,3.914238900828244105e-01,-6.486267833626657708e-03,-1.202100171738107598e-01,2.816283302205969258e-02,3.770009891513712713e-02,5.140944123268127441e-01
4.881909374065571683e-01,3.983143080133474401e-01,-1.720109639163919235e-02,-2.093460062275962624e-02,1.892537841174203594e-02,1.377489614289815339e-02,4.701430797576904297e-01
4.763582628472656233e-01,4.525232782678800247e-01,-2.657453800048997783e-02,-7.365313140604240992e-03,1.220286260509622668e-02,6.320023852277169979e-03,4.921904206275939941e-01
4.844875572942994868e-01,4.836745192755511624e-01,-4.093169007589603225e-02,3.402125449869452221e-04,4.803568783415350200e-03,5.895837807127105729e-03,5.251787304878234863e-01
4.460129664295551799e-01,3.979917242203029337e-01,4.067221073835558531e-03,-2.429238423235708516e-02,6.561435370378511725e-03,3.094972037988006058e-03,4.222884774208068848e-01
4.375841113189670173e-01,4.492414894428103933e-01,-3.867435733684754240e-03,-5.016054674358048394e-03,1.227210166675167871e-03,7.157603568121955959e-03,4.476552605628967285e-01
4.455761503349301433e-01,4.474063658663049448e-01,-8.006197268862258465e-03,-6.219143093095996951e-03,8.846873079391906133e-03,5.605673738394672916e-03,4.549896121025085449e-01
4.577681175653632306e-01,4.527567034734319984e-01,-2.025727273091448843e-02,-2.278082822822778079e-03,1.633421585431858074e-03,7.902150093822135971e-03,4.757612049579620361e-01
4.229449602428191901e-01,5.364209873998820877e-01,-2.750915343348875330e-02,1.288148968048044851e-01,-9.669940451728708392e-03,9.938558991830657649e-03,5.632567405700683594e-01
4.676502694357513867e-01,4.991162388583081366e-01,-2.181465000903332063e-02,3.686884739846484765e-02,-2.547552659687733756e-02,5.664054832902448364e-03,5.119459629058837891e-01
4.025654422214286488e-01,4.929044420134598425e-01,-1.582131293095495606e-02,5.914859305097446701e-02,-1.641962583115826740e-02,2.577824609336396705e-02,4.840488433837890625e-01
4.520045026326648396e-01,5.172977048763210961e-01,-2.535578305472185878e-02,1.538038400059730387e-02,3.842642161940936635e-02,-1.530870765688298329e-02,5.187937021255493164e-01
3.845751393727291356e-01,5.074192796589763743e-01,-1.092559594921388433e-02,1.448053798615728943e-02,-1.156054684076119991e-02,1.110380755558897439e-02,4.706339836120605469e-01
4.173767224100158879e-01,5.003396950324761061e-01,-2.259978715704108465e-02,2.640047568148908702e-02,7.728914318535486322e-04,7.568022023207711564e-03,4.891099333763122559e-01
4.605953084744479620e-01,4.601686743758151010e-01,-1.207270208588429039e-02,2.730767603208697492e-02,1.611455588118406758e-03,1.053724438659197835e-02,4.751753211021423340e-01
4.466287266580873938e-01,4.582798860131432339e-01,-4.877218070331645894e-03,1.746201102633992974e-02,-4.380659215064285246e-03,7.004671949380473182e-03,4.586648643016815186e-01
4.836306042959216955e-01,4.003206364113333082e-01,-1.420611702846830138e-02,6.189286960044178276e-02,-2.134229449801986964e-02,3.374847301562990121e-02,4.791479110717773438e-01
3.556958008775541469e-01,5.027260322103177526e-01,1.160749077706291210e-02,-1.325570620513871478e-01,-8.391701411951021927e-02,-5.185720208196476638e-02,5.220286250114440918e-01
4.608022172836132579e-01,5.016306680237945237e-01,-7.529524518277486145e-03,-9.603413561978116700e-03,-7.569732349250400325e-03,-3.983398770441254171e-03,4.905293285846710205e-01
2.888872707738829315e-01,5.652926964807434285e-01,-2.486107909277956995e-02,-1.504148500162947599e-01,-5.792736547385699680e-02,9.878058713770024313e-03,5.829177498817443848e-01
2.878134118148858445e-01,4.864850347890642412e-01,2.917409315633723299e-03,-1.501032519831629053e-01,-3.598753332981124292e-02,-2.713620896251544082e-02,5.009234547615051270e-01
4.679192903656356206e-01,4.921693283943453512e-01,-3.731438566559991399e-02,-1.400599989097248154e-04,-8.265169008228280198e-03,-8.158295677302926721e-03,5.181754231452941895e-01
4.332285112124963922e-01,5.011102561943728828e-01,-2.851037512024062748e-02,-1.698092055028924824e-02,-2.906467140333063651e-02,-1.380865223949599360e-02,5.031160116195678711e-01
4.961693571549768977e-01,4.879260900334616569e-01,-2.732237938297760182e-02,-1.373825606440650694e-03,2.906635117003025185e-03,2.720154692575601271e-03,5.194703936576843262e-01
4.271634906611119220e-01,5.025918280875510957e-01,-2.816407402566567519e-02,-7.957955816916729638e-03,-7.647493801215667704e-05,-9.136237065037793037e-03,4.977927803993225098e-01
4.979412093269983686e-01,4.920145204205117473e-01,-1.280998235523328477e-02,3.745913692189091222e-03,-1.019361551957815790e-02,-1.516923733338224577e-02,5.088407993316650391e-01
4.686172321416038344e-01,5.037166606687236703e-01,-3.179760772779294253e-02,1.688928979397395671e-04,-9.085424884964750716e-03,-2.449453912731893845e-03,5.191116929054260254e-01
4.111317636100285666e-01,5.205448655734934427e-01,-2.654010749779839307e-02,-1.187269593523494586e-02,-1.520601453953614700e-02,-8.190961431746607291e-03,5.027253031730651855e-01
4.866937736273619919e-01,5.062601234609398482e-01,-2.495247365130914829e-02,2.127497198443458609e-03,-5.656425364755589963e-03,1.439653624956468677e-03,5.218156576156616211e-01
4.963878608154004279e-01,4.689768719682628206e-01,-7.958689995103018777e-03,3.369022271302417760e-03,4.140564954764864615e-03,-5.507273931483386981e-03,4.913945794105529785e-01
4.955335870831983902e-01,4.872367604009449904e-01,-3.058417257223777774e-03,-1.179458109027217792e-03,3.722614676425942126e-03,3.507466089780405648e-03,4.945793747901916504e-01
1.831405651305732796e-01,6.058510623207533641e-01,-3.232353917867036852e-02,-2.137842662278489209e-02,4.771475138436842567e-02,2.646287961390336382e-02,5.713929533958435059e-01
1.987314796038203990e-01,5.668016340752559667e-01,-3.650858931188735723e-02,-1.282694027210821153e-01,-7.033598615172892941e-03,4.752119314024073199e-03,5.718160867691040039e-01
4.735886365568006684e-01,4.973595245643090967e-01,-1.537831525204746974e-02,2.319617374296375090e-03,4.442255042004798066e-03,-6.458009080906127733e-04,5.013516545295715332e-01
3.862647250401783361e-01,5.152881290706742279e-01,-2.471787004600600746e-02,-6.536113213608880923e-02,4.014437601965900604e-02,2.654146930673316820e-02,5.082759261131286621e-01
3.647869073517042704e-01,3.566310933183436394e-01,-1.570769743608585456e-02,-2.234464942127000753e-01,1.983027009474859492e-02,4.024024902338442511e-02,5.454924106597900391e-01
3.906660457540475084e-01,4.885266692986279802e-01,-2.182147742385009970e-02,-1.753992599795718352e-02,2.541102632756239016e-02,2.005494786042776728e-02,4.734508097171783447e-01
3.838869512525092675e-01,5.125015139113948681e-01,-2.133611028786686070e-02,-1.110292204977937451e-02,2.430355237747768363e-02,2.363557855373030203e-02,4.865005314350128174e-01
4.857447784738574414e-01,4.917009784381341508e-01,-4.071419595484776499e-02,1.706786377390732447e-03,3.204699712685379551e-03,5.762131616204270099e-03,5.295935869216918945e-01
4.074580041339468384e-01,3.856704334611750218e-01,-1.208905883518446300e-02,-1.811690926472102614e-01,7.210680131481271571e-02,9.215039604973618292e-02,5.539796948432922363e-01
4.901304659451403145e-01,4.736268791644759890e-01,-3.860717782472666837e-02,-3.246982993274248695e-03,1.230255056221260003e-02,1.328037783902371628e-02,5.216556191444396973e-01
4.989160520293379197e-01,4.914960355323425567e-01,-1.964610683274370384e-02,3.991250100084121335e-04,4.871784471353242559e-03,-5.612309437562654300e-04,5.149627923965454102e-01
4.982156559079130576e-01,4.897114429531669311e-01,4.355463493228650673e-02,3.295996508794171546e-03,-1.617968717669015719e-02,-3.803880093235398937e-03,4.514241516590118408e-01
4.301503456093996869e-01,5.182145118227030611e-01,-2.428734298475698772e-02,2.877418281094668885e-03,-1.923774802577836278e-03,-3.047237793423869957e-03,5.043336153030395508e-01
4.953020908897673991e-01,4.873557004213172061e-01,1.045290329808518104e-02,2.703470567947602928e-03,4.378645582489623829e-03,-1.147279697667183060e-02,4.814181029796600342e-01
5.054305335303621582e-01,4.993620462524834824e-01,-1.837272998757522036e-03,9.260272688239595471e-03,-1.861241416631764485e-03,-5.264779825185404195e-03,5.046086907386779785e-01
5.348483888126560615e-01,4.085459719470133644e-01,-2.798198569150295301e-02,2.752487949637432568e-02,6.558185872604399558e-03,-3.213739059626103539e-02,5.168595910072326660e-01
4.889091804040978095e-01,4.287362980354784137e-01,-2.249096568233249771e-02,2.635915128365218588e-02,8.522841585033715667e-03,-1.416917693355063124e-02,4.871171116828918457e-01
4.955092725860202885e-01,4.925409499774749955e-01,8.705795273457050953e-04,-2.468613858227405086e-03,2.686721668123183502e-03,6.226297194048375887e-03,4.933196008205413818e-01
2.405206267255947106e-01,5.422627827222672448e-01,-1.233218281765918745e-02,-1.608288567751011700e-01,-1.060943206883868672e-02,-1.026890811408424919e-02,5.563551187515258789e-01
2.165307696395429582e-01,5.561367267311990714e-01,-7.746104241835735649e-02,-1.641409834296999326e-01,-4.895561125928537399e-02,-1.492084679457783385e-02,6.247314810752868652e-01
4.979841216397004056e-01,4.590311390380530376e-01,2.824429830625646565e-02,-4.308623392324523182e-02,-4.951637472185663885e-02,-2.848905821738863253e-02,4.682251811027526855e-01
4.906571084074111688e-01,4.958996255339921388e-01,5.244280545760687806e-02,5.774712012627095103e-03,-5.689433774069840161e-03,1.014453384649786211e-02,4.414323270320892334e-01
4.461100295375298175e-01,5.267558362427442464e-01,2.757411136996734680e-03,-8.106056194338527587e-02,-2.965356390340414400e-02,-2.618616222597997326e-02,5.130569338798522949e-01
4.800863566453960063e-01,4.688348232305054042e-01,3.441171403613385582e-03,-4.250083171589617848e-02,-1.762191261808628007e-02,-2.864578701235873798e-02,4.803816676139831543e-01
3.962849492128410755e-01,5.445823385239207948e-01,4.156796552034436321e-02,-8.419189453900716158e-02,-6.251004534588980310e-02,4.249705525837878554e-04,4.831229150295257568e-01
5.143625634865922613e-01,4.888762054760517062e-01,2.159238519706635495e-02,-1.930786732896649927e-01,-6.703872206414708546e-02,-1.855567932367838471e-02,5.977179408073425293e-01
3.819360632557207702e-01,6.665380904520711303e-01,4.783646858813556113e-02,-7.150243515931944960e-02,-8.006284184044619445e-02,-4.338206674471547369e-02,5.726432204246520996e-01
4.827881513213626574e-01,4.952784319651134526e-01,-3.038617081202088510e-02,-4.142796293730266585e-04,-7.622647616498347788e-03,-5.289873482092860915e-03,5.197810530662536621e-01
5.047423200973197854e-01,4.959801700156145632e-01,1.136535623121975869e-02,1.504154769600190601e-02,-1.195062514658100199e-02,8.274610337267273089e-03,4.903949201107025146e-01
4.964762531974323267e-01,4.898232418903977203e-01,9.791169116634967917e-03,1.740518133934748852e-03,-8.116992458495665003e-03,-1.174364900665888774e-04,4.836067557334899902e-01
5.043252052038877942e-01,5.032864411343421773e-01,2.972045490379648935e-02,1.527632865098443697e-02,-1.071680306830019754e-02,-4.887640758614320187e-03,4.752621054649353027e-01
4.885630295525672517e-01,4.962485165526941966e-01,7.352843679641862806e-02,6.389841397591329054e-03,4.478471630564301656e-03,-1.119840435035911012e-02,4.195967018604278564e-01
6.701430862554594858e-01,6.399935417127275983e-01,6.747898045323802441e-02,1.319556261966670918e-01,2.514337929785833911e-02,5.612464546388142711e-02,6.399424672126770020e-01
5.005754647368219068e-01,4.895145379789946904e-01,3.983754743746326099e-02,2.682156216369882291e-03,-1.303793187738353301e-02,6.600479986825615389e-03,4.560348987579345703e-01
5.623681973126737343e-01,2.709914442931249945e-01,-1.957555796160798112e-02,-3.359701042412789607e-02,2.160734507192741197e-02,2.555018078787367475e-02,5.106264948844909668e-01
4.428506450895817181e-01,4.841692045886408780e-01,-1.784300799565369244e-02,4.905711346970990233e-02,-2.500047509657663675e-02,1.300950772958861697e-02,4.925278425216674805e-01
5.001059939944458854e-01,4.916103695869168400e-01,-1.134250913177892173e-02,6.763336319836961603e-03,-2.573325114072650202e-03,-4.191034234776101937e-03,5.074607729911804199e-01
4.522413566649021721e-01,3.740152749028762824e-01,-1.641537129162318198e-03,8.576859568632404229e-02,1.794241031515488721e-02,-6.380372007380366757e-03,4.469677805900573730e-01
5.085481788631627253e-01,4.422698437431733520e-01,-2.420719435072188341e-02,6.893571046607209658e-03,-2.642739637502257866e-03,-2.872995173291354506e-03,5.030897259712219238e-01
5.037125422901287397e-01,5.350198243246799823e-01,-7.687745198212914133e-03,2.578275238885901002e-02,-1.948271558309807444e-02,5.421828398954258582e-03,5.307938456535339355e-01
5.085037970661798745e-01,4.513641092948380007e-01,-2.835010697117390510e-02,5.044917740529454922e-03,-6.724403019952787143e-03,7.738288949699299521e-03,5.110704898834228516e-01
3.998020869744098316e-01,4.582216352637573653e-01,-1.103743454548783420e-02,6.822750712103749227e-02,-4.729471540722979261e-03,1.030317380952584273e-02,4.588611721992492676e-01
5.053264149300102925e-01,4.479004696088172421e-01,-3.423920171294886350e-02,2.688628517779057328e-02,-9.023143487594443082e-03,9.160968953593770156e-03,5.158569216728210449e-01
5.311181259338697558e-01,5.064529026201481932e-01,2.154153998682434290e-02,1.840775228668040109e-02,4.122030605185500289e-03,-2.051532319063265747e-02,5.000379681587219238e-01
5.386919578310254142e-01,4.919085158663180080e-01,1.165546316675952765e-02,1.118672712278604917e-02,-1.012819764669323566e-02,4.712049387582249727e-02,5.124878287315368652e-01
4.955663252241201411e-01,4.886382005666818351e-01,-3.114470595658397345e-02,1.396935190337570548e-03,-4.365505651606296257e-03,3.609323983400994969e-03,5.233789086341857910e-01
4.924395401433592223e-01,4.881743863468875899e-01,-3.085168766409479568e-02,-6.128894913657120412e-05,-4.001136155681255836e-03,4.004291077329131913e-03,5.212639570236206055e-01
5.033688006767439438e-01,5.449751082584384232e-01,-4.269062154795777442e-03,3.545783387197007364e-02,-1.428576658107624277e-02,1.035801444423408053e-02,5.340918302536010742e-01
6.192399453688185451e-01,6.942793977069708911e-01,5.715619310804626041e-02,1.208051351829796671e-01,3.610208583999735456e-03,2.433520092977008165e-02,6.398006677627563477e-01
5.506189655805012739e-01,5.369277385616184617e-01,1.269681071637429048e-01,5.742034810942910940e-03,-3.473778428216773434e-02,-3.532253806016360381e-02,4.258277714252471924e-01
4.940909245995760979e-01,4.841640986826344917e-01,-4.062898885215593392e-02,3.066304195283573765e-03,3.922289286442628975e-03,2.123986737845321750e-03,5.299091935157775879e-01
4.978561626490667913e-01,4.862364840036504932e-01,1.026772298088892699e-01,3.269777192305990763e-03,-8.853341530227577805e-03,1.613782599966198921e-03,3.898520171642303467e-01
4.841333175469110239e-01,4.868222706931747412e-01,-4.267466146637255431e-02,7.992636232405672626e-04,2.213130301384206005e-03,1.314844467679972565e-03,5.281782150268554688e-01
4.969587086250086827e-01,4.941237174500091034e-01,2.702030746429517905e-02,1.235327290614162202e-02,8.858123736643885512e-03,6.812640553688380750e-03,4.694148600101470947e-01
4.035396800780609583e-01,4.548183446254224771e-01,-7.676950994734366152e-03,6.991632285980614592e-02,-6.942292168474320296e-04,1.452090618268850504e-02,4.561952948570251465e-01
4.993902459223273915e-01,5.409803152781631486e-01,1.629926819474891708e-02,1.365388524643131561e-02,-2.995555239572913683e-02,-9.248284144888305192e-03,5.086317658424377441e-01
5.213495580927076656e-01,5.471332784089359969e-01,-7.408177454577669074e-03,3.884435799763581720e-02,-8.932244806589490285e-03,1.709696049835362358e-02,5.472894906997680664e-01
4.900456194469333671e-01,5.464741069712718557e-01,3.093915304973238189e-02,2.004118888420006184e-01,-6.762632558696719809e-02,-7.216532605811066571e-03,6.117520332336425781e-01
4.550109865742668069e-01,4.577158429453649369e-01,6.394794993709113085e-02,1.203241994958342831e-01,-5.007728414342005330e-02,4.191313770136624595e-02,4.585002362728118896e-01
4.924530217170368651e-01,6.139329688597243706e-01,7.282373119625884517e-02,4.146483858704692882e-02,-3.351625445289711791e-02,4.429165910375142817e-02,5.061975121498107910e-01
2.747281740255826943e-01,5.558864630333609780e-01,-6.281662115874386831e-03,1.527274060797532140e-01,-1.852097163888679829e-02,3.333607124584267445e-02,5.580006241798400879e-01
4.477406842241525853e-01,6.055183687044207730e-01,6.783505811735640600e-02,-6.209492476370184061e-02,-9.395704165328276625e-02,-1.023226772760039288e-02,5.172310471534729004e-01
5.372572551173799837e-01,6.353644668596210021e-01,8.161527877802621234e-02,1.430442956047718872e-01,-9.883886250488058134e-02,-8.482023602790347144e-03,5.940072536468505859e-01
1.141045938627391204e-01,6.756771155468933587e-01,-7.880245237714667006e-02,3.326628018703557677e-02,3.665703145091863541e-02,2.056597264948982484e-02,6.852212548255920410e-01
3.785238465215749470e-01,5.146989931837451238e-01,1.842893434362224969e-02,7.798843677519973205e-02,-4.622580026604553721e-02,2.063532143432130622e-02,4.724219441413879395e-01
3.082048060450704452e-01,7.436974980219146492e-01,-9.382221452696731800e-02,1.789093260484447001e-01,3.520622057898133150e-02,3.054029497248106698e-02,7.930331826210021973e-01
4.574570412317432999e-01,4.603947337599622602e-01,-9.267849744367451237e-03,2.618075314053547580e-03,-7.380385505828531778e-04,5.158986917316973203e-03,4.683096110820770264e-01
3.281196194390315624e-01,5.957193203777340074e-01,-2.235948163401701994e-02,-1.432651386595681052e-02,1.507617128875282479e-02,1.147968380810323111e-02,5.384480357170104980e-01
3.138164756658956556e-01,5.585979147210086149e-01,-2.411001088445141605e-02,1.271504615410080571e-02,1.431048206892211044e-02,1.254416715368977808e-02,5.083324313163757324e-01
3.287114594241907772e-01,5.663667458769856555e-01,-1.832208549966046762e-02,8.244126013352753857e-02,3.567049274219702415e-02,3.145289556899976986e-03,5.325628519058227539e-01
4.103682698375404891e-01,5.384287355294078425e-01,-2.046585631993225185e-02,-3.721309292618469287e-03,4.992433557313638581e-02,-3.166664463871738788e-03,5.145282149314880371e-01
5.484839237517986632e-01,5.045328773507595788e-01,2.685790215972022610e-02,-8.853460352999684146e-02,9.918213241519896473e-02,7.040084613512852252e-02,5.647960901260375977e-01
5.141767159240253626e-01,4.937669288355978070e-01,8.034399279003234806e-03,-3.871350896640267381e-02,7.259218203127920654e-02,9.024107503321440737e-02,5.394458174705505371e-01
5.248319421358393910e-01,3.055041605166689545e-01,-1.337473838213742994e-02,-1.153854735195054271e-01,4.740197687845153218e-02,9.275246936520993579e-02,5.405726432800292969e-01
5.584556080850915372e-01,4.403357409156197777e-01,-3.334124446900821326e-02,-3.230739233093840590e-02,3.927769763944294334e-02,4.914216582753014317e-02,5.561270117759704590e-01
7.655754214077952202e-01,3.613537235559977079e-01,-3.192572529949250226e-02,2.443152983555748128e-02,3.160144639432316965e-02,8.205639311545437353e-02,7.085353732109069824e-01
5.431504304841359154e-01,4.948940720811589866e-01,7.386141399552548226e-02,2.215788174524442600e-02,-1.615488580999952656e-02,-1.457037576383975359e-02,4.503414630889892578e-01
4.829994535364383612e-01,4.885209295596512069e-01,-3.191795113969031483e-02,4.536874831009493625e-04,-1.448520658672067859e-03,9.075148600486613020e-04,5.177093148231506348e-01
4.805431102518097353e-01,4.885752215509270302e-01,-2.914337186346777075e-02,6.803966454234053633e-04,-4.381895260757548601e-04,-1.867970539041376578e-05,5.137515664100646973e-01
4.757694883670762209e-01,4.806297711374088455e-01,-2.618584879435353896e-02,1.215491698718254880e-03,-3.434943485212289382e-03,1.642155825921908299e-03,5.044505596160888672e-01
4.779597512232985901e-01,4.957303784263481505e-01,-3.001911080662628128e-02,3.766870617143413809e-04,-2.616629378929349794e-03,1.556785917143620798e-03,5.171205401420593262e-01
4.806673678425535390e-01,4.709852450298311344e-01,-2.520804254311437287e-02,6.301080115643640199e-03,-6.762839451641326424e-03,2.851458841477107035e-03,5.013844966888427734e-01
4.829024262069818718e-01,4.936834146308227700e-01,-3.058129454885355480e-02,-7.855795430428576514e-04,6.122690174386766172e-04,5.544602849193873461e-04,5.189619660377502441e-01
4.806884723178379004e-01,4.809592459156922795e-01,-2.586934159834164415e-02,-5.368096080111355419e-04,-3.826380043178485412e-03,1.808528797101012801e-03,5.067471265792846680e-01
4.869257939573211624e-01,4.934251925473778222e-01,-3.339775082328444444e-02,-2.077071849261748866e-04,-1.433222481217807411e-03,5.504685120201104759e-04,5.236103534698486328e-01
4.984663505585076315e-01,4.690264202761920131e-01,-3.338322186157977045e-02,-5.171923632825231598e-03,1.373759401934219505e-02,1.115362353232965224e-02,5.187414288520812988e-01
3.541011729214719739e-01,5.183690999893824092e-01,1.545755728558578790e-02,-8.106359241214029787e-02,1.010551056099201761e-01,7.138223155211201321e-02,5.127653479576110840e-01
4.737693366063024381e-01,4.995675822766758589e-01,1.085044569375254175e-02,1.528097430834247060e-02,1.064220794128584689e-02,-9.159942550840141043e-05,4.774329960346221924e-01
4.922886902272263776e-01,4.958257700069383378e-01,-3.531905109310279345e-02,8.289437740448712304e-04,-1.709841716457007575e-03,4.395457750572290159e-04,5.293959379196166992e-01
4.790270590490077751e-01,4.949650031765319702e-01,-1.709227144471114901e-02,3.888884428197915931e-03,2.258442612427293602e-03,-5.952765579246878380e-03,5.044427514076232910e-01
4.500240222548537172e-01,5.216890016667098395e-01,-3.108031392352722522e-02,-2.004646243791166572e-04,5.141015432491944682e-03,4.246435709546961669e-04,5.207259654998779297e-01
4.169283152314450791e-01,4.758070342034847466e-01,-1.403060873640882278e-02,-1.354298968400017844e-01,5.209228958716211749e-02,4.644323034370035491e-02,5.331060886383056641e-01
5.611046726045577637e-01,7.193776818117714189e-01,4.743903184202447054e-02,8.374660351313674422e-02,9.897264851833834087e-02,1.252710588855301087e-02,6.489223241806030273e-01
5.332351043997015649e-01,5.176773923913942088e-01,9.281718449713771690e-02,1.884503231627277300e-02,4.482982699356549000e-02,-2.819327990868389366e-02,4.436634182929992676e-01
5.021991171226990458e-01,7.120904828414373888e-01,6.940675795053047326e-02,-1.825151072224262191e-02,3.035483018555933110e-02,2.073385458187045755e-02,5.720631480216979980e-01
4.969800828542143556e-01,4.955933162784015855e-01,6.658102302307400411e-03,4.533693030794006332e-03,-5.690721999563328089e-03,-1.047369099768466309e-02,4.901280701160430908e-01
4.514662286593796314e-01,5.230505675207791638e-01,-3.819496577117731384e-02,-3.205608879746955214e-02,4.502435544064784662e-02,3.369533316768771880e-02,5.408465266227722168e-01
2.698685733426930411e-01,5.329183008693600954e-01,-1.264225903367982573e-02,-1.400809361128246000e-01,5.849234960919606763e-02,2.797779782747676636e-02,5.429569482803344727e-01
4.571966853290005961e-01,4.709030014349734894e-01,-9.106636894654573933e-03,3.859284969369165385e-03,-6.974766727936957973e-04,2.712634556746325700e-04,4.733543097972869873e-01
2.911178147539918437e-01,5.755508086792109346e-01,-1.352273855675328873e-02,-8.406491834335784452e-02,3.498192676620262564e-02,2.341921927437008721e-02,5.356072783470153809e-01
4.393131800855546443e-01,5.204402059293599114e-01,-1.788291202716890682e-02,-1.522708204032215649e-02,2.677415521871139362e-02,2.173972426585632153e-02,5.069169998168945312e-01
4.434601208119717253e-01,5.142404406518166216e-01,-3.486083422669228327e-02,-9.493098151929077119e-04,1.376932866775529285e-02,4.143401726000267397e-03,5.179570317268371582e-01
2.824020580952232296e-01,5.760647714809244979e-01,1.689096938013612270e-03,3.710847516883650221e-03,-1.185189438365170760e-02,8.180782638858949407e-03,4.981324970722198486e-01
3.093768858441302561e-01,5.447594514438001134e-01,-2.533901964426821252e-03,-1.107867287732421102e-02,1.930300981051943227e-02,1.547713640523611621e-02,4.778245687484741211e-01
3.200866159933010158e-01,5.276882569285910041e-01,-1.934843014427589658e-03,-2.752862346044756756e-02,2.321386440479469848e-02,1.613766531338284294e-02,4.672470986843109131e-01
3.952450925927483705e-01,5.104617319292450439e-01,-1.707246025941622225e-02,-1.016467696859873864e-02,1.894326709401971190e-02,2.036053535268899511e-02,4.831321239471435547e-01
4.438633762564134222e-01,5.154307304787629773e-01,-3.190846279024545096e-02,-2.809413828125439071e-03,1.119022903270139140e-02,2.208933130183945819e-03,5.156980156898498535e-01
3.828973496005389499e-01,5.223622008325771171e-01,-1.853740019375904602e-02,9.263146010800046501e-03,2.285360973333554896e-02,-1.425302741939612865e-03,4.882793426513671875e-01
4.822416329299811233e-01,4.526260760891470114e-01,-1.628885242186928206e-02,2.689341990990208337e-03,8.796000406857263157e-03,-4.825442212435497244e-03,4.847361445426940918e-01
5.050778084569924609e-01,4.177683693360352835e-01,-2.375427283445352700e-02,1.014077627817391337e-02,8.483330695348987455e-03,-1.596785245793038224e-02,4.923450052738189697e-01
4.820355995199852028e-01,4.505499970301399815e-01,-1.648589793010263316e-02,1.718483846840468399e-02,9.404803241099225428e-03,-6.992288840826991515e-03,4.848884046077728271e-01
4.908260283586932116e-01,4.795979769846003271e-01,-2.858852694137137274e-02,1.878041793551431596e-03,3.699946119275020380e-03,-4.130397779178291394e-03,5.139925479888916016e-01
4.764972274192033064e-01,4.663756922264040705e-01,-2.414370267982546281e-02,9.032158308423837018e-03,3.787878130912089060e-03,-5.341508799339637036e-03,4.960341751575469971e-01
6.069519279177604254e-01,3.101487536696295733e-01,-4.812438671960406200e-02,-1.755075246528321406e-02,-6.423290712488007731e-03,-9.841077689024493869e-03,5.693213343620300293e-01
6.944328377745830894e-01,2.403202060265751949e-01,-2.412373428401576314e-02,-1.028918924910447313e-01,-1.456960137827286589e-02,-6.494994368133992502e-02,6.642956733703613281e-01
4.564493717058526467e-01,4.893235121528125564e-01,-2.276244013641204322e-02,1.685156664667566973e-02,-1.561700195220437452e-02,1.484969469244870437e-02,4.987218379974365234e-01
4.393341835966194653e-01,4.659638340915675525e-01,-6.539874875784779107e-03,2.294549484735773637e-02,-9.323941389186702483e-03,7.883482401599110553e-03,4.619664847850799561e-01
4.452845872488838674e-01,4.566008607787888085e-01,-9.942651558688342384e-03,-6.172031765491545717e-03,4.990979449001725979e-03,6.846071202495536412e-03,4.613469243049621582e-01
4.234394782243247057e-01,4.336403947778630918e-01,9.966132994095100450e-03,-9.079763226711427826e-02,1.729645749250196748e-02,1.181640895571389564e-02,4.486993253231048584e-01
4.966114491624293303e-01,4.683175514557331720e-01,-1.818456114794780865e-02,2.900675430617614264e-02,-1.133180779261487407e-02,6.396657904429111502e-03,5.042638778686523438e-01
5.012997108026739923e-01,5.004109332515569442e-01,9.530308950803978441e-03,6.048729757742661887e-04,2.875756183995432317e-03,1.544293737207954632e-02,4.920794963836669922e-01
4.762631600763036488e-01,4.553526537736453661e-01,-1.964460756231845018e-02,-3.767461377135060754e-03,7.462164303808043256e-03,1.869493051561717202e-03,4.860166609287261963e-01
4.654562201924434817e-01,4.413532602846634845e-01,-1.226994718171059429e-02,-4.642085970251056369e-03,1.247472970156364609e-02,5.091828500538441923e-03,4.667953550815582275e-01
4.822476279005527555e-01,4.897863828609118064e-01,-4.338276131674018155e-02,1.360900521695457624e-03,2.194649105587772372e-03,1.495809166185071200e-03,5.294652581214904785e-01
4.780741922403482502e-01,4.784205063307873651e-01,-3.846789323129906624e-02,-2.022034030441971671e-04,3.100737630037534841e-03,2.813899132407925684e-03,5.167663693428039551e-01
4.864618887980836082e-01,4.680705694054855814e-01,-2.322121743773047919e-02,-1.139136537079647044e-02,1.032814394795627047e-02,1.246414411885177556e-02,5.019130706787109375e-01
4.121195715824029771e-01,5.742241310353607409e-01,3.798817138756216405e-02,-2.430725503311064253e-02,2.928317045944082639e-02,4.358514272681522639e-02,4.867695868015289307e-01
6.295484045739464518e-01,1.452667130036184862e-01,-4.092051616985706297e-02,5.780941714418591504e-02,1.294574966326372638e-02,3.402935206361884513e-02,6.110352277755737305e-01
5.350557174605848898e-01,3.807680240493316326e-01,-2.173983470470181034e-02,-8.764612772498892078e-04,2.911415646764809340e-03,3.569903217956460484e-02,5.017671585083007812e-01
5.569694355377821093e-01,3.090084301000596279e-01,2.630026522454420590e-03,1.964932176952804629e-02,5.272746887936928875e-03,7.672139824476601269e-03,4.824319183826446533e-01
5.317610400603355325e-01,3.432501090248344378e-01,1.482139263076942548e-03,4.098626344099812191e-03,3.354758145727960734e-03,-5.462553087225051817e-04,4.656755924224853516e-01
5.625934644698205034e-01,2.433016489834258778e-01,-1.963205809943247004e-03,1.243700547840824108e-02,4.757152973513288814e-03,2.865982077707893497e-03,4.908866882324218750e-01
4.974794139940378335e-01,4.832975039713540699e-01,-3.193383125038212755e-02,5.841439343454203365e-04,-2.137767661849920191e-04,-1.932836787367080231e-03,5.224785208702087402e-01
4.980424849866187387e-01,4.808762009033566986e-01,-3.204369613917507076e-02,-3.960923181722957086e-04,-3.311117685333420904e-04,-1.367077235920254432e-03,5.217210054397583008e-01
5.006007497741636891e-01,4.740613364166139099e-01,-3.445025640699117542e-02,1.510369155601188089e-03,-4.344285869480482109e-04,1.984255679588115039e-04,5.222944617271423340e-01
4.680124924626632432e-01,4.692541434347928808e-01,-1.441611686922583679e-02,1.020485720434212776e-02,-3.829568698824905269e-03,5.344262573495208585e-03,4.835080206394195557e-01
5.203016968580191914e-01,4.716120805749469680e-01,-1.562553013490114440e-02,1.799042820132748868e-02,1.339181307899848681e-03,-1.570059405121246310e-02,5.149858593940734863e-01
4.939259832647849846e-01,4.790664029071409202e-01,-1.575666181059587334e-02,1.073015073036867606e-02,-2.471545710826757170e-03,-4.455868825553560390e-03,5.028387904167175293e-01
4.898463121137275333e-01,4.950529671403336440e-01,1.056399627434279065e-02,9.701162635367192822e-04,-1.543630901893049709e-04,-1.071250270201559197e-02,4.822668135166168213e-01
4.390783422655910040e-01,5.201490792624103854e-01,-3.319700032570971349e-02,-1.111218342283920753e-02,2.007403099635635124e-02,1.581071487103377984e-02,5.198398232460021973e-01
4.949203770259483770e-01,4.965965667207032919e-01,-1.571134171429128257e-02,8.241810789962543751e-03,5.782510023739505407e-03,-1.151468058741034932e-03,5.117729306221008301e-01
5.071559891223300642e-01,4.831166007180067723e-01,-2.189560053087330482e-02,-1.433004060533243874e-03,1.508722606884808047e-02,1.737028955615444598e-02,5.189890265464782715e-01
4.937715393034155520e-01,4.985499504424616979e-01,-1.903606488562264998e-02,-5.122006496314048581e-06,-2.411794043252812934e-04,2.620431273575424790e-03,5.152335762977600098e-01
4.827227114152756737e-01,4.784112563662354933e-01,-3.719310854776380904e-02,-7.955171749931704006e-03,8.491999165128461327e-03,6.295314765863407186e-03,5.182803869247436523e-01
4.856282031699032942e-01,4.899130800479063463e-01,-4.317563158490789199e-02,4.534688284039686888e-04,1.587606119156161804e-03,1.666652785963990092e-03,5.309748053550720215e-01
4.814400450136860909e-01,4.955942887198044877e-01,-4.019990855783972528e-02,5.557863865491466382e-03,4.562902439433195317e-03,7.111638756294843579e-03,5.291491746902465820e-01
4.801980404213518350e-01,4.909951023618023269e-01,-4.184920280208281884e-02,1.043115876745371890e-03,7.766679501881301566e-03,8.116091505388289135e-03,5.278904438018798828e-01
4.813227247138125442e-01,4.844516644819693019e-01,-4.327077858991795756e-02,1.410563455441756452e-03,2.054101577730546037e-04,2.550821136928769529e-03,5.261892676353454590e-01
4.767569990143570302e-01,4.848104553007609452e-01,-3.960542792378057841e-02,-8.538503921586113217e-04,3.802905016393906285e-03,7.250966779972140876e-03,5.206311941146850586e-01
4.927066319870819222e-01,4.860241389905118892e-01,-2.132315815315311003e-02,-4.456077405268702297e-04,4.600721676298854591e-04,1.281787801211321407e-03,5.107273459434509277e-01
4.963285964555561591e-01,4.613433142058871450e-01,-2.659398092618259213e-02,2.152045315330315244e-03,7.687115363804002122e-03,-5.030447127822079700e-03,5.066009163856506348e-01
4.933517848035285924e-01,4.862619289453057325e-01,-3.204700417149647373e-02,-3.377702865898447784e-04,1.597841291516654367e-03,-3.113322247669586193e-04,5.218979120254516602e-01
4.954454950259220558e-01,4.825406069946206467e-01,-3.192660477635284044e-02,-4.671975178833148246e-04,9.464381080057865728e-04,3.078327085889227973e-04,5.210430026054382324e-01
4.939799966955137345e-01,4.841249653857218060e-01,-3.191645760613182059e-02,-5.322025803504774845e-04,1.353166405900339646e-03,-9.806733749155525904e-05,5.210449695587158203e-01
4.964108344239478443e-01,4.846998352666491705e-01,-3.051574593112404976e-02,-7.900014851145227719e-05,1.157700621305264186e-03,-1.169894032635989279e-03,5.211775898933410645e-01
4.902867608354655737e-01,4.760999112635719843e-01,-2.659782545300359846e-02,2.167072530065004398e-03,6.430142325348203909e-03,-4.749503994989999651e-03,5.101409554481506348e-01
4.967265657348510222e-01,4.832970175466366203e-01,-3.057989861363874518e-02,-6.516386469028004899e-04,1.087590286275302116e-03,-8.187426441249385156e-04,5.207281708717346191e-01
4.987987392680073295e-01,4.832591120279828845e-01,-3.139640490100176207e-02,5.583900255027610072e-04,5.226363461528671546e-04,-1.944079127454488619e-03,5.226111412048339844e-01
4.871565692546769855e-01,4.824672177648826055e-01,-3.186201107494085472e-02,7.561385197454926869e-04,2.055583424457094622e-03,-1.767775335607168000e-03,5.167128443717956543e-01
5.354992354827171619e-01,3.281694569225298563e-01,-2.327290501625495223e-02,1.129430903971579509e-03,-8.434692817308438520e-03,6.142319629746000043e-02,5.008966922760009766e-01
5.042727102532850170e-01,4.349656233518922055e-01,-3.208228897357057186e-02,-1.114661305222937847e-02,9.464134097544141949e-03,1.928444161533069551e-02,5.070148706436157227e-01
4.662303531836691217e-01,3.860057923761806564e-01,-7.579255966698283942e-03,-4.750138556787451838e-02,3.044723059628797607e-02,2.942420139736219228e-02,4.528442919254302979e-01
4.994652908410195380e-01,4.765471729063859851e-01,-3.967025606512630809e-02,-2.374805530661625984e-03,6.695270957161335995e-03,5.840641708023856273e-03,5.282898545265197754e-01
5.076836348438981128e-01,3.718778268173193458e-01,-1.954875333265670978e-02,-5.201515104662644134e-02,2.309051668735763105e-02,3.658648863384327682e-02,4.884136915206909180e-01
4.932172920960872231e-01,4.176414268931072371e-01,-1.140340986209842367e-02,-2.820867281001818161e-02,2.228842301875579718e-02,1.140999485491836322e-02,4.759040772914886475e-01
4.692691970674122137e-01,3.397804979574049478e-01,8.059283443411113801e-03,-9.006666088328731112e-02,1.403365610837611389e-02,1.766384636683486498e-02,4.422932267189025879e-01
5.695841067012011871e-01,2.046206004297450587e-01,-3.411601919727449972e-02,-1.204794581336336573e-01,9.899417273744180734e-03,-1.807107440502360440e-02,5.675766468048095703e-01
4.435025154050392659e-01,4.688820123573259613e-01,-5.083258071134189038e-03,8.285578792410097648e-03,-4.025001008597955954e-03,6.525980241974797640e-03,4.622126221656799316e-01
5.486537414900720666e-01,5.314929319326079371e-01,-1.285635098663484577e-02,2.646038449057999675e-01,-4.460525480616629040e-02,3.483154596467518543e-02,7.249870896339416504e-01
3.983925800412660423e-01,5.121789773169995730e-01,-2.147114360561908075e-02,1.938595626129059613e-02,-1.884948965299016593e-02,1.277781860875876890e-02,4.895823299884796143e-01
5.846740216847041705e-01,3.833817108107115956e-01,-1.196616048413406963e-02,7.995871212357369417e-02,-7.359693073891584308e-03,9.004869513833928946e-03,5.440450310707092285e-01
5.188275918870304260e-01,3.923415197309856328e-01,-1.124952336733847646e-02,6.687978969458939493e-02,4.664066776548431159e-03,2.574862149852977233e-02,4.953847527503967285e-01
5.045661507805530022e-01,4.530826186964237445e-01,-1.685452934696546334e-02,1.125960811693600822e-01,-1.243570361165069645e-02,1.828672120587901406e-02,5.358976721763610840e-01
4.998253465271034202e-01,4.421439455806561725e-01,-1.559679162977439804e-02,3.295822039878645165e-02,-1.369260853323763655e-02,9.443986628259053856e-03,4.933007359504699707e-01
5.549940148384779892e-01,3.928919046230823775e-01,-2.373384242504400499e-02,4.843167165409055508e-02,-1.861194989868948310e-02,3.773994001291560568e-02,5.289036035537719727e-01
4.719761210810531349e-01,4.794826119087485794e-01,-3.490829730583722146e-02,2.472472796074324380e-03,1.201137299145513390e-03,6.007842982091453517e-03,5.108072161674499512e-01
4.377974978697297681e-01,4.437762872640510503e-01,-1.475314155483264944e-02,-2.702987861489356339e-02,8.741880400484935629e-03,1.107767387834916219e-02,4.586205184459686279e-01
4.843869879237203135e-01,4.866995867728770575e-01,-4.083445367974397611e-02,1.029612818240061923e-03,4.331535708941979847e-03,4.899263054022072461e-03,5.265064239501953125e-01
4.702116042531744311e-01,4.871607275206225607e-01,-3.799640079467364595e-02,-5.228279946485748023e-03,8.912762137832597187e-03,1.043466285763789726e-02,5.175164937973022461e-01
4.892685013805421201e-01,4.866557696547137435e-01,-4.274610753571278510e-02,1.317532069427579952e-03,3.092829154347120652e-03,1.580582208765475907e-03,5.307520627975463867e-01
4.894116770459215893e-01,4.886160727673171111e-01,-3.622864272360692972e-02,1.991352245284511071e-03,-5.921310939832286156e-04,2.944319478736383039e-04,5.252555608749389648e-01
4.791612888442703944e-01,4.857615878109425300e-01,-3.806039461009269598e-02,-1.281086397498344481e-04,6.206509184622194947e-03,7.487152080647716326e-03,5.208257436752319336e-01
4.416499349664221308e-01,4.778128797799699456e-01,-1.164839150237251264e-02,-1.474845100181169238e-02,1.589920916154350869e-02,1.878302421434557834e-02,4.750252962112426758e-01
4.777471344646671003e-01,4.559301293129141008e-01,-2.635989320671067171e-02,-1.292474714691860954e-02,1.221325211532900412e-02,6.636757730614360751e-03,4.946539700031280518e-01
4.971109202600627608e-01,4.561607383720427400e-01,-2.543768043566152492e-02,6.233221962078793962e-03,-8.234320562111974856e-03,-1.884186882722771765e-03,5.036527514457702637e-01
5.440507491300540233e-01,3.050447928075293302e-01,-3.158374067807961927e-02,-1.358512192962750276e-01,-3.732765977857055439e-02,-7.113963087417560227e-02,5.706383585929870605e-01
5.839813643689661937e-01,2.310980313714894874e-01,1.693196139903169195e-02,-1.103104311177818542e-01,-3.159655107958162651e-02,-5.582258824233352762e-02,5.429714918136596680e-01
4.698685963049471503e-01,4.776278251804018105e-01,-1.760509706166102362e-02,5.161755536522946372e-03,-8.220180556356815327e-03,9.266255977580711845e-03,4.919486343860626221e-01
5.020028409304591044e-01,4.929896579655975719e-01,3.280915989695709634e-02,4.184124547260327336e-03,-7.133047118186176122e-03,1.724209182794195563e-03,4.649828970432281494e-01
6.848760681077119550e-01,1.881199810935301198e-01,-3.045418489650575378e-02,-1.388556534647647778e-01,1.780579200137817793e-03,-9.082801354229154411e-03,6.791310906410217285e-01
5.216590622484117423e-01,3.651491116952824134e-01,-2.378522819530842769e-02,-3.878734515032557228e-02,-1.055920227123496348e-02,-1.715141171517239882e-02,4.923085868358612061e-01
5.751180953707681898e-01,2.870440517147381243e-01,-1.437937157495294827e-03,-9.064945049451882120e-02,-3.602099936983651357e-02,-2.849079298563274992e-02,5.294264554977416992e-01
5.498727916771688484e-01,4.173696841733147145e-01,-2.864405270790726377e-02,-6.508983879827387464e-02,-1.949681185013089901e-02,-4.583082415372539270e-02,5.438155531883239746e-01
4.922216782666821722e-01,4.853440787351459562e-01,-2.475171752205967968e-02,2.673777033684606765e-03,-1.846288589348854406e-03,4.609484112773699731e-03,5.136620402336120605e-01
5.183434691098884883e-01,4.306535532115780551e-01,-2.584415097125464245e-02,1.741704418092831011e-02,-4.118649478596483025e-03,-2.546181659634373824e-03,5.070407390594482422e-01
4.922426365124591419e-01,4.839431328530471310e-01,5.898070433683805236e-02,2.538360068181574024e-03,3.154821372080735507e-03,1.380503324286655453e-02,4.298951625823974609e-01
5.084334559820198329e-01,4.824933232311181541e-01,-1.058845108977657379e-02,3.319832850023460465e-03,-8.958324080708979578e-03,-9.428627291557892601e-03,5.070834755897521973e-01
5.183667088598684636e-01,4.202151361443753896e-01,-2.233360551373547720e-02,4.798890131167092045e-03,-1.056597760630980168e-02,1.738415403905147275e-02,5.002305507659912109e-01
4.976948802494273183e-01,4.664876351802085264e-01,-1.867052787205331077e-02,2.035043556713810736e-02,-1.161859966689157697e-02,1.467740096065499843e-02,5.037722587585449219e-01
4.957995355535541049e-01,4.931824626468118700e-01,-2.550929848295885316e-02,6.577945588258800151e-03,-1.644140240552822985e-03,-3.048805155945905412e-03,5.201646089553833008e-01
5.078451280379367994e-01,4.672951001472925303e-01,3.640956726756461315e-02,-3.013155853839866172e-02,1.402528540317083544e-02,2.100783573793717912e-02,4.576209187507629395e-01
4.970753088573374168e-01,4.929323748395245675e-01,1.964188299487829026e-02,3.288927239845205412e-03,6.082039520706918577e-03,2.622618950744757833e-03,4.755480289459228516e-01
4.865042746005930896e-01,4.690411370092294474e-01,-3.783447968074288292e-02,-6.000256785891508807e-03,9.898684728794215557e-03,9.986976861440772721e-03,5.165081620216369629e-01
4.705694622911555935e-01,4.868654788764130714e-01,-3.270732349719313037e-02,-5.256591312804036707e-03,8.361783167074494233e-03,1.313634576946623965e-02,5.124108195304870605e-01
4.921222787605541438e-01,4.960472811351639422e-01,1.369199719556840611e-02,5.942034937095956940e-03,-8.249563434071658513e-03,-9.216025952008981064e-04,4.807300865650177002e-01
4.853593698831139003e-01,4.730448874699961781e-01,-3.609082686102016435e-02,-1.434731662277735111e-03,9.354545595356728027e-03,7.298123369234489231e-04,5.156654715538024902e-01
4.948286254001499351e-01,4.851826878853140457e-01,-4.212343610023816520e-02,3.769318167125242265e-03,3.335713968445141054e-03,-1.406817223597367278e-04,5.322661399841308594e-01
4.889449520978127461e-01,4.799772172010732252e-01,-4.244813935622804291e-02,3.855788908900502354e-03,3.661781862975644741e-03,4.052943620085805009e-04,5.270473957061767578e-01
4.913278348322889788e-01,4.830652964958586093e-01,-4.214869949390676052e-02,8.634794196925458035e-04,3.746458721005056260e-03,3.298987099458974988e-04,5.294358134269714355e-01
4.603206184000746548e-01,4.303172910486442460e-01,-3.566582168700704880e-03,-2.419263049345135586e-02,6.989162820400070947e-03,1.486982619650421659e-02,4.524810612201690674e-01
4.968930169553383847e-01,4.616244409234145363e-01,-4.134189191401366203e-02,-3.449619575037183444e-02,8.057307621799628811e-03,1.264057333297576458e-03,5.250975489616394043e-01
4.965311974108432280e-01,4.930207461564016791e-01,-3.597206004701725135e-02,5.883036433820381002e-03,3.244456229881253952e-03,4.861214235992722746e-03,5.309510231018066406e-01
5.104788442155574479e-01,5.085479456992439973e-01,4.366433260263297145e-02,-5.697634847982580020e-03,-1.165622218879245296e-02,1.548412621295206079e-04,4.663938283920288086e-01
2.870057066843446636e-01,6.836142730520412547e-01,-5.435051273188384879e-02,9.095706499199902872e-02,2.552636330439289961e-02,-2.659955229123141252e-02,6.618943810462951660e-01
3.824406587368805455e-01,5.492817904314936106e-01,-2.163347964065631679e-02,4.768896290604137875e-03,2.291675549229225256e-02,1.455505459611373606e-02,5.106930136680603027e-01
4.554711990613515282e-01,5.049031708355083969e-01,-2.903565144252506780e-02,4.131336542035724674e-03,9.343085720347183917e-03,-7.926993826115358646e-03,5.115096569061279297e-01
2.638308499972101262e-01,5.511942124425392997e-01,-4.115390146113062642e-03,-6.933357767488780576e-02,5.343116250675891471e-04,1.197694082924603658e-02,4.962090849876403809e-01
3.685726470060651794e-01,5.079845454073848021e-01,-8.924088389665241206e-03,-1.096979736504058965e-02,-1.481508576583765932e-02,-1.481220359217751137e-02,4.650211632251739502e-01
4.077461067128335670e-01,5.014959875979260184e-01,-2.369503271942574596e-02,-6.540485966585718978e-03,-1.577130321014116529e-02,-1.562753912586964736e-02,4.868113100528717041e-01
3.424162520410814481e-01,5.356280330872793538e-01,-9.554200100935217321e-03,-7.455417546851953250e-03,-2.268364451380903285e-02,-5.246764774584743683e-03,4.806368649005889893e-01
3.638730281007825362e-01,5.432006983130083233e-01,-1.386982185662277711e-02,-7.930614178204929005e-03,1.085226130275083805e-03,-1.288233189001564138e-03,4.927321970462799072e-01
3.898410444940921815e-01,5.425978985171415747e-01,-2.667130771279402346e-02,-3.879329852011785280e-03,-2.390719288007966958e-02,-1.919386567673979238e-05,5.120567679405212402e-01
4.969240889895305546e-01,4.684270320795320686e-01,-3.196687362873956717e-02,-1.022841124845165657e-02,-2.405723838556694805e-02,-2.517244289413575475e-02,5.190539360046386719e-01
5.172271840102908858e-01,4.431196877245910937e-01,-2.495522139161876485e-02,8.466111456576603037e-03,4.942143295237448608e-03,-1.038776018021840553e-02,5.097900629043579102e-01
4.986965554592415195e-01,4.850353370581729218e-01,-2.833313282883742623e-02,1.282468964232223729e-03,-5.092212324145290077e-03,-1.072605674237376780e-02,5.207445621490478516e-01
5.298139794011482717e-01,4.699607056539444327e-01,-2.934536306080187673e-02,9.196646128028604372e-03,3.399517970055809563e-04,-1.696971176393181208e-02,5.328152179718017578e-01
5.191734640542853274e-01,4.101480083564852941e-01,-2.323136757789528994e-02,3.095610353470302015e-03,9.496530851338976301e-03,-1.351414570084820757e-02,4.977959692478179932e-01
4.982719545343433643e-01,4.644471224861745351e-01,-3.595408385336684720e-02,-4.337464533622393745e-03,-4.851272712919130203e-03,-9.266680776398547245e-03,5.185133814811706543e-01
5.304477651435294261e-01,3.915688092908056195e-01,-2.510213445175007996e-02,-1.457100690778424931e-03,-1.073946700655589205e-03,-2.373218064963279403e-02,5.024622678756713867e-01
2.431544786813406578e-01,6.483163736288086731e-01,6.485328281130964267e-03,-1.836200184822724679e-01,-4.553504221690176626e-04,-5.542311986037702642e-02,6.530103087425231934e-01
3.381511103569049270e-01,5.655999751087061878e-01,-2.713696895292605493e-02,-1.770722338102079241e-02,-3.913072634891623380e-02,-9.957864105138639413e-03,5.235307812690734863e-01
3.609624682991877109e-01,5.901345028116788960e-01,-2.409780312865000829e-02,-4.427472889467728295e-02,-3.426336993462510139e-02,-1.491261980327441596e-02,5.469059348106384277e-01
2.792237838896932667e-01,5.512348161686404513e-01,-1.250706596533884829e-02,-6.587838896974153313e-02,-5.264749251688242981e-02,-2.789292327526361054e-02,5.119766592979431152e-01
3.538434213779952930e-01,5.358107252652768437e-01,-3.521476537842194166e-02,-7.193333345479589747e-02,-2.399112513229235966e-02,7.299471237622404476e-03,5.221915841102600098e-01
3.092941812680341518e-01,5.522791072724440031e-01,4.394388218680156388e-03,-5.933444675313972669e-03,-1.362424064499029915e-03,4.737365247043911695e-03,4.756785929203033447e-01
2.490468504595458321e-01,6.506866643381477022e-01,-1.865748781364012787e-02,-4.137257922345746047e-02,-3.800432471273680612e-02,-9.529533938621095532e-03,5.918119549751281738e-01
1.767183699041515177e-01,5.995984598706258772e-01,-1.233369450087913044e-01,-9.052015585362806205e-02,-2.253804256956228047e-02,7.337314431474932508e-02,6.618191599845886230e-01
1.770114332122576795e-01,6.154740650339793895e-01,-3.524495546202538465e-02,-9.105865564280929414e-02,-2.252215432723176161e-02,1.323692306725611501e-02,5.977383852005004883e-01
4.971738544021272466e-01,4.884994925714741809e-01,6.832587430174197340e-02,4.807854379379356349e-03,5.597220020440321284e-03,-8.481246934007334592e-03,4.250234961509704590e-01
4.995957828699554293e-01,4.985999567489795004e-01,-8.616216553008537726e-03,9.624287898238643654e-03,1.075816837861578654e-02,-1.146685221493433035e-02,5.087178945541381836e-01
4.944126946666235201e-01,4.752613211432040186e-01,-2.373986447707415737e-02,-3.985422346476904208e-03,1.136443706841967945e-02,9.371739796951784537e-03,5.095332264900207520e-01
