sxx,syy,szz,sxy,sxz,syz,smises
7.832207786835115870e-02,7.832207786835115870e-02,2.533558442632987129e-01,-1.155473593381159773e-51,-5.942479605308295104e-52,-5.942479605308088872e-52,1.750337630510330200e-01
