sxx,syy,szz,sxy,sxz,syz,smises
1.020000000000628043e-03,1.020000000000628043e-03,-2.039999999999124545e-03,8.999999999999997585e-04,6.600000000000001699e-02,6.600000000000001699e-02,1.617027968168258667e-01
