sxx,syy,szz,sxy,sxz,syz,smises
6.048231928809437441e-02,6.048231928809437441e-02,2.041553614238117154e-01,-9.000709017582215701e-38,-4.604905196657593337e-38,-4.604905196657356338e-38,1.436730474233627319e-01
