sxx,syy,szz,sxy,sxz,syz,smises
1.394107556950661617e-02,1.394107556950661617e-02,9.211784886098774161e-02,2.163278835765966321e-52,1.103272206240680035e-52,1.103272206240518684e-52,7.817677408456802368e-02
