sxx,syy,szz,sxy,sxz,syz,smises
2.995971468159826512e-01,8.220991058872044732e-01,7.233531855619725892e-01,7.173009058661330983e-02,-1.437986993995977458e-01,2.560981891831992305e-02,5.573163628578186035e-01
2.603120630076137254e-01,7.560166730211289599e-01,8.173047694087171022e-01,1.239308008933796834e-02,-8.894364900361710624e-02,-6.264808342525895850e-03,5.515174865722656250e-01
4.018153378853827062e-01,7.665813863941011164e-01,7.636502047513699099e-01,3.384170221807330462e-03,-8.835718357066146833e-02,-3.037714501745517482e-03,3.943053185939788818e-01
2.980327199806395710e-01,9.164616473624598303e-01,8.149443408093642871e-01,6.646384966461654775e-02,-1.220762118075660041e-01,-6.672912178702844477e-02,6.334803104400634766e-01
4.002537577446882988e-01,7.561159799987307029e-01,6.658780799722946453e-01,2.834133227300495578e-02,-2.480015381281721887e-01,4.504413805394868325e-02,5.437641739845275879e-01
3.925566279082642884e-01,9.380703488714838834e-01,6.893596162170455566e-01,-3.416288255577868294e-03,-2.397262689219127885e-01,9.766978135288048590e-02,6.517870426177978516e-01
6.981641858805939238e-01,6.021005502314246138e-01,6.528406232935658471e-01,-4.399917574621391853e-02,-3.251949457067199872e-02,-5.591271114263883513e-02,1.590205281972885132e-01
6.801533017577097162e-01,5.882568570427685328e-01,6.384985082723443339e-01,-3.221142537235115177e-02,-1.835464085401290399e-02,-6.758896666334608672e-02,1.555003672838211060e-01
7.015446531220139725e-01,5.850346764517192488e-01,6.541628277251912982e-01,-9.420028593687056542e-03,-8.088653528986335106e-03,-2.772431956353945889e-02,1.143134310841560364e-01
7.099419502032799922e-01,5.893873453290746633e-01,6.045717958401448655e-01,-1.511698937615899366e-02,-5.542188430573846518e-03,-4.984796149146165228e-02,1.454840153455734253e-01
6.883284533384709247e-01,5.883023870706475256e-01,6.085632518024383097e-01,-1.183628723037261597e-02,-8.308265844748431370e-03,-4.739554312615188586e-02,1.255208700895309448e-01
6.777915440604016517e-01,6.136130389355125558e-01,6.101519432229637330e-01,-1.883271371390110235e-02,-8.083458417083546482e-03,-2.573384808948458655e-02,8.717637509107589722e-02
6.747169507679515732e-01,5.780382560524366387e-01,6.150840973166169512e-01,-6.979272046621142617e-03,-1.231117406201384136e-02,-2.175057474306987121e-02,9.569592028856277466e-02
6.261806646660988962e-01,5.840338532526633264e-01,6.578065904940515463e-01,3.787578191003908995e-02,2.476221237074118647e-02,-2.771405459429124654e-02,1.120576485991477966e-01
6.290351830184505166e-01,6.940953803351685991e-01,6.078642924707138295e-01,4.776438191023748940e-03,-2.145098336730198382e-02,1.411202048036018595e-03,8.667912334203720093e-02
6.155835741570880870e-01,6.082304905276944007e-01,6.132018085953213626e-01,6.237807039297913608e-02,5.386906267574270019e-02,-6.352205256684839707e-02,1.803498864173889160e-01
6.407194713944397435e-01,5.721001318453908802e-01,6.396013844096236634e-01,5.027700633518725204e-02,3.896061835548107755e-02,-4.985483309057613110e-02,1.556495279073715210e-01
6.085734668409535919e-01,6.311963172512071729e-01,6.329091964246741364e-01,5.957185457389056055e-02,5.766521590999460628e-02,-4.245782951854479292e-02,1.630451679229736328e-01
6.222000890672402251e-01,5.869745700533252064e-01,6.545884391561993532e-01,3.868765279095900261e-02,2.833981574506533666e-02,-2.987470590339703219e-02,1.140520572662353516e-01
6.709563559406865885e-01,5.711337741471588236e-01,6.763189266397243715e-01,8.553745391939887588e-02,5.716245769652512215e-02,-7.387696346816635673e-02,2.421871870756149292e-01
6.226433096044752258e-01,6.290695053916381951e-01,6.452709398219378389e-01,2.966645263965313976e-03,3.142704860409887505e-03,-4.357626519258674114e-03,2.282313629984855652e-02
6.213158620035227342e-01,6.218939799353825348e-01,6.601252408413121886e-01,5.848783275891229760e-02,4.647599256680329943e-02,-4.414402223588901469e-02,1.551537364721298218e-01
5.497030008911260035e-01,6.250860383212603066e-01,6.497488368828407967e-01,6.946657618691755298e-02,1.095891044639738660e-01,-8.174976618713827858e-02,2.805444896221160889e-01
6.392059897741779739e-01,6.055726716526301789e-01,6.606843140269839099e-01,2.636613680741756172e-02,2.137075613568214030e-02,-2.076824349949886114e-02,8.405065536499023438e-02
6.668055247095395766e-01,6.219108075453091411e-01,6.176821818528006602e-01,4.026626138440183439e-02,3.268123952592504738e-02,-6.711503846506809701e-02,1.542882025241851807e-01
6.368759777500422326e-01,5.839632191137559269e-01,6.503540296710571544e-01,4.768188755715335042e-02,3.402522955521940229e-02,-3.966979257672100662e-02,1.367826461791992188e-01
6.369417616927313119e-01,6.032105599310296773e-01,6.228604721072789063e-01,2.559165043846923712e-02,2.577516713626073694e-02,-2.807912353028212821e-02,8.476015925407409668e-02
6.642975668485734397e-01,5.886065863083466132e-01,6.099353045221558300e-01,3.604605650932961314e-02,3.321959572349667683e-02,-4.910157883720400046e-02,1.378808170557022095e-01
6.719039543479080612e-01,5.902424827581340683e-01,6.553464033455470572e-01,3.556670206429245196e-02,4.599512043965712366e-02,-4.616656375546508012e-02,1.487491577863693237e-01
6.170299026711684176e-01,6.972939939871097836e-01,5.874666022072853044e-01,-1.048538984276965735e-02,8.545804590793407152e-02,-1.533171300975191007e-03,1.787045001983642578e-01
5.671797955387436474e-01,7.114665730564293522e-01,5.339200223375799581e-01,-2.145118700312212065e-02,1.366173330329304991e-01,1.956920976573091678e-02,2.919692397117614746e-01
5.589137081169843757e-01,7.136626802425959371e-01,6.310036357345607527e-01,-3.278281527843511598e-03,8.764283646519055448e-02,1.606472592400431942e-02,2.045449316501617432e-01
5.605838911702681893e-01,6.496465573872709509e-01,6.958739624649593614e-01,1.005201024927393841e-02,-3.220083218999048383e-03,6.357095988775676894e-03,1.210030615329742432e-01
5.447691198909919708e-01,7.096289951261582907e-01,6.797424018285130876e-01,1.210684337804723495e-03,3.020601434484062806e-02,5.755639649378046889e-03,1.612013578414916992e-01
5.435729899782476560e-01,7.117794065267336601e-01,6.425947167698211615e-01,-1.049455890296403272e-02,1.230346362229021856e-01,1.634017123677695971e-02,2.607423663139343262e-01
6.095863862853470039e-01,7.309506624421118204e-01,5.313597500681865871e-01,2.238430190422674437e-02,1.312985913892801004e-01,-1.937392397082093876e-02,2.910151183605194092e-01
4.985252243196418576e-01,7.548002482572125915e-01,6.495428769135028757e-01,-4.403410420669103681e-03,8.219183068270044523e-02,-2.149508893867730502e-02,2.673797905445098877e-01
5.891801553650989343e-01,7.312909510554920223e-01,5.827634330112625438e-01,2.330010460363435981e-02,1.842686935851367003e-01,-2.981507392384799560e-02,3.568037152290344238e-01
6.826317449290117967e-01,6.019027086168141638e-01,5.955051489894725991e-01,4.798546954975019090e-03,-3.632655206100422144e-03,2.586381162346921420e-02,9.586475789546966553e-02
6.793907857866734457e-01,6.157005260891208476e-01,6.038814683548410223e-01,3.152043278466043832e-03,-1.421601741033069527e-03,6.576951936696539061e-03,7.151598483324050903e-02
6.783248713631219173e-01,6.247329795600812252e-01,5.795953399067710343e-01,6.138081492359752020e-03,-4.323631149954064445e-03,1.760574421466158321e-02,9.180144220590591431e-02
5.176051806977468583e-01,6.652693861306460121e-01,7.420056132866380549e-01,-1.044280935674544580e-01,-4.594038816710885320e-02,6.521282227551939738e-03,2.796411514282226562e-01
7.022201882383012350e-01,7.185153660464611569e-01,4.123927794385721102e-01,-1.275430916820648186e-02,4.496322235979419851e-02,2.864155348458647873e-02,3.130532801151275635e-01
5.784025095013338724e-01,6.487106205755592825e-01,8.056114373503679982e-01,-1.520147812919516450e-01,-6.079574230932030358e-03,-1.794990924964784407e-02,3.331598043441772461e-01
6.164939234892152786e-01,6.524909768399876908e-01,6.208281994050390828e-01,1.890372607176298578e-03,1.729452406910442219e-03,-4.476089660816133520e-03,3.519023209810256958e-02
3.758371109268132115e-01,6.659064417586001428e-01,8.946893790890901865e-01,-1.999191635247684617e-01,-1.077524597275708318e-01,2.966569358614138882e-03,5.980016589164733887e-01
4.543303205856691340e-01,5.973187797623841222e-01,7.572614721419941297e-01,-2.153693855032700333e-01,-8.020464644694225154e-02,-6.696344321978554837e-02,4.907136559486389160e-01
7.475497574207429219e-01,5.098577445308510869e-01,6.720648589663076322e-01,-2.446596553348256986e-02,1.850597522334686273e-02,-1.039504604285773209e-01,2.819460332393646240e-01
6.960092683555357818e-01,5.614252050705542674e-01,6.159464445973888980e-01,5.129745147628095303e-03,3.418850161014449791e-03,-6.734450895280896798e-02,1.657335311174392700e-01
7.171019284404954730e-01,5.883503132461939122e-01,6.290940912355057479e-01,2.260457085588710516e-02,1.496696835364002762e-02,-9.337162416703302659e-02,2.033492475748062134e-01
7.057921253571737275e-01,5.198694102312136911e-01,6.592316572610662506e-01,6.986487910879145280e-02,3.826560856520969806e-02,-7.461818703316169810e-02,2.526226043701171875e-01
7.179515672957001993e-01,5.555991302597695913e-01,6.759940920991318603e-01,3.781161223561849138e-02,2.130310601427942707e-02,-5.565653798559709597e-02,1.903954297304153442e-01
7.132222462285879860e-01,5.584017612466081193e-01,6.502548326965503778e-01,3.309003936003741819e-02,8.046188652735816044e-03,-5.623752772459478938e-02,1.765012294054031372e-01
7.209690472048153609e-01,5.675580948096119460e-01,6.189545879615111490e-01,-5.385106607277550909e-03,7.530649828985628777e-03,-6.931211762938255250e-02,1.815526783466339111e-01
6.525901287695937691e-01,6.391228628444276527e-01,5.617594794231796085e-01,2.664899235528662633e-02,4.425798451807365363e-02,-4.725371289329908381e-02,1.480333954095840454e-01
7.014058085049998947e-01,6.254152744108084638e-01,5.711913045376680875e-01,1.779096802499370578e-02,4.060238063367856143e-02,-5.485950695580924658e-02,1.666109859943389893e-01
7.038377566247684403e-01,6.544581959817693528e-01,5.902168337909791118e-01,2.091422406228215722e-02,3.979235059549575404e-02,-7.742941637656657050e-02,1.838095635175704956e-01
7.031448558526242065e-01,6.221574360062331888e-01,4.656612096321718353e-01,3.829280099960172268e-02,4.807896727155464012e-02,-1.446407946897091679e-01,3.432505130767822266e-01
6.895681486737907928e-01,4.902765413005479855e-01,6.978460556310430718e-01,4.322425747677753616e-02,-1.000991327652943179e-02,3.191520274586419348e-02,2.244921624660491943e-01
6.553673012787993857e-01,6.729120696801010881e-01,5.785640895251049631e-01,2.915817329797599708e-02,4.339381872461579859e-02,-6.822426402957953995e-02,1.723872572183609009e-01
6.519954912235091937e-01,6.839473045666798479e-01,4.933676882071702519e-01,4.551890681773364256e-02,8.687414748253666219e-02,-7.990821099909484193e-02,2.815410792827606201e-01
6.103858720783137404e-01,6.749745923529058000e-01,6.427610034159413344e-01,-3.226917741066431117e-02,5.828299719860643990e-02,2.439334215021958865e-02,1.350129991769790649e-01
6.779934652763863756e-01,5.501838430957540771e-01,6.652268831872600874e-01,2.065067437466579225e-02,-1.809246232661200146e-02,5.012959085283578975e-02,1.570569425821304321e-01
6.364685833465943965e-01,6.757164937084491063e-01,6.141230272395625800e-01,-2.416350258126033490e-02,4.942175571468598871e-02,2.916769812747415508e-02,1.206157431006431580e-01
5.943324800934683960e-01,6.865829984827402921e-01,5.597474678384823932e-01,-5.844744480786567137e-02,9.558275230204109352e-02,6.531591362298909409e-02,2.516977787017822266e-01
6.688732722659709307e-01,6.069393722242657496e-01,6.340018870677581742e-01,3.062165971667917680e-02,-3.304348488271476730e-02,2.439883410997896462e-02,1.037626340985298157e-01
6.250359175714782500e-01,6.530760419455592380e-01,6.409957050779443444e-01,-5.708506611869079012e-02,4.988844099032477969e-02,5.584099387827974603e-02,1.648962795734405518e-01
6.347582069032778884e-01,6.450168689731234917e-01,6.177586978331008893e-01,-3.182798852172413762e-02,4.714052883673452987e-02,3.606253830273066507e-02,1.190625354647636414e-01
6.088865716160064556e-01,6.525194272967862474e-01,5.916436194949939997e-01,-7.366842957423504201e-02,7.501974562373982247e-02,8.703818352804869318e-02,2.425807863473892212e-01
5.093446895706930100e-01,6.100534802897937814e-01,7.981272065975320018e-01,1.243110201066793263e-01,-7.167004142812820854e-03,3.384344190145627956e-02,3.382374644279479980e-01
5.835588923678611817e-01,6.130256886789150483e-01,7.253018138496142297e-01,1.345349435484133882e-01,-6.280417351172370988e-02,2.575934397882244029e-02,2.913851737976074219e-01
6.542988393560019711e-01,6.227944226165068597e-01,6.212225162986002580e-01,-1.731621720594075974e-03,1.720198214970820481e-03,-3.281347001418497694e-04,3.259934112429618835e-02
6.360478175806487666e-01,5.976920642078443757e-01,7.249271196928031014e-01,7.918124696420585085e-02,5.914559466597539041e-04,6.563857213785105268e-03,1.780983954668045044e-01
6.204108844345987972e-01,5.992155828904811576e-01,6.978648138568726011e-01,7.943310873122416682e-02,-1.834553863094068316e-02,1.293684551352756226e-03,1.674322634935379028e-01
5.571218663763670698e-01,6.009591631318034199e-01,6.937194813588998255e-01,6.247848895337650837e-02,-7.617197344699337680e-03,8.321234922043225027e-03,1.633555144071578979e-01
5.566222079695425373e-01,6.017549999806828254e-01,6.945266570010647511e-01,6.093887441300484958e-02,-9.834836431329126508e-03,9.079627528873250586e-03,1.628150045871734619e-01
5.571310091204108028e-01,6.560266895578866775e-01,6.976561467795781013e-01,7.688189939087176905e-02,-8.291500716951942518e-03,9.803214931365225593e-03,1.840037405490875244e-01
5.643021689570024702e-01,6.150329140014674234e-01,7.178218958996768206e-01,5.359612006882272933e-02,-1.912431223780282699e-02,2.733831934400417565e-02,1.740998178720474243e-01
6.911755759011501965e-01,6.551365328016388601e-01,5.575671056250505186e-01,-1.893769253539427308e-02,3.645518361942077373e-02,5.868869220141854220e-02,1.724263727664947510e-01
6.677027983649626020e-01,6.105098709116520972e-01,5.776553884717748888e-01,-1.781532058001814370e-02,2.471087294256819888e-02,4.084909655887354607e-02,1.184038743376731873e-01
6.683191329212772036e-01,6.125843392958530975e-01,5.812391388665263392e-01,-1.857265400622855334e-02,1.972545683172463940e-02,4.742464638352714146e-02,1.215948611497879028e-01
7.124990993639044312e-01,5.726081342142942399e-01,5.844567546015795312e-01,-3.948456489479330173e-02,4.541462580802601429e-02,1.077909869607023285e-01,2.525343596935272217e-01
6.860591725877656089e-01,6.228863773147398364e-01,5.877957258993026235e-01,-3.022290270667647369e-02,3.352728809067614252e-02,3.975142043092311228e-02,1.352477967739105225e-01
6.915413108424365296e-01,6.173701552232547796e-01,6.334303472363954635e-01,-1.759726869283427877e-02,1.501161928099099124e-02,4.937276382799499902e-02,1.161298155784606934e-01
6.174159552345042101e-01,6.682871298724187836e-01,6.163408940399932590e-01,2.347888841169908265e-03,3.117798156181228724e-03,-4.012607262513996284e-03,5.232327058911323547e-02
6.969767627869274396e-01,6.035811880148171937e-01,6.207505979149477993e-01,-2.373612617793225202e-02,1.481909860710956331e-02,6.320413303477387390e-02,1.474696248769760132e-01
6.798390904237865406e-01,7.620227262505947508e-01,4.993030983097235254e-01,4.542171016481454451e-03,-8.122300624069529740e-02,1.676454868888279867e-03,2.721146047115325928e-01
6.807282269448480250e-01,7.444064467079026803e-01,4.642713432828111664e-01,1.835106205153573533e-02,-7.679367479580831435e-02,6.430445305215330698e-02,3.095147311687469482e-01
6.982821416829649852e-01,7.008610426081096634e-01,5.214120478864628927e-01,3.521483910617265178e-02,-9.396239539018898246e-02,6.399466171553999660e-02,2.724680006504058838e-01
6.402028837058983957e-01,6.299305794891003618e-01,6.329204822308724943e-01,-1.937682725459242408e-03,3.204711702019098947e-03,-3.663643761435632275e-04,1.123492792248725891e-02
6.478652673926810213e-01,6.928018320754966153e-01,5.136914376170864660e-01,1.969397906039034932e-02,-8.657742834608390947e-02,6.771068732845393623e-02,2.519046366214752197e-01
6.479001588986699200e-01,6.832948673760388392e-01,5.290055393297244946e-01,1.774155334484572508e-02,-6.166241301171812572e-02,4.041715993282783692e-02,1.919600069522857666e-01
6.774271477866520286e-01,7.101278971008454510e-01,4.482529554411164852e-01,1.196548265917407768e-02,-8.134197409037538518e-02,4.663040178923526236e-02,2.964566946029663086e-01
6.159515872598607666e-01,7.019696828593134930e-01,4.844013247008443490e-01,3.676645107783862304e-02,1.254955680086727865e-01,-4.518490511415304556e-02,3.056927323341369629e-01
5.617489622664068039e-01,7.114153608018176644e-01,5.416334116536560828e-01,1.600868614916737750e-02,1.328961977373134540e-01,-1.608272970799912854e-02,2.834506630897521973e-01
6.139643453750031066e-01,7.097804424950363567e-01,6.329571401346447690e-01,4.024222744444268945e-02,6.760483993148062865e-02,-3.826896298441296446e-02,1.751705706119537354e-01
6.625521472355905273e-01,7.158591220781378439e-01,5.733909198511408789e-01,2.538443889233609613e-02,7.152106529131528612e-02,-2.795396554617100154e-02,1.875298470258712769e-01
6.193612881761595412e-01,7.133697244605112786e-01,6.193576232577041596e-01,1.258915341169401444e-02,7.600153586090901969e-02,-8.451588382004240202e-03,1.638791561126708984e-01
6.415722558727928737e-01,6.470166558151717595e-01,6.157666340498082480e-01,-3.156286805695607961e-02,1.672882172052122043e-02,2.667632275954475926e-02,8.245696127414703369e-02
6.225955067219031136e-01,6.438283183722446346e-01,6.255047269940837706e-01,-1.978565667569952280e-02,1.880003306457915177e-02,3.315590732811910663e-02,7.700784504413604736e-02
6.223358123166925493e-01,6.419774710714496457e-01,6.181294774315571061e-01,-1.873298957782741636e-02,1.664569498969711153e-02,1.767199239801867799e-02,5.750667303800582886e-02
6.139934905332127268e-01,6.636076147582445905e-01,6.118751706048880523e-01,-1.621248863044328151e-02,2.501964461421964103e-02,9.954476680038957734e-03,7.439693808555603027e-02
6.816551100838132982e-01,5.236552197797219588e-01,6.410074883647113309e-01,6.094969472842873270e-02,-5.028743364598636800e-02,1.137911629136998115e-01,2.788731455802917480e-01
6.195530285791105429e-01,6.712885628787969017e-01,5.924872195497372651e-01,-2.763516071394974544e-02,6.141574584561314970e-02,3.080909283593633030e-02,1.458210349082946777e-01
6.907875612119526165e-01,6.596280726808857464e-01,5.438764342854564005e-01,4.351622270732824482e-02,5.022732118215036956e-02,-4.545244468419181588e-02,1.934508383274078369e-01
6.601839973250820393e-01,6.322897359661411310e-01,5.798738915028265328e-01,3.608883338537222096e-02,3.504652638211570165e-02,-4.675837020263783755e-02,1.383424550294876099e-01
7.020494939575298021e-01,6.229323756620326336e-01,5.832590926000381648e-01,1.480494899879367977e-02,4.094261818427365890e-02,-5.698936892508637414e-02,1.624873578548431396e-01
6.859808473523397732e-01,6.678242786673523890e-01,5.770710447042552982e-01,1.583218488954465930e-02,2.021604905628771043e-02,-3.759780188289083003e-02,1.281889379024505615e-01
6.707842774273775621e-01,6.759244554482481959e-01,5.643385328662183786e-01,-4.708052992739272802e-02,-1.226034775448289205e-01,-5.671583017776733043e-02,2.707376778125762939e-01
6.611882198847343073e-01,6.580354671564835334e-01,5.924626327710978968e-01,1.465213427049862766e-02,3.113381999732477493e-02,-2.624688192266350431e-02,1.006735637784004211e-01
6.716302478642913742e-01,6.719520948548032280e-01,5.779435328270073891e-01,5.420549337838772783e-03,2.337636268662953917e-02,-2.629932133691529478e-02,1.122939437627792358e-01
6.605308280771695628e-01,6.739535297925501878e-01,5.845553265841024748e-01,3.409852783073598348e-02,3.827782352356305651e-02,-5.895144947766077503e-02,1.590024083852767944e-01
6.163535610347298244e-01,6.234874733548823045e-01,6.701479716149766341e-01,-1.861601484267017817e-03,1.951007157189839098e-03,5.250527141644295744e-03,5.162835121154785156e-02
5.528258402004639915e-01,5.602469237016673986e-01,7.175315112530422645e-01,1.225931226438856936e-01,-1.763476885455246557e-02,1.266731559033745617e-02,2.691882252693176270e-01
5.940724702053706840e-01,5.636058305780398126e-01,6.919487921063247615e-01,6.144334582536623013e-02,7.176388740101621172e-03,-3.273211512844815922e-03,1.581216305494308472e-01
6.079487605327582589e-01,5.965184123458914245e-01,6.940217547328276781e-01,2.942072975891932632e-02,1.048125039642125618e-02,-2.201529877531035551e-04,1.070023849606513977e-01
6.134203737103516296e-01,5.678685975737143288e-01,6.910573015780814288e-01,5.314305376882313969e-02,-1.776413411545865739e-02,7.438460758569038350e-03,1.456852555274963379e-01
6.001273172606943485e-01,5.627675411722437016e-01,6.914589523533679616e-01,6.309275088524084196e-02,3.139186223800496337e-03,-1.969146033451776249e-03,1.585327386856079102e-01
5.942363858789632136e-01,5.988442022584454794e-01,6.860696269529018565e-01,3.117126732963326069e-02,-8.212857949186778278e-03,4.305529641378437987e-03,1.058505326509475708e-01
6.883355924075678089e-01,6.963598669912297590e-01,5.304899355695189556e-01,-1.276253435801524665e-02,-3.126730480870772155e-02,-4.617552917006861879e-02,1.899061799049377441e-01
6.800558599313286656e-01,5.500985987775428576e-01,6.803573772122865071e-01,-7.262680258727741145e-03,8.184225708041637307e-03,5.814996165255299256e-03,1.318665742874145508e-01
7.064040557530668618e-01,6.451380698449681317e-01,5.038428564817012401e-01,1.919945924923338945e-02,-3.489547442350218048e-02,1.134214864702211972e-01,2.751848399639129639e-01
6.682723786451029158e-01,6.048767291956199665e-01,5.720242789162514052e-01,1.682937380246054410e-02,-1.731072653593747693e-02,5.531058858284806923e-02,1.345639079809188843e-01
6.891567243775074125e-01,6.361638343805442464e-01,6.308956628467761174e-01,3.367404971243185413e-02,-2.690498733018143601e-02,4.772306487160773991e-02,1.245837435126304626e-01
6.955171806701351267e-01,6.061274044269575612e-01,5.625340402890476321e-01,5.058527748782290674e-03,-3.486580497545145683e-03,5.380655876589145181e-02,1.502876728773117065e-01
6.844834360844547216e-01,6.333028039200591097e-01,5.762133397761607378e-01,3.536736888313508215e-02,-2.045059032777496108e-02,4.885887987936320120e-02,1.448079496622085571e-01
6.796642205208178744e-01,6.124835647311168696e-01,5.829511296059107783e-01,4.750255818763964716e-02,-4.517227652276489813e-02,7.336408725568543954e-02,1.908071339130401611e-01
6.417868720175083919e-01,7.403888514896648232e-01,3.999817302932858198e-01,-7.456216545673551022e-02,-2.009042691467795849e-01,-1.126996718732933833e-01,5.175947546958923340e-01
6.890850897158067312e-01,5.967635417022085775e-01,5.777401241697446288e-01,2.737648046155612830e-02,-2.024833952964559189e-02,8.402090080247424930e-02,1.878785938024520874e-01
6.029222084996259667e-01,6.882534416207590766e-01,6.357452174934681288e-01,-1.397546192195142298e-02,-2.932486623357994510e-02,-9.073924040090537366e-03,9.471395611763000488e-02
5.984541656709407853e-01,6.705723597397781344e-01,6.394207939423066644e-01,-1.782408477304742861e-02,-2.796738992196221713e-02,-2.598559526942558623e-02,9.617812186479568481e-02
7.198257752258652165e-01,4.179663504482561964e-01,8.930170009095372841e-01,-2.205355466596913006e-01,1.472036204497059186e-01,1.120632746972919647e-01,6.496019959449768066e-01
6.361923627003855941e-01,6.311769656310826093e-01,6.432303115143184202e-01,9.543336491909444955e-03,8.474006374268568467e-03,-9.569061406766115815e-03,2.955229207873344421e-02
6.274659076519344403e-01,6.318003809954571004e-01,6.424209325691092598e-01,5.950806361500534693e-03,9.213328801405745380e-03,-6.383213462156066449e-03,2.570500038564205170e-02
6.288627137028175440e-01,6.335667786127309187e-01,6.276178235803858696e-01,1.181265217944203749e-02,7.594770670212649955e-03,-1.277967575336764854e-02,3.333394974470138550e-02
8.219770861837516485e-01,4.327436279137620856e-01,4.661178457497368588e-01,3.708199057813260646e-02,7.144854201916929493e-02,-2.951400990439499994e-01,6.483741998672485352e-01
6.444751053916825123e-01,6.383491290965986886e-01,6.165949947513074125e-01,1.586203088681160597e-02,1.374565511399819702e-02,-1.645282305853518201e-02,5.270448327064514160e-02
6.391245579034861013e-01,6.238050719588955628e-01,6.136921693331325312e-01,1.256760201158287765e-02,1.629059869016319731e-02,-1.314260183122620620e-02,4.774987325072288513e-02
6.183100661562269673e-01,6.679246576673250058e-01,6.177033349521044991e-01,7.431618927407183679e-04,3.930233820862721753e-04,-3.376348165146688361e-03,5.028317868709564209e-02
6.445744176770921152e-01,6.394934753193562971e-01,6.443959465646867946e-01,1.744750091671528128e-02,1.746232480010158697e-02,-1.952814407359658444e-02,5.474514141678810120e-02
6.491532978638044904e-01,6.164093230282757796e-01,6.328707356189671174e-01,1.301728328491506305e-02,1.717526661444832708e-02,-1.548328195102299625e-02,5.400600284337997437e-02
6.475178367208409558e-01,6.444267579468396789e-01,6.345837021220473995e-01,1.648773933240438999e-02,1.862182742316518397e-02,-1.898463750229173810e-02,5.544339120388031006e-02
6.332272940671900274e-01,6.402507156952690348e-01,6.207864037103737465e-01,1.338247676419472044e-02,1.238422237168977126e-02,-1.116035796149778513e-02,4.077402874827384949e-02
6.376346666917837025e-01,6.459323336235114343e-01,6.290858564482554316e-01,9.753036157344480844e-03,7.664045906265905608e-03,-5.673860369119310826e-03,2.776733040809631348e-02
6.406478315991596117e-01,6.241953826895259017e-01,6.304860986570474113e-01,3.536518885607853758e-03,7.099599289738550700e-03,-5.042002642665857452e-03,2.171998471021652222e-02
6.351136315221638240e-01,6.330855834347229871e-01,6.304053973633230168e-01,4.910383424945111153e-03,6.213120846204444117e-03,-6.436338500952269899e-03,1.814264245331287384e-02
6.351055222614714335e-01,6.334944756376388320e-01,6.372646950249923892e-01,8.148557118615437633e-03,7.664751511767870298e-03,-5.595222746706090579e-03,2.191113308072090149e-02
7.298932527188151109e-01,6.273970403509323557e-01,6.185910519794661777e-01,-1.083555908742187164e-02,-3.208581626126999920e-03,-6.871252859850771055e-02,1.613472849130630493e-01
6.468139143774002120e-01,5.545010434885351280e-01,6.916614212669538464e-01,9.600500976462081337e-02,-9.205204557161864032e-02,6.163042674383427399e-02,2.813174724578857422e-01
6.289405973582073983e-01,5.872266600045408236e-01,6.644109921366530003e-01,4.872917881868277928e-02,-4.876059271631113384e-02,2.976276326541093739e-02,1.462588906288146973e-01
6.161849497620802696e-01,6.407364064731568831e-01,6.506753306621076982e-01,5.351692348726702630e-02,-3.957733790645087679e-02,3.591656735214008439e-02,1.345617026090621948e-01
6.065200794368540427e-01,6.289898294110054522e-01,7.186303441583137275e-01,7.143427448639004529e-02,-2.423402536961537582e-02,2.488633728086521446e-02,1.717059463262557983e-01
5.910214913559243000e-01,5.498370961799393664e-01,6.942282392960710258e-01,1.025876641374517395e-01,-5.272037335240546685e-02,5.392428405967962524e-02,2.554070949554443359e-01
6.361016169419035915e-01,6.513600065497044955e-01,6.738916104812252561e-01,-4.067351961543302225e-02,4.318235281397807962e-02,4.404477579706798929e-02,1.321410834789276123e-01
6.313821199994384958e-01,5.909549473195985225e-01,6.697115228928888220e-01,-5.551359520889179860e-02,3.473915474122612340e-02,2.899263460756747179e-02,1.415643692016601562e-01
6.405844483018756641e-01,6.062090003653237691e-01,6.745147214912012856e-01,-6.663602328997003665e-02,2.959822769753992638e-02,3.853533390746749498e-02,1.546074450016021729e-01
4.942053110544816219e-01,6.299952171997154071e-01,7.110976021543913284e-01,-1.173754902575299269e-01,5.697968979811992435e-02,3.586239265431958451e-02,3.015937507152557373e-01
6.425433778123996742e-01,5.999452480739180249e-01,7.073291259578600165e-01,-6.742120074678514818e-02,2.968653381857275925e-02,3.401132606439649653e-02,1.688863039016723633e-01
5.517263159762879621e-01,6.528080902533489605e-01,7.139873110647614318e-01,-1.479880464169137377e-01,3.047301009686388326e-02,4.373261225138474345e-02,3.071959316730499268e-01
5.868828511328638697e-01,6.576760797682339454e-01,6.866610578389379382e-01,-7.666308675227780089e-02,4.659279279619216868e-02,2.274355781562212644e-02,1.833027899265289307e-01
6.865098846663283405e-01,4.871485557872355932e-01,6.395553540077865140e-01,1.666304187922191260e-01,1.248561287774164197e-01,-1.853515542169003050e-01,5.154789686203002930e-01
5.362855086264926019e-01,5.562368224437040931e-01,7.134814481060531843e-01,-1.280930078342122358e-01,3.431438294242479536e-02,2.658379934224662858e-02,2.883351147174835205e-01
7.578619705484148650e-01,6.597115300329503551e-01,5.447596807586357892e-01,-8.150332575292955350e-03,-2.497353900682276751e-02,-9.887193989422911333e-02,2.559830248355865479e-01
7.794898786679849145e-01,6.791161733568794601e-01,5.414607914017895984e-01,-2.769983824324347144e-02,-1.171183963695505287e-02,-1.047310266144160229e-01,2.801070809364318848e-01
7.175067713585087104e-01,6.632087367459783556e-01,5.620684463927587693e-01,-2.399584077259697516e-03,1.295067404223108551e-03,-5.059010561240477599e-02,1.623876094818115234e-01
7.122825050927851231e-01,6.329288354531378280e-01,5.180436936934200709e-01,-5.706916165468014617e-05,4.186983479637998613e-03,-8.064813378557550427e-02,2.194928824901580811e-01
7.336847952113682014e-01,6.539685744149899005e-01,5.225084245905408098e-01,-1.959048723195182945e-02,2.398831828625003822e-03,-7.749021491096449998e-02,2.308652848005294800e-01
7.155784144590335849e-01,6.551934185924063181e-01,5.334732741133875189e-01,6.116327006077900731e-03,-9.191693338214004458e-03,-1.103473044572209349e-01,2.504146397113800049e-01
7.453085954401241775e-01,6.428154380759799613e-01,5.219897397930356453e-01,2.245019646481116390e-02,7.641772257122241702e-03,-7.988363951759147596e-02,2.414930909872055054e-01
7.437651966261492609e-01,6.911680637509205472e-01,5.302316974520135950e-01,2.313574414665758514e-02,1.960319711290296057e-02,-1.271141758065810201e-01,2.972615957260131836e-01
6.787252455358880887e-01,6.301101141782529114e-01,6.361971166264855926e-01,-2.176238051264801909e-02,3.286752316154829823e-02,4.694202206740384631e-02,1.156583279371261597e-01
6.519015641393683946e-01,5.943474098986588627e-01,6.399560316309754748e-01,-4.903246076518535945e-02,3.432088586295754112e-02,5.275409976377499338e-02,1.478613018989562988e-01
6.557736351590807145e-01,6.343082845136155390e-01,6.163791081410248118e-01,-2.465015780778895965e-02,2.266491700918991242e-02,2.374294252393162330e-02,7.888118177652359009e-02
6.379711219926724741e-01,6.298021897015579906e-01,6.496355832498654781e-01,1.782833348572549978e-02,-1.282386253585411119e-02,9.866849937814293689e-03,4.513362795114517212e-02
6.559791477030501028e-01,6.222014288914610169e-01,6.321527942861960847e-01,-2.274640459157380515e-02,2.467176675239483863e-02,2.171636926893487363e-02,7.547792047262191772e-02
6.208556974685577323e-01,6.463456311299671242e-01,6.327451467235529758e-01,-5.831376989691720858e-02,3.790108354453216449e-02,6.181525885233306317e-02,1.626726090908050537e-01
6.102154868711462399e-01,6.677465609871148233e-01,6.165738285866088075e-01,3.105107648870615838e-03,9.364414726106849718e-03,-5.514408265510406353e-03,5.803170427680015564e-02
6.183299796136504378e-01,6.620240325806369119e-01,6.211442186696191081e-01,1.908559364897467270e-03,-1.094939471245508396e-03,4.460762334892670947e-03,4.322434961795806885e-02
6.753187086308904963e-01,6.328136237368959804e-01,6.298737822493172267e-01,-5.527200201532689317e-02,5.427683046437754150e-02,5.173484042068449834e-02,1.672503203153610229e-01
6.468086781402841989e-01,6.815882750911266275e-01,6.549350539357502443e-01,5.539884841482037303e-02,-6.684207058577454341e-02,5.731059894391305615e-02,1.829131692647933960e-01
6.067296766820168274e-01,6.659648698306817050e-01,5.816351439433294912e-01,3.819822481432719880e-02,-6.930083702019683434e-02,4.645771588748190406e-02,1.757416129112243652e-01
6.447729351276300092e-01,6.682658711529178008e-01,5.873685232246478316e-01,3.691289783523624829e-02,-7.687343712331937140e-02,4.631694727113207927e-02,1.828874647617340088e-01
6.497396349648567604e-01,6.761377093833275120e-01,5.945844791715366728e-01,2.045918918289680796e-02,-4.271783725087068689e-02,2.829569916232272178e-02,1.196956783533096313e-01
6.459014191688602358e-01,6.530733649655684481e-01,6.115045688597307016e-01,2.925271305330452709e-02,-3.736762989156743736e-02,1.855439187511213547e-02,9.628214687108993530e-02
5.648607976202433267e-01,7.221664900370798890e-01,6.507291844815810133e-01,-2.397108050195398757e-02,-7.833111579124106549e-02,-2.025376622810045810e-02,1.999316066503524780e-01
5.528075369520313309e-01,7.229385499602817289e-01,6.658793678684714612e-01,-1.145461488687395460e-02,-5.190440417735454198e-02,-1.673428838499563601e-02,1.783499717712402344e-01
6.059973773904854255e-01,7.635733671825823965e-01,5.441418334295965442e-01,-4.902893246535677124e-02,-1.179200677678275272e-01,-8.601035274080388870e-02,3.309433758258819580e-01
4.949387560102810335e-01,7.657504539028612278e-01,6.077217500088875068e-01,-7.293396367713546324e-02,-1.398786866853807542e-01,-2.045790775676376017e-02,3.625297546386718750e-01
5.222726358968809990e-01,7.200016665893046452e-01,6.386684673374635191e-01,-2.252616794392361954e-02,-9.626909214261221426e-02,-1.840290952083663278e-02,2.448906451463699341e-01
6.360517976204461688e-01,7.228803862084608456e-01,6.105434971985128634e-01,-2.038554050867020725e-02,-7.499054466838658839e-02,-1.188795754133047458e-02,1.701356917619705200e-01
6.074928050077197383e-01,7.368577825195334885e-01,5.586310725402771071e-01,-4.545394664202401236e-02,-1.493214805087074992e-01,9.033989319626606080e-04,3.139030337333679199e-01
6.306212706164673332e-01,7.221641703891780173e-01,6.035707493036671645e-01,-1.872719488279780964e-02,-6.938484510539594252e-02,-1.542443018352987819e-02,1.667235642671585083e-01
7.146020678116086211e-01,7.076461587186519964e-01,4.286373954962739985e-01,1.308118428068131417e-02,3.744341562463123635e-02,-7.043810549363672957e-02,3.153395056724548340e-01
6.634655182617335001e-01,6.032314392157068772e-01,6.403834388852157611e-01,-4.002947504423600561e-02,-2.481502471886760583e-02,-4.576982895578008553e-02,1.253381967544555664e-01
6.689624139894094768e-01,6.275130772027069925e-01,6.039385304122804055e-01,-2.336002931949072645e-02,-4.038452950719053497e-02,-4.847543054993647821e-02,1.297318786382675171e-01
6.485698535029645884e-01,6.469506001589302446e-01,5.883717610336181014e-01,-2.837675865686636878e-02,-3.215209312047527523e-02,-3.698560220280568828e-02,1.146723702549934387e-01
6.557611494300062960e-01,6.628308833551703749e-01,6.036939438941244518e-01,-3.792742740032870041e-02,-4.639976904719430445e-02,-6.089408179001375848e-02,1.582012325525283813e-01
6.474656752064650300e-01,6.366353044160564245e-01,5.852992764923091729e-01,-2.703494854902723996e-02,-3.277137893936040575e-02,-3.243552916489254173e-02,1.089927479624748230e-01
7.362331341306206367e-01,4.906906505418164310e-01,6.805144667236886491e-01,8.358992094666506389e-02,3.874957781360985343e-02,-1.495014307318431324e-01,3.771376907825469971e-01
7.298253482747456555e-01,5.985243431111074708e-01,6.107831994594488112e-01,-5.080990440391373831e-04,-1.870927104317391624e-03,-8.619660060337762386e-02,1.951447427272796631e-01
6.551245067895937746e-01,5.307066246854624803e-01,7.070020363015643294e-01,-5.595820845084934630e-02,-2.138732811356820664e-03,1.139165062287518515e-02,1.855332106351852417e-01
7.012861866179257442e-01,6.017667671681425912e-01,6.286773074977568543e-01,4.679333685081042173e-03,6.874979733785401177e-03,-3.434944144427196089e-02,1.081540882587432861e-01
6.871630116285740719e-01,5.274429228059871466e-01,6.338382915298493847e-01,-2.979361269791670416e-02,-1.838787282765202979e-02,-5.380648001025823551e-02,1.794428527355194092e-01
6.799818774514978514e-01,5.278396610984227300e-01,6.331967438469132681e-01,-2.011597409150719593e-02,-1.717667610326026328e-02,-5.563089402510507792e-02,1.720510721206665039e-01
6.751772354073508620e-01,5.850624951196721213e-01,6.031401620382347284e-01,-2.875589162104645949e-02,-2.712187800036602175e-02,-5.512937080527421235e-02,1.436093300580978394e-01
7.134406243842232875e-01,5.594474840830174767e-01,5.537197690835595765e-01,-2.232958562176046852e-02,-1.570298377954733662e-02,-1.336170468296709324e-01,2.835927605628967285e-01
7.213151455107793542e-01,5.941018948699982039e-01,6.122017673318975728e-01,-1.257446212861743594e-02,-9.313290132184105785e-03,-7.921953787570681915e-02,1.837662756443023682e-01
6.651095480744253496e-01,5.847947836937020805e-01,6.103693497722268990e-01,-3.464428804176803572e-02,-2.029984661819094274e-02,-4.494196170480438401e-02,1.262805461883544922e-01
6.704594143177765586e-01,5.643419537291552990e-01,7.091139826189599704e-01,-4.131070692757847496e-02,8.032452926357522630e-03,-9.270285778205357430e-03,1.497601866722106934e-01
7.135229368669876449e-01,5.390653216323956221e-01,6.438232566436518090e-01,-2.799187268314737471e-03,-3.633213193897511656e-02,-6.093535998845770602e-02,1.955934464931488037e-01
7.171769157572577269e-01,5.998710479619852043e-01,6.102525606773208100e-01,4.311537017741887655e-03,-5.010727531200583930e-03,-8.300473933090288248e-02,1.828963607549667358e-01
7.246298001515707465e-01,6.226191332899474462e-01,6.110153448140424048e-01,3.590886648211276920e-03,-1.001306682836848420e-02,-5.637544556240348809e-02,1.469645351171493530e-01
7.205029873874004842e-01,5.715004108097190283e-01,6.583932670897914008e-01,1.594484033763206299e-02,6.567838511754560925e-03,-1.525278787703226446e-01,2.957892119884490967e-01
7.305030475041934812e-01,5.572827032298415251e-01,5.400552678477383850e-01,1.900146575527275616e-02,1.106077468371603062e-02,-1.356863164723798587e-01,2.999478876590728760e-01
7.781608045864116807e-01,5.754385977669470575e-01,6.744944393287161111e-01,-1.774795415423745248e-02,-1.683540754883223328e-02,-1.516617065239981021e-01,3.187893033027648926e-01
7.494277813228510388e-01,5.704499666222611065e-01,6.215165474954992275e-01,-1.525270058303936430e-02,-5.844522429142540165e-02,-1.399721619393751448e-01,3.085824847221374512e-01
6.487674224918615895e-01,6.342033727764933015e-01,6.062847597701517266e-01,-4.275118898509672888e-02,5.905546922453091402e-02,4.440083984660686545e-02,1.525060981512069702e-01
6.187966440767010967e-01,6.926125954700405041e-01,6.116319417626343569e-01,-2.818392906878493601e-02,6.186089482496043984e-02,4.828382576320892905e-02,1.639703959226608276e-01
5.970276001696739332e-01,5.954717140171662537e-01,6.787411372365824702e-01,-2.744741699723767317e-02,-6.155717184242106600e-03,-7.911698442131541442e-03,9.678949415683746338e-02
6.541844571982525780e-01,6.119561811359088832e-01,6.390031705019839636e-01,-4.002381602622509527e-02,2.135315004491942711e-02,3.694795002029228892e-02,1.078965291380882263e-01
6.323479769045207144e-01,6.427771215086710566e-01,6.376644623231558784e-01,-1.294958387622549903e-02,1.563062771777329329e-02,1.072124594393918107e-02,4.077310115098953247e-02
6.336434912230458627e-01,6.424102225590992976e-01,6.276012697047872457e-01,-1.257405374222830136e-02,7.101453497416175716e-03,8.672965243176695288e-03,3.189996629953384399e-02
6.874784549035329873e-01,4.743377645235863360e-01,7.185940611170283931e-01,-1.359162136278678490e-01,-1.542361793795618032e-02,-1.978912555908612925e-02,3.321705460548400879e-01
6.419996298036471094e-01,6.428444024080961494e-01,6.107374673139576160e-01,-1.930801106023962571e-02,1.992632971198537647e-02,1.837138084846537400e-02,6.577645987272262573e-02
6.183418133186422416e-01,6.734470729594855820e-01,6.128968281226310211e-01,2.449825500342101177e-03,2.859793011951259224e-03,-1.058541580545081708e-03,5.841392278671264648e-02
6.722118799710158354e-01,6.493201025865878995e-01,5.699032074150086613e-01,-6.052937908633029829e-02,1.115380265514577252e-01,9.361599792717086033e-02,2.885386347770690918e-01
6.664273254969561577e-01,6.145872273690260457e-01,5.759181654536636996e-01,-2.557019576436259101e-02,2.440107162934013890e-02,4.748229849040221107e-02,1.292236298322677612e-01
6.599243428140721957e-01,6.591741316041368481e-01,5.530775438014314815e-01,-3.609921739176814165e-02,5.440528442254356778e-02,5.325946021032086641e-02,1.806533187627792358e-01
7.097593693062922426e-01,6.188644500610332999e-01,5.675231595769592019e-01,-2.205579556477934092e-02,1.056455053974546775e-02,5.060409373643711545e-02,1.582434922456741333e-01
6.761450629604021101e-01,6.627131050551025027e-01,5.270241631085347267e-01,-2.503675894403399257e-02,3.603423514911440612e-02,5.344457521039210762e-02,1.864386200904846191e-01
7.005185967672509229e-01,6.554206416958876513e-01,5.321218345078491119e-01,-1.504177257366006749e-02,3.672451459406165380e-02,5.313640214592185024e-02,1.897161304950714111e-01
5.011654152608915336e-01,7.104440750700652396e-01,7.241195806144641312e-01,-3.597425196951256642e-04,-7.229116575746064033e-02,1.519260251315467103e-02,2.514307796955108643e-01
4.753167743844433080e-01,7.109111826710150517e-01,6.905619042830793974e-01,-7.940364172482059987e-03,-3.946884838711187116e-02,-4.903808698684577159e-03,2.367684543132781982e-01
4.376903829086880027e-01,7.125793324878131330e-01,7.305017066865916453e-01,1.117308895885783804e-02,-5.060445076891687682e-02,1.459545178367182248e-02,2.991786003112792969e-01
4.045922835531846617e-01,7.440370120881817373e-01,6.883646800902533114e-01,1.084107936770160353e-02,-1.405037005992256505e-01,1.950166617306412289e-02,4.001772701740264893e-01
3.125054231837830487e-01,7.331812345699024736e-01,6.389445592638931526e-01,-6.291536680711469487e-02,-2.013498243304037150e-01,-4.867206136140826006e-02,5.355490446090698242e-01
4.349745531060057457e-01,7.108170524634565002e-01,7.348164653110225153e-01,-1.404160831342200939e-02,-5.062294971716703451e-02,-1.647842896988808287e-02,3.039396107196807861e-01
6.238861303939791103e-01,6.268004475742875448e-01,6.336853080356315004e-01,-2.223718310378801355e-02,2.320457455926638879e-02,2.152563139252785043e-02,6.756368279457092285e-02
6.319845682332752013e-01,6.643588341832458166e-01,6.783576510640807467e-01,-6.551670855845506680e-02,5.401411010475350161e-02,3.777978186260457644e-02,1.661598235368728638e-01
6.061798627527799077e-01,6.679613996748381410e-01,6.540105554355244433e-01,-4.868357234316111198e-02,6.219829992950701852e-02,3.189201614443978178e-02,1.578516364097595215e-01
7.731468963040203368e-01,6.478753830001483527e-01,5.641577802356667615e-01,4.647810216629193886e-02,6.915129479678713831e-02,-1.435221716065699371e-01,3.403104543685913086e-01
7.411037588131664799e-01,6.630020425004075069e-01,5.837320135960725187e-01,7.540933528630838767e-02,6.015039990723460017e-02,-1.300078461696476673e-01,3.117607533931732178e-01
7.414183428064899939e-01,7.132123215923179549e-01,5.269921731860645053e-01,1.332735013207011869e-02,5.374634660115850532e-02,-7.695263310001349000e-02,2.601730823516845703e-01
6.151562711704555708e-01,6.691452324490458903e-01,6.153356105610336968e-01,-3.660019762914662467e-03,2.360405211461580766e-03,1.960733704223903244e-03,5.453066155314445496e-02
7.815821779868887820e-01,6.342043259185844439e-01,3.297720208364864902e-01,8.001226026031603433e-02,1.140824887013953681e-01,-2.535072780593295994e-01,6.405575871467590332e-01
7.164248592718588382e-01,4.571018357244978625e-01,7.238856312320984809e-01,-4.301887318940968152e-02,-8.756749920166770340e-03,-1.969327020555360769e-02,2.760149240493774414e-01
5.824480926200605868e-01,6.854260840991621695e-01,6.016163866308391617e-01,2.646141460483619756e-02,6.118998361671766639e-02,-2.250421765521679399e-02,1.544362604618072510e-01
6.115020820968070092e-01,6.756812738793376294e-01,6.106107948716559264e-01,1.179408840420939977e-02,2.719925332934707701e-02,-1.337527369249575347e-02,8.573423326015472412e-02
5.785310442242576068e-01,6.797471018117309249e-01,6.239485638364105080e-01,4.305446084807542512e-02,4.772629831499126257e-02,-3.006073646725938853e-02,1.510491967201232910e-01
5.898589849815484287e-01,6.715948451210423942e-01,6.420374234663676072e-01,2.300880174581866264e-02,3.348549774543371077e-02,-1.669920144910060425e-02,1.045329198241233826e-01
6.322874656563912676e-01,6.690525136765486103e-01,5.998691234039175146e-01,2.528811596898032990e-02,5.306160467024160360e-02,-3.312397695308353512e-02,1.313436031341552734e-01
6.442219197542800035e-01,6.275616785193256497e-01,6.402116714900071281e-01,-7.276431173431438353e-03,-9.919567038917963264e-03,-1.250100460301355361e-02,3.390711173415184021e-02
6.002839159945824177e-01,6.651382107404716360e-01,6.308876063438917381e-01,2.851625835270580472e-02,3.049473476547864478e-02,-2.820573374027409569e-02,1.037973612546920776e-01
6.321689732283226615e-01,6.615091234257779451e-01,6.093470892885910484e-01,2.859549795492710364e-02,4.094633083582292082e-02,-1.801492310256898322e-02,1.025075912475585938e-01
6.375882479056967922e-01,6.211834772227138313e-01,6.535087527967405885e-01,-1.831402549227512111e-02,1.426572342841118599e-02,1.455853948706330170e-02,5.510306358337402344e-02
6.091313314737601958e-01,6.148152966857571844e-01,6.781507255948953095e-01,2.265276267300822197e-03,2.758906210274590480e-04,-1.161311216435608308e-03,6.650826334953308105e-02
6.409520017557418514e-01,6.366774790532226946e-01,5.962302950813571645e-01,-2.488111610359372908e-02,2.322236229846917979e-02,2.958741936782409085e-02,8.904172480106353760e-02
6.458858830923580596e-01,6.410097028859773616e-01,6.298589172327606622e-01,-2.300514524220275900e-02,3.043648322587604385e-02,3.556322871289183812e-02,9.145254641771316528e-02
6.205291385154727557e-01,6.126527595784710956e-01,6.419790554454836151e-01,-3.373030431483493852e-02,2.687342555088752943e-02,3.363629797511293040e-02,9.831088036298751831e-02
6.123994944267727725e-01,6.021043230341107666e-01,6.803064800719603733e-01,9.824155125378181141e-03,3.064285321616031909e-03,-1.435477069802377310e-03,7.576514035463333130e-02
6.280501319246034608e-01,6.066044390407259179e-01,6.850620337442716590e-01,2.787326818427939695e-02,8.467778144232718240e-03,-1.150992703587732334e-02,8.874816447496414185e-02
6.207547447320376222e-01,5.699251959076874208e-01,6.833156345251102382e-01,1.868750506578729584e-02,4.326184865332049351e-03,-3.903166882798050387e-03,1.040527299046516418e-01
6.218125127236753258e-01,5.739188987499662664e-01,6.761602181582191395e-01,1.923486224890240404e-02,6.763427947635789091e-03,-4.842612471527479867e-03,9.574916958808898926e-02
6.337657180536402368e-01,6.208101958448962732e-01,6.513828706977167204e-01,5.880889501813837267e-02,-4.366945210711643127e-02,3.529367101563173070e-02,1.433174759149551392e-01
5.907171626969832667e-01,6.470455657617329992e-01,6.920650710406853756e-01,1.263983709734869676e-01,-3.940393768097327776e-02,8.058402026018415820e-02,2.824969589710235596e-01
6.068449071294139685e-01,5.864023213169848869e-01,6.758304594393168552e-01,4.964485967847655223e-02,-3.013195648711419414e-02,2.767687542709584836e-02,1.378507018089294434e-01
6.355873155766060822e-01,6.380949308103404105e-01,6.292801574021079647e-01,2.524427508229588543e-02,-4.293696645223390312e-02,4.020355755871374975e-02,1.111459955573081970e-01
6.405824341482717621e-01,6.110208635103063779e-01,5.952266165925768071e-01,5.414226739683448281e-02,-6.180072149236551932e-02,7.895066952523581427e-02,2.013504803180694580e-01
6.365558444084266077e-01,6.169211996640492357e-01,6.289844042703818250e-01,2.498381348207051600e-02,-2.426694080776601800e-02,2.584427596115241796e-02,7.705315947532653809e-02
6.426348900069496217e-01,6.106441649221443502e-01,6.251367966933513154e-01,4.564888920734377215e-02,-3.100436178636441567e-02,3.152932433061397810e-02,1.135226115584373474e-01
6.387443589874850502e-01,6.182740569366352856e-01,6.393608524223910461e-01,-1.340430506650996598e-02,-1.220488845250500450e-02,-1.471244545958239752e-02,4.546763002872467041e-02
6.299010011457251146e-01,6.437078899150997513e-01,6.409427713510396085e-01,-1.353897665251777710e-02,-1.207990202659811434e-02,-1.313579407722993697e-02,4.080967232584953308e-02
6.440330199865879068e-01,6.419605819962783677e-01,6.120495914256977033e-01,-2.394141445648208591e-02,-1.743144568250903914e-02,-1.920137021852711887e-02,6.854318827390670776e-02
5.972852409596960399e-01,5.994718444743757368e-01,6.846338544578980390e-01,-2.693303567909090604e-02,-4.004855014883915154e-03,-2.722248989964265106e-03,9.843819588422775269e-02
6.291435381711160124e-01,6.274941579491521981e-01,6.445074133391154314e-01,-8.033611681970890747e-03,-9.422452469574620071e-03,-1.089240008408645828e-02,3.286347165703773499e-02
6.374342894542246452e-01,6.177642878471741872e-01,6.485313400105052750e-01,-1.519525744597109880e-02,-1.392381658796987276e-02,-1.126398850244731201e-02,4.881874844431877136e-02
6.306274876961062148e-01,6.446011204721620036e-01,6.310763010901804249e-01,-1.204544933400205145e-02,-9.038435723181395889e-03,-7.951779267891931693e-03,3.254601731896400452e-02
7.037836447929006756e-01,5.268299672624456864e-01,7.250015071561268787e-01,-7.527259700721235236e-02,2.260933770758522671e-02,2.414821821352641784e-02,2.362164855003356934e-01
7.014400045523396798e-01,5.086576649646893378e-01,7.576652529166656436e-01,-8.458442327554253903e-02,1.338077060776182887e-02,1.021618521358019435e-02,2.710707783699035645e-01
7.414721110613357036e-01,4.262033030561485081e-01,7.288627310666044856e-01,-7.501183502948860493e-02,1.320141800982526682e-02,3.774448215128058115e-02,3.424254357814788818e-01
7.103196634395098075e-01,4.939512973452313549e-01,7.282534052558916615e-01,-5.531807430836658407e-02,2.886577415760162649e-02,4.221946818099218957e-02,2.608535885810852051e-01
7.183042857512174084e-01,7.368160672542876100e-01,4.539350770274537261e-01,-2.062709471348449231e-02,1.147543843813589037e-01,3.611329210335526702e-02,3.461536467075347900e-01
6.458078257794762633e-01,7.156891416025416008e-01,5.338953291126845579e-01,-2.707480320158340767e-02,1.205131590533424224e-01,2.380832904595975991e-02,2.696262300014495850e-01
6.629741879453551201e-01,7.751826483984135541e-01,5.030375329116257843e-01,-6.075516834764678464e-02,1.263257140295754588e-01,-1.693688784646925002e-02,3.404782116413116455e-01
6.969650235602948829e-01,7.468781436008186114e-01,5.224496829970715073e-01,1.018359392772684620e-02,6.109534700475065250e-02,3.216828143065538284e-03,2.306460738182067871e-01
6.569253572757802750e-01,7.134268087952809756e-01,5.353758517931620498e-01,-1.525169827065302013e-02,8.441386397739550351e-02,5.636399895337637416e-04,2.165879011154174805e-01
6.438110869886511933e-01,6.974827177151594615e-01,4.194993550633167034e-01,-3.471372989011310695e-02,1.090377242082477133e-01,6.981302968919252117e-02,3.451665639877319336e-01
6.270530947567396485e-01,6.592161731384271750e-01,6.306189591633322156e-01,4.783196770646983703e-02,-1.116299012621759651e-01,9.439776920838749419e-02,2.681654393672943115e-01
6.144041633876141661e-01,6.916698583863808425e-01,5.878387291233215795e-01,2.079214227860330666e-02,-4.572255542274650947e-02,1.585548374183182174e-02,1.305798292160034180e-01
6.124770506226525635e-01,6.769806066820319712e-01,5.730490625297893770e-01,2.691441789243708207e-02,-4.924062470110080608e-02,2.986473723896363244e-02,1.427631080150604248e-01
6.108196026099866893e-01,6.678598268777941049e-01,5.723765484187173236e-01,2.964630575391760323e-02,-4.933189851426760669e-02,3.006293361694729535e-02,1.399043053388595581e-01
6.385334264046358399e-01,6.479434107317906255e-01,5.346146191286955673e-01,5.386150109599075614e-02,-9.547061328028833005e-02,7.494717830375911827e-02,2.544874846935272217e-01
6.229571711441304060e-01,6.707370063092350509e-01,6.183600180403316937e-01,3.864328958002277974e-03,2.358624823062743965e-03,-2.273777044546965338e-03,5.099702253937721252e-02
6.560196927637802489e-01,7.004222113677960326e-01,4.954646744065102082e-01,4.597599096246612199e-02,-1.041383144324224963e-01,5.463987075553121409e-02,2.875949144363403320e-01
6.013364082151618772e-01,6.942332488548493830e-01,5.971556919274951802e-01,-4.401835146354012018e-03,-2.838278297269354947e-02,4.834322055067213973e-04,1.072905063629150391e-01
6.063113221145364218e-01,6.975727537869542694e-01,6.302100939351030773e-01,-3.356239655040913882e-03,-3.469981105269324267e-02,-3.847137388947327943e-03,1.020254343748092651e-01
6.168371599229032221e-01,6.902705685598112817e-01,5.608316748675485908e-01,-8.538713844168177927e-03,-5.308362137065580216e-02,-6.474674245310375886e-03,1.464235633611679077e-01
9.681501891032875395e-01,4.622205775178533371e-01,7.551808866986803315e-01,-8.107607168888282534e-02,3.694447908717841955e-02,2.790164810764710346e-01,6.715195178985595703e-01
6.199516843040987490e-01,6.732224109023969838e-01,5.475170718118205215e-01,-2.084514364315596252e-02,-5.470808827502716964e-02,-1.863802017772450692e-02,1.525378674268722534e-01
6.049192358657859980e-01,6.801835863611568334e-01,6.131814916449088715e-01,-1.610811756693229790e-02,-3.084681956070040032e-02,-2.058623332396775085e-02,1.000775024294853210e-01
5.986749446320636103e-01,6.767544843007042843e-01,6.218696100858293052e-01,-7.800965353233887435e-03,-2.014371309308273308e-02,-7.428899872792227473e-03,7.993007451295852661e-02
6.996037340724428066e-01,6.679696414423977879e-01,5.447674246237889095e-01,3.821080387261119315e-02,2.359344898395258905e-02,-4.840733930200914747e-02,1.820902377367019653e-01
7.106156179657696637e-01,6.776952126090832751e-01,5.161927914010923102e-01,2.387122177217096061e-02,3.032563435749529787e-02,-4.195420289758589050e-02,2.055052667856216431e-01
6.745851707156207411e-01,6.335014579622777475e-01,6.396815347896205317e-01,4.714260094108875532e-02,4.409837391067847334e-02,-5.415257625116543655e-02,1.509004384279251099e-01
6.588702691062878758e-01,6.695308925442640113e-01,6.002088296275100987e-01,1.588752801313544558e-02,2.666331548434644830e-02,-2.301865608099157995e-02,9.305801242589950562e-02
6.654464719196931943e-01,6.606602347245325024e-01,5.999914710369748105e-01,1.969547224848937350e-02,2.580949944454316233e-02,-2.454426930552406488e-02,9.467507898807525635e-02
6.586215289390333627e-01,5.397621032285200293e-01,7.058128002480638097e-01,-4.512196073484870534e-02,2.091193296765990473e-02,3.669131694333740284e-02,1.828178465366363525e-01
6.693880378717947943e-01,6.882016295469212119e-01,5.895140928814692760e-01,4.150243206644176758e-02,5.707137835303068008e-02,-5.600317240174752798e-02,1.805113852024078369e-01
6.799511463641123576e-01,5.106427619339846125e-01,6.974292367908054846e-01,7.000396032756385500e-02,-1.943742460631037866e-02,4.768799769139522166e-02,2.336397618055343628e-01
6.462186901213717860e-01,5.228610009896317301e-01,7.270189381500021808e-01,8.313762894103668422e-02,3.320679116488500261e-03,2.953467258403257543e-03,2.291461974382400513e-01
6.197290843299538832e-01,5.892529728936433120e-01,6.914857697915913759e-01,3.914766722605465127e-02,-2.547841129515078518e-02,3.731295191354071922e-02,1.377915740013122559e-01
6.187330120131415701e-01,5.634516944816483353e-01,7.198810576894177915e-01,1.630972293362388248e-01,-1.067844172714356964e-02,2.310330129794074469e-02,3.172129392623901367e-01
6.565361201188190110e-01,5.686320207834461016e-01,7.248525741879064954e-01,4.872587923804674176e-02,-1.282295614286510510e-02,7.051532841691249796e-03,1.617549210786819458e-01
6.199090244287380758e-01,6.168833348968052466e-01,7.274419780461314211e-01,7.044797431932718623e-02,-1.124784181494068412e-02,7.287652641727280188e-03,1.653041839599609375e-01
6.118063383886288564e-01,5.711930417162703888e-01,7.257256631817592396e-01,5.476134833634802718e-02,-1.226189901742688430e-02,1.211300151040307048e-02,1.707083582878112793e-01
7.153626022757093583e-01,6.189475022264090409e-01,6.266349429846935770e-01,1.942604861905734837e-02,-2.957880484457589554e-02,5.994800423264796257e-02,1.521575003862380981e-01
7.076343449764048721e-01,6.078565556732166142e-01,5.798970586173769481e-01,5.190877703157515538e-02,-7.797891594155464956e-02,1.148932647572545457e-01,2.818761467933654785e-01
6.225346013074400942e-01,5.650674745457497927e-01,6.482975311463555768e-01,1.235758471772740869e-01,-8.985637537993086676e-02,8.283925613791733034e-02,3.099503517150878906e-01
7.057164442061717446e-01,6.009854916781931511e-01,5.980733648210726505e-01,5.774712013783449283e-02,-5.074766614826042160e-02,8.604358438886977600e-02,2.263243347406387329e-01
6.638470831491543045e-01,5.910276006881450828e-01,6.546589190695858429e-01,2.701995462286634758e-02,-2.124471597471040002e-02,2.601219566973230618e-02,1.014503464102745056e-01
6.653470078048652203e-01,5.917787030478649513e-01,6.566958341195896498e-01,2.207311362858611209e-02,-2.713494738306215445e-02,2.695118131463518016e-02,1.034425795078277588e-01
6.950740566981236102e-01,5.613676251991691624e-01,6.553376425342826161e-01,3.919853563644424416e-02,-4.060279796006201897e-02,8.268971522994109091e-02,2.102652639150619507e-01
6.855386800683639370e-01,5.917208095237322940e-01,6.296499881870417648e-01,3.639223613733303525e-02,-1.934423465009970852e-02,4.547478137926188463e-02,1.340956091880798340e-01
6.989930231321800358e-01,5.941718446304692369e-01,6.565538027121248232e-01,3.394177120862602870e-02,-3.795986868860288382e-02,5.255240558797492217e-02,1.562187224626541138e-01
6.188425065245009016e-01,6.006022418857744904e-01,6.960598535832633882e-01,3.547199759838195327e-02,5.160127234952873593e-03,-1.998842907493679402e-03,1.075655370950698853e-01
6.452100933834351570e-01,5.412528331988168961e-01,7.113945369839979049e-01,7.852138032601745088e-02,8.327175105659528898e-03,2.116314732202444898e-02,2.052226364612579346e-01
6.102477816791183063e-01,6.285143994296595871e-01,6.982817678871459099e-01,3.094021874150992835e-02,9.385979393451617664e-03,-7.636010438533249144e-03,9.892763197422027588e-02
6.190138501958051265e-01,6.167041557117627359e-01,7.216812351108667922e-01,7.793736878336615659e-02,1.794849448976520642e-02,-1.198603024516779227e-02,1.743651330471038818e-01
5.730812316123414796e-01,6.781412946994689328e-01,7.554585450739870200e-01,1.056168895154029064e-01,9.763262064629542325e-02,-4.600361092195830864e-02,3.058573007583618164e-01
5.186989324264941192e-01,6.906407683583195567e-01,7.350258552680009050e-01,5.922500912461144823e-02,3.262034161008288413e-02,-1.580371615389741802e-02,2.315815687179565430e-01
5.609208613516518671e-01,6.479571192246647016e-01,7.200666647720050939e-01,1.443067576715919287e-01,2.061431198953286512e-02,-8.380976841433121147e-03,2.881147861480712891e-01
6.318285813249125971e-01,6.936556010793047955e-01,5.818770650947179268e-01,-4.007023064649458712e-03,3.441146633648205916e-02,6.438429902022120045e-03,1.145908534526824951e-01
5.817934259580205270e-01,6.454913342822299338e-01,7.618837537342414423e-01,1.481670565968452036e-01,5.830753439422935169e-02,-3.700224323694694534e-02,3.243236243724822998e-01
5.561071953308229787e-01,6.105246099527100734e-01,7.213321174902082022e-01,6.487242880772646492e-02,3.761105853205258011e-04,-1.044411394895775232e-02,1.849929094314575195e-01
6.878522096593426838e-01,6.182844135136749131e-01,6.071155431697330407e-01,1.346319465835024015e-02,-1.641816264716933899e-02,6.882302515119345654e-02,1.459578126668930054e-01
6.908278604161601777e-01,5.825600821256750050e-01,5.417866996690425818e-01,4.905408229227527228e-02,-4.628537597385732477e-02,1.118296729775193621e-01,2.626068592071533203e-01
7.116602733909852541e-01,6.601281888524970221e-01,4.934018088486025189e-01,1.638978446566843536e-02,-1.034450522390870653e-01,1.466589549683851024e-01,3.694320619106292725e-01
6.292925374592582832e-01,8.044972463188035938e-01,5.051628034380231114e-01,-8.494952605340022958e-03,1.231000851058575984e-01,2.999723601512491525e-02,3.409250378608703613e-01
7.143617609638761579e-01,6.519571400761895452e-01,5.576978535177736784e-01,-1.068148168219575306e-03,-1.999310198110108502e-02,1.662135356385434082e-01,3.205382525920867920e-01
7.297682864116988855e-01,6.208409575049809170e-01,6.061719448095790330e-01,1.094119721216644733e-02,-1.991058906793494523e-02,7.051127297287164419e-02,1.736149191856384277e-01
6.052297615356928562e-01,6.195570899249850383e-01,6.975750432306884186e-01,3.604988705781130703e-02,3.957331773593548291e-03,-3.549640354900529711e-03,1.067399978637695312e-01
6.131647670787515603e-01,6.050463301178063968e-01,6.752710155209931120e-01,-8.764768738413510063e-03,4.899774042970352073e-03,1.788164224583470600e-03,6.884315609931945801e-02
5.978354739893385617e-01,5.530207683546402020e-01,6.914634990188056607e-01,6.509793431279814468e-02,1.127808022821076735e-02,-1.229594997982223423e-02,1.688752770423889160e-01
6.303633906304464407e-01,5.993924295945900482e-01,6.980092067066666628e-01,3.330013298571075225e-02,-5.296415302102301138e-03,8.288662973695303665e-03,1.060526818037033081e-01
6.253217248932507744e-01,6.881248138902950062e-01,5.985364177332560542e-01,6.660583621661371988e-03,5.907130322510042129e-03,-4.713229269500858465e-03,8.153709024190902710e-02
6.102760548877618207e-01,5.566598455804039336e-01,6.931867469631558532e-01,6.043070243597464808e-02,-9.653861200155726754e-03,1.234159151087243708e-02,1.608924567699432373e-01
5.844929880189206894e-01,5.876318531497768394e-01,7.193717266355520445e-01,6.583859704374522837e-02,1.326012393971920909e-02,9.754709988924650799e-03,1.777523010969161987e-01
6.716365409844662349e-01,6.488246956022822864e-01,5.677153607649274569e-01,-2.525981534079446006e-02,-5.332648400856860454e-02,-4.233630522116958034e-02,1.573904752731323242e-01
6.376600033040062954e-01,6.933314580381160219e-01,5.741799207869227040e-01,-3.544289928864056364e-03,1.725545557937393365e-02,1.131406061331721551e-03,1.076932623982429504e-01
6.497766509621849540e-01,6.777735017679972218e-01,5.429397303459652102e-01,-4.090766647537608103e-02,-7.785654841265063353e-02,-5.007247241721411724e-02,2.142802923917770386e-01
6.937994781138383527e-01,6.561761797287900544e-01,5.592983404649465307e-01,-2.785310976546158737e-02,-1.149864511003258205e-02,-5.854553774776622560e-02,1.656878888607025146e-01
6.881213224568881737e-01,6.980484304686978003e-01,4.932076433930632220e-01,-1.226677936636498198e-02,-5.475848208912208193e-02,-4.069591305721037555e-02,2.333242148160934448e-01
6.376478226124603355e-01,6.872245528877803933e-01,5.779958347458049595e-01,-3.938767170398656259e-03,1.804173229411952517e-02,1.866806321989890848e-03,1.000353470444679260e-01
6.940638416319748760e-01,5.695731983978086221e-01,6.487510683895022501e-01,-3.155029913932538323e-03,6.239367068187701149e-03,1.032945674720877477e-02,1.112515032291412354e-01
7.589918972058068425e-01,6.844049302084349584e-01,4.685010352610293749e-01,-2.750442796675525714e-02,-6.691214202984184511e-02,-6.966572720787519990e-02,3.139147162437438965e-01
7.173441183389676068e-01,6.635256058337668517e-01,5.553586107645612779e-01,-1.596015000508677062e-02,-2.143621049753936445e-04,-4.874629738647415222e-02,1.682582497596740723e-01
6.104121927861907437e-01,7.000844105644634663e-01,6.064128207313294050e-01,-5.607631570724727101e-03,-8.130968754224186801e-02,-9.289452734923382693e-03,1.691234707832336426e-01
6.332186885216217753e-01,6.363624162426350095e-01,6.312783144944110747e-01,3.602747568578137157e-03,4.423542255656116862e-03,-2.190678056833297773e-03,1.147988904267549515e-02
5.628017274542687076e-01,6.848239299812448611e-01,6.480617266160942913e-01,4.150801885022074693e-03,-1.080600334320951615e-02,2.127006931624181307e-03,1.103206276893615723e-01
6.232876737618698870e-01,7.278311408181198372e-01,6.146478157978284562e-01,-2.021936554480882262e-02,-7.452298095784437582e-02,-1.924155329212195314e-02,1.757993996143341064e-01
5.396002546156650759e-01,7.195246313616131539e-01,5.472420372886932505e-01,-1.836718215732128720e-02,-1.374811385589257973e-01,-1.666731221104390814e-02,2.993407547473907471e-01
5.751166184250687818e-01,6.972465722513792041e-01,6.850023034409263856e-01,-3.914648212797092186e-02,-4.105880371779895011e-02,-2.146791763075537804e-02,1.568683832883834839e-01
5.877451915163809382e-01,6.704932192372280442e-01,6.461972963312953011e-01,-3.183031690890014698e-02,-3.291234352130623791e-02,-3.594333124388267992e-02,1.248680576682090759e-01
9.231756460061970593e-01,8.349383154795635420e-01,4.224298633869522090e-01,-3.178511575460728211e-02,7.598377276062778796e-02,2.240192571787200104e-01,6.206875443458557129e-01
6.376833317305740101e-01,6.922071488676134754e-01,6.444729498657815192e-01,-3.333743832236312626e-02,-5.174813842763138771e-02,-4.185581896924751161e-02,1.388245075941085815e-01
5.689975061276468793e-01,6.884175391657333387e-01,6.372417129729358587e-01,-4.080018396091205507e-02,-4.473622826186023776e-02,-4.062960971479408906e-02,1.634593009948730469e-01
5.508498196081331733e-01,7.370344703357885052e-01,6.669671537748963486e-01,-1.515637146205579475e-02,-1.405858170618848324e-01,-4.825998445383929830e-02,3.057744801044464111e-01
5.842109225943499240e-01,6.701300966903791512e-01,5.527976610767538768e-01,-5.082797736576188247e-02,-1.086622439732546491e-01,-5.695689948210611031e-02,2.529289722442626953e-01
6.015136886302767660e-01,6.335235678734377762e-01,7.009584327908354728e-01,-3.590778649270389561e-02,3.127345983873699867e-04,3.249273864817848632e-04,1.077004745602607727e-01
5.967456047089499949e-01,6.003044024917579824e-01,6.986506053608232403e-01,-2.918370356441522817e-02,2.120757445830779870e-03,-4.552460997857962419e-03,1.125405207276344299e-01
6.102875328979077141e-01,6.194354919163593820e-01,6.838688368735613698e-01,-6.900172562604067750e-02,-2.104576008593734074e-02,-1.981229349131484116e-02,1.470198631286621094e-01
5.442529920837525514e-01,7.101538045113563458e-01,5.787031071984216624e-01,2.819384349321438221e-02,-1.153917295286101541e-01,2.823862583295789347e-02,2.602254450321197510e-01
6.664899907109357313e-01,6.654859664246468576e-01,5.809004715643527605e-01,3.859647809689625148e-02,-5.689496064193322322e-02,4.559373751401465252e-02,1.663044840097427368e-01
6.339430226849366301e-01,6.676971354181203688e-01,5.797620873465002544e-01,4.032067486911804916e-02,-3.838174227623290802e-02,3.764666183940761079e-02,1.394715011119842529e-01
6.503617637409788710e-01,6.910096654388825366e-01,5.766342059692928235e-01,6.678650589534537024e-03,-6.248690130629601380e-02,3.483065079036810896e-02,1.599126309156417847e-01
5.697667220678884759e-01,6.890647588643060706e-01,6.172507774316264850e-01,1.226587822168852433e-02,-4.988794168875086005e-02,1.671320241851049701e-02,1.399205923080444336e-01
6.222406493564381913e-01,6.887769210378663631e-01,5.996657539205707543e-01,8.886615439677699249e-03,-3.667815860268599376e-02,7.099612595549213180e-03,1.042244806885719299e-01
5.991525266091251023e-01,6.868748813082397042e-01,5.945040544953573702e-01,8.365322434946753649e-03,-2.952371640767417413e-02,7.335146754773463201e-03,1.054082214832305908e-01
5.988091625969133025e-01,6.893587556834935848e-01,6.290986975082274446e-01,8.317798638485888671e-03,-2.916144381384479928e-02,8.202688881881583030e-03,9.661552309989929199e-02
7.237969420990096880e-01,6.489492482675631724e-01,5.817436972764122860e-01,1.475680782828400414e-02,-1.850584208945118755e-02,6.538749717127190220e-02,1.722097694873809814e-01
6.936460701123143835e-01,6.276576086776293195e-01,5.765758224182070402e-01,1.429298679190619398e-03,-5.596318872899666910e-03,1.895198171536460752e-02,1.072951629757881165e-01
6.931385846986360955e-01,6.501172374512750318e-01,5.328025461671144214e-01,1.383409233357021408e-02,-1.316957940856784519e-02,4.868085259765219525e-02,1.698956936597824097e-01
5.811930500652843223e-01,6.766142859227517459e-01,6.282898370595236814e-01,-4.332721963418140719e-03,1.666025715576123153e-02,1.003350467801339581e-02,8.955617994070053101e-02
6.688645981982385136e-01,6.144223433302065107e-01,6.205195661601369261e-01,1.554749921967564161e-03,1.643941592639750968e-03,-3.131398066473096205e-03,5.209572985768318176e-02
6.933447260568050829e-01,6.557087812013855377e-01,5.450969199020139211e-01,5.738335978415074444e-03,-1.215107156934067296e-02,2.970427079224057312e-02,1.449247747659683228e-01
6.778154466575706527e-01,6.516830173583380015e-01,5.433490805326047779e-01,1.610474315712598706e-02,-1.016023029602314796e-02,2.985429689176902213e-02,1.378832459449768066e-01
6.904924813210677748e-01,6.543064827481370749e-01,5.406443244891911970e-01,-1.406845625121633768e-02,-3.083966570871296206e-02,-4.685076433625880860e-02,1.684443354606628418e-01
6.935188374311465065e-01,6.586269515374487682e-01,5.458290776542483735e-01,-5.901185925368308653e-03,-8.932062794714829695e-03,-2.813142773250364853e-02,1.435077786445617676e-01
6.568526101156607622e-01,3.879238712450497895e-01,7.474473709066311589e-01,-1.983228382848506166e-01,-6.546279219518717774e-02,-1.182960695081255731e-01,5.269985198974609375e-01
7.076704509506153151e-01,6.246019571342836807e-01,5.836609281655669168e-01,-7.397825173833572120e-04,-2.964400130065990638e-02,-5.804025969846601796e-02,1.572304368019104004e-01
6.817531453474043879e-01,6.218480268147857926e-01,5.800074780755696269e-01,-1.345205460641152838e-02,-1.487120053424610851e-03,-1.859835853997326982e-02,9.712323546409606934e-02
6.902707854970675516e-01,6.316087451116076945e-01,5.925244286764796975e-01,-4.003705151709955994e-03,-1.262877177073785072e-02,-4.144714969249433528e-02,1.137617230415344238e-01
6.739331088469269204e-01,6.257419374680797119e-01,6.061067316814829908e-01,-9.301017151012518427e-03,2.695876058502257120e-03,6.624434432769295451e-03,6.377423554658889771e-02
7.011442132575970154e-01,5.834156453438855694e-01,6.206226728567183493e-01,1.195314696346349778e-02,2.956594047553908269e-02,-7.663075264741368853e-02,1.775723248720169067e-01
6.927753581235026603e-01,6.195263235042381966e-01,6.099384190718695198e-01,7.897894795827527931e-03,9.310964432465365301e-03,-4.882102989227268819e-02,1.172917112708091736e-01
6.897627721918702104e-01,5.835649961729058033e-01,6.015641243832758889e-01,1.356629240604897979e-02,2.695673098007912542e-03,-2.804215596937711941e-02,1.123543009161949158e-01
6.683816388703727185e-01,6.059780194057317049e-01,6.268909638933690687e-01,2.256537606219850833e-02,2.624427730891459865e-02,-3.104391149414226572e-02,9.752726554870605469e-02
6.662102776343070687e-01,6.297537199725623536e-01,5.998476602112527978e-01,1.300796073731216168e-02,1.819799713108275277e-02,-2.295709108465910503e-02,7.997456938028335571e-02
6.810440674595074073e-01,6.658848265972516778e-01,5.740754981609207386e-01,1.412348024477750631e-02,1.950675305309664334e-02,-2.900705368661080086e-02,1.196440607309341431e-01
6.253162338101445616e-01,6.089149957817923120e-01,6.945464860383451233e-01,-6.435284264904073126e-02,1.887136913594800181e-02,1.367737078242559426e-02,1.423051357269287109e-01
4.849793657591147111e-01,6.489570814901115536e-01,7.264156507805745733e-01,-1.278593302379711916e-01,-1.277482010434808843e-02,-1.694306195298495715e-03,3.084351122379302979e-01
4.662587479710839089e-01,6.835539214539365638e-01,8.049169256432721076e-01,-1.798823039200540541e-01,7.949202762896973723e-03,2.026334764507787753e-02,4.322176277637481689e-01
6.053548055759228053e-01,6.789738929474600226e-01,6.182975444788497699e-01,-1.196321905308544899e-03,8.842104680840527989e-03,5.889094020178963634e-03,7.055025547742843628e-02
5.521126983456421389e-01,6.037069804825956343e-01,6.921341922117770773e-01,-6.767960710155150605e-02,1.052386121995380237e-02,7.833343909045969999e-03,1.711771190166473389e-01
5.131395323459626567e-01,6.731464786802776601e-01,7.064787354050245938e-01,-8.414194232962991793e-02,1.452535281157995260e-02,3.374556098213684491e-03,2.322786599397659302e-01
5.224770993260445806e-01,6.824116862219341550e-01,7.530226917093383321e-01,-7.885438841868354365e-02,3.046216998060736342e-02,2.003967903723344324e-02,2.539700269699096680e-01
6.729026651613717602e-01,6.016674720914989560e-01,6.341238209616897326e-01,-1.808797959224169721e-02,-1.161655535247557540e-02,-2.446830482566564671e-02,8.365575224161148071e-02
7.800374616115224313e-01,5.716306162004867186e-01,9.339079569299618688e-01,-2.900762530105706061e-01,1.042467960270481581e-01,1.715848062504998217e-01,6.874126195907592773e-01
6.714031145667678224e-01,5.963008674957435140e-01,6.277880802525760418e-01,-1.212715265045401572e-02,-1.370927709595161012e-02,-1.338153649522026700e-02,7.621853053569793701e-02
6.759492125280953667e-01,5.980318801625537084e-01,6.632528926246933354e-01,-4.353489706114295477e-02,-3.009646229771074238e-02,-1.921865102288400004e-02,1.214675530791282654e-01
6.659216493165570627e-01,6.263323624475882756e-01,6.183409848117321639e-01,-6.901476897323090103e-03,-1.316030981090356503e-02,-1.482644391836720858e-02,5.717945098876953125e-02
5.891227409697440409e-01,6.863893240725906786e-01,6.232479245591620032e-01,-2.099141849623021032e-04,3.865922058436189850e-03,2.206549767357670385e-03,8.582337200641632080e-02
6.875222815876208537e-01,5.635728240896937802e-01,6.056328865000302208e-01,-1.083445366856812704e-02,-1.728957905778505388e-02,-5.840205553537170663e-02,1.529723554849624634e-01
6.686936907303996369e-01,5.689238810116223899e-01,6.162204206183530264e-01,-2.718610984614578188e-02,-2.143540383902976104e-02,-4.619960393688578998e-02,1.321783065795898438e-01
6.756177090162192034e-01,5.232798280392213508e-01,6.448599008181949976e-01,-7.848991957599350811e-02,3.943211654918862830e-02,9.123167739077565896e-02,2.599685192108154297e-01
6.254787096196859908e-01,6.389152946522430598e-01,6.081592220609715049e-01,-4.157897157925517784e-02,4.797440775069798657e-02,5.669745898172535992e-02,1.498268693685531616e-01
7.020908805090363414e-01,5.681111023653684367e-01,6.117809601841325273e-01,-2.533188662859187784e-02,2.928124841611777149e-02,5.597609059452994529e-02,1.670449525117874146e-01
6.649449507825628825e-01,5.778648255995846306e-01,6.108989531903458170e-01,-2.644989966208471238e-02,2.741828062049105064e-02,4.756476650096515268e-02,1.301494687795639038e-01
6.275761117780265241e-01,5.921590417685205221e-01,6.801267544274594012e-01,6.285860166356097185e-03,-8.879328721812871760e-04,5.835052818690830917e-04,7.745354622602462769e-02
7.419167832015605146e-01,5.871757378639270719e-01,6.390299413595654787e-01,-4.926825741516110274e-02,6.608799001369849990e-02,1.403501860732758733e-01,3.131918609142303467e-01
7.388228822131864826e-01,5.615767429846997283e-01,5.929275587763426225e-01,-5.449503269578336029e-02,6.643287963711125288e-02,9.452710080120045599e-02,2.753134369850158691e-01
6.493942815939660607e-01,5.986545891531098729e-01,6.291489844101640916e-01,-7.367417505991100124e-02,5.735717387620112295e-02,9.697989838846207689e-02,2.373302280902862549e-01
6.922256368694581496e-01,6.847984906414671391e-01,4.954958685505530536e-01,4.257699914006076586e-02,7.976033888089344159e-02,-8.108485703068331329e-02,2.855598330497741699e-01
7.260753873676998316e-01,7.060123779487873508e-01,4.757588294777299054e-01,7.526728083023166704e-02,6.954104127494523113e-02,-1.073535599193981560e-01,3.523017466068267822e-01
6.757242994029379890e-01,7.176931325215127888e-01,4.560190537969112112e-01,4.676598501566723610e-03,1.080984282468114288e-01,-3.225477065209853000e-02,3.122420310974121094e-01
6.447568387332489603e-01,6.804855581788264995e-01,6.017088754488434388e-01,-1.465339635681431503e-02,2.377786702356882165e-02,1.479077964693898718e-02,8.754625171422958374e-02
6.516976819373216934e-01,6.902457977413904988e-01,5.253634220347324080e-01,1.885752586963700822e-02,3.624854485803193083e-02,-2.680364570830690019e-02,1.716981232166290283e-01
6.317957888392489174e-01,7.019482858820638160e-01,4.698824271047308265e-01,2.962773191184755323e-02,1.113513499049490624e-01,-3.796604497243700332e-02,2.943653762340545654e-01
6.523116138071191061e-01,6.651065575153074505e-01,5.570328425836595931e-01,2.129405164952428639e-02,3.604314666108636434e-02,-4.649646875169640564e-02,1.490108817815780640e-01
6.871325527675282707e-01,7.269973208888181881e-01,5.244723839197705795e-01,7.743408310743583878e-03,4.965379636859017232e-02,-2.808805295929356696e-02,2.108912914991378784e-01
7.148972481401564272e-01,7.083928640530292586e-01,5.092169939059750794e-01,1.403580697124933233e-02,3.473625929747051200e-02,-4.989089810535431158e-02,2.295364737510681152e-01
6.649924470062800186e-01,6.581531001382336932e-01,5.498362751647449809e-01,2.159336525774858268e-02,3.549656012134908001e-02,-3.870537494469949991e-02,1.489741057157516479e-01
6.627904880922712572e-01,6.776635840120524001e-01,5.753874061311139432e-01,4.884018901721005196e-02,-9.869145510263853394e-02,7.284484291646416143e-02,2.479025572538375854e-01
6.755822190210976075e-01,5.492213627344677551e-01,6.762597581700516836e-01,-8.131775219017171527e-03,1.186840862870274307e-02,6.597780460275327538e-03,1.296328902244567871e-01
6.784940245883145371e-01,5.506064320676131718e-01,6.762222809032930604e-01,8.021790687517999993e-03,-9.784849775147801826e-03,8.887642394136450325e-03,1.295651048421859741e-01
6.331314633368196887e-01,6.777363055220667620e-01,6.027486594494120276e-01,5.607668703173988856e-02,-4.831264722435461151e-02,5.843245162798470921e-02,1.759178787469863892e-01
6.034284089423560538e-01,6.844693711930729396e-01,6.503043773159222773e-01,4.840842461077599079e-02,-5.853667849781551968e-02,5.684443385593426767e-02,1.788008511066436768e-01
6.828076376023639593e-01,6.454534826693313354e-01,5.988951612811994618e-01,7.647442886984281984e-02,-1.444248863525461890e-01,1.103976940910094268e-01,3.492646217346191406e-01
6.488394155129080243e-01,6.359404716429705173e-01,6.518051015803130177e-01,2.795819795553722287e-02,-1.845902064853296998e-02,2.904927089746985741e-02,7.818056643009185791e-02
6.247019714492590969e-01,6.227109464192683852e-01,6.108319415375085271e-01,4.584956952327101654e-02,-4.492788757187365922e-02,4.897888757851877328e-02,1.404550224542617798e-01
6.954969686691959696e-01,6.023282677039824007e-01,6.382321543520890206e-01,7.345983390485263942e-02,-8.537435137672948204e-02,1.721208809695392861e-01,3.654538989067077637e-01
6.572603021892807762e-01,6.414057679919881183e-01,6.340471379379627459e-01,1.417263562293568646e-01,-6.726460562929463538e-02,1.288552476066002483e-01,3.522298634052276611e-01
5.959979976844500538e-01,5.955112912252333857e-01,6.842935860493206679e-01,-3.018264857166301496e-02,2.409921980738766872e-03,2.575839651408923237e-03,1.030030399560928345e-01
6.096555995426407026e-01,5.581607089366061869e-01,6.964490857797365209e-01,-6.175143531296042876e-02,-1.585747539065145368e-03,3.876057988856512217e-04,1.615610271692276001e-01
6.188729486351929321e-01,5.818716011402310651e-01,7.264551044623552833e-01,-8.590944900511474080e-02,-8.615259392589807996e-03,-1.380909809482413000e-02,1.996490657329559326e-01
6.001574349760384619e-01,6.276253328214808080e-01,6.930176183792794431e-01,-3.631675869017802344e-02,8.892184194416875853e-03,9.866994152494241652e-03,1.063617914915084839e-01
6.827127931501947300e-01,6.055649452497060548e-01,6.212431789115769876e-01,-1.082508142855235014e-02,-1.777439778846038893e-03,-2.315181334568290616e-02,8.340923488140106201e-02
6.615235898558186056e-01,6.332792030409861717e-01,6.015874719820152317e-01,-1.136290532213826004e-02,-1.230423709477283800e-02,-4.287238913168339195e-03,5.994910746812820435e-02
6.800271768554483343e-01,6.478532338133651258e-01,5.676902356993837051e-01,-1.546527250519735136e-02,-1.416514401919077154e-02,-9.414304281812408554e-03,1.078229770064353943e-01
6.729034834193856618e-01,6.676976658520437091e-01,6.000223197729476210e-01,-2.826322017241993112e-02,-4.406728457424716194e-02,-6.385775154855712066e-02,1.594208329916000366e-01
6.843082522266524803e-01,6.471889626013511698e-01,5.461796426101022117e-01,-2.084911935626764662e-02,-1.051219292828813219e-02,-2.242263263221510108e-02,1.359191536903381348e-01
6.599755960000467381e-01,6.480649327511516233e-01,5.641251830219821128e-01,-1.664378532859575946e-02,-1.603010246867266064e-02,-1.961703494294993882e-02,1.046133190393447876e-01
6.715383523751199402e-01,6.042548860381361520e-01,6.329238042871307979e-01,3.962868699494945073e-03,-1.062659556703561374e-02,4.947570503846422142e-03,6.228442490100860596e-02
6.283467429185780606e-01,6.964416549793893685e-01,6.001422882824131166e-01,-2.659786959757871622e-03,-3.287864243604777387e-02,-8.998726161898616674e-06,1.030399277806282043e-01
6.862228163264055825e-01,6.896801671083803154e-01,5.508000408186497499e-01,-2.446096883355633120e-02,-5.972003679865914988e-02,-4.847533604343207819e-02,1.958660930395126343e-01
6.562069783710102744e-01,6.586313319775076724e-01,5.667504004689885022e-01,-3.418359693042392206e-02,-3.803384567587301396e-02,-4.461076343934339966e-02,1.484616696834564209e-01
6.271602293351757895e-01,6.885939223695070055e-01,5.817316982418980764e-01,1.177400960471133287e-03,3.713567234526161942e-02,5.416264430701939886e-03,1.133932694792747498e-01
6.241174333430372645e-01,6.581407841283060112e-01,5.855208150478492524e-01,-2.831819974860130124e-02,-4.952697865256431436e-02,-2.534485133683884311e-02,1.251082867383956909e-01
6.305684305719433391e-01,6.823694505879139838e-01,6.155555328058458509e-01,-1.962320280683112900e-02,-3.035698992103476324e-02,-2.021234552236673282e-02,9.397809952497482300e-02
6.516610390576513812e-01,6.521898290955043809e-01,5.708915876092492958e-01,-4.071107432062931464e-02,-4.085105074424078692e-02,-4.370314953065720237e-02,1.492487490177154541e-01
6.279914545049964936e-01,6.652098124941225876e-01,6.215316920563928038e-01,-2.906463653841784983e-02,-4.632465769298420993e-02,-3.640234313188626947e-02,1.208922192454338074e-01
5.681374087756233537e-01,7.294868407568434465e-01,6.526750107179766225e-01,8.318547887755173981e-03,1.329050863941011185e-01,-5.580421514489145723e-02,2.864984571933746338e-01
5.646390875946055710e-01,6.676573648419635854e-01,6.207547281250600513e-01,3.240468143267430379e-02,5.214085622940477227e-02,-2.648985632076765115e-02,1.462604850530624390e-01
5.661878396338373420e-01,6.858574405049485678e-01,6.683367164462958865e-01,3.454412438384629747e-02,4.578470951893913454e-02,-2.068608251383310601e-02,1.538942605257034302e-01
4.985533807082063174e-01,6.767230052943614682e-01,6.674540623497224878e-01,4.972233985707031484e-02,6.571696930809255155e-02,-3.675630319356061604e-02,2.336772531270980835e-01
5.885287573782689297e-01,6.845111046837069058e-01,6.778057393928567098e-01,4.275664215316348632e-02,3.234377572669660389e-02,-3.000876868541751952e-02,1.412030607461929321e-01
5.537972500314508606e-01,7.583735317163351475e-01,6.830920843287818789e-01,6.994535713665983589e-02,1.051734055441698318e-01,-4.627607973398882579e-02,2.939451932907104492e-01
4.989067464092802329e-01,7.034017754653903998e-01,6.128186623158540236e-01,3.038245325259614910e-02,1.012653203492564352e-01,-1.801574488582104172e-02,2.569176852703094482e-01
5.688167441371618782e-01,6.856820008012775025e-01,6.975546045277426499e-01,-6.931507512669729532e-02,-5.202294925275421922e-02,-3.126564015916102196e-02,2.016220837831497192e-01
6.112933150205105415e-01,6.212153771991836271e-01,7.299868943421788936e-01,-7.101728419930948555e-02,-2.538394277543035149e-02,-3.007368879741720291e-02,1.810679584741592407e-01
5.413026800165154917e-01,5.934554149948412238e-01,7.662765708767032002e-01,-1.523525469597737103e-01,-4.223274973254582260e-02,-4.350621915308851978e-03,3.415284156799316406e-01
4.596908034495837958e-01,6.783685773386552986e-01,6.853628674189244929e-01,-1.136654743404752754e-01,-6.964387491716789169e-02,-4.427960058522535658e-02,3.295311331748962402e-01
5.743273985604432363e-01,7.724218109948945976e-01,3.233361420266785413e-01,8.843076320354002762e-02,-2.702811726166037265e-01,1.192373278080269966e-01,6.612309217453002930e-01
7.867448474233023070e-01,7.421693780319797984e-01,1.871173582036849692e-01,1.883641402153371502e-03,-1.192190730025741996e-01,1.597876703553333458e-02,6.150020956993103027e-01
6.852568186246389415e-01,7.586567985664406377e-01,4.442681645052269923e-01,4.553134440122924564e-03,-5.713690839941634736e-02,2.990119329297430753e-03,3.017193078994750977e-01
6.909563286455918663e-01,7.383458484758873563e-01,5.143881359052070446e-01,1.870288919091076668e-02,-4.572552301934667413e-02,2.762303664107618184e-02,2.267168611288070679e-01
7.010571337423008309e-01,7.468060799227195234e-01,4.884869988766010751e-01,1.949050180546414018e-02,-1.019599849272884023e-01,6.075347768290310230e-02,3.168658912181854248e-01
7.033109933865251406e-01,7.898488574895528025e-01,4.899768492712661683e-01,6.263229044140712631e-02,-1.422241078070364817e-01,7.984181808843376915e-02,4.037788808345794678e-01
7.164785608289875318e-01,5.410646918124263349e-01,6.739526784624625400e-01,6.641913172527722301e-03,8.250840380889858452e-03,-5.645381370785294839e-02,1.871270090341567993e-01
6.757451201453724687e-01,5.409424381899622380e-01,6.473091781533221178e-01,8.066023280552372943e-02,5.389340358895316346e-02,-1.497290654371510599e-01,3.326187431812286377e-01
7.024786035971619658e-01,5.377577793059977740e-01,6.573608684917041645e-01,2.862101637632473439e-03,-4.982644911035179203e-03,-6.184089045622005731e-02,1.825066357851028442e-01
6.110262053669192062e-01,6.114338625749293765e-01,6.737305897904595220e-01,-1.635133259439114015e-02,-1.031499544302421842e-02,-1.053594796611684488e-02,7.321719825267791748e-02
7.057247725153381612e-01,5.027630591032348217e-01,6.437594229230172438e-01,3.133900557662650660e-02,2.287876634472901446e-02,-8.835463411515970256e-02,2.457496821880340576e-01
6.961100794280490334e-01,6.020791147979723812e-01,6.240620609636471361e-01,4.394830827712757626e-02,1.813568681469510807e-02,-6.411617529837092266e-02,1.623937040567398071e-01
7.991724991111888166e-01,5.681697683379806074e-01,5.498266588825411194e-01,3.645138147355590774e-02,7.286419409141441095e-02,-1.219931040119096588e-01,3.499952554702758789e-01
4.392583274318621056e-01,7.914493682670756813e-01,7.853214918983820736e-01,-3.059399419698461201e-02,2.369767808495740549e-02,3.166542126089685188e-03,3.555850088596343994e-01
5.050844515490360287e-01,7.179789464494263918e-01,7.164190875422387084e-01,3.558186088068019098e-03,1.400045070260994354e-02,3.663522360520995221e-03,2.136836349964141846e-01
4.075406596324077646e-01,7.059145651457728876e-01,7.150046441140076592e-01,-2.121023427110020967e-02,-6.699596813765646384e-03,-6.151281983214538195e-03,3.056462705135345459e-01
4.405086374250813952e-01,7.111324822294246006e-01,7.761869086414023844e-01,-3.210400334696571906e-02,2.853653716707296034e-02,-2.037333636182619284e-02,3.191470503807067871e-01
6.414033997471361159e-01,6.324544442880732920e-01,5.280524012747677132e-01,6.744308377110459773e-02,1.057339155212405762e-01,-1.048085232694921098e-01,3.034029304981231689e-01
6.458488508628168479e-01,6.914107319072090307e-01,6.047880643342811169e-01,4.732504110171104755e-02,5.883637612406145134e-02,-2.708230354092696496e-02,1.579150706529617310e-01
6.639849885238883198e-01,6.582934436675424994e-01,5.665253881280051251e-01,2.570828288477392323e-02,3.046329232901547751e-02,-5.134538736227919203e-02,1.471458524465560913e-01
6.936443639003169181e-01,7.606730912076795637e-01,4.552851795772324128e-01,5.309121336063265389e-02,1.061106668953591542e-01,-8.513579186830928791e-02,3.758505284786224365e-01
6.340215365635255562e-01,7.521047792586594838e-01,5.185470175670094939e-01,6.029905136562550838e-02,1.394385688030680692e-01,-8.625798034981677770e-03,3.322259783744812012e-01
6.035803480843852098e-01,7.101766640234017380e-01,6.246001774361038539e-01,2.774330939977212238e-02,7.815443832474716634e-02,-2.019535240670519011e-02,1.772595643997192383e-01
6.142805625957670213e-01,6.932186701071032520e-01,5.682985548913760399e-01,8.747805039515494166e-03,5.900567364626377320e-02,-1.185034914119481413e-02,1.518919914960861206e-01
7.725026288184329015e-01,4.298581126821837683e-01,7.099421596262069922e-01,-9.137794783206987237e-02,1.225996548828590799e-01,2.932241808790980730e-01,6.541911959648132324e-01
7.658704642072405866e-01,4.303566433346897591e-01,4.913748513303937138e-01,-5.107961644269340407e-02,4.819110910893569660e-02,2.831474356396538883e-01,5.925641059875488281e-01
7.775486274852837498e-01,4.352023686813760728e-01,6.558214576216918612e-01,6.063049599703500964e-02,-4.433333910680103962e-02,1.890110602729511979e-01,4.630827903747558594e-01
8.129921994868104518e-01,3.702212291469932914e-01,5.739240547738903020e-01,8.227007790745795301e-02,-1.210116021512839266e-03,2.896317323259873788e-01,6.475464105606079102e-01
7.331314628759572072e-01,4.844759657271385245e-01,6.553964707136933354e-01,-2.387550677409111879e-02,-1.933599304208437342e-02,1.415754246772826241e-01,3.339245617389678955e-01
7.880652597286821326e-01,5.770261995720150638e-01,6.684555144326025378e-01,3.795210504629897841e-02,-2.124855885857822313e-02,1.320563682782332493e-01,3.026448190212249756e-01
7.910901277957709254e-01,5.794193215817344811e-01,6.448668123266644292e-01,-1.804634025860164109e-02,1.569475643010307536e-02,1.545604233332547317e-01,3.295714557170867920e-01
6.239663717036993962e-01,6.023319982303123599e-01,6.534709999284776805e-01,-3.268079529975590619e-02,-2.938695945242106311e-02,-2.790868686020276518e-02,1.005407944321632385e-01
6.287628166242299477e-01,6.381042367059864828e-01,6.315665843998716777e-01,-3.645794812153890785e-02,-2.689282383627918452e-02,-4.198092210935082391e-02,1.073002517223358154e-01
6.369651060465186809e-01,6.213411942045220515e-01,6.612456636512474839e-01,-1.984104935817112766e-02,-1.528563718878649981e-02,-1.334735075522803030e-02,6.024465709924697876e-02
6.403258397558211357e-01,6.358121406498074002e-01,6.570108271634385044e-01,-5.445024091876916189e-02,-2.792595443832341859e-02,-2.777499424413378687e-02,1.179935932159423828e-01
6.235938337469763004e-01,6.162961352372440249e-01,6.594156048797434888e-01,-1.303772181229682393e-02,-1.746635372142634618e-02,-1.209423830244323907e-02,5.883749574422836304e-02
6.187163674416313874e-01,6.721322799478589571e-01,6.284566483401410331e-01,3.217508572842703307e-02,-6.234550117358762106e-02,2.323738183669560656e-02,1.371654719114303589e-01
6.469117640310341200e-01,6.479623817862117940e-01,6.358269275862901138e-01,3.395763373593490425e-02,-3.632514829398697520e-02,4.609986111807391068e-02,1.180217191576957703e-01
6.293580398655750363e-01,6.893018241223585196e-01,6.454062244447873464e-01,4.218912168151351533e-02,-5.118911069257950364e-02,3.672836595895592054e-02,1.419030427932739258e-01
6.599410639772164133e-01,6.443026774048563610e-01,6.288126128032087703e-01,2.580053083389679744e-02,-3.140603704847407668e-02,5.201407788660268594e-02,1.174697950482368469e-01
6.547986757204038444e-01,5.840675512510140610e-01,6.092653776122156639e-01,5.941769472278186220e-02,-6.225790624634242737e-02,8.901524425985786471e-02,2.232626676559448242e-01
6.647732994393033001e-01,6.960728835337598452e-01,5.602691155025391057e-01,8.517237906727158359e-02,-6.334280830653804539e-02,1.047655091671468447e-01,2.861801981925964355e-01
6.915072105517662271e-01,6.171145802513477996e-01,5.992846700879351785e-01,9.592429290637503880e-02,-6.611880011360138365e-02,6.852106606049332416e-02,2.489648312330245972e-01
5.175715594780082585e-01,6.351618056129277878e-01,6.832149072609839946e-01,-1.088624519823209735e-01,6.265642268566995465e-02,3.416296196978269029e-02,2.694792151451110840e-01
5.254600244317008118e-01,7.033645177789047409e-01,7.475912245256108868e-01,-5.025046498027525843e-02,8.808196693443277533e-03,1.284491454346107370e-02,2.231080383062362671e-01
4.886115757906162593e-01,6.962782288166066147e-01,7.482633408655839924e-01,-5.437560619834754666e-02,2.186612482903408858e-02,7.242656522303938041e-03,2.590083777904510498e-01
5.041904232420135745e-01,6.503338132111123882e-01,7.711548500559347596e-01,-1.101463183588026890e-01,6.579074699521289538e-02,6.451710472726338019e-02,3.398265540599822998e-01
4.651481278231481831e-01,6.434358636557124811e-01,7.243021374897322673e-01,-1.140590396938142292e-01,1.329819760778071930e-02,7.519238726542264856e-03,3.040918707847595215e-01
6.282082294832700420e-01,6.006286119890903441e-01,6.776144777939779873e-01,-3.171347068919214834e-02,-8.964416982386608918e-03,-5.939319468643016083e-03,8.904133737087249756e-02
5.255589842821507540e-01,6.480266765318020150e-01,7.264169126976882662e-01,-6.751483229092326843e-02,4.301181013686039556e-03,1.352536053193541428e-02,2.121855318546295166e-01
5.472653855908311549e-01,6.127903477787878250e-01,6.922905454823137239e-01,5.920487353356639060e-02,-6.208949144801753119e-03,5.343761314650906716e-03,1.629110872745513916e-01
4.800574169639212352e-01,9.274085394888711420e-01,7.640533543551316642e-01,-5.642150850998835232e-02,-2.856150319207845789e-01,-5.702892038120994933e-02,6.463479995727539062e-01
5.951442856393713843e-01,6.510307542253354063e-01,6.512792799574469438e-01,6.475352151637634064e-03,-5.834367817964699471e-03,1.374687442835413262e-02,6.270636618137359619e-02
5.888281099746180969e-01,6.309784138672918097e-01,6.973352208394117957e-01,3.578024289384851980e-02,-1.024091715115086915e-03,2.616253994780412366e-03,1.133189797401428223e-01
6.076839568730950658e-01,6.290708026834463951e-01,6.872267216142613488e-01,6.237546765296164697e-02,1.483572163915469755e-02,-2.157611626356835746e-02,1.371577829122543335e-01
6.155571317523833574e-01,6.146523948738052967e-01,6.863611495221026981e-01,1.323713853003018019e-02,1.787389324784584982e-03,-1.610055966010377369e-03,7.497408241033554077e-02
6.051335452870426623e-01,6.009657711854418105e-01,6.840709739548922474e-01,2.298334745169689636e-02,4.104501433358858330e-03,-4.348231288622589515e-03,9.093649685382843018e-02
6.246729769792862541e-01,5.976251685318756390e-01,6.864299564427924771e-01,5.103477517356344757e-03,7.566500007521213345e-04,7.053196108394120794e-04,7.935518771409988403e-02
6.039376900676505233e-01,6.041932182388096706e-01,6.831479485553153541e-01,2.322883097659178900e-02,8.383408218085280916e-03,-1.171611255690905434e-02,9.217088669538497925e-02
6.092126976466444299e-01,6.264648898363902596e-01,6.850847757972777785e-01,3.116649441174557805e-02,7.897250163525375288e-03,-1.227325300622454478e-02,9.109500050544738770e-02
6.117430616633567908e-01,6.575090487100303527e-01,6.186872041847224502e-01,6.694553864415155563e-03,7.072130520527472944e-03,-8.936982416620102565e-03,4.846696183085441589e-02
6.750589625626567392e-01,8.114953795741194353e-01,4.952726152194526499e-01,-2.872840246558766662e-03,-1.366606403116128188e-01,-1.565647835248847736e-02,3.636701107025146484e-01
7.316829949076473216e-01,6.467811065916887481e-01,4.911633805926463592e-01,-5.654750314994298928e-03,1.179638208014670286e-02,9.174469379752821230e-02,2.653339505195617676e-01
7.227012860819903572e-01,6.616404930233279469e-01,5.403834371566700323e-01,3.654429549541281935e-02,-2.874938852374235923e-02,7.902781430920147177e-02,2.259601056575775146e-01
6.992431134414791583e-01,6.600260640443083027e-01,5.659597944665671898e-01,1.090235205164697546e-02,4.185046419932717497e-03,6.713355319405860111e-02,1.673478782176971436e-01
6.944753437447857003e-01,6.884728601128301539e-01,5.019700914946583215e-01,1.330795557513636714e-02,-3.065939266142247294e-02,5.340834273968175089e-02,2.187405824661254883e-01
7.313945115773659023e-01,6.923037192787787619e-01,4.733794573968194142e-01,-4.866874655178026615e-03,-4.638292572774667388e-02,7.354870800564707045e-02,2.841958403587341309e-01
4.473027145472037169e-01,8.175894488050395870e-01,7.478755192550625708e-01,1.502610269573884626e-02,1.065000575717118814e-01,-4.265660856956568492e-02,3.953745663166046143e-01
5.068536847458087191e-01,7.132164098811432096e-01,6.956054355969821801e-01,2.659509048990204433e-02,3.694121005352911380e-02,-2.199931737220345296e-02,2.166315764188766479e-01
5.057782101123147189e-01,7.333578684699703087e-01,7.096613412503927076e-01,-8.352858258572576008e-03,7.955658423347265751e-02,2.897448394536955574e-02,2.620625793933868408e-01
4.986824955623630484e-01,7.458255227761789730e-01,6.616006966051994898e-01,-2.262163423413579913e-02,4.980173264838679698e-02,-4.427158480691233827e-03,2.374711930751800537e-01
4.757738362084482642e-01,7.080881241523780956e-01,6.975824411159535776e-01,4.196313635442310008e-03,4.484418361553230842e-02,6.162305537852751786e-04,2.402637004852294922e-01
6.215239705035007223e-01,6.550641387633793222e-01,6.169098386947777790e-01,1.861424690206478320e-03,2.538121346835162540e-03,-1.673534254550994391e-03,3.659391775727272034e-02
5.006400429357537041e-01,7.541691894658631989e-01,7.239684491252333931e-01,3.177160941161039087e-02,8.017610859229204467e-02,-2.804919199014786063e-02,2.867150902748107910e-01
6.318204489087739795e-01,6.329263962753214345e-01,6.368882352141762571e-01,-2.639344614484054308e-04,-7.530409922740679933e-04,-2.388848904307314201e-03,6.350658833980560303e-03
7.148165078861943300e-01,4.788238560948813172e-01,7.889814981139775529e-01,1.269325117838041306e-01,1.835774503969200486e-02,-5.056630006456361293e-02,3.683922290802001953e-01
6.490010259735149445e-01,5.790613576478558233e-01,7.211751196787001827e-01,7.559677247612416051e-02,1.456865225033123455e-02,-1.268607319222058057e-02,1.827912777662277222e-01
7.004985610141186703e-01,4.623551561335090820e-01,7.237839002367818519e-01,7.703054211708570964e-02,9.009359773116487266e-03,-2.996755203851963773e-03,2.843787968158721924e-01
6.626090064355067977e-01,5.443626938836374496e-01,7.123123906814278206e-01,5.225803114278541883e-02,1.980662432977505980e-02,-4.419843321203043018e-02,1.938039660453796387e-01
6.021228756889954736e-01,6.329785239992036239e-01,6.730165055263496177e-01,-2.221684382657378512e-02,2.081790079946079300e-02,1.786783286547205529e-02,8.677100390195846558e-02
6.162735287923298833e-01,6.395251615678119173e-01,6.384114114392733796e-01,-3.928682701622800838e-02,3.591326151751031426e-02,2.527180883502855649e-02,1.045544221997261047e-01
6.247857841637546317e-01,6.358393990520742056e-01,6.384369653277500722e-01,-2.161719321581957731e-02,2.824231303900711851e-02,1.200585133327274415e-02,6.621825695037841797e-02
6.107078686176592441e-01,6.369535612524150903e-01,6.374606254587075194e-01,-2.712147859404650044e-02,3.088104058027731774e-02,2.620626526316104793e-02,8.848924189805984497e-02
5.860571739661687429e-01,6.384193644617011110e-01,6.759891431515423488e-01,-3.297989495640633179e-02,2.437314199792980224e-02,2.830568963342701416e-02,1.164874657988548279e-01
5.874545890505267209e-01,6.352673928414567239e-01,6.525428296001812845e-01,-3.240176382670566235e-02,2.690018784213967992e-02,2.291050520277022190e-02,1.015167385339736938e-01
6.347135590804328098e-01,6.734711755094292540e-01,6.038311329398153848e-01,-1.701739616569355323e-02,2.528892795457569898e-02,1.383842785038081648e-02,8.375367522239685059e-02
6.188122835885028206e-01,6.489800246411743245e-01,6.243886237905524883e-01,-1.791410755399790167e-02,1.621892131594854930e-02,1.827721129961259322e-02,5.938886851072311401e-02
6.385124582255043979e-01,6.522954332509273145e-01,6.105265580760583788e-01,-5.387020901648698762e-02,4.986137629728529946e-02,5.302525190476414796e-02,1.611161381006240845e-01
7.132597042224475548e-01,7.452063160049438029e-01,3.001231966274406915e-01,5.329557645103339195e-03,-2.170201450246773689e-01,1.464549797358850013e-02,5.717714428901672363e-01
6.285165692526150094e-01,6.653598772620162860e-01,5.898181056235947128e-01,-2.136666130454312890e-02,3.257754440921833278e-02,2.151912096880403621e-02,1.011112704873085022e-01
6.197792195898714773e-01,6.949937214957718767e-01,6.000545104174186406e-01,-2.232733529174729670e-02,6.587749191493881551e-02,3.710714306210997210e-02,1.617892235517501831e-01
5.893943353462776091e-01,6.867486423014594887e-01,6.254406734212559771e-01,-4.729271699151364750e-02,7.883307109640759480e-02,2.665807886703934482e-02,1.864233165979385376e-01
6.711193884112368613e-01,5.508509172398105003e-01,7.145071053969712649e-01,5.535563986576762241e-02,-5.027501640427852435e-03,5.937748615567661585e-03,1.758963167667388916e-01
7.258605916006076741e-01,7.155214737750250631e-01,4.878126828458444475e-01,2.278659704406122560e-04,-1.407543771329452728e-02,-6.910619709198098475e-03,2.346279621124267578e-01
5.655813793276025514e-01,5.297832941249163152e-01,7.500445215846301972e-01,1.409009180947322082e-01,-4.693194414565639988e-02,6.228135808759665409e-02,3.459993004798889160e-01
6.250568531507619818e-01,7.045248019413135054e-01,5.745453057861682478e-01,1.359928178686751511e-02,5.519043848552324799e-02,-3.218562245962813817e-02,1.602533608675003052e-01
6.932596096828341770e-01,7.084329691503121751e-01,5.129716137447944968e-01,5.581611207162898158e-03,5.872941316503679787e-02,-1.326018489437767386e-02,2.154946923255920410e-01
6.182847655451056967e-01,6.960395637865973706e-01,5.867401836588680419e-01,4.410640437722015278e-03,7.913596372922956923e-02,-2.248407477272226437e-02,1.727891117334365845e-01
6.204960359085034405e-01,7.417367381463242371e-01,5.961433428652257449e-01,1.075702939123510289e-02,8.421896782162155426e-02,-3.861640682034054618e-03,1.997880935668945312e-01
6.553015151471851540e-01,7.174857728335714002e-01,5.044412896071802654e-01,-1.929975686053509581e-02,8.462552960197004814e-02,2.009374344084903161e-02,2.445812374353408813e-01
7.171156920185266515e-01,7.436294986524536466e-01,4.475017941088534901e-01,-9.795748674317726612e-03,7.654276112239496999e-02,2.661347816927585319e-02,3.170681595802307129e-01
6.066255378036388146e-01,7.929463915868024682e-01,5.345368905079667110e-01,2.639460703953065701e-02,1.221316515866960190e-01,3.058176410155045901e-03,3.165601789951324463e-01
5.683314248872570751e-01,6.650041215367064051e-01,7.111452288460489157e-01,-5.300286156995902970e-02,-1.767095622518035508e-02,-1.124209309437248540e-02,1.602468341588973999e-01
6.205914593084667086e-01,6.093320209522088415e-01,7.107890489493653430e-01,-6.742223413383348352e-02,-2.514946467138340358e-02,-3.010117979042823896e-02,1.659245491027832031e-01
6.039884954377597870e-01,5.875998391105536900e-01,6.969267942901383739e-01,-1.561495798307696303e-01,-2.528745283552643816e-02,-5.041785977806526736e-02,3.051582574844360352e-01
6.163732212150576650e-01,6.300894652403028484e-01,7.119198117556492234e-01,-6.830065398465362536e-02,-2.448465097514446534e-02,-1.566976425221890817e-02,1.566422730684280396e-01
5.981741871729411297e-01,6.138272124652075501e-01,6.584685189937773409e-01,-6.023195285788986164e-02,-4.940611884612900601e-02,-3.701059173433431104e-02,1.589104980230331421e-01
6.011016032778762064e-01,6.115069300135331787e-01,6.626490910311818583e-01,-6.567569383394825100e-02,-4.149015521488069042e-02,-3.671475292649380162e-02,1.593864858150482178e-01
6.154010758536215819e-01,5.526944787730280195e-01,7.225884709505784320e-01,5.553048762352327111e-02,-2.040955129262232541e-03,6.429108400076434223e-04,1.772209107875823975e-01
5.963566443692429608e-01,6.342615885418120270e-01,6.990436916710942583e-01,3.256799008843231508e-02,-5.495880232952869530e-03,6.426970177679553094e-03,1.071709915995597839e-01
5.963877430510238220e-01,5.984717090807312179e-01,6.987550836180567160e-01,2.693027036049150044e-02,2.629083612585656187e-03,5.863705603431617480e-03,1.121146231889724731e-01
6.332274708879281899e-01,6.343658845105853983e-01,6.347773089842989602e-01,-3.320815400253828310e-04,1.956352261913790692e-04,6.768257323383988387e-04,1.937410677783191204e-03
5.942468214144803751e-01,5.989891619811325008e-01,6.790460200483063868e-01,3.090968469161344684e-02,-6.107675950273368584e-03,7.812867663776177501e-03,9.986244142055511475e-02
6.738870971158229528e-01,6.512979184110713193e-01,5.816805591020384192e-01,-1.072478849178036021e-02,-4.967989420654785222e-03,-8.283483332010078623e-03,8.691605925559997559e-02
6.360592667023837743e-01,5.880676950952267168e-01,7.124116944997228584e-01,-9.042884635736189725e-02,-7.351652159091813521e-02,-9.951649980753542180e-02,2.867994606494903564e-01
5.474774769091607096e-01,7.030562891221134869e-01,6.827927864440508365e-01,-9.863530568786893493e-02,-6.666157285866572413e-02,-2.540044304591800375e-02,2.567419409751892090e-01
5.679166857568165305e-01,5.980475774242102194e-01,6.869382953256891744e-01,-1.080835008676338249e-01,-5.754336197509416634e-02,-4.644106458754902050e-02,2.508743703365325928e-01
6.331115358584609165e-01,5.572879530202979881e-01,7.283469810788905097e-01,-1.271690612715777047e-01,-7.617350816610876652e-02,-4.391136119260172915e-02,3.061826825141906738e-01
6.295870622483091816e-01,6.979949961386279211e-01,5.875002035636578412e-01,-1.798776474207547556e-03,-3.617968598455410800e-02,1.684533458906978601e-03,1.152178496122360229e-01
5.956058202783625077e-01,6.604087867088435093e-01,6.640062171480158870e-01,-7.172159261100156946e-02,-5.043412832553624547e-02,-5.331877777480668879e-02,1.898339539766311646e-01
5.837466293327502331e-01,6.168833383545599958e-01,6.745967212254845302e-01,-5.371095342425712127e-02,-3.411304899687407632e-02,-2.764281858775146511e-02,1.441505551338195801e-01
6.293930549576014499e-01,6.632729585472791900e-01,6.557551218533371751e-01,-6.346019958340906597e-02,-6.142084993412470079e-02,-6.011555685543115701e-02,1.875911951065063477e-01
6.173352416135061693e-01,6.555622752995151625e-01,6.274800165000203878e-01,3.048177029906804902e-03,4.667266076989115380e-03,-3.924591854751054393e-04,3.563852235674858093e-02
6.464542364089502779e-01,6.453065878018859891e-01,6.355754476609571935e-01,-2.328425267001976717e-02,-2.170504346587288219e-02,-2.715765765698071460e-02,7.320922613143920898e-02
6.602186764646200690e-01,6.087962046582007236e-01,6.333356520832352787e-01,-2.283128381447247293e-02,-3.028231581721018903e-02,-3.178474070633807019e-02,9.659318625926971436e-02
6.226895975423131224e-01,6.401510237376829560e-01,6.291299482575692936e-01,-1.676430364056151825e-02,-3.037882100228752810e-02,-2.117363226642295093e-02,7.204605638980865479e-02
6.516780239649293538e-01,6.052293077038228830e-01,6.167434614158354700e-01,-1.983631685279246132e-02,-1.966204556564585607e-02,-2.123084748717419395e-02,7.380863279104232788e-02
6.534722125345785448e-01,6.429170198871507758e-01,6.117863607738934784e-01,-1.440220709994405324e-02,-2.225138282785270663e-02,-1.492999140809759227e-02,6.469526141881942749e-02
4.853306603415982745e-01,8.577091031167221047e-01,7.774150287157377548e-01,2.070666910870099242e-01,2.316872203380837547e-01,-1.205977518449883046e-01,6.697098612785339355e-01
6.177751235212780578e-01,6.522267396587448918e-01,6.258860192538752143e-01,-4.935909309056573518e-02,-7.245173376185577718e-02,-4.197647563591704739e-02,1.712193340063095093e-01
6.226215240011787611e-01,7.193681000062135400e-01,5.492332828031939451e-01,-2.107723416350259019e-02,-5.274655166157876662e-02,-1.697506947464298005e-02,1.799711138010025024e-01
6.633727372655575660e-01,6.935868811486221031e-01,5.454410257633091064e-01,-1.082964474789174618e-02,-4.179966287151876125e-02,-2.475581950937802422e-02,1.606736481189727783e-01
6.917209776960869805e-01,7.010720136972578009e-01,5.563791056216109698e-01,-3.104507296819824028e-02,-5.234926485173609784e-02,-5.664842737845089682e-02,2.010231614112854004e-01
7.060873597895050979e-01,6.123777469560688358e-01,6.238345911106185637e-01,-1.606684242600519424e-02,2.564630892369033563e-02,7.199202702814445909e-02,1.616642177104949951e-01
6.971482387404109859e-01,5.577195001332463375e-01,6.155774883715224854e-01,-4.925679610027471761e-03,4.151777324685448391e-03,5.512524344672554977e-02,1.547957658767700195e-01
6.953063644385762965e-01,5.991910855047313245e-01,5.460629734619415476e-01,-3.839456021301216205e-03,3.782386648892570747e-03,6.743181557852144514e-02,1.757710427045822144e-01
7.115456335104664021e-01,7.133059577133906703e-01,5.098414582631515257e-01,-5.292073978786643318e-03,-1.900989627867429380e-02,-3.706795727937366343e-03,2.055531740188598633e-01
6.431099460921348987e-01,6.239965845961282787e-01,6.300429193784494730e-01,-8.496702173446914891e-03,-5.812390890012858295e-03,-7.063432760724382489e-03,2.745765261352062225e-02
6.858837333340539466e-01,5.884435560218753691e-01,6.357867055041296345e-01,-3.125546733908705216e-02,-4.500360114832825664e-02,-4.335296726950464002e-02,1.475396901369094849e-01
6.825069729948894937e-01,5.253842251262563767e-01,6.007700473169601540e-01,-6.325459594713848943e-02,-4.849233872395053435e-02,-1.195522010034686805e-01,2.836580574512481689e-01
6.823394422013716598e-01,7.129116486655014961e-01,5.276099444017128270e-01,-3.603537490170940702e-03,-1.571739940899127483e-02,-3.399856292056514535e-03,1.744162887334823608e-01
7.017147116602058254e-01,6.074090663452420547e-01,5.985399242050445379e-01,-1.041384759994694320e-02,-1.826844161626726970e-02,-2.758275576150789887e-02,1.158343851566314697e-01
7.341842580576457555e-01,4.882437827030430832e-01,7.292023683570455495e-01,-3.277907483508268188e-02,2.335664152451802020e-02,2.987021264388416836e-02,2.585014104843139648e-01
7.129137343260063542e-01,5.032430210438417761e-01,6.968182740704704781e-01,-4.784421681107099700e-02,1.774088633549056326e-02,3.841734638278178349e-02,2.304023206233978271e-01
6.876677309153648165e-01,4.339313722722165645e-01,7.342772962128245595e-01,-1.113264170369023670e-01,2.202263108175496822e-02,6.519826332444579597e-02,3.602350354194641113e-01
6.945585550760431381e-01,4.802269026773486882e-01,7.553560106302850130e-01,-9.492638968912311959e-02,4.616332746047260155e-02,1.034556877362834554e-01,3.580512106418609619e-01
6.715008472130234995e-01,5.288584770456311590e-01,6.887927579657097121e-01,-6.550825412667189707e-02,2.112136970563478419e-02,2.729999427965065437e-02,1.988985091447830200e-01
5.957168503979419771e-01,6.985425733805931126e-01,6.335948487355629322e-01,2.017517433282603294e-03,3.347734619357355806e-02,-6.672210787283546114e-03,1.078007593750953674e-01
6.313071219772317111e-01,6.792647559311808525e-01,5.939393501003109588e-01,1.166951903276620787e-02,3.983690855889050753e-02,-9.754485242616049018e-03,1.046101152896881104e-01
6.221516461906885231e-01,7.122303650871846248e-01,6.053507348842329661e-01,9.878022572527300066e-03,7.377488035706217251e-02,-1.247936915607085646e-02,1.643106192350387573e-01
6.862014171440072863e-01,7.047896062937734074e-01,5.055269725595474828e-01,1.199022147847293197e-02,-2.558797134114756608e-02,1.350549709088629501e-02,1.982168257236480713e-01
7.340322479435907876e-01,6.929717933928253304e-01,4.901337169620291756e-01,2.117187781376773242e-02,3.973069361129794724e-02,-4.629914942287899349e-02,2.523272335529327393e-01
7.546228778646788538e-01,7.501814537688070716e-01,4.253882701242041042e-01,3.400773741469294981e-02,7.001798897674564592e-02,-3.736148891144070588e-02,3.596076369285583496e-01
7.357560406381096207e-01,7.417270702078185840e-01,4.823751603020919321e-01,1.439372065973137244e-02,4.857622509268157140e-02,-7.727484833586777124e-02,3.022667169570922852e-01
6.487569877493278847e-01,5.756194512947917508e-01,6.508939242752437293e-01,3.042048620409119539e-02,3.204940538938063493e-02,-3.917939458692191318e-02,1.263833194971084595e-01
6.345333110462481052e-01,6.453725541777656227e-01,6.444613951052463596e-01,1.257644979016518498e-02,2.286476945116898071e-02,-1.811868597901696368e-02,5.600176751613616943e-02
6.323151869658235613e-01,6.105886142493534008e-01,6.601549498427176088e-01,2.340782342233102553e-02,1.509730475662301487e-02,-1.763504567251529195e-02,7.150180637836456299e-02
6.512979181376439275e-01,6.184153076008397365e-01,6.329363155640472804e-01,1.483680851014190956e-02,1.815589328903336602e-02,-1.481971459403659541e-02,5.588211491703987122e-02
6.477547218151510355e-01,6.178286064761081553e-01,6.330477697151312144e-01,1.601405752101688063e-02,6.376257594198753327e-03,-1.281170977015529816e-02,4.533745348453521729e-02
6.554409522535902255e-01,5.913896016857290716e-01,6.293432122318426414e-01,-9.154116552034134019e-03,-1.407475211480617092e-02,-1.219212949479558071e-02,6.636042147874832153e-02
6.278445533452441385e-01,6.340257377743443445e-01,6.401094589583847805e-01,2.231195938177534845e-03,-2.278448296108652113e-03,5.690759243030668602e-03,1.550761796534061432e-02
6.503914695963370907e-01,6.358529352738829798e-01,6.298327792760766153e-01,3.430096850419672022e-02,4.581442241687819911e-02,-4.021108180694959316e-02,1.225254312157630920e-01
6.368275166166603718e-01,6.321787813979841131e-01,6.486378966682457836e-01,2.608605035044975207e-02,2.223090615069437878e-02,-3.169154195448097705e-02,8.217752724885940552e-02
7.091765311246487347e-01,4.834921818313068775e-01,6.858628310251654314e-01,6.638019926252212988e-02,5.842226152237303682e-02,-1.256805226996403346e-01,3.421413004398345947e-01
6.862178574117119290e-01,5.578133478148199487e-01,6.638612926938904923e-01,1.492845078118547504e-02,3.869977924551348814e-02,-4.604543822286168847e-02,1.601217985153198242e-01
6.238844293973961896e-01,6.521162764438852566e-01,5.948716365330489753e-01,-2.677906781839481734e-02,-3.371641736873127321e-02,-2.808681429879615610e-02,1.019127890467643738e-01
6.493420668184242128e-01,6.598135985370656709e-01,5.820193648013495258e-01,-5.709081703941825542e-02,7.796090392439009031e-02,7.823623902216066128e-02,2.274235934019088745e-01
6.547820150713918874e-01,6.646064267175273432e-01,5.825964458028786153e-01,-2.084458046442735218e-02,3.757126808103138094e-02,2.602542951699794022e-02,1.165620684623718262e-01
6.583294764111531361e-01,6.838771395869269742e-01,5.133409087178532060e-01,-1.393148467789661130e-02,4.781915623893288197e-02,2.623047878860415225e-02,1.867749243974685669e-01
6.110238673798761289e-01,6.754766269544119073e-01,6.039317823035966759e-01,-2.708965266951962603e-02,3.758467016442454400e-02,1.659088930264846634e-02,1.092094480991363525e-01
6.370095376742528348e-01,7.163697140734152091e-01,5.798491119681070671e-01,-1.293091650087543724e-02,3.535501505106135312e-02,-3.319797893328392036e-04,1.354750990867614746e-01
6.505640161857171311e-01,6.794432766561783188e-01,5.586615750083911980e-01,-2.547765510258426583e-02,4.608606762717407795e-02,4.922428072409048422e-02,1.658985912799835205e-01
6.614430159911867113e-01,6.834037555918244244e-01,5.897643752237559100e-01,-3.161367112148061320e-02,6.681817893485766935e-02,4.295475301835911808e-02,1.706511974334716797e-01
6.218431988957834333e-01,6.688366617561816163e-01,5.641275425252124665e-01,-2.665835678192907815e-02,4.906089481271034419e-02,3.522366346000963683e-02,1.460369080305099487e-01
6.786978826078443605e-01,6.989913874404602989e-01,5.185629670071821851e-01,-2.919704382641504295e-02,3.807261474750652658e-02,3.543564069951088413e-02,1.999443471431732178e-01
7.312833889919392316e-01,5.603000208913269109e-01,6.090311700186311628e-01,-2.180917498066361690e-03,-1.560450553115692689e-03,5.509759156441945693e-02,1.800184100866317749e-01
6.933072260295788380e-01,5.992779163939545573e-01,5.457844907914705113e-01,-4.395644260830655452e-03,4.220193409175233314e-03,6.759547087971318202e-02,1.747908592224121094e-01
6.804195367174489251e-01,6.194822961147644635e-01,6.127978021037494560e-01,5.945418302385553286e-03,-5.686847920833036640e-03,1.064202678129797831e-02,6.861623376607894897e-02
6.952510438422301320e-01,6.257996176836876367e-01,5.739041536307867286e-01,4.297705854205316478e-03,6.741749918004569068e-04,1.684194516322623861e-02,1.096748933196067810e-01
6.329120320393262222e-01,6.340050439842515040e-01,6.328884347816970957e-01,6.835348126956970532e-04,1.107389756964067483e-04,-3.974456677234290800e-04,1.770130475051701069e-03
7.023737829431048185e-01,6.225971134222694214e-01,5.784914682786223006e-01,2.960969532827776793e-02,-1.130061838760451284e-02,5.419879163810052691e-02,1.537987887859344482e-01
6.933677322431139878e-01,5.636496126686879604e-01,6.050713293772421730e-01,7.609816176052262328e-03,-8.248721354117067792e-03,5.771863547740887362e-02,1.534326523542404175e-01
6.863932667432308676e-01,6.025545881149514393e-01,6.268347683317496699e-01,3.334959909808558540e-03,2.559693842840910817e-03,3.000598003630285462e-02,9.130679816007614136e-02
6.972059295026568071e-01,6.313596547256909997e-01,6.009649428711134611e-01,4.023114696514827962e-03,-5.295349006375179440e-03,3.159622965868754546e-02,1.019244492053985596e-01
6.802156631369168371e-01,6.290592393655121128e-01,6.064973381263251140e-01,5.634161520807326462e-03,-1.095007154358877341e-02,2.713147593825687362e-02,8.332766592502593994e-02
7.608695597190859861e-01,7.015143875641948190e-01,4.272607917419834478e-01,1.119566507257318232e-02,-1.397731289146931025e-02,3.789965562498190388e-02,3.166823685169219971e-01
7.106038964423346815e-01,7.104732693794965082e-01,4.418220539175090611e-01,1.784271373880269010e-03,-1.962038982719495339e-02,9.773247727442405455e-03,2.714029550552368164e-01
7.010867889200134151e-01,7.212719897068529118e-01,4.095241355940152927e-01,-3.963541834143862602e-03,4.246788383955045487e-02,3.359821974304038478e-02,3.164580464363098145e-01
7.093167761708066843e-01,7.185119495463185846e-01,5.022670560832770414e-01,2.146292084472916674e-03,4.698986612106548222e-03,2.355288161094646129e-02,2.158755958080291748e-01
6.370328259265859439e-01,6.419386082112823466e-01,6.266156813826143646e-01,2.235682549150476775e-02,-2.728686729311463610e-02,2.977511029036951362e-02,8.109600096940994263e-02
6.153552756449085503e-01,6.140633469942370359e-01,6.685994987014739488e-01,-1.166949885968789893e-03,1.085737597892304056e-03,2.309697240400054342e-03,5.412051454186439514e-02
6.277020795727243918e-01,6.161925091857641812e-01,6.491862478418736204e-01,2.889808859441271582e-02,-2.498681379042210632e-02,2.458946833173856691e-02,8.386632055044174194e-02
6.583449836043220316e-01,6.044282902664965818e-01,6.216702843898923581e-01,1.759875885713469562e-02,-1.807525591664118497e-02,1.953894059367936725e-02,7.300183922052383423e-02
6.584282379407571106e-01,6.074315375561519792e-01,6.261038085756984728e-01,1.785381160254429292e-02,-2.145918212593696250e-02,3.193976006673543422e-02,8.599594980478286743e-02
6.702065477424996587e-01,6.325578023979785414e-01,6.196037726385748012e-01,3.825113904038082713e-02,-4.562354066481025955e-02,6.149492508652171924e-02,1.550863832235336304e-01
6.571798954143308613e-01,6.294531583841461719e-01,6.009326352142648764e-01,2.743594625084339739e-02,-2.754290561318460326e-02,3.377600809659868364e-02,1.016339436173439026e-01
6.425178172936015786e-01,6.256940196613611782e-01,6.265316849966137136e-01,1.054164423162137938e-02,-1.080451212137820312e-02,8.293172056106282511e-03,3.405246511101722717e-02
6.422718162385606666e-01,6.379784512763791993e-01,6.281595658044675234e-01,1.161965378440669647e-02,-1.192351699034336840e-02,1.373010857994736399e-02,3.942216560244560242e-02
6.693016900297740213e-01,6.367077611002275317e-01,5.811505501358680270e-01,-3.628614275972923131e-02,3.454247956598535674e-02,3.609061926777456381e-02,1.318976730108261108e-01
6.024712629155344334e-01,6.772794004282554070e-01,6.086767489834171707e-01,4.002026155883570482e-03,-2.005324224814990577e-02,3.648541684865995016e-03,8.040476590394973755e-02
7.302857811007914535e-01,5.560365675026799348e-01,6.628295515193438625e-01,9.149535334578943200e-04,-3.418853045269813849e-03,5.482779789612886312e-02,1.794847548007965088e-01
6.717906580628876245e-01,6.334441328798192661e-01,6.094315240055860894e-01,-1.686846411020031383e-02,1.686990460664901728e-02,2.296206008863605971e-02,7.910149544477462769e-02
6.696062072896594719e-01,6.048859300188321741e-01,6.093839612373591619e-01,-1.563599011646622794e-02,1.683404681077578513e-02,2.086522318919755564e-02,8.250765502452850342e-02
6.709933226813653562e-01,6.086479652107514848e-01,6.298571551494962506e-01,-1.582527548024968700e-02,1.684116367473773024e-02,2.667062042457268509e-02,8.216226100921630859e-02
6.817557572615107198e-01,6.096737169036906545e-01,6.276589590787154949e-01,-8.881343547993197571e-03,5.850066538355951085e-03,3.052646567796474253e-02,8.577748388051986694e-02
6.239737742592617042e-01,6.300274742316436249e-01,6.535290068186311307e-01,-4.494046793503290522e-05,2.122001707515399228e-03,4.765605573045665622e-03,2.851119637489318848e-02
6.943210668319037548e-01,6.014812280106197617e-01,6.010524206020828597e-01,-5.542161917435359762e-03,7.134620535779028286e-03,2.568781582572093186e-02,1.043248623609542847e-01
6.949643243207710430e-01,5.989226384974031259e-01,5.853303031523551248e-01,-4.683207600298706919e-02,4.435851728411423223e-02,8.678387568755401016e-02,2.139889597892761230e-01
6.905179668558001360e-01,6.004161344799863187e-01,5.611821592882882959e-01,-5.521411031704991437e-03,4.053381449653769945e-03,5.797399849801962435e-02,1.530241817235946655e-01
5.956548383666997459e-01,5.651448030032620862e-01,7.606917088693873064e-01,1.096100177376511942e-01,-5.401277397263619384e-02,2.411192155833197584e-02,2.823874652385711670e-01
5.470295425756469543e-01,6.196242038857419088e-01,7.169926201582169645e-01,6.635465181111893651e-02,-7.790816484862590069e-03,-1.511016848898288738e-02,1.894594430923461914e-01
4.895734106527517837e-01,6.503614850574502837e-01,8.044545278863113325e-01,1.108120917854597681e-01,-2.850704738164626384e-02,-5.678545744737197379e-03,3.372631669044494629e-01
5.247240731485587339e-01,6.581795062119832895e-01,7.039357383527548029e-01,5.438151642881518949e-02,1.287208511430709863e-02,-1.045914641865006850e-02,1.889648288488388062e-01
5.455649728597147252e-01,6.664725649777143435e-01,7.280789142709890305e-01,4.556112238038414336e-02,-1.228239967140300030e-02,4.380274653961830841e-03,1.805553734302520752e-01
4.774561097576566215e-01,6.343494532461120272e-01,7.080366600893156503e-01,1.160127027286660811e-01,-3.456417758864348266e-02,2.355599302693853897e-02,2.953504621982574463e-01
5.744704641943426671e-01,6.635131925853651191e-01,7.207246843031244188e-01,4.543486475318950224e-02,-2.156754994911100343e-02,1.051998542958557277e-02,1.556165069341659546e-01
5.971094497435753823e-01,6.304987893689197875e-01,6.917663669303185658e-01,3.146665836439041519e-02,-7.711712960754799409e-03,1.371431598719858973e-02,1.030890792608261108e-01
6.234404333949116195e-01,6.117854198088518158e-01,6.991875702275904825e-01,6.677110689647175468e-02,-1.240789257406225282e-02,2.031557965796835022e-02,1.477548032999038696e-01
5.674063103326241198e-01,6.031775225010393982e-01,6.947516318475842612e-01,5.570780340370155848e-02,-1.607994612127078629e-02,1.980419056619963161e-02,1.555747538805007935e-01
5.791228861167012631e-01,7.025779794606371587e-01,6.192787867819823378e-01,-9.255211409379353327e-02,8.617201719916313396e-02,6.825098257873421503e-02,2.717449665069580078e-01
6.940694711077332046e-01,5.428398001581368204e-01,6.804607646463363135e-01,-8.203636633556445415e-03,8.941972896478530154e-04,7.558356485689649538e-03,1.461959481239318848e-01
5.475688279666842684e-01,6.861324288322842024e-01,6.800667845870890238e-01,-7.259711281532010840e-02,1.153868694472652001e-01,3.199149026458825151e-02,2.778848111629486084e-01
5.861241354779409551e-01,6.240751529943396880e-01,6.123465027633387958e-01,-1.070777311384435437e-01,8.799697180267899987e-02,7.820062779785866280e-02,2.776798009872436523e-01
5.202399481513845236e-01,6.706790399715222284e-01,7.488594749502228698e-01,2.090526792957528301e-01,-1.433232557676015206e-01,1.409252551356680594e-01,5.411275625228881836e-01
6.404468734965732546e-01,6.347797442485485497e-01,6.181786492598074778e-01,-9.643603835835847307e-03,-1.627019820100729028e-03,-4.229869297111393464e-03,2.724715508520603180e-02
4.260102599005188839e-01,7.337994417738282760e-01,6.859993808119000391e-01,1.298458151075552180e-01,-2.172299812432873789e-01,8.802223356256300146e-02,5.456160306930541992e-01
2.480685034418316781e-01,7.583037872347320185e-01,6.975780701213443180e-01,1.134092585822047139e-01,-1.882910811663533468e-01,3.498919068057661230e-02,6.177876591682434082e-01
6.536956175606213337e-01,6.249364827170721393e-01,6.281502554960666229e-01,-1.910427306152183381e-03,-1.983934954945817866e-03,-2.676773144374968057e-03,2.809347584843635559e-02
4.403353809926195961e-01,8.997526398467056152e-01,6.896005812267679280e-01,1.466721333052825593e-01,-2.441769351428768609e-01,-1.659111662486909000e-02,6.347532272338867188e-01
4.801334009687646676e-01,7.741804616960449303e-01,7.502392617013815546e-01,8.319603378399630100e-02,-2.982185158980240058e-01,8.910860538060631775e-02,6.256082057952880859e-01
4.664228649107958757e-01,6.998539530210111659e-01,7.346047381126159515e-01,2.186974960879613794e-01,-1.502043550876479838e-01,6.738107083315821033e-02,5.372151136398315430e-01
6.673207595466917885e-01,6.430804124373482589e-01,6.118736186138415967e-01,-3.683916295715926326e-02,4.868566185642395072e-02,5.632258739528320235e-02,1.517131328582763672e-01
6.574249749713473312e-01,6.587525058131366018e-01,5.716569566190232710e-01,-4.165446340410267068e-02,6.120923951911909355e-02,8.342105198813483391e-02,2.116459012031555176e-01
6.587509019312177694e-01,6.956011944416446990e-01,5.716547147338861823e-01,-2.130603860418656473e-02,4.915221032986459571e-02,2.941597708328482288e-02,1.528357565402984619e-01
6.772704491975337637e-01,6.575314030739706217e-01,5.810936734957551364e-01,-2.459681405659668377e-02,3.582336892903606462e-02,3.557086978279976053e-02,1.311562955379486084e-01
6.139896776975916071e-01,6.920898950073376410e-01,5.670013032293066413e-01,-2.354201990664914201e-02,5.223663633444184523e-02,2.990605403751959643e-02,1.565539836883544922e-01
6.253089746738484944e-01,7.045481335824171909e-01,6.282604594930037978e-01,-2.595139317596268855e-02,7.218335518804078199e-02,2.383849642115626680e-02,1.594058871269226074e-01
6.824649959832503887e-01,6.648263677879394651e-01,5.984975288328679977e-01,-9.258196975099150516e-02,8.117149156513173147e-02,8.322243317841231114e-02,2.685874104499816895e-01
6.919539791723681166e-01,4.962766047150899418e-01,6.653424087565491529e-01,6.395233830893053140e-02,-3.378973345040454240e-02,1.104600007444874882e-01,2.934104800224304199e-01
7.441733127366980671e-01,5.041880948636533466e-01,6.775265711641010880e-01,6.998007510757400795e-02,-1.388597978612238736e-02,1.115948874418188907e-01,3.141191005706787109e-01
6.754613374638727130e-01,5.522143654421469705e-01,6.252634776214445189e-01,2.035823692393340725e-02,-1.627806536793531891e-02,5.118921519351833649e-02,1.463632881641387939e-01
7.668189071069313467e-01,4.836685946678896952e-01,6.793326483957389250e-01,1.402261834996099826e-02,-1.319417169851071388e-02,1.415074790039812791e-01,3.524790108203887939e-01
7.422026903231766504e-01,5.618831981556114963e-01,5.583175448457617929e-01,-1.555304527887018708e-02,1.757537129090799670e-03,1.226369363178637928e-01,2.811142206192016602e-01
6.928828820853616399e-01,5.684224852308127351e-01,6.301286551862584906e-01,1.857379192170212009e-02,-5.758374556015469041e-03,8.171296100667001239e-02,1.810622066259384155e-01
6.655731221931571184e-01,6.796658181612333927e-01,5.655161450748023011e-01,1.017827782087868671e-01,1.165395174658661465e-01,-7.818389598302838417e-02,3.190326392650604248e-01
7.108122611947086389e-01,6.448977001393874087e-01,5.594474011397350122e-01,3.043970311919922886e-02,2.787665925724570892e-02,-7.300473205125528053e-02,1.959056556224822998e-01
5.920981222166374902e-01,7.531141980914797252e-01,5.737058259847069852e-01,2.189732645228091579e-02,1.443482879953245368e-01,-7.521703241899810322e-02,3.318832218647003174e-01
6.108053285686623202e-01,7.015916895929431574e-01,5.269112412847253291e-01,2.177247667191577543e-02,1.336435268298156454e-01,-2.770087423594872963e-02,2.832008600234985352e-01
6.731678138456556049e-01,6.722952164922688656e-01,5.788560014082367866e-01,3.462620119396610241e-02,5.405635371986464849e-02,-3.546958105032824160e-02,1.579577326774597168e-01
6.572737438593194703e-01,6.576102525118221465e-01,5.499921011591120124e-01,2.116194041794157085e-02,4.156264289126883338e-02,-3.789302244139481496e-02,1.495962888002395630e-01
6.485804760919300360e-01,6.267274262051016898e-01,6.278764238827775346e-01,-5.287623085454390935e-04,-3.887950997231318182e-03,-7.852009265467060082e-04,2.240097709000110626e-02
7.106356089284375788e-01,4.949113872547129533e-01,6.952647202871965471e-01,-3.836425265366385736e-04,-5.977947094547722898e-03,-1.987321341888094450e-02,2.115415185689926147e-01
7.154934593815571731e-01,5.275356358121636724e-01,6.551312536559158461e-01,-1.176860661026690735e-02,-6.557939811085661784e-03,-4.319644343725444202e-02,1.837621033191680908e-01
6.932298499622651100e-01,5.376230811193410952e-01,6.604200611322849079e-01,-2.610149365454845181e-03,-6.456815378038862664e-03,-1.995432612561364588e-02,1.467125117778778076e-01
6.595302751744802627e-01,6.183877501309203994e-01,6.205323080608644570e-01,5.434611325046922970e-04,-4.341734164833280576e-03,-1.147315215161134666e-03,4.087127372622489929e-02
6.403111660806961591e-01,6.251573119031361703e-01,6.333783060104181128e-01,-1.417184789260016696e-02,-2.059286778089974845e-02,-6.854802727618869787e-03,4.677960649132728577e-02
6.402854518069142076e-01,6.178956103492408980e-01,6.235307313731637269e-01,-1.249195702390770019e-02,-1.501764287514120721e-02,-1.589976726238687826e-02,4.806280881166458130e-02
6.492706121142181042e-01,6.301573139206304575e-01,6.245699405921003589e-01,-4.112207190111113152e-03,-5.803649917843291955e-03,-5.812412693832482227e-03,2.750382199883460999e-02
6.444505123301832450e-01,6.389416873654488738e-01,6.186925688202665752e-01,-1.432303255838533913e-02,-1.383790936913769330e-02,-1.902698008665382537e-02,5.317811295390129089e-02
7.357987456310074448e-01,6.073477875194641662e-01,4.899035276065054623e-01,5.703085785159723795e-03,-1.583174179828538211e-02,-1.803863530218397238e-01,3.792701363563537598e-01
6.768366430985180981e-01,6.469795405520126774e-01,5.687446469601958876e-01,-1.443134397527633637e-02,-1.020228663191026681e-02,-1.202930549025762325e-02,1.035334542393684387e-01
6.997557961634988111e-01,5.758929661721339244e-01,6.126242901817261499e-01,1.411672324539931314e-02,2.067141239876679401e-02,-5.153758674417389940e-02,1.482891738414764404e-01
6.423999501082965358e-01,6.077828982471285002e-01,6.377477033292890951e-01,-4.934537892883547605e-03,-1.014176523775333315e-02,-7.509991621091475708e-03,4.012171179056167603e-02
7.144786511203647938e-01,5.272820172997846333e-01,5.707514246073418507e-01,4.248588277688702952e-02,4.762522755376494971e-02,-1.479383773782907974e-01,3.266064524650573730e-01
7.558120399226438968e-01,6.643272622161714436e-01,5.811076301342456008e-01,2.294389950098366104e-02,1.235957439181273668e-02,-1.071945017983739062e-01,2.437577247619628906e-01
7.337863485936962915e-01,6.434841758523924815e-01,5.667319661358316552e-01,-3.126217084845529619e-03,-3.921718080399310725e-03,-1.205426015643078080e-01,2.542504370212554932e-01
7.510931228226088718e-01,5.844514675700498429e-01,5.711844282354265889e-01,2.950649703637487145e-02,9.653036909204718713e-03,-9.434922958776296997e-02,2.444444149732589722e-01
6.482105380833999009e-01,6.774164964487949803e-01,5.619956442224439686e-01,1.185798015689238857e-02,1.049284664104945669e-02,-1.044249282071921248e-02,1.090103462338447571e-01
6.225329923399992582e-01,6.449618597076867133e-01,6.435088765009299161e-01,1.040251601291284841e-02,2.232252908490799104e-02,-1.794109575536069132e-02,5.707668513059616089e-02
6.247805365384538900e-01,6.783056727926508600e-01,6.136394979148980244e-01,2.266015229156312025e-02,7.108655598588059510e-02,-5.441279695411725681e-02,1.707863807678222656e-01
6.288718589955130112e-01,6.738028707667653716e-01,5.931517902671075149e-01,2.778043896529303752e-02,3.400024326798978258e-02,-2.254807495464816736e-02,1.104907840490341187e-01
5.628890457419130078e-01,6.688223234539776296e-01,6.158569510479503517e-01,2.464435300743844648e-02,5.392623040366382320e-02,-2.531151808650039525e-02,1.445149183273315430e-01
6.110301147023405877e-01,6.727024553546916419e-01,6.319144147173890724e-01,1.645778843059923779e-02,3.005098213221837553e-02,-1.803403659134156234e-02,8.630809932947158813e-02
6.061338846774950717e-01,6.720137389723233046e-01,6.108281335646200683e-01,1.575266074151498302e-02,2.084253744757522814e-02,-1.662855767629839790e-02,8.324743062257766724e-02
6.016187526202545488e-01,7.710850979243317749e-01,6.261509304988791547e-01,4.191147232927740218e-02,1.375375684016589828e-01,-4.722927768253976782e-02,3.063895702362060547e-01
5.169510623745465772e-01,6.657562610666331038e-01,7.573572874232203933e-01,7.822686129651928999e-02,-4.378233961263183066e-02,2.035693675821227677e-02,2.636601328849792480e-01
4.895100776569857315e-01,6.038967543521956971e-01,7.105733424923438291e-01,1.271195393278995167e-01,-3.772748424375605564e-02,2.940154602642230247e-02,3.033284842967987061e-01
5.075915582036080176e-01,6.940157857877460312e-01,7.274130686488362585e-01,1.287260893970659792e-01,1.964215965165557951e-02,1.496920732768425993e-02,3.060005307197570801e-01
6.334808799720266226e-01,6.613240327061971069e-01,6.182164743246274519e-01,1.049496440516429867e-02,-1.922927584985089158e-02,1.244265365473254739e-02,5.777057632803916931e-02
6.421764206890417936e-01,6.426635622322118824e-01,6.166601877087695138e-01,1.287042051496134487e-02,-1.577422425255662133e-02,1.250625911946651354e-02,4.874819517135620117e-02
6.551908223657736396e-01,7.057603279439776944e-01,5.285206386738755535e-01,3.040254161759728922e-03,2.209110826589704563e-02,-8.575285781939091800e-03,1.634645164012908936e-01
6.769887175195535844e-01,6.964311707256056749e-01,5.519603972498403621e-01,4.773437352753704885e-03,2.653209699183399495e-02,-3.113949568402769267e-03,1.437019556760787964e-01
7.194605538582082849e-01,7.080529979210015146e-01,4.914797753609536635e-01,1.338794808331331999e-02,3.003009595250615005e-02,-5.622556279766197963e-03,2.298752665519714355e-01
7.155214151674440526e-01,7.215158115646052028e-01,4.955875865163210658e-01,3.099499119411880041e-03,3.588067821716330735e-02,-1.151445695781153945e-02,2.324091941118240356e-01
6.822435515080094159e-01,6.940103219264325274e-01,4.991802208965543941e-01,1.642188690253271188e-02,2.820590419168409607e-02,-1.191842882054024513e-02,1.985613405704498291e-01
6.799322984873044096e-01,6.904741215073548766e-01,5.080388491955304398e-01,1.091850139260058632e-02,2.962668611317246029e-02,-1.723468091514247444e-02,1.880226731300354004e-01
6.772330618686999149e-01,6.945557324147573208e-01,5.266974395658754471e-01,1.042867092272386012e-02,9.014798846773303467e-03,-1.126858664586198079e-02,1.628488302230834961e-01
6.714354694136215329e-01,7.068007625671430816e-01,4.948322577937234179e-01,9.619214749070761211e-03,4.084298120615939554e-02,-7.186950886824923501e-03,2.100524157285690308e-01
6.544792510458740109e-01,5.020566199505249738e-01,7.136168543669799691e-01,-8.401114940669614228e-02,-6.509625486290229225e-03,-2.681597059552032897e-02,2.433143258094787598e-01
5.584540600104039854e-01,5.500728588798006191e-01,7.032274159078931719e-01,-1.226240707614240782e-01,-3.433407655587696755e-02,-4.535237717306867672e-02,2.775967121124267578e-01
5.646222380518634010e-01,5.718698140258252627e-01,8.025213329540432650e-01,-1.164839403570124970e-01,-2.189979402382263851e-02,-4.463624165381113555e-03,3.116543292999267578e-01
6.621374294636508395e-01,5.447911767805228012e-01,7.208095841624421185e-01,-1.373376615954448321e-01,8.393908954693102623e-03,-4.049246896808744722e-02,2.929380834102630615e-01
6.526749437919620034e-01,6.017113135495346654e-01,8.073044598635998881e-01,-1.524040088403375570e-01,-4.895905748741393414e-03,-9.548276813625800052e-03,3.231322169303894043e-01
5.818867806266364573e-01,6.845437229715128913e-01,6.299006331996623853e-01,7.959971410632836475e-03,1.959025382582506650e-02,-8.856331819134165284e-03,9.742455184459686279e-02
5.659189490074125750e-01,7.836610428789496652e-01,5.798448032037645250e-01,8.116619448119422042e-02,1.471640460476404400e-01,-3.962513477298923448e-02,3.660865724086761475e-01
5.868275241599898440e-01,7.155303552719288751e-01,6.164497038558665043e-01,1.582282373658410249e-02,8.444328507225409841e-02,-2.996151036518907712e-02,1.961264908313751221e-01
5.489223915027690026e-01,6.704989262966041252e-01,6.691697535280967113e-01,2.599032934565131958e-02,4.329874183638296459e-02,-1.819164001610259346e-02,1.525275856256484985e-01
4.933321640431458932e-01,7.136789875081767098e-01,6.710688124989467873e-01,3.267793162115673750e-02,1.394717948852790268e-01,-1.981587398449725229e-02,3.220528364181518555e-01
4.764408767519527355e-01,7.711040569120788390e-01,6.578241079863346163e-01,8.366452145942136764e-02,8.605924449333926529e-02,-3.425525264219005106e-02,3.361806273460388184e-01
4.457353494790887716e-01,7.456252051040526130e-01,7.730369667315094562e-01,1.119118990022708454e-01,1.141597253426120812e-02,4.330576650422913315e-02,3.774861693382263184e-01
4.734930033885492717e-01,6.198228503940644840e-01,7.004007730149549582e-01,1.211539089427594723e-01,-2.912285811641221814e-02,1.007078549857069218e-02,2.942442297935485840e-01
6.587180035105945075e-01,6.273121280450186799e-01,5.910426517566353954e-01,-2.623755070642048992e-02,-2.376319416362671771e-02,-3.666138871649745473e-02,1.059827655553817749e-01
6.289153239186394684e-01,6.302626064947423057e-01,6.241428262105899183e-01,-3.730291161537234446e-02,-4.178860915953230837e-02,-4.159195989265318527e-02,1.209714040160179138e-01
6.332500639979334878e-01,6.770364279470209024e-01,6.279775471432846867e-01,-3.486039158978958968e-02,-4.150543542945912129e-02,-4.373916056827196336e-02,1.293410062789916992e-01
6.818072390689912110e-01,6.042057997794252344e-01,5.157566969735473128e-01,-5.141949001476679021e-02,-6.637887786102165955e-02,-1.156106996950977822e-01,2.862810790538787842e-01
6.732536081962587904e-01,6.417785045595296722e-01,5.502624434777133589e-01,-2.819124120916870896e-02,-5.051179985682860418e-02,-5.714213113468475519e-02,1.791105270385742188e-01
6.869298335834570501e-01,6.524405423548952365e-01,5.520438427659012381e-01,-3.851910582482337420e-02,-5.288749216804533582e-02,-5.484057201278368099e-02,1.913021355867385864e-01
6.558489705591984409e-01,6.794961620330890462e-01,5.505618036313332242e-01,1.762024347630507248e-02,1.977951201233588488e-02,-1.002297742773950243e-02,1.286110728979110718e-01
6.119401569774605143e-01,6.557678869977895397e-01,6.210437555704965140e-01,-1.281270219041608094e-02,2.081981638678687130e-02,1.599056818881780875e-02,6.453479826450347900e-02
6.155934331997624520e-01,6.451181263338866545e-01,6.371388543399372217e-01,-7.644483356371743407e-03,3.716555718106040636e-03,1.117383691221857100e-02,3.593198210000991821e-02
5.764502225878430641e-01,6.590530343386712397e-01,6.547303781860175365e-01,-1.097724014977740845e-02,1.028421023585662092e-02,1.774927020854646931e-02,9.004860371351242065e-02
5.994323605914330111e-01,6.662275589080078886e-01,6.386239638557468234e-01,-1.269486076650606747e-02,3.329320640999271219e-02,1.997504483267384390e-02,9.157274663448333740e-02
5.933600488669219519e-01,6.393249401064764470e-01,6.565735069431433146e-01,-8.257897180217259672e-03,8.386050131281130859e-03,1.450384815239222705e-02,6.519013643264770508e-02
5.983993435651380199e-01,6.941667755413947205e-01,5.612602020388475221e-01,5.813823434133781609e-02,-1.507681048896093723e-01,6.510138716273168591e-02,3.242764770984649658e-01
6.616178433364335865e-01,6.862421079567927462e-01,5.411667918146356726e-01,1.102496935597938738e-02,3.901166568028339998e-02,-2.537848115793675183e-02,1.579348295927047729e-01
5.742647055528140587e-01,6.915625356056488426e-01,6.304538480916664911e-01,1.630268217905212272e-02,-8.313176620415559104e-02,1.274708783788358266e-02,1.798405051231384277e-01
6.058330994311086348e-01,7.164740320991710432e-01,6.430685724494880073e-01,3.927834199042184310e-02,-6.302349840875431930e-02,3.327076245013767947e-02,1.713861376047134399e-01
5.022478870787993044e-01,7.241225752666075044e-01,5.924113174690847083e-01,2.681826446900138772e-02,-1.441984340191206360e-01,8.026593576995441279e-03,3.195048272609710693e-01
6.410249911240142318e-01,6.319693618067531160e-01,6.333579976552996538e-01,-7.627147496439208888e-04,-1.346352928189731768e-03,6.239010365588004226e-04,8.927973918616771698e-03
5.792960802902787920e-01,7.318293653312002434e-01,6.183895743295459990e-01,2.589339474935405117e-02,-8.542950990339991113e-02,4.255423918821465458e-03,2.068622261285781860e-01
6.543324123883339505e-01,6.591667595892549691e-01,5.674172522545677388e-01,1.537422972328464366e-02,1.704805729855861027e-02,-1.597522972754195775e-02,1.017075553536415100e-01
6.391001897550835364e-01,6.212573132379530794e-01,6.159444685719825952e-01,1.517070822303473107e-02,-1.705842365333909774e-02,1.381099508363833883e-02,5.076457932591438293e-02
6.261482486323305396e-01,6.408872756169416984e-01,6.265752803437835139e-01,9.430495574023775238e-03,-9.710191474062603370e-03,9.471170840934128865e-03,3.209209814667701721e-02
6.313340016235859942e-01,6.367005587190364135e-01,6.324206177729859712e-01,3.287528482062655917e-03,-4.444766474230634097e-03,5.005901729089976861e-03,1.382091920822858810e-02
6.275423019635683053e-01,6.240627729865659834e-01,6.252100636938812128e-01,9.117442631170685069e-03,-9.646454931064698049e-03,1.067346521768906820e-02,2.966050431132316589e-02
6.412563373006123779e-01,6.386467879798818359e-01,6.200411420700738807e-01,1.803225949031204978e-02,-1.584053427686295951e-02,1.967800322116488101e-02,5.737123265862464905e-02
6.354561103535337763e-01,6.323687869272694995e-01,6.313402057535425493e-01,3.343535510971913129e-03,-4.360013628807404840e-03,2.965793025946684893e-03,1.143327355384826660e-02
6.440759366488952864e-01,5.400425472731473775e-01,6.201843937639893722e-01,1.036714961189835610e-01,-7.812164356494223638e-02,1.090334495199232201e-01,3.084240853786468506e-01
6.672224404044915236e-01,6.399621003422492072e-01,6.065193398036820005e-01,2.500699766918336800e-02,-5.945116952277994943e-02,5.487280535020799821e-02,1.558385491371154785e-01
5.896238807359057699e-01,6.051411756831718280e-01,6.936968453375534915e-01,9.611581384631204261e-02,-4.612141666142453161e-02,6.145536524340492607e-02,2.342725545167922974e-01
6.309316680703713764e-01,6.066404467400292599e-01,6.344316198445872912e-01,2.859718217745171875e-02,-3.140633435758669045e-02,2.778453469273945223e-02,9.173735231161117554e-02
6.340834498758737281e-01,6.035404264504039551e-01,6.460707446363338491e-01,4.272886627579530749e-02,-2.582168955099499452e-02,5.929836346430897298e-02,1.395318359136581421e-01
6.402844123713550273e-01,6.070036843695360007e-01,6.704639137585844955e-01,5.206031242572869977e-02,-3.903687991321140582e-02,2.071202987805524642e-02,1.304309517145156860e-01
5.773327564293498915e-01,6.470280908969658906e-01,6.963695153554939621e-01,2.520235617355373603e-02,2.013448722395620467e-03,-6.167768974485814647e-03,1.129718795418739319e-01
6.156006730062648646e-01,6.528977930131460994e-01,6.269138350304951368e-01,2.949851225002665667e-03,1.603015238688890870e-03,-6.562743604117881810e-03,3.549841046333312988e-02
6.147032219849956070e-01,5.601916058173821433e-01,6.784291105773064823e-01,4.831520504964950669e-02,-1.624650685071683115e-02,1.846168961614768483e-02,1.390098333358764648e-01
6.329119898482827855e-01,6.188055661761602266e-01,6.265389360298840860e-01,1.361511999367186754e-01,1.191230449354661186e-01,-6.155004476496112042e-02,3.312057852745056152e-01
6.874375838296504782e-01,5.874613831137730502e-01,6.362463311648628439e-01,2.752512836535050272e-02,4.394563795990009958e-02,-5.528617587370654451e-02,1.572708338499069214e-01
6.973770278873364648e-01,6.345923656002169233e-01,5.147668497474076066e-01,2.507252025150919633e-02,2.448928357982750950e-02,-7.732178083299255655e-02,2.178171575069427490e-01
6.733680093870852978e-01,6.697993154993026055e-01,6.210701830863110118e-01,4.493678183879047661e-02,6.186810076924866009e-02,-6.327506713220881762e-02,1.792018264532089233e-01
6.821248275982725318e-01,6.767361477784870072e-01,6.096724762205666392e-01,3.681603904269290656e-02,5.994069260837609631e-02,-5.736177055064160812e-02,1.720581203699111938e-01
6.669610561458542142e-01,6.312315334085296659e-01,6.235375983073087047e-01,1.360200829945147280e-02,1.173295972321299410e-02,-2.313258773288890541e-02,6.468444317579269409e-02
6.938908834805759263e-01,6.204339383595272039e-01,5.981248871609974316e-01,1.122966436852263217e-01,6.465783344024024493e-02,-1.090123885607982845e-01,3.058708608150482178e-01
6.860809966222711775e-01,6.504055741522827283e-01,5.778958305542674090e-01,4.772553486289851654e-02,5.201269944907210147e-02,-1.331048741866135421e-01,2.778796255588531494e-01
6.856739233400863665e-01,5.564153973428990207e-01,5.664184780993828383e-01,5.870508843225806517e-02,5.259280651780350729e-02,-1.204866225049173040e-01,2.787522077560424805e-01
6.490068180276451493e-01,6.602942542309020446e-01,5.404583012982541179e-01,2.613544283707661467e-02,5.498858345822852517e-02,-4.082910935067270153e-02,1.710464507341384888e-01
5.326458422694875239e-01,7.146030443587824132e-01,6.465229963952452419e-01,4.322374521232120320e-03,2.737970457818354394e-02,-1.105319762076142215e-02,1.674131900072097778e-01
4.776363557601855381e-01,7.456084766514230466e-01,6.865361313105011742e-01,4.204869595909704189e-02,5.752640782484206433e-02,-1.544500583056855267e-02,2.746209204196929932e-01
5.271903211026893743e-01,6.948178633950674588e-01,6.956285341140193701e-01,2.087695057786733907e-02,2.572137875296505796e-02,-6.588168541571871699e-03,1.779271215200424194e-01
4.788652012523835211e-01,7.189978182776307625e-01,7.054625783095662683e-01,1.069263252053482584e-02,3.850546726003543918e-02,-7.462937575954579385e-03,2.440383583307266235e-01
4.909988093658579356e-01,7.093875739632714561e-01,7.237500424726380777e-01,-7.172246994206794325e-03,-6.454021701098561908e-03,9.125557588984176821e-03,2.270807027816772461e-01
5.355848194701451348e-01,7.142797083960267246e-01,6.904800706589515613e-01,-1.803896381925185091e-04,2.191309701754414960e-02,-2.405858357639968723e-03,1.723468154668807983e-01
6.920873725447138636e-01,7.291239635915417461e-01,5.123846413775757780e-01,-2.973069653214516564e-02,1.667737885230184958e-01,1.257655849808466883e-02,3.562121689319610596e-01
6.260088402255130635e-01,7.871078520279657376e-01,3.495069653987135094e-01,1.052807842407941022e-02,2.362010696866513604e-01,-2.676315922814353002e-02,5.628538727760314941e-01
5.694074615432481723e-01,7.100746690616555057e-01,5.153796880776628786e-01,1.458176792117417062e-02,1.311370675378420725e-01,-1.943890587624547833e-02,2.892550528049468994e-01
3.456602492250712699e-01,9.627739075049441819e-01,8.215905613514999928e-01,5.389742753761853078e-02,-2.629193305635141309e-01,1.566091826277249410e-02,7.283310890197753906e-01
6.740012965003140399e-01,6.132710278891168043e-01,6.524795543653411078e-01,-5.022106516052187580e-02,3.279169333605176651e-02,7.229339800530051874e-02,1.712182462215423584e-01
6.904419828118423252e-01,6.037660327516948255e-01,6.560574241401381235e-01,-5.057766598264273189e-02,3.980114677226697512e-02,7.343978349607307998e-02,1.852609068155288696e-01
6.665365757393661994e-01,5.988351547275986286e-01,5.978719055284287265e-01,-6.420871931119555287e-02,7.076199626156001732e-02,1.005407414562872331e-01,2.497298568487167358e-01
6.538759376796472456e-01,6.013596750421089654e-01,5.779000698035585692e-01,-9.322877443884344806e-02,1.334620791350683566e-01,1.115820105598011869e-01,3.484295606613159180e-01
6.129662016785206724e-01,6.144274882811322502e-01,7.042380265908357861e-01,-1.548455076239250439e-01,9.177253980399290023e-02,1.108961517034691424e-01,3.772150278091430664e-01
6.381961805026832302e-01,6.076176137644202502e-01,6.719921491487198528e-01,-5.756195226404486193e-02,4.731322151053935637e-02,5.757888539476949813e-02,1.723728179931640625e-01
6.497098794019153800e-01,5.099388926312313775e-01,6.214999298455679000e-01,-9.933758251851841636e-02,6.690399275617729680e-02,1.211933952922748803e-01,3.216902315616607666e-01
4.928979992240387076e-01,6.905362325005259816e-01,7.282760490501072326e-01,-2.730342806963477129e-02,4.351391747365199701e-03,5.181828769040905912e-03,2.243162542581558228e-01
6.720130938139076138e-01,5.968698495838868912e-01,6.386298280643171177e-01,-4.327835095202179488e-02,5.779632720711862237e-02,6.348301076859523551e-02,1.788378953933715820e-01
6.456202475187022838e-01,6.437223273699594905e-01,6.089187667525188807e-01,-3.447289212140942916e-02,4.230241699775044717e-02,3.612098452087580264e-02,1.188643947243690491e-01
5.444934201918671945e-01,6.443805667392553671e-01,6.947884414876037695e-01,-6.035516311649184035e-02,1.333080800515510159e-02,-1.453544260705084664e-03,1.703560948371887207e-01
6.739369931584774376e-01,5.825118259174798530e-01,6.314875362515278701e-01,-2.864514944645051367e-02,3.280499701583599464e-02,4.061850448378478279e-02,1.300741881132125854e-01
6.470695014191203409e-01,6.132045786656775688e-01,6.195292332166336680e-01,-1.303915460044773045e-02,1.376156263334674112e-02,1.534319480633043395e-02,5.250801518559455872e-02
4.436510630968418800e-01,6.980269297774673865e-01,8.021009022275200628e-01,-7.880390927763024356e-02,-1.888618197497145268e-02,-2.089383223272707132e-02,3.507452905178070068e-01
6.708311864988516504e-01,6.156681957440361952e-01,6.147210963604042844e-01,-1.572989345310864956e-02,5.472452692417276339e-03,1.893016585041644786e-02,7.073388993740081787e-02
5.697424940752376932e-01,6.631115140171464084e-01,7.215495594870979801e-01,6.975183761439796015e-02,-2.476537610903831871e-02,1.881905748449309856e-02,1.873165220022201538e-01
5.808032461576000394e-01,6.303585998432754689e-01,7.159538868837371783e-01,8.351465661849803712e-02,2.208565275327218497e-02,-1.668538977787664343e-02,1.929938346147537231e-01
6.363350228863922098e-01,6.332321941409433386e-01,6.319961973306293945e-01,1.046558020507126112e-03,-5.998418266602817232e-04,6.487630384761878480e-04,4.540735855698585510e-03
6.020360108439843927e-01,6.006537151150030951e-01,6.946633326185447377e-01,2.762490522396579898e-02,1.395476025188825513e-03,-8.270465831562332296e-03,1.058783233165740967e-01
6.013996514653355829e-01,5.973961591945842198e-01,6.840416706335695762e-01,2.867937110372104775e-02,7.402950772449954199e-04,1.929864560225669125e-03,9.826964884996414185e-02
5.972783691391493344e-01,6.281842601361630196e-01,6.952625855814987821e-01,3.355684346167261273e-02,9.694614223878695800e-03,-6.088084841743239897e-03,1.062973514199256897e-01
6.167149423952010823e-01,5.490562981266530196e-01,6.892752473706562633e-01,5.780718044505044756e-02,-7.798448358912198064e-03,5.757357854207830611e-03,1.583001017570495605e-01
6.029488864777403645e-01,6.184465983397581246e-01,6.857072586274497450e-01,3.707852458802703838e-02,5.915122682252844152e-04,-3.582550928142690517e-04,9.966166317462921143e-02
5.889262965500573488e-01,5.741102229340878660e-01,6.933537341609525839e-01,6.415930901004286702e-02,8.374895240021220169e-03,-6.529138812510117650e-03,1.592462509870529175e-01
6.605626601790378638e-01,6.526662987995681675e-01,5.656264870453210358e-01,2.425187126422365808e-02,-2.852913354288499903e-02,3.292971300560446762e-02,1.256378591060638428e-01
6.652535363926309619e-01,6.063296695613119569e-01,6.031769559460862240e-01,9.929854568937700882e-03,-9.489729956896212140e-03,2.270475376867571449e-02,7.602775841951370239e-02
5.068075810712491247e-01,7.147418199944848283e-01,7.021060150287662394e-01,8.592590293499449347e-03,1.192535775677492499e-02,1.364383145297334973e-03,2.035254836082458496e-01
5.536210382643468320e-01,7.012410166756728458e-01,6.707761188771104166e-01,3.197763258966678651e-02,4.423360071395498333e-02,-1.133892798252931523e-02,1.659692674875259399e-01
5.204115163484100970e-01,6.880712373455053488e-01,6.524339924832877058e-01,8.978504768913649764e-03,4.685980235371637465e-02,-8.096398043039442979e-03,1.744444966316223145e-01
5.050273367093364163e-01,6.919071564727238277e-01,6.830573226850544799e-01,2.491279043220110886e-02,2.659884843623934458e-02,-1.691308661421316722e-02,1.954254955053329468e-01
6.713336753025586079e-01,5.895518439313077730e-01,6.266601891556422554e-01,2.736961589054459285e-02,-2.760246299363349268e-02,3.549986432795206037e-02,1.155171245336532593e-01
6.691697630664249496e-01,6.102739496109459427e-01,6.072059283482326153e-01,1.587603435216057568e-02,-1.026187160762721817e-02,2.314553872773203111e-02,7.961177080869674683e-02
6.447002863927268068e-01,6.196776140231391450e-01,6.400428816297043522e-01,1.328067627444558252e-02,-1.720783343897336684e-02,1.602053816601483119e-02,5.214130133390426636e-02
6.240485530776194167e-01,5.909615012160920333e-01,6.515272561571421317e-01,3.873955569296470142e-02,-2.730796764930410597e-02,2.553382633508691213e-02,1.070251613855361938e-01
6.591511065948502113e-01,6.150971669706484235e-01,6.414105137963207470e-01,1.121069473895221040e-02,-1.289269686385519434e-02,1.751456871243197919e-02,5.718320980668067932e-02
5.683216141732979620e-01,6.632399574584934010e-01,6.696974612625222756e-01,8.510821923970057767e-02,9.089220187493235459e-02,-2.384114740946314745e-02,2.405903786420822144e-01
5.951646147363318651e-01,6.489920051635138520e-01,6.441072944983884385e-01,8.899158354233520363e-02,6.870374868029646698e-02,-5.162823639238852541e-02,2.203947901725769043e-01
5.335335761705547464e-01,6.671738070264781051e-01,7.101904050503921040e-01,6.443722079896374577e-02,4.618665360545647774e-02,-3.965114721124377017e-02,2.214308381080627441e-01
5.172623918239133145e-01,6.807552925783277864e-01,7.253127552610516560e-01,6.414770544622844239e-02,-5.200062242219636796e-03,4.201937846077265747e-03,2.201794683933258057e-01
4.847176424048202925e-01,6.857019875020662347e-01,7.477111073183184686e-01,-5.900831557104350977e-02,-7.922895590484995212e-03,-5.752629766593972752e-03,2.596848905086517334e-01
6.280036857360483671e-01,6.246223443985224888e-01,6.605160315785890690e-01,4.888562965076410916e-02,3.199132623311904539e-02,-1.968431513918974043e-02,1.121632158756256104e-01
6.602203367653014521e-01,5.513270830017090729e-01,6.667773868048045838e-01,4.174194841458513106e-02,2.291125267553854872e-02,-4.712077791792514819e-02,1.614862382411956787e-01
5.692914178170277451e-01,6.146043091179269613e-01,7.044970216959824949e-01,5.609413704161223674e-02,3.357803457685326620e-02,-1.818456362061855736e-02,1.673959493637084961e-01
6.317099880808684231e-01,6.397819738170948956e-01,6.336363077644053821e-01,-1.554761180955474553e-03,3.587572236488983587e-04,3.223374101548392295e-03,9.598271921277046204e-03
5.898050531390818252e-01,6.176652715283085238e-01,6.562207618118244268e-01,3.458915880009065524e-02,2.279917223227021991e-02,-2.167908352186887974e-02,9.947595745325088501e-02
6.694632883563540471e-01,5.968527103705024706e-01,6.226638372364149410e-01,3.197707366520387978e-02,2.957740315552078586e-02,-5.441333308948757830e-02,1.365241706371307373e-01
6.738438804093770385e-01,6.292121275282247517e-01,5.896051077672854746e-01,1.105479016831240578e-02,9.973258926618362372e-03,-1.523622540805168180e-02,8.179175108671188354e-02
3.085508665924373006e-01,6.887686765995422178e-01,7.745443851471609520e-01,-1.526618275147603454e-01,1.154561707771706580e-01,6.032244897189349697e-02,5.525940656661987305e-01
6.352700671569462276e-01,6.682558150021734589e-01,6.349810081495660397e-01,2.959882151091887403e-02,3.765701290762869108e-02,-2.759080666043943128e-02,1.013107001781463623e-01
6.242173748706896230e-01,6.765720472973908439e-01,6.011876254581201007e-01,2.539122499133586106e-02,7.304388723477883705e-02,-5.422214819535304403e-02,1.767416000366210938e-01
7.109579996640272848e-01,7.080847876627998083e-01,5.615075250969145948e-01,8.645625923694037762e-02,1.500080915912519186e-01,-1.078449005124916538e-01,3.830629289150238037e-01
6.632346179818621179e-01,6.041981378942442582e-01,6.376641264843844192e-01,2.357752474984425167e-02,3.192088515216891242e-02,-3.027847743762537847e-02,1.005208939313888550e-01
6.384756871959613722e-01,6.384248576424886856e-01,6.350452732750737628e-01,2.784048325141135968e-02,3.432472639879759202e-02,-2.346155613115384272e-02,8.673389256000518799e-02
6.373441840536846481e-01,7.232806438828465190e-01,5.280956395256829472e-01,9.171570847549637140e-02,-1.620258605930997020e-01,6.260410089795043209e-02,3.800776600837707520e-01
5.690165476046448179e-01,7.054773732423015309e-01,6.255048560760245735e-01,5.184931929248376425e-02,-1.266882720118796546e-01,9.498746722052194003e-02,3.120684325695037842e-01
5.772390943463139301e-01,6.545621768807317054e-01,6.295953326546972484e-01,8.521248944136293468e-02,-9.871050645336360008e-02,7.700095475344877205e-02,2.710607349872589111e-01
4.007242946851304888e-01,8.569269184334706857e-01,7.639587158913815346e-01,-1.883173663129910150e-02,2.506828968928878631e-01,-4.434891053554822909e-02,6.081461310386657715e-01
4.731172519333909920e-01,7.061900403379319791e-01,7.539282135128094753e-01,1.255379734210965992e-01,1.153398822577589578e-01,-6.871049099950746197e-02,4.111945331096649170e-01
4.188876257575981921e-01,8.081178260231494104e-01,9.327827949640328242e-01,2.701366862567575744e-01,1.386494050882213780e-01,-7.587461072101721327e-02,7.137423753738403320e-01
3.953095158846345880e-01,8.030003001523964290e-01,7.159163886564203771e-01,2.744093253556509904e-01,1.797894233912969431e-01,-7.899543218578863879e-02,6.927388310432434082e-01
4.371761226726058602e-01,8.456065030467000421e-01,5.108658886229365814e-01,7.670469594564738314e-02,2.574521132203672624e-01,-7.668753210362505568e-02,6.134223341941833496e-01
4.448324867237806179e-01,6.964917376249679659e-01,6.552147996692138099e-01,1.341041313058273510e-01,1.534222160610735075e-01,-8.231050745610728192e-02,4.466994404792785645e-01
4.005023467518493141e-01,7.555621667378714656e-01,6.644552595808584927e-01,1.290073333272747369e-01,2.187479611469968777e-01,-3.803519938500224407e-02,5.475767254829406738e-01
4.543537493366824886e-01,6.995654761732261750e-01,7.107447591755767791e-01,2.091016843494189759e-01,2.348645354009530062e-01,-2.196033565473596016e-01,7.101595401763916016e-01
6.210346635550887395e-01,6.012279841260117497e-01,6.304497829161187505e-01,-5.495010983992611869e-02,4.279416333394572142e-02,5.298433021111549623e-02,1.537595987319946289e-01
6.608347684097473085e-01,6.131523332328079334e-01,6.111407604072844890e-01,-1.206658498612795533e-02,1.080393547270173775e-02,1.726788346217485171e-02,6.367966532707214355e-02
6.601157261562488054e-01,5.954872328407424531e-01,5.783912386991235666e-01,-5.860560126120711172e-02,5.847772447270108837e-02,1.068660671572841808e-01,2.457597553730010986e-01
6.849274126929072448e-01,6.491328065409275316e-01,5.786257610046283695e-01,-2.748880132545444832e-02,2.830937579563091999e-02,3.960619255936011218e-02,1.347344964742660522e-01
6.806173314318578749e-01,5.978326376054901026e-01,5.961666343783107447e-01,-4.231621487703483148e-03,6.173807216383011241e-03,2.725670810821593723e-02,9.690640866756439209e-02
6.830205562794446905e-01,6.274681139493074600e-01,6.002993419213821236e-01,-8.778038522878275560e-03,4.872964380699944253e-03,3.269981967727262490e-02,9.404116868972778320e-02
6.334172309773348220e-01,6.299174811441559108e-01,6.359020863450658423e-01,1.830038804481474253e-03,3.671339217320115488e-03,-1.954203679033031903e-03,9.437117725610733032e-03
6.622563154065773672e-01,5.808765150773012031e-01,6.199943216147891789e-01,-3.536234829313660705e-02,2.195549792041589371e-02,3.689209468786120577e-02,1.193740963935852051e-01
6.663172851422958232e-01,5.894013354244963532e-01,6.317046236598186093e-01,-2.909725995654892025e-03,1.524751440705566542e-02,1.665333186879572672e-02,7.750286161899566650e-02
6.908126370713384423e-01,5.988774373214541535e-01,6.240854284060864954e-01,-1.644318891409428038e-02,1.500923690977927841e-02,3.465942648775625912e-02,1.089073792099952698e-01
6.636679462900488824e-01,6.193564245502951593e-01,6.173436293271157282e-01,-1.019580120285331661e-02,8.136045998296427897e-03,1.152588762290890530e-02,5.445860326290130615e-02
5.554834826366787937e-01,7.787728174364990652e-01,6.795319269318326194e-01,-2.605154090306063125e-02,-1.500955915701154275e-01,-8.026925305897126064e-03,3.276627063751220703e-01
5.705179173188243968e-01,5.951057426958282770e-01,6.887593303044324822e-01,5.723519208729550140e-02,-1.357975154010532606e-03,3.312715501166345767e-03,1.467799395322799683e-01
5.751284140347191487e-01,6.657114536154090656e-01,7.088290337173513977e-01,4.765141091648442823e-02,-1.660538821974499868e-02,2.025108916013263968e-02,1.511279046535491943e-01
5.579062511622883136e-01,5.759125352488559946e-01,7.007187133896044529e-01,1.174825517191453589e-01,3.602044108696968866e-02,-2.244212921947653927e-02,2.548684179782867432e-01
6.241603245741776940e-01,6.561938152156108206e-01,6.315120807692643501e-01,7.417337093434402118e-03,6.547296775371268251e-03,-3.721317033054340109e-03,3.434948250651359558e-02
5.895417252169348199e-01,6.548110963918798433e-01,6.766518705020561075e-01,5.748526101931224208e-02,-5.180894410322096216e-02,4.612841752973139559e-02,1.746777147054672241e-01
5.504671594073902163e-01,6.131698505359535201e-01,6.935802638479209303e-01,5.941814659432179818e-02,-2.282598665600943117e-03,5.375485168276295835e-03,1.616578996181488037e-01
6.396139628336416916e-01,6.163924993504652505e-01,6.954309739015384073e-01,5.892348589132240938e-02,-2.882582870672754580e-02,3.316768759338807604e-02,1.454645395278930664e-01
6.411556139806123822e-01,6.334820643357288450e-01,6.127196739869555930e-01,2.577980071508258197e-02,-3.137874593073654989e-02,2.560047434995278703e-02,8.696611970663070679e-02
5.231951356798493213e-01,6.286758685593475393e-01,7.522425534270039682e-01,1.110074667358107725e-01,-7.098853378923512814e-02,1.756641639682240963e-02,3.040405213832855225e-01
6.301215975666349944e-01,6.413258617494843605e-01,6.329732409124643189e-01,1.386950548726021944e-03,1.460780118585790937e-04,3.381476173621133542e-03,1.191028486937284470e-02
6.320908842842962727e-01,6.788011792517792964e-01,6.221078681165702617e-01,4.158438491379957275e-02,5.632164496997591613e-02,-2.462377829059347184e-02,1.388199478387832642e-01
5.615773675619935013e-01,6.663010986457464924e-01,7.033690241719225966e-01,6.944206383604963062e-02,1.419082731210959680e-01,-9.247748469710653785e-02,3.417012095451354980e-01
5.691496801316540122e-01,7.146904392011859120e-01,6.201578662883104887e-01,1.843250528550633566e-02,5.135375436542397726e-02,-2.382951901145325541e-02,1.643003672361373901e-01
5.462019199706136252e-01,6.643862650133134373e-01,5.626869854966527473e-01,7.476649295061463252e-02,1.281600522688834121e-01,-7.577315946757390286e-02,3.091291189193725586e-01
5.486020013254956362e-01,7.291062479619369041e-01,5.616207500411595221e-01,5.145170729971982465e-02,1.319331686843678297e-01,-6.590037521007244270e-02,3.218552768230438232e-01
6.246438658664296151e-01,6.844050426200947168e-01,5.556328026294455880e-01,9.390443616490417797e-03,5.669264507695931377e-02,-1.412628821940999958e-02,1.515370309352874756e-01
6.965156829240857217e-01,7.591711284748723365e-01,5.843441602525629719e-01,4.945181038863150774e-02,1.446404012405841655e-01,-7.568071358431054108e-02,3.328933715820312500e-01
5.510436229336039826e-01,7.332037121551258085e-01,5.548086066186059817e-01,1.885039662973401683e-02,1.545080224177363959e-01,-2.856625121181780025e-02,3.280898332595825195e-01
6.946185304932444016e-01,3.822621556633952755e-01,6.723537223910570626e-01,1.291663830675530977e-01,-9.464683156911923856e-02,1.753117096971454625e-01,5.101335048675537109e-01
7.271373194379550098e-01,4.523288182048632589e-01,7.764482650535160513e-01,1.310132911920267561e-02,-6.960093794309405346e-05,5.465135364830151637e-02,3.177697360515594482e-01
7.289582679582946589e-01,4.668362936108589878e-01,7.793972842921708111e-01,3.990450556605854709e-02,-1.734918496684432002e-02,4.919044966526565227e-02,3.121095895767211914e-01
6.960224291073583425e-01,5.388583196739662462e-01,6.946001444243381506e-01,4.498875373290991270e-02,-1.490151967725972249e-02,4.677237237692982025e-02,1.943711489439010620e-01
7.259205968999302705e-01,4.804567036167467498e-01,7.781909616607988189e-01,7.203534164437309928e-02,2.160249424217946298e-03,4.711822972156075318e-02,3.131403028964996338e-01
7.198907838195981457e-01,4.398161682717375287e-01,7.200471225824455201e-01,5.687453551635928556e-02,2.439205120383333356e-03,1.672348100575780927e-02,2.984067797660827637e-01
7.618367831392884870e-01,4.744831359004231253e-01,7.121634056687546899e-01,6.410627402793425689e-02,-2.264788757868049784e-02,6.375132340071802683e-02,3.111688494682312012e-01
6.981453938304807982e-01,4.875868291312409619e-01,6.906465212411293519e-01,2.479907936111811970e-02,-1.396173627654875501e-02,3.741917968307467701e-02,2.223568111658096313e-01
7.048506428280911784e-01,4.556189761308575559e-01,6.582304927996774913e-01,8.383527138361632214e-02,-3.604196848264102498e-02,7.622194563994177940e-02,3.083539009094238281e-01
6.964081686381741187e-01,6.175276526281603395e-01,6.125197469440638587e-01,-2.536305393196764887e-02,-1.252590210991139791e-02,-7.275022851730904294e-02,1.578625291585922241e-01
5.791893976621671492e-01,6.314376410133479833e-01,6.812564886797394248e-01,1.244733234489071340e-02,-5.039713707011694334e-03,1.146015835611222632e-02,9.354011714458465576e-02
5.936998258388994643e-01,6.380835721682057704e-01,6.825634511030280738e-01,2.937701934221713732e-02,-9.358456691105599204e-03,1.104727297289091401e-02,9.560573846101760864e-02
5.765031657244890084e-01,6.560183429032481195e-01,6.855836935228685203e-01,3.437375929537161284e-02,-2.695975887185668787e-02,2.616631027238384630e-02,1.316314786672592163e-01
5.534291962734920745e-01,6.580749551669529129e-01,6.812007407570248585e-01,1.608103833365239280e-02,-8.777057360960818094e-03,1.448010947068638886e-02,1.246654838323593140e-01
5.690296651617161583e-01,6.582367747315294171e-01,6.639932205257561559e-01,1.482761167067438678e-02,-1.395803408674680356e-02,1.605062621090352221e-02,1.025742813944816589e-01
6.435987721907621140e-01,5.839444833982455618e-01,6.761077547046322467e-01,5.865462367815870576e-02,2.808820462585545283e-02,-6.779296737590119470e-02,1.817425787448883057e-01
6.745214031215188699e-01,6.103971624206963043e-01,6.763812170396091838e-01,-6.007568699107154742e-02,3.917822952297311812e-02,5.864304568719264088e-02,1.731580793857574463e-01
6.179203096921591642e-01,5.743760633641780133e-01,6.917208653687701991e-01,-4.674658642943432807e-02,1.920359733795225232e-02,1.445603577855841468e-02,1.372778564691543579e-01
6.331019789848669754e-01,6.042301255212870759e-01,7.080195381134934962e-01,-9.754843933661380695e-02,1.357286421071117639e-02,8.919859970803488414e-03,1.948016583919525146e-01
6.420910311366487822e-01,6.407276673826408642e-01,6.754247780390101319e-01,-4.093109745802597788e-02,3.035143630732324918e-02,4.222675861711455009e-02,1.195718795061111450e-01
6.358332588356440107e-01,5.807153022376093654e-01,6.681804811443476932e-01,-3.468090714999819829e-02,3.178180784964099864e-02,2.911519029632288202e-02,1.226738467812538147e-01
6.131066216582390371e-01,5.062176228758786811e-01,7.353247678343682869e-01,-1.359781413403739758e-01,3.974696040822350146e-02,3.698366573112758099e-02,3.220858871936798096e-01
6.368382918156316741e-01,6.952865706461275330e-01,4.906042534168990610e-01,-4.042881793260615780e-02,1.046001924138663525e-01,6.860175197189920249e-02,2.918790578842163086e-01
6.946762226563654163e-01,6.964429397080594830e-01,4.688713105135980941e-01,-3.691232070481216543e-02,6.673298487371931431e-02,5.815951602111306407e-02,2.810425758361816406e-01
7.355358621036224287e-01,7.042048548073794878e-01,5.022278995891078512e-01,-2.404253125953152020e-02,1.111034960826312035e-01,6.799153168212382359e-02,3.173942267894744873e-01
6.717907382110819281e-01,7.019782090580880540e-01,5.751996626883255637e-01,-3.190125743077320414e-02,5.515780137675902611e-02,4.128670389089685033e-02,1.745020151138305664e-01
7.094187512100308401e-01,7.217724022386762250e-01,5.241799206460893146e-01,-8.272814111997726927e-03,4.324672511218263099e-02,1.600727784195738954e-02,2.081808596849441528e-01
6.323707929995365795e-01,6.352566214457977534e-01,6.416286079656071673e-01,3.173403322216492711e-02,2.484518557313073264e-02,-3.943865479632639726e-02,9.801294654607772827e-02
5.446137310561781630e-01,7.275449148580827030e-01,6.375840334571123424e-01,-8.958282253432413300e-02,9.727827741590701349e-02,7.885828119784009382e-02,3.101942241191864014e-01
6.326685194767633913e-01,7.324440587668742397e-01,4.983873413307372546e-01,-1.766789196573733539e-02,8.311071953742139862e-02,1.206291597239277785e-02,2.519518733024597168e-01
6.232881165324430928e-01,7.359979925929466260e-01,5.110844846771247507e-01,-2.118743592042519192e-02,1.160466209717924274e-01,-1.292738980457507373e-03,2.822974026203155518e-01
6.997459945752504407e-01,6.806935989373346096e-01,4.112810107211116728e-01,-3.356944573829396400e-02,-8.044454983763940636e-02,-9.958809421822191477e-02,3.614237904548645020e-01
7.194016492258578088e-01,6.976765907337234562e-01,5.247830882330905000e-01,-2.598095386536444437e-02,-3.879859294903895833e-02,-6.695599271451108114e-02,2.326168566942214966e-01
6.008589433662754331e-01,6.747480514213797242e-01,5.366336732908575380e-01,-5.235104339798152262e-02,-1.163116012681998240e-01,-6.193430574953642104e-02,2.732117772102355957e-01
5.501236924223118496e-01,7.030687901131253970e-01,5.752834549435701383e-01,3.203664681580766643e-02,-1.146337365227132338e-01,2.324830062775159675e-02,2.535750865936279297e-01
6.215177567577988560e-01,6.448673316611666095e-01,6.419557383424808750e-01,1.288047005543945661e-02,-1.837663863559450828e-02,1.426555344198776783e-02,5.105913802981376648e-02
6.175856594130465504e-01,6.441881076344262436e-01,6.276721528947946105e-01,1.280608805643364614e-02,-1.281992821782381928e-02,1.439333352520788534e-02,4.634269699454307556e-02
6.082461454150445146e-01,6.493987756854706639e-01,6.385074252165907627e-01,4.065370243199908223e-02,-3.453749112909833968e-02,1.977444073542805256e-02,1.052317619323730469e-01
5.481765145995325383e-01,6.592303153518578318e-01,6.987066688164691453e-01,3.785096791930399329e-02,-3.212898106399517811e-02,1.136601762894767775e-02,1.614242494106292725e-01
5.356705744216939680e-01,7.168235781095733117e-01,7.702876630020359938e-01,1.035432678951753310e-01,-7.094957018099193324e-02,4.711825271641870150e-02,3.150960803031921387e-01
5.127890369217857902e-01,7.878954660932621090e-01,7.369233026532282516e-01,-5.067695783548618188e-02,-8.972742188273792607e-02,-4.783821338886528815e-03,3.101372122764587402e-01
4.935952004084555589e-01,7.767762786148847409e-01,7.455873104258868844e-01,8.000769686951186496e-03,-1.117593298555768777e-01,8.880094349758069563e-03,3.320108354091644287e-01
6.288976842077645957e-01,7.269607585079147505e-01,6.095814988510520616e-01,-2.290387957290243928e-02,-6.958311421144576514e-02,-2.613116379765859781e-02,1.732956767082214355e-01
6.171868823252518732e-01,7.512477570900820689e-01,6.133420462732648293e-01,2.762725297415367237e-03,-7.873857754775349937e-02,-4.301815119208331098e-04,1.926792263984680176e-01
5.485996067355666250e-01,7.250871127583735642e-01,6.517860573886056219e-01,5.529957437742037338e-03,-6.098686074750938463e-02,6.512073106597614583e-03,1.869794577360153198e-01
5.768088050648862986e-01,7.595171159184904708e-01,5.992700214536513803e-01,7.400702612626496035e-02,-1.351046935940361793e-01,7.367485922904897476e-03,3.180200755596160889e-01
4.888911766104753198e-01,6.703943137688382903e-01,7.135241023073020106e-01,-7.789244680511374364e-02,-1.040790226513547551e-01,-4.775388683385675681e-02,3.164997398853302002e-01
5.618163913652644004e-01,6.872076516521014034e-01,5.906156437460884367e-01,-6.005477624857059882e-02,1.129431051971890587e-01,5.473288162467532247e-02,2.664890587329864502e-01
5.678075534034996430e-01,7.891754524379921421e-01,5.808684609985482750e-01,-4.783237587123320700e-02,1.058562127935481489e-01,8.526506748336132313e-02,3.295055031776428223e-01
6.698149376563943269e-01,7.097835098830538314e-01,5.671865276571911307e-01,-3.014463912343936028e-02,6.469389133556256721e-02,4.807301608156697159e-02,1.960791349411010742e-01
6.725599928406768013e-01,6.082704473108253573e-01,6.406745954380747010e-01,-5.246047809764907421e-02,3.654836578512779544e-02,5.771546048796006440e-02,1.592382043600082397e-01
5.547234845782328394e-01,7.142635995536772420e-01,5.430150147258718807e-01,-2.657221621208659748e-02,1.382475287549337351e-01,2.720769125075402431e-02,2.985536158084869385e-01
6.697369124046119726e-01,7.709851844986309599e-01,5.265838097782284954e-01,1.576994521300312951e-02,1.301180522108034698e-01,1.950588798780828956e-02,3.129179775714874268e-01
6.199481315938051296e-01,6.413624571809685149e-01,6.497443761233230308e-01,1.723586860948218488e-02,-1.486514883203247060e-02,1.627890039283913862e-02,5.529443174600601196e-02
6.099724804794488531e-01,6.124965550972748529e-01,6.659238346881938275e-01,1.747617277599358004e-02,-1.051052292108430389e-02,1.218054230259109187e-02,6.847232580184936523e-02
6.334065503263839325e-01,6.151269515696060619e-01,6.391762350245222546e-01,4.240482550065620415e-02,-2.425975021672106477e-02,4.282021992807035632e-02,1.146024763584136963e-01
6.371488423772908583e-01,6.189257086425350440e-01,6.497902141589315672e-01,2.244410336600690531e-02,-1.860575712674073304e-02,1.555497449748131401e-02,6.322862952947616577e-02
5.867364581665908130e-01,6.311117726373298709e-01,6.621312497413270881e-01,3.729590274643312248e-02,-2.470632258820847083e-02,2.080864976718212189e-02,1.077545136213302612e-01
7.104833202251222835e-01,6.636155625949736736e-01,5.828244647866985817e-01,1.518088694084834302e-02,-1.128702440549256628e-02,5.174523734531285418e-02,1.470257192850112915e-01
7.242711663505873032e-01,6.858199456880315070e-01,5.581935292982855845e-01,6.678424889060363689e-02,-7.835819969502109961e-02,9.416294593701550475e-02,2.847363650798797607e-01
6.715728603511070816e-01,6.741157348465263155e-01,5.332761103623419041e-01,3.004880492501080941e-02,-6.483883129177821225e-02,5.601272396725398561e-02,2.102793753147125244e-01
6.835475106830078973e-01,6.679071369173513739e-01,5.108270699484428468e-01,2.452295224814451946e-02,-4.727090574683921742e-02,6.675113892277907690e-02,2.219244092702865601e-01
7.127994669006844086e-01,7.295607275021203098e-01,4.799395677842740460e-01,-1.813957190856436280e-02,-1.490063934862944639e-01,1.884156474866636663e-02,3.564667701721191406e-01
6.566600678079855813e-01,7.155040990180150384e-01,5.744109464935300835e-01,2.813588781025925384e-02,-7.433266291394295677e-02,8.263768590477988882e-03,1.849951297044754028e-01
6.098370649907060015e-01,6.572216290681726081e-01,5.762461375198346669e-01,3.195269288080763992e-02,-6.619599206608038633e-02,5.283571122434432832e-02,1.718977242708206177e-01
6.495060389824377500e-01,7.323398891267433042e-01,5.617023343401154056e-01,2.710057446466094741e-02,-9.599259580687127813e-02,2.994227239623352757e-02,2.331967651844024658e-01
6.591822164124683248e-01,6.599393985047036226e-01,5.431655571957452189e-01,8.924951886110375765e-02,-1.022372956046406350e-01,1.082882683190111162e-01,3.224610984325408936e-01
6.989339937519704060e-01,6.678312009400471094e-01,5.551993422359360331e-01,3.408636858596385960e-02,-9.262685669523003373e-02,6.661166046090939707e-02,2.443208396434783936e-01
6.418352661257517022e-01,7.091187730320367422e-01,5.994981354041634125e-01,4.098786393615978796e-02,-1.059306030393206699e-01,4.773068732227504080e-02,2.338945120573043823e-01
6.371354757721628959e-01,6.205712897189320509e-01,6.369306222215690427e-01,1.962452434196778304e-03,-8.748934788337546162e-03,3.146213585608988086e-03,2.327879332005977631e-02
6.343786005357557878e-01,7.340674562673890069e-01,6.176128766083873733e-01,8.957924957681837053e-02,-1.376371650492375087e-01,9.041190638753027198e-02,3.425179421901702881e-01
6.576312305106866152e-01,6.439607001405144304e-01,5.474917924030369143e-01,7.578259144432816785e-02,-1.039650779253442209e-01,1.293652220200950942e-01,3.326758444309234619e-01
6.202203620133607265e-01,5.020818435211999997e-01,7.047039793331918434e-01,9.517764638899274543e-02,2.008997156791638219e-02,-2.300098500454408890e-02,2.470815032720565796e-01
6.526620937599113548e-01,5.464250992938093354e-01,7.138488679187988684e-01,2.854949530646944816e-02,1.702433694818359690e-03,-1.440399710361908898e-02,1.568654179573059082e-01
7.152819179573339792e-01,4.988378662319055135e-01,7.876001792267555146e-01,1.024900361744544020e-01,1.969546893684836000e-02,-3.397206344525837557e-02,3.222878873348236084e-01
6.820651006523326121e-01,5.390539391777475764e-01,7.124888135851165094e-01,1.388307036305401476e-02,3.987823656418223311e-03,-2.230133674741455185e-02,1.668733060359954834e-01
7.073525905646581569e-01,5.171723568309170016e-01,7.121376432815765822e-01,2.409781323466527944e-02,4.145262555034627018e-03,-2.073511508917543281e-02,2.004618197679519653e-01
6.834483370437040017e-01,4.434999909956739428e-01,6.995370715102137149e-01,6.161819912868916893e-02,1.495955845613233283e-02,-3.840969621070502299e-02,2.796108126640319824e-01
7.206663361144672875e-01,4.616327568590880004e-01,7.801870017661292067e-01,5.860499119407764496e-02,2.020669259004484464e-02,3.600686599298572651e-03,3.124522566795349121e-01
6.915929060463268385e-01,6.242055737348416455e-01,5.724817799452435185e-01,1.145888185929502985e-02,1.808459248018492657e-02,-4.040803663307183935e-02,1.302898079156875610e-01
6.985721757811615973e-01,6.271762116833536904e-01,5.669398159954597283e-01,-2.640605902020538853e-03,-1.521993823716135709e-02,-4.226653000169362795e-02,1.382088214159011841e-01
6.574406897059209554e-01,6.435926096030702981e-01,6.001303719758580568e-01,1.681485294219409524e-02,1.980969018869787462e-02,-2.227650879226891409e-02,7.871989160776138306e-02
6.003161737284283817e-01,6.213536936415126055e-01,6.864292576804449375e-01,3.732673836866916978e-02,1.608857823201488221e-02,-2.186614540628193520e-02,1.115222051739692688e-01
6.589646189251913144e-01,5.956499877431697954e-01,5.899560356727463484e-01,-5.093033374409838832e-02,-4.030892221207499349e-02,-5.090338945497269868e-02,1.575793921947479248e-01
6.855076675308270362e-01,5.961730983776868387e-01,6.215907755180325456e-01,-9.223978768176347917e-03,-6.883966956886492829e-03,-1.741286254151637111e-02,8.753903210163116455e-02
6.303661909170975575e-01,6.316588816854817878e-01,6.456052739470812263e-01,6.947770937715824074e-03,6.511537400645456448e-03,-7.979843318002277641e-03,2.602402493357658386e-02
6.887804319915294959e-01,5.597203704600471896e-01,6.068571681935304163e-01,-8.048577700873074323e-03,-1.186350709101451940e-02,-6.109920422636075377e-02,1.568783074617385864e-01
7.118827228902562254e-01,5.583974988642006476e-01,5.474308307539019758e-01,-1.221348226709009777e-02,-2.101576811354749844e-02,-1.142481364876226507e-01,2.574715614318847656e-01
6.810113658414470583e-01,6.050626482324008570e-01,6.034784139163010819e-01,1.066000759661230209e-02,8.294451765885849093e-03,-2.428131191018035456e-02,9.059296548366546631e-02
6.105904909074084674e-01,6.134957703128812723e-01,6.594066438154051468e-01,-1.752658431950199214e-02,-1.208520196218012925e-02,-1.083137837421039446e-02,6.293877214193344116e-02
5.999774306619850561e-01,6.574839506171002990e-01,6.374299606469819857e-01,5.371117710931391787e-03,7.685051625708818994e-03,-1.379913394650855891e-02,5.823145434260368347e-02
5.939723238159564378e-01,6.259352757032633496e-01,6.536301255060420479e-01,-3.954280341066414295e-02,-3.033087868932426295e-02,-2.667643411038449902e-02,1.107227504253387451e-01
6.050282260322759065e-01,5.558161522977905777e-01,6.835595055919109209e-01,-5.877873515551557126e-02,-1.545872441838378256e-02,-1.657392914125684416e-02,1.560752987861633301e-01
6.307958789560741408e-01,6.162175472028956769e-01,6.649971626095204646e-01,-2.488178864054437639e-02,-1.170794444495654348e-02,-1.067956473738921643e-02,6.701903045177459717e-02
6.161926142281829444e-01,5.291188726823718991e-01,7.402760998054154218e-01,-1.392526288193578765e-01,7.651024731617459516e-03,2.224760157247025402e-02,3.059694766998291016e-01
6.030133541876552261e-01,4.779807033438312480e-01,8.184460247775623420e-01,-2.226640450301891616e-01,2.700617461155887383e-02,2.069342176998284141e-02,4.911119937896728516e-01
5.512986428079386103e-01,6.476019372252068695e-01,7.310860892618340490e-01,-5.768704628461537171e-02,1.787467144350921456e-03,-5.221041926148858175e-03,1.853604018688201904e-01
5.950468966038985341e-01,6.093814061895590495e-01,6.818173208934835694e-01,-2.437453075141830100e-02,-1.255144148905176435e-02,-1.713142248044366434e-02,9.811319410800933838e-02
6.289496668593009820e-01,6.000461823457081678e-01,6.356772559178962556e-01,2.937073940584999932e-02,2.614375335852399396e-02,-2.982874508682123102e-02,9.155759215354919434e-02
5.542201164003972558e-01,6.021298804016659290e-01,6.884703978341972785e-01,-6.554120528730186801e-02,1.261272554672514083e-02,1.410810398497175377e-02,1.668768674135208130e-01
5.749177570943034832e-01,6.712980489465085743e-01,7.358184065756441239e-01,-8.153339726694062983e-02,-3.782821598780133129e-03,2.511893797304241577e-03,1.991870254278182983e-01
6.179487441655887592e-01,6.682478576842658669e-01,6.222634935771784725e-01,2.452257690052918673e-03,1.952911656233095091e-03,-1.540875638223628170e-03,4.866410419344902039e-02
6.941619427695615574e-01,7.024280585142653743e-01,5.343508785178535669e-01,5.972831853335278151e-04,-3.473004903269230614e-02,9.937792479986329308e-03,1.756268739700317383e-01
6.059388519268336104e-01,6.563204714191088751e-01,6.287319088749953044e-01,2.235051044298853179e-02,2.759831353620562783e-02,-1.808638903612152724e-02,8.169742673635482788e-02
6.655440706566722042e-01,7.011680014449291898e-01,5.896283311011261130e-01,2.179700781225045805e-02,-3.365802431276494755e-02,4.420654549658886712e-02,1.429099440574645996e-01
6.414295649120623777e-01,7.181397523710424391e-01,5.644692956737866751e-01,1.176521682739605987e-02,-1.489263612890445454e-01,2.295059637801752719e-02,2.936726212501525879e-01
6.663074117145044717e-01,7.166616088967655562e-01,4.526048482714407628e-01,3.183211695052849677e-02,-9.032885831318472614e-02,4.011631350105877847e-02,3.021768927574157715e-01
5.471766989779160983e-01,7.707793849772611727e-01,5.999696594023795626e-01,3.607563201468872577e-02,-1.144992461384725935e-01,6.477905117347826369e-02,3.111336827278137207e-01
6.258902031531596855e-01,6.950557380215376391e-01,6.248674351032524887e-01,2.089700173528807187e-02,-6.058481229085217745e-02,1.485465333709202855e-02,1.335636675357818604e-01
6.342285673874670238e-01,7.038128299313065606e-01,5.798771352554512593e-01,6.579057002196295363e-03,-5.894695619920647944e-02,2.772274862155658937e-02,1.563259065151214600e-01
9.720427611825683822e-01,6.825641631893336614e-01,5.760911569608883065e-01,-2.495453855712688462e-02,-5.093763925234808670e-02,-3.348426697725637169e-01,6.869985461235046387e-01
7.398872818443407162e-01,7.308849640024472905e-01,5.142640309224034700e-01,-1.010558234990918680e-02,1.088119522286851437e-01,-9.832499194829738554e-02,3.373213112354278564e-01
7.355663192086644431e-01,6.532970507181317110e-01,5.608449076990791315e-01,1.161309390704013539e-02,3.410892346577842904e-02,-9.671549989073353892e-02,2.342607825994491577e-01
7.121669331081866838e-01,5.988899137497676328e-01,5.562695780924996614e-01,5.777522921587954080e-02,7.389268970113978263e-02,-1.010301489667957964e-01,2.765712738037109375e-01
7.271258357131415995e-01,6.344086088316693850e-01,5.963122012170103403e-01,3.553441606236389799e-02,9.101539076104886439e-02,-1.393755421618289858e-01,3.170112371444702148e-01
7.273330942495616069e-01,6.443882309679472842e-01,4.972924172554280542e-01,1.581647187892923009e-02,2.039345658169640710e-02,-7.897702345071833108e-02,2.478470206260681152e-01
5.276464450954969632e-01,4.218424421330098650e-01,7.623208062509529981e-01,3.013243598623139285e-01,1.108898271847186126e-03,-1.341550426545050183e-02,6.033479571342468262e-01
4.593543543622886638e-01,5.680703900562655839e-01,9.489428013728087308e-01,2.505786332936954519e-01,6.789008538972315931e-02,-7.118588183744078979e-02,6.447389721870422363e-01
7.081580112266542271e-01,5.734623456850738155e-01,7.557757964326925482e-01,1.212725271896478024e-01,-5.857100717725683553e-02,9.645465010353930502e-02,3.303748667240142822e-01
6.298403586335978854e-01,6.032499298691061940e-01,7.830012435048947506e-01,1.526512209888526428e-01,-1.928459911573432830e-03,-2.047001118232378084e-02,3.152987957000732422e-01
5.590166856032661169e-01,6.430995545075494091e-01,7.039246917384731628e-01,5.955638743844171579e-02,3.811675386516100161e-02,-2.285780573300708052e-02,1.801415234804153442e-01
5.931832777601554474e-01,6.654888214621157427e-01,6.732239531409307531e-01,2.622673524594347841e-02,2.720478871717189190e-02,-2.303561198485117728e-02,1.082726269960403442e-01
5.436356319959253502e-01,5.791257138593897125e-01,7.778696694170805781e-01,1.151971060087237930e-01,5.241999702527594916e-03,-1.399518687491926351e-02,2.971418797969818115e-01
6.554613622201760359e-01,6.894270304129124227e-01,5.696211707025774507e-01,-2.640498985932582948e-02,-3.745481505825513230e-02,-4.497180952188223335e-02,1.542902290821075439e-01
7.004650804324468183e-01,7.175206764229580259e-01,4.790505160401316020e-01,-5.851632864110018839e-04,-5.030913613698867470e-02,-5.760672670598955547e-02,2.657843530178070068e-01
6.928229116228208362e-01,7.043244692655501460e-01,4.393208983796279554e-01,-6.887032972096634488e-03,-3.429382295754544729e-02,-3.104390978331741588e-02,2.717956900596618652e-01
6.873221924441288433e-01,6.294103571694752430e-01,5.943965500449460704e-01,-2.410834311990457668e-02,-1.976699338522705865e-02,-3.617121973004447377e-02,1.159671097993850708e-01
6.272592685649838185e-01,6.630703274528776392e-01,6.311199563190081907e-01,-5.810799850802810668e-02,-6.692572533977264593e-02,-4.852382575239796991e-02,1.782962232828140259e-01
6.645916692470088538e-01,6.215054433872867490e-01,5.459672262490034012e-01,-6.572937456671575085e-02,-8.326379798272774690e-02,-1.029414304316385170e-01,2.763468027114868164e-01
7.211780437136060540e-01,7.452267062986517310e-01,4.840398649105607243e-01,3.273519238542218438e-03,-1.139057080692788410e-01,-4.233396887621414251e-02,3.268759548664093018e-01
3.458272492674763776e-01,8.433766932659441107e-01,7.980370019228223422e-01,-2.156224875016182208e-01,8.343826427315442773e-02,9.775536764304731951e-02,6.450470685958862305e-01
7.108593475478548473e-01,4.983609484220586916e-01,7.368700022507337355e-01,6.688773803144280883e-02,-6.407541560095206257e-02,9.325326697211805405e-02,3.212269544601440430e-01
4.252261421279773801e-01,6.576452679131332690e-01,8.068237026941471601e-01,-3.576345793412782914e-01,4.980647597867096481e-03,4.069124464069151514e-02,7.068904042243957520e-01
4.236516207582617932e-01,6.971719722245244277e-01,7.666411513117723509e-01,-1.639161182461693067e-01,5.680892737348056803e-02,2.506020744351055568e-02,4.368201792240142822e-01
3.118424380483793557e-01,6.623144872187012311e-01,8.147867028588855476e-01,-2.324620217602515471e-01,-5.701242488592283414e-02,-2.976797820795776608e-02,6.115890145301818848e-01
4.655165800990637148e-01,7.125344421954892260e-01,8.166801960482347189e-01,-1.600662875646591821e-01,-2.174676509484513298e-02,-2.138408858619634222e-03,4.193878471851348877e-01
4.674528488855029251e-01,7.118573036952658972e-01,7.467939219564415643e-01,-1.541960542830054515e-01,-2.553561273632428893e-02,-2.371875392839832217e-02,3.800868093967437744e-01
6.992888927296896373e-01,4.397517348428503503e-01,7.189401722834291020e-01,7.353343350115862376e-02,-3.140741529974947453e-03,3.682419593413682746e-02,3.052295744419097900e-01
7.162292734639357228e-01,5.298622138603509280e-01,5.988873095359081855e-01,-4.806399723143334191e-02,-3.713383183311999569e-02,-1.203159099100238882e-01,2.848299443721771240e-01
7.487919066320890549e-01,6.603310446657189026e-01,4.848150646360575022e-01,-9.055193536311038557e-03,-5.537617304555028652e-02,-1.662251854734081713e-01,3.827472627162933350e-01
6.831525614805886715e-01,6.482819634462605451e-01,5.781325545665878529e-01,-3.266858497605002604e-02,-3.559720636458327259e-02,-6.738499996313705720e-02,1.709048151969909668e-01
4.242970868434942089e-01,7.188294584814574062e-01,6.928757073653999399e-01,1.169500189771945607e-02,6.430814296792786156e-02,-3.655103328678824866e-03,3.043611347675323486e-01
4.171315737623666475e-01,7.176429550897747145e-01,7.280055877467980219e-01,-1.173216136723384539e-02,8.302251757474284760e-03,2.214420038406691386e-03,3.068598806858062744e-01
4.019472694066519303e-01,7.278293900866499300e-01,7.284736818095969291e-01,1.982644035680694063e-03,8.981615836852852724e-03,6.962062758604045665e-03,3.268160820007324219e-01
3.833128699172311804e-01,8.401239037867606063e-01,8.189978905596861924e-01,-5.823273869257450212e-04,5.874267362140281161e-03,2.982980963041797356e-02,4.497177302837371826e-01
3.723104075893726161e-01,7.607099701997006580e-01,7.125885763972956699e-01,2.475627252395302957e-02,3.015513530589184962e-02,4.618717227228224566e-03,3.729747533798217773e-01
3.601271768758932401e-01,7.503773696930566839e-01,7.256998352800246854e-01,4.215176902802534177e-04,5.644442910618599485e-02,4.232801992990939052e-03,3.910063803195953369e-01
3.843768459595026110e-01,8.071787885956156483e-01,8.258815632170319887e-01,1.999462958651702753e-03,1.603993695027111990e-02,1.218884284989121825e-02,4.338760077953338623e-01
5.788524665164478389e-01,7.942423479818429000e-01,7.133202860687601898e-01,8.104995933089267912e-02,1.404407156185861205e-01,-5.579018091540912522e-02,3.517486155033111572e-01
3.706255741744077237e-01,7.645335867001693542e-01,8.228292573870670257e-01,1.735835422401444186e-02,1.405317711123240006e-02,1.747851424926203864e-02,4.288798868656158447e-01
8.151324006801420330e-01,4.096390086625837923e-01,9.357431880623308107e-01,-1.217812235980508112e-01,3.595771388202834845e-02,-1.817204439624013623e-02,5.265361070632934570e-01
7.341686447737660881e-01,3.645237184187447022e-01,8.045409346064061884e-01,-7.626634706680530951e-02,1.725447136529561490e-03,-2.972470686352054678e-02,4.332570433616638184e-01
7.447596527541284761e-01,4.216558275893828589e-01,7.470639004178788456e-01,-5.323061618657298766e-02,1.891382206627922544e-02,-1.920483705481415559e-02,3.403322994709014893e-01
7.390833022103909800e-01,2.966742620861348989e-01,7.459319722664898844e-01,-8.034385779380913417e-02,-1.570986578248296725e-02,-6.181803143327221223e-02,4.799716472625732422e-01
6.953551391847211383e-01,3.000351028372714168e-01,8.210044162728020734e-01,-1.332842195437488608e-01,-2.294032110369495329e-03,-1.201661486914906152e-01,5.642400979995727539e-01
8.123386614410752493e-01,4.199594699567840150e-01,7.414483234828700420e-01,-2.217238591335371489e-02,-1.859370551104271713e-02,-7.250065034496289140e-02,3.865902721881866455e-01
8.244524838894009555e-01,1.556941089389339838e-01,1.001939997286469985e+00,-5.946819717436283015e-02,2.988492549090117356e-02,-7.216931677484846042e-02,7.914226651191711426e-01
9.445315643843805731e-01,2.387279090229113554e-01,8.411145352005213738e-01,-1.059476599760253851e-01,-4.310461215338731722e-02,-3.952936138927630461e-03,6.893166303634643555e-01
7.280349029440685849e-01,6.343612426256873826e-01,5.002570329967487295e-01,4.498296945026012891e-03,-1.400372491704381626e-02,-9.245246578091802225e-02,2.561486363410949707e-01
7.332493144096662308e-01,6.755363110382676117e-01,5.192084866399887533e-01,-1.231861777222880740e-02,-2.902002865460232006e-02,-9.379829282802885915e-02,2.572302818298339844e-01
7.110977417269266354e-01,6.478797999699633658e-01,5.002422483253776697e-01,9.463630731398815429e-03,-1.319761318534977933e-02,-9.476324867945741526e-02,2.507152259349822998e-01
7.165074995665416946e-01,6.919354943158663174e-01,5.093524726832288074e-01,-2.174562077409574520e-03,2.110744611336196064e-02,-5.120219971989587587e-02,2.182716876268386841e-01
7.296191404519760670e-01,6.904045023514053803e-01,4.618829094546212932e-01,1.012171765991605943e-03,1.122980641526480361e-02,-7.362242960099879552e-02,2.817152440547943115e-01
7.259199973669250294e-01,6.254129979172557974e-01,4.693212593460020510e-01,2.900610746959882136e-02,5.273866004085259879e-02,-1.452326499491401191e-01,3.525625169277191162e-01
6.294221852454535693e-01,6.338366161370796448e-01,6.405462306932540040e-01,-5.479509319366126889e-04,-1.628828864777020092e-03,-2.959217017932409561e-03,1.136908773332834244e-02
6.486580755011612798e-01,5.596409415187990621e-01,7.111851174465624315e-01,-5.074654688502730493e-02,-1.681288119583973506e-02,-1.827155442609381883e-02,1.642402559518814087e-01
5.957758523844672860e-01,6.263706514141391679e-01,6.802023490051238852e-01,-4.951833112036738496e-03,9.944971117725163751e-04,9.603460254448897360e-04,7.456647604703903198e-02
5.988724568874155274e-01,5.984197948481571050e-01,6.950663362594989847e-01,-2.773995346084138364e-02,-4.196731049904914822e-03,-6.003322091406649783e-03,1.084734201431274414e-01
6.516067934337401724e-01,6.049498480234418718e-01,6.501510152217953031e-01,5.142165459733715263e-03,1.368750384035060177e-02,-6.319384122990150988e-03,5.359328538179397583e-02
5.972845293489447149e-01,5.818913751370530241e-01,6.878594362443060106e-01,-6.011959040360614209e-02,1.598624291900952246e-02,1.928752109760366318e-02,1.502025276422500610e-01
6.166198589942627484e-01,6.303474167187764765e-01,7.338690376770153900e-01,-6.948820356092175188e-02,2.050700155003887194e-04,5.440802173865357666e-03,1.640153527259826660e-01
6.040261275382776684e-01,5.598022026695851361e-01,6.904439741528998198e-01,-5.955364066762854069e-02,1.052808354148787248e-02,1.082583505545081995e-02,1.567468047142028809e-01
5.966848543462380805e-01,5.627242732170874007e-01,6.852124505990188075e-01,-6.043426041801438359e-02,1.685877101042859705e-02,1.383306727883060194e-02,1.561426222324371338e-01
6.069607675149790715e-01,7.379448864269400055e-01,6.555939156069297002e-01,-1.095841250241261500e-01,-1.448141052095429371e-01,-1.145193995868580839e-01,3.891469538211822510e-01
5.844465988401804646e-01,6.330395632301036857e-01,6.590508726678249163e-01,-5.010725101506204038e-02,-3.660002117028748891e-02,-2.896902134819863417e-02,1.355372220277786255e-01
6.274533218719633432e-01,5.777721388577270467e-01,6.147719673304575805e-01,-9.208132391064251243e-02,-8.154962181385626285e-02,-9.227091863031473828e-02,2.700531780719757080e-01
5.473603662711834517e-01,6.903154423581641108e-01,5.882836993935763870e-01,-2.125745871659037115e-03,-7.580296791148662117e-02,-2.839376023324363500e-03,1.831302493810653687e-01
6.544749248283726617e-01,6.258909676038781900e-01,6.661064761429733583e-01,-5.649450744619537168e-02,-4.585036060574806255e-02,-5.206893574222205834e-02,1.590597033500671387e-01
6.209924487914038060e-01,5.581943745327555551e-01,6.966450781886796007e-01,-5.736225534425379996e-02,7.396818411738563699e-03,8.525112550149351043e-03,1.570707261562347412e-01
6.938476134448884336e-01,4.791885491503208305e-01,7.352917285743223452e-01,-1.311410748381870162e-01,1.103846071573821863e-03,3.529733177751032385e-03,3.291313648223876953e-01
6.094674821901048256e-01,5.490032404636191465e-01,7.267691447551447581e-01,-5.583118846938034396e-02,-7.885182854923599924e-03,4.589725523290812982e-05,1.845157444477081299e-01
6.433967050604102456e-01,5.435497580057261358e-01,7.201549334768430066e-01,-6.210166831826120781e-02,1.653307261807000902e-03,-1.150788297165132590e-02,1.884161829948425293e-01
6.082551906821820342e-01,5.571783391668924112e-01,6.997033506380825330e-01,-5.502887137550637603e-02,-7.672043878271377418e-03,-1.299290542097824089e-02,1.594053059816360474e-01
6.732955567926335316e-01,5.057046461321372810e-01,7.228535528653184938e-01,-8.103498086167539027e-02,-1.132161382845678355e-02,-1.212850914093844060e-02,2.436678558588027954e-01
6.588852812429272232e-01,4.922283102234657481e-01,6.820658168316766634e-01,-9.175109107789095053e-02,4.005332773199863500e-02,9.522877823260106345e-02,2.990789711475372314e-01
7.581687709437099354e-01,3.925755351052314657e-01,7.527168191624502569e-01,-1.245635482158875956e-01,5.965975192251567194e-03,5.549007309578238810e-03,4.224243462085723877e-01
6.955363425317232506e-01,5.373546765888521648e-01,7.105603237978255216e-01,-3.189740689924683292e-02,1.680666547283140785e-02,4.182625584850794415e-02,1.917595118284225464e-01
7.776325353051833922e-01,3.818648034209319864e-01,7.686843737348233452e-01,-3.753515363506565450e-02,5.429694669039947241e-03,1.098605315928192078e-01,4.401066899299621582e-01
7.531834931639718178e-01,4.233037738551125306e-01,7.465652923668788521e-01,-1.095233845321850752e-01,-3.905057194253092751e-03,6.031704665326906994e-02,3.919534683227539062e-01
7.866856776448967192e-01,5.251922092500346251e-01,6.668773259425224698e-01,-7.769910165951106340e-02,6.344957620769157980e-02,1.361028694667038852e-01,3.703576028347015381e-01
7.527961315129031439e-01,5.317589961825849310e-01,6.392094674960088208e-01,-6.201939911725879578e-02,-7.318977524215644149e-04,1.259667470778933485e-01,3.095095455646514893e-01
6.261912217734690866e-01,6.451329638514492482e-01,6.201245589530316460e-01,7.142841233873730745e-03,4.902356798454386884e-03,-3.503680078753033510e-03,2.779378183186054230e-02
7.671715101155239802e-01,3.977803419543951557e-01,7.152597275285204059e-01,-4.203346092636345982e-02,3.090403635611975106e-02,1.492164665021278036e-01,4.415101110935211182e-01
6.370376077710632190e-01,6.172570673736482716e-01,6.607947754472496271e-01,-1.754225148271485249e-02,-1.548489268886564171e-02,-1.612833842072969662e-02,6.203635782003402710e-02
5.605465966431923963e-01,6.477356502769361368e-01,6.933770675648356363e-01,-8.048363030990089706e-02,-5.381620421533113430e-02,-3.884485629559177727e-02,2.152037769556045532e-01
6.670761533560175538e-01,5.757499208148414427e-01,6.202214150454680164e-01,-5.922348899950462958e-02,-6.633758384121825336e-02,-1.202398508370387531e-01,2.708393037319183350e-01
6.020422052543429325e-01,6.319205199198881795e-01,6.264884352566414405e-01,-3.157109977179598653e-02,-3.664291061683794259e-02,-2.913408712644354956e-02,1.016101166605949402e-01
5.786010972212368708e-01,6.482928555008921068e-01,6.494828101746368265e-01,1.690631585556953351e-02,7.638908665967670576e-03,-1.731421705612596826e-02,8.290454000234603882e-02
5.779981556692450617e-01,6.811346735345507053e-01,6.745285318390343843e-01,2.096809085671900996e-02,2.230339908348262165e-02,-2.376975307218756953e-02,1.204398572444915771e-01
5.744284837734735527e-01,6.752173860892539681e-01,6.535616282975427183e-01,1.926424691500263492e-02,2.663659720544838891e-02,-1.514370245111359981e-02,1.112410351634025574e-01
5.960448479691022872e-01,6.642123438817585379e-01,6.700603915553378087e-01,3.512876315849297604e-02,3.018703174619759635e-02,-1.611108069399268955e-02,1.108792796730995178e-01
5.634742900302575075e-01,6.771182980306131860e-01,6.617811475261278220e-01,2.951915201101183023e-02,4.844445639393561015e-02,-1.068513582185722302e-02,1.463026553392410278e-01
7.108988954678889804e-01,7.145400692677961185e-01,4.417926323344441020e-01,1.125933067084839171e-03,-2.005677867864949157e-02,1.253141214722973927e-02,2.740310728549957275e-01
7.652759194582346991e-01,7.490943485122568690e-01,4.158560301492801869e-01,-1.429212678598177147e-02,-9.498700547515070286e-03,5.949175696830286825e-02,3.580547571182250977e-01
7.225459749398617237e-01,7.128170945868391728e-01,5.039402474108787278e-01,8.591289382355140822e-03,-4.978445317849734776e-04,1.714376739120923587e-02,2.164722383022308350e-01
7.140915661248874446e-01,7.086469386794321812e-01,4.687268520241464342e-01,3.088040115192478290e-04,-4.210856395322861052e-03,2.183520008469410842e-02,2.457262128591537476e-01
7.720749402739126577e-01,7.478324329941545834e-01,3.890231833668728045e-01,1.342907502130805293e-02,-2.035237713135708976e-02,-2.377628501983297497e-03,3.739396333694458008e-01
7.829274878293427387e-01,7.911632652970412849e-01,4.038426669062215035e-01,-4.499784833597651572e-03,1.391051795650211542e-04,-4.393444057067786429e-02,3.908282220363616943e-01
8.069228188664248069e-01,7.574260830321528637e-01,3.852348328970111035e-01,-5.006521411187014881e-03,-4.584010967808592463e-02,4.971600726901902884e-03,4.072490632534027100e-01
7.254391546640330812e-01,7.430766299452492563e-01,4.509799200338285852e-01,1.863613752095516149e-02,-3.322469526903461257e-02,-7.240910942282957966e-03,2.915314137935638428e-01
7.206718417612707483e-01,7.512127262350700718e-01,4.531513640421646061e-01,6.260419007927263586e-03,-2.213059633738017826e-02,-1.138167445880900429e-02,2.874817550182342529e-01
7.187827731843242640e-01,7.206404985333433322e-01,4.797795410897048862e-01,-2.197706376479139755e-03,-8.204664267438870062e-03,2.843640351756568894e-03,2.404385507106781006e-01
8.404709756790565978e-01,8.411418108050472409e-01,2.324399705307815256e-01,-8.314789398925527542e-02,2.285178720724096724e-01,-6.106357829057758833e-03,7.400161027908325195e-01
6.782123627664602417e-01,7.483986642875736228e-01,4.699601943718200725e-01,4.492439787778572391e-03,1.086007849579174178e-01,-1.105553789559150270e-02,3.141992092132568359e-01
6.817620716056281838e-01,7.143448885632981415e-01,5.031248046671468188e-01,1.827603962843799695e-02,3.366539314834496310e-02,-1.462295748172574329e-02,2.093729376792907715e-01
7.210188247459612398e-01,7.690700896475921589e-01,4.541873844676607153e-01,3.429436736508677946e-02,9.300968438381400361e-02,3.513846715044939562e-02,3.457085192203521729e-01
6.849153039339220816e-01,7.191070176445070183e-01,4.897362264389134023e-01,-3.388937964792237273e-03,3.348350528698955386e-02,3.474432176849480761e-03,2.221971154212951660e-01
6.767080646863532500e-01,7.078485517438989350e-01,4.859177714774975954e-01,6.515297791902830392e-03,3.720042023245520579e-02,-3.031444618281363933e-03,2.182166278362274170e-01
6.625184099537549942e-01,6.427805886689335058e-01,6.196014921852989188e-01,-1.603097545112218761e-02,1.411735872998904316e-02,1.722953950028197762e-02,6.036392971873283386e-02
6.433780824888210015e-01,6.142383453690665185e-01,6.177924876619161898e-01,-1.204130557197224602e-02,1.245954279739492840e-02,1.508744199739370587e-02,4.839196056127548218e-02
6.659432596528588322e-01,6.193648383358086873e-01,6.335179589496883201e-01,-1.133013290478169371e-02,1.157040078140462828e-02,2.065157399699318538e-02,6.145592778921127319e-02
8.323119319177483266e-01,3.783496459952695457e-01,8.133984695505405149e-01,2.380929073618867631e-01,-6.686602983570448522e-02,-1.062358216748551243e-01,6.443520188331604004e-01
7.767965189521019997e-01,4.577249561281502288e-01,8.056627580685455925e-01,8.382136866321254765e-02,-3.085540628077921600e-03,2.243476269356544164e-02,3.666972815990447998e-01
6.821156594051366318e-01,6.509679706996164272e-01,5.867353645435112730e-01,1.245799878935898407e-02,1.533187958485355065e-02,-1.125405097852743598e-02,9.299176931381225586e-02
6.845475825776236034e-01,4.661713178620706666e-01,7.417710035875626495e-01,7.545504527270273376e-02,-1.145172407054928163e-02,9.124317640274558910e-03,2.849254906177520752e-01
6.386361890982155121e-01,4.729691228774420830e-01,7.120400388889603915e-01,1.107680160770906919e-01,3.047569459187528251e-02,-4.928324429199101159e-02,3.031101822853088379e-01
6.935881332705700064e-01,4.945548088958432453e-01,7.184306061413752165e-01,8.291950195601546780e-02,2.313373483981836023e-02,-3.734140421048618569e-02,2.675658464431762695e-01
6.441425779961741371e-01,4.850981118241283196e-01,7.403172504009071231e-01,1.008148686144471479e-01,-1.966332714707236251e-02,2.185552810508909274e-02,2.879663109779357910e-01
6.239312854931861052e-01,3.489703637266280412e-01,7.801829835404602287e-01,2.175749456275546112e-01,4.008508287104772805e-02,-7.849128383991765823e-02,5.552484989166259766e-01
6.850980815892666609e-01,5.195557941036236249e-01,7.988664420898270446e-01,1.594317641435670507e-01,1.245319388735182872e-02,-1.726445824623128872e-02,3.698592483997344971e-01
6.318970402044647994e-01,6.591371882136241034e-01,6.087535753311310582e-01,9.464155167188249493e-03,3.708022203163503869e-03,-3.345618459363514097e-03,4.745119065046310425e-02
5.338815380319499315e-01,6.949073984384577241e-01,7.168971438262491391e-01,5.126054852694172242e-02,1.468419844535266000e-02,-7.134979154253979876e-03,1.965612471103668213e-01
5.190273648432703890e-01,6.727654472331576763e-01,7.333368519640733885e-01,1.180058754235621954e-01,4.295589228984070251e-02,-6.813621633716475390e-02,3.128191828727722168e-01
6.373677054226570826e-01,6.448660362731351015e-01,6.082395184732130033e-01,1.352850263181322628e-02,7.948366432756544253e-03,-5.854571953352850910e-03,4.432277008891105652e-02
5.707656421497647736e-01,6.455740370514029269e-01,6.713793836410916205e-01,-6.249971048153755288e-02,3.301597011022519568e-02,3.451283913251745189e-02,1.635691970586776733e-01
6.488367762370372827e-01,6.309270242261462158e-01,6.236980779384363460e-01,-2.056970259776075283e-02,2.539220844137386746e-02,2.087750889590555062e-02,7.080768048763275146e-02
6.403055169798822499e-01,6.634563058130303892e-01,6.120978826732602629e-01,-1.153011206901417146e-02,1.857676594046210605e-02,1.156075307937330654e-02,6.180397048592567444e-02
6.178686532388304453e-01,6.308559716080351931e-01,6.394684667458047089e-01,-1.252990323200732677e-02,1.510734862843824203e-02,1.488544312762138735e-02,4.663817584514617920e-02
6.273588073080503813e-01,6.489562006954724405e-01,6.325899351869710419e-01,-2.701041219365288640e-02,2.601158932888044187e-02,2.388547637044756075e-02,7.944102585315704346e-02
6.278103162004252669e-01,6.450551014303281816e-01,6.401063974700889059e-01,-1.068149049516826064e-02,9.074816016388565290e-03,1.011552169898390259e-02,3.365774452686309814e-02
6.267025497136685663e-01,6.470270302770542159e-01,6.254494484752253225e-01,-1.114500502240844959e-02,1.061390539362680289e-02,7.228481570708824092e-03,3.615901991724967957e-02
6.209629475075646443e-01,7.169930095648954227e-01,4.901935323861399407e-01,1.359271250339966382e-02,-1.098888139767631722e-01,3.229992098808932930e-03,2.751226127147674561e-01
5.819512857666290229e-01,6.724447686901082744e-01,6.518361680115898338e-01,-4.886479842306447677e-03,-7.517480246575553374e-03,-1.157951940044805138e-02,8.597829192876815796e-02
6.678460982019929215e-01,7.207240109154775531e-01,5.571045059683912282e-01,-1.422186459389287311e-02,-6.298431150504862908e-02,-1.785609054985307434e-02,1.854182630777359009e-01
6.643929160907254827e-01,7.070889689001970124e-01,4.753144490273490397e-01,-3.931721346935288658e-02,-1.120941572906185429e-01,-4.195894267480251849e-02,3.053866624832153320e-01
6.352469194286497478e-01,6.430402361025634450e-01,6.128954023080589453e-01,1.083506652784377473e-02,6.353653105134378538e-03,-6.305248701319021362e-03,3.642924502491950989e-02
6.192255910817480169e-01,7.957526179852356663e-01,4.937809526828740303e-01,2.756655021759473346e-03,-1.131803754372905785e-01,-1.339690019105838591e-02,3.286839425563812256e-01
6.850657865690071846e-01,7.215790915119533189e-01,5.236391466481409296e-01,6.644003169911512699e-03,-4.481309066909952565e-02,2.283333854222209872e-02,2.025022357702255249e-01
6.243526455367528483e-01,7.239622282871474024e-01,5.966763637835325040e-01,7.815538475995446530e-03,-7.598257835523504478e-02,2.731462465116915941e-03,1.759845316410064697e-01
6.486038683906492075e-01,6.243399819517244653e-01,6.326570841387851862e-01,6.054766008417697583e-03,5.278830940112692535e-03,-5.604470335899660802e-03,2.727478928864002228e-02
6.630782713210543466e-01,5.936254823953359683e-01,6.817767390375172321e-01,5.551017003569196084e-02,-2.621298699345254654e-02,3.605817979045206068e-02,1.472347080707550049e-01
5.322396465361785012e-01,6.710668785522422297e-01,6.758050134746275139e-01,6.873134397561574127e-02,-4.313220339771688117e-02,3.723411055319225671e-02,2.094409763813018799e-01
5.243557832987723044e-01,6.579011998775444736e-01,7.102861437290511892e-01,5.017609351783355875e-02,-9.533158527126038909e-03,5.358656769302308975e-04,1.881508827209472656e-01
5.904901946464190532e-01,6.415621016742893978e-01,8.095975510730467617e-01,1.695222902958707922e-01,-2.685880624970271233e-02,1.776754973345180330e-02,3.588186204433441162e-01
6.799242568598078407e-01,5.757622146008170017e-01,6.267704588629300355e-01,-9.482379743362393323e-03,1.299132001519150495e-02,1.528344532643590922e-02,9.805748611688613892e-02
5.667504817976671827e-01,6.541588191304278377e-01,6.816964401802143581e-01,3.977434225135019485e-02,-1.732940285798046168e-02,1.539784321933833355e-02,1.310105174779891968e-01
5.479196785923708957e-01,6.692276246506727588e-01,6.887411636763564049e-01,1.114903419801949458e-01,-6.756721619234462572e-02,2.615176877117946982e-02,2.655213177204132080e-01
5.513813262409290594e-01,6.213461165990483703e-01,6.772736396620943067e-01,9.502976467278109740e-02,-6.463387950402119109e-02,4.746607958516970566e-02,2.414944916963577271e-01
6.107527131639788331e-01,6.027568133249301408e-01,6.804728444770513640e-01,8.694716873406078267e-03,-2.061345186057649340e-03,9.329034003265826566e-04,7.566015422344207764e-02
7.056186439429129598e-01,7.048353278234392727e-01,4.631268599460633961e-01,-1.309119111148031994e-04,6.343329212863572236e-03,-2.907655908554868801e-03,2.424026876688003540e-01
4.360885459328640579e-01,7.720824871019705826e-01,7.855807276260023952e-01,-2.185099224335977555e-03,2.059280873859891531e-02,-1.230188594131748255e-03,3.448195457458496094e-01
2.711731277096222081e-01,8.726230471707949743e-01,8.745073511348318007e-01,-5.177631724666775619e-03,-1.124291961834598258e-01,8.052721117789495009e-02,6.483318209648132324e-01
3.036224272379798306e-01,7.463063923026311830e-01,9.433683696675899677e-01,1.304413786567070743e-01,-8.222623430771702768e-02,4.169170781660979513e-02,6.313331723213195801e-01
1.465592883542688463e-01,7.491339889734560664e-01,7.723877120513147343e-01,1.402803871811333404e-02,3.160927485055418235e-02,-4.425487768082845999e-04,6.174443364143371582e-01
2.301859763579249818e-01,7.351299741778060115e-01,7.634130439481052743e-01,1.515047406934409147e-01,9.382780931603732595e-04,5.372911693757914144e-03,5.822371244430541992e-01
6.634123588384760462e-01,5.912849033253998465e-01,6.290781385042846230e-01,-6.449615074317219601e-03,1.256005756373959267e-02,1.388292900951680273e-02,7.128136605024337769e-02
4.524320714018125189e-01,7.690445560635287281e-01,7.475699464784566484e-01,-4.482602840445309295e-02,6.469177449793424295e-02,2.704902484408076846e-02,3.386497199535369873e-01
2.930240403256503812e-01,7.698385173162161088e-01,6.817771827800225282e-01,-9.828386879132021414e-02,1.723757348409038770e-01,1.832141953334961992e-02,5.587882399559020996e-01
3.316172299385138911e-01,7.892125719025439023e-01,6.860802253035787057e-01,-6.701009891927955063e-03,2.336712109194183373e-01,-2.637814668719370287e-03,5.803440213203430176e-01
4.502226881595783325e-01,7.705554292328866683e-01,7.077315362956855260e-01,1.686662871828725416e-02,1.627982054060463091e-01,1.698629540238889846e-02,4.094681739807128906e-01
2.184257452891064100e-01,7.715949170641707155e-01,7.576298535231188458e-01,4.985109399799136920e-02,1.155984127269465145e-01,6.766372273923288230e-03,5.883433222770690918e-01
2.823772529361395778e-01,8.327755901058108146e-01,8.573495763990330865e-01,-1.007364921621877601e-01,1.216893840392908738e-01,-6.230689689163822903e-02,6.352815032005310059e-01
5.993754207014903024e-01,6.746777171489010128e-01,6.010037511671088017e-01,8.765979433601514201e-03,-2.609745956685922269e-02,9.302020702421424231e-03,8.991002291440963745e-02
5.518339515188097621e-01,7.135689184755290571e-01,6.079256490870621477e-01,9.375964312076354862e-03,-6.907023712744016219e-02,1.825735732871958464e-02,1.892308145761489868e-01
6.019587410912525804e-01,6.805325524803768067e-01,6.002771269387374709e-01,5.461055053116288527e-03,-2.477530545866326109e-02,7.687674145929710399e-03,9.174431860446929932e-02
6.281836269815604945e-01,6.306851402841585630e-01,5.797782915523749248e-01,-7.462967327109397420e-02,-1.035490623161033630e-01,-8.586190000042513704e-02,2.710409760475158691e-01
6.445137351881174981e-01,6.077219009873287003e-01,6.324868618997948611e-01,-1.954238918773481756e-02,-2.125706519976432521e-02,-2.302051623003276148e-02,7.174210995435714722e-02
6.184646175706796090e-01,6.384754465785253963e-01,6.194537344140780277e-01,-1.832715761978935889e-02,-1.752469935511545909e-02,-1.272513676623218334e-02,5.288104712963104248e-02
6.170475954263774376e-01,5.876744622664169526e-01,6.774926385485797731e-01,-5.132827559306456927e-02,-2.323274232442412712e-02,-3.124961986932897617e-02,1.369106173515319824e-01
6.404085009259141703e-01,5.814374356038144454e-01,6.352381552781264373e-01,-4.530640941670624477e-02,-3.411653622586120760e-02,-4.352777956997616604e-02,1.361368745565414429e-01
6.440721889609034578e-01,6.254365506478962722e-01,6.437839163496360539e-01,-4.925983844872280221e-02,-3.354952576734881314e-02,-6.357755496288962360e-02,1.520678251981735229e-01
6.367941508220277269e-01,5.805366651639429776e-01,6.434213397129808776e-01,-4.895895116936700014e-02,-3.226443571749892936e-02,-4.637670493663963861e-02,1.426462978124618530e-01
6.050575586806578032e-01,6.459916210178193730e-01,6.434880459138337949e-01,-2.993012125000892379e-02,-1.852224394509408012e-02,-2.947843727747244055e-02,8.889868110418319702e-02
6.054228677079659393e-01,6.822607971875926935e-01,6.158368821019963857e-01,5.050675109847994546e-03,1.044180012674385261e-02,1.411810179913736317e-05,7.493963837623596191e-02
6.006246212596304535e-01,6.803216982966068249e-01,6.144375752564880111e-01,4.944862108713370699e-05,7.708068275896303410e-03,-7.138354387341985059e-04,7.497565448284149170e-02
6.144148630082603146e-01,6.880316414098047728e-01,6.127675143813331449e-01,-2.930726422918779675e-03,1.825572406548274865e-02,-2.774141477062053640e-04,8.105078339576721191e-02
6.288982151949984445e-01,7.022866669021297081e-01,5.938414411443175833e-01,5.299322443521562766e-03,3.406023994954383155e-02,-5.584248772562655332e-03,1.133388951420783997e-01
5.739091205169464249e-01,6.853788872490212958e-01,6.254744176289505075e-01,2.059984111366083078e-04,1.725660603925287945e-02,2.275718071166800242e-03,1.012203171849250793e-01
5.890658603105339841e-01,6.836896593804892008e-01,5.845791993862159419e-01,-4.838690815690013455e-03,4.271394470720688702e-02,3.807144358504105028e-03,1.224152892827987671e-01
7.023506507521497522e-01,7.682045148432189441e-01,4.753386869132416592e-01,3.056667696059753997e-02,9.865261122037320696e-02,7.868985864916182293e-03,3.209462761878967285e-01
6.865821890511898395e-01,7.214609911690756938e-01,4.155364324511444662e-01,1.297638455206410503e-02,8.013311331438179030e-02,-4.028061769120132307e-02,3.298071920871734619e-01
6.364231859522938572e-01,6.519087440606780026e-01,6.063765859717104023e-01,1.234473234363789307e-02,-6.469536684978444314e-03,4.240358638975478059e-03,4.737692326307296753e-02
6.655017820093707126e-01,5.719076929409755428e-01,6.637265989984882930e-01,1.393909110689344442e-02,-1.405539059684643259e-02,1.450739424801951796e-02,1.019990593194961548e-01
7.539203638814834241e-01,7.823058259520926372e-01,4.647348487178352139e-01,2.053033314066602527e-02,1.075398631857576448e-01,-8.680313187093960381e-02,3.888521194458007812e-01
7.792041055887843903e-01,9.676330940126411928e-01,2.334900825535339286e-01,2.003687187759935900e-02,8.689621783304191105e-02,-4.044759745561338216e-02,6.818379163742065430e-01
6.878955708597117580e-01,7.419304323246419530e-01,4.182720513069954071e-01,1.531041066715301859e-02,8.024349004363408311e-02,-3.722939833929911346e-02,3.381775319576263428e-01
7.300043776141702523e-01,7.202503742625572247e-01,4.824831622351745675e-01,4.741958658337927686e-03,6.955031059385884118e-02,-3.746609565796765046e-02,2.788151502609252930e-01
7.902587600856854078e-01,7.955529808467235453e-01,4.362303854317272078e-01,-1.929779719020408924e-03,6.721537131629144735e-02,-3.478573854790487085e-02,3.800440132617950439e-01
7.192853328007708935e-01,7.801333967955295101e-01,3.853750497495530558e-01,4.466758613923636247e-03,2.205762997398379860e-02,8.642725651725274849e-03,3.704860508441925049e-01
7.224246884268931135e-01,7.894472898702240560e-01,3.950135136287316051e-01,-7.356092141676084765e-03,2.698073771324777451e-02,-3.919804163207769865e-02,3.749529719352722168e-01
5.178406764336282997e-01,7.000164547960158190e-01,6.248968645398157440e-01,-4.324307900915921182e-02,8.895117600967293592e-02,3.064247232050541433e-02,2.393944561481475830e-01
6.247189384453897265e-01,7.095263111092822150e-01,6.058413576359606978e-01,-2.263846394274169130e-02,5.844394526208506607e-02,1.309978639072847083e-02,1.464547961950302124e-01
6.521447116294422086e-01,7.196182996700395407e-01,5.554165199621039495e-01,-5.182565598111914251e-02,1.388793008929956052e-01,1.932165084367326244e-02,2.957628667354583740e-01
6.179480841722656548e-01,6.622962884483339918e-01,6.408609933903239853e-01,-1.764867229147452574e-02,2.988666882888580192e-02,1.900336736034587137e-02,7.856887578964233398e-02
6.883862986828845898e-01,6.272302806245553253e-01,6.246403817845669337e-01,-3.654654802378255740e-02,3.370044881620786609e-02,5.579508948231799714e-02,1.437307894229888916e-01
5.949139727747130291e-01,6.722810331145969709e-01,6.510674609113090705e-01,-2.170340797296143806e-02,3.316446282143106078e-02,2.231927638775646830e-02,1.048887744545936584e-01
6.980763890664206661e-01,6.308619248471937224e-01,6.311726115198631470e-01,3.132699554847009904e-02,-2.801757530345104497e-02,6.136951194480355642e-02,1.452403068542480469e-01
6.295272484642497890e-01,6.455248436082609009e-01,5.945898295873923711e-01,6.204399464646205564e-02,-6.990543590166173327e-02,7.273663363329896381e-02,2.100380808115005493e-01
6.630819561171507059e-01,6.710741849719764618e-01,5.693110843034263624e-01,1.558635919071128112e-02,-3.195713064551084642e-02,3.816141693391331136e-02,1.332957297563552856e-01
7.267026398046383395e-01,7.043442042523289093e-01,5.070602068489998837e-01,5.320547777791035521e-02,-1.109300314287827161e-01,1.249720039262934429e-01,3.689101934432983398e-01
6.957641436049061268e-01,7.188521466857318298e-01,5.074499572221859989e-01,7.487527343161983102e-03,-3.267797696508467631e-02,3.138621254105897901e-02,2.160326540470123291e-01
6.955378024811329496e-01,6.832830282495550023e-01,4.999128983818168503e-01,1.176386597919190993e-02,-3.223782054557863819e-02,4.447666562128271828e-02,2.132825851440429688e-01
6.589706810628069844e-01,7.368764709061161877e-01,5.420258932348425152e-01,4.996019165451799637e-02,-1.026561379512849204e-01,9.370798762617560396e-02,3.070871829986572266e-01
6.739224909906895711e-01,5.877929111742157264e-01,6.487613066748889601e-01,-3.217567233721633363e-02,3.344185607702999247e-02,5.737137206545715740e-02,1.490623503923416138e-01
5.669905697393465838e-01,7.241408247586275104e-01,6.295006715023349075e-01,-2.511378332878782572e-03,6.578096503541287776e-02,4.119657598449935967e-03,1.784137785434722900e-01
5.924477122528373219e-01,7.050899277406884602e-01,6.292774051040633809e-01,-7.343490921603205469e-03,3.565407155314574000e-02,1.207959579117152613e-02,1.196214258670806885e-01
5.927702217810758567e-01,6.966217851361485858e-01,6.321752512995676421e-01,-7.820901266266099341e-03,3.737540943989565989e-02,8.805805380994360942e-03,1.133689507842063904e-01
6.726969082455617199e-01,7.016706541628194849e-01,5.662735784373467141e-01,2.957435407366642774e-02,5.875068695761932053e-02,-1.082462881075086161e-02,1.690540164709091187e-01
6.291397654929210548e-01,6.665810571521363359e-01,5.980132747055817433e-01,2.048769436376259717e-02,2.757283327750629023e-02,-2.284337117253501179e-02,9.296022355556488037e-02
6.200930520948039204e-01,6.447843994757024300e-01,6.339329172736882789e-01,4.811910627324340189e-02,5.799139453554028739e-02,-2.073414023907235379e-02,1.370567232370376587e-01
6.275131470697929981e-01,6.443810554770060817e-01,6.322638472271675525e-01,1.186311060795503664e-02,1.529640519085072141e-02,-1.953581637588111194e-02,4.996044188737869263e-02
6.645518670515149218e-01,6.380426255290508886e-01,5.986090796678833481e-01,1.955344239675324905e-02,2.686600324790578559e-02,-2.695601771916960113e-02,9.378345310688018799e-02
3.461916103415018653e-01,8.333814145015560060e-01,9.958106290008715833e-01,2.320752480508324889e-01,-8.833122365868542603e-02,3.755270230235764617e-02,7.294420003890991211e-01
6.846183727627539461e-01,5.816084545898073666e-01,6.741535659922354151e-01,-1.950636673093303700e-02,2.407844129543853032e-02,4.432705023761636387e-02,1.357131153345108032e-01
6.143655627603621383e-01,5.828634625892590293e-01,6.640886813042634618e-01,4.386474701776577056e-02,3.088433810854542341e-02,-2.482982992468774075e-02,1.245575770735740662e-01
6.234321096051282929e-01,6.359359840285525589e-01,6.431674094246916384e-01,2.146498796734999312e-02,1.800969835678572009e-02,-1.226333967096776036e-02,5.572714284062385559e-02
6.079399591425179716e-01,5.929249838602376199e-01,6.655157468801982112e-01,3.978417779684299133e-02,2.605913398498365882e-02,-3.492381804054300876e-02,1.218585968017578125e-01
6.085934157987019644e-01,6.199023869032576073e-01,6.509357851544548268e-01,4.055530825862761063e-02,2.309514223457158691e-02,-2.837163938691051115e-02,1.019368693232536316e-01
6.287839894903782811e-01,7.089394426208115441e-01,6.206429821269554559e-01,2.781784195066078214e-02,7.189573935438042795e-02,-3.697220189122694262e-02,1.705081760883331299e-01
6.106098677789811857e-01,6.432094222476462120e-01,6.340955606175832093e-01,1.156399869866437877e-02,1.338816129107843131e-02,-1.687415694599980059e-02,5.139848217368125916e-02
6.111327586182931926e-01,6.269237334509029091e-01,6.824095662063898171e-01,5.878999137780523132e-02,3.747352261909613763e-02,-1.453101026954994358e-02,1.393529474735260010e-01
6.098304952037523208e-01,6.280053525456522623e-01,6.410097573126221082e-01,1.301929106575987205e-02,1.255851132585734421e-02,-1.604604156743030113e-02,4.989863559603691101e-02
6.146377609978611600e-01,6.533604134504061856e-01,6.960169700616546384e-01,5.711592982203476943e-02,3.720835548661949321e-02,-3.185777474066180115e-02,1.481743156909942627e-01
6.966264748429493725e-01,5.345004051806870882e-01,6.516650683094601382e-01,5.707008597345925721e-03,7.015803335464099351e-04,-5.252265671844722622e-02,1.714410930871963501e-01
6.373911511783014738e-01,5.143618355863892599e-01,6.448003569979080529e-01,8.859452877463953879e-02,6.228631929614139584e-02,-8.248865989252890385e-02,2.677713930606842041e-01
6.966469237358768885e-01,5.424039029834524239e-01,5.323739914167130438e-01,-5.086952826520645121e-02,-5.428181393882963029e-02,-1.409168154372373583e-01,3.187693059444427490e-01
6.983633463951977038e-01,5.641819538350484331e-01,5.337201934263176017e-01,-6.795624439985011034e-02,-5.844390497102982390e-02,-1.386287236084378371e-01,3.236896097660064697e-01
6.599576883200939381e-01,5.726223583236316195e-01,6.547447743859841074e-01,-1.762544613373441885e-02,2.291401881589614012e-02,1.770898329320909001e-02,1.031858175992965698e-01
7.062720049965713898e-01,5.660914365013248739e-01,6.098237790850387086e-01,2.508480353426664235e-04,-7.024641007856637955e-03,-5.861103020214606524e-02,1.608933508396148682e-01
6.876000276256649668e-01,6.142365745477840200e-01,5.546322322607026845e-01,-1.521723959083819307e-02,-1.187890170080848837e-02,-5.759452633721627579e-02,1.561315506696701050e-01
7.292471574786235644e-01,7.646773781014931659e-01,5.294266254457467014e-01,5.492734361851280001e-02,1.457624469402980516e-01,-8.171998216280354499e-02,3.756178915500640869e-01
6.247974116451289195e-01,6.774697094744266401e-01,6.065583488396181222e-01,-2.261827996012287512e-02,-6.971288564942058896e-02,-2.344795898674419121e-02,1.477550864219665527e-01
6.977430431992721616e-01,7.062119168082180432e-01,5.818981187783680564e-01,-6.984018051932729121e-02,-1.024042339833553666e-01,-7.729271347445867968e-02,2.801573872566223145e-01
6.707508002074366038e-01,7.279639683506495818e-01,5.694346396983430703e-01,-1.733411592030269233e-02,-5.181059356426738483e-02,-2.279858516339247285e-02,1.727677136659622192e-01
6.191085821682362766e-01,6.373394854603855464e-01,6.549761121114492379e-01,-3.117310481309189859e-03,-2.962351989327035012e-03,-7.338646222216921831e-03,3.438014909625053406e-02
6.501082136285128987e-01,7.435339874105544311e-01,5.074913441710491302e-01,-5.967672927074637451e-02,-9.561299175374103620e-02,-4.289186289656095330e-02,2.932927608489990234e-01
6.593019208569510514e-01,6.943540251284672227e-01,5.188805542274631533e-01,-2.655338516321160275e-02,-7.790869041302810050e-02,-3.938244961417302487e-02,2.254913449287414551e-01
5.066734257243616923e-01,6.140388045202419542e-01,6.906539342328045228e-01,-1.151026611497896340e-01,5.732442006408980384e-02,4.438374324524731879e-02,2.848454117774963379e-01
5.439123213598777706e-01,6.269987240341106105e-01,7.459247409568986464e-01,-9.223842884910526951e-02,9.673393959639220441e-02,6.358904665864424655e-02,3.108934462070465088e-01
6.247306404230180688e-01,7.126357250094973450e-01,6.759873616174003619e-01,-9.682564479643616939e-02,1.333557265394829661e-01,8.452581431602525230e-02,3.297871053218841553e-01
5.879578034451012902e-01,6.751648047883965775e-01,6.815648501477199472e-01,-5.429899716229266704e-02,2.708678230649053109e-02,2.207053344600887548e-02,1.439156085252761841e-01
6.234534604284885928e-01,6.109321980733805058e-01,6.875102840188714870e-01,-1.006621611306688369e-01,1.249520222501005889e-01,8.712096924429185707e-02,3.241449594497680664e-01
5.536928086903365465e-01,6.618908067572324416e-01,6.506055492496816139e-01,-3.804455614681929304e-02,5.048248336409676129e-02,3.324155368623050305e-02,1.609836369752883911e-01
5.879473200031976043e-01,6.655272979067362593e-01,6.632520295882246009e-01,-5.328089236764875503e-02,3.128830705892410996e-02,3.802508163772232164e-02,1.471002101898193359e-01
6.327389848428180974e-01,6.415553766518874435e-01,6.349453322054617876e-01,-7.338791038490790307e-03,4.906490933606583865e-03,6.947070872133145718e-03,2.101724594831466675e-02
6.066712316719038434e-01,6.516697528505891457e-01,6.408290270312235748e-01,-4.109345325258830645e-03,7.926346736708817994e-03,1.347873698254458720e-02,4.938361793756484985e-02
6.788297134445490100e-01,6.124545813895965196e-01,6.020928172864832284e-01,-2.973329950401269219e-03,-2.174948001532635029e-03,-8.747107940442724189e-03,7.396645843982696533e-02
6.249932798251740529e-01,6.460430243673616069e-01,6.290366501112882869e-01,-7.697694595467746877e-03,8.025479039337330561e-03,6.596894481055023789e-03,2.959517203271389008e-02
6.092991625048244098e-01,6.397010814799436451e-01,6.401151281020962536e-01,-6.102349310302073067e-03,8.241576309666830830e-03,1.372255052908667901e-02,4.263153672218322754e-02
6.770813315083885620e-01,5.043179177484371500e-01,7.346388985023259988e-01,-8.313674677520080381e-02,-7.313489408214948230e-03,1.280156687759279738e-02,2.539511322975158691e-01
6.964444397212736781e-01,5.183671667153503249e-01,8.072675416894949940e-01,-1.663996279673682910e-01,1.827293481887470178e-02,4.555389169217577416e-02,3.924564123153686523e-01
7.077506997743786554e-01,5.902121741295096591e-01,6.494934883654374103e-01,-2.567530908308752677e-02,3.418904031431098389e-02,5.912521231158900797e-02,1.622758358716964722e-01
6.463420563072074243e-01,4.828556608609198553e-01,7.233676783374275443e-01,-1.251430802940129150e-01,3.525572737214344859e-02,5.373834819218491904e-02,3.234626650810241699e-01
6.961025050119428181e-01,4.878615397944591203e-01,7.171344344476766608e-01,-5.341340033660258585e-02,-1.926820983049320210e-04,1.929639418542528030e-03,2.382364571094512939e-01
6.226933183608592826e-01,6.249731629001351596e-01,6.480277070668943873e-01,8.821795060113246309e-03,-1.001217935159623429e-02,1.050902950062798311e-02,3.814174979925155640e-02
7.214016212700815611e-01,7.568843512930367723e-01,4.511880043317448852e-01,-4.784219844612487733e-03,1.320568198879210620e-01,-6.324194560906402918e-02,3.850281238555908203e-01
6.147576379661002788e-01,6.273220402600915291e-01,6.489488065172780429e-01,2.532897882584136257e-02,-2.378877030318917937e-02,2.483783631176625026e-02,7.981510460376739502e-02
5.985304257147698870e-01,6.528850764989995170e-01,6.206294859450126600e-01,6.255528807844741579e-02,-7.329778768305438008e-02,5.917634259765369026e-02,2.015051245689392090e-01
6.281812691380193048e-01,6.080838542005543301e-01,6.597686834277887158e-01,6.580141863696369053e-02,-6.006367813690281776e-02,6.484071001561660108e-02,1.961169689893722534e-01
6.236695702348883374e-01,6.419477782304735536e-01,6.421611038808295868e-01,9.697663276575342953e-03,-1.085732027011295647e-02,8.939700911926733856e-03,3.483634069561958313e-02
7.043314403872619200e-01,5.659746388479440782e-01,6.493135822995430573e-01,-2.642553138044431357e-02,2.554206134672277681e-02,5.086949939606637966e-02,1.623967587947845459e-01
7.550889043758619579e-01,6.546796380698958195e-01,5.035323091730684597e-01,-2.167892525320726932e-02,-2.078904704867074252e-02,1.292827530473702469e-01,3.177305459976196289e-01
7.814778506669792790e-01,7.169117212820541596e-01,5.122087913931153702e-01,1.312337294699702367e-02,-1.793751966939585024e-02,1.293410103423913715e-01,3.331038355827331543e-01
6.943887152849396172e-01,6.020827850535593884e-01,5.577631042957160723e-01,-2.848609059581854851e-03,2.072028273906747608e-03,5.779037715955931409e-02,1.569458395242691040e-01
7.342231392057130268e-01,6.150446470996663306e-01,6.113382700822306282e-01,-3.507872429727664030e-03,-3.140224302239749340e-03,7.642427572317984918e-02,1.795758306980133057e-01
7.616998516505387729e-01,5.565507713203305951e-01,5.627446480469849854e-01,2.744065256830205066e-02,1.169574667676995597e-02,1.529191425058966936e-01,3.371586799621582031e-01
7.114149002074137140e-01,6.087248559106986923e-01,5.402571609884813109e-01,-1.748789261473462225e-02,2.549937266958217374e-02,1.162323986362833877e-01,2.562460899353027344e-01
7.261412137136245004e-01,6.735316114830685041e-01,5.405361483178842130e-01,1.542451802396540943e-02,3.645887045099866636e-02,1.209283196429023627e-01,2.757260799407958984e-01
6.232734604856338123e-01,6.191811621679993438e-01,6.558045297420306285e-01,-5.971188624832998726e-02,4.906170552205311314e-02,4.531487429592077204e-02,1.590161621570587158e-01
6.675038663346528622e-01,6.242404675521476820e-01,6.765999752081166552e-01,-9.048054191461302187e-02,7.972563652366133902e-02,6.711262479601309838e-02,2.439037114381790161e-01
6.413906489399685551e-01,6.477819148673773508e-01,6.458191333946886603e-01,-7.695025305535610483e-02,1.214104718112430231e-01,9.645464452410942857e-02,2.998802959918975830e-01
5.960488701574733206e-01,6.852426522556480659e-01,6.156025715659502184e-01,-4.099047008588197621e-02,4.975627782327487342e-02,3.149932145477859352e-02,1.484525203704833984e-01
6.611230647241564951e-01,6.158436424093699513e-01,6.577598224749083844e-01,-6.227823601258208192e-02,7.482746066102943794e-02,1.158644366165283435e-01,2.657369673252105713e-01
6.197918748193879113e-01,6.414039618560074540e-01,6.395011347073211727e-01,-1.590127168199883048e-02,1.412202001660060185e-02,1.604379990422851940e-02,5.058295279741287231e-02
6.976405909476812717e-01,6.704044895023200112e-01,5.970323890964779334e-01,3.929093822685243709e-02,6.360188602232255684e-02,-6.311824477449810844e-02,1.919435113668441772e-01
6.631047582791635975e-01,6.647747500479483929e-01,5.602642779570677911e-01,4.153529176033544934e-02,-4.156836503819606038e-02,4.623836067816333717e-02,1.659035384654998779e-01
5.513842227969897314e-01,6.424077430416393897e-01,6.857244613659829735e-01,-5.054173761485073607e-02,3.976880731327516599e-02,2.251633181466645289e-02,1.674320548772811890e-01
6.381251887538547107e-01,6.045969190784827862e-01,6.635119237480560095e-01,2.516432413069680935e-02,1.385080876941154233e-02,-1.456735302288358208e-02,7.570794224739074707e-02
5.391880822733372547e-01,6.415779322448872390e-01,6.802612943607408980e-01,-5.009327737201407782e-02,3.269754481831729787e-02,2.363806916804183159e-02,1.683821231126785278e-01
5.941958974757742817e-01,6.198040530281656579e-01,7.193721117177978019e-01,-7.713429847281985663e-02,2.382019136122990460e-02,1.445852860255814401e-02,1.824768036603927612e-01
5.507395712311548008e-01,6.220187110798223173e-01,6.928065695758787168e-01,-5.256785848444715109e-02,6.376948215423987147e-03,5.996535788879723584e-03,1.538094431161880493e-01
6.352650102283733391e-01,6.012337267065555046e-01,6.979593404016252167e-01,-2.883702941792714788e-02,-8.485557614003928772e-03,-5.104217456276731978e-03,1.000558435916900635e-01
6.008192436139241366e-01,6.259575847022397221e-01,6.942663296334434797e-01,-7.017475518050939054e-02,1.953315847811203099e-02,8.002046763787138209e-03,1.520704030990600586e-01
5.856584442225557519e-01,6.547276918856240746e-01,6.808995556821523243e-01,-2.702190719062585317e-02,1.295730461254986261e-02,6.380310087158632022e-03,1.003969609737396240e-01
5.834312083301717022e-01,6.290755566764585360e-01,6.920997686934288184e-01,-2.285487710672189435e-02,1.404466695462921674e-02,-3.967934182976565541e-03,1.055376008152961731e-01
5.554806077748473125e-01,6.663465720724699448e-01,6.185012384064219049e-01,7.099794395318465012e-02,-1.133760022149718216e-01,6.328679743639098465e-02,2.738177478313446045e-01
5.842958797039563557e-01,7.092666967837147896e-01,6.297520112312436913e-01,3.411149512979431975e-03,-4.673383944419504804e-02,9.198390051793122607e-03,1.372740715742111206e-01
7.561851898977418607e-01,7.636497670558449746e-01,2.272036069384540391e-01,1.254293477628635502e-02,1.377218864613684868e-01,-1.376565527052721061e-01,6.309102773666381836e-01
6.077158006721268269e-01,6.870422328625374053e-01,6.203899275349042952e-01,9.220103705959180329e-03,-5.478564168079634589e-02,2.358026677059775131e-02,1.279665529727935791e-01
5.107923166483273603e-01,6.571512069443844473e-01,7.446830374000698027e-01,-8.373441780063670126e-02,1.089352169850730905e-02,-3.038267254125120997e-03,2.516185045242309570e-01
5.487530753635685432e-01,6.529925403539174056e-01,7.168066122241307792e-01,-5.918335006800266862e-02,-5.724804586841467785e-03,9.436521245790448556e-03,1.801763474941253662e-01
6.104438417805746475e-01,6.210832629951300587e-01,6.936154352584823490e-01,-3.614744140242411030e-02,8.347967409528402050e-03,1.087728498641860227e-02,1.031006202101707458e-01
5.738282466549826655e-01,5.824228329644696167e-01,6.621702174390916573e-01,-9.629220201220595188e-02,5.755297540893308111e-02,5.728175743882673449e-02,2.339147478342056274e-01
6.130625954416509815e-01,6.275921453315050913e-01,7.299734975432329298e-01,-6.728218552322635937e-02,3.252914759544863615e-03,2.585234429298318305e-03,1.606644839048385620e-01
5.542548413824277542e-01,6.574272483810584822e-01,7.279439673969009261e-01,-4.847964308514566417e-02,2.940592917333851143e-04,6.259891789468566108e-03,1.733815968036651611e-01
5.766133884693472877e-01,6.800074786574183960e-01,6.328763680586837470e-01,-2.173475451561507604e-03,-1.873197667136200506e-02,1.175232756879143227e-02,9.756939113140106201e-02
5.499477839865342110e-01,6.749995896343381485e-01,6.159723169443137580e-01,3.084545899875804423e-02,-4.633777283723708451e-02,1.770347790314709749e-02,1.482458710670471191e-01
5.899063949271254881e-01,6.853194236277657669e-01,6.306969866324575458e-01,3.615534808482980325e-03,-4.251588714847334000e-02,5.366704895383152957e-03,1.114629432559013367e-01
6.055594114680936668e-01,6.866473502242799176e-01,6.142453365151946398e-01,-7.938369185430126139e-04,-1.602973367215786149e-02,-1.548021651409003463e-03,8.201409876346588135e-02
5.617680472964711180e-01,7.033681109736834580e-01,6.243332395337889418e-01,1.227174636068125921e-02,-3.959471484151179388e-02,5.670946708194268479e-03,1.426787823438644409e-01
6.104906134849091837e-01,6.801444045009903405e-01,6.147835266001563381e-01,2.742231932765841701e-04,-1.864121602850695196e-03,-7.643010883463896652e-04,6.770129501819610596e-02
6.245930355207894857e-01,6.669886858753735215e-01,6.373311180401035614e-01,1.154900380716900564e-02,2.237499899273974122e-02,-1.297758670311592241e-02,6.186213716864585876e-02
6.632043415757451488e-01,7.140742913735768083e-01,5.425979779844876116e-01,2.040352065890965391e-02,4.740383961666228690e-02,-3.039493304860934123e-02,1.844741851091384888e-01
6.267696212743618656e-01,6.878143563598146937e-01,5.822877804936658075e-01,7.756216688932504599e-03,1.514766087043376355e-02,-9.768369923556497608e-03,9.785484522581100464e-02
5.976064895778631092e-01,6.945040973025282671e-01,6.006491325304291751e-01,8.403794968003265239e-03,2.454343043025816393e-02,-5.445908181482852356e-03,1.058846712112426758e-01
6.040135366894013869e-01,6.751369945580198983e-01,5.990474440847333160e-01,9.852868990781101996e-03,2.544341557628924597e-02,-8.662473766095118294e-03,8.885307610034942627e-02
6.021594118511720550e-01,6.955830373429111591e-01,6.282699137689035096e-01,8.401669281864313638e-03,3.089765400391390748e-02,-6.007541493744975383e-03,1.007691696286201477e-01
5.828976879458782623e-01,7.232489412957636699e-01,4.814875195497967941e-01,2.950838221973220779e-02,-1.583344863107370437e-01,3.871260710750689532e-02,3.557150661945343018e-01
6.003403066742150074e-01,6.918394296707142122e-01,5.501254173906819922e-01,-7.672951973642527616e-03,-6.778056677712805678e-02,-4.207993382413580119e-03,1.717574000358581543e-01
6.782984357238373008e-01,7.261984331345052723e-01,4.955035984596153908e-01,1.191344725380964753e-02,-9.034034662617823619e-02,1.813009619941514938e-02,2.652550935745239258e-01
6.893999256670584330e-01,7.449267700557685723e-01,4.963862065139592050e-01,4.535467848119201922e-02,-1.201017409640055544e-01,-1.684120989933569554e-02,3.183555901050567627e-01
6.103018170765905914e-01,7.093250368167928199e-01,5.635590453275211020e-01,1.143714581871111725e-02,-5.847597029716890271e-02,1.267085272140582204e-02,1.665878146886825562e-01
6.539867084907976524e-01,5.235069354717152290e-01,6.417472350100045242e-01,-7.466985898077531381e-02,4.561245631782754467e-02,9.009511829637963098e-02,2.507935762405395508e-01
6.891723527634002755e-01,5.281485977901003714e-01,6.478162336208694860e-01,-6.857893069521113494e-02,4.364484627595877075e-02,9.365546664680864108e-02,2.590705156326293945e-01
7.108891577604077305e-01,4.840502874705430170e-01,7.464028953191103044e-01,-1.525329527229496267e-02,1.327404330063156057e-02,6.376987819252621925e-02,2.723956108093261719e-01
7.275684242691209391e-01,4.935031340310572223e-01,6.907879825199110257e-01,-3.246379719980724970e-02,3.739713559250266300e-03,3.877796025410544523e-02,2.350429296493530273e-01
7.529180633972702985e-01,4.693164534802020116e-01,7.477655087416050783e-01,-5.303329723285563069e-02,3.974505414815554527e-02,7.404751087788452590e-02,3.295767605304718018e-01
7.555961415989757013e-01,4.643772946535335011e-01,6.947855328830889743e-01,-4.836287081090456796e-02,3.599341232409571101e-02,5.467269946035778483e-02,3.011111915111541748e-01
6.985546132197751890e-01,5.892019904096820193e-01,6.310095776265624012e-01,5.775622056321692323e-03,-1.349978017959322122e-03,-3.313231861331197847e-02,1.119504049420356750e-01
6.924533100642538130e-01,6.484809992885187668e-01,5.628940604158062522e-01,2.656087376053355154e-02,1.534020467660934806e-02,-5.780037779258477559e-02,1.608328372240066528e-01
7.197190000634342555e-01,5.352760518173964588e-01,6.400613787973746804e-01,-5.661985799312004193e-03,-5.767343097495593329e-05,-1.121338292313538848e-01,2.519730627536773682e-01
6.696248684975576460e-01,6.124549169712736330e-01,6.367833788624003288e-01,2.812438816350876572e-02,2.462760447907666808e-02,-5.406386034841144383e-02,1.242200583219528198e-01
7.157400289727120501e-01,6.266337982649462512e-01,6.228073179608230037e-01,3.528544148917543005e-02,3.873328482432347730e-02,-6.738809916901498942e-02,1.736519038677215576e-01
7.602331339851277070e-01,6.325044131798822633e-01,5.633716620482497328e-01,6.068899220173442494e-02,7.416951762420710692e-02,-1.777281123232755944e-01,3.901779949665069580e-01
6.817830211048537814e-01,6.342754846617579823e-01,6.013905806370880569e-01,6.854197014250124759e-03,7.812505731088079802e-03,-2.624533590266663052e-02,8.538830280303955078e-02
6.160348241892162902e-01,6.809316219180352459e-01,6.106318872239985263e-01,3.005900462880577769e-03,2.399424999319219216e-03,-7.918017833637389655e-04,6.810050457715988159e-02
6.979419308783078035e-01,5.948788540148991499e-01,6.034566259181700643e-01,-2.266143603495776766e-03,8.724651289314905300e-03,-3.004971238611590587e-02,1.129789575934410095e-01
6.831019059627703172e-01,5.405083180931415932e-01,7.608363079158997344e-01,1.269950182271095129e-01,5.850815694256888966e-02,-9.403447754719000684e-02,3.502003252506256104e-01
7.257907270796739585e-01,5.391000103881269379e-01,7.467928967269913398e-01,1.093588480738674623e-01,3.057918487835332294e-02,-8.300038264672694732e-02,3.139521479606628418e-01
6.376414658169566874e-01,6.469041008323712649e-01,6.464713309559618759e-01,3.800500689390257092e-02,2.842023620380846466e-02,-3.363014168545958721e-02,1.011494249105453491e-01
6.649091152628088253e-01,5.786590930027262214e-01,6.950029454479614843e-01,5.450579253106888761e-02,3.656844596649034412e-02,-3.738022851480449216e-02,1.675008684396743774e-01
6.703209276204795675e-01,5.511627780579800850e-01,7.115851905921646292e-01,5.397500106779874740e-02,2.338367023296876457e-02,-1.802932570804009760e-02,1.793706715106964111e-01
6.624556984816128979e-01,5.579851787138864205e-01,6.858969848777461964e-01,4.940065199946527819e-02,1.048708118508309001e-02,-2.239906496725126150e-02,1.518844068050384521e-01
6.597392322237377593e-01,5.064939937089003585e-01,7.174513116216177933e-01,7.223155702073008610e-02,2.595073912370058841e-02,-3.603924951247165082e-02,2.392235100269317627e-01
6.910126172692923063e-01,4.801532506642950393e-01,7.057672143596146475e-01,6.324597555045331776e-02,1.676606955988076478e-02,-5.724002436619454043e-02,2.654491364955902100e-01
6.992697283418243259e-01,5.347557250246738336e-01,6.913061673990301692e-01,4.005719467027349379e-02,2.147806893639596371e-02,-3.975745859109883901e-02,1.917231976985931396e-01
6.367889665573847058e-01,6.450855522793206287e-01,6.203773583562632865e-01,9.897427939485541754e-03,4.236834946864686570e-03,-4.704605527020221459e-03,2.980711311101913452e-02
6.351182923379191658e-01,6.338255065099812624e-01,6.314274849918387611e-01,8.782318093526112965e-03,6.990307549867220624e-03,-5.635998818686481157e-03,2.199536189436912537e-02
6.452983532395828448e-01,6.409975216268140041e-01,6.187505524101980514e-01,1.807459370668358656e-02,1.249735578574108497e-02,-1.347273050508134180e-02,5.101247876882553101e-02
6.402999799353743526e-01,6.238670329233738654e-01,6.369838017318508738e-01,7.369118943781106240e-03,9.239344448357595871e-03,-7.060968708272176951e-03,2.819794788956642151e-02
6.507152895718609775e-01,6.467149083007200927e-01,6.091697762403559535e-01,1.709371564333615756e-02,7.832000008547335135e-03,-1.316775517553338271e-02,5.618371814489364624e-02
6.954260728218356613e-01,6.150251175448702146e-01,6.400555621540037210e-01,5.057316657291589801e-02,3.919264901504734833e-02,-9.586624117976701165e-02,2.119681537151336670e-01
6.210252924998479473e-01,6.499809664190052683e-01,6.393949297631098538e-01,1.024031550192312096e-02,-1.655699513876608686e-02,1.123598486696807293e-02,4.647263512015342712e-02
6.141749171632499005e-01,6.675833218495729193e-01,6.239366893589254337e-01,4.044705267373573804e-03,-6.130750565228668472e-03,9.656085813018602110e-03,5.355321243405342102e-02
5.924471661589746363e-01,6.580468626932532983e-01,6.348150183198777441e-01,1.058727412257184225e-02,-1.182789408928895496e-02,1.498958027320838014e-02,6.891348212957382202e-02
6.235546717326232447e-01,6.465423956151863383e-01,6.232867984219858659e-01,3.879945747546606743e-03,-4.561375223844176159e-03,9.658403832859943638e-03,3.036609478294849396e-02
6.057256657712510872e-01,6.477152349685709742e-01,6.362002878055726951e-01,5.689901567630239500e-03,-9.832404142103611314e-03,1.237514291381785515e-02,4.752679541707038879e-02
6.691358052801265055e-01,6.847458220023054931e-01,5.824044234934790953e-01,-2.356860365040977512e-02,6.246597290523751150e-02,3.632682404351304795e-02,1.626383364200592041e-01
6.863095028142586207e-01,7.033284471006270300e-01,5.015006210572857670e-01,-1.115597630182021786e-02,5.665959140345640938e-02,2.052899195961698300e-02,2.210380882024765015e-01
7.538895969841167277e-01,6.963299794833719414e-01,4.558698093610962232e-01,-5.929186708830287700e-02,6.499476514587770870e-02,8.232238091312368833e-02,3.442752659320831299e-01
7.777623633856476371e-01,7.513023413547276208e-01,4.645129638478532885e-01,-2.727616975958917570e-02,6.752482265043159571e-02,8.669867360227467845e-02,3.591622114181518555e-01
7.135592305262740132e-01,6.715658528162837815e-01,4.702992069974244460e-01,-2.303498845789487756e-02,4.629268078700782968e-02,8.346344453782025830e-02,2.822107076644897461e-01
5.959766076565374826e-01,6.587581745391491994e-01,6.868419690129975441e-01,3.907684253966256516e-02,2.242060614378543412e-02,-1.234609240238881273e-02,1.141914948821067810e-01
6.060789953389035256e-01,6.214441437786688560e-01,6.970809719342122568e-01,-7.581640205029105406e-02,-1.365861659560822089e-02,-7.136772622343685694e-03,1.583541631698608398e-01
6.392724759288199721e-01,3.046850484284214233e-01,7.823288548050026936e-01,-2.339543892708199624e-01,-1.386575319462854047e-02,-1.069631153709586606e-02,5.877097249031066895e-01
3.786550645320544972e-01,4.263320024185389134e-01,7.806987874045423492e-01,-3.391205523403469924e-01,1.283125748832534370e-03,-5.009305527696043467e-03,6.998803615570068359e-01
4.218749552334720709e-01,7.360573718549050515e-01,8.125079048279810756e-01,-2.913654535390753919e-01,9.303386394130189196e-02,-6.470158675605923448e-02,6.494466662406921387e-01
7.181441942216655328e-01,4.119148499019816834e-01,7.849075314521799518e-01,-3.378155361321145689e-01,-5.721267010900207839e-02,1.127579911272344297e-02,6.864677667617797852e-01
6.434975451529143520e-01,5.781283867830468992e-01,7.307955289029555157e-01,-1.576786805206294440e-01,1.270368304214324539e-03,2.488950041596931992e-02,3.066784441471099854e-01
6.967153044794105465e-01,5.446408817876725594e-01,7.715148438280819976e-01,-1.249804077245087741e-01,-2.874524879940053290e-02,-4.685747646261849420e-02,3.098753690719604492e-01
5.407938699510281833e-01,7.010016477435921933e-01,6.977777654463603874e-01,4.062255750539233573e-02,4.405256319682090971e-02,-2.243771068989990763e-02,1.935025751590728760e-01
5.976648295692520430e-01,6.928408969964049424e-01,6.279343662276901661e-01,4.113859904815935810e-03,2.775909142631778972e-02,-6.862480249551038483e-03,9.796707332134246826e-02
5.693646805245733411e-01,6.755234868201993592e-01,6.638614582305755185e-01,1.594841095893607258e-02,2.039684427338631437e-02,-1.448097291095118942e-02,1.131720468401908875e-01
5.663818302884038314e-01,6.915730724546421682e-01,6.534756218687705065e-01,8.139444566822915880e-03,5.403139731236263066e-02,-7.882821796799400690e-03,1.466224342584609985e-01
5.810657766733529073e-01,6.911018128396529958e-01,6.243207112525491764e-01,7.177833898888072266e-03,1.363898664285125018e-02,-5.969705149043669397e-03,1.001941040158271790e-01
6.284435639307911492e-01,6.328651442246957526e-01,6.350562509921536813e-01,2.792620866010714093e-03,1.459930339402148438e-03,-4.421991596144333667e-03,1.106760557740926743e-02
5.927587692724858304e-01,6.768079488266033339e-01,6.281943813383068509e-01,1.175772180319103848e-02,1.233551969510893187e-02,-1.277089363277983391e-02,8.186652511358261108e-02
5.839073136239997242e-01,6.778775436333240867e-01,6.545990158673358206e-01,1.047243909413310414e-02,9.105201823431659930e-03,-1.312668605204670227e-02,9.099156409502029419e-02
6.755918747658911094e-01,5.969470897290182210e-01,6.341700332343611635e-01,9.354817458311036338e-03,8.115569838037284961e-03,-3.143461509918330649e-02,8.982031792402267456e-02
6.846403271510332900e-01,5.547123365470257861e-01,6.445572099641737607e-01,2.244865207910190508e-02,1.518715133463222761e-02,-5.900108736222255124e-02,1.610191911458969116e-01
6.675200481911561790e-01,6.344057308779000870e-01,5.980635750935581196e-01,2.442741213559304972e-02,2.593141887732377041e-02,-2.835887515523983701e-02,9.920103102922439575e-02
6.717139518582032620e-01,6.130835973534041194e-01,6.306954538379068165e-01,1.333714918036115610e-02,2.695412269779583203e-02,-3.214969675530701676e-02,9.235327690839767456e-02
6.822716141843494508e-01,5.535846063281543161e-01,6.169190262514075984e-01,2.353684514892658702e-02,2.278697931633978657e-02,-5.625983862903561478e-02,1.585448682308197021e-01
7.005922861093026865e-01,5.717460949810438953e-01,6.033984963324088291e-01,6.522545544622331860e-03,1.325133057106496655e-02,-6.019828470409727822e-02,1.582746058702468872e-01
6.311092128825668279e-01,6.537049182807852521e-01,6.143758664153947668e-01,7.541760370030875515e-03,3.564164390939366690e-03,-2.585456313399311142e-03,3.738275915384292603e-02
6.966679719599994103e-01,6.321152898955363364e-01,6.044320128611209153e-01,-3.919074138062132728e-02,-4.163602063368756351e-02,-5.121565025666412196e-02,1.561985462903976440e-01
6.847071535584223767e-01,6.048913055769931102e-01,6.112518057516033165e-01,-2.705475854471617314e-03,-1.287587851124211147e-02,-2.552261695165554747e-02,9.152536094188690186e-02
6.677305752660074312e-01,6.307682552090981831e-01,6.069304994858494284e-01,-1.150128956214690155e-02,-1.337508334952702480e-02,-2.433993379654276340e-02,7.433952391147613525e-02
6.777683866064688756e-01,6.043118555108046852e-01,5.239777786506326640e-01,-5.737621400315928016e-02,-7.758881257743639737e-02,-1.136173751031084311e-01,2.905398011207580566e-01
6.964885787628732894e-01,6.303397252717842791e-01,6.467776243234413247e-01,-4.589697084512310565e-02,-3.631007467032351665e-02,-6.232187880058782936e-02,1.596415936946868896e-01
6.643516522650783074e-01,6.926142803656605285e-01,5.344981210831926122e-01,-4.023780905310592182e-02,-9.845787481283041487e-02,-7.576050922060956205e-02,2.692374289035797119e-01
6.406737326559284185e-01,6.875581529037663175e-01,6.281783846383502956e-01,-3.141335184850429368e-02,-5.442313037483167970e-02,-3.479877442368598667e-02,1.357166618108749390e-01
5.159035692147697638e-01,6.859853444306065473e-01,7.178667630683296386e-01,-6.709402508054514158e-02,-4.939176543008080844e-02,-2.277505857118928417e-02,2.403045147657394409e-01
5.705787483736716181e-01,6.955822311461329344e-01,6.690792134494564225e-01,-3.655414197960211997e-02,-8.869479015584270931e-02,-2.571354099598783735e-02,2.064165323972702026e-01
5.945566839483014121e-01,6.143326220598346321e-01,6.094496107795899231e-01,-7.835251096813672378e-02,-7.916768056868644932e-02,-5.857435954779455223e-02,2.187033295631408691e-01
5.700939407303182715e-01,6.693309637396072098e-01,6.257668521979830034e-01,-2.089350592442178536e-02,-4.731493066487748450e-02,-1.502429714781363876e-02,1.269864439964294434e-01
6.022355176283610279e-01,6.935213229895568210e-01,6.261068728400488448e-01,-7.882607160283407188e-02,-7.670055120144161909e-02,-8.325052837336673062e-02,2.525972127914428711e-01
5.556061482194335488e-01,6.907884900119981575e-01,5.111246086501888275e-01,1.557631314149700574e-01,-2.513270179733431142e-01,1.379660229423942952e-01,5.879218578338623047e-01
6.007705461161187976e-01,7.696438789629181931e-01,5.723642003079497664e-01,3.407006183956082929e-02,-1.598019391163917613e-01,8.529565337476614773e-02,3.688367307186126709e-01
6.196596763457016266e-01,7.164596691433041675e-01,5.766513140981577301e-01,4.658026607723644852e-03,-8.292031061098176226e-02,3.027281470714102488e-02,1.970404088497161865e-01
6.049489622414054857e-01,6.965934070479035123e-01,6.423395994268650266e-01,4.075447846950726316e-02,-6.443036104939658948e-02,2.892231336446592430e-02,1.622227430343627930e-01
4.180689314433829740e-01,9.193745059154654342e-01,5.022040236125654422e-01,1.701580703436583186e-01,3.325111606697047084e-01,-1.481316532117738505e-01,8.370124697685241699e-01
6.466439494229594409e-01,7.890759455190156091e-01,5.475635036058114080e-01,7.151474038894301000e-02,-1.722745176791002641e-01,9.354680042845460453e-02,4.181478917598724365e-01
6.467013415620425087e-01,6.269934530992518074e-01,6.424175467797306194e-01,1.086810084563081223e-02,-1.786719900633968600e-02,1.467699062889188909e-02,4.775590822100639343e-02
6.297914696611282004e-01,6.402170978652266253e-01,6.505688449772748516e-01,3.117988500857856587e-02,-2.906003642409349039e-02,2.476551910212319504e-02,8.725698292255401611e-02
6.170500021555288539e-01,6.420712311950351747e-01,6.626462482522745834e-01,1.868155590726518558e-02,-1.224560662581404905e-02,1.222226748118140915e-02,5.923869460821151733e-02
6.103120742913449304e-01,6.348716673285788037e-01,6.578265564487383310e-01,2.645455820190411797e-02,-1.827825355098671931e-02,1.665246035687426712e-02,7.501727342605590820e-02
6.052588043786846228e-01,6.419051146918552941e-01,6.456722768059371953e-01,2.497546271906801035e-02,-1.857256268791673479e-02,2.445837385822657514e-02,7.871450483798980713e-02
6.421967030849162761e-01,6.275652363015551405e-01,6.278760389156079480e-01,1.681836338047489445e-03,8.472747188662100139e-04,6.084920578019788889e-04,1.487881224602460861e-02
5.055105563435855487e-01,6.939138767794627016e-01,6.978165942817795564e-01,4.013666150104661795e-02,-2.727496725054908908e-02,8.922539277161453675e-03,2.086858600378036499e-01
5.926900944343350686e-01,6.868018678249420139e-01,6.735375833319438010e-01,5.382921956721953977e-02,-5.016769978852386042e-02,4.258738193241559666e-02,1.716649234294891357e-01
4.879689338774831908e-01,7.385624297326620624e-01,6.807538891701967465e-01,3.026273316925224416e-02,-9.471403018624612036e-02,5.731063188645446616e-02,3.019366562366485596e-01
5.164524542253539074e-01,6.637765771045783803e-01,6.693809412903271028e-01,6.401636267853899609e-02,-7.808189607574163305e-02,3.876615994589109604e-02,2.401136010885238647e-01
6.595602168340862770e-01,6.516367714663100497e-01,5.642378286182361258e-01,2.863347639310533446e-02,-3.393785897052079004e-02,4.688358545707333597e-02,1.445787996053695679e-01
6.414464387837230941e-01,6.267966391542307836e-01,6.462673503586583434e-01,5.780522787420808162e-02,-6.665826365708552026e-02,3.620419459659254824e-02,1.661174893379211426e-01
6.586763398585930851e-01,7.027430872624688130e-01,4.581784543958932754e-01,1.186221099667468526e-01,-1.406871652436802733e-01,1.397161732466123130e-01,4.594895541667938232e-01
6.745174201417267756e-01,6.677124792869654213e-01,6.082825376525013983e-01,3.788749732221791816e-02,-5.917282853046461344e-02,5.765358830995704481e-02,1.696027964353561401e-01
5.643244108219074295e-01,7.028892174043487318e-01,6.655466153321735190e-01,1.487473316156406704e-02,-4.496647276672688376e-02,4.108131382642702355e-03,1.489988565444946289e-01
6.461834321148730576e-01,6.390160273935989732e-01,6.236460575142671603e-01,1.215502254530733892e-02,1.035869056152856869e-02,-1.239570073232583967e-02,4.029729217290878296e-02
6.249267986637038197e-01,6.394053894243850733e-01,6.436802492801637632e-01,1.133302180333543331e-02,1.133999471001204302e-02,-9.694979619519318928e-03,3.664525225758552551e-02
6.581432137576773700e-01,6.220486415177972628e-01,6.394552064142023928e-01,1.196877095676774846e-02,1.466309450045622832e-02,-1.989429284867926667e-02,5.691789090633392334e-02
6.427128943740887390e-01,6.181333932020868227e-01,6.417457119839268254e-01,1.653117783077832567e-02,1.771162238620434259e-02,-1.605563180079661381e-02,5.581763759255409241e-02
5.509719247114416296e-01,6.527536505403783718e-01,6.764729749555068450e-01,3.273805541654990076e-02,-2.593749765227726725e-02,2.211890969865643389e-02,1.415544450283050537e-01
5.426600117254511968e-01,6.582838395403020071e-01,6.860706633785690345e-01,2.225793092950985319e-02,-1.964236154979566787e-02,1.919853208649517293e-02,1.452696174383163452e-01
5.416522269022405744e-01,6.976193909386974035e-01,7.010314739507518267e-01,2.299142280323081614e-02,-2.581911330753716705e-02,6.877382567065661381e-03,1.691069602966308594e-01
5.070877463135985419e-01,6.831532327283590389e-01,7.040428804092281334e-01,4.959030829932435831e-03,-2.058047061703021860e-02,1.107843746294724131e-02,1.919010579586029053e-01
5.414044412719333232e-01,6.773792030153447108e-01,6.651371771670903099e-01,1.761833594262967456e-02,-2.497065114373631101e-02,2.179956938110955492e-02,1.456086486577987671e-01
5.392664650255963865e-01,6.845415737128922595e-01,6.821613547237012076e-01,6.297186991671906674e-03,-1.255142231558596840e-02,1.166228129434044962e-02,1.475274264812469482e-01
5.087786859657861260e-01,6.927313019391889704e-01,7.017222528283811878e-01,-2.902278871706322205e-02,3.168086310799583111e-02,1.151505627845689564e-02,2.037378251552581787e-01
4.823545550016446470e-01,7.145716837455672321e-01,7.080737078869433487e-01,-2.310916129287115747e-02,3.349013898699228914e-02,1.071465976535623289e-02,2.403525710105895996e-01
5.237451742535584875e-01,6.868912644656368638e-01,6.601017964920750103e-01,-1.974821446348746026e-02,4.283000339473663071e-02,7.690348392688251336e-03,1.726683378219604492e-01
5.496657046556111537e-01,6.910478157840980185e-01,6.649258711525601884e-01,-1.037593794766556929e-02,2.020240944203851793e-02,5.230856915472813749e-03,1.364095360040664673e-01
4.956263199954008547e-01,7.034224090178700095e-01,6.775812332402848526e-01,-1.468875462789740599e-02,5.293816588281347740e-02,7.714223380039467864e-03,2.184271961450576782e-01
5.199356125716531052e-01,7.112496702143835670e-01,6.779997069520837805e-01,3.342526073782968194e-03,9.791813329306566296e-03,1.171441742114351370e-03,1.779626756906509399e-01
4.941477787070983618e-01,7.049027329918791107e-01,6.983850934968121038e-01,-1.977101876328578919e-03,2.378545521956385717e-02,2.417641636140638751e-03,2.116908431053161621e-01
6.311096265351926471e-01,6.614384526639391915e-01,6.071021131250424752e-01,1.233109383007893571e-02,5.913611061423139185e-03,-7.989817355145728550e-03,5.456106364727020264e-02
6.216926365651753716e-01,6.601096388538520987e-01,6.210855249724678284e-01,7.586956219088054724e-03,1.179559032996350260e-02,-8.829251571057994061e-03,4.820289090275764465e-02
6.011401294398643902e-01,6.781343877159660138e-01,5.900944352442205609e-01,1.387368928990575373e-02,3.471472355066206050e-02,-9.902359569014373281e-03,1.067123338580131531e-01
6.262265786615103247e-01,6.820609673471083045e-01,6.115770394041889491e-01,5.113742926094264757e-03,1.461855890632895484e-02,-4.034586712991977686e-03,7.013150304555892944e-02
6.391705704298821233e-01,6.694860486579262693e-01,6.195909827584474838e-01,1.552273327613000638e-02,1.872200074170342343e-02,-8.724776152592352008e-03,6.243976205587387085e-02
6.393353990364312178e-01,6.660125296706530529e-01,5.923731374740061062e-01,1.872854431538016617e-02,1.495628017640199085e-02,-1.168633885521463966e-03,7.679443061351776123e-02
6.079632939633879962e-01,6.179520994067364548e-01,6.691997472315347473e-01,5.634442194251776045e-03,-3.312888669693123383e-03,7.717632546444809852e-03,5.953866243362426758e-02
6.595731675287048734e-01,5.970286366840620307e-01,6.362716549341498329e-01,-2.471799495356213211e-02,2.466719970217776461e-02,3.143652312838472740e-02,9.808420389890670776e-02
6.357458407448277615e-01,6.538075202119318918e-01,5.976458038722661792e-01,-1.919019233761750168e-02,-1.920519740984521703e-02,-1.291689162012638233e-02,7.195717841386795044e-02
6.743701352885287381e-01,6.314031108799277314e-01,5.320153066898856142e-01,-3.387869361766623205e-02,6.291887834154083481e-02,9.493091864521008283e-02,2.415570169687271118e-01
6.532666608688715293e-01,6.630956781717459725e-01,5.572717632796803100e-01,-2.743699992905392418e-02,4.363667847444780562e-02,4.497276391569128562e-02,1.558642387390136719e-01
6.370088824437154518e-01,6.374381506732262892e-01,6.514922194649842568e-01,-3.587666181236687235e-02,2.479670159542016888e-02,2.811458476126538208e-02,9.100031852722167969e-02
7.145212579871855763e-01,5.215516760701970345e-01,7.056611576900241323e-01,-4.822155555567776697e-02,1.528240117167273780e-02,5.422810699359156134e-02,2.282645553350448608e-01
6.152526571385777965e-01,5.806331492103434799e-01,6.640336505997185279e-01,-4.632996521392650918e-02,2.332719574343053784e-02,2.042761625757462396e-02,1.207915693521499634e-01
6.628841916955755531e-01,6.182684185651274866e-01,6.411578041075589596e-01,-1.501536373425983902e-02,1.483925484587065788e-02,2.026345223973205836e-02,6.373444944620132446e-02
7.084522075766208626e-01,5.707016995555530547e-01,5.570661573791315657e-01,-2.199363760887532507e-02,2.488149928441549946e-02,1.188460046406721454e-01,2.583040297031402588e-01
7.099605336754162277e-01,6.310197788280088593e-01,5.394650245963696911e-01,-3.162988820386981870e-02,3.663156305629984566e-02,1.000613931917512245e-01,2.427037805318832397e-01
6.722685787683676528e-01,6.323402918384736227e-01,6.079183667075622743e-01,-1.357466420354657907e-02,1.480085695233628908e-02,2.799188496657109212e-02,8.201506733894348145e-02
6.547073304088154577e-01,6.884508567090544817e-01,6.125064576011939321e-01,-3.188242184972073234e-02,6.070026962073234167e-02,5.172240620491648511e-02,1.627027988433837891e-01
6.840534565551464885e-01,5.503574346888436830e-01,6.910123768632492336e-01,-1.327644203658064626e-01,1.033518128293187677e-01,7.204966271527953048e-02,3.454719483852386475e-01
6.988369451463956050e-01,5.236977282414954082e-01,6.053469274480441920e-01,-5.816503236507118701e-02,4.539147757967763874e-02,1.283400309323675659e-01,2.979673147201538086e-01
7.012603520255297207e-01,6.337923095798827511e-01,6.328056383905711346e-01,-1.208324378364354496e-01,8.830258565680161598e-02,1.424032175844003045e-01,3.642100691795349121e-01
6.077871110260084642e-01,6.298776378481536486e-01,6.811011811568736807e-01,-3.053834988125628258e-02,9.155969818208058511e-03,5.048619700705126584e-03,8.584364503622055054e-02
6.049613751942706230e-01,6.730256854030710612e-01,6.267403801967060817e-01,1.077317981669083640e-03,7.873911973541269232e-03,-8.732255047740007659e-03,6.358408927917480469e-02
6.747435624312183577e-01,5.243336101641690172e-01,7.166267767456097060e-01,-7.372238769500127908e-02,3.544854511958792087e-02,2.339632014115351766e-02,2.288972288370132446e-01
6.678552519358195161e-01,6.224111043824027689e-01,6.154903173879503475e-01,-1.603554733479524820e-03,1.512847221091127500e-03,2.644362388982383991e-03,4.962998256087303162e-02
6.283922390258653845e-01,6.046191731674470660e-01,6.762006539276308459e-01,-2.580066671274323584e-02,7.776847438845425203e-03,8.669982999525097794e-03,7.994575053453445435e-02
6.331977048010852815e-01,6.095006346873279579e-01,6.718642143922052279e-01,2.336770574233438050e-02,1.543361199383488924e-02,-1.215166945045367992e-02,7.595169544219970703e-02
6.051168208636449330e-01,6.340119285391382364e-01,6.768467925502982263e-01,2.585766427407269752e-02,1.150041939704609696e-02,-1.323372324974918766e-02,8.267708867788314819e-02
6.693203230223028211e-01,7.230610040557947649e-01,6.142917126921575433e-01,9.090999762796726780e-02,1.168258624287674546e-01,-1.271604386156274524e-01,3.508867919445037842e-01
6.086493347157175826e-01,5.508173828759387325e-01,6.908176165195548668e-01,5.949694771426763257e-02,8.743921011243417640e-03,-7.609582731299318129e-03,1.608442068099975586e-01
5.401790662635211904e-01,6.227383128115930866e-01,6.906734322702386963e-01,5.900630487449326500e-02,8.929960933341574841e-03,-7.334245952890104149e-03,1.669901758432388306e-01
6.007090795002546502e-01,6.307799005828718109e-01,6.811522668937246561e-01,2.968524330579969811e-02,7.592299766878748274e-03,-7.310954584809367315e-03,8.906900882720947266e-02
6.637098439215556311e-01,6.261654452703290241e-01,6.183256282606682808e-01,7.747579729088160602e-03,-7.234737248467291645e-03,9.083908767006624793e-03,4.847718402743339539e-02
6.591889156285468676e-01,6.271979671306169291e-01,6.270573601523150575e-01,8.289830993925004568e-03,-8.449858057424187996e-03,6.853530377388858050e-03,3.986496478319168091e-02
6.578337736955023329e-01,6.073927443561859540e-01,6.320958488644683460e-01,3.751961925951689727e-03,-1.048729639943950416e-02,5.046788589483186191e-03,4.854979738593101501e-02
6.660759220825892557e-01,6.343366186405950957e-01,6.012871092682541274e-01,1.501913410908289025e-02,-5.744951178827841301e-03,6.863699751345283748e-03,6.376276165246963501e-02
6.892304716166162137e-01,6.290997356203348323e-01,6.026025547643567570e-01,8.774432686123481359e-03,-7.670165966170547703e-03,3.106842197759152741e-02,9.599118679761886597e-02
7.768191499412943068e-01,5.716085355830470283e-01,5.465152522986362893e-01,5.030011698491296951e-02,-2.783549008927441171e-02,1.193728000379164211e-01,3.171038031578063965e-01
6.868157298817375578e-01,6.394751103400304615e-01,6.057348406078808534e-01,1.315447304743365582e-02,-1.403741832880326702e-02,2.491619109739863502e-02,8.916021138429641724e-02
6.646442286985280168e-01,6.179062959742824823e-01,6.172196672111346372e-01,9.130063701343926405e-03,-8.874259214275320370e-03,1.195506819853115084e-02,5.596516653895378113e-02
6.793884759910433502e-01,6.058667795359183872e-01,6.163261626073048838e-01,3.644481246761522002e-03,-7.836025876343152494e-03,7.558993286055856048e-03,7.170298695564270020e-02
6.247695013633979277e-01,6.065865737025470938e-01,5.828867394897662146e-01,9.022348617727181386e-02,9.461567824032034169e-02,-1.039077331975372526e-01,2.915319800376892090e-01
6.072562298216168664e-01,6.574668939774551690e-01,6.325626771716621466e-01,4.348685697764085797e-03,5.151625697699794594e-03,-1.193780489380031132e-02,4.954551532864570618e-02
6.376638550830719954e-01,6.276968187511858810e-01,6.350420789814020806e-01,1.961761379217911213e-03,-4.696911148398486870e-03,2.859765252447948620e-03,1.350360736250877380e-02
7.195261125900751509e-01,6.231830455817976011e-01,5.831170683132019805e-01,3.026428179169825955e-03,-2.092047022576077817e-02,8.374539576571286836e-02,1.926854848861694336e-01
7.515694994640201854e-01,5.933888521908520230e-01,5.926966744604854620e-01,-2.975183264783737638e-02,-3.635981914240559582e-02,1.753471151442009823e-01,3.521257340908050537e-01
6.987563043025980525e-01,6.292917010057131888e-01,5.945098349650000946e-01,-4.877111968904023799e-03,3.032898965159168750e-03,2.967891272414199463e-02,1.057954877614974976e-01
6.792091580660727379e-01,6.329949064742489417e-01,5.994097820436810053e-01,1.675970433395228623e-02,-1.240687177661680025e-02,2.931772566103657898e-02,9.326773881912231445e-02
6.999767323933326901e-01,6.480413624598114763e-01,5.703267658057544764e-01,1.862453197678969399e-02,-1.093706614247324724e-03,6.672925219969035038e-02,1.648501306772232056e-01
6.902696387073177231e-01,6.010386306747947938e-01,6.087336391285272930e-01,3.420781977028484067e-03,-1.372368401761336724e-02,2.837277666649693983e-02,1.017345562577247620e-01
6.849891418603053506e-01,6.297596500293073385e-01,5.949443518522713470e-01,4.935081748820314149e-04,7.792369258525935847e-04,2.810168198040679383e-02,9.250351041555404663e-02
6.827960488202902134e-01,5.952397436197867098e-01,5.959989829247266391e-01,1.004765070940163594e-03,-1.526652857959398708e-03,2.910767102733677683e-02,1.007571220397949219e-01
6.428712678129897551e-01,6.199476691517663562e-01,6.621029725989864279e-01,1.734000219552162686e-02,1.735746244080867834e-02,-1.674900280185364840e-02,6.311631202697753906e-02
6.261034384168068234e-01,6.001581728606926180e-01,6.608629453506561502e-01,1.660628332784456346e-02,9.218782493620517743e-03,-1.275137402951519866e-02,6.597939878702163696e-02
6.122288849368214825e-01,6.232178083198364194e-01,6.765777139635930082e-01,2.676827466802839464e-02,9.845756409631459607e-03,-6.136592393443996742e-03,7.815251499414443970e-02
6.141073709657535185e-01,5.568145510179798308e-01,6.800600544473599518e-01,5.493319657647161014e-02,2.088449127889974166e-02,-2.343386732380578139e-02,1.530350595712661743e-01
6.185997283619697473e-01,6.344955947288367648e-01,6.616986748532318607e-01,1.459112082608010966e-02,1.532442089240365797e-02,-1.430847648930946327e-02,5.815940350294113159e-02
6.415206723036928071e-01,6.186906922885354598e-01,6.473673712439843575e-01,1.735949601074093102e-02,1.673044145198756757e-02,-1.742270596859848975e-02,5.782130360603332520e-02
6.463362165018563532e-01,6.354717861791346900e-01,6.291708571095656621e-01,1.418565723464201497e-02,8.094078206226663560e-03,-1.271210193213882962e-02,3.887450322508811951e-02
6.452168889942673236e-01,6.280139785812582920e-01,6.265789283559922707e-01,8.269594264135071357e-03,9.219847473609998206e-03,-6.957800998998827334e-03,3.046464920043945312e-02
6.383580976495651926e-01,5.595825302399531909e-01,6.880969797834441959e-01,1.030022790566673258e-01,4.477057500890767316e-02,-6.299929796487555023e-02,2.496920377016067505e-01
6.228197768828757086e-01,6.613276512453115652e-01,6.404299906913257789e-01,1.310940563589097115e-02,1.520685667509546861e-02,-1.249236617236148227e-02,5.284256488084793091e-02
6.416761580468720583e-01,6.368217108283805716e-01,6.168063226760661655e-01,1.788130754033292330e-02,1.444111620984711054e-02,-1.757053342725655928e-02,5.506702139973640442e-02
6.011178251750495249e-01,6.354466214723436535e-01,6.314795626812548246e-01,2.734167139956728346e-02,2.775122293125411102e-02,-2.443483909794020442e-02,8.603659272193908691e-02
6.266983330270379238e-01,6.548177090272406797e-01,5.893583654242845471e-01,2.538458098930869086e-02,3.350436523051061877e-02,-2.589947645062606191e-02,1.027037277817726135e-01
6.404184185797711093e-01,6.615151117449917795e-01,6.147123603264550429e-01,1.556224949568689973e-02,1.816201109646314177e-02,-1.414163223528012991e-02,6.296244263648986816e-02
6.383811630384418345e-01,6.716923382304752499e-01,5.751446954111488763e-01,3.724776511720836319e-02,-1.018704956025421049e-01,7.446785766660571348e-02,2.432001978158950806e-01
6.612137127243943313e-01,6.741850338351834671e-01,5.682933438443952268e-01,3.816260342659021088e-02,-8.480409411924827445e-02,7.735317735357062630e-02,2.321694344282150269e-01
6.618005778334935529e-01,6.393414905268534065e-01,5.964206671432228379e-01,2.035490641923632174e-02,-1.856305775061931063e-02,2.740032413733872740e-02,8.854169398546218872e-02
5.924063790529044971e-01,6.529191288214107880e-01,6.270167493052914987e-01,4.515064727434481978e-02,-5.481546744892838025e-02,3.326147885150445432e-02,1.456510573625564575e-01
6.998800864041123670e-01,6.910537955673643484e-01,5.217187183577793874e-01,5.066907889263450038e-02,-9.186673446458890058e-02,1.149473356454236150e-01,3.207898139953613281e-01
5.895517908319520828e-01,7.457124534193229071e-01,4.915433206556398260e-01,4.124472083931841199e-02,-1.514834159917341216e-01,5.080036560818166486e-02,3.619170784950256348e-01
6.552024665142088811e-01,6.640389914885655998e-01,5.707065751992717040e-01,3.011407070992879256e-02,-3.728227605726919247e-02,3.880448028864127985e-02,1.391837894916534424e-01
6.462796523977859531e-01,6.976253861872797613e-01,5.262488789318437998e-01,2.042123042350777254e-02,-6.453625538692255026e-02,4.055629921731555843e-02,2.046634852886199951e-01
6.546684168099602408e-01,6.908590882224400209e-01,5.559914092864219892e-01,1.991572693592948140e-02,-5.104417076270052062e-02,3.303222272538747922e-02,1.640058457851409912e-01
5.806523281254596380e-01,6.250176304409831296e-01,6.782818795115370669e-01,-1.714950417775931366e-02,-6.353791604168537374e-03,-7.521975863227409881e-03,9.133243560791015625e-02
5.961206641355438762e-01,6.298426494529085762e-01,6.956061503434586291e-01,-3.022282466166227935e-02,5.565377078214977721e-03,6.389401546701971302e-03,1.031277701258659363e-01
6.041300205396368250e-01,6.074798541742646441e-01,6.714592541787675062e-01,-2.295706169093032767e-02,-1.054069524618284244e-02,-1.056912069875148678e-02,8.104580640792846680e-02
6.356669275682899078e-01,5.905628745638357158e-01,6.924055290287148834e-01,-5.073910057277208202e-02,-3.913930468798135220e-02,-3.061758134065946726e-02,1.514731645584106445e-01
5.671363923749028757e-01,5.664458271682855095e-01,7.461164937531514774e-01,-1.277941286767769191e-01,-9.136780713374918761e-03,-5.249309157979266394e-02,2.994478046894073486e-01
6.156408716998256203e-01,5.671898218087800814e-01,6.758914666672811711e-01,-5.045222455994329003e-02,-2.236696887069553399e-02,-2.145889100368453262e-02,1.393392235040664673e-01
7.319797482590114646e-01,4.617947175831622619e-01,7.524442481075299671e-01,-3.013255667129468088e-02,-2.969533724276802664e-02,-2.965301526231558377e-02,2.948816716670989990e-01
8.206895518755410457e-01,4.136829175519889934e-01,8.048621619472910993e-01,-1.987633965312030765e-02,7.064612034955250995e-03,-3.314953999269329432e-02,4.050859808921813965e-01
8.063755840145994114e-01,1.011325968302354550e-01,7.709236262158467579e-01,-5.045217253822762565e-02,-4.855761623003638366e-02,-2.585916141588644537e-02,7.002415060997009277e-01
8.136918058655410180e-01,3.051149294733764838e-01,7.376831570872559585e-01,-1.401614660460844819e-01,2.184405776684475789e-02,-1.258100493435829192e-01,5.776012539863586426e-01
6.825782124593995359e-01,5.480529303472000402e-01,6.993355808027237330e-01,7.630807506256795381e-02,-1.825789063650581218e-02,3.142950158982231457e-02,2.050960958003997803e-01
7.343370425848272376e-01,4.625088518046539532e-01,6.912465305059111165e-01,5.367741138383771288e-02,-2.560368383114422497e-02,4.755431498658536232e-02,2.853573560714721680e-01
6.992334177561272401e-01,4.434258903422046982e-01,6.844976473276587203e-01,3.268698875642163382e-02,-1.538408881205078835e-02,5.538158775120900768e-02,2.738645672798156738e-01
7.585272643191572906e-01,4.626059415404197850e-01,7.574690540776981562e-01,8.610731394232158664e-02,-1.832713978173233782e-02,7.551722424459113292e-02,3.572352528572082520e-01
7.380098361939873008e-01,5.243121299997380858e-01,6.755264819649156038e-01,5.829246479172199569e-02,-2.557517872574867346e-02,7.389601217676229628e-02,2.544729709625244141e-01
7.005747108471829243e-01,5.200287831777422598e-01,6.797796629285572934e-01,4.930603205036139525e-02,-2.493218133802925160e-02,7.144984163481046813e-02,2.318364530801773071e-01
7.140418371618906246e-01,6.530803400703092398e-01,5.568560640332580469e-01,1.550734801061019914e-02,-3.190505236294811225e-02,4.688228942988732079e-02,1.709107011556625366e-01
7.332749016528206099e-01,6.612885991641680450e-01,5.673501785526204877e-01,-2.868787339016284476e-03,7.925212512865792425e-03,6.906777006610367864e-02,1.878641098737716675e-01
7.710587652153647609e-01,5.615317671571398161e-01,6.036939010318229659e-01,1.948160013639986185e-02,-1.897577961225145951e-02,1.991450729660625973e-01,3.975427448749542236e-01
7.795800536728596519e-01,5.929851269211995346e-01,5.426791209704970864e-01,4.989463743148295216e-02,-8.730601970867138406e-02,1.342846713990018259e-01,3.621709048748016357e-01
5.664819740794364566e-01,7.134407312459115635e-01,6.208725986345171588e-01,-5.614691629762782500e-03,5.542687394896596287e-02,1.182647532805362715e-02,1.621500104665756226e-01
6.104674260299350896e-01,6.243031529798747092e-01,6.566467422136080812e-01,7.318950868431346214e-03,-5.340131708459474810e-03,1.075072459161219122e-02,4.772859439253807068e-02
5.625903848899203030e-01,6.882939315474050357e-01,6.091921121703574027e-01,7.885328243477708957e-03,5.206081217923443083e-02,-1.024443968349486069e-02,1.440398097038269043e-01
5.996697677519432501e-01,6.971545768154696621e-01,5.985481948528643681e-01,-6.766985950842680300e-03,2.723546023278851716e-02,2.707376819826247307e-03,1.095379367470741272e-01
5.529082276198770129e-01,6.950118199226192894e-01,6.178253482146633946e-01,-1.043567253997895045e-02,8.006783197988308343e-02,-6.414161541551834230e-04,1.863953471183776855e-01
5.764437333076021241e-01,7.391627128909616928e-01,6.163836977718258892e-01,1.817519431459541784e-02,7.945354972567161833e-02,-5.883845005002288908e-03,2.039783000946044922e-01
5.958447132650899203e-01,6.831721738216287587e-01,5.963576339427325568e-01,8.047412449868127223e-04,2.859282426781317027e-02,1.268376918008740281e-05,1.001805812120437622e-01
6.838357834649543276e-01,5.271237176406791125e-01,7.044789260708360645e-01,5.858612667069315605e-02,-6.120001384937988516e-03,2.585547214726064899e-02,2.015805542469024658e-01
6.535495188430979763e-01,5.460567417807457025e-01,6.606939774769231555e-01,4.018759600688850964e-02,-1.794544555701132332e-02,2.945137939867787519e-02,1.441773772239685059e-01
6.518802844845076327e-01,5.447769280457135377e-01,6.786944603357891737e-01,4.335934608053609862e-02,-1.783139876984593877e-02,2.398225034315719026e-02,1.529099047183990479e-01
6.777743547802359547e-01,6.168328791273151035e-01,6.153561720448589289e-01,-5.003996065263496135e-03,3.706996105319807725e-03,1.051743988795058975e-02,6.522447615861892700e-02
7.913239404529688326e-01,7.753715232859860196e-01,4.007859462215324631e-01,-1.284926228110232216e-02,6.057143115926809894e-03,-4.765733566845541114e-02,3.923817276954650879e-01
7.992447003886772317e-01,7.922493055523758265e-01,4.224832226079724418e-01,-4.438445287953007856e-03,3.032105501974142331e-02,-8.686405451994620025e-03,3.773673474788665771e-01
7.842329868010217142e-01,7.827379538034808792e-01,2.203062729040501377e-01,-1.612046892225675783e-04,-1.948469098327558491e-02,-1.062217804521173314e-01,5.934312939643859863e-01
8.001544505862855372e-01,9.156004167433346996e-01,2.480296624052917287e-01,-6.113141872369140528e-02,-9.190148497825964546e-02,-4.917945563384486934e-02,6.524682044982910156e-01
7.662784238395360381e-01,7.821366791394029905e-01,2.402971904814970583e-01,6.669543802736883041e-03,-5.700624145657869762e-02,-1.013526306433035346e-01,5.709190368652343750e-01
7.899576263162362277e-01,8.066524377559526338e-01,1.975956187266260655e-01,1.217833775502887017e-02,4.346183880839830233e-02,2.668749404221415142e-02,6.077081561088562012e-01
6.359397782256041021e-01,6.401897762260631009e-01,6.295466388078082565e-01,5.530064136430571167e-03,-6.022575350750569251e-05,2.438349249127919494e-03,1.398920640349388123e-02
9.875825818900125785e-01,9.633814638610691539e-01,3.133821195406332749e-01,-7.180038179138307185e-03,7.026702778883717193e-02,-8.982939641608626846e-02,6.913685798645019531e-01
6.631644693718687922e-01,6.124835249332899467e-01,6.986275935149002247e-01,6.738571573571236484e-02,-6.047763001602525501e-02,7.391291094326105093e-02,2.158888280391693115e-01
6.517182662664851023e-01,5.978907262374596465e-01,6.971489381752853376e-01,5.557860137381492871e-02,-3.552080003989720874e-02,3.315242308835192331e-02,1.541302800178527832e-01
6.036745751543957095e-01,6.000806414579996639e-01,6.648517557265791744e-01,4.151871536083915487e-02,-2.040792839893370431e-02,2.497707975903144112e-02,1.107603535056114197e-01
6.145595372028352932e-01,6.229645611171032993e-01,7.239509407217262771e-01,6.795812102912573982e-02,-6.702990058684759125e-03,7.379411537788546117e-03,1.589678078889846802e-01
6.090902285020600715e-01,6.164035532275589091e-01,6.878124279717273692e-01,1.513701928133265318e-01,-5.423409707051418671e-02,7.457946445094341958e-02,3.161076605319976807e-01
5.923137801389034562e-01,6.276140572209756296e-01,6.614862045944538416e-01,3.685348014828155466e-02,-2.825976496414748726e-02,2.683405694504303191e-02,1.105427891016006470e-01
5.684609189634048931e-01,6.309946767988507954e-01,6.750460367566514241e-01,4.258346352581177802e-02,-2.043132853946271615e-02,1.537782143675640520e-02,1.265207231044769287e-01
6.073884561678453142e-01,5.617936383363861808e-01,7.286040912929079294e-01,-5.990696760016223782e-02,2.954443779668305893e-04,4.716255190895527610e-03,1.820232123136520386e-01
6.140068190210176136e-01,5.695464085974389912e-01,7.075479862721816282e-01,-5.105717195852173262e-02,-3.004543319494724918e-02,-2.492218356921277467e-02,1.651592850685119629e-01
5.146783419415901228e-01,6.853513842411952384e-01,6.973689464070736976e-01,-6.358652224696885458e-02,2.585399757174148758e-02,3.910779016309492984e-02,2.237142473459243774e-01
5.373827680210819802e-01,6.104210625019271808e-01,7.007430710935499407e-01,-1.059246646099127331e-01,-4.508390287363475690e-02,-3.168117904118232520e-02,2.507159709930419922e-01
6.005068902906972594e-01,6.329548974119808546e-01,6.975261384699660283e-01,-3.104050328119887028e-02,-5.027551714143744035e-03,-4.173569124023952803e-03,1.016668602824211121e-01
4.598318109138729293e-01,7.847182449223342182e-01,8.199434701486818522e-01,9.751778047405722238e-02,2.132347188255966780e-02,2.813779481179916851e-03,3.849067091941833496e-01
6.239311836374524800e-01,6.367173934716932049e-01,6.532066632831704522e-01,-3.779756011042386624e-03,6.381860930507031069e-05,-1.070116787016180647e-02,3.213464468717575073e-02
6.294018827283255346e-01,6.327279701762802411e-01,6.370450298415517576e-01,4.279141867977927574e-03,-4.056456960870862861e-03,5.101957632442415992e-03,1.504813600331544876e-02
2.169626624521623914e-01,7.516925300779679908e-01,7.311202648298920082e-01,1.269040841706572664e-01,-1.545581059581516703e-01,1.997651211928667958e-02,6.297097802162170410e-01
6.132140260537058962e-01,6.549022959355237372e-01,6.302531702115774515e-01,3.402111074807005840e-03,-2.627292595281570820e-03,8.181288303911887078e-03,3.967547416687011719e-02
5.338920461183065402e-01,6.803220849946732818e-01,6.742936231133860314e-01,1.017745820764068797e-02,8.681050688572760493e-03,-1.363246157210184009e-02,1.472742557525634766e-01
6.239562729228093074e-01,6.445463136208160471e-01,6.167930301037234386e-01,1.345074178078386161e-02,1.489090889594044814e-02,-1.136825497152194053e-02,4.710042104125022888e-02
1.293545170606024697e-01,8.044722750378234810e-01,8.097776724754963684e-01,1.041543820591829955e-01,-1.407249487293234149e-03,2.854227280267884401e-02,7.031274437904357910e-01
9.100216069932051122e-01,3.833469266375881257e-01,7.942693896796432229e-01,-1.584233638076879835e-01,4.036654313306067832e-02,-1.241611004006665381e-01,5.968678593635559082e-01
6.217192817068101229e-01,6.544576132566212179e-01,6.217003096440665288e-01,1.973545902399940523e-03,-1.404852884535485438e-04,-1.393871107314050093e-03,3.301503136754035950e-02
6.036573594437886214e-01,6.515691128814780075e-01,6.321601382409164360e-01,-3.489969374422891880e-03,4.451931439389093803e-03,1.100229909676638841e-02,4.691989719867706299e-02
1.909455942178747145e-01,7.081542047567905840e-01,7.857031502471656381e-01,2.237919239329203835e-01,6.844621332937768365e-02,-2.528740582111066448e-02,6.927113533020019531e-01
7.038380996843117687e-01,7.068385155096915673e-01,4.722685706146988460e-01,2.738357518860491755e-03,2.237249721995931973e-03,-3.074218369129276714e-03,2.332254648208618164e-01
6.266839389342915290e-01,6.483066056162324342e-01,6.315632209286247134e-01,8.086519861483242727e-03,4.643072539096962208e-03,-8.591497441531200513e-03,2.946413494646549225e-02
3.643685984222780894e-01,9.523709468672849621e-01,8.214880398427565344e-01,-4.586862290746594045e-02,2.356889812785709082e-01,-3.085715372967324718e-03,6.774259209632873535e-01
6.946758127138648042e-01,6.006703594097252408e-01,6.348637294083538940e-01,3.609200209334486719e-03,-5.711596145041620415e-03,3.177072754988369968e-02,9.978442639112472534e-02
6.936869746348568455e-01,5.784775200605085654e-01,6.234331535798252055e-01,3.083861873576504084e-02,-2.865742636807844940e-02,4.682103248305435894e-02,1.483521014451980591e-01
7.260772743069292545e-01,6.475012168035115812e-01,5.619674724618550776e-01,3.864558918783989137e-03,-1.466574222538652265e-02,7.115263647709491046e-02,1.899717599153518677e-01
6.938928501216526934e-01,6.105949848695617632e-01,5.755657126935811441e-01,8.548648774351075286e-03,-9.931646302683509037e-03,5.059335544347095398e-02,1.388440132141113281e-01
6.849413889455499005e-01,6.064409573454880853e-01,5.760864831791582263e-01,1.462209453914253138e-02,-1.355617854678260910e-02,5.138719935982642012e-02,1.363129168748855591e-01
6.433936402864530724e-01,6.205709843163168538e-01,6.127406442588761992e-01,1.492058750337796683e-02,-1.853424624408570379e-02,1.571374724401813222e-02,5.656933039426803589e-02
6.595317709875138101e-01,6.202491749426284340e-01,6.200352100627329888e-01,1.062418434144301108e-02,-1.035636131948916919e-02,1.278361877080210103e-02,5.198286846280097961e-02
7.902780808228622167e-01,6.546016088228990837e-01,5.699204451983528319e-01,2.190044705304893674e-02,-4.218723603033780467e-02,1.489890257649567062e-01,3.323245644569396973e-01
6.287011538981426284e-01,6.346652069793519146e-01,6.282797671585516053e-01,2.279880899048878067e-03,-4.416229729303394400e-03,3.794523924171240136e-03,1.247231848537921906e-02
7.255862373272556898e-01,6.463096634922584904e-01,4.393460050509668813e-01,2.222149695979291906e-02,-1.858080562016887094e-04,1.368452128138142321e-01,3.509806692600250244e-01
6.001610823358094482e-01,6.344993242094189023e-01,6.984356878628467102e-01,-3.499408969205597408e-02,4.280530053049083627e-03,1.829158343336778928e-03,1.058357283473014832e-01
6.927911015855304777e-01,6.771140244482244386e-01,5.123548667694681757e-01,-9.242614002590479605e-03,-7.729976539191684738e-04,1.291223401245708731e-02,1.753069907426834106e-01
3.438589976085205113e-01,9.553738914424667605e-01,9.141423080778444676e-01,-3.817523976627249654e-02,1.533196575091313185e-01,1.192735785021118745e-02,6.525000929832458496e-01
6.282670448398907093e-01,6.040385285685712091e-01,6.699487149651655038e-01,-5.300337527914309593e-02,5.417428320640356454e-02,5.524264976194905030e-02,1.724011301994323730e-01
5.564562094682765636e-01,6.638145132292285755e-01,6.808709061757182157e-01,-3.396685269803277618e-02,2.827541193832280864e-02,1.735551250562202344e-02,1.428679525852203369e-01
6.333690263560316502e-01,6.129257834688736084e-01,6.683917949724570429e-01,-2.272656647438744612e-02,1.632672220366373703e-02,1.480683301545948800e-02,7.326255738735198975e-02
6.816692782120011840e-01,6.969535728107303374e-01,5.191976750158581178e-01,-5.363356690652219989e-03,1.432756278962649989e-02,1.963705519906184995e-03,1.727066785097122192e-01
6.135960004617612151e-01,6.538655887879788464e-01,6.356099611160097584e-01,3.399153666521546532e-03,-2.626198928884371057e-03,9.991504639433318805e-03,3.968129307031631470e-02
6.242011809020875379e-01,6.629155031815392451e-01,6.143066937641159520e-01,8.079908644368352308e-03,-5.391316688079436474e-03,4.596667937772879776e-03,4.823069274425506592e-02
6.711154008958580830e-01,5.405008190593191264e-01,6.807014331749965397e-01,-7.648566212638378999e-03,1.130772112180361555e-02,7.719780551837926788e-03,1.383546739816665649e-01
6.178520052834942655e-01,6.643018873775949906e-01,6.755240831667206347e-01,-5.432260292851248673e-02,4.865700446669365964e-02,4.001792816638966022e-02,1.535071730613708496e-01
6.511787890859626060e-01,5.719986783313498746e-01,6.865861897893015264e-01,9.468654996610528438e-03,6.629499143646664511e-03,-1.889522698431117878e-03,1.036255955696105957e-01
5.544978630177439527e-01,6.585193997295677448e-01,6.933100318899299008e-01,-4.166245996707634153e-02,3.398167115192369386e-02,1.327072755312195401e-02,1.576379537582397461e-01
4.654953415438494724e-01,7.276122952228738505e-01,7.619850064959994285e-01,-1.572526548527673484e-01,2.509271369154230102e-01,7.477664507164237528e-02,5.989570617675781250e-01
5.261214798601242526e-01,6.805056163576723716e-01,6.923043182204234869e-01,-1.152401752232100167e-02,1.101929783188424676e-03,6.076530452813642610e-03,1.621975004673004150e-01
4.317254435557741354e-01,7.047660221058212882e-01,6.027641258648401834e-01,-1.475062809896745264e-01,2.092906938068360145e-01,1.262392929275128195e-01,5.491776466369628906e-01
6.805341406334804999e-01,6.108897421680182793e-01,6.154099749636942063e-01,1.082646193521281074e-03,-2.320174898397362948e-03,1.791577341862194512e-03,6.771455705165863037e-02
5.603289298427915899e-01,7.164203538959825757e-01,6.700261281941924940e-01,-1.002564322091960697e-01,1.308053336593045235e-01,8.472292701395743586e-02,3.497045934200286865e-01
6.304169743685266170e-01,6.623072266023558585e-01,6.098459589801630276e-01,8.970421799401275334e-03,-3.518964492742159434e-03,2.822419633403517192e-03,4.897573590278625488e-02
6.233879450115956677e-01,6.479506025154557758e-01,6.295387371323708514e-01,2.466212080657552864e-03,-2.762171248633545507e-03,7.121238499038634422e-03,2.614092640578746796e-02
6.110455562216003944e-01,6.792763706623742292e-01,6.336088919868740899e-01,-1.405046266048552706e-02,-2.451418861189389939e-02,-1.578711419238788827e-02,8.226673305034637451e-02
6.311503770852754380e-01,6.787101304814245895e-01,6.030384918966159580e-01,-1.516808524034390059e-02,-2.754305361179260406e-02,-1.478693869787428734e-02,8.950550109148025513e-02
6.008436718178340463e-01,7.175217410969660925e-01,4.919761242189458761e-01,-2.325334229868655789e-02,-1.148441739120244637e-01,-2.739704581058440350e-02,2.856744229793548584e-01
5.570385501286511110e-01,7.168357817601143100e-01,5.368771919048094254e-01,-2.670047479612620844e-02,-1.299677210561735741e-01,-3.038731651778142986e-02,2.911135554313659668e-01
6.232108947577008617e-01,6.411332251581925989e-01,6.149165374329215172e-01,1.100418193575010417e-02,-1.475531448298622941e-02,1.284295280951981005e-02,4.527602717280387878e-02
6.092048243359472481e-01,7.674867338150704876e-01,6.426682103456395900e-01,-5.423824494823117903e-02,-1.347178770726910890e-01,-6.086390220424510444e-02,3.086448311805725098e-01
5.897756660588356903e-01,7.623647059359295319e-01,5.598060260877728567e-01,-6.044164376115387927e-02,-1.083584581151707110e-01,-5.414456307861488515e-02,3.013913333415985107e-01
5.703383601266439618e-01,6.730505712771797100e-01,5.979620067664455085e-01,-2.074825943602438480e-02,-5.807392177100306752e-02,-2.434461393141501215e-02,1.471827775239944458e-01
6.145731193197914166e-01,6.752742095053179128e-01,5.747921334826999740e-01,-2.241042259833076616e-02,-4.849761040472138490e-02,-2.016882861432688079e-02,1.321551352739334106e-01
5.659994373928001199e-01,6.917616995642279498e-01,6.588705778818454428e-01,-2.948034916482183618e-02,-5.415522681442206526e-02,-8.553747695434104834e-03,1.561622470617294312e-01
6.380212997642401573e-01,6.536936581108552247e-01,6.154159177367918288e-01,1.022761659076995913e-02,2.428928402361956590e-03,-2.650738222397148146e-03,3.825567290186882019e-02
6.245988154176560503e-01,6.475860312092084348e-01,6.246708330161596656e-01,8.274730761093064546e-03,-8.722328131881201818e-03,8.680123071286334133e-03,3.444482386112213135e-02
6.565919892917205791e-01,5.604589417204026702e-01,6.939204808345096342e-01,-4.751329289691142571e-02,-1.630678929234238156e-02,-2.531901637682775971e-02,1.540029644966125488e-01
6.228236085118259435e-01,6.606066805879711179e-01,6.160519539739678363e-01,-7.085465972620247355e-03,-3.985114489193916816e-03,-2.348918736703284500e-03,4.409168660640716553e-02
6.457055247570122614e-01,6.441974413817513900e-01,6.462795328970788455e-01,-4.649514654609420566e-02,-4.032468259569318286e-02,-3.407911286672713619e-02,1.218657568097114563e-01
6.010286455063031941e-01,6.630878721805479881e-01,6.099708659753894091e-01,1.442056981906300432e-02,-2.047671288918969518e-02,1.363690933707738598e-02,7.626274228096008301e-02
6.120527542416416278e-01,6.359661214712530874e-01,6.756626928029274559e-01,-1.866272089941375251e-02,-1.009084168731038018e-02,-1.093608490261382266e-02,6.932608783245086670e-02
6.349242063940320202e-01,6.162531309901942977e-01,6.376871612566600289e-01,2.677588163898525237e-03,1.004828046346246950e-02,-3.031295342950105203e-03,2.756462991237640381e-02
6.091393502283993788e-01,6.322027333857178633e-01,6.559105141032479658e-01,3.638541502090679447e-02,-4.038694760097117503e-02,1.914691341849847697e-02,1.077292189002037048e-01
6.236048988051047237e-01,5.732557287475231744e-01,7.385338857318418659e-01,-1.647603329741295641e-01,3.798876546134276333e-02,5.482886691617418207e-02,3.410516679286956787e-01
5.622053599345696595e-01,5.844228960983413046e-01,6.952913911881770659e-01,-7.284371507317582983e-02,-1.591339743924915368e-03,-7.626355088947670436e-04,1.765690445899963379e-01
6.514302093761370482e-01,5.818535324712779122e-01,6.732108793333135832e-01,9.110450082781251444e-03,1.137418760989749623e-02,-4.148400744710250068e-03,8.671495318412780762e-02
6.287390882770965694e-01,6.131076753140424218e-01,6.848443862547941574e-01,-2.844904169508482086e-02,-1.533778297718381076e-02,-1.650423114347137135e-02,9.066480398178100586e-02
6.001110893480171571e-01,6.294229026008085759e-01,6.840328807460158700e-01,-3.141204493558164695e-02,-1.389564169034779653e-02,-1.276912335498026942e-02,9.731761366128921509e-02
6.288663283958515482e-01,6.004345659977937677e-01,6.933490670847874959e-01,-2.800611883086611548e-02,1.115754007272195918e-02,9.698177623461387217e-03,9.903742372989654541e-02
6.226225847429076588e-01,7.147516419694235346e-01,6.096007720811797981e-01,1.538130936370450848e-02,-7.395004155963161296e-02,1.180383884112541810e-02,1.655010282993316650e-01
6.772526446739515205e-01,5.207548100568528682e-01,6.940024942623284065e-01,-1.175327402330655219e-02,-5.543715399061534960e-03,-3.548030397973595679e-03,1.671461313962936401e-01
5.564931428560094817e-01,7.202045135020360700e-01,6.657937515720135924e-01,7.131008684046100457e-03,-5.840958013728371478e-02,7.031164975091152257e-03,1.771727651357650757e-01
5.287265372777416594e-01,6.699135011414656393e-01,5.959974559716599840e-01,6.766619501867199293e-02,-1.105941000566550286e-01,5.422633562528052231e-02,2.724190652370452881e-01
5.856614892293507957e-01,6.839981970638678854e-01,5.568189955308521233e-01,-4.558588454689472408e-02,1.071162838514003041e-01,4.868234599575432808e-02,2.471924275159835815e-01
6.794107516540084379e-01,6.174549877560311373e-01,5.645637785120399821e-01,2.342056836087243535e-02,-2.609600362344309879e-02,5.012311321190771052e-02,1.453907340764999390e-01
6.168168305279337904e-01,6.696171487092288377e-01,6.100370359716595914e-01,6.351055559508784337e-03,1.093284690691944359e-02,-3.443396596649245679e-03,6.088493019342422485e-02
5.265916085850270711e-01,6.781062908107671205e-01,6.589259470876105418e-01,5.000577474978764453e-02,-7.867095622703573765e-02,3.834989180826606919e-02,2.256096452474594116e-01
6.141148850698424644e-01,6.809190663895616780e-01,6.106483588084903324e-01,8.034728119201938455e-05,-1.926707443802901706e-03,-6.275249996136982034e-04,6.869301944971084595e-02
5.353032141743685468e-01,7.138045063250527678e-01,6.662255222456768822e-01,1.037288433902737103e-02,-7.387630293673437543e-02,1.442013248346926506e-02,2.072517722845077515e-01
6.193541845833360204e-01,6.155615037401779288e-01,6.619152710044898802e-01,7.500063374480316070e-03,7.596645749559012908e-03,-5.732424653041111491e-03,4.927182942628860474e-02
6.728508424964418921e-01,6.337325388115158109e-01,6.050861494362488324e-01,1.221374369294477708e-02,4.012960970982698203e-03,-3.590200332417134606e-03,6.329267472028732300e-02
5.295978345029962453e-01,7.212759634073480086e-01,7.104471441717290503e-01,1.058762983925643636e-02,3.566482103293661804e-02,-5.106520605994535611e-03,1.975160241127014160e-01
5.713611564521418051e-01,6.991772323529769073e-01,6.242862586418908011e-01,1.182538948766567559e-02,-4.921567566177630776e-02,9.247789723046339130e-03,1.425340920686721802e-01
6.172185637670454250e-01,6.088415365987831507e-01,6.700911925386857648e-01,-6.851342971293916673e-03,7.098532106294323449e-03,3.959204249237122282e-03,6.039553880691528320e-02
5.808056886691721488e-01,6.605414405534871802e-01,7.010101631247261933e-01,4.118170959267793835e-02,3.268655065462822140e-02,-2.330096880669714487e-02,1.454102694988250732e-01
5.691446987722654782e-01,6.490781618915716367e-01,6.969983881644407075e-01,8.894441743287713822e-03,-3.865310677394438992e-04,1.024697414298372496e-03,1.129471883177757263e-01
6.189776177841309623e-01,6.244189738469155815e-01,7.071910386636157675e-01,7.026923698032559729e-02,2.492558508541084863e-02,-2.916951734678610575e-02,1.629752963781356812e-01
6.428113062280457202e-01,5.899534809405999614e-01,7.172855776819677676e-01,1.319376706174130998e-01,7.263401757937371084e-02,-2.486249505072489485e-02,2.866724431514739990e-01
5.587001708859977711e-01,6.866662776458183348e-01,6.472188372475703444e-01,-1.515981130766020204e-03,8.839541459348546418e-03,-7.109839573635469596e-03,1.152234598994255066e-01
6.965367628992308324e-01,6.040365607667103065e-01,5.976611119492045709e-01,6.642087555359547056e-03,-3.179395029205274708e-03,-3.587275186197730337e-02,1.149343475699424744e-01
6.801429765304890518e-01,6.200842506700507961e-01,6.183011056182937670e-01,5.826872069773107732e-03,-7.866920988841440490e-03,1.152971934472569668e-02,6.635999679565429688e-02
6.094770883219413626e-01,6.774501656778904035e-01,6.158982924685285631e-01,1.555163774090440596e-04,2.637392825509206253e-03,8.262451476083194218e-04,6.517737358808517456e-02
6.853811119268210517e-01,6.263341775929457400e-01,5.728968533162831500e-01,5.088088678833689940e-03,-7.535997601572328201e-04,1.569891689916607866e-02,1.015683785080909729e-01
9.625616846014374284e-01,9.726626057533197534e-01,2.603533386329598409e-01,1.074869546450772434e-03,5.333882800868628565e-02,-3.767139871754536518e-02,7.163012623786926270e-01
6.233380524834085668e-01,6.227160056651507292e-01,6.535423072125456923e-01,8.075327206199435113e-04,2.049432497268829749e-03,1.714774563511702868e-03,3.090065717697143555e-02
5.724124549196097922e-01,6.749983203967484524e-01,6.753612204781822559e-01,1.270414945521608219e-01,7.782261407720006408e-02,-4.114327764681481592e-02,2.867529094219207764e-01
4.918005153280099462e-01,5.692183301101124693e-01,7.150174072241173295e-01,1.471896194622293041e-01,2.262456526848839050e-02,-1.434646765546917883e-02,3.250934779644012451e-01
5.733117026422503981e-01,6.537428407970438116e-01,7.065939963502951837e-01,5.617866012824904859e-02,4.274349586205680729e-02,-1.554489998558138825e-02,1.708431094884872437e-01
6.936218344800368918e-01,6.548411414922561402e-01,5.548399152346151775e-01,-1.015858091167229534e-02,-8.391669664032553808e-03,-4.766189157097702050e-02,1.507253199815750122e-01
6.539042931016604276e-01,6.182730060901339142e-01,6.260939063293141649e-01,2.861566385136560513e-03,-6.621005046267366793e-03,4.740001494982264141e-03,3.571509569883346558e-02
7.156497574259488292e-01,7.236385862559555626e-01,4.075153143861288685e-01,-9.195589892527066683e-03,-7.844157449812290406e-02,-1.000216618776234995e-01,3.823587298393249512e-01
7.215213443130096271e-01,7.200307877226722608e-01,4.663031346009549050e-01,-1.074540409153633067e-02,-2.392150814086093855e-02,-5.817451032767242958e-02,2.774420082569122314e-01
7.763509623319201358e-01,5.891808828082709670e-01,6.815968931143742138e-01,-4.757919269138683599e-02,3.264468438861733990e-02,1.346389462045007590e-01,3.010766506195068359e-01
7.006385295382948630e-01,4.621360069015532090e-01,6.923812072836419418e-01,-6.030439077629898281e-02,2.979615953849111543e-02,5.714570637456381497e-02,2.799150347709655762e-01
7.589997196095175092e-01,5.213729619059428444e-01,7.345235464921261448e-01,-7.964939264576147149e-02,4.034064776386431933e-02,1.166550407147195212e-01,3.405711948871612549e-01
6.102249245976920644e-01,6.161379266371219687e-01,6.805468615047500780e-01,-1.975462031710226770e-03,8.080858896440440333e-04,2.343662850159138229e-03,6.778251379728317261e-02
7.184734355723259025e-01,5.390292294181202593e-01,6.449402029306461337e-01,-5.714594844610779850e-02,4.178039768593231479e-02,8.185379821983380932e-02,2.440208196640014648e-01
6.310501954140455005e-01,6.357007267653186355e-01,6.329185140709769897e-01,-1.965958115603060399e-03,1.953430681027678185e-03,3.409262594384013505e-03,8.622136898338794708e-03
8.744936365014557289e-01,3.517903946858291775e-01,6.631424628274499300e-01,-1.036638549465464104e-01,1.017645406134667224e-01,1.623353553681547434e-01,5.914211869239807129e-01
7.575838287339814459e-01,2.793618506045900118e-01,6.075950258941255067e-01,-1.908528476154611533e-02,1.054590046977371643e-03,2.168913953820403029e-01,5.671743154525756836e-01
6.741382981350937387e-01,2.849524836502776437e-01,7.699684377595754636e-01,-1.581796467573516052e-01,7.670722189200386738e-03,8.912653029674191818e-02,5.449901819229125977e-01
7.105109662869956155e-01,4.734887834624962322e-01,6.920138416209521415e-01,-1.273433126688749105e-02,8.334000932438433151e-03,4.022353324691103904e-02,2.401792705059051514e-01
7.470190044794292605e-01,4.536879344752084986e-01,7.152665818654510010e-01,-5.206461761136331814e-03,1.321779297058940303e-02,4.741893674832937944e-02,2.916992902755737305e-01
7.331228705221681796e-01,4.161290319667417248e-01,7.399582831383728632e-01,-1.843478261902775303e-04,2.208091214654286580e-02,5.777265282911910049e-02,3.378970921039581299e-01
6.357990092667598070e-01,6.406010288187028445e-01,6.275150383792417186e-01,6.581251032627498561e-03,2.453361820438103563e-03,-2.892512436029384768e-03,1.745161227881908417e-02
6.294385043481739439e-01,6.295227488853761821e-01,6.418640907202782797e-01,5.512912408192354070e-04,1.218204438410013662e-03,1.417478177930682134e-03,1.283538341522216797e-02
7.128538658895617885e-01,6.424157126432323839e-01,5.602065469501957828e-01,2.507887968033445034e-02,3.356304535951724899e-02,-9.765738839124848969e-02,2.266886085271835327e-01
6.752900361718066069e-01,6.361465578815672650e-01,6.621550457232553422e-01,4.702693299349658407e-02,4.384377673669372089e-02,-5.704708927001375662e-02,1.528238505125045776e-01
6.363509077720749252e-01,6.595246346803232962e-01,6.178365201328339662e-01,1.211264336428058419e-02,1.274731197348472587e-02,-1.092813796135070313e-02,5.093873292207717896e-02
6.297693210411484666e-01,6.345694965222639095e-01,6.407004185229718818e-01,5.508026625081538898e-04,1.217121976103375039e-03,3.037070940781087802e-03,1.109437271952629089e-02
6.373902128361296215e-01,6.753034339871524239e-01,6.103680589203394069e-01,2.097344228391023052e-02,2.294055836507973706e-02,-1.658826249149618001e-02,8.316297829151153564e-02
5.962604813697593986e-01,6.734340785139598662e-01,6.344167874963342335e-01,-2.150255323970828251e-03,8.137561296324855031e-03,1.171357497195844345e-02,7.135238498449325562e-02
6.227887515542875896e-01,6.859245482225625468e-01,5.719664126757528777e-01,2.925738050043443558e-03,1.788293922103900702e-02,-9.689298392203343855e-04,1.037576124072074890e-01
6.703947516333489398e-01,6.016195429315338572e-01,6.310030558096855202e-01,-2.506293626670384137e-03,7.797414068572589355e-03,6.282754484782679914e-03,6.238770112395286560e-02
6.848403830691109917e-01,6.387656362792836218e-01,6.027142801901694824e-01,1.516132997973624989e-02,4.970413793306172404e-03,-2.771321113713198087e-02,9.028520435094833374e-02
6.732390008074640164e-01,5.702528929209432773e-01,6.106055565057528778e-01,2.362454447717359657e-02,2.330880818935596524e-02,-5.367031651734294889e-02,1.415078788995742798e-01
6.543013968800829305e-01,6.695094711022818723e-01,5.678490095656203440e-01,1.681182525757167825e-02,1.009524755866209045e-02,-2.784675629514991868e-02,1.118036434054374695e-01
6.648537233107467692e-01,6.087912350856401478e-01,5.992629350093267027e-01,1.504259316514633231e-02,1.835643284381678966e-02,-2.240782778414734597e-02,8.345068991184234619e-02
6.241880308740060945e-01,6.395032793483654832e-01,6.378333357638047429e-01,-1.892653481302742941e-04,1.838085291291670191e-03,7.368394467878486287e-03,1.961868442595005035e-02
6.226788626359791579e-01,6.540209653602879758e-01,6.281114143938855143e-01,-1.422508314160187510e-03,4.697219957233745051e-04,4.511867874040747899e-03,3.015585802495479584e-02
7.325412087798277572e-01,6.599849362535855635e-01,5.187617697462156841e-01,-7.660964361525539681e-03,-2.901579504295913325e-02,-8.147955361231341842e-02,2.409846335649490356e-01
6.330738093888296225e-01,6.420199839828655275e-01,6.301210921641011709e-01,-1.177050550993467230e-03,6.764005323340607995e-04,1.431100366585416573e-03,1.126237772405147552e-02
7.267476042265581526e-01,6.333943168125923950e-01,4.593792070495178459e-01,-1.378113641292150367e-02,-5.135626822704418559e-02,-1.219196451648194152e-01,3.291144669055938721e-01
7.000918865921903489e-01,6.654725840984778706e-01,5.487187291982252857e-01,-7.253385612210594413e-02,-5.530444080773664478e-02,-1.564356908477502195e-01,3.424142301082611084e-01
7.467912640163689719e-01,6.289422059397228315e-01,5.364267494068066799e-01,-5.861477825556273002e-02,-8.234056377289100670e-02,-1.103862149850699248e-01,3.171004652976989746e-01
7.167010857690263581e-01,6.205618453386583244e-01,6.384055153776078129e-01,-2.923939368434473260e-02,-1.017697942521333075e-02,-7.577746951267567976e-02,1.671762168407440186e-01
7.959896788650442367e-01,5.558917527648037371e-01,5.315922490643286702e-01,-2.144339417221476432e-02,-4.961197445627565754e-03,-1.345333516180177713e-01,3.461541533470153809e-01
6.730037628774087066e-01,6.147868807401585256e-01,6.442653302928598169e-01,-4.414400648100021141e-02,-2.871224284891056924e-02,-7.545848169538146855e-02,1.671623438596725464e-01
6.678503127842930764e-01,6.371392101869386426e-01,6.336440065099541163e-01,-2.557294988451261700e-02,-2.571685143453357816e-02,-4.424691147435389632e-02,1.043172776699066162e-01
6.274477148128096982e-01,6.546454339006601009e-01,6.234218842851397824e-01,-1.639664222003963919e-03,2.434831397694025429e-03,1.556697759481818263e-03,2.997561171650886536e-02
2.260947281015296961e-01,7.415260692132705778e-01,7.818554184244170813e-01,-1.249237920051247397e-01,2.132015265731307396e-02,5.207387500820422413e-03,5.799532532691955566e-01
7.160878878230199085e-01,7.045372860058600750e-01,5.086176724293444140e-01,6.500414002793673644e-03,1.896020269080873552e-02,1.263018693866709355e-02,2.060696482658386230e-01
5.597573410676196515e-01,6.927765750590685334e-01,6.519009524203069894e-01,-1.893802998557007141e-05,9.891112698992638591e-03,-2.486050048192491296e-03,1.193303540349006653e-01
6.656673967054780316e-01,6.047964909804756095e-01,6.334565739563996489e-01,-1.756005989332127051e-02,-1.588201304346869777e-02,-2.702401065617306142e-02,8.157680928707122803e-02
6.650475475815593729e-01,5.867484153862959628e-01,6.512170332747696522e-01,5.061838711866496060e-02,2.412049624375013981e-02,-3.937555204326722430e-02,1.390053331851959229e-01
6.370460562861348652e-01,5.929419151033551438e-01,5.914421400190148503e-01,7.661796499001224947e-02,8.432795627882090639e-02,-1.016300108811951236e-01,2.682239711284637451e-01
6.753231090011277971e-01,5.646102270983048843e-01,6.488694025097575535e-01,2.493121161890141102e-02,2.359349423173658436e-02,-4.421279394062733320e-02,1.393820047378540039e-01
7.375733062465170686e-01,5.143147149255472561e-01,7.536419944278451855e-01,8.760158439929900676e-02,2.994700029812129294e-02,-6.350288110415215626e-02,3.024905025959014893e-01
6.098493223264782603e-01,6.806542486155170435e-01,6.133279084828758831e-01,9.375304047896349546e-06,1.161562369262035543e-03,6.609556260151661002e-04,6.917005032300949097e-02
6.906951110683755557e-01,7.027202592477322929e-01,5.049977323086852765e-01,-1.028284422577740304e-02,1.546717071020272706e-02,9.857876333227310120e-03,1.954164803028106689e-01
6.983526524506060706e-01,4.730011472458681698e-01,6.913350329306110487e-01,4.108119687989413016e-02,1.565553427611989651e-02,-4.257658014070848929e-02,2.459424585103988647e-01
7.110235017188996087e-01,5.325883962645930891e-01,6.857860046616495175e-01,6.507999859798108133e-02,1.872185572158476669e-02,-4.813168603820245500e-02,2.206365466117858887e-01
6.532219446426013043e-01,7.064714067026300892e-01,5.312479756051123880e-01,1.098107018917518843e-02,2.803722555918913145e-02,-3.097793165573774037e-03,1.641858816146850586e-01
6.446481165739154084e-01,6.048830295077139985e-01,6.749132477104765604e-01,8.721147841427932812e-02,5.877312203242237437e-02,-1.231907865319641915e-01,2.870697081089019775e-01
7.156659019030084945e-01,5.712380806476035078e-01,6.626501085292529902e-01,5.298032929868486812e-02,2.617132407779885692e-02,-8.836205560819093696e-02,2.234104573726654053e-01
6.144455960780590420e-01,6.529415614272457979e-01,6.328113496560799911e-01,2.215224910582023424e-03,3.727951969904724425e-03,-1.021100850151219694e-02,3.848949819803237915e-02
6.699140661101694594e-01,6.270809188660106948e-01,5.981358121837476727e-01,6.394468163779948311e-03,2.165578299106521269e-03,-5.657488159953031302e-03,6.438218802213668823e-02
6.004571689478174212e-01,6.953520878563180796e-01,5.496774605438214945e-01,-7.129978688039360218e-03,-6.745583851901421069e-02,-4.918928411195555399e-03,1.740066856145858765e-01
6.599727325634866526e-01,7.015774747305024706e-01,5.295669988141367135e-01,-1.903763197497413545e-02,3.120132312914505879e-02,4.668823939071529636e-03,1.680338084697723389e-01
6.137143801590640990e-01,6.868784075237889253e-01,5.741808909748692402e-01,1.290891159275765233e-02,-3.915930689836282647e-02,1.490347111611795179e-02,1.247994974255561829e-01
6.132173704723716812e-01,6.782128510237174224e-01,6.116766171194291113e-01,-1.196544943504209780e-03,1.647045800678066793e-03,2.251086314580478924e-04,6.587498635053634644e-02
6.093952992658222545e-01,7.985453729914611110e-01,6.271610863401663183e-01,4.388879571103351807e-02,-1.665523983347164116e-01,4.869855836974335689e-02,3.589504361152648926e-01
6.509840191897781070e-01,6.874720597556412960e-01,5.689391438195291473e-01,-6.799545406096317753e-03,1.076963220288030057e-02,5.633204912065352659e-04,1.074430271983146667e-01
6.713944001096138203e-01,7.357575823193391873e-01,5.476530859300076104e-01,1.049674424229770330e-02,-5.437976333578535548e-02,-5.794911066126487778e-03,1.916290223598480225e-01
5.575598645202829440e-01,6.961372632074613875e-01,5.969254776499087756e-01,-7.619415478472460479e-03,-6.737241622302891919e-02,-9.154831995338029438e-03,1.712918281555175781e-01
5.807805256621062506e-01,6.298319425759181245e-01,6.774141227317116432e-01,1.898830715178292244e-02,-5.576792089580639468e-03,9.948080717265555747e-03,9.206487238407135010e-02
6.106319126806265540e-01,6.129869995042418473e-01,6.728533290761531394e-01,2.269492592527763697e-02,-1.174909845545092646e-02,1.570466336636250348e-02,8.018557727336883545e-02
6.179024172587009867e-01,6.278330779483705104e-01,6.401755873086132365e-01,1.159710585514834615e-02,-1.854336761110249310e-02,1.437274157548954281e-02,4.927778244018554688e-02
6.389628521592785049e-01,6.141224059866756679e-01,6.754041883415123904e-01,1.807754249050623832e-02,-1.576476717347342210e-02,1.536352134533428698e-02,7.269337773323059082e-02
6.244340044569435255e-01,5.881713672220152400e-01,6.614950054563855097e-01,3.438658678896596571e-02,-3.004985887829849170e-02,3.141502944084321319e-02,1.151061803102493286e-01
6.870115326043401138e-01,5.954787446571233600e-01,5.783066375531379366e-01,4.855575393167595871e-02,-3.242583172102952993e-02,9.361474121957748251e-02,2.162484526634216309e-01
2.641803221063695473e-01,8.241404613482515851e-01,8.328465751771151337e-01,-5.603534276167190797e-02,-1.872470358414677488e-02,-5.620134736187303720e-02,5.817677378654479980e-01
6.324993083723744469e-01,6.323408870737521337e-01,6.323935827427982215e-01,7.768508463891639869e-04,4.503155744278178265e-04,-1.775345944719551291e-03,3.448757808655500412e-03
2.479172341407193114e-01,7.870873040416900279e-01,8.472358462364035780e-01,-1.397170574379041907e-01,-1.061762269507443429e-01,-1.598649206832089553e-02,6.479983925819396973e-01
5.879380912145958371e-01,6.872442808489395150e-01,6.232144017482518228e-01,1.032861672892630223e-03,5.623864316558885128e-03,-2.178194521301229664e-03,8.783677220344543457e-02
6.042763954437021523e-01,6.537256221922608246e-01,6.534730377883040120e-01,3.738030841354676292e-03,4.739421743574476903e-03,-1.193392792818346107e-02,5.449184030294418335e-02
3.449109413492768561e-01,7.909152740804877846e-01,1.030803217998204513e+00,-1.554258584967919965e-01,-1.526606961141132313e-01,2.426912365924264667e-03,7.112399339675903320e-01
2.524843029396764971e-01,9.025379434617989416e-01,8.981563917997703594e-01,-8.047007093041846915e-02,-9.459588012830273673e-02,4.419287718261902254e-02,6.869288086891174316e-01
6.779373428663465484e-01,7.731432770785056086e-01,4.701176590898911156e-01,-4.539670048175253186e-02,7.599832980553718198e-02,7.129995998976561278e-02,3.328659236431121826e-01
6.657802458900106135e-01,4.733298687219910095e-01,5.517680785240319796e-01,-1.497441136824802232e-01,-1.652589583501676562e-01,-2.309763265627465256e-01,5.808148384094238281e-01
6.667213685184286698e-01,5.042431722164035790e-01,7.435360577193506071e-01,-1.516557486556539547e-01,-8.007100684158462156e-02,-2.727023061719491825e-01,5.967516303062438965e-01
7.052412621241036517e-01,4.957437435255601654e-01,6.288674980669511916e-01,-4.128782338131894991e-02,-2.932722661645444789e-02,-9.787988620122897720e-02,2.648731470108032227e-01
6.448089526364071400e-01,6.243521873519345400e-01,6.277965352300887147e-01,2.858217347127052499e-03,2.858277618527208831e-03,-1.390564050198660933e-03,2.036421000957489014e-02
7.573120989631497713e-01,5.480093966812980000e-01,6.780939638841781969e-01,-7.019363165248050651e-02,-4.388506490669622645e-02,-1.155646665601121892e-01,3.068016767501831055e-01
5.274308883340331766e-01,7.402644651123054809e-01,6.843401829867740149e-01,-3.977712612673588166e-02,8.784425385082497706e-02,-1.842189761721604174e-02,2.558079063892364502e-01
8.521358019954832219e-01,3.491304367535340014e-01,6.593880972128726148e-01,-6.903262097130637154e-02,6.701667484398696195e-02,-2.943158299990875082e-01,6.934324502944946289e-01
5.890953499195089593e-01,6.352121815740930932e-01,6.944087328164075812e-01,3.450887824124709152e-02,6.156517991105042893e-03,-3.132619950916260346e-03,1.098939850926399231e-01
6.796875342856650848e-01,6.920735545918533793e-01,5.296047182383508689e-01,1.213126092564187700e-02,1.072395083800281763e-02,-1.721208802167415938e-02,1.619026660919189453e-01
4.377396938444445551e-01,6.922368532875886604e-01,7.650657383305083936e-01,-1.052628028449361514e-01,5.254015442489645693e-02,7.331395842512707919e-04,3.607372641563415527e-01
6.406933508899963492e-01,6.327776175733538233e-01,6.281926107157650430e-01,3.230508736612186602e-03,8.740255922101154273e-04,5.334465844042725075e-04,1.242693979293107986e-02
5.473062765433615029e-01,5.732135907663939989e-01,7.409943377323062741e-01,-1.226931339579269836e-01,2.091296611403216724e-02,4.880751289424356543e-02,2.945975363254547119e-01
6.235599437774795861e-01,6.531919225454360101e-01,6.153396881480804881e-01,6.979568395101882865e-03,3.359632475270129225e-03,-2.871758645054222139e-03,3.733570128679275513e-02
6.492464319046716836e-01,6.713969454182698859e-01,5.793701730825865370e-01,9.185374478979090387e-03,7.821128649015615664e-03,-6.149307693023986846e-03,8.643608540296554565e-02
4.278660917838594813e-01,7.538161415805552101e-01,7.492654533166633879e-01,-1.202325927318693977e-01,-2.834125922061928385e-02,-7.634798573281625228e-03,3.882435262203216553e-01
5.471090580593165331e-01,6.585605183726799261e-01,7.073609014961486086e-01,-5.870361099424105389e-02,1.442808625751521891e-02,9.995934480135675732e-03,1.774947494268417358e-01
6.539579155273476108e-01,6.202269372297577466e-01,6.311692446121911493e-01,1.760272372899623298e-03,8.092855133591994599e-03,-1.330779702390566316e-03,3.315885737538337708e-02
5.604721819049319764e-01,5.996525047937454334e-01,8.089509593307450119e-01,-1.351290707692687776e-01,3.721491476495415729e-02,1.693907808225866797e-03,3.353869020938873291e-01
5.347628923734364381e-01,6.880041895939342789e-01,7.497769203087363277e-01,-1.263768184376521109e-01,2.968925546844649807e-02,4.661250105132517391e-02,3.063343465328216553e-01
6.496031155323568340e-01,6.942984699502366963e-01,5.638760814900517504e-01,7.277091791037252483e-03,1.043179037793432080e-02,-2.651000234215357756e-03,1.169821247458457947e-01
7.331013630919160917e-01,5.637142844725965274e-01,6.746397232825348533e-01,2.449954561121779617e-02,1.399322719863370368e-02,-5.318318362749065165e-02,1.818806380033493042e-01
7.852033092877421794e-01,6.064838887974216552e-01,3.492015863483408644e-01,-4.951986851064594380e-02,-3.041762584461694952e-02,-2.502706484029744161e-01,5.849398970603942871e-01
7.533395418684710743e-01,3.772922708791696111e-01,6.279186826000284771e-01,-5.546033983735669526e-02,-4.589801989393931664e-02,-2.469405759026230274e-01,5.553954839706420898e-01
8.342892206940302202e-01,6.403337182400740124e-01,4.687118381842447778e-01,2.104450248884157798e-02,-1.591865574037854281e-01,-3.190212792435943578e-01,6.950059533119201660e-01
6.536150536470084482e-01,6.320993889891183271e-01,6.140676163769994700e-01,8.255116149688648472e-03,2.777605270277485553e-03,-4.216706037407725975e-03,3.817017376422882080e-02
7.856851443276315905e-01,4.880110323227745406e-01,6.371411549090013615e-01,-1.203632610524285051e-01,-2.067079503930068993e-02,-3.177921903092021938e-01,6.435657739639282227e-01
7.502827879172235814e-01,6.859650912604210449e-01,5.153487175724611458e-01,2.822827584732233528e-03,-7.878313825077375848e-03,-9.986683914719782229e-02,2.726731300354003906e-01
6.305274134737050007e-01,6.416010427419343021e-01,6.274517572410225341e-01,1.814457068711418071e-03,7.924223627055870106e-04,-2.960264544099632314e-03,1.428963523358106613e-02
6.546081379426488267e-01,6.286969046007627737e-01,5.975136537473832998e-01,-2.566609487770200523e-02,-2.690165376767491776e-02,-3.295092590022744711e-02,9.927948564291000366e-02
6.966557884014485946e-01,6.349348788162875179e-01,5.983772407743580546e-01,-4.411687774314007951e-03,-6.744446150552537746e-03,-3.294346126702588778e-02,1.041775792837142944e-01
7.277893624624934832e-01,5.675871473907880826e-01,6.015026208476621505e-01,-6.921344079075715527e-02,-9.568757884610230857e-02,-1.338682415536194548e-01,3.420287072658538818e-01
6.591358736440345867e-01,6.917563496915929422e-01,5.611510325174041691e-01,-5.015925067898709816e-02,-7.064768201684475113e-02,-1.065342842639758064e-01,2.653888463973999023e-01
8.027992285098120018e-01,6.122738504579163799e-01,5.597386824850011378e-01,-7.323353451549957042e-04,-3.052665445156598628e-02,-1.730408049867920572e-01,3.764249682426452637e-01
6.210337586159407897e-01,6.288896241465086190e-01,5.978212593855974921e-01,-3.192678696700999158e-02,-3.431152852580867524e-02,-3.038941446532674243e-02,1.007136553525924683e-01
6.010296425088511585e-01,5.933678331299774289e-01,6.833431496123618665e-01,2.810616978712890401e-02,7.817481036383966625e-04,-6.728950261034441277e-04,9.918643534183502197e-02
5.549332951360144150e-01,5.969278283811807473e-01,6.654049071732980325e-01,1.043767581991178750e-01,7.125744805515442371e-02,-6.356913053929497126e-02,2.633776962757110596e-01
6.279899682553883311e-01,4.960020961969409115e-01,6.581861809047059308e-01,1.012807569632060006e-01,5.640738332419225481e-02,-6.838764544099419640e-02,2.768889665603637695e-01
6.072997505510866478e-01,5.698010831653290698e-01,7.409316523896800621e-01,1.074899463039547670e-01,5.224350226072940057e-02,-3.329083512904180975e-02,2.654240131378173828e-01
5.657878413016385055e-01,5.186958086669348766e-01,7.900711318080253509e-01,1.471109277553531158e-01,7.185950872565038429e-03,3.235852817377652974e-03,3.580416440963745117e-01
6.285331849422139960e-01,5.827499538235411114e-01,6.811946123624900151e-01,3.878139206306224079e-02,1.742941265219444605e-02,-1.974694245654810484e-02,1.177858561277389526e-01
5.975304914772833209e-01,6.182013592098419830e-01,6.924310063554752759e-01,1.256546675976654981e-01,1.975868585497011012e-02,-8.896504601332960727e-02,2.824085056781768799e-01
6.097535971306304869e-01,5.699521119002440850e-01,6.820427160897706287e-01,9.738240161969637099e-02,5.309040360688048465e-02,-6.323374839375629775e-02,2.420503646135330200e-01
5.776921629728933860e-01,6.204640338071401029e-01,6.951310537140030776e-01,4.461963544953972960e-02,1.900226057737349969e-02,-1.545164279023431009e-02,1.355378031730651855e-01
6.106628674844918336e-01,5.622158708288542694e-01,7.024480226739829858e-01,5.618718408553256133e-02,2.644345479710645888e-02,-2.773981019940363613e-02,1.705743223428726196e-01
4.468727785418976639e-01,7.702544423271726615e-01,7.402805245904879872e-01,-1.594851643399711920e-04,-4.748782274613198157e-02,-7.038575467228767001e-03,3.204607665538787842e-01
5.156897967704369146e-01,7.674174290296446044e-01,7.338857179735576164e-01,1.773919453678591412e-02,-1.061203273727588381e-01,-2.260678072383356593e-03,3.013208508491516113e-01
3.815900652612582711e-01,7.401288825380397673e-01,7.530739856173325197e-01,2.358679124780952222e-02,-1.012384889126285020e-01,1.010841469323910460e-02,4.075318574905395508e-01
4.486164354920246233e-01,9.280169557459057028e-01,5.628970909604120720e-01,-5.472876247264490263e-02,-2.288327345102990351e-01,-3.445523704319344155e-02,5.981130003929138184e-01
6.344909852870528333e-01,6.326568612337413189e-01,6.329076273288539722e-01,7.796516170286558372e-04,-1.651583623156286100e-04,-1.555615214523312355e-04,2.223726361989974976e-03
4.649855438104507632e-01,7.763715799764380199e-01,7.570632217510336881e-01,-7.956201582975527820e-02,-3.011198366080414246e-01,-5.034155804730800626e-02,6.244472265243530273e-01
4.330059834151649967e-01,7.703049627643590025e-01,5.490652961665454246e-01,-8.283593517466100731e-02,-2.374918342260093629e-01,-6.765716836388360744e-02,5.400172472000122070e-01
3.907722726355223886e-01,7.495262330877493495e-01,7.675583563955857835e-01,-1.292401717486884316e-01,5.621407464225042921e-02,2.120481743166469091e-02,4.432118237018585205e-01
5.405408686710582167e-01,7.858859646499307683e-01,6.273927067004105851e-01,-4.716962168919812404e-02,-1.607567204672629702e-01,-3.616965656883571606e-02,3.668195903301239014e-01
5.013851963245724574e-01,6.943338388020395824e-01,7.172697261628822041e-01,-4.207520095933073301e-02,-2.004206174776917287e-02,-2.761202226175692685e-03,2.207251191139221191e-01
4.286633986354411174e-01,7.556392989524354231e-01,7.466865809915707031e-01,-1.100508700358740072e-01,-5.331009777624283463e-02,-9.269211759104509576e-03,3.862425386905670166e-01
4.387890059327884673e-01,7.109471345279269050e-01,7.459912585717218825e-01,-7.760295443258549697e-02,-1.659026806367092793e-02,-1.932223722156411680e-02,3.238025605678558350e-01
6.321953741446859620e-01,6.530719296907595561e-01,6.171761099892799640e-01,-1.070951691249116995e-02,4.864783650408701851e-03,3.010648372670573104e-03,3.764612972736358643e-02
5.111041333670374165e-01,6.824274804142476114e-01,7.473138330579327526e-01,-7.488142490416227481e-02,-4.003311404097951998e-03,-1.471352171042083525e-02,2.493946701288223267e-01
5.462099869378330697e-01,6.974058444204854768e-01,6.880248535867727888e-01,-4.110221980378056528e-02,-4.278914918563340303e-02,-1.728304659572365426e-02,1.816228181123733521e-01
5.384293350755049445e-01,6.766725572969949365e-01,6.586866358516556552e-01,-4.771200983291495890e-02,-5.103273809547575340e-02,-4.160582725416112765e-02,1.917908042669296265e-01
5.496032953499376816e-01,6.620827082740796676e-01,6.616477116833840988e-01,-5.505680015834917701e-02,-3.192424659067798209e-02,-2.971642570154374094e-02,1.655394285917282104e-01
6.980382992173724821e-01,7.016104749313795130e-01,5.156209373531169815e-01,-2.267068077687350511e-02,5.281117504780400568e-02,3.756415425480026660e-02,2.192774862051010132e-01
5.194446565869162979e-01,6.804305874121786557e-01,6.870276333115534761e-01,-9.430140870144555765e-02,-1.167893180489908422e-01,-8.189757307950942811e-02,3.387346565723419189e-01
5.243703263299562822e-01,7.101449266179773456e-01,6.810041701194083918e-01,-8.579985506434598119e-02,-4.429376879197718941e-02,-5.925672093749952823e-02,2.616342902183532715e-01
6.034499437827421930e-01,6.520267952026301828e-01,6.488384549887356023e-01,-5.161410981623182868e-03,4.091676959439060138e-03,1.049668236421230291e-02,5.172700807452201843e-02
5.567155879844167821e-01,6.741715171060057576e-01,6.958371910417262551e-01,-8.319868512359729351e-02,-7.816558929703752712e-02,-4.458196117094352651e-02,2.487335056066513062e-01
6.177931674623214908e-01,6.094200152170760054e-01,6.669079195269563831e-01,-1.772326648058982976e-02,1.715475657080958727e-02,1.460144757483043676e-02,7.320123165845870972e-02
6.114192994634023437e-01,6.535930092269772729e-01,6.341338672489238437e-01,-1.822423804301880621e-03,2.795310536049919799e-03,8.496781512318203611e-03,3.983223065733909607e-02
4.921586773390231873e-01,7.712541683817860649e-01,6.757160162803299563e-01,-7.349178269150043186e-02,-1.345615668178023749e-01,-3.229300808711293991e-02,3.660732805728912354e-01
4.754720235247624771e-01,7.621311603717044747e-01,6.702020927054196386e-01,-8.280757515560750737e-02,1.139443838616657351e-01,2.428821045264537015e-02,3.543488681316375732e-01
6.780110966609972367e-01,6.614919942705071998e-01,5.330522663434419384e-01,-4.115716987450129816e-02,6.415565041558256298e-02,9.153919535624982506e-02,2.479096800088882446e-01
3.655587012454248330e-01,7.061762764231813705e-01,6.425899929988315717e-01,-1.162206460996804136e-01,2.354903228520449088e-01,1.079469557553384279e-01,5.833107233047485352e-01
3.442537821044512891e-01,8.569320398459716603e-01,7.536080794219204293e-01,2.220090102582135058e-02,1.271630226271097674e-01,-1.138159749177235398e-02,5.205011367797851562e-01
4.275438210609459055e-01,7.364396901104146576e-01,7.633268020854155900e-01,-2.865469710359848377e-02,1.045337540299453583e-01,1.167934645550547552e-02,3.742984235286712646e-01
4.356288403075448401e-01,7.605490051605426904e-01,7.039140808304495955e-01,-6.928515274894622711e-02,1.320528136038590927e-01,3.279954703551589412e-02,4.004015028476715088e-01
6.459253543564272837e-01,6.191794225033078192e-01,6.325067602006667622e-01,-7.957944534502327597e-03,1.489574529583333543e-02,5.683948388224360944e-03,3.858845680952072144e-02
6.742988770761206840e-01,5.003049224394079397e-01,7.482892429960195102e-01,-1.069535772167561072e-01,8.371439345248071762e-02,8.021711635568753995e-02,3.510957360267639160e-01
4.341627242929360087e-01,7.735083501981414589e-01,6.558126687896340679e-01,4.077999880872026049e-03,1.335609694621464894e-01,1.436251395965325653e-02,3.784871697425842285e-01
6.030339157668085370e-01,6.795506254159101589e-01,6.168886162814362084e-01,-1.202645626638233290e-03,7.980414912208671357e-03,3.660793707336735484e-03,7.226511836051940918e-02
4.872953049358904609e-01,6.962542106178670753e-01,6.980408460577042229e-01,-4.139352437913364907e-02,4.126033215500646278e-02,2.400294123509856548e-02,2.366776019334793091e-01
7.646879923623252084e-01,4.492690507791617938e-01,6.537346293496433258e-01,1.486946930292430968e-01,-5.380031089369471248e-02,1.985839301375188493e-01,5.197340250015258789e-01
8.817799176218468205e-01,3.825027439216802660e-01,7.383791153226317849e-01,1.092863335773719691e-01,-9.688198288279752102e-02,2.090424197042705934e-01,6.271601319313049316e-01
8.693336277849144089e-01,5.844468888642209148e-01,6.640911879968657283e-01,1.331658795799377792e-01,-2.655014115229998445e-02,2.974866894094624903e-01,6.209856867790222168e-01
9.816644395040734494e-01,5.123467531721888069e-01,6.338917958325196444e-01,5.114396707218862165e-02,-5.109241100337877373e-02,2.444396194839308922e-01,6.106714606285095215e-01
7.649525873002424037e-01,4.697621297532238449e-01,6.459736704090348614e-01,1.201851359987456958e-01,-5.233861366240558088e-02,2.467058628198223469e-01,5.480097532272338867e-01
6.297079688158397914e-01,6.784753285084799135e-01,5.826293551014665173e-01,5.693977423525455397e-03,2.162472075655558906e-02,-1.139705032135126216e-02,9.370367974042892456e-02
6.245182117881814543e-01,6.867610908042633966e-01,5.836074659318898350e-01,-2.776936220792579346e-03,9.767410314491027645e-03,1.520438831048028828e-03,9.170901775360107422e-02
7.356527257240844664e-01,4.817761382983333229e-01,5.444382546052161098e-01,1.085988260072313499e-01,-1.040307154932356981e-01,2.351546145217703054e-01,5.349885821342468262e-01
6.601047754645090748e-01,6.961587355452173442e-01,5.381263831067440995e-01,5.174968060071927743e-03,2.018133661862894432e-02,-3.144080766873733404e-03,1.480144411325454712e-01
6.731623413718403892e-01,6.614623762904987547e-01,6.188400692645571466e-01,-8.391433270266072941e-02,-7.556561780819566476e-02,-1.124062693318182982e-01,2.803802192211151123e-01
6.900293573085050092e-01,6.087184273716311766e-01,5.805780535802206321e-01,-2.042846480837930134e-02,-2.259606471017099744e-02,-5.745632295775426196e-02,1.495956778526306152e-01
6.222229407830988102e-01,6.311937594739418511e-01,6.144293844140980010e-01,-3.124998565320995583e-02,-3.663449988478502395e-02,-3.390235255350886739e-02,1.030300110578536987e-01
6.462955831082121128e-01,6.311423754361296101e-01,6.358000867664265199e-01,-5.785629638461877583e-03,-7.900885314623093056e-03,-5.331732086924037897e-03,2.353102900087833405e-02
6.174385277160728824e-01,6.304181574368235008e-01,6.527224157167754726e-01,4.133944320795314431e-03,3.391423029838317327e-03,-1.137705739027781472e-02,3.780923038721084595e-02
6.599386347238013206e-01,6.180285554416449223e-01,6.170163952381039207e-01,-1.279691025532949181e-02,-1.261595056897193111e-02,-1.417163674432641782e-02,5.806181207299232483e-02
7.334113961216710553e-01,6.094261542316375957e-01,6.200201507179063931e-01,3.054291462944483740e-03,-2.651352326139767152e-03,7.773655745557178642e-02,1.798584610223770142e-01
7.872294099271580636e-01,5.763104022052831787e-01,5.680069430557462828e-01,-2.693736195219493049e-02,8.240679993439494616e-03,1.182855502126674424e-01,3.011015355587005615e-01
7.050116446879892695e-01,5.969996722816910406e-01,6.014988214984672288e-01,-3.937324323323477399e-02,2.592579884389682385e-02,7.543563161022012742e-02,1.869215518236160278e-01
7.067288029201584942e-01,5.558878577712734748e-01,6.586372690248543105e-01,1.014394168366794871e-02,-5.865812838967937419e-03,5.585882807296897734e-02,1.660847961902618408e-01
4.835546350736055210e-01,7.439812468775875987e-01,6.060211230561254325e-01,8.239293801851015064e-02,1.995858887756561950e-01,-7.603558681986254120e-02,4.562237858772277832e-01
6.216273030534198440e-01,6.145116451184253759e-01,6.702029554880979401e-01,1.176961018926700941e-03,4.993490487649139553e-03,-1.985369918095065966e-03,5.335409939289093018e-02
7.147467498629948013e-01,5.374600001163507557e-01,6.597893576580428077e-01,-2.269656521660959672e-02,2.278369197893779716e-02,4.966707572541477489e-02,1.876455098390579224e-01
6.956842178478558347e-01,5.854448407641257290e-01,6.175307291227785100e-01,-2.825348516319789102e-02,1.465960153043248913e-02,5.453744357887225364e-02,1.469951868057250977e-01
6.218761588920245220e-01,6.311774117502173542e-01,6.410055369568635752e-01,3.717069657886144796e-03,4.274378243559048482e-03,-6.636800291242043494e-03,2.242590673267841339e-02
5.004755115094448037e-01,8.788024110741392558e-01,8.312538847147974419e-01,1.911898356419201306e-01,2.148935867903473129e-01,-9.230968375614614918e-02,6.333757638931274414e-01
7.094558065974867489e-01,6.025793911030292715e-01,6.518873987768243339e-01,-3.832783598110896944e-02,3.295300052103722344e-02,7.775796053139467923e-02,1.854390949010848999e-01
7.229428833243473074e-01,4.704812715350256691e-01,6.535783110013471120e-01,-2.343612285575053314e-02,1.183642201395650358e-02,1.218744198549487484e-01,3.125133514404296875e-01
7.971459086072931743e-01,4.430629967216396237e-01,7.083762737148884270e-01,-8.992200202301139922e-02,3.552044606541407412e-02,1.616656393282283055e-01,4.563696980476379395e-01
6.039763693684749857e-01,5.676935981432083000e-01,7.173966869342611741e-01,5.764795101231407620e-02,1.979906432564699365e-02,-9.473332727301459616e-03,1.723685264587402344e-01
6.378202830731439787e-01,4.267245321737594965e-01,7.988087800648868697e-01,1.163704930856124531e-01,4.709684461631706391e-03,1.128279439840958881e-02,3.814936876296997070e-01
6.737792551519679041e-01,6.092278886025441764e-01,6.318343760409589338e-01,2.452791493528491251e-03,1.067876173569182359e-02,-3.153411823263451829e-03,6.007196381688117981e-02
5.914524191399077591e-01,6.193689223943965594e-01,6.820037663612300571e-01,3.493091675317616662e-02,2.165633909548823899e-02,-1.988880693771559113e-02,1.127173155546188354e-01
5.632361196463732123e-01,6.485717963270647424e-01,7.817830871720365948e-01,1.492829959694120523e-01,4.083111337605149944e-03,-1.271229301691376851e-02,3.221586048603057861e-01
5.783568684501700918e-01,3.967935026338840210e-01,7.922065900491853663e-01,2.434034995000800561e-01,3.184857381316757302e-02,-4.793554325976010638e-02,5.524458885192871094e-01
6.034743551546267737e-01,5.628253873600010948e-01,6.818365177631374729e-01,5.691105854295718663e-02,1.553580462267282504e-02,-1.692173569673001074e-02,1.492582708597183228e-01
8.048625069056116743e-01,6.108938251402319386e-01,6.549288639967275616e-01,6.934826250470145503e-02,-5.570278201866016993e-02,1.696833990463974540e-01,3.756791651248931885e-01
5.964819121153245307e-01,6.271784843625249906e-01,6.873576517737437497e-01,-4.903566198689713815e-03,2.618569207353617194e-03,4.305075750168623622e-03,8.099020272493362427e-02
7.185683854047349994e-01,6.747882549690122911e-01,5.017126207017157391e-01,4.426332556405956214e-02,-3.357779848862451483e-02,1.278932055187419758e-01,3.126968145370483398e-01
6.848796004174679819e-01,6.466216144160711332e-01,5.580159593228936066e-01,-7.854646181338296659e-03,1.542552437147364517e-03,-9.169118204232011918e-03,1.146688833832740784e-01
6.257078847263121135e-01,6.634831920954120665e-01,6.084170999507536592e-01,2.509219865036920252e-02,-2.991214393252180151e-02,2.361236306980158545e-02,9.286983311176300049e-02
6.590698724538340825e-01,6.983012787529364607e-01,5.622207855532080911e-01,1.558921777850190253e-02,-3.868657309771786346e-02,1.857252456873725865e-02,1.448178738355636597e-01
6.003752904353526487e-01,6.913527877261858023e-01,6.290263475878978827e-01,1.275290726973583866e-02,3.478407480338235880e-02,-1.636191058578472662e-02,1.068270951509475708e-01
6.524288610114160614e-01,5.918862558437111288e-01,6.527528417979110431e-01,4.591336262481134078e-02,-3.453576540415474044e-02,5.362916023509863017e-02,1.490491628646850586e-01
7.468777314766539277e-01,5.075020287618491333e-01,6.561866976641467231e-01,5.970497376433327175e-02,-2.220399556593214904e-02,1.046738725754742666e-01,2.980928122997283936e-01
4.163571215861602282e-01,7.293552165748891092e-01,7.146009737787238913e-01,-2.824436725893931729e-02,-3.803035064992385788e-03,7.739660444555753090e-03,3.101350963115692139e-01
5.690023972065648694e-01,6.724005494433720198e-01,6.500401016309752533e-01,-3.020135698208763556e-03,1.115015646578263429e-02,1.104173884641264022e-02,9.821018576622009277e-02
6.182234962703005987e-01,6.310106239249199112e-01,6.531451760373326865e-01,-1.881562046718531422e-03,2.633247936020711912e-03,7.763166591737162038e-03,3.389261662960052490e-02
7.014360947613457187e-01,5.540167196941565564e-01,6.712963897542686409e-01,3.245575206885386449e-02,-2.967514987986126160e-02,4.703517099902120718e-02,1.750331073999404907e-01
6.898593972827031795e-01,6.546256943500571301e-01,5.703937716330103047e-01,1.187231327676854277e-02,-2.758993240548637468e-02,4.164999415430402363e-02,1.386177092790603638e-01
5.126529793996131845e-01,7.051102616631215181e-01,6.755177075299468870e-01,-3.986374661561748953e-03,1.148341547485779747e-02,6.313382174282583352e-03,1.810609847307205200e-01
6.859925379493502229e-01,5.718518070965056266e-01,6.659294668029052122e-01,3.974481247139097229e-02,-2.763486298878349567e-02,6.667343961799761243e-02,1.775011867284774780e-01
6.664048923957881509e-01,6.363168816324625832e-01,6.150409484013910077e-01,1.154436823728418812e-02,-9.127691670906608323e-03,2.196438528615398192e-02,6.399350613355636597e-02
6.464145015661163507e-01,5.964177982010148149e-01,6.534889481338502781e-01,6.600176109031970217e-02,-3.606924893860945225e-02,7.073699591177524948e-02,1.867786198854446411e-01
6.529052437032645262e-01,5.986580381326952471e-01,6.528615019162304911e-01,-5.744024785809661617e-03,1.217203154725461471e-02,5.952109270004195783e-03,5.991767346858978271e-02
6.037295768408623697e-01,6.512769638729574151e-01,6.527253271538266954e-01,-5.142967477846860196e-03,4.034814615146156518e-03,1.181240942961239541e-02,5.365171283483505249e-02
6.628276273497900606e-01,6.430159159889516918e-01,5.909299210028012839e-01,-2.907904633337827019e-02,-3.059022462412102142e-02,-3.754912198599050926e-02,1.170949861407279968e-01
6.498437561759700110e-01,6.975173822968936399e-01,5.638642734061197759e-01,5.891267931318967636e-03,1.164777450891174050e-02,-3.816984627807669828e-03,1.196621954441070557e-01
6.830621009403011756e-01,6.085888772936538516e-01,6.031259216897609798e-01,4.025429797997660429e-04,3.345150895261807256e-03,-1.071951379971584385e-02,7.976044714450836182e-02
7.088030779115191971e-01,6.544479194797272470e-01,5.056091526679317161e-01,-1.170550840702932159e-02,-1.565679809282743279e-02,-6.895239330584641835e-02,2.204708009958267212e-01
5.776888892073186454e-01,6.507061510585138153e-01,6.716731576344641130e-01,-8.057999796181292487e-03,4.947056294701603421e-03,1.024726734493746488e-02,8.879934251308441162e-02
5.689476552574413981e-01,6.743209345400869026e-01,6.476340794695729652e-01,-3.690193654391001055e-03,1.196258615004371084e-02,1.082846744318081457e-02,9.912398457527160645e-02
6.838096318133058960e-01,6.241697389821511122e-01,5.964009424794909364e-01,1.643517593675716815e-03,3.678404157979690663e-03,-6.643895050339049257e-03,7.851923257112503052e-02
6.760232614872779822e-01,5.995002340409762986e-01,6.098913730618080731e-01,-8.470679365808407926e-03,-1.187706465561333934e-02,-2.483315277308019084e-02,8.750483393669128418e-02
6.787712450692471311e-01,6.119632044505209922e-01,6.393482529008076565e-01,-2.221359130958361350e-02,-1.929253868697513793e-02,-2.930415371800039470e-02,9.250324964523315430e-02
5.603262383866453034e-01,6.994796154846054659e-01,6.512460186963795472e-01,-5.085329659947257844e-03,1.035699509968423040e-02,7.940913946825270062e-03,1.247671097517013550e-01
7.276237624663437487e-01,5.933970149326754928e-01,6.444003379779988938e-01,-2.890497971696856863e-02,-2.628298123640511810e-02,-6.728060674591444801e-02,1.786926686763763428e-01
6.852626325158015508e-01,6.099165203150589409e-01,6.007374276647630129e-01,-6.072499830536929460e-04,2.841586960359983489e-03,-1.776021771714111908e-02,8.616558462381362915e-02
6.820853578226556690e-01,6.334213685886561640e-01,5.758468252634549867e-01,4.934485937611733652e-03,-7.366626677562992942e-03,-1.797074613370120214e-02,9.843531250953674316e-02
6.357555389139198931e-01,6.266082608042813362e-01,6.397978037122259432e-01,2.252809827541957851e-03,6.166872774819505756e-03,-2.567663964420480085e-03,1.691400073468685150e-02
5.701794050692935434e-01,6.720260112201594804e-01,6.505512048514263679e-01,4.085723146382654568e-03,1.040859135797000436e-02,-1.449269958133442629e-02,9.824445843696594238e-02
6.839457794503281951e-01,6.115561467370754789e-01,6.171406711205370543e-01,2.383120124639123802e-04,5.041282153037038131e-03,-1.558184893136092992e-02,7.531254738569259644e-02
6.260059970578437660e-01,6.317392229832177186e-01,6.950355696187240362e-01,5.360378771443984752e-02,2.883309181291636089e-02,-3.421674376224589226e-02,1.379445046186447144e-01
6.189038739382420884e-01,6.158352716835595597e-01,6.387390078705772467e-01,1.778380358435262612e-02,1.326713707840692855e-02,-1.597096616605481190e-02,5.201703682541847229e-02
4.219392380430270206e-01,7.679844839157367042e-01,7.199510682509377979e-01,-1.526255982044889001e-03,-3.785999932850753202e-03,1.749794388425103108e-03,3.247952461242675781e-01
4.883575688965132722e-01,7.206839292516340478e-01,7.199864919584542111e-01,1.797412694481754841e-03,7.882880887044224410e-04,-6.070005685702748767e-03,2.322414368391036987e-01
4.298824600575499311e-01,7.463063387218882294e-01,7.461438721077822134e-01,2.389219058984356700e-02,2.832645268000958880e-02,-3.802587844382744608e-02,3.294393122196197510e-01
5.050140206597898418e-01,7.145977646799733796e-01,7.205304974131818696e-01,-1.460568733485776219e-02,5.586492492032864082e-04,-5.568951618821356073e-03,2.143312841653823853e-01
4.955543454385706870e-01,7.271555677876079260e-01,7.164504000196859623e-01,7.293499248551463428e-03,1.420305320904446597e-02,-9.013880566558777263e-04,2.281262874603271484e-01
6.273608691241729929e-01,5.733232814671043176e-01,6.948571656934252605e-01,1.578596035119748248e-02,-3.130882037531485928e-03,1.051923714728140893e-04,1.090879365801811218e-01
6.037596811261864982e-01,6.498916738756230771e-01,6.516873839879957497e-01,4.517959746362361882e-03,5.050801391611724547e-03,-1.430705983079765681e-02,5.446162447333335876e-02
5.155912642450812822e-01,7.087445676945137718e-01,6.800875916143456212e-01,2.157064062787320685e-03,5.077239145643430013e-02,1.054551809865354219e-02,2.016812413930892944e-01
4.962362512263266412e-01,7.179114031379425498e-01,6.977593595088293910e-01,1.101279100811990673e-02,2.002008072202303424e-02,-4.948709191621616932e-03,2.161446213722229004e-01
5.087047327699560917e-01,7.150600251871106483e-01,7.164788643182755656e-01,6.082189406276004157e-03,1.531922207346780689e-02,-3.394499025676513040e-03,2.091097533702850342e-01
6.000565400581352460e-01,6.528146314282359253e-01,6.522920472828737104e-01,5.279700603140234823e-03,-4.838210642977551317e-03,1.131674510695153575e-02,5.739490687847137451e-02
4.871564844016004203e-01,7.123711485051904546e-01,7.033364363056960888e-01,4.148617845772556434e-03,1.376242411896160802e-03,-5.238018877125159498e-03,2.211518585681915283e-01
4.250115146830372725e-01,7.448784983864886744e-01,8.013307379327216928e-01,-3.371503695744159507e-02,-1.618117502597770166e-02,6.901453074577237716e-03,3.576275110244750977e-01
6.005644999470349799e-01,6.820518651933382692e-01,5.951558045986057310e-01,-5.829313090007073005e-03,-2.779722371234002315e-02,-7.764969989103557776e-03,9.854475408792495728e-02
6.036081871731977522e-01,6.942775355318536734e-01,6.302257385370004794e-01,1.623853518445584482e-02,-3.051250485003431309e-02,3.602427360646826265e-03,1.006929501891136169e-01
5.658252320348723385e-01,7.011687302435996028e-01,6.650998174974003252e-01,1.593186463832187150e-02,-4.320997270322294442e-02,-3.320500689626881743e-03,1.453719139099121094e-01
5.624758751706873117e-01,6.079088774182890287e-01,6.805655950658845432e-01,-5.431353515210434607e-02,-1.990619752006615728e-02,-1.783001795197218867e-02,1.470936685800552368e-01
6.377290386400739086e-01,6.220968932906161264e-01,6.429678037450019534e-01,-2.960578976207348632e-03,7.830452014775945990e-03,1.654457456525242108e-03,2.391979284584522247e-02
5.536594264833935020e-01,7.098955539546536464e-01,6.645219494868856991e-01,-3.923549439529614227e-03,-5.623114629316551538e-02,8.723772005212225913e-03,1.707038879394531250e-01
6.101299299057663106e-01,6.761611677313850155e-01,6.344816507060517807e-01,1.845722190838604282e-02,-2.327758880472638806e-02,1.854851756289170595e-02,8.381434530019760132e-02
5.733897185455832934e-01,7.837369018575232049e-01,5.519822974924670778e-01,4.479278185500639754e-03,-1.127186897886081202e-01,2.487513167892144508e-02,2.987310290336608887e-01
5.942418000092132280e-01,6.262105607942064500e-01,7.037812602560503672e-01,6.534110604599682737e-02,8.389346506256422850e-03,-2.586064666894187861e-02,1.566681116819381714e-01
6.273205766959155660e-01,6.344591336115483760e-01,6.093884302260302865e-01,2.662613439708734486e-02,3.695451771806948504e-02,-3.060643804079274735e-02,9.764504432678222656e-02
6.386230721629715390e-01,6.339161148874534746e-01,6.527136512007611913e-01,2.357210809709476412e-02,3.706001918992264665e-02,-3.593933467624564615e-02,9.974566847085952759e-02
6.574304652947897676e-01,7.107278507069566542e-01,5.618258001317214534e-01,2.705040922995435859e-02,3.449566763301320504e-02,-3.464556586870852495e-02,1.626109331846237183e-01
6.147574005752908244e-01,6.214253199121642091e-01,6.684304151971754981e-01,-3.121066595811058508e-03,-1.597815295258734171e-03,-1.727552619247398188e-03,5.111948773264884949e-02
6.637150973629868389e-01,6.292454697168216038e-01,6.110857792330899319e-01,4.529257488377658181e-02,5.833612435794859746e-02,-5.039534006849929332e-02,1.616370081901550293e-01
9.455095839946283665e-01,6.724547649614004419e-01,5.384866794544969082e-01,-1.007128927719301431e-01,-8.092243108487372216e-02,-3.502147133376816712e-01,7.396706342697143555e-01
6.591771702662656551e-01,6.061446644593090349e-01,6.629011472560112361e-01,9.104728660010462382e-02,1.139255013924160009e-01,-7.163076117004385512e-02,2.867448031902313232e-01
6.047529481263124174e-01,6.314078153435126461e-01,6.724036346102878481e-01,-4.905238621676051916e-03,2.469026031945314916e-03,1.011833883081093149e-02,6.230162084102630615e-02
7.019639591929428546e-01,7.216117044088854460e-01,4.960549254063538749e-01,-3.801345799223472804e-03,-8.127752509867591096e-03,6.165514930616160065e-03,2.172228991985321045e-01
5.707996188657075143e-01,6.813923629043148189e-01,6.508117030913812551e-01,-7.422017452640952001e-03,-1.007770143660646940e-02,-1.294469400136041143e-02,1.037138700485229492e-01
5.119349913399828811e-01,6.972882473466754938e-01,6.764491182046090678e-01,-5.419691463019948689e-03,1.176937871993834032e-02,3.317918594453977358e-03,1.773815006017684937e-01
7.285670200179802380e-01,7.140410186805570270e-01,4.483793499889496825e-01,5.150085744820965096e-04,-1.731941264666829808e-02,-2.624026202136010497e-02,2.785901427268981934e-01
6.977270807707096623e-01,7.041161071844475039e-01,5.031573833441024268e-01,-3.853081567911348978e-03,-1.766615876687099851e-02,-3.129003288544785280e-03,2.003783583641052246e-01
6.477511741971432313e-01,5.606871985545660575e-01,6.861835232841648757e-01,-1.222330136008975554e-02,-2.310657859940443322e-03,-1.587239355714780385e-03,1.134683117270469666e-01
7.027353153615071291e-01,7.122485916524565752e-01,5.048310932066863987e-01,1.705633611518820951e-04,-5.839785774806495119e-03,-2.094126733106841526e-02,2.062942236661911011e-01
7.183314204610217191e-01,7.195820532382065648e-01,4.942603199549736592e-01,1.020252984775722694e-03,-2.487714268206845433e-03,-1.576630776760095179e-02,2.264002412557601929e-01
6.275124534536502541e-01,6.490756992352311183e-01,5.927535419370110192e-01,-2.254093504593373404e-02,3.210611741378325418e-02,2.183103126427230617e-02,9.202793985605239868e-02
5.567932476975617773e-01,6.790261925054063008e-01,6.761389270142832419e-01,-7.161765144897406198e-03,9.265756418885669199e-03,9.927636875862507621e-03,1.237069889903068542e-01
9.676781694272615919e-01,3.618791955073314415e-01,8.668961923613648368e-01,-1.051072670792857905e-01,4.817578285781149057e-03,2.123574352709448054e-01,6.961286067962646484e-01
6.266777178066826881e-01,6.975677461133322765e-01,5.991015037218808681e-01,-7.787599724065027984e-02,1.267358498996858096e-01,4.746619932446621837e-02,2.843936979770660400e-01
5.793792837430233877e-01,6.885436559729656292e-01,6.641658631055739059e-01,-2.778160770841797342e-02,3.477827552119058807e-02,1.813813609283702194e-02,1.295413672924041748e-01
6.862043301404052720e-01,6.140230401061987919e-01,6.141495672774949233e-01,-1.174090200135053741e-03,9.476697488096844481e-04,-1.498277669127760781e-02,7.668964564800262451e-02
5.771879080015510644e-01,6.474450331634472589e-01,6.868983047417333010e-01,1.030636937486101821e-02,3.439639053365142578e-03,-6.351982062167011063e-03,9.868990629911422729e-02
5.543307622993186579e-01,7.160337586263118004e-01,6.624244441236918357e-01,-1.493671879606686508e-02,4.881812187997833924e-02,5.890416487636257643e-03,1.681548804044723511e-01
4.918014139148002561e-01,7.018222958878480577e-01,7.518284691837475719e-01,-5.500328481641136857e-02,3.352133169903259019e-02,1.613933861763758998e-02,2.652174234390258789e-01
5.252558522903809646e-01,7.053150759176323170e-01,6.780910601547884831e-01,2.728136206275584650e-03,1.210402001760114976e-02,-1.560576528322191051e-03,1.694983541965484619e-01
6.240742584518375047e-01,7.222281111041433110e-01,6.294292726889483269e-01,-2.024290649293008712e-02,7.100554647703571920e-02,2.481066239855106784e-02,1.653439849615097046e-01
4.912042756847540548e-01,7.069537598380520871e-01,7.055914122596510518e-01,6.985874463500591630e-03,6.374973350869854796e-03,-8.517733762543470467e-05,2.156945019960403442e-01
7.017629728453079752e-01,5.221838823746625113e-01,6.476444880666797355e-01,1.180238123797025529e-01,7.513407789304621387e-02,-1.003855253324515001e-01,3.382527530193328857e-01
5.590225498216270239e-01,6.806389009312027172e-01,6.176141672011713490e-01,-1.645737966922946813e-02,5.725217008727974399e-02,1.620524268751583757e-02,1.501053422689437866e-01
5.325763199602459030e-01,7.474972027446782352e-01,6.695302596350481972e-01,-4.317230013065045946e-02,7.260037128354120128e-02,4.952107693408786676e-02,2.535233795642852783e-01
6.352446525069634919e-01,6.358725615461129355e-01,5.992569054110999938e-01,-7.996415661694816768e-02,-9.274840561453261134e-02,-9.327749426696577140e-02,2.690906524658203125e-01
3.066448063440729288e-01,7.572415893151122068e-01,7.406240300853020875e-01,-7.518148039738656307e-02,-5.004141771137114725e-02,-1.823172002627719557e-02,4.704170227050781250e-01
6.539098059277557162e-01,6.224017856624224354e-01,6.283850471960200634e-01,2.475610161910269530e-03,4.286440757067577767e-03,-6.702771222002938765e-04,3.024712391197681427e-02
6.316466181976160277e-01,6.127961970027530070e-01,6.537399125979438397e-01,1.349280894638312227e-03,7.593264624639076317e-03,-3.083989149963303582e-03,3.829997032880783081e-02
5.975686059948299711e-01,6.264655215131806898e-01,6.798850135310392506e-01,5.433424844187543720e-03,1.085259049662030007e-03,-3.896605847666709428e-03,7.328016310930252075e-02
6.175837757796948102e-01,6.768902351001542250e-01,6.113656995796549198e-01,-8.663040287062151457e-02,-1.564589216217411594e-01,-6.644281363657970896e-02,3.363350927829742432e-01
5.255032589561109413e-01,6.747759925072236431e-01,5.906175816110509347e-01,-8.926487542237877826e-02,-1.277396019022446483e-01,-6.836448521881635654e-02,3.219944238662719727e-01
6.062727687040292412e-01,6.309136158779511394e-01,6.708001507013123810e-01,5.195501457204504230e-03,2.261556928909514048e-03,-7.218709526742590754e-03,5.859690904617309570e-02
6.034265433014148750e-01,6.567186679091578938e-01,6.103405209851017199e-01,-1.254629981401697049e-02,-3.166732177954113131e-02,-1.665020220204607368e-02,8.265450596809387207e-02
5.978463880763090765e-01,6.571454023726062132e-01,6.360597263350090680e-01,-1.545806905877724485e-02,-2.754119142779463264e-02,-1.729676923444161546e-02,8.124383538961410522e-02
6.538146019765211925e-01,6.212377342661425939e-01,6.283558838536764668e-01,3.058540329156398101e-03,5.546821066450942361e-03,-1.794415254500507633e-03,3.178142383694648743e-02
6.176820583501340112e-01,6.080957355454081892e-01,6.721064191872700988e-01,-6.649859514445882747e-02,-2.662109864755629954e-02,-4.366513463331433975e-02,1.571235507726669312e-01
6.298267732677009789e-01,6.349811736281996133e-01,6.434452290617637127e-01,1.167007377288085783e-02,7.785774104682851443e-03,-1.350545562399913836e-02,3.576945513486862183e-02
6.238709474315883297e-01,6.453456424507671985e-01,6.261073991238307324e-01,-8.293168897780686666e-03,-9.283523148667821231e-03,-6.701540743826348359e-03,3.190220147371292114e-02
6.206735728263965690e-01,6.855285210493011760e-01,5.992355888291667210e-01,-3.978197597672467056e-02,-6.813677798463782520e-02,-2.194077965354182189e-02,1.617899388074874878e-01
5.981419342242472181e-01,6.618738965808745878e-01,6.333742169434566360e-01,-2.070921444658325658e-02,-2.629499071424874421e-02,-1.978425404294021153e-02,8.713666349649429321e-02
6.244561918784249377e-01,7.051293954990336399e-01,6.300921819027517357e-01,-3.816112877039934403e-02,-7.133797303311549542e-02,-4.529704987725144405e-02,1.785409152507781982e-01
6.290068529777933515e-01,6.269217101841135786e-01,6.299545892021068960e-01,-9.135199921490349401e-03,-8.314578738595918353e-03,-9.327552934570253890e-03,2.694409340620040894e-02
6.070078639666015574e-01,6.387038838095838722e-01,6.403293595201259292e-01,-5.736382680136689095e-03,-1.310052422050229405e-02,-1.234459525305494146e-02,4.614713042974472046e-02
6.238032403486967192e-01,6.619104601022373080e-01,6.127464274282443668e-01,-2.106735943141701053e-02,-2.901002717059507005e-02,-1.808058171677060996e-02,8.266030251979827881e-02
7.440811164950434931e-01,7.871769084910402725e-01,4.648337355018705708e-01,-5.138605101702920647e-02,-1.238179995883812862e-01,-6.616666298989512529e-02,3.986465632915496826e-01
7.279551625991516062e-01,7.378169915046715044e-01,4.540890370190436842e-01,-2.301374680677076984e-02,-1.033594851984793589e-01,-1.781002331730200533e-02,3.352473378181457520e-01
5.895783663170572897e-01,7.743030918583195810e-01,3.426056309941915012e-01,-2.651101392315463254e-02,-2.374760101322688222e-01,-4.457672749566479048e-02,5.639104843139648438e-01
7.957459294411111106e-01,7.999422380164148416e-01,1.546323801709808543e-01,1.810879168252366167e-02,-7.182279016745464484e-02,1.288447056487449470e-02,6.562711596488952637e-01
6.857587144166689130e-01,7.659686913780859863e-01,4.434147427581132117e-01,-2.086979933505166487e-02,-9.024794529901630780e-02,3.139896614136093722e-02,3.366022109985351562e-01
7.530202877158898023e-01,7.898780248315084851e-01,4.490686359174802522e-01,1.149378927163454203e-02,-5.330673826727398701e-02,1.788841375996369498e-02,3.388645648956298828e-01
6.382402540353494524e-01,5.686543215821019404e-01,6.961650836725966629e-01,-5.396989452585827102e-02,3.436878426959180666e-02,1.620168224155945150e-02,1.590522378683090210e-01
6.479652134962838872e-01,5.583333000722242589e-01,7.024994578895610298e-01,-1.326810429577487682e-01,2.486592526145326928e-02,6.810544162436019122e-02,2.906520962715148926e-01
6.265809660487386967e-01,4.768725158386216134e-01,6.886049293583524911e-01,-1.043937799345977385e-01,3.710507913066792701e-02,4.212076067895723780e-02,2.787330746650695801e-01
4.555382828202252932e-01,7.218133420228772801e-01,7.346570351453899361e-01,7.794204176696014480e-03,4.179563880565124318e-02,3.078317202946424976e-03,2.827341854572296143e-01
2.568360924732648320e-01,8.268549548685040218e-01,8.849423908800299055e-01,-3.431744811906505682e-02,1.660496480177977019e-01,-4.179031545586728985e-02,6.729757785797119141e-01
5.593838571714935259e-01,6.499652219805123199e-01,6.868558675870359842e-01,-1.220713655803720016e-02,-3.367804661925716996e-04,-5.781659080033786646e-03,1.159964427351951599e-01
2.519822153468410098e-01,9.649468667707843395e-01,7.380357480098829193e-01,1.079459267353594445e-02,1.874905119597969072e-01,4.182843763091315115e-02,7.135013341903686523e-01
2.100398175105287479e-01,7.710044171076537722e-01,6.746126665434475367e-01,-1.224088092562023583e-01,1.806550179107159204e-01,4.279813435862531851e-02,6.467269659042358398e-01
3.751685885637641715e-01,7.814135986004394629e-01,6.376598699966734562e-01,-1.284209353166052524e-02,2.507737211935460730e-01,4.696079762454806461e-02,5.683959722518920898e-01
5.648274205982014573e-01,6.477815100436473683e-01,6.863565475315106523e-01,-1.151291098322253410e-02,4.184095757282381423e-03,1.494734565942753331e-03,1.096641942858695984e-01
5.974766766699451948e-01,6.282604540104168578e-01,6.807331572434244249e-01,-6.682079047522025868e-03,-1.520573571585367902e-03,-4.141928803122431856e-03,7.422053068876266479e-02
5.348937305624623662e-01,7.799707479969275603e-01,6.599198981975111789e-01,-2.390030361379687478e-03,1.614161946945172899e-01,1.084507447597586084e-02,3.515519797801971436e-01
5.673451978967887221e-01,6.177489339656914158e-01,7.153341981205512123e-01,-7.452677524619381877e-02,9.326910433510063022e-04,-2.475862341024471017e-02,1.883782893419265747e-01
4.729304776905677854e-01,7.899627415399097519e-01,7.485556557853666471e-01,-8.015457910345723247e-02,2.729655865810817761e-01,5.759421910784900261e-02,5.846818089485168457e-01
4.432756508335369272e-01,7.740100416452088128e-01,6.435889689728107044e-01,-1.073513162546801125e-01,2.171315798507652273e-01,2.430075038806536053e-02,5.109236836433410645e-01
6.048700379081425327e-01,6.281819677810082103e-01,6.715735043072532662e-01,-5.107701658034373600e-03,-1.326407651052776294e-03,-8.825211923983673767e-03,6.127812713384628296e-02
5.340018095526899433e-01,6.791935474371182391e-01,6.947899151187434397e-01,-1.151524456008890668e-02,4.205859340484357015e-03,1.683223643985020659e-03,1.550732702016830444e-01
8.781880284746952370e-01,5.327072455406489659e-01,6.057947800618550538e-01,-1.759542483936742119e-01,6.047492525922969903e-02,2.675136597039184383e-01,6.465218067169189453e-01
7.842193558762203809e-01,4.132412548365126392e-01,5.946734432027012129e-01,-8.624335615451036996e-02,9.804933102492205399e-02,2.373995343834948146e-01,5.687401890754699707e-01
6.509568502034914772e-01,5.982745889144893692e-01,6.506428602056969490e-01,-5.853749189587419653e-03,1.393584239801106371e-02,6.079434672342067317e-03,5.962615460157394409e-02
8.296518199729373544e-01,3.684275242005803919e-01,9.621327912257908732e-01,-2.558493211592574035e-01,1.688706955402458423e-02,-5.620732157536870166e-02,7.057566642761230469e-01
7.024409474362689476e-01,5.229170757820621462e-01,7.094823487800160366e-01,-7.697579726379567833e-02,5.876436974935827021e-03,1.191610897394891969e-02,2.277013361454010010e-01
5.738247683299877444e-01,6.674860439938670176e-01,6.602240706207753718e-01,-3.514354124832529125e-02,-3.932349605200448350e-02,-2.785007506892001397e-02,1.371718049049377441e-01
6.893722099580976703e-01,4.934417847591081041e-01,7.331582657921634771e-01,-1.688870017688536285e-01,1.633191913190364802e-02,7.702454876062506117e-02,3.912185728549957275e-01
7.699568943418467759e-01,5.148816662946842371e-01,6.336647043381196109e-01,-7.085048534610670357e-02,8.790930114023881581e-02,1.264774780441218494e-01,3.675695061683654785e-01
7.503034966431016972e-01,5.004493710992155009e-01,6.719356816659967091e-01,-1.372224700794448873e-02,1.387396420727630454e-02,7.401182236585050755e-02,2.579993903636932373e-01
9.645521290682377291e-01,3.338447490492812975e-01,7.052465843396819034e-01,-1.114350932522723825e-01,9.707880498902718078e-03,2.206781351195082896e-01,6.965039968490600586e-01
4.885014180775873460e-01,7.177560904233525330e-01,6.132637567402562384e-01,6.339462640219800486e-03,1.057921223984289588e-01,-8.384553030007867169e-03,2.709767222404479980e-01
6.208076563651547808e-01,7.055962794411798633e-01,5.626187107817376409e-01,1.239215056577957531e-02,6.092452090620181088e-02,-2.255327886937584091e-04,1.646361649036407471e-01
4.769402521000291051e-01,7.070323159113008904e-01,7.026366842953869485e-01,-2.465286066059260185e-03,7.438168207579622104e-03,3.648920771668760950e-03,2.284172326326370239e-01
5.649765450082373519e-01,7.035456114693849905e-01,6.149973156118239137e-01,-3.734141633874206011e-03,6.311100267182392920e-02,-1.268385133553319964e-02,1.650624126195907593e-01
6.183332088290683926e-01,6.789442036084395449e-01,6.075065126432903639e-01,-1.606569900375395821e-02,2.317482184339576118e-02,1.415632680968718048e-02,8.621988445520401001e-02
2.707487999468930484e-01,6.668080094505224320e-01,9.250795955552510996e-01,3.102103461047998612e-01,-5.199661016823946269e-02,-7.947495160636895706e-02,8.010050654411315918e-01
6.567881231966375966e-01,6.879630106174993154e-01,5.427138267688507156e-01,1.373042376412083286e-02,-2.565360545370379275e-02,1.578005233166295679e-02,1.443190872669219971e-01
6.304166993080992931e-01,6.564869810394637906e-01,6.412331071998192966e-01,-2.762314452160677392e-02,3.145283402570116238e-02,1.995059205228784036e-02,8.346078544855117798e-02
4.975168175749379307e-01,7.031475617962639202e-01,7.087553396012526985e-01,7.270734930186996056e-03,-4.808064845388973149e-03,3.062984414126713323e-03,2.091044485569000244e-01
5.708249635047506487e-01,7.434566726019806726e-01,5.989507234462627672e-01,2.036526427793560606e-02,1.364366058367200152e-01,2.073234932889753482e-02,2.900274693965911865e-01
5.895317437752740641e-01,6.790319719326007863e-01,5.974203947591767427e-01,6.342529103013191255e-03,3.390800306975701867e-02,-3.629523824555003220e-03,1.047661527991294861e-01
5.426857206793330723e-01,6.821321629941297093e-01,6.777807748878025285e-01,9.898633207011170790e-03,-8.866690253416728562e-03,1.107231026869715321e-02,1.405526548624038696e-01
5.810149184914102927e-01,6.823606026136879166e-01,5.882311312045875873e-01,-1.073192374670315502e-02,4.267508335030758410e-02,7.608238735007481768e-03,1.247972622513771057e-01
5.678017595723472422e-01,6.811920028211178035e-01,6.386394374132683405e-01,-6.995228394025988783e-02,8.254176924832519469e-02,4.262043139519647306e-02,2.245260030031204224e-01
6.493934482123070451e-01,7.243884741294233098e-01,5.539830762342681236e-01,-9.523638236367731880e-03,5.683357549992205937e-02,7.810080270400874061e-03,1.789635568857192993e-01
5.537820013839329647e-01,6.475853218049121285e-01,6.868268881294739003e-01,1.048853839573569459e-02,3.127630972464153750e-04,2.076008663158336251e-03,1.198465824127197266e-01
6.137172080917800976e-01,6.135429124199245354e-01,6.758041649192737532e-01,1.394426246074417092e-02,4.558385009089334187e-03,-3.653523710849176497e-03,6.746369600296020508e-02
7.273834971924378889e-01,7.330328749614606343e-01,7.353988164381242143e-01,2.349503188485118077e-01,2.126656480630915447e-01,-2.059968142922499745e-01,6.547060012817382812e-01
6.116422482732949417e-01,6.152528805222206021e-01,6.681072227929825136e-01,7.915792263963348846e-04,-2.133845352761381837e-03,1.350751220552568908e-03,5.494059622287750244e-02
6.239648895248870453e-01,6.126380247790655931e-01,6.048092302416695487e-01,4.480520963874285584e-02,4.580683336024161251e-02,-5.153974846234481155e-02,1.434036940336227417e-01
6.993276974973142712e-01,6.491396802216691242e-01,5.775446439014081390e-01,6.151100267773583312e-03,1.403764804329319348e-03,-8.232820978713408996e-03,1.075204983353614807e-01
6.205656111954357401e-01,7.184875299052579933e-01,5.908551480532313604e-01,-4.264756601332837013e-04,8.617763336570523347e-02,6.020073827122078211e-03,1.891289055347442627e-01
6.166292196108413837e-01,6.141684037228662962e-01,6.700531899846405848e-01,3.142419079677205834e-03,-2.766714770344734162e-03,2.189496049918350246e-03,5.530472844839096069e-02
6.094876466567109574e-01,6.133385143202129131e-01,6.771819134250750549e-01,1.921366168418778796e-03,-1.676573360427037604e-03,-3.498317018602707944e-04,6.600406020879745483e-02
6.824102701151720796e-01,6.320079235187450184e-01,5.962107490999581927e-01,1.035107181517459611e-02,4.686795236379865011e-03,-2.683420034244803076e-02,9.040824323892593384e-02
6.788321550641983615e-01,6.117283352828374321e-01,6.030915297087594551e-01,2.064674934093351129e-03,-4.871404453938163936e-04,-7.203946078533067336e-03,7.298130542039871216e-02
5.805992319836558169e-01,6.831460637415639470e-01,6.093416347733829896e-01,2.564105977451164656e-02,8.216484762842626854e-02,-1.781765429300087231e-02,1.776865869760513306e-01
6.312732768553784846e-01,6.716752460720651907e-01,5.995400290607977301e-01,1.045599689225134091e-02,6.905035178826370718e-03,-3.311317911053470332e-03,6.652308255434036255e-02
5.407848152818065524e-01,6.492291866099736408e-01,6.811343488136593072e-01,-2.693150996279232087e-02,-1.334428151540153693e-02,-1.371349757950270608e-02,1.396866589784622192e-01
6.663777791633703762e-01,6.227054999865160312e-01,5.655358628262683318e-01,2.257781795915457523e-02,3.263468434044882599e-02,-5.427801212238692746e-02,1.457223892211914062e-01
5.868965720768546390e-01,6.843805477487987510e-01,6.310090457953029253e-01,4.264230446866652119e-02,3.713807548449885032e-02,-3.661332478021376430e-02,1.440943777561187744e-01
6.030247027502272372e-01,6.249194392446016932e-01,6.693439667467776522e-01,4.079862692567692503e-03,-3.777055441536833220e-03,7.022342984637080197e-03,6.054961308836936951e-02
5.837347977454064862e-01,6.747782266878948887e-01,6.678773697253688191e-01,2.770586053168765453e-02,-4.550732237058298379e-02,3.475333526817122459e-02,1.408801823854446411e-01
6.428829205128728796e-01,6.169734585591366560e-01,6.300385756336451815e-01,1.347254326135326370e-02,1.248364050031755546e-02,-1.368902218516952415e-02,4.558187723159790039e-02
7.483025059260346445e-01,5.865187626090778705e-01,6.297826337056054991e-01,3.533270483765132280e-02,3.098552409045313843e-02,-9.566063463812916889e-02,2.347865700721740723e-01
6.353359049897475685e-01,6.397787255021045727e-01,6.241775165052948493e-01,6.630532280218926801e-03,-1.371834160165540063e-03,2.847194184101405935e-03,1.885948516428470612e-02
5.933970988732500951e-01,6.331832574744238329e-01,7.483936829622374054e-01,1.332491153400708062e-01,5.562634013318785986e-02,-6.309897729502837727e-02,3.064856529235839844e-01
6.241268996014459614e-01,6.584761275905283151e-01,6.402212366061764692e-01,1.341505317511695883e-02,2.179285135275717267e-02,-1.745377431232171539e-02,6.135672703385353088e-02
6.098598443168681271e-01,6.139128639471598259e-01,6.806152764500839059e-01,-2.832136102728722953e-03,-7.864783091657537219e-04,-4.446893283658859253e-04,6.901084631681442261e-02
6.331539989147390024e-01,6.007712313793046599e-01,6.824846721936999039e-01,2.881883039287258877e-02,1.028185691864677564e-02,-1.346990110491179914e-02,9.182953089475631714e-02
6.280405629583467597e-01,6.519790227339937738e-01,6.731950469084742039e-01,5.194952302191148397e-02,4.462911899300918417e-02,-4.128994470396215449e-02,1.439345777034759521e-01
5.840484848351736868e-01,6.372041881613911274e-01,6.260335812956422386e-01,3.673442725684211707e-02,3.918104378580145042e-02,-2.958312196333144628e-02,1.167721301317214966e-01
7.590840173314691297e-01,5.717314794057648530e-01,7.044230266406407148e-01,-6.571669505686182633e-02,-4.703151216852816119e-02,-1.347398227027463424e-01,3.192245662212371826e-01
7.378050965545552842e-01,6.405708104829557215e-01,5.903095109142588726e-01,-7.205116264761113332e-02,-9.309350480797293215e-02,-1.660728019432943237e-01,3.757414817810058594e-01
6.789701016963084479e-01,6.322830022367512681e-01,5.601658464546186433e-01,-5.743745333423326549e-02,-6.109475092592153017e-02,-9.896596671470095363e-02,2.474372386932373047e-01
6.714131117508096436e-01,6.282541605705543875e-01,5.887499929553677847e-01,-9.369307397153138831e-03,-3.430807591546951307e-03,-4.498775771905903775e-03,7.407842576503753662e-02
6.641849811604977338e-01,6.298948537062634134e-01,6.018909696941362464e-01,-2.768163827194886073e-02,-2.142307018368352911e-02,-3.380899006699483733e-02,1.001253873109817505e-01
5.815854343773870783e-01,6.246066829459901992e-01,6.531394550401586896e-01,-3.671881970997740996e-02,-2.531108480723858606e-02,-2.693329454746795637e-02,1.097061410546302795e-01
6.854735238388640628e-01,6.661754612591261893e-01,5.541515980091495930e-01,-4.807624667538033802e-02,-4.552723711481768132e-02,-7.559522958766247414e-02,2.130250781774520874e-01
6.943239547236615961e-01,6.799939761134878857e-01,5.126592274865537924e-01,-1.843109337600474487e-04,8.973754943914672572e-03,-8.880895536176255933e-03,1.763022094964981079e-01
5.997685139754598271e-01,6.504747565254331843e-01,6.516660626516065369e-01,-6.247953616219195129e-03,-6.291456566648894431e-03,-1.325910940538376111e-02,5.827708542346954346e-02
6.298585942588837971e-01,6.332066045980304647e-01,6.422327524226048023e-01,-1.522357135157696023e-03,-1.537877049152122687e-03,-8.852569327309974282e-04,1.180250383913516998e-02
6.816515529920383898e-01,6.047295465778060874e-01,6.162695140004733618e-01,4.838333185282827492e-03,-1.814141500458518394e-03,-1.314729680009307268e-02,7.590220123529434204e-02
6.237040603662340477e-01,6.530333208284689883e-01,6.211864299963334446e-01,-2.268851949366502193e-03,-2.490892207619827773e-03,-4.945594900413814894e-03,3.237001225352287292e-02
5.369205178460281225e-01,6.526647953801087976e-01,7.142907324321773332e-01,-2.651321682507674915e-02,-1.502505298092574179e-03,-1.035176926272977221e-02,1.635984331369400024e-01
7.128194385475914441e-01,5.578561217034012643e-01,6.808710688667874988e-01,-5.020753179569683450e-02,-2.082431799403694148e-02,-1.482498538362237439e-01,3.080274462699890137e-01
6.726168969075950743e-01,5.582900918584791095e-01,6.685775992270186485e-01,-4.595641575865974660e-02,-3.910367932480471320e-02,-7.238386320484072045e-02,1.981582045555114746e-01
5.926946978738683036e-01,6.160553153931338510e-01,6.426744349606811069e-01,-1.041619865408252438e-01,8.473293453374813877e-02,6.987161324566371068e-02,2.657262384891510010e-01
7.221219057054558688e-01,4.087896782666715634e-01,7.174977493422485253e-01,1.041033995610401997e-02,-1.275041270803420248e-03,1.219837282253389069e-02,3.122915029525756836e-01
6.394880792719473961e-01,7.550156397376318607e-01,5.099099372774706929e-01,-8.341937429710620522e-02,1.588634218314387836e-01,6.757301718907818278e-02,3.942010104656219482e-01
6.998627890273185770e-01,6.971194611282170994e-01,5.305793636765356869e-01,-1.525702063679473287e-02,7.469515478843496981e-02,1.101616133866803182e-01,2.864317893981933594e-01
6.957663574708289334e-01,6.786302999013936743e-01,5.638182540471150528e-01,-2.640048293487725836e-02,3.894072422969730579e-02,5.030358904987808355e-02,1.722623705863952637e-01
5.411678901018078802e-01,6.227927625901967801e-01,6.390863708527664278e-01,-9.930304351051957856e-02,9.086849239296106162e-02,6.802986446919813412e-02,2.765805125236511230e-01
6.998589747186081400e-01,5.789247625792824925e-01,6.775487783177823742e-01,2.808357614858607298e-02,-2.624964549228001390e-02,4.751809768637187126e-02,1.537265926599502563e-01
6.770078333464898401e-01,5.390493972402108369e-01,6.654360981807968534e-01,1.882646168593996375e-02,-2.534522174764261213e-02,2.340971488214020971e-02,1.490117758512496948e-01
6.926288360654846432e-01,5.424515136133266635e-01,6.974962221791053407e-01,1.634830906029864292e-02,-5.679139505034314431e-03,2.151160043259674887e-02,1.599834263324737549e-01
6.863294402279352946e-01,4.750121779192444382e-01,7.007765088184155777e-01,3.818631956618567802e-02,-4.920545237092689358e-03,1.633800253874707897e-02,2.305745631456375122e-01
6.618388297591555336e-01,5.479543002357807335e-01,6.940118105295225437e-01,2.257386713502944689e-02,-1.110446485239556698e-02,1.524099421918905135e-02,1.423528045415878296e-01
6.653836344353101229e-01,5.444371350150988276e-01,7.039531949309051351e-01,4.452606748897811745e-02,-1.746045744544993689e-03,2.703959754796517179e-02,1.700905561447143555e-01
6.863606827796600030e-01,6.490368061626833329e-01,5.653076614175041037e-01,3.353544989960632536e-03,-1.555077820964164250e-03,1.103693037754736699e-02,1.092482134699821472e-01
6.770211673024401078e-01,5.324496972608834255e-01,7.036541821878720127e-01,-1.217530641464852417e-02,-5.045566844090678023e-03,-4.451671595856350298e-03,1.613726764917373657e-01
4.845760920685766582e-01,6.772918406312679052e-01,7.011303878308937643e-01,2.643540165680552737e-02,1.371607093482940520e-03,-5.378825571138627117e-03,2.109280228614807129e-01
5.521355703870336473e-01,6.760621913975417563e-01,6.766599950277084607e-01,-8.550602435632159715e-03,7.247325832802788310e-03,1.233744197977427667e-02,1.275374293327331543e-01
6.957292492342946888e-01,6.501011868407685634e-01,5.717821689680340214e-01,5.870779234127595364e-03,-5.924932534129362209e-03,1.276430968814718306e-02,1.117444783449172974e-01
5.255319275266242540e-01,6.945166206813897514e-01,6.806963369555604215e-01,2.828420714956229529e-03,-1.097342170015249904e-02,1.675746589258535939e-03,1.637225747108459473e-01
7.025311548480370760e-01,6.053192757839676030e-01,5.784745383028321308e-01,-1.587976627089357495e-02,2.686913728814231336e-02,5.727986949693610746e-02,1.598302870988845825e-01
6.772674426232404565e-01,5.978089259818564205e-01,6.087528018575005806e-01,-7.806926852318984110e-03,1.121631717453375719e-02,2.514414860239974625e-02,8.955883979797363281e-02
5.837736341997262768e-01,6.735725777121818192e-01,6.511427010429645668e-01,-4.887545970052816803e-03,7.154633494352442315e-03,1.221262999828753512e-02,8.500262349843978882e-02
7.264474491289665270e-01,9.426530286921083190e-01,5.524390800452734229e-01,1.293707280972769547e-01,3.050754750048819131e-01,-1.785358647563932977e-01,7.346386909484863281e-01
6.973360629444327330e-01,6.031134940075663087e-01,6.293249144477898183e-01,1.941017547164669219e-03,-2.077256266368005758e-03,3.130093616606857004e-02,1.002931594848632812e-01
7.287634272217407005e-01,6.101367521518733517e-01,5.532726440085672381e-01,1.119293669893342558e-02,-1.608388739530043632e-02,5.506334190687435515e-02,1.852005720138549805e-01
5.180294440745260021e-01,6.809068223493578431e-01,6.889268184921800708e-01,-8.056763543970460462e-03,-1.387240058593688236e-02,-9.267916615369877625e-03,1.700863987207412720e-01
7.009375393812596888e-01,6.080313824612737506e-01,6.238406352708248948e-01,-3.939179857524275664e-03,3.589333245900854907e-03,7.530206365106197064e-02,1.565538644790649414e-01
7.255288220436078017e-01,5.476434355196240222e-01,5.626913047485271324e-01,9.340419671685593409e-03,-9.241246638953058701e-03,1.273944889576531514e-01,2.799979448318481445e-01
6.957771994453491038e-01,5.020568604996197282e-01,6.782948306588040266e-01,2.649076223400944653e-03,-7.285918480111273389e-03,1.262420104213452313e-02,1.873631030321121216e-01
6.980191424968403835e-01,6.626573785214150414e-01,5.812516077932019520e-01,1.083400684106225823e-02,-9.668658275745872430e-03,5.262443542992299716e-02,1.403444856405258179e-01
6.260195004797263207e-01,6.022569134415510783e-01,6.695852290041868216e-01,5.529524266006149470e-03,6.586135384755070592e-03,-3.290178520279972690e-03,6.125522032380104065e-02
4.811935163412930372e-01,7.003546053732102594e-01,6.893061732534904174e-01,-2.802689351769910298e-02,-4.193915386007958379e-02,-9.591216451245164129e-03,2.316062152385711670e-01
6.652491247685696774e-01,4.488812449992912734e-01,7.014691008821900553e-01,1.003104918229235504e-01,-5.480958663492899695e-03,5.789395831959513045e-02,3.103153705596923828e-01
6.324881019296331175e-01,6.078984297671468084e-01,6.707756457785954973e-01,4.472166162497846417e-03,-6.570914396780152752e-03,2.610167629864422814e-03,5.676298588514328003e-02
6.673177703973143249e-01,5.277613238878595681e-01,6.582590961840039112e-01,6.313267150092607971e-02,-4.390960710939589146e-02,7.422597769703781490e-02,2.292677760124206543e-01
6.264206073442005751e-01,6.316558911528179499e-01,6.009287744043462220e-01,2.998572783180952078e-02,-3.067154091517271947e-02,3.084470787456236943e-02,9.583605080842971802e-02
6.836827263301237245e-01,5.612125079952587914e-01,6.022950878570801914e-01,5.748433161752888182e-02,-5.272872887004876469e-02,1.030524014799549665e-01,2.485337704420089722e-01
4.378508070564104404e-01,9.270176813438459895e-01,5.456491128123533985e-01,7.546176404056136044e-02,-2.315664054829207619e-01,1.295889817584970349e-01,6.530740261077880859e-01
7.010594663604879928e-01,5.661060251322503900e-01,7.287565750574350742e-01,1.150579085269868296e-01,-4.910872325437580510e-02,8.524378377882138591e-02,3.024348914623260498e-01
6.309603546098406790e-01,5.878855184187183891e-01,6.548534260864524725e-01,3.640864456691018242e-02,-2.666107583142823811e-02,3.157871337415183582e-02,1.120551750063896179e-01
6.821019107819564775e-01,5.649677321344362957e-01,6.645076397063924833e-01,1.934183919072266986e-02,-1.515631366399343427e-02,5.243862802147530866e-02,1.484249830245971680e-01
6.646206797766667229e-01,6.088609600986689685e-01,6.377715253489456559e-01,1.263703973596771481e-02,-1.437854591187162460e-02,2.541568089955401760e-02,7.328099757432937622e-02
6.872135395030892768e-01,6.046778563616244107e-01,5.979748875226554850e-01,8.842591093210326950e-03,-7.580185268739660434e-03,2.398179662887532301e-02,9.768640995025634766e-02
6.144199485754684442e-01,6.998834253076857692e-01,6.248844950484725436e-01,1.959104827665289483e-02,-6.166846836010791283e-02,-1.986116848644049575e-03,1.381717622280120850e-01
3.624255484707968322e-01,8.770621298941283506e-01,9.287961481371409533e-01,2.114382904633602400e-01,1.138331142991349521e-01,-4.278748811373891264e-02,6.874853968620300293e-01
6.308061888387709315e-01,6.060854877005875663e-01,6.517719787054782055e-01,4.699733127908470483e-03,-1.139580936336652764e-02,2.997916431383260485e-03,4.529663175344467163e-02
6.240016838395757715e-01,6.868664801511962237e-01,6.138316043132707733e-01,8.994243937288818463e-03,-2.582218957545903693e-02,1.264363618156187294e-02,8.612423390150070190e-02
5.608634160926277978e-01,6.781561764537206161e-01,6.150677790198089134e-01,2.122462824956698399e-02,-5.113407170975125399e-02,1.690141363339816433e-02,1.427950710058212280e-01
6.131340518897533398e-01,6.781647922762653602e-01,5.693523489005156701e-01,1.387697524770145283e-02,-4.473315658015749458e-02,2.864767599516640506e-02,1.342979371547698975e-01
6.136397504299356820e-01,6.151237506040451164e-01,6.823803710621941798e-01,-1.422531359246240884e-02,-1.079339915342110174e-03,1.526383945511698530e-03,7.240875065326690674e-02
5.175416406832327176e-01,6.767456674732597044e-01,6.725473297405752948e-01,7.391605109415569363e-02,-8.098916461272653855e-02,3.304219527117959604e-02,2.530592679977416992e-01
6.194429085009517388e-01,6.759578099732848067e-01,5.924438178047320980e-01,2.082204418923480627e-02,-4.277026916552760516e-02,2.967739204483364757e-02,1.219817176461219788e-01
6.339403139798429621e-01,6.626069769102610474e-01,6.133825191652270137e-01,1.510561249788585324e-02,-2.436974651586742285e-02,1.348144326341679800e-02,6.960721313953399658e-02
8.210232401242676392e-01,3.563591606083537644e-01,9.968743074966097684e-01,-2.708051760937399410e-01,3.181379200825697195e-02,1.406943100018141247e-02,7.430911660194396973e-01
6.020623357503517292e-01,6.613527324576532473e-01,6.355786358289018390e-01,2.115229100601033474e-02,-2.690985300453285767e-02,2.182485806434686371e-02,8.715016394853591919e-02
6.176989289084078294e-01,6.547646864530882738e-01,6.239436948946576189e-01,3.700406574650717470e-03,-4.139361302223121784e-03,7.726025711091249332e-03,3.811767324805259705e-02
6.065842073078168140e-01,6.421357842122518145e-01,6.581103859824120050e-01,2.671915846542959397e-02,-2.154479869197384323e-02,2.127679954071816024e-02,8.354284614324569702e-02
5.950802253824826193e-01,6.279040564328642882e-01,6.807527917148752383e-01,5.915096325432394470e-03,-1.064206460485161987e-03,3.828367336306412894e-03,7.587768137454986572e-02
6.395631042265691457e-01,6.371603147506241793e-01,6.009382948724356632e-01,2.438940903059989146e-02,-2.324629906310406516e-02,2.805519666503253698e-02,8.468662947416305542e-02
6.276386275310177343e-01,5.957779426577292092e-01,6.874915347724570580e-01,-5.458028459610045520e-03,-4.574450955762822922e-03,-3.157165058472421754e-03,8.177088946104049683e-02
6.215970359817306612e-01,6.181458320939349216e-01,6.658687190414025459e-01,1.399250514517727702e-02,-7.134969500559083452e-03,6.180419114563124976e-03,5.458360537886619568e-02
6.269659804423590721e-01,6.386077280470506823e-01,6.347784163199418073e-01,1.277699648347459770e-02,-8.280461375296975166e-03,1.554029162148912006e-02,3.905853256583213806e-02
5.662916246000695430e-01,6.787429799604876024e-01,6.808048292138737523e-01,-7.941638783688803951e-03,-9.828539611328471204e-03,-8.153283473423207639e-03,1.164467856287956238e-01
6.256197841110761049e-01,5.949795572090403883e-01,6.805985908797421713e-01,-5.789101255377743747e-03,-8.256516753048266525e-04,-1.616846275283743192e-03,7.587149739265441895e-02
6.286534591339082434e-01,6.409128194604838402e-01,6.438330215515816191e-01,1.380250726602521086e-02,-1.081280925353801312e-02,1.224878752754086225e-02,3.958529978990554810e-02
6.993011423606028121e-01,5.683715832095213027e-01,6.467392896318778783e-01,-1.896760690280223328e-03,3.552973378835662995e-03,-1.152443554207710844e-02,1.160624772310256958e-01
7.150179849860209824e-01,6.960838751579229156e-01,4.233926313055738078e-01,-6.820931124387068049e-03,-1.794789094507391256e-02,-4.926081971737547582e-02,2.970993518829345703e-01
6.238466309096994955e-01,5.971041523578874965e-01,6.529199065407490510e-01,-3.092425578140515011e-02,-2.962828498492501780e-02,-3.083419662753444576e-02,1.034049540758132935e-01
5.657058558750441835e-01,6.765738392548984459e-01,6.772155002549626879e-01,-8.535360763051854857e-03,-1.090371607999375374e-02,-1.060939514137250808e-02,1.152222603559494019e-01
6.433306144358750256e-01,6.168770032877270992e-01,6.528493061825377808e-01,1.684580147897611277e-02,-1.339683273397032637e-02,1.130793533853206682e-02,5.306203290820121765e-02
5.929678148920098923e-01,6.296152827165992782e-01,6.587297868430503911e-01,-1.076811699921641913e-02,5.479064418721482470e-03,1.101237708632920968e-02,6.371340900659561157e-02
6.267687451393603171e-01,6.403163795365864885e-01,6.408473092305094765e-01,-7.354019586318996660e-04,-1.783015624096126765e-03,-4.945852426407126336e-03,1.659992150962352753e-02
6.708358693002457462e-01,5.647826754081560763e-01,6.845242873100294556e-01,-9.660116448580893800e-02,6.862952512983483411e-02,5.439281712963434795e-02,2.527597248554229736e-01
6.218779895681399994e-01,6.005068967452089623e-01,6.707995514917143298e-01,-3.651670082234197146e-02,2.829026680098994592e-02,2.636688137880102006e-02,1.112771928310394287e-01
6.719101972798823263e-01,5.890041364425877557e-01,6.706649857138741178e-01,-4.125537533729777689e-02,2.992912471614012429e-02,5.234039288651783778e-02,1.509422212839126587e-01
6.428725344133199293e-01,6.141107517085213630e-01,6.362738984244915574e-01,-3.416977231311809499e-02,2.385382286780375269e-02,3.355127146786129888e-02,9.626936912536621094e-02
7.130596034799983052e-01,6.512239522177202256e-01,5.778093403882027523e-01,-1.607307339092854323e-02,1.239900255066531988e-02,7.026677150919403980e-02,1.726310700178146362e-01
6.276192491836769527e-01,6.534981514199795782e-01,6.281993257510726236e-01,4.124721379035631470e-03,-3.174748287917475810e-06,-3.473820124461791427e-03,2.724490128457546234e-02
6.254069923443574819e-01,6.145690347926731079e-01,6.499117951238110313e-01,1.420614106931182390e-02,-8.760716026692906555e-03,1.216380616816466025e-02,4.757202044129371643e-02
6.048851351292019451e-01,6.354979260498073712e-01,6.345328980928873763e-01,2.105908684437494960e-02,-2.442877840509670787e-02,1.741383795628949696e-02,7.027807831764221191e-02
6.142654522278303553e-01,6.680195948010938523e-01,6.155112075289208562e-01,-1.841594468497871140e-03,-1.914547842070936368e-03,-4.236360520438837637e-03,5.384334921836853027e-02
6.855691582411204132e-01,6.476827792213568635e-01,5.650264874249060210e-01,-2.394238247293921346e-05,7.735099224526498576e-03,-8.125613364515765075e-03,1.085198670625686646e-01
6.577336154428256032e-01,5.772838635241480665e-01,6.560480789290317194e-01,1.094068144970300992e-02,-2.143496935371944426e-02,1.520866966682612662e-02,9.365245699882507324e-02
6.744522276538522654e-01,6.135105679834755854e-01,6.172640575403718355e-01,-4.411753161046698683e-04,1.838251072724964453e-03,-1.935763720751799239e-03,5.933964625000953674e-02
6.566107665841375285e-01,5.946052578349515505e-01,6.264039069131286386e-01,1.186663667072047033e-02,-1.807948596040047026e-02,1.300869304582801325e-02,6.924506276845932007e-02
6.011787982411569420e-01,6.576204127321008119e-01,6.352730083144272344e-01,4.009100970961496785e-02,-6.510535750721842263e-02,4.039430783754934667e-02,1.576604843139648438e-01
5.722641109038346663e-01,6.478847186826016680e-01,6.860001334533591955e-01,-8.753506918615254484e-03,-5.254266938350326752e-03,-9.111361466073379656e-03,1.030306592583656311e-01
5.973450705510990888e-01,6.807361124397912633e-01,6.111883552796941732e-01,1.227016571888108962e-03,-1.131533178733877716e-02,1.550229299154932787e-03,7.991953939199447632e-02
6.569823773489520402e-01,6.149114087527008943e-01,6.137496147985213035e-01,1.162510770223418831e-02,-1.164894545118744934e-02,1.881331149298608868e-02,6.078272312879562378e-02
5.913533812739822926e-01,6.292525380132204527e-01,6.362345752462420512e-01,4.873193486480525971e-02,-5.070891642257653598e-02,3.986497714622402877e-02,1.461367309093475342e-01
6.433338912228294681e-01,6.394837137937307014e-01,6.223953860303820251e-01,2.347128845764158075e-02,-3.454841293940127955e-02,3.189815494314264532e-02,9.305153042078018188e-02
6.291919264703912384e-01,6.275742365885130791e-01,6.400026337190650727e-01,-1.199206892169159266e-03,-1.436885725789260881e-03,-4.168563158972909619e-03,1.412854064255952835e-02
5.677339570559815085e-01,6.876922868045964865e-01,6.510158531419510952e-01,-2.302909009212133346e-03,-1.197150484480328549e-02,-6.145075437699835420e-03,1.090626642107963562e-01
6.077532970518432220e-01,5.992427158531467013e-01,6.782165165366795812e-01,-2.240311541911050447e-02,9.907322046793612044e-03,1.042575680425670247e-02,8.811033517122268677e-02
5.849515733611553303e-01,5.941246793963300687e-01,7.032806272024468841e-01,-6.759899176762203254e-02,1.515629194113491361e-02,3.402886544954943776e-02,1.757053434848785400e-01
6.362474790214128761e-01,6.424520612458730628e-01,6.184227231911368916e-01,9.828944500476100715e-03,-3.189266816419076070e-03,2.885018001648751058e-03,2.849776484072208405e-02
6.705927581048292119e-01,6.478042863705953947e-01,5.636184050857586669e-01,1.170379964929040874e-02,4.077335763037264089e-03,-8.998491659679018831e-03,1.011373996734619141e-01
6.319223433087963748e-01,5.993134515835323306e-01,6.970977446644925912e-01,-3.080135002427570462e-02,2.454732917236984550e-03,2.761026034304205502e-03,1.016050502657890320e-01
6.355381125213301896e-01,6.023957699080082495e-01,6.766762969244041193e-01,-4.403358431971746145e-02,1.780557136840046559e-02,3.739725009149141854e-02,1.229545772075653076e-01
6.150602697306654099e-01,6.313680668799337425e-01,6.719197281293451951e-01,-2.956287604847458034e-02,1.857819525013610501e-02,1.522659660947589186e-02,8.321403712034225464e-02
6.159991835214126965e-01,6.702366377678037335e-01,6.216009325781481909e-01,2.089955382370206789e-03,-1.244415912789989011e-03,4.503838785932769845e-03,5.242003127932548523e-02
6.000865744906545007e-01,6.719229220777671596e-01,6.262073277172777175e-01,3.834996139046408306e-03,6.351567622168028705e-03,-6.999638558056406508e-03,6.541000306606292725e-02
5.929883731904196376e-01,5.574440263479263358e-01,7.385442298519601101e-01,-1.164897496135992166e-01,6.605470040995815861e-02,3.377334339454538675e-02,2.912812530994415283e-01
6.331486493322376896e-01,5.710390812191832310e-01,6.773528023921678853e-01,-4.402809978082054126e-02,1.973976349863341626e-02,2.063331728507738702e-02,1.296869367361068726e-01
7.106182135140255429e-01,3.961415684123315017e-01,7.333634450901509449e-01,3.463019405068708256e-02,-8.735506868065699704e-03,1.533985335025271624e-02,3.333142101764678955e-01
5.848608300717625941e-01,6.519155147071139522e-01,6.571201487079685322e-01,7.675992178222188281e-03,-1.163536702582961858e-02,1.444475894247016640e-02,7.798252999782562256e-02
7.164642184330451968e-01,4.733129636642820492e-01,7.334747086110355863e-01,4.945142071262996833e-03,4.853807443051035009e-03,-2.990055348971583545e-03,2.524259686470031738e-01
6.712135987458893727e-01,6.142484697086078027e-01,6.051461443188195233e-01,5.472281259955189166e-03,3.369643002725208804e-03,-5.587148020031612768e-03,6.374906748533248901e-02
7.206879912121832987e-01,4.760502656036368907e-01,7.340749048562102974e-01,-7.476828396132235120e-04,4.092362796060187817e-03,-2.079755073374703854e-03,2.517273724079132080e-01
7.173123230147865348e-01,4.835822456001176439e-01,7.101753215987219869e-01,1.097097849669141298e-02,6.535398120995026053e-03,-2.090806561044904893e-02,2.341222316026687622e-01
7.124382295476683336e-01,4.961468443638842318e-01,7.180962853485641784e-01,2.204509139154861921e-02,5.501408211915011746e-03,-3.407379518357662226e-03,2.227585017681121826e-01
6.183436176005676632e-01,6.308010342694856387e-01,6.526053780225834489e-01,2.828517160108192773e-03,2.371547551629668918e-03,-7.126955603921298309e-03,3.309829533100128174e-02
7.186366566491589891e-01,4.794457796580789410e-01,7.093157402195008343e-01,1.813559580002724412e-04,5.895717477194536461e-03,-8.184081541614714184e-03,2.353189140558242798e-01
7.002105893932814018e-01,7.225059828232316406e-01,5.080802785739073624e-01,-1.770206489389579722e-03,-2.091112645555599087e-02,8.615856640015285423e-03,2.079391479492187500e-01
6.792117275160159950e-01,7.031032892003610257e-01,5.381347410791201824e-01,5.362330848147467410e-03,-1.056962580555571331e-02,1.673514218152976143e-02,1.584477275609970093e-01
6.245651624964490001e-01,6.859279003131359964e-01,6.436238184663284345e-01,4.529686652040810363e-02,5.798594240475423572e-02,-3.759301910484109249e-02,1.531057059764862061e-01
6.084985405176988049e-01,6.944067172010104372e-01,5.651509154786155120e-01,-7.901206246447306167e-03,5.831445670217673405e-02,9.431567323357176180e-03,1.537498831748962402e-01
6.045205776904987172e-01,7.987285713686340660e-01,5.944153134244447578e-01,2.018279154472354172e-03,1.753371573987091703e-01,-1.316016617191838670e-02,3.640639185905456543e-01
6.001391953148776937e-01,6.524939054229396129e-01,6.536742869049750881e-01,-5.995892293550723721e-03,-6.040791097115954383e-03,-1.155625931273429781e-02,5.849935486912727356e-02
6.193664592975955951e-01,7.191007678505549894e-01,5.639387755835397753e-01,6.103704066880166063e-03,5.570120399388961419e-02,3.839302423132397342e-03,1.673650592565536499e-01
6.223907802697254965e-01,6.282099751761566209e-01,6.546360633595860179e-01,-2.637674582476060015e-03,-2.083457909721191104e-03,-1.673513809189742293e-03,3.046762198209762573e-02
6.569464471407140405e-01,7.479349479023925662e-01,4.657817924504890073e-01,5.973549167415385247e-02,8.980370509155038983e-02,-6.544772149666362726e-02,3.316111266613006592e-01
6.182022720764720480e-01,6.292820992279076764e-01,6.524737519338602576e-01,2.716493996352915483e-03,2.772829955705833141e-03,-4.682290181864705997e-03,3.207101672887802124e-02
5.706310507124584541e-01,6.912759864852662250e-01,6.100826224708418843e-01,1.241007819955486369e-02,5.294562737791319584e-02,-9.916818420801028558e-03,1.432437598705291748e-01
5.768820665168769013e-01,6.894945231374663974e-01,6.754557777738130486e-01,4.540163799421799429e-02,3.523494170466104358e-02,-2.439773663575094120e-02,1.516307741403579712e-01
6.652347686033746044e-01,5.990365775801800297e-01,6.256055816816578075e-01,-2.735954772426097553e-02,-2.568216033376092070e-02,-3.263683933657793301e-02,1.036780476570129395e-01
6.209139941847716671e-01,6.443734101233146161e-01,6.378711154499211444e-01,-1.312132197771862484e-02,-1.495696683063143205e-02,-1.960957686576738149e-02,5.273832008242607117e-02
7.195566985134487226e-01,7.215390469445266408e-01,4.740655784092452363e-01,-7.888527983105792516e-04,-1.536930479018245145e-03,6.896070045642016012e-03,2.467956393957138062e-01
6.011399668740405877e-01,6.324239534036656396e-01,6.542230325719042838e-01,-2.455229401923751317e-02,-1.685184874777057029e-02,-1.777991764958214427e-02,7.579331099987030029e-02
5.232714389280899159e-01,6.695922731530097316e-01,7.306118300183740422e-01,-8.432354565824874693e-02,7.648295040901828632e-04,-1.507569039705099830e-04,2.353610247373580933e-01
6.826600361550698715e-01,6.478384769546431388e-01,5.193854431247539871e-01,-1.930759316572010567e-02,-2.758970189775374060e-02,-4.008612487443140998e-02,1.743796914815902710e-01
6.241394706542693349e-01,6.257761285452488886e-01,6.473395957752337004e-01,-6.737794943675060044e-03,-7.667923458642455711e-03,-7.739715116230347705e-03,3.154755383729934692e-02
6.568711713802712904e-01,6.565120924349725495e-01,5.970399898829273910e-01,-1.799967557876125043e-02,-3.481818425725354688e-02,-2.925243762728402599e-02,1.036070138216018677e-01
6.504856978457124184e-01,6.754857301823957716e-01,5.873037860210518213e-01,1.166807990676044758e-02,7.750758000882537052e-03,-5.619592979596564966e-03,8.294516056776046753e-02
6.625468631613828929e-01,6.258902074061705179e-01,6.157305892350486420e-01,-7.798932869994171062e-03,-5.229809273301419884e-03,-7.873539203223672844e-03,4.764290526509284973e-02
6.261695937621798436e-01,6.860469610426453979e-01,5.850268603261036260e-01,-3.116960026929418981e-02,-3.408494814310177035e-02,-3.249746797092618877e-02,1.315666437149047852e-01
6.056409046511247452e-01,6.579706915752407959e-01,6.467611846911186513e-01,-1.872366049507065422e-02,-2.318586748636025999e-02,-1.687339796749202578e-02,7.613200694322586060e-02
6.410727223564751664e-01,6.291043313288632310e-01,6.256825365890746893e-01,-4.668319493398720953e-03,-2.980417257784206270e-03,-4.474640517895264215e-03,1.865475624799728394e-02
6.460044822751704885e-01,4.952115031789557920e-01,7.693711508233743723e-01,-9.317087304793543467e-02,4.858475433999603736e-03,1.773084954064716237e-02,2.891661822795867920e-01
5.825951556926071140e-01,6.738159293474492717e-01,6.514805023939684858e-01,5.458052352122564309e-03,-8.827148761614994968e-03,1.047032911318210649e-02,8.622445166110992432e-02
5.928697874214695629e-01,5.960193159247861860e-01,6.835151448933050045e-01,-2.966832778831181641e-02,1.870744518360298835e-03,1.936192158294842286e-03,1.029727384448051453e-01
6.781890142486075579e-01,5.825211662437786986e-01,7.529904832142934046e-01,-1.474799036061936741e-01,3.577469181376275592e-02,4.320671204075841876e-02,3.107967376708984375e-01
6.510107120164946304e-01,5.617386481792648878e-01,6.505093294534323167e-01,-2.875501361641592812e-02,2.808587055438673680e-02,2.876454565621064732e-02,1.235078573226928711e-01
5.696706434034948252e-01,6.630322577797521655e-01,6.831104467587204576e-01,-5.271384743417810437e-02,-2.754900080467422019e-02,-1.087811667521538204e-02,1.481963247060775757e-01
6.600917008360186466e-01,5.954142677277693974e-01,6.665217897521819035e-01,-4.043648908685040094e-02,1.974080241764479549e-02,4.693136294861088159e-02,1.316149085760116577e-01
5.852088268330642995e-01,5.550427574288485655e-01,6.673743389222591693e-01,-1.117698443373845441e-01,4.163545868004158573e-02,5.140481691994990693e-02,2.464653551578521729e-01
6.539184151163526248e-01,6.420538350704013686e-01,6.697030500281451193e-01,-1.307486447880542579e-01,8.750711349571099751e-02,9.716956466182470609e-02,3.211869895458221436e-01
6.193341496546767022e-01,6.229394992720981294e-01,6.411309695759778160e-01,1.544179470001909651e-02,1.567604131613931084e-02,-1.587183109046446522e-02,5.116465315222740173e-02
5.253357709137509435e-01,7.055624940390932132e-01,6.814056853412462367e-01,-2.859274350090818071e-03,-1.375776602018860539e-02,-2.018852734378013929e-03,1.712194532155990601e-01
6.829728880118589585e-01,6.268892310252931477e-01,5.991248842925022133e-01,1.190185353562016497e-02,-2.422002434409152236e-03,3.066569345354219420e-02,9.347233176231384277e-02
6.163087482773026426e-01,6.450699856998560744e-01,6.216861788119013577e-01,1.196651975825913268e-02,1.325631215059082726e-02,-1.293327707458054136e-02,4.647639393806457520e-02
6.126483428652890195e-01,6.311413379458220563e-01,6.627835009937065314e-01,3.749869324162964992e-03,4.323778755815056718e-03,-8.663878525521950466e-03,4.745349287986755371e-02
5.766790981222035262e-01,6.538860656178007158e-01,6.675314569198784742e-01,3.872921469662060634e-02,3.831059317839344280e-02,-1.171662311243797799e-02,1.285123676061630249e-01
5.908568411412307153e-01,6.308526265110911968e-01,6.684580189254964999e-01,8.687900412773744141e-03,4.823998107218173924e-03,-1.056001897811001747e-02,7.175429910421371460e-02
5.357091563195947037e-01,7.092666664168252311e-01,5.794263071375148622e-01,4.037287806305945442e-02,1.489014682033666381e-01,-3.494772533846782214e-02,3.154597282409667969e-01
7.119199436628447231e-01,6.995012537352299775e-01,4.897441486717513115e-01,-9.319515162826303226e-03,-9.935573667862632879e-03,-1.941301687803183990e-02,2.201010584831237793e-01
6.191403804128712274e-01,6.373384260080096064e-01,6.552382876378063381e-01,1.087021791764122879e-03,2.938570146455616889e-03,-1.095699873234111388e-02,3.697207570075988770e-02
6.195795610728733749e-01,9.143396744650582608e-01,6.175703254245917817e-01,-1.062369283446262247e-01,3.323303467877977702e-01,1.068205706198237098e-01,6.977828741073608398e-01
4.610041719517470327e-01,7.680734506945023909e-01,7.260186946083423409e-01,-6.693607297758732977e-02,-2.047575708701360880e-03,-1.143002264666725942e-02,3.114357888698577881e-01
7.140507840163374809e-01,6.945297647866934820e-01,5.102374764344225211e-01,7.431881450723066933e-04,-3.417345805412516646e-03,-1.905768906852760292e-02,1.976577043533325195e-01
7.079033527960384431e-01,7.033921276398024114e-01,5.087222031447080628e-01,3.991895071695708151e-04,-1.403098412801321616e-02,-7.562160311662085091e-03,1.988908499479293823e-01
6.998581530160872255e-01,7.126609766263486412e-01,4.922537586550052024e-01,-9.156997658539484716e-04,-4.911841179344452607e-03,-1.745595717153569778e-03,2.144888192415237427e-01
7.228387951457423410e-01,7.269359491402825890e-01,4.847477186367546986e-01,-2.060323896124638279e-04,-8.683466850333249054e-03,-1.401959427555323975e-02,2.418586909770965576e-01
7.165292773889754274e-01,7.059876291180191554e-01,4.703457535803109435e-01,1.253569214774700145e-03,-5.707819708427138393e-03,-3.223043363791345227e-03,2.413625717163085938e-01
6.455664071300508677e-01,6.263819004074380192e-01,6.301510701300455652e-01,8.493373665294561004e-03,-1.041814386139820747e-02,7.168714758975917346e-03,3.171969577670097351e-02
6.518038067168763217e-01,6.764283190529225553e-01,5.825818110234922687e-01,1.194872669550255638e-02,-7.666780506624643922e-03,4.358043826458904597e-03,8.811493217945098877e-02
6.316523279671626412e-01,6.111979437821706274e-01,6.607899910360713891e-01,-4.676821753347129747e-03,-9.524924831477614776e-03,-4.060431771737358676e-03,4.744080454111099243e-02
2.039478614655369504e-01,9.076931956520513101e-01,8.383132367071176594e-01,-1.204725875882180358e-01,-2.226063420235933638e-03,1.169532925521196004e-02,7.037125825881958008e-01
7.080391565145842669e-01,6.968719918441709238e-01,5.024627346049514998e-01,-3.432653593363859702e-03,1.326579297912615189e-02,4.707359899684490645e-02,2.174896001815795898e-01
7.593269187375003559e-01,4.318672138047031650e-01,7.981901454640173421e-01,-5.976309556419834995e-02,-1.667142323878727586e-02,-6.721063962965351767e-03,3.648980259895324707e-01
6.773219907872953804e-01,5.595035181411071035e-01,6.810276830294398343e-01,5.902454972660470950e-03,1.107908651394488159e-02,-8.005997654906053806e-03,1.224604696035385132e-01
6.565530453211894102e-01,6.589775723025925735e-01,5.937563567173640422e-01,-1.656065769760747819e-02,2.867874136692421735e-02,2.978438713990968004e-02,1.002649515867233276e-01
6.797599874911059992e-01,6.647247190334802935e-01,5.706396127012642872e-01,-1.351817817331155656e-02,2.403737984929065971e-02,3.589284528016795789e-02,1.289928704500198364e-01
7.155319061974494410e-01,6.244273140791071208e-01,4.989919008546728763e-01,8.683010561185113690e-03,-1.681268451645914069e-02,1.276117762957836854e-01,2.922162115573883057e-01
6.865646600417506518e-01,5.259967278103622190e-01,6.666809995377942499e-01,-4.228201239424668467e-02,2.337556570158871860e-02,6.540184668170277715e-02,2.069287449121475220e-01
7.186966638549060482e-01,5.109132322439541296e-01,5.745939829538626586e-01,1.899332756031476416e-02,-1.384940038721674607e-02,1.524292961803117019e-01,3.245906829833984375e-01
6.287154266250690737e-01,6.395590738161209821e-01,6.305149215192640266e-01,-3.814872307182424430e-03,-1.936887648210962104e-03,-1.818837748674256719e-03,1.288986578583717346e-02
6.875387745324872402e-01,6.257951047428045310e-01,5.969527896485877783e-01,-2.475835392546460196e-03,3.005866148842005069e-04,-7.236745286753319163e-03,8.124507218599319458e-02
6.610755856220710269e-01,6.251172902023880429e-01,6.238902699094077686e-01,-7.571093389959105031e-03,-7.393742909584253425e-03,-8.414856553230444167e-03,4.343986883759498596e-02
6.574884191026422187e-01,5.991348108674904305e-01,5.723500795781597539e-01,-6.039600318677735419e-02,7.553863612723400733e-02,8.600655731514642022e-02,2.365126311779022217e-01
6.573049774772969922e-01,6.890759632291819647e-01,5.305449952178297179e-01,1.182254711917162665e-02,5.354994030093297025e-02,-1.692932333124923944e-02,1.760303676128387451e-01
7.223411189525293929e-01,7.096881623632734781e-01,5.294403852779377972e-01,-1.245076041423142862e-02,3.586557452846025895e-02,4.176671496930951105e-02,2.109205573797225952e-01
6.774944400885030138e-01,6.126127178289008102e-01,6.158293992811023632e-01,3.328015199072933516e-05,-3.002004677474824027e-03,-1.917160731703119320e-03,6.363447755575180054e-02
5.931933662409905050e-01,7.055874302455565905e-01,4.990581393073407201e-01,-3.317299488560172122e-02,-1.337678693931577956e-01,-3.607535334950253553e-02,3.048955202102661133e-01
6.396825398776764260e-01,6.582780803679437742e-01,6.016778136068560157e-01,-1.565974986681498843e-02,-9.120892381177865549e-03,-5.336585935651767462e-03,5.972909182310104370e-02
6.315021255304701375e-01,6.949535409480304127e-01,6.104142646996861821e-01,-3.123480241187377715e-02,-7.685137299445363168e-02,-3.191336012288815277e-02,1.717831790447235107e-01
5.024409751289058423e-01,7.097650095805113635e-01,7.165237939773220210e-01,-9.830084672474607987e-02,-1.115009665273737210e-01,-5.237583667317337321e-02,3.448861241340637207e-01
6.686823886894676106e-01,6.779118288460994624e-01,5.275318675755091835e-01,-3.655712974414813271e-02,-1.036021833637815748e-01,-6.686802634201131912e-02,2.663360536098480225e-01
6.813737270703291715e-01,6.255738139651412233e-01,6.035714989760394555e-01,4.509138152283165453e-03,1.505323449444736237e-03,-4.651978327112820527e-03,7.041432708501815796e-02
6.162897662557985656e-01,6.590112786313070403e-01,6.213408306811962767e-01,-9.471485231651059419e-03,-1.766771494367691542e-02,-1.047386863400336272e-02,5.629857257008552551e-02
6.303478799930002374e-01,6.412245640909023381e-01,6.330725753091386299e-01,-1.495614779617979910e-03,-1.225515686283321993e-03,-1.147106040298920618e-03,1.054771896451711655e-02
6.192459099083662544e-01,6.666072060658294607e-01,6.215772867691612413e-01,-1.597778571679762949e-02,-1.805854446297764163e-02,-1.209291711076416857e-02,6.573452800512313843e-02
5.965624748047110293e-01,5.945009130883377457e-01,6.823045381953731781e-01,-2.972096944113911468e-02,-8.596512137524597559e-04,-3.463583960698868010e-04,1.009222418069839478e-01
5.970073868218107593e-01,6.800194488620281419e-01,6.270059309175634032e-01,-1.383248864429130823e-03,-7.408249895781877925e-03,-3.294730849896581985e-03,7.418642938137054443e-02
5.616145649067323387e-01,6.424926423753630766e-01,7.520385277249994616e-01,-1.557502325406104615e-01,-3.398890766817729003e-02,-2.533639386650873501e-02,3.249113261699676514e-01
6.027852594155771460e-01,6.736727459668093720e-01,6.308655763849507769e-01,2.634673476982485763e-03,-5.484286897009283367e-03,9.224496148619878988e-03,6.472501158714294434e-02
6.275043662135511013e-01,6.074246067715395325e-01,6.796564257684976074e-01,-2.899795122029500544e-02,-2.135053988004300893e-02,-2.002343570438519862e-02,9.624566882848739624e-02
6.482255698290740886e-01,5.057920404074444098e-01,7.167203482351209853e-01,-8.780992537531434605e-02,-2.102570652755320069e-03,-3.164617616106478459e-02,2.467473447322845459e-01
6.113684648937787181e-01,6.821595434365004262e-01,6.161806386694016480e-01,1.712499280804007790e-03,-3.505335259178530248e-03,2.030793507844744043e-03,6.893408298492431641e-02
6.184840304099008534e-01,6.156546777142981597e-01,6.640563825871578230e-01,-5.356924029792358571e-03,-7.505054486054963357e-03,-3.837587763237380791e-03,5.013016611337661743e-02
6.631779711371098562e-01,5.709690320169883426e-01,6.933205109930675736e-01,-3.738184648340379251e-02,-2.315587912906162671e-02,-3.838766792660974758e-02,1.497067213058471680e-01
6.503273083799401277e-01,4.966168876388789566e-01,7.700887806264121727e-01,-8.839259466170254487e-02,-1.138312081602334096e-02,-6.796916605244972265e-02,3.067021071910858154e-01
6.525706889864044680e-01,6.147651360118304709e-01,6.329898965404768818e-01,2.519108760368867633e-03,-1.072269119959183906e-02,3.292343537442771369e-03,3.832609206438064575e-02
6.531990961722077271e-01,4.884951863204261557e-01,7.108429566024782043e-01,-8.612932882817146696e-02,1.518987454067588613e-04,-5.156601297046826612e-03,2.495575845241546631e-01
6.827467861996171505e-01,5.361928862041280830e-01,7.163448131117271522e-01,-6.360927423377157885e-02,-6.674510078270169677e-02,-1.186400951018476840e-01,3.086427748203277588e-01
7.402734227301276393e-01,5.352380059626413722e-01,6.567828554364310012e-01,-5.205112467226372108e-02,1.782165415837093977e-03,-1.366421974788283311e-01,3.099071383476257324e-01
7.261714993193251200e-01,4.789544451992668872e-01,6.321598642314117944e-01,-2.336824951822633750e-02,-1.254817971324207089e-02,-1.063240923836861612e-01,2.876425087451934814e-01
6.311344311924215189e-01,6.308858239894394870e-01,6.285146364591923662e-01,-3.875314070202964811e-02,-4.440900201175591172e-02,-3.835188712491246349e-02,1.218227073550224304e-01
6.956242069184116472e-01,5.622353291146512388e-01,6.584188690689820600e-01,-4.753174733149915371e-02,-2.849631677943901750e-02,-3.599986886053951202e-02,1.652753651142120361e-01
6.801210727282142043e-01,5.634175521029874956e-01,5.888490877300055493e-01,-7.353531406784297175e-02,-5.976101134881490334e-02,-1.138939980177475775e-01,2.777598202228546143e-01
7.175930943188739697e-01,5.779035071189108086e-01,6.201601378938462750e-01,-1.063099908915037251e-01,-9.310060488437267578e-02,-9.312516359801634169e-02,3.183103799819946289e-01
6.297872687630450272e-01,6.275602957463075615e-01,6.420288020610803725e-01,-2.716348986303585835e-04,-8.871701220388776522e-04,2.034548938511392038e-03,1.403840631246566772e-02
5.716325899341151429e-01,6.715035902020941583e-01,6.576764530170553513e-01,-1.609982849382891879e-02,-1.819628816467873042e-02,-1.344329679534780018e-02,1.053450107574462891e-01
6.589151905145140820e-01,6.084777187991369241e-01,6.326490873221405353e-01,-2.359025264508918598e-02,-2.266094239595718013e-02,-2.385801239910966334e-02,8.262396603822708130e-02
6.346857470783311417e-01,6.860942912928361670e-01,6.334231930771492269e-01,-1.002556202852674383e-01,-7.110578792503115253e-02,-1.273093196499250346e-01,3.108922541141510010e-01
6.162410856478012233e-01,6.691997058327213699e-01,6.141809998056868558e-01,1.770539807633116861e-03,-4.741315874705026687e-04,1.894943355132072248e-03,5.421079322695732117e-02
6.035931618379241081e-01,6.137210933306407323e-01,6.404033388103668178e-01,-1.080140161948339728e-01,-1.501619925452413462e-01,-1.123152194872926168e-01,3.762656450271606445e-01
6.230018545926341300e-01,6.409349319802241096e-01,6.353523494196967603e-01,2.524622697887643312e-03,-2.078352052939728880e-03,6.649322535657396956e-03,2.042958326637744904e-02
6.924628676340187639e-01,6.974465826495774845e-01,5.388029013304124204e-01,-1.928611438749323545e-02,-3.205217000552215700e-02,-6.330095203645949575e-02,2.015463709831237793e-01
3.699953890225332054e-01,7.985105288156402192e-01,7.436191621326250223e-01,-1.203485974796722063e-01,-4.481453581518429069e-02,-1.702591005974391294e-02,4.620200693607330322e-01
7.660423457471888797e-01,4.768483990128411509e-01,7.352766790098722582e-01,1.105323587327973339e-01,-1.343112408119920276e-01,3.414447096934400405e-01,7.184752225875854492e-01
7.178959072361523752e-01,6.570784918504979366e-01,5.531234015830113204e-01,-1.562285731098237394e-02,-1.606648971984350055e-02,-4.766390718192514697e-02,1.707333028316497803e-01
5.973857301372165196e-01,6.806532573703828470e-01,5.725220224842968442e-01,-5.651202937574905522e-02,-1.189443864228376946e-01,-8.023249601576933066e-02,2.845310568809509277e-01
6.771566448540194960e-01,5.988298809847920623e-01,6.282397416095309994e-01,3.307717842468748358e-03,-7.252542161431408015e-03,5.271573904205246151e-03,7.050129026174545288e-02
7.109573183891544357e-01,4.812211940323769532e-01,7.070501837286784497e-01,1.444367696885151368e-02,4.252324677612649402e-04,1.566665312644001384e-02,2.307792752981185913e-01
6.069163100086097939e-01,7.126712212415904357e-01,6.413994337465968032e-01,-4.222345802913004403e-02,-7.514679118445556638e-02,-3.600706656570554914e-02,1.868302375078201294e-01
4.263092666523276009e-01,7.428603782293157209e-01,7.774790054203774003e-01,2.388733691846819940e-02,-2.989668988793667617e-02,2.240366663019056209e-02,3.438904583454132080e-01
6.688180665035180494e-01,5.265592135808094820e-01,7.218169940802675599e-01,6.885880012061873501e-02,6.802957512952134862e-03,8.232191500386258284e-03,2.124918401241302490e-01
4.453013656633485473e-01,6.745037622003754452e-01,7.323514468369350938e-01,1.040889773791952022e-01,4.245769314523512722e-02,-3.420383534687306687e-02,3.325058519840240479e-01
4.374301184561137923e-01,7.750886537939852827e-01,7.394006364952552257e-01,1.054968261592064971e-01,4.674217106354876944e-02,-1.404000592532795438e-02,3.791716694831848145e-01
5.699015700831439046e-01,6.580705093098263569e-01,6.528054840269429393e-01,-3.631023673654366901e-02,-3.144675088776493349e-02,-2.036073260411273844e-02,1.245108172297477722e-01
4.067227479394074363e-01,7.281845569561132825e-01,7.207832233408364431e-01,5.632122773168272284e-02,1.526655619156534922e-02,-1.349037116960354402e-02,3.343271613121032715e-01
4.802050149594850881e-01,6.962389118069298721e-01,7.048608372091650365e-01,4.594312924226180705e-02,7.839062352510512907e-03,-1.263970924031727894e-02,2.358040809631347656e-01
7.764117767884213261e-01,4.329903498433987918e-01,7.164264767907453368e-01,8.298509608754772726e-02,-1.351576377076059259e-02,4.459022519905443682e-02,3.579228222370147705e-01
5.949768913694192252e-01,6.699579605308121355e-01,6.576010641526411904e-01,-2.442275250880487220e-02,-3.025585609318820479e-02,-1.603156614775300484e-02,1.007721051573753357e-01
6.675871043326351284e-01,6.018753511830216008e-01,6.421768405805082791e-01,4.735899076367000582e-02,-3.142482081627843982e-02,5.237055219289834390e-02,1.456474065780639648e-01
6.373554167424645422e-01,5.452812761675686071e-01,6.888049617397904445e-01,1.020617559836026894e-01,-4.139116719293543106e-02,4.660549699659725237e-02,2.424202710390090942e-01
6.583789470771680419e-01,4.293287903633462577e-01,6.900947411955865585e-01,1.164178430178674922e-01,-2.594095580185103167e-02,5.222407479393453844e-02,3.340577483177185059e-01
5.850068477844756476e-01,5.534386312101139405e-01,6.868452890366043562e-01,1.080236953418971524e-01,-3.862673064192065353e-02,4.327836201901737873e-02,2.443050444126129150e-01
5.958157642148126376e-01,6.838074250863316328e-01,6.425393362073023029e-01,5.110383516740753251e-02,-5.026230489865484569e-02,5.110911913038321264e-02,1.704830527305603027e-01
6.702359943441775769e-01,6.053452199439820491e-01,6.336017867689772709e-01,2.811578488992541678e-03,-7.874721406984863670e-03,5.388571924122749664e-03,5.892804265022277832e-02
6.099163864989067818e-01,6.304078762360976196e-01,6.606293198339550088e-01,3.487492690767122778e-03,4.080875314065748535e-03,-1.067956509689393062e-02,4.879679158329963684e-02
6.957584111071881683e-01,6.682803003005948206e-01,5.495808554892420705e-01,-5.879135595136747786e-03,5.878118111688829944e-03,1.437809921084427268e-02,1.376000791788101196e-01
6.538172410567153481e-01,6.333637205359408107e-01,5.678797967979163364e-01,3.110210465904203123e-02,-3.705472411127091331e-02,3.736429920203644672e-02,1.313595026731491089e-01
5.522063245304489332e-01,7.014215978693927322e-01,7.027512481620828977e-01,3.088810505404208928e-02,-3.044217872021015570e-02,5.544854324887639463e-03,1.679285913705825806e-01
6.231655360366763485e-01,6.675793307492966511e-01,6.245538733487787653e-01,8.796292155856961711e-03,-5.755186570217242156e-03,9.050305889530261758e-03,4.990056157112121582e-02
6.269436125608790489e-01,5.966009583358673485e-01,6.824734811866197681e-01,9.039980772523220284e-03,-3.368427915555666664e-03,1.492381080700996322e-03,7.729845494031906128e-02
6.115790005107557548e-01,6.121224087061524211e-01,6.802790786126345912e-01,1.809323435060410795e-02,-4.596439986287999095e-03,1.869525005170980967e-03,7.575371861457824707e-02
6.537301498468460759e-01,6.531767760074119744e-01,5.992821106005404852e-01,-1.069213730349882589e-02,-5.583465633067247191e-03,-6.122554427085649502e-03,5.902298539876937866e-02
5.724189223369805513e-01,6.583053678043710999e-01,6.864087385741812763e-01,8.192449281835743891e-02,-1.028968877575823088e-01,8.126290653322451596e-02,2.868608236312866211e-01
5.292193106849704121e-01,6.199292540166482235e-01,6.647530476436547264e-01,1.166098540400153233e-01,-8.045215454125460852e-02,5.995626724392084939e-02,2.920597791671752930e-01
5.725139313803215835e-01,6.690146526945262018e-01,6.814431377529966971e-01,4.785223934472090240e-02,-1.930607686231619602e-02,2.779842032952923453e-02,1.448176652193069458e-01
6.103667365939948741e-01,6.774241311040075653e-01,6.159416370531067830e-01,3.138176270391269821e-04,-1.884277510427704617e-03,-1.414991310040648962e-03,6.458242237567901611e-02
6.679847970287403625e-01,6.062193504673814015e-01,7.199239001528439097e-01,1.377363762101080913e-01,-9.689103590702406732e-02,9.527684498437152816e-02,3.493297398090362549e-01
6.350391491134707023e-01,6.792305998426551028e-01,6.145551008041463259e-01,1.530526805373853654e-02,-2.391523542617545600e-02,1.363919107975893399e-02,7.908446341753005981e-02
6.186131148973798011e-01,6.425266545023551323e-01,6.590509676231690595e-01,-1.476655531739034730e-02,1.651445832413357684e-02,1.376933003794155418e-02,5.728162080049514771e-02
6.068473983073648936e-01,7.001107492999519843e-01,5.748038267505484189e-01,1.993325562697694994e-02,-4.777478181960689158e-02,8.804985288172343175e-03,1.448627263307571411e-01
5.241652592095580321e-01,6.974095535442017546e-01,6.785371965203036426e-01,-4.286529210295247222e-03,-1.419543401314588178e-02,-6.784395233125173168e-03,1.670268326997756958e-01
5.817265460999021531e-01,6.715051432353207339e-01,6.224373096252528992e-01,3.141507913357174941e-02,-3.947907761778091801e-02,2.739573483473589990e-02,1.262960880994796753e-01
6.381936721822900616e-01,6.067739368213521667e-01,6.917485953757049888e-01,6.352575111320200862e-02,-3.423916288017231357e-02,3.684313071181866822e-02,1.588514596223831177e-01
6.586577941279548876e-01,6.070833031308867644e-01,6.718719507007802072e-01,5.979489948953260053e-02,-4.698774767145528358e-02,4.252446944811025253e-02,1.621446311473846436e-01
5.651547029757519880e-01,6.902850710401108314e-01,6.713219202353362114e-01,2.861115061066515572e-02,-4.195390162142777907e-02,2.643219886159004633e-02,1.532204598188400269e-01
6.914534460591083009e-01,4.767095682030584314e-01,7.968391536305087230e-01,1.581591815515377697e-01,-5.381368140496271173e-04,1.114006280699932940e-02,3.940408229827880859e-01
6.219590735529810788e-01,6.554284476885205990e-01,6.280850380504364727e-01,2.248704347786443115e-03,2.439295987475627217e-04,4.807921669181392313e-03,3.220855444669723511e-02
6.652839959544032400e-01,5.327601051967629786e-01,6.774881068276130680e-01,7.026481504531338629e-02,5.411011688318788371e-02,-5.052801760848043416e-02,2.249071896076202393e-01
6.279662123823286368e-01,5.043067119847752799e-01,7.976824913541749051e-01,1.174559327621169658e-01,1.010402879358460702e-02,-1.317134064724195287e-02,3.275617957115173340e-01
5.713572795344549204e-01,6.519490035615427281e-01,6.692540903060750779e-01,1.140456708121072721e-01,8.274656616882077043e-02,-1.017222189200679000e-01,3.143112957477569580e-01
7.150882845711654667e-01,6.201638083315719197e-01,5.573754460372483122e-01,-2.167855338790041376e-03,5.233766297542800667e-04,-4.515203321705703321e-02,1.582536697387695312e-01
6.501578838665883486e-01,6.517179964529867808e-01,6.118068235812840205e-01,6.130913744235862162e-02,1.146100949794236629e-01,-1.321158955826137738e-01,3.233879208564758301e-01
6.530384638754349602e-01,5.715902451025339781e-01,6.677989660577061670e-01,4.929424224810727284e-02,2.229399518832984178e-02,-4.694866235901613144e-02,1.531250029802322388e-01
6.066894179293658151e-01,6.238427028249111661e-01,6.588183097330415627e-01,1.484503545925715783e-02,1.119290645321595508e-02,-9.221547337422950769e-03,5.839138850569725037e-02
7.687046558257072393e-01,3.654958740091976410e-01,7.909729798162175030e-01,2.283290461308442043e-01,1.535365604848687726e-01,-1.279986561295241576e-01,6.695713996887207031e-01
6.392431867691298342e-01,4.951510294415084612e-01,6.069114975518560273e-01,1.742530225062941807e-01,1.642673016994904422e-01,-2.433681688971931767e-01,6.057036519050598145e-01
7.292590572117215730e-01,4.216170344159804184e-01,6.590714663366414872e-01,1.731251245399146599e-01,9.064384737318756380e-02,-1.952458432684682221e-01,5.539909005165100098e-01
7.505252889462951105e-01,5.022898236663249083e-01,7.554816900834130378e-01,2.717969878844970211e-01,3.850612955430673945e-02,-1.539987522439284218e-01,6.000763177871704102e-01
7.006653347770893658e-01,5.271830536694050995e-01,7.164083750264526040e-01,1.988587813522374459e-01,2.275103079404308948e-01,-1.888678900158443086e-01,6.434326767921447754e-01
6.834065077731314997e-01,7.016399746253313419e-01,4.337779990323952228e-01,3.629756034023825378e-02,1.208877647294267915e-01,-4.706113182602415790e-02,3.487646579742431641e-01
6.189563294998684517e-01,6.467256728595898174e-01,6.354845348254176685e-01,5.308413666945088240e-03,-3.252797191032693550e-03,9.027151802096627584e-03,3.075855784118175507e-02
6.338900749771333443e-01,6.322418194476978615e-01,6.346512350753704679e-01,2.326190832816348063e-04,-4.831517249708218963e-04,9.779132734452997827e-04,2.877895487472414970e-03
6.938728562112957965e-01,7.108187654845816716e-01,5.229220125532424435e-01,2.046619937955112406e-02,3.471875990454562771e-02,-7.066702012011327749e-02,2.286099940538406372e-01
5.566812289791880364e-01,7.024001107240908093e-01,6.571930379351385021e-01,-3.824747586554837209e-02,5.070459669849263634e-02,2.165611088380215224e-02,1.737774014472961426e-01
7.050498241812184208e-01,7.288071825241227986e-01,5.143300695732673233e-01,1.295495194002097700e-02,5.210335530260264830e-02,-2.596306362865616682e-02,2.283406406641006470e-01
6.341201897625345918e-01,6.339968150738197750e-01,6.318751702246300228e-01,4.426342812217676248e-04,-1.745877248324150097e-04,4.691363651467564616e-04,2.473426749929785728e-03
6.216210511994118004e-01,6.267431634092788251e-01,6.474945067567140500e-01,5.274063501154032177e-03,-3.433106535294208703e-03,7.705182371368343719e-03,2.932678721845149994e-02
6.964150481443287521e-01,7.196311876826932963e-01,4.926494873658044393e-01,5.378134263886744613e-03,3.728336761132543253e-02,-3.748161421253948938e-02,2.350778132677078247e-01
6.644346670641581021e-01,7.144194012929936388e-01,5.314233048665514270e-01,9.792539453920415856e-04,5.186038678807403102e-02,-1.410469584093547099e-02,1.884336471557617188e-01
6.527841112600583084e-01,6.944343642306178843e-01,5.750056924861594032e-01,-2.227788902059543025e-03,4.703813994953297967e-02,5.820768563285593118e-03,1.333342045545578003e-01
7.258844645659224826e-01,8.017189457825655285e-01,4.953036074732557470e-01,-2.323681377775970792e-04,1.394103511995884448e-01,-2.136356933408426265e-02,3.688895404338836670e-01
6.155955194831208566e-01,6.156484076002969319e-01,6.674234578494808723e-01,-1.158733522314331224e-03,-2.688898616490236794e-03,-7.361802188720594897e-04,5.206478014588356018e-02
5.859868683735358630e-01,6.364112947670846898e-01,6.624601344923877200e-01,-4.172055898196260632e-02,2.973191210523489988e-02,3.543894763712390761e-02,1.271856725215911865e-01
6.448543290078105894e-01,6.437288443556568041e-01,6.658904379617038849e-01,-3.078656363971638346e-02,3.713983622749885555e-02,3.744708503084677453e-02,1.079622730612754822e-01
6.407019187005816852e-01,6.447249957789539243e-01,7.188874169282858384e-01,-1.255280038213752725e-01,1.054755631381695397e-01,1.244400503971983263e-01,3.645788133144378662e-01
6.141110602444997957e-01,6.203787323050518054e-01,6.690999304891399602e-01,2.767178742069336447e-03,1.426345343829877634e-03,-1.860891933935402906e-03,5.251543968915939331e-02
6.872751045352134547e-01,6.321034508177785227e-01,5.991736974420277528e-01,-3.052301116409007753e-02,3.380626723713828913e-02,6.224723336505884330e-02,1.542490720748901367e-01
6.136704768084444428e-01,6.145601086474090646e-01,6.701323657789355348e-01,2.471623288764697099e-03,1.505577337850916861e-03,-3.878074667489973901e-03,5.664584413170814514e-02
7.801508152490036485e-01,5.632727899694662810e-01,7.991485796448596357e-01,2.516217855629378497e-01,-1.566869200312134003e-01,2.555750276951720967e-01,7.148887515068054199e-01
6.149453639698660989e-01,6.101658977186499300e-01,6.811048793178843264e-01,2.608939934533531946e-03,1.949635939468007638e-03,-8.593149369414711507e-04,6.892147660255432129e-02
6.372283500742262907e-01,6.407038345058272411e-01,6.264816895719541590e-01,7.760471432135336751e-03,8.858321642359714195e-04,-1.616136304351763415e-03,1.886224001646041870e-02
5.907089960903203485e-01,6.770368331769636150e-01,6.508202360606135661e-01,-1.558880185477414144e-02,3.425017343396467850e-02,2.136501643169635284e-02,1.072111502289772034e-01
6.161120829090914741e-01,6.160057145660957634e-01,6.711211572285330496e-01,2.192962256860028744e-08,-6.352284569130547520e-04,2.539413665672756522e-04,5.507508292794227600e-02
4.857748281436466975e-01,6.764169929380194901e-01,6.726657994487549308e-01,-7.373958242496585214e-02,6.728139122447206188e-02,3.213090812008638497e-02,2.619799375534057617e-01
6.334620400716886035e-01,6.305924250955518007e-01,6.354482069347049400e-01,1.256537826554543404e-03,2.074818431987300940e-03,-1.118907170686650075e-03,6.267872173339128494e-03
5.572552113902039528e-01,7.025739810961736387e-01,5.916993617181351972e-01,-4.324124029797018348e-02,1.010217824893239330e-01,2.486264283299942715e-02,2.353266477584838867e-01
6.451481630025718284e-01,6.306357077023753144e-01,6.243434119307204044e-01,5.201017170918241853e-03,1.487281952821070110e-03,-1.340746246002581668e-03,2.084949798882007599e-02
6.238157510787658566e-01,6.692784475822061152e-01,5.986517472643632098e-01,6.306291530077947141e-03,6.234746672173357117e-03,-3.490407127849264653e-03,6.416058540344238281e-02
6.184826457079176665e-01,6.209339600364633949e-01,6.592867542321770857e-01,-1.131741156087263077e-02,1.102177400900736931e-02,1.322304009430909193e-02,5.333101004362106323e-02
6.309468050686795060e-01,6.198274850909438749e-01,6.377155603148497720e-01,-1.324257229694069012e-02,1.473114228675330602e-02,1.229144145792560559e-02,4.330213367938995361e-02
6.130550573405096904e-01,6.097345558544360333e-01,6.780651383219429285e-01,2.208989232909746789e-03,-1.185604224743358188e-04,-1.592560085511655291e-03,6.689912080764770508e-02
6.219033489820313676e-01,6.132943072725952627e-01,6.677230827015570025e-01,-3.471147867333302783e-03,-2.062435706300358960e-03,-1.464222351555314423e-03,5.121881514787673950e-02
6.271996369935260995e-01,6.423712503964517095e-01,6.430095128354396117e-01,-1.111934574783487659e-02,1.374825054787747608e-02,1.265540523292208244e-02,4.072725400328636169e-02
6.215668212483669297e-01,6.145768826497052251e-01,6.622986966270437703e-01,-2.128727705823630408e-03,-4.046091589153311997e-03,-9.182810221493220484e-04,4.536402598023414612e-02
6.404676171022167797e-01,6.222820418276826526e-01,6.295302249008307705e-01,3.415445604690623554e-03,5.264391787067788757e-03,-4.143643919903372032e-03,2.052036859095096588e-02
6.225106096457428961e-01,6.370251403790887501e-01,6.489127835965422531e-01,-1.580397534910680385e-02,1.091741578050820297e-02,9.777855872741474802e-03,4.379745945334434509e-02
5.913928330506383890e-01,6.671030379904491214e-01,5.719858578394406701e-01,-6.152870319700692175e-02,9.792406662944298790e-02,7.392105147153828215e-02,2.531711757183074951e-01
6.614961689793402710e-01,5.504411836152827142e-01,6.522508278612884070e-01,-5.154424130515022906e-02,2.927147742652358789e-02,4.091871407041627884e-02,1.641823798418045044e-01
6.742103550845492954e-01,5.961260877393620428e-01,6.348496744436147310e-01,7.929206084781252606e-03,9.808186022706182408e-03,-1.042729589000726369e-02,7.332373410463333130e-02
6.446329592487782811e-01,6.590838965815143391e-01,5.986299390662737085e-01,-1.381040294900963070e-02,2.448570038102982835e-02,2.012201075087081958e-02,8.108890801668167114e-02
6.696546554007215546e-01,6.044688555931443386e-01,6.334977090973490377e-01,-3.531924934423228985e-03,-7.007047370952006714e-03,-5.235352267262683747e-03,5.887733027338981628e-02
6.309082911100839519e-01,6.079247278155798240e-01,6.458131132245360506e-01,-2.750819525199341489e-02,2.026887213643316712e-02,4.422887187387060381e-02,1.022943183779716492e-01
6.288005815854967873e-01,6.306073847949335009e-01,6.424575878809923868e-01,-2.908307566729182586e-02,3.286789585938999086e-02,1.695675762101165468e-02,8.249890804290771484e-02
6.905376279448758314e-01,5.864246029140699479e-01,6.324410435407428199e-01,-4.698813362898905839e-03,1.198583159915135067e-02,1.982543346085023986e-02,9.920929372310638428e-02
6.694397844042720980e-01,6.160908801479157981e-01,6.223381057540466887e-01,1.944964410523993686e-03,4.839635963424639663e-03,-1.921714860504181513e-03,5.142513662576675415e-02
6.883027079235619627e-01,5.408660713447556168e-01,6.551255799425416138e-01,-1.190987466069056561e-02,1.375163933301996877e-02,5.203308913744747466e-02,1.645051538944244385e-01
7.187849087237969670e-01,5.687908073020493394e-01,6.323412740962629508e-01,-2.915960260190745765e-02,6.271630536465110095e-02,1.620679636704584481e-01,3.318939805030822754e-01
6.213773622173733857e-01,6.197072699591974487e-01,6.533230321963207077e-01,1.151618802210367014e-03,2.040438283406346889e-03,-5.493954303289093170e-03,3.440474718809127808e-02
6.182372610332768081e-01,6.376222735531282826e-01,6.544905819914719203e-01,2.878397387690321239e-03,3.183135147851778261e-03,-7.606932871119609883e-03,3.487348183989524841e-02
7.642995664883628359e-01,6.425047867123441225e-01,5.447412464631388174e-01,-4.962380149928700968e-02,4.302378373379860815e-02,9.655996378212267084e-02,2.778685688972473145e-01
7.191534518611677473e-01,6.917703760277369440e-01,5.473164524489020355e-01,-3.801599860919672048e-03,1.344111143333396111e-02,3.782303712885062147e-02,1.744977235794067383e-01
6.791966628181085319e-01,6.961988685562799928e-01,5.231202049942720311e-01,2.642442327035950025e-03,1.168603371738592862e-02,-4.536403828018080800e-03,1.667181849479675293e-01
7.218886168918294821e-01,6.464792839458344265e-01,5.424588595229883348e-01,3.119575866040039894e-03,1.470798000254176091e-02,3.496080786257575040e-02,1.693985611200332642e-01
5.720092242188900000e-01,7.079376912828048152e-01,6.192942800664340552e-01,2.837198042734486933e-02,5.500606454333345496e-02,-1.896169387219161576e-02,1.638767421245574951e-01
6.270424365124590560e-01,5.976511102953027121e-01,6.873861309875723968e-01,5.722348815942480613e-03,5.046376747097841911e-03,-1.457874207559970142e-03,8.037289977073669434e-02
6.642795553845920464e-01,5.705287814189479167e-01,6.619060320089924510e-01,1.425462737702542018e-02,1.654773522997624383e-02,-1.271105532848392471e-02,1.024114266037940979e-01
7.591327117096292598e-01,6.190159630233220689e-01,6.387717313171896727e-01,-6.686103988317478042e-02,7.244313019926297559e-02,1.497296128399084880e-01,3.371453285217285156e-01
7.435751192962687384e-01,5.179262393131749409e-01,7.572944419191464105e-01,-1.352591122056676365e-01,4.954332943383110005e-02,1.035189003723097773e-01,3.854848742485046387e-01
6.807577620237014182e-01,6.106246712023355450e-01,6.162231385622951585e-01,1.176410869252865346e-03,2.713523193698738276e-03,-1.519473707166528378e-03,6.775339692831039429e-02
6.792777477653247908e-01,5.269404716045761328e-01,7.032800714171963952e-01,1.165346192268532088e-02,-1.432677341642638697e-03,2.889058281427470207e-03,1.669664978981018066e-01
6.693047495961387261e-01,6.154825172299837055e-01,6.157064881928810962e-01,1.851276867607280080e-03,2.000415625478431381e-03,-4.179323524546825551e-04,5.392252653837203979e-02
3.065905037588797510e-01,7.080873343062641379e-01,7.695121568015366176e-01,1.896306588939224713e-01,-9.787617795654604547e-02,4.326309033640278467e-02,5.760800838470458984e-01
6.954286519228080055e-01,6.708512468950822427e-01,5.430801775562527078e-01,-8.103425046395032819e-03,9.566861104573122151e-03,5.787876805418429998e-02,1.749034076929092407e-01
6.808846041205571797e-01,6.564969610324605798e-01,5.787128249553518122e-01,-1.405747102876299566e-02,3.373924416601898485e-02,5.299298657772174431e-02,1.448265165090560913e-01
6.709328770118899721e-01,6.503048621771987392e-01,5.841396674741211603e-01,-2.186666552397159222e-02,1.891558440771275509e-02,3.663295476827353042e-02,1.127030402421951294e-01
7.020210142339633475e-01,6.865709509069272132e-01,5.468995130517896319e-01,-1.723165071170670165e-02,3.847860054532127594e-02,4.085005157198889209e-02,1.795648187398910522e-01
6.537001638635582257e-01,6.207358757422984930e-01,6.372550595509334226e-01,1.967283540658829131e-03,1.052496249502457050e-02,-2.955229927406530666e-03,3.442557156085968018e-02
7.498528835909956669e-01,7.221839418684365963e-01,5.381841888673065677e-01,-5.000696152304717063e-02,9.192109918131763369e-02,1.014470023930862108e-01,3.216171562671661377e-01
7.759593715123369595e-01,3.884974742898595346e-01,4.829585492495066523e-01,5.473547117514661331e-02,4.521803402982905312e-02,-2.931641085283028247e-01,6.288139820098876953e-01
7.117475914559825423e-01,6.311222236473930103e-01,4.464658073996835563e-01,-1.959165029160981134e-02,2.152857455360362993e-02,1.164300039645632390e-01,3.141595125198364258e-01
8.045200990174823374e-01,8.430910996794840351e-01,3.389529255035938493e-01,-7.310361251675335549e-03,-5.306625363067045409e-02,1.037616411920599425e-02,4.951053559780120850e-01
7.725984619360498629e-01,7.812058840936026982e-01,1.701759281707418414e-01,1.086005364168410314e-02,9.835461683921634113e-02,3.882752299870274870e-02,6.340897083282470703e-01
6.254641405603416082e-01,6.135935729326357224e-01,6.623404722155340485e-01,6.498103594861804645e-03,9.659330319861833894e-03,-4.161400119095873783e-03,4.895970597863197327e-02
6.318497381885944675e-01,6.074903038055134985e-01,6.618197220563769578e-01,4.369729675156021516e-03,1.084988100361196015e-02,-2.354059797481575927e-03,5.146554112434387207e-02
6.538084075836235742e-01,6.017205551513589157e-01,6.547909348649010308e-01,-4.569196252873815832e-03,-1.071917044771504915e-02,-4.576111318049426099e-03,5.688096582889556885e-02
6.196476880964749689e-01,6.442139307207644938e-01,6.169584025880412437e-01,1.171828295911692477e-02,1.376868943435823750e-02,-1.108725426258022791e-02,4.501404985785484314e-02
6.853913506513588105e-01,5.787690838187318221e-01,6.324941511460895338e-01,3.976268634828456980e-03,7.014143123298703306e-03,-1.163400539616719388e-02,9.553784132003784180e-02
6.060907168062099615e-01,6.266947454595078737e-01,6.732086786777232712e-01,6.207884511792699685e-03,1.627530965090537513e-03,-7.988940454472679906e-03,6.214077398180961609e-02
9.452406229718762765e-01,8.013702074000682574e-01,2.486066953825105674e-01,-3.392891458120148029e-02,1.400784785562387072e-02,5.889707445452796453e-02,6.482447981834411621e-01
6.894216614854126179e-01,5.123839471491772324e-01,6.326989748709480610e-01,3.709427882820786476e-02,3.844995685403133912e-02,-8.591102015925125568e-02,2.349957972764968872e-01
6.136842660248466030e-01,6.246539809547244637e-01,6.695338807310174944e-01,-8.414157651719973360e-03,-3.815408504935838968e-03,-7.922453570457607674e-03,5.541860312223434448e-02
6.807828836524808525e-01,6.085854211519881041e-01,6.144919280335311429e-01,-1.333625093986263500e-04,-1.923443381827942686e-04,-2.383036790113850049e-03,6.955664604902267456e-02
6.734091752929518560e-01,6.323732641520051212e-01,5.989273664591138191e-01,1.009264767895307925e-02,2.863501870669309286e-03,-4.512590497958221016e-03,6.757463514804840088e-02
6.774076009733270842e-01,6.101688505772228099e-01,6.143546377134986303e-01,9.570855404467697907e-04,5.262892151942161678e-04,-1.627640734723377267e-03,6.533490866422653198e-02
6.507490075813764374e-01,5.933200094852081330e-01,6.536387226524243976e-01,6.281347529142624307e-03,1.190984241953555768e-02,-6.089380199706491067e-03,6.424588710069656372e-02
6.950168841480193205e-01,6.630811040763384678e-01,5.581310704629784958e-01,-1.117918799535494532e-03,1.044250845686652690e-02,-5.360909928935320146e-02,1.560088396072387695e-01
6.336522036906419020e-01,6.340631716949639562e-01,6.257547028311349901e-01,2.449113324677783948e-02,2.893780134981611268e-02,-2.983511473225881547e-02,8.395131677389144897e-02
7.783310397440651451e-01,6.614164493819820745e-01,5.239671703158167437e-01,8.825023363042147628e-02,8.643002125980649153e-02,-1.740249323227865963e-01,4.304183423519134521e-01
6.690925636935629583e-01,6.147215516986764827e-01,6.156271074806780597e-01,-1.821961246694795648e-03,-3.572598703847514306e-03,-2.477148278851141160e-03,5.453850701451301575e-02
6.899038316814497529e-01,6.598927481834038211e-01,4.270264749978509022e-01,5.232779438192892985e-02,1.023464325821379084e-01,-1.326149644796043026e-01,3.930840790271759033e-01
7.133945222998333557e-01,6.614355784409998718e-01,5.631930333104351316e-01,9.427347564957999637e-03,1.768359726611213115e-02,-4.775254969356991508e-02,1.596921384334564209e-01
6.894898564135809593e-01,6.445313343970434650e-01,5.174985816534232175e-01,2.495579885110355695e-02,3.564124419906859048e-02,-6.446336278442653389e-02,2.049771696329116821e-01
6.537377802305834873e-01,6.242759524119601000e-01,6.205664902189423904e-01,-1.942406356854454444e-03,-5.143476247319460175e-03,-2.375678546040004002e-03,3.314609080553054810e-02
6.048859918182003526e-01,6.278035578851061116e-01,6.913904619922918160e-01,8.280352947970590072e-02,-1.118000155950366475e-01,5.096114608746600549e-02,2.681117057800292969e-01
6.098145600756518236e-01,6.364924891605140411e-01,6.648267789407944495e-01,2.540607796185635411e-02,-1.653314957207353483e-02,1.267319256948703544e-02,7.422071695327758789e-02
6.956960441203963175e-01,5.636270007216557243e-01,6.487282610359624835e-01,4.361611957262018073e-05,-4.928813073925599787e-03,-1.310168483659632233e-02,1.184612289071083069e-01
6.500846973256967365e-01,5.765104313898766764e-01,6.714149706360933445e-01,7.241136348732933603e-03,1.062132948642600591e-02,-5.355391898011340780e-03,8.955050259828567505e-02
5.925180595846100129e-01,6.346458307887300476e-01,6.776198993948591154e-01,3.098505548594142345e-02,-7.644788773712176376e-03,7.600496502780940133e-03,9.306327998638153076e-02
6.304119336387991046e-01,5.705315538052549984e-01,6.796218714888112578e-01,4.579973935322785572e-02,-2.100165292502704020e-02,1.968766223950535466e-02,1.331647783517837524e-01
6.307678847859765625e-01,6.098271477656627138e-01,6.800243429709390552e-01,3.013567954530619805e-02,-1.594315689640619926e-02,1.342131187264182859e-02,8.901463449001312256e-02
4.680044342119731859e-01,6.555216973012809589e-01,7.155613316522319023e-01,1.317842683762310840e-01,-4.769426026828630510e-02,5.264206426576762549e-02,3.424398005008697510e-01
5.923883930600138958e-01,6.371896997530035467e-01,7.270895544976706537e-01,7.685204098929837579e-02,7.913834391193638046e-03,-5.080060898039752762e-03,1.791669279336929321e-01
5.844184506825600423e-01,6.502139893756619937e-01,6.609993722787970150e-01,7.740931441632602390e-03,4.764318827047388932e-03,-1.647610972903473456e-02,7.884958386421203613e-02
6.294676921698000305e-01,6.334525045225403161e-01,6.349439890876891202e-01,2.322913002768164231e-02,3.079929882954730164e-02,-2.686493157188165129e-02,8.157075196504592896e-02
6.813943832294083736e-01,6.136505051883809347e-01,6.113522069199656128e-01,-1.177187251896332897e-03,-1.802243165073042126e-04,-4.368462375832431188e-03,6.936653703451156616e-02
5.807679915050416586e-01,6.362213490442888419e-01,6.391771904683712924e-01,3.939746037357413216e-02,3.857718471947092775e-02,-3.129267590007376448e-02,1.237194240093231201e-01
5.530941565651334990e-01,6.521972408047463921e-01,6.758700731939720763e-01,2.334999137994873269e-02,1.270178384035474707e-02,-2.073609369736222757e-02,1.270334720611572266e-01
6.233142608294791609e-01,6.513443914851110295e-01,6.333016740997656768e-01,2.667155621418249804e-03,5.398020668528201449e-03,-1.194167815873396765e-02,3.379432111978530884e-02
6.333363745418906232e-01,6.313298081872141809e-01,6.328372322036416309e-01,6.593389057280831834e-03,5.727124793876769114e-03,-5.966269425179213624e-03,1.840872690081596375e-02
6.208362175387325266e-01,6.211107729910123609e-01,6.537094910849504670e-01,-3.214125650267226535e-04,1.669596524121350241e-03,-2.163123996396015911e-03,3.308189660310745239e-02
6.690712715566519142e-01,6.170299804361991658e-01,6.131586103216822847e-01,-3.322245701751867265e-03,-1.866614984634689485e-03,-2.291567285728027172e-03,5.462666973471641541e-02
6.684296984410885711e-01,5.325669086777422567e-01,6.728687602021783398e-01,1.280323478409236548e-01,8.577605673901605998e-02,-8.427705020791245727e-02,3.341239392757415771e-01
6.520919396966533554e-01,6.215187175184416768e-01,6.241063214867935693e-01,-5.455649387996522846e-03,-2.615183481334640205e-03,-2.783440814502102789e-03,3.154930472373962402e-02
6.007985899793432116e-01,6.429397939479204460e-01,6.081143089230920395e-01,5.432658908378037999e-02,6.278443248664465626e-02,-5.267957071591421875e-02,1.747177988290786743e-01
5.585665558697905375e-01,6.851721357279867419e-01,5.988541733452313887e-01,6.823603133283713540e-02,1.113014605051303729e-01,-6.206295177288854992e-02,2.742979526519775391e-01
6.589930375333518109e-01,6.452752493975680848e-01,6.116813283621753694e-01,-1.861543002328552854e-02,-1.893169935089908038e-02,-2.002001447873334034e-02,7.137784361839294434e-02
6.830263632644986149e-01,6.267276617112810255e-01,5.805490509387813969e-01,1.921701700085073558e-02,2.108914559734052091e-02,-4.154696342717573848e-02,1.245888918638229370e-01
7.004117286149849075e-01,7.283077339033832143e-01,5.301514367643097581e-01,-4.919039292176378628e-04,-6.914023064190175094e-02,-2.889405677380669016e-02,2.266335785388946533e-01
6.992696532345833438e-01,6.383231251224525948e-01,5.188732027721011386e-01,5.436543111688085794e-02,1.044915150697183631e-01,-1.052382847606400662e-01,3.164021968841552734e-01
6.251562168644831941e-01,6.653350287788722950e-01,5.765900784627959741e-01,2.289686537844537809e-02,4.350867351747475520e-02,-3.873666710765293758e-02,1.329576522111892700e-01
6.125292277296651156e-01,6.585216098278567909e-01,6.071479574967365567e-01,1.754177447576888219e-02,2.870084668187760160e-02,-1.905687278013431379e-02,8.291926980018615723e-02
6.993191609837572376e-01,7.148733162712624933e-01,5.575511385875225878e-01,2.715284930950267323e-02,5.658621518802905287e-02,-6.385999192198905938e-02,2.158641070127487183e-01
6.417899618175086918e-01,6.277746749005146398e-01,6.321885492251804184e-01,-2.062917149070349430e-03,-1.278038727962975928e-03,-1.959756376984192992e-03,1.353653613477945328e-02
6.397957085339952554e-01,6.271815559564578590e-01,6.271831747911046362e-01,-1.743874818766516900e-03,-4.204136015571634938e-03,-9.605008698720614085e-04,1.496701966971158981e-02
6.188926170917867786e-01,6.384417999226608131e-01,6.414388227873467629e-01,1.793803673512516655e-02,1.297283334857931431e-02,-2.011323428203317873e-02,5.597830936312675476e-02
6.271720454853351168e-01,6.849380414445357390e-01,5.523557009317793254e-01,1.533295958478449877e-02,4.203970796728872389e-02,-2.296332004157577641e-02,1.443796753883361816e-01
6.475732143505079641e-01,5.840841068752274934e-01,6.745141805927055145e-01,-9.700652745373627983e-03,-1.149940493057594916e-02,-4.100675493565657768e-03,8.483280241489410400e-02
6.323228481496457887e-01,6.292145608918068289e-01,6.418872599483285146e-01,-1.481401155616538564e-03,-1.018859384936973570e-03,-1.857010185385043989e-03,1.228461228311061859e-02
6.334926201679023094e-01,7.081591186885995981e-01,6.077408656955437527e-01,4.051282807506683542e-02,7.951097344099934683e-02,-4.339567241722550039e-02,1.941660046577453613e-01
6.208807866225874994e-01,6.178101534243138904e-01,6.601203064560535738e-01,1.751098698828409961e-02,1.591161466259238474e-02,-1.683749368095370513e-02,6.480436027050018311e-02
6.366212044794440361e-01,6.260345132420711556e-01,6.366916435597795854e-01,-3.128235782910743223e-03,-8.059864780717010055e-03,-2.892131637121323189e-03,1.903060264885425568e-02
5.673824516825953790e-01,7.103134679489787606e-01,6.654590635423381917e-01,2.574363563118101453e-02,4.848453689832347979e-02,-1.735118870968822488e-02,1.611637473106384277e-01
6.319944786863684882e-01,6.314173389483342946e-01,6.357173334136730913e-01,-5.335182127299145996e-04,-2.246092869645336092e-03,-1.230293106839463416e-03,6.072144024074077606e-03
6.789254319336491816e-01,5.296934259563541580e-01,6.502768513231923508e-01,-2.562287468197243026e-02,-2.120034874234182770e-02,-4.743141406255985820e-02,1.699494719505310059e-01
6.615106873291836109e-01,6.080401759364220116e-01,6.628501290923815015e-01,-2.580332834016210372e-02,-1.532654124124538733e-02,-2.413866944739639572e-02,8.592252433300018311e-02
6.519347140923918982e-01,6.012668739139461760e-01,6.517441074758997255e-01,-4.904659808500614129e-03,-1.279750954025597569e-02,-5.173824668711084381e-03,5.658100172877311707e-02
6.281941704384549352e-01,6.217919052222645737e-01,6.541872602137903669e-01,-3.208303096303551311e-04,4.948817613698665123e-03,-2.159240846010454604e-03,3.115786425769329071e-02
6.445695252261377517e-01,6.257191895789151470e-01,6.246185766151930441e-01,-6.715669761535783717e-03,-4.221015236285814536e-03,-4.616404458662619337e-03,2.509937435388565063e-02
6.316763931036241120e-01,5.906411096694719198e-01,6.702538033779787963e-01,-1.346793300189277724e-02,-1.092391341267899378e-02,-4.878094297896006827e-03,7.568807899951934814e-02
6.148742219038343393e-01,6.243461035978568052e-01,6.608182320397177900e-01,-7.684589055775351701e-03,-5.241388378198273516e-03,-8.980158161947807832e-03,4.761194437742233276e-02
6.144591972668282942e-01,6.162866326229187175e-01,6.689552230129129917e-01,-4.425516313307825862e-03,-3.346816392028030118e-03,-4.847548410153266520e-03,5.510375276207923889e-02
6.162559861557772578e-01,6.110578231637651125e-01,6.592744934536491908e-01,-5.929535947074693510e-03,-7.159405890288395719e-03,-3.491262526390428826e-03,4.895963892340660095e-02
6.321061460290635647e-01,6.348610800707835677e-01,6.326468591968448241e-01,-2.871162357717743033e-04,-2.750780710294819902e-04,-6.722228999086403249e-04,2.867466770112514496e-03
6.032481282754854623e-01,6.344259520077023540e-01,6.764370562255110908e-01,-2.518587055598854943e-02,-1.019831836544516507e-02,-1.901496181871684815e-02,8.571179956197738647e-02
6.277013179385394492e-01,6.286062501971452221e-01,6.412433554744828568e-01,-4.993527036028423292e-04,1.598546308377622434e-03,-1.090887281103573815e-03,1.356227416545152664e-02
6.162629843344313851e-01,6.211604184932634221e-01,6.694677093843950377e-01,-1.809976951183533229e-03,-2.488021976295415154e-03,-3.903812736272437543e-03,5.165538936853408813e-02
6.103731640986992391e-01,6.793918605047986059e-01,5.984764782060433275e-01,3.021700195244379685e-03,-7.660759206894595698e-03,5.379835624597813486e-04,7.700991630554199219e-02
6.094253799029623053e-01,6.380861921965692574e-01,6.410449321395207400e-01,7.292224876763891452e-03,4.341799230426318136e-03,-1.000565744065008700e-02,3.783410042524337769e-02
6.180236296682660724e-01,6.863854813652979781e-01,6.137533418478641201e-01,-3.117305306024472592e-03,-1.301516390209228255e-02,-2.771381355807519577e-03,7.445724308490753174e-02
7.800582921864325225e-01,1.777354612977750659e-01,7.784041459217240222e-01,-2.483583866626482006e-02,7.178241576451915851e-03,-8.196695698847590583e-02,6.196450591087341309e-01
6.091402873322863121e-01,6.796164675812974565e-01,6.001291074971607520e-01,1.509510307784526313e-03,-7.349175221175351796e-03,-9.050135653977163606e-04,7.651464641094207764e-02
6.783012297672906810e-01,6.087926222426887080e-01,6.049795359501066727e-01,-7.542439143221489964e-03,-5.282549020034704897e-03,-8.594484871639461454e-03,7.474627345800399780e-02
6.147696951089469675e-01,6.772308541493148315e-01,6.143656690203908033e-01,-1.900961884706127859e-03,-6.043245617953856529e-04,-1.364684455969418378e-03,6.280381232500076294e-02
6.690740201425053879e-01,6.082475514095748714e-01,6.255307093359753212e-01,2.458994143131899065e-03,6.066174382818793724e-03,-3.161392310718065275e-03,5.572981387376785278e-02
6.003234963409287417e-01,6.790364812071040257e-01,6.100718196433849716e-01,-1.654258659989953344e-03,-8.061667835406778268e-03,-2.760860462699194894e-03,7.582540810108184814e-02
6.802558823435445046e-01,5.978710927369147443e-01,6.225116800287565644e-01,2.361921763031257868e-03,1.011448017126788347e-03,-4.680922269524761571e-03,7.382371276617050171e-02
5.250208083004346271e-01,6.814901423382613288e-01,6.951166464187916727e-01,1.152497051222936032e-02,-5.658487221074242485e-03,1.606093554312138568e-03,1.652353852987289429e-01
6.044057620097054162e-01,6.751993498530590720e-01,6.135915311058589561e-01,2.662510022898665046e-03,-7.818695524503016178e-03,5.012887034292768003e-03,6.874494254589080811e-02
6.072436356441962557e-01,6.689726583410379179e-01,6.138709052589169657e-01,2.291776931451613465e-03,-9.074315599834029133e-03,4.840494696947746783e-03,6.146849319338798523e-02
6.214824245601279218e-01,6.795749019180330475e-01,6.161917276640677121e-01,6.724049522532694369e-03,-8.972621731106265874e-03,6.109774877597258860e-03,6.480144709348678589e-02
6.125442907517950619e-01,6.635364514597428265e-01,6.141030670282748849e-01,2.922448120000986378e-03,-8.009170078122646724e-03,4.583078801392881721e-03,5.295489728450775146e-02
6.206435503330163250e-01,6.638559334922613520e-01,6.150150824213305167e-01,6.906889010762039087e-03,-9.467913208964805205e-03,4.364152288457558669e-03,5.110172554850578308e-02
6.318038842708254554e-01,6.403722357807585253e-01,6.349490562125109649e-01,-9.281363092353634228e-03,-1.116779306258014817e-02,-1.305111368107287131e-02,3.464021533727645874e-02
6.374595124561225346e-01,6.174189003944472454e-01,6.558627461080676069e-01,-2.945017370674003505e-03,-6.640676202013006020e-03,-2.465075300395961743e-03,3.585613146424293518e-02
6.206077709158704936e-01,6.203689848611392277e-01,6.553813554904386329e-01,-1.348906055138307742e-03,-2.619846875082631251e-03,-1.466109285399887479e-03,3.535619378089904785e-02
6.107638288840692153e-01,6.346520115832353648e-01,6.610346834559404083e-01,-1.873229998649830405e-02,-1.199290822380479245e-02,-1.088841121461836363e-02,6.112923845648765564e-02
5.944463147404351888e-01,6.320295457395264105e-01,6.595668584741852802e-01,-9.521815048491144573e-03,-6.245965883609681975e-03,-1.129323071832486966e-02,6.306651979684829712e-02
6.877121917191342249e-01,5.996306549706896805e-01,6.233001596617845363e-01,5.309455224843872504e-04,-3.724538306285914493e-03,-9.891811171373610101e-03,8.105406910181045532e-02
6.092574930783968279e-01,6.321959141843547236e-01,6.607579855955305614e-01,-3.321119233654371439e-03,-4.095689023504438427e-03,-9.100101957199862104e-03,4.825951531529426575e-02
6.864625307011629207e-01,5.987511847074434845e-01,6.260918114863943673e-01,2.322258539301680358e-03,5.129470790731125232e-03,-4.687752292899373049e-03,7.876385748386383057e-02
6.150683236560232636e-01,6.393052727315392536e-01,6.419715741525940933e-01,-3.540036123381697097e-03,-3.218848312573906276e-03,-9.488551338561884707e-03,3.159015998244285583e-02
6.213587684753733020e-01,6.403050205899945002e-01,6.425634554367539719e-01,-1.271976508649291966e-02,-9.716028932295348378e-03,-9.312086286239380090e-03,3.788899257779121399e-02
6.123841089930973647e-01,6.248130596387968527e-01,6.604334057011826964e-01,-5.074082758233012559e-03,-4.930772039342034771e-03,-7.430473046864650988e-03,4.670999571681022644e-02
6.730602872386358682e-01,5.870043340141746224e-01,6.521626027294136208e-01,-6.809669139209825924e-03,-1.050596764146282010e-02,-8.892282750531036242e-03,8.216708153486251831e-02
7.020591996736017526e-01,5.097637134085754029e-01,6.785000159508017825e-01,4.777850764901805242e-03,7.383237528596051438e-03,-1.332657561009909820e-02,1.837581992149353027e-01
6.534178580588149154e-01,6.174391920194672867e-01,6.333105196811532611e-01,-2.603099563747577044e-03,-9.872344966531739971e-03,-3.872737152795506076e-03,3.651091083884239197e-02
6.276390534069012928e-01,6.336345860029188870e-01,6.403715571174376509e-01,-5.529387238416057920e-04,-1.869071273160616015e-03,-4.782028402612837834e-03,1.420302130281925201e-02
6.282692009745644013e-01,6.259384106707605033e-01,6.461138772323052892e-01,-1.386744000925980514e-03,-3.762793756007296649e-03,-1.313540791352028588e-03,2.046651951968669891e-02
6.727613646172760919e-01,6.043804832870663946e-01,6.296083850539604398e-01,-2.744121254811322623e-03,-7.343813158782416285e-03,-6.185590004227997651e-03,6.234144419431686401e-02
5.979538449655318333e-01,6.240810090605353189e-01,6.868349670113338412e-01,6.110497796265685656e-03,-5.562021773494672501e-04,-1.985549445612850086e-03,7.990644872188568115e-02
6.369207466348638658e-01,6.326819960825201816e-01,6.307868597630197360e-01,1.818364723479665981e-03,-1.582507445449045412e-04,-1.132667574611655311e-03,6.590511649847030640e-03
6.479519608858167468e-01,6.327289670482495465e-01,6.304627556718466197e-01,3.425763883655391986e-03,6.306576971822160441e-03,-4.151998949250316866e-03,2.185445837676525116e-02
6.443975108450668010e-01,6.274872875907262504e-01,6.248019388050813916e-01,3.981800720187971508e-03,1.212845675906011654e-03,-1.682802691966204774e-03,1.997621729969978333e-02
6.800445809977582190e-01,5.954871328969727484e-01,5.969031359628064193e-01,7.718459703254239128e-03,5.986122504939197196e-03,-2.716248950394943226e-02,9.763124585151672363e-02
6.268169623475894348e-01,6.218565300889992153e-01,6.455896207387035179e-01,-2.152739707317006049e-03,-5.472756717845782444e-03,-3.184591858102494948e-03,2.458292059600353241e-02
6.110411629653069721e-01,6.796031939294934210e-01,6.176237396022549175e-01,-7.849955338094242096e-04,-1.312599827123728897e-03,-2.798089272834448308e-03,6.575159728527069092e-02
6.362728613211140472e-01,6.350687944692100517e-01,6.257600527053254202e-01,-8.890889625913301134e-03,-2.643780678755294680e-03,-3.109041582405094525e-03,1.965761184692382812e-02
6.403687918599338946e-01,6.303907764520316759e-01,6.265985285089074042e-01,4.744187909809325504e-03,2.338699477264433776e-03,-1.107792983991531073e-03,1.547233574092388153e-02
6.844383372817856026e-01,5.243820323259307248e-01,6.785310405645188503e-01,-1.737827224449712063e-02,1.464413372375530757e-02,1.153359792028861054e-02,1.632661968469619751e-01
6.931756229128409608e-01,5.041317619406442407e-01,6.958300766248030067e-01,-2.455607757086613469e-02,1.028252878086405482e-02,2.079777944896773687e-02,1.991739720106124878e-01
6.610941471944432601e-01,5.696507218882778112e-01,6.629371340520664457e-01,-1.348644393974477405e-02,1.692042419246574808e-02,1.629474890196501435e-02,1.036095395684242249e-01
6.757059559107596591e-01,5.617014487032887526e-01,6.635265910405880874e-01,-7.032051738379872970e-03,1.420722586493298155e-02,1.699397683263789011e-02,1.156595572829246521e-01
6.562895698004342915e-01,5.653925396746022347e-01,6.907225989703613678e-01,-4.312275463079216081e-02,9.913270458649736314e-03,2.085071269580316897e-02,1.405544579029083252e-01
6.562698718244804885e-01,5.548038999839557395e-01,6.788846923511011600e-01,-1.612652204899816047e-02,1.458560003805876339e-02,6.111799755999368366e-03,1.209623217582702637e-01
6.140014089423661003e-01,6.154533226440470628e-01,6.805736631561888350e-01,-1.313074245000484842e-02,5.265168535890614628e-03,2.034593056570797864e-03,7.035730034112930298e-02
6.154565080436185109e-01,6.122819895199016482e-01,6.759941305856742577e-01,-1.401062827339611110e-03,3.042528603098857386e-03,9.524115306313258927e-04,6.247751787304878235e-02
6.259422200466702169e-01,6.274464822796829155e-01,6.473623467082362248e-01,8.533037992414231783e-04,7.827948753872309784e-04,-3.827341963061123200e-03,2.183647081255912781e-02
6.231946851929563991e-01,6.433889753117523203e-01,6.247743228475221011e-01,-7.150569540968198905e-03,-3.667189647783832603e-03,-5.077880763754702605e-03,2.548521757125854492e-02
6.136693464438759404e-01,6.097515542375503417e-01,6.820028865546952090e-01,-1.859849799848705071e-03,-1.320145150514520497e-04,5.154978509647224760e-04,7.045399397611618042e-02
6.138856890354567053e-01,6.038052996891021262e-01,6.798961128574493307e-01,-9.141111579368770348e-03,3.396391496695566527e-03,1.763318673444773301e-03,7.361395657062530518e-02
6.263028955919532903e-01,6.235200233001113590e-01,6.470604761063029065e-01,-3.657546305641550064e-03,6.121530335699265288e-03,2.101740639070015602e-03,2.573308162391185760e-02
6.288379151086610497e-01,5.898148142539991756e-01,6.576421761058028892e-01,-1.206864050275865963e-02,1.075864901885588767e-02,6.800914647118886172e-03,6.632856279611587524e-02
6.850243671268090306e-01,5.602183007977059592e-01,6.476145302880600418e-01,9.131380037128144014e-03,1.053767180423216673e-03,-7.957690268828008368e-03,1.129182353615760803e-01
6.936852554645470681e-01,6.318065511795027955e-01,5.491958029817020082e-01,2.389777604327902004e-03,1.118470057092066372e-02,-3.722197679288396371e-02,1.425279229879379272e-01
6.246343717505346005e-01,6.128504669999459420e-01,6.591356517169811857e-01,-4.864787939028534375e-03,7.445378443321456693e-03,5.831742931551638781e-03,4.555310681462287903e-02
6.374217174992269364e-01,6.132666894413858483e-01,6.439671279701748574e-01,-1.086892892924410520e-02,1.038479969616481167e-02,1.257069920869893602e-02,4.400468990206718445e-02
6.327612779983552427e-01,6.250426057973766936e-01,6.607236585006811547e-01,-1.703820645746358456e-02,1.012784776957707626e-02,1.347154528355908737e-02,5.272925272583961487e-02
6.865832269120367704e-01,5.626472584406561062e-01,6.476839513953500660e-01,1.065612968632070673e-03,-9.269521658899415248e-03,-1.310026286472172619e-02,1.132620349526405334e-01
6.509025579524398974e-01,5.768404689711247313e-01,6.741523937325463178e-01,7.245824157905836511e-03,1.212625089209220033e-02,-5.302997641030476363e-03,9.181877970695495605e-02
6.580928944006979586e-01,6.168086861286558031e-01,6.129763845204786454e-01,5.499994886356292419e-03,2.311320055599615144e-03,-6.787453735916940817e-03,4.606811329722404480e-02
6.816815766670309973e-01,5.593235368249505068e-01,6.748960350971614508e-01,6.519997146764295627e-03,1.032030751691112233e-02,-8.832551590147390275e-03,1.219359114766120911e-01
5.858957078371179739e-01,5.135735587509587807e-01,7.072848368167943267e-01,-2.656010674713587538e-01,-1.049838259617862507e-01,-1.456707988203797544e-01,5.806043744087219238e-01
5.589209715591363370e-01,6.512004094145018573e-01,6.770068573121043043e-01,8.341668140787098992e-03,-3.322483051288346173e-03,1.463343307377534298e-02,1.115667968988418579e-01
6.578586426102073226e-01,5.892422572398922087e-01,6.492028932773755701e-01,1.327276606175516703e-02,-1.973945141875381795e-02,8.503080982569034482e-03,7.812520861625671387e-02
5.421050826850329907e-01,6.726103380576584634e-01,6.815778773856071560e-01,1.080624934506239053e-02,-9.289506507485553038e-03,8.616331449899931189e-03,1.382544189691543579e-01
5.171454922380679387e-01,6.663876071636012366e-01,7.070827668169168412e-01,6.980008478671273497e-02,-1.056901257471161253e-02,1.240029098689016986e-02,2.131086736917495728e-01
6.694345197001755343e-01,6.131961006229429412e-01,6.208395157910707729e-01,2.049584696171924056e-03,8.737543431670274571e-03,-7.900781798873693709e-03,5.674708262085914612e-02
5.259070080095711308e-01,6.823558788856274315e-01,7.027028008340224785e-01,1.150960630549182663e-02,-5.468934081992412807e-03,5.257068269569902148e-03,1.692440509796142578e-01
6.679791161124859489e-01,6.169352499392445344e-01,6.081401653631844928e-01,7.203891457391049975e-03,2.739526774638590192e-03,-8.377703915452089367e-03,5.933402106165885925e-02
6.585500079359094538e-01,6.175273480005103455e-01,6.199368967906425665e-01,2.258654118236259889e-03,4.808621690189052514e-03,-1.407462442528028494e-03,4.099310189485549927e-02
7.886747521073559364e-01,5.597032771750141134e-01,8.192274921840577706e-01,-2.149320705157598266e-01,1.206894472803455715e-01,2.024349693079583734e-01,6.046338081359863281e-01
7.352598383043406072e-01,6.807293912454200902e-01,4.416221004962812557e-01,2.699612577710254827e-02,-4.785502325353185871e-02,5.637554427196068974e-02,3.029451668262481689e-01
5.145606822480945919e-01,7.021829250797524402e-01,6.900710371153209177e-01,-1.143522226193818478e-02,-1.300551945675777928e-02,-1.108124540142992748e-02,1.853225529193878174e-01
6.000854517522740128e-01,6.539904598558030635e-01,6.514412896294057287e-01,5.295964794840359556e-03,-4.850527651154411084e-03,1.145331458461892014e-02,5.764629319310188293e-02
6.316057073000730382e-01,6.167549775200146245e-01,6.542864031200557040e-01,-4.873699361044266966e-03,-9.760914789911425207e-03,-2.828115597010429777e-03,3.811644017696380615e-02
6.909502801930113014e-01,6.904625440856082541e-01,5.017534463215507223e-01,2.040957159451731520e-02,2.227354233533790362e-02,-2.290530972537397139e-02,2.000383585691452026e-01
6.569422689101058754e-01,7.017596558397993789e-01,4.520182611329388589e-01,1.837941161181890284e-02,-9.371044725934758735e-02,3.066377608139264979e-02,2.887313067913055420e-01
7.731488178087324581e-01,5.421687552987269898e-01,6.863853664587636905e-01,-5.267553285129003560e-02,-3.610656207390635503e-02,-1.324937316432227841e-01,3.251738250255584717e-01
6.549130553582145353e-01,6.777893759554060038e-01,5.370537247839779482e-01,1.359295579532998621e-02,-4.868839697432088970e-02,1.621233884994750449e-02,1.598900854587554932e-01
5.572901948939913419e-01,5.727764576851254175e-01,7.107268565425751694e-01,1.209042918180723986e-01,3.025325170946731312e-02,-2.190170981489074353e-02,2.635239064693450928e-01
5.910589020959642337e-01,6.231353497939257080e-01,6.568350418848001304e-01,3.856205061255818523e-02,2.007309080908502991e-02,-2.348780285223822997e-02,1.028126776218414307e-01
6.311133544076711344e-01,6.313286028787261639e-01,5.949390780754334473e-01,2.484038820555018248e-02,2.746259191051286450e-02,-2.867778144960780179e-02,8.886716514825820923e-02
6.300172955589454782e-01,6.281127541325911556e-01,6.474744813962606260e-01,8.235208727570568835e-03,7.152021266139229304e-03,-7.564209405240887411e-03,2.949899248778820038e-02
6.278171687567982717e-01,6.182723875346549658e-01,6.538774553877334528e-01,2.870537335749412042e-03,7.297002487519820869e-03,-3.325885743576581163e-03,3.516567125916481018e-02
6.387661495522484190e-01,5.968839798019713871e-01,6.597951781909572322e-01,9.404394243905590117e-03,1.398426767049421211e-02,-6.477131746098729360e-03,6.367844343185424805e-02
6.118472219135800971e-01,6.198331097525139333e-01,7.178376882765364897e-01,-6.115705076038980420e-02,-2.459872674224963807e-02,-2.106263851095522069e-02,1.575375348329544067e-01
6.795919524585136706e-01,5.058281787927453310e-01,7.201449930061910587e-01,-6.363148234582889640e-02,-2.274071959004501237e-02,-5.179140229309164151e-02,2.462324351072311401e-01
6.440563999774688853e-01,6.117663207791289581e-01,6.840495874737746451e-01,-6.846704467292304142e-02,-4.106979004579521669e-02,-4.170540912638576875e-02,1.681514233350753784e-01
5.615215971801089667e-01,6.964206864907138694e-01,6.482258864292670397e-01,-1.446321489240555381e-03,-8.362315014410528699e-03,-7.328584702629829285e-03,1.199843883514404297e-01
6.210313045511942631e-01,6.158488038965383993e-01,6.544469363940392803e-01,-2.740153514287257692e-03,-4.844536305663567355e-03,-2.527938684398882592e-03,3.779873996973037720e-02
6.142132651906383467e-01,5.440519615032909373e-01,6.711316916758898188e-01,-1.201410562274203703e-01,-5.099620304219066452e-02,-6.518721489537267211e-02,2.756943404674530029e-01
5.827879445137578163e-01,6.150008368495335498e-01,7.300500241957091907e-01,-1.434154419941960634e-01,-7.683326910646599839e-02,-9.174929959000971413e-02,3.502111732959747314e-01
6.585068158336964128e-01,5.467202085316915650e-01,6.808149250441893896e-01,1.726147463122372494e-02,-1.479371881656529712e-02,1.198031566116077029e-02,1.321690827608108521e-01
6.187312073635548026e-01,6.208619500974297267e-01,6.632630990802068638e-01,-2.216090266357689798e-03,-3.133226207275411918e-03,-3.210978441107719544e-03,4.436055943369865417e-02
6.806142250290088125e-01,5.405656304996327988e-01,6.576067053670981988e-01,-6.182133771646500936e-02,-6.564234329032093973e-02,-8.055594665686031941e-02,2.465379238128662109e-01
6.495993737533420909e-01,6.722899330707902132e-01,5.644229644928363543e-01,-1.269867450845595103e-02,-8.531147367562906536e-03,-3.537335441624600129e-03,1.021872386336326599e-01
6.131915993153881361e-01,6.350767928801696049e-01,6.528816165253110704e-01,1.887434527151538033e-03,-5.047345368616736917e-03,-1.072848574877575435e-02,4.022500291466712952e-02
6.201891877649288176e-01,6.200592367011802386e-01,6.637444734467183860e-01,1.406468964688983338e-03,4.201250095811718925e-03,-3.464328497722032885e-03,4.469485953450202942e-02
7.309529633883644628e-01,5.333939380168964961e-01,6.948449484253371722e-01,-4.470781592611336452e-02,-2.546050397702322166e-02,-5.666007010492959961e-02,2.253265678882598877e-01
6.972018194982297912e-01,5.439062856992709083e-01,6.958473919576881883e-01,6.258582475643391374e-03,-3.975706100001788826e-03,2.522354893895068645e-02,1.592712700366973877e-01
6.463674447173953785e-01,5.864937828795802055e-01,6.835199926277123472e-01,2.339195609668207054e-02,-7.973039863254016354e-03,8.847263638250372000e-03,9.621178358793258667e-02
6.290318611222891487e-01,5.994869004414575819e-01,6.794689793277679524e-01,-4.514509278935137024e-03,-5.227753830114654013e-03,-2.525969191003166929e-04,7.106541097164154053e-02
6.156531315335592724e-01,6.072575040991924356e-01,6.691913942280578453e-01,7.488354832013891828e-03,6.840201171839971686e-03,-3.149625890157731894e-03,6.103008612990379333e-02
5.473177508661631885e-01,5.668190850558466609e-01,6.878378183531232981e-01,1.150716678216446576e-01,4.605187416620142027e-02,-5.529691407642758211e-02,2.695290446281433105e-01
6.960650604952111076e-01,5.156877967255574235e-01,6.955721646968410221e-01,1.206842368799537941e-02,-1.222304021559914890e-02,1.138243720718564063e-02,1.836331188678741455e-01
6.210727286992571150e-01,6.372694732414561081e-01,6.523870224183868638e-01,3.540575405731605230e-03,3.181759304519238100e-03,-7.743617772059674387e-03,3.136237338185310364e-02
6.457323802131945678e-01,6.464432306101710601e-01,6.151252338852818413e-01,1.567590466306001407e-02,1.050837830360576951e-02,-1.301471368652331977e-02,5.035561695694923401e-02
6.241411385930514255e-01,5.967958973699966085e-01,6.807702932193877565e-01,5.431735415486971252e-03,1.040896581525153908e-03,-2.309038388013904663e-03,7.490605860948562622e-02
6.110003160750562268e-01,6.021599326701294608e-01,6.746177080844752982e-01,9.895788889601325744e-03,5.193939879279915219e-03,-1.529824882581994191e-03,7.120013236999511719e-02
6.986473199261191702e-01,4.750801688336267481e-01,6.435725233012330460e-01,1.758260035991677031e-02,-1.273658393965371519e-02,9.954805430109488207e-02,2.680413126945495605e-01
6.299787536327143833e-01,6.724165930930855462e-01,5.849855379844609571e-01,-2.590622240295584189e-02,3.470186157557531709e-02,2.282532503054509124e-02,1.136829629540443420e-01
7.112003966170732383e-01,5.363276329414821131e-01,6.639289975840749758e-01,4.671222276124846993e-03,3.915530744489772313e-03,2.750897970519768782e-02,1.641044616699218750e-01
6.779098010877133706e-01,5.169031201471737669e-01,6.951369530157939236e-01,1.271127504086240652e-02,2.308132864215647895e-03,-6.249894878008494664e-03,1.720799505710601807e-01
7.260868455493645346e-01,4.804999936140385008e-01,6.412694707091535218e-01,8.532437702252673034e-03,-9.468058449679126951e-03,9.613833624869848327e-02,2.736639082431793213e-01
6.267079576715591793e-01,5.972743219597401731e-01,6.789004929048857440e-01,6.821033136453757799e-03,-5.632630972341052741e-03,2.905255037650065174e-04,7.322313636541366577e-02
7.424345112042052275e-01,5.264734718138021075e-01,6.490448240690457338e-01,5.978748307260991351e-02,-1.090614700216014504e-02,9.611166557867145688e-02,2.720020115375518799e-01
8.856776059791562350e-01,4.487185142034488816e-01,8.041176664871456659e-01,-1.230735076049576937e-01,5.822505236468249190e-02,2.435036368699191045e-01,6.288407444953918457e-01
6.300386040358336714e-01,6.323777864663765458e-01,6.401538552402293858e-01,3.109440775507148831e-04,-1.156306575342164709e-03,3.262709282671786507e-03,1.097112894058227539e-02
6.213174607608545896e-01,6.553423692050612814e-01,6.208279094176345492e-01,2.252494519063321255e-03,2.443459948801930182e-04,1.734585741533805573e-03,3.462683409452438354e-02
6.408848948414562763e-01,6.170308450355342922e-01,6.407262653962306764e-01,4.374510113535941790e-03,6.263120665824125494e-03,-3.776309621411259518e-03,2.798441611230373383e-02
7.019636190203262238e-01,4.475016896713395198e-01,7.266019383541699739e-01,7.166100591699778311e-02,-1.338899763615132230e-02,1.899892766497624993e-02,2.977482378482818604e-01
6.741021283041602752e-01,5.569376160117238683e-01,6.741958219924792939e-01,-4.848419954972809677e-03,-1.251494943663591063e-02,-6.840541160174651650e-03,1.200803145766258240e-01
6.323617239095525866e-01,6.430794145229427050e-01,6.320448947806174278e-01,-6.531671191564072942e-03,4.211340301663696675e-03,5.860920447260473815e-03,2.006515488028526306e-02
7.059977368340339954e-01,5.136115444467099778e-01,6.802144197386180702e-01,-1.150086157479125694e-03,-1.133903767618955720e-03,-1.428092114016447575e-02,1.825829446315765381e-01
6.248153547584962553e-01,6.402142325522917066e-01,6.305656254560478846e-01,-2.837573512479317148e-03,2.540894109720648070e-03,5.137180754696535172e-03,1.744531840085983276e-02
5.890967909082367449e-01,6.504073902692668607e-01,6.563162366293213701e-01,-6.780678940820856170e-03,6.533835278969161997e-03,1.549788209718655149e-02,7.171288132667541504e-02
6.363669668412191838e-01,6.177802071734290745e-01,6.539516194154452178e-01,2.510746377213788315e-03,7.262699884934280432e-03,-2.599559975361803461e-03,3.433590754866600037e-02
6.322267793845474104e-01,6.370522817561996565e-01,6.318780424780108262e-01,-2.424793445442786563e-03,4.968656691005319051e-04,-1.793689880597050253e-04,6.600449793040752411e-03
6.802364334861530359e-01,6.062689300646135759e-01,6.597964649180928509e-01,2.638320827796161467e-03,1.955898914404976402e-02,-2.233893550802510536e-02,8.392091095447540283e-02
6.965278445143457953e-01,5.535661660066297785e-01,6.118317050368700105e-01,1.730550112334736795e-02,1.853469124149242919e-02,-5.918922403549950473e-02,1.671595424413681030e-01
6.512925548841602685e-01,5.647917109982446560e-01,6.865431581728311805e-01,1.169688622779287493e-02,1.319883582469309541e-03,-3.688267588973584161e-03,1.105924770236015320e-01
7.926098669432000143e-01,5.703104343027893819e-01,5.540940860963387005e-01,-2.398794867841952914e-03,3.103364056395509565e-02,-1.407502279653991828e-01,3.400342464447021484e-01
6.793730172349523588e-01,5.580007996431675110e-01,6.794046403237398168e-01,-3.851967051332022812e-03,-8.023195055959981767e-03,-5.852693170278915058e-03,1.227821037173271179e-01
7.052991264229953039e-01,5.644112724774692502e-01,6.495114622716045005e-01,-5.206456873881906656e-04,5.550984520058088734e-03,-1.203689981124567154e-02,1.250190436840057373e-01
7.063232499671664444e-01,4.682603783115762974e-01,7.063049065196914666e-01,2.899906605353123803e-03,-1.046661418055075746e-03,5.120904480637300700e-03,2.382787168025970459e-01
6.486999323436173359e-01,5.667310360589280505e-01,6.965641868931314873e-01,9.080960401778854010e-03,-6.630832236587715263e-03,4.041172027509214518e-03,1.155921965837478638e-01
8.009358038819068826e-01,5.822309531944732663e-01,6.575120976803179307e-01,3.608395994434670379e-02,2.725530322990732390e-02,-1.370863682684412832e-01,3.155114054679870605e-01
5.845056658074598843e-01,5.774199328019250510e-01,7.287425914363854229e-01,-2.241630621890253472e-01,-1.467870556765506762e-01,-1.012202333194793386e-01,5.176868438720703125e-01
6.982956588121986830e-01,5.711643272831773421e-01,6.325572785925942521e-01,2.499101102549816395e-03,1.543901919518955550e-02,-1.941308135220091644e-02,1.182832717895507812e-01
6.519923703396381942e-01,5.842046404673173488e-01,6.712344955011253500e-01,-8.760770462720456758e-03,-1.100999315244658404e-02,-4.829704989649408198e-03,8.326888084411621094e-02
6.459802858916273705e-01,6.261816049909860737e-01,6.221883043636329269e-01,-7.289513029886601075e-03,3.859843883038812165e-03,3.760255594898342501e-03,2.708359435200691223e-02
6.399938618749063668e-01,6.315923791709855406e-01,6.276339229001386411e-01,-4.766067527071729711e-03,2.034812920953719961e-03,2.049261231971217113e-03,1.458345633000135422e-02
6.473025945524168989e-01,6.275886422461922631e-01,6.258818292309757947e-01,-4.171902514745406791e-03,1.741913932161227863e-03,6.985772339919312218e-04,2.209032140672206879e-02
4.912641428133749377e-01,7.652602798024081832e-01,7.457503317603644266e-01,4.669634988445160034e-02,-1.095870626338569520e-01,1.767290546561436568e-02,3.370689749717712402e-01
5.602501429862161153e-01,6.929425347020246040e-01,5.259172307919192102e-01,5.833450752663128791e-02,-1.211213993401170502e-01,6.835340235898987316e-02,3.026189506053924561e-01
4.808057546252758052e-01,6.957331404248064954e-01,6.926618902017361856e-01,3.907620780944273675e-02,-4.997925697257044747e-02,1.310781013715858409e-02,2.411082535982131958e-01
4.175433685317048171e-01,7.378624527428809809e-01,7.235893619798526855e-01,3.068190389098705492e-02,-1.916265546916759779e-02,4.369698788690881686e-03,3.197172880172729492e-01
4.237735790935689972e-01,8.011053981081477371e-01,7.988333684355956033e-01,-3.110546672144838543e-03,-7.004819296827462238e-02,-8.263116723646020748e-03,3.955771327018737793e-01
6.157605464932673911e-01,6.129429833924014970e-01,6.701605826186692871e-01,-4.080793331781565857e-03,-3.628513526545767368e-03,-1.180989605420330749e-03,5.669408664107322693e-02
4.173793351176069422e-01,7.353887060106079065e-01,5.536085350469629462e-01,-1.086477477108250822e-01,-2.611666265728198599e-01,-8.909916594073281904e-02,5.832831263542175293e-01
5.982407580284440085e-01,6.607483180451069193e-01,6.402695649136321832e-01,-7.241659016635672991e-03,-1.635309854202498039e-02,-1.610643541938312426e-02,6.916896253824234009e-02
6.158868564741202256e-01,6.699405569233169988e-01,6.225829489102110426e-01,-2.557709931073094516e-03,-9.180238129913751918e-04,-4.239749274895794617e-03,5.177617073059082031e-02
4.786446224693512441e-01,7.124392543022458613e-01,7.305189943309094991e-01,-1.663243022609571780e-03,-9.278615250072262677e-02,-1.716798784243831963e-02,2.931451499462127686e-01
2.577086076622497890e-01,8.308258512266561979e-01,6.842692862941825993e-01,-2.776986799405668435e-02,-1.721242984816405974e-01,-2.303965617551673693e-03,5.976268649101257324e-01
2.429410959043344920e-01,7.959209992935361022e-01,7.948583613302577788e-01,1.044850998251596469e-01,-1.270004661850767935e-01,-2.935393621636206082e-02,6.236377358436584473e-01
6.376828441858409802e-01,5.900850414828352486e-01,6.719385375319933962e-01,1.987320283648795829e-02,-1.697376621288663318e-02,5.720824173102545540e-03,8.495199680328369141e-02
6.598481936520458335e-01,4.745864862977068332e-01,6.619732424342441579e-01,1.603248208185415191e-01,-1.057425731075525566e-01,1.719739084737087198e-01,4.838406741619110107e-01
7.681892493579793868e-01,4.378088102172904561e-01,8.127158256390150104e-01,1.695953832674132189e-01,-1.945175612850127966e-02,2.362720960068021014e-01,6.170421242713928223e-01
6.268501403354050927e-01,6.869882461176082256e-01,5.950084788616200049e-01,-8.186814292918529650e-04,-5.356064301218948880e-03,-5.212277796701199990e-04,8.145102113485336304e-02
6.160580614547791489e-01,6.096294565202977633e-01,6.773889986197868529e-01,-2.638238390834841702e-03,-7.029199650670696440e-04,-4.392975702871270978e-04,6.496172398328781128e-02
6.112210643421246425e-01,6.758082477707886282e-01,5.898738329987383011e-01,-4.691959997864033477e-04,-2.667521505546113433e-02,-2.608267751461314991e-04,9.023043513298034668e-02
5.914108998369262959e-01,6.308770320591189362e-01,6.525030429694737011e-01,1.346060450106239571e-02,3.641573640550579537e-03,-1.162334932086404524e-02,6.218849122524261475e-02
6.716975104495175319e-01,5.544975138253919189e-01,7.170711059630723305e-01,5.457891530399176100e-02,-1.204370590918995253e-02,1.747649062536994063e-02,1.772015690803527832e-01
6.593920530972154914e-01,5.614257869946056578e-01,6.757772918884950020e-01,1.703959745560267719e-02,-1.430499394744701516e-02,6.906644437470810423e-03,1.144513562321662903e-01
7.601317902987209107e-01,5.373277254552267790e-01,7.222364395266254178e-01,5.594346812962091436e-02,-4.005165092783097985e-02,1.008085443160476741e-01,2.955046296119689941e-01
6.477119831661130034e-01,5.706397388068707999e-01,6.753411972892470194e-01,3.975636658947837715e-02,-1.725647692605177669e-02,4.560690495599922789e-02,1.439026892185211182e-01
6.469287623427919520e-01,4.840737000780924171e-01,7.743005209366662367e-01,9.986285217783706647e-02,-1.866152477229035545e-02,4.367541120214780276e-02,3.165021538734436035e-01
6.212765643022235551e-01,6.192765421555064265e-01,6.616163907733130234e-01,-8.868088470456906387e-04,4.654473857984576732e-03,2.780271909743625876e-03,4.245613887906074524e-02
5.910534716840687430e-01,6.229156028644420307e-01,6.801574516115049818e-01,5.739673164803246394e-03,-3.888137905048064114e-03,1.203566555605755511e-03,7.914671301841735840e-02
6.277970920848853220e-01,6.270479225202532092e-01,6.455654953744343061e-01,-9.025833196895680999e-04,3.430666784472226512e-03,8.238807850645768569e-04,1.921920105814933777e-02
6.260844180874944875e-01,6.284058196728641299e-01,6.604816640388149196e-01,-5.097087789738442322e-03,7.519151527085194894e-03,9.713370270306794993e-03,4.048841819167137146e-02
6.020750533145621253e-01,6.695626526814613122e-01,6.270126381372588265e-01,1.768518335822338644e-03,-6.289205993957249809e-03,5.880778970615258006e-03,6.103505194187164307e-02
7.123915069220536633e-01,6.611330069551839550e-01,5.157117891204454629e-01,-2.790685435527899202e-02,4.223250656957661109e-02,5.900299615599724490e-02,2.221711724996566772e-01
6.297355066457395179e-01,6.421146151222584253e-01,6.276434055022824809e-01,1.168342471479778127e-03,1.083704362063348707e-03,1.487789812792294402e-03,1.406330056488513947e-02
6.208123632212894094e-01,6.263459254541955401e-01,6.529823244382710890e-01,-3.529097915780920851e-03,3.086896053895640552e-03,6.854808853924669251e-03,3.308213874697685242e-02
7.766854394130509043e-01,6.597106037907229936e-01,3.044643139799818599e-01,-8.395369869425821363e-02,-1.447250533555346774e-01,-2.324768243253526878e-01,6.538769006729125977e-01
6.615937638129597564e-01,6.731804423511950075e-01,3.589461323736944376e-01,-1.156233000260565996e-01,-2.200399324943320412e-01,-2.124077133137179385e-01,6.449391841888427734e-01
7.321517646959821990e-01,7.839311285773308269e-01,4.270701232704226524e-01,-3.859813947071208395e-02,-9.227608965698649857e-02,-7.428818933351144516e-02,3.976469933986663818e-01
6.486766641278345347e-01,5.296304591848062238e-01,6.930336069337702520e-01,1.244682757208543690e-02,-5.808609199693259492e-03,1.765290273981662272e-02,1.513965874910354614e-01
8.199704537194908438e-01,7.303006821196955656e-01,4.090183808373176744e-01,-3.487708924941729932e-02,-7.404311441085739687e-02,-1.052357760512844104e-01,4.397640228271484375e-01
6.917836525267523351e-01,5.445615490335815601e-01,6.984026918957655372e-01,-2.975090821896400964e-02,2.240521738532924578e-03,2.773406198670053460e-02,1.663447320461273193e-01
6.795789162458771848e-01,6.146459978879654784e-01,6.100845058849487801e-01,4.437677268924123861e-04,1.544126897663765485e-05,-1.648402674716629122e-03,6.739454716444015503e-02
6.182241686887928189e-01,6.224485719063538314e-01,6.612688817179335210e-01,1.513989986519200621e-03,-9.852892343468662179e-04,4.564118090559002826e-03,4.196590557694435120e-02
6.347891600420466629e-01,6.333701959829520778e-01,6.312455804852108443e-01,-2.195029125255181911e-03,-9.331952633899987751e-04,-9.604962524189601105e-04,5.420044530183076859e-03
6.335976268491774199e-01,6.353815912442578595e-01,6.318323626565146567e-01,-2.064593363804921936e-03,-7.186972492748151115e-04,-7.809361159684380643e-04,5.061092320829629898e-03
6.313516212323785348e-01,6.271242529749250227e-01,6.479175092755654619e-01,-4.700209736686280018e-03,-5.337910442870499352e-03,-6.876745535422084353e-03,2.561159990727901459e-02
6.346130017938310663e-01,6.291140172091542748e-01,6.350496544310099134e-01,-2.869057451900781062e-03,-4.280928513466582437e-03,-2.271269301354153242e-03,1.131283119320869446e-02
6.335273101243309446e-01,6.353819072474912177e-01,6.347745868750410692e-01,-7.804107272312346948e-04,-1.140558644579499868e-03,2.932290723611453692e-07,2.900306601077318192e-03
5.824679293015994075e-01,6.735031688228469982e-01,6.504418317023769047e-01,5.475175159694825600e-03,-8.762437633485664623e-03,9.898947926139066433e-03,8.563928306102752686e-02
6.809936409373740229e-01,6.119789576981450319e-01,6.060622604699408278e-01,1.685854096536072190e-03,3.714503799806494330e-04,-2.948358538137375688e-03,7.239745557308197021e-02
6.839040782748196934e-01,7.021349756471847448e-01,4.786462643923597993e-01,6.316877869156852648e-03,4.062541137799999952e-02,-2.356478049190326683e-03,2.264791578054428101e-01
6.331187812121904512e-01,6.326767670628892226e-01,6.325925169923438673e-01,-6.061577968077520531e-05,-5.854114801065763308e-04,-2.036536378187691482e-03,3.704227041453123093e-03
7.035664875828402387e-01,4.768737507786467988e-01,7.082636958894541479e-01,-4.834302591042291888e-03,-5.916351066831094727e-04,-3.823865246719979592e-03,2.293283939361572266e-01
5.224500938686044149e-01,6.805688726877883177e-01,6.941641233330347882e-01,1.144272902820935543e-02,1.516133090297668885e-03,-6.475293430502642236e-03,1.669177561998367310e-01
6.204506189540170968e-01,6.191256288974457123e-01,6.769921505122001859e-01,1.072958826210747285e-02,7.182186587388137387e-03,-7.928813115109381929e-03,6.294711679220199585e-02
6.151275793212469534e-01,6.124107403056026078e-01,6.755774120985387210e-01,1.724821401385485042e-03,2.918866768681765370e-03,-1.450680102982887824e-03,6.218194216489791870e-02
6.144285974396943573e-01,6.175068931747280665e-01,6.612484319970928226e-01,6.850704138629721413e-03,3.704111332594560782e-03,-5.976596112581332963e-03,4.844135046005249023e-02
8.019368622053824058e-01,5.911987108427502191e-01,6.765308771240340358e-01,-4.663594652077104885e-02,2.023078172143902981e-02,1.351412174073881034e-01,3.102441728115081787e-01
6.190834912818525826e-01,6.177739745744331712e-01,6.610274141371269563e-01,1.087489868423464900e-02,9.273759116321798890e-03,-6.235186159634373629e-03,5.045160651206970215e-02
6.076815350423759865e-01,6.170673193799314227e-01,6.681147710082533386e-01,8.542208785260073031e-03,2.681698366944808894e-03,-6.355399975435516505e-03,5.945343896746635437e-02
6.853902581326838384e-01,6.337472746512738953e-01,6.127912773384061040e-01,-2.084629922379374264e-02,1.196241782732032806e-02,2.187028058677035688e-02,8.576894551515579224e-02
6.812911771564889030e-01,5.223161699722737028e-01,7.047162529961134014e-01,-1.099796226368842354e-02,8.411399178069897762e-04,-1.234943736902159800e-03,1.729605495929718018e-01
6.086645539705372032e-01,5.997987136077187476e-01,6.759766728319378526e-01,-2.321682998056943600e-02,1.026955186103292207e-02,1.053582228681652910e-02,8.644517511129379272e-02
6.232171482937565177e-01,5.966935846873274718e-01,6.792018843537526163e-01,-5.180929033311232161e-03,1.243876787300538227e-03,1.083237306835481634e-03,7.356216758489608765e-02
6.218681761426245735e-01,5.950460691667669444e-01,6.820307981175798284e-01,-1.481715723541237595e-01,8.085942280868160803e-02,7.428487857191320987e-02,3.286131024360656738e-01
6.991667485109006597e-01,5.170890911271589507e-01,6.971355458501645730e-01,-4.224167181798865744e-02,8.527700778135912513e-03,3.251349918116085147e-02,2.037871181964874268e-01
6.562299489306135936e-01,5.691806800744112493e-01,6.614711270528710330e-01,-1.493978273374050626e-02,1.448079103914391361e-02,1.506604605048834228e-02,1.002043634653091431e-01
6.619338689252660668e-01,5.890413218383188099e-01,6.507002977592118986e-01,-1.204424035152914033e-02,1.575067754829151401e-02,6.972825072544883498e-03,7.711015641689300537e-02
6.890540242042091368e-01,5.460706907314211156e-01,6.567785397064580533e-01,-7.241925856708580564e-03,1.370189412633184174e-02,2.476958309576627465e-02,1.393995881080627441e-01
5.212938401212781070e-01,7.041659322956411726e-01,6.789524089145350105e-01,-2.705392220354107830e-03,-9.412785456628235126e-03,-5.936493090801543519e-03,1.728020757436752319e-01
6.347681124030262190e-01,6.293991465350734504e-01,6.261760800658159321e-01,9.556608867788890516e-03,8.701804421735353720e-03,-7.802534897413694430e-03,2.720859460532665253e-02
6.467906615211881372e-01,5.643046526452519807e-01,6.872937849007833000e-01,-7.859380077318530930e-03,-8.741024760671730481e-03,2.483856211576664173e-03,1.105369627475738525e-01
6.347307483137564210e-01,6.334811050029388602e-01,6.355999888573062861e-01,3.680588542693184490e-03,1.813524366032558165e-03,-4.290240925619751705e-03,1.044647023081779480e-02
6.279813639921699719e-01,6.257987642703255471e-01,6.474740981045349342e-01,9.848608588637725817e-04,3.636213197808937318e-03,-1.035117279654102721e-03,2.175007201731204987e-02
6.303904440688901101e-01,6.323690714324932127e-01,6.348455730836508604e-01,1.117431066284005521e-03,4.384632974349091604e-04,-2.137609216555655302e-03,5.742728244513273239e-03
6.274662927114186273e-01,6.324285941439117265e-01,6.400633986999171299e-01,1.637822526824773191e-03,1.919893859056114862e-03,-5.308248021060569741e-03,1.498127914965152740e-02
6.537434154752652660e-01,6.288915904572582871e-01,6.221880727785117360e-01,7.620564123339584883e-03,3.250109512758478196e-03,-1.828388873925890440e-03,3.232773765921592712e-02
6.353383786414046330e-01,6.526447304808928873e-01,6.050611487152852686e-01,1.244267534776135296e-02,8.149566662494377514e-03,-4.655519894461859938e-03,4.968840256333351135e-02
6.268826416692806491e-01,6.452626632845996912e-01,6.237395972893159390e-01,7.009604814358692468e-03,6.197468949267758397e-03,-4.605412467111382260e-03,2.705054916441440582e-02
6.319552561720106487e-01,6.119101009415167658e-01,6.507197358996987813e-01,8.479817135031108427e-03,-1.177497432278574140e-02,5.970030472561263860e-03,4.322784394025802612e-02
6.219667501947808708e-01,6.456940835033662118e-01,6.230796581241013765e-01,2.842050095919971230e-03,5.090814927614536328e-03,-5.365177389508519676e-03,2.694726176559925079e-02
5.777043164419125576e-01,6.323071783596514450e-01,6.875889066591744925e-01,1.926795980325569577e-02,-3.043085266198452122e-04,1.268906233439702014e-03,1.008709743618965149e-01
6.270548660057038148e-01,6.598342546268769482e-01,6.251298561328652026e-01,7.734183105851792986e-03,5.526836451909810169e-03,-6.862717829299258554e-03,3.941669315099716187e-02
6.771391514348296115e-01,6.170964146829835961e-01,6.187894372061005788e-01,-4.061617015325467463e-03,4.884262809723284408e-03,1.144484539030030286e-02,6.340626627206802368e-02
6.552920004345366145e-01,6.263540874707169692e-01,6.221138842715951967e-01,-8.236482243589251032e-03,1.670932880502373026e-03,4.931660272924155534e-03,3.553791716694831848e-02
9.660995331046745571e-01,4.580509704503089585e-01,7.856928027967745587e-01,2.065345869847233159e-02,-1.512625570085980890e-03,-2.528878156377606934e-01,6.262170672416687012e-01
6.770294760775892318e-01,7.070812879957247832e-01,5.145638389541963287e-01,4.622063729987971152e-03,1.221810367470413557e-02,-4.064432270862980250e-03,1.809477210044860840e-01
6.616037855547166613e-01,6.222354617647375408e-01,6.193857519677917756e-01,-3.006077696183045468e-03,5.376484804503987034e-04,1.256591779863603861e-03,4.126606136560440063e-02
6.683690594868363366e-01,6.145045282438595935e-01,6.080162366967967191e-01,-6.452415318333416458e-03,3.739500542295289172e-03,5.744006877477210969e-03,5.965574458241462708e-02
6.518962409739577080e-01,6.978503812604890388e-01,5.544397986173178472e-01,-7.586017248081809456e-04,1.080493752360961283e-02,1.081104790772364285e-05,1.282186955213546753e-01
6.337891228611319816e-01,6.470974250512093739e-01,6.318520116348913529e-01,7.388159773862122866e-03,4.773170495238928182e-03,-4.750745750004579937e-03,2.250457555055618286e-02
9.375542849578889504e-01,7.225576180790566072e-01,5.302414075413481864e-01,4.762466942572085582e-02,-4.812393271983354121e-02,3.044511750059237243e-01,6.452751755714416504e-01
6.042173742464368447e-01,6.331537316992164044e-01,6.744393723721724410e-01,5.386496537930431268e-03,-3.008143263739145989e-03,1.261684642039815826e-02,6.578918546438217163e-02
6.315536166182582622e-01,6.348168044673434540e-01,6.325205286292510110e-01,1.048179955225814674e-03,2.512256879903361365e-04,-1.426737513152605014e-03,4.245023708790540695e-03
6.231627551161388334e-01,6.446436912912548722e-01,6.306326962461829000e-01,3.610358651610860031e-03,3.145073076030922843e-03,-5.578410914038274548e-03,2.277946099638938904e-02
7.044337899772313838e-01,4.912214329150472736e-01,7.028670377494773414e-01,-4.427401320485100343e-03,2.471138083007355223e-03,5.952679843471555404e-03,2.128646075725555420e-01
7.069569013950326442e-01,6.931844735687334724e-01,5.034991821524984479e-01,-5.972225211821588324e-03,7.389493431395706934e-03,2.492767424194007597e-02,2.022809982299804688e-01
6.280129659998074931e-01,6.416825281230673639e-01,6.309557244616802452e-01,2.719053676362656775e-03,1.790692003798781580e-03,-4.407636809248324967e-03,1.566434837877750397e-02
6.259168118240301393e-01,6.406919481083808154e-01,6.294273712650489960e-01,2.848731284212075061e-03,-3.831395523003504680e-03,6.001262520520938247e-03,1.884647831320762634e-02
6.744252162842052645e-01,6.162673837712716596e-01,6.132038611455132848e-01,2.269130369892474568e-03,-8.818253217673507546e-04,-1.460920791088375246e-03,5.995055660605430603e-02
6.180124964360341755e-01,6.586348267636297216e-01,6.214942473044685611e-01,1.526876959697586519e-03,1.988287024228090928e-03,-3.879209918968699530e-03,3.981027752161026001e-02
6.221002991204158672e-01,6.780939235562927214e-01,6.196777349421297432e-01,8.982833184352331107e-03,9.467606454556569406e-03,-7.807934525529977056e-03,6.301329284906387329e-02
6.820560376408035808e-01,6.937310495783788333e-01,5.136944119263939790e-01,1.003606059437650317e-03,1.347713304178144514e-02,-6.914908735742577965e-03,1.764622777700424194e-01
6.118331914213578360e-01,6.744126645713327539e-01,6.159365573173524178e-01,1.662606350337526634e-03,1.917759147779671963e-03,-3.457223288274498176e-03,6.108539178967475891e-02
6.758251930210855685e-01,7.084291392093292616e-01,5.338987464890001533e-01,7.379029338078358334e-03,2.980780703154950126e-02,-6.852788930700804901e-03,1.697151809930801392e-01
6.399829535038290551e-01,6.269522376366201133e-01,6.332258846786449347e-01,-2.914353567643374315e-03,5.306932181167720898e-03,2.458852087476118883e-03,1.598489657044410706e-02
6.207324036589817462e-01,6.690935728184241871e-01,6.107898765164954114e-01,7.591898949426322853e-03,6.634506314069467565e-03,-2.998889635374367077e-03,5.701253935694694519e-02
6.029457003047344887e-01,6.319557551646718396e-01,6.779021741352666552e-01,2.746640827418754191e-02,-8.531236517527551397e-03,1.104803770301542032e-02,8.445885777473449707e-02
5.772173865383024571e-01,6.836170154369287655e-01,6.309975826650164876e-01,8.307753178197849891e-03,-1.335047231493875775e-02,1.065897430144822217e-02,9.784477949142456055e-02
7.022100443854227825e-01,5.439559631165780118e-01,6.830504184325790762e-01,-7.628730180172569805e-03,5.496174631379202764e-03,7.675810191065148870e-03,1.510672867298126221e-01
5.990793064282710079e-01,6.644625631967755464e-01,6.351579101040647490e-01,1.292812240011621643e-02,-2.553716229891667827e-02,1.424549581351493462e-02,7.927389442920684814e-02
5.685712877576056812e-01,6.740491736234016651e-01,6.708322070489201039e-01,6.632614281992643863e-03,-1.381684390217831002e-02,1.238628056434062236e-02,1.093689352273941040e-01
5.756890678827191188e-01,6.635186859114298175e-01,6.709450091996238541e-01,1.085435472832564294e-02,-1.125862207401382570e-02,1.099861937782354963e-02,9.756061434745788574e-02
5.887121869245519612e-01,6.525485210331246622e-01,6.601367139543423690e-01,3.488396860100426156e-02,-3.712204763774110128e-02,2.200138486750602765e-02,1.177032589912414551e-01
6.993706365767574651e-01,4.912020313444042108e-01,7.077745370678211190e-01,-4.427564866801397304e-03,2.401616901723146753e-03,5.952899732925893798e-03,2.129240334033966064e-01
6.265945322526389472e-01,6.856709870397512674e-01,6.009621694413000981e-01,1.739431520116938501e-03,3.461053185403310112e-02,2.274211699352433164e-04,9.625078737735748291e-02
6.818118577163353455e-01,5.157217284695491122e-01,7.035175262376113237e-01,-1.375184749200808118e-02,7.620487282061246329e-03,7.825190435473680650e-03,1.805198639631271362e-01
6.820784037491224305e-01,5.410021129438657983e-01,6.749426045251690764e-01,-1.287583009131836563e-02,1.350858094995036236e-02,1.073209323855954869e-02,1.426081657409667969e-01
5.292986182035993581e-01,7.078544611029605749e-01,6.769818001723935108e-01,1.910612951733105247e-02,-7.112415097955569754e-02,2.364038377892507467e-02,2.127686291933059692e-01
6.311804107505210037e-01,6.843536303799624410e-01,5.943206489359256217e-01,-5.804459507230235772e-03,-3.460002628477214931e-02,-7.786262832273241168e-03,1.001020669937133789e-01
5.432913630949794959e-01,6.999590301861497998e-01,6.806882961802556142e-01,-4.353927066194092366e-03,3.113844313558614477e-02,2.558690250012178678e-03,1.577413678169250488e-01
6.275366455730646553e-01,6.542830610345342635e-01,6.223721142492857350e-01,-1.821367730619811130e-03,1.610669066053825290e-03,1.295992509948415026e-03,3.004911914467811584e-02
6.494316001365842972e-01,7.344669626429306541e-01,4.628570888466378985e-01,9.247894364343933749e-02,-1.384420282014469927e-01,1.565519673828248970e-01,4.632361233234405518e-01
6.461239250291204161e-01,7.107663289666561468e-01,5.315796446360468996e-01,-8.070650232587716570e-05,-3.103070605107072569e-02,-3.553399173027787464e-03,1.662229299545288086e-01
6.046051286892437648e-01,7.016893802769818000e-01,6.323090095451776582e-01,-9.448891733904790299e-03,-3.252425421453238041e-02,-9.538529189593471583e-03,1.059128120541572571e-01
6.245645370584791412e-01,6.862981452143183114e-01,5.931651209018895532e-01,3.017128277121629287e-02,-3.166587841403611242e-02,1.883488845294827366e-02,1.163560152053833008e-01
4.784897162986270769e-01,6.380254871388053584e-01,6.164900698728174033e-01,-1.599436480256981596e-01,2.086534480218392718e-01,1.393336516753325982e-01,5.367271900177001953e-01
6.261211578440435410e-01,6.907268680432016028e-01,5.810475788273870013e-01,4.358187620586301443e-03,-1.866664273681729533e-02,7.243408101077608748e-03,1.018687859177589417e-01
6.339282998510508138e-01,5.990821609930832015e-01,6.892240382642718100e-01,-2.832490322463740093e-02,-8.940690253148543196e-03,-1.035567147493464228e-02,9.574519842863082886e-02
6.534542619540433250e-01,5.901617339615182756e-01,6.906759937650996939e-01,-4.001001475252217304e-02,-2.699820053162721792e-02,-3.572471769451850132e-02,1.362539380788803101e-01
6.128680443181510062e-01,6.780744348240042019e-01,6.100986253053493069e-01,4.777036835217987349e-04,1.743149038033171058e-03,-1.391411559173665654e-03,6.675129383802413940e-02
6.135471999407078325e-01,6.095477828860288438e-01,6.774955705482829105e-01,-1.647260810715606627e-03,1.729634978682219272e-04,1.065423516503541780e-03,6.612700968980789185e-02
6.141749237208167234e-01,6.161124305656522360e-01,6.862770692510186121e-01,1.548811619174591918e-02,-1.391105338676590052e-05,2.391413623778307438e-03,7.615495473146438599e-02
6.270783696597580503e-01,6.075149428882726799e-01,6.721526689388628295e-01,6.059086046070923104e-03,-8.274554568952801475e-03,2.082844628955248922e-03,6.020618602633476257e-02
6.138003821180164632e-01,6.160648584124055471e-01,6.710766900195459517e-01,1.992232540487253248e-02,-1.210014438209590024e-02,1.572584330965400359e-02,7.434949278831481934e-02
6.091719844502150316e-01,6.139210121484758309e-01,6.816913875217873731e-01,2.265205207222828476e-03,-1.789303094692913079e-04,-3.181574211213850610e-04,7.037764787673950195e-02
6.118707929590723182e-01,6.156680246111977395e-01,6.764579724571120334e-01,1.719879436007769498e-03,-1.143281704206236841e-03,2.977770658901748076e-03,6.308776885271072388e-02
6.152250666888305908e-01,6.375695580661586703e-01,6.523503031335607938e-01,2.079544259949519820e-03,-2.463786331764238838e-03,9.808299520173150571e-03,3.698388114571571350e-02
6.131596983893801145e-01,6.004290852131005662e-01,6.796949767063448222e-01,1.145707083465644614e-02,-1.362013218421249863e-03,3.452020137701372854e-04,7.639216631650924683e-02
7.067717478955310995e-01,6.626117155684612126e-01,5.079495881561578718e-01,-3.341685591368034891e-03,1.190694175409994816e-02,4.745213885453244268e-02,1.997856646776199341e-01
6.359771945749066457e-01,6.365057564282133873e-01,6.358625549759842066e-01,3.517928236444280415e-03,3.727948998618252786e-03,-2.700921567247554275e-03,1.005277689546346664e-02
6.291535394771320400e-01,6.357978788565158412e-01,6.351474898410518488e-01,2.277067598100383696e-03,2.392423274242036924e-03,-2.782290967618077874e-03,9.808081202208995819e-03
6.308113250267548544e-01,6.357235108580131522e-01,6.337202070742156135e-01,1.894568631152529015e-03,1.202733208176201204e-03,-1.866733556774749546e-03,6.623001769185066223e-03
6.876948239603573043e-01,5.972130006307205807e-01,6.271785526548548928e-01,-2.838059107878127419e-03,4.041312448389961474e-03,5.706482644599511489e-03,8.089752495288848877e-02
6.327856020959652383e-01,6.356845600384083417e-01,6.312727125638637471e-01,2.229338663550777238e-03,1.005977916534751219e-03,-1.532559166481783615e-03,6.330137141048908234e-03
4.096754393570102848e-01,7.389938319038175107e-01,8.214384514641093205e-01,3.169008055174214467e-01,-5.678302713675025849e-03,8.181574496593302381e-02,6.810688376426696777e-01
6.352811148752138815e-01,6.358616740694426062e-01,6.292507999864059842e-01,3.581310592041630440e-03,2.338018957266826871e-03,-2.109766465557933682e-03,1.041308790445327759e-02
6.136606674559395014e-01,6.767378086820843297e-01,6.159350308888179582e-01,4.136432377758195926e-04,-2.182407784939294475e-03,3.374338485948496450e-03,6.236504390835762024e-02
6.096621649656710495e-01,6.815674368789734761e-01,6.138135840341445437e-01,-2.310447607720691944e-04,1.580904762325783608e-03,-4.697878183476026748e-04,6.998152285814285278e-02
6.135866829460773220e-01,6.805348104228978734e-01,6.074785577181237572e-01,-3.390307162679272786e-03,6.500371947597714285e-03,2.800749331008382977e-03,7.150571793317794800e-02
6.153607618311399685e-01,6.692301309408651422e-01,6.154582513841253544e-01,2.146615393013466110e-03,-5.993271841392386638e-04,1.504949766161391492e-03,5.402187258005142212e-02
6.128911575190716388e-01,6.767565324627575762e-01,6.161509448418197588e-01,-1.075815788655717052e-03,1.154672076903369123e-03,2.386760652546809046e-03,6.249629333615303040e-02
6.333057638800513311e-01,6.312634368796742335e-01,6.326551750031212951e-01,6.479071451202422956e-04,-2.210148994796812955e-03,9.713884264347645656e-04,4.691488575190305710e-03
6.778752405176416973e-01,5.654661737511147424e-01,6.498097263665557621e-01,1.170194711429298337e-03,-9.906522672572710270e-03,9.715872882261476079e-03,1.041651219129562378e-01
6.130740062180501937e-01,6.792652914609760284e-01,6.045469623353967314e-01,-1.668990299327285584e-03,8.210026284491776100e-03,1.033320099419647977e-03,7.233384996652603149e-02
7.554008326517869243e-01,7.872806443113217201e-01,2.754935660796958286e-01,-1.134747707520090097e-02,-1.910428704062852867e-01,-1.127126579822897295e-01,6.281858682632446289e-01
7.686648717530648600e-01,7.605852351898915176e-01,4.421544144587707392e-01,-6.929658372913329555e-03,-5.560941998161991751e-02,5.234592398468872199e-03,3.369566202163696289e-01
6.459196316619842948e-01,6.878332960680521024e-01,5.299988115824608714e-01,2.219623848171995567e-02,-4.072804050621853938e-02,1.272761679071413195e-02,1.642965972423553467e-01
6.967098538304271615e-01,7.050365208427793462e-01,5.333962068754349861e-01,2.057594171562433360e-03,-3.181192220535662002e-02,-6.849520319313634996e-03,1.768897473812103271e-01
6.573960490897604592e-01,6.786531453870152664e-01,5.508086366935162070e-01,1.624540200294509115e-02,-3.024448847460532025e-02,6.266315692853563317e-03,1.331623345613479614e-01
6.762277730806883769e-01,6.124035875997950740e-01,6.173124325101220222e-01,6.512089392472471608e-05,1.375301774743243298e-03,-2.469934143997155364e-03,6.171150133013725281e-02
7.981588313312293348e-01,4.415654485658496720e-01,7.864994745473081750e-01,-8.107372353543865900e-03,1.531683702186442675e-02,-5.844703145204083183e-02,3.664509654045104980e-01
6.539800764713317172e-01,6.304680574783133595e-01,6.114668142986664501e-01,8.581101994667810623e-03,-2.924584196061338643e-03,3.923110818819561252e-03,4.066150262951850891e-02
6.661923830022532522e-01,6.968541622600685770e-01,5.438338437856389262e-01,5.753276005182074264e-03,-1.879126031079325285e-02,4.997612588872837013e-03,1.445581167936325073e-01
3.519631862024126812e-01,7.433750554721207937e-01,7.544203258154303926e-01,8.025829810542691942e-03,-4.336618493809645501e-03,-1.581028221794893510e-02,3.983064889907836914e-01
6.902765768689705927e-01,7.227165118492838713e-01,4.782626462519821708e-01,-4.236358938323491787e-03,-4.741818615961936739e-02,-4.955620406804684547e-03,2.444441467523574829e-01
7.579818949454648624e-01,7.722764832158285353e-01,3.879601408070083579e-01,1.869416948891328839e-02,-1.509825574115638289e-03,1.492496434955244144e-02,3.796488642692565918e-01
6.252475775969386085e-01,5.995793312256434415e-01,6.699833487788680042e-01,-5.019525628886369571e-03,5.406416820209217211e-03,5.414722635244837920e-03,6.371553242206573486e-02
7.212929920891305580e-01,7.232844628101091633e-01,4.615548022985417331e-01,-5.949113564644203586e-03,-6.450972002683140298e-03,1.016658415757024005e-03,2.611882090568542480e-01
5.372251723912597754e-01,6.898200203673654496e-01,6.790963470092727938e-01,-1.970727972018539859e-02,-1.244158202353976353e-02,-1.154819635315393160e-02,1.542510986328125000e-01
7.166877679515274435e-01,7.122174813755638434e-01,4.764719433172656671e-01,1.185146873422077271e-03,-9.865182311750554309e-03,6.567257867815974419e-03,2.389044910669326782e-01
7.189531646266114073e-01,7.207096906486742949e-01,4.802756602840608791e-01,-2.255213243026129005e-03,-6.158975727272241255e-03,1.068613422201911177e-03,2.398369461297988892e-01
7.014857176905029412e-01,4.811379826974387930e-01,7.084982706137482600e-01,5.730318614487995080e-03,2.452576988362444119e-03,-5.131537024826725128e-03,2.243725806474685669e-01
6.129734594073801279e-01,6.807517436931306287e-01,6.111386206975124580e-01,6.477275499864884947e-04,1.486448743457732466e-03,1.229121825918418195e-03,6.880439072847366333e-02
6.160939455718783542e-01,6.830732539243615786e-01,6.179710737541633803e-01,3.092626940901119399e-03,1.352379330651215517e-02,-7.357728915800673588e-04,7.030660659074783325e-02
6.123818517133761130e-01,6.734689126252795255e-01,6.163180809169152008e-01,6.878669168303893624e-04,1.820827730633652010e-03,-3.060148325244215622e-03,5.954938754439353943e-02
6.142965904067053673e-01,6.765224276823466054e-01,6.021465485669537099e-01,3.933626114002918180e-03,8.419294483393497883e-03,-1.125476672740686329e-03,7.098308950662612915e-02
6.170045156475647552e-01,6.579974169504313464e-01,6.176207322985125536e-01,1.183660185330531224e-02,1.282444013103665320e-02,-1.109736794272464175e-02,5.420983582735061646e-02
6.408073216867141708e-01,6.086936471394976955e-01,6.375301094005736413e-01,6.390800754438769569e-03,1.146407960572517863e-02,-3.933284011081075726e-03,3.872982412576675415e-02
6.255552070726801972e-01,6.471205542540833244e-01,6.285121327567683158e-01,1.227681619969240223e-03,1.483621252656558507e-03,-3.093154834471550322e-03,2.121009863913059235e-02
6.178778541218800102e-01,6.523851333622964210e-01,6.234737223324630095e-01,3.583624456348866779e-03,4.629423122133461029e-03,-6.512267107200935164e-03,3.548265248537063599e-02
6.772562299831794697e-01,6.105427489268228092e-01,6.134161616466109468e-01,-1.344004135921452901e-03,1.452408956757936633e-04,1.626132550431648796e-03,6.542678922414779663e-02
6.160834211322647747e-01,6.599875175888355594e-01,6.230420918954890919e-01,2.708368729815828491e-03,3.263328682168722787e-03,-6.772311762189997357e-03,4.315118864178657532e-02
6.832312303719711988e-01,6.259629433069783255e-01,5.742283883779453202e-01,4.700076411404147266e-04,2.952325996797307132e-04,1.365268092957881534e-02,9.736005961894989014e-02
6.972169426465808506e-01,6.567576156863755843e-01,5.389285579055441699e-01,3.022840218774372045e-03,3.350816808595359457e-04,2.082298533826085207e-02,1.470254063606262207e-01
6.183749448545738936e-01,6.218989463617820013e-01,6.548903310106889419e-01,5.741663606615053043e-04,1.898610309973524941e-03,2.195544083051675574e-03,3.526153787970542908e-02
6.259660568848620654e-01,6.798183221582108082e-01,5.992665878612739583e-01,-3.956374004868691736e-03,5.278685394936589483e-03,-1.076278485935202190e-04,7.198154181241989136e-02
6.643997329545099362e-01,6.152597406974524841e-01,6.174196926869985891e-01,-4.304046374917911560e-03,6.856187477915827271e-03,6.450570300298340103e-03,5.132923275232315063e-02
6.756107214140946171e-01,6.159262726874739080e-01,6.123438262547163946e-01,-2.878682008833787030e-03,1.163946980706321828e-03,1.460392538217348104e-03,6.184016913175582886e-02
6.601245976975232965e-01,6.208206078692587448e-01,6.174033219056278554e-01,-4.175775304841585628e-03,8.667416003299842657e-04,1.208365567172712098e-03,4.182989150285720825e-02
6.684311047272162298e-01,6.088738294479983937e-01,6.163352198259913761e-01,-2.635982799614360224e-03,5.906380005357148022e-03,8.665700252620577373e-03,5.923804268240928650e-02
6.795211427868412812e-01,6.145604714076003949e-01,6.092034895682945095e-01,-7.217151724406497290e-05,-7.861449984403134049e-04,-1.903096115913792841e-03,6.789193302392959595e-02
6.813520415221087090e-01,6.157532798149087938e-01,6.150654441042935350e-01,-4.490200685882290814e-03,2.765755434855239007e-03,1.306333428818400380e-02,7.031484693288803101e-02
6.750438648573111600e-01,6.148614760170437732e-01,6.055953786358712065e-01,-4.396304253395712583e-03,1.797937300405033851e-03,8.127820292386721615e-03,6.731493771076202393e-02
6.542384435440607993e-01,6.219032882071704460e-01,6.217305952888426690e-01,1.982692208358685648e-03,-1.788214762955126370e-03,4.106958973850257017e-04,3.275772556662559509e-02
6.508489585202060779e-01,6.045904888544291200e-01,6.499417167038715748e-01,5.598728548830018623e-03,-1.497221991925228209e-02,5.251050889297829982e-03,5.429513379931449890e-02
6.533881934018719306e-01,6.051458748675987431e-01,6.534473127325818309e-01,5.160858014059527786e-03,-1.242080896711482418e-02,4.611128832733125439e-03,5.419130250811576843e-02
6.817696649910565121e-01,6.135919434930369176e-01,6.094011060301324223e-01,-3.608801673520852611e-04,6.033701922276401555e-04,1.795043677697861443e-03,7.044597715139389038e-02
6.792378925737178053e-01,6.032564654580359065e-01,6.134050305869530595e-01,-5.564329042400560296e-04,1.538801062258052460e-03,9.760760664597089437e-03,7.347732782363891602e-02
6.027813906355818929e-01,6.025004361658761187e-01,6.741723822346318284e-01,-2.322611419722939510e-02,9.746959655001859527e-03,8.165462733775368659e-03,8.497177064418792725e-02
6.199938041157120328e-01,6.053529278437400629e-01,6.756956038969269551e-01,-7.903791339795195742e-03,7.156877224002140478e-03,2.731736047059227842e-03,6.705243140459060669e-02
6.856996409608949739e-01,5.662737118349147059e-01,6.504536281001964682e-01,2.373761559061833126e-03,-6.112740586926367070e-03,1.095453105044757146e-02,1.085566803812980652e-01
6.790413299505236866e-01,6.674842633138119430e-01,5.535734739015832906e-01,3.314838862068540670e-02,-5.943345023456367282e-02,6.322721604065499601e-02,2.007789909839630127e-01
6.043095420537430984e-01,6.387371962835887151e-01,6.663001701589943426e-01,-2.670239577337117989e-02,8.935606657636917596e-03,1.388526483446306942e-02,7.649117708206176758e-02
5.815487244455268545e-01,6.109330411654791959e-01,6.638337883514716653e-01,-4.898482611089376160e-02,2.709742375001407064e-02,2.829934477742970106e-02,1.304618269205093384e-01
6.200982165391415446e-01,6.182594615112594338e-01,6.660380799195035895e-01,-1.095660478746169134e-02,8.514759547192600475e-03,8.875725134805308517e-03,5.488446727395057678e-02
7.159077516425628174e-01,5.493727443902369778e-01,4.588998654147515288e-01,9.428842655599671552e-02,1.605017583872234144e-01,-2.823901641693523090e-01,6.278312802314758301e-01
7.046343858750797606e-01,5.452459711238165641e-01,4.552018838124747835e-01,1.657333379925615136e-01,1.546510113770346029e-01,-2.815827176686909739e-01,6.632378697395324707e-01
7.202520753134871168e-01,4.646091218557718561e-01,6.274495282742712510e-01,1.218920907435649785e-02,6.086967537506351479e-03,-1.110039625442244271e-01,2.962496280670166016e-01
7.261065797209955708e-01,6.650734686801628159e-01,6.300483819451566658e-01,7.784290620136269379e-02,8.690329155726878030e-02,-1.360164086264365746e-01,3.215990960597991943e-01
5.583299575774420820e-01,6.497642334715173495e-01,6.969842016654744787e-01,8.000737291741284729e-03,-5.040127572889203239e-03,7.065673311228519264e-03,1.237961649894714355e-01
6.728178974896205089e-01,5.832446605258969630e-01,6.548317985863737478e-01,-5.748058083117638106e-03,1.289479484325941130e-02,9.249166283566390492e-03,8.712279051542282104e-02
6.533645874808183818e-01,6.141013114374648252e-01,6.369357230834584715e-01,-2.188545824863625394e-03,1.023866187264321596e-02,2.683113202000323577e-03,3.894763812422752380e-02
6.550649065281660688e-01,6.007195645619171076e-01,6.519416197014941128e-01,-6.339406843403232357e-03,9.615336564561415347e-03,6.556252368173341033e-03,5.762219056487083435e-02
4.527432313404605724e-01,7.017029643669140393e-01,7.474350959911044701e-01,-6.818404933029190151e-02,-5.065735231222488755e-02,-5.652597640792993844e-03,3.117681741714477539e-01
6.543937329662609104e-01,6.153642291462912972e-01,6.378884454937573389e-01,2.196071650875672330e-03,-7.896564011119688517e-03,2.206848004230208167e-03,3.698214888572692871e-02
6.802517061304356183e-01,6.131524956118190595e-01,6.042848139634287019e-01,1.253521225847459069e-03,-1.085379242765055919e-03,-5.501609695200710554e-03,7.262923568487167358e-02
6.341972752279613212e-01,6.276028890203874111e-01,6.283671925311212769e-01,-1.083999856210344712e-02,-8.963011313886220729e-03,-8.387758374982613035e-03,2.904508262872695923e-02
6.475836020017049499e-01,6.296755935407061244e-01,6.266541168427468556e-01,-1.722885055750334642e-03,-2.286903953532463778e-03,-1.177316152208710345e-03,2.031471766531467438e-02
6.536726242678182475e-01,6.008560855063944661e-01,6.548468916898357861e-01,-6.342170325812843124e-03,1.025051027133209482e-02,6.563140782307319045e-03,5.846451222896575928e-02
6.335422782697004429e-01,5.988820868024933297e-01,6.534193905500371713e-01,-7.557633352072114750e-03,1.080444926281609250e-02,9.713043750538026674e-04,5.300721898674964905e-02
7.044151448720233910e-01,5.246948681905426737e-01,6.865892040833071475e-01,-9.545881878574043189e-02,-3.354317295873678745e-02,-6.665807290775299654e-02,2.710275650024414062e-01
6.243821275609097166e-01,6.547182630655058455e-01,6.180919307810591734e-01,7.063405804472848611e-03,-3.941855437842769171e-03,3.281843208194618229e-03,3.713851422071456909e-02
6.509847116136603384e-01,5.646338188363302368e-01,6.863096557856206426e-01,-9.730890313948980380e-03,9.940406951326132175e-04,6.184401199098482670e-04,1.097399219870567322e-01
6.361865099427934656e-01,6.311001207894472165e-01,6.320024449610373019e-01,-1.407200601783981314e-03,-2.682731618868565166e-03,-6.486405843230912387e-04,7.133719976991415024e-03
6.401234476785973015e-01,6.267602106839725851e-01,6.316225543669240494e-01,-2.084362229871929411e-03,-4.913303060697525072e-03,-7.569304954035961349e-04,1.498052105307579041e-02
6.407665867212833932e-01,6.267509645774144156e-01,6.312967770406185952e-01,-2.193150991145559770e-03,5.069147699723166971e-03,1.863651393778338085e-03,1.597897894680500031e-02
6.490092603218796663e-01,6.280633201072195471e-01,6.267248286238786825e-01,-3.877824939991751305e-03,1.338779137643433771e-03,5.580971924123042088e-04,2.280315570533275604e-02
6.797261835920559436e-01,5.964921364824538053e-01,6.269698057249443179e-01,-1.016659824228361179e-03,6.096629931997315155e-04,5.603730158539823106e-03,7.361003011465072632e-02
6.579359503938749798e-01,5.940470808515059264e-01,6.573653528591798523e-01,-2.883301398901848625e-02,1.728793967664914166e-02,2.625434770143897367e-02,9.748937189579010010e-02
6.723078861418275709e-01,5.825766970653137866e-01,6.482524508673762620e-01,-5.756604370109028729e-03,9.901502156995135168e-03,8.807364747154886389e-03,8.425005525350570679e-02
6.896623239374759518e-01,6.098126112262590715e-01,6.266803312981595875e-01,8.608868210639029211e-03,-8.102535444675717374e-03,3.107277384068888801e-02,9.289486706256866455e-02
6.716386329961342438e-01,6.164825568799062738e-01,6.270613512725194960e-01,-1.732574187497038301e-02,2.591821562506322479e-02,4.767668703905265926e-02,1.109307184815406799e-01
3.526161997251282543e-01,8.103093609222074001e-01,8.823556694227865371e-01,-1.059965010043135841e-01,-1.128423019559660900e-01,-5.478054131570579688e-02,5.731993317604064941e-01
7.278848896848365557e-01,1.753736898042499437e-01,8.022985800512034693e-01,-1.856312115130153428e-01,1.954216947077727987e-02,3.561196790665995676e-02,6.784154772758483887e-01
7.921421277395758187e-01,2.202168337794521702e-01,7.566481975470467081e-01,-5.793637661240655379e-02,-6.003319886120148628e-03,1.446073463349172583e-01,6.172279119491577148e-01
4.348716553813426478e-01,7.583720978061089246e-01,8.003362388112399417e-01,-1.169656171255962634e-01,-1.256405218971255559e-02,1.171056266865041530e-03,4.018824398517608643e-01
7.417475602613078367e-01,2.653598530856600690e-01,6.649349583444953415e-01,-1.902723425212926867e-01,7.016268840871360546e-02,2.325846414689563546e-01,6.942037343978881836e-01
6.174615955974045445e-01,6.215139833673284375e-01,6.518255987797737516e-01,-1.345505303587622020e-02,-1.102803649378996352e-02,-8.109024512324274417e-03,4.651115089654922485e-02
5.560665755035120172e-01,6.166792105749553388e-01,6.897652848275842574e-01,-5.482979117589276835e-02,1.321364888859086553e-02,1.149033559485678271e-02,1.529189646244049072e-01
5.916930127882481516e-01,6.321669908514727654e-01,6.728739622248419705e-01,-1.728567821292118292e-02,-5.441452560743444133e-03,-1.228094162485466462e-02,7.987771928310394287e-02
5.994619488038007704e-01,6.271371083940322499e-01,6.802516761155621428e-01,-5.002403072164371585e-03,-2.859649799434799307e-03,-6.792987405481257408e-03,7.276719808578491211e-02
6.138927503561463217e-01,6.098399376726093557e-01,6.813128202466214312e-01,-1.441370215599915936e-03,-1.494419034521132458e-04,-8.308370437256939987e-06,6.958039849996566772e-02
6.296132993429212066e-01,6.228909153541996035e-01,6.550413087121341738e-01,-7.325230292987346689e-04,6.660170430586166528e-03,2.285626305295990549e-03,3.182870522141456604e-02
7.032662153648803205e-01,5.294707678344724444e-01,6.549233642680314382e-01,3.536903805995637081e-03,3.813685455912202774e-03,-3.384785479017823895e-02,1.663078963756561279e-01
7.162329646242040493e-01,5.142791554724780445e-01,6.809093987335050890e-01,-2.482747423883806519e-03,5.410617405551821670e-03,-1.348682765824736444e-02,1.885506957769393921e-01
7.096533576766430595e-01,4.800710975351715204e-01,7.336914713140245681e-01,1.061192390268376161e-02,7.504952756896761910e-03,-1.041769903391823182e-01,3.031004965305328369e-01
6.736143804717356076e-01,6.051691413177233692e-01,6.285276124749838988e-01,1.964758213294309341e-03,-8.598977545480284909e-03,6.578994231003280208e-03,6.320482492446899414e-02
6.496554752065013538e-01,6.367891912592786863e-01,6.134720840629444005e-01,1.753058167727082964e-02,-1.364383210026042133e-02,1.880535281775716494e-02,5.958677455782890320e-02
6.338235366269323601e-01,6.425898666894525046e-01,6.209570983870299488e-01,7.699225693911517301e-03,-3.848202960976781443e-03,4.608631683543058279e-03,2.532121539115905762e-02
7.805543242349431976e-01,4.985929142293591410e-01,7.522225199768083348e-01,5.739517820501729289e-02,1.845582564970147874e-02,-8.322346638520501660e-02,3.224893212318420410e-01
7.559576044048156307e-01,4.194891604859761758e-01,7.323445383135426257e-01,2.546701706831113257e-02,4.025098718168036716e-02,-4.257848664952513379e-02,3.436109125614166260e-01
6.313379049544025623e-01,6.243861714964190623e-01,6.407798222349792017e-01,3.895579913024417064e-03,-6.605374934226471151e-03,3.025000871993460856e-03,2.017388306558132172e-02
7.160576762040261611e-01,4.870073307708288057e-01,7.003878107586654078e-01,1.864467810210709798e-03,1.012053175816607755e-03,-2.833096007502004798e-02,2.270282953977584839e-01
6.555337400437021289e-01,7.114448581761444457e-01,6.322634812002071447e-01,8.107345966181103702e-02,-1.259430475401380201e-01,7.753214844380688919e-02,3.005095720291137695e-01
6.864207560313932976e-01,5.964803111103983424e-01,6.275110633091541823e-01,-2.443868243049707721e-04,-1.671310250730393982e-03,7.099104524988461735e-03,8.013128489255905151e-02
5.836505361013097914e-01,6.848910048276433127e-01,6.411375901925421283e-01,2.933496976838106951e-02,-3.826720318991568698e-02,3.747858687371688480e-02,1.375611424446105957e-01
6.090215838774987178e-01,6.930465606936682121e-01,6.071529129179576989e-01,1.053629213019498523e-01,-9.443632155539932738e-02,6.109046326543603189e-02,2.801348567008972168e-01
6.506207027798671660e-01,6.965192318050597020e-01,5.633510412003071011e-01,5.476405992819861207e-03,-1.321106693923076135e-02,4.453996814684012956e-03,1.200054287910461426e-01
6.807494760549098745e-01,5.960506889780531337e-01,6.282825750791543040e-01,9.437135506177608000e-04,-3.729666762844992441e-03,6.845122187092517185e-03,7.528444379568099976e-02
6.155446458174562707e-01,6.638875284666568843e-01,6.146102968886071327e-01,1.128869973848481076e-02,-1.363275502928312788e-02,1.319249664041438445e-02,6.200856715440750122e-02
6.491402485542678846e-01,6.839467122171587476e-01,5.691482318248058947e-01,1.222439120513920709e-02,-9.307774116585676438e-03,5.764737907396458132e-03,1.058411970734596252e-01
6.313000786923462782e-01,6.823140243728875731e-01,5.752510149549456830e-01,1.709700922008724686e-02,-1.452463270251523782e-02,9.572162724896424515e-03,1.019210517406463623e-01
6.728038212711673349e-01,6.039281940051710595e-01,6.319796935223375156e-01,-3.395518216210390450e-03,1.017744860146346624e-02,3.592686678240144052e-03,6.310884654521942139e-02
4.914706843836186279e-01,7.089263921670976298e-01,7.150001036295710044e-01,-8.347330536575391785e-03,-1.489801778094537168e-03,-5.001683431066261719e-04,2.210454344749450684e-01
7.081363180187769668e-01,6.778372886370721551e-01,5.138842688016578286e-01,4.878912456562460587e-03,6.292934204257388808e-03,-8.261264376996528547e-03,1.821021735668182373e-01
6.352851732709297039e-01,6.637528418117748519e-01,5.937666499721032665e-01,1.195196081476564663e-02,-1.041903104438126997e-02,6.301382205453238093e-03,6.774563342332839966e-02
6.535663384444543311e-01,6.136204808841736469e-01,6.312690171290447072e-01,-2.348291250680199001e-03,7.948671033676048964e-03,3.984586218832783522e-03,3.815592825412750244e-02
6.695644115389371986e-01,6.154597619943433795e-01,6.144457442347885934e-01,1.909221074037595074e-03,-3.900033012743955429e-03,2.405268185705750593e-03,5.529128760099411011e-02
6.096362047133642159e-01,6.741853181313209875e-01,6.021163276297829547e-01,-5.572597161242761644e-03,1.138154362416210486e-02,2.714529471355362975e-03,7.219711691141128540e-02
6.129270033888625235e-01,6.787589191839994429e-01,6.209649333492271994e-01,-5.827915265527947204e-03,1.799806620250717429e-02,6.155831066453944407e-03,7.111023366451263428e-02
6.396135030574511271e-01,6.765465606050338199e-01,5.816593200341902969e-01,-1.714101361250377348e-02,1.285164948491493084e-02,7.105045222710659747e-03,9.160538017749786377e-02
6.131114828455940247e-01,6.757023418775377488e-01,6.189915206270127923e-01,-5.320082257332851491e-03,1.818090300861679304e-02,4.018994539490379145e-03,6.862328946590423584e-02
6.035119070826586718e-01,6.132736928573829793e-01,6.811294637505617144e-01,7.269802588057881591e-03,1.388103570789462531e-04,-2.662470118403858447e-03,7.444438338279724121e-02
6.130862325620316522e-01,6.036133136924991538e-01,6.861949929284258953e-01,9.221912394662410903e-03,2.396896462369143763e-03,1.886756377993273684e-03,8.006388694047927856e-02
6.588506436576894165e-01,6.259911001828116772e-01,6.115328041839800388e-01,-8.776876509492919504e-03,4.249048636998666549e-03,4.063642578021216083e-03,4.581144452095031738e-02
6.022691259741317360e-01,6.129834443570874036e-01,6.792507809386456596e-01,7.774215712521510661e-03,1.441913981847398486e-03,-3.180963358996213158e-03,7.371617108583450317e-02
6.687267720616101307e-01,6.030436588366041573e-01,6.261704847825017017e-01,-2.576658735604166455e-03,6.025125584673237007e-03,4.841886934566197974e-03,5.940736457705497742e-02
6.288416025954561839e-01,6.276767044098829906e-01,6.408732437408747318e-01,-5.256166323495177093e-04,1.523741972978115292e-03,1.350366561225724510e-03,1.316805463284254074e-02
6.133462674091433309e-01,6.099656783826752360e-01,6.812953153806637907e-01,1.895446350603405532e-03,-4.109549211272923845e-04,-3.291144291654477341e-05,6.978178024291992188e-02
5.826151760106327293e-01,7.826437822726037830e-01,6.683976882870786840e-01,-9.171675716619678538e-04,-1.239028008845868695e-01,-5.724947867628672228e-03,2.763470411300659180e-01
6.679922483256854893e-01,6.150094507295862378e-01,6.154806432180988107e-01,-2.133024521846750132e-03,1.323612452336335107e-03,7.291344785597044399e-04,5.294274166226387024e-02
6.316978584778820682e-01,6.360995319324782571e-01,6.281424124528717234e-01,-4.293350232440987062e-03,2.672186762498857896e-03,1.590893538917751045e-03,1.148821040987968445e-02
4.372717996011488140e-01,8.732414901599589996e-01,7.434277814577304744e-01,-1.604195292785890459e-01,-1.819883087946253253e-01,-8.815260764476641475e-02,5.917782187461853027e-01
4.980906519538753630e-01,7.188479216009131534e-01,7.050283170386969500e-01,-1.616201188210763737e-02,6.698815170199625552e-03,4.386881001025049430e-03,2.164485305547714233e-01
4.764630731432943911e-01,7.423630352860558501e-01,5.618018677848151121e-01,-1.354878559795710813e-01,-2.411583081012124430e-01,-1.499990361065656475e-01,5.935788750648498535e-01
5.858299975723394448e-01,6.700184029282465481e-01,6.304228423902172862e-01,-3.524636153603894623e-02,-5.318461226099047839e-02,-2.765874549682076008e-02,1.408181637525558472e-01
6.217149904820215012e-01,7.727409852889528530e-01,6.302229990376032598e-01,-3.310223393120940993e-02,-1.663853464693988149e-01,-4.719417564053418612e-02,3.385523557662963867e-01
5.209075581584444725e-01,7.013825004513443151e-01,6.668914532671977868e-01,-2.533278513368224238e-02,-8.371312596789226568e-02,-1.718079364080019739e-02,2.266506552696228027e-01
7.962119464784026546e-01,6.508105032480636654e-01,5.897075837516476682e-01,-9.586014371181603155e-03,2.040499360093885051e-02,1.550788952383076180e-01,3.277693688869476318e-01
7.172263313548012942e-01,6.743136853937830022e-01,5.485075560653942528e-01,2.545551317472473287e-03,9.807969029885345649e-04,5.523489535842573267e-02,1.795615702867507935e-01
6.959870911877349409e-01,6.258769447497523064e-01,5.777666916935290109e-01,1.676295633355004845e-04,8.368884134002791547e-03,2.022844359928074182e-02,1.097306460142135620e-01
6.985108451540712471e-01,6.546113477241076728e-01,5.717162791647723008e-01,-5.113161719834313432e-03,1.095321872011328218e-02,1.224226195305808465e-02,1.154373511672019958e-01
6.837247213396059342e-01,6.237763078473740341e-01,5.724757089492735762e-01,-2.096746770947535818e-04,-1.126452334814138445e-03,1.647642240924774085e-02,1.005947813391685486e-01
6.936414242386347295e-01,6.448320793522807071e-01,5.327130830144449769e-01,1.209372662188840271e-02,-6.781978520398851754e-03,2.979052098519852088e-02,1.538332253694534302e-01
6.959652168243445347e-01,6.607887005657180346e-01,5.402815273763019732e-01,-2.152261946414858740e-03,7.497669400034617619e-03,2.949186617959426507e-02,1.509643644094467163e-01
7.009260576295694989e-01,6.584642051418800879e-01,5.452853361922682662e-01,1.418676476476375941e-03,-7.673706589666121243e-03,2.531972379693670297e-02,1.467113196849822998e-01
6.376162277069903350e-01,6.594503590785798508e-01,5.980005950063275177e-01,2.159301382337303760e-02,-2.694314618789069374e-02,2.287967765029828848e-02,8.976699411869049072e-02
7.773881155946296140e-01,6.774570393343020136e-01,5.194428071891161736e-01,5.105339266897007677e-02,-7.361928111105693617e-02,1.279184211470895394e-01,3.520132899284362793e-01
6.233163875877321125e-01,6.628805462672697768e-01,6.361877053367548385e-01,2.831225001078069292e-02,-3.997200564811626000e-02,2.748323781361133866e-02,1.033720001578330994e-01
6.857666156086799081e-01,6.883625412640461683e-01,4.982044023318630832e-01,1.431819162163013893e-02,-3.867436283971500272e-02,5.238681856179663865e-02,2.213786542415618896e-01
6.837769815595335920e-01,6.867339775982849170e-01,5.015228906025536171e-01,1.665593667939813116e-02,-1.956378567550679654e-02,2.719125287064097507e-02,1.948404461145401001e-01
6.943760081944808649e-01,6.569965262068722112e-01,5.374531331151380931e-01,5.652153514215419415e-03,-1.649422705608224408e-03,2.167200866199835152e-02,1.472051292657852173e-01
7.136685550065660077e-01,6.834058633822085449e-01,5.181445246848547237e-01,3.727974200647499181e-02,-1.255048873790817754e-02,6.315243030271135150e-02,2.232374548912048340e-01
6.514995541594088557e-01,6.528981883054980617e-01,6.002380618272472601e-01,1.264024813760367648e-02,-4.123838291953550207e-03,4.054540353643954105e-03,5.728050693869590759e-02
7.010337493385185859e-01,6.848071996162011787e-01,5.014949940983778331e-01,1.061522180767582833e-02,-1.309085157578353253e-02,2.922639843278861463e-02,2.006387263536453247e-01
6.371101859209384877e-01,6.284444955267309840e-01,6.312492409718837294e-01,2.237798940025245188e-03,-3.628204003535041942e-03,2.665120789932113633e-03,1.159651484340429306e-02
6.760533062658021786e-01,6.188814080852438337e-01,6.055665764866066114e-01,-3.973546574202504664e-03,-3.336418259494223701e-03,-6.982329266553507358e-03,6.658953428268432617e-02
6.806752390224624083e-01,6.093088195407779795e-01,6.135901695772100206e-01,6.378032543039604228e-04,-4.206115250054844414e-04,2.900271463770211309e-03,6.951932609081268311e-02
6.731757375578446556e-01,6.500082899044872242e-01,5.909485958927532812e-01,-1.258121857801969799e-02,-3.040055622960916634e-03,-5.607988153854001102e-03,7.739493250846862793e-02
6.803588179516281143e-01,6.135195485539394200e-01,6.109271164867360326e-01,1.058338326601897250e-03,-7.931082178231774063e-04,-2.159627719742392322e-03,6.831342726945877075e-02
6.784125191957166567e-01,6.092120280261146270e-01,6.146170697002418803e-01,3.039512641092375223e-04,-9.352455510938950407e-04,3.074408474286473639e-03,6.689655035734176636e-02
6.773781054689084202e-01,6.177161153629278090e-01,6.130762869175174767e-01,-3.199592778100661394e-03,-7.234422763224879248e-04,-2.226395596360463119e-03,6.249044090509414673e-02
6.798073439753735681e-01,6.006434839868427522e-01,6.092883138351363748e-01,-1.860784732982347436e-03,-1.921653501210610722e-03,-7.780046988196388964e-03,7.655289024114608765e-02
6.785049251103154599e-01,6.206200060503244131e-01,6.176946910898403198e-01,-4.309556911512976186e-03,-7.416224222158764381e-03,-1.207122329409094155e-02,6.470250338315963745e-02
6.800328324360804810e-01,6.110269509518829745e-01,6.161266399532974170e-01,-9.791232611569790009e-04,2.447548538474136285e-03,1.968397222528016181e-03,6.684595346450805664e-02
6.684466412198211138e-01,6.199546114266761832e-01,6.173565055081799979e-01,-5.750260012405162061e-03,-9.174341793943730991e-03,-1.296905252453883425e-02,5.779710784554481506e-02
6.687609885599195003e-01,6.185287552502491959e-01,6.076839059253490438e-01,-4.223737552372962452e-03,-2.281626613104120998e-03,-7.354062984966949768e-03,5.845539271831512451e-02
6.614182415231486534e-01,6.218459081497101915e-01,6.189814429068571933e-01,-3.853820186438574637e-03,-1.276467831269829977e-03,-1.269019780261156603e-03,4.173491895198822021e-02
6.324579651316156736e-01,6.425520408796380201e-01,6.305886240983663571e-01,-7.184474010816264272e-03,5.040065480455538892e-03,5.582593281879060301e-03,2.118506282567977905e-02
6.693823686396064288e-01,6.156998387693600749e-01,6.218551382020066631e-01,-2.028780342441958463e-03,4.580385755916033079e-03,1.452645562995129921e-03,5.168063193559646606e-02
6.242944407611045188e-01,6.454064589754173742e-01,6.216883817172231819e-01,-7.726074966860550265e-03,4.524840165017755128e-03,2.424554230477407330e-03,2.767061069607734680e-02
6.540914710290592904e-01,6.233695394678175905e-01,6.280230211620445591e-01,-1.828647413414712921e-03,4.477980833932283800e-03,5.200842964179998220e-04,2.989194355905056000e-02
6.320734979711412072e-01,6.406944990903936654e-01,6.272795184685269199e-01,-4.877074580857291425e-03,1.798272221749012013e-03,1.635720248965572780e-03,1.509034354239702225e-02
6.268881555818198725e-01,6.457657671705273605e-01,6.255142156882373961e-01,-4.438211161665681775e-03,6.272475735197552806e-04,9.043653400746120988e-04,2.114038169384002686e-02
7.586960587975146719e-01,2.176350876602305973e-01,9.109146762662410080e-01,3.403866489546711338e-02,4.667188382603167096e-02,1.362242061125242820e-01,6.811452507972717285e-01
6.315103538518249682e-01,6.694379623804523893e-01,6.031112266710912939e-01,-8.084742826357051160e-03,5.055542600067283732e-03,2.019406960145003933e-03,6.005933508276939392e-02
6.280897431741357950e-01,6.262705521051864510e-01,6.489553773021872196e-01,5.644182775919276505e-04,-3.558129569071263355e-03,6.697278062861638723e-04,2.273598313331604004e-02
6.316424401250557707e-01,6.280203681669882521e-01,6.476949114470589297e-01,7.651413798259213209e-03,-7.620047633358583913e-03,7.394082241122049148e-03,2.903083898127079010e-02
6.327976078526404979e-01,6.349792890511046783e-01,6.346329214893267068e-01,-1.123076815692155943e-03,7.696001554774183247e-04,-2.847176445928447137e-07,3.112040692940354347e-03
6.296881318045552955e-01,6.266247056915156266e-01,6.354299260079880884e-01,4.497421325228947650e-03,-4.068066087710741838e-03,1.919757848680093016e-03,1.346575748175382614e-02
6.334821711777982589e-01,6.340111854624440602e-01,6.435551180136582783e-01,4.637333372610329303e-03,-8.053662956493238406e-03,7.299306327422282192e-03,2.270141057670116425e-02
6.302341111432556708e-01,6.340434521200373208e-01,6.372691902150369181e-01,5.299615043896347202e-03,-4.144643743372390492e-03,5.583589815584586759e-03,1.632561720907688141e-02
6.261736523882814875e-01,6.598557167584779837e-01,6.301689418663160014e-01,-6.986887555706089437e-03,8.122221174716538761e-03,6.684051000800823698e-03,3.865572437644004822e-02
6.192316034361527999e-01,6.581376356276783524e-01,6.178913321947224757e-01,-4.834501476858338136e-03,1.131784403005570367e-03,2.278833978323334744e-03,4.070822522044181824e-02
6.247069696785814141e-01,6.585251444248984010e-01,6.151046776314017528e-01,-7.043557058541973989e-03,3.475374514423760792e-03,3.049622571819827262e-03,4.211383685469627380e-02
6.316367315891028289e-01,6.417541878852885961e-01,6.216723856206887167e-01,-7.205032218760307715e-03,4.134332810629681547e-03,3.544703458616794891e-03,2.339177951216697693e-02
6.209524512395767637e-01,6.454408348530541462e-01,6.281692801036100615e-01,-3.353434347932037537e-03,5.290591714261259383e-03,7.035077952762899649e-03,2.722535096108913422e-02
6.172412344042058630e-01,6.581057121142651622e-01,6.216662070405555296e-01,-2.567299748809274019e-03,1.703060800926633990e-03,4.588567727086900229e-03,4.000376164913177490e-02
5.285767025665655261e-01,6.594763889429686721e-01,6.641995903716517713e-01,6.417935089968497542e-02,4.863014791043038243e-02,-2.599492948209049942e-02,1.981266140937805176e-01
7.055231564856780935e-01,5.512854783830044569e-01,6.916489874839344409e-01,1.038211229416548947e-01,8.864505925791880958e-02,-1.281285547321267260e-01,3.563747107982635498e-01
5.891529853227736035e-01,6.632331216610984903e-01,6.599836753642107645e-01,2.795737056660490411e-02,1.998024627643627329e-02,-1.964629726954986513e-02,9.979033470153808594e-02
6.419201641085675591e-01,6.039952992634499696e-01,6.602825323285738124e-01,2.254652220188013700e-02,1.376340751468296819e-02,-1.168511734563125286e-02,7.053239643573760986e-02
5.444838077976426050e-01,6.525150850411282066e-01,6.777364375265918506e-01,2.450238616542578518e-02,8.518333779333300479e-03,-1.726079111386952247e-02,1.339558064937591553e-01
5.780115288590709222e-01,6.468791869037837650e-01,6.784705635630301490e-01,9.334346990188783708e-03,6.039930011618092551e-03,-1.086857394442937615e-02,9.296022355556488037e-02
5.797859769642363936e-01,6.290678166268335314e-01,6.765362711892903835e-01,1.492856241264338066e-02,7.090301823449094744e-03,-1.442240172455731134e-02,9.200383722782135010e-02
6.787452424231050774e-01,6.134792454592951083e-01,6.025636904110752701e-01,1.740670119908310862e-03,4.500658904574632801e-04,-5.595955898079487192e-03,7.207535207271575928e-02
5.782466829130005204e-01,6.168811191599123944e-01,6.736068895111495536e-01,1.734032649244619112e-02,4.947043191346670206e-03,-8.170886815358907596e-03,8.987642079591751099e-02
5.934412086614911930e-01,6.281634097753463486e-01,6.587017734532739643e-01,1.171117013864349070e-02,6.607894552415495733e-03,-1.234655338387088096e-02,6.479460746049880981e-02
7.984394292506215018e-01,6.186983607107434668e-01,6.277853366449892558e-01,6.210081533875696364e-02,-3.886534232535230476e-02,1.698283773981237033e-01,3.652153313159942627e-01
7.012304834342715232e-01,4.733237739510057773e-01,6.637484229372014877e-01,1.252197929436245881e-02,-1.106141920310106143e-02,8.989249996601600401e-02,2.643547058105468750e-01
5.317463564559988809e-01,6.798177772927127549e-01,7.070482133034675654e-01,-1.290221628803469786e-02,1.499193614791095646e-03,-3.497708376342618941e-03,1.650501042604446411e-01
7.009537875812070773e-01,5.517093391094823884e-01,6.618970279415496982e-01,1.004679339703062543e-02,3.116994454907249016e-04,5.206883065798675880e-02,1.625020802021026611e-01
7.850934605151815848e-01,5.245087615446393237e-01,6.444212210162484356e-01,6.173255376106124431e-02,-7.752824228004757956e-02,1.200142611323977149e-01,3.517256081104278564e-01
7.287837019739558109e-01,5.744840963073588602e-01,6.252807806747774366e-01,7.744557384339088336e-03,-7.011276169860243372e-03,8.333158348176447627e-02,1.992752552032470703e-01
6.825305781049522125e-01,6.885612357682306950e-01,5.283167980114195084e-01,-1.365002302464034083e-02,2.203390639590179986e-02,2.829384855424120493e-02,1.707786321640014648e-01
7.246763851827551228e-01,7.084499026052040183e-01,5.198759648349744467e-01,2.148568004062424014e-03,7.217228427565376692e-02,1.166975965354854344e-01,3.088343739509582520e-01
6.450552422251965012e-01,6.904524159829876773e-01,5.485568346854053923e-01,-4.658862017512079706e-02,9.195988133800846176e-02,6.879380188119738060e-02,2.486618608236312866e-01
6.809619684943248874e-01,6.627943595760377171e-01,5.485827459459030608e-01,-1.367764071144187028e-02,9.936734321581706594e-03,1.582751669941954639e-02,1.306073814630508423e-01
6.297815354562197321e-01,6.418728803286525286e-01,6.341458415046760111e-01,1.863409944103921675e-03,6.007650729580041793e-04,-3.070017589277722076e-03,1.233904901891946793e-02
6.760452054135189792e-01,6.050501033187755118e-01,6.104719083651787281e-01,2.926457063100832649e-03,-3.970101892388820143e-03,8.291995777639057236e-03,7.045585662126541138e-02
6.148041734143154802e-01,6.149856278866014936e-01,6.689101996799154959e-01,2.339241332858050301e-03,3.740084466579764698e-03,-1.872595570074658605e-03,5.464959144592285156e-02
6.774004104628766898e-01,6.163008124482910466e-01,6.126838514412895620e-01,3.105592927414050405e-03,-1.617573124232326220e-03,1.641684817157041711e-03,6.334120035171508789e-02
6.772317493919601805e-01,6.130102359898739195e-01,6.153273044355239696e-01,1.625705880156346319e-03,-3.009085296338215136e-03,1.328016490053983943e-03,6.341411173343658447e-02
6.424420161251721550e-01,6.276855772939023970e-01,6.284633665869950869e-01,1.594742033970605313e-03,1.205120492106188761e-03,1.623754910133736807e-04,1.479681394994258881e-02
6.332152547714979818e-01,6.324686026744590350e-01,6.331194346566805242e-01,8.670043974373315213e-04,1.592772815939057967e-03,-7.360289525769641477e-04,3.462110413238406181e-03
6.814816801974507010e-01,6.101976708554974760e-01,6.141726294465215119e-01,8.424992821329463713e-05,-5.858365085283486146e-04,1.702030863685762441e-03,6.945215165615081787e-02
6.188295950667588308e-01,6.855294268165322835e-01,6.145649525063185958e-01,-2.747212891944383114e-03,-1.196832930064683706e-02,-4.323533943811338175e-03,7.252550125122070312e-02
6.176107720735068973e-01,6.749029890609032911e-01,6.137459846536408303e-01,-6.496741452646330461e-03,-1.211700962749318392e-02,-2.681886662301357499e-03,6.408917903900146484e-02
6.020744747825499399e-01,6.784910168741802305e-01,6.117745146385341615e-01,-1.168766892566667180e-03,-8.460838480840169804e-03,-3.371867574273516941e-03,7.379227131605148315e-02
6.144656539895557712e-01,6.753410760377421829e-01,6.145337926864860023e-01,-2.305813758717936441e-03,-9.190075813659246990e-04,-1.291409813734470738e-03,6.103409826755523682e-02
6.247185078352492926e-01,6.256213173104219205e-01,6.507445169318020195e-01,-9.055679722149207259e-03,8.056325077597880843e-03,8.523961786919807132e-03,3.624051064252853394e-02
6.319244688605427651e-01,6.274125870933221494e-01,6.484194071776018253e-01,-5.910222801263340965e-03,6.337501069345555932e-03,6.835514719806708162e-03,2.706141211092472076e-02
6.583937121354429545e-01,6.237228171887452266e-01,6.341834598762192687e-01,2.187587859805788584e-03,1.365844668215674892e-02,-1.382496071580799173e-02,4.578450322151184082e-02
6.172317865088802202e-01,6.210356231819461614e-01,6.639383492821524513e-01,-9.517085575601654662e-04,1.149663304737620325e-03,4.189469592395752597e-03,4.558119550347328186e-02
6.769318194243003628e-01,6.058781169537797995e-01,6.138160396811946917e-01,-1.260198858112653768e-03,-5.901965691598808940e-03,-8.390629034830576066e-03,6.977171450853347778e-02
6.215514983837865381e-01,6.265356669071597828e-01,6.474299868155359849e-01,-3.893696094723637230e-03,4.432190945537289005e-03,6.862669084186957813e-03,2.848261967301368713e-02
6.178020555150798288e-01,6.262285381584934418e-01,6.543721745716465366e-01,-2.454830640378674860e-03,3.367871462593379113e-03,7.023511709714685101e-03,3.605991229414939880e-02
6.329258822043303256e-01,6.350002002395952472e-01,6.320603873931766037e-01,1.680167601064746141e-03,6.968456914256839331e-04,-8.237159642735840870e-04,4.336863290518522263e-03
6.535721238892232554e-01,6.224707051579185801e-01,6.236545985072865506e-01,1.697583539639580755e-03,1.482636283009012993e-03,1.043037803194336909e-03,3.082828037440776825e-02
6.372450800829155826e-01,6.310527889038284322e-01,6.334150802281054427e-01,5.206435061394990146e-04,1.710876303933254279e-03,-9.639426625286201490e-04,6.455923896282911301e-03
6.345064519786685064e-01,6.324480387714750407e-01,6.333034944493280971e-01,3.047899305724139111e-04,4.929614506070372371e-04,-1.371557904375847404e-04,2.066917251795530319e-03
6.328549731059562866e-01,6.341621799344547838e-01,6.348317051015235357e-01,1.068132767023087688e-03,8.648574138105955076e-04,3.042592093000210175e-07,2.949393121525645256e-03
6.326112701467230259e-01,6.360305627489677427e-01,6.285383382057400103e-01,3.764922423117477660e-03,2.885519958152702596e-03,-1.793662748482702154e-03,1.092525292187929153e-02
6.358233781560672648e-01,6.307426044004598165e-01,6.316872254572563072e-01,3.403139401368705536e-03,5.363443207675697676e-03,-1.581932216890938022e-03,1.226614601910114288e-02
5.577352294929445176e-01,6.249385995691817408e-01,7.180272648069265795e-01,6.219727857970155233e-02,-9.315667800989919922e-03,-1.292377508426947180e-02,1.783384084701538086e-01
6.528720778085674858e-01,6.372513156825126979e-01,6.193019007008196963e-01,8.787758502168101921e-03,3.709487390856388515e-03,-3.237758080232959034e-03,3.392605856060981750e-02
6.582776128333752697e-01,5.383517115350320292e-01,6.749304082055475051e-01,2.182711371664851005e-02,2.248260095061914085e-02,-1.895303203295266650e-02,1.438052952289581299e-01
6.278570958837706995e-01,6.351423539620668635e-01,6.306786883723032311e-01,1.485569538699738415e-03,2.913631175748146798e-03,-2.528039351495578457e-03,9.578192606568336487e-03
6.205010323778535897e-01,6.257301636575000048e-01,6.606043593817110260e-01,-7.812482079466770771e-03,9.022428786069857515e-03,7.984357694374100839e-03,4.521595314145088196e-02
6.977865715834665750e-01,7.014450700561942753e-01,4.920843725336847552e-01,-2.819343433429174692e-03,-3.519344596566591904e-03,-3.889802930971750575e-03,2.078117728233337402e-01
6.178765149306068016e-01,6.177874194465361457e-01,6.776978759260136043e-01,-1.284690358849992393e-02,7.701720610666362536e-03,6.360379699853601493e-03,6.616928428411483765e-02
6.088918321598036920e-01,6.183663947363593483e-01,6.697828815920983114e-01,-5.410575938003196750e-03,3.030466610673941859e-03,6.323028949136991726e-03,5.878679826855659485e-02
6.127235134024174856e-01,6.162413649304855356e-01,6.778357795849095924e-01,-1.587278344655220072e-03,1.012508715810634796e-03,2.993698005130203919e-03,6.372164189815521240e-02
7.232822554926212621e-01,4.586073533517404655e-01,6.970499581190658933e-01,9.279448163674751740e-03,-8.781881284030347914e-03,-5.013559134276514284e-02,2.680080831050872803e-01
6.243759387286638152e-01,6.536591518977704629e-01,6.282608412067155479e-01,-2.265085577645654848e-03,-2.753281407663570653e-03,-1.720058555901082765e-03,2.838742546737194061e-02
6.416436310049173919e-01,6.303742240320405754e-01,6.222308479072627962e-01,-6.107852112625959326e-03,4.038607750557855931e-03,4.183447634056844215e-03,2.232571318745613098e-02
6.600128021864403172e-01,6.274553566225429257e-01,6.247477474087920202e-01,-8.342508716256479689e-03,7.717157721514599465e-03,5.588735743840301910e-03,4.045527428388595581e-02
6.759794175775146741e-01,6.145111692629349198e-01,6.119038765167861271e-01,1.075089375707278161e-04,1.330915180088301049e-03,-1.242262540316911709e-03,6.289187073707580566e-02
6.082605328181048820e-01,6.727201165149189199e-01,6.274202403787514370e-01,-2.067488197184587373e-03,-4.662816656440746561e-03,-7.831585414232105496e-03,5.957479029893875122e-02
6.622105168891131433e-01,6.204945042965893665e-01,6.235840561360220802e-01,-7.356250309851918370e-03,6.637042196658072754e-03,7.955887578273201921e-03,4.588321968913078308e-02
5.976376793135830257e-01,6.882414169820818550e-01,6.259979120078726922e-01,5.244341405054583427e-04,-7.791919049465872819e-03,-2.690963168400516722e-04,8.140627294778823853e-02
6.216781290856595588e-01,6.208237412955330825e-01,6.538719928619391997e-01,-1.609498558493163830e-03,-2.070167441913068999e-03,-5.090811380044261460e-03,3.410363942384719849e-02
4.905187532841397413e-01,6.589768552932638856e-01,7.473691394935386700e-01,-1.132990054853416501e-01,-2.344182728337289301e-02,-1.706734860061268760e-02,3.035031557083129883e-01
6.148060066824888592e-01,6.678659078804617399e-01,6.216383175463380262e-01,-1.685239115696089696e-03,-3.308444478900444703e-03,-1.722007565703492522e-03,5.049519985914230347e-02
6.540885972366480283e-01,6.262484839453519303e-01,6.189899137797355566e-01,-7.405636796865052406e-03,3.113900731588098870e-03,2.714733258861085335e-03,3.529259189963340759e-02
5.858926327556337466e-01,6.508386546711742993e-01,6.717522599698565466e-01,-6.418775447799011241e-03,-3.975783685551740471e-03,-1.209787620496348588e-02,8.138623088598251343e-02
5.640672514260983705e-01,6.956127068619593068e-01,6.504869512388594677e-01,2.873176462512489968e-03,-1.095559628134274224e-02,7.753464629017612145e-03,1.181932389736175537e-01
6.064867209299381612e-01,6.804795882867590295e-01,6.158462347971837003e-01,3.338677735412239316e-03,7.717776696814956407e-03,-3.751479948898020327e-03,7.158464193344116211e-02
6.139166448108981378e-01,6.746704261186114993e-01,6.174510374424370118e-01,4.819012658223688350e-03,1.229132561540382390e-02,-6.147788202265894522e-03,6.422671675682067871e-02
6.083647318562008799e-01,6.688367433704234255e-01,6.322167276309607065e-01,-2.821990832791617700e-03,-3.763256376884391297e-03,-7.437951855636388068e-03,5.491584911942481995e-02
6.144797521176378341e-01,6.858267825766092285e-01,6.132714564425745252e-01,2.492040136279358945e-03,1.393912713626797341e-02,-1.680855154718414058e-03,7.607937604188919067e-02
6.018653240805746929e-01,6.796965915888968368e-01,6.137411612355370139e-01,5.277919223185241829e-04,1.018149239814221570e-02,-2.234190980646668517e-03,7.484135776758193970e-02
6.575530552166082288e-01,6.135166254965537247e-01,6.262026361967359955e-01,3.556357150501444214e-03,6.088552111786204105e-03,-5.262266940439414530e-03,4.211560636758804321e-02
6.594988589584629413e-01,6.136188328728746644e-01,6.205201840772851529e-01,2.487120885154167627e-03,5.981476989816034151e-03,-5.992999219453460334e-03,4.549297690391540527e-02
6.598966970338832061e-01,6.214150510828433394e-01,6.177735886996155168e-01,4.531353891762655156e-03,2.201105606482384354e-03,-1.868614514345252149e-03,4.148296266794204712e-02
6.188557490365499403e-01,6.539792966098287863e-01,6.379694994995446233e-01,-3.095027476937345281e-03,-3.647639393826514632e-03,-7.299179993575082709e-03,3.400211408734321594e-02
6.181461658419239447e-01,6.522515871745651062e-01,6.317218672038020788e-01,-3.378542480457826739e-03,-5.089469422887008508e-03,-1.064771674014044177e-02,3.655882552266120911e-02
6.777969159152592571e-01,6.147957332480123993e-01,6.090791155083341568e-01,-6.950980828685517608e-04,-4.050439416969042706e-04,-1.988643621658793895e-03,6.614974141120910645e-02
5.822528967504053687e-01,6.760818016742667913e-01,6.513976155863800965e-01,-4.109482367921263139e-03,-7.669125170026883792e-03,-1.022262386775435461e-02,8.739392459392547607e-02
6.533486291684086344e-01,6.238968749506913491e-01,6.188398384944181485e-01,7.464685654344361231e-03,3.202157371441839272e-03,-6.788002379691332640e-03,3.712243214249610901e-02
6.195263733210504276e-01,6.123680977160977923e-01,6.851848812723105864e-01,-1.290674541224990333e-02,-2.529037916376597039e-03,-2.088767964669744747e-03,7.324145734310150146e-02
6.112434150872159133e-01,6.136628341275762732e-01,6.813565995979481427e-01,-1.773726478073691087e-03,-5.983662893239538160e-04,-4.092138643105819405e-04,6.901516765356063843e-02
6.191989414203881159e-01,6.121388738171726907e-01,6.780102406951379335e-01,-1.344812766796911647e-02,-3.289296804075910168e-03,-2.960833502709856770e-03,6.726916134357452393e-02
6.006110827970617683e-01,6.101067841932923397e-01,6.779120509751210832e-01,-1.051461615684424686e-02,-1.216199849491668254e-03,-2.186220199037647478e-03,7.537923008203506470e-02
6.038838257359808726e-01,6.863438322168597949e-01,6.137920841907795744e-01,-9.836419789005376117e-04,-8.792732533133510581e-03,1.373195279841980332e-03,7.950652390718460083e-02
6.048404629276085132e-01,6.756683350948281541e-01,6.120794588804752134e-01,2.013651913323282437e-03,-8.930125518148045866e-03,4.500162475236404308e-03,6.977412104606628418e-02
5.762181520051913308e-01,6.746408437566374650e-01,6.239111659719700498e-01,3.064671530331564836e-03,-1.533456096220737336e-02,7.583902100902014179e-03,9.040876477956771851e-02
5.457091313026676271e-01,7.941019412838521419e-01,6.223751639650033640e-01,-2.742746205870581072e-02,1.689996647223166726e-01,3.251829869340219954e-03,3.694652318954467773e-01
5.952073034181926126e-01,6.832415284554664847e-01,5.966607492318795058e-01,7.608104700892957795e-05,2.827896461049873508e-02,3.178830514475917165e-04,1.001179516315460205e-01
6.403534806914364941e-01,6.495112213387175260e-01,6.203285136225481500e-01,-1.596959569081498123e-02,1.562952575626550683e-02,1.581821783564966652e-02,5.400764197111129761e-02
5.673135399555436775e-01,7.264078527176704991e-01,6.508887266894879398e-01,-2.865535418703628323e-02,1.451260814264080934e-01,4.639175471141883042e-03,2.910535335540771484e-01
9.287478479666048115e-01,7.455701411254418431e-01,3.543967252050388428e-01,5.605065356839557256e-03,-1.611600390413502060e-02,-1.552147520684307447e-01,5.756502747535705566e-01
5.341520660512055763e-01,6.911046365066102481e-01,6.578819995815019528e-01,1.469248050625142354e-03,2.245205827702397017e-02,-5.827331524536886846e-03,1.488089710474014282e-01
5.733990618973782150e-01,6.835585534381970474e-01,6.229995548870271849e-01,4.464598832386601772e-04,1.446117097868622817e-02,-9.514434248504624863e-04,9.880307316780090332e-02
5.686832795206960833e-01,6.990437709659943488e-01,6.496426386085430993e-01,1.993341761393448760e-04,-1.244670031205136369e-02,-1.913555220651076780e-03,1.160613596439361572e-01
6.345430079561996672e-01,6.339191390414610217e-01,6.330450545946675334e-01,2.569645086570168852e-04,-7.313727247287937858e-04,-1.482457789190139792e-04,1.888727420009672642e-03
5.356289704596695067e-01,6.932896595994871847e-01,6.591274772741119170e-01,1.565446661863778154e-05,1.996760861663580966e-02,-1.095861196468912594e-03,1.477756202220916748e-01
6.466977688073112240e-01,6.352429130506185295e-01,6.188054895487692386e-01,2.042006571720546629e-02,-1.580508953392414234e-02,2.378020000255023567e-02,6.547155231237411499e-02
6.418727119444714857e-01,6.260589823535104292e-01,6.303017437429453418e-01,1.039044256272289059e-02,-1.008663406808911478e-02,7.692474956528805308e-03,3.174284473061561584e-02
6.408982615614009504e-01,6.419497355902363811e-01,6.099500782918876318e-01,1.326212286609897845e-02,-8.324272851693809844e-03,5.139040068502546618e-03,4.249939322471618652e-02
6.424158350866175926e-01,6.165463114718405802e-01,6.370200544286845901e-01,1.543145178369085017e-03,-7.837033669468600541e-03,2.247649679520527521e-03,2.766437083482742310e-02
6.293892890420482722e-01,6.387687476869982062e-01,6.412932601901577545e-01,1.337950770294732937e-02,-1.080412904821881521e-02,1.011467890672542239e-02,3.622385114431381226e-02
6.446278671270909699e-01,6.228321592518966110e-01,6.334790523383392324e-01,4.872392917943280978e-03,-6.911701123498131122e-03,4.738465685741535469e-03,2.526355721056461334e-02
6.412846214327793115e-01,6.275546417975743640e-01,6.298194247570045867e-01,-3.481438054102320608e-03,-2.191793243612114028e-03,-2.130837588732374926e-03,1.506455056369304657e-02
6.359864358124582839e-01,6.358830403756647875e-01,6.236965033879080522e-01,-9.491037771387345404e-03,-2.789278756685339023e-03,-3.240821009345318422e-03,2.179153077304363251e-02
6.796383535736632009e-01,6.122779237941267105e-01,6.128191771059593451e-01,-3.189514887961636901e-04,1.842391403726358848e-03,-2.952415055101601134e-03,6.736394017934799194e-02
6.500435691324009113e-01,5.764593988843613737e-01,6.855385449013393639e-01,-9.654069921410652136e-03,6.788678762512676511e-03,2.463386304360908573e-03,9.860252588987350464e-02
6.146112246489742192e-01,6.156147743409472461e-01,6.866039797102462261e-01,-1.266687661345858827e-02,1.468668114621485494e-03,1.556404863687113312e-03,7.487858831882476807e-02
6.119695280793251424e-01,6.020264023028217837e-01,6.807325420867914589e-01,-6.982585842963186587e-03,4.123123519261929050e-04,-1.730060243738988039e-04,7.521839439868927002e-02
6.043268507648418275e-01,6.164873183065263662e-01,6.761211250228783554e-01,-8.276917828440595593e-03,3.672068192534902638e-03,6.639536336207811293e-03,6.933590024709701538e-02
6.137777013765556289e-01,6.132798055240372692e-01,6.773746120775636648e-01,-1.282196911208479881e-02,1.769102956438018456e-03,4.935393052895044839e-03,6.820668280124664307e-02
6.687493380039476465e-01,6.126853901608785291e-01,6.151053074850252322e-01,-1.225792801883853443e-03,-1.603906584248205149e-03,-1.214199529597661305e-03,5.504543706774711609e-02
6.553523239136460621e-01,6.279687061685357286e-01,6.210226618977107149e-01,-5.978667927778080933e-04,-2.630030228938780041e-03,-2.638124001884196296e-03,3.210950642824172974e-02
6.120670902897117349e-01,6.012215571298252792e-01,6.787268337164312770e-01,-7.683517001968152155e-03,1.686364770579305969e-03,8.650393434517142897e-04,7.397291809320449829e-02
6.143977386649149830e-01,6.871726192839715530e-01,6.145938000596131712e-01,1.392599593659184535e-03,-1.432584543863187412e-02,1.413682317301507858e-03,7.687298953533172607e-02
6.161903824570422739e-01,6.759135242890133011e-01,6.058486411748970069e-01,5.375133137556281290e-03,-7.859038429156058395e-03,2.619433070443949289e-03,6.770524382591247559e-02
6.537510870699007048e-01,5.994179692480721133e-01,6.516477399910796109e-01,-6.100841928625241883e-03,-1.384659320802023204e-02,-5.219329121923585793e-03,6.008993089199066162e-02
6.139426024694016881e-01,6.814642609132299800e-01,6.129707998400975022e-01,9.190570427835112509e-04,-1.408108438696970867e-02,-2.448860156816274128e-03,7.239538431167602539e-02
6.120633089918134928e-01,6.764295669364031038e-01,6.151607861346615191e-01,1.456753389839575419e-03,-1.555525868724237822e-03,3.181604346857135664e-03,6.322364509105682373e-02
6.541006081015441342e-01,6.364212187913649288e-01,6.126510753816014621e-01,-8.178822506996547698e-03,-2.520961692041464447e-03,-3.658361330683249178e-03,3.946793824434280396e-02
6.946791935037693877e-01,5.638136765110079995e-01,6.507952746527145838e-01,-4.272642043405975969e-03,-8.570095384372967279e-03,-8.322185222553658834e-03,1.174375265836715698e-01
6.129301376294611359e-01,6.796670304118760386e-01,6.013694707314396481e-01,1.335724362848938985e-03,-1.049804138066657948e-02,3.884379562163663363e-04,7.546798139810562134e-02
6.349970510784073152e-01,6.311915959208000970e-01,6.328548815099118707e-01,-1.413424715638118574e-03,-1.872689033259027341e-03,-9.146781683743281923e-04,5.471979267895221710e-03
6.580231172464516831e-01,6.255432856483691406e-01,6.277484730310610717e-01,-9.059109610525133138e-03,-7.425963330285879210e-03,-6.207274041040630568e-03,3.892821818590164185e-02
6.639850498676581614e-01,6.246945844707456619e-01,6.196845760748803666e-01,-7.376193552597235838e-03,-8.395568030778633936e-03,-9.347711177790637982e-03,4.901537299156188965e-02
6.429223229241181059e-01,6.218288182073649084e-01,6.298906086249271841e-01,-3.883612051425208104e-03,-5.799429400338176714e-03,-3.325629267221503690e-03,2.278604544699192047e-02
6.685260542223423474e-01,6.159474715686014124e-01,6.208067127307774768e-01,1.683158847205705900e-03,-1.658317004009396195e-03,3.309826418622199926e-03,5.081576108932495117e-02
6.365508731701319256e-01,6.364533363530872068e-01,6.328815621981058737e-01,-4.950368964217911373e-03,-5.046480116913634045e-03,-3.372248312440445477e-03,1.404104661196470261e-02
6.517507919392160343e-01,6.235662843674721900e-01,6.177150488188305477e-01,-7.804014786914832517e-03,-4.823441259079912398e-03,-4.818831587844175229e-03,3.627238422632217407e-02
4.191592626680076261e-01,7.607579968770208367e-01,7.233251865352759991e-01,-1.751948013995524855e-01,-1.291810385227429026e-01,-8.708165795258547559e-02,5.198042392730712891e-01
6.875526493571981757e-01,6.582639571500494835e-01,5.685611463556244916e-01,8.531052648317846362e-03,-2.595517227602621435e-02,4.743337996568428722e-02,1.432509124279022217e-01
6.795354100202766201e-01,6.431994799835755172e-01,5.384605722497287639e-01,1.665907312213752225e-02,-1.050598342866030689e-02,2.915798638116334773e-02,1.407500952482223511e-01
6.334942814187074500e-01,6.333747347006055683e-01,6.325974868798882600e-01,-1.287488047083596614e-03,-3.375569769733814587e-04,-3.643481561141374207e-04,2.534616738557815552e-03
6.643865212641730800e-01,6.308283369469317448e-01,6.079655396996874739e-01,1.200058190600943736e-02,-5.572278544326830958e-03,4.234905344729927509e-03,5.472740903496742249e-02
6.800243981355608147e-01,6.251288019963646692e-01,5.997162948289361806e-01,5.919962492285327053e-03,-1.735978932056329686e-03,4.170238996831204976e-03,7.225447148084640503e-02
3.373563546698258864e-01,8.058956861820132378e-01,8.321944840081114680e-01,-2.117436208378010443e-01,-8.132044899057790099e-02,-1.181037485605721526e-01,6.547773480415344238e-01
6.292086743354594613e-01,6.328406973367083355e-01,6.417126364615773904e-01,1.916579391219621871e-03,1.647132530996347089e-03,-1.039617063768893870e-03,1.210484839975833893e-02
6.297300744514404691e-01,6.394693136531188760e-01,6.275347578871007803e-01,-1.520794828531004663e-03,-1.324373713392368833e-03,-4.192093719520016519e-03,1.363723631948232651e-02
6.346434191384160428e-01,6.353149820542455251e-01,6.328560951587366423e-01,1.001021091371197750e-07,-4.798793911006698663e-04,-6.331959953195762407e-04,2.596052596345543861e-03
6.327030698427736910e-01,6.462227217785238009e-01,6.225632876033838636e-01,7.607543541027058688e-03,3.404140771421935389e-03,-2.990993990662701128e-03,2.564974315464496613e-02
6.288436772910743766e-01,6.214424528084419030e-01,6.470446340802032958e-01,4.894561251042587290e-03,7.505116161400223092e-03,-2.970893643042169484e-03,2.807296626269817352e-02
6.223109455012876268e-01,6.264924427416095343e-01,6.467708073252406153e-01,4.366938762182222614e-03,2.879599101418613138e-03,-8.085801094227632740e-03,2.813748642802238464e-02
6.285467905827180068e-01,6.270312226019606472e-01,6.397104956526901143e-01,1.210600008200457501e-03,1.462853569012067785e-03,-4.303143360226443018e-03,1.449869666248559952e-02
6.346764523808369196e-01,6.331458518257944146e-01,6.326844329708839476e-01,9.156157900445065353e-04,2.477036697260195930e-04,-2.934894989327107608e-04,2.493878360837697983e-03
4.807538545798918372e-01,7.068275291105389213e-01,7.004409694915808560e-01,-2.176937996320085344e-03,-6.795570316505177878e-03,-1.736717996734369988e-03,2.233115881681442261e-01
3.953485682335439733e-01,7.053670270245867568e-01,8.809648731095031104e-01,-3.063037036564826843e-01,-1.580761276305076291e-01,3.280454403120018625e-02,7.355563044548034668e-01
6.197742781483264185e-01,6.366778878522003637e-01,6.412995674689313530e-01,2.676670130058574071e-03,3.553167225399752552e-03,-8.107674499852125446e-03,2.533351257443428040e-02
6.261010281129520960e-01,6.540385692325728639e-01,6.172800177872106442e-01,6.870368194330213341e-03,3.547000094434099669e-03,-3.183558782185025911e-03,3.625614941120147705e-02
8.011212052343728018e-01,9.248722294930913357e-01,4.798468047453269270e-01,7.143451720556298623e-02,2.748034680571661559e-01,-1.587892195946413176e-01,6.897761821746826172e-01
6.536869252262303975e-01,6.235116921171741655e-01,6.245823495980156181e-01,-3.518014466404438371e-03,-7.187358120960979542e-03,-7.164594090905514710e-03,3.500687703490257263e-02
6.304359498992694322e-01,6.337181929528362678e-01,6.351267802374592764e-01,1.386775492978648168e-03,1.976221060977780778e-03,-2.024820655654350349e-03,6.867754273116588593e-03
6.462521632219703216e-01,6.298924133858007091e-01,6.310332304064060205e-01,6.929701402648135236e-03,5.648422849070884946e-03,-7.026982596221879353e-03,2.526244521141052246e-02
6.409912668118551426e-01,6.316655936228071644e-01,6.247645868372014855e-01,6.680206794581877022e-03,3.091712814700194826e-03,-5.077387432878218559e-03,2.094850316643714905e-02
6.867884428449728684e-01,6.257849752486495110e-01,6.010299883089633699e-01,3.818550917339985640e-03,2.687890572603524562e-03,-5.322042440404873079e-03,7.742585241794586182e-02
6.353387215075894101e-01,6.288444606646282908e-01,6.352240493084742035e-01,3.015727866723565478e-03,3.684264934358496852e-03,-2.195067722367403506e-03,1.113122142851352692e-02
6.320389662794622110e-01,6.543191035046468373e-01,6.149442462931014042e-01,7.985499297693356147e-03,2.290271740441588225e-03,-2.627228815353906035e-03,3.737986460328102112e-02
6.234162134277509981e-01,6.205756220712346227e-01,6.547777746596457060e-01,1.476393914052515424e-02,1.447406127447255046e-02,-1.387617939249636244e-02,5.422881245613098145e-02
6.253376427064532006e-01,6.310733299669969432e-01,6.410631684040892786e-01,4.983935742545903338e-03,3.802619070725881019e-03,-6.612778203695683296e-03,2.095420472323894501e-02
6.252685943588761619e-01,6.411296354344557802e-01,6.295721787224004551e-01,3.705208942872832527e-03,5.293969622460249942e-03,-6.765535755536682301e-03,2.155030518770217896e-02
6.864907355815079715e-01,6.808944678909444326e-01,5.353879423901867218e-01,-1.190528463875097434e-02,-1.588207706032318187e-02,-1.025782206864370681e-02,1.533471792936325073e-01
6.277913106102552820e-01,6.469859066909523504e-01,6.255101497109953890e-01,3.702361283551575816e-03,1.136061583550255268e-03,-6.175458184693949576e-04,2.153045684099197388e-02
6.130712078368218965e-01,6.781180673744825471e-01,6.071798014863536430e-01,7.857257562833650649e-04,-1.314325987315788889e-03,8.130758746399475078e-04,6.824982166290283203e-02
8.275669749063484515e-01,9.180434870727560703e-01,2.443929710441121728e-01,7.124373218271989883e-02,2.971946292633193334e-03,-5.459730618176943107e-02,6.521024107933044434e-01
6.293357070869023406e-01,6.423441046300304436e-01,6.284355982395999352e-01,1.640457490617669217e-03,-7.149939013424202192e-04,-8.861842927303915061e-04,1.391763240098953247e-02
6.535453536872286584e-01,6.230316566040229320e-01,6.271514430324190981e-01,-1.195237081679287501e-03,-4.165800354301424889e-03,1.787131694246720675e-04,2.964442037045955658e-02
6.007132200682526735e-01,6.869823448682219613e-01,6.279789576258727468e-01,2.771737594251756989e-03,-3.791028503660427706e-02,7.116967005885798227e-04,1.008450686931610107e-01
6.673441012326891686e-01,6.370975715937573503e-01,6.059327745162644829e-01,1.867029763910847337e-02,1.635191608605806105e-02,-3.211996275812622342e-02,8.815722167491912842e-02
4.660368039141177254e-01,7.962319923846910008e-01,7.388531851357380553e-01,-7.014366529127454702e-03,-9.091156566345587331e-02,2.440122364782363901e-03,3.439988195896148682e-01
6.185488262467838672e-01,6.324220551704077264e-01,6.536108175083270577e-01,-4.217169042850291670e-03,-3.180107152802940599e-03,-9.975836820848299133e-03,3.629919141530990601e-02
5.383804573827798423e-01,7.078080552392962410e-01,6.741287700414315687e-01,1.049718408308157949e-03,-2.759204718394740047e-02,-7.533274533605265619e-04,1.625508368015289307e-01
5.681749377287463876e-01,6.786455807541216245e-01,6.025616768403490031e-01,-2.568355606401641691e-02,-5.843456364680477133e-02,-2.231037336340095656e-02,1.526547521352767944e-01
6.868426734520080013e-01,5.686570365893107715e-01,6.463801123168395613e-01,-3.363457490781355478e-03,2.165289753167611107e-03,1.030209716321136594e-02,1.057798340916633606e-01
5.642413458860662256e-01,6.884039507124564139e-01,6.246934470571281484e-01,5.448331061099872391e-03,-2.035617387993817612e-02,8.196849050447525473e-03,1.144493669271469116e-01
5.354500706874331106e-01,6.955908342516893272e-01,6.644190256510877912e-01,-1.403178709563616781e-03,-3.020998390163959907e-02,-1.112527985806173805e-02,1.572896093130111694e-01
6.953942642054297130e-01,6.811603642514320045e-01,5.313754240481161073e-01,-5.897730682303554267e-03,-5.647829805371170839e-03,-1.146193420646763467e-02,1.592618227005004883e-01
6.384201473694617324e-01,6.195636498687357996e-01,6.479710961401875524e-01,-1.506766261788718142e-02,-1.203517808638422670e-02,-1.039443164409812985e-02,4.546051099896430969e-02
6.144224328460222706e-01,6.881447805949721941e-01,6.202650280373886993e-01,-4.145650837380090471e-03,1.800656060777650752e-02,2.917744746905540348e-03,7.802690565586090088e-02
6.213642730404486114e-01,6.771516991253409001e-01,6.202715167765634474e-01,-9.571783214411036175e-03,1.526142271418667005e-02,1.030522611461404635e-02,6.683245301246643066e-02
6.118047929793990480e-01,6.759177412889915137e-01,6.165490029915723369e-01,-1.520672356965898503e-03,1.663203331911972333e-03,2.540278742941502136e-03,6.215631589293479919e-02
6.097366267613604229e-01,6.780588479267677382e-01,6.131004215391366863e-01,-1.123089475691747786e-03,8.039504007526350688e-04,2.984977488120797782e-04,6.674885004758834839e-02
6.995756965101750380e-01,7.069018277511118775e-01,4.928893388318542623e-01,3.545679530198843853e-04,-3.575851103062432836e-03,-4.117668817149800625e-03,2.106578648090362549e-01
6.009388131021291546e-01,6.868981681045680521e-01,6.173014718883849117e-01,9.842413592093988365e-04,7.684766505289632177e-03,3.357014592525136773e-03,8.039966225624084473e-02
6.131825833585529129e-01,6.822707794822772120e-01,6.120159476370083951e-01,4.854653687908638154e-04,1.645531780739075377e-03,2.249003542561939511e-04,6.974326074123382568e-02
5.388376712028276616e-01,6.784253424200016314e-01,6.892818052135420981e-01,-9.779345344814956154e-03,1.114353978575507824e-02,1.265583977291656441e-02,1.491910219192504883e-01
6.209135722865476437e-01,6.390099849357845363e-01,6.318846180764116083e-01,-4.130251089932175136e-03,-2.959386067068915140e-03,-5.964676128483278189e-03,2.082043141126632690e-02
6.317838965277348118e-01,6.285722899958831045e-01,6.389610409131671886e-01,4.149105483369840836e-03,7.028286484772655954e-03,-4.791953507355037160e-03,1.880425773561000824e-02
6.332721633511767534e-01,6.310590760733015836e-01,6.352145427996297444e-01,1.357491479996684926e-03,2.557818678682426995e-03,-1.654906476251642982e-03,6.807426456362009048e-03
6.532735373976159554e-01,6.335560781663583940e-01,6.123218184485901272e-01,-9.733012162356290825e-03,-2.508719401011740274e-03,-3.592310041773970168e-03,4.000184312462806702e-02
6.365107805519317763e-01,6.433883905166399853e-01,6.204944245541453851e-01,-9.704670364724972756e-03,-3.064681536897973218e-03,-6.079600319196016948e-03,2.890644781291484833e-02
6.438117355061216962e-01,6.379391867976770270e-01,6.264686207405744112e-01,-1.207691909513683003e-03,-8.198130168492903311e-03,-9.915592816855807803e-03,2.709949575364589691e-02
6.206828123804375430e-01,6.526702629570575453e-01,6.236417721212302867e-01,-5.547451908494865393e-03,-2.662874707649040898e-03,-2.335947793779182251e-03,3.266907110810279846e-02
6.532570887524264958e-01,6.226800869985404940e-01,6.155345149676491046e-01,-6.342007505326601076e-03,-3.459629108289723198e-03,-4.207349867568783292e-03,3.760555759072303772e-02
6.434524250170552406e-01,6.181429570489905823e-01,6.369793543437424210e-01,-1.919617738369016951e-03,-1.013826625199686950e-02,-2.437363814668161606e-03,2.925525978207588196e-02
5.864692443700380009e-01,6.515765094184187145e-01,6.771045053046401696e-01,-6.352345773401146638e-03,-2.860836130938634349e-03,-9.516155920335039181e-03,8.348637074232101440e-02
6.391599817356558022e-01,6.365551032765276451e-01,6.171403469236200756e-01,-1.720796238506998310e-02,-1.373580198722127062e-02,-1.826127756648894540e-02,5.375009402632713318e-02
6.211246000925666477e-01,6.481379746017569277e-01,6.245649548902796333e-01,-4.669830121233438033e-03,-7.099050731448381009e-03,-7.952426733796008618e-03,3.248010948300361633e-02
6.268325798845336694e-01,6.418883164826261201e-01,6.274305357258608273e-01,-1.885898121962911343e-03,-6.249159133781521675e-04,-1.704165442775979183e-03,1.544616557657718658e-02
6.049529135447138106e-01,6.222760424990642081e-01,6.736497397803936638e-01,2.227743004582822053e-02,1.167541447166997245e-02,-2.073319547885156544e-02,8.376571536064147949e-02
6.542395102657688755e-01,6.036200181664187481e-01,6.325873490710878233e-01,4.148486515377276286e-03,1.136691358223216285e-02,-2.520243685415176575e-03,4.892272129654884338e-02
6.263381333567628051e-01,6.508113495726728370e-01,6.281330310122029692e-01,-1.846498131957967576e-03,-1.454896792766186692e-03,-3.863233773564654378e-03,2.489147707819938660e-02
5.635376599595658398e-01,6.922554585724537413e-01,6.137209542912444027e-01,2.203122243304221021e-03,5.041838751331820939e-02,-2.495732142859063626e-03,1.424304693937301636e-01
6.143333423026631213e-01,6.969270256157760191e-01,6.898932670846774640e-01,1.031898581865460102e-01,1.279045681857114147e-01,-9.517522041090936691e-02,3.383613228797912598e-01
6.282287376178592453e-01,6.305734723974809608e-01,6.293202406377372826e-01,4.039898897009182310e-03,4.154629161521637172e-03,-7.400979994764278133e-03,1.640727184712886810e-02
5.557122802324152566e-01,6.456976399728556748e-01,7.009974515951844509e-01,-4.865112873213970485e-02,-1.080674514012004879e-02,3.586041792795480188e-03,1.536923646926879883e-01
6.173522028684486074e-01,6.648378469628841714e-01,6.167961297071543614e-01,1.268869798174579455e-02,1.233792711610463833e-02,-9.958164430921548696e-03,5.931929498910903931e-02
6.154648634573031130e-01,6.151432487501603541e-01,6.596603257894717576e-01,-5.515649573981709457e-03,-5.653936174802659358e-03,-6.998060180473369279e-03,4.797543957829475403e-02
5.740075382519268521e-01,6.770653927334230326e-01,6.536886814928626332e-01,6.210222114955283625e-03,8.706724312767659749e-03,-1.356596064473345430e-02,9.825205057859420776e-02
5.168612639719167845e-01,6.912784819590724883e-01,6.821248748680012186e-01,2.804576278941767285e-03,1.246343369976714993e-02,-3.339949488190920458e-03,1.715566366910934448e-01
6.020135123868248783e-01,6.400129538554328867e-01,7.476153846366483391e-01,1.475337386250316907e-01,6.440048624269786859e-02,-6.182073189481558650e-02,3.260634243488311768e-01
5.330142594066346051e-01,6.901277877296794205e-01,6.894956368782576561e-01,5.371310536932861340e-02,2.039491980583889308e-02,-1.546092891346580872e-02,1.876326501369476318e-01
6.217084185620704861e-01,6.587216233238071261e-01,6.175169377489282407e-01,4.024489096146200394e-03,1.843770932537844905e-03,-1.474158337121331871e-03,4.009979218244552612e-02
6.240628369948009180e-01,6.273497427847437580e-01,6.455462686041822939e-01,1.088343948114373332e-03,-1.258861264737899362e-03,3.909995174757290547e-03,2.135180123150348663e-02
6.328430166717348149e-01,6.314715069833999328e-01,6.361842026998750788e-01,1.024353328159774944e-03,-1.702085415125567051e-03,-7.297997380386070491e-06,5.428293719887733459e-03
7.316406521748909375e-01,6.551492646319884150e-01,5.622256743373255095e-01,2.341094380632595916e-03,-6.363382356537244065e-03,-5.243837291992031052e-02,1.731497943401336670e-01
6.864162432143611214e-01,6.478639705374104052e-01,5.622636637504188073e-01,-7.271280450319788161e-03,-7.190266611243217344e-04,-1.102781019905298837e-02,1.124223321676254272e-01
6.289895075340475872e-01,6.256268891579106484e-01,6.392569422258842504e-01,2.841684568270305949e-03,-5.506133162139713842e-03,3.061580611464621935e-03,1.716247946023941040e-02
5.657348554648874428e-01,6.190049816235860813e-01,6.795370431826031066e-01,4.873373658525946561e-02,-1.650695426595414489e-02,1.808777125440707775e-02,1.365659534931182861e-01
5.327019671903865383e-01,6.549910689226235982e-01,6.960174517462719423e-01,2.918577612762617360e-02,-7.249868473597018831e-03,1.040557778248426407e-02,1.571394503116607666e-01
4.945669715738910677e-01,6.623696827089945449e-01,7.063607089661301242e-01,8.431051594159866269e-02,-1.568848530052121062e-02,6.347347287176811556e-03,2.442515343427658081e-01
6.597763967560726917e-01,6.120132772746696981e-01,6.225387005386409101e-01,-3.813869300969754440e-03,-7.578931189031125511e-03,-7.031515619958213573e-03,4.747269675135612488e-02
6.847217268621987873e-01,5.031340073464453111e-01,6.766572090138694984e-01,-4.646192417713828487e-02,2.061442996308636422e-02,5.507702371647292539e-02,2.200594246387481689e-01
9.321322594399801265e-01,7.016472252183749703e-01,5.776417652540838388e-01,7.920019848857116906e-02,9.880373588556877473e-02,-3.167407141422534655e-01,6.679525971412658691e-01
7.923039192752820981e-01,5.177776018286430748e-01,6.634429498498327638e-01,1.036848252238614237e-01,1.780643614505104666e-01,-2.293698513561224506e-01,5.846350193023681641e-01
6.768186160204878732e-01,6.785109086939954404e-01,5.561709681758632007e-01,9.863507487346108438e-03,-9.159259690112683469e-03,8.578914181641323494e-03,1.246082857251167297e-01
5.679582848683697449e-01,6.871151262018811989e-01,6.483506337238177375e-01,-1.246853613458183798e-03,9.869636644449527804e-03,7.231679065010225040e-03,1.074046939611434937e-01
8.098794632522515746e-01,8.934351546498215946e-01,4.085238977239855074e-01,9.120895589389731162e-02,-2.964598338955308776e-01,2.203106566580215198e-01,7.973934412002563477e-01
5.835343185564829671e-01,6.574500251246488958e-01,7.545639333466669374e-01,1.290680993631156404e-01,-7.012335898414055746e-02,5.888289489246947145e-02,3.117724359035491943e-01
6.413839685771860477e-01,6.222606134082271367e-01,6.467383585042205674e-01,-1.257463566536229371e-02,-1.420440284962985397e-02,-1.229699246766490991e-02,4.505633935332298279e-02
7.043051455991280463e-01,4.762896285181163480e-01,7.023584100853147438e-01,-4.971874842999448284e-03,-2.870514958427771834e-03,-3.123786673618462149e-03,2.273304462432861328e-01
6.644025650215945600e-01,7.175726254012134708e-01,4.430674762526399246e-01,-2.112569716105005060e-02,9.473301184931957886e-02,4.191100221508040069e-02,3.116347193717956543e-01
3.250495229146661558e-01,6.580856818371022543e-01,7.859088345420323085e-01,-2.353350137504502948e-01,-8.146153269699417387e-02,-4.324411048399352808e-02,6.012381911277770996e-01
7.247076112844648144e-01,7.285232427547845280e-01,4.736915207124416938e-01,1.977950109371362855e-02,5.715831612075023688e-02,8.037603250432989732e-02,3.071436882019042969e-01
7.184796843437555314e-01,6.907759353620543941e-01,4.775764931873364150e-01,-9.061789673257755751e-03,-1.478337910684483780e-02,-2.973178227030889159e-02,2.359700202941894531e-01
6.860048900048111298e-01,6.304750244979168139e-01,5.971289908312634731e-01,1.111659234331706034e-03,-2.007749496725508460e-03,-3.591988799239147906e-02,9.966815263032913208e-02
6.142255189620180467e-01,6.661857782890036050e-01,6.150369462637345075e-01,-9.343502317745706540e-03,-1.585173043792530850e-02,-1.314301155490704871e-02,6.474810093641281128e-02
7.039933079058731114e-01,7.044987437880791958e-01,4.629032009531762748e-01,-1.000377401884269346e-03,6.365096771920980903e-03,-2.906205635047758116e-03,2.416535466909408569e-01
7.147393566303773538e-01,7.095887263080037366e-01,5.024141185689958711e-01,-2.244509256725571791e-03,9.531923875490256985e-04,2.042103169357403769e-02,2.127999514341354370e-01
6.509091731739558018e-01,6.489469002527780139e-01,5.986341729919816279e-01,-1.367492033650825715e-02,-5.771586598911379248e-03,-6.422978265901191884e-03,5.846927687525749207e-02
5.352558408183888394e-01,6.566728467504908684e-01,5.177960373739296518e-01,-1.462422982129266968e-01,-2.309915398343589943e-01,-1.266039430389963028e-01,5.380373597145080566e-01
6.894776387993661881e-01,6.634375896323695398e-01,4.679961664195198545e-01,-2.309518434027827555e-02,5.023558038033802686e-02,7.334918032384345199e-02,2.632034420967102051e-01
6.528107784496155475e-01,6.783524283267433619e-01,5.827843186120551522e-01,-8.804180711330523990e-03,-7.008671552879214804e-03,-3.027628036429587735e-03,8.804588019847869873e-02
6.771239173840252201e-01,6.778479062406603806e-01,5.555766175441585464e-01,-1.049996492341591890e-02,-8.961594207958044692e-03,-7.541741747351011181e-03,1.249182969331741333e-01
6.998471770378014156e-01,6.819858443157712502e-01,5.319328717301547993e-01,-3.623182625286010001e-03,-4.309491800687622470e-03,-1.130035220069288381e-02,1.612242460250854492e-01
7.087229398952081816e-01,6.766688632298730743e-01,4.956605288286404232e-01,-1.101208700414519834e-02,-5.088105717576677650e-03,1.152689983059595677e-02,2.010810971260070801e-01
6.800198075210184268e-01,6.914931999949696095e-01,5.441456098056994817e-01,-1.042732460569678610e-02,2.200621883532396725e-02,3.642376518522611600e-02,1.609703600406646729e-01
5.648755675284974354e-01,6.743433274501080543e-01,6.463778047943931071e-01,-8.055976318434524691e-03,-1.742923610058794842e-02,-1.461455635864758115e-02,1.070080623030662537e-01
6.119428707348568697e-01,6.854073831613255452e-01,6.348590425539666349e-01,-1.626958103483480342e-02,-2.664312353018478269e-02,-1.259169683188827472e-02,8.739552646875381470e-02
6.696777138642922012e-01,6.959035845983485569e-01,5.497016014703353104e-01,-9.586200917067530872e-03,-5.747895812983482011e-02,-2.427886079444620347e-03,1.686220765113830566e-01
6.640768602189703884e-01,6.909305220499190048e-01,5.790526108113427384e-01,8.185170475652444808e-03,-3.929864427552539480e-02,1.512958977380681955e-02,1.255161762237548828e-01
6.316659874406391761e-01,6.525429051490231336e-01,6.125036605425826508e-01,-1.077861137157036173e-02,-4.657785552822557053e-03,-2.675480045313628329e-03,4.047450795769691467e-02
5.683885414103806433e-01,6.573363220192344203e-01,6.442075122210055849e-01,-1.650793499816989585e-02,-1.943950475258771071e-02,-1.889963985427072293e-02,9.969504922628402710e-02
6.314068082509473046e-01,6.692820838724180543e-01,5.940562915028130275e-01,-7.946006569168613531e-03,-6.860091422801778416e-03,-2.217051274763790544e-03,6.774661689996719360e-02
6.279305350317014867e-01,6.799562157713380239e-01,5.946828778954950101e-01,-3.683799319681360131e-03,-4.077389807110511945e-03,-1.585711233114833925e-03,7.509953528642654419e-02
6.930363142769287998e-01,5.182901984183352351e-01,6.813217312995532016e-01,-3.743279703234584678e-03,-4.560128778211739939e-03,-1.030680266140585229e-02,1.704390496015548706e-01
5.912048421160457368e-01,6.570771256900695967e-01,6.290477775216065659e-01,-5.094599725903334840e-03,-1.291136220677489149e-02,-1.049321923546191887e-02,6.470504403114318848e-02
6.194829479389830640e-01,6.601938378977864064e-01,6.416866117990179808e-01,-1.439752334675314938e-02,-1.820778459112963599e-02,-1.428620806354020771e-02,5.895058810710906982e-02
5.758392532265157460e-01,6.800120701067051687e-01,6.293847582715873523e-01,-7.914996780204660090e-03,-1.558768683933489316e-02,-1.522993001498864143e-02,9.876149147748947144e-02
6.287065210159614725e-01,6.318940446716525550e-01,6.343778144613316794e-01,-2.627705391811487479e-03,-2.434686952466648662e-03,-5.550775503205816405e-03,1.245702337473630905e-02
6.613240268932584209e-01,6.272098966219916694e-01,6.141789512555989594e-01,9.975786134503842467e-03,2.611298327401272504e-03,-6.164363011713847734e-03,4.702257364988327026e-02
6.429285816970871092e-01,6.285161402452732471e-01,6.335958042118867706e-01,2.132242107983222529e-03,6.626742122606480009e-04,-2.311663471843911424e-03,1.383109670132398605e-02
6.445045197223846500e-01,7.094331550286043786e-01,5.880224872921828716e-01,2.228839979642528724e-02,7.682835064219516175e-02,-2.632027877269887267e-02,1.798600107431411743e-01
6.528694301222035534e-01,6.441361894426809176e-01,6.125828617135553600e-01,1.174022467804423757e-02,5.382735799896780360e-03,-7.092465926451664571e-03,4.470765218138694763e-02
6.581010244463150194e-01,6.176307058893167889e-01,6.202572149289075076e-01,5.088180118999430408e-03,9.431238595971716196e-03,-8.397111381038933550e-03,4.576567932963371277e-02
6.154213026460857439e-01,6.684147785150428289e-01,6.154163030874452156e-01,1.677363123543610963e-03,-3.144127493444399306e-04,-2.032276412232688484e-03,5.319493636488914490e-02
6.588865973617751282e-01,6.223630907296588965e-01,6.173438484522435488e-01,5.138833214989819986e-03,2.048521642939595856e-03,-2.290280015845757872e-03,4.062053561210632324e-02
5.928532076699957187e-01,6.587708222811655689e-01,6.507762920527020434e-01,-1.291174328540330846e-02,5.862835866887207252e-03,1.521475278197563334e-02,7.197074592113494873e-02
6.541482919858530032e-01,6.252537208371948818e-01,6.280949828462801809e-01,1.742990775396250280e-03,1.433510727645553656e-03,-1.973873834127330262e-03,2.806847728788852692e-02
6.580113161189057314e-01,6.129046763813833509e-01,6.326573147075148507e-01,5.368496327562321396e-03,1.400945295894607916e-02,-7.668746471581568656e-03,4.884143918752670288e-02
6.038751148270622426e-01,6.111675288201646739e-01,6.764405824280537161e-01,-9.360327303338071558e-03,2.579692253522166984e-03,4.529722483907357676e-03,7.165274769067764282e-02
6.215709285640235171e-01,6.191209095732898016e-01,6.645895188611432580e-01,1.271302164718645386e-03,4.879637770359828049e-03,-2.362703824044454920e-03,4.533239826560020447e-02
6.768712314745968239e-01,6.785698357613170195e-01,5.466549234161323101e-01,1.250005470858565546e-02,9.373383931258656016e-03,-9.522568424436685802e-03,1.348507702350616455e-01
6.189682891902610340e-01,6.203978074373449614e-01,6.641458591128741595e-01,6.819942977119642421e-04,2.627333606448894934e-03,-4.555260146862740930e-03,4.541838169097900391e-02
6.130346089481274463e-01,6.159168951451283736e-01,6.627068638289808078e-01,6.072267936030212657e-03,4.467026198435667013e-03,-7.015808145251055221e-03,5.148413032293319702e-02
6.266447508241218545e-01,6.691552346070306356e-01,6.057641384774009596e-01,6.802008750128206091e-03,2.984682570406326126e-03,-3.397184818706210606e-03,5.771425738930702209e-02
6.036176315090350242e-01,6.161801836679792199e-01,6.754685822294566044e-01,5.937349767619338504e-03,3.166891120426638950e-03,-5.653246324311532282e-03,6.818699836730957031e-02
7.960970650318429653e-01,7.975706499634374058e-01,2.601879800464185211e-01,-3.569848878420107952e-02,-1.206138625064821779e-01,-1.768030257692675689e-01,6.551600098609924316e-01
7.542985723261749209e-01,6.118547303451331576e-01,5.533263721020725834e-01,-6.365683773635164022e-02,-2.095063625027091328e-02,-1.186407611677028212e-01,2.962314486503601074e-01
7.766207878964896949e-01,6.277202274685769190e-01,5.302844661276271410e-01,2.910224654215174886e-02,7.344181573383770992e-03,-1.222452269415994913e-01,3.061170876026153564e-01
6.351751028955630041e-01,6.329976909862087275e-01,6.304082168232953975e-01,3.012870412383991062e-03,2.010600222250680941e-03,-1.441170869046442746e-03,7.916784845292568207e-03
6.510341644034536301e-01,6.725654474328572885e-01,5.870878380139235020e-01,1.067035201557071586e-02,7.724970322634609407e-03,-5.509949590033158713e-03,8.087798953056335449e-02
6.988867236242575220e-01,5.672002988853400707e-01,6.471579417699432346e-01,-6.431347530475906059e-04,-1.921621935165817707e-03,1.190679087257057699e-02,1.168025583028793335e-01
6.791846609580239891e-01,6.950422625404104604e-01,5.309096535294537400e-01,-5.396904567902194999e-03,-1.425081841687517170e-02,-4.216231348321743816e-03,1.591797620058059692e-01
8.081235150417566127e-01,6.840397535870161860e-01,5.324292719370763427e-01,-5.634099086354377693e-03,2.339408021297032306e-02,-1.497282325298183447e-01,3.552289903163909912e-01
7.772933173921454664e-01,6.665457364430331655e-01,4.693601299592146670e-01,-2.258316649654936240e-02,-4.214086680418786118e-02,-1.754084709390412444e-01,4.149059653282165527e-01
6.506942883938081623e-01,6.856262382252826804e-01,5.694125852239299013e-01,-7.724158109171138341e-03,8.242575791057426410e-03,3.279946595707987442e-03,1.052680686116218567e-01
6.301832192856849924e-01,6.256524840826626077e-01,6.401301922855012760e-01,-3.331820595041314927e-03,-4.836605734525360571e-03,-2.261271230319501779e-03,1.683325134217739105e-02
6.804373908733459819e-01,6.822356960071268572e-01,5.563655236838743745e-01,-7.201941883982042845e-03,-8.023339170660967121e-03,-6.244724608674160661e-03,1.268301904201507568e-01
7.698916549932640629e-01,7.412362100906070284e-01,4.053268437574641947e-01,1.454733014906261362e-02,-3.520877420843783467e-02,-1.334768998453738365e-01,4.255396127700805664e-01
7.865751477881530729e-01,7.940269250794729228e-01,2.094163873837452949e-01,-1.892025131394053927e-02,-4.223616838198214485e-02,-1.863992943154986481e-01,6.694238781929016113e-01
8.051317802026445314e-01,8.618694693302492160e-01,3.348301569561999425e-01,-1.457954550432629878e-02,-1.480518695050228872e-01,-2.534081736894134296e-01,7.142334580421447754e-01
6.643545735909412997e-01,6.213275748351212435e-01,6.179923675634724223e-01,-4.316067319461628846e-03,-1.689188661768892177e-03,-1.002561761674941555e-03,4.553472250699996948e-02
8.092619861475767173e-01,7.121069144783128690e-01,4.833444865185339001e-01,-5.957749274706412163e-02,-7.524525918440887196e-02,-1.491200493503594127e-01,4.223045408725738525e-01
6.265088223569534875e-01,6.865134512215992357e-01,5.725010018285078273e-01,-3.961678407438032692e-03,-1.743266866487958727e-02,-3.007109181286004868e-03,1.036533936858177185e-01
7.025782877137651816e-01,7.046194293855837509e-01,4.911173151066511866e-01,1.788963831980203015e-03,-4.384214647990756532e-03,1.174841878216707942e-03,2.126568555831909180e-01
7.787965364073523578e-01,5.963369103992015585e-01,3.934517695845258789e-01,-2.262660967810117829e-02,3.694349538499652839e-03,-2.447873224197530950e-01,5.411206483840942383e-01
7.657259616548981462e-01,8.108613656504076728e-01,2.631974272149831262e-01,-2.855507544891391913e-02,1.820265396660484258e-01,1.180335754866955987e-02,6.160511970520019531e-01
6.593235407488624578e-01,6.570545886458736273e-01,5.735327983326296009e-01,2.014954278433056176e-02,-1.140894202940086373e-02,1.244533457224986095e-02,9.614419937133789062e-02
6.799882699243591233e-01,5.145549756485212622e-01,6.942505382500583355e-01,-1.377897442889496754e-02,2.815154986268608283e-03,7.912414390765468153e-03,1.752490103244781494e-01
5.266906009181774317e-01,7.039319522131346485e-01,6.823492549023850717e-01,4.416877417704127839e-03,-1.078038349330269312e-02,6.446874109674563709e-03,1.690763980150222778e-01
6.991028146463280635e-01,7.101359766098899184e-01,5.354108989048000922e-01,-2.489692181277231714e-02,4.308799105673880026e-02,4.781104531677832920e-02,2.073880285024642944e-01
5.856515578250448550e-01,6.824881552391507400e-01,5.923501348608262163e-01,3.728654903650884238e-03,-3.766931746592459829e-02,6.320035782476067336e-03,1.148564293980598450e-01
7.790307344803817369e-01,7.848599016191100119e-01,3.791877543319619459e-01,3.713509836950471855e-03,-1.231971427106439559e-02,2.501467708357310235e-02,4.057253301143646240e-01
6.762031491484348233e-01,6.262546364439134372e-01,5.683506347646525292e-01,2.942801447028629488e-02,-2.708150274335483637e-02,4.316838598819542488e-02,1.383066177368164062e-01
7.095766689933006299e-01,7.160183244516669099e-01,5.047875003385886572e-01,-3.440493059327882647e-03,8.895827336593692403e-03,-2.805683089439515998e-02,2.143216133117675781e-01
6.534132100377095798e-01,6.207638509989301667e-01,6.199724312735114262e-01,2.317813448594921357e-03,-5.286241074310986734e-03,1.946134264256758374e-03,3.469522297382354736e-02
6.804375924620761351e-01,6.949523287788000880e-01,5.192091723881824272e-01,9.264467537607646739e-04,-1.215944805445719548e-02,5.339812235384430034e-03,1.705202013254165649e-01
7.657102199591316882e-01,7.282461715224686216e-01,2.461555168361898027e-01,-7.625148557846870255e-03,2.389475758869861674e-02,1.414769576142068941e-01,5.601879358291625977e-01
6.141442973240939240e-01,6.695707968295271373e-01,6.145362062986036156e-01,-3.839103156932257514e-03,-1.570540798611405565e-03,-2.338715903670312082e-03,5.584400519728660583e-02
4.609614296295505564e-01,7.365599066114912885e-01,7.487701678773936997e-01,3.020758364613106844e-02,-6.516080161733074638e-02,-3.984373619994110993e-03,3.082071542739868164e-01
6.856509385079920804e-01,5.624008609804339587e-01,6.451886478097820232e-01,-1.918044405334650869e-03,-2.341268113054067058e-03,-9.682052745676893515e-03,1.102247983217239380e-01
5.080531413468163393e-01,7.140007544377194870e-01,7.041777647701443765e-01,1.256860341861228310e-02,-6.960409676641469284e-03,1.819647595328787327e-03,2.027734518051147461e-01
5.013328687036922027e-01,7.044604073791176369e-01,7.003800230528963722e-01,5.644230967995460127e-04,-1.834774705596552147e-02,8.766040718581398928e-04,2.036216855049133301e-01
6.364801541254077044e-01,6.530626183927211725e-01,6.129798515555788807e-01,-8.531522644621999593e-03,-4.652081665431646168e-03,-2.672202463318259016e-03,3.900824859738349915e-02
6.272469875377250093e-01,6.721122557452117174e-01,5.939189508871025591e-01,-8.515314447168721712e-03,-5.876526298517997619e-03,-2.932629419177775788e-03,7.046882063150405884e-02
5.080796388081523229e-01,7.172899723163713714e-01,7.162695010275197394e-01,-1.288431551880206763e-02,1.604906019772480569e-02,1.026496838166228486e-03,2.117319256067276001e-01
4.350543815438184803e-01,7.141408508895422669e-01,7.092640861127974539e-01,3.638606885510992789e-02,2.337262358361482523e-02,-4.395586358671512567e-03,2.867414057254791260e-01
3.381403046815259494e-01,8.698694128781087054e-01,7.830548295252446334e-01,3.108130203781715381e-02,-7.923568497011398981e-02,4.366601569460861615e-02,5.211179852485656738e-01
4.888400278553557410e-01,7.060053332629081524e-01,7.145049485730505801e-01,-4.736491652554391933e-04,1.980810624806193278e-03,1.722621991330437145e-03,2.215856015682220459e-01
4.794153041301222884e-01,7.254891589209611080e-01,7.191584714876196882e-01,4.678788631032676330e-03,8.096458688525823982e-03,-2.382875617394403841e-03,2.435445934534072876e-01
6.357348968937208689e-01,6.219951014813122070e-01,6.521741750608406329e-01,-3.455312303469982964e-03,9.383692943008885290e-03,-3.195545039972939286e-04,3.138772398233413696e-02
6.393668944524500963e-01,6.311831964616672064e-01,6.300325735291740781e-01,5.821818930537538822e-03,4.744644580102136584e-03,-3.714737193267663665e-03,1.698018610477447510e-02
6.154296178030836950e-01,6.775037442590137182e-01,6.106552680396325483e-01,-6.345810727278565619e-04,2.956700602893923627e-03,3.156977224968534381e-05,6.480580568313598633e-02
5.940375387156375808e-01,6.309801246432399369e-01,6.959528043367587680e-01,-3.276396864622960897e-02,4.404582901158760229e-03,2.733423720082870951e-03,1.062427014112472534e-01
6.216678996058806472e-01,6.460110698804414353e-01,6.394622422126761130e-01,1.181822187395841633e-02,1.497278024832588046e-02,-1.069468158324072236e-02,4.371212795376777649e-02
6.034079171823130139e-01,6.413529694249759938e-01,6.667881839214063744e-01,2.660864705568066063e-02,2.805046356032114829e-02,-3.382495180437627980e-02,1.047322601079940796e-01
6.266745560892550415e-01,6.432039344144708792e-01,6.272559717640516785e-01,2.941762921383990915e-03,-1.104130805236100464e-06,-2.113330458352358308e-03,1.741575077176094055e-02
6.268006023262836512e-01,6.408631811137487366e-01,6.310258112915201334e-01,9.800743251769440147e-04,-2.085165574951714645e-03,-1.706218514116541454e-03,1.344805210828781128e-02
6.275040639261730835e-01,6.881848742686413889e-01,5.981268722028657558e-01,6.526099452936473533e-03,5.242954904095979696e-03,-2.212781382757967284e-03,8.094897866249084473e-02
7.753547499307722468e-01,7.166907903398294089e-01,4.207920340718035446e-01,1.847773713026164624e-02,-6.366048037052040275e-03,-3.990877493413415994e-02,3.380534350872039795e-01
6.442458558099852794e-01,6.247642692001996734e-01,6.230303515298868389e-01,7.240803609697976650e-03,3.491304151925761230e-03,-4.499282038741923145e-03,2.590181678533554077e-02
6.324996809317745550e-01,6.405076119609591778e-01,6.288050980071542284e-01,5.555753729210268638e-03,1.692125263193972962e-03,-2.916084711343057152e-03,1.529910415410995483e-02
6.333711007399097648e-01,6.408073584398140676e-01,6.315768287773972922e-01,3.693996112667241594e-03,-6.098835121259552246e-04,-1.848446695662915194e-03,1.114284433424472809e-02
7.057698117792420289e-01,7.043327349619928901e-01,4.852975548963602836e-01,4.429354108095177921e-04,2.871945120953814552e-03,5.718800175816186708e-03,2.200379371643066406e-01
6.305419069946655020e-01,6.046666214356809510e-01,7.018388164489984815e-01,-3.474037254047107615e-02,-3.498147009878599736e-03,-2.985195988730902656e-03,1.062155067920684814e-01
6.015953133161076050e-01,6.307195609060514130e-01,6.980221332611311613e-01,-3.124286954178239623e-02,-6.711710916798571160e-03,1.118317347453256453e-03,1.020060703158378601e-01
6.509796557093864289e-01,6.863466899007847344e-01,5.532318019018468425e-01,3.770349164248375413e-03,1.197072742459117517e-02,-1.328111919130862441e-03,1.214098632335662842e-01
6.196731371478428896e-01,6.785425179239084059e-01,6.212256875387645039e-01,-6.230546931320084421e-03,1.109141201469633457e-02,7.028960549197617834e-03,6.332734972238540649e-02
5.732065882760897235e-01,6.587815499489158011e-01,7.035410997152001800e-01,-3.902421145127929480e-02,-4.302977574486670231e-02,-2.196833738727391530e-02,1.572512686252593994e-01
5.462594114562835390e-01,6.633472415997171412e-01,6.900289366429253057e-01,-4.092168755961973770e-02,-2.694354502450225716e-02,-1.962888602486437956e-02,1.609443128108978271e-01
6.654426767014067767e-01,6.670846212759254934e-01,5.932126677331878151e-01,-2.387722436216134156e-02,3.619923266563119385e-02,2.192596572490623438e-02,1.114550605416297913e-01
6.795344648179262315e-01,5.261540425149180411e-01,6.955184846014264011e-01,1.151281189243417470e-02,-4.669205824327184694e-03,4.397131801626662922e-03,1.635656505823135376e-01
7.016821368782514279e-01,7.011468521247743446e-01,4.844811340992077331e-01,-2.752300897470188936e-03,2.769176191162532347e-03,5.647560103874159528e-03,2.172595560550689697e-01
5.518366585783253120e-01,5.700087956225617924e-01,7.467096777934951746e-01,-1.180909814182555528e-01,-3.248667977905400628e-02,-3.386517928059377958e-02,2.884572744369506836e-01
6.183456870056585064e-01,6.596519591043121800e-01,6.212677274689747398e-01,4.461137429106147969e-05,-1.171737294662352847e-03,-3.962229556803684161e-03,4.056193307042121887e-02
5.717007076968754209e-01,6.254526440388615827e-01,6.926219549847498769e-01,-1.863700824574294687e-02,1.945374125772731571e-03,-2.272828283655539770e-03,1.099105626344680786e-01
5.670224133673641420e-01,6.182270667587587143e-01,6.991823876911887892e-01,-5.319929245490052222e-02,-7.129523936789663660e-03,-4.791743021587174974e-03,1.484346240758895874e-01
7.604866259065745648e-01,4.835764814778545917e-01,7.626269920795358814e-01,-4.966196754220469217e-02,-1.244642359913619711e-02,-4.543867909228816587e-02,3.022154867649078369e-01
6.175788495322767080e-01,6.798303621721781820e-01,6.029961623200587040e-01,-2.173195039994389906e-03,-4.577525515356179429e-03,-2.891663313280941599e-03,7.139898091554641724e-02
6.534640730632272909e-01,6.206161881790019930e-01,6.202185391150337734e-01,-4.473537596969425802e-03,-2.365206385138031615e-03,-1.101656957307160312e-03,3.424419462680816650e-02
7.077584387323322401e-01,4.541004367146018739e-01,7.056958895558623768e-01,-2.477433596945525715e-02,1.148609902879595395e-03,-3.582209330060655977e-02,2.636633813381195068e-01
6.815575927985129123e-01,6.797368988754270980e-01,5.315758369883734069e-01,-7.994092069292189559e-03,7.024504457511508704e-03,8.188789704698187094e-03,1.508830189704895020e-01
7.638217388190862156e-01,2.548541708289663865e-01,9.543497294006770826e-01,-1.965931961529677752e-01,3.077513936457327084e-02,-7.328950745601049699e-02,7.261015772819519043e-01
7.137580616956487045e-01,5.115398845372358672e-01,6.979725110930700138e-01,-1.297564617726375789e-02,-2.623147340645535911e-04,-2.440326440785563558e-02,2.006018906831741333e-01
6.974460349895187372e-01,6.242258653011766301e-01,5.753618489467029473e-01,-4.710133510953271041e-03,-7.683865172415455186e-04,1.452893832367085046e-02,1.096736714243888855e-01
7.070104894790175676e-01,4.808285746094466684e-01,7.001920767706567572e-01,4.535096154207944770e-03,1.237512793275843742e-03,-3.421326993829029196e-03,2.230783700942993164e-01
6.523074670097380734e-01,6.957748769139440181e-01,5.621935343630415360e-01,-1.751294798735131015e-03,-1.139703354674206394e-02,-5.450749524326091184e-04,1.196942999958992004e-01
6.440513475603389937e-01,6.275206357222609110e-01,6.267455666895600519e-01,-8.518014338621224561e-04,-2.940978495515431113e-03,1.547816017700083746e-07,1.774267107248306274e-02
6.966357409897683262e-01,4.817425142428146678e-01,6.804715454278507103e-01,-3.979820108889468161e-02,-1.254285046344090319e-02,-5.251815861696526588e-02,2.376235127449035645e-01
6.999931475400498204e-01,5.036058037624645545e-01,6.793528570224645069e-01,4.042822288095813434e-03,-1.413791899792779180e-02,-7.233517331100430131e-03,1.890665590763092041e-01
6.864317700995932192e-01,5.467447804134838441e-01,6.916386817357280670e-01,-1.510397370476293695e-02,-1.228167462263389867e-02,-2.877783863197964920e-02,1.545584201812744141e-01
6.935807729607161853e-01,4.896101695957081334e-01,7.239490547273778054e-01,-2.087108725166262821e-02,-6.822955583554693622e-03,-7.400048800063939794e-03,2.243462204933166504e-01
5.874207527053095790e-01,5.529042524623190014e-01,6.607106201934423995e-01,-1.957591549034645995e-01,1.341123409811190714e-01,1.666608999146683145e-01,5.112175345420837402e-01
6.137987593758528204e-01,6.803094167938028569e-01,6.131036098202671258e-01,2.688852242567478946e-04,-1.799084403661529823e-03,-5.191546254838798292e-04,6.694117933511734009e-02
5.925306507954012369e-01,6.856743264744376010e-01,6.274550238479459363e-01,9.812334716699864633e-04,-8.462210541869534877e-03,4.618352491839589936e-03,8.321162313222885132e-02
6.165978070913933351e-01,6.805402220518830259e-01,6.077106251646682278e-01,3.286270590538482687e-03,-1.312528981937816953e-03,8.119666396795001363e-04,6.910446286201477051e-02
7.167911674888998164e-01,4.903708731126370512e-01,7.258796879451454576e-01,-1.800439485933425995e-02,-1.025231146918787958e-02,-7.755383272439926763e-03,2.342537492513656616e-01
7.439250772317251847e-01,6.922893385370525454e-01,4.267950382330945036e-01,9.173534002798396092e-02,-1.775895850996994652e-01,1.998840647638202850e-01,5.714750289916992188e-01
7.640022453533086289e-01,4.034771043415815717e-01,6.385396461932223433e-01,1.244410714194693762e-01,-1.119278274738073481e-01,2.361188641902628449e-01,5.931133627891540527e-01
7.103162639262625699e-01,5.433383191521650168e-01,6.949331495715278528e-01,-1.007510172512060369e-02,-5.794783715776192189e-03,-2.767241545650475990e-02,1.680838614702224731e-01
6.262701254029443554e-01,6.882999427170154449e-01,5.961661994532685416e-01,-9.467463239773376248e-04,-6.350685629788696031e-03,-3.538879664512303456e-04,8.213004469871520996e-02
6.762893077134410902e-01,5.851160966349560066e-01,6.283381613064699112e-01,6.476177453620426440e-03,-1.095748035014455606e-02,1.152683152802113503e-02,8.440753817558288574e-02
6.887372964916388396e-01,5.539283103407391939e-01,6.182288232431815134e-01,1.270104468779645335e-02,-1.397212673401127328e-02,5.795388866688529206e-02,1.574334800243377686e-01
6.168042269732522120e-01,6.166986401416996166e-01,6.785873408084844849e-01,2.489224719051680673e-06,-3.230535091517514144e-03,-3.761988857355322985e-03,6.242959573864936829e-02
7.721346670808650892e-01,5.392694381193920972e-01,3.358764978645711885e-01,-2.515764709205908431e-02,2.604771793372427993e-02,2.674481798566553659e-01,6.012302637100219727e-01
7.902061010026922849e-01,6.573047865876744389e-01,5.533653190018098522e-01,-1.778965650694586467e-02,1.468876148684206823e-02,1.332368501741626743e-01,3.116612434387207031e-01
6.245061721327036519e-01,6.545378805876153061e-01,6.285922800815032518e-01,-1.535503584822879922e-03,3.045526869689377161e-03,1.572058493303575598e-03,2.895168587565422058e-02
6.412120373878870128e-01,6.295543491559842941e-01,6.274786147927656765e-01,-1.748000348378830546e-03,1.356140138538004672e-03,-1.074324792213417245e-03,1.351129263639450073e-02
7.559180360814609090e-01,6.457782645311205272e-01,3.966381109086449808e-01,6.180490030161734510e-02,-1.285552962427426726e-01,2.420884617525137783e-01,5.818085670471191406e-01
6.132196395366923403e-01,6.811389903533650036e-01,6.045942648068182157e-01,-4.620035821883881032e-04,7.604492989542875614e-03,7.166820944640234703e-04,7.381688058376312256e-02
7.140981826793328935e-01,6.494830868547769587e-01,5.817976689609909435e-01,1.246920020669588063e-02,-2.847457507984798436e-02,5.858075160978878926e-02,1.622463762760162354e-01
5.822253023417534035e-01,6.143802501945321293e-01,6.776964442182455972e-01,-4.847328045292720322e-02,2.643452204478020234e-02,2.301317529228490144e-02,1.334651857614517212e-01
6.807299874123696748e-01,6.077021631488636055e-01,6.146864431362579761e-01,-3.302681463704312814e-03,2.730580117811724598e-03,8.121711346388671426e-03,7.158753275871276855e-02
6.162366764291922205e-01,6.592699330991342865e-01,6.052329797586812887e-01,-1.833972563637900274e-02,2.363290082846163445e-02,1.686953772460660084e-02,7.736142724752426147e-02
6.824617215041951512e-01,5.867456501207948261e-01,6.236571147004260629e-01,-6.967233686939306413e-03,3.955295872214850857e-03,1.533913710375724680e-02,8.882246166467666626e-02
6.493819831686573618e-01,6.161861154822121378e-01,6.390975923500278322e-01,-1.182265980992963476e-02,1.787317873177706254e-02,1.957090850180238928e-02,5.825009569525718689e-02
6.375653121991318173e-01,6.549829173173581376e-01,6.173721060299706132e-01,-7.093181940801773777e-03,4.144246327536925401e-03,3.124026910854792432e-03,3.598053008317947388e-02
7.681776301696969789e-01,7.068832412506910190e-01,4.538475507701630884e-01,1.482581365090953132e-02,8.994528262615894554e-02,3.689064839271123664e-02,3.351214230060577393e-01
6.581972957429689242e-01,6.578405442253132396e-01,5.678285392149925448e-01,-2.133435986740675125e-02,1.985874270400174099e-02,1.636954310110162389e-02,1.071767657995223999e-01
6.780291497821223645e-01,6.742761630641944670e-01,5.306514250742481176e-01,-1.189390963572896365e-02,6.283181994973650007e-03,6.949949890628668442e-03,1.478814035654067993e-01
6.352697665836478658e-01,6.347946751618196437e-01,6.078434973081193737e-01,-1.511888520084683947e-02,8.728058435059445411e-03,8.470321864046507360e-03,4.323093965649604797e-02
6.133741366629842373e-01,6.613326331159482541e-01,6.113875232752430389e-01,-9.627577841244672890e-03,1.749830164314200576e-02,1.225311893567837887e-02,6.361051648855209351e-02
7.726544154845755852e-01,7.732199649388642460e-01,2.070100479367410484e-01,6.339396621683176039e-04,-1.062008025806327888e-01,4.308733849867069782e-02,5.997335910797119141e-01
7.091367600960395423e-01,6.722144871582477199e-01,4.485443724610919669e-01,-1.879523392106891358e-02,2.719986892380136731e-02,8.179809402116487715e-02,2.881007492542266846e-01
7.027105833035396376e-01,5.027226715991612860e-01,6.776498627130732588e-01,3.794470473908973136e-03,-4.534961889717279565e-03,1.242068066548965982e-02,1.902079731225967407e-01
2.942690210496504699e-01,7.427974821431180263e-01,7.579068321754214299e-01,-6.233100590110587230e-02,-4.914698114247362942e-02,-1.400825059020483279e-02,4.771514236927032471e-01
3.439157727251314633e-01,7.577562315198984599e-01,6.573881780111331397e-01,-9.228672818515094856e-02,-2.015947167751691027e-01,-4.072701159157753742e-02,5.406007766723632812e-01
6.516395703006970797e-01,6.861454680026753961e-01,5.624658324757594308e-01,1.511929656473671828e-03,-1.284718350281985159e-02,2.248193342427174616e-03,1.128574460744857788e-01
4.421304357233750704e-01,7.137517551963972195e-01,7.498934614755669026e-01,-1.008167290243742187e-01,-2.886091490892901401e-01,-5.569336435983084782e-02,6.120328903198242188e-01
4.133003679923515916e-01,7.001643395863419439e-01,6.959209153727068387e-01,-1.971937535305150202e-02,-5.518402894691380733e-02,-4.605336102384879025e-03,3.024196922779083252e-01
2.147675829238205325e-01,7.396846410778826764e-01,8.625977371006676719e-01,-1.050858293799078885e-01,-1.074046780839589682e-01,-3.083299245615226877e-02,6.524975895881652832e-01
5.084566869512037179e-01,6.808893806167870544e-01,7.011810441879564593e-01,-9.567960168035804375e-03,-5.055012623878533257e-03,-5.672842375401746136e-03,1.846390366554260254e-01
4.184165658252053666e-01,7.172078658580767208e-01,6.842852368886297443e-01,-1.078021195610330205e-02,-5.501861839710356361e-02,2.376194556744291170e-03,2.999497652053833008e-01
6.806940669712441272e-01,5.513613806480677226e-01,6.813887586508666772e-01,7.641115774942382373e-03,-6.623106238939366688e-03,7.852091958841901989e-03,1.315636485815048218e-01
5.871073590913200579e-01,7.718212214185992126e-01,6.927835564271955793e-01,6.635898608217258299e-02,-1.397196639173016453e-01,3.647013156952664398e-02,3.186413645744323730e-01
4.373257977571869959e-01,7.288993311916579509e-01,7.718724598228847711e-01,-1.623738081733184374e-02,-2.942337306306167313e-02,-2.334763422591686066e-02,3.231333196163177490e-01
4.440103989836340914e-01,7.858711217013116812e-01,7.716609267664147342e-01,-7.934887461681475228e-04,-3.081963796129852384e-02,-3.292001368605656109e-03,3.392590880393981934e-01
7.233938923523088871e-01,7.221133758483292420e-01,4.954388977480821410e-01,-2.541802894674226754e-03,-5.537925686905792629e-03,1.340163528649619684e-02,2.287431210279464722e-01
3.933467040061680020e-01,8.020850861743853422e-01,7.611326525244055397e-01,-5.935623620185611488e-02,-1.123796049622455794e-02,6.220901466438571829e-03,4.038190245628356934e-01
4.615115069755331700e-01,7.678469715480683577e-01,7.833353798313483773e-01,6.560459571244005306e-02,-1.132975476229393201e-03,8.405425856801818085e-03,3.345947563648223877e-01
6.165921982802421430e-01,6.765022295853412304e-01,6.113229816290367546e-01,3.023424882077386643e-03,-1.573014544028556762e-03,6.443147013313587626e-04,6.299799680709838867e-02
3.214025617310504734e-01,9.747183918512023482e-01,8.842629868766915813e-01,4.492224620924765294e-02,-1.873946268216108713e-01,9.340971586849516894e-03,6.982648968696594238e-01
4.893410153703940946e-01,7.199177413327414454e-01,7.144658110192009248e-01,8.063892716361738613e-03,5.247752398316104551e-03,2.980031417158792925e-03,2.285663932561874390e-01
4.691592975391571940e-01,7.037784535434288280e-01,6.859289715248618746e-01,9.504555539519827720e-03,-4.468128656696729317e-02,2.997493943335352486e-03,2.397167831659317017e-01
7.177393454722904576e-01,7.221888446742222856e-01,4.864218374283876267e-01,-2.376052839927500840e-03,1.855493283241842900e-02,8.858138071498138783e-03,2.363091856241226196e-01
6.896301602865531066e-01,6.867131328471725027e-01,5.056235022227067999e-01,-1.825669374941071149e-02,-2.643508832355369320e-02,-1.490681214844402289e-02,1.925959736108779907e-01
7.463860892449809548e-01,7.586435027311115853e-01,4.496926452695122478e-01,-3.187375162563066411e-02,-3.751985274005383009e-02,-2.926774177334708071e-02,3.188334405422210693e-01
7.644341943473473844e-01,7.643601824688022184e-01,4.838673765477472521e-01,-2.349566872882715221e-02,-6.465968634666627302e-02,-5.187359521685502156e-02,3.177551925182342529e-01
6.263325019375675096e-01,6.869786771900674438e-01,5.960492314544026948e-01,5.381622159569299582e-03,-7.425558537173836300e-03,2.584027198704096605e-03,8.187755197286605835e-02
4.492239593073076298e-01,7.382529162112676513e-01,6.592996199471056196e-01,1.257182579021695057e-01,-1.543653994214349845e-01,7.793069253461132329e-02,4.517437517642974854e-01
5.845830422482251043e-01,8.595699072475475599e-01,5.389508467426322724e-01,-6.557570454284973593e-02,-3.508605894321520924e-01,5.040303670196794039e-02,6.928778290748596191e-01
9.049866125451464516e-01,4.165806045952301084e-01,8.855456336805489492e-01,2.168496235313368270e-01,-6.171697762542226878e-02,1.444652438386374860e-01,6.667324304580688477e-01
6.318477732624678822e-01,6.321715180814179158e-01,6.322089039527180043e-01,-2.311145544800570668e-03,4.248527825191674963e-04,6.851467721727808784e-04,4.253501072525978088e-03
6.168637524098163905e-01,6.099257812005406398e-01,6.774768312218610866e-01,3.436421381390944701e-03,-8.872282302842048963e-04,4.245355175832026700e-04,6.466019898653030396e-02
7.246309513037538785e-01,6.872126325707438310e-01,5.029605227334627005e-01,-1.930873175019494001e-02,-2.425819022597669114e-02,-6.371513660316731331e-02,2.393869012594223022e-01
6.237459138611479714e-01,6.537469807780920128e-01,6.206785670336656402e-01,-1.530466919120441289e-03,2.408184710017130005e-03,5.218504499607475727e-03,3.328092023730278015e-02
7.084937863582984052e-01,7.156117162531423492e-01,5.029192029187934398e-01,2.386380878243441091e-03,-1.354254058473474201e-02,-5.806444205741041406e-03,2.108157277107238770e-01
6.991558866011593487e-01,7.198432233147750159e-01,5.089282326416472158e-01,-2.095889618167017660e-03,-2.216606977457758615e-02,-6.751292492587613161e-04,2.050326317548751831e-01
7.314646362325170070e-01,7.113330804589338419e-01,4.511340668730310366e-01,-8.470741944059154149e-03,-4.468922857493903833e-02,-1.336088088858718333e-02,2.830003499984741211e-01
6.341396088954533994e-01,6.353448650853347202e-01,6.307593566624253301e-01,1.816351685378486290e-03,-1.170565903998878506e-03,7.687160082386120669e-04,5.721334367990493774e-03
6.319425351912338895e-01,6.356698649155303471e-01,6.326544566415381876e-01,1.157093302690511642e-03,-8.877872802892084175e-04,1.855853418082566370e-03,5.334784276783466339e-03
6.215869143057806134e-01,6.674216468764515575e-01,6.157709263957575896e-01,-1.675672950008014975e-03,3.494081523658407878e-03,1.563730480867866948e-03,4.953390732407569885e-02
6.245178988166414369e-01,6.476578587151802235e-01,6.213478115248539657e-01,7.030252036738729969e-03,-5.168040658918390817e-03,2.312344952716951802e-03,2.938201837241649628e-02
6.258975776880131292e-01,6.477796154633338466e-01,6.277885882591661693e-01,7.062765205657266319e-04,-9.247214975825450304e-04,3.633481075776085530e-03,2.201564610004425049e-02
6.892247810316233236e-01,6.264976711927712216e-01,6.062557175705803880e-01,-5.414671405630314301e-03,-1.534884591220862793e-02,-3.476873902075777040e-02,1.001771390438079834e-01
6.840946100081189973e-01,5.757618367561085915e-01,6.214840152518760208e-01,-3.154659261893926880e-03,-8.662076633881082496e-03,-1.798538491792779984e-02,1.004921346902847290e-01
5.648503168429720445e-01,6.485132953118907251e-01,6.932823814644523130e-01,-1.296097390507938013e-02,9.227668977667362717e-04,3.148207045820723606e-03,1.152628660202026367e-01
6.492934671464629659e-01,6.728866237488946300e-01,5.680592243923018314e-01,-1.239384229172264471e-02,9.626591985076324645e-03,4.800730292948899962e-03,9.939913451671600342e-02
6.687853296574619577e-01,6.059364049487464543e-01,6.129207649236442235e-01,-2.633372615075504561e-03,-7.468775733168436966e-03,-9.022910315198183831e-03,6.318385899066925049e-02
6.306181730149463815e-01,6.516889046908469485e-01,6.376106435517782112e-01,-2.378203849785568216e-02,3.006688754946232681e-02,2.671015240068739388e-02,8.303397148847579956e-02
6.653147696524150945e-01,6.247197053404500711e-01,6.144313736891423572e-01,-6.217148961153301512e-03,-7.237229185850746656e-03,-1.006070537551315147e-02,5.242336541414260864e-02
6.774261334613936869e-01,5.584286043470695349e-01,6.775425148998946989e-01,-6.811231803049215723e-03,-8.850410854397592134e-03,-1.088032818812184957e-02,1.220802515745162964e-01
7.196996777669901757e-01,7.121818798505004100e-01,4.715193817062490744e-01,-2.586722886399675948e-03,-6.460933194529682594e-03,-2.069701147825206682e-03,2.448312938213348389e-01
6.288272537976061782e-01,6.045179094166390765e-01,6.387417148354002094e-01,-4.771163009317538201e-02,3.673607836104135493e-02,5.955992568721456271e-02,1.498339921236038208e-01
6.594919652490197626e-01,5.980133054933116643e-01,6.364062567863744135e-01,-7.410693932749065800e-03,-1.537704992339080506e-02,-7.021512647545241105e-03,6.257250159978866577e-02
6.695373386457338372e-01,6.155771164124649308e-01,6.140776623064297945e-01,-3.831538602433120101e-03,1.739129434832633074e-03,2.138919039104163027e-03,5.533267930150032043e-02
5.700363414037367127e-01,6.241023842691200141e-01,6.836298343949166467e-01,1.827293681446176543e-02,-4.755822611338578654e-04,1.310201496427121186e-03,1.034050136804580688e-01
6.952554858009662997e-01,6.807518914877068728e-01,5.331031557674187349e-01,-5.975365300151091325e-03,5.818785152806554666e-03,7.788055159486056631e-03,1.566607505083084106e-01
6.010222189177153451e-01,6.278229577736393896e-01,6.810544322692737573e-01,4.817736951150999522e-03,1.692619022276337700e-03,-6.454782573532442946e-03,7.198424637317657471e-02
6.063614649582580451e-01,6.141334325011351680e-01,6.804439370596669923e-01,7.692196922626235930e-03,2.957748691508521512e-03,-3.927760132801564642e-03,7.226953655481338501e-02
6.031613873334931153e-01,6.148603734210361660e-01,6.854744363591058764e-01,9.675116128750261418e-03,8.888591471619849450e-04,2.175281431096209341e-03,7.903616130352020264e-02
7.902788470288826250e-01,6.544220347090217160e-01,4.595312480518651821e-01,-4.943628415130649906e-02,-1.221779118896573584e-02,-1.298725252994029911e-01,3.758949637413024902e-01
6.950196844309224353e-01,6.804757749001558720e-01,5.264803157658961563e-01,2.654402505368811619e-03,-2.861726228375914300e-03,1.141861072827688589e-02,1.631032824516296387e-01
6.147984986421112241e-01,6.139768350631149563e-01,6.857688240787301881e-01,1.407033001923747341e-02,2.064191729185465857e-03,-1.893188590470634702e-03,7.558593899011611938e-02
6.357028679741438815e-01,5.965578664176554025e-01,6.572638641052180875e-01,1.097213811564623845e-02,-1.316084413926311286e-02,1.065353787183552850e-02,6.373769044876098633e-02
6.121352853643292624e-01,6.039130894766683300e-01,6.747074100918758477e-01,1.025407329027993621e-02,4.662607862219671565e-03,-2.247866567832830509e-03,6.995121389627456665e-02
6.135122027203406825e-01,6.007777665147283619e-01,6.848018057927527380e-01,9.873374442099696127e-03,1.935336839482259272e-03,-6.194531275296548661e-04,8.035574108362197876e-02
6.135048008133868747e-01,6.145398270353495951e-01,6.809930010812663692e-01,1.437475065856498764e-02,4.324204387155528885e-03,-3.943066705907943489e-03,7.217004895210266113e-02
6.127580346531247280e-01,6.016123381204481202e-01,6.794764495679657124e-01,1.025772330610046253e-02,3.284502929537397049e-03,-1.773795252161116092e-03,7.534363120794296265e-02
5.676085863542519316e-01,6.869146649309069153e-01,6.636916535191464961e-01,-1.886728345675865726e-02,-4.034540590906855045e-02,-1.009158435314059209e-02,1.351269781589508057e-01
5.161130584137948452e-01,6.787711516729901806e-01,7.083434309454975653e-01,-6.647818810747975482e-02,-1.958521097471834990e-02,-4.152489252155548705e-03,2.158769667148590088e-01
5.015987510360848667e-01,6.919344388433993354e-01,6.887700132808446396e-01,-4.052474966671277407e-02,-2.702588672435792677e-02,-1.503952417808755888e-02,2.084032297134399414e-01
6.235597020553463876e-01,5.969009229852130227e-01,6.243471522629171488e-01,-2.920770538596430613e-02,-2.953243682189843691e-02,-3.123678676379106761e-02,9.399615973234176636e-02
5.826789408232283529e-01,6.252043507041176174e-01,7.006859278291497350e-01,-3.935888416771890497e-02,-3.786917047370096101e-02,-3.286025435676784290e-02,1.513431221246719360e-01
6.283956296769722671e-01,6.270532255010847766e-01,6.419380076637197785e-01,9.971676425916871714e-03,-9.838934466634498971e-03,9.163175009669413673e-03,3.231076523661613464e-02
6.764794429101783635e-01,6.514687171040867142e-01,5.752742909226519208e-01,1.230697914570423948e-02,-5.541067049611078481e-03,8.517388936014110706e-03,9.539883583784103394e-02
6.051198066709244650e-01,7.004192969930599366e-01,6.561727170327817937e-01,-1.035039413281685361e-01,-1.218406332964097061e-01,-6.984678266102667399e-02,3.132625222206115723e-01
6.294246163622921886e-01,6.592327147631679152e-01,5.921846042644748342e-01,1.126251094825411574e-02,-1.266134524055186929e-02,7.775263576078866173e-03,6.654487550258636475e-02
6.346681182850404390e-01,6.435731459780998920e-01,6.316406922614035135e-01,7.477725290476897047e-03,-3.206056871539071044e-03,7.722143918548197462e-03,2.220144495368003845e-02
6.880127198617238538e-01,5.658045538708963429e-01,7.200213998280825534e-01,-1.088069534674011712e-01,-7.718325048449538317e-02,-8.681957834776234118e-02,3.096331059932708740e-01
6.220755102311172902e-01,6.700419163257185229e-01,6.147784143861459993e-01,4.572717420850891910e-03,-1.204886183254419083e-03,1.846470776510682373e-03,5.273852497339248657e-02
6.985293329469430823e-01,5.995893022701468400e-01,6.326925665749928429e-01,-7.379858288356623509e-04,2.144693514247447176e-03,3.340459451324048062e-02,1.047509014606475830e-01
6.956744676554968976e-01,6.292578421278613998e-01,6.018631505373981394e-01,-7.472569713928824131e-03,5.631713137035568653e-03,2.792860968621529646e-02,9.789682179689407349e-02
6.311074844436713738e-01,6.729620519683855440e-01,6.078435205493334381e-01,9.959139024306817509e-03,-3.018034798735883591e-03,2.545378579765257554e-03,6.009189411997795105e-02
5.324009765033089758e-01,6.745000376884734417e-01,7.049924394959948826e-01,6.708092786404022678e-02,-2.950155972255635167e-02,1.788286794221390086e-02,2.062155157327651978e-01
6.376190080037074104e-01,6.342982766324952726e-01,6.287077681642573301e-01,4.247814543567506040e-03,-4.045758150138730434e-03,3.219408114538044405e-03,1.397052779793739319e-02
6.366898761616165414e-01,6.528491028108247551e-01,6.137087973643780003e-01,9.983464066833242986e-03,-3.077829346511635165e-03,2.615528518547728838e-03,3.884015604853630066e-02
6.830898330864715318e-01,5.735328047273592356e-01,6.219805033127187022e-01,1.394673879764995583e-03,-6.548695665313309430e-04,1.746349268409581185e-02,9.982073307037353516e-02
6.131179750180452137e-01,6.096960588247913870e-01,6.788412780072998753e-01,2.815169879428207952e-03,-1.895075176984236916e-03,6.976147449349957884e-04,6.776556372642517090e-02
6.854855467867273511e-01,6.123785212217640606e-01,6.149214225636508990e-01,5.664864696255311142e-04,-9.963427573311900518e-04,1.415088145267635357e-02,7.595974206924438477e-02
6.367144656555228099e-01,6.423942084667942920e-01,6.194214863650838732e-01,-8.761862850465004446e-03,3.328202630654755571e-03,3.163292333248173254e-03,2.689027786254882812e-02
6.177504930294216434e-01,6.184989394694513365e-01,6.636699804852471685e-01,-1.161962152649527458e-02,8.818608225632736802e-03,7.648905238892468421e-03,5.374624580144882202e-02
6.357716121674968912e-01,6.326868934051800286e-01,6.361753685384762269e-01,-3.764537115102087675e-03,2.782130295636160797e-03,3.848810818327654589e-03,1.100454386323690414e-02
6.345822263935925189e-01,6.208086310783509365e-01,6.393831462382112418e-01,-2.270253452307507708e-03,6.131459642845706916e-03,1.817343872613571155e-03,2.042159251868724823e-02
6.855243567421159812e-01,5.986867926967068820e-01,6.309612030373010771e-01,1.009448300669355545e-03,-8.462400551510290908e-04,3.358692943494540062e-02,9.575604647397994995e-02
6.847834341801712910e-01,6.610679799518205391e-01,6.524576389814148447e-01,-9.669454060942925255e-02,1.086307778171907157e-01,9.904330225736403259e-02,3.061387240886688232e-01
6.096468394081007158e-01,6.137010618227252134e-01,6.813481766043244514e-01,1.820408968829740747e-03,-6.185954666891388268e-04,-5.055977322817919442e-04,6.984756141901016235e-02
7.265221331506798164e-01,5.003819406855041230e-01,6.367148120101661091e-01,-1.712053625043645499e-02,-1.375172249591765858e-02,-9.215809650649092744e-02,2.565574049949645996e-01
7.442509642970888128e-01,1.749300921955957988e-01,8.274850976939869263e-01,-1.772139612720062540e-01,-9.515437695141610794e-03,7.273583882636549917e-03,6.878123283386230469e-01
6.331564334643099423e-01,6.279569757670804275e-01,6.398542267769268266e-01,-5.252189956532855517e-04,2.899912813313067217e-03,1.349347676815081283e-03,1.175746414810419083e-02
7.685470361437176656e-01,2.002652716095605356e-01,7.631709844478647975e-01,8.744903427208637614e-02,-9.034704360940998616e-03,2.775397444483350493e-03,5.857712626457214355e-01
7.680716560215472555e-01,5.110459719380582300e-01,7.232686328656708907e-01,-2.593748644315837376e-02,-1.300693641665453051e-02,-8.893305629851273875e-02,2.877621352672576904e-01
6.529348536305604744e-01,6.525317986675095439e-01,5.979717633617970263e-01,-1.189836909440232168e-02,6.781882955028275574e-03,6.043397340384609219e-03,6.059054285287857056e-02
6.397940530630789047e-01,6.272716262440440893e-01,6.295075234937522746e-01,-4.252526795339941004e-03,1.799751883630202687e-03,7.619053537544140040e-04,1.412523724138736725e-02
8.002332254475608142e-01,2.539898182069448285e-01,8.346278615271305323e-01,2.941574595700797295e-02,-5.180160552986234901e-02,-1.782975254634674989e-01,6.514359712600708008e-01
7.679303932866786697e-01,5.105640748007136409e-01,7.242721154333586764e-01,-2.840488776011363195e-02,-1.487012057941762382e-02,-8.846228361332436618e-02,2.889081239700317383e-01
7.659120696075276680e-01,3.140974420291786640e-01,7.475074317161153337e-01,8.516144164873365452e-02,3.473933556716031490e-02,-1.276824478994784684e-01,5.200442075729370117e-01
6.731902039007600091e-01,6.518070921239575988e-01,5.811576436365566423e-01,-1.203343715603719458e-02,4.857985999450004956e-03,7.997998670924346548e-03,8.750087022781372070e-02
6.538652899145539488e-01,6.206818521942554234e-01,6.217462589670478268e-01,-5.210179508023696573e-03,1.656933523504595116e-03,2.242619719445722130e-03,3.423032537102699280e-02
7.813798659333738295e-01,4.604655958477682498e-01,7.579004260172592655e-01,6.391635995734319675e-02,1.431773176502001282e-02,-5.202849202824742780e-02,3.420440852642059326e-01
6.827219227065600693e-01,6.137510576219685765e-01,6.072946963083304395e-01,4.959414707905138685e-03,-4.283121589201228582e-03,7.936842624292577211e-03,7.457726448774337769e-02
6.833283474450905226e-01,6.282828052942105446e-01,6.010778588474435802e-01,7.762534618418560038e-03,-2.875932477258950990e-03,4.400114499373223437e-03,7.437270134687423706e-02
6.751736085532756837e-01,6.071942778271938179e-01,6.160402625241147012e-01,-2.352158953525188521e-03,5.206224366553310889e-03,7.411990783479539303e-03,6.603652238845825195e-02
6.827289782762554493e-01,5.982396824082341080e-01,5.948412897249567566e-01,-1.228215587255363211e-03,2.821067107729100507e-04,2.884006265341963748e-02,9.968515485525131226e-02
6.819229811593174873e-01,6.117384701843573414e-01,6.136440238872788999e-01,-2.332847394069915243e-04,1.297466123770787180e-03,1.477779079280941432e-02,7.386554777622222900e-02
6.683929856764483368e-01,6.212506233987338256e-01,6.144948655718572850e-01,-1.922892414319774283e-03,1.529108252507160306e-03,2.870649443913307446e-03,5.127722769975662231e-02
6.854781341706289721e-01,5.729853831553790577e-01,6.218509502911228060e-01,-2.829700371579114797e-03,4.059730073919551145e-03,1.785604662558596886e-02,1.028368696570396423e-01
6.811955959057079957e-01,6.016886623198288708e-01,6.270572337436227661e-01,-2.016120897839638292e-03,5.303593574101561105e-03,4.472636666044307700e-03,7.144600152969360352e-02
6.867814025383897070e-01,6.491884638755307524e-01,5.668282016919984345e-01,-5.315080360656531354e-03,3.658682904850326517e-03,1.077181351969292572e-02,1.084693968296051025e-01
6.834628806062219564e-01,6.342903612442613026e-01,6.039865133516790774e-01,-1.212535416178464436e-02,1.340159459169392060e-02,2.488631582901049480e-02,8.754566311836242676e-02
6.042046491217047954e-01,6.147112589077025069e-01,6.768742526919296898e-01,8.602057731233781618e-03,-1.511968898546488336e-03,4.540447555618985255e-03,7.013159245252609253e-02
6.847744635853676431e-01,6.029881384649218301e-01,6.141418385227226384e-01,-9.400213088953770547e-05,-8.774576786977272488e-04,8.686577290579597724e-03,7.829363644123077393e-02
6.175491338844454337e-01,6.643841661537915888e-01,6.191333193475880847e-01,7.117928545653962047e-03,-1.094850369322926571e-02,9.024627680810177674e-03,5.364485085010528564e-02
6.230103178649959439e-01,6.624318227609182763e-01,6.208657532098813547e-01,6.838464450477219590e-03,-7.825514856679366762e-03,7.608963438870266355e-03,4.626980796456336975e-02
6.813790056390695016e-01,6.171253032212759004e-01,6.087649949732063526e-01,3.112541645251814572e-03,-8.078104525582658789e-04,2.510744420035731974e-03,6.917764246463775635e-02
6.692160007965086699e-01,6.273411058980790100e-01,6.033480984388781554e-01,5.936433585661021056e-03,-2.850102239943680133e-03,3.512590828281708741e-03,5.916910991072654724e-02
6.152017499044939441e-01,6.439492017315779915e-01,6.350524788867132342e-01,2.363678527555394121e-02,-2.386391816201186358e-02,2.428188413265396084e-02,7.617868483066558838e-02
6.391006884550340938e-01,6.366901936740224643e-01,6.285637656677076635e-01,6.700407994479509396e-03,-7.221020864829280975e-04,2.229388931297690557e-03,1.557559799402952194e-02
6.164664881514747563e-01,6.480424573579521841e-01,6.136035712162950517e-01,1.192728885936211736e-02,-1.468213788648278437e-02,1.105356527239145792e-02,5.035531520843505859e-02
6.620104880022147364e-01,6.185001593465189185e-01,6.204890900155601852e-01,1.166921272438620942e-03,-4.353261592052497068e-03,1.248736919736082940e-03,4.331490769982337952e-02
6.100826463729730476e-01,6.161937287686438669e-01,6.810997274825051351e-01,2.109162434163421290e-03,-1.388359542295387666e-03,2.491911493727711358e-03,6.844367831945419312e-02
6.528910840120730752e-01,6.517918791700744174e-01,6.002635023006622772e-01,1.275979519414444964e-02,-4.164185385709686348e-03,4.087745000122836904e-03,5.747703462839126587e-02
6.328549972496919640e-01,6.488389991241453325e-01,6.274372185359818888e-01,6.120686846755991894e-03,-3.988564131143784199e-03,6.405065387286200222e-03,2.558568678796291351e-02
6.275962685002914876e-01,6.479621083485725963e-01,6.259952893498522686e-01,3.788782326291195972e-03,-8.200480680983346761e-04,6.897996138557602229e-04,2.228105440735816956e-02
2.811677308518711338e-01,6.654354482758106926e-01,7.777767200555160132e-01,-2.153127551535388429e-01,-7.629220928571562449e-03,-1.013380963816026652e-02,5.856729745864868164e-01
5.597271593445719562e-01,6.113835537049383539e-01,6.932035035291218561e-01,-5.764592260774260152e-02,-8.335524465472872457e-03,-8.322723777891491426e-03,1.548380255699157715e-01
5.108521019473021285e-01,6.748372223753941190e-01,7.498439690851737005e-01,-1.462637338256355946e-01,-4.089376357686226593e-02,-2.074763439916140623e-02,3.395653963088989258e-01
6.006275932133404716e-01,5.970340033842436167e-01,6.751959742021703681e-01,-2.731572286493042998e-02,-6.802829105303025668e-03,-6.359130897964157189e-03,9.132317453622817993e-02
6.301043075501213675e-01,6.547853744001873588e-01,6.132963835693158172e-01,8.034928915179598979e-03,-2.885574462370073343e-03,2.545774388885830870e-03,3.930142149329185486e-02
5.523364873978665601e-01,6.547493864750809633e-01,7.296998205432840834e-01,-1.489588165925985197e-01,1.692076163041950770e-02,7.976382428643546615e-03,3.023207783699035645e-01
6.602024695500806617e-01,5.861686276829669584e-01,6.189526469098811656e-01,1.923128268341684627e-02,-1.961827459847562821e-02,4.067953779625303745e-02,1.065706610679626465e-01
6.114790417895319408e-01,6.160208655765424535e-01,6.774995388373876715e-01,1.643020802781599253e-03,-8.656839820789274161e-04,3.048117228545259901e-03,6.416931003332138062e-02
5.950887466952657912e-01,6.514676571171386099e-01,7.138431490370034105e-01,-8.169937482878072976e-02,2.736796899826911267e-02,1.791290837787527790e-02,1.839019954204559326e-01
7.329153479012514572e-01,6.923857818031372569e-01,5.004082162011175283e-01,5.568738350783477078e-03,1.634721278583689194e-02,-5.938873695001067876e-02,2.403218448162078857e-01
6.373377074602311065e-01,6.343703335215464811e-01,6.300451509558693264e-01,4.338072796309074344e-03,-1.363163693031817615e-03,2.237518517915664321e-03,1.083502173423767090e-02
6.391405584753092617e-01,6.334889823792898556e-01,6.322517222988486285e-01,3.287844251656641542e-03,-1.920096733917615254e-04,1.363674254288464250e-03,8.864692412316799164e-03
6.270751717673711534e-01,6.403794242913264378e-01,6.305033933475245878e-01,-4.278330908834422977e-03,1.591629535216383153e-03,1.660059564507361616e-03,1.462619286030530930e-02
5.847201345286036078e-01,6.595172590897570020e-01,6.846714676010939860e-01,-2.708810522484928276e-02,1.879856025296888083e-02,1.727019314568199043e-02,1.107476353645324707e-01
6.506095016543577136e-01,6.679571631494868322e-01,5.880072467214068066e-01,-1.467409023002818301e-02,7.455651218119695688e-03,1.188838392500571328e-02,8.088716864585876465e-02
6.165705454810959107e-01,6.375432744331905877e-01,6.551643982422155066e-01,-2.946433698767048168e-03,3.460751043805802927e-03,6.811965283331888020e-03,3.634702041745185852e-02
6.314601311196511579e-01,6.094848635262184455e-01,6.593994189939501593e-01,-2.823535406483078814e-03,8.977939835776148694e-03,5.065917417421396569e-03,4.711907729506492615e-02
6.335597091250761981e-01,6.422747123401163494e-01,6.300233115410747153e-01,-1.286248180152388572e-02,8.022075097281401723e-03,1.027193500647761992e-02,3.354409709572792053e-02
6.324769841322727126e-01,6.328109099516732172e-01,6.329670304295551553e-01,-8.558387956771118044e-04,5.749617719903313880e-04,1.597986511354060031e-03,3.322321223095059395e-03
6.315136260356779552e-01,6.367716871790379818e-01,6.332161333974865025e-01,-1.139718671635785033e-03,4.876971547214029425e-04,1.424397112221083544e-03,5.682516377419233322e-03
6.312189472406701807e-01,6.274892007464848431e-01,6.285327870814984008e-01,-8.338681220409102993e-03,8.414888493800449024e-03,9.354494251489648207e-03,2.635638974606990814e-02
6.344010306339534777e-01,6.326165890983769247e-01,6.326620589227927027e-01,-3.612112468780809748e-04,6.699760727111913131e-04,7.089587042448730679e-05,2.204146934673190117e-03
6.193510108311897078e-01,6.196133692214302879e-01,6.472878282340489564e-01,-1.117323363390362173e-02,1.058708975342062542e-02,1.110518135258939387e-02,4.305767267942428589e-02
6.934336575717283679e-01,6.428222914557052414e-01,7.171141859744895042e-01,-1.226457898704674115e-01,1.022910116466422548e-01,1.290958244038545033e-01,3.617102503776550293e-01
1.561629998687348309e-01,9.917529339385806608e-01,8.289672241459830060e-01,7.912444114073786949e-02,9.735543714859025421e-03,-3.283511416706612340e-02,7.816575169563293457e-01
6.409610350426643288e-01,6.229429219070831136e-01,6.377174684445943154e-01,-1.773593592713515465e-02,1.373544839062633416e-02,1.317649500059518176e-02,4.803403094410896301e-02
6.158567771153828918e-01,6.318278899337272936e-01,6.528595700370991572e-01,-4.210704226696210424e-03,3.880894396137132395e-03,1.018139262876489523e-02,3.798241168260574341e-02
6.406450535794392387e-01,6.411260011638220124e-01,6.260693298476035507e-01,-4.907208179246397815e-03,1.958309530535750406e-03,2.019897722385548180e-03,1.776739023625850677e-02
4.966434200948579569e-01,7.587758210574698792e-01,8.186521067895597970e-01,1.242674666747840273e-01,-2.699555834838254786e-02,2.629566145815649333e-02,3.722659647464752197e-01
6.397509099413224432e-01,6.209954881879785615e-01,6.364106771482798131e-01,-1.235054729377608410e-03,7.050129040144887012e-03,1.163888339699091848e-03,2.140159904956817627e-02
6.435403811252640160e-01,6.460817939112813990e-01,6.402324738995562869e-01,-1.808696436775187807e-02,-1.778924496014133369e-02,-1.922482855848000119e-02,5.536584183573722839e-02
6.549081525109198276e-01,6.379845843105519387e-01,6.176498362045714785e-01,-7.321381203657536217e-03,3.143979613892863064e-03,3.169227221756850017e-03,3.556176647543907166e-02
6.298742048227128354e-01,6.285785901956165711e-01,6.366490722163246074e-01,-3.949330538987236815e-03,-3.702126207126872973e-03,-2.280047026008419700e-03,1.264356542378664017e-02
6.202699760548999741e-01,6.392942250566404638e-01,6.368932580943968969e-01,-2.803996536651641534e-03,-3.061703280849146711e-03,-8.624232225568288779e-03,2.443054504692554474e-02
5.739584826952256469e-01,8.363321849257099316e-01,4.389311476747542740e-01,-7.692394890517095796e-02,3.065438653203322317e-01,2.282130209402696563e-01,7.605279684066772461e-01
7.020128215865490962e-01,6.932677956151984677e-01,4.948609755485279815e-01,-6.121439080216835131e-03,1.900719274655922938e-03,2.422594778642523858e-02,2.075108587741851807e-01
7.028622900502234927e-01,6.791087192472363698e-01,5.421757205848947159e-01,5.487506387581341655e-03,-1.164036361351623514e-02,1.194002779459277588e-02,1.532711684703826904e-01
6.807123353814030775e-01,6.300609751696204519e-01,5.780004696694497346e-01,-1.309672331129504985e-02,6.441421681120102286e-03,1.272324212027495759e-02,9.506567567586898804e-02
6.290834404871807894e-01,6.346423108620118381e-01,6.321838404795603328e-01,-1.320635154388952268e-03,-2.417213346225409107e-03,-2.779429159004771083e-03,8.319583721458911896e-03
6.354713073017439484e-01,6.370336256178611434e-01,6.362200045556889449e-01,-2.046200059392404378e-03,-4.560214353867031098e-03,-4.565335645331080466e-03,1.180279720574617386e-02
6.801577290295005573e-01,6.269265678669708741e-01,5.984293177210682213e-01,-4.281765696142433505e-03,1.288120668309301583e-03,4.598949042911845697e-03,7.270502299070358276e-02
6.275379251974062544e-01,6.396364193167987100e-01,6.317754811144282723e-01,-1.270725963012888076e-03,-1.165824018699997697e-03,-3.882736710968756003e-03,1.293100882321596146e-02
6.876582498807681798e-01,6.263325302179297838e-01,5.990358958050052696e-01,-1.382484831618530563e-03,-4.461775896941737752e-04,4.879589854821532284e-03,7.910561561584472656e-02
5.612485577871479947e-01,7.149189317654405240e-01,5.464229687281378922e-01,-1.596655182311004090e-02,-1.221045347885552218e-01,-1.384463860653596494e-02,2.686652243137359619e-01
6.907733380947196355e-01,5.644255797900590288e-01,5.930122580226031559e-01,-1.119878474133298787e-02,1.417197150167591457e-02,6.613804023386414543e-02,1.651380807161331177e-01
6.651809832057793415e-01,6.108826599950986092e-01,6.319774289280333246e-01,-3.136041408844288721e-03,9.178347712225443447e-03,4.581972163317994673e-03,5.092249438166618347e-02
6.767715693733755700e-01,5.843901884682013437e-01,6.394180710169484749e-01,9.150235277543456586e-03,-1.072569178625925636e-02,3.047960739795959467e-02,9.930839389562606812e-02
6.808067390810588204e-01,6.252714879534593262e-01,5.933764049613566849e-01,2.078108053020068322e-03,-1.663185821808270816e-04,6.770944933400594758e-03,7.761016488075256348e-02
5.997138779163435629e-01,7.077238704419447357e-01,4.786961562469931875e-01,-2.868887799794009319e-02,-1.239278370714350097e-01,-3.278803996931724252e-02,3.019126057624816895e-01
6.611740956450677942e-01,6.921733396450188147e-01,5.473434438435810234e-01,-8.449661132902647892e-03,-2.213726277588340743e-02,-5.989943417773048971e-03,1.387048661708831787e-01
6.740745253173087148e-01,6.314500924530976889e-01,6.041454842579583318e-01,9.699700419211291016e-03,-3.879724224111529007e-03,2.669239248649682341e-03,6.383581459522247314e-02
6.400463708496809678e-01,6.930323247618723759e-01,5.837338536690367397e-01,-1.242897486552224304e-02,-1.445376778576616325e-02,-4.918608565424607837e-03,1.006237268447875977e-01
6.638121154052128992e-01,6.944696783410668761e-01,5.482413666763222837e-01,-1.055928746966216560e-02,-1.888783964950739927e-02,-9.643974098531529759e-03,1.397260427474975586e-01
6.470607140153742387e-01,7.209506884637166824e-01,5.461812015761794425e-01,-1.261723696449485246e-02,-3.832172839833967309e-02,-2.776667635520702754e-02,1.740304678678512573e-01
7.152462780107841089e-01,5.491456691443991067e-01,5.693648744498628345e-01,7.452778166576084704e-03,-1.045279470805359281e-02,1.548908472843342765e-01,3.116211593151092529e-01
3.488050467837535695e-01,9.256318210348259967e-01,6.993310712952698349e-01,5.315706761858251736e-03,-2.173422607161530073e-01,1.048728138138417809e-01,6.543679833412170410e-01
6.010982122596234545e-01,6.838108310779185128e-01,6.370689748226098237e-01,1.420105308508120591e-02,-2.569646792975508950e-02,1.069262879298173673e-02,8.993870019912719727e-02
6.338761623058672967e-01,6.340437668145665340e-01,6.326805560240422732e-01,7.726890199461538471e-05,-3.157806235451634082e-04,9.077579830213219252e-04,2.108813030645251274e-03
6.275410353245038930e-01,6.278474521446233414e-01,6.407530013203870389e-01,1.036627486123676287e-03,-4.218286092525256464e-03,1.918567263763347680e-03,1.543534453958272934e-02
6.547447924459446345e-01,6.290861251571161494e-01,6.223997004959813673e-01,5.198868644970458704e-03,-1.798775798733817004e-03,1.260479670183923661e-03,3.114800341427326202e-02
6.338892168943233152e-01,6.285311774750993452e-01,6.424432945347862134e-01,1.825678560776913904e-03,-8.589380705819895344e-04,2.058640731606187126e-03,1.313927490264177322e-02
6.378780292150610931e-01,6.279859493750198363e-01,6.258984698797961377e-01,3.235329717868834151e-03,-2.535338796070192666e-03,1.254836454795477162e-03,1.335178129374980927e-02
6.386619142499023738e-01,6.313579027073195071e-01,6.286016052937343224e-01,4.378391175075138989e-03,-9.793130096054927184e-04,4.139991621924759072e-03,1.388828549534082413e-02
6.406441097468179580e-01,6.287305398160022429e-01,6.319756685972062193e-01,1.930761279065513992e-03,7.943261349308227380e-04,-1.131781436909323280e-03,1.143337693065404892e-02
6.032072323953191484e-01,6.152636015674044501e-01,6.805075292299745948e-01,8.737964434678936049e-03,-1.852139658931386277e-03,3.493623583654216925e-03,7.392357289791107178e-02
6.364427660379585738e-01,6.317073804317570040e-01,6.348189435453408525e-01,1.800806961938681986e-03,1.013145698198560036e-06,1.707071325351412153e-03,5.986839532852172852e-03
6.380667615233521772e-01,6.342483840404609108e-01,6.347712253368519297e-01,4.043026970303269935e-03,-3.237382047544946732e-03,4.269391403824127768e-03,1.216635573655366898e-02
7.208544116194381957e-01,7.090728419878680189e-01,5.145415041378852417e-01,-4.916773345454471950e-02,-4.318325814542319646e-02,-1.511302799818836085e-01,3.487706780433654785e-01
6.787433987854285533e-01,7.032345311090861806e-01,5.006486622864136926e-01,3.293449537426795717e-03,-9.952531285653196114e-03,-1.242381181681841140e-02,1.935769766569137573e-01
6.876591852452915710e-01,7.209114472323843170e-01,5.240295050429619739e-01,-9.715438115581629189e-03,-6.022872152161163478e-02,-2.401891521843524391e-02,2.149833291769027710e-01
6.942814052587956697e-01,6.914890903034717207e-01,4.980143535620749629e-01,-1.374897213011691717e-02,-4.113932661762191578e-02,-3.139149921321356118e-02,2.158268392086029053e-01
6.982804239632564025e-01,7.171776082541170272e-01,5.101589099867404054e-01,-1.230010780809664018e-03,-1.887495339547873643e-02,-1.076295091236132394e-02,2.017984837293624878e-01
6.663529571107393856e-01,6.929403173049620834e-01,5.410274530911056701e-01,-3.273964902456156546e-03,-2.316530129047287070e-02,-1.812466655402133813e-03,1.462783217430114746e-01
6.543848291810815399e-01,5.968952954157834556e-01,6.511888000341629068e-01,6.825614378126282702e-03,-1.170279372415085860e-02,6.140861321916957563e-03,6.160589680075645447e-02
6.284325082102687476e-01,6.414928982318938155e-01,6.296269019593686567e-01,1.607226891268498468e-03,6.640066529165001338e-04,9.848210440546499925e-04,1.297624688595533371e-02
6.802091343186859040e-01,6.110782544630687374e-01,5.980789701591380236e-01,-2.463882439253544700e-03,-1.461236543359578990e-03,-1.087683261638787077e-02,7.890656590461730957e-02
6.688947899675585784e-01,6.092327050704370306e-01,6.185621073291551753e-01,-3.468589499553512492e-03,-7.149214613137251997e-03,-7.416137906755731861e-03,5.868913978338241577e-02
6.844869592721405382e-01,6.003409994613998490e-01,5.952825862648418731e-01,-3.904847352466875050e-04,5.278797286287556707e-05,-3.387566949219644047e-02,1.047612726688385010e-01
6.683385582988201623e-01,6.308911396076204436e-01,6.110080128488150075e-01,-8.694368350520490299e-03,-3.959104848452479029e-03,-3.311312088273191123e-03,5.337521433830261230e-02
6.409991271308601579e-01,6.499767064157895291e-01,6.139038212620283597e-01,1.201168557714768666e-02,-1.673472261460568974e-02,1.093728020844654709e-02,5.186395347118377686e-02
6.663261566002977032e-01,6.282125549557519006e-01,5.925665439671667922e-01,-1.200397148159854273e-02,-7.224936122417982380e-03,-1.330387135865290088e-02,7.212313264608383179e-02
6.754584131300652716e-01,6.056710790204378192e-01,6.085041813431391056e-01,-4.295903859621401193e-03,-3.851738721464735126e-03,-8.323082384408399953e-03,7.062773406505584717e-02
6.342576456885747893e-01,6.329623198760321312e-01,6.326929109762412518e-01,1.168249232983506214e-04,-7.295425092797511992e-04,1.539910140560611347e-04,1.951461774297058582e-03
6.174557311950039651e-01,6.580232486188607455e-01,6.209871398909345697e-01,-1.055958325645553302e-02,-1.596721403933381786e-02,-9.681394245002430954e-03,5.380977690219879150e-02
6.313855318271134331e-01,6.119835406947832235e-01,6.539831208104247562e-01,3.943780789153114412e-03,-7.913378965864860740e-03,2.899483624380189053e-03,3.981548175215721130e-02
3.461449138968768491e-01,7.543636331217606905e-01,6.764820147706466225e-01,3.092318560777608874e-02,-2.331575739502641520e-01,3.848216979169483132e-02,5.579552650451660156e-01
5.989591487203472786e-01,7.017574373678490129e-01,6.365003185140971631e-01,-6.012721595226999151e-03,-3.768241783514860582e-02,-1.640692404220137849e-03,1.117769554257392883e-01
6.333279652925339898e-01,6.348223865105114827e-01,6.324369000571542498e-01,7.616090913300510579e-04,-3.556998117900745174e-04,1.422609251865103127e-04,2.557214349508285522e-03
4.086684076159579071e-01,7.283276116784458409e-01,6.975167094523170297e-01,1.769737916965770028e-02,-5.202475454774414809e-02,-5.511992518994788398e-03,3.200512230396270752e-01
6.710570441245564677e-01,7.135189209189783943e-01,5.511669867404582757e-01,-2.000045925702684257e-04,-5.923328869421227993e-02,-3.239943794571612835e-03,1.783949285745620728e-01
6.215950878057342477e-01,6.768620299908048032e-01,5.781457970094360244e-01,1.124869958974574098e-02,-1.681839557292336140e-02,3.462006369938686566e-03,9.277778118848800659e-02
6.126680239720989629e-01,6.759159680721247287e-01,6.148243419079761907e-01,2.182428679638056049e-03,-1.043151299180027428e-02,5.278500454546126638e-03,6.552018970251083374e-02
6.690959020968635373e-01,6.092774126165482196e-01,6.163709795288477844e-01,3.331419644824570002e-03,-7.571179013287621801e-03,6.119142147968152645e-03,5.934508517384529114e-02
6.155156514340238694e-01,6.852105881368512064e-01,6.013893228799402912e-01,-3.605010996379671550e-03,-8.346693691820459074e-03,1.351723598130737851e-04,7.930646836757659912e-02
6.547309604464034427e-01,6.233782483635752492e-01,6.204258145092521604e-01,1.610035431162048017e-03,-1.947060428776578285e-03,-5.490527169045243119e-04,3.323146700859069824e-02
6.544966736398756257e-01,6.239994759142184488e-01,6.277831867461738380e-01,1.740838625906998734e-03,-4.925668791925331101e-03,5.739083261910097851e-04,3.019717335700988770e-02
6.250675189457840508e-01,6.850705953442575158e-01,5.722798722336827071e-01,3.825405090624567350e-03,-1.909848777942056014e-02,1.175546951070324678e-03,1.034245118498802185e-01
6.041398235378736548e-01,6.778214967316031903e-01,6.081649261895561986e-01,5.830473381372565551e-03,-1.094120146246345404e-02,6.200857229140831900e-03,7.566425204277038574e-02
6.200357482586092983e-01,6.784171975053576720e-01,6.052737551307367792e-01,7.191723390495612968e-03,-6.692347557879466981e-03,1.417058403114753937e-03,6.916419416666030884e-02
6.810439594625352644e-01,6.087024801896216974e-01,6.161846283043463934e-01,2.683588442838003452e-03,2.235822177417036948e-03,-1.413549436100204788e-02,7.337602227926254272e-02
6.834973060869694583e-01,6.217055308059225016e-01,5.704259581804983492e-01,4.732887783038333684e-04,1.349172991084161399e-03,-1.864202433931039585e-02,1.032723709940910339e-01
6.412542561213746550e-01,6.283937961541211648e-01,6.304063598125366763e-01,1.437403645351301119e-03,-1.263696035337497602e-03,-1.451722331353164216e-03,1.268349401652812958e-02
6.214412554659944909e-01,6.537850300511143242e-01,6.225130382047547872e-01,1.891145011025809715e-03,2.017796426758611174e-04,1.974234883396262016e-03,3.217370435595512390e-02
6.800249066137147302e-01,6.093995952310528041e-01,6.020332833658825766e-01,9.509709793610180914e-03,6.559541222113510206e-03,-2.368624716348473672e-02,8.744110167026519775e-02
6.408713256056530749e-01,6.459419782838250468e-01,6.168005594336505304e-01,1.246925109676440442e-02,1.606191521022303989e-02,-1.148017142124447415e-02,4.861021414399147034e-02
6.096405552465746780e-01,6.444314632722998315e-01,6.376435544189485993e-01,4.925658038658324231e-03,6.748665274844490962e-03,-1.127220417932316664e-02,4.013643041253089905e-02
5.509436039313211353e-01,6.530076785917184878e-01,6.585424756769339139e-01,3.073503416257324095e-02,-2.828206071203695840e-02,1.958565586831621796e-02,1.318975389003753662e-01
6.083603748858589233e-01,6.389947310863269836e-01,6.526601646013576730e-01,6.169386648146588277e-03,4.419845862544658464e-03,-1.267538162695818274e-02,4.688949510455131531e-02
6.614095853778864109e-01,6.155689996141935350e-01,5.615965458276702682e-01,2.121283537740846145e-02,-2.123445780414840584e-02,5.107510348499946090e-02,1.342280656099319458e-01
6.091404257716238613e-01,6.309107904148159029e-01,6.592555623864941872e-01,2.020721686476453782e-02,1.074676409963247134e-02,-1.257444306777573059e-02,6.277160346508026123e-02
6.194746481120075865e-01,6.249670899224677445e-01,6.535892431627239318e-01,2.097545713820669813e-03,3.143983872456219183e-03,-7.711756136951388764e-03,3.504092618823051453e-02
6.348902714378626966e-01,6.203651375195857742e-01,6.418103363034135533e-01,4.702034434482347570e-03,8.851464517762454298e-03,-5.436038346380019093e-03,2.737527899444103241e-02
6.401741619789381721e-01,6.251535488368757942e-01,6.392024813721811638e-01,1.372508012719703477e-02,1.337001878800388871e-02,-1.415315781030698772e-02,4.375281929969787598e-02
6.331887790418703199e-01,6.352969431836257286e-01,6.333848420641798871e-01,-2.576222240566516984e-04,9.162881251958768789e-05,4.846621188881317229e-04,2.235721563920378685e-03
6.203481068914993291e-01,7.971273419570819030e-01,5.975703648035685100e-01,5.849694246803061048e-02,1.678089806628842162e-01,-4.846382470694571287e-02,3.709283173084259033e-01
5.506845973731705479e-01,6.827652865646131053e-01,6.582779200541076792e-01,-1.740991713751835132e-02,4.946235612456881953e-02,1.333667577272842387e-02,1.536005288362503052e-01
5.151075117168993911e-01,6.639096170760426796e-01,6.264164993931886638e-01,7.506995476784604493e-02,9.394985371568422006e-02,-5.280067403731723841e-02,2.640429735183715820e-01
6.093915953898054738e-01,6.689259040801676104e-01,5.786389481750106034e-01,3.465222703973969837e-02,5.345746255836034133e-02,-3.353443753182287074e-02,1.478850990533828735e-01
6.749064545651153324e-01,7.094765207215023572e-01,5.375144104803420975e-01,2.113570849965743306e-02,6.151721547891401964e-02,-3.189256008396090802e-02,2.014099806547164917e-01
6.710701017514405509e-01,6.971068159115516583e-01,6.779604114175358243e-01,1.044787513344406504e-01,1.047772333071008283e-01,-1.053382862456795771e-01,3.154626488685607910e-01
6.830980694102217754e-01,6.139429353886869389e-01,6.123871690449147476e-01,4.962998650217948643e-03,-4.938679473971675782e-03,1.488908983769844131e-02,7.552855461835861206e-02
6.958143817354419669e-01,6.290705041358538585e-01,6.118460399153412554e-01,1.263302108691967407e-02,-1.329781457745975864e-02,2.947147904191872378e-02,9.755016118288040161e-02
6.689177226100084805e-01,6.156506622286967989e-01,6.133376495756400759e-01,1.410051646350863079e-03,-2.264323670569263255e-03,8.041840934664503966e-04,5.467379093170166016e-02
7.575117304367637860e-01,5.208548495334915929e-01,6.542750359332148991e-01,-7.547300864767052253e-02,1.862034329900468313e-02,1.048509608721784891e-01,3.055199980735778809e-01
6.754627472801455479e-01,5.993505092385547073e-01,6.065045971415798931e-01,9.625122582825640025e-03,-8.912108327383099979e-03,2.475971572940088503e-02,8.749329298734664917e-02
6.855964179926189450e-01,6.163044634431013025e-01,6.150698510777075079e-01,-3.657233372773621618e-03,2.718166601256399861e-03,1.305547272363221170e-02,7.390585541725158691e-02
6.125536779610811777e-01,6.804598371491717979e-01,6.037397190669263614e-01,1.912649852439946745e-03,6.922000406014038563e-03,1.085068182057254485e-03,7.379501312971115112e-02
6.927327385924640923e-01,5.742445517077017225e-01,6.299278748046920340e-01,5.712206256476193202e-04,-8.567357253323944558e-03,1.897477999078372307e-02,1.088281720876693726e-01
6.772096466892114641e-01,6.203363050023874559e-01,6.135113367066140633e-01,6.712103391531411105e-03,-4.443019312997368783e-03,1.217724177374229950e-02,6.563954800367355347e-02
6.779281343810878990e-01,6.210807983692648859e-01,6.184644953462491435e-01,7.202814928951585885e-03,-6.586267327188603284e-03,1.119165682520755108e-02,6.362964957952499390e-02
6.776787812393325616e-01,6.131116570838356372e-01,6.103745416686156000e-01,4.755445869840298494e-04,-1.502508852292721263e-03,1.403550591750226230e-03,6.607945263385772705e-02
6.155191817986254144e-01,6.156239295878667139e-01,6.686546675734186262e-01,-7.781940403927749099e-04,2.073854934637872714e-03,1.327800937964702076e-03,5.327131971716880798e-02
6.801652674193526815e-01,5.848841873008610026e-01,6.300729153081890965e-01,1.312751302355456146e-02,-1.295308765401870406e-02,3.383119515069341054e-02,1.061549186706542969e-01
6.415293209105852323e-01,6.307588652435625054e-01,6.217628781123807347e-01,-6.366226277373645756e-03,4.157737204072940729e-03,4.423414756855040091e-03,2.293399348855018616e-02
6.765656171711845746e-01,5.653720636307217884e-01,6.684148161647027742e-01,6.370075769209841872e-03,-1.482751838869496470e-02,1.391115232978651015e-02,1.135164573788642883e-01
6.514965159425302188e-01,6.582450485754666181e-01,5.649507481575152257e-01,-1.757340177132022882e-02,-1.887956942280376652e-02,-1.596542165279995693e-02,1.043083965778350830e-01
7.258759738939571937e-01,5.584756595153610448e-01,5.574210439240572246e-01,-1.569819326102255691e-02,-4.271934021577146988e-03,-1.238584311424496681e-01,2.738928794860839844e-01
6.658861470783963288e-01,6.349549622280291628e-01,5.965245606294955483e-01,-1.418102159768384364e-02,-7.072660708686815539e-03,-9.192534693083037611e-03,6.803830713033676147e-02
6.783694621761182653e-01,6.927204366914226918e-01,5.280931647987242572e-01,-5.212701171415124422e-03,-1.196404311744043124e-02,-9.535684372176729973e-04,1.595593541860580444e-01
6.512205622662664561e-01,6.926646978465413884e-01,5.640162374889218233e-01,-1.008587674570643640e-02,-8.435786043043524279e-03,-5.351767956947471247e-03,1.163653954863548279e-01
6.777178049303694829e-01,6.154567345295708369e-01,6.105766439615666341e-01,-8.222527758563706731e-04,-1.481234288923221341e-04,2.841056990720677595e-03,6.504156440496444702e-02
6.199749629884537816e-01,6.637529505381294381e-01,6.140015871971078454e-01,6.657002450033071110e-03,-5.726785106989718162e-03,4.266293035013309955e-03,4.999634623527526855e-02
6.250826188898777058e-01,6.209579202618102922e-01,7.109829188214237261e-01,-6.080653551999654072e-02,2.378977723543602291e-02,2.559231966170185182e-02,1.500175148248672485e-01
6.170647946964890052e-01,6.739820277635373280e-01,5.739785699794206497e-01,2.027232386665196728e-02,-4.870883487832752129e-02,1.914607470070905232e-02,1.303787231445312500e-01
6.877764850575487365e-01,5.972231580617741731e-01,6.247468667184400415e-01,6.626275891243554698e-04,3.501578991254255310e-03,6.862427764550925978e-03,8.151365071535110474e-02
6.039591479663327656e-01,6.912740680383766545e-01,5.690020707888586715e-01,2.512919737751554902e-02,-7.686699010489990436e-02,2.084401982053869784e-02,1.811673790216445923e-01
6.913799448130575342e-01,4.862851204873985811e-01,4.722887126222770071e-01,-1.580443326169652662e-01,-1.472984386813608049e-01,-2.857696342940139744e-01,6.558564901351928711e-01
4.646135173200485746e-01,6.787274044293506448e-01,7.004696449050672458e-01,6.184144892986401937e-02,-5.166783973521196088e-02,3.116075339295574370e-02,2.708644866943359375e-01
5.969222484150428221e-01,6.786954411447251312e-01,6.272883549933228053e-01,5.090865340087777358e-03,-7.180094800837648512e-03,7.729965285828651646e-03,7.441432029008865356e-02
6.256784171132683259e-01,6.636742556856298769e-01,6.262691232092959526e-01,8.076278239273275775e-03,-8.811099897871701656e-03,6.977306395578614963e-03,4.467910155653953552e-02
6.206396182810433038e-01,6.592824801160154236e-01,6.153634238868057604e-01,1.336692328382856239e-02,1.449865082554345486e-02,-1.210729954107051150e-02,5.771839246153831482e-02
5.797346316704731217e-01,6.851616539966984831e-01,6.345441200166165308e-01,1.692939245199775490e-03,-2.090314836025011086e-02,6.325721312467393401e-03,9.889389574527740479e-02
7.407131857393112195e-01,6.494803128410669979e-01,5.483106734281927297e-01,-5.864149375837453965e-03,7.006060347700011903e-02,1.436883379312380027e-01,3.233517706394195557e-01
6.149418763222931350e-01,6.536858492394008735e-01,6.376232876637311087e-01,2.173991979946237989e-03,3.160748787225277270e-03,-7.874336837563424008e-03,3.697213903069496155e-02
6.262314156392055908e-01,5.964261531293634233e-01,6.866161701685928875e-01,-4.807147619974124451e-03,1.146297301123074507e-03,5.304799689808669403e-04,8.005353063344955444e-02
6.295671657721554348e-01,5.856433710448257779e-01,6.723545386825838799e-01,-1.156021259856740424e-02,1.110380256554704785e-02,4.493998828983171087e-03,8.044146746397018433e-02
6.520925098831490407e-01,6.724573239926463497e-01,5.799445406369619915e-01,-1.117108143375694813e-02,8.283487178126585498e-03,6.727112296100522075e-03,8.834774792194366455e-02
6.071654222099160947e-01,6.144952897403954672e-01,6.755317958817093071e-01,-7.368154183942415142e-03,2.294289042408925901e-03,4.621106768069834121e-03,6.685279309749603271e-02
6.157387105208751432e-01,5.685421450754007955e-01,6.837826184944388874e-01,-2.059919471937889102e-02,1.134728958920334626e-03,5.127742857467754373e-04,1.065202355384826660e-01
5.946629213676720704e-01,6.007010359319133741e-01,6.907529923591702037e-01,-2.871407572310492526e-02,8.941874856928410872e-03,9.982269518896757371e-03,1.081751361489295959e-01
5.981045258747366145e-01,6.297133003760836401e-01,6.410534469910139643e-01,-3.044412478868896085e-02,1.891720002585582303e-02,2.014961743188573365e-02,8.098332583904266357e-02
5.410895934963210196e-01,6.322164978763050724e-01,8.034482908198565809e-01,-2.104380448567527151e-01,2.174329750944461667e-02,-2.925086578293109498e-03,4.330412745475769043e-01
6.419010859465312802e-01,6.291444563857014893e-01,6.326886427314281081e-01,-1.790339729403977271e-03,1.296899827719831923e-03,1.754467557135883874e-03,1.240875665098428726e-02
6.549566308179018970e-01,6.282972709446528192e-01,6.236823944298480749e-01,-1.794178376820908683e-03,1.695718948825032137e-03,2.267091918442346640e-03,2.981192618608474731e-02
6.248269027920126950e-01,6.625317531182873809e-01,6.220425920124722508e-01,-5.241023553528508655e-03,7.941412472234196315e-03,7.237693362255697566e-03,4.430740326642990112e-02
6.442509274829165689e-01,6.224294727897941026e-01,6.253238390164581606e-01,-6.086715072588665468e-03,-4.597722946335565733e-03,-3.678359409160583855e-03,2.522987127304077148e-02
6.225804992530579174e-01,6.613210961514082165e-01,6.157154550094126044e-01,-6.337243221716163007e-03,2.726479911342437248e-03,1.440006317466538052e-03,4.430488124489784241e-02
6.156026723655665389e-01,6.159097891691079907e-01,6.872863637635704404e-01,-1.370100955544568608e-02,2.372958283392976285e-03,2.537853973494433139e-03,7.560422271490097046e-02
6.078178796941159368e-01,6.152454183162825441e-01,6.801045002020299490e-01,-8.342197912659977954e-03,3.328412827453349973e-03,1.970001580888938817e-03,7.069134712219238281e-02
6.179347798792782509e-01,6.185491918780481324e-01,6.659045707990793872e-01,-4.950882881950393992e-03,5.421372509435086820e-03,8.771935283705725381e-03,5.161930993199348450e-02
6.186779276512621717e-01,6.446194952805315292e-01,6.372041567475508206e-01,3.316407635092240465e-03,2.601582154613691928e-03,-8.855882961876532233e-03,2.870830893516540527e-02
6.257294483931750140e-01,6.457134144982600299e-01,6.276826865751140572e-01,-1.728063901252782641e-03,1.024294399055063112e-03,3.627337365182039131e-03,2.038919925689697266e-02
6.178995968744211975e-01,6.269678381153559465e-01,6.618672928902276098e-01,-3.062037817012411376e-03,3.310898050985677105e-03,8.091462777566491016e-03,4.329100623726844788e-02
6.519111345962006476e-01,6.522598759695029669e-01,5.958913811849935183e-01,-1.315611496744515697e-02,6.979435048485148167e-03,6.201349417784403524e-03,6.275849789381027222e-02
6.548472432158913836e-01,6.151914154701234594e-01,6.374120802643861161e-01,-3.062030449858825845e-03,6.835084579009138329e-03,5.055299025327004460e-03,3.781686350703239441e-02
6.272793183419560492e-01,6.331272675324018939e-01,6.487249134804677908e-01,-3.962642541676812506e-03,6.020357195711041609e-03,4.962665575254866096e-03,2.446272969245910645e-02
6.209445172126788481e-01,6.161611677885899807e-01,6.765913134075219881e-01,-1.009660292634828420e-02,7.192329851496814808e-03,5.616806584790971085e-03,6.277963519096374512e-02
6.095211957454633733e-01,6.155368093892159553e-01,6.690075797511980671e-01,-9.367362054756637330e-03,2.277892636423336451e-03,5.971216485253237442e-03,6.002287566661834717e-02
6.316952270871494246e-01,6.321225340276225291e-01,6.389875886392757387e-01,-4.262849086111177195e-03,5.230880879628094574e-03,3.085347843577382430e-03,1.467668730765581131e-02
6.368057589057650736e-01,6.419921770730272481e-01,6.194827630375889793e-01,-9.265951036076284023e-03,2.919521103355123947e-03,2.514748400336830770e-03,2.681316249072551727e-02
6.322686460827617871e-01,6.332526087625492961e-01,6.322309058892719991e-01,-9.170265917339438929e-04,2.395099753119422220e-03,7.145289263235511494e-04,4.719186108559370041e-03
6.314582307106632042e-01,6.273230419281302650e-01,6.359418133484415758e-01,-3.004689884844211414e-03,3.990297453711728198e-03,1.472768919011209965e-03,1.170904841274023056e-02
5.741614204634717389e-01,6.587629327861559414e-01,6.544532706843815273e-01,-2.494113300101142433e-02,2.611958457701664751e-02,1.771141521325077239e-02,1.080062314867973328e-01
6.244240500319790943e-01,6.018833840426118797e-01,6.918508197914479130e-01,-3.179507548441700554e-02,8.697530949083712853e-03,5.725334635888002302e-03,9.966120123863220215e-02
6.752363793407218928e-01,7.532300702567338302e-01,5.949971403104786782e-01,-5.603435074046052983e-02,1.548997349687218639e-01,5.499982947079762319e-02,3.305386304855346680e-01
6.718720094928479769e-01,6.015257714333142047e-01,6.285978117555620637e-01,-2.560937268769021471e-03,8.192297759416074590e-03,6.203009756094927767e-03,6.413673609495162964e-02
7.008619537836031643e-01,7.006713952875154305e-01,5.386461284050884091e-01,-1.019816059196243935e-01,1.845588646896589025e-01,1.640691015867798419e-01,4.903323054313659668e-01
6.276587986768670246e-01,6.304471446237766008e-01,6.404364621308393790e-01,-1.531124906139395532e-03,4.057249519907151804e-03,1.542007828491019899e-03,1.410550344735383987e-02
6.115865218859518615e-01,6.518266187434430536e-01,6.377720035590056513e-01,-2.209277523021214388e-03,3.500251337652372872e-03,9.282437224125219405e-03,3.951110690832138062e-02
6.537022176320083089e-01,6.315311739771106714e-01,6.160227038436172364e-01,-1.102712800773973482e-02,3.303844063416616801e-03,5.015890714546203735e-03,3.935635834932327271e-02
6.540924436970052547e-01,6.375762045449732129e-01,5.968461358408473361e-01,-2.455908756721442501e-02,2.529019155511070746e-02,2.916816483166193713e-02,9.426030516624450684e-02
7.028178192398540913e-01,6.408613201220199063e-01,5.313362414675162348e-01,-9.577956841873075389e-02,1.952626260674386882e-01,1.474517414691984274e-01,4.793222844600677490e-01
6.406150531366856526e-01,6.286024344045157974e-01,6.275906571764188202e-01,-1.633144596145000120e-03,3.964074359572452265e-03,7.995668905693344587e-04,1.464724726974964142e-02
6.480018026098000039e-01,5.782492187560982488e-01,6.735920317240431388e-01,9.333007679850045119e-03,-9.520803943871336550e-03,5.044523018798192579e-03,8.896550536155700684e-02
4.858574272952092543e-01,6.357944178698579085e-01,5.754130435482793793e-01,-1.610300403056493801e-01,2.208509829189550522e-01,1.419722571028301794e-01,5.492353439331054688e-01
6.358523331599795769e-01,6.123580462521418522e-01,6.537621609133767997e-01,2.916627829664041223e-03,-9.694362790476189484e-03,2.759239045404857527e-03,4.029670357704162598e-02
6.262411840994969170e-01,6.801139068707603430e-01,5.943424616071166788e-01,6.037397861351749160e-04,-5.933951037648120541e-03,7.469723498411837354e-04,7.580681145191192627e-02
6.433124509366933141e-01,6.175641147634464145e-01,6.360641296183185966e-01,2.787556979601556618e-03,-8.851709276631073223e-03,2.988052667586627627e-03,2.853134833276271820e-02
6.135722155870525496e-01,6.806810665683077355e-01,6.103159253773404735e-01,7.792823539373326322e-04,-1.307367154457829807e-03,-1.578053677715999257e-03,6.889954954385757446e-02
6.220131292926047717e-01,6.647006317347206039e-01,6.190704024128027561e-01,4.463957825890840260e-03,-1.285004458931524908e-03,2.763079699042110104e-03,4.521214962005615234e-02
6.254987305600280267e-01,6.793094732645307277e-01,6.060319793214409279e-01,1.080734205300793067e-02,-2.250785421772448849e-02,5.653038776171152510e-03,7.929784059524536133e-02
6.194469894668768184e-01,6.645705383055080517e-01,6.214354345017557568e-01,2.585445941512074918e-03,-1.176161354174120157e-03,4.597277664955468600e-03,4.514389857649803162e-02
6.099025233219051989e-01,6.564712883356789153e-01,6.072842083018948900e-01,1.245478411697577420e-01,-1.370678891531076082e-01,8.473674480354680127e-02,3.560023903846740723e-01
6.293453032480957887e-01,6.760241077486254246e-01,5.757304376633002319e-01,1.635952817150839247e-02,-1.555850847489982647e-02,8.034468996359577647e-03,9.632707387208938599e-02
5.739213952375087358e-01,6.865903201391273525e-01,6.293727338174163188e-01,1.114212939523243984e-03,1.778708692300658839e-02,-2.346159387581511595e-03,1.024249643087387085e-01
6.041546396573707067e-01,6.818184396379213252e-01,6.273296566484942716e-01,5.339899260249861973e-02,6.291810167094760708e-02,-2.932669530082944453e-02,1.666717529296875000e-01
6.051839649054479020e-01,6.686257166307056909e-01,6.332804150344035765e-01,2.019638327647684407e-03,6.559775774179583616e-03,-7.816630668086266623e-03,5.793450027704238892e-02
6.295139576598128839e-01,6.985742940164858528e-01,5.982867832791289864e-01,1.040321285991354164e-02,3.628155286885049319e-02,-6.296660628404815961e-04,1.103446856141090393e-01
6.858523709748387542e-01,6.293856759854553617e-01,5.998790162286573580e-01,-2.113082402354292367e-04,-4.765885885607647199e-03,3.157514913219309355e-02,9.372576326131820679e-02
6.801599326467979711e-01,5.974635840544737508e-01,6.241480010145761259e-01,2.471616779659105336e-03,-4.833514189961634765e-04,6.071109552864707021e-03,7.398407161235809326e-02
6.233636222054116383e-01,6.756773895700868282e-01,6.207317232232885118e-01,1.071588908966402548e-02,1.287216054525856281e-02,-7.231943210771384946e-03,6.228814646601676941e-02
6.443084055112158204e-01,6.462871057573958966e-01,6.287316627612100639e-01,1.475860151793965958e-02,-1.103071486055563245e-02,1.511621129099309339e-02,4.451236128807067871e-02
6.936318770564510183e-01,6.510535637748628979e-01,5.640935332727173845e-01,6.065586285711931092e-03,-2.198500177737501733e-03,1.064794267326291469e-02,1.163726001977920532e-01
6.035514571311858534e-01,6.714070006521462020e-01,6.182007952591208610e-01,3.966319365775434515e-03,9.930647769044845946e-03,-8.257893511851098489e-03,6.612537801265716553e-02
6.885954554887812051e-01,5.984249325352523075e-01,6.264870464586537180e-01,2.465515230277727596e-03,-5.012400242833576353e-03,6.056110114221565331e-03,8.118785917758941650e-02
6.484661681290333490e-01,7.065330547611161638e-01,5.706647168282935612e-01,3.745344531488353779e-02,5.760559643452638906e-02,-6.706665279805854377e-03,1.680504381656646729e-01
6.221539138889187193e-01,6.726526572082009992e-01,6.105075818885576933e-01,1.012585829119733334e-02,1.372031165671579872e-02,-2.267733218049911535e-03,6.451087445020675659e-02
6.128493903202102411e-01,6.005656020775146375e-01,6.809607208781565113e-01,1.078580252698996614e-02,-3.368286447914021369e-04,-5.617317963237268954e-05,7.730498164892196655e-02
6.795584263744686160e-01,5.968825834155995214e-01,6.287981566789239141e-01,-1.300904411584850699e-03,5.239863722711526027e-03,5.780927532211085039e-03,7.350479811429977417e-02
4.946901505677910871e-01,5.403374137120391385e-01,9.266932957299065521e-01,-2.753740608316610494e-01,1.001293871356171011e-01,6.834762342285219394e-02,6.637583374977111816e-01
6.874770747263233561e-01,5.646231122681176773e-01,6.477314927507260567e-01,2.900242081765928154e-03,-1.199425475876844715e-03,1.155995208860135896e-02,1.105457022786140442e-01
5.818753093053175007e-01,6.725341217326732401e-01,6.281875942637760168e-01,4.283188065448458558e-03,1.936478522146703810e-02,-1.227524273761597916e-02,8.830230683088302612e-02
6.517835006678937004e-01,6.019418101553967171e-01,6.347463050831225750e-01,-5.414016542032809923e-03,1.307257911293804864e-02,8.533179963217117289e-03,5.238658934831619263e-02
4.561439701487476350e-01,7.268164936565191248e-01,1.059946725379501409e+00,-3.415754533583995611e-01,-5.937675715775352775e-02,-3.054249016082857121e-02,7.986271381378173828e-01
6.481578418509889028e-01,6.227089929068470031e-01,6.235476705507295714e-01,-3.508359106358315341e-03,6.080179572736051086e-03,4.595674535828571730e-03,2.895161695778369904e-02
6.260535649593839125e-01,6.243548145791562032e-01,6.443749862440117937e-01,1.365802841309815378e-03,4.275292376819894713e-03,-2.466738909010616782e-03,2.117471955716609955e-02
5.929063327990301557e-01,6.331983184674143672e-01,6.650497404442525795e-01,-1.196160210150553835e-02,6.927113432930037673e-03,1.425176790424967713e-02,7.144121825695037842e-02
6.718442975392329153e-01,5.805826597778275255e-01,6.507432969540197787e-01,-5.329718753856560291e-03,1.128115545883603445e-02,9.086324484895203640e-03,8.696506172418594360e-02
6.097598252014105880e-01,6.136628691091305932e-01,6.777484232551244103e-01,-1.666439831339180900e-03,1.178609679179126084e-03,1.306530711812478238e-04,6.621835380792617798e-02
6.830872745467347906e-01,6.133682562509773506e-01,6.136914505095298900e-01,-2.283619687525652048e-03,4.212080837361388552e-03,1.362264592001165633e-02,7.391828298568725586e-02
6.806614373507121618e-01,6.188182514911476639e-01,5.758634427701785352e-01,-8.432350842338070737e-03,6.433203444953754582e-03,1.924829292272613179e-02,9.886920452117919922e-02
6.713234958675594610e-01,6.220113585632248698e-01,5.757822853193445001e-01,-1.086593866200837380e-02,4.170266411808859312e-03,2.070791126143010918e-02,9.241915494203567505e-02
6.784184035739612151e-01,6.029418269092123861e-01,6.161452434495312547e-01,-3.683997168521202254e-03,6.226908872860034867e-03,6.507770480916962898e-03,7.182330638170242310e-02
4.723663678070822991e-01,7.219532067539415898e-01,7.253660312454848214e-01,-9.882346211625541929e-03,-1.844022468219370893e-03,2.874782206643292527e-03,2.519623339176177979e-01
6.185631798648633106e-01,6.353367569877357290e-01,6.526926295576733761e-01,-8.840770035791023322e-04,2.442024499214582103e-03,9.383723585706353273e-03,3.403082862496376038e-02
6.609119223827660816e-01,6.932876163075064602e-01,5.478832146920178392e-01,-1.215405940319484214e-02,1.889870013102541366e-02,1.239569216169449616e-02,1.394943147897720337e-01
6.605524486026942421e-01,6.151624787381664294e-01,6.229587872916254598e-01,-2.372907473824608076e-03,6.727816795821267570e-03,3.160454210637634546e-03,4.415660351514816284e-02
6.760930253244371579e-01,5.806413121587618020e-01,6.472329189273490213e-01,-4.855861595955480656e-03,1.097091603351206535e-02,9.486488505887943901e-03,8.883124589920043945e-02
6.520358242842153595e-01,6.670033217932952452e-01,3.460421331073118556e-01,-1.099791792004724961e-01,-2.370575184444553285e-01,-2.013459778841755476e-01,6.518679261207580566e-01
6.615387741858121951e-01,6.356111635379111391e-01,5.981260873157389080e-01,-1.477543862575488726e-02,5.858898199662715585e-03,8.408244912835547216e-03,6.339784711599349976e-02
6.256402248512434872e-01,6.317081126797318147e-01,6.401275656205829279e-01,-2.352826467834938026e-03,3.181801026565168194e-03,5.007779910320237990e-03,1.676327176392078400e-02
6.625543281045861432e-01,6.080461242352823703e-01,6.309296598338270945e-01,-7.303741260303468763e-03,1.051196602129474307e-02,4.960296071757094513e-03,5.303594842553138733e-02
6.369714510591663048e-01,6.055695779663592404e-01,6.521968034932773550e-01,-8.896831139690416362e-03,1.326867999005948255e-02,5.380580294760340526e-03,5.048247054219245911e-02
6.247699436668563422e-01,6.805880124350923710e-01,5.991490268433293798e-01,6.348885536638462258e-03,6.239087884013786584e-03,-1.844385759374608151e-03,7.382484525442123413e-02
6.610459048315603381e-01,5.928952598967895948e-01,6.346064744634192234e-01,-1.182942547374509282e-02,1.545972187855323282e-02,9.896663049101970741e-03,7.051479816436767578e-02
6.706412119605392741e-01,5.502914275051026260e-01,6.684572442713097029e-01,-5.138939688308653830e-02,3.973647016148593863e-02,4.108876035284434597e-02,1.787468343973159790e-01
6.290603077379497421e-01,5.985405673731071241e-01,6.816472816108978261e-01,5.103021225021256956e-03,-5.238500561295914362e-03,2.356928444595711696e-03,7.401958107948303223e-02
5.319718973659957051e-01,6.430528593108824076e-01,6.940876356171598038e-01,-3.189400565393919057e-02,2.038128322776686617e-03,-1.335310239523546322e-03,1.538896113634109497e-01
5.319944739969105774e-01,6.799725847583353300e-01,7.089718870042077681e-01,-1.309075326276899764e-02,9.734670393924344054e-04,3.780426391641025959e-03,1.661010682582855225e-01
5.218468149090947916e-01,7.137213723501238949e-01,6.930877698863385783e-01,-1.331414380202041170e-01,5.751340662760020400e-02,3.012887192772179673e-02,3.148159384727478027e-01
6.202807962227190330e-01,6.204515632406892855e-01,6.539378656854016869e-01,1.784678738147964456e-03,-2.297108390897015240e-03,5.149875253226934152e-03,3.510027006268501282e-02
5.931116885695630891e-01,5.992400575492148329e-01,6.751319447083509173e-01,3.058277614772559813e-02,-7.791747646780679271e-03,7.213698546619048795e-03,9.698656201362609863e-02
5.326988781470667345e-01,6.927499982743251516e-01,6.912214203647832900e-01,-2.320451482865451207e-02,3.060997981201823287e-02,1.692604512325347407e-02,1.750993430614471436e-01
6.799957891589438752e-01,5.178010776145088867e-01,7.016031358676265706e-01,1.287706841590009928e-02,6.015772948211242123e-03,-5.488489278144199554e-03,1.759971380233764648e-01
4.773172099948826963e-01,7.538290194267897038e-01,6.941070757727998419e-01,-5.358577482762778149e-02,5.471419386146882113e-02,1.290450567700050614e-02,2.856684923171997070e-01
5.160397214552552292e-01,6.940848265400014760e-01,6.874497435869095785e-01,-1.585633013438154937e-02,1.576559854716880552e-02,1.550345898657281944e-02,1.810628175735473633e-01
5.538723446096591729e-01,6.652048839708384342e-01,6.781191767131128367e-01,-1.743584432990359992e-02,1.141860281582543490e-02,1.791370678703276681e-02,1.275357902050018311e-01
5.732641756609326844e-01,6.921613800738964928e-01,6.599853472145074118e-01,2.901266903766738792e-02,-3.069618991102893504e-02,2.144998517114580019e-02,1.344562470912933350e-01
6.135104467398397876e-01,6.172868800740596296e-01,6.758913376945027141e-01,1.364842980878745206e-02,4.572152598682711379e-03,-6.195945717007655951e-03,6.638359278440475464e-02
6.710480245473849914e-01,5.821138509300638475e-01,6.501494578092618104e-01,5.579270752438492478e-03,-9.919134839855847652e-03,7.285119527996909705e-03,8.387617021799087524e-02
6.136795847640542645e-01,6.159296353085279563e-01,6.672508561648927694e-01,5.392905880161521495e-04,2.261840396040742940e-03,-1.435627065722209226e-03,5.269543826580047607e-02
6.783895762646728889e-01,5.390598851363845867e-01,6.488940808661756154e-01,1.419842989944374891e-02,-1.874381932774749071e-02,2.683956301564927038e-02,1.413966566324234009e-01
6.019739757244180201e-01,6.268879323276775883e-01,6.684166401814127800e-01,4.824387262830029735e-03,2.638735992783009573e-03,-6.441594439251493824e-03,5.995980650186538696e-02
6.357060945952640596e-01,6.241761422010855265e-01,6.396844650812224531e-01,2.512644690423327092e-03,-7.049811922720763090e-03,2.286046577321216352e-03,1.945135928690433502e-02
9.692017940666824982e-01,8.364904067025091816e-01,4.791995899094818046e-01,-9.259666063013526419e-03,4.759937324146143629e-03,2.659460333525550668e-01,6.365474462509155273e-01
5.793013920753313784e-01,6.252040192144526776e-01,6.866032015744931716e-01,1.509157792105160663e-02,2.515748155042167415e-03,-4.149271980776055371e-03,9.720698744058609009e-02
5.780898471670878891e-01,6.266574370909034908e-01,6.743342969871642945e-01,1.504937651515571295e-02,8.984545344044407578e-03,-1.409371616131204971e-02,9.200521558523178101e-02
6.186396963034448415e-01,6.040130117141429000e-01,6.760251538797110715e-01,7.932013014689376362e-03,7.410320415951363385e-03,-4.197606506520176924e-03,6.894011050462722778e-02
5.927982568846784650e-01,6.301486990515378084e-01,6.623292128307454174e-01,1.133017147839216615e-02,7.857040531342970521e-03,-1.284172701512658818e-02,6.853936612606048584e-02
6.144511714526119661e-01,6.227964506691062718e-01,6.690769674706292802e-01,1.388848800426411602e-03,2.096626871696182556e-03,-5.082621129808107679e-03,5.190594494342803955e-02
7.852358682308451243e-01,5.286542692096697360e-01,5.179253610956446874e-01,-2.123461657034655253e-02,-1.084223657743952490e-02,2.710254141922777138e-01,5.392326116561889648e-01
6.867268212356828494e-01,5.636692460247505476e-01,6.465530965635251093e-01,1.139183328525436231e-03,8.470193576857342269e-03,1.154840677757524962e-02,1.115017309784889221e-01
6.803372982431975524e-01,6.115251311902007991e-01,6.005032565213618279e-01,1.901522100637485432e-03,-2.555138465430844023e-04,1.123026306644650529e-02,7.748828828334808350e-02
6.950441511019397334e-01,5.464937906853126748e-01,6.637834834031588471e-01,3.454774433727439420e-02,-2.292288327535098313e-02,3.127058511059439133e-02,1.627612411975860596e-01
6.723821734385110327e-01,6.500723120165681213e-01,5.708048575225137533e-01,1.046894693231703415e-02,-5.905446316410809839e-03,8.677196884667599461e-03,9.596252441406250000e-02
6.759634987466000000e-01,6.051465529982061886e-01,6.120609743417083637e-01,2.609823447285712639e-03,-4.440785177990826116e-03,9.377649061510237929e-03,7.011852413415908813e-02
6.975216987406039904e-01,5.648980717032067167e-01,6.484972064502302347e-01,-2.188081718768567104e-04,3.030127406592418235e-03,1.164613491778064905e-02,1.180051192641258240e-01
7.066972036749394892e-01,5.019256830302365469e-01,7.015161182596153511e-01,5.510757930101147818e-03,9.994988337800044345e-05,8.488254443114748651e-03,2.029890865087509155e-01
6.825358891097449421e-01,5.825587326081244077e-01,6.298276665559863208e-01,9.458997829732718535e-03,-7.617941672976233369e-03,1.496539745067978697e-02,9.283521026372909546e-02
6.652567071805352006e-01,6.333905025168473646e-01,5.926270389624107571e-01,1.072733028638924065e-02,-6.412321820967675258e-03,1.126347513468777331e-02,6.946416199207305908e-02
5.601844330799622407e-01,6.481663525096461598e-01,6.971055703664070791e-01,-1.270432917103393386e-02,1.730751596214154210e-03,-2.186683498717693040e-03,1.222667694091796875e-01
6.097549429324119474e-01,6.149506196264659108e-01,6.782459143849679517e-01,-3.009248394159698761e-03,-4.373817985649528580e-04,-9.993104943671665599e-04,6.627886742353439331e-02
6.690340452490908252e-01,6.196686823800410249e-01,6.085097524231118937e-01,6.472680298065172123e-03,-2.580627426334829253e-03,7.041195175840757846e-03,5.836717039346694946e-02
6.556591866915838507e-01,5.375438502064888713e-01,6.937810094432775854e-01,2.738425221761991990e-02,3.671500631354599094e-03,-3.487417980066223958e-03,1.491103470325469971e-01
7.075221946319424360e-01,4.755913751351279473e-01,7.016273937588523024e-01,-7.787175529011964789e-03,3.955311064187931429e-03,3.275646333597699925e-03,2.296094745397567749e-01
6.225171007330103645e-01,5.799920365424436897e-01,6.739525154136837282e-01,-1.397720001920903059e-02,8.622753093396049937e-03,3.887381567997524965e-03,8.657802641391754150e-02
6.670028660245775898e-01,6.313962438944582534e-01,6.099901385647944485e-01,8.484696228029256840e-03,-3.387591350244076923e-03,3.873627643521756862e-03,5.276044458150863647e-02
5.364039888825602453e-01,7.073017102033720693e-01,6.531941271360279799e-01,-3.232368156460143456e-04,1.964744620042430459e-02,2.658053733846750793e-03,1.551334112882614136e-01
6.487450950865717436e-01,6.211112363704097694e-01,6.008575209756998881e-01,-6.196808367852425781e-02,7.368939976073664300e-02,9.248941142778026314e-02,2.349615246057510376e-01
5.048734618449793876e-01,7.404049914083373762e-01,7.016936809969013256e-01,-1.916646287155920891e-02,5.610404565203060134e-02,3.964916780737508945e-02,2.512312829494476318e-01
6.263449620800860540e-01,6.267054759094674576e-01,6.484046238451416366e-01,-5.331163477576774008e-03,6.514388585057214777e-03,7.032022337875266579e-03,2.897808700799942017e-02
3.602106814023049997e-01,8.537400355725024426e-01,1.052819479333203967e+00,-2.415484274096377226e-01,4.472358015671468873e-02,9.849564006303103761e-03,7.501893043518066406e-01
6.319292836870836760e-01,6.208177726402044350e-01,6.530338731926453866e-01,-4.661139620680375059e-03,1.079510421906598912e-02,2.967223361379673751e-03,3.527843579649925232e-02
4.911585645649875209e-01,7.019606243167182402e-01,7.155725092949293265e-01,-3.993012655777340714e-02,3.696691712756152576e-02,4.868911655379603090e-03,2.375841438770294189e-01
6.612871273149092399e-01,7.184434803718336982e-01,5.183359690120845631e-01,-9.435415068552194251e-03,4.689467566998006820e-02,1.639936720855109456e-02,1.988559216260910034e-01
6.144343175965192305e-01,6.081216472999815270e-01,6.809960151145988405e-01,-7.944576231540436198e-03,-3.961437926672595373e-03,-4.174337777859498354e-03,7.196661829948425293e-02
6.127918493312565218e-01,6.159986743011942600e-01,6.760740051277640550e-01,-1.779448248325232870e-03,1.382268062984624108e-03,2.639837856770596656e-03,6.203319877386093140e-02
4.853500004446734684e-01,6.976006078170660096e-01,6.812984737671421431e-01,-4.185055622741103154e-02,4.388819169931308661e-02,1.348741525604174943e-02,2.311592549085617065e-01
5.121095223261236118e-01,6.851177071406718833e-01,6.945642661631886705e-01,-1.988646375187971826e-02,1.492857640525273831e-02,1.219098722314757022e-02,1.842722594738006592e-01
5.357971636675972205e-01,6.886841462662902646e-01,6.817724010082061303e-01,-1.282659899163467697e-02,9.625980787198654479e-03,1.092429344489222361e-02,1.532809436321258545e-01
6.093504295630174372e-01,6.684834729160975542e-01,6.179170047801719745e-01,2.574896789133130498e-03,9.230063399240276412e-03,-5.885853144994961268e-03,5.867655202746391296e-02
6.373813740918383708e-01,6.448141295486308211e-01,6.163509909781469398e-01,9.415232163305142787e-03,2.797973483204125190e-03,-2.630394312970145768e-03,3.104865923523902893e-02
6.259578530854574829e-01,6.588603018872466466e-01,6.110919845344319201e-01,8.344659392216608948e-03,4.966248941524366647e-03,-3.899841550568352438e-03,4.605654999613761902e-02
6.215414346256854516e-01,6.155023843040442477e-01,6.704332449009442474e-01,1.372243482202962443e-03,-4.701674664855668220e-03,2.007827939839128186e-03,5.297357589006423950e-02
6.267832085256018759e-01,6.769488561993534104e-01,6.001987989577375338e-01,8.254049191995736431e-03,4.405319888499195646e-03,-2.484171599351422521e-03,6.955622881650924683e-02
6.163086941856147360e-01,6.649680476941555174e-01,6.195126922423023208e-01,5.569126643090510295e-03,6.122492906021573950e-03,-6.019324507514593227e-03,5.036159977316856384e-02
6.277152859310740629e-01,6.759165711082171235e-01,5.858670932758264227e-01,1.188289173313493430e-02,9.918117397204592733e-03,-6.058647580229808115e-03,8.319020271301269531e-02
6.142707328785286247e-01,6.153398264983735988e-01,6.699121411620677646e-01,2.378986101810442490e-03,-1.824461763398766605e-03,3.819373962093155616e-03,5.575258657336235046e-02
6.278816137541978204e-01,6.604212175040327093e-01,5.983313487638635131e-01,1.577545899331934259e-02,1.088144658351092135e-02,-1.226520951497575215e-02,6.668370962142944336e-02
6.283043397139153052e-01,6.413395680553151124e-01,6.224372614151455485e-01,1.061843671001874365e-02,1.388097147474185930e-02,-1.285975964542876611e-02,4.114895313978195190e-02
6.168021408884071244e-01,6.905543497159648547e-01,5.601271132833122168e-01,7.635744510143646809e-03,5.735786909897369612e-02,-8.728457303920023058e-03,1.520019769668579102e-01
6.210362016879623637e-01,6.653483730777662863e-01,6.197555538564537558e-01,8.819644683992485662e-03,9.606624048625044335e-03,-6.093019762948443004e-03,5.141548067331314087e-02
5.443062000783935872e-01,6.908091409930828819e-01,6.587483981384751885e-01,5.842068710194607724e-03,2.176975492042669894e-02,-6.415237559206674739e-03,1.394332498311996460e-01
6.124144759287700746e-01,6.655902295418544279e-01,6.314729679600554757e-01,4.196534287276434440e-03,4.320613550329597922e-03,-8.750494306058445235e-03,5.015961080789566040e-02
5.915079088052446199e-01,6.639132527876232537e-01,6.311131911373573100e-01,9.101545509638235207e-03,1.310768754573977089e-02,-1.373474034780430147e-02,7.261788100004196167e-02
6.449413397388100710e-01,6.252813541461011981e-01,6.266294545533865890e-01,5.144547098300961303e-03,-6.698994251061067551e-03,7.694960921519242679e-03,2.744985744357109070e-02
5.798856629778232907e-01,6.792193624671831742e-01,6.261974377464405439e-01,5.440639522474944971e-03,1.317650434192546398e-02,-9.094479717440878339e-03,9.093643724918365479e-02
6.239123971531941315e-01,6.204299620933291237e-01,6.627458066303560935e-01,-9.177619470390563014e-03,-7.044705220401811449e-03,-6.501042450577316188e-03,4.673067852854728699e-02
6.320819386672352769e-01,6.012473402002822542e-01,6.742491889698792873e-01,4.491497552939986877e-03,-9.031440771805959375e-03,3.224983891095897868e-03,6.607180088758468628e-02
6.274844794870332310e-01,6.411260136932143139e-01,6.618310299457336177e-01,-1.853492833882485272e-02,-1.691936220203600280e-02,-1.373530753694980969e-02,5.790197476744651794e-02
6.945497959532096477e-01,5.033166552531358473e-01,6.774383618206319957e-01,1.193095080671576191e-04,6.980893710995444111e-03,1.118291147574596890e-02,1.846944987773895264e-01
6.222585354784559986e-01,6.327768810981528880e-01,6.420386503440151937e-01,-3.116083816665360731e-03,-3.564135850979781393e-03,-7.106895466441731819e-03,2.264061570167541504e-02
6.788137731799693819e-01,5.246412972660254859e-01,7.016701262133024919e-01,9.710408825441909503e-03,-3.613043636889067770e-03,4.307436243650848186e-03,1.679079681634902954e-01
6.240592722713843576e-01,6.234140246237190874e-01,6.471453741617293476e-01,-3.764799466463715407e-03,-7.584308157946726553e-03,-3.184010342657337105e-03,2.817411534488201141e-02
5.042134229036498994e-01,6.653136955556214760e-01,7.284664306863294359e-01,8.609024165594708622e-02,-6.262708136364847442e-04,1.028716699384035933e-02,2.503372430801391602e-01
6.917220891576770780e-01,5.205758175145299704e-01,9.842884300828467214e-01,3.212815214497314886e-01,-9.675721757134247980e-02,1.053163268615376069e-01,7.321090698242187500e-01
6.926264516114732928e-01,4.981649550954585504e-01,6.810730981039305743e-01,5.134452189286515568e-03,-4.820183024396146147e-03,4.981734123464141503e-03,1.895397454500198364e-01
7.178313799050931587e-01,4.786351986031922578e-01,7.119853281055703587e-01,-9.491313373906122564e-03,-2.597842289674224658e-03,3.433183930796995798e-02,2.442891001701354980e-01
7.097776707291314491e-01,5.352559272683058422e-01,6.819393338190243847e-01,2.356161228448935829e-02,-6.787234831574367154e-03,1.287447762026834586e-02,1.693378984928131104e-01
6.784468668514758161e-01,5.404100751456685225e-01,6.757947968313546827e-01,8.942995352414164281e-03,-9.211644566052806793e-03,7.570314214655021051e-03,1.391457170248031616e-01
7.078157194891925297e-01,5.518047126196468088e-01,6.701189506111148164e-01,1.771139439343482128e-02,-9.607208584563587533e-03,4.933238468981840374e-02,1.685182452201843262e-01
6.975877690630385430e-01,4.987636076707687716e-01,6.817538174707611365e-01,2.859658309925437909e-03,-7.286186234166091950e-03,5.133916139549926823e-03,1.920845061540603638e-01
7.236533050296931613e-01,4.697756100611217844e-01,6.314575989216605345e-01,-3.315167203465370794e-03,3.993855235153922524e-03,1.035992475744222791e-01,2.860537171363830566e-01
7.576040570004047847e-01,4.731147742447981974e-01,7.585690286483136591e-01,-1.476416175464072278e-02,-1.105956232749362965e-02,6.989911770243902034e-02,3.112686276435852051e-01
7.180821347695468537e-01,4.963635123843934682e-01,7.074352532596300813e-01,-4.421930915302851872e-03,-1.294453179678280435e-04,1.861588631972313501e-02,2.191124260425567627e-01
5.660652266385211018e-01,6.514732372950343686e-01,6.955146261264432139e-01,-1.175855105014017923e-02,3.318632255373690689e-03,6.964267025435966381e-03,1.165718361735343933e-01
7.089962982713182704e-01,5.158848419524207918e-01,7.030934844169663966e-01,1.974285740685402871e-02,-8.004130550775655911e-03,2.016816564273582121e-02,1.968978941440582275e-01
6.957629515318906055e-01,6.482896478485373759e-01,5.632010519873525967e-01,-3.107643049820778790e-03,1.179312247701553348e-03,-1.107305839971869064e-02,1.180432215332984924e-01
6.697275501089884342e-01,6.144510870765226285e-01,6.126613249537935513e-01,-3.867686260270626186e-03,-1.893661654122750148e-03,-2.505393916289482947e-03,5.685145780444145203e-02
6.779196993254597015e-01,5.267405408756727914e-01,7.040204231282269909e-01,-1.153319886504950049e-02,2.879120306690925030e-03,1.582714610809816394e-03,1.670739352703094482e-01
6.417387571727359852e-01,5.672196947718142201e-01,6.938595095197642726e-01,-1.838053657629889343e-02,6.087623412333586018e-03,5.754333365453842900e-03,1.156620085239410400e-01
6.003385214032724848e-01,6.127105849780591917e-01,6.854755273445378716e-01,-8.341258288708323573e-03,5.589510851423640068e-05,1.855582182680207267e-03,8.103780448436737061e-02
6.100225552400904139e-01,6.134509487462924682e-01,6.801496843605429055e-01,-3.005289786788227849e-03,4.691829169508911473e-04,1.294284498256898777e-03,6.871627271175384521e-02
6.100503124364308194e-01,6.159890255763265099e-01,6.777146855009137383e-01,-3.519713124413445526e-03,-3.009594503212669665e-05,1.244305524741910534e-03,6.522046774625778198e-02
6.274974080707474977e-01,6.044179621884859799e-01,6.736562807135877406e-01,-4.666631107459700938e-03,8.109178246276268348e-03,1.567046545454042284e-03,6.323447823524475098e-02
6.037212787651548007e-01,5.982580733181610544e-01,6.901912722254320842e-01,-2.682889710456312984e-02,1.067190086428566366e-02,5.275525322915966195e-03,1.027805432677268982e-01
6.510809412560314424e-01,5.792727707327914866e-01,6.734038674720408402e-01,-7.398611369046303315e-03,1.191374210621914780e-02,4.119810766414111654e-03,8.887431025505065918e-02
7.173892887881192504e-01,4.715203474571840747e-01,7.184643962126144867e-01,6.731312755516113792e-03,-7.158801526694753142e-03,1.266724134992977709e-02,2.479678988456726074e-01
5.889402398690080087e-01,6.713889873536798003e-01,6.297378272962799173e-01,-5.138016803642150680e-03,-1.200228538633213611e-02,-1.106243537466369831e-02,7.731121033430099487e-02
6.240220607283235577e-01,5.744838265804372845e-01,6.827518384458295397e-01,-1.358422653409378442e-02,-1.422883986822590877e-03,-1.135538889764956981e-03,9.683041274547576904e-02
7.035482216915054376e-01,5.238034792502828108e-01,6.824599678101122002e-01,1.400157993636030407e-03,1.795294090579412040e-03,-1.200672671015631625e-02,1.714946627616882324e-01
6.496511554567080404e-01,5.794643002818263833e-01,6.769042221647789681e-01,-7.748313859984705572e-03,1.103581030784828339e-02,3.374760550003615221e-03,9.034033119678497314e-02
6.960807242076724188e-01,4.509580128315088254e-01,7.215192090706059602e-01,-5.074826259156921954e-02,-4.887379357743118838e-03,-1.827216121282708786e-02,2.752585113048553467e-01
6.261511799899127650e-01,5.742483249891736641e-01,6.853384502195248862e-01,-1.436887148696901553e-02,2.806424650589939198e-03,-3.071173195020713187e-04,9.956069290637969971e-02
6.319552432319285318e-01,6.045842351478950549e-01,6.708179171219095238e-01,-3.592141712910830280e-03,7.418199165989544479e-03,2.303981196865456313e-03,5.952238664031028748e-02
6.608928641375423352e-01,5.590006885392712066e-01,7.072885275574314345e-01,-3.295086061007185263e-02,5.985946554488129909e-04,-7.047416903604595585e-03,1.437681466341018677e-01
6.023278457912465411e-01,6.127889935130635957e-01,6.792483306586711844e-01,9.726353836697900282e-03,6.481268097205710376e-04,-2.045265108485417368e-03,7.429088652133941650e-02
6.126090639480665789e-01,6.023888265983852186e-01,6.813677727179813237e-01,-9.207008888051624457e-03,-1.109919845394563825e-03,7.576784911512980637e-05,7.611151784658432007e-02
6.160146151985459451e-01,6.130753009289642286e-01,6.775462464834587362e-01,-1.638013925280850432e-03,1.980662729943883770e-03,1.644720899458651563e-03,6.327381730079650879e-02
5.949989278304911311e-01,6.843821779888720203e-01,5.966109670711695623e-01,2.238259835048640300e-03,-2.992339807689131312e-02,2.369678018001171796e-03,1.027909517288208008e-01
6.497134470088880009e-01,6.870749188380955719e-01,5.628585475188867537e-01,1.402566215883252736e-03,1.152564000845994995e-02,-1.635608303111551684e-03,1.122369319200515747e-01
5.979434267767301803e-01,6.868009453146690646e-01,6.261203025465519323e-01,-2.884225569958196768e-04,-5.188870605811297769e-03,-1.256271163259043180e-05,7.916369289159774780e-02
5.377277570578318233e-01,6.801940651388768133e-01,6.420853056659038272e-01,8.893175531212643009e-03,-2.760014637938182705e-02,1.539649087915334093e-02,1.398336142301559448e-01
6.538495487041624532e-01,6.282700472887715604e-01,6.241828138250956615e-01,4.238010557138751321e-03,1.529027980079994018e-03,-1.848837483548336394e-04,2.892342023551464081e-02
5.741663525269550261e-01,6.852628293685341099e-01,6.248629143824895316e-01,2.198919678415992354e-03,-1.671533398750148919e-02,3.898546659793507719e-03,1.008893847465515137e-01
6.957302749875083903e-01,8.047681553926705478e-01,5.308805772428746295e-01,2.804655931421268320e-03,1.459960426396512134e-01,-1.296186900969723520e-02,3.485852777957916260e-01
6.133374796799936357e-01,6.093643866357697503e-01,6.801062805912655440e-01,2.728122628948322602e-03,8.400034408633956767e-04,-6.492208721113442360e-04,6.902786344289779663e-02
6.130959014097947524e-01,6.088519179858027375e-01,6.777830969423737084e-01,2.175236317389545298e-03,-3.474638847189936530e-05,1.056204375040772350e-03,6.704118847846984863e-02
6.003675136838541038e-01,6.780758670972688584e-01,6.277662524076952355e-01,-9.493044514298743745e-04,-5.281145179923097364e-03,-6.476536971940582456e-03,6.980243325233459473e-02
5.754563695518815081e-01,6.853443058658805764e-01,6.320117307763163383e-01,-1.945803737293811796e-03,-1.339451652317216919e-02,-4.463025948760728639e-03,9.832837432622909546e-02
6.064913840777627074e-01,6.778656718622395605e-01,6.198833246363441019e-01,-1.593551393404169176e-03,-7.376145195463201798e-03,-7.389990762725037569e-03,6.820901483297348022e-02
6.530547745116508374e-01,5.309208323261258577e-01,6.960204382378903931e-01,2.386376819904544727e-02,4.674630167926169429e-03,-2.671886322126053315e-03,1.542910486459732056e-01
7.108462763144665075e-01,4.344932616658708224e-01,9.624368547453678868e-01,3.405462111734209874e-01,-6.286488902470506457e-02,5.402339402810039937e-02,7.600811719894409180e-01
6.058692179729709970e-01,7.187344897567027324e-01,6.144659003872177117e-01,1.633827897260665962e-02,-7.484215907695720982e-02,1.702445556487728121e-02,1.741165369749069214e-01
6.164601075644278172e-01,6.841562726217240709e-01,6.011912986874128340e-01,-3.323902542542463319e-03,-7.994695262290792831e-03,-1.049921356377261786e-03,7.795988768339157104e-02
6.215838945978585661e-01,6.888877479755313171e-01,5.963882832163610592e-01,-2.479416357417321345e-02,-5.266856837510324602e-02,-4.368824352860639637e-02,1.508395224809646606e-01
6.668247843033926481e-01,4.939809865292956736e-01,6.826457278322113353e-01,-3.029269722572517851e-02,-2.171606108380270267e-02,-2.336020269378989017e-02,1.966332495212554932e-01
6.799193189442409579e-01,5.240866172578293458e-01,6.952171414395819093e-01,9.703065321734368615e-03,-1.304653522280144716e-03,4.232053491368495748e-03,1.650546640157699585e-01
5.650910015415718801e-01,5.655560089328200979e-01,5.489052767536648503e-01,-2.169978983676124629e-01,-2.358292444169998170e-01,-2.078633200719546825e-01,6.618170142173767090e-01
7.160922157143024824e-01,4.234418778456588983e-01,7.682844426490860190e-01,-2.805906152310559676e-02,-8.701791214880001332e-03,-6.449220517483376935e-02,3.445419371128082275e-01
4.462480888354264930e-01,5.271143199760983666e-01,6.996390294103826957e-01,2.466410208311623220e-01,-1.524328512387924106e-01,1.252866962935292039e-01,5.912262797355651855e-01
5.730960471260707623e-01,6.711061140583192142e-01,6.499274019572336414e-01,4.739527883397882946e-03,9.583447622542875036e-03,-9.449503419769432477e-03,9.267998486757278442e-02
6.374326422326322961e-01,3.491719295392781142e-01,7.544151672600554193e-01,1.874220079771450054e-01,-6.140819147935803329e-02,8.792119352429972334e-02,5.199855566024780273e-01
7.506607173055827031e-01,4.228930215997128705e-01,7.363282050463567652e-01,-6.270568091325399995e-02,-3.954291795069364568e-02,-8.256661840104343938e-03,3.458768427371978760e-01
6.630294824211754312e-01,4.255534482326276402e-01,8.631916500692285998e-01,1.401017642930207641e-01,-1.120024417411559919e-01,1.865094931434851666e-01,5.872563123703002930e-01
7.130217462136189122e-01,4.218283655052301739e-01,6.940656911082112579e-01,-3.039781304740262619e-02,-5.646444306774803072e-03,-6.197906371853673796e-02,3.066349327564239502e-01
7.496369556008560808e-01,4.979255626793481770e-01,7.739335577375048292e-01,-8.064974507748207122e-02,-2.191926045514444241e-02,-6.166799182576762628e-02,3.200437724590301514e-01
6.400803486332792280e-01,6.385820830959539895e-01,6.208340120976435506e-01,-1.315102280498574479e-02,-1.219905666142245305e-02,-1.313660606713054277e-02,4.274155572056770325e-02
6.485236491862673702e-01,5.616803655341631174e-01,6.957352889007577534e-01,-1.047163689649392368e-02,1.908801906427747648e-03,2.239986770946000795e-04,1.192088723182678223e-01
6.416176115685887638e-01,6.445664853987352894e-01,6.273814254284914016e-01,-1.106484904856112200e-02,-9.712750126974952283e-03,-7.890429454808381080e-03,3.302162140607833862e-02
6.664253472617709395e-01,6.116329766211162644e-01,6.051878538790588236e-01,-1.013066794513543291e-02,-1.418569495385825149e-02,-2.122834438406654561e-02,7.523567974567413330e-02
6.951536838051041167e-01,5.008259980380769250e-01,7.140488363326362720e-01,1.826220683385457177e-02,-6.065188759269000973e-03,5.733121704997875927e-03,2.073683142662048340e-01
6.682943442449801319e-01,6.193106136611278290e-01,6.166589493162558666e-01,-5.944912049346069878e-03,-6.037254937412584767e-03,-5.666168313428442994e-03,5.336678028106689453e-02
6.459252628989335943e-01,6.227764629304055610e-01,6.290863137351613288e-01,-2.784232316766865976e-03,5.991723964931287665e-03,4.759882454730555296e-03,2.507076412439346313e-02
6.517724500989963143e-01,6.371743320715056447e-01,6.065995261435934705e-01,-1.216165673073531933e-02,-4.778242274894887488e-03,-6.277663483700057605e-03,4.716670513153076172e-02
9.685134703862896544e-01,3.852640115738044657e-01,8.645393767958489128e-01,-8.062838817553656667e-02,-1.741213692588640003e-03,-2.003233195510649989e-01,6.559328436851501465e-01
6.145192394723437701e-01,6.028907130145728654e-01,6.862450214031073914e-01,-8.956131627560990141e-03,2.331775515582582177e-03,-6.466914772170711363e-05,7.981751859188079834e-02
6.565893958982602641e-01,6.181431999963167279e-01,6.170994021318446654e-01,-1.184381879009242799e-02,-1.071979415951854545e-02,-1.350393798273192766e-02,5.321624502539634705e-02
6.565495592410198755e-01,6.085002945448836353e-01,6.261854732308903548e-01,-5.514222236274275366e-03,-8.858172605657774895e-03,-3.257509264405432023e-03,4.615401849150657654e-02
6.465151711296470705e-01,6.267233147732289567e-01,6.246952240102516818e-01,-6.775463563519910221e-03,5.142135545810864322e-03,6.511699268146649983e-03,2.793246321380138397e-02
7.513260589293028202e-01,6.904898806745670692e-01,5.007957614632848609e-01,1.198705759149211285e-02,-2.608003168360199450e-02,8.817914796739444172e-02,2.775309383869171143e-01
5.699225977073174576e-01,6.233453301533788959e-01,6.954715203748549346e-01,-1.643903604827378837e-02,1.887234291240699963e-03,2.520750315507986478e-03,1.129151284694671631e-01
5.797705944374998976e-01,7.000963242236213357e-01,6.682911211815433239e-01,-3.488406123232233591e-02,1.305100652066681910e-01,3.816398292045536378e-02,2.660482227802276611e-01
6.262937276991403790e-01,5.980444676694267603e-01,6.855155076856512819e-01,-5.927912885709324918e-03,2.281222163308906613e-03,3.072171008432201503e-04,7.809946686029434204e-02
6.214921201662564343e-01,6.270590505361675060e-01,6.622450518159176402e-01,-7.919752261194783205e-03,7.150420545152499745e-03,8.115417884097579637e-03,4.476668685674667358e-02
6.060775721624865886e-01,6.303916484975450318e-01,6.031203477953736014e-01,-4.711347504191967794e-02,5.740054607056117170e-02,4.500775386212829687e-02,1.526185572147369385e-01
5.980453858920358190e-01,6.272318000471159838e-01,6.882515687216883560e-01,-7.058689986444585673e-03,2.262078359593901959e-04,-1.418081417607829900e-03,8.069615066051483154e-02
6.030790570978161735e-01,6.124943927977739566e-01,6.799975057575456949e-01,-9.518145136616957755e-03,-2.025144175872164477e-03,-3.132584573605107746e-03,7.479579746723175049e-02
6.190628545129490679e-01,6.402645373718950372e-01,6.336844232562790502e-01,-6.448226185176409407e-03,4.456588001625270273e-03,7.017479769468079609e-03,2.617932856082916260e-02
6.704278997093440218e-01,7.705877727650147779e-01,5.804592370566982185e-01,-4.511487971994455892e-02,-1.353118456633347622e-01,-5.967679062767492632e-02,3.144129514694213867e-01
7.056090007707536138e-01,4.939936536828691271e-01,6.947732674168962674e-01,-1.552354629253120026e-03,-5.215549191183131705e-03,-1.972036046096297887e-02,2.094301134347915649e-01
6.328066041726956303e-01,6.058077911531063453e-01,6.695682737312400601e-01,5.207870682514224685e-03,7.714482832766010600e-03,-2.655194250566198042e-03,5.791315436363220215e-02
6.318213124535988490e-01,6.257499275682451012e-01,6.427926892918950363e-01,-7.262335797642834566e-03,8.720292801183106984e-03,7.714022288292111604e-03,2.808411978185176849e-02
6.194454119163159689e-01,6.218593306559412337e-01,6.529384245591910441e-01,1.848688509855109111e-03,5.309543721081920638e-03,-2.242644429530172949e-03,3.400991857051849365e-02
6.448287969597414904e-01,6.298822589189022603e-01,6.241656568308283637e-01,-6.087312769006526098e-03,-3.886834036967345887e-03,-3.906130816393486513e-03,2.331917919218540192e-02
6.537117803838692343e-01,6.203808462119462241e-01,6.252616110394736415e-01,-3.901082991359246591e-03,-5.887725102465895914e-03,-4.363369310935903515e-03,3.433454409241676331e-02
7.471196709089412691e-01,7.258327786037199747e-01,5.561565993330525037e-01,-7.259259763271809496e-02,-9.747862056290128308e-02,-1.285483068944401064e-01,3.560116887092590332e-01
6.008247446990283569e-01,6.808811269332655236e-01,6.270217503913314561e-01,2.278399101284620844e-03,4.217314280726991785e-03,-5.874513281468920697e-03,7.190639525651931763e-02
6.589000218189229319e-01,6.592440280784772622e-01,5.879612637073949877e-01,-1.867178956023507821e-02,-2.706908088466723761e-02,-3.132312221419523979e-02,1.060394048690795898e-01
5.861286301607142590e-01,6.465721333865648290e-01,6.885846024898886197e-01,2.485304708513240077e-02,2.542580878372883123e-03,-3.969018329953930002e-03,9.938571602106094360e-02
6.528930275251655369e-01,6.032716617129088021e-01,6.364012828968950153e-01,-5.848373755061513773e-03,-1.449505314945170355e-02,-8.242369837023411777e-03,5.341025069355964661e-02
6.639667189628034594e-01,6.107456410382527956e-01,6.130593219953209827e-01,-3.094536005460060950e-03,-7.352877391811226543e-03,-9.711917444452496107e-03,5.646757036447525024e-02
5.941380779789570132e-01,6.740131627021870298e-01,6.344888831010486729e-01,-8.827737443503622106e-02,-1.384792179086861141e-01,-5.082446379866759761e-02,3.056840598583221436e-01
6.549081516580862461e-01,5.350285275056452239e-01,6.944776032374821995e-01,2.235985562851700026e-02,-5.269136830492318797e-03,2.817420656274864914e-03,1.492897570133209229e-01
6.451402122060513333e-01,6.202705852030593325e-01,6.343241932112374526e-01,-4.024210232136772765e-03,-8.192322114984305209e-03,-3.048166839889863977e-03,2.728174254298210144e-02
6.791926457750132595e-01,5.090921174790296044e-01,7.035461156978960462e-01,1.224411396954404839e-02,2.387540904442905614e-03,-2.917234826373626098e-03,1.848302036523818970e-01
6.396532628579322255e-01,6.071432013731218325e-01,6.356670372265580404e-01,-7.083705193741684190e-03,-1.406704323103947010e-02,-8.311058148060683146e-03,4.352705553174018860e-02
6.837291895575695611e-01,6.108742917452230081e-01,6.140733675370707578e-01,-4.565571705557927226e-03,5.016110563578456312e-03,-8.189601369623388666e-03,7.364936172962188721e-02
7.055866553883426429e-01,4.850494824665672056e-01,7.062202680563172130e-01,4.307603444216394697e-03,1.272414224393735287e-03,-5.530548758577074134e-03,2.211991548538208008e-01
6.659279391788867075e-01,5.727103134320933320e-01,6.676964529131327319e-01,1.347798474509982226e-02,-1.224309924463225403e-02,1.337163383647928597e-02,1.019242852926254272e-01
6.835106191488082850e-01,5.696035776317780464e-01,6.151113094330996622e-01,2.398367184934176199e-05,1.074492096191277625e-03,-2.081392649275685611e-02,1.056656986474990845e-01
6.795857353033412096e-01,6.108417962590674266e-01,6.032123575832172291e-01,9.872476471549909618e-04,-8.276317660389005031e-04,-6.465123431111391081e-03,7.374813407659530640e-02
6.829617970989380060e-01,6.065814940856809612e-01,6.100452320505359571e-01,2.042656537363294385e-03,-1.540100435154233153e-03,-7.490424448684522563e-03,7.595616579055786133e-02
6.512354355199108102e-01,5.820645585627304275e-01,6.756421743120883949e-01,9.191301580720347489e-03,1.042499064133040401e-02,-3.624035818865946248e-03,8.767791837453842163e-02
7.018419420807612275e-01,5.991538465232120192e-01,6.325455339016886613e-01,-4.838209431968142245e-03,-7.209093524889721716e-03,-3.503245625606964120e-02,1.101765781641006470e-01
6.582721745863769902e-01,6.222802589000339113e-01,6.345712833948197185e-01,-1.113344387745437980e-02,-1.327911440119661744e-02,-1.995709215563892802e-02,5.567613244056701660e-02
6.853868516151611079e-01,5.699629366317502388e-01,6.222430207877627240e-01,-4.910541533992015357e-04,-4.744503993584772358e-03,-2.201089771561256375e-02,1.074393242597579956e-01
6.741404550240412963e-01,5.773795463551170126e-01,6.328453618112255263e-01,-1.229384982849759424e-02,-2.198451976474663852e-02,-1.957294848053242262e-02,1.006224751472473145e-01
6.797234171548860449e-01,6.166387331287210838e-01,6.124158137496422682e-01,2.567230454810940418e-03,1.616389306303459353e-03,-1.098935979966824588e-03,6.553735584020614624e-02
6.797818263925522464e-01,5.358171609356114917e-01,6.817317018795349126e-01,1.410230100320881107e-02,1.199587296851986444e-02,-1.621831483431365739e-02,1.510886102914810181e-01
5.517290893345500047e-01,6.547581888294500274e-01,6.944805701951660692e-01,-4.668123835806711058e-02,7.463481698995500478e-03,1.951061246111288061e-03,1.516620218753814697e-01
6.369156344502365785e-01,6.832657386966266566e-01,6.014442472085367308e-01,-9.603318328830320189e-03,-2.891986565197970580e-02,-1.394182187620658826e-02,9.175796806812286377e-02
5.217922301500659277e-01,6.828585308663843723e-01,7.958489618619957184e-01,-1.396292884338002360e-01,-1.094685565393073434e-02,-6.234028751262920762e-03,3.404015898704528809e-01
7.014632697041717213e-01,5.095733618344433502e-01,6.949255819242002863e-01,1.375417229644278552e-02,9.654414600998240809e-03,-2.004705909964100627e-02,1.940689831972122192e-01
6.796740918490105088e-01,6.296075957230645725e-01,5.966197960420136504e-01,-4.168567893947384626e-03,-1.577486176012967128e-03,-6.217445137259159163e-03,7.363422214984893799e-02
7.015632905141427900e-01,4.842148333695473483e-01,7.028559689109458164e-01,5.096727236649115783e-03,4.517566330605107296e-03,-6.177885584056308672e-03,2.185786813497543335e-01
9.156171541589495089e-01,3.122674540773575091e-01,9.635512225318203505e-01,1.017813376554355942e-01,-2.937852762042181265e-02,8.590770458511153007e-02,6.716082096099853516e-01
6.797948418801470494e-01,5.559003538863065419e-01,6.499082668150255593e-01,-6.929052701354959133e-03,-1.473969889180964943e-02,-8.861053401329440846e-03,1.164973676204681396e-01
6.701384728549333314e-01,6.253817664888645655e-01,6.072473498755012189e-01,-7.607549491830034073e-03,-3.687373901639898893e-03,-6.076580797641463125e-03,5.889690667390823364e-02
6.603740085732944243e-01,6.608280886937392129e-01,6.135178258986732081e-01,-1.836623881808243514e-02,-1.888583099741819593e-02,-2.201908761449811180e-02,7.585173100233078003e-02
5.138187766705455406e-01,6.832819875250540909e-01,7.753206566759818230e-01,-1.279834137499671620e-01,7.041023180324658404e-02,2.922080068557908125e-02,3.454847335815429688e-01
6.286370893227742895e-01,5.131536984930551437e-01,5.884115658263734394e-01,-1.961610164479185847e-01,1.909622318413825015e-01,2.410171841564262563e-01,6.398547887802124023e-01
7.204167690875087349e-01,2.886944524159321124e-01,9.595324160369238520e-01,1.478471931352097757e-01,-2.075094316649272672e-02,8.177947495362695995e-02,6.585771441459655762e-01
4.287196330411946477e-01,6.960056210465612736e-01,7.415639872725915405e-01,-6.096125318009464750e-02,4.818095800937671064e-02,9.834190787115055024e-03,3.226416707038879395e-01
6.485090520477477805e-01,5.874776664368922541e-01,6.590205429368741763e-01,-7.232832359375909043e-03,-1.466316291372816993e-02,-1.092326343519997578e-02,7.507844269275665283e-02
6.108043465308600206e-01,6.116099573513191778e-01,6.631437888507913936e-01,-1.727338693485662088e-02,-1.150395928550396185e-02,-1.080390761277631902e-02,6.588024646043777466e-02
6.351732902566257222e-01,6.071057996184754391e-01,6.467090774511501383e-01,-9.222453880784657262e-03,-1.302987301378894826e-02,-5.841427039933234401e-03,4.595105722546577454e-02
6.962610909753190747e-01,6.479810304443502922e-01,5.592732882925440796e-01,2.634404225238203001e-03,2.774519993318976582e-03,-1.171571939912655243e-02,1.222232878208160400e-01
6.142269098123096516e-01,6.146222162595676997e-01,6.694421059572190913e-01,-2.154646269213827525e-03,-1.825285779899576185e-03,-4.167701606020085027e-03,5.570528656244277954e-02
6.477533112857102315e-01,5.615918983815213483e-01,6.957407661605000682e-01,-1.232548678361331668e-02,-6.371652081415321751e-03,-3.192012630173868097e-03,1.202886775135993958e-01
6.095012965711117392e-01,6.195581001969094892e-01,6.694522406564631378e-01,-6.139061115179259703e-03,-2.606138924761395095e-03,-5.870216036876349346e-03,5.769886076450347900e-02
6.201682950314478804e-01,6.259355644372789351e-01,6.541577024053485401e-01,-2.458495674327739258e-03,-3.043040350484234411e-03,-7.200948301014861892e-03,3.455414623022079468e-02
6.051517990442976114e-01,6.325924196772435559e-01,6.701017770213206770e-01,-4.070241397066584957e-03,-1.748621609605984515e-03,-7.579949325185874644e-03,5.848469957709312439e-02
5.893174820819544468e-01,6.510963512410540277e-01,6.538568376601130439e-01,4.932390386856671735e-03,3.314643490328121351e-03,-1.341302701042020214e-02,6.812094151973724365e-02
5.974192103377716778e-01,6.618414153118534760e-01,6.327853012561081014e-01,-8.553699381620085904e-03,-1.456137633365218315e-02,-1.401253823350318527e-02,6.758159399032592773e-02
5.995974862243659276e-01,6.279141614610346256e-01,6.741037917858699879e-01,-4.616322558713004641e-03,-2.486062332224947026e-03,-8.343044110368560626e-03,6.733902543783187866e-02
6.307679566519027725e-01,6.055521816284177294e-01,6.742081589014203846e-01,-3.841833466326792079e-03,-9.084845188435719532e-03,-4.261468384812331332e-03,6.296528875827789307e-02
6.024946532283099732e-01,6.296431961578431435e-01,6.545081483136089284e-01,-5.393556562279051315e-03,-8.312289117763401293e-04,-9.943307996764462822e-03,4.915596172213554382e-02
6.043283084688439999e-01,6.313465627271125369e-01,6.738232698597967918e-01,-5.271227266924516201e-03,-4.489719081785013312e-03,-1.013476937981894546e-02,6.429520994424819946e-02
6.041508782224003227e-01,6.344158083756487043e-01,6.526078499091065854e-01,-9.361193490339274684e-03,-5.678523944628695135e-03,-1.252996490584852400e-02,5.126529186964035034e-02
6.052201719522657397e-01,6.183642698937681370e-01,6.738204100136809815e-01,-8.299713359138394600e-03,-3.291866194397388007e-03,-6.725865217412438889e-03,6.596929579973220825e-02
6.414688284672536156e-01,6.333912874399326709e-01,6.288661764618665995e-01,3.568762497101102098e-03,1.543225809849348021e-03,-1.162220070682432179e-03,1.310267765074968338e-02
6.352569349828772749e-01,6.302110458068910237e-01,6.331009249927722626e-01,2.539017755103112600e-03,2.699480724593860369e-03,-1.297825357244869818e-03,8.092272095382213593e-03
6.748545874775792042e-01,5.529780641720312140e-01,6.749502104171738459e-01,9.026266065223874716e-03,1.051538836989343063e-02,-1.010428145142258476e-02,1.254909634590148926e-01
6.309980888977347879e-01,6.241461145143173406e-01,6.405132299423352826e-01,6.123120660537199715e-03,7.270264145680069810e-03,-3.064532444742605610e-03,2.240328304469585419e-02
6.408154326172575965e-01,6.361749307521821217e-01,6.181749719393061504e-01,7.010858936221444140e-03,2.805802319239960891e-03,-3.545744742709678026e-03,2.525574341416358948e-02
6.201028296031643183e-01,6.153621124965606981e-01,6.676981173855154328e-01,2.965152252413860191e-03,2.018131218066035112e-03,-1.676177732904475873e-03,5.060084164142608643e-02
6.303944029742651889e-01,6.223495478725735719e-01,6.333456465133837643e-01,-1.012436401518232963e-02,-1.090620134665993765e-02,-1.129195655900262253e-02,3.382366895675659180e-02
5.857844958383742195e-01,6.322594034932766949e-01,6.733521223161595959e-01,-8.521481623042531650e-03,-5.401670822992242840e-03,-1.130878915778273965e-02,8.029542863368988037e-02
6.265748228985275059e-01,5.805574140558097396e-01,6.895485501958222851e-01,-1.441765699706819975e-02,-8.496643238213330909e-03,-5.111033942925476484e-03,9.949740022420883179e-02
6.324981065817611992e-01,5.912559929426661753e-01,6.579632613315520295e-01,-1.068098892588390664e-02,-1.662076642669326615e-02,-1.211647936110791558e-02,7.078877091407775879e-02
6.004115071158728778e-01,6.288460315138559853e-01,6.845312295526079227e-01,-2.785898064798767587e-02,-1.352749551390124670e-02,-9.653031786558703004e-03,9.300342202186584473e-02
6.735334069460082729e-01,6.541304582583350458e-01,7.023075730886365609e-01,-1.076430078830533932e-01,-9.695889269568493118e-02,-8.269999461506945260e-02,2.919670045375823975e-01
6.027463765868950052e-01,6.325015368285924477e-01,6.963460077236786061e-01,-7.228486186318051898e-02,-8.994897352537828406e-02,-8.584489678393678047e-02,2.625204324722290039e-01
5.110156770460142495e-01,7.035745609347998641e-01,7.017884834417319473e-01,1.101453160121772766e-02,-2.042038566535201924e-02,8.180566240006468051e-03,1.963514387607574463e-01
5.417782149962393490e-01,6.679912660655663581e-01,6.867593538075668080e-01,8.313433045075652172e-02,-1.106098150840958000e-01,3.971960857191757926e-02,2.842907607555389404e-01
5.503178086325413165e-01,7.706659823133648057e-01,6.947073972955333243e-01,6.535681272905372041e-02,-1.101103972084940957e-01,4.353070801773964438e-02,3.040688931941986084e-01
6.689218802403519293e-01,6.229356679749198378e-01,6.144098303170996145e-01,4.938628816209431234e-03,1.471582610178573175e-03,-2.396033061667562653e-03,5.173376575112342834e-02
5.452288594131650123e-01,7.036503816560448765e-01,6.579901925550818431e-01,7.572905974184593672e-03,-2.484101427289801475e-02,2.686057089792177541e-03,1.483023762702941895e-01
6.292129553388084995e-01,5.161765846347690090e-01,6.400249200311346476e-01,1.828176123174065637e-01,1.272319505657995564e-01,-1.787284620881291752e-01,5.087028741836547852e-01
6.784061986582421433e-01,4.281454414277043319e-01,7.314459419484246050e-01,-1.310551480263877078e-01,1.797301716876543304e-02,5.062465106883699134e-02,3.726948201656341553e-01
9.229115410138452047e-01,2.500699261101965165e-01,9.320539886725309753e-01,2.807553407419836541e-02,-1.608072819096401096e-02,1.084124337349120920e-01,7.052312493324279785e-01
6.291274375619623216e-01,5.781261677390319154e-01,7.262498632449141400e-01,-8.899968336368228872e-02,1.979097180051888130e-02,-1.752799922569722203e-03,2.047788053750991821e-01
7.608428445222165104e-01,3.988965129301069723e-01,7.794878191911394083e-01,4.420881216758668769e-02,2.203878686870097692e-02,-6.882459991086503637e-02,3.995398879051208496e-01
6.757574450728793813e-01,5.861762649825895677e-01,6.495571022120788518e-01,4.789791264040195798e-03,1.145426160946687484e-02,-1.026472399800481237e-02,8.451454341411590576e-02
6.558667570413952985e-01,6.054889950071861149e-01,6.517628238317539902e-01,4.173384556743882368e-03,1.121145508004016585e-02,-6.022418845923345997e-03,5.372303351759910583e-02
6.040651250654628379e-01,6.549733815708570495e-01,6.171723785366542980e-01,8.074129930142603939e-02,8.363532799789386019e-02,-6.241301618746544072e-02,2.330759763717651367e-01
6.573244462362902718e-01,5.673755264399723552e-01,6.812637319700893812e-01,-3.750506273377422067e-02,1.277604133585763177e-02,1.485528457609855586e-02,1.272352933883666992e-01
6.823246090905783490e-01,5.594528784234553687e-01,6.828958280043831985e-01,-7.042845964558346224e-03,-1.321346990967158831e-02,-1.057939712443161165e-02,1.271862387657165527e-01
6.718135363058955756e-01,5.819172421212321922e-01,6.343715580373743279e-01,1.798277656825273026e-03,1.009933567792969424e-02,-1.340780143454832485e-02,8.350059390068054199e-02
6.478773673197275595e-01,5.820035475787269652e-01,6.736039767719933513e-01,-8.565275668458880928e-03,-8.950969208743241035e-03,-6.155610781000014388e-03,8.526461571455001831e-02
6.751683734469970943e-01,6.378976232704368643e-01,6.294274087951469143e-01,3.259962602079594790e-02,5.617893428892765245e-02,-5.111626446636911847e-02,1.492366790771484375e-01
6.606366962362628659e-01,5.373653254404264779e-01,6.840834573111458372e-01,1.892752134018393928e-02,1.717863081865684052e-02,-1.773096433385331835e-02,1.467621475458145142e-01
6.648695984579452434e-01,5.332968673960716277e-01,6.873958256689665092e-01,4.000923264736751944e-02,1.328032030104399006e-02,-3.899036815089177571e-02,1.751419901847839355e-01
6.461605249461663814e-01,5.500676073820017775e-01,7.365994075610524661e-01,1.167320429929202680e-01,2.785408120127048567e-02,-9.507518378559150218e-02,3.105287551879882812e-01
6.418807654951983466e-01,6.401477393839629659e-01,6.245710308096863450e-01,-5.235688207292024318e-03,-2.782795648290709977e-03,-3.233287796843452386e-03,2.023520879447460175e-02
6.715001752079978736e-01,5.289666285815386448e-01,5.908712133968900826e-01,7.732134834891696284e-02,6.211869574928351179e-02,-1.281319478438879278e-01,3.067407310009002686e-01
6.221214298878375848e-01,6.152427893916337931e-01,6.693741407249085285e-01,-1.513602135673075381e-03,-4.575086479629501823e-03,-1.804740458499762452e-03,5.181319639086723328e-02
6.660888380696875499e-01,5.748149379784870394e-01,6.535943560995091106e-01,2.243460782803248857e-02,1.333859608908657957e-02,-6.117172424080167398e-03,9.748110175132751465e-02
6.391479678760437766e-01,6.154089413540589915e-01,6.577763090652345435e-01,2.038172874104839105e-02,-1.364216165532274386e-02,1.442541156093786643e-02,6.149490177631378174e-02
5.289409207927509016e-01,5.687983536119445294e-01,6.967392736988959889e-01,-1.210027055584448480e-01,4.444975971866343967e-02,4.338364035477840219e-02,2.802777588367462158e-01
6.484503138081597617e-01,5.740217786360930496e-01,6.904679096750420131e-01,-9.130398647388876521e-03,-9.837427083679210413e-03,-6.771046094406782054e-03,1.054056510329246521e-01
6.361113891610872262e-01,6.150117259679912518e-01,6.536201645740952193e-01,-1.712886942396774602e-03,-1.084644006144382458e-02,-2.239180096976251585e-03,3.870351240038871765e-02
6.254123572467795711e-01,6.277477839990747155e-01,6.459537099248914283e-01,-9.446891625741844420e-04,-1.179520079397829114e-03,-3.881334043304461752e-03,2.077195048332214355e-02
6.286782982590493063e-01,5.996160700743092820e-01,6.876675389844713049e-01,3.160413779331883166e-02,-8.155990722475477128e-03,2.832020799371650667e-03,9.622260183095932007e-02
6.310035794432926615e-01,5.850248835146958371e-01,6.831570607771302317e-01,2.252118500319784389e-02,-9.005378722077440456e-04,1.002246372832726017e-02,9.517020732164382935e-02
6.243442613724229373e-01,6.119505209249772593e-01,6.704727383895646708e-01,4.122202297452254825e-03,-5.458992084031773044e-03,3.502045694738180250e-03,5.504832416772842407e-02
6.267361004083408238e-01,6.226184618172945218e-01,6.543795878248622744e-01,2.659676674443031512e-03,1.649071595482996030e-03,-2.330592725888870100e-03,3.066949918866157532e-02
6.355172014917982448e-01,6.437712375832665979e-01,6.324228357407847279e-01,7.439812317500373723e-03,6.713178818203931891e-03,-8.162773156197386526e-03,2.458435483276844025e-02
6.859898485028358417e-01,5.038436936330811244e-01,7.584429831411593215e-01,-1.323417201126474985e-01,-1.451048678123167089e-02,-4.818130865227227694e-02,3.343093097209930420e-01
6.817094624402276759e-01,4.205715448488938080e-01,8.177220496195627408e-01,-1.307704798232945387e-01,1.563120917378598915e-02,4.830880781478260472e-02,4.257316887378692627e-01
6.277738872895611832e-01,6.423322688759269816e-01,6.298530414260737897e-01,1.783496243954209564e-03,-7.750004991990963122e-04,-7.427726428367489430e-04,1.410672999918460846e-02
6.176446582741331737e-01,6.217948327385829366e-01,6.535965251135013032e-01,2.423909835933123839e-05,2.146249496408464061e-03,-2.016373367622234861e-03,3.444666042923927307e-02
7.411914434840430888e-01,4.944530077657254274e-01,7.009725768779658805e-01,1.221287758942711694e-02,-4.023424521251917074e-02,-7.207065985751533177e-02,2.710355222225189209e-01
6.985182764623938390e-01,4.766550144727738081e-01,7.573656372503817513e-01,-5.576748282027775561e-02,6.949039467006800589e-04,-4.313009093845605879e-02,2.839973270893096924e-01
5.965672444216818526e-01,6.276056125764905014e-01,6.859129334578170090e-01,5.549904369239440707e-03,3.817302050403551298e-04,1.161409859806216641e-03,7.918191701173782349e-02
6.731377843780154135e-01,3.778667880586390471e-01,7.483954746959327053e-01,-1.418213281837424622e-01,5.220602115725594440e-03,5.353869630111807165e-03,4.190199375152587891e-01
6.795069597983827148e-01,6.067117436407638564e-01,6.169938863208684898e-01,8.849763987327177337e-04,2.612348842872660136e-03,-1.448345928507295717e-02,7.285951822996139526e-02
6.358506395498546571e-01,6.438519840139990125e-01,6.183247508644823531e-01,1.058177203825074256e-02,1.162824716022884189e-02,-1.050645626940881726e-02,3.980120643973350525e-02
6.538482956408606661e-01,6.333998811538630314e-01,6.190492072722310057e-01,7.587134429695957354e-03,3.279207396262107891e-03,-1.942778638417496208e-03,3.367201611399650574e-02
6.407428557784266010e-01,6.012424265572544613e-01,6.549178728697940821e-01,5.336354686997593112e-03,1.395693837342333946e-02,-6.245030123924887218e-03,5.574902519583702087e-02
6.827741023790938613e-01,6.076590641209185240e-01,6.263272691531802661e-01,1.046119791824667855e-02,7.937713043363752580e-03,-2.800382927488437312e-02,8.636251091957092285e-02
6.944413416657077009e-01,6.263053528424507022e-01,5.704958935850671375e-01,7.503292125494309336e-03,3.976329773666248922e-03,-1.840372731645025656e-02,1.131028980016708374e-01
9.622602060549291236e-01,5.242338815130069829e-01,3.967593298703386839e-01,5.839878426347182988e-03,8.861819360946372737e-02,-3.003862731764828653e-01,7.472025156021118164e-01
6.823899557058612508e-01,6.096822528824612508e-01,6.214917419370808993e-01,4.544920010759462801e-03,4.497348184127147527e-03,-1.145593871115709039e-02,7.129934430122375488e-02
7.163747978965194774e-01,5.692827218815392776e-01,6.663632026744746861e-01,-2.229777217410800275e-02,-1.967563364067338380e-02,-5.084073906777142327e-02,1.648885458707809448e-01
6.697567580072654181e-01,6.140480007396235118e-01,6.120182423885011103e-01,4.368697239964337842e-03,8.033812531227478224e-03,-3.386191854442034688e-03,5.921100080013275146e-02
6.690143915007910058e-01,6.091529971563434120e-01,6.201412607849305925e-01,3.993207226234707537e-03,7.387327304333425604e-03,-6.429685238895099103e-03,5.815438926219940186e-02
6.858847839371307042e-01,5.672865805892571833e-01,6.486707290808539916e-01,9.801403396789310375e-04,8.425039669849835808e-03,-1.091058904811341261e-02,1.077490076422691345e-01
6.859009412954454321e-01,5.889800239267513060e-01,6.249676246883449915e-01,5.992091502379882440e-04,2.697064512791961990e-03,-6.362892861624696271e-03,8.570402115583419800e-02
6.732672597875302145e-01,5.860064811770767657e-01,6.502228127656513035e-01,5.311656589665567779e-03,1.222651035524148326e-02,-1.008990899003578065e-02,8.350530266761779785e-02
6.684535827992761359e-01,6.158161013724399169e-01,6.137295805273299543e-01,1.753303316976627564e-03,1.447958598799005013e-03,-9.418339775107689368e-04,5.388005450367927551e-02
6.649472063899306562e-01,6.031326099792309048e-01,6.251573720868088824e-01,-4.387997778936034154e-02,4.869879376413255995e-02,6.014913321025256582e-02,1.633692532777786255e-01
6.811837041249905189e-01,6.137203628718295167e-01,6.127289787776760699e-01,2.510226862474100335e-03,1.529285796026968970e-03,-4.801070280014547303e-03,6.866031140089035034e-02
6.265266582342293722e-01,6.936477586674955065e-01,5.607001384567298352e-01,-2.852595386908533120e-02,1.103280052202949973e-01,4.889958861644735227e-02,2.436970025300979614e-01
6.281012294076342428e-01,5.984583830658135595e-01,6.763370564594609613e-01,4.940688436171286960e-03,6.856716455645087312e-03,-3.891732402347901701e-03,6.996393203735351562e-02
6.339207566269132732e-01,6.037529465528055361e-01,6.472076319306658831e-01,1.145555192039557704e-02,-1.346977106562850107e-02,8.464001090102460725e-03,5.138467624783515930e-02
6.272159790782840805e-01,5.864557413818081155e-01,6.652185339409042442e-01,1.588799959655278621e-02,-1.229700295137051147e-02,6.813384109546720240e-03,7.749055325984954834e-02
6.293611035668709164e-01,6.341696699078993582e-01,6.416449778769747203e-01,9.422363288847076038e-04,1.958033633899665914e-03,-2.911316426417590638e-03,1.243143063038587570e-02
6.252737556180706369e-01,6.259159673223083642e-01,6.615370358077562463e-01,-6.310381820947306118e-03,-8.800024882759802797e-03,-7.548237148596135572e-03,4.260118305683135986e-02
9.667520312521495907e-01,8.171248514969990939e-01,4.592316754599183315e-01,-4.228746984547428200e-02,-3.220852529714862689e-02,-3.122350600224919615e-01,7.106162309646606445e-01
6.830468103006037683e-01,6.152166567273993358e-01,6.162607414172456277e-01,3.078469559531106254e-03,1.839484890723720213e-03,-1.097807244167203593e-02,7.022347301244735718e-02
6.699549414251341206e-01,6.133120731384278379e-01,6.209294103579798829e-01,-1.217657981875293338e-03,-4.556176161949574734e-03,-1.260487832065707589e-03,5.391160771250724792e-02
6.338882261973278753e-01,6.659588210791272944e-01,5.914545188158741862e-01,-1.388128188161450241e-02,-1.192921329749315786e-02,-5.557643863792704163e-03,7.271634787321090698e-02
6.765218812095071810e-01,6.166375657267757493e-01,6.132949432431882286e-01,3.362662566345186229e-03,-1.192801518492425406e-04,-1.843235915237992741e-03,6.198090687394142151e-02
6.798463528440337189e-01,6.015002832299920499e-01,6.131824464020577681e-01,1.393867685828745163e-03,2.944711180205099570e-03,-6.591877002372566012e-03,7.430699467658996582e-02
6.906616609819082875e-01,5.983128480373530733e-01,6.089491593963464178e-01,-1.329554059068030350e-03,-1.240121404738146922e-02,-3.708230972997106356e-02,1.106849163770675659e-01
6.303050686042414030e-01,6.479837061844779811e-01,6.248766350388689217e-01,-6.061623907576484810e-03,-5.506810391113917298e-03,-6.065380788578147650e-03,2.737774141132831573e-02
6.540483327165573790e-01,6.163853660168919779e-01,6.376905870118552144e-01,-1.862310825064374294e-03,-1.044075634293837110e-02,-2.278466841240652050e-03,3.772268071770668030e-02
6.298519091604760645e-01,6.144410657570300582e-01,6.533617934799619276e-01,-3.139601968771740890e-03,-8.117332527086369015e-03,-2.305633449901909205e-03,3.735917806625366211e-02
6.791619808996455232e-01,6.259634720772739858e-01,5.986902549938983853e-01,-9.718711091654187381e-03,-4.340496744891690975e-03,-5.570115327718118750e-03,7.387667149305343628e-02
6.186139655876068399e-01,6.195566616847733021e-01,6.643586574228880215e-01,-1.076169463378885173e-02,-7.552556815191512583e-03,-6.852298320210544434e-03,5.205544829368591309e-02
6.069374044946657110e-01,5.057752464303876261e-01,6.937502174747036676e-01,-1.941853708063596973e-01,1.059891558944931478e-01,1.405007857900608392e-01,4.822849929332733154e-01
5.707577355786233042e-01,4.939769642005643613e-01,7.679302222844220926e-01,-2.190328970263488162e-01,6.112596634168043774e-02,8.741069935713463579e-02,4.878202676773071289e-01
6.332039273087294307e-01,6.325705356513499078e-01,6.373441293220614146e-01,-5.633194844998390708e-04,-2.198071292127266180e-03,-1.206521770841638246e-03,6.322851404547691345e-03
6.261198167581871754e-01,6.364705789068272335e-01,6.371495432084030019e-01,-1.541186136928506239e-03,-2.553896592850560688e-03,-8.101138412340539233e-03,1.839035935699939728e-02
7.157687918934970694e-01,3.839828894015583916e-01,7.035563670021205418e-01,-1.408389801051056212e-01,6.864799761532575095e-02,1.657600255337468576e-01,5.121062397956848145e-01
6.759187052513371263e-01,2.280009555369597596e-01,9.587693076236705192e-01,-1.984256997995463012e-01,-4.957513687417870740e-02,4.626335931463423923e-02,7.343301773071289062e-01
6.024101099195263709e-01,6.307743044092223306e-01,6.693530206482647404e-01,3.953887318201710320e-03,2.777499643125411980e-03,-8.471415913267310235e-03,6.060063466429710388e-02
6.261608479431869378e-01,6.293413923970780921e-01,6.405449492802895994e-01,2.173924558581795657e-03,5.077821327989787831e-03,-1.978707386001569372e-03,1.656941324472427368e-02
7.069025020937004244e-01,4.833842200573023051e-01,7.686156708542374316e-01,-5.204730997335890036e-02,8.168027746877577809e-04,2.780016754545299590e-02,2.793031930923461914e-01
6.288866374847165153e-01,5.928334160177075596e-01,6.977449411686728054e-01,-2.880438856312268411e-02,-2.461434086059072386e-03,-1.374733943780121620e-02,1.076944172382354736e-01
6.406708114178091273e-01,6.277793341387599702e-01,6.271880340790759734e-01,2.136476256682811724e-03,4.283439483096796938e-03,-2.316255412443171333e-03,1.609331555664539337e-02
6.028097143101908140e-01,6.083382056605531885e-01,7.260907329805408317e-01,-7.649347222821563375e-02,1.661673160955907252e-02,2.609819739923033635e-02,1.870097965002059937e-01
6.371386455288633455e-01,6.399377789209695910e-01,6.181843351301195000e-01,7.049690120553572283e-03,1.441917420797078847e-03,-2.154796582134795718e-03,2.427792921662330627e-02
6.338320931949980030e-01,6.301862574698627872e-01,6.428170335154576032e-01,2.168980259699314610e-03,9.248236247591864068e-04,-1.974209170583020138e-03,1.245595142245292664e-02
5.700210467524665647e-01,6.229856367118994376e-01,6.843299211558029338e-01,-1.757785136555473776e-02,-2.452264042877451812e-04,1.503451224220956088e-03,1.036887094378471375e-01
6.029338585466395006e-01,6.140436925622880793e-01,6.861590425233896617e-01,-8.472579750858506495e-03,-1.484156090167340104e-04,-7.371872344872848828e-04,7.963851094245910645e-02
5.968975266700958793e-01,6.269905135078390757e-01,6.866512607951950065e-01,-4.868408572686757675e-03,-9.219200667922461141e-04,8.090615960166333163e-04,7.959887385368347168e-02
6.055571923191012118e-01,5.266642400693889448e-01,7.224209410336082104e-01,-1.457696075239805489e-01,-1.284538020872157127e-02,-3.543156179358707136e-03,3.055813610553741455e-01
6.186655133974149345e-01,6.195230634704028683e-01,6.749344317553588324e-01,-9.879670825645994400e-03,-6.604251237196863931e-03,-6.822975836721325259e-03,6.067952141165733337e-02
6.442854719625827897e-01,5.416310827968134900e-01,6.780907133595286407e-01,2.727158530656058344e-02,1.564997305439988495e-02,-9.721555281837905224e-03,1.356483846902847290e-01
6.315794668640596354e-01,6.337345828670236658e-01,6.428838379976945516e-01,-3.994872708656417408e-03,-5.361056978533409144e-03,-6.887672478423797172e-03,1.960844174027442932e-02
6.709263853762035268e-01,6.329544383718095357e-01,5.813965025083978055e-01,1.205592040900585644e-02,3.777925900364374322e-03,-1.370632060158727579e-02,8.426320552825927734e-02
6.950943193060421521e-01,3.504982867259199830e-01,6.670788406867393938e-01,-2.182397151151817261e-01,1.075508010389657765e-01,2.025238413280903704e-01,6.407122611999511719e-01
6.529845071292135206e-01,6.244547365070989287e-01,6.200804201491432188e-01,1.741460369235630365e-03,5.276955719721214758e-03,-1.889342252084729628e-03,3.257646784186363220e-02
5.907732711884432497e-01,6.325570142879045621e-01,6.708009275937523164e-01,-9.118767963500602064e-03,-4.162850269494638468e-03,-1.171691763444134352e-02,7.429505139589309692e-02
6.806842507098926909e-01,6.138207589369641948e-01,6.059630985341557530e-01,2.193271092305950319e-03,2.665700879628748327e-03,-5.180128545433727687e-03,7.193128764629364014e-02
5.590166854825187048e-01,6.763415602049366315e-01,6.606347004094365039e-01,8.029670352999810842e-03,1.435021183077944858e-02,-1.590669756551192637e-02,1.172147914767265320e-01
5.681859480521390671e-01,7.175774325620905003e-01,6.557478350524004185e-01,1.740863980540238720e-02,5.399268384730406684e-02,-1.795010434828036086e-02,1.659075915813446045e-01
6.729189122073395701e-01,6.040042534137668451e-01,6.262749045161819517e-01,3.957530292890242343e-03,8.655777920219940094e-03,-7.243926079810384354e-03,6.433983892202377319e-02
6.691421042602874181e-01,6.141155743355646290e-01,6.168767312152999560e-01,1.551380865184477436e-03,3.060226848596317873e-03,-3.162238570382254824e-03,5.430396646261215210e-02
6.559265964362254175e-01,5.376271787829820514e-01,7.075317041601065782e-01,-2.233189085275556068e-02,1.401514142004605854e-04,1.263196786343942501e-03,1.557680368423461914e-01
6.312596881345425848e-01,6.281125624492372994e-01,6.305708616028804503e-01,4.413761608070610777e-03,7.334205273076279362e-03,-3.590644163266699246e-03,1.633109897375106812e-02
6.431612112003580739e-01,6.257438740197028837e-01,6.192141955599694825e-01,1.283894174607197458e-02,1.435316733039076163e-02,-1.252237013864859749e-02,4.519640281796455383e-02
6.028233991269627001e-01,6.798525370511109278e-01,6.140240915817476441e-01,-1.678313565934966929e-03,8.443184182633711385e-03,2.998755828601628801e-03,7.379332184791564941e-02
6.023492540047988841e-01,6.851277190925509908e-01,6.146723383884131753e-01,-4.834934926312969622e-04,8.576365935415431602e-03,1.508314024714071033e-03,7.881773263216018677e-02
6.188247489316471839e-01,6.775612663042153150e-01,6.148012780195872828e-01,-4.609166507488937636e-03,1.293620729403061748e-02,4.078115856711507503e-03,6.571266055107116699e-02
6.797074767590549627e-01,6.326585357118498232e-01,5.910935326599924267e-01,7.358415037941987320e-03,1.164089712187158301e-02,-1.907826750366090410e-02,8.693533390760421753e-02
6.256449194373202571e-01,6.323841834445668164e-01,5.957704088784535612e-01,2.865103765198678473e-02,2.736323010264782307e-02,-2.725075174525019503e-02,8.986619114875793457e-02
6.529862372599181120e-01,6.185484485541422606e-01,6.245964328826107970e-01,-2.621704513423923910e-03,-6.478691970561098468e-03,-3.550304040027355348e-03,3.462101146578788757e-02
6.739555849067845328e-01,6.023594070572179104e-01,6.329713713439898415e-01,-4.168098206008163074e-03,-1.075864804595709316e-02,-4.110253358769685311e-03,6.573775410652160645e-02
6.297840665711724739e-01,6.999698137998989766e-01,6.033128901643122211e-01,-3.050564711167565342e-03,3.337574303826789518e-02,3.593607121479490060e-03,1.043702140450477600e-01
6.307187606542600244e-01,6.214590497707884742e-01,6.538006103644922185e-01,3.276212263177070549e-03,7.139770800919607689e-03,-2.687083752420978220e-03,3.223408386111259460e-02
6.692704641001453458e-01,6.328119640672821289e-01,5.889860046396920845e-01,-8.338425642853886446e-03,-2.696780518580991701e-03,-5.867892797216250900e-03,7.198241353034973145e-02
6.293877663506124431e-01,6.340848843990052330e-01,6.364792417973310634e-01,-1.624119714212095321e-03,-2.132669888805648669e-03,-4.278678147336687290e-03,1.074810884892940521e-02
5.222426727849978079e-01,6.966038128271216934e-01,6.890370162973811219e-01,-1.110247742489883782e-01,6.175016767843507365e-02,4.459744533584487219e-02,2.890073657035827637e-01
5.951852007525177957e-01,6.853985574978490591e-01,6.270743988105685895e-01,-3.864397620380052118e-04,2.904736058514813951e-02,-9.992047007784752438e-04,9.387880563735961914e-02
6.779439826042122919e-01,6.292027727054693154e-01,5.936871328890764854e-01,-8.700916325943016880e-03,1.290795754397256866e-03,-3.993365381729949322e-03,7.515383511781692505e-02
6.693660006148584030e-01,6.012712630151721971e-01,6.254545404073291737e-01,-3.417613146072583617e-03,-5.669689569723547311e-03,-5.473891747089424005e-03,6.161442399024963379e-02
6.533944386983653319e-01,6.158729478814888303e-01,6.324842667074699332e-01,-1.864814771529368833e-03,-7.990045890149550731e-03,-2.281528548636281486e-03,3.575035557150840759e-02
6.411768598415261700e-01,6.234352508672111881e-01,6.372357735459097672e-01,-6.633278283922954205e-04,-8.006835105137400863e-03,-3.264161376952977095e-04,2.131533436477184296e-02
6.349490994427806623e-01,6.813156366184311974e-01,5.980767210780549847e-01,-8.869825261750338002e-03,2.820194008485372647e-02,7.158765883336296564e-03,8.941412717103958130e-02
6.198768450791604101e-01,6.826774889882811781e-01,5.657038850914953843e-01,1.654424475085652935e-03,1.940812605462763005e-02,-6.764190868361455227e-04,1.068659797310829163e-01
6.978622013435165083e-01,7.117562704198781010e-01,8.046203987982050165e-01,2.359214880669745218e-01,1.784794177642689550e-01,-1.651250488295365193e-01,5.953549146652221680e-01
6.332790057081706392e-01,6.300861743367985879e-01,6.407477689742721028e-01,2.166783687718439142e-04,-3.135490036797157661e-03,-1.058828929499850292e-03,1.108247227966785431e-02
6.421953067527855774e-01,6.339189137537154517e-01,6.304383218608721196e-01,-4.436715808161914489e-04,-2.187767064533285583e-03,-2.120254588601140286e-03,1.174120511859655380e-02
9.352811964167897507e-01,6.257325330850519451e-01,4.142633926506057995e-01,-1.267629981593943467e-01,-1.582436706941737006e-02,-2.918263688772730347e-01,7.144545316696166992e-01
9.383213689767486709e-01,3.136131987137787402e-01,9.570536799108705361e-01,-9.519295556759037324e-02,3.958845805335419604e-02,9.566614859868716181e-02,6.794529557228088379e-01
6.138279348414305003e-01,6.818329410981666117e-01,6.134568787968222026e-01,-4.229460840115180646e-04,1.323876181891046715e-02,-1.210708020849609809e-03,7.197763770818710327e-02
6.144439357050481831e-01,6.860935287886194001e-01,6.156347172122149658e-01,-1.128922178400255591e-03,1.253508947606131463e-02,1.520133626114752393e-03,7.437676936388015747e-02
6.408107845118314883e-01,6.360030053826185581e-01,6.263867086041712273e-01,7.293876749259879319e-03,1.022373807237616410e-03,-1.787591168300940725e-03,1.827963441610336304e-02
6.548744082614142981e-01,6.215005849486712197e-01,6.235260048852607762e-01,2.298578541093092113e-03,1.661676662939369368e-03,2.555786565073530497e-04,3.278182819485664368e-02
6.382325096042494872e-01,6.784300714163389312e-01,5.846857085146981436e-01,1.307962851912638537e-02,2.489631967020424982e-02,-9.635836467383043780e-03,9.636811167001724243e-02
6.372872769765798306e-01,6.534263493672815004e-01,6.148950300809659097e-01,1.001427027549232907e-02,2.144663188126704530e-03,-2.397390925447629231e-03,3.814669698476791382e-02
5.958547075072233579e-01,6.854201361513273527e-01,6.253281495509342980e-01,-9.863380398893678656e-04,4.262030703292647195e-03,4.988678620145094210e-04,7.942926883697509766e-02
7.903128159530075081e-01,6.139036152892504150e-01,5.825388973671717929e-01,3.417699673330720344e-03,4.401790965613852635e-02,-1.755062447930602898e-01,3.686354160308837891e-01
6.258760941500849384e-01,6.368538772057897868e-01,6.371737075445674803e-01,3.545673680500115513e-03,2.724480231094435299e-03,-8.963624580119100224e-03,2.061912976205348969e-02
6.309819062165136216e-01,6.413711531009284039e-01,6.330187787969331348e-01,1.831350583974832502e-03,6.456389329922084756e-04,-7.317205341119273690e-04,1.019029226154088974e-02
5.323131390717871225e-01,6.954182282836038897e-01,6.653926140775877629e-01,1.714754558972124074e-02,3.675392054147088444e-02,-1.635057319591744218e-02,1.683572679758071899e-01
6.096873045827750914e-01,6.803040163076741198e-01,6.132863063061401165e-01,2.231093969393069254e-04,3.057751653311826991e-03,-1.256952410902778148e-03,6.912641972303390503e-02
6.048300289395441842e-01,6.772916867409715103e-01,6.196039910979243004e-01,-3.352689041844915830e-03,6.877989186984303192e-03,7.113884300899225681e-03,6.874503195285797119e-02
6.125487614680303894e-01,6.768467601133136835e-01,6.100706539228533121e-01,6.745570875217115573e-04,1.513519764101641830e-03,-7.945316402089478260e-04,6.564939022064208984e-02
6.315496105140001593e-01,6.800021463659392529e-01,5.832034065511088050e-01,-9.045641365777254070e-03,9.293410159080009794e-03,4.995812938229381855e-03,8.721781522035598755e-02
5.874905403122725467e-01,6.795343402619270501e-01,6.256892928057578018e-01,-6.261620843898894851e-04,6.284377808160672776e-03,-4.384560329429866218e-03,8.119468390941619873e-02
5.745477217377520374e-01,6.940234923364021480e-01,6.252841712895433890e-01,3.156705448501949548e-04,1.422143103919320910e-02,4.400357993571691641e-03,1.070140451192855835e-01
6.069721025883267895e-01,6.527318802105630535e-01,6.378393438405585147e-01,3.709875383957195096e-03,5.869405250657143761e-03,-1.202836810015908697e-02,4.704200103878974915e-02
6.787513473294758404e-01,5.883809009153168068e-01,6.253425005259788394e-01,-1.349240522872657963e-03,5.561705269326190811e-03,-6.642035008709458628e-03,8.014580607414245605e-02
7.590897197557893161e-01,7.416827189002930254e-01,4.510837217342893446e-01,3.219734185462909057e-03,8.871130665991099062e-02,-1.086636110186802312e-01,3.858403265476226807e-01
6.102453744645084388e-01,6.800904187757905728e-01,6.167549493012872697e-01,-7.231946522650093941e-04,1.589438122383746025e-03,2.687118982086842897e-03,6.705857813358306885e-02
5.774259118718214623e-01,6.755291594155158341e-01,6.240210786755386874e-01,-3.068670261362522675e-03,1.410078011226979441e-02,7.002651162860393068e-03,8.942078799009323120e-02
4.906217771495552937e-01,8.361770559947203640e-01,5.278743071345496363e-01,8.229004090440868169e-02,2.963794201453165411e-01,-5.408604833870703232e-02,6.328795552253723145e-01
6.498873209112915328e-01,7.370823185081467610e-01,6.529155315017789452e-01,8.847562361316806123e-02,-1.640279785815921265e-01,8.900029115641362731e-02,3.678458631038665771e-01
6.057806604527680161e-01,6.711513596301292850e-01,6.088073646418002971e-01,7.455009347000817257e-03,8.354804081704761409e-03,-4.072949350164558127e-03,6.716053932905197144e-02
5.685530450111903056e-01,6.992376867353412573e-01,6.265014338894880908e-01,-1.818272284175099368e-02,6.556367459082315663e-02,1.763036821744315766e-02,1.663840115070343018e-01
9.075080549209870728e-01,6.352083349661961087e-01,4.421021443615537616e-01,-1.072488211496525901e-01,1.389826286831014057e-03,2.713535404398515483e-01,6.476348042488098145e-01
6.131077945714114019e-01,6.755696262055854717e-01,6.129049810074228555e-01,-2.943138369502113025e-03,7.831140220278886383e-04,9.454343336939979858e-04,6.280682235956192017e-02
6.544771594579406049e-01,6.585461072854451592e-01,5.697602945115411988e-01,2.278525972192938648e-02,-1.716080020530059980e-02,2.005663004231894239e-02,1.057638898491859436e-01
6.975256149739184064e-01,6.307996998520545295e-01,5.958182866362783381e-01,5.020668591784584710e-03,5.544058427093806864e-04,2.716125930673516167e-02,1.014887169003486633e-01
6.045660823077767532e-01,6.753034657948553399e-01,6.167158784857657006e-01,-2.287796535568972778e-03,8.269165060876000617e-03,3.722868677713855792e-03,6.748606264591217041e-02
6.541840030687903207e-01,6.220995260617661060e-01,6.219986383379159101e-01,-1.820751059695189990e-03,4.594293604928827678e-03,2.751048397123777734e-03,3.359514102339744568e-02
6.814406562059592831e-01,6.581438752908818079e-01,5.308240551426314235e-01,2.677714198994105704e-02,-4.231731468089588305e-02,7.645806107970007370e-02,2.116129398345947266e-01
6.799603158506700717e-01,6.948096530973830731e-01,5.535399949178306800e-01,7.413592246888178403e-03,2.346260925027180214e-02,-9.101352122898701685e-03,1.419321298599243164e-01
6.762489026292546335e-01,6.619411077553265521e-01,5.634790944644256783e-01,1.583153819171152082e-02,-7.161976892851078247e-03,1.805838197375151527e-02,1.148580238223075867e-01
6.808839568668895170e-01,6.003465784031648544e-01,5.964515588076354513e-01,4.595612596344363435e-03,-4.607501581340094944e-03,2.724453199771652984e-02,9.575476497411727905e-02
6.538784184017861767e-01,6.167151192027005013e-01,6.235029350814846882e-01,-3.384959335021722488e-03,6.216526593692159666e-03,4.462385977192228313e-03,3.721526265144348145e-02
6.463858513992394306e-01,6.259056546210817196e-01,6.217397614152516683e-01,-6.729650025515700879e-03,4.229313026360402746e-03,4.157333826557747629e-03,2.763127908110618591e-02
6.194750888339238815e-01,6.433353872690191766e-01,6.699161026208960701e-01,-1.991978910039340911e-02,1.600042274634360523e-02,1.854066457953356881e-02,6.999839842319488525e-02
6.835309561723948990e-01,6.612101197543132081e-01,5.416239010266867826e-01,2.259306403839725017e-02,-1.510773734795889389e-02,2.316870445438357767e-02,1.459273248910903931e-01
5.816487096615333696e-01,6.368805986317941370e-01,6.793317609212865538e-01,4.082013746125676829e-02,-2.983552967359930433e-02,3.554904872374285013e-02,1.365937441587448120e-01
6.037243946275815398e-01,6.194720824461760200e-01,6.770677723023980077e-01,7.620515772404307629e-03,-3.765357484217012832e-03,7.241439419640639634e-03,6.961549818515777588e-02
6.192535275992193666e-01,6.534318439599802186e-01,6.226019552841520754e-01,-5.582727148786372981e-03,1.773729938795743765e-03,1.518651817783911537e-03,3.427511453628540039e-02
6.319015405271017904e-01,6.348787245170774973e-01,6.332426708208296340e-01,-9.658830856315292739e-04,1.199943926587876061e-03,1.588547616986446575e-03,4.621504340320825577e-03
6.126609873000729012e-01,6.251985856741824055e-01,6.590641151234832851e-01,5.500981660791326444e-03,-4.267897139937836155e-03,7.642835988047123018e-03,4.526945948600769043e-02
6.376805977158847005e-01,6.545068489682102086e-01,6.177933480010078249e-01,-7.802171011315999459e-03,3.634782577399287701e-03,2.788090610616779375e-03,3.547999635338783264e-02
7.228567976414079777e-01,6.786852190216546843e-01,5.216287725383392804e-01,2.331996743626515156e-01,-1.559584194259037992e-01,1.911100250299668235e-01,6.158244609832763672e-01
6.358845165152933188e-01,6.309909816733426657e-01,6.323432247250221350e-01,-3.374904119826545573e-04,2.408155264840919525e-03,7.264036513608127573e-04,6.203250493854284286e-03
6.724105895122330923e-01,6.966920045743760781e-01,5.369853724923691063e-01,2.266322421828848369e-02,-6.409638669126400956e-02,4.904208770410163620e-02,2.080845385789871216e-01
6.322089755364834751e-01,6.347265648231673607e-01,6.343841987649497804e-01,-3.739885873170952293e-03,4.857689937387468966e-03,3.888191726317706109e-03,1.279450394213199615e-02
6.374509777360576335e-01,6.247946859926339913e-01,6.368034637746216031e-01,-3.250805360440049609e-03,8.115031093677241292e-03,3.094834879116198541e-03,2.025843784213066101e-02
6.267796867629519264e-01,6.404400449620261115e-01,6.294525900820413522e-01,-4.465471999391184763e-03,6.581914584865649308e-04,1.430468658778123693e-03,1.498321257531642914e-02
6.347258305539017487e-01,6.514780357580229886e-01,6.021970366246489625e-01,-1.292356407863246189e-02,1.008060225582846879e-02,5.649101161280882001e-03,5.277628451585769653e-02
6.863467873776567529e-01,5.890908696354871799e-01,6.257185502093263185e-01,-1.148775108617342867e-03,-4.842322929555313397e-03,-5.408363030368010423e-03,8.602381497621536255e-02
6.533084873943099113e-01,6.360085346293627984e-01,6.143848501171607079e-01,9.765133202372357213e-03,2.671175943630743881e-03,-3.575104859602407439e-03,3.855883702635765076e-02
6.341430832244445703e-01,6.660980642345641911e-01,6.091919221921302530e-01,-1.289149504483790530e-02,2.236584732743709947e-02,1.328864796388480075e-02,7.049840688705444336e-02
6.173092871040519736e-01,6.619232533624336279e-01,6.149510439292429353e-01,-6.760353387112167170e-03,6.320847138180206957e-03,3.315507082064362340e-03,4.889910295605659485e-02
6.458382417325052582e-01,6.416169405802226722e-01,6.214224262003007482e-01,-1.637565064135573789e-02,1.315329311249825717e-02,1.766293352820230700e-02,5.263397842645645142e-02
6.100376251158700081e-01,6.716538866908602357e-01,6.025787485795111031e-01,-1.565930014334683887e-02,2.389161987028539866e-02,1.448755373937514988e-02,8.596234023571014404e-02
6.257884038494937462e-01,3.172393638241219338e-01,7.709300221399386643e-01,2.425010891027891691e-01,-4.989002086380091988e-02,7.317080695217510755e-02,6.008337140083312988e-01
6.353696333962920439e-01,6.484681931465264837e-01,6.178042480392720304e-01,-8.837992924178694754e-03,1.157389413663170719e-02,1.783243262609615631e-02,4.796226322650909424e-02
6.422929410160989061e-01,6.286689893472591217e-01,6.279550670669266088e-01,1.428098358611683142e-03,1.154196489569867413e-03,8.716491527392161611e-06,1.435142196714878082e-02
5.328782398029664469e-01,8.383885407947372359e-01,5.089090071585867792e-01,6.247324625450004221e-02,-2.997595422059011194e-01,2.219223171226909486e-01,7.281885147094726562e-01
6.773908501498145940e-01,6.084133926248106450e-01,6.157460081427497123e-01,-1.334262083977498417e-04,-1.083871656871512835e-03,-2.384198588426101380e-03,6.577615439891815186e-02
6.597758460745338782e-01,6.232265429441401494e-01,6.144205857689425399e-01,7.909841540696590720e-03,3.769612343448795321e-03,-4.858243990189193597e-03,4.512629285454750061e-02
8.940792586337324988e-01,8.893883144943715013e-01,3.507251762445098286e-01,9.905614140094509690e-02,2.019239560420359736e-01,-2.104188828383200816e-01,7.597969174385070801e-01
6.812381685063023662e-01,5.996889385715368226e-01,6.298783316432839952e-01,-1.149930755727033649e-03,-3.654671787195265965e-03,-8.193672023545827549e-03,7.311087846755981445e-02
6.889058236954510583e-01,6.289832107381079229e-01,6.022265922572591634e-01,6.986398128635246986e-03,2.121539332480206104e-03,-5.431557991911543405e-03,7.847547531127929688e-02
6.319360920576621021e-01,6.420625813038308705e-01,6.200649209459218048e-01,-7.223094641197551867e-03,3.219175057860586015e-03,3.935719670293876676e-03,2.444917149841785431e-02
5.782678186956100586e-01,6.713548134332846251e-01,6.199944482988813954e-01,2.400548659286782377e-02,-4.531463093265795938e-02,2.345061688840349712e-02,1.267317086458206177e-01
5.892572077542710396e-01,6.716954990481919241e-01,6.303950526881328953e-01,4.980576226530187417e-03,-1.069789573639691634e-02,1.126003015652910985e-02,7.678006589412689209e-02
6.131198885745193783e-01,6.588744852333339175e-01,6.249493302491589963e-01,4.844748860197402307e-03,-4.611693175264769753e-03,7.620403311362980957e-03,4.472803324460983276e-02
6.610733219697252361e-01,6.403918503795932304e-01,6.205842893853357189e-01,1.652706601902052125e-02,-1.833863373353035106e-02,2.002292912907314287e-02,6.527490913867950439e-02
5.492166871185069077e-01,6.901930832636082869e-01,6.609914299281788308e-01,2.980742126563357478e-02,-2.935745838639169589e-02,2.303932700626862978e-02,1.531463265419006348e-01
6.135059821101906952e-01,6.793178310987774138e-01,6.100447198364241652e-01,7.306565956061461010e-04,1.046554819935168607e-02,-6.106074739281835799e-03,7.080260664224624634e-02
5.889220600473592526e-01,6.749683414059267639e-01,6.298594235377715789e-01,-1.469070302742642511e-02,3.386443178114371261e-02,1.134684421034068413e-02,1.001570001244544983e-01
6.898282476666872665e-01,6.380769968769165468e-01,5.036078239311982951e-01,6.128376251189889684e-02,1.275826475282116068e-01,-1.643934373116431036e-01,4.109669029712677002e-01
6.795907808250918336e-01,6.242427182420653420e-01,6.009618258238196287e-01,1.087188682635969886e-03,-4.791338609709549796e-05,-6.389488060314274000e-03,7.085188478231430054e-02
6.406799784920925722e-01,6.579326807670525801e-01,6.170116752235985658e-01,1.208105555920713226e-02,-1.784897592580681619e-02,1.598555979563597365e-02,5.853558331727981567e-02
5.919047828793115862e-01,6.575559800236158159e-01,6.296050149994264489e-01,6.006815922763242971e-03,-1.127584473265915398e-02,1.075279376945402834e-02,6.397553533315658569e-02
6.507722287540838035e-01,6.757959392766582640e-01,5.799206336354025826e-01,1.169190488616297582e-02,7.960886823429784778e-03,-5.583841358928345357e-03,9.007147699594497681e-02
6.163939408205868498e-01,6.688900152024586099e-01,6.079583638049325112e-01,6.134872198217500121e-03,-9.103331478334968085e-03,2.530384529914867300e-03,6.041987985372543335e-02
6.327076011816273882e-01,6.418947888864288132e-01,6.323511026999064644e-01,5.596461674686583135e-03,-4.576447790967407003e-03,5.552120436147178067e-03,1.835967414081096649e-02
6.013730349366857020e-01,6.767940665226167551e-01,6.282426113629152598e-01,9.384983257397071926e-03,-2.873092331786119419e-02,7.058556709491975271e-03,8.528701961040496826e-02
6.240011762225835534e-01,6.598098729442226640e-01,6.259091163629393328e-01,7.769948177382869289e-03,-5.658724433686917500e-03,7.675795206073233144e-03,4.088417068123817444e-02
6.318109008308371299e-01,6.701907550190427942e-01,5.968920297851090240e-01,-7.845499334075656597e-03,6.630369916826960378e-03,2.577924523946830034e-03,6.609841436147689819e-02
6.277947785405324499e-01,6.811727525606754430e-01,5.834238477038911075e-01,-3.747420083822762971e-03,9.638071303366973694e-03,1.732777457650357513e-03,8.669620752334594727e-02
6.211117526571653391e-01,6.631016976771051397e-01,6.432878418086227512e-01,1.434146222323841660e-02,-1.750611436848812513e-02,1.554410718470570184e-02,5.987523868680000305e-02
6.195887106069666306e-01,6.600233443866778682e-01,6.334152434767875706e-01,1.297338869348763774e-02,-1.940835028440341531e-02,1.009857391696145253e-02,5.663906782865524292e-02
6.358628504766568046e-01,6.587244491791541812e-01,5.934361762720486988e-01,1.169502321369498068e-02,-8.006850059495904115e-03,1.108774601865049163e-02,6.529992818832397461e-02
5.920028729284096958e-01,6.254499822298252854e-01,6.882284665997522310e-01,6.083281486096324062e-03,-2.313841128436904850e-03,5.676891040763533923e-03,8.592652529478073120e-02
7.036504690263802875e-01,7.070421494760769088e-01,4.955363748263608148e-01,4.029659256588250644e-04,2.402967262543435900e-02,-1.843187664745417386e-03,2.139434218406677246e-01
6.603501406001867080e-01,6.924131212389846857e-01,5.592928848357183735e-01,-4.121279108003336744e-02,5.928961795392848066e-02,3.985835530602176852e-02,1.867836266756057739e-01
6.745754030216134511e-01,7.011519028167831902e-01,5.433148405070886700e-01,-1.953593358769344437e-02,2.901645181158496803e-02,8.013922657980045161e-03,1.590206921100616455e-01
6.146003773648733848e-01,6.396168895547620359e-01,6.370456520615719320e-01,-4.138399202093525145e-03,3.573513133602084207e-03,9.132974519335713623e-03,3.013364411890506744e-02
6.248105592230200900e-01,5.978762339922536473e-01,6.877529676201710185e-01,6.810175285494109165e-03,-2.711681462351978825e-03,2.900660536285617802e-04,8.089476823806762695e-02
6.928935274121754695e-01,7.016635906552148860e-01,4.978262499366179483e-01,-8.235921577395149268e-03,2.550438682001061538e-02,6.307616197820027984e-03,2.052149623632431030e-01
6.704804205197472111e-01,6.169466714467007895e-01,6.164627113086996735e-01,-1.377662457794156517e-03,3.345628479717283055e-03,3.524852747257149147e-03,5.448441952466964722e-02
7.074125321826515433e-01,6.905315756834884411e-01,4.987881137766458917e-01,-7.288270542095427046e-03,5.371549040483435816e-03,2.528631824785465554e-02,2.060374915599822998e-01
6.409638171386613514e-01,6.412718471250273833e-01,6.254707633351158647e-01,-5.320905358169935456e-03,1.458706016101878229e-03,1.409684092213801723e-03,1.849819160997867584e-02
6.949797121410729028e-01,7.260719950042795467e-01,5.381059611665283127e-01,4.766650820868135498e-03,5.814731636743531579e-02,-3.062264931321286715e-02,2.085147500038146973e-01
6.033204175765326527e-01,6.890515383076833977e-01,6.051646646937551832e-01,1.347141460537151607e-02,3.494305186813276287e-02,-2.066211209240258542e-02,1.126204803586006165e-01
6.660986098081895790e-01,7.227258064325705611e-01,5.557449206736865266e-01,-1.971990107912269252e-03,5.477044901504678903e-02,5.920490797024067879e-03,1.753562837839126587e-01
6.545658031122990606e-01,6.255708135969557659e-01,5.869651128886972380e-01,6.006492295457348252e-02,-6.416306011962413791e-02,1.418455376914425359e-01,2.949322462081909180e-01
6.368738143543763996e-01,6.374073180799406657e-01,6.247844603643719630e-01,-8.650133397169412763e-03,2.318711821223061985e-03,2.213252493730788212e-03,2.020361274480819702e-02
2.936334649354117587e-01,7.470171783366237328e-01,9.044282463662177696e-01,-1.181315310505710869e-01,-7.200884379772154453e-02,-7.141826074402483904e-02,6.119030714035034180e-01
6.414703422763730067e-01,6.255175051999392055e-01,6.411611774292038657e-01,-2.415073905787109166e-03,4.610101739928329674e-03,2.175145230933043378e-03,1.857705973088741302e-02
6.313784098252457344e-01,6.416923469928949020e-01,6.278289384765575187e-01,-1.010205339882852028e-03,-9.809127294070135381e-04,1.599540222513949964e-03,1.300802733749151230e-02
6.609299832623237725e-01,6.194329256934518746e-01,6.223259709217461300e-01,6.900131628449728124e-04,3.648393305201314083e-03,1.634349893637577784e-03,4.073937237262725830e-02
6.728044815155168612e-01,6.515070113437527732e-01,5.680478111481975789e-01,-1.345152502711657351e-02,3.242547255169455148e-03,1.184769388023174976e-02,1.009552702307701111e-01
1.491594247860821842e-01,7.610073128653800367e-01,7.706393408775672471e-01,1.757654900642315055e-02,3.097399992581081202e-02,-1.235944314412670266e-04,6.197975277900695801e-01
5.399993435793264407e-01,7.012335164580393299e-01,6.820277812144176499e-01,1.398017574627335308e-02,-1.237598931787023057e-02,3.451793473135403127e-03,1.560457497835159302e-01
6.988101255485321683e-01,5.620050110033940616e-01,6.523024718640588748e-01,6.271527944674694204e-03,8.932823394963150185e-03,-8.663782974918106394e-03,1.228766962885856628e-01
6.946725288450730229e-01,5.501349213937269944e-01,6.493007189033960236e-01,-3.881251316258232768e-03,-1.081915091802288821e-02,-2.153979796937622107e-02,1.348333507776260376e-01
6.507251260626514267e-01,6.532293120058952907e-01,5.996989302690742818e-01,1.108837106903675165e-02,5.142999448798867522e-03,-6.075789960346548654e-03,5.741668492555618286e-02
5.409221270710521390e-01,6.991076180619872904e-01,6.563107342643232922e-01,7.926694778906414815e-03,-2.737348711214571476e-02,-1.730805772660140270e-03,1.500992476940155029e-01
6.533161460342293836e-01,6.514789139731903544e-01,5.997741209589505518e-01,1.144076666329921568e-02,5.207828705604039890e-03,-6.121939237950250502e-03,5.795020982623100281e-02
5.676194936776055577e-01,6.887683077278263788e-01,6.380050400220848017e-01,-1.704715110886885487e-02,-7.492353023266937195e-02,-3.780923755395593222e-02,1.819479912519454956e-01
5.746383853040678558e-01,6.547352218227212584e-01,6.697458116248252713e-01,1.763234741200869760e-02,2.357410269988254384e-02,-1.623000411688314132e-02,1.059871464967727661e-01
6.239017307023830838e-01,6.549118628739927228e-01,6.216542362124560794e-01,6.855118497853402056e-03,4.409479908114691954e-03,-5.741910006116273529e-03,3.653206303715705872e-02
6.599081482839457280e-01,6.176658759378516050e-01,6.216844570672557246e-01,1.935440864874107955e-03,4.783038303905156122e-03,-1.955045580384462151e-03,4.149869084358215332e-02
6.797184397643663001e-01,6.143118211684309715e-01,6.108723905145631017e-01,-5.800325859556980553e-03,-6.928466071568122400e-03,-1.421523193952731710e-02,7.325283437967300415e-02
5.331314890765886938e-01,6.953801151163864214e-01,6.598593463795832115e-01,1.595695449517125835e-03,-2.367123144831168383e-02,5.642207613881374331e-03,1.536465734243392944e-01
5.837781719512374901e-01,6.835617071032812353e-01,5.147858581328544902e-01,6.280670260666071369e-02,1.393889251165134624e-01,-7.791711940490252120e-02,3.315661251544952393e-01
5.114810318464462213e-01,7.015186134814485053e-01,6.930496504765502053e-01,9.833063279898898723e-03,-1.985088406628674265e-02,8.360174473189154257e-03,1.904166489839553833e-01
4.974101922125040431e-01,7.031425929301639011e-01,6.943111197124032241e-01,-7.879561279466499747e-06,-1.509967007292287167e-02,-2.885899547086932544e-03,2.032138854265213013e-01
6.691314729902962943e-01,7.298050133074757140e-01,8.271215791835048181e-01,-2.820387677859357289e-01,-2.112981026575031229e-01,-1.722994249038798942e-01,6.933223605155944824e-01
6.116322120297993381e-01,6.161034212016068823e-01,6.775340773301703479e-01,1.302785067739183761e-02,-2.413167534596172802e-03,4.446254551577701226e-03,6.822271645069122314e-02
5.033085227880633727e-01,7.050366990850953641e-01,7.026803334749669450e-01,-5.984791940374521897e-03,-2.014948414509068822e-02,-6.299157219839772795e-03,2.041297703981399536e-01
4.905766627067587593e-01,7.040113607248067451e-01,7.029667296122206199e-01,7.545939104069167118e-03,6.866686609669356983e-03,-2.522374202444564121e-03,2.136910557746887207e-01
6.267185976680533788e-01,6.053706001365034561e-01,6.859716989428734646e-01,2.937870182027282201e-02,4.902984375776710951e-03,-4.033062868719189051e-03,8.911700546741485596e-02
6.668313209413385678e-01,6.327685590488890677e-01,6.094034923522072544e-01,9.649834019802060528e-03,4.506609051094612010e-03,-4.937813921623316823e-03,5.399545654654502869e-02
6.040600985023794056e-01,6.161354955770965702e-01,6.868697063086350862e-01,8.220192503391621219e-03,3.869110979709904064e-04,2.286435293618359517e-03,7.888051122426986694e-02
7.310647578414178893e-01,7.340319272345356971e-01,5.115913814312266217e-01,6.009910434733280876e-02,-1.168238590580291114e-01,1.045410829425333504e-01,3.652317821979522705e-01
6.772501019520189569e-01,6.793941715909563861e-01,5.531831403900905331e-01,1.097689634796140783e-02,1.001033467050980313e-02,-8.134782937513079445e-03,1.285450756549835205e-01
5.363614021285758593e-01,5.628658722458599328e-01,7.135245786331054774e-01,1.255188593388560370e-01,-1.075130687636087490e-02,1.062327755470518324e-02,2.744885087013244629e-01
6.165500854329294400e-01,7.080041032259147826e-01,5.725135252334899727e-01,5.049859164490755510e-03,6.674405826054199964e-02,-3.620540238573518449e-02,1.780552715063095093e-01
6.211528079162255134e-01,4.918615162422935727e-01,7.112483495655510524e-01,1.207533459915344637e-01,2.061286700692343751e-02,-3.343696337246616218e-02,2.912986278533935547e-01
6.070988431568954402e-01,6.049098976884849099e-01,6.815937524888706633e-01,1.327559682164555777e-02,-4.835169191334807645e-03,9.613298915268130105e-04,7.949202507734298706e-02
6.371668047741024798e-01,6.560391374481702176e-01,6.160720156669492464e-01,-6.676692239191870000e-03,-4.561857040338494589e-03,-3.910892652210447989e-03,3.796464577317237854e-02
6.255563847482980000e-01,5.928791470694890764e-01,6.690831224985209769e-01,1.085960836045012784e-02,-1.170110372357748008e-02,7.881910413661215309e-03,7.304537296295166016e-02
6.781080403194810202e-01,6.942357173469668741e-01,5.267342606301222974e-01,-6.109341791546213894e-03,9.198889872658363998e-03,3.935745040245873516e-03,1.613311171531677246e-01
6.122550985836300308e-01,6.175330863630721367e-01,6.873696616190869690e-01,1.284494841183709060e-02,-1.842830782099528966e-03,2.311677623427293125e-03,7.612357288599014282e-02
6.622817814067902820e-01,6.250035168908092409e-01,6.179253886971559639e-01,-5.520358498221718604e-03,4.266483024277695907e-03,9.569685021347501541e-03,4.609118774533271790e-02
6.593034351129279935e-01,6.702479607667473083e-01,5.473557371902322277e-01,-4.442101413680716454e-02,7.030209299449297067e-02,8.082027653447926285e-02,2.328515946865081787e-01
6.614181906431946256e-01,6.848239623545607779e-01,5.305357941333784799e-01,-1.411791471113835877e-02,3.766107773163553801e-02,3.308249062313452227e-02,1.699347048997879028e-01
6.463221723620123926e-01,6.272652139131971172e-01,6.294753830301088593e-01,-6.538961347870338690e-03,6.136133287231596359e-03,4.936111451533621228e-03,2.530334889888763428e-02
6.827750327022583665e-01,6.130997949590472063e-01,6.095791547598692350e-01,-2.291708868138286892e-03,4.462235580360104752e-03,7.487357852049664371e-03,7.318474352359771729e-02
6.788857190977112266e-01,6.025863167326628300e-01,6.137824866954262326e-01,-2.131890017413053638e-03,3.575288197477162044e-03,8.802640881518717861e-03,7.332894951105117798e-02
2.733959897841224951e-01,7.453089615513720512e-01,7.476654550724438630e-01,-1.014240333684610917e-01,-1.136658729897608161e-01,-3.634336091016847348e-02,5.453460216522216797e-01
6.537495686892886848e-01,6.530262557135220192e-01,5.961319561189704075e-01,-1.205258081758156692e-02,6.894392174081344880e-03,6.169898476373314976e-03,6.301771104335784912e-02
4.517412184930693630e-01,7.070476122113817929e-01,7.678972916070208043e-01,-7.116633291674399897e-02,1.843617741772110921e-02,2.671361967752650113e-02,3.205835521221160889e-01
6.544606439250389984e-01,7.885575071482532339e-01,4.116543030996563379e-01,6.722477621491936006e-02,2.346324686517429203e-01,-1.361593020046728275e-01,5.863695144653320312e-01
6.556007675867554507e-01,6.382605056927755927e-01,6.167937882620622148e-01,-7.401921162706861547e-03,2.998048284596182677e-03,3.510080623721736209e-03,3.690576180815696716e-02
7.397562987408382584e-01,6.601965139970782381e-01,5.328035283700338631e-01,2.242681512810363806e-02,-4.306477142849086948e-02,8.504359456029200737e-02,2.479192167520523071e-01
3.967855116325307296e-01,6.347928741471473568e-01,7.546303753169383288e-01,-2.018369105639116479e-01,-9.174231136447418000e-02,-5.767980277386050569e-02,5.069279670715332031e-01
3.908237130137323101e-01,5.910494358641017465e-01,7.465468516677538080e-01,-2.432538755754191651e-01,1.052474271639971815e-01,7.734131603211524819e-02,5.692958831787109375e-01
4.838473228796940639e-01,6.733997789506416254e-01,7.542078886343084321e-01,-1.330571227928168954e-01,3.158778676204756358e-02,-1.977850165213948172e-02,3.392004966735839844e-01
5.264077984244296404e-01,6.471274791505027268e-01,6.881199276718920066e-01,4.557484827497463448e-02,1.909329135195315247e-02,-2.163147572828122422e-02,1.730053275823593140e-01
6.794318803756481673e-01,6.096364933979975254e-01,6.139507175578560183e-01,-7.253074358908848151e-04,6.853511063093575351e-04,2.370877767215816452e-03,6.788774579763412476e-02
4.322244652539601883e-01,6.894351122210063965e-01,7.073998287247786898e-01,7.838241707466102326e-02,2.339878069469590247e-02,-9.580940477021966661e-03,3.024071156978607178e-01
4.844956018588797431e-01,6.792100961575442408e-01,6.953961024516670530e-01,2.823916604777756620e-02,-2.009348080751819070e-03,-6.260878932127186304e-03,2.094025611877441406e-01
5.309191351860571562e-01,6.782551628452194725e-01,6.973857211186872407e-01,1.048300167377504491e-02,1.083847407151803527e-02,-3.437572618450878900e-03,1.600314080715179443e-01
6.696231035243519480e-01,6.056855426479852422e-01,6.165150975121379551e-01,-3.593256445039146995e-03,5.575058629151106136e-03,8.141500580141470753e-03,6.199762970209121704e-02
5.773683218361866931e-01,6.529560996335022072e-01,6.911706311846628203e-01,1.059999559348604251e-02,2.584788420473632317e-02,-9.852132896416475327e-03,1.126722097396850586e-01
5.248231368924344276e-01,6.264153655041182489e-01,6.907973944679012268e-01,5.223203067257731202e-02,9.909925084941130502e-03,-9.589113169829568614e-03,1.725159883499145508e-01
5.528190212429215933e-01,6.807172439285370524e-01,6.942252737211123126e-01,9.307792563311354656e-03,5.794556580108887328e-03,-8.993761899162277043e-03,1.373731195926666260e-01
6.722218833588506914e-01,6.516274482149084779e-01,6.013145634321278576e-01,-2.212972544697406480e-02,8.375056655934000338e-03,2.206434455108490303e-02,8.444990962743759155e-02
9.377993776776817336e-01,8.064138897427656216e-01,3.914828646288415204e-01,5.031661799300294474e-02,-1.393148449810625022e-01,3.040192419938234636e-01,7.661919593811035156e-01
6.423547513844943824e-01,6.317974373474462002e-01,6.308575993040198560e-01,-6.305466679551016175e-03,5.476281812626743184e-03,7.385766485514791771e-03,2.225211635231971741e-02
6.035085799436499254e-01,6.361741628023097617e-01,6.512917668610072042e-01,8.019589384435412902e-03,-4.530984922556252799e-03,1.212776728722892924e-02,4.985164850950241089e-02
6.276627275541878381e-01,6.222777073986843765e-01,6.533974466847191076e-01,4.031400495491158607e-04,-6.507056253244601282e-03,2.027744333212129057e-03,3.114007599651813507e-02
6.545706096479525504e-01,6.179131684762388943e-01,6.374738820910226256e-01,-2.420005604030668611e-03,-7.639776164113668867e-03,-2.941671869278265558e-03,3.504243120551109314e-02
6.062894923499997368e-01,6.356225696817431325e-01,6.386109341535908257e-01,8.941481284004130364e-03,-6.777747712168973732e-03,1.097310757460647282e-02,4.118141159415245056e-02
6.747447320279794658e-01,5.868449134605995265e-01,6.488880489308708199e-01,-6.434994008466310422e-03,-1.118333853970572382e-02,-9.551596034786160802e-03,8.303780108690261841e-02
6.212860245787045210e-01,6.328867900587604733e-01,6.423393828970387354e-01,4.448430976206634371e-03,-5.006861250843762899e-03,7.295757972528323435e-03,2.505678497254848480e-02
6.231403859920150445e-01,6.117251777723472506e-01,6.493827954648626610e-01,5.647523212322499639e-03,-9.441534027362506049e-03,7.205060963737302746e-03,4.046459496021270752e-02
6.725614427676794849e-01,6.468842040572441165e-01,5.747921445141965791e-01,9.541937664650059284e-03,6.819009707355412099e-03,-9.759360775774826233e-03,9.168472141027450562e-02
7.410149392116031075e-01,6.684782710395587024e-01,4.339409934495356835e-01,3.600186032045980117e-02,9.806002869538101019e-02,-1.297728136930448861e-01,4.006750881671905518e-01
6.285772735517862753e-01,6.266161350020216236e-01,6.298363933022209649e-01,1.089196614339000592e-02,-8.309819154284865672e-03,8.774521049814449844e-03,2.831857092678546906e-02
7.942091900651798708e-01,5.798626464914192757e-01,3.760343592644604382e-01,-6.100919901154187169e-02,-1.008398026365190936e-01,-2.613920635414289095e-01,6.146788597106933594e-01
6.805064208162033834e-01,6.289078803826776420e-01,6.031616787204263641e-01,-1.259479077508277034e-02,-1.702578381171226257e-02,-2.757393970515769829e-02,9.099575132131576538e-02
6.736804240633803564e-01,6.258796662595796922e-01,6.027465151707499524e-01,-7.305618686699722093e-03,-8.501047139633062999e-04,-4.521370079943480905e-03,6.441622227430343628e-02
5.961233332341271396e-01,6.365818548746035033e-01,6.792352550417272150e-01,1.748171578642676582e-02,-9.972601585187795131e-03,1.305688575497938007e-02,8.311759680509567261e-02
4.100492503182495696e-01,9.704530135330176055e-01,7.938723045388327293e-01,-2.876563205525973707e-02,2.468944985808653181e-01,1.392488215086844748e-02,6.574278473854064941e-01
7.347751804652736807e-01,6.309136721411693349e-01,6.120728824182056771e-01,-8.066586264795262695e-02,-8.987226983788229595e-02,-1.475370637130572482e-01,3.495033681392669678e-01
7.080283749610051247e-01,4.072259382661584937e-01,6.561017051901306685e-01,-1.351094390144126078e-01,-8.032724811913834195e-02,-1.892991380835778170e-01,5.090996026992797852e-01
5.994445176202027881e-01,6.797138019830232247e-01,6.157697616349102621e-01,1.044837405845088071e-03,8.740705249681807870e-03,-2.433707407994329091e-03,7.516315579414367676e-02
5.293458479285404472e-01,6.945709922453930929e-01,6.792648787721654591e-01,9.055855139087770622e-03,9.173565333489556994e-03,-1.198965774367556289e-02,1.610416620969772339e-01
7.213754849455009666e-01,5.086182687833730176e-01,6.649181159971682131e-01,-1.385609914884250709e-03,5.400303387161252237e-03,-8.655368164686291776e-02,2.429181486368179321e-01
7.980168253138800738e-01,5.706536502725454429e-01,6.948950604584159807e-01,-2.721298499809072027e-02,9.415927371755036844e-04,-1.403846391516444803e-01,3.165909945964813232e-01
8.107561848270472549e-01,6.716173694587658227e-01,5.604007778889125158e-01,-2.999710505138428879e-02,-5.034889215936390328e-02,-1.554846997749328164e-01,3.606026470661163330e-01
6.315660540921406163e-01,6.626392057090713106e-01,6.100183195987932683e-01,-9.227101179576176551e-03,3.925446332166446228e-03,2.081167096442608760e-03,4.913289099931716919e-02
6.521983367221078076e-01,6.365292584834882916e-01,6.040075480345314940e-01,-1.340939070634159999e-02,5.951281397789127264e-03,7.880360946986025503e-03,5.142718926072120667e-02
6.629405787733416711e-01,6.515725049276113179e-01,5.875805403389164905e-01,-1.469243301863514678e-02,1.027698666549176423e-02,6.827471760642734450e-03,7.782008498907089233e-02
6.588887021591163240e-01,6.523341271500465721e-01,5.692994962104851453e-01,-1.815372321837493627e-02,1.662621325504802169e-02,1.720491556793534577e-02,1.009354367852210999e-01
6.532191812458545410e-01,6.688167298226819213e-01,5.405444969465398319e-01,3.817742164656412474e-02,-1.035776775956890328e-01,8.403229515006623018e-02,2.691433727741241455e-01
6.748523568152455798e-01,6.950494777370711530e-01,5.667447574062217663e-01,-3.711949082938724442e-03,-5.451457070496017882e-02,-6.554158896817224682e-03,1.528540551662445068e-01
6.586035914415798720e-01,6.912669779652313995e-01,5.739440457254061378e-01,-9.030338577794844168e-02,1.344308477298861160e-01,1.333951317185717023e-01,3.782343864440917969e-01
6.818019499572098852e-01,6.758558779211567558e-01,5.617327879147419045e-01,-1.158861329346606156e-02,7.414290281039002430e-03,1.124956595117306349e-02,1.211836636066436768e-01
6.733948790192337830e-01,6.180101699466407084e-01,6.316107046464186636e-01,-1.402195211786862357e-02,1.160778245403010570e-02,2.195485563066728110e-02,7.028010487556457520e-02
6.500480423185226453e-01,6.855986820795308967e-01,5.561239569123738180e-01,-5.202254939238070038e-03,-1.334254046906877683e-02,8.340520198804030451e-04,1.184989064931869507e-01
6.801419797759050700e-01,6.804032096762413495e-01,5.620305165721751761e-01,-1.035413919922253088e-02,8.065648691760055403e-03,9.728428664827943467e-03,1.215810701251029968e-01
5.252561401462806367e-01,6.730001990422740388e-01,6.541823399619343116e-01,-4.909308095892465224e-02,6.966520947555183974e-02,3.293122179412073108e-02,2.108214944601058960e-01
6.774425240248598268e-01,6.489308596954991293e-01,5.711659549535895719e-01,1.213257589784771939e-02,-4.889468715151183177e-03,8.366829421447674608e-03,9.899915754795074463e-02
6.689396393891553494e-01,6.151192941926231228e-01,6.149218757727028528e-01,-4.218108831725574624e-03,1.515009776741847594e-03,2.648148257234283695e-03,5.466804280877113342e-02
6.695517608703411838e-01,6.319736665843453949e-01,6.063015565065172918e-01,-8.508922118943978291e-03,2.694712477190564122e-03,6.621581381650015925e-03,5.836441740393638611e-02
6.996204899338882566e-01,5.976761948700014537e-01,5.995957768677603328e-01,-2.918704144658847664e-03,4.413834298589643405e-04,2.723694630401584174e-02,1.115899980068206787e-01
6.312699379707439329e-01,6.728478718279017334e-01,5.838504280490453002e-01,-1.189354185250306693e-02,1.070927617968214264e-02,5.239649294280212914e-03,8.246051520109176636e-02
6.618275025783514343e-01,6.145374997371406689e-01,6.145610255287615731e-01,-7.864596690844303378e-03,9.719903939164113021e-03,8.602429045483278580e-03,5.409457534551620483e-02
6.863922597199991760e-01,5.507098225433610938e-01,6.146315986561829980e-01,-1.295219701942567671e-02,1.158559125327592899e-02,5.863889657649884457e-02,1.582535058259963989e-01
6.463479160424907555e-01,6.200113565289733231e-01,6.371302897226104323e-01,-1.543709076154776375e-03,8.472029709547279283e-03,3.438324628833396360e-03,2.817374095320701599e-02
6.533386850850599892e-01,6.219010745502384641e-01,6.068911023646191838e-01,-3.079279724516385819e-02,4.041110598335528881e-02,4.050534102007121579e-02,1.197969540953636169e-01
6.794871597243489214e-01,6.230677602534877568e-01,6.114950125464416741e-01,-8.627523922375408480e-03,9.682898802026286209e-03,2.255318940832307453e-02,7.746303826570510864e-02
6.858701164857455845e-01,6.369173993409231738e-01,5.801231760489824474e-01,-4.016766464512673725e-03,-9.719638342076200328e-04,-2.120291190860043931e-02,9.900561720132827759e-02
6.712655619130971640e-01,5.904893306264351605e-01,6.322537191878305762e-01,-4.552122461673251304e-03,1.306139179227985489e-02,1.765624796597660764e-02,8.002929389476776123e-02
6.859881266443013104e-01,6.240490170463590669e-01,5.930648951760145726e-01,-3.285090540202037241e-03,-6.775809716423200971e-04,-8.302383582877314108e-03,8.340347558259963989e-02
4.798807288856150599e-01,7.026580765094818659e-01,7.413036872872358352e-01,5.457882119012223698e-02,-6.978746678295940330e-03,-2.136807176863748589e-03,2.623527050018310547e-01
6.741579147975963471e-01,6.145161611820598724e-01,6.021535659659741357e-01,6.155511230751897420e-03,3.416868884053599845e-03,-9.261920181229956264e-03,6.966595351696014404e-02
7.218743077904802297e-01,5.373817371443924129e-01,5.114953284223378027e-01,-1.142644623586584057e-01,1.246943365799447340e-01,2.375566063947105178e-01,5.427688360214233398e-01
6.978857650424084014e-01,5.806853388532067228e-01,6.218175874716008744e-01,-1.037228373387278149e-02,-2.630895424732147738e-03,-2.332058770105843379e-02,1.121701896190643311e-01
6.581857059014214473e-01,6.460806829752143710e-01,6.271833795431166481e-01,-5.124455275709942359e-02,4.731751719943501355e-02,5.670702152352553177e-02,1.580326110124588013e-01
6.621983706050363905e-01,6.586338854849251856e-01,5.923495943168665123e-01,-2.099229011950731402e-02,2.966692990859809420e-02,2.386422233267434384e-02,1.015553772449493408e-01
6.808598902768164818e-01,6.255700584261025821e-01,5.927560378412521924e-01,-4.802374488509002226e-03,-2.486816294514996033e-04,-8.468997199993905795e-03,7.894651591777801514e-02
6.403160666057493566e-01,7.125358489305670950e-01,6.044158625248789996e-01,-8.425709261423280916e-02,1.408270494393074057e-01,1.067028163224464504e-01,3.522048294544219971e-01
5.827051636967636172e-01,6.308255122511594593e-01,6.704443727015019228e-01,-2.014635500391612905e-02,9.252855170523653291e-03,1.957223898664540648e-02,9.173541516065597534e-02
6.870153223441874957e-01,6.501782029509384220e-01,5.585797973013488793e-01,2.788878587036736773e-03,-1.237614456780042772e-03,-9.112357491821473920e-03,1.157518774271011353e-01
5.819885031945285503e-01,6.131642252959419448e-01,6.747532442104056116e-01,-1.961026800941638448e-02,7.452761967328564927e-03,1.168217606960667704e-02,9.173305332660675049e-02
7.069960823716580078e-01,7.002885456058596247e-01,4.730442181287475290e-01,-8.871364428151794473e-04,2.051211433241376635e-03,4.159547432662847807e-03,2.308161854743957520e-01
6.185946984114712999e-01,6.129509696680890407e-01,6.816691069923793700e-01,-1.246775876825802210e-02,5.950182051034437133e-03,6.030958801922186099e-03,7.104839384555816650e-02
6.379570440545754284e-01,6.721285068689710762e-01,5.887729493194796548e-01,-1.405390153379233731e-02,1.272106274423511797e-02,5.111786557636442338e-03,8.014898747205734253e-02
6.472244057536691297e-01,8.024323633865140248e-01,5.696815392172162040e-01,-2.484553939461324728e-03,-1.473058208082645981e-01,-1.241699415989817651e-03,3.275024294853210449e-01
6.970152113901350033e-01,6.771686174558447791e-01,5.250113358560355437e-01,1.399227894748859054e-03,5.378169789037302861e-03,-1.149208211523863703e-02,1.644821614027023315e-01
6.165355518129839174e-01,6.122095797992961330e-01,6.633061131068821448e-01,-7.666054656695208899e-03,9.046952897658088952e-03,3.853311847647508063e-03,5.361827090382575989e-02
6.605472488201528103e-01,6.098036684011712838e-01,6.178936210711288846e-01,-1.441989578295477985e-03,-9.054236623392834110e-03,-7.805632276564969559e-03,5.162174254655838013e-02
6.179238137969487177e-01,6.329631997646936181e-01,6.609528586768491643e-01,-1.760058960722998833e-02,1.358353264704960893e-02,1.027624441820081634e-02,5.683515220880508423e-02
6.860451780237810659e-01,6.523992151453097410e-01,5.568155061312267673e-01,-5.138713775635693308e-03,-2.975520372960987993e-04,1.232577322423256301e-02,1.184042245149612427e-01
9.064238423274204592e-01,6.669181713048847326e-01,6.254432793462822993e-01,1.246904431824602671e-01,-1.329739266570855449e-01,2.859450167317796887e-01,6.434279680252075195e-01
6.709129690907691401e-01,6.602555215553796986e-01,6.069314440369156793e-01,3.027085270346634854e-02,-4.953187050665149027e-02,2.178583740176768396e-02,1.227126643061637878e-01
5.997680914578651379e-01,6.293305389059198340e-01,6.766913369987366256e-01,-5.514224282217694388e-03,3.229517327074017934e-03,7.073912461915315801e-03,6.920776516199111938e-02
4.740951642434008129e-01,6.891902351394301185e-01,7.246519917028007018e-01,-6.083765143045961193e-02,1.091413305023862523e-02,1.036467277153564279e-02,2.587167620658874512e-01
3.368514194471382561e-01,8.340326553556456357e-01,8.416942886946030544e-01,-2.461259217054866666e-01,-8.579661725470322242e-02,7.513206333654634528e-02,6.868833303451538086e-01
4.552959404370975349e-01,7.463172356413110275e-01,7.641807043295868462e-01,-7.071739585062609967e-02,6.007697369769905010e-02,7.033788498469032997e-04,3.406511545181274414e-01
5.369981559974260632e-01,6.950931033370097989e-01,6.581211785958811511e-01,4.414769420414804669e-05,-2.675451710875581188e-02,-4.600372834671557706e-03,1.507540047168731689e-01
7.239253327534781457e-01,7.866196244649125147e-01,2.930174063549539354e-01,5.311431484481953652e-02,1.838974598594468879e-01,-1.063139433973625952e-01,6.003780961036682129e-01
2.763983954582985847e-01,7.639098676112037190e-01,7.982117534766586253e-01,-1.984038523128033582e-01,2.362670286369604987e-03,-5.168846899029307107e-03,6.113556623458862305e-01
6.882353440320503335e-01,5.971635716087212442e-01,5.948097159725339589e-01,3.919260661768519949e-02,-8.625741845087991910e-02,1.369506369460893325e-01,3.028359711170196533e-01
6.101773012118677508e-01,6.692412599703736475e-01,6.192312822360217517e-01,-3.303223902234818637e-03,-6.464169691342970363e-03,-5.744335397488967675e-03,5.738331004977226257e-02
3.217597701655414699e-01,7.507373361519139587e-01,7.992390543865600661e-01,-1.720470563059564306e-01,9.426935402532478359e-02,9.771316605532229249e-02,5.926926732063293457e-01
7.721707326482657452e-01,4.273289438535928797e-01,5.004410800688423588e-01,-5.703877838146573925e-02,6.627031865265575750e-02,2.850939906196520712e-01,6.048308610916137695e-01
6.961669265918677407e-01,5.133838815982002535e-01,5.453377021701806271e-01,-1.416401507769875501e-01,1.601325483876994415e-01,2.479663171516210129e-01,5.917474627494812012e-01
7.084220933631562023e-01,6.852977572410278162e-01,5.148980732414466521e-01,1.125023455107249798e-03,8.155558206836397870e-04,1.357872019293389007e-02,1.845808923244476318e-01
6.300248413578639628e-01,6.953759445882997658e-01,6.053988731329076334e-01,5.974350824010704955e-03,3.203564158337499079e-02,-5.003218497095111850e-03,9.872973710298538208e-02
6.143289006889522952e-01,6.810944931304823147e-01,6.163215448938956786e-01,5.091187576273022847e-03,1.269917152184676240e-02,-3.786625474837033902e-03,7.023644447326660156e-02
6.803635020418766777e-01,6.133590868048565126e-01,6.106071992742537757e-01,-5.988504194577331423e-04,4.537043536958325286e-04,2.347547990077776450e-03,6.855493783950805664e-02
6.698533108253539314e-01,6.146582843393553208e-01,6.209165577583998230e-01,1.928213004129129132e-03,-4.744921007086893606e-03,7.014962529434063667e-04,5.310748144984245300e-02
6.873486063284389713e-01,6.246372021378783224e-01,5.987520099089536085e-01,-1.368555754751179989e-03,-6.695040767899013883e-04,5.586649749853336497e-03,7.954027503728866577e-02
6.795299219685398961e-01,6.509948659088279355e-01,5.564608324808918427e-01,-1.573082994877102875e-02,2.375757417097621674e-03,9.312137005887566321e-03,1.160513833165168762e-01
6.213500999974768124e-01,6.615675361359719675e-01,6.245511196766296846e-01,6.411364162974405798e-03,6.967958431133114243e-03,-5.845962642907169028e-03,4.324872046709060669e-02
6.411446467318259179e-01,6.448393353357650959e-01,6.166694785041157978e-01,1.875388420836991352e-02,-1.703671259866884266e-02,1.944533565984251158e-02,6.134614348411560059e-02
6.161477580665412068e-01,6.685020605351543743e-01,6.158314459126349449e-01,2.106258999660674293e-03,1.562771849483038996e-04,-1.600198158674614188e-03,5.271335318684577942e-02
5.754866998759730068e-01,6.860638514412875644e-01,6.248300746951879203e-01,-2.347976424502077469e-03,1.484939469086821520e-02,4.793404451958452675e-03,9.976375848054885864e-02
6.729955640826348340e-01,5.953182642103987954e-01,5.997747860637998585e-01,9.489291132451314198e-03,7.740350991064615799e-03,-2.913112594945536579e-02,9.329093992710113525e-02
6.824885557300732764e-01,6.282677549310379250e-01,6.001066170154141233e-01,6.657473593990930784e-03,-1.386571238121193407e-03,-5.775119553473681382e-03,7.415290921926498413e-02
7.939046418559028151e-01,6.555490486197534938e-01,4.881841076019343140e-01,-4.938454138676735133e-02,5.698765712357825586e-02,-3.406961445170972325e-01,6.599924564361572266e-01
6.778026491739763681e-01,6.315271600426325405e-01,5.965063905155115753e-01,2.067734942193687198e-02,5.283129720319060599e-03,-2.388279734568552609e-02,8.981110900640487671e-02
6.682911392560334507e-01,6.151372236881300637e-01,6.209749721907673603e-01,-1.532427065560574165e-03,-1.657995697997250058e-03,-3.707334519224333297e-03,5.104550719261169434e-02
6.099999440356227431e-01,6.587245194507964641e-01,6.158158611563930851e-01,6.391219161039453367e-02,5.632668931248543259e-02,-6.109756019989311809e-02,1.873383522033691406e-01
6.378432792717981803e-01,6.365106850818101902e-01,6.114553623371618007e-01,-1.434877583155952721e-02,-5.506316616596759576e-03,-7.902252030193302954e-03,3.948279470205307007e-02
7.175483204435587625e-01,6.568223859165392975e-01,5.834160175910094726e-01,-1.794595953506850083e-02,-2.920063576790729934e-02,-6.468420938348544424e-02,1.720760017633438110e-01
6.641386489549393479e-01,6.270632710982549929e-01,5.903379017580119292e-01,1.473085004103205815e-02,9.690782749654631989e-03,-1.563477656785823219e-02,7.583541423082351685e-02
6.746372728532794572e-01,6.052553397788629219e-01,6.209594662973051404e-01,3.113040231297013738e-03,6.647382973362005003e-03,-6.774733825267511243e-03,6.534689664840698242e-02
5.604442881682584199e-01,6.852979980692754935e-01,6.480099303513725539e-01,-3.332656343048690829e-03,-8.499647440514065261e-03,-2.495715001156835824e-03,1.122142300009727478e-01
6.291348982151517832e-01,6.078655177437788382e-01,6.714160193609192140e-01,-6.357047186384325727e-03,-8.414669287098575437e-03,-2.672795518331125362e-03,5.911396443843841553e-02
6.737847232638130013e-01,5.803552569525504135e-01,6.315783980948603826e-01,4.306153854129715804e-03,9.173487493530798828e-03,-1.091387807490936356e-02,8.504439890384674072e-02
7.004823006166599475e-01,7.027274015388452755e-01,4.836646899651444453e-01,-1.387629138654519105e-03,-4.893833666032579993e-03,-4.668180513931035822e-03,2.182766497135162354e-01
6.746657825461463975e-01,6.012966394203403953e-01,6.253663698758881173e-01,3.046381679067908591e-03,6.813207084057000887e-03,-3.884935903798421037e-03,6.639869511127471924e-02
6.560471809261034792e-01,6.174427590669669952e-01,6.161428555716941258e-01,1.311921074143861457e-02,1.142552304386718759e-02,-1.320485485795849269e-02,5.452748388051986694e-02
6.559481262840388682e-01,5.952386605483876991e-01,6.340494368074244269e-01,7.557164625131201907e-03,1.520006617534353129e-02,-9.013672429179135290e-03,6.280072778463363647e-02
6.271808950385272530e-01,6.164861353651996945e-01,6.555875222178900730e-01,-4.826166904140963276e-03,-1.780645150799679572e-03,-2.737729226620958054e-03,3.642787039279937744e-02
6.512819457885674623e-01,6.513871811352793806e-01,6.031983846120371195e-01,-1.313960115331255958e-02,-5.042634153248732112e-03,-5.275157360729305737e-03,5.472489073872566223e-02
4.451940307497442295e-01,5.670607963274969521e-01,6.594784566170236451e-01,-2.591299093275841181e-01,-1.533310182275828826e-01,-1.229258131284264727e-01,5.932651758193969727e-01
6.636736291571011526e-01,6.162593966716983784e-01,6.143689660825971677e-01,9.998592523562631340e-03,-4.197238147682959448e-03,5.525565978426068107e-03,5.277952179312705994e-02
6.801182787950237341e-01,6.182878503462256869e-01,6.069958617242843246e-01,6.100601479881152811e-03,-2.446290210556849570e-03,6.672228969229093351e-03,7.008466869592666626e-02
6.796853338348731732e-01,6.002875667287137507e-01,6.259319845276305472e-01,2.878893755315975120e-03,-7.117301151662556134e-03,5.031979007899012833e-03,7.196059077978134155e-02
7.015571687974153647e-01,7.131662041032690302e-01,4.969572069537261938e-01,4.374040868870162496e-03,-9.761915863166900284e-03,2.759176681036435048e-03,2.115118056535720825e-01
6.726938186253382801e-01,7.601209680411555869e-01,5.323789722170695349e-01,-4.723375005477950528e-02,-1.035786203826689761e-01,-9.599863076702447318e-02,3.257682919502258301e-01
6.767341475686788899e-01,6.156489013069685878e-01,6.064604764626837508e-01,3.594401735244869001e-03,-2.572629120778937954e-03,6.575110274128183156e-03,6.756790727376937866e-02
4.790198579622218511e-01,6.087409237571748122e-01,6.768008544399608528e-01,-2.160049356229056250e-01,1.536321391436714368e-01,1.335675350697184960e-01,5.427635312080383301e-01
7.196779947895011187e-01,7.599069839307679430e-01,1.592166331211362640e-01,-2.075133138338536298e-02,1.537646704117150709e-01,7.737725505484734090e-02,6.545734405517578125e-01
6.795399265099181241e-01,6.021908130624241684e-01,6.108247166038276443e-01,1.355676509907530365e-03,-2.729569081432251399e-03,8.458779729741327733e-03,7.504747062921524048e-02
6.360121531880800205e-01,6.294424135974637791e-01,6.322847180560348113e-01,-2.519546568804789406e-03,-5.002889458110702965e-03,-2.182963224037775748e-03,1.187408994883298874e-02
7.699858635728168421e-01,7.347848874855195112e-01,6.145021268154067240e-01,1.794392381725363472e-01,-2.240968355711881188e-01,2.461785489220502943e-01,6.700792908668518066e-01
6.688990264094563098e-01,6.140200221854044127e-01,6.147214132294362976e-01,1.931383099393234153e-03,-1.743442488414040327e-03,7.026480555826883530e-04,5.473112687468528748e-02
6.848260812270028364e-01,6.257740498022550391e-01,5.954324883306562066e-01,-1.499846603896649909e-03,2.242093261730148095e-03,4.999609597542853216e-03,7.934923470020294189e-02
6.785823663211183465e-01,5.742244711503176058e-01,6.198008106062907752e-01,-3.907707845904944029e-03,7.248505655086627010e-03,1.878104804122426516e-02,9.733004868030548096e-02
6.818376124252043535e-01,6.101408177096253604e-01,6.137631457583984096e-01,-1.938809876649394783e-04,7.733130473336594264e-04,2.103131055282476351e-03,7.006438821554183960e-02
7.888270772962340249e-01,7.149046631124394979e-01,2.447546640598744494e-01,2.323727727561117947e-03,-2.021752329020126346e-02,1.205241562567099800e-01,5.532457232475280762e-01
6.993474824398761003e-01,6.819153759362019951e-01,4.989761850332342097e-01,5.500561051351919410e-03,-2.606377433028924783e-03,9.111970767017332079e-03,1.931835263967514038e-01
6.775290684968686694e-01,7.003785353865409347e-01,4.881145438516709678e-01,1.369896054133334321e-03,-9.569091360112734826e-03,1.448909493906070170e-02,2.040541917085647583e-01
6.709632220823578130e-01,7.339487939180548981e-01,3.517469103440539202e-01,-6.599403244934000379e-02,1.950763489718890242e-01,1.449067809686608588e-01,5.623131990432739258e-01
6.768192046333336709e-01,6.169964811412446126e-01,6.115112747065869492e-01,3.677073486342138323e-03,-9.298975732044673483e-04,2.074086915871459127e-03,6.319057196378707886e-02
6.862760482591543365e-01,6.255325324492667649e-01,5.985834125104828596e-01,5.312197736632989255e-03,-2.068980011699784148e-03,4.510160313228959300e-03,7.881331443786621094e-02
6.955859785297474618e-01,6.514396792589108864e-01,5.587038192182236518e-01,2.965777228116651173e-03,-1.337924845772683760e-03,1.108789180773358737e-02,1.226513832807540894e-01
6.782254611788142151e-01,6.131801246531004557e-01,6.081330249264674803e-01,1.304640520233268659e-04,-1.110947136288349246e-03,2.130555873726671864e-03,6.783826649188995361e-02
6.581096197957528871e-01,5.991361441701943402e-01,6.583109880345823228e-01,-3.216683422346419685e-02,-2.027025675404889316e-02,-3.163340686344847524e-02,1.040604114532470703e-01
6.889396100115373622e-01,5.849934572110717657e-01,7.077260136152353498e-01,-2.800672420404197727e-01,-6.813168108435166404e-02,-1.474513697874611784e-01,5.723416805267333984e-01
6.795399936015186215e-01,6.239187491560032051e-01,5.978427042590328533e-01,1.802838687687734632e-03,-2.306755654991825277e-03,4.483398606173652490e-03,7.287030667066574097e-02
6.852672316821388776e-01,6.184056397386882287e-01,6.132226640648617000e-01,3.286156627820301102e-03,-2.299140036486524170e-03,1.145762765743801523e-02,7.270463556051254272e-02
6.577436888376713142e-01,5.482011626747151922e-01,6.710758228720338225e-01,-8.194556976054137576e-02,-4.498445278959138649e-02,-1.193781765803798023e-01,2.874147295951843262e-01
6.734385792965207340e-01,6.310084735420418145e-01,6.017148850321992759e-01,1.084513383928431378e-02,-3.458041788470795404e-03,4.983350219139709089e-03,6.606500595808029175e-02
5.496685785450410311e-01,6.909158603504977902e-01,6.141704412033830440e-01,1.195913545382521967e-02,6.120864476790757736e-02,-1.380792906983369442e-02,1.650487929582595825e-01
6.945050831340814357e-01,6.006387023716152074e-01,6.296169280901430243e-01,-8.055431520002898863e-04,-4.278002075746379154e-03,-3.323023655739545251e-02,1.014896556735038757e-01
6.358699813744064233e-01,6.285333855377608359e-01,6.241081853690002568e-01,-9.469946478701507173e-03,-5.741626742739680198e-03,-6.184025053638874704e-03,2.425982058048248291e-02
6.315526765412474708e-01,6.328526900416756584e-01,6.337115354923187338e-01,-4.889651100124275257e-03,-4.599531043512310527e-03,-5.500678227991409770e-03,1.514957658946514130e-02
5.362336376736139831e-01,5.358745813635178434e-01,6.646866674170465172e-01,-2.229571010383116780e-01,-1.507545282131626252e-01,-1.232248737472522171e-01,5.285924077033996582e-01
6.017452173444249874e-01,6.142012781017738288e-01,6.802505376113102686e-01,9.963313841463285886e-03,-1.500149656129405248e-03,2.951737053542117638e-03,7.530646771192550659e-02
6.354356162009074938e-01,5.838927022537198086e-01,6.954937998146694111e-01,3.377063447333204793e-02,4.251173914333882496e-03,-3.698130412881912681e-03,1.134717762470245361e-01
5.916429875227146029e-01,6.222901946993627531e-01,7.058742429922414408e-01,6.511713406364826040e-02,3.209384132031294079e-02,-6.208132093697137609e-03,1.625224649906158447e-01
6.538544137538566670e-01,6.300566322177018064e-01,6.250029953262409288e-01,-1.143822668444971534e-03,-2.457734494282050666e-03,-1.531563415283747169e-03,2.722540125250816345e-02
6.302486353603465874e-01,5.754436797761302014e-01,6.916205172450778926e-01,1.859517373972804574e-02,1.935481444364614513e-03,4.242406622648527137e-03,1.060006991028785706e-01
6.813705109934742321e-01,7.052930730968272055e-01,5.297292326111733285e-01,1.507287364290392073e-03,-1.149161904808049771e-02,1.631462352403011693e-03,1.661504954099655151e-01
6.296153970879925232e-01,5.747141302387239747e-01,6.841285655655640063e-01,1.305508546346093035e-02,-1.380530769774103439e-03,-1.866992134247428268e-04,9.744641929864883423e-02
6.115791071316702965e-01,6.622262026068235219e-01,6.247476685107667960e-01,-5.945674958316218665e-03,-5.848785635737097956e-03,-8.769109888706558623e-03,5.010947957634925842e-02
6.965611643066130787e-01,7.016060413016712571e-01,5.172375982392063420e-01,2.883918638338478502e-03,-9.288490591448839498e-03,6.299583808066765503e-03,1.830024272203445435e-01
6.138516949072995166e-01,6.132496375725416948e-01,6.819450356199444618e-01,1.490842588300222288e-02,-2.629574661983699710e-04,-8.706070573290210007e-04,7.312541455030441284e-02
6.305125255090218150e-01,6.517757922065258169e-01,6.151030400809247567e-01,-1.126375420978395492e-02,-5.855009630110460765e-03,-4.676482817475438938e-03,3.957654908299446106e-02
5.888579479553831542e-01,6.309707767371873777e-01,6.856606644417729823e-01,3.570139581231055598e-02,2.936630275929131076e-03,2.391264527930151568e-03,1.045677512884140015e-01
9.075733853520565608e-01,4.271965267281608858e-01,6.396958559068066652e-01,1.209176707024903381e-02,-1.086734121771742306e-01,-2.659847652913079896e-01,6.495769023895263672e-01
6.527069441606906386e-01,6.525573615240750636e-01,6.034367442929003955e-01,-1.204381876576424322e-02,-4.813134568651873148e-03,-5.092948155819407643e-03,5.479670315980911255e-02
6.186462891848342194e-01,6.208639356583434132e-01,6.786278945472727919e-01,1.113758458742770095e-02,-7.765214897371388453e-03,7.106963438319340888e-03,6.460845470428466797e-02
6.214660376386322849e-01,6.295705808208381660e-01,6.560148941192899263e-01,-2.084595194796918464e-03,-2.626847179106007665e-03,-5.580471418134141937e-03,3.326359763741493225e-02
7.361786285344129599e-01,4.981186614075215902e-01,9.244138750053059184e-01,-3.026151941505530463e-01,-7.444002419561650263e-02,-7.619269283824588179e-02,6.675958037376403809e-01
6.282483623278468654e-01,6.720369946393766059e-01,5.967220852410253240e-01,-8.577024711082381278e-03,6.819669849899115052e-03,2.470822221979308755e-03,6.834015995264053345e-02
6.342827949490990047e-01,5.999601394383775599e-01,6.974928394801001019e-01,2.999537699308570809e-02,8.118859324692639934e-03,-9.588271482383560820e-03,1.025466322898864746e-01
5.792766295126329235e-01,6.217639586155059295e-01,6.789533406798184956e-01,1.626286528851644125e-02,3.722654055057849926e-03,-8.539286391143747698e-03,9.251701086759567261e-02
6.568495079396554637e-01,6.458281118828814726e-01,6.653676421645663419e-01,-1.386505722422869957e-01,-1.189636861717928290e-01,-1.299651154481744064e-01,3.887026309967041016e-01
7.007062497676781465e-01,7.022575056293177687e-01,5.013583651450832512e-01,-3.499354587127159809e-04,-2.345061288063514729e-03,8.663737736050333010e-03,2.007318437099456787e-01
6.501768614631026066e-01,6.771750684071572435e-01,5.649437853374319474e-01,-1.035725057176639131e-02,-8.563456808403976245e-03,-4.709523085615493175e-03,1.044177934527397156e-01
6.149299454929543218e-01,6.147031130095155227e-01,6.817635052264269246e-01,1.604153192117279553e-02,-2.836944710453796151e-03,4.800318083432254627e-03,7.312456518411636353e-02
6.158409874489708669e-01,6.053710521803560285e-01,6.760858215595231258e-01,8.581222821241372978e-03,-5.319676445911001444e-03,2.189597080346957110e-03,6.848365813493728638e-02
6.163014709488837672e-01,6.148909430917215424e-01,6.767736159620734160e-01,1.464440535533636026e-02,-5.443493276581804104e-03,4.415524126297565820e-03,6.734187901020050049e-02
6.090513025565126304e-01,6.155389170347403960e-01,6.779793479787703525e-01,3.168460752157420662e-03,-9.443027792184189079e-06,1.083173082529935135e-03,6.617872416973114014e-02
5.774014870402303101e-01,6.308605178291685212e-01,6.849529770188824696e-01,1.313838861853586747e-02,-3.080756865583175481e-03,5.115979127430756584e-03,9.643877297639846802e-02
5.769661994758231716e-01,6.492615487510458028e-01,6.778345771950835541e-01,7.971420476850062803e-03,-3.721384881571729135e-03,1.046043022323435955e-02,9.310838580131530762e-02
5.936349650380728926e-01,6.720582679771414103e-01,6.337746671236692553e-01,-3.852433913957506624e-03,-1.350703934533601346e-02,-1.187191447503148367e-02,7.502128183841705322e-02
6.500952027091727592e-01,6.977252734353032171e-01,5.683327077197768418e-01,3.408663943572288590e-03,-1.140370311279901606e-02,3.146069505085284396e-03,1.153376176953315735e-01
6.158840377608200134e-01,6.805033642616826750e-01,6.094826520014027249e-01,2.259808453255964748e-03,-2.349676098203662411e-03,8.183337297401737515e-04,6.829480826854705811e-02
6.091325686356474645e-01,6.138426949701036861e-01,6.807850595324529408e-01,2.893477580853132721e-03,-4.284075919065672778e-04,6.232705233953705426e-04,6.961037963628768921e-02
6.791419683580283140e-01,6.785171786316691600e-01,5.302671619023616723e-01,9.029775693166704892e-03,-9.501187929444220720e-03,9.225989542959594364e-03,1.511352658271789551e-01
6.499014410620330695e-01,6.140310555386522262e-01,6.377980645795139347e-01,-1.271466717750661425e-02,1.044669698421170530e-02,1.328390809643506532e-02,4.838180169463157654e-02
6.984398262892361764e-01,4.814453500027262578e-01,6.943907529934814082e-01,-2.502121078658381403e-02,9.167987767395521098e-03,4.248548283403531800e-02,2.318830788135528564e-01
6.160580676161150349e-01,6.381284240679658826e-01,6.549941480071542754e-01,3.246039450424243519e-03,-2.988823770031852779e-03,7.466691573901036195e-03,3.700607642531394958e-02
7.441946613973250413e-01,4.235382029546121974e-01,6.387290244429625341e-01,7.324548402110031553e-02,-6.690293616556163003e-02,2.009200278462407729e-01,4.803692400455474854e-01
6.705678539956821949e-01,6.223764636605664258e-01,6.140841296991289555e-01,4.925409392967385579e-03,-2.259970904894429387e-03,8.026412767345662402e-04,5.367332696914672852e-02
4.837401157237056770e-01,7.877503244826670192e-01,7.091828989202373368e-01,2.788018854354505360e-01,-1.453157805881705456e-01,9.368669082680441962e-02,6.305416822433471680e-01
7.400076695061156284e-01,3.375630882860010118e-01,8.106577283467210071e-01,1.200945047316598624e-01,8.662708039134678004e-03,3.651165439640029903e-02,4.928268492221832275e-01
6.397254015413577077e-01,6.288835957053138248e-01,6.328934782306571138e-01,2.824762625406828515e-03,-5.997768625576053309e-03,1.948389502892928712e-03,1.527729537338018417e-02
6.501994323688341515e-01,6.526686390496792001e-01,6.026265520797408071e-01,1.298437628841897680e-02,-5.683396432035494467e-03,3.883117491258123756e-03,5.508778616786003113e-02
6.803242701525207270e-01,6.255421362695903209e-01,5.982191286608102843e-01,-3.938897766211760937e-03,-6.704458096287015199e-04,5.594488899415174174e-03,7.339093834161758423e-02
6.696934123552275020e-01,6.243918039593883140e-01,6.007859714390035855e-01,6.489183620355069328e-03,-3.686632313025283228e-03,4.567700492026456963e-03,6.251837313175201416e-02
6.965283868884849516e-01,5.478817196088697772e-01,7.613737754597027507e-01,2.972715475608213032e-01,-6.378933770975710182e-02,1.412694785729862734e-01,6.108431816101074219e-01
6.442899102555816881e-01,6.209017601291374477e-01,6.323754707557122101e-01,4.535742048991730536e-03,-8.078165814931616978e-03,4.209010292907044981e-03,2.685031108558177948e-02
6.528753097615803691e-01,6.363686806864826684e-01,6.128603894803839047e-01,1.043404717789527154e-02,-2.872655306297886794e-03,9.775096505832156588e-04,3.959017992019653320e-02
6.966349569675784892e-01,5.594346719107899935e-01,6.681135512161936463e-01,1.008698253155056526e-02,-8.458173534108034963e-03,5.028612629703424486e-02,1.543703079223632812e-01
6.273856508609633176e-01,6.297841811128398470e-01,6.414393586910900336e-01,-7.201155398553614907e-04,-1.704621092488154636e-03,1.010741208372895441e-03,1.352364942431449890e-02
7.874136694188236252e-01,5.012111851686058550e-01,6.878238804588873156e-01,-7.487546463691344134e-02,6.166823691099541233e-02,9.637782827311182354e-02,3.455736041069030762e-01
8.007636928819634736e-01,4.332164100905125381e-01,7.775288068451140511e-01,1.330548773740304960e-02,-1.252695773895267598e-03,5.805438345210218315e-02,3.711302876472473145e-01
6.254398397721844249e-01,6.316525183238255181e-01,6.400399766578184213e-01,-3.888915062316369679e-03,-2.958984863581323645e-03,-5.144325653669852561e-03,1.766593940556049347e-02
6.518073933604852099e-01,6.298216522439604725e-01,6.141362679929828206e-01,-1.145090570298583875e-02,-4.212650718409600981e-03,-4.813997683361653269e-03,3.987971320748329163e-02
6.418604779999191878e-01,6.405764560644634509e-01,6.267144345931537908e-01,-4.249913932508710135e-03,-1.224643211740179946e-03,-1.713946164483346694e-03,1.670631207525730133e-02
6.524425818752914719e-01,6.354554030807890719e-01,6.146937628711899304e-01,-8.811030424748159465e-03,-4.209929707474240057e-03,-4.936672371356429570e-03,3.783486783504486084e-02
7.614883777507731599e-01,8.670681790309878734e-01,5.452456617056253840e-01,1.292304315905359047e-01,-2.597737641595477265e-01,2.146442336055622568e-01,6.866615414619445801e-01
6.228875617041430557e-01,6.283065114871692058e-01,6.517969993964388697e-01,-4.490501577516263151e-03,-5.423334511279412178e-03,-6.718198496054077901e-03,3.150548785924911499e-02
6.049267750045249636e-01,6.386763620032351874e-01,6.518040669350172456e-01,-1.191158136640787027e-02,-3.775273573347020465e-03,-1.502821372823388672e-02,5.385520309209823608e-02
5.584509145478697700e-01,6.802583343958901185e-01,6.569114331403492768e-01,2.272993058424112658e-02,-4.911832124641746927e-02,1.593541084349959711e-02,1.486199498176574707e-01
5.534667665672357018e-01,7.098562740848023411e-01,6.989392566501496651e-01,9.660569987702381789e-02,-1.023174941099311147e-01,5.676367542886482515e-02,3.032169044017791748e-01
5.950018595382867703e-01,6.874491732875721572e-01,6.804042587296916800e-01,1.371119037039721100e-01,-1.483121368781383509e-01,7.559054239774939954e-02,3.840249180793762207e-01
5.255361566084686409e-01,6.713909656930091563e-01,6.970066177557373566e-01,2.057353552662872231e-01,-1.616727187010312261e-01,1.345487091318914308e-01,5.342015624046325684e-01
6.249985724914118856e-01,6.613388673884840196e-01,6.271654462982175771e-01,-6.490925954194917344e-03,-9.891143279418774387e-03,-8.006867854434499693e-03,4.311377927660942078e-02
6.266782287432463017e-01,8.107911980888488079e-01,5.828986443842565368e-01,6.323568682835868648e-02,-3.016472586029236291e-01,1.893251898061659166e-01,6.605877280235290527e-01
6.085924948066403495e-01,6.808163921399945639e-01,6.122637053201738233e-01,-6.068176453270543273e-03,-1.372869609371970764e-02,1.496771522131996532e-03,7.514812052249908447e-02
6.227189503498975487e-01,6.542888626546140562e-01,6.218806559516063537e-01,-2.181845997123386428e-03,-6.094787279355889714e-04,-1.779995998248529339e-03,3.238406777381896973e-02
5.494737123636703746e-01,6.901807246038371702e-01,5.427448126929343974e-01,1.567353589886698872e-01,-2.792301946811234781e-01,1.377126407296994648e-01,6.207183599472045898e-01
5.286366841087996038e-01,6.816756589980812464e-01,6.886677164672212470e-01,1.002486040272879478e-02,-1.144539956947977777e-02,1.129651062363684622e-02,1.600537151098251343e-01
6.011971782696750033e-01,6.781588582726381098e-01,6.366153527636915221e-01,-9.670499574506699961e-03,-2.914692215183357221e-02,-5.589434587265004750e-03,8.587557822465896606e-02
7.052035966957230784e-01,6.869004102656685040e-01,5.015903833183951166e-01,-1.199709142516668797e-02,-4.469560785314260695e-03,-2.657213383687257249e-02,2.016842365264892578e-01
6.242539624925196318e-01,5.998232541130564810e-01,6.884325085796525467e-01,-5.575158931267899798e-03,-3.485500053755997800e-03,1.551197123893967170e-03,8.012855052947998047e-02
6.360297703096926547e-01,6.504455410688287920e-01,6.219793005922887863e-01,9.746656064438445274e-03,-2.885756634012147208e-03,3.383482462267306187e-03,3.085606917738914490e-02
7.509012238223931046e-01,5.409063177484909613e-01,7.055711386478180636e-01,-6.826486658925225159e-02,-4.776752509899730853e-02,-1.247333828995710048e-01,3.226985037326812744e-01
6.489283834111144733e-01,6.728933666917643608e-01,5.763184520364091901e-01,9.856822533166754996e-03,-7.237292765002473899e-03,6.464019726331805132e-03,9.033589810132980347e-02
6.216418937466567929e-01,6.468547647110438614e-01,6.262936270616952239e-01,2.674212121438393226e-03,-3.571282116872256506e-03,6.537801922956494420e-03,2.698126994073390961e-02
6.445343138087256118e-01,6.322467397800032307e-01,6.214714670592266232e-01,6.467162651247764307e-03,-3.354367871790598938e-03,3.882071275010291842e-03,2.457503415644168854e-02
6.434430030727040783e-01,6.360720538876512009e-01,6.183595685648323181e-01,8.146991156384756835e-03,-1.242214879185234112e-03,3.256329381271890009e-03,2.709578536450862885e-02
6.085260431784620394e-01,6.334052276231549872e-01,6.474960949744709149e-01,-8.814107000362197963e-03,5.240493756175287898e-03,1.087819225486271781e-02,4.287837073206901550e-02
6.243867831386031853e-01,6.320202043823628379e-01,6.472521002078406305e-01,-1.759384680390991499e-03,2.263788804535721982e-03,5.878138246824779131e-03,2.312724106013774872e-02
6.520350910428243107e-01,6.865676080224624167e-01,5.674619750434776178e-01,-5.013908488648449475e-04,-1.150254555386796308e-02,3.449465811177544923e-03,1.081619411706924438e-01
6.306823820722903262e-01,6.235143931539454121e-01,6.425134384939256149e-01,-3.218065691758119091e-03,6.056066539981186207e-03,2.543963600834199014e-03,2.089664526283740997e-02
6.064363446863181295e-01,6.322502007158599113e-01,6.514714963690395599e-01,-7.191067189188051281e-03,4.267123741664810566e-03,1.125258257305227806e-02,4.606094211339950562e-02
6.316589674924671938e-01,6.330556289325511843e-01,6.433757958968886470e-01,-4.296056113169391746e-03,5.622007621560563481e-03,4.631722897789098715e-03,1.836894266307353973e-02
6.283307039682367590e-01,6.249464759336530451e-01,6.541181024070934491e-01,-2.171260401411807817e-03,1.716383220998845887e-03,2.039693316124113406e-03,2.826969139277935028e-02
6.210103495669212492e-01,6.242299614580754108e-01,6.532184502229035905e-01,-1.251828047630838695e-03,5.159006897769225983e-03,2.010423994560989018e-03,3.225992619991302490e-02
6.621474033286327554e-01,6.220082812514083903e-01,6.178066074856595202e-01,4.267467827153300329e-03,-3.085225093567174875e-04,1.458337561422352055e-03,4.311327263712882996e-02
6.145214679709933847e-01,6.115787400012940855e-01,6.812474669269300565e-01,-1.357970358678636455e-02,-3.984646993222183860e-03,-5.725934394385956416e-03,7.318873703479766846e-02
6.340785655479049820e-01,6.315900254913801026e-01,6.325634540117744953e-01,7.633425642841973552e-04,-1.333849932530884342e-03,7.577208017220251690e-04,3.677763510495424271e-03
6.434033045482905333e-01,6.592122404377680489e-01,5.971401339060656843e-01,-1.409775063650967747e-02,2.271489838709490894e-02,1.883681454007973127e-02,7.956250011920928955e-02
4.469187233386870406e-01,6.760152386599942442e-01,7.172220434918644694e-01,-1.060654396378295922e-01,-6.159391592921099889e-02,-4.365399272836380240e-02,3.383365571498870850e-01
5.870981692569128274e-01,6.988094020639953330e-01,7.444180269935581906e-01,-9.814200769251495149e-02,-1.129397867573698061e-01,-7.082092469298706394e-02,3.191599845886230469e-01
6.101018806340863243e-01,7.012670908512336210e-01,7.018048360939268537e-01,-1.080027663890484324e-01,-1.035228390479797644e-01,-7.096368931232402422e-02,3.010194003582000732e-01
6.468024460585066748e-01,6.248709287576347249e-01,6.247298227631722378e-01,-6.124294897641048910e-03,-6.295378734287870003e-03,-6.693177262409732639e-03,2.915335819125175476e-02
5.671611502701459084e-01,6.502833595684988088e-01,6.754872137444370983e-01,-1.561064053667302921e-02,-9.648095102377575796e-03,-1.706388757634591177e-02,1.073470935225486755e-01
6.155251689436087581e-01,6.711932998187642996e-01,6.226021950022035956e-01,-2.434795139528512890e-03,1.644471475143398798e-03,4.703549089053536691e-03,5.336035788059234619e-02
6.361614474581548384e-01,6.325674236644083237e-01,6.307111133588636509e-01,-2.771513170464205006e-03,-1.296144949537965559e-03,-7.288685971766173215e-04,7.260309532284736633e-03
5.682056802984234434e-01,6.504707753143254001e-01,6.834736425932188553e-01,-9.166296183442043666e-03,-8.885061110265154299e-03,-1.269996672220998976e-02,1.074452549219131470e-01
6.554519782068005673e-01,5.648145225134113545e-01,6.549499148056050490e-01,-1.906141689382450863e-02,-2.056010779398863980e-02,-1.838568227862571666e-02,1.074344515800476074e-01
6.368708706286863030e-01,9.115511323301650481e-01,5.546092716553030488e-01,-7.568817401060694283e-02,3.664171211936493311e-01,1.144204940096252565e-01,7.510383725166320801e-01
6.217588531647753047e-01,6.551859777042159383e-01,6.206043868877282321e-01,-4.570574668606696908e-03,-1.483024433907225359e-03,-1.820509040170061607e-03,3.516400605440139771e-02
5.461148664178208101e-01,6.580846292602258174e-01,7.096378556437865637e-01,-4.473903067604474010e-02,-1.506372406095303311e-02,-6.195281629210338745e-03,1.666373312473297119e-01
6.276070328469290915e-01,6.493379944818565841e-01,6.242120721875915601e-01,-3.603977533351690032e-03,-9.820884830318570187e-04,-9.821665476239362438e-04,2.454159036278724670e-02
5.591447595216236799e-01,5.733043648233084877e-01,7.314001547413567783e-01,-1.127958556784938171e-01,-6.313109055565185174e-03,-2.763695192079072306e-03,2.564069926738739014e-01
6.596629811668967003e-01,5.975045699715384462e-01,6.341321306599333463e-01,6.242174291197891828e-03,-1.583753521323521402e-02,1.013024272282508215e-02,6.407634168863296509e-02
6.532594830299460753e-01,5.999553151988444855e-01,6.331676342811373148e-01,6.136329178212817162e-03,-1.389630316097539148e-02,1.022541868470243712e-02,5.639149248600006104e-02
6.074557884884449477e-01,6.049787327612106136e-01,6.779958073686142006e-01,2.309603647673686561e-02,-1.595072344354622404e-02,1.347347844730049406e-02,8.980491757392883301e-02
6.450298858387861767e-01,6.209975623408670042e-01,6.258515797038585182e-01,3.104407058992067741e-03,-6.750474847913179137e-03,5.624873113283349567e-03,2.729463577270507812e-02
6.385931810127771779e-01,6.036108636368368030e-01,6.324805157939533684e-01,9.033507267368477700e-03,-1.378970060199062424e-02,1.110306820080173354e-02,4.724835231900215149e-02
6.416753714043068602e-01,6.298385266339385780e-01,6.364502006827670311e-01,1.279381799683245238e-02,-1.255662235733466352e-02,1.746308184505928479e-02,4.454765096306800842e-02
6.263324001153695031e-01,6.868934020396605389e-01,5.949475635201183499e-01,3.489504010137160685e-03,-6.037182636406006331e-03,2.261442259360304727e-03,8.194238692522048950e-02
7.671648166821851689e-01,5.099230303069974823e-01,3.933562693243539132e-01,3.199440157540060087e-02,-5.560565208494587519e-02,2.947010636815641793e-01,6.185790300369262695e-01
6.307986969475215533e-01,6.541745763913250356e-01,5.948902946763059418e-01,2.150419301521344292e-02,-3.078021747860270468e-02,2.609731831534092827e-02,9.459388256072998047e-02
6.726152114725016951e-01,6.275741066201182550e-01,5.872667391315833374e-01,-1.152501808810616271e-02,-4.621983084493223697e-03,-1.105374821985253067e-02,7.935991138219833374e-02
6.618481892622378737e-01,6.457397186538083034e-01,6.292906872572072707e-01,9.599658670251702552e-02,-1.989669135924301002e-01,2.771583068626451429e-01,6.145361661911010742e-01
6.122443420648588930e-01,6.405073149193712956e-01,6.601866987974923662e-01,2.090051716413338784e-02,-1.130216064751699001e-02,1.160900282837148620e-02,6.197007372975349426e-02
7.065360941204450462e-01,6.297020266046085002e-01,6.055167648656247792e-01,2.645452460853188470e-02,-2.242766514954068827e-02,6.608797796846545280e-02,1.582973152399063110e-01
6.433101593438285137e-01,6.690435983115470275e-01,6.129680045085568185e-01,-9.066938729584018281e-03,-1.926823338026727520e-02,-1.549278825199119046e-02,6.666458398103713989e-02
5.331206261028264004e-01,5.583367725878045640e-01,7.223442515660734031e-01,-1.339197303783257187e-01,1.731007423097121606e-02,2.112003909857373615e-02,2.961595952510833740e-01
6.272242414876572081e-01,6.797578172146797604e-01,5.978748689920548864e-01,-3.970510184246771497e-03,-4.412681312433008179e-03,-1.638998359923215598e-03,7.264130562543869019e-02
6.404063580840926306e-01,5.670935127237937134e-01,5.511225421947749670e-01,1.455075633626800036e-01,-1.374216049455633804e-01,2.065164753661420383e-01,5.048953890800476074e-01
7.043171084262479509e-01,6.721215033789177395e-01,5.493399109980946493e-01,2.348576514489340503e-02,-2.234186759279982448e-02,6.649844097930533715e-02,1.910059005022048950e-01
7.142648392220021236e-01,5.303925399916119554e-01,6.588074468939437711e-01,2.789622307738404052e-03,1.147641259419284604e-02,-3.298496769195404660e-02,1.742697954177856445e-01
6.166386508856164239e-01,6.765278760945767633e-01,6.130211689009459342e-01,5.343610357029042121e-03,-1.289414903899410714e-02,4.606925156652039860e-03,6.681739538908004761e-02
5.158855195171673236e-01,6.939630818181398153e-01,7.052101027159402014e-01,-1.486090449635093895e-02,1.820797599983178111e-02,1.568758229560535816e-02,1.903585791587829590e-01
6.603859127861196887e-01,6.240081669239084805e-01,6.214393027849192119e-01,7.840446440817105955e-03,6.075454297469097195e-03,-7.269900017200024538e-03,4.332545027136802673e-02
6.861075351332718286e-01,5.968007648951122457e-01,6.252885708757489613e-01,-1.960179636551231258e-03,1.591615479904072428e-03,-3.673904478325480671e-02,1.015455499291419983e-01
6.787453277744507352e-01,5.585997611429063259e-01,6.543894742102877027e-01,3.237119846096480312e-03,1.620718953872993598e-02,-7.149491592371472193e-03,1.143447384238243103e-01
6.746220989923179534e-01,6.162716621333779177e-01,6.155431144931824416e-01,6.696354228484862822e-03,3.994243584319732976e-03,-1.327733275693509726e-02,6.449080258607864380e-02
6.690345901093582848e-01,6.120526043356723234e-01,6.211673998439308786e-01,2.483471752832630119e-03,6.012778708563230531e-03,-5.940901397152766571e-03,5.516786500811576843e-02
6.322235739980007763e-01,6.346973977529364319e-01,6.337526877774500855e-01,6.850043679540860535e-04,5.275756161383538412e-04,-4.356971971704419466e-04,2.736317226663231850e-03
6.328153541264820436e-01,6.346554275456252059e-01,6.326550496723304384e-01,7.691851321258360175e-04,3.170194116994123359e-04,-3.517261873157810637e-04,2.480748808011412621e-03
6.103123172040382238e-01,6.696975323996543494e-01,6.202672842618437432e-01,3.135491759777162424e-03,-5.076191820112429219e-03,6.793145417669114138e-03,5.726923048496246338e-02
6.364757190470442527e-01,6.493948779110445546e-01,6.098524481760355664e-01,1.295313924352523190e-02,-7.807877667896517132e-03,6.590010184943146179e-03,4.512403532862663269e-02
6.456096262128324659e-01,6.276712382263025525e-01,6.252027414344416556e-01,2.709783523231369586e-03,1.246304214368171162e-03,-9.483293362755043296e-04,2.003862895071506500e-02
6.457270677533482051e-01,6.257631290702525551e-01,6.274356738007057510e-01,8.699659403629344352e-04,3.091101676287550011e-03,-1.123734119634199613e-03,2.006711810827255249e-02
6.456338440019228075e-01,6.232874646391328710e-01,6.280084977760547194e-01,3.556848834843730645e-03,8.550505588713614227e-03,-3.272927773239246198e-03,2.656264230608940125e-02
6.413939550525528110e-01,6.244943864096262898e-01,6.393681334156268159e-01,3.593659670701768779e-03,6.850807052209001435e-03,-5.211993060250459837e-03,2.272668667137622833e-02
6.037818325462039892e-01,6.133890600208435906e-01,6.756501473076717001e-01,9.845930602471561488e-03,-1.914988992738345585e-03,4.581083133364241208e-03,7.022596150636672974e-02
6.328109663298909782e-01,6.329751073716697318e-01,6.342928685483192330e-01,1.168208304114475823e-04,-7.933809068528267696e-04,1.539856190788009831e-04,1.995036611333489418e-03
6.393650046142105303e-01,6.323512077708035584e-01,6.284188806177148923e-01,4.626429791976305328e-03,-2.565367349063867475e-03,2.154041825586816561e-03,1.378809846937656403e-02
6.348638398037270703e-01,6.327884443894028488e-01,6.352929109400808905e-01,1.145241182635981392e-03,-4.242909271267400813e-07,-1.124529243315392337e-03,3.620813600718975067e-03
6.393349980987669268e-01,6.362264751213396741e-01,6.242162635416187433e-01,6.818231004880990695e-03,-4.048026241820045358e-04,1.971369673414652326e-03,1.851641014218330383e-02
6.305258881199156118e-01,6.221783451491829098e-01,6.461232533655298926e-01,4.432596585213195196e-03,8.904790131743276979e-03,-3.236393817226455080e-03,2.777429111301898956e-02
6.164068458691661645e-01,6.748413202384262455e-01,6.225093811580717507e-01,-1.801955721166169366e-02,-1.619343786641014651e-02,-1.378571136131318681e-02,7.366249710321426392e-02
6.208311724497391770e-01,6.519116488482995520e-01,6.381209860708598747e-01,3.873422819020467828e-03,4.337529072615989301e-03,-9.359207895672622471e-03,3.304232284426689148e-02
5.691020967262535590e-01,6.498503170074374502e-01,6.651154976272144470e-01,1.823471922120453032e-02,1.801466522889772978e-02,-1.421461162027154099e-02,1.027774363756179810e-01
6.290124594071672126e-01,6.293668916832023674e-01,6.423549833842743251e-01,-1.705885214301080762e-04,1.698637352615748252e-03,-1.204818701608124541e-03,1.365714892745018005e-02
7.202992024186289921e-01,4.523543934661070631e-01,7.138001497377728377e-01,5.815847766039524552e-02,-2.433957345234289207e-02,1.560150008224214443e-02,2.876629233360290527e-01
5.689024421091534167e-01,5.886185774790575476e-01,6.935268315242215653e-01,6.428275287354562328e-02,-4.120042979031406268e-03,4.950315719908564456e-03,1.611958742141723633e-01
6.127766853181082496e-01,6.753447311454890967e-01,6.174264366421775563e-01,-8.391017042412243386e-04,-1.356476094859361374e-03,-2.734694563993442847e-03,6.062608957290649414e-02
6.268650785028103689e-01,6.392375549786516453e-01,6.253226820316306611e-01,-4.934330433204036671e-03,-1.696931432503401196e-03,-1.766461409728135954e-03,1.629672199487686157e-02
6.329082100037604075e-01,6.422715583196276778e-01,6.260911838965433907e-01,-1.135740144149912159e-03,-3.943806202199133526e-03,-2.739627692410766431e-03,1.646273210644721985e-02
6.325717031006143909e-01,6.323678427755348164e-01,6.318980511578504711e-01,-2.044592154816499922e-03,-7.461833251892859616e-04,-3.683424755967608312e-04,3.869948675855994225e-03
7.665877528305986566e-01,4.325178683665127366e-01,7.297147894076919661e-01,6.254127905714337854e-02,-2.220925929803816562e-02,2.169773847800017183e-02,3.395151197910308838e-01
6.136822526250146348e-01,6.095552040128765503e-01,6.790972787804605559e-01,-2.098312217093307487e-03,-9.891922852807775828e-04,-8.509524573264582586e-04,6.770853698253631592e-02
6.261561247558570242e-01,6.401986065322694541e-01,6.348111612343454446e-01,-2.618988881125722343e-03,-2.040271571563289071e-03,-5.201367678179427689e-03,1.627239584922790527e-02
7.074178489437575879e-01,4.711471262750738243e-01,7.216588738090483623e-01,3.742191384217401912e-02,4.983930560871593224e-03,1.975286906275292714e-02,2.546323835849761963e-01
6.141743431556881960e-01,6.798800963430982058e-01,6.122397545748805570e-01,6.660424556765886020e-05,-1.940958022771444025e-03,-3.916221271061087316e-04,6.678231805562973022e-02
7.105349503995612714e-01,2.131712233729700645e-01,7.700392065269447972e-01,1.642498295469102254e-01,2.062947988917022632e-04,-5.088340901918136754e-03,6.012641191482543945e-01
6.446297153318061302e-01,2.605400209652036780e-01,7.694709574183786760e-01,2.038695126936515278e-01,2.740463531153988080e-02,-4.833353147929120297e-02,5.873757004737854004e-01
6.143072322058004131e-01,6.699121285558908845e-01,6.177675451216411151e-01,-4.748058216488508856e-03,-3.344887825794327831e-03,-2.198461143413121734e-03,5.501967296004295349e-02
6.710130852393154655e-01,3.843403445758064030e-01,7.559181076570495872e-01,2.159748832320834144e-01,-6.155728147543637618e-02,8.521161227925187764e-02,5.355525016784667969e-01
6.028560729516410088e-01,6.572669264775611309e-01,7.616258310191527103e-01,-1.237769361873836821e-01,6.138019844419968785e-02,7.042007568136619822e-02,3.027727007865905762e-01
6.144613662747862026e-01,6.686708353885074674e-01,6.213546483536104281e-01,1.723020660313750313e-03,-3.157004666741262174e-03,1.766382373402278433e-03,5.158167704939842224e-02
6.144173403223530672e-01,6.774553471052349174e-01,6.120572723512870406e-01,-8.450020163090096693e-04,-1.952084953635226756e-03,-3.379177069082791164e-04,6.435876339673995972e-02
7.189606430645050228e-01,7.505978236281604099e-01,1.651321794098204454e-01,-2.574727594591208132e-02,1.533726868566482049e-01,8.467016767630250462e-02,6.475445032119750977e-01
3.832895380850842582e-01,5.896966491240277497e-01,7.756076250593804122e-01,-2.486383315965012830e-01,4.894222793088659484e-02,2.328556009661972986e-02,5.566110610961914062e-01
2.959903602384297838e-01,7.278895019873568017e-01,9.559542301987479229e-01,-1.697044531600859218e-01,9.885335378996584765e-02,4.994684314748084469e-02,6.784173846244812012e-01
6.227182581956667295e-01,6.355299468868547130e-01,6.401326120615082882e-01,-1.994513085710433817e-03,-2.375782435245112414e-03,-6.320337240213401778e-03,1.982420496642589569e-02
4.581599676392911213e-01,5.899234459954403320e-01,7.585448649583785841e-01,-2.390039689165837644e-01,1.185974406001346210e-01,7.537374204112554099e-02,5.464625358581542969e-01
5.854833051262321453e-01,6.657398929705981017e-01,7.702479578199137311e-01,-1.317282286916218459e-01,6.420735347023237560e-02,6.082227610532203038e-02,3.182346522808074951e-01
6.238887710524732011e-01,6.260703480531318865e-01,6.600196485190542584e-01,7.626538965497181750e-03,-7.685885762345422839e-03,7.744811384887900947e-03,4.198850318789482117e-02
6.137217418977595207e-01,6.779497163035177465e-01,6.090669784933440134e-01,2.803261647287567438e-04,-2.081529104193474526e-03,1.157598573139511679e-03,6.680658459663391113e-02
6.069611048774500306e-01,6.703211557957398092e-01,6.319165063031765284e-01,2.831992733610387038e-03,-3.701522034002770276e-03,7.388164803489082576e-03,5.731502175331115723e-02
6.192937339197908120e-01,6.265262884375644159e-01,6.470734144123632126e-01,4.447443594348405270e-03,-2.391076487598830895e-03,6.857551021209451654e-03,2.899433486163616180e-02
6.179911686823343908e-01,6.262776581493382233e-01,6.542157585231322958e-01,3.303952208194936742e-03,-3.188454990911599157e-03,7.088349420135402895e-03,3.598184511065483093e-02
6.201423172675960549e-01,6.536140055724258824e-01,6.259666069160639834e-01,3.173821342169726428e-03,-2.328227471795302032e-03,7.097764299240408824e-03,3.401387482881546021e-02
6.176262181677899532e-01,6.209297692885430431e-01,6.624977400710059250e-01,1.251799420847780290e-03,-1.912804039501366090e-03,4.360903707776024596e-03,4.414591193199157715e-02
6.235212527958787776e-01,6.255147533735083698e-01,6.481334308964542545e-01,8.259649506109146763e-03,-8.165444732445615444e-03,8.660976997015422396e-03,3.450210765004158020e-02
6.251804861834079352e-01,6.618429358761397374e-01,6.303374100979899364e-01,-5.847743905709186334e-03,9.011646043291536914e-03,1.008534101683265793e-02,4.281382262706756592e-02
6.317422941999932817e-01,6.737068523825087141e-01,6.025125999581264491e-01,1.048467534898253443e-02,-3.315385129065263805e-03,3.576873414659802967e-03,6.513948738574981689e-02
6.124300427314293138e-01,6.606069720137964785e-01,6.280862356805007041e-01,-4.440540831987519442e-03,4.920477595104323816e-03,1.036928208305474240e-02,4.760483279824256897e-02
6.319708927836852341e-01,6.331566785150307686e-01,6.431034692475600112e-01,-6.004700970174455497e-03,6.412141599400727511e-03,7.016774118716807146e-03,2.216666005551815033e-02
6.323331633932836038e-01,6.325107060419152827e-01,6.320681902783121808e-01,9.045017993987529686e-04,-9.479637957767652473e-04,2.005667502923823720e-03,4.167392384260892868e-03
6.241222348029710210e-01,6.476608848081217840e-01,6.314741806141198621e-01,-6.173499554454993030e-03,5.558711123709675350e-03,5.781198383141535405e-03,2.724637836217880249e-02
5.951601904963053080e-01,6.570823713319877690e-01,6.300945089679544919e-01,-9.170073271003578025e-03,1.158932859093843651e-02,1.031267705417958543e-02,6.217568740248680115e-02
6.177724044909310708e-01,6.365025617175127381e-01,6.410683779399494187e-01,-2.419614489185605271e-03,2.526458603803185491e-03,7.899077853904468843e-03,2.609756216406822205e-02
6.049208557412157905e-01,6.113673015155077772e-01,6.754287378153446264e-01,-9.041835135141128993e-03,-2.331927629371292627e-03,-5.246759890220335960e-03,7.001825422048568726e-02
6.130595877481880285e-01,6.016190639186017597e-01,6.801767361924940802e-01,-9.974789785255894561e-03,-2.479948500691727276e-03,-7.951765326908393329e-04,7.564581185579299927e-02
6.123955282020167035e-01,6.150255629009339087e-01,6.762699098546248733e-01,-1.421755525792350655e-03,-1.334134544683674740e-03,-3.076224909324143993e-03,6.291784346103668213e-02
6.142523899842821100e-01,6.147315810392836033e-01,6.870410455051392251e-01,-1.366528556417616336e-02,-2.078296931021095164e-03,-8.033359984102366120e-04,7.641107589006423950e-02
6.271271800365145754e-01,6.401026460875288704e-01,6.326647418730756423e-01,-1.942048918814294868e-03,-7.623273265507914337e-04,-3.144751080456224465e-03,1.303462032228708267e-02
6.183694905304421008e-01,6.599167594461294861e-01,6.219679194076745965e-01,-3.336197029740185088e-03,-1.510432358552445033e-03,-3.052498550660039545e-03,4.071618244051933289e-02
6.408673649965050956e-01,6.267471666311700274e-01,6.407261257279203148e-01,-2.234369405715219171e-03,-4.596790992120521925e-03,-2.051661279948269623e-03,1.698241010308265686e-02
6.696833691542071199e-01,7.999883373755244387e-01,3.522378278012063824e-01,-7.629404234369067950e-02,-2.155441780112179462e-01,-6.341729571148864431e-02,5.727314352989196777e-01
8.432496450981230574e-01,8.022332789623584093e-01,3.254225660326031111e-01,-4.253574014702616451e-02,-2.493048090457698485e-01,-8.286746957767214539e-02,6.790253520011901855e-01
6.303963644213527173e-01,6.695408483989775394e-01,5.972595565631706460e-01,-9.507817614100636666e-03,-7.430584500333092292e-03,-1.918106805444636919e-03,6.614632159471511841e-02
6.998232366343295485e-01,7.463992945777846444e-01,4.234930533480091297e-01,-3.526515533622390230e-02,-7.935434932663747165e-02,-6.951352080513198591e-03,3.378835022449493408e-01
6.148975661835924811e-01,6.542558017941406678e-01,6.315249638830258139e-01,-3.098965924551532088e-03,-3.439029383749716597e-03,-7.744762873163798730e-03,3.762115910649299622e-02
7.190608731468768333e-01,6.994380515170834922e-01,4.427531008843026417e-01,-1.000951188636739139e-02,-2.395135970060015274e-02,-3.679188366317512338e-02,2.781934738159179688e-01
5.979023383775670109e-01,6.314014102711458243e-01,6.800136839305565006e-01,-3.139065101872921121e-02,-9.762760298148461316e-03,-6.820949655190400827e-03,9.217069298028945923e-02
5.982192622657456216e-01,6.868306488013965483e-01,6.282779673696530232e-01,-3.680247721176112524e-03,-5.555373616537453638e-03,-6.175996352015756391e-03,7.962165772914886475e-02
6.226863947599282634e-01,6.685914615921435544e-01,6.184147865891505003e-01,-1.777666301097684557e-03,-3.339458526102378685e-03,-2.194892681619979146e-03,4.877498373389244080e-02
7.904230352830962092e-01,7.862364965765139546e-01,4.378796115590758431e-01,2.691639480811709468e-03,6.889375242097414698e-02,7.564219443587643678e-03,3.704873621463775635e-01
5.973276791702405442e-01,6.807053354454313254e-01,6.268767902378036272e-01,1.107499954527874347e-03,-6.169883724848328199e-03,3.676473015611378056e-03,7.429454475641250610e-02
6.198328656183926810e-01,6.411726045473870039e-01,6.365199385465856174e-01,1.885510149903908261e-03,-2.456050431251243470e-03,8.351241656235986258e-03,2.481404505670070648e-02
6.159057259240212634e-01,6.099488873375236153e-01,6.796683495541103737e-01,-1.546652509952988613e-03,2.075471025155118613e-03,1.156218931467084977e-03,6.711996346712112427e-02
6.547618775373059696e-01,6.111900224331217046e-01,6.364849304407084185e-01,-1.771444260039174365e-02,-2.394796409831177059e-02,-2.914065240754318623e-02,8.152082562446594238e-02
5.900898202218087807e-01,6.782485260280722850e-01,6.518833818380588285e-01,-4.525793939895170551e-03,-7.138741113502079794e-03,-1.293866165369481590e-02,8.282101899385452271e-02
4.951379232481850634e-01,6.933102494365156465e-01,7.067572198130174232e-01,4.244524255863987156e-02,-1.461552782553302357e-02,3.635479352940254767e-03,2.195522636175155640e-01
6.152142634806156973e-01,6.679094550129466290e-01,6.170240965466540217e-01,-2.922184624375576828e-03,3.034382883783651370e-04,-1.058569483255776848e-03,5.209553241729736328e-02
7.506248417746308466e-01,3.251281340799315189e-01,6.254475494722399054e-01,-7.572672548627951139e-02,-4.687522063398152222e-02,-2.327494658354683221e-01,5.742531418800354004e-01
5.893109608563807944e-01,6.728382209570341610e-01,6.488964807725368100e-01,-4.614976519128818726e-03,-7.113393209652902650e-03,-9.404243760204111097e-03,7.766103744506835938e-02
6.184052315905447239e-01,6.696306886299652206e-01,6.100939607931276099e-01,-7.556284121784587540e-03,-9.602675145508821758e-03,-3.588735986555899489e-03,6.004529073834419250e-02
4.571764911379556651e-01,6.776348574785063805e-01,6.678757167911024695e-01,1.405704919142634624e-01,-1.432021215932906544e-01,7.829691674697202008e-02,4.309728443622589111e-01
4.243956786088427524e-01,7.847018029139312123e-01,7.428352829300564064e-01,3.032656386569853035e-01,-1.036093570398274460e-01,1.002588489538042971e-01,6.743581295013427734e-01
6.146010637653824826e-01,6.812916195602797265e-01,6.062850400289611086e-01,3.068739032386175788e-03,-8.383439703212048830e-03,3.416391750145815216e-03,7.311291992664337158e-02
3.903795220270778188e-01,7.021979792027950307e-01,7.407518675683386622e-01,7.580559581371516809e-02,-2.133422925816805260e-02,1.205888244113393314e-02,3.602500855922698975e-01
5.240358044191304465e-01,8.801024459566428870e-01,8.044156345915114414e-01,-1.434760933774342218e-01,-2.410478148430645340e-01,-1.028716747959673161e-01,6.110470294952392578e-01
4.956794808129533769e-01,7.530141830098335820e-01,7.713086047195834016e-01,1.188795469944093353e-01,-4.958022922593220000e-02,1.542670744263670811e-02,3.489257991313934326e-01
6.120855356568821737e-01,6.799946960091343140e-01,6.011793762704659150e-01,3.765308618092087691e-04,-9.851787726129976330e-03,3.876231763831179894e-04,7.591623812913894653e-02
4.434791554040907746e-01,7.365175477930187009e-01,8.042921036199452978e-01,2.958769357647289544e-01,-1.635817634740265314e-01,2.387698933308337809e-02,6.744940280914306641e-01
3.846974763720935608e-01,7.675399975484289428e-01,7.440908650147088910e-01,5.644628273007055996e-02,-5.839396173763971437e-02,-2.409166130390875266e-02,3.995876312255859375e-01
6.289057892101196368e-01,6.538107433562935222e-01,6.231650599007041436e-01,5.023656581851667149e-03,-6.670231084993856778e-04,2.043538174416453627e-03,2.976171299815177917e-02
4.804028935715716209e-01,7.028505700472315043e-01,7.012571587522546945e-01,-1.245515147995354026e-03,-3.975771087970152336e-03,3.880527877327894729e-03,2.218745350837707520e-01
6.067292163716435649e-01,6.728068329251711832e-01,6.270815786087996502e-01,2.168794451285796857e-03,-4.855784003328780102e-03,8.385916188266782575e-03,6.108561158180236816e-02
6.054600614060730024e-01,6.743654700913367384e-01,6.118474603677668266e-01,-1.404934700296239878e-03,-7.779354574887210362e-03,-3.001989546176302582e-03,6.755101680755615234e-02
6.712230643003663788e-01,5.750574947857590713e-01,6.246308818999514179e-01,-3.387368028233439868e-03,-1.005722056651619199e-02,-1.877911219064862247e-02,9.129028022289276123e-02
6.796780854598605259e-01,6.324354474388591552e-01,5.999765470352549368e-01,-8.961336389055914523e-03,-8.321118501112995461e-03,-3.286341828042731866e-02,9.223634749650955200e-02
6.645859684801178613e-01,6.234585649918935601e-01,6.140626186559101640e-01,-7.012212184709154528e-03,-2.891640327799883600e-03,-3.839471984187339381e-03,4.881598800420761108e-02
6.157797668089858290e-01,6.763934886214475473e-01,6.120978851724853120e-01,3.040796408993133321e-03,-1.829980590394337083e-03,1.514040900875609054e-03,6.289208680391311646e-02
6.212530834274585523e-01,6.379465896186653495e-01,6.403506454294157768e-01,1.534142602028952182e-02,-1.632930875454929529e-02,1.120244047639242825e-02,4.697963222861289978e-02
6.646848388867909740e-01,6.195498449368461724e-01,6.210477091904627045e-01,-1.815983508316915867e-03,-4.423463281863383202e-03,-1.384374491973242157e-03,4.523437842726707458e-02
6.581132370892174288e-01,7.151149357791514172e-01,5.346638734424365991e-01,-9.719823104781939033e-03,-3.456803652259534537e-02,3.363837761901135662e-03,1.715458631515502930e-01
6.216791418360332333e-01,6.533190124374348429e-01,6.207132083993137650e-01,2.206615194534427074e-03,-1.493224775984027929e-03,5.014556696347379806e-03,3.360521420836448669e-02
7.085206202515006435e-01,7.276026491913821781e-01,4.886565851692055151e-01,-3.186584665059621208e-03,3.423789340686644866e-02,1.103999488689785813e-02,2.383538931608200073e-01
6.764667720595980427e-01,6.118477432371052238e-01,6.039553695697559288e-01,-4.083159387770478321e-03,-2.677613801431176759e-03,-8.945510891619578783e-03,7.113014906644821167e-02
6.284144680996786025e-01,6.453422603071534702e-01,6.256413656936331558e-01,3.836453479556542565e-03,-1.556643921788482482e-03,1.044276263052703333e-03,1.989670470356941223e-02
6.184220601087231373e-01,6.531805647772935819e-01,6.315238546909869299e-01,3.270418590367290840e-03,-4.354220906771792861e-03,1.028205492797739685e-02,3.647654503583908081e-02
6.311802969890819570e-01,6.364576987358351312e-01,6.323002766796117502e-01,-2.594885446619181533e-04,-6.379515831102534331e-04,1.696170311429581442e-03,5.766165908426046371e-03
5.368248048980908127e-01,5.739431939361403501e-01,9.763029148944489810e-01,3.773886102435936585e-01,-1.060109407962049749e-01,1.003683992907123401e-01,8.181741833686828613e-01
6.692626650861160931e-01,6.213142135736718918e-01,6.132438515778757537e-01,-1.171458471984486438e-03,-1.653740366944175680e-03,-4.061320737848484776e-03,5.303725600242614746e-02
6.772870633365126736e-01,6.150052852483701704e-01,6.118453898745667141e-01,-1.454989601075862109e-03,-1.429271724913490750e-03,-1.269082184068322803e-03,6.405559927225112915e-02
6.396205466622185698e-01,6.242235891630135702e-01,6.363200320710385993e-01,1.548176944577860873e-03,-7.280630766771329331e-03,1.436459211280955795e-03,1.922356337308883667e-02
5.936406103214930674e-01,6.359594011155106363e-01,6.992842689553592228e-01,3.146478455368065252e-02,-9.008647687964757914e-03,8.295463058007603377e-03,1.090906038880348206e-01
6.294694077393931941e-01,6.236506058782487205e-01,6.473267363209119774e-01,2.198642581978728881e-03,-6.738566053689169083e-03,2.401048496486952490e-03,2.499345690011978149e-02
6.344912562988304083e-01,6.454406144068773887e-01,6.273978212494691897e-01,-1.032761141961594485e-02,-7.049440235974265868e-03,-6.702724106549537604e-03,2.918417192995548248e-02
6.236959535736500415e-01,6.288249449529093038e-01,6.447124468090902338e-01,-2.611553335976552100e-03,-3.238693110194790312e-03,-4.486021368493040527e-03,2.173723280429840088e-02
6.228462025797270041e-01,6.401077831544788044e-01,6.370522627080771327e-01,-8.897742955337854549e-04,-1.581750008538745488e-03,-6.946666201967551836e-03,2.022880688309669495e-02
6.302598977289728399e-01,6.211633059629145803e-01,6.458611312117796821e-01,-3.475678790681154071e-03,-6.181847877737086869e-03,-2.488507021872058897e-03,2.524934150278568268e-02
6.573981996622505486e-01,6.119391137349518006e-01,6.258329358086385241e-01,4.051248593890163958e-03,-8.901253793835764080e-03,6.993632579009527450e-03,4.540521651506423950e-02
6.365246150288919047e-01,6.171300848269051231e-01,6.145573324223309042e-01,-1.308754718982912436e-02,-1.460246973517380538e-02,-1.406071278119769632e-02,4.668322205543518066e-02
6.949062844761902946e-01,6.484966385521723220e-01,5.709018239391271399e-01,-5.815186458493951972e-03,-7.864880408905807960e-03,-1.134186733162344078e-02,1.115745976567268372e-01
6.093545688928214688e-01,6.207649224569907753e-01,6.432510610437428555e-01,-3.044520029970489150e-02,-2.315281569582298624e-02,-2.207969431567347388e-02,8.212079852819442749e-02
6.516185903288462811e-01,6.932705442006458219e-01,5.570207704530208970e-01,-1.238675923308095190e-03,-1.350297019223528280e-02,-6.860992491852735626e-04,1.231942474842071533e-01
5.779918713715589407e-01,6.474058977321529573e-01,6.729201987394498596e-01,-8.992390347484269936e-03,-7.074911381704821096e-03,-9.343879304012221026e-03,8.885388821363449097e-02
6.416492267925819615e-01,6.367793101254815014e-01,6.279129951283174416e-01,-2.959805485497405114e-03,-2.414835246881317198e-03,-8.355993958773292023e-04,1.383387763053178787e-02
5.698243927500262762e-01,7.210077103886317618e-01,6.050106935269063957e-01,-2.910228883984708817e-02,-5.650092579561735717e-02,-1.997250160905388386e-02,1.791353821754455566e-01
6.387425657539574919e-01,6.517228682543424467e-01,6.064913938361990997e-01,-1.184644964346838816e-02,-6.481802221809727753e-03,-5.195979784845749030e-03,4.749007523059844971e-02
5.963112767628825361e-01,6.520679888044235151e-01,6.521365017614347837e-01,-5.237407077332287622e-03,-4.672175960431244716e-03,-1.312158167533093722e-02,6.145683303475379944e-02
6.181478074144660662e-01,6.796930590574029596e-01,6.058247194893104925e-01,-3.029941003572576234e-03,-5.195871131938875100e-03,-2.446716626163375312e-03,6.945931166410446167e-02
6.028379760924483799e-01,6.726557033079763048e-01,6.319661207734758035e-01,-2.640937333193406778e-03,-5.551898578381898354e-03,-9.370135827659484273e-03,6.376594305038452148e-02
7.587260786913868627e-01,4.548495566230797427e-01,9.639186788603776312e-01,-2.992280018027670407e-01,4.114257531970082898e-02,4.844940957754553107e-02,6.910358071327209473e-01
6.666840782403066212e-01,6.188558591016176669e-01,6.213382307239523339e-01,7.186288840052867423e-03,8.113474880774807982e-03,-9.554603595920857853e-03,5.292691662907600403e-02
6.078403559707371562e-01,6.629035224417364480e-01,6.316162020913776987e-01,-6.462017272263723307e-03,-5.058229805680764316e-03,-1.046974849100117989e-02,5.309375375509262085e-02
6.402247395591914580e-01,6.433702245395624963e-01,6.133050553116455861e-01,-1.106816212869046225e-02,-3.445731370526278550e-03,-4.775437838843232287e-03,3.592750057578086853e-02
6.170438202726458155e-01,6.084381551534884247e-01,6.699153658895764529e-01,-5.735072380806830426e-03,-5.960808673425454889e-03,-3.261049182527963036e-03,5.967933312058448792e-02
6.110537248453367098e-01,7.034953990625374409e-01,6.503929471990511635e-01,-1.082234706370828886e-01,-1.467299095351604077e-01,-1.243794712768832994e-01,3.906317651271820068e-01
6.662761413041478065e-01,6.182841701499603992e-01,6.146421967919120100e-01,7.096979360744733352e-03,6.098088322832746419e-03,-7.100918960020852211e-03,5.389999225735664368e-02
5.754248837178107534e-01,6.272800416719750416e-01,6.849545357730846273e-01,-1.533232479226730345e-02,-2.465703246519233491e-03,-3.871648699798990560e-03,9.886593371629714966e-02
6.853152593320238628e-01,5.467963770841239857e-01,6.559222719547688207e-01,1.643115794800499574e-02,9.627838599155051635e-03,-3.155036701803189125e-02,1.416130512952804565e-01
6.163846561963626236e-01,6.394054478318819124e-01,6.364601865064600794e-01,-4.166488537302319266e-03,-4.017389071073115825e-03,-9.657680747218582232e-03,2.917428128421306610e-02
5.927059775853069645e-01,6.869115156469290939e-01,6.280183551654787699e-01,-6.048624021659917624e-04,5.046208554290862285e-03,7.872052957903470996e-03,8.401442319154739380e-02
6.239071790780923443e-01,6.854572617524815614e-01,5.988963811217460353e-01,3.116942963485075293e-04,4.061056891594624040e-03,6.408084919456701620e-04,7.748786360025405884e-02
5.942367491868834062e-01,6.053840848422982202e-01,6.772663143496728821e-01,-2.687740814631838643e-02,-9.068858337687293880e-03,-1.079269087139727613e-02,9.410620480775833130e-02
6.195994228755961064e-01,5.792322132802772972e-01,6.760634020109952402e-01,-1.873679749758632232e-02,-7.931978786127360376e-03,-5.640145128891735880e-03,9.183882921934127808e-02
5.984302440873410234e-01,6.387123981594370337e-01,6.858051087473341356e-01,-2.918506789496876086e-02,-1.185101840779188495e-02,-1.234715852113948097e-02,9.576728194952011108e-02
6.153956910822291348e-01,6.539010453003454293e-01,6.375485967066171211e-01,-3.154834044289981862e-03,-3.850218444993704515e-03,-1.011693325629956126e-02,3.875302150845527649e-02
6.295024927225456590e-01,5.972184326298921597e-01,6.847672591707272272e-01,-3.185416204865394035e-02,-1.621319888810133971e-03,-3.331782374854786843e-05,9.451232105493545532e-02
5.662732383293960226e-01,7.172600620001599037e-01,6.519245634132225797e-01,-7.635226071572893611e-03,5.517352198073843111e-02,2.737856071276970320e-03,1.628824025392532349e-01
5.390399267909457004e-01,7.748381090380307423e-01,7.212706335013847614e-01,1.731675703521215470e-02,1.232926459761348043e-01,8.003203811232224157e-03,3.041942417621612549e-01
6.943255060453051852e-01,6.794329101410022664e-01,5.305476756830795892e-01,-5.515327202769811782e-03,-3.689290333975951946e-03,-1.119090834897440087e-02,1.584729850292205811e-01
5.221891915244818438e-01,6.505952786300424062e-01,6.950344397244512251e-01,5.041649250625607898e-02,-9.439558615113056647e-03,9.496540723428590833e-03,1.798125654458999634e-01
5.774284417555659576e-01,6.825352687325177969e-01,6.304726292322681003e-01,6.202774188921807326e-03,-1.219501430184241446e-02,1.370408973427530118e-02,9.700932353734970093e-02
5.742200708143004872e-01,6.281729789166429212e-01,6.962966935078767072e-01,-1.558255412502756142e-02,6.600177667143701001e-05,-2.028899089767943319e-03,1.093985363841056824e-01
6.162822946248551759e-01,6.026655779455616369e-01,6.842399254387080410e-01,-6.768491924224686977e-03,-2.869600309614256904e-03,-3.280457130185270953e-04,7.675597071647644043e-02
6.105043194061297029e-01,6.425236273376908613e-01,6.383536668942990655e-01,-3.964623429496373815e-03,6.906457940589117404e-03,1.046433397304128397e-02,3.778709471225738525e-02
5.574391753579841513e-01,7.721252062013223005e-01,6.866222975931072225e-01,-7.258432216393412295e-02,1.130812636739506882e-01,2.820137915949747290e-02,3.026517331600189209e-01
6.141724549004080602e-01,6.410876142102185371e-01,6.413002241982476148e-01,2.504549270721362006e-03,-2.826144276900235865e-03,8.981920417191310152e-03,3.185902908444404602e-02
6.190703882726000806e-01,6.544449471550894959e-01,6.375368094233305749e-01,3.097093513507703354e-03,-3.000982701204898961e-03,7.226600324329322637e-03,3.393510729074478149e-02
6.312161981263040289e-01,6.533642830199035689e-01,6.153376043183312882e-01,8.167528259039189692e-03,-3.970630471845898457e-03,1.910876598269279541e-03,3.677941486239433289e-02
6.318260346514228409e-01,6.649048203724813311e-01,6.115168876803331877e-01,9.277436003266057579e-03,-4.506375764697295033e-03,3.682220814999244245e-03,5.038135126233100891e-02
5.955033394054483065e-01,6.529957334218026155e-01,6.532071465177464731e-01,6.412312826662007817e-03,-5.773185049795560159e-03,1.209695343648713867e-02,6.308665126562118530e-02
6.667539107825420919e-01,6.379425619481078336e-01,6.005302024419778562e-01,1.347576265621087781e-02,-1.125339867053988009e-02,1.440814533635011684e-02,6.967903673648834229e-02
5.172580796607859632e-01,7.078183104026167793e-01,6.605416245675399534e-01,1.360237319631098967e-03,4.702818284350773065e-02,9.678589998668232774e-03,1.909469962120056152e-01
6.300573653539619512e-01,6.363650999388867913e-01,6.322847095038447440e-01,3.963653358625352646e-03,-1.931859392324886083e-03,2.493506005756405269e-03,1.037688180804252625e-02
5.704630738587771477e-01,6.547083891462104344e-01,6.577353020054910182e-01,-1.781663176090974438e-02,1.550270235073276069e-02,1.786338188542608424e-02,9.996018558740615845e-02
6.098269866054047972e-01,6.741756879181217688e-01,6.348116005735267020e-01,-1.543828867342665612e-02,2.454929028886803852e-02,1.621628638435308051e-02,8.043126016855239868e-02
6.234352501468285457e-01,6.455499699909728051e-01,6.273208749364749259e-01,-4.196461371985086251e-03,4.627207941276104304e-03,8.482338010414119944e-03,2.740699984133243561e-02
6.207342252154393059e-01,6.215647287379676422e-01,6.543344977966673026e-01,1.496108916482713025e-04,-1.898955975517240035e-03,2.104864712404336171e-03,3.355502337217330933e-02
6.278250798767920360e-01,6.221983293238586565e-01,6.545202255622627474e-01,8.955232580996723424e-04,-4.943611153492124925e-03,2.146586953671507890e-03,3.136949613690376282e-02
6.234840553864156032e-01,6.372499392783943506e-01,6.365049497588645133e-01,1.996123876597236894e-03,-2.245991183665192997e-03,8.132711658199506116e-03,2.013229019939899445e-02
5.787014969964380251e-01,6.835789114900808761e-01,6.307392215400897673e-01,-5.819143001566124546e-03,1.133605108500432626e-02,1.325310474809386456e-02,9.624788165092468262e-02
6.758264100839860289e-01,6.131430231274511700e-01,6.160410550768710136e-01,2.710536440521764943e-04,2.934463133628962932e-03,-1.309322148689181326e-03,6.153977289795875549e-02
5.724548644079138215e-01,6.975672594009689753e-01,6.148864805306989423e-01,-3.574419843389238776e-03,4.978282581609325130e-02,-2.204116547674277778e-03,1.401168256998062134e-01
6.739490638689559221e-01,6.256230073976534189e-01,9.092574020440238325e-01,-3.338268664112190032e-01,-1.073453014830668684e-01,-1.027190289299673154e-01,6.852887868881225586e-01
5.962775841095593332e-01,6.533425207482324026e-01,6.504889901913476491e-01,-5.265468050217688226e-03,-4.706887760710026097e-03,-1.296414712134389899e-02,6.128262728452682495e-02
6.730016782705472433e-01,6.486382112447683923e-01,5.746830617549716358e-01,9.633595345022016171e-03,-6.177695082996290804e-03,8.041726522130469845e-03,9.193293750286102295e-02
6.147614362647360053e-01,6.689590257865127843e-01,6.162342238830273988e-01,-2.803644737656560068e-03,3.436283145856593993e-04,1.097612934572522432e-03,5.373337864875793457e-02
8.392246433313365062e-01,3.896510073483657743e-01,9.208298150435314522e-01,-1.923037217080224848e-01,-5.113647411998906156e-02,-1.103866362748920360e-01,6.330924034118652344e-01
6.196340368510637742e-01,5.041521266854279704e-01,7.166168930149303673e-01,9.502770307094099422e-02,1.570338032646152390e-02,-1.799650967889927095e-02,2.504869699478149414e-01
5.972527929045787776e-01,6.294019127326140328e-01,6.803543405339371741e-01,-6.872354598341599147e-03,1.172700216821290784e-03,4.063214888160127797e-03,7.391301542520523071e-02
6.011985531532533233e-01,6.120487601061223026e-01,6.793827511415905240e-01,-8.789286645417445504e-03,1.665437460766154261e-03,3.000153155553174269e-03,7.516155391931533813e-02
5.766995989457979199e-01,6.842555456888059773e-01,6.603313531277390513e-01,-6.865646077931905622e-02,-6.280526888002585517e-02,-4.077551813612857040e-02,2.013206928968429565e-01
7.240996900584235618e-01,4.082364641398107397e-01,7.499252682050725483e-01,1.031309004523801474e-03,3.543808805668246815e-03,-7.490039206523237125e-02,3.542103469371795654e-01
4.827108819542816898e-01,7.033488718708269527e-01,7.027047097175052048e-01,-4.616372274457566580e-03,1.813817531963844406e-03,3.530729411873329091e-03,2.205688357353210449e-01
6.258265604778981972e-01,6.739254160768715085e-01,6.029766425694054188e-01,-8.600551962870926770e-03,5.056966492908077614e-03,2.019969885672397766e-03,6.515782326459884644e-02
6.057608661148521367e-01,6.296365234313203718e-01,6.738475785921715921e-01,-5.218882750154732811e-03,1.901139188077684977e-03,6.760048083174765958e-03,6.172422692179679871e-02
7.325417661550779336e-01,5.087772848378412371e-01,6.708352890808717550e-01,8.806491683505557333e-02,3.266207881564319598e-02,-6.478978804220500431e-02,2.813012301921844482e-01
6.037168497609700646e-01,6.524619281046214470e-01,6.374807642619125803e-01,5.883797093749261464e-03,-7.986863926179350523e-03,1.295531912810225783e-02,5.166244134306907654e-02
8.341598368411230480e-01,7.290506437525207106e-01,5.633691776292655273e-01,-1.484881591481911345e-01,2.385876993671449120e-01,3.114988310368928537e-01,7.641505002975463867e-01
5.810562541644641588e-01,6.935279155488665026e-01,9.484840585654916723e-01,-3.350587417793127187e-01,1.052281633101653513e-01,7.416892656670523443e-02,7.020277380943298340e-01
7.127444970447325279e-01,5.221841639009126013e-01,7.616131438428290767e-01,1.004158394537329330e-01,2.105764294444905510e-02,-4.569597862396330284e-02,2.930161654949188232e-01
7.893341596163466756e-01,7.304538384200908174e-01,2.452049449407225912e-01,1.076499592473755332e-02,1.682446830606391594e-02,-1.601595898446372401e-01,5.879244208335876465e-01
7.595596861457782900e-01,7.218450291158670096e-01,4.539915247987534319e-01,3.247557983786703711e-02,1.152746258680194778e-02,-8.143197748655928159e-02,3.266895115375518799e-01
4.356923810258938046e-01,7.619970799305598730e-01,9.575582293332214334e-01,-3.248691793812855666e-01,-1.742985384711382910e-02,-1.230883785753800197e-02,7.256151437759399414e-01
7.001549265271607148e-01,7.075926615694145827e-01,4.841722359089473127e-01,6.068773593792522927e-04,-4.925267797573255370e-03,-4.384677156251095415e-03,2.200950235128402710e-01
5.833741637285502213e-01,6.727994877364780191e-01,6.519404897373008989e-01,4.470928877754249374e-03,-7.099156835958271052e-03,1.235706625193389724e-02,8.506419509649276733e-02
7.109980043583937759e-01,6.959545770734856251e-01,4.987457860315356317e-01,-1.757804022634897609e-03,-7.127122803225692180e-03,-5.402762874106250418e-02,2.258382588624954224e-01
7.295040910613267426e-01,7.317176404088863162e-01,3.386490556968699828e-01,-4.276546521420098584e-02,-1.375264506598022629e-01,-1.080494137552173856e-01,5.008882284164428711e-01
6.247214807497388778e-01,6.273400434854131680e-01,6.475677108410254901e-01,-8.583743804311457512e-04,2.986659147196088666e-03,3.729045468776732552e-03,2.323081903159618378e-02
6.692929118979282777e-01,6.161733552288750637e-01,6.148611009249157489e-01,1.790232688606080902e-03,2.061227565771796711e-03,-3.504129533789093797e-04,5.399856343865394592e-02
7.434818609689879398e-01,7.317493409870200471e-01,3.911564818065926818e-01,-8.610993653733371722e-02,-1.116073505188686921e-01,-1.681805392533537724e-01,5.143973231315612793e-01
5.441893120897725034e-01,6.869784147071981151e-01,6.995733961612342622e-01,-2.777147058473273394e-02,-7.701373244507059637e-03,-1.039402736658502895e-03,1.576094031333923340e-01
5.670030083688455402e-01,6.973735145594638363e-01,6.494880744145508089e-01,-1.401164905690478009e-03,-1.162592185778970298e-02,2.223827872379786734e-03,1.160725951194763184e-01
4.877176670925553736e-01,6.914977417857985920e-01,7.093162341427496909e-01,-2.277782063187576422e-02,-7.341648776181450807e-03,-8.837117876233294492e-03,2.177781909704208374e-01
5.133254034152187062e-01,6.894484762894068641e-01,7.020992659029812177e-01,-1.873499108893241991e-02,-1.821791811749621029e-02,-1.358638199363170103e-02,1.897628009319305420e-01
4.991718245861479497e-01,6.920520782444030683e-01,7.018037686412142984e-01,-1.945004358216572554e-02,-4.965929417924445921e-03,-5.161650783485200594e-03,2.011656463146209717e-01
4.595630920545105136e-01,7.234804258965155110e-01,7.723466919213058945e-01,-1.263833394819484091e-01,-7.917787955548005741e-02,4.825124314012146226e-03,3.895284533500671387e-01
6.708898564441758694e-01,6.221314498564628481e-01,6.155333573255834523e-01,4.958132988087036314e-03,1.809074117518772633e-03,-1.650293083960852536e-03,5.323877558112144470e-02
5.416147561740467520e-01,6.556582226667084790e-01,6.822437565902442769e-01,-4.597107704140905582e-02,-2.210200874394264645e-02,-1.327848288614975024e-02,1.583637595176696777e-01
5.315187098567709656e-01,6.428490053617637034e-01,6.916761057362744713e-01,-3.192465919290486676e-02,5.460155383964129111e-03,-9.403958948985797301e-04,1.528532058000564575e-01
6.573177483358301210e-01,6.353751071442302889e-01,5.930657709662263688e-01,-1.364151781221418364e-02,-1.117321963619773845e-02,-9.843266361305481882e-03,6.650867313146591187e-02
7.779312251368202258e-01,7.083251544709064929e-01,5.281635605743129069e-01,-3.745096813716934647e-02,7.581284746082607440e-02,1.105702347394919016e-01,3.285899758338928223e-01
5.519650018402592062e-01,6.781967408182728585e-01,6.814742322044521350e-01,7.460373908284533701e-03,-7.166033987214701084e-03,9.014440710388364753e-03,1.300912201404571533e-01
5.203301977702977643e-01,7.047815344805204996e-01,6.795166913144122800e-01,1.812682316821912594e-03,-9.844894793560637208e-03,2.884224073262117195e-03,1.741437762975692749e-01
7.710285885231626946e-01,4.985012309369283301e-01,4.323682039092875962e-01,1.431606673515414818e-02,-1.463096206314243135e-02,3.003088504398997993e-01,6.070263981819152832e-01
6.153391933063476760e-01,6.318812468819912098e-01,6.531909635877780618e-01,4.642978265965898473e-03,-3.282189618873808130e-03,1.085075215715001345e-02,3.912105038762092590e-02
6.953430150599828607e-01,5.415434506628868938e-01,6.539985309468276942e-01,4.288503025175983627e-03,-8.519327082729566403e-03,2.378592767709299463e-02,1.448279321193695068e-01
6.322159242640289500e-01,6.090355304646630774e-01,6.673697085983157917e-01,4.485677495071784329e-03,-9.034738094115545709e-03,3.624061777008183959e-03,5.415387824177742004e-02
6.361528720849494167e-01,6.206486890798155187e-01,6.487586927046972152e-01,3.513924391218380041e-03,-9.080350631261379160e-03,4.134156571660037825e-03,3.050253167748451233e-02
6.152344471764077394e-01,6.147658755279699072e-01,6.684334738216707317e-01,5.130171367838159881e-04,-1.218369726030410667e-03,2.221187711987393856e-03,5.362207815051078796e-02
7.014143959215766166e-01,6.015956449406527629e-01,6.260482272976665152e-01,-2.184258817707021572e-03,1.885023082426348509e-03,3.289320320984178564e-02,1.067321300506591797e-01
6.144046860341260130e-01,6.060131628677105642e-01,6.810977807422254893e-01,9.673217064783565244e-03,-2.802325948571702564e-03,3.515858501744644274e-03,7.361657172441482544e-02
6.696686897478908440e-01,6.155414210361551675e-01,6.062708605748221569e-01,6.077971148769352461e-03,2.318736121124052689e-03,-1.129386931466719660e-02,6.345946341753005981e-02
5.788148706968662127e-01,6.524525583536903151e-01,6.766493442176522155e-01,-9.732272804725444412e-03,-6.523634269244321660e-03,-1.305747393596652130e-02,9.334402531385421753e-02
5.733108538381357366e-01,6.255913277548860174e-01,6.842169843134838780e-01,-1.654168617362342802e-02,2.265458075691479268e-03,2.016276583661449906e-03,1.004174649715423584e-01
6.346179454487949068e-01,6.041134290162205600e-01,6.832836680530242068e-01,-2.881563237519502510e-02,1.151658404453655311e-02,1.010193052508253850e-02,8.932226151227951050e-02
6.743227941565583805e-01,6.048674702865779462e-01,6.126618277579873872e-01,2.388089378102962925e-03,4.343546569370171882e-03,-7.143301951255075916e-03,6.760342419147491455e-02
6.201556146970205186e-01,5.999139749722161019e-01,6.588864041441842012e-01,-3.654731511512776532e-02,2.563561748914565744e-02,2.699069518749123639e-02,1.042014360427856445e-01
6.053389043864391139e-01,6.513663421535719200e-01,6.512635088968802277e-01,-3.946036276371282618e-03,4.889407634757769044e-03,1.331521037126785247e-02,5.257489532232284546e-02
6.290698283851121619e-01,5.899011982556966460e-01,6.821539981547697362e-01,-2.168440693721202309e-02,1.135632116827160233e-02,9.940588856939703427e-03,9.233271330595016479e-02
7.440351430605606220e-01,6.427466452559859045e-01,5.385607764407858156e-01,-4.930232753359124753e-02,2.847163682312063571e-02,1.174146895943699448e-01,2.876622676849365234e-01
5.844341834112777301e-01,5.559242959528847283e-01,6.900787448386845879e-01,-1.087450358455278737e-01,5.077826305952058694e-02,5.171520169401838674e-02,2.573336958885192871e-01
6.335183585738066725e-01,6.315731545165872429e-01,6.326297184780672600e-01,4.270602252078477094e-03,-4.020297290463728523e-03,2.980005103148964610e-03,1.151905860751867294e-02
6.342552500981485375e-01,6.332445828879582628e-01,6.323825944043586222e-01,4.906307123406242416e-04,-3.557536755676879393e-04,1.422835856587966526e-04,1.948904129676520824e-03
6.767924656697070773e-01,2.520312403598837236e-01,9.933247809592327116e-01,-2.132212891772896912e-01,7.475151153170117579e-02,-1.288754269403174883e-02,7.541332840919494629e-01
6.161845788209462382e-01,6.037688198880166723e-01,6.788454112972143184e-01,-5.993630804222455782e-03,-2.487701767675581238e-03,-1.720738167933653830e-03,7.066634297370910645e-02
6.327352917936703847e-01,6.349405724388175187e-01,6.344501686696197851e-01,9.035083762633448323e-04,-9.469225633974402440e-04,-2.818163615510413069e-07,3.026755759492516518e-03
6.341096722185849410e-01,6.331147463691422228e-01,6.309704821490516036e-01,1.149646103510866156e-03,-1.004822823915173767e-03,8.007428950605252746e-04,4.079063888639211655e-03
7.026002637086403713e-01,4.584043555834853012e-01,9.551699889398919119e-01,-3.160049117867904100e-01,7.880023814000382265e-02,7.876896565669898320e-02,7.224395871162414551e-01
4.320440926984142616e-01,7.575600888260863863e-01,6.980225203195637995e-01,3.203604837250647458e-02,-1.513290427208792699e-01,8.627731652853727271e-03,4.026519954204559326e-01
5.275251362120836340e-01,6.811638438138397644e-01,7.050081921689526077e-01,-1.155356418991603483e-02,-1.794152662462721861e-03,3.131738359831073696e-04,1.680691093206405640e-01
5.639115343676968095e-01,6.469424664376884904e-01,6.851065512426257609e-01,-1.315020716655130283e-02,2.380284088288059461e-03,7.302633090390096664e-03,1.105223894119262695e-01
5.399734222109330295e-01,6.818691079036677261e-01,6.755115104635415202e-01,-9.393927038102822813e-03,-9.045663886707567408e-03,-1.064315912886037302e-02,1.418545991182327271e-01
7.063141972681116210e-01,5.853950189445189523e-01,5.430140723475854747e-01,-8.258158670623887143e-02,1.295629669733180389e-01,2.470894384342652572e-01,5.249006152153015137e-01
6.130556252340658707e-01,6.797249952411833496e-01,6.106244991337680394e-01,-7.053308342413240227e-04,2.371310707066030896e-03,5.878165276072246309e-04,6.806023418903350830e-02
6.307191512836773928e-01,6.327120874902100178e-01,6.361112782282697387e-01,6.568958568014116170e-04,6.363904589823515530e-05,1.758864421649501512e-03,5.734819918870925903e-03
6.333597254307666846e-01,6.365389287796872075e-01,6.311065692439394859e-01,1.454803355009142265e-03,-1.047816432979780743e-03,-1.830956700309415518e-05,5.656094755977392197e-03
7.017241934474856002e-01,5.200760457388133862e-01,6.765296081819082152e-01,-1.646584561457339196e-02,-5.045127146518051109e-03,-2.959121090000955620e-02,1.804741472005844116e-01
6.968921142154372861e-01,5.521167197757691492e-01,6.801545145041321128e-01,-4.061428183315650593e-03,-8.117931687690546974e-03,-1.344137636467054343e-02,1.400216817855834961e-01
6.416301479840077482e-01,9.362309990266763915e-01,6.136711537745734857e-01,-3.291624266690450218e-02,-2.988665539661406467e-01,-4.707452254624169830e-02,6.112857460975646973e-01
7.049331061544045207e-01,4.859627945534477078e-01,7.013456618849063240e-01,-1.608128096836511150e-03,-1.844266879811972629e-03,-2.764363406787851904e-02,2.224540263414382935e-01
7.748484739854549774e-01,4.325167473501217441e-01,6.941946928383508908e-01,-1.160612331375665551e-02,-7.727754873267983406e-04,-5.606537674440024988e-02,3.254559338092803955e-01
7.876183272902693711e-01,5.061176287166593291e-01,7.352959017466218494e-01,4.285760340852311223e-02,1.494210564717384816e-02,-9.635451740940463583e-02,3.182517588138580322e-01
7.034579698678300463e-01,4.200124578727800762e-01,6.916454187349941884e-01,-2.807335512848110198e-02,-1.292951819308494135e-02,-6.121978062838544232e-02,3.020631074905395508e-01
5.955192125973964856e-01,6.275269551059747819e-01,6.861020445096338571e-01,6.070121786386902148e-03,-3.261481491430423936e-05,1.737275806302511234e-03,8.031182736158370972e-02
6.196935802905514379e-01,6.230800213106525431e-01,6.617019624415441115e-01,-1.792885489452252521e-03,2.049045912629399776e-03,5.356188888799008792e-03,4.173989221453666687e-02
6.207671984079262684e-01,6.768909863453553832e-01,6.053244819402504584e-01,8.900072244871741131e-03,8.136175438835241414e-03,-2.153924592691472059e-03,6.859449297189712524e-02
5.877187203953240235e-01,6.343930179678107795e-01,6.712868023318443456e-01,-1.070690800145525194e-02,3.987913082242653708e-03,1.169898709589921315e-02,7.787076383829116821e-02
6.821114931758189837e-01,7.037203265056933832e-01,5.321343191209612078e-01,-3.960013677919271141e-04,-1.372817980968110696e-02,-2.394518197891824882e-03,1.636581420898437500e-01
6.284008227759547704e-01,5.954014659076691807e-01,6.867855042108723662e-01,6.366499907064460291e-03,1.215704809271691720e-03,-6.193943547506906822e-05,8.093471080064773560e-02
6.021253299564790495e-01,6.042880112379732660e-01,6.788391368481033750e-01,-2.262333775998316351e-02,8.990977822689162277e-03,5.744803949801494114e-03,8.718225359916687012e-02
6.433824090049268252e-01,6.253480556340627050e-01,6.632600070856603525e-01,-1.758978671170912875e-02,1.556217718923002223e-02,1.422085903901055409e-02,5.779516324400901794e-02
5.752929379033432378e-01,6.219515401914650354e-01,6.781357004525622179e-01,-1.796335202180080956e-02,4.011340468016010886e-03,6.351229449189593410e-03,9.535456448793411255e-02
6.157550704132467301e-01,6.093325862495642120e-01,6.805656627841482065e-01,2.424853068876948233e-03,-2.319634999024348596e-03,7.818190829772702407e-04,6.850928068161010742e-02
6.282837898397214405e-01,6.005082739315276141e-01,6.697772340507130995e-01,5.275410336189356210e-03,-5.556851054669784996e-03,2.276040374476952927e-03,6.194637715816497803e-02
4.530669348764800874e-01,7.641460292785261510e-01,7.239683347114258538e-01,6.664168951761335891e-02,-1.208080380584711927e-02,9.701292167222774071e-03,3.161163330078125000e-01
4.944360971425558193e-01,7.153459661677770143e-01,7.043341309337919354e-01,-1.423177220289756004e-02,5.009117944228768521e-03,-1.196632924385827450e-04,2.171929031610488892e-01
6.977494231501989441e-01,5.227324189589757086e-01,6.781869706079008964e-01,1.307461198001877694e-03,6.159296000237957092e-03,-1.196807739826129084e-02,1.677454113960266113e-01
5.082347603996797414e-01,6.989106810335152797e-01,7.024526186971249420e-01,2.050054483801307115e-03,7.170419605694451984e-03,-2.135330987129726871e-03,1.929397433996200562e-01
5.055642186648247050e-01,6.789415907228663061e-01,7.140535198034160258e-01,2.558792145733791712e-02,1.532255290571173448e-02,-5.082920453789599100e-03,2.003153711557388306e-01
4.631639306152334212e-01,6.935873366361342551e-01,7.218931513072748274e-01,4.747619456878696131e-02,-1.771386314246746127e-02,4.902919595502867878e-03,2.611396312713623047e-01
6.066406323230342235e-01,6.284055658146003864e-01,6.740960828266876481e-01,5.240823968188585216e-03,-1.997760701044869192e-03,7.707946351670364946e-03,6.187403202056884766e-02
6.024333852025861580e-01,6.124211260614317309e-01,6.810618352301940348e-01,8.980407212826386001e-03,1.534297131315898156e-04,-9.561423929551247057e-04,7.577350735664367676e-02
7.039622448677347322e-01,6.811321317535565800e-01,5.274917035080437522e-01,-1.566583275987667480e-03,-1.545377010607345636e-03,1.006212978797686036e-02,1.671899855136871338e-01
6.403799655994322215e-01,6.367489177390934785e-01,6.279111924178152337e-01,3.186014141532478999e-02,2.351848789641274029e-02,-3.562262524840689032e-02,9.292393922805786133e-02
4.057730871494117930e-01,7.065838648014836076e-01,7.179096560886404355e-01,2.334195242172756868e-02,-1.421585740909766041e-02,8.042942830174098709e-03,3.105755746364593506e-01
5.714105443290485864e-01,6.572991408111359402e-01,6.779380675014079483e-01,4.369664422345870269e-02,2.150967947074761133e-02,-1.940313862077511567e-02,1.334956884384155273e-01
6.697277298537221979e-01,7.077069407437087678e-01,5.373456938969478625e-01,-6.605919249566041525e-05,4.619780093306273538e-02,-1.698263869335552012e-02,1.768138706684112549e-01
5.698522636633721605e-01,6.483986458736062941e-01,6.859971669095384916e-01,-9.789486831088631963e-03,-3.917891963946012156e-03,9.498206980843051342e-06,1.042591109871864319e-01
6.588162656569171993e-01,5.888653783217663307e-01,6.843587749563161404e-01,4.732340113339469911e-02,1.076793078994265664e-02,-2.124282094694965317e-02,1.255085617303848267e-01
6.599852421291858562e-01,5.715187934489946997e-01,6.600529219534241321e-01,1.571212227665177291e-02,1.797332051008005208e-02,-1.923858290879052260e-02,1.032105013728141785e-01
5.689029181397698975e-01,6.842062608025192283e-01,6.500615357862455923e-01,9.471464771930495838e-03,-9.826351747764664954e-03,1.131771804551800174e-02,1.070831045508384705e-01
6.633107457283404784e-01,5.426992607639925525e-01,6.897609120722575371e-01,3.410554968057727399e-02,1.512883140687565700e-02,-3.707073378482605291e-02,1.635110527276992798e-01
5.711455887988188262e-01,6.487830558078672150e-01,6.992460336641065366e-01,-9.735279699222268088e-03,-3.472051066583128637e-03,-5.773381998228330897e-03,1.136327162384986877e-01
5.391626339448426508e-01,7.831273524606416903e-01,6.759006762967111337e-01,4.846890638332550932e-02,-1.144785894225693323e-01,2.968264694035513060e-02,3.063718974590301514e-01
6.240283447214903800e-01,6.860667342311485006e-01,5.996325846069433529e-01,-2.149929326076068133e-03,5.273486594662770387e-03,-1.075268836955741141e-04,7.781207561492919922e-02
2.214175768754205187e-01,7.121876069724125680e-01,7.655439154242504873e-01,-1.595483092682556114e-01,-2.570786078941302640e-04,-2.114579182591592131e-03,5.884457230567932129e-01
7.155410911974294796e-01,4.552288370881316104e-01,7.915456017663601296e-01,-1.330171144475860434e-01,8.901368407823427586e-02,2.486782906945630423e-01,5.964039564132690430e-01
5.893847344642226815e-01,6.725240306158256631e-01,6.306475302565364149e-01,-5.196917977633536308e-03,1.051449332429358306e-02,1.157019415975179058e-02,7.744996249675750732e-02
5.381865878740358378e-01,6.832424689063187895e-01,6.564699923141221749e-01,1.417139688813697472e-02,-2.338126551312465218e-02,2.358444387861850788e-02,1.475997418165206909e-01
5.725733917205416690e-01,6.920639646956364688e-01,6.694807358601563285e-01,2.989462889205268467e-02,-3.515752102745727664e-02,2.481604938693212498e-02,1.425701379776000977e-01
5.142564541828107405e-01,7.226260647086856226e-01,6.654070726645692213e-01,1.491707194591559288e-02,-1.047124365369940385e-01,4.673764161163921488e-02,2.736495435237884521e-01
5.077208804295497702e-01,6.789183166982817319e-01,6.962037365345092876e-01,-9.190486138513677405e-03,-6.243383650536048560e-03,-2.648309452428429089e-03,1.815432310104370117e-01
5.087949534678449792e-01,6.857354359447870307e-01,6.905390462644969141e-01,1.405536696913680002e-02,-2.088471771882957628e-02,1.694917885245376954e-02,1.869330406188964844e-01
6.499947671573345076e-01,6.534818786280021108e-01,6.014606367223421790e-01,1.188166694971731947e-02,6.285533511956288392e-03,-4.897183134549286908e-03,5.613340064883232117e-02
6.453729433809670679e-01,6.333775691438627842e-01,6.334963970033872238e-01,6.087958651474721476e-03,-8.101288410431124742e-03,4.549046759532485683e-03,2.264158986508846283e-02
6.224969355829562678e-01,6.696456530335239687e-01,6.161566161710662071e-01,5.160390501690956949e-03,1.268630842211219793e-03,-1.881801800650270261e-03,5.155074968934059143e-02
5.680444760269645066e-01,6.490538076949100565e-01,6.854988657960073839e-01,8.735856800357176544e-03,-2.638590288392316224e-03,5.920973234773597646e-03,1.058213114738464355e-01
6.628729885951004652e-01,6.250260455310699959e-01,6.141520451656801161e-01,8.278302312423997666e-03,-2.305639749540841672e-03,3.645722591868007841e-03,4.715501517057418823e-02
4.810100499651339678e-01,7.048145567577385195e-01,7.046881779619080799e-01,-6.454725176534407451e-04,-5.103067157196257073e-03,1.505057587426601035e-03,2.239338308572769165e-01
5.540610635545673013e-01,6.796072835387592104e-01,6.765895999314681664e-01,1.000738292375775822e-02,8.627677934144567518e-03,-1.006506434725774890e-02,1.273568719625473022e-01
6.241276073819171932e-01,6.323559152864842714e-01,6.575657351928937411e-01,4.524908735347254324e-02,4.058343664400604345e-02,-5.741408548550318985e-02,1.479300260543823242e-01
6.534780661256713863e-01,6.250506599765880411e-01,6.160193874772538214e-01,7.348089675901709958e-03,-3.588438817185047279e-03,4.857137632560251661e-03,3.765376657247543335e-02
6.456742930593293295e-01,6.283100745735845649e-01,6.251015560451603781e-01,3.686886617440608954e-03,-1.637405376267574153e-03,7.892341207477117284e-04,2.045031636953353882e-02
6.668726560058689801e-01,6.412430629278053074e-01,6.040295696851397667e-01,1.319716942399869891e-02,-1.184828673835364686e-02,1.806145664700814155e-02,7.012686133384704590e-02
6.289490622991430469e-01,5.928667393704712962e-01,6.866463053897543523e-01,6.100404448684097931e-03,-4.210095559186055603e-03,1.992948033618895890e-03,8.300296217203140259e-02
6.838491193094999865e-01,5.692975930600332468e-01,6.001085736196285492e-01,1.637310084223190382e-02,-1.605169359801795689e-02,5.939901843302678591e-02,1.506779938936233521e-01
5.888532315379280124e-01,5.647101119864582630e-01,6.987829200490210946e-01,1.096481799766495513e-01,-5.537998327719841074e-02,4.654379158855101450e-02,2.590163052082061768e-01
6.213642770199502285e-01,6.263533588784329087e-01,6.790860549676692726e-01,6.790325573985915575e-02,-3.492602953513273406e-02,1.911126349874717884e-02,1.471613943576812744e-01
5.290966418524379877e-01,6.785218363689023979e-01,7.037329425907465907e-01,1.008158415050338860e-02,-1.185526159534063808e-03,1.957437374581733058e-03,1.644727587699890137e-01
5.496955710701455500e-01,6.796354259410358756e-01,6.938933952935827376e-01,9.745787381771103125e-03,2.282536810186458227e-03,-2.496533429222914154e-03,1.387789696455001831e-01
6.149999903831709913e-01,6.092920177848505370e-01,6.774402213142624030e-01,2.996500189172458112e-03,1.255754867221784603e-03,-2.505000630287158902e-04,6.572386622428894043e-02
6.981348420469273286e-01,6.978404460235639872e-01,5.438095693528596231e-01,3.100122992210696711e-03,-1.357648963927180277e-02,2.488911871910808038e-02,1.618985533714294434e-01
5.711613977581736501e-01,7.183878896438391504e-01,5.788244060253553425e-01,1.578299418775958723e-02,-1.028483081713076480e-01,9.154959382940735385e-03,2.309507280588150024e-01
5.601918030645074431e-01,6.583413649286280478e-01,6.771230441427149582e-01,1.582246181677807173e-02,-6.702994707531028003e-03,1.479253718328759487e-02,1.156364977359771729e-01
6.954886362163928970e-01,7.204230428488312965e-01,5.390907360870031972e-01,1.962542689404489938e-03,-3.497021488140620443e-02,3.657292687840021841e-03,1.808373481035232544e-01
5.952672284606105313e-01,6.699478286888971290e-01,6.269022048375585410e-01,-2.853475880704524348e-03,6.431721670072622875e-03,7.079779927479542406e-03,6.718885898590087891e-02
6.280750811089360619e-01,5.947742307969889897e-01,6.800831510544996794e-01,6.325774370729033563e-03,4.174181440834988203e-03,-1.328711593017360259e-03,7.565258443355560303e-02
8.879175941679169348e-01,3.623885226047059427e-01,7.955986415794247257e-01,-6.683460636116195230e-02,5.897845166624798852e-02,1.036940625190900522e-01,5.406298637390136719e-01
6.809056088200867718e-01,6.688186535427605994e-01,5.411705353901437032e-01,2.234565942615410541e-02,-1.293917032503717757e-02,2.421677063497473456e-02,1.474537998437881470e-01
5.563833980487045139e-01,6.659150196160354973e-01,8.026173994193269712e-01,-1.462570832627986817e-01,3.478540981964248213e-03,-1.484062063131749362e-02,3.324581086635589600e-01
6.264611481921524838e-01,5.976946431465566256e-01,6.871478134076229871e-01,-4.592346701040779869e-03,5.948568479773186021e-03,2.842775039518537390e-03,8.031062036752700806e-02
9.229194510119378414e-01,6.212763260267538667e-01,7.032464252859794707e-01,-5.683497156797669148e-02,7.526311151527899368e-02,2.974842088145700503e-01,6.042820215225219727e-01
7.436136663742083375e-01,6.473592563294672253e-01,4.432813525136382049e-01,1.989312165959464598e-02,-7.955412237437500811e-02,1.231476509106351619e-01,3.690879642963409424e-01
7.157550325989823214e-01,6.962128491887192849e-01,5.341724908416998208e-01,1.971759020212527410e-03,-5.935344796416885081e-03,2.826762541597044320e-02,1.797779798507690430e-01
7.051267151745796991e-01,6.234560585221173845e-01,6.178747598446786560e-01,-2.683889926441190496e-02,2.825523506316755806e-02,6.116916767498446761e-02,1.514533907175064087e-01
7.116828118826374894e-01,6.851294483864915907e-01,5.106676547773936203e-01,7.119788877014691930e-03,8.736817467930070580e-03,1.213715093629169801e-02,1.913048475980758667e-01
5.976131581882947463e-01,6.276002264340843073e-01,6.863508212205329251e-01,-7.356826027878900047e-03,-1.321641890800949416e-04,2.306682812735177338e-03,7.931581139564514160e-02
6.057527150999331145e-01,6.534090744151629382e-01,6.537249816468619912e-01,-3.477022999767983430e-03,4.303241832667993767e-03,1.141548241367378903e-02,5.262172222137451172e-02
6.057301928514555733e-01,6.323833720923343060e-01,6.705965768705504093e-01,-4.527359701490291100e-03,2.700819135632439010e-03,6.966160637727915501e-03,5.846452713012695312e-02
6.972948919704226034e-01,6.831302291924068459e-01,5.153102590301743557e-01,6.988985838586690182e-03,-1.033535637056741570e-02,7.890222228635312626e-03,1.771865040063858032e-01
6.964713447516934774e-01,7.061326335661359810e-01,4.921833027399313831e-01,9.993034599686952471e-03,-1.824845683633143090e-02,9.356931188039934941e-03,2.129833102226257324e-01
6.418957231482235182e-01,6.177001041926012403e-01,6.564616711704147622e-01,1.539963425116831416e-02,1.391976449902544537e-02,-1.383973345716679737e-02,5.493056774139404297e-02
7.535898018583956359e-01,6.163397701807244999e-01,4.466979265641644048e-01,3.234825765202412051e-02,-1.574501476921047471e-02,1.224502947120895135e-01,3.460699915885925293e-01
6.086746250622531162e-01,6.317954013019371207e-01,6.601407940674097752e-01,-3.358450433700381835e-03,3.855865641153893419e-03,9.344738628857986520e-03,4.830954596400260925e-02
5.857882040197682771e-01,6.482607554792378934e-01,6.774299418277289764e-01,-9.425049223794928349e-03,3.403120921917613794e-03,1.051933707354177523e-02,8.490666747093200684e-02
5.001925091027035197e-01,7.035394633152949329e-01,6.814740181749261438e-01,-3.658693981363479817e-03,1.093117627214933336e-02,1.198199600996509556e-03,1.943009644746780396e-01
7.520046691504623793e-01,7.600136396780473591e-01,4.547900972987577450e-01,3.581200687948336847e-02,-8.799964010188189578e-02,8.011254366721427822e-02,3.702896237373352051e-01
6.328154330841820885e-01,6.727714330306507895e-01,6.066400698190196339e-01,1.090715981998654528e-02,2.977978651831915315e-03,-3.389559646067428610e-03,6.120020523667335510e-02
5.736431393066560025e-01,6.586956013799502019e-01,6.566906441327714505e-01,1.205801332899166661e-02,-1.422832291331219828e-02,1.793499509557228144e-02,9.526766836643218994e-02
6.501664499588990509e-01,6.514430529201573616e-01,5.976168596336757233e-01,-1.353138214298720866e-02,6.923968574399824542e-03,6.091992567876187981e-03,6.028789281845092773e-02
7.657253542604153251e-01,3.185566347792253006e-01,7.798662707665862115e-01,-1.858181717298689611e-02,3.877012592599680257e-03,1.260335214556362049e-01,5.051905512809753418e-01
6.233366667397700622e-01,6.804416651447900977e-01,5.970542105497096408e-01,1.515361693599427250e-03,5.257322218841498779e-03,-2.218844933973561449e-03,7.454653084278106689e-02
7.414494026268328986e-01,4.240468179555693107e-01,7.226795657705437081e-01,-6.214591322908758625e-02,1.872917798539541767e-02,5.787375923040243182e-03,3.284482955932617188e-01
4.461955057172546923e-01,6.965198437262003495e-01,7.637486252034179079e-01,8.127869205049488566e-02,5.642530773927320435e-03,-2.207456906630400964e-02,3.246336877346038818e-01
5.216311167188345532e-01,8.029570127068489382e-01,4.630282787946059520e-01,-5.983090551486043573e-02,2.723652914129384706e-01,2.044694088627365194e-02,5.775872468948364258e-01
7.034530003778156626e-01,4.649615380983538326e-01,7.224234247462970604e-01,-4.650931758499197988e-02,6.624757116883158749e-03,1.508611446900798032e-03,2.615151703357696533e-01
4.972741621087629627e-01,6.982666715190820605e-01,7.068595043979399861e-01,3.653905947336410533e-03,4.115821076085074415e-03,-4.060902249326496646e-04,2.056460231542587280e-01
7.093054241705410989e-01,4.990541148346069322e-01,7.253627817312023884e-01,-1.589443208179090045e-02,3.345709691775425234e-03,1.378365734137238733e-03,2.205373197793960571e-01
4.991951837349588583e-01,6.964524463412193889e-01,6.792352316892321662e-01,-1.993683081213444390e-03,1.053494390535113755e-02,5.282045246499868230e-03,1.903660148382186890e-01
5.647271200546586378e-01,6.669592887667523673e-01,6.159156387248848619e-01,2.460145622582773917e-02,5.227486481567893140e-02,-2.695180808872378250e-02,1.415324956178665161e-01
6.285220952747677670e-01,6.057474033422445281e-01,6.734126460647631429e-01,5.976920839732038394e-03,7.907622874061123394e-03,-1.951619566050636625e-03,6.214825436472892761e-02
7.202986011482809259e-01,4.733950149188948520e-01,7.242114723580950209e-01,-7.476203942276530082e-03,7.354373578357109587e-03,7.070865333505804533e-03,2.498454004526138306e-01
5.965610421136071650e-01,6.271224541626151394e-01,6.798655862654552351e-01,6.551511986274885860e-03,1.240615809210781316e-03,-8.492526143169554795e-04,7.391407340764999390e-02
5.512002337631187743e-01,6.814459116956659290e-01,7.067328253828571993e-01,9.418070972521322762e-03,6.912903723089421429e-03,-8.735749883789934583e-03,1.467490345239639282e-01
6.281451490445196795e-01,6.545967659089739765e-01,6.222726515429817251e-01,4.720782870200898942e-03,2.982515312802277389e-04,-1.420394065744364767e-03,3.102721646428108215e-02
5.978661881278384271e-01,5.992165799907782642e-01,6.786717504145439728e-01,2.718779384678565031e-02,7.624158355836956925e-03,-7.470500779294575629e-03,9.477119892835617065e-02
6.222018062521258441e-01,7.089046536294153489e-01,6.183998180083628560e-01,4.240669430063365164e-02,7.481212501953964089e-02,-4.717576008429465173e-02,1.916342526674270630e-01
4.167703624435672993e-01,7.191519550659392079e-01,7.084863599348578678e-01,6.742382396470954914e-03,4.219547749092410205e-02,-2.166769337423212882e-03,3.062925636768341064e-01
3.126325920998953567e-01,7.573579028822579051e-01,7.176719351476629205e-01,1.482035862098337875e-01,1.423890666703577501e-01,-4.282977583252986498e-02,5.602912306785583496e-01
7.072085902056751694e-01,4.279689291584889976e-01,5.855101774559330341e-01,-1.390909956924064328e-01,9.820051851724442837e-02,2.353194876928200174e-01,5.584774017333984375e-01
7.289080140027381916e-01,5.444733928201721529e-01,6.662052534038401808e-01,8.930721659334033002e-02,1.559252989871261035e-02,-9.896530263825001339e-02,2.835882902145385742e-01
7.733657089428486175e-01,4.620936381489061384e-01,6.971119561659557817e-01,-1.714013551145630561e-03,-3.181123538291938911e-03,-4.686918875243701460e-02,2.925724089145660400e-01
6.117162104367005471e-01,6.164565940663833121e-01,6.756842886096261491e-01,2.000814847865709130e-03,9.953207315829182191e-04,-3.416983426510306412e-03,6.213825196027755737e-02
7.896387757172221855e-01,1.399620689272054186e-01,7.604630521725613823e-01,2.181720586919661323e-02,-1.243835442092888072e-02,9.907780164200217371e-03,6.373090744018554688e-01
6.914840301087378238e-01,4.297425652468700452e-01,6.889709408282794767e-01,1.407353078395653379e-01,9.982134433195195833e-02,-1.777574809770351427e-01,5.019586682319641113e-01
6.162853221558765027e-01,6.223749989642131109e-01,6.620315027390095697e-01,1.662039918246623624e-03,1.324108491874870317e-03,-4.702865171994132128e-03,4.394445940852165222e-02
9.047726925527184161e-01,4.072209024376176045e-01,6.970214857425013344e-01,1.299467867232501350e-01,8.038780275570076017e-02,-1.782458910927244844e-01,5.938949584960937500e-01
6.509129201694333622e-01,5.655875148711355660e-01,6.964100203451620841e-01,-9.973391821620179731e-03,5.247272920320191457e-03,3.615470745927342865e-03,1.168447360396385193e-01
8.069511620932365847e-01,5.465578021286356947e-01,6.924242900779180587e-01,2.070869653187415102e-02,-3.304600175016716383e-03,-1.289161380360195341e-01,3.198069632053375244e-01
7.115803911230655920e-01,4.930715128159913752e-01,6.734591440507884386e-01,-1.996654217562454994e-02,-9.435866351180344572e-03,-5.780571201836120360e-02,2.288167923688888550e-01
7.573920250026267009e-01,2.961829346521776540e-01,6.576275570060631237e-01,2.142242683264667866e-03,3.400789774952769906e-03,-1.828341324669846835e-01,5.262964367866516113e-01
7.269795400664191831e-01,5.580264159321243200e-01,6.660438137383841717e-01,-1.059439826588483291e-02,-4.852486128048567014e-03,-5.671335526475423244e-02,1.789402663707733154e-01
8.811605596921918693e-01,7.283175477982969381e-01,5.658660820147870529e-01,-9.737924705397089931e-02,1.479179976473548597e-01,3.186411539150495464e-01,6.879425644874572754e-01
6.221628636366342002e-01,6.277016475281248509e-01,6.543352867311522658e-01,2.950479603918601968e-03,2.109031823564605328e-03,-1.716378558750220745e-03,3.059157915413379669e-02
6.166702757644170196e-01,6.165240774248904598e-01,6.628542201026624836e-01,9.584026012855110035e-03,6.593426395103787682e-03,-7.051717303051728558e-03,5.191233754158020020e-02
7.216070994481523782e-01,5.416357622222185420e-01,6.585027920139672197e-01,-3.314742236688175865e-03,-9.239212970233910693e-03,-4.797809144330850151e-02,1.794703602790832520e-01
5.893763463845399508e-01,6.324060986382233907e-01,4.003032947840934885e-01,1.613680871970025188e-01,2.570357371012132464e-01,-2.212837720490524740e-01,6.848040223121643066e-01
6.083359309650118174e-01,6.609078795510358040e-01,7.091995968145455853e-01,2.002127937030197813e-01,2.661416601239878221e-01,-1.128814967659560881e-01,6.153137683868408203e-01
4.672882217280184269e-01,6.424895927625196013e-01,6.818346448870781229e-01,1.738298233940905879e-01,1.934678934216434998e-01,-1.382342755600271533e-01,5.471771955490112305e-01
6.659377514457273106e-01,5.806449176879583396e-01,6.316580919498051561e-01,-3.651769883900932157e-02,4.174366121484815451e-02,4.010533906158732925e-02,1.399274617433547974e-01
6.803281830551051179e-01,7.075900454656794958e-01,4.958033670553351202e-01,-1.062050857247731454e-02,1.036049604386852022e-02,-7.745878420619098023e-03,2.016519457101821899e-01
7.055547563641944020e-01,7.370856494586145446e-01,4.144281363512825056e-01,-1.591847105567470791e-02,5.945561294427945814e-02,1.661898944302792405e-02,3.272950649261474609e-01
6.061455616090911658e-01,6.693123364278669163e-01,6.337888168323401183e-01,-3.483826987133770755e-03,3.471974385277613265e-03,7.821446031939634225e-03,5.713279172778129578e-02
7.799790920390764493e-01,8.677387121560222738e-01,4.586762223121513271e-01,-1.395917642997665797e-01,3.017406490082065740e-01,2.091641573461169024e-01,7.758759260177612305e-01
4.972028778057953069e-01,7.072364683608080016e-01,7.018567702604789904e-01,7.303536300061504519e-03,-4.855376532146053574e-03,1.835871740780006551e-03,2.079759389162063599e-01
6.115985414019851074e-01,6.182737942599300096e-01,6.631307841917749579e-01,-6.499845579996379671e-03,2.841569416905636702e-03,7.505510200294750363e-03,5.173109099268913269e-02
7.192183430007739187e-01,4.450466343479708708e-01,7.134809740062686423e-01,1.602609487685164799e-02,1.186232607246896775e-02,4.674740742614284794e-02,2.852694094181060791e-01
3.864503413203800308e-01,8.213601235059799777e-01,4.994897191474753639e-01,-3.035270800904426788e-02,2.915228470921778503e-01,2.190788741785853339e-02,6.418122053146362305e-01
6.268433170147371669e-01,8.028481046244996255e-01,3.750718263412875508e-01,-2.303079658473261918e-02,2.371237122527610763e-01,-2.942228357942420786e-03,5.558594465255737305e-01
6.114272128278968044e-01,9.139803819368985671e-01,4.415386613098610802e-01,1.249503102068824367e-01,2.320074089075488677e-01,-1.612195536931936846e-01,6.768280267715454102e-01
6.528232655877700408e-01,6.860347570575805465e-01,5.338830380567404221e-01,1.701198688778049820e-02,4.383154483650530953e-02,-1.272966557142925920e-02,1.622280329465866089e-01
6.128519313876628072e-01,6.736520989521452840e-01,6.049102350887082258e-01,4.740328522429505288e-03,9.113186103847155384e-03,-1.440396348631722487e-03,6.756754964590072632e-02
7.286901336027503673e-01,7.626871807964417105e-01,4.934994592847277151e-01,-7.638063186830057472e-02,-1.317013157419084368e-01,-1.054202825539359983e-01,4.090773165225982666e-01
6.649134763783037805e-01,6.794863619235693708e-01,5.715642798099322963e-01,-1.507217795859285350e-02,-1.856886878979797234e-02,-1.559762750392357233e-02,1.128387674689292908e-01
6.862403542781342347e-01,6.849627335646226722e-01,5.027214991413858636e-01,-1.458658301913569669e-02,-1.387395393580757343e-02,-2.307661411389747008e-02,1.904197782278060913e-01
7.999945675621984442e-01,5.729329017251113543e-01,6.677708717487473855e-01,2.113185266823269792e-02,3.655844186008935792e-02,3.405490195150572830e-01,6.263284087181091309e-01
6.281161213175137092e-01,5.936001336455057897e-01,6.853108988917376854e-01,5.625491405679069155e-03,3.900214310587016438e-04,-1.448811248161980050e-03,8.086051046848297119e-02
6.787421716462357368e-01,6.583843396374248202e-01,5.554198797014219258e-01,-1.949994412212872202e-02,-7.961984601369058792e-03,-2.073532374744036302e-02,1.254314035177230835e-01
5.920150360413334312e-01,6.509741952415623034e-01,6.320687073462409877e-01,5.650610583602039445e-03,1.506513847559030547e-02,-1.431099461125094965e-02,6.410948187112808228e-02
5.540791878832390660e-01,6.772207455365257811e-01,6.791577425874114615e-01,1.003738197224293693e-02,8.659689035058707601e-03,-1.014091422374693852e-02,1.274435222148895264e-01
6.882466627530419156e-01,6.793026331891968139e-01,5.338950353481602962e-01,-1.190766978225654520e-02,-1.242463928163688343e-02,-9.961874984395394095e-03,1.539808511734008789e-01
6.942932925441887004e-01,6.270339759628529297e-01,5.684565607312446200e-01,-4.586743066002688454e-03,3.885794068018273120e-04,-3.639298362932116837e-02,1.262217164039611816e-01
7.660724009534751744e-01,4.363813605423859654e-01,8.224863284613386227e-01,-1.112188136505176811e-01,1.954641512015138291e-02,4.741708507781999121e-02,4.189010262489318848e-01
6.961417518196989507e-01,3.873734894423525588e-01,9.014411992124961026e-01,-1.649227064487831795e-01,-1.782603596434068072e-02,-4.055478293653122512e-02,5.369930267333984375e-01
7.269612378854461987e-01,3.636238063869525194e-01,9.068934034801554578e-01,-2.334191668302422196e-01,-5.551489954120934767e-02,-3.571592418565253807e-02,6.374102830886840820e-01
5.909584975295335552e-01,6.525925713107726400e-01,6.700689354171727175e-01,5.190574845400871586e-03,5.215009229739478794e-03,-8.257741165909519496e-03,7.448696345090866089e-02
5.917216306134420734e-01,6.531271086352936628e-01,6.778076728852970856e-01,5.180316377496726500e-03,5.179931583424599896e-03,-1.173638663374381753e-02,8.043329417705535889e-02
5.810797135854637308e-01,6.516119906885310398e-01,6.524116659851202371e-01,5.993381673116198946e-03,9.165106134292666518e-03,-1.365158809135421855e-02,7.714079320430755615e-02
7.797695136934342797e-01,4.252300387853504837e-01,7.902332556462829949e-01,-9.603611619482124717e-02,2.734186490462384156e-02,7.899837694035283242e-02,4.220797419548034668e-01
6.326040775518042558e-01,6.423131518937553741e-01,6.311358684563146415e-01,-1.163461588250878096e-03,1.752916516943873538e-03,1.701349449226668888e-03,1.151692494750022888e-02
7.434081636426697060e-01,4.408874087193382918e-01,7.606081779462096071e-01,-7.885669802367867298e-02,1.635569182256198587e-02,1.739197039816885865e-02,3.426121771335601807e-01
6.214366156956981913e-01,6.135924834997398269e-01,6.536482754830095221e-01,-1.068862278373672141e-02,8.350971986251270324e-03,3.055694151590293561e-03,4.395181313157081604e-02
9.580936391093886062e-01,2.496954655876246765e-01,8.030618206157507100e-01,-1.227607046496403259e-01,1.114286718575066837e-01,1.240801134868663586e-01,7.380283474922180176e-01
5.346464938259825050e-01,7.583446388356690493e-01,7.293899706544418882e-01,-3.228539291592008587e-02,8.952317764640799203e-02,2.681058181608896723e-02,2.715304493904113770e-01
4.250519486145604153e-01,9.264265096464875393e-01,6.512958290489604396e-01,-7.907705301917515583e-02,2.338742195302604965e-01,6.231262252031378318e-02,6.193782091140747070e-01
7.345837430069895868e-01,4.799957515531076968e-01,6.657169256033772520e-01,2.482147638656838004e-02,2.180144234717575763e-02,1.430815819808577416e-01,3.416376113891601562e-01
5.914327345654606383e-01,7.742796475021224145e-01,6.674057564943169929e-01,-5.971475250156996206e-02,1.485902741144076444e-01,2.940103633933473931e-02,3.237923383712768555e-01
5.549735194922782444e-01,6.595488045096986607e-01,6.467544464067960241e-01,-3.517717631091426406e-02,5.292417146650988530e-02,3.038166020662685235e-02,1.569906175136566162e-01
6.224442006607325828e-01,6.365644223169760751e-01,6.370189105653396577e-01,-2.742425280297583912e-03,2.262865873632984286e-03,8.211962202934641047e-03,2.112434618175029755e-02
6.961697229531419451e-01,6.496339655117179257e-01,5.662949983407414845e-01,7.765120150644201462e-03,-3.597802532414217085e-03,1.105335865414621907e-02,1.165137588977813721e-01
5.851563116226607963e-01,6.723368489345348253e-01,6.835603655698657688e-01,-7.380358670172122715e-02,1.128139429956297596e-01,5.182445437102185110e-02,2.669907808303833008e-01
4.153558053535877370e-01,7.329253073812994623e-01,6.640748695204242713e-01,-2.694190199002994418e-02,1.221773238956398028e-01,1.228435059020522788e-02,3.621300756931304932e-01
5.838540706216108767e-01,6.766867008696277885e-01,6.489532327216553931e-01,-4.205340395809682892e-03,7.658777673157020002e-03,1.182383719125133965e-02,8.637654036283493042e-02
6.628263735683829205e-01,7.046349171001509148e-01,5.108976050237032940e-01,8.816409921647228249e-04,-4.420157896062922032e-02,2.240578846055950660e-02,1.963465213775634766e-01
6.171309779261375805e-01,6.687488750145615946e-01,6.082309299236031697e-01,-5.813824969398136838e-03,7.622461809734777140e-03,3.157581331068893236e-03,5.923375859856605530e-02
6.442528594531248265e-01,6.240558487734405579e-01,6.277924990788918969e-01,6.742615836810724426e-03,-8.642341877707130499e-03,9.054456419706017126e-03,3.086779825389385223e-02
5.243977798144026092e-01,7.746239728379188394e-01,6.057374526550004523e-01,-1.012717675893713004e-02,1.483909421669374618e-01,2.257434796266080679e-02,3.417192995548248291e-01
6.611737220190881947e-01,6.116912845390984899e-01,6.169232135435761544e-01,2.831159147276757822e-03,-7.947480992524300417e-03,8.275567449564600123e-03,5.134184285998344421e-02
6.539008968393277277e-01,6.182037123974218895e-01,6.287459053309044643e-01,2.881041207948918485e-03,-6.533277451205270724e-03,3.449132238232207118e-03,3.460840880870819092e-02
6.622704697275838548e-01,6.222571398838965262e-01,6.181312244153083224e-01,3.901627545686507225e-03,-1.707627579881996994e-03,1.801718400402878718e-03,4.298064857721328735e-02
6.026089931967236746e-01,6.685933255669468389e-01,6.261893319624693977e-01,2.428318051654821102e-03,4.383396936414508775e-03,-6.186387309804269700e-03,5.953300371766090393e-02
6.199553083626719863e-01,6.593568132436159468e-01,6.108774245930795876e-01,6.345797922962226854e-03,7.292880356810919201e-03,-1.651648921332700588e-03,4.776105657219886780e-02
7.238850473945056541e-01,6.935794577369922553e-01,4.977656938680180554e-01,-2.177851243476161720e-03,-1.828353750163351586e-03,2.264857623861599514e-02,2.162379324436187744e-01
5.897318051765028102e-01,6.830343111339619577e-01,6.304533825523375157e-01,5.983111695220649784e-02,-5.312437719710617207e-02,1.817288507353062924e-02,1.635873615741729736e-01
7.500938946993096490e-01,7.143227019658323629e-01,5.066538551583508188e-01,1.262368087573748424e-02,-3.627077472825727261e-02,1.309622457348622593e-01,3.281959891319274902e-01
5.652708794218639365e-01,6.854575778416415188e-01,6.477816992710396793e-01,1.339028802215759886e-03,1.078898855823595335e-02,-2.798371232116700011e-03,1.082324013113975525e-01
6.139496748087901468e-01,6.852048856247983100e-01,6.052932118032433584e-01,2.429921714357778043e-03,8.381423384490046397e-03,1.703801059114900054e-03,7.749983668327331543e-02
7.714799136713226257e-01,7.116618718071998639e-01,4.685985741303686503e-01,2.422640810476534012e-02,9.708565987838122663e-03,5.969879767151048400e-02,2.998881340026855469e-01
6.284175398361008247e-01,6.711545916469020545e-01,5.901669985946229602e-01,1.250693388698684294e-02,1.158034569419204296e-02,-4.925464504253635432e-03,7.660704106092453003e-02
6.271397456368974499e-01,6.462757445544651258e-01,6.254993618710983361e-01,-3.282322232907016000e-03,1.959516729092259616e-04,-5.950611927893180659e-04,2.082705125212669373e-02
6.838021834440840552e-01,7.125602300554499946e-01,5.202795273759350803e-01,1.338415335044809305e-03,1.369536418620997606e-02,3.391448712035058117e-03,1.813059449195861816e-01
6.346593472986548079e-01,6.318802451718812385e-01,6.281153129740686403e-01,-3.935186172065547813e-03,1.185042920522839244e-03,3.064437830372646228e-03,1.054531335830688477e-02
6.228660992530363760e-01,6.336418634346595580e-01,6.501965264061395633e-01,4.859784884680140582e-03,3.022598292133508828e-03,-1.065563153773680521e-02,3.174037486314773560e-02
6.349971353368317750e-01,6.313155916060753103e-01,6.326029534255509512e-01,-1.381208395233690482e-03,1.782342273473902722e-03,6.503221765370316822e-04,5.195554345846176147e-03
6.330434009790978367e-01,6.306041943045086473e-01,6.358115957411348829e-01,-1.197539302967600729e-03,2.226904563013158700e-03,7.688548944042912113e-04,6.427896674722433090e-03
6.368021026133958706e-01,6.143813110864618787e-01,6.406672287640304830e-01,3.004774040641507941e-03,9.408644715209439277e-03,-3.398613072712383405e-03,3.052205406129360199e-02
5.870243278198726822e-01,6.670543193219509170e-01,6.728772268097178433e-01,3.896408181341705357e-02,3.358085744019861235e-02,-2.235463462651096286e-02,1.278339624404907227e-01
6.343338596991467959e-01,6.583997432186831089e-01,6.009160371671519174e-01,1.212169931659218443e-02,6.050021863963268159e-03,-6.171458578072011592e-03,5.625853687524795532e-02
6.345972933962238383e-01,6.349659159443360457e-01,6.326718534001116723e-01,5.364558890668796475e-07,1.146385085393732432e-03,1.420573449655171449e-03,3.814399940893054008e-03
6.311996015025721496e-01,6.358193753251233371e-01,6.344017831212844793e-01,-3.705637878889231698e-03,3.720749430849458732e-03,2.749346129119134390e-03,1.105471979826688766e-02
6.331027795105192979e-01,6.326587677207263782e-01,6.344653115553074985e-01,-2.268179886361732325e-04,8.803491244917119665e-04,-1.056553738822739810e-04,2.274091588333249092e-03
7.281564953868122636e-01,4.533344247498792834e-01,7.039868232050331409e-01,3.260104977006477583e-02,1.173260609561554459e-02,-3.166421310718876836e-02,2.758229374885559082e-01
7.300065364003591739e-01,4.220478595236460961e-01,7.375645205583033492e-01,7.482774649317538995e-02,-1.816321589344290291e-02,-2.380154642668495107e-02,3.416285216808319092e-01
7.259005558211198972e-01,4.481424002421687813e-01,7.152922117449552752e-01,5.009102504492531777e-02,-1.943952279952628967e-02,4.405007854958453706e-02,2.979896366596221924e-01
7.408839391443052813e-01,4.246012269265697636e-01,7.333987414857451315e-01,5.319307511435267255e-02,-8.706210606003452965e-03,-6.654081162541085337e-02,3.460090756416320801e-01
5.639111941113297277e-01,6.597037933088013562e-01,7.315405691673931843e-01,7.504366350791409623e-02,1.075641426591496946e-03,5.773030984253727307e-03,1.954898536205291748e-01
6.295663144597147820e-01,6.403795275229019479e-01,6.278430746812622143e-01,-1.875542773117362888e-03,1.521974826117425926e-03,4.121941105446405573e-03,1.438757404685020447e-02
6.274655787383937033e-01,6.268547579672707482e-01,6.389003843837518515e-01,-1.140908542487115932e-03,1.788870088938172712e-03,4.288475577907987016e-03,1.438022125512361526e-02
6.260714152890237694e-01,6.418989882077584808e-01,6.238883372393880800e-01,-1.010126145322485375e-02,1.021351998920095108e-02,9.422612146494948465e-03,3.428180143237113953e-02
6.042425396949867578e-01,6.534546505821525741e-01,6.368519684091662469e-01,-4.015049393618094417e-03,6.052330987040230662e-03,8.220992336391442362e-03,4.734380543231964111e-02
6.230380655368575882e-01,6.408073739200705887e-01,6.396718310825928455e-01,-2.738097667925943387e-03,2.259294389315015354e-03,5.322149348417649743e-03,2.048513107001781464e-02
6.241029616154645243e-01,6.237448467809764141e-01,6.506805448686425741e-01,-6.129769021691420551e-03,8.243140226242316043e-03,5.349297894619426536e-03,3.344292566180229187e-02
6.604614724371726808e-01,6.186099865548597698e-01,6.213707564853395704e-01,-1.153330788838162046e-03,4.033927610964897249e-03,1.863654132442720598e-03,4.131409153342247009e-02
6.268877459858959167e-01,6.318838555388482936e-01,6.405457146199592389e-01,-8.388776189669329419e-03,1.007860246922626796e-02,9.939476222486570006e-03,3.091105632483959198e-02
6.302926910057085053e-01,6.327945562555399306e-01,6.356976773631058952e-01,-1.429647741754026076e-03,2.107799257038466510e-03,4.486231176315289004e-03,1.008908357471227646e-02
6.458707472530682558e-01,6.267857994245277231e-01,6.230361649183694395e-01,-7.407360241980780885e-03,4.884917275003804356e-03,6.187901100291270072e-03,2.830054983496665955e-02
6.163361140587022557e-01,6.536893781478508858e-01,6.273530590336504620e-01,-3.989207455119576397e-03,4.121201156555076746e-03,8.235752166380821276e-03,3.751396760344505310e-02
6.209989997978194731e-01,6.540243463411181679e-01,6.217765991296209105e-01,-4.670872064631926938e-03,1.166955255278173068e-03,1.319434777916385143e-03,3.376917168498039246e-02
6.009635075696750928e-01,6.853887647120964211e-01,6.354293857169931448e-01,-1.375072847261089339e-02,2.653545330901422791e-02,1.262775520830707564e-02,9.254052489995956421e-02
6.313031580636463413e-01,6.523686264229572318e-01,6.165826381027437186e-01,-1.082140610374436422e-02,5.530282569870034054e-03,3.603900174312437039e-03,3.811255842447280884e-02
6.186182868037236604e-01,6.624271222699796846e-01,6.202676616404254606e-01,-6.337583785389125195e-03,1.165462230691015864e-02,8.962564578622283021e-03,5.117270350456237793e-02
6.139639402644476718e-01,6.810895444499583951e-01,6.147269307643477010e-01,-3.385651024774502266e-03,1.365949066625874071e-02,3.050162132443055146e-03,7.125486433506011963e-02
6.059326946288393634e-01,6.735735312771837791e-01,6.274749584838333893e-01,-2.384370660212839065e-03,4.999074897304044487e-03,8.696642897249877782e-03,6.245908886194229126e-02
6.118302876350275588e-01,6.611624971749286983e-01,6.205601804725981996e-01,-3.565435812328536947e-03,5.780533110279271851e-03,7.518284555915260951e-03,4.885865002870559692e-02
6.144556893354138349e-01,6.685710135886001604e-01,6.156091478340033341e-01,-1.868986255875960175e-03,1.779535766894296605e-03,3.365307599778668245e-03,5.404936894774436951e-02
6.272470460631297540e-01,6.939080787282572160e-01,5.675809710984583978e-01,-6.651367382822731024e-03,1.645768148855673851e-02,4.882835682437460141e-03,1.140085533261299133e-01
6.094912003856153282e-01,6.685603447423272838e-01,6.204401363193943197e-01,-3.938269647950486986e-03,4.605217728949896963e-03,6.929732755100197726e-03,5.671434104442596436e-02
6.536976933393666700e-01,6.208610906189523382e-01,6.325909513021421571e-01,3.766474318552019956e-03,9.412206581543208772e-03,-3.414398808766906223e-03,3.426318243145942688e-02
6.095187093766439856e-01,6.803355779838613504e-01,6.136982526156293805e-01,-5.393622786978205085e-04,2.085849550888524764e-03,5.455785417122005010e-04,6.892991811037063599e-02
6.834215622460078077e-01,6.084779156988466831e-01,6.351446453855561503e-01,1.030803275126106894e-02,1.117844240699252152e-02,-2.720876703748427439e-02,8.511023968458175659e-02
5.974246546922177270e-01,6.877879743089904130e-01,6.256669505413885446e-01,6.572936339705897670e-04,5.489908909213780594e-03,1.749565327392284741e-03,8.069687336683273315e-02
6.807174113085291411e-01,5.804334857340698317e-01,6.246186056629685623e-01,3.708179795850830799e-03,7.683345341456490098e-03,-1.827484227068069608e-02,9.379976242780685425e-02
6.098506899804889692e-01,6.804923505719741028e-01,6.162630442913183959e-01,7.797870226606685821e-04,2.259078902391736723e-03,-2.765218109773609750e-03,6.795922666788101196e-02
5.954222336524001014e-01,6.863301256986524823e-01,6.269718404127295752e-01,2.277107274031357938e-03,4.910440406636756676e-03,-5.167464093255441648e-03,8.099083602428436279e-02
5.946564532892166799e-01,6.799660683057217048e-01,6.247845645584446661e-01,8.593139794180320321e-04,5.289214904330948215e-03,-1.569815434882412212e-03,7.555627822875976562e-02
7.094410222147919942e-01,6.773770153120216575e-01,5.852627504472470710e-01,3.194983270890506405e-02,4.974458795125340227e-02,-6.670283434390140986e-02,1.905267536640167236e-01
6.031973513783356333e-01,6.790066934178132785e-01,5.997262111004059149e-01,8.420919048767468162e-03,2.412683807998213664e-02,-7.099272524705234344e-03,9.018035978078842163e-02
6.168036916484398446e-01,6.693996082486134425e-01,6.222839479309321131e-01,2.022183822822832752e-03,1.581707806629487068e-03,-4.681852847572160262e-03,5.092795938253402710e-02
6.719103209069090532e-01,5.904397104299458077e-01,6.269927671185132612e-01,5.635925088445921556e-03,1.128381239501891065e-02,-1.614183689196023105e-02,7.908557355403900146e-02
6.519206542830029427e-01,5.938510493394125733e-01,6.227777849833495694e-01,1.288512937360933135e-02,1.920737832853498112e-02,-1.702689631232891937e-02,7.073660194873809814e-02
6.132917155587094271e-01,6.615631790346608865e-01,6.200854222933612769e-01,3.311877391052217047e-03,-6.062457413142320096e-03,7.520404032191242358e-03,4.859199002385139465e-02
6.033745239112991987e-01,6.721420616449121921e-01,6.312052852374226974e-01,3.142483197884402609e-03,3.305868667732623535e-03,-9.784666034707043686e-03,6.276386976242065430e-02
6.218393287424474059e-01,6.621785312759735920e-01,6.190529710216930992e-01,4.562938789542525866e-03,-1.705579894049957150e-03,1.798119085575934075e-03,4.275865480303764343e-02
6.225399996664303659e-01,6.531744752083739058e-01,6.287561189252249827e-01,1.746929806224738159e-03,4.957549907127477848e-04,-4.265354594053461651e-03,2.917457930743694305e-02
6.225734683574931649e-01,6.283058827149545778e-01,6.633635193079059356e-01,1.589270103283258601e-02,1.510963694807519048e-02,-6.790259574720664167e-03,5.517085641622543335e-02
6.160292650025952499e-01,6.528095318469936403e-01,6.307428617210474320e-01,2.790075155925643424e-03,4.007740337881697534e-03,-8.090914769936612128e-03,3.600050136446952820e-02
6.316840423790400783e-01,6.473329149052425846e-01,6.241789930843170131e-01,7.075127030839885832e-03,-1.788073327675799521e-03,2.581997114753130981e-03,2.446267753839492798e-02
6.215599778158373834e-01,6.408830727802213856e-01,6.311783624370744805e-01,3.017449213820698733e-03,-3.231401563382496102e-03,6.087715237793970766e-03,2.120990492403507233e-02
6.223874072263172463e-01,6.542840428594124402e-01,6.278661329375310185e-01,2.246376393715888032e-03,-2.390241791490884532e-03,1.611087160897119392e-03,3.021132387220859528e-02
6.251744388346689441e-01,6.452028074202106334e-01,6.273509216715706938e-01,1.279730337080981157e-03,-9.160076205417852068e-04,3.602526504978756719e-03,2.021499909460544586e-02
7.097806217626002612e-01,5.128622075395561364e-01,6.834783126667550723e-01,2.415684034430667926e-02,3.755816274161704119e-03,-1.503257382576195754e-02,1.917294412851333618e-01
6.276641460618758162e-01,6.380926371710696765e-01,6.642672130652892415e-01,2.155224931633144270e-02,1.114056334115398963e-02,-1.309708883468719762e-02,5.785550177097320557e-02
6.612478277888429457e-01,5.652643914410142578e-01,6.750036542338223589e-01,1.408454561054854441e-02,1.483915659040806537e-02,-7.300049741123958505e-03,1.101724654436111450e-01
6.331015870951192115e-01,6.405956752876107441e-01,6.301594644840777804e-01,3.281361436412816041e-03,4.799510160832351664e-04,-1.249266112795537412e-03,1.115979533642530441e-02
6.210046774639331746e-01,6.363420933443046934e-01,6.411352937719975165e-01,3.235930757577442328e-03,3.659315552067179088e-03,-6.837928211815235552e-03,2.331488206982612610e-02
6.182010631801002631e-01,6.171029895062193349e-01,6.630826046347544356e-01,-1.261338890503894798e-02,-9.109778757142574998e-03,-8.656781266620769411e-03,5.491737648844718933e-02
6.395258025410723857e-01,6.104542713485224814e-01,6.515498496222116298e-01,4.464732780112318938e-04,1.164833547894641476e-02,5.615284547625700763e-03,4.291307926177978516e-02
5.913954880668851333e-01,7.706808607745522233e-01,3.114710058115098823e-01,8.899991063480722220e-02,-2.706961080804789477e-01,1.148250190774829094e-01,6.662085056304931641e-01
5.236718132942199677e-01,6.819665095155696966e-01,7.043266135517713966e-01,1.140866011828248726e-02,1.461081383000987404e-03,-1.465420899141329364e-03,1.717556118965148926e-01
5.912276190234733164e-01,6.625953714678147755e-01,6.359793073384771844e-01,2.536097570965650458e-02,-2.859503955366391598e-02,2.487826261699928321e-02,1.007054746150970459e-01
6.468932955609898450e-01,3.436605935560471670e-01,9.172813989731603002e-01,1.904598209763529171e-01,3.100093244014566832e-02,-1.343526693382938175e-01,6.425809264183044434e-01
6.488059171936171321e-01,5.669417614603515787e-01,6.985572551941077180e-01,7.816461533343572674e-03,2.093645019510475148e-03,-4.951924579291908622e-04,1.159610450267791748e-01
4.900528758281086916e-01,7.039462049024928225e-01,7.017801121611724202e-01,-7.304565403917326512e-03,-5.663327392999076976e-03,-3.029025608518732659e-03,2.134843021631240845e-01
6.406893161196475228e-01,6.212535746999954256e-01,6.412800590741140061e-01,2.313455534870229122e-03,-5.434009594874692969e-03,3.592182065813897488e-03,2.308530919253826141e-02
6.165336741280162958e-01,4.979578358137932703e-01,6.775438726952515145e-01,1.004960160693908616e-01,5.493489567295366249e-02,-6.375635704940643689e-02,2.767007350921630859e-01
9.030458216994656784e-01,2.690368757723244353e-01,7.303128454415770410e-01,4.457610185064381919e-02,7.997933290537731499e-02,1.748270693915456864e-01,6.626722216606140137e-01
7.889511995539429945e-01,2.544413360903357013e-01,9.317365767280287869e-01,2.942352328958038835e-03,-5.805721224538280822e-02,1.231745040633438343e-01,6.618628501892089844e-01
7.168245548743868989e-01,6.990891822288822777e-01,4.919506629844221379e-01,-1.164990795912745539e-04,-4.363241671148756703e-03,-2.976187479015721463e-02,2.227308899164199829e-01
7.459368964062591534e-01,7.311686619098940465e-01,2.747497587534463159e-01,2.636009214254830466e-02,-9.218721218733566536e-02,1.441229812233001950e-01,5.524229407310485840e-01
6.498015405612695972e-01,5.720260528837100011e-01,6.734831226107300672e-01,-1.156958518873170937e-02,9.610721613883656603e-03,2.967223133340737926e-03,9.569100290536880493e-02
6.474554700004662156e-01,6.228405316799383584e-01,6.333239090840894203e-01,-3.070289632416246892e-03,8.333921737518698233e-03,4.882284037687555957e-03,2.767492644488811493e-02
7.028472011679002263e-01,6.780900240310204774e-01,5.312936366555781609e-01,-2.427157501976482182e-03,-1.042549412262094941e-03,-1.177910625770204472e-02,1.619677096605300903e-01
5.835875324985118073e-01,6.762017948148708602e-01,6.508267239644739410e-01,3.739586136658687877e-03,-7.387433852625100404e-03,1.138730895981333348e-02,8.640538901090621948e-02
4.872934681766397658e-01,7.914316150389979487e-01,9.154253277191143345e-01,-2.918344800031505981e-01,-6.691925321804381710e-02,-5.256471778253790639e-02,6.502395272254943848e-01
2.597929383483821852e-01,7.701403123332362100e-01,7.256000180201841454e-01,-1.065892823234220049e-01,1.269477015120858421e-01,2.351348656164085893e-02,5.690315365791320801e-01
7.144395043857124650e-01,4.815056575355657342e-01,9.796050880362365820e-01,3.197461439348286416e-01,-1.989024209786421915e-02,1.761623613703918248e-02,7.036815285682678223e-01
6.849463314759481891e-01,5.638165810698079206e-01,6.564771536937736851e-01,-2.067457803637516578e-02,1.812708484593538241e-02,2.600754551252904695e-02,1.277955919504165649e-01
5.953913787421784010e-01,6.132219060724706239e-01,7.240906662335375721e-01,8.348669261253634233e-02,3.449779333084574719e-03,-9.680536562114734969e-03,1.892447769641876221e-01
6.979970285771482930e-01,3.867104544963319568e-01,7.513713507972884509e-01,1.277881810308904575e-01,-8.344605599640418647e-02,1.936716805192059687e-01,5.465969443321228027e-01
4.822514139989170223e-01,7.893671314489414392e-01,7.644849286687555034e-01,6.032163906011291099e-02,5.668794696202841821e-02,-7.824656017108834460e-03,3.286910653114318848e-01
7.869739883828700266e-01,2.872637422020064557e-01,1.008454723647834284e+00,5.730539431516480653e-02,3.829952056672816102e-02,-9.733739255373560773e-02,6.723958849906921387e-01
4.835653296714831351e-01,7.073805230522011156e-01,7.062519673187158675e-01,-5.492087233602025408e-03,2.574648214283883733e-03,1.975707411420030688e-04,2.235003709793090820e-01
7.071428394234311465e-01,7.243905150356999556e-01,7.569468369818372899e-01,-2.252195530845635119e-01,1.893327497663095382e-01,2.109603199501015047e-01,6.286047101020812988e-01
6.553093239984254526e-01,5.812412134911303374e-01,6.763731403412154286e-01,-1.299708378223397159e-02,1.247042655287276293e-02,6.785822026996781928e-03,9.274360537528991699e-02
6.517712602963854351e-01,5.656312951957563895e-01,6.958980766448291666e-01,-9.125755513744258224e-03,-2.933948937800819230e-03,-4.088842364219424046e-05,1.159483492374420166e-01
6.302852790539651417e-01,6.242368441682546454e-01,6.393147250630412115e-01,-4.268754559761691464e-03,5.042988369461390286e-03,2.416312501102291059e-03,1.792222633957862854e-02
6.555551819271082659e-01,3.785324532803722164e-01,7.558370090289554533e-01,1.861559555686563006e-01,7.511196174246904944e-02,-1.347322932298600506e-01,5.384461879730224609e-01
6.837098936097377733e-01,4.092948957847201696e-01,9.715357812745388788e-01,2.069653159723146563e-01,-4.011254705317679470e-02,5.121059034851336428e-02,6.150850653648376465e-01
7.065632852303428413e-01,6.790832532748621864e-01,5.262102025682388051e-01,6.351007982591012554e-03,4.169328646153255824e-03,-1.161388840677586402e-02,1.700119972229003906e-01
6.858789455110507749e-01,6.203397369899105174e-01,5.798866953231911481e-01,1.292473240100754268e-02,2.186731142187216953e-02,-4.592806985195006103e-02,1.297957748174667358e-01
6.760756894462601752e-01,6.197773801191810428e-01,6.106943293990103605e-01,-4.850901041853861000e-03,-3.786024101621031281e-03,-1.147152204458964410e-02,6.535858660936355591e-02
5.612546026675534483e-01,8.180460138348282229e-01,8.213789737108044831e-01,-2.702677961198445833e-01,2.047818524839868926e-01,1.370377541516677178e-01,6.841693520545959473e-01
6.984021968162542615e-01,4.959957046539035241e-01,7.035946350953788953e-01,-1.637028854556133936e-02,-1.917684867664287652e-03,-3.725608085099576302e-03,2.071303129196166992e-01
6.537470012873582981e-01,6.348930228539767517e-01,5.897121258657389564e-01,1.909606006754941548e-02,1.527331940591930212e-02,-1.286736821872472292e-02,7.442536205053329468e-02
6.805799615563595806e-01,6.096067793564663440e-01,6.145679784408806245e-01,2.114203132801523947e-04,5.521124818510846424e-04,-1.647228144488605906e-03,6.869412213563919067e-02
4.807190265913322547e-01,7.023906530491346167e-01,7.045353697547835914e-01,-7.920774585926974257e-04,-5.505367135196065007e-03,-1.590402152360982646e-03,2.229769676923751831e-01
6.773330652293088061e-01,6.132101582915641114e-01,6.103163113027318953e-01,7.906608277799179576e-04,7.285467928876483874e-04,-1.896710653929078874e-03,6.572628021240234375e-02
6.151350298873464739e-01,6.139974378275304678e-01,6.702716847772665076e-01,-2.129397414770795721e-03,3.974783721239445733e-03,1.760367176437027410e-03,5.634149536490440369e-02
6.972681154981731355e-01,5.155713630650599066e-01,7.096097000619016049e-01,5.447795921927209295e-02,-4.013081897472320358e-03,-4.012161570736576255e-03,2.107334882020950317e-01
7.414943104947647745e-01,7.390463577097085013e-01,4.450401108676347861e-01,-5.224437077712711444e-03,8.591694189722129046e-03,-8.040141242632464769e-02,3.268973529338836670e-01
2.947985547146586005e-01,7.322585303885021935e-01,7.639450626891508556e-01,-1.630964741180564725e-01,8.627262525271663096e-02,5.073095268852113177e-02,5.622170567512512207e-01
6.797849922840302206e-01,6.166862074786968462e-01,6.108433156886462490e-01,3.279212414948075565e-03,6.971955965537579526e-04,-1.939073116141617299e-03,6.655278801918029785e-02
6.801251360188663719e-01,6.093907896607758667e-01,6.088670580162064416e-01,6.782333444799328427e-04,1.063280289896525619e-03,-4.037792041462634658e-03,7.137472182512283325e-02
6.861806081293417847e-01,5.989622089509230030e-01,6.230928379834955733e-01,-3.638240109740339696e-04,1.501408198755257778e-03,-5.114468102637175287e-03,7.855147868394851685e-02
6.777544775375221597e-01,6.175980154510631870e-01,6.114084028532859039e-01,-1.035858866586194691e-03,-1.802090362069405443e-04,-4.368128939109318723e-03,6.395322084426879883e-02
5.911120725735943271e-01,4.968781606576745391e-01,8.655425531028421160e-01,2.593299789541635980e-01,-1.767439919534946266e-02,-1.426005088613103156e-01,6.113516092300415039e-01
6.901067122114105112e-01,5.286869629832169348e-01,7.340908246216817368e-01,-1.818222776199697466e-01,2.141766967548638934e-01,1.835400698130112140e-01,6.106919646263122559e-01
6.092106520553025595e-01,6.381647558133854981e-01,6.806743500268502833e-01,2.607962292241599450e-02,-1.526379848559542875e-02,1.545419316021754905e-02,8.562780171632766724e-02
3.726770035550133753e-01,6.412984289224450407e-01,7.378866584926153660e-01,-1.830900281039844202e-01,-1.213247314897512863e-01,-5.643113165368915385e-02,5.115767717361450195e-01
6.425216794552499611e-01,6.020062477038009563e-01,7.705615767484014222e-01,1.504191539141950251e-01,3.437036815733932743e-02,-4.261652467513780268e-02,3.163756430149078369e-01
4.467472624971389195e-01,6.444278682845311357e-01,7.413150719850747361e-01,1.180946264076249974e-01,1.770699409544067640e-02,-7.235656364028144466e-03,3.324968814849853516e-01
6.692655440003655309e-01,6.302410268059014387e-01,6.027642453601596007e-01,-7.320415659140864541e-03,-7.289651840008386924e-04,-4.640916223382664067e-03,5.980909988284111023e-02
4.805904988430390601e-01,6.784008768139476730e-01,7.118699157335104388e-01,-1.909682435225009134e-01,-1.928022739363061955e-01,-1.127319204837442523e-01,5.531002283096313477e-01
6.570263646150590331e-01,6.081091813610277619e-01,6.327974573863219820e-01,-5.003605011161246785e-03,-9.860903025262527169e-03,-3.834089345142789509e-03,4.696426168084144592e-02
6.902760440483339810e-01,5.992538409376431119e-01,5.971803015955385874e-01,2.391233377619876707e-04,3.585263071271990905e-03,-2.295738953597797199e-02,1.004884988069534302e-01
7.754840541680996235e-01,6.308519429815023782e-01,6.163081934674243811e-01,-4.964207289466569806e-02,-5.113266142419104626e-02,-1.401089630765989802e-01,3.120283186435699463e-01
7.601402151975876764e-01,3.786586514882139820e-01,6.318845887068271772e-01,9.078126246309643765e-02,5.805115459199275407e-02,-2.336625246763206487e-01,5.582818388938903809e-01
7.877453102602505197e-01,7.990311316201724745e-01,3.598241805396403814e-01,1.457434178699989480e-01,-2.278884690719414630e-01,1.215141065981016205e-01,6.722300648689270020e-01
5.618183643775032099e-01,6.672789654701928308e-01,8.150393655725420849e-01,1.382263926681970012e-01,-6.875672043206565269e-03,8.521434307099238006e-03,3.259098827838897705e-01
6.070777098320385701e-01,6.109021297152337215e-01,4.786277910636875244e-01,1.856991248038438735e-01,-2.200941493310302199e-01,2.558420799747588847e-01,6.798143386840820312e-01
6.249506929479976547e-01,6.734426912832985890e-01,5.980765981193235659e-01,-1.526266038045711280e-02,-1.760805499655570053e-02,-9.466460186551995531e-03,7.921292632818222046e-02
6.492655196110606042e-01,5.645625467404962183e-01,6.869062554354085082e-01,1.001303195468345592e-02,-8.018235923790221695e-03,1.432774779483418724e-03,1.108129844069480896e-01
6.467761594687898574e-01,6.226839993793303885e-01,6.290362363496124765e-01,4.479916657669174782e-03,-6.429867898243178323e-03,4.942535493779249764e-03,2.693080902099609375e-02
6.254673936865772221e-01,6.485211119615553743e-01,6.301949622187940081e-01,6.730349403255819415e-03,-6.289847340732946518e-03,6.734724918596485428e-03,2.890475280582904816e-02
7.648081226975120828e-01,4.304859845021400400e-01,7.645579548164624928e-01,9.612534953693341322e-02,1.934056936586539543e-02,-1.439320266742000198e-02,3.757015168666839600e-01
4.458153265483157934e-01,7.359465159494306130e-01,7.287872523947600545e-01,-2.097985057756788715e-02,6.301753935135330498e-02,1.824928530333115237e-02,3.104568123817443848e-01
5.933941109623809274e-01,3.946164733944581005e-01,7.897903612280666730e-01,2.493576305813341165e-01,3.357895100036776409e-02,-4.313978661683556121e-02,5.591302514076232910e-01
7.271239858805662593e-01,5.289932255868938782e-01,6.449454179613460791e-01,9.307393503485808517e-02,-3.565974340519014602e-02,1.317672479684653952e-01,3.340927362442016602e-01
9.405540163085942540e-01,2.614952190312297420e-01,9.035860274606538622e-01,-2.561091862564658650e-02,-1.062323910089898408e-03,1.295111583397661748e-01,6.997675299644470215e-01
6.608297500863731244e-01,6.190402580802014665e-01,6.376330025583087924e-01,-1.496453363255789530e-02,1.386220467460703640e-02,1.875711716700856346e-02,6.015690043568611145e-02
5.873207265992939075e-01,5.982219560132866487e-01,6.852213012806686043e-01,3.149947543736314470e-02,-1.789863937243306880e-03,3.300777765551721372e-03,1.079586520791053772e-01
7.573321970177191442e-01,3.850035497460463363e-01,7.474260203313904949e-01,-1.354941150524798833e-02,3.844253929383687624e-02,5.713592745173129428e-02,3.870609700679779053e-01
9.095871720625187118e-01,3.064530631426405916e-01,9.088336077352574538e-01,-8.211667252878392109e-02,5.105742845127957119e-03,1.193571721755087023e-01,6.529646515846252441e-01
6.695464283607698297e-01,6.196678427073343265e-01,6.101307492357613826e-01,-6.905438578244666413e-03,3.164006848355038586e-03,5.427900495873076367e-03,5.758472532033920288e-02
9.617686077118901000e-01,3.278313966172270999e-01,9.647987996425961832e-01,1.206902443049238521e-01,-9.247182999143302440e-03,6.352858378057427147e-02,6.781364679336547852e-01
4.913366262517316896e-01,7.085380649696420008e-01,7.085539252293786561e-01,-6.170806120304376738e-03,-3.909363204909939611e-03,1.944689577769501826e-03,2.176036387681961060e-01
6.504361837084279285e-01,6.723424494175300747e-01,5.820749433499288195e-01,9.645543901135889345e-03,-7.567217277685851957e-03,4.788189037431145843e-03,8.467798680067062378e-02
9.211762613678551315e-01,2.636593465923006141e-01,8.236074007656747353e-01,1.204379680025892269e-01,-7.669342519161476135e-02,-1.173551472383717320e-02,6.627742648124694824e-01
7.257239435730614696e-01,6.400642610166135116e-01,4.988366710313891783e-01,-2.123131856994067007e-02,-4.080549252745114923e-03,9.181210157954679263e-02,2.570427358150482178e-01
6.503059504627265452e-01,5.849855871290573495e-01,6.770351383685154767e-01,8.387561488460657314e-03,-9.856177035665634328e-03,3.241469265021245695e-03,8.521248400211334229e-02
9.352853249355389531e-01,3.243538914280026941e-01,9.550781543804351958e-01,1.296520621565518672e-01,-4.294007824762061803e-02,6.018237889039648736e-02,6.727163791656494141e-01
6.839116721878091276e-01,6.098446988501491361e-01,6.339759712119578117e-01,-1.563092455631388822e-02,1.108359296956479105e-02,2.667575078531307306e-02,8.670182526111602783e-02
6.781597434680578518e-01,5.788887553582593437e-01,6.148686058133544519e-01,-2.618022915156629007e-02,2.155483227997423076e-02,4.755216081005003703e-02,1.334585845470428467e-01
7.738137476409846505e-01,2.373252535212069247e-01,7.601868300314600368e-01,5.616426125659926966e-02,4.160505273137674043e-03,9.092695107660048182e-02,5.612604022026062012e-01
6.626158837973328275e-01,6.951636394149776077e-01,5.757072711970072643e-01,-1.020686077303389894e-02,-4.517601776085856252e-02,-3.108448582115942022e-02,1.441354751586914062e-01
6.665292255889458950e-01,7.621506177503952761e-01,5.507665829086223486e-01,2.504775790870326091e-01,-2.530523161108073071e-01,1.611696512692139815e-01,7.013303637504577637e-01
5.948208230955607245e-01,6.281955313463395418e-01,6.519732884912292636e-01,-1.711255913114401173e-02,-1.005420788190615825e-02,-2.013267948516086342e-02,6.978956609964370728e-02
6.981282131164606719e-01,5.047578421990589481e-01,7.026000039491100413e-01,2.012664424354099896e-02,-6.393366724034001310e-03,6.317223009966514875e-03,1.993349045515060425e-01
6.516256461662720545e-01,6.873795189530534921e-01,5.613141337383819041e-01,-5.619070039789180945e-03,-1.141927481814081387e-02,-2.153623913056435923e-03,1.147315576672554016e-01
6.146648469815658711e-01,6.775229891317054998e-01,6.129481593815964136e-01,-5.307450967501222382e-04,-1.723291527456449670e-03,-7.167366660230680125e-04,6.382238119840621948e-02
4.111478517829614265e-01,7.519574828797794819e-01,6.835086035201131116e-01,1.706330863498808637e-01,-2.085927937365419926e-01,5.494209297569615374e-02,5.695999860763549805e-01
6.106068113060025837e-01,6.756743654962100720e-01,6.041342731235489483e-01,3.178764776707524841e-03,-7.290171436337737447e-03,1.159654989383706669e-03,6.993296742439270020e-02
9.360611262441050906e-01,8.512724949396293095e-01,3.444493309410910364e-01,2.615744928225774771e-02,-2.444570172675195399e-02,2.195291169896310957e-01,6.748749613761901855e-01
5.994731372953223669e-01,6.371527650841516399e-01,6.583560487465440758e-01,9.486030503723411403e-03,-4.186425475536784992e-03,1.489296737126827481e-02,6.046651676297187805e-02
7.786662851442289757e-01,4.585129078609714304e-01,7.985580689160374224e-01,7.673004544600181553e-02,-4.779405904818857451e-03,1.386170598698445618e-02,3.571690917015075684e-01
6.886474273515484912e-01,2.356659350105633211e-01,7.746409873550780256e-01,1.953412463958504319e-01,-2.297814140557795717e-02,5.159050003679589713e-02,6.128490567207336426e-01
8.002957492659289462e-01,4.290196657901074184e-01,8.004039320265056157e-01,1.756903616969961862e-02,1.377971160139167955e-03,3.463019398732149201e-02,3.773798644542694092e-01
6.452261986175368280e-01,6.030308772813057772e-01,8.013669086139894038e-01,1.515545878318154405e-01,1.289441378615699754e-02,-1.829558689532579524e-02,3.211823999881744385e-01
9.244432038319524425e-01,9.055677675394279147e-01,3.234502380355958606e-01,3.229896910776770130e-02,-7.385938916548479005e-02,1.481665252084610196e-01,6.599697470664978027e-01
6.111991645199996714e-01,6.186240284103333709e-01,6.614048437386865764e-01,7.704888681707796998e-03,-3.208809246648643750e-03,9.200003230485984465e-03,5.163210257887840271e-02
6.513439566194769714e-01,6.729367463901587687e-01,5.821276573916047692e-01,-1.172572198719255485e-02,-7.227396289804672094e-03,-4.133913648682544656e-03,8.586133271455764771e-02
7.191540799297964082e-01,4.103544833754096954e-01,7.973199011427998251e-01,4.083572671149583028e-02,8.928275265033199654e-03,3.491327844237067379e-02,3.667469024658203125e-01
5.264386231840719743e-01,7.254343948569801359e-01,7.612227049946023172e-01,-8.463052032079272646e-02,-6.218579338203866075e-02,-2.617581097244204083e-02,2.883497178554534912e-01
6.605232512194205707e-01,6.610019962863347143e-01,5.944243145982380794e-01,1.927081696275985759e-02,-2.166078082347190972e-02,2.328219057602672407e-02,9.245964139699935913e-02
7.043782580171503716e-01,6.185923582906877050e-01,6.140984969360943069e-01,6.916456378686903529e-03,1.289350520007056904e-02,-7.463932890165921041e-02,1.584936976432800293e-01
4.875564138998850217e-01,6.865536983495867940e-01,6.775594576611401187e-01,-5.719987615511659684e-02,-6.782921890141492549e-02,-2.545685351103692609e-02,2.518988549709320068e-01
8.093719076947194502e-01,3.915567805284125846e-01,7.278250970415827137e-01,-2.089584746704994389e-01,-1.173416226301835369e-01,-1.214593706563524556e-01,6.030780076980590820e-01
6.109660432487237225e-01,6.027402416333200730e-01,6.781558615342777596e-01,9.532810635775514768e-03,-3.388663136656515622e-03,1.409978152023864733e-03,7.380963861942291260e-02
6.085634943801737640e-01,6.107007718902274229e-01,6.779494872149646190e-01,-1.039935999958593871e-02,-4.908244388885741293e-03,-1.683846796925503363e-03,7.124538719654083252e-02
5.250991346417732686e-01,6.763257117658104667e-01,6.961696226708007362e-01,-1.234537696895192729e-02,-3.926186212100533229e-03,-6.535346135353468922e-03,1.639993488788604736e-01
5.261329421177205479e-01,6.790732306900859605e-01,7.032093380964621332e-01,-1.184478817356226024e-02,-2.456393223267338936e-03,-2.303815832211422460e-03,1.676889657974243164e-01
6.855808472269566689e-01,5.142800363981133716e-01,6.882637593171629931e-01,-1.646636413759182752e-02,1.835380052025228567e-02,1.669845825173534026e-02,1.801978796720504761e-01
5.691462892698740950e-01,6.485731868854270887e-01,6.585767170786352986e-01,-1.805215975916539539e-02,-1.705030543515708916e-02,-2.040293819483800231e-02,1.014981344342231750e-01
5.220474062588923436e-01,8.659739998564801589e-01,7.767870104699655665e-01,-2.020555693115974605e-01,-2.183761363349406570e-01,-1.022744180101677475e-01,6.264902353286743164e-01
5.412586750270163005e-01,6.779264999936279734e-01,6.832671297223652518e-01,-6.777254702583734858e-02,-5.555178287992242753e-02,-2.395375236741470806e-02,2.102265655994415283e-01
6.575746530222733588e-01,6.119215820152907881e-01,6.191066311246052889e-01,4.978400720882305251e-03,9.451463337129529380e-03,-6.095535400254997564e-03,4.755647853016853333e-02
6.886090814763377033e-01,7.011115483935363990e-01,6.428924944220557602e-01,-7.994001833526384604e-02,-1.019755533022715932e-01,-7.954910085444540091e-02,2.686453461647033691e-01
7.502794827336384254e-01,7.247339707956885757e-01,4.316590007806593299e-01,2.421631902583145160e-02,1.077714836130068826e-01,-3.249203018352048861e-02,3.657906949520111084e-01
4.846347348434986158e-01,6.510629132906219363e-01,7.056890707277791996e-01,-9.019455916228366621e-02,-1.791039541250833908e-02,-1.265774141250283931e-02,2.561676502227783203e-01
7.069137479207804331e-01,5.197198962755845697e-01,6.811523042598555122e-01,-5.760696148053494857e-03,-1.047580671432455507e-02,-1.044314381926700862e-02,1.778728961944580078e-01
9.723783800089231821e-01,5.643428913560555316e-01,6.051234446510638243e-01,3.386099663927762821e-02,1.564185832087247596e-02,-3.336519255824378916e-01,6.997575759887695312e-01
6.515440658820264019e-01,6.810034977124721500e-01,5.658303339702052126e-01,-1.195518577748982264e-02,-9.738853908660615941e-03,-1.007563344815487830e-02,1.084326952695846558e-01
6.373190046348446991e-01,6.211541214623447216e-01,7.282419503183485965e-01,-3.434191592969855766e-01,-1.660832286281678227e-01,-9.063861223999698791e-02,6.864438652992248535e-01
6.831653008211370226e-01,7.029002963928944192e-01,5.199887384360594167e-01,-2.133388926857223734e-03,1.434197906367139577e-02,2.177296632830282540e-03,1.757307648658752441e-01
5.547149731730806055e-01,9.252291736544766554e-01,7.342490154368899180e-01,1.456258464221602267e-01,-2.780173253562475688e-01,9.957665318233542562e-02,6.544016003608703613e-01
5.704570182396019318e-01,6.635971017321928844e-01,6.889156261139443016e-01,-4.199211854718123277e-02,-3.688012455721409455e-02,-1.388857790028161232e-02,1.470489501953125000e-01
4.262420067334061757e-01,8.383551363488225272e-01,9.613713435726751744e-01,-2.668269675399947416e-01,8.510186595521888886e-02,5.012717345047409956e-02,6.917527914047241211e-01
5.963624101409739087e-01,5.511403572060903366e-01,6.884453147222651115e-01,-6.605602039080638033e-02,-1.166486949519017317e-02,-9.425670667314705806e-03,1.686813682317733765e-01
6.771121638562400680e-01,6.512383998993775958e-01,5.756265800866267046e-01,1.331397777022187180e-02,7.696698397926144374e-03,-8.898816186043583681e-03,9.638480842113494873e-02
7.122751893611994900e-01,4.844393856072605198e-01,7.176159147341746314e-01,1.253667647289840592e-01,1.993510735829405814e-02,-5.029984802194252536e-02,3.302838504314422607e-01
6.265031404530647663e-01,6.063442200510490432e-01,6.638920289422007848e-01,-9.141196254373226346e-03,-1.254004399391958277e-02,-7.745865241069900368e-03,5.882574617862701416e-02
5.857656774354508267e-01,6.514577952423186158e-01,6.738791874600569276e-01,-8.705053410956198681e-03,4.192385432013666889e-03,1.066485721275537389e-02,8.314061164855957031e-02
4.882024993445697181e-01,7.155757919590599592e-01,7.070956795102741888e-01,8.091892904133913406e-04,2.804441103511181362e-03,9.688253362509557714e-04,2.233175933361053467e-01
5.170760567730792179e-01,6.981185271062446684e-01,6.774645365448572765e-01,4.129545552965597013e-03,1.340821080879399906e-02,-4.272544530797845429e-03,1.735193878412246704e-01
7.028200104560358152e-01,7.206194457985933832e-01,5.026531459634761001e-01,-4.392940012701784629e-03,2.701554814655617726e-02,-9.702849767488811589e-03,2.155836224555969238e-01
5.537603832862365572e-01,8.076903704580584709e-01,8.935865694535191084e-01,-2.818051810704853555e-01,1.868926681712425042e-01,1.116805136228951750e-01,6.885614991188049316e-01
4.632189297760860303e-01,7.731596102770470491e-01,7.842678615468082759e-01,-6.025160917458829979e-02,1.419146735850531846e-02,2.678088619732882529e-05,3.333534002304077148e-01
5.865387614382231440e-01,6.595307663409720744e-01,6.897655036304263243e-01,-3.014871271178288722e-02,2.143004087455795126e-02,1.360188232121392789e-02,1.144922450184822083e-01
7.210243275581966760e-01,7.252394092640666035e-01,4.938601829389750453e-01,6.238038693778906289e-03,-1.082626601791826688e-02,-2.075260207483458838e-02,2.331077158451080322e-01
8.452605188098459843e-01,5.195530825040052259e-01,7.535249293268533322e-01,-1.604701902900510790e-01,-1.092882934073032136e-01,-2.685478780500332174e-01,6.434745788574218750e-01
6.861893866553355759e-01,6.922802002999228765e-01,5.063845092689935878e-01,-1.690543144384466789e-02,-2.053167399531931683e-02,-1.446447700989831817e-02,1.902938336133956909e-01
7.259558512714366918e-01,7.219404057758456172e-01,4.957756891496967744e-01,-4.689384063097355032e-03,2.698183797224261438e-02,3.564792241651678489e-03,2.331585437059402466e-01
7.816165536271291181e-01,7.295029623516290362e-01,4.463003449304713266e-01,-2.189670567373405534e-03,-1.250756767532992461e-02,3.217663085923979510e-02,3.182262778282165527e-01
7.660755829243911519e-01,7.709521620077860460e-01,3.595914919240830177e-01,-1.010065882908990111e-02,-3.769528791655275130e-02,-3.757893001660841253e-02,4.195721149444580078e-01
6.228703457097046758e-01,5.805344685609417077e-01,6.935595750272151028e-01,-1.822389646966264543e-02,-2.611415790691416165e-03,-4.966644396330321953e-03,1.042726039886474609e-01
3.317147472348648263e-01,9.286584987535484448e-01,9.389079664524030422e-01,-8.477851370299517575e-02,-6.279388780511251100e-02,6.106965185177557105e-03,6.293397545814514160e-01
5.194039621781907368e-01,6.955905035453464613e-01,6.799152719793647437e-01,1.191993762760639288e-03,-9.937406120269049251e-03,6.699342437635024197e-03,1.701787561178207397e-01
7.104908362182036363e-01,7.299232553050362116e-01,4.057157793482446539e-01,1.246031836175578132e-02,5.415615844028010689e-02,-1.045246213644423008e-02,3.298183977603912354e-01
8.038644739095784919e-01,3.967435123650905338e-01,7.297842693159870553e-01,-9.771197543094738147e-03,6.404294643359708002e-03,-1.453193694623222676e-02,3.769864141941070557e-01
5.280975593941448221e-01,6.771426924612095055e-01,6.955943778035302838e-01,1.029368855353839270e-02,-3.185336195116641143e-03,6.065212050030651010e-03,1.605108380317687988e-01
7.126540826269995854e-01,5.145389108054820859e-01,7.136947271732310139e-01,1.645429770339659065e-02,4.836279153756737129e-03,-1.492394273188428488e-02,2.025029510259628296e-01
4.978197561568691309e-01,7.061477257483902426e-01,7.038701370418041225e-01,4.536912703597515903e-03,4.497752993917123777e-03,-2.537146547644025286e-03,2.075403481721878052e-01
5.483810471772379014e-01,6.552485002999797192e-01,6.805105184358880566e-01,-2.191420085188106048e-02,1.130643582721376633e-02,1.844714435703208658e-02,1.326785683631896973e-01
5.588698183906137817e-01,6.441160214473014012e-01,7.013074421504869038e-01,-5.859830787679329300e-02,9.135846007115354730e-03,2.707607286107446137e-02,1.678217649459838867e-01
6.501362422457382939e-01,6.803299479533996275e-01,5.771219534975406962e-01,1.351615272996474666e-02,-7.334928904222873768e-03,5.061554228877447603e-03,9.609182178974151611e-02
5.267896968527664425e-01,6.816761462786772308e-01,7.139307843921589569e-01,-1.191688148898838520e-02,9.084156634806632089e-03,-6.001289629788954423e-03,1.755210161209106445e-01
4.957764100138847274e-01,7.231577445289922856e-01,7.158723673914597629e-01,6.932300635403291361e-03,1.289350118318845564e-02,3.310238381208743894e-03,2.253321111202239990e-01
7.794044912800723868e-01,7.467356265012105032e-01,3.265537741439699659e-01,7.025576132030007109e-03,-1.913898056559427963e-02,-2.139971542138270899e-01,5.744373202323913574e-01
5.728820579276020508e-01,6.843576289510389099e-01,6.232856267160817865e-01,8.905153078787767613e-04,1.569867674435033306e-02,-3.801708692321274525e-03,1.006659790873527527e-01
5.663202142490667557e-01,6.931966969587494143e-01,6.509661020279523536e-01,2.976339983753900978e-03,1.020731000317340494e-02,-7.439541665744110049e-03,1.141410470008850098e-01
6.121804854748922331e-01,6.075553688599387714e-01,6.778282208265898889e-01,-5.671415038456346577e-03,-2.885039374188284791e-03,-2.511896497388147170e-03,6.910166144371032715e-02
7.052322474418976084e-01,4.790773184912394123e-01,7.155073856019584788e-01,-4.326415683366568641e-04,-8.137847050254562800e-03,-8.959973554104239471e-03,2.324123084545135498e-01
5.660095595088812104e-01,8.791039178881411287e-01,7.337140184232580076e-01,-1.734229249027963715e-01,2.702215196961730848e-01,9.554851678702519502e-02,6.405619978904724121e-01
6.498076706634414723e-01,6.948577086301072070e-01,5.539253423513260666e-01,6.890293556813647732e-03,1.241279511318313378e-02,-3.493175321428210276e-03,1.272151619195938110e-01
7.232456721705409208e-01,5.059463567869362244e-01,7.187483025607269704e-01,-1.812744740941342123e-02,-3.612883726442125531e-03,-1.441276337233186010e-02,2.188837528228759766e-01
5.368657506872258622e-01,6.812709358568143081e-01,6.459064391403696037e-01,-9.321151726570556934e-03,2.585006249043331553e-02,1.518064573973158804e-02,1.412564069032669067e-01
7.806294230451499283e-01,4.898334919521869502e-01,7.344538305385530652e-01,-9.734124950551359878e-04,-6.636564541219228466e-03,-9.704842362138751954e-02,3.188368678092956543e-01
7.138813729984010426e-01,4.069072068880107418e-01,7.008608876873094751e-01,-2.805479358512933882e-02,-7.629195501149307022e-03,-4.324673370219076635e-02,3.139305412769317627e-01
6.122541022326957183e-01,6.163365707333827714e-01,6.792536196228814438e-01,-1.450415065102482253e-03,-1.103606732998895553e-03,-2.011357017884225860e-03,6.522407382726669312e-02
9.131884155721909924e-01,8.897765453875208230e-01,4.196581848003441695e-01,-9.232479096708322286e-02,2.206464149850254353e-01,1.520297390835671780e-01,6.881358623504638672e-01
3.351160146986546517e-01,9.183819667300491263e-01,6.967516649399912998e-01,-4.163284312922294061e-02,2.691528302488271907e-01,-7.293212404617284428e-02,7.060712575912475586e-01
7.182153591128829229e-01,7.035639958730635080e-01,5.025270912003921842e-01,-2.585026512470848994e-03,1.681100348119743057e-02,5.740657743278143599e-03,2.110514342784881592e-01
7.112254782381368656e-01,7.858962363784011140e-01,3.982549691582874529e-01,4.459959893656341087e-03,5.883997292191322365e-02,-1.215283858484843792e-02,3.711942732334136963e-01
6.322968975326844765e-01,6.030596887502798209e-01,6.722171358163064880e-01,4.788467042652566619e-03,1.033075483624470471e-02,-3.541434532693594518e-03,6.357816606760025024e-02
7.569134422730268152e-01,2.592144908218013688e-01,8.111948422315625740e-01,-1.345510466587645504e-01,3.587436575989659537e-02,9.117615625920748312e-02,6.006485223770141602e-01
6.680207968190461365e-01,6.173064414838560499e-01,6.227310704329405144e-01,-1.376451327859480123e-03,1.738721643866248225e-03,3.521758769714210171e-03,4.876707494258880615e-02
6.452967266487263931e-01,6.210465765625853285e-01,6.229726816031811998e-01,-9.323670587093326259e-03,8.921364443748643069e-03,1.021799603928439694e-02,3.684912994503974915e-02
6.845785691379474569e-01,6.251831446103903733e-01,5.767531314504088513e-01,5.019468986232782093e-03,-1.817341913033270395e-03,1.700007263217021350e-02,9.850027412176132202e-02
6.118217005574598799e-01,6.133799689036367742e-01,6.773543307338050212e-01,-1.505338335925025155e-03,-1.072675555353652535e-03,2.680961553971492595e-05,6.484665721654891968e-02
9.200836486284286186e-01,4.577410970999254980e-01,7.035260701663705873e-01,1.117091647540221222e-01,-8.127990240060344040e-02,3.310017934331065947e-01,7.392405867576599121e-01
6.548723405575981316e-01,5.862681543903113246e-01,6.218550140980731999e-01,2.916464503621198426e-02,-3.157066560319145287e-02,4.178656871636904357e-02,1.196317449212074280e-01
7.088038594538879078e-01,5.053998834145208008e-01,6.826692569512248232e-01,-2.424181493243682088e-03,-1.529647981678919225e-03,1.190218611853691849e-02,1.928469538688659668e-01
7.131108244425354847e-01,7.017281301908750990e-01,4.866355262267658133e-01,-5.359253448230674385e-03,-1.233364774577065670e-02,6.021055616788546436e-03,2.224724888801574707e-01
7.279884224575973173e-01,4.141267632407610311e-01,6.806600849232398165e-01,1.007692593610002296e-01,-6.283785172284632459e-02,1.587082065368831119e-01,4.514073133468627930e-01
6.764585763365927873e-01,6.830810902833577281e-01,5.304520589224726024e-01,9.832878801079865394e-03,-1.024111489546078793e-02,1.039715469520721691e-02,1.525047272443771362e-01
7.620027592689629925e-01,5.935781916100055788e-01,8.206836739148447579e-01,2.456277627915665618e-01,-1.178251199065639271e-01,1.911620429693171586e-01,6.115306019783020020e-01
4.932549220374597976e-01,6.881856542723796544e-01,6.954099483166076290e-01,-2.596477495526670551e-02,5.102208286891556088e-03,6.799979025009581478e-03,2.042002528905868530e-01
6.907613301995608746e-01,5.748973429625879872e-01,6.478323045332554653e-01,-5.257588725628412930e-03,1.074102751262621079e-02,9.294851843102934497e-03,1.047933921217918396e-01
6.756135218981994539e-01,5.409285809332835537e-01,6.838469012268233449e-01,9.548960870459486175e-03,-1.144320132305211984e-02,9.048149004369419879e-03,1.422277390956878662e-01
7.080558476930718381e-01,4.762086384446370668e-01,7.065103674744027673e-01,-7.777718035291992724e-03,1.568329213406881393e-03,3.281449173103797873e-03,2.315563857555389404e-01
6.994228676587843641e-01,4.507070838643694177e-01,6.685720532937565741e-01,3.087832450784495225e-02,-1.821822119280987196e-02,6.589449970092547959e-02,2.683665454387664795e-01
6.616007819293449055e-01,5.187083810310741949e-01,7.179455208455431947e-01,8.094394117276704215e-02,-3.564451554577460768e-02,1.012192017172148795e-01,2.929975092411041260e-01
7.072676135031215061e-01,8.375715548828550627e-01,4.806789669915849106e-01,1.621684205953241309e-01,-2.641985645858003218e-01,3.551350513093467359e-02,6.244429349899291992e-01
5.571372806099537112e-01,6.896747049190028456e-01,6.480694887555179529e-01,5.979278873518606603e-03,-1.434807583643242165e-02,5.205046623361773289e-03,1.207851395010948181e-01
6.415838187924853830e-01,6.180905043420382716e-01,6.402412324912147845e-01,-1.183948908811832332e-02,-1.249950151639304952e-02,-1.683462206342935946e-02,4.755673557519912720e-02
6.775201736124375484e-01,6.740410998483018501e-01,5.462669237692047153e-01,1.083843806482602534e-02,9.476430769726422454e-03,-9.969819268025995052e-03,1.330522298812866211e-01
5.127282835841299180e-01,6.922768338970214375e-01,6.931753978125243520e-01,-1.791845702456488013e-02,-1.884270101755838520e-02,-1.025219060715800400e-02,1.863960921764373779e-01
7.034537507989905292e-01,5.073851461206013713e-01,6.967528895983261528e-01,-1.341167880596087943e-02,6.547570962405494660e-03,2.045132724947196223e-02,1.977295428514480591e-01
6.527595993705768151e-01,6.039846219975039121e-01,6.380822207766825294e-01,3.363612279529605391e-03,9.667052314806147059e-03,-4.764695928288651024e-03,4.754933714866638184e-02
6.783953739788635140e-01,5.081900826110867797e-01,6.958332081870811647e-01,1.223326565438380940e-02,6.099728669950420235e-03,-1.841643436900788780e-03,1.811427175998687744e-01
7.615202059150927294e-01,4.827781885420242558e-01,9.225685573465118861e-01,2.937243295506611895e-01,7.558792272479411545e-02,-9.936194302235222542e-02,6.738735437393188477e-01
7.128345820586806658e-01,4.864038043981950832e-01,7.077177174610881361e-01,-2.030303953893185243e-02,-3.358966558926705821e-03,3.728795030948899719e-02,2.357543706893920898e-01
7.040621246888016938e-01,5.272724820150322955e-01,6.800251486100642451e-01,-1.304175424512589096e-02,7.159171969508926030e-03,1.086859398038407185e-02,1.691190898418426514e-01
8.970567221967709060e-01,4.378479393014055865e-01,7.816419574699080552e-01,1.527861301017889584e-01,-7.037474684770352040e-02,2.614799567008087577e-01,6.791154146194458008e-01
6.253737020011086445e-01,5.695877335398713548e-01,6.915405678411169488e-01,-1.960912214656347630e-02,-9.953660327234957472e-03,-2.962375458510361787e-03,1.125096306204795837e-01
7.494057271748677529e-01,6.077240353710613441e-01,5.898244209918410697e-01,-7.464947184065701125e-02,3.826455412844747411e-02,1.084743257338475625e-01,2.816741764545440674e-01
4.780052663752968334e-01,7.181308917799374969e-01,6.493158922302767477e-01,3.676389135684503262e-02,9.282367771531509215e-02,-1.044056253602679459e-02,2.758660018444061279e-01
6.941750843328757803e-01,5.401166071940177726e-01,6.537399766489118136e-01,5.376286122671465953e-03,-9.824066098092401611e-03,2.491325436427124437e-02,1.462118327617645264e-01
5.464507124174005082e-01,6.503586315121352435e-01,6.917126898790521006e-01,1.261607702893509375e-02,3.142881123077657587e-03,-6.572977958786697418e-03,1.320635080337524414e-01
6.378139729287768400e-01,6.133841453118964449e-01,6.542817055397935899e-01,2.615631038614172395e-03,1.040044758190688395e-02,-3.075452100745704100e-03,4.054274782538414001e-02
5.355829275878781770e-01,6.579289814734013975e-01,6.977301524689988321e-01,2.744238076692082431e-02,2.180935028611563804e-03,-3.734801694784525210e-04,1.539355218410491943e-01
5.512862090258908720e-01,6.754523629627142700e-01,6.775838062578688481e-01,7.977094449454810721e-03,-7.939216291070716816e-03,1.186392516731056730e-02,1.284082680940628052e-01
5.767309512524076975e-01,6.511461772609681287e-01,6.734040402477675658e-01,7.688618560907101510e-03,-4.309730574502465029e-03,1.154122588974309561e-02,9.122514724731445312e-02
6.525776126635177699e-01,5.790132392916328419e-01,6.771490784798445128e-01,9.426515415644251550e-03,-1.296204482465318671e-02,4.951734790494727138e-03,9.309800714254379272e-02
6.384971414625657538e-01,4.559214290272615155e-01,7.053811802360991923e-01,1.080571850957932345e-01,-7.472346632222782309e-03,5.994161996525063443e-03,2.921012341976165771e-01
7.053119709986894748e-01,7.202251941050535899e-01,4.691578254267918524e-01,-3.073823704406240202e-03,5.900147664487199323e-03,7.616869567083559001e-03,2.445809394121170044e-01
7.245187629122035178e-01,7.266851912851649553e-01,4.554535917304013415e-01,-8.484271876083110397e-03,-1.304590130991913066e-02,3.313433807272672671e-02,2.774956822395324707e-01
7.088978159037500060e-01,7.328869831133475454e-01,5.043424866147581120e-01,1.185238723369196230e-02,5.525134212798361172e-02,1.789141935633306243e-02,2.405521869659423828e-01
7.606737670108590921e-01,8.143729380129389739e-01,4.573817800874436790e-01,6.713911547062958660e-03,9.919867253190296774e-02,-4.852993798645181670e-04,3.752508759498596191e-01
7.588082885473402817e-01,7.096609285632923259e-01,3.361757557919018424e-01,4.783231703511502120e-02,1.151144118059972826e-01,-1.946700651450014863e-01,5.661885738372802734e-01
5.238850557023578824e-01,6.916709020524794971e-01,6.786415105586718344e-01,4.465714598314466516e-03,1.194420802782202549e-02,-7.224714185772680361e-03,1.636463254690170288e-01
4.767701823930708960e-01,7.038860855722615106e-01,7.042579838385905067e-01,-1.738733716761206062e-03,7.033347140673306894e-03,2.980119134390511997e-03,2.277067303657531738e-01
7.080250406083627990e-01,4.879800323119991012e-01,6.938011039869491636e-01,-3.208654227108074988e-03,-3.715760014608006996e-04,2.002581641123011083e-02,2.161634117364883423e-01
7.446051593103057975e-01,7.611969885531827407e-01,4.629465488547396257e-01,1.228224913125484929e-02,-3.410541703877726510e-02,5.926816099069757288e-03,2.971995472908020020e-01
7.032266408157273885e-01,7.215071176823708576e-01,3.925172447047459157e-01,-8.233468055206421762e-03,4.207559728620921535e-02,3.610497741875896144e-02,3.346334695816040039e-01
7.086947978495089506e-01,7.772251743112336131e-01,3.633595050557426598e-01,2.693746327986829003e-02,2.007392223359291961e-01,-6.206667058075137494e-02,5.312638282775878906e-01
6.282350781422437747e-01,6.297479872378886068e-01,6.418163779300289917e-01,5.930029996200275122e-04,-1.477424245266500003e-03,-9.483805228116264259e-04,1.328513864427804947e-02
7.052507718177709606e-01,4.813644987778685769e-01,7.059112835836822697e-01,-2.397986466471613027e-03,-3.101876842115072926e-03,-6.791990910725502310e-03,2.246283292770385742e-01
6.124932102116237287e-01,6.195190946737626492e-01,6.617877660316056065e-01,-7.224159710765406563e-03,-2.887866249754282577e-03,-6.368100832858594393e-03,4.935809224843978882e-02
6.959869642595176709e-01,5.657172649575661350e-01,6.505906370780358827e-01,2.562826791921155208e-03,-6.038176248396523969e-03,1.161469341654854277e-02,1.168376728892326355e-01
6.706229791914865013e-01,5.907092203560022625e-01,6.351394396007997711e-01,4.693026123963612260e-03,-1.182679747119284516e-02,1.369034133399627678e-02,7.653519511222839355e-02
7.149364370424758919e-01,4.888917265191495276e-01,7.079526852709639995e-01,6.015182205435295505e-03,-6.587039290586125520e-04,8.120530334061666286e-03,2.233249247074127197e-01
6.605415748378470342e-01,6.746467275368459582e-01,5.653280507606267546e-01,-1.612990826711729539e-02,1.605911924315995068e-02,1.019349581973659491e-02,1.116848289966583252e-01
7.005473228958241094e-01,5.099596857031416519e-01,6.788211625864387644e-01,-1.994063783454090577e-02,1.292204666079609966e-02,6.388884942976276460e-02,2.158567011356353760e-01
6.865697429143222674e-01,4.858160649172836854e-01,7.044915294386183691e-01,-2.757940979141307314e-02,3.428407031614449409e-03,1.299354896839173198e-03,2.157389521598815918e-01
9.113033489406200394e-01,3.105583490636662503e-01,9.377605357594147595e-01,9.470725455046465069e-02,-1.844751561584744015e-02,9.666809289361352753e-02,6.583707332611083984e-01
6.577850661037994984e-01,5.508617910512689786e-01,6.817669570866180528e-01,-7.186023988813877716e-02,-3.952795334718474385e-02,-4.934919870282260257e-02,2.050781100988388062e-01
8.175311119898426293e-01,2.452395760629063060e-01,6.903786738289618974e-01,-1.313271804222036591e-02,5.319497514804689964e-02,2.142090187680112945e-01,6.462044119834899902e-01
8.778163755893946263e-01,5.433562293361022810e-01,7.226120026124207563e-01,-1.759364005335991854e-01,1.187949962029574286e-01,2.773383558083218903e-01,6.708126664161682129e-01
6.813072493476783897e-01,3.944758536808776195e-01,7.337360254210318899e-01,1.620751421488158817e-01,5.615107149833178934e-02,-1.299808370659410739e-01,4.888846278190612793e-01
6.040367908069236291e-01,6.264134244336891921e-01,6.694091166390108150e-01,-5.991003592423549406e-03,1.880390872187258193e-03,6.764321399115904611e-03,5.972431972622871399e-02
4.881075470423192342e-01,7.406083005208772274e-01,7.060752682159002758e-01,-1.222872780764678105e-02,3.725012359559966985e-02,1.303483204074337709e-02,2.476905435323715210e-01
6.570685862581417958e-01,5.417455169321435671e-01,7.133371655405679190e-01,-6.045770973310618523e-02,8.266693879408365878e-03,-5.564592689662494797e-03,1.849809288978576660e-01
5.780948277512625300e-01,6.508738336215803555e-01,6.758889987564010715e-01,-8.018995572508347269e-03,4.211025188158446474e-03,1.210276757360645092e-02,9.180775284767150879e-02
7.141576016331401267e-01,4.919474253551152643e-01,6.936584989362259979e-01,5.669743881764331347e-03,-4.796083225081636085e-03,1.987604461699480837e-02,2.158543169498443604e-01
6.993636033897526749e-01,5.018475732040932336e-01,7.081258408957246120e-01,4.224237286195966709e-03,4.133039543053587043e-04,7.313769848021092063e-03,2.025698870420455933e-01
6.725692600419821421e-01,5.696052563093050303e-01,6.496951782694658784e-01,-3.258732719736840300e-03,-1.044614543669526371e-02,-1.024328945722871240e-02,9.717819094657897949e-02
6.815827617921664805e-01,5.644408191214210779e-01,6.520975670412901826e-01,-2.676182444650948480e-03,-1.578423023319266288e-02,-1.322769242282697405e-02,1.114965751767158508e-01
6.585281850554032257e-01,5.441638992159070209e-01,7.275307308585926558e-01,-6.074474629518719637e-02,6.296547952051602913e-03,-2.354881013296290359e-03,1.921908408403396606e-01
6.918540907044476995e-01,5.643419250275029109e-01,6.575225486500602123e-01,-3.014916238847522093e-02,-8.131119391609164387e-03,-4.719285248587052478e-02,1.505558937788009644e-01
6.667362471463881279e-01,5.662481991364498590e-01,6.785067616177314909e-01,-1.212006934858985002e-01,-4.803528374703788101e-02,-5.685148021861426842e-02,2.685264348983764648e-01
5.590451560040879952e-01,6.859317999460906590e-01,6.513506691453678776e-01,-4.434003985265521893e-05,9.945741115210257263e-03,2.233720287392636401e-03,1.149779036641120911e-01
5.468203799903608164e-01,7.706205834835504476e-01,5.914086163714805666e-01,-4.303085437243601985e-02,1.074787721022984754e-01,2.187285039088141328e-02,2.893804907798767090e-01
6.407957906072953014e-01,7.308955939530897838e-01,6.627627859258036214e-01,9.125016850705951199e-02,1.296127266073200668e-01,-1.097441763408604637e-01,3.437016308307647705e-01
4.414369835652987573e-01,6.342913674053288764e-01,8.458086785689709064e-01,-2.308946615059180307e-01,1.607295990624864890e-01,3.056983665205261630e-02,6.024674177169799805e-01
6.635913309749068567e-01,5.134075335877834600e-01,6.893829461286270499e-01,-7.357106587021482180e-02,-2.819086180885711085e-02,-3.501314955999012407e-02,2.222473919391632080e-01
9.176092510208763153e-01,6.914194178887766995e-01,5.845788125542326075e-01,-1.010396857172682905e-01,1.076695566380480168e-01,3.235955530414237336e-01,6.828546524047851562e-01
6.989026561212011712e-01,4.750260818870364887e-01,6.788426851529618666e-01,-4.184260031762979809e-02,-1.500695238073270280e-02,-5.229274179163099362e-02,2.452830821275711060e-01
6.722215389999927071e-01,6.027042524920321886e-01,6.506689000757790442e-01,-8.699112245496042062e-03,-2.280026371571367005e-02,-2.230636849104417410e-02,8.413197845220565796e-02
7.364624114918782993e-01,4.531390177756254856e-01,7.473809949479273129e-01,4.939252218731900873e-02,-3.188813690877687068e-02,5.288453127364812351e-02,3.197570741176605225e-01
6.138264359636775858e-01,6.116016294721658975e-01,6.818960359261854176e-01,-1.302629349456723394e-02,1.120017822001897600e-03,-2.086969100905971663e-03,7.290915399789810181e-02
5.772915931835703729e-01,7.077374518444069507e-01,5.144953914201130241e-01,-1.532260441867465406e-01,2.178636173660903896e-01,1.461727207390567940e-01,5.532438158988952637e-01
6.509645133951804663e-01,6.958574611480055072e-01,5.697412917873898586e-01,-3.246229320725637670e-03,1.089992846087951654e-02,-1.202579142220796832e-03,1.124780699610710144e-01
8.167152890364601792e-01,2.760464633188582928e-01,8.421241041546486672e-01,1.377744982325883050e-01,-1.479424485131476119e-01,7.321806277314503453e-02,6.673793196678161621e-01
7.055597110110829462e-01,4.772477033391288592e-01,7.173530026150627403e-01,5.412422199717392864e-03,2.555895331509526296e-03,-5.160904269361337934e-03,2.348305583000183105e-01
6.280270948393005259e-01,6.002283049755615663e-01,6.868797553441803316e-01,-3.679500556695801394e-02,4.349871023936902211e-05,3.331192418704542572e-03,9.983664005994796753e-02
6.807942585454477280e-01,6.530705492729914630e-01,5.689644930837866044e-01,-9.364564183915223897e-03,4.775634320872018147e-03,1.199735411147156636e-02,1.045824065804481506e-01
7.188005046209668958e-01,5.764090109367332460e-01,6.514026499686342841e-01,1.469147849631386935e-02,2.193266669690228238e-02,1.695759149867849536e-01,3.218377530574798584e-01
6.579329015909892719e-01,5.793189627470397562e-01,6.712305108112858187e-01,-3.344699368766478054e-02,2.396901065155689764e-02,3.083105839584789759e-02,1.238291636109352112e-01
6.510254629200998844e-01,6.751584082279643573e-01,5.800962931969916303e-01,-1.047742136052266619e-02,8.326815058879853682e-03,6.624221324014661905e-03,8.940947055816650391e-02
6.386193561769375471e-01,6.215360310075721539e-01,6.544084626573916097e-01,-3.154577189919589159e-03,7.412079358263760909e-03,2.783385462470548601e-03,3.207458183169364929e-02
6.188955697776548082e-01,6.190646056838653433e-01,6.640907866448830799e-01,-8.590541843997484463e-04,3.903698046468257344e-03,1.416124916403752087e-03,4.570496082305908203e-02
6.861227844991760749e-01,4.437101191414649648e-01,7.230243701817521407e-01,5.509524984157204708e-02,6.512328401807157378e-03,-1.374871653603362831e-02,2.808412611484527588e-01
7.604110879782779442e-01,2.396061327404699903e-01,7.333752071613741652e-01,1.079115397367454848e-01,-2.582896695487164190e-02,1.133590542162185993e-01,5.773865580558776855e-01
8.570582200578142906e-01,4.524605655126294756e-01,6.473689029332018174e-01,-7.026362365452935854e-02,-6.219041121581871112e-02,2.997291987328224994e-01,6.471133828163146973e-01
8.047769052680038282e-01,3.945778783372150822e-01,7.979081761396594752e-01,-5.538370054588347656e-03,6.942913282709780275e-03,-3.707762713015189723e-03,4.071495532989501953e-01
9.894635656949359870e-01,2.936520364365624025e-01,8.993994435880225957e-01,-1.451657103349184574e-01,4.230586532210093426e-02,1.968086365387403669e-01,7.838284969329833984e-01
9.439058070329219285e-01,6.873740936641473676e-01,5.725770226885202874e-01,-6.661586022290572062e-02,5.709992827013776057e-02,3.313625211631225920e-01,6.789208650588989258e-01
7.905262628851691398e-01,1.840522621300695327e-01,1.003170097995988996e+00,-1.895121499108664079e-02,-4.011884730566284835e-02,-1.076854315165893528e-01,7.633384466171264648e-01
7.342481749577762784e-01,2.378005785451730025e-01,8.007662413448823902e-01,1.485915512075998146e-01,1.674944408921355890e-02,-5.449647111567118563e-04,5.924428105354309082e-01
6.277426043012480639e-01,6.217641262818404124e-01,6.553071180572247467e-01,-4.593891251816065863e-02,-5.986904136459524073e-02,-4.679326903278481498e-02,1.568860262632369995e-01
9.457532714171121846e-01,2.705192008822550065e-01,7.652488232324310413e-01,7.301749884994881978e-02,2.641928712199221457e-02,-7.640946298128964420e-02,6.342270374298095703e-01
5.678231708710298475e-01,8.113303002096912131e-01,8.018227504990934618e-01,2.382872709234324093e-01,-2.148285063541310880e-01,1.200416483840698045e-01,6.396071314811706543e-01
4.838097651745199568e-01,6.894178558723057515e-01,7.368528232538038569e-01,6.040655289840437397e-02,2.166266673941547732e-02,-4.064915999927956949e-03,2.582286000251770020e-01
6.523171317489326881e-01,5.969424470696286233e-01,6.537767119370931912e-01,6.773439857907403994e-03,-1.192172486356640054e-02,6.078047769135998431e-03,6.183978542685508728e-02
6.729951705227309455e-01,6.377283243942851731e-01,5.899209380908840838e-01,1.235622997516539444e-02,-4.233943452121511665e-03,1.354745264094165021e-02,7.923206686973571777e-02
6.178234824836332795e-01,6.371677358461257379e-01,6.412886478456834016e-01,2.613802440482237630e-03,-2.614788153644732188e-03,8.764980176290258773e-03,2.724664844572544098e-02
6.067217126159812901e-01,6.325426908037511398e-01,6.706358064686414044e-01,4.227058377774202229e-03,-2.872037975047478982e-03,7.414774673489425531e-03,5.783335119485855103e-02
6.530850360167438362e-01,6.497480739472258904e-01,6.026225020369849750e-01,1.296880194312949319e-02,-6.012324379139000023e-03,4.215391157996631159e-03,5.527687817811965942e-02
6.541166614590180339e-01,6.146921797307026702e-01,6.324176034070880803e-01,2.252103286100034813e-03,-7.842648941693395812e-03,2.441702975791485829e-03,3.724631294608116150e-02
7.029867030733939481e-01,4.454856641068651868e-01,7.235524792023546592e-01,4.977649923546785538e-02,-7.296352134147901861e-03,-1.474055871741404566e-02,2.833198010921478271e-01
7.207000327784818250e-01,4.789204810174292892e-01,7.193791193529153194e-01,1.289020891772981511e-03,6.341381097748553276e-03,-6.248611969005223553e-03,2.416246831417083740e-01
4.761773181777504416e-01,6.381114988534628552e-01,5.286873197986809991e-01,1.806625961897161681e-01,-2.435761761671804693e-01,1.594481629854750393e-01,6.104530692100524902e-01
6.254901416311318130e-01,6.690847524065821617e-01,6.015393547841524358e-01,5.915171557176259441e-03,-4.654770389174178041e-03,2.641585438131750178e-03,6.090285629034042358e-02
7.308607841455273535e-01,7.023377541838163873e-01,7.234693193484373896e-01,2.164839040944076531e-01,-1.846316902481026367e-01,2.128563239751302960e-01,6.159896254539489746e-01
6.131938891950501347e-01,6.156218358254129663e-01,6.699036532828885893e-01,-2.002045529731552500e-03,1.776356447545926953e-03,3.815446687347683226e-03,5.611922964453697205e-02
9.637049672861184302e-01,5.235140338061636811e-01,6.552117309293614689e-01,-5.194862685417073883e-02,-4.861753046644172460e-02,-3.207207686483898867e-01,6.905885934829711914e-01
6.826399641356361014e-01,5.285615952532066730e-01,6.168392289030664166e-01,5.450446720941850426e-02,-5.230309923460847027e-02,8.680789843459224553e-02,2.401193380355834961e-01
5.765911432610758558e-01,5.749921478349420134e-01,7.046890010858989362e-01,1.042406190549614586e-01,-5.173409693309630186e-02,5.707267880088751771e-02,2.588742673397064209e-01
5.313575657186707657e-01,6.919993348833830549e-01,7.011163119708602176e-01,5.548366877250413692e-02,6.105931697927152041e-03,-2.143725912484803833e-03,1.916100531816482544e-01
6.241377209741354459e-01,6.407319446898989135e-01,6.406058222041319805e-01,1.280417341249591575e-03,-1.375558059619037821e-03,4.957544778812559075e-03,1.891078799962997437e-02
6.804913589890014824e-01,5.748933850278545865e-01,6.336428911407266940e-01,9.949282103696520385e-03,-1.570961076625619970e-02,1.799264011729005686e-02,1.020154580473899841e-01
7.795548418141637903e-01,4.418111654211553385e-01,7.273049754431888392e-01,6.585503125578419381e-02,2.860894890129275954e-04,-1.090601026835343913e-02,3.354422450065612793e-01
7.191989175997508532e-01,4.966183856131439200e-01,6.992640352592478514e-01,1.262948729491685440e-03,2.225064166364388099e-04,-1.890858817212259790e-02,2.158237993717193604e-01
4.772649403385357259e-01,5.172243718947149294e-01,7.522757740870462673e-01,2.611692474747077664e-01,-1.085114349224468727e-01,1.311877153800883877e-01,5.981817245483398438e-01
7.497494286098086436e-01,3.261884598830563364e-01,6.743591034767038028e-01,-9.256866800763238756e-02,-5.175594533623063126e-02,-1.624147687024149467e-01,5.157846212387084961e-01
4.069270255286761007e-01,5.727530346175689902e-01,7.730820357074553728e-01,2.894908391412319149e-01,-7.871771732462562454e-02,4.897318387674355622e-02,6.148570179939270020e-01
5.370455792475415935e-01,6.912580091173733399e-01,6.675382526602736677e-01,-8.442008869954621339e-04,-2.862809390108024890e-02,1.152072390038639746e-02,1.534445881843566895e-01
9.626774689865229551e-01,5.390239734124820936e-01,6.732375942404904556e-01,4.152341622672535426e-02,9.141155875296309158e-03,3.451289522746035510e-01,7.095074057579040527e-01
6.492843181989945700e-01,6.597684822684017902e-01,5.853356746772551134e-01,1.464068666858499290e-02,-6.872468443600898702e-03,1.164377295448647785e-02,7.785414904356002808e-02
3.573123513333014145e-01,7.311981242422379568e-01,9.240682705778378025e-01,1.800310371093407080e-01,-7.409458682216217562e-02,8.713577490842173978e-02,6.209527850151062012e-01
7.033751535543177891e-01,5.453841800382164262e-01,6.804804418940552102e-01,1.325068171957517575e-02,7.804412160483181586e-03,-1.033118699859190970e-02,1.513202786445617676e-01
4.019390971603201135e-01,5.507471240527846978e-01,8.889716568367393990e-01,3.741496038152117287e-01,-1.059694828490639722e-02,1.227819497231038143e-01,8.077110052108764648e-01
4.627724285224285583e-01,7.891736674374206784e-01,9.351161687217199869e-01,2.818076028807431910e-01,-1.842832216163635128e-01,1.027511456635903514e-01,7.397794723510742188e-01
4.877571284839724575e-01,5.468315339133577035e-01,6.370260101411804321e-01,2.186127736979822656e-01,-1.688457823236213795e-01,1.465172523643071545e-01,5.570065379142761230e-01
8.955476457765984000e-01,7.864077563384799241e-01,4.983192520418033844e-01,1.092336567529964969e-01,1.973908323276917232e-01,-2.578849137562381766e-01,6.917714476585388184e-01
9.738183458463084419e-01,4.809588265739782598e-01,6.884395762414219355e-01,4.146724737731719013e-02,2.780041591711769969e-02,-3.164707980042360536e-01,7.011693120002746582e-01
5.978276506902541199e-01,6.871533288123092831e-01,6.261422040207283990e-01,-3.876995139556177320e-04,-6.459758865768368795e-03,1.277997512103557810e-03,7.988811284303665161e-02
6.331438117187242476e-01,6.175067405586017744e-01,6.680570955966675939e-01,2.476603572789729327e-02,-1.088444450771887048e-02,1.197542191835037489e-02,6.808165460824966431e-02
8.965607832430764201e-01,2.274585696966363035e-01,7.636202993384741955e-01,1.385746090052092649e-01,4.694856958539172370e-02,6.543857177605071421e-03,6.639050245285034180e-01
5.988056929065541656e-01,6.279599360248273587e-01,6.773218554881550446e-01,4.412481855055045213e-03,-3.944103763345216916e-03,6.888766608593311323e-03,7.052036374807357788e-02
5.563918643793355212e-01,6.480804314729691207e-01,6.988097295156745492e-01,1.189017932001187189e-02,-5.159189152896591010e-03,-2.500428660222809435e-03,1.270995289087295532e-01
3.444267289551802835e-01,9.427483067581381437e-01,9.505156861129792079e-01,9.140359205914881657e-02,-7.814538851422550558e-02,1.331597578389392793e-02,6.376616358757019043e-01
5.832270350645631929e-01,5.066890728036411717e-01,7.116156038057432909e-01,2.212197404722131000e-01,1.008589490724725313e-01,-1.146215709166929497e-01,4.989135265350341797e-01
4.618030640532885256e-01,5.896168210310788194e-01,9.406450996033295375e-01,2.848662108823580841e-01,-1.622765743422989737e-01,2.289757772317967816e-02,7.130523920059204102e-01
4.868227526106757574e-01,7.526367614629492220e-01,7.000321814594447911e-01,-2.858062556591724548e-02,-4.447709168406708408e-02,1.508380350659839150e-02,2.617423236370086670e-01
7.046811553522308591e-01,4.532072399666489115e-01,7.417252314103631727e-01,5.353976139649269800e-02,4.363374482759941470e-02,-4.716935065742317718e-02,3.080796599388122559e-01
9.533843939386734689e-01,8.847832906575830991e-01,3.197655157328594955e-01,-7.165197632508457821e-03,6.840725574874444159e-02,1.604940798361617627e-01,6.739286184310913086e-01
8.897604399398082453e-01,8.621882865421615083e-01,4.237203425203951990e-01,-5.640086082890646141e-02,1.707215498498695361e-01,1.812973006368192308e-01,6.330013275146484375e-01
8.811413381409677337e-01,8.990430167124009442e-01,3.813598001397438542e-01,4.259273253940689535e-02,-1.983890652029837720e-01,2.317338950101997530e-01,7.373383641242980957e-01
6.959700138771843791e-01,6.499621705119665860e-01,5.677854672369928579e-01,-1.080128658339940366e-03,2.031515087885059270e-03,1.074594816351302426e-02,1.140737161040306091e-01
8.054294232129353137e-01,7.356103347674842752e-01,4.560412168567238300e-01,3.331475881234468445e-02,1.760200757190808971e-02,-1.160032122457803488e-01,3.836433291435241699e-01
4.376881724405178309e-01,7.366644351773234956e-01,9.638046862171668616e-01,3.407776580840581326e-01,8.841915678793279068e-03,1.756734545318807935e-03,7.466733455657958984e-01
7.982207767475169025e-01,7.879586667130997757e-01,1.538248264869054305e-01,1.882186339519847235e-02,-3.175720805553274712e-02,-6.595855012436421805e-02,6.525936722755432129e-01
7.007469758923984271e-01,9.120366197252813834e-01,5.545217331048235554e-01,2.335302589885315805e-02,3.234926068899094398e-01,-2.918870821201587779e-02,6.442479491233825684e-01
5.688581859097310289e-01,6.823662360043473152e-01,6.164227002317868020e-01,2.479494925505586200e-02,5.406520991333318982e-02,-2.579899479940967258e-02,1.495251804590225220e-01
7.245473786838845243e-01,7.124533150341920695e-01,5.143230981902920940e-01,8.653833517539222947e-03,2.397304939741047233e-02,-4.560141437573258377e-02,2.235739380121231079e-01
6.801406720911831183e-01,7.056633576539739217e-01,5.242093984320349564e-01,7.141953659920313204e-03,1.169887096233105349e-02,-2.973917044220649245e-03,1.718601137399673462e-01
7.448919563510754127e-01,6.995900183223731084e-01,4.666421846530802719e-01,-1.005840349782378094e-02,4.633117521058643939e-02,-1.021891821953951479e-01,3.239461183547973633e-01
6.930036193246835730e-01,7.112187818048519850e-01,5.557474679230609560e-01,1.292702981687390493e-02,2.531459953444696945e-02,-5.363847216552122127e-02,1.809039860963821411e-01
7.840848664697268600e-01,8.039141185746663254e-01,6.231563195332225913e-01,-1.838803522031443038e-01,2.637027549413509808e-01,2.095713081727550164e-01,6.865100860595703125e-01
7.296453811236712772e-01,9.248878789372315667e-01,5.192533718325298420e-01,-1.222671667014388619e-01,3.325334165355625093e-01,1.572944840693889790e-01,7.578058838844299316e-01
5.939813710999694019e-01,6.266491151517387115e-01,6.786212037356366134e-01,-6.899220035186865753e-03,-1.646468222657091873e-03,-1.313444419262793303e-03,7.498130202293395996e-02
7.221014687093322282e-01,7.243343397591226474e-01,4.850976160344160348e-01,7.332520780625706794e-03,1.232819546534463448e-02,-2.300321185885833078e-02,2.427132129669189453e-01
7.166820010476605551e-01,6.927465703130933905e-01,4.806983729089221447e-01,1.703269782312162930e-02,1.323673579881162049e-02,-2.553434083153605788e-02,2.323032170534133911e-01
4.771850556974671642e-01,6.846774052641685371e-01,7.118262442977563165e-01,-5.447622957375968661e-02,-3.800814674706911450e-02,-3.046627619760917255e-02,2.558216750621795654e-01
8.559041046874906744e-01,7.752590968931002413e-01,5.742674965439407142e-01,-1.154593064452303780e-01,1.872992151030634933e-01,2.491074675995745558e-01,6.280997991561889648e-01
2.989144151907306424e-01,9.118493921489718712e-01,9.457364616583909811e-01,-1.171244721696684671e-01,9.412143266198319536e-02,2.410843237612169884e-02,6.834345459938049316e-01
6.805819446538442508e-01,6.756961895350475089e-01,5.531466988599520462e-01,1.082252111392085527e-02,9.873881384501910496e-03,-7.985393530328677159e-03,1.283594816923141479e-01
7.070752726755398232e-01,7.030419498968539793e-01,4.722049740155364050e-01,2.491355491238164514e-03,2.265262576808238851e-03,-3.106530259300749851e-03,2.330149859189987183e-01
9.370967327848306327e-01,7.498632946180328052e-01,3.088923481832809848e-01,3.045568736544109357e-03,-1.545597205441602284e-01,8.451810358187882011e-02,6.365532875061035156e-01
6.960978996010317443e-01,6.857367747383300571e-01,5.001478916165310595e-01,1.578809407057040967e-02,1.490655468752807682e-02,-2.184901854613630762e-02,1.982928216457366943e-01
7.067159155306860230e-01,7.817424494122888756e-01,4.556215041303518509e-01,-3.943122675835424723e-02,1.072349661488920941e-01,1.722879261200413112e-02,3.571681678295135498e-01
6.800933078343956995e-01,7.039063803133400743e-01,5.279612566803896234e-01,-1.076380096677441271e-03,8.878804571988497055e-03,1.688227816017322984e-03,1.660797446966171265e-01
7.584759153958408051e-01,7.695192606891111398e-01,4.673177644770381001e-01,2.489431082662504208e-02,-2.658126724694126822e-02,1.772936824581454462e-02,3.050118684768676758e-01
3.231133728486318968e-01,6.578758184173110202e-01,7.953893817014094925e-01,2.288655670478719484e-01,-2.525934233782423100e-02,1.623947544618600152e-03,5.797159671783447266e-01
6.794340839702481816e-01,6.801489757430672078e-01,5.511213992468148026e-01,-9.285829006623669279e-03,-7.336614844569505460e-03,-7.750137552553729159e-03,1.309837251901626587e-01
7.771403565666783475e-01,4.365175207540961111e-01,7.704062750687058481e-01,-8.338052822788067156e-03,-4.565572357228570889e-03,-5.977975473052838523e-02,3.532243371009826660e-01
8.407781813959325223e-01,9.218180791873575863e-01,3.813379174937298055e-01,-2.951130959148783733e-02,2.659049230740259118e-01,1.262023620928619770e-02,6.856330633163452148e-01
6.968751327950520880e-01,4.596962370701241918e-01,7.114287090144627568e-01,-5.057517029243958212e-02,-7.085670547595778477e-04,-3.830115644124873920e-03,2.600701749324798584e-01
7.293526126823154376e-01,4.185718051473990009e-01,7.294872701834849149e-01,-8.729737841312239927e-03,1.090040838734927624e-02,-2.063649414060107420e-02,3.138299882411956787e-01
7.151357985503408177e-01,4.791536609195735652e-01,7.090932802008913516e-01,-9.284510567682427266e-04,-6.770794943367916888e-03,-7.559897594236346212e-03,2.336872369050979614e-01
6.908848154360103244e-01,7.135018035757463295e-01,5.045738648968398632e-01,1.220694614749501250e-02,2.636701980027666287e-02,-1.903809139498412184e-02,2.075021117925643921e-01
7.206192132685956819e-01,7.320626735755015879e-01,4.284383436711383664e-01,8.663915739062072723e-04,2.315222274075362519e-02,5.424498132430305257e-03,3.009032607078552246e-01
7.281704485251077053e-01,7.166736881385171731e-01,5.086621111034402842e-01,4.906640797917208308e-03,1.270085926190505157e-02,-1.844902098021447903e-02,2.176458388566970825e-01
7.172251853689411982e-01,7.713409784116100898e-01,4.248920046983813426e-01,-2.911400335792159802e-02,6.207073276593648437e-02,3.599733068356955872e-03,3.440161645412445068e-01
3.663622117036029469e-01,7.251146123129640353e-01,7.291959665896762255e-01,1.716805729347425091e-01,-1.000941747432474715e-01,6.000404836369530731e-02,5.093768835067749023e-01
5.551050870268793291e-01,6.627344463947617559e-01,7.121942903685328785e-01,-4.878100626388319483e-02,-9.908165231563393488e-03,-1.227591454448434018e-02,1.650425940752029419e-01
7.560384474937569266e-01,7.905480653445058348e-01,4.656026810464761745e-01,-6.512240168291441415e-03,9.165525639642144173e-02,2.354148526467115046e-02,3.500836491584777832e-01
7.020466481510181378e-01,7.151221932457757502e-01,5.086468989433947652e-01,7.248879937322316724e-03,5.466650145130480531e-02,-1.784675957993889922e-02,2.240126729011535645e-01
7.149060514439813385e-01,7.074898235966975424e-01,4.056260156658914040e-01,2.702712542770037592e-03,1.788329704909692383e-02,-3.965571684798342017e-02,3.148246109485626221e-01
7.181013993093761094e-01,7.141779588895330599e-01,4.132947761557318467e-01,6.704408131638051396e-03,2.608643673522836881e-02,-3.079402307416544832e-02,3.110429942607879639e-01
6.227678423999967183e-01,6.428300676371552225e-01,6.214060197880013625e-01,3.092089535634238474e-03,4.085874334008002436e-03,-2.651022653916869278e-03,2.305468544363975525e-02
7.502587583459969789e-01,6.955427292614243528e-01,4.722975648634737400e-01,-7.859611787520006526e-03,-7.678016561335121795e-03,-5.845956110917343435e-02,2.750673890113830566e-01
8.502419454644901675e-01,9.403094356757458749e-01,3.919227492786108158e-01,-8.363771021609965606e-02,2.543346449511239005e-01,1.085534572527157987e-01,7.140336036682128906e-01
6.570647034334684555e-01,6.781091000580451444e-01,5.380042761032987064e-01,1.699948860907293455e-02,-2.447657711693318472e-02,1.593670747317453215e-02,1.433527022600173950e-01
7.081216039205174839e-01,7.191707828484749099e-01,4.745294013292842283e-01,-1.042281618469930072e-04,1.576319127934451515e-03,-5.245436062565139940e-04,2.393255382776260376e-01
6.367116166223329987e-01,5.395741617537648249e-01,6.758367896155025312e-01,2.037194765213878600e-01,1.397060901747752548e-01,-1.533383191634359322e-01,5.180377960205078125e-01
7.174641482395834879e-01,7.608271741800390897e-01,4.567708932179636028e-01,-1.957469297821948576e-02,-2.417452311081384406e-02,3.668614772721646988e-02,2.967930734157562256e-01
7.222683506094800254e-01,7.209612401045027985e-01,5.087444216894576599e-01,4.282114839994510640e-03,1.635963787653478552e-02,-1.471692358849519162e-02,2.163856774568557739e-01
7.060006364904400922e-01,7.184413435105367896e-01,4.910987199926850622e-01,2.582456381488733299e-03,2.333275262670431085e-03,-1.631756594232828747e-02,2.232627719640731812e-01
6.942030983297752256e-01,6.734579248874758006e-01,5.714695380956457127e-01,1.669061551285277653e-02,-3.102598144632326416e-02,3.758519148729142639e-02,1.446003615856170654e-01
7.178097511046981349e-01,7.117327719813697495e-01,4.940302828628861387e-01,-1.555237482933481295e-03,-4.534658136178328601e-03,-1.834298543599540907e-02,2.232322096824645996e-01
6.936559827993343808e-01,7.208111763233430169e-01,4.442690099215730326e-01,-5.890211414521071345e-03,-3.633138514077934034e-02,-9.888902399705466403e-03,2.721410989761352539e-01
7.605810069213969626e-01,7.317022214985726691e-01,4.395086745234585424e-01,1.362645467881521376e-02,-7.965379020845996666e-03,7.036447246880865938e-03,3.091038167476654053e-01
5.137733375997715068e-01,7.663037855787193653e-01,6.463984921077688961e-01,2.820177913893642460e-02,-9.894210923956564541e-02,-1.999703689373805507e-02,2.842946648597717285e-01
6.336919925916868479e-01,6.289947424206662197e-01,6.398248938233541683e-01,2.327977171372240354e-04,3.505959802179256079e-03,-1.323704490524842950e-03,1.143585704267024994e-02
5.122188711180371001e-01,7.108288373346043354e-01,6.075603440553545287e-01,2.162040784230935195e-02,-1.004261591689111499e-01,2.292498823660775453e-02,2.506698668003082275e-01
6.310262742651525647e-01,6.971022484257587415e-01,6.000970907512077623e-01,1.806141666360493083e-04,-3.334857309892211297e-02,5.276829509272662044e-04,1.034583970904350281e-01
6.567522661148922358e-01,6.994195639761154881e-01,5.292794131526888934e-01,-8.300331633562982661e-03,-3.244211545706111866e-02,-7.440894007586176459e-03,1.644354164600372314e-01
6.313920443440436125e-01,6.975179197072259862e-01,5.611604711081693564e-01,9.016466953183713273e-03,-5.408913712829520326e-02,2.944724349885264551e-03,1.516444534063339233e-01
6.578524918130728150e-01,5.134632391685117758e-01,5.859885707398777566e-01,-1.929405504235757463e-01,1.539042024859801072e-01,1.854852263249004152e-01,5.491705536842346191e-01
6.791795029306355591e-01,5.501721500087830563e-01,6.460185880769057087e-01,-2.402089176886052987e-02,-1.442950173951044503e-02,-1.207176300198607548e-02,1.275043785572052002e-01
6.171946443038276442e-01,6.952079783922797684e-01,5.931192202023225502e-01,-3.778349211387680220e-03,-7.793917746205404617e-02,-2.207858813572912641e-03,1.637831181287765503e-01
6.281644270330880575e-01,6.973854871428627478e-01,5.318690077660722659e-01,1.131483037802767135e-02,-3.776093816776118078e-02,7.639405991338692713e-03,1.598963886499404907e-01
6.251213230469837567e-01,6.961744648702012928e-01,5.735181731436288510e-01,-1.988826496834271169e-03,-1.606445967286813936e-02,-1.740467448551343520e-03,1.103320196270942688e-01
8.710009656993606963e-01,7.810860295789475716e-01,5.380288421600614157e-01,-1.158326040827837300e-01,-1.866627597322955967e-01,-2.943940219237431988e-01,7.027090787887573242e-01
6.979285339237479846e-01,5.968598113647645143e-01,6.518686683673909910e-01,4.758759073748112384e-02,3.218438868020392918e-02,-7.223373277044170537e-02,1.823062300682067871e-01
7.573539216909237481e-01,2.879440459616775527e-01,7.322575713232847283e-01,1.556389627369406461e-02,1.600299951419131839e-02,-1.567448508961148124e-01,5.332886576652526855e-01
9.582747146787953252e-01,7.940089328300826699e-01,2.321629330400752922e-01,1.726665629635255883e-02,6.117347851589280405e-02,-6.623808309233607250e-02,6.784023046493530273e-01
6.835588632503275530e-01,6.924658967029392320e-01,5.217437238526458909e-01,-1.965377547368280658e-02,-6.426634018511535873e-02,-2.875822184273619381e-02,2.091295570135116577e-01
6.374809026779965082e-01,5.481679120626703483e-01,6.773827664138003524e-01,-8.772706296764780365e-02,-3.549136002173276100e-02,-5.915349329371126508e-02,2.247157245874404907e-01
7.941627982122347884e-01,9.196179296968691741e-01,1.488660598689112713e-01,2.146348351071128077e-02,-7.280899064724208336e-02,2.599742791236373668e-02,7.296682596206665039e-01
8.998385411563536440e-01,4.524939041384692384e-01,5.443051845627097096e-01,-1.856347963539578816e-01,-1.176142687841280066e-01,-2.590992943417568251e-01,7.167654633522033691e-01
9.645080516541483240e-01,9.334517504653028208e-01,3.215623273231649204e-01,8.003617121256556208e-03,6.163651256273504353e-02,-1.559330015691364757e-01,6.920338273048400879e-01
5.939963053852281849e-01,5.149464853568934686e-01,5.160892480043342001e-01,-1.754495606998642543e-01,-1.771335729964470529e-01,-2.328398919608332118e-01,5.960533618927001953e-01
7.835242731849083597e-01,7.727390626379943006e-01,5.960514379195576140e-01,-1.764416741218039208e-01,-2.024642953756459751e-01,-2.515425454151125062e-01,6.628965139389038086e-01
7.457048431542834255e-01,3.163137384085832338e-01,8.911856005019281879e-01,1.344125593426250820e-01,-1.181939597844133480e-02,-1.570249748533554535e-01,6.297613382339477539e-01
7.473887663995508746e-01,3.778724472078180963e-01,5.013292079179341165e-01,-9.856240843391844697e-02,-6.054716284450159525e-02,-3.131041558791759494e-01,6.636329889297485352e-01
6.764761965818433254e-01,6.480506386493843918e-01,5.816078331383109923e-01,-1.100885587756053434e-02,-4.379716047168229903e-03,-8.996724722730669796e-03,8.817758411169052124e-02
7.517464226013580442e-01,4.706724306696749016e-01,6.867332802855010687e-01,-4.805231803676904279e-02,3.480951868362801294e-03,-5.812871421934453359e-02,2.864542901515960693e-01
7.166572100494454922e-01,5.518740941257349597e-01,6.263380127034430256e-01,1.757241383579463342e-02,-1.071479212033000367e-02,-7.145941450919139626e-02,1.924008429050445557e-01
8.462254200076475552e-01,9.441395187347618734e-01,3.748395892888982117e-01,-5.748940070707980049e-02,-2.418292877745477631e-01,-1.710977875731417852e-01,7.423811554908752441e-01
7.562143019245937126e-01,3.324941036524259319e-01,6.423882815149069003e-01,1.703118504232796482e-02,8.321932338391430095e-03,-2.151012647882379059e-01,5.330557227134704590e-01
6.034647635420573586e-01,6.265737562366439084e-01,6.688912274021630022e-01,-4.332820487444703772e-03,-5.504862071712073035e-03,-6.061510015884140345e-03,5.966711044311523438e-02
5.178827657884830238e-01,7.278126082172683420e-01,6.960046172058742542e-01,2.045695742356882507e-01,-2.773770096325882673e-01,4.565386390794629740e-02,6.332596540451049805e-01
3.854579581084933704e-01,7.695599167908835359e-01,6.729587681559876522e-01,-1.061698977210650680e-01,-2.381281888668895785e-01,-1.644213689165208159e-02,5.696522593498229980e-01
5.374417204387400560e-01,6.170634592051271738e-01,5.387489558094803455e-01,-1.974710141798684260e-01,-2.535848328297664600e-01,-2.034700564908751008e-01,6.635794043540954590e-01
6.953315420204702058e-01,5.358969034681064780e-01,6.690535061383677817e-01,-3.294680209198792842e-02,-2.775699779762226538e-02,-7.804003639191049724e-02,2.139132469892501831e-01
8.773278256696097621e-01,3.793455423721063813e-01,9.229043726212206034e-01,1.772761791987820246e-01,4.814057628512736359e-02,-1.234489479503957654e-01,6.478517651557922363e-01
6.722241156466335354e-01,8.968308010668545327e-01,5.630017174418207038e-01,1.376370100462873114e-01,3.292777629343595081e-01,-1.730527747990197318e-01,7.475659847259521484e-01
6.354034648446988953e-01,6.009255403988573718e-01,6.747403323466381053e-01,-7.184552861980732751e-03,1.167672251167380625e-02,4.505345654288200018e-03,6.868155300617218018e-02
6.803718245565056888e-01,5.765800115799931680e-01,7.664567537762951854e-01,-1.223417123516355315e-01,-2.565821471948116078e-02,-7.010342250088612281e-02,2.978913486003875732e-01
8.936683104283164036e-01,5.495511994571513625e-01,7.649858656152557224e-01,1.304569496893588920e-01,8.476218928530718233e-02,-2.525556203818317691e-01,5.955315828323364258e-01
6.423656929659113946e-01,6.947257592669811022e-01,6.012603977688653067e-01,-1.200756168821705445e-02,-2.665809876511929591e-02,-1.053471810538985851e-02,9.737014770507812500e-02
5.985238610977480223e-01,6.312615240254412230e-01,6.655956454519414978e-01,-7.334247841975576054e-02,-6.106595693368317701e-02,-6.274285220717223943e-02,2.061773836612701416e-01
6.100720723988143357e-01,6.140520727544728219e-01,6.820552491057928490e-01,-2.082204170849941225e-03,-2.919026497049115863e-04,6.784116292483189986e-04,7.018239051103591919e-02
6.303964817643294971e-01,6.010106418186260679e-01,6.818041288650692477e-01,3.159104972093071395e-02,-6.123229947601089608e-03,7.770311622390750281e-03,9.112919121980667114e-02
6.997379249249988664e-01,7.015859437213047833e-01,5.158237113026367116e-01,-2.764469660792735501e-03,-3.554803817881543350e-03,-1.246375331810131368e-02,1.862648725509643555e-01
8.139961940211566382e-01,6.962022344239088278e-01,4.703957066799372977e-01,3.793537993791225998e-03,-2.883317410264157540e-02,-1.373856482067377094e-01,3.881035149097442627e-01
7.637710796779644262e-01,7.588915661967672310e-01,3.516890644234372254e-01,-3.579687096827645094e-03,-4.183155973762297392e-02,-8.511151890435620856e-03,4.163292348384857178e-01
6.132284530450984317e-01,6.085636056034721131e-01,6.780290119176488606e-01,-1.897584744168325172e-03,-1.841719193632616360e-04,-1.256394807491468093e-03,6.737060099840164185e-02
6.932087896057551601e-01,6.278156081588802673e-01,5.691269803416456607e-01,-6.287298586500330265e-03,-9.776967929569671360e-04,-1.735667172912483749e-02,1.121769994497299194e-01
6.225066723095097343e-01,5.619289172765692397e-01,7.247263322980660449e-01,-6.123181269274080574e-02,1.505536269205089324e-02,7.252765451562741402e-04,1.795559376478195190e-01
8.670041479515656624e-01,5.620135862504953561e-01,7.580222301640563431e-01,1.968460729952578869e-01,-1.561132681720197035e-01,2.950617400311475458e-01,7.226349711418151855e-01
9.678612047450013689e-01,5.154214069110369945e-01,7.833230974020114479e-01,9.183629265860772384e-02,-5.018328349530177396e-02,3.161257652119089934e-01,6.985177397727966309e-01
6.813333634444352915e-01,5.714581893093287901e-01,6.479637735287352429e-01,-8.229927322798293032e-03,1.062567700973122281e-02,9.372613990708380041e-03,1.016122102737426758e-01
6.173563255475889022e-01,6.241416865423825566e-01,6.446947453459138666e-01,1.457564842958800587e-02,-1.504839056481569251e-02,1.364625356499588570e-02,4.983272776007652283e-02
6.259201377243485132e-01,6.697389111682867657e-01,6.070922092045228924e-01,6.432125775320513862e-03,-3.023868202542454899e-03,2.550298814168969544e-03,5.718962103128433228e-02
6.821194982199808576e-01,6.779673613939602994e-01,6.046288728178424998e-01,4.958869309008599041e-02,-5.557381795994086049e-02,5.475873253955736153e-02,1.770262867212295532e-01
6.644196314955220783e-01,6.150544753672183562e-01,6.115662132191720390e-01,9.625663018692812503e-03,-9.883745945735246397e-03,1.671252805174144179e-02,6.348413974046707153e-02
6.715171910710038272e-01,3.868832276784023860e-01,8.705318945671917108e-01,1.903804276443854249e-01,-1.036835607954971761e-01,1.433446850629034874e-01,6.163584589958190918e-01
7.022693508617848801e-01,6.863046506676485636e-01,5.007472877401218936e-01,9.385102971415083123e-03,-7.783237463934694622e-03,2.390104023135365338e-02,1.995207518339157104e-01
5.019056901226771616e-01,5.757221451362980469e-01,7.051510018551570003e-01,1.397473528868588277e-01,3.547099995112772824e-02,-2.576806710550153326e-02,3.100148439407348633e-01
8.488480147304107160e-01,6.298488783041442662e-01,4.228844666097790195e-01,1.187599520764388017e-01,2.386942576780625991e-01,-2.174714175104600633e-01,7.008837461471557617e-01
6.305376008582924685e-01,5.957442064488260858e-01,6.583225755839364757e-01,1.275224565144620140e-02,1.569772808902193673e-02,-1.026268288452174098e-02,6.702538579702377319e-02
6.174868867704496056e-01,6.095711456350875190e-01,6.685803931468705663e-01,-7.599852229002631784e-03,-6.337166062169405020e-03,-2.597009894429396816e-03,5.823773518204689026e-02
6.027007673977144986e-01,6.144766404223007683e-01,6.815269291149782527e-01,-9.129443075387756040e-03,1.186912148666405991e-04,1.572738279855006097e-03,7.537566870450973511e-02
6.686191138696445657e-01,4.976889298581974042e-01,5.028205069513829173e-01,-1.703521224492116903e-01,-1.765621971886093267e-01,-2.472301871682155150e-01,6.263519525527954102e-01
6.165931335164922533e-01,6.091267427828712666e-01,6.810095351875615766e-01,-2.219268715055545960e-03,-2.848975808632793656e-03,-9.666077733797847705e-04,6.876122951507568359e-02
6.535810509424581083e-01,5.875977846000204341e-01,6.488607680761723229e-01,1.240383922965684026e-02,1.698770661799203774e-02,-9.242198133358746001e-03,7.515437155961990356e-02
5.981129198007479886e-01,7.969116712924503299e-01,4.711806823214026441e-01,4.120021190183641158e-02,2.559922755434385078e-01,-6.354142205540190547e-02,5.428330898284912109e-01
9.518853799824280593e-01,4.067085174630795663e-01,8.078465294630423621e-01,-1.002559522735287090e-01,-4.076856984029039732e-02,-2.349178680570946642e-01,6.634286642074584961e-01
6.242889903593671352e-01,5.717751385428400113e-01,6.854280150302006769e-01,-1.670819365467243398e-02,-2.766948888172345109e-03,-1.340275852835976682e-03,1.028211042284965515e-01
6.277572919456860800e-01,6.023751681511858580e-01,6.815519863734504913e-01,-4.659091208719072161e-03,-5.388536699956972785e-03,-3.455823078601406428e-03,7.135546952486038208e-02
5.062081537954162824e-01,7.135095193085074783e-01,7.029156609530973210e-01,-1.346600514606919111e-02,-4.394317988158299125e-03,-3.647743709178614437e-03,2.037935554981231689e-01
7.136003242957007497e-01,8.071001014669686446e-01,3.300304903489503783e-01,-4.653487100451359458e-03,2.046134260502401048e-01,-1.512835217162104492e-02,5.639886856079101562e-01
6.964050040450482371e-01,5.292519089457690118e-01,6.490639190496336752e-01,1.127482158407416271e-03,6.953555420047443161e-03,-2.849469175487037362e-02,1.576478332281112671e-01
6.526443338926858351e-01,6.363858159501966094e-01,6.118729483976644845e-01,1.050454090837288877e-02,-2.551331596164551751e-03,2.707359833488890213e-03,4.045140743255615234e-02
6.794564638773803456e-01,6.254439758957260898e-01,6.003567276755595872e-01,6.030675645133701766e-04,1.014453403255743480e-03,-5.259491595331006533e-03,7.063220441341400146e-02
9.468347036680562212e-01,2.949103680502219160e-01,9.650299939340343247e-01,-1.642540528239746778e-01,-1.714129118197567012e-02,-8.021124536792099968e-02,7.337026000022888184e-01
7.680105131438633714e-01,6.099146605080405514e-01,5.521806060900842361e-01,-6.179165909902629983e-02,-2.210178098394711410e-01,-2.858495840518760489e-01,6.637666821479797363e-01
4.119940330257495509e-01,7.096286793855572927e-01,7.206534700054747500e-01,-2.441138291206110256e-02,-2.821674429964790044e-03,-1.016646837727483953e-02,3.067751526832580566e-01
5.021429897390203845e-01,7.418696273185964030e-01,7.465180306260242871e-01,-1.221705691898464230e-01,4.710591257781970853e-02,1.653658403793428419e-02,3.329550027847290039e-01
4.987067522429600719e-01,7.053552822633020192e-01,7.151975560565918544e-01,-4.399270850821117816e-03,1.385013322096548954e-02,3.744684404339445900e-03,2.133306860923767090e-01
4.091107243626434520e-01,7.173348211622326831e-01,7.185710430401487381e-01,1.714330389207506175e-02,-4.702270822713257477e-03,-7.760888050428305486e-04,3.103779554367065430e-01
6.582574694103610069e-01,6.949594963424818861e-01,5.481651415636733526e-01,6.353969805381253985e-03,1.283221149098871805e-02,-3.050816454700332105e-03,1.347256749868392944e-01
6.206862665491259534e-01,8.259559410233406895e-01,7.066591820770827814e-01,2.185286400824591746e-01,2.604515860861680854e-01,-1.697125394137892485e-01,6.819499731063842773e-01
5.618003555311097408e-01,6.497423242721475090e-01,6.751428720818790641e-01,2.027442563896255517e-02,7.291866325652801746e-03,-1.421244044677797899e-02,1.123005077242851257e-01
4.934485009974290959e-01,6.864006020488168103e-01,7.025608255323528839e-01,-2.503359006067778017e-02,4.364937157772885191e-03,7.202331711472626657e-03,2.066461592912673950e-01
4.337853812464013692e-01,7.821480708184572750e-01,7.162354712546969981e-01,-3.086502466275694440e-02,3.643164724133061971e-02,2.713184372716547291e-02,3.343466818332672119e-01
4.906619433626965843e-01,7.144991179439810214e-01,7.210081043713387761e-01,1.468420814889322308e-02,-7.663406967809459520e-03,6.454419806533670881e-03,2.292388230562210083e-01
6.312082981956081973e-01,6.354217206925945050e-01,6.286175448311378533e-01,-3.289349674891099608e-03,2.106751930704922442e-03,4.354486056540091479e-03,1.174905057996511459e-02
6.386602339582762022e-01,6.101202473197018250e-01,6.520006373966672486e-01,6.860052779233529428e-03,-1.421877833240012962e-02,7.174990927371500786e-03,4.770089685916900635e-02
4.593239280772227762e-01,7.351403468956867471e-01,7.023575806435973234e-01,-4.248045726350962309e-02,1.024915542084951087e-01,-1.295920574420940906e-02,3.248669505119323730e-01
6.866836439133338077e-01,6.868497021375621348e-01,5.688896649778101278e-01,-7.528700695435011636e-02,6.716720150269291090e-02,8.675238259674715458e-02,2.588660717010498047e-01
5.584879251808564371e-01,9.891268605593492858e-01,6.028614893794929097e-01,4.078344379780516477e-02,3.712773485434044396e-01,-3.576807058914448223e-02,7.685561180114746094e-01
4.359260411179034511e-01,7.899068166968857829e-01,7.172666671712014663e-01,-8.686634518740579680e-02,2.666836683435393485e-01,1.120390191659201701e-01,6.152412891387939453e-01
4.330005051357078139e-01,7.070787188549069180e-01,7.212610003915146395e-01,-7.223627435023889654e-02,4.817441589134459357e-02,-7.455616037489007537e-03,3.193593323230743408e-01
4.383478035951802743e-01,7.028224113017139674e-01,7.100123603894648028e-01,-3.710406885264099647e-02,2.731001387483542736e-02,3.418691051323870245e-03,2.798263430595397949e-01
6.060242653752313524e-01,6.740466766392058107e-01,6.169789045711329134e-01,2.892464029676152133e-03,7.346825350266891416e-03,-6.112905061202910002e-03,6.558217108249664307e-02
6.440925923272822207e-01,3.742870480069601102e-01,7.898459349633084603e-01,2.317321065266055302e-01,2.574023030610636878e-02,1.611477675564718104e-02,5.451881885528564453e-01
8.479393716906920009e-01,9.306807178993565799e-01,3.186382096929272212e-01,-3.606733859756455773e-02,2.906310102735227829e-01,8.186976894190722831e-02,7.798786163330078125e-01
8.789373263735139608e-01,9.608404395683179944e-01,1.963669816973716564e-01,3.980100665842175971e-03,2.225953226037834798e-01,-6.092484219721051864e-02,8.296650648117065430e-01
6.386910573597424090e-01,6.222000460439748304e-01,6.542736872926160352e-01,1.817906912614474652e-03,-8.164945192437208371e-03,1.207353415599015040e-03,3.140113875269889832e-02
6.744939424025778729e-01,9.451414080916281657e-01,5.686713337377113930e-01,-1.569702684982878654e-02,3.381696039637717144e-01,3.501498251838945641e-02,6.786622405052185059e-01
7.833065341138955029e-01,3.804462643522636411e-01,6.404014329178299159e-01,7.061965926254984427e-02,9.390559512677714230e-03,-2.291529572202602449e-01,5.458082556724548340e-01
8.741232823119001738e-01,6.988058097880780473e-01,6.010802503189058843e-01,1.357900598653920266e-01,1.826302141481887242e-01,-2.869485972040483057e-01,6.780974864959716797e-01
4.561712913599035302e-01,5.323362174871177910e-01,8.641777968322272852e-01,2.775308833782211826e-01,7.870690559769687178e-02,-1.592181276540412804e-01,6.833010911941528320e-01
6.966077065713304206e-01,6.499242365296761248e-01,5.663027631540777929e-01,5.637073523597577879e-03,3.410212584607315387e-03,-8.619625835713720999e-03,1.158824861049652100e-01
6.473691200459634754e-01,4.010253056469668675e-01,7.508807819604257361e-01,1.797182351407680123e-01,4.751783833581561811e-02,-1.077527553966343421e-01,4.851815402507781982e-01
6.145674762712416417e-01,5.132112847183627480e-01,7.619884688103447656e-01,8.986958984776861892e-02,3.069889881699868969e-02,-4.026952554993649264e-02,2.808377742767333984e-01
6.787562585054636166e-01,5.859285716928105403e-01,7.280620089043103871e-01,1.501864157463439764e-01,-9.579359513276028415e-03,-1.131849791977101484e-02,2.897455394268035889e-01
7.033404700846415114e-01,7.260160545151179701e-01,4.465180922703927968e-01,1.987764661629385504e-02,7.945500803948779556e-02,-2.726099473726429842e-02,3.076518476009368896e-01
6.031487493077676287e-01,6.179293533886967005e-01,6.981659750087075844e-01,3.801598944197401297e-02,-1.925714856332137173e-03,3.020929205689205574e-03,1.105281710624694824e-01
3.337040407949728449e-01,8.197105067368041231e-01,6.783644981153839071e-01,6.764947514726905864e-02,-1.850108689324490574e-01,1.454194102393354011e-02,5.518484711647033691e-01
6.013421412154527079e-01,5.973276057321483812e-01,6.735377889791368533e-01,2.769721588496288495e-02,9.437363536100690578e-03,-1.036899463735725495e-02,9.170227497816085815e-02
6.134679744697770776e-01,6.093639992246687731e-01,6.816780557707065036e-01,2.158048629046867197e-03,-1.338640840293553269e-05,-2.611110878732016767e-04,7.045258581638336182e-02
6.087155397905333887e-01,6.135117936871665734e-01,6.772865265058781725e-01,2.237633196406449854e-03,1.231739743725845373e-03,-2.730998763140466724e-04,6.645221263170242310e-02
6.092341426886546119e-01,6.165945432772487189e-01,6.800564051513069419e-01,2.531605879259457917e-03,9.621165455871721764e-04,-2.730993524814100300e-03,6.777217239141464233e-02
9.794627672784936845e-01,8.375723349334380785e-01,4.569814872571766329e-01,2.005288033978699230e-02,1.060305442367336613e-02,-3.087997585307743487e-01,7.117583751678466797e-01
5.763908568198489180e-01,6.318181656719085160e-01,6.785236276476461770e-01,-1.547538867578924018e-02,8.529513789069895213e-03,1.505334072299308740e-02,9.725674986839294434e-02
6.490553369687923624e-01,5.991490020635341640e-01,6.533297780320975745e-01,-5.835978253442649158e-03,-1.258363559763924638e-02,-5.107447323954502315e-03,5.811809003353118896e-02
5.569476506217697631e-01,6.785173020332737615e-01,8.033642877213962308e-01,-1.280810320934556990e-01,-5.525045247084035133e-02,-5.048888142248554589e-02,3.340105116367340088e-01
6.620435195642048187e-01,6.227756924624495705e-01,6.135497671285257137e-01,8.075568352391379948e-03,-3.577365471349322739e-03,6.176657182046192684e-03,4.835134372115135193e-02
6.662768874498704585e-01,6.200450545886800890e-01,6.137197949579542566e-01,6.421398199447668487e-03,-4.090692302074955267e-03,6.156223162798998838e-03,5.251115188002586365e-02
6.693482323911110754e-01,6.098731612972005944e-01,6.172448137659155565e-01,3.289772724992490790e-03,-6.903468565233297945e-03,7.464454038730129054e-03,5.912521854043006897e-02
6.766786173560368489e-01,6.199395309805952881e-01,6.067936895572758615e-01,6.684863666760109020e-03,-2.286503840456709496e-03,6.387380575937233462e-03,6.640905141830444336e-02
7.273772814846768409e-01,6.179000243269600068e-01,5.594971098765122441e-01,-1.005002160251271086e-02,-5.282574302562057823e-03,-5.632894623904399073e-02,1.780323982238769531e-01
6.035923639412306141e-01,6.717412228835863974e-01,6.101376097754798167e-01,3.152343713794647680e-03,9.193170408727817725e-03,-6.333734817238491008e-03,6.815247237682342529e-02
6.519842443296265388e-01,7.553424656831109196e-01,7.317462870762251326e-01,-2.359610651131523462e-01,-1.918939007766598814e-01,-1.799543660281269775e-01,6.192368268966674805e-01
5.803958577379023653e-01,7.791548003228730979e-01,5.641110914748489469e-01,3.220132851170360438e-02,-1.631732216187402329e-01,-2.145892558886815238e-02,3.568974435329437256e-01
6.111417664423582918e-01,9.620735201162718964e-01,6.530840999751506004e-01,-7.518066870228726217e-02,-3.252367139838627796e-01,-4.614601281668732208e-02,6.714721918106079102e-01
4.527796033032937539e-01,8.419756666007246482e-01,9.625577165581487016e-01,-2.458370808500257576e-01,-1.842758287869659395e-01,-6.079281633650917421e-02,7.121877074241638184e-01
4.909584488433204053e-01,7.118195921908456736e-01,7.314287769598423194e-01,1.009149882280494237e-01,-3.713157089738515493e-02,5.393642371559140281e-02,3.113041222095489502e-01
6.216152268250186852e-01,6.207824030775251911e-01,6.410152243627869062e-01,-1.352935436188738849e-02,-9.323357317339533989e-03,-1.085343119532432635e-02,3.945258632302284241e-02
6.410445196909348997e-01,6.807196055266561130e-01,5.990747257520172564e-01,-1.203071999587278923e-02,-2.675967810859748372e-02,-7.247887955349081694e-03,8.798171579837799072e-02
6.108121124517185141e-01,6.369239499445878971e-01,7.717978954189492757e-01,1.454592432933801971e-01,-4.066195595220935266e-02,4.314848441169635146e-02,3.105082213878631592e-01
7.563316355655496093e-01,7.262310763599849617e-01,4.796187235367984636e-01,-2.933311463027516233e-02,-7.614805294913772060e-02,-1.078360797480776012e-01,3.521499633789062500e-01
5.790547357882631641e-01,6.694868234100340709e-01,6.011929090872183412e-01,-5.955302582223322150e-02,-9.674082137491912814e-02,-6.415890295076744076e-02,2.402731776237487793e-01
4.731757568886739707e-01,5.777013994175376199e-01,9.385841310273825844e-01,2.400976043956817851e-01,-8.597537070090517652e-02,3.166782206180647485e-02,6.140096783638000488e-01
6.562208544637361252e-01,5.554613516541512253e-01,7.223365586827351637e-01,1.047592654379145144e-01,-9.482243924498184873e-02,8.367220040990783203e-02,3.195090889930725098e-01
4.516818995568472328e-01,7.740226284738481732e-01,7.333120776731847368e-01,-6.468686215143083784e-02,5.077876900860911480e-02,2.399318863931311496e-02,3.383103013038635254e-01
5.725370215165150878e-01,5.050414979870334609e-01,6.933251740287722509e-01,2.508875827146481163e-01,-1.477797385707115274e-01,1.561158251598696312e-01,5.956214070320129395e-01
4.965202197519694716e-01,6.898392039688665545e-01,7.031817873392568474e-01,-2.618249540724181326e-02,6.407046933682581345e-03,8.566533874386198302e-03,2.062268257141113281e-01
6.261752623364571502e-01,6.786403672302909751e-01,6.018090669530542502e-01,8.059109213168156802e-03,-4.617583765753371060e-03,1.060131397054894136e-03,6.990607827901840210e-02
5.113336338955564164e-01,4.712393694034677782e-01,7.201298094457372345e-01,2.512614163870708350e-01,-9.087161883523998951e-02,1.115633304345794025e-01,5.523440241813659668e-01
6.319778578889269083e-01,6.741118103645087345e-01,6.005108743909756130e-01,-1.927442277514860441e-02,-2.712106747779367485e-02,-9.061842589613570281e-03,8.751449733972549438e-02
5.419743835925371345e-01,7.144610502818562470e-01,6.692876469733325395e-01,5.753491611153865697e-03,-3.080732861043394138e-02,4.890613782611327558e-03,1.643740087747573853e-01
5.556060594950711362e-01,6.644016910481765903e-01,7.102172076531247935e-01,4.691580584962862926e-02,-9.886095860969004983e-04,-1.449160810430576282e-03,1.597892045974731445e-01
5.405195403798466192e-01,6.811892578351707028e-01,6.796293772562742586e-01,6.132542987889640258e-03,1.369891664072001893e-02,-1.828454497963868941e-02,1.457729488611221313e-01
6.547061757817319583e-01,6.215750764204062140e-01,6.279792226324336646e-01,2.388361978456831486e-03,-1.385637406529941548e-03,2.931954436666079668e-03,3.122768551111221313e-02
5.871826936925161888e-01,6.308912311262276917e-01,6.828395144548935480e-01,5.246520101434989924e-02,-5.221904729263227019e-02,3.438914770389863568e-02,1.639077812433242798e-01
7.137114199342080578e-01,3.914744492854997926e-01,7.213790799918364804e-01,-4.384486357102745924e-02,3.221774413029248555e-03,4.932462732231102098e-02,3.456346094608306885e-01
6.963118668106025311e-01,4.904713315120336481e-01,6.876049612010480816e-01,-8.719171256499975986e-02,2.805400749595678145e-02,9.100329222854039446e-02,3.011095523834228516e-01
5.977028386611005217e-01,6.662798267250992224e-01,6.622298987677045501e-01,-2.582994975189252529e-02,2.545316086689739660e-02,2.117446071878495428e-02,9.864936023950576782e-02
4.565616116873116859e-01,6.576970710251377472e-01,5.268719972496521686e-01,-1.571355767638176193e-01,-2.462223436703588064e-01,-1.196690687770368688e-01,5.746044516563415527e-01
2.384717480214300078e-01,8.958089238540312138e-01,1.028584340276889941e+00,-1.342533121649138184e-01,-7.385452245676653316e-02,9.798534956548764913e-03,7.795659303665161133e-01
7.000113981165770882e-01,4.778951215082231085e-01,7.139917546981491281e-01,-4.506064301051056903e-02,4.322640065883445390e-03,2.313805140871874610e-02,2.457435727119445801e-01
6.438717917956500170e-01,5.101149988745751207e-01,6.303405103469328363e-01,-1.001870700920747398e-01,6.504575187523495283e-02,1.214034334695197614e-01,3.213808536529541016e-01
5.379532775028196268e-01,6.915343504602745606e-01,6.590922578955326072e-01,4.171664929687366428e-03,1.887866935339491820e-02,-7.714411407168535878e-03,1.447656750679016113e-01
5.419397013579565492e-01,6.882475429738346140e-01,6.493889194698602152e-01,-1.879905784186032894e-02,-3.172047302933704571e-02,-1.157427677357720543e-02,1.473476439714431763e-01
7.129611575611033425e-01,5.111964066128463768e-01,7.170214737822911966e-01,-1.165328621231769522e-02,1.490767944592442246e-02,2.321977482610501284e-02,2.103243172168731689e-01
2.690516125050270713e-01,7.170147485052569269e-01,7.498047971885359875e-01,-9.643250735215248837e-02,-1.146326697641691789e-01,-2.929442153734162363e-02,5.350971817970275879e-01
6.922602294015213209e-01,5.049106839208692410e-01,7.140661879215032259e-01,-2.260177038383101925e-02,8.911662102872133437e-03,1.827009387517800412e-02,2.059923559427261353e-01
6.136179535327298540e-01,6.211362932890235333e-01,6.690049527391500606e-01,-3.121158554101896056e-03,1.498778804185263392e-03,1.870190401044590205e-03,5.248126760125160217e-02
6.262167075718969578e-01,6.339817089080528323e-01,6.393797285707292222e-01,-1.226322229877466847e-03,2.289861468614482962e-03,5.297412306686936738e-03,1.535510364919900894e-02
6.263448188349692858e-01,5.980372457027287592e-01,6.783301549590109447e-01,5.512425465708057672e-03,6.583347498358034337e-03,-4.847486269194184981e-03,7.257443666458129883e-02
4.085610480045143711e-01,9.241007447179259149e-01,7.425010747417808421e-01,-8.382059333627638054e-02,2.868964706283642641e-01,5.936470948130240927e-02,6.954974532127380371e-01
5.728251070800991496e-01,6.849000305396012456e-01,6.230409457902340575e-01,4.024980955927718977e-03,-2.291571140374805415e-02,-2.770003897567058026e-05,1.052543371915817261e-01
3.197685496724846921e-01,7.340429874358680440e-01,8.008953015838620182e-01,-6.486734427159716876e-02,-1.288717948445035170e-02,-3.102408229893849584e-04,4.657355248928070068e-01
6.048810127852809471e-01,6.600540974829236518e-01,6.329354118375161153e-01,-1.043723111908638913e-03,3.127480682914064898e-03,8.551756206259628068e-03,5.035156384110450745e-02
6.639678237977854058e-01,9.456541697910650912e-01,5.436209589231976169e-01,1.028268895643448255e-01,3.396116033945015267e-01,-1.459631207904347194e-01,7.545691132545471191e-01
5.483899479697919022e-01,7.847174255023907641e-01,3.467207410164566683e-01,-3.873675124819120352e-02,3.184892986978607454e-01,8.967690965261569669e-02,6.907350420951843262e-01
6.042301674576703308e-01,6.761371425145349390e-01,6.422846074495909274e-01,2.039279080541454500e-02,2.681948490243402095e-02,-1.888764484405282273e-02,9.142240136861801147e-02
6.415461684264738285e-01,6.349029039481732806e-01,6.164599666517224241e-01,-1.249752765854515550e-02,7.386114135492252881e-03,4.980291608325148472e-03,3.483438864350318909e-02
6.154839503037958792e-01,6.440034639933299720e-01,6.411398897366442640e-01,-3.647037989776016897e-02,5.341333279709898491e-02,3.739236342531761931e-02,1.322258710861206055e-01
6.871877622276828523e-01,7.573139232641811214e-01,4.823591157743820634e-01,-7.930180527036647178e-03,-6.252899471189468650e-02,-5.121365545309396888e-02,2.846455872058868408e-01
7.323439850310051735e-01,7.585027194146953811e-01,7.043680786340748012e-01,-2.321168198408559424e-01,2.476697229069309281e-01,1.948484412369315966e-01,6.795233488082885742e-01
7.672301355289842251e-01,7.853486778951899172e-01,3.726356629014812571e-01,5.321425230424103696e-03,-1.990466826372549319e-02,2.485972034054897972e-02,4.078113734722137451e-01
6.230810008762810437e-01,6.372257674805331673e-01,6.399772427631320593e-01,1.581769666674636516e-03,-9.446284954945598613e-04,7.032713211021777641e-03,2.012769505381584167e-02
6.705849259798092321e-01,3.438394335352388254e-01,6.714091057898355919e-01,1.983920680984505858e-01,-1.003788425728601857e-01,2.101914873340215706e-01,6.228001117706298828e-01
4.312599319265798536e-01,7.237994702051946394e-01,5.694348021289256101e-01,-1.090154602172531961e-01,2.235274808626750154e-01,8.068242910161844972e-02,5.189660191535949707e-01
8.790213508784116003e-01,7.497801655069945559e-01,3.384749507821536163e-01,3.594905341265767357e-02,-1.443344895232268887e-01,-1.332960657735249577e-01,5.989246368408203125e-01
6.269967812991968925e-01,6.279089623299882739e-01,6.490528139340591141e-01,8.013360498012079029e-04,-6.760244584088286957e-04,3.531061885247353989e-03,2.253628708422183990e-02
4.693734552690473349e-01,9.361688555072209539e-01,7.302124639614622215e-01,1.551040378537643094e-01,2.708573000417264787e-01,-1.054127098772181803e-01,6.998391151428222656e-01
4.145486960941741628e-01,5.890810574493816620e-01,7.977209053253581095e-01,2.596533083116372986e-01,-1.301454611325669752e-02,7.281908919836187384e-03,5.597618222236633301e-01
7.282483223144043949e-01,6.930122794423564381e-01,4.929176498570668752e-01,-1.697384718983866239e-02,-6.234877508094258808e-02,-5.507757387613184535e-02,2.644939422607421875e-01
6.803602265396989646e-01,7.061287549894204041e-01,4.397822435465014168e-01,-7.304846135632338949e-03,-6.373103488604101030e-02,-1.097007450192486432e-02,2.782933115959167480e-01
6.688741367935059356e-01,7.429703060817021143e-01,3.601396611709677398e-01,-6.148505655111287382e-02,-1.826331298388156887e-01,-8.978847774307273377e-02,5.091904997825622559e-01
6.656829223692174446e-01,6.059957312347772351e-01,6.627771371817290369e-01,2.582135528525551435e-02,1.763554842517809848e-02,-2.164229054810097586e-02,8.795452117919921875e-02
2.092460456867946683e-01,8.694539767678890474e-01,1.006484099053305270e+00,-1.917066572028931493e-01,-1.005089295952599632e-01,-1.471922188708988180e-02,8.284506797790527344e-01
6.974018815874477584e-01,5.855815263041616037e-01,5.703414660765478983e-01,4.149137029524951718e-03,1.543462845737812554e-02,-8.469171816904620675e-02,1.916366070508956909e-01
9.051684703665908716e-01,6.449639762949102018e-01,3.920403150233921497e-01,5.091265982751672081e-02,7.488018193245170664e-03,-2.417569289957532952e-01,6.170675754547119141e-01
6.074638858716510104e-01,6.926932514740724578e-01,5.585761724544631157e-01,-5.520051864333375483e-03,-5.853576420445084222e-02,-1.727116427986026071e-03,1.555647552013397217e-01
6.778338358582163270e-01,5.333481437388958302e-01,6.871250599824711980e-01,-8.285425650857573474e-03,-1.336602296232677900e-02,-1.531921929966197950e-02,1.541130244731903076e-01
6.607848848769554140e-01,6.268831008213472389e-01,6.106637301289634667e-01,9.968761106369515221e-03,1.434754601184083656e-02,-1.160917872547888134e-02,5.729108676314353943e-02
5.944661233534361822e-01,6.382115700236111744e-01,6.588757699391362133e-01,9.301553678579665280e-03,8.608546524793434310e-03,-1.606100002687110145e-02,6.708489358425140381e-02
5.620746488805246077e-01,6.823712157197104888e-01,6.523759209006377846e-01,1.896495414389684150e-02,-4.655866098088994043e-02,1.306886736157644030e-02,1.409154832363128662e-01
6.156404889382145473e-01,6.126929205359764596e-01,6.632224160060756768e-01,7.427465437032014159e-03,7.015405660996016333e-03,-3.886549210670191355e-03,5.264450609683990479e-02
6.086829841822944953e-01,6.162364266080684327e-01,6.698798264033809513e-01,5.320555247952766208e-03,2.896133020899765379e-03,-5.967791389828287774e-03,5.963885039091110229e-02
6.969443170060531934e-01,5.082686709066890351e-01,7.142690094461596750e-01,5.337645235447142228e-02,-3.598448336820221204e-03,-1.019090260973726236e-02,2.192371785640716553e-01
8.721667238638937114e-01,4.055948478256174994e-01,9.196351527868339426e-01,2.115188274412507785e-01,4.390738965260938820e-02,-1.167916124308103348e-01,6.503961086273193359e-01
6.544032635090298866e-01,6.743788996406093750e-01,5.592655391186626135e-01,1.379190858573713964e-02,1.871224784347143982e-02,-7.080947925159776675e-03,1.145520135760307312e-01
6.591761647873840557e-01,6.886044414848397910e-01,5.428802056359556261e-01,1.142051075221317026e-02,4.497056404203888386e-02,-3.258310314567799959e-02,1.656999588012695312e-01
7.401733366442289075e-01,7.459882905421915122e-01,6.332029913849910319e-01,2.149646985034480706e-01,2.553437091080728583e-01,-2.315876322336468396e-01,7.121992111206054688e-01
6.454711015588742162e-01,6.290551242906411433e-01,6.228529853235486025e-01,7.012008949032137728e-03,3.439408444794239336e-03,-2.801521669079168331e-03,2.482547052204608917e-02
8.956163113866597580e-01,9.128840662806771977e-01,4.746400521398995154e-01,9.650784613474643059e-02,2.066153845555457336e-01,-2.417367224025256667e-01,7.184075713157653809e-01
7.188878168474560626e-01,6.206743695166156982e-01,6.088091362073027035e-01,3.827293175389375824e-04,-4.239122354161046526e-03,-5.497459117622462837e-02,1.416790634393692017e-01
6.550133531540677234e-01,5.763358784714227578e-01,6.590090779784855135e-01,1.139850206564447382e-02,2.100769771918089071e-02,-1.393929272605117127e-02,9.389964491128921509e-02
6.531264592150717307e-01,6.084505959804250574e-01,6.770700893468359904e-01,7.440348703412409670e-02,-4.622381138991982219e-02,5.581680332038745085e-02,1.897446662187576294e-01
6.946941225091953775e-01,6.512781148266786335e-01,5.575383557842703564e-01,-1.917015520860047362e-03,1.476617619520346645e-03,1.193748536315590233e-02,1.232354417443275452e-01
9.442877679600251151e-01,2.139755308554222024e-01,1.009131648148190452e+00,-1.388948054232028717e-01,1.853424807997326165e-03,-5.516490409827475017e-02,8.074231147766113281e-01
6.549843445571590372e-01,5.674637836547834491e-01,6.542582458572454573e-01,3.253278963542338698e-02,-2.242205180224719069e-02,3.634184415008258340e-02,1.274457126855850220e-01
6.856746961015244279e-01,6.036139690454306317e-01,6.146370411689766611e-01,4.409792786296118762e-04,1.914845945999854061e-03,8.535849275714603793e-03,7.861981540918350220e-02
9.623703187783660962e-01,9.228007387297257891e-01,2.168426169074745835e-01,1.585246982333231996e-02,9.015091325726717550e-03,2.747652180941641264e-02,7.287933230400085449e-01
6.857445493720374374e-01,6.892119899239090852e-01,5.030491467707676190e-01,-1.722342102813124998e-02,2.140525357422614489e-02,2.338967885555706672e-02,1.947532892227172852e-01
6.778472747518289321e-01,6.696960221772466637e-01,5.585690459074414971e-01,1.441199102228282215e-02,-5.901962870359609217e-03,1.749983007040658775e-02,1.223430410027503967e-01
9.385635741904161389e-01,7.371687240011132181e-01,3.181704864766809471e-01,3.687460263797343735e-02,7.367426448436348307e-02,1.791255872288496365e-01,6.458516120910644531e-01
7.173008020563670373e-01,7.084622891341610940e-01,5.111027559062495396e-01,-1.184691574242980293e-02,2.001391652605393617e-02,3.887594481933526885e-02,2.166333496570587158e-01
7.754037207692451306e-01,6.926303414975792938e-01,5.092586495559049409e-01,2.587288778217865931e-02,-6.548662247861865814e-03,8.930299708959557603e-02,2.858616113662719727e-01
6.811631887527440643e-01,9.722607908198509508e-01,3.935042398955559406e-01,-5.204939834654432468e-02,-2.092921091492082331e-01,-1.428164805982185259e-01,6.722714900970458984e-01
9.312846031661832225e-01,6.481417360361084734e-01,3.128232841520560137e-01,7.298611728628856543e-02,-1.763869048598731837e-02,2.258565162747849242e-01,6.763868331909179688e-01
6.805557390253680339e-01,6.488404892905429433e-01,5.701912370141187791e-01,1.451304222594246296e-02,-5.500960004337147879e-03,1.235887872623262461e-02,1.042441129684448242e-01
7.078828680408633112e-01,6.659524125089484325e-01,5.406042838183252597e-01,-5.517270312518049967e-03,2.132406038550093124e-03,1.897322002755325379e-02,1.546322554349899292e-01
7.511711199515586079e-01,9.296444241376493611e-01,4.881375389227217698e-01,3.808970771836864971e-02,-2.891865053907339833e-01,3.172255950280074288e-02,6.373710036277770996e-01
7.332640679030636433e-01,7.352887614243472925e-01,3.868191914266504439e-01,7.241168676397703730e-02,-2.030068518171769532e-01,1.212033253868361193e-01,5.515124797821044922e-01
5.929391323321983043e-01,6.642433878536393443e-01,6.297131182610560263e-01,8.118823752513389114e-03,-1.347535794455240014e-02,1.461569935009672527e-02,7.209604233503341675e-02
7.699831847231586313e-01,6.629737256597684203e-01,2.909957856161429768e-01,3.554412784325147040e-02,-4.868667153132666403e-02,2.201717502500788459e-01,5.881767868995666504e-01
6.928473716053463738e-01,7.696567340808828650e-01,5.333955375733815396e-01,-1.520901329005897307e-01,-2.877730733874819813e-01,-9.875038926508013237e-02,6.250289082527160645e-01
6.760383985962509223e-01,6.777883508234410215e-01,5.505316088306577704e-01,-1.175881429598555315e-02,-8.004396533491844878e-03,-8.189992265451754433e-03,1.295488178730010986e-01
6.363470515525694315e-01,6.040967108881970526e-01,6.536401408353067488e-01,-4.989706592972042130e-03,-1.093788073250516295e-02,-4.500872287913061827e-03,4.890010505914688110e-02
6.221057194108962074e-01,6.030212696954568852e-01,6.428245411726647429e-01,-2.806513812887349510e-02,-2.329692186362532919e-02,-2.300067475381761123e-02,8.226288110017776489e-02
6.760705044002475184e-01,6.919237134943684309e-01,5.462466672291499403e-01,2.922963111651432147e-02,-6.873419075800063505e-02,3.442940055937883381e-02,1.986356228590011597e-01
6.516126437475363575e-01,5.789228393212153545e-01,6.568274792571079379e-01,-1.212096049700895489e-02,-2.022865741089110644e-02,-1.270523627396191561e-02,8.855893462896347046e-02
7.006144359023650514e-01,7.039442644252598136e-01,5.045981668932093545e-01,-1.344730665653891526e-03,-1.901329247173659184e-02,1.182672878586592648e-03,2.004502564668655396e-01
6.283230846203876618e-01,6.239090212754778708e-01,6.541907319677815469e-01,2.464257851541521837e-03,-1.371895345918625270e-03,1.360426914524386641e-03,2.884816937148571014e-02
6.392511438444085092e-01,6.471400902718120740e-01,6.360985842004577284e-01,-2.509880961037097916e-02,-2.193073562929937978e-02,-2.566987522553013795e-02,7.352954894304275513e-02
6.672591507638316877e-01,6.959387259268993153e-01,5.422548512975078339e-01,3.662953247252051341e-03,-1.743160796017479905e-02,2.831031680249459104e-03,1.449466794729232788e-01
7.179150034173693573e-01,6.324797546232050482e-01,6.206964529975559364e-01,2.163585143860301610e-02,2.123328413383662391e-02,-6.782490728960466342e-02,1.581210941076278687e-01
7.877626837596269915e-01,6.300719172683686420e-01,7.468923047912350288e-01,-2.217494478914312783e-01,-1.529840182459576148e-01,-2.566603796742820132e-01,6.598835587501525879e-01
6.524780897021921211e-01,8.127480446427589600e-01,5.612945897471373069e-01,-1.010284179057856918e-02,-1.533505967108158841e-01,-2.651364418106171017e-02,3.486821055412292480e-01
6.816284291944207929e-01,6.113323464117098593e-01,6.019631246375289901e-01,3.590731003286637673e-03,3.313697874271165442e-04,-5.347651682404112525e-03,7.624134421348571777e-02
5.365738836717521831e-01,6.629176901330807725e-01,7.468863009998714109e-01,1.226091153449057752e-01,-8.432722345007745424e-02,5.594094000879967776e-02,3.308213949203491211e-01
6.569930196475588513e-01,6.896345118562512422e-01,5.431006055877449779e-01,8.152453596872867581e-03,-2.556308019850664012e-02,9.400077576336027252e-03,1.420543938875198364e-01
7.046088373251795378e-01,7.218231549293864235e-01,5.103687909530241207e-01,1.381731728590914789e-03,-2.816464578591118539e-02,9.242681113535544668e-03,2.097879648208618164e-01
6.818098387755622269e-01,7.059551837893910387e-01,5.264647271881883750e-01,7.236417932599673898e-03,-1.765770698147102816e-02,-1.983159509809309749e-03,1.719599962234497070e-01
6.862557533544848543e-01,5.256211083543558260e-01,6.787670951297719579e-01,2.486598390018521926e-02,1.516282528178745058e-02,-1.064550553608780391e-02,1.659557074308395386e-01
6.788050066055464349e-01,5.818553214349109215e-01,6.548161222311904561e-01,-1.524190033569529715e-02,-1.469846051834553836e-02,-2.796648425109027336e-02,1.064915359020233154e-01
5.038991206270476697e-01,7.546837315331896834e-01,7.256271705249437431e-01,6.020026742438838209e-03,-7.323336275103518866e-02,1.929306373571449199e-02,2.715971767902374268e-01
7.587885935899404410e-01,7.265791875739393557e-01,4.555828930772438667e-01,3.599367111850636930e-02,-2.998999619607375933e-02,3.248979079049160723e-02,3.048879504203796387e-01
6.193984289232310481e-01,8.322690022233552032e-01,7.781989057903492268e-01,-2.523571117581865364e-01,-2.603322478589503164e-01,-1.513213469980758674e-01,7.069603800773620605e-01
8.843586741434131815e-01,8.998242321330527371e-01,4.058839971903959731e-01,-5.779975538922031003e-02,-1.982820191449856106e-01,-2.072515464954919617e-01,7.024289369583129883e-01
4.184278638957773522e-01,6.497840836382066110e-01,7.337123723295477795e-01,-1.561973875444490900e-01,-1.825433816213740956e-01,-1.214399677877364137e-01,5.453339219093322754e-01
6.821437203848629283e-01,7.120370075638559060e-01,4.308245100111924852e-01,8.041115318805169485e-03,-6.047416612079765941e-02,2.232308020560088216e-02,2.902206480503082275e-01
5.513001131326326076e-01,6.968352712051211206e-01,6.548416920811154229e-01,-5.126808247165512075e-03,-5.720386747818199946e-02,-2.464490993802802375e-03,1.635430306196212769e-01
6.264141363112105676e-01,6.707710494912479948e-01,6.345886653632932806e-01,-2.079854784781506177e-02,-2.886724689145652931e-02,-2.929203000962473866e-02,8.968569338321685791e-02
6.868842910917538624e-01,7.031750892083884485e-01,5.071841197523141442e-01,1.727763835583835672e-02,-3.259519836816807126e-02,1.394765211686730018e-02,2.003784030675888062e-01
4.061129381598642674e-01,8.519397058065940609e-01,9.095955997049292030e-01,-1.998199154324144522e-01,-1.030259979836092021e-01,-4.092292428420064854e-02,6.200333833694458008e-01
6.730113692542153414e-01,7.096237708692617607e-01,4.967370438734738380e-01,-8.786567167400002182e-03,-8.690406587044323394e-02,-8.883358215232660740e-03,2.489823997020721436e-01
6.778478304967339163e-01,4.975168973748784751e-01,7.488489252015991804e-01,1.396809333089504002e-01,-3.447237744500829260e-02,7.011516506257981472e-03,3.355725109577178955e-01
6.458040015441676163e-01,4.909455646755189751e-01,7.119450475893773778e-01,2.168476763833663834e-01,1.120668652442437380e-01,-1.372875862869777364e-01,5.233427286148071289e-01
6.366278111405161422e-01,5.931969049911199887e-01,7.123648447878363488e-01,1.551109050040383741e-01,3.007096465550773354e-02,-2.609809899981747200e-02,2.963882088661193848e-01
8.625681121864845480e-01,9.423546694582265459e-01,3.892932576972496506e-01,-1.206275087402700237e-02,-2.232471792139237576e-01,-1.638401275422804101e-02,6.472060680389404297e-01
7.315283002987806871e-01,5.333509182635765011e-01,7.684718180533126608e-01,9.864750705241147333e-02,4.413931540133393672e-02,-8.803422278937295120e-02,3.259591460227966309e-01
6.493617814619431217e-01,8.989002758499239354e-01,4.303582613734714402e-01,9.053528372152711001e-02,2.382332647760790345e-01,-2.569640346810104781e-01,7.468792200088500977e-01
6.335370304198891800e-01,6.473841517355100050e-01,6.706444659492597493e-01,4.149530109174891929e-02,3.591928113492464519e-02,-3.182706275864064654e-02,1.145858764648437500e-01
6.773098088440446807e-01,5.732752077752776287e-01,6.822197280491933968e-01,8.719261326082301811e-02,4.411079332014117976e-02,-6.418023389510403576e-02,2.288238555192947388e-01
6.800786433326536651e-01,7.078106962684458381e-01,5.242222708821885346e-01,7.287426127281784564e-03,1.628109330951799799e-02,8.218531992431642782e-04,1.741811186075210571e-01
6.990855958145970606e-01,7.137759725950766354e-01,4.978948081684595461e-01,-9.890123467775653945e-03,-2.167797040234973813e-02,-2.892725210543291205e-03,2.130198627710342407e-01
6.540496694101893826e-01,4.182787405941144065e-01,9.404674606274894266e-01,2.510150116758116945e-01,-6.477416143059192000e-02,-5.332900799535088970e-02,6.444351673126220703e-01
6.214583869378726977e-01,4.577236957208572488e-01,8.431532172132774061e-01,3.281484541704738356e-01,8.114623794745211283e-02,2.467667559845778194e-02,6.759304404258728027e-01
9.172207172127150310e-01,9.722441230141682933e-01,3.578288072389985142e-01,2.200105428283586489e-02,1.843258908190855416e-01,-4.156800388104052446e-02,6.747521758079528809e-01
5.536752386816952143e-01,5.172180446729660597e-01,8.078979337175196118e-01,-2.281088829454762656e-01,5.103956831111894354e-02,3.257959255864432274e-02,4.922671318054199219e-01
5.207891760159064631e-01,4.960766977584260551e-01,7.341058964201200299e-01,2.571611820076796229e-01,7.988041475908325140e-02,-9.874229238589904423e-02,5.460537672042846680e-01
4.306820114195539229e-01,6.978869925617010583e-01,7.117812251977299054e-01,-7.361799247620456899e-02,-2.534468278636603858e-02,-1.279402519710590765e-03,3.057694435119628906e-01
4.135512563647666950e-01,7.676389792005923196e-01,8.127629705120937853e-01,-1.111606442428185737e-01,-7.879355477297988672e-03,-1.301195004184937595e-02,4.256246984004974365e-01
6.861832001101102474e-01,6.064530875530859122e-01,6.167838883299060493e-01,-2.811615496799080229e-04,2.430139503471551339e-03,-1.177194772042764598e-02,7.793349772691726685e-02
6.243708620343728644e-01,5.795581263513509551e-01,6.839712092103402696e-01,-1.431359919608628066e-02,5.030902449484629495e-03,3.022874467893557279e-03,9.460030496120452881e-02
6.048291985351916811e-01,5.972948239625217592e-01,9.716923781934321269e-01,-3.446059877387634973e-01,8.524992376217029651e-04,1.051306181522328881e-01,7.258297204971313477e-01
6.478112613020564625e-01,6.357327922736973891e-01,6.104566309236758581e-01,-1.246864829210937026e-02,-9.080871816500061047e-03,-9.900350157101962117e-03,4.580295085906982422e-02
6.129504887499882537e-01,6.582214097615139980e-01,6.334260589068190228e-01,-1.432035090888067290e-02,2.210145507784064267e-02,1.020291517528096326e-02,6.272715330123901367e-02
6.221287030679149010e-01,6.538308426888966851e-01,6.181572145182947509e-01,-6.965147150398831935e-03,2.673559161370687044e-03,3.205637228544898180e-03,3.666763007640838623e-02
5.942136856605075845e-01,6.577265022549485529e-01,7.282699852383179850e-01,-1.090779886695894957e-01,9.460874125971278914e-02,5.878522900110850352e-02,2.939459979534149170e-01
7.084895540271706205e-01,5.869141013061983658e-01,8.943807673285071314e-01,-2.604053483406974512e-01,-9.938671261970531690e-02,-1.442954840708113862e-01,6.061893105506896973e-01
6.531733584577771312e-01,6.170724710369340782e-01,6.227643505340911823e-01,-3.126593155140366693e-03,6.394439304927502545e-03,5.861844299397328713e-03,3.721917048096656799e-02
5.273445124252497118e-01,6.337097236347293272e-01,1.048718297959034151e+00,-3.651711703221487970e-01,-8.745664964570873390e-02,1.362133478365763241e-02,8.069948554039001465e-01
7.121919815814845567e-01,5.336944926906760367e-01,6.575542836859551432e-01,-6.623376202090112269e-03,-1.230761567774850060e-02,-2.418842695240230184e-02,1.656358093023300171e-01
6.344822209243966560e-01,6.322893375464092580e-01,6.309959840341862192e-01,-2.216111086718413909e-03,5.246569668895443130e-04,6.190552990578144024e-04,5.101627204567193985e-03
6.574231417568646707e-01,6.291933661221350560e-01,5.903507379217535211e-01,-1.118912316391375630e-02,5.684459377254666088e-03,1.198719192201769604e-02,6.561855971813201904e-02
6.776866548109556909e-01,6.262981217218056562e-01,5.786036827721922071e-01,-8.743098125603514931e-03,-8.968530975074511316e-03,-1.643483852659950381e-02,9.299155324697494507e-02
6.790080493798212879e-01,5.259005817072607281e-01,6.948869936578950801e-01,-1.124995241192341608e-02,6.350924362363851577e-03,3.177024461985435231e-03,1.632672399282455444e-01
6.301956201271592395e-01,6.307672302358980909e-01,6.325917960656104455e-01,-3.104734517067416714e-03,6.419058206590628340e-03,2.441362290076550760e-03,1.323293335735797882e-02
7.735150085237550988e-01,4.154428802306635582e-01,7.512549730511890456e-01,-1.365318954073631123e-02,8.528792646924963569e-03,-7.288113580396080038e-02,3.707464039325714111e-01
5.867124768528025891e-01,9.208793799989989370e-01,5.931769992001973968e-01,1.283012205354789603e-01,-3.491985493044532096e-01,1.422112362062217805e-01,7.651298642158508301e-01
5.067365295195468411e-01,7.359331862097200361e-01,6.888028600685267566e-01,-2.501618610920947061e-02,-8.733938052595613399e-02,-4.314976622260811162e-02,2.725764214992523193e-01
6.591156445064274561e-01,6.314104001425547841e-01,6.095885170348973592e-01,-9.390539034901525944e-03,3.941108651482960919e-03,3.088656448878982982e-03,4.677733406424522400e-02
7.198478382378666884e-01,4.649778924228039068e-01,7.046889464439844986e-01,-5.315216534403083629e-03,6.812618033840346643e-03,-3.743124178279504805e-02,2.564219534397125244e-01
6.266509473330600377e-01,6.732119675828787120e-01,5.972348893255957636e-01,-9.545062445398211359e-03,-6.544101395040846474e-03,-2.792760944632409221e-03,6.948433816432952881e-02
6.524448529460890045e-01,5.356397576944718075e-01,6.940036124400452699e-01,-2.507894966279569995e-02,-5.776426997625371505e-03,-2.684849870273798341e-03,1.491087675094604492e-01
7.514335414150746795e-01,6.796006181481543118e-01,5.063787996750859222e-01,5.927383443511903896e-03,1.412433900546174528e-02,-1.146809597983861478e-01,2.962563931941986084e-01
7.417603697387834538e-01,6.704133916883036060e-01,5.013569987675078332e-01,1.974717217211048245e-02,2.782684873333486283e-02,-1.691110077893035746e-01,3.674514591693878174e-01
7.055282035742234115e-01,6.028067540742637620e-01,5.920062148796721990e-01,-1.829719524931299607e-02,-3.554050746211119549e-02,-5.495207805375950522e-02,1.600960046052932739e-01
7.207957206345347867e-01,7.208952392359747607e-01,4.819387827379509326e-01,-1.379780761776245278e-02,-4.608574715799949179e-02,-5.774431835410339525e-02,2.720707058906555176e-01
5.972761345433710289e-01,6.791316212447872092e-01,6.254438096157023397e-01,-1.972569867641436533e-03,-6.057530477548489674e-03,-1.749713454456695979e-03,7.293146103620529175e-02
6.723001526315776077e-01,5.918106304125951844e-01,6.629166897147801274e-01,2.303124387356650371e-02,1.823056890394178509e-02,-2.566793800233601805e-02,1.018638610839843750e-01
6.649879686891951858e-01,6.838354936498444170e-01,5.673118183084873145e-01,-7.500981422095196784e-03,-5.206026890370749061e-02,-2.097485819697201409e-02,1.461378037929534912e-01
7.068600326278787760e-01,9.001233498595476723e-01,5.964479906236183071e-01,-1.643553470621801627e-01,-2.656809145797341398e-01,-1.647354962056855887e-01,6.671510934829711914e-01
6.178763927270001233e-01,6.539228655327947726e-01,6.242776720478778740e-01,-3.598788469265101504e-03,-5.244876285456589668e-03,-6.713843828406952999e-03,3.696198388934135437e-02
7.629913556103462557e-01,7.449690385539528004e-01,5.209468196395052875e-01,-4.751339662243842660e-02,7.493937127316488422e-02,1.253898654431309934e-01,3.540286719799041748e-01
8.549299728877477467e-01,8.539026733336789743e-01,4.167413555235711664e-01,9.465406524345504335e-02,2.376082421912218967e-01,-2.490549829853388464e-01,7.575595974922180176e-01
9.647829379389438742e-01,8.895868972818012921e-01,2.631439593678967515e-01,2.948771876189902608e-02,9.775513045090383768e-02,-2.155232813734195008e-01,7.847412824630737305e-01
8.456468600034099392e-01,7.991545257114689438e-01,4.493184739158492258e-01,-4.411778422780922304e-02,1.013496987285260609e-01,-2.892405743672816221e-01,6.545580625534057617e-01
7.034242694972052679e-01,6.321316754422401374e-01,5.809472413793591583e-01,2.546153711627012831e-02,3.865817176341590500e-02,-9.240794049867465110e-02,2.083205878734588623e-01
5.756152356838381001e-01,7.735086920124217835e-01,6.526812408262541165e-01,1.887775078408967036e-02,1.402331142824212729e-01,-1.582091468499628728e-02,3.011081516742706299e-01
7.813572654873861545e-01,7.000188194314860279e-01,5.035033920990612533e-01,6.176432056754321137e-02,5.354735788118743928e-02,-1.599504505181310876e-01,3.975140452384948730e-01
5.685148339205324808e-01,6.594512890844279607e-01,6.470734188068504311e-01,-1.225797120066676044e-02,1.546514067001648549e-02,1.362667014783551685e-02,9.498628973960876465e-02
6.662185187489602090e-01,8.224217137799115784e-01,5.632611938655226469e-01,7.194123286907065651e-02,3.352573109545501917e-01,-5.109830844957023721e-02,6.415871381759643555e-01
2.170420616785673218e-01,9.794178861030219396e-01,7.947793530924350813e-01,8.472380256516696961e-02,-1.177339657160882264e-01,-2.063193630480620808e-02,7.341250777244567871e-01
6.959189150763477327e-01,4.499740841510178058e-01,6.817586025495731006e-01,2.351176648364568592e-02,1.051726861644604674e-02,-5.813888946206244301e-02,2.633198797702789307e-01
5.204669888096502550e-01,8.102231113369073867e-01,7.951622919307639314e-01,-2.048044233038706641e-01,2.125072375069614328e-01,1.209006118156587817e-01,6.204714775085449219e-01
5.138058231530788778e-01,7.209250704212217808e-01,9.404915199567607242e-01,-2.891056467882642256e-01,8.265479961430097222e-02,1.070195766396600939e-01,6.649702787399291992e-01
7.018764721195770440e-01,5.482748246038516848e-01,6.521213446358284926e-01,1.231205023881217463e-02,8.770574658163107079e-03,-2.320626797526179064e-02,1.439711451530456543e-01
2.547562306413601596e-01,9.670092943408035158e-01,9.037149132235249294e-01,2.252767861321343379e-02,1.756600154523137447e-01,9.082309184719496858e-03,7.487110495567321777e-01
6.321493943659175496e-01,7.916544673584116065e-01,5.511152314997671553e-01,4.637110891178766736e-02,1.632747475498497192e-01,-4.679575658374332536e-02,3.713893592357635498e-01
6.736683315330515009e-01,5.578383697234153837e-01,6.528467259188072136e-01,8.024485012876792986e-03,1.683088015838507881e-02,-2.927034630022729012e-02,1.226850673556327820e-01
6.197980626086759814e-01,6.361050432255304088e-01,6.578163379907688846e-01,-1.845184040580123697e-02,1.675340254539527812e-02,1.033685432561799733e-02,5.723055079579353333e-02
3.384226443617127655e-01,7.823200632533027221e-01,9.506648604568807004e-01,-1.682021961942277155e-01,7.932646501706323849e-02,2.937427348873322339e-02,6.375384330749511719e-01
6.558545744071665462e-01,5.364577813076663038e-01,6.942316178690428607e-01,-2.204403646448280588e-02,5.962533316218360420e-03,3.326023754738776685e-03,1.480140089988708496e-01
6.858947745905555893e-01,5.747053959557649749e-01,6.493107846638696001e-01,8.263144137139140366e-03,1.088582219003614640e-02,-9.785726893868855469e-03,1.023784056305885315e-01
6.320489000069670071e-01,6.040603819802079499e-01,6.986513842981956213e-01,-3.064095343507712912e-02,5.161120682287621310e-03,1.410046425579634423e-02,1.028413251042366028e-01
6.194123882958566529e-01,6.204049420378946467e-01,6.540406912796873362e-01,-1.616772267062818085e-03,2.486122675346163439e-03,5.121349088843928608e-03,3.564832359552383423e-02
4.849165944188335575e-01,6.779042956271139619e-01,1.042424217737724756e+00,-3.257576753891189836e-01,-6.657935299648916339e-02,3.617384470504428459e-04,7.563861012458801270e-01
6.310812438249866485e-01,6.404347007044112194e-01,6.271675222426101870e-01,-4.756615746005164388e-03,1.566927991587670340e-03,2.101964794691255512e-03,1.509661972522735596e-02
1.587998427717237648e-01,9.210376050130550940e-01,1.044229768761629540e+00,-7.292618877493774188e-02,-9.708609278727389769e-02,-2.047488137672123440e-02,8.576560616493225098e-01
6.735215669745244771e-01,6.075422481665988528e-01,6.348785195122060854e-01,1.734174608187305511e-02,-1.968773139332138239e-02,2.559169518189440343e-02,8.559641987085342407e-02
6.201669686664644798e-01,6.276042832635631008e-01,6.554804149919754019e-01,-2.513604021603827680e-03,2.585894125695839627e-03,1.496507893485594541e-03,3.294616192579269409e-02
5.060034068948108255e-01,6.937049510046742196e-01,7.652717955405179406e-01,1.250660688688543243e-01,-8.380879107667854599e-02,5.647462239353966129e-02,3.624242544174194336e-01
6.305634021321866456e-01,6.328806889683536996e-01,6.357245592544543689e-01,-1.177342318932314861e-03,8.777659207115389882e-04,2.026506687250459200e-03,6.231973413378000259e-03
5.449185931628849344e-01,6.512012989494967430e-01,6.732267968133265335e-01,2.476705107613728224e-02,8.160439928928292161e-03,-1.524409409308869791e-02,1.298430263996124268e-01
3.211432273407128779e-01,6.538917830658390606e-01,8.015085517288694783e-01,2.451749344101957495e-01,-4.351293728383023168e-02,3.132301615943645923e-02,6.087588667869567871e-01
4.211532164463734906e-01,5.424536890862259320e-01,7.666639706649729380e-01,2.760206133468535161e-01,7.938019062469140255e-03,-3.063876032385539835e-02,5.689888000488281250e-01
4.753337757738911318e-01,7.040836719058570781e-01,7.214009469958270193e-01,4.867603860035375068e-02,9.942524239632880706e-03,-1.908558171536492779e-03,2.529886960983276367e-01
7.420530789982872077e-01,5.349899017398547230e-01,8.709712341185945617e-01,2.864769035072963210e-01,-1.071241975510669464e-01,1.457599983914339425e-01,6.561715006828308105e-01
6.333919437100149485e-01,6.864208377242256853e-01,5.573237581570804622e-01,-1.365026856901430108e-02,3.518546620464875485e-02,2.218654266652120982e-02,1.355802863836288452e-01
2.367737831831174811e-01,1.011027080825253943e+00,9.907794197439769857e-01,7.673513394735197168e-02,-1.029594791717805269e-01,5.776190264146307402e-02,8.022950887680053711e-01
2.570816318818640589e-01,1.011797117901026333e+00,1.067889581850690384e+00,5.263217258626094741e-02,-7.840612726910499430e-02,2.013328931253806700e-02,8.019006848335266113e-01
6.969779933986630649e-01,5.363936458812014196e-01,6.563104801346606454e-01,4.864051495006759852e-03,6.037280742212555208e-03,-3.183906400340403425e-02,1.553451418876647949e-01
6.310062828156541848e-01,6.340616173805249112e-01,6.325147329399892770e-01,-6.114954962091645636e-03,5.240078603681530556e-03,6.063576299506240330e-03,1.765944063663482666e-02
2.494546032441276040e-01,8.952411469177470327e-01,9.673162058585227374e-01,1.448766146064540961e-01,1.180476045456179401e-01,-2.429808045658564744e-02,7.585016489028930664e-01
5.011085171736977539e-01,7.042929239721027468e-01,6.935955989359410268e-01,6.299749206628562671e-03,1.859046741183086396e-02,-5.834450305903450713e-03,2.012033909559249878e-01
6.310347283042165856e-01,6.307327947436969229e-01,6.332098674207464750e-01,-6.616269368211205593e-03,5.784124927199739592e-03,6.152770874345281187e-03,1.872811466455459595e-02
6.215962635310978701e-01,6.322022590366881412e-01,6.421750635944946106e-01,-3.800638069306416355e-03,4.524075135428423482e-03,7.037865735077212560e-03,2.389657869935035706e-02
3.767675838535188282e-01,7.249196686462264783e-01,9.881054307361363254e-01,3.517748492076837041e-01,1.990130763896533900e-02,-2.188025895036568857e-02,8.099175095558166504e-01
6.281976979580834453e-01,6.331423572110648212e-01,6.412667666148896828e-01,-2.526939343641477868e-03,2.198731191182582562e-03,6.709267855594409219e-04,1.287004537880420685e-02
6.181258362167248999e-01,6.635197130275987121e-01,6.897939563832864440e-01,1.222524746494857983e-01,-1.306899868305121115e-01,7.879343416589679183e-02,3.444495201110839844e-01
7.006646187395073611e-01,5.159489460815693818e-01,9.321268329858637403e-01,3.184163957721194427e-01,-6.585806773548776027e-02,7.313526425434421774e-02,6.809364557266235352e-01
4.721777068501397112e-01,7.990091203108901086e-01,8.348954287042095190e-01,2.586171143825520824e-01,-2.191016100776447539e-01,1.234202474648277426e-01,7.142814993858337402e-01
6.291930898056173893e-01,6.847347801178548243e-01,5.981689541626151740e-01,-2.453762320330015942e-03,-2.985937111545549846e-02,-7.937928388219123860e-03,9.301801025867462158e-02
6.849484226120972075e-01,4.874652783554380697e-01,7.456776176597131878e-01,6.927391325498159780e-02,2.519205184837194911e-02,-8.488608105245318280e-02,3.042993545532226562e-01
4.100566003879269061e-01,7.396723227393516842e-01,6.565254961740566442e-01,1.112069423492704073e-01,-2.012674660634038160e-01,5.774427654508189345e-02,5.067379474639892578e-01
4.820857700774870969e-01,6.871046753362710646e-01,6.891400130269745850e-01,3.986156661039325089e-02,-4.156904931956992288e-02,1.073300351994687339e-02,2.296749055385589600e-01
7.067522524603061518e-01,6.671324733525425543e-01,4.410284917838743768e-01,6.174461057248785585e-03,-1.525643491670150391e-02,6.829441001372847653e-02,2.765066921710968018e-01
6.508617667515874672e-01,5.845746836511801492e-01,6.721033385944824579e-01,8.194973820501220280e-03,-1.171128779666572549e-02,4.270272213642572687e-03,8.319173753261566162e-02
5.844114686030599248e-01,6.472573929123371927e-01,6.761012248916649092e-01,8.958023752015400326e-03,3.756110432319036910e-03,-1.040689945778577874e-02,8.486618101596832275e-02
8.097851807018411341e-01,6.831087957329363691e-01,5.811262397233650789e-01,4.213754085102822122e-02,-2.563402868718156480e-02,1.629639643876093502e-01,3.554376363754272461e-01
5.545899507005561668e-01,6.482139781217575170e-01,6.946253116065660427e-01,1.107177701981770269e-02,-4.124440437005382886e-04,-9.500086909217506006e-04,1.250426173210144043e-01
6.297133790916406015e-01,6.713912711636140784e-01,5.890951158964905510e-01,1.142254840902063792e-02,-1.132784330507991162e-02,3.940743656734339677e-03,7.682932913303375244e-02
9.459151014913862454e-01,3.748907489153239792e-01,9.005815790322894143e-01,7.199635597222435457e-02,2.823470576839814949e-02,-1.618844066068770848e-01,6.315054297447204590e-01
5.114011222415920654e-01,7.696153072651168436e-01,7.375897859499103149e-01,-1.387512263180878426e-02,-6.629935093712854832e-02,-6.440785341376198229e-03,2.707758843898773193e-01
6.994600468350491429e-01,5.050771601055287219e-01,6.905035669770285267e-01,-4.474289207507090721e-03,2.328311969843871020e-03,2.045848883714916286e-02,1.935352981090545654e-01
9.499443919104437750e-01,3.069476302305513271e-01,1.018204259588629812e+00,7.817055257162787429e-02,-6.973153556309749299e-03,-8.176595538487584081e-02,7.074813842773437500e-01
7.167929413362970070e-01,4.750249272590733041e-01,7.073988261953022549e-01,-9.285106988863331065e-03,7.243895579306132556e-04,4.729159146809353009e-03,2.378994226455688477e-01
7.080199144307839365e-01,4.752215553869779119e-01,7.273779559931133898e-01,3.060433688180039420e-03,-1.793854254598272260e-03,-5.253804413004704160e-03,2.433041036128997803e-01
7.969356576690138638e-01,5.764194243671892925e-01,8.048647314268768671e-01,2.349512974839026436e-01,1.404839325604921585e-01,-2.215161034515520655e-01,6.499695777893066406e-01
6.753096803131883874e-01,6.419152825252418815e-01,5.385268394473174958e-01,-1.995058800885830472e-02,2.160379369118224299e-02,3.413968965684778534e-02,1.461087167263031006e-01
5.515820843569199106e-01,7.046265411551920765e-01,6.732904922870486253e-01,-1.100413409276802812e-02,1.813949054126540866e-02,1.733256837406009498e-02,1.478526145219802856e-01
6.598657693585677775e-01,5.349258230129820824e-01,7.065121456666133559e-01,3.113496604222586173e-02,1.273007712404253082e-02,-1.357795129684737307e-03,1.643585264682769775e-01
7.213021075390849690e-01,7.576614920449414869e-01,4.610361371236721961e-01,-2.951685001457443960e-02,4.484049988494400200e-04,4.008787599269472701e-02,2.931875586509704590e-01
6.963573537975779049e-01,5.092454893518820747e-01,6.792435140890408229e-01,5.294312224811491274e-03,5.227863767300036137e-03,-1.344297144694256950e-02,1.811346262693405151e-01
7.669422641452678935e-01,7.708949096730113304e-01,4.709704350769375880e-01,-2.034710049405506413e-02,4.398676021401938530e-02,9.877216786418190064e-02,3.536936044692993164e-01
6.587148034456018486e-01,4.387237769404955801e-01,6.538477053602408384e-01,-1.914418009514071428e-01,-1.188321647710244289e-01,-1.874019742683749323e-01,5.522867441177368164e-01
9.284628350697676780e-01,3.344203483839927049e-01,1.011572692488198033e+00,-1.212006575393291125e-01,-1.212275551569154224e-02,-1.231422937039119980e-01,7.065169811248779297e-01
6.254790326485821783e-01,6.722508819139884073e-01,5.886684158618586959e-01,-2.732559744614116229e-02,-4.997198184141583843e-02,-3.386717384138096532e-02,1.357827186584472656e-01
7.035046647101601547e-01,5.032169612366395040e-01,7.123182113635976309e-01,3.568878714305232305e-03,4.775540036860839894e-03,-1.618528378122926700e-02,2.070038765668869019e-01
4.830158109697589852e-01,7.156748218820631058e-01,7.011021832605517368e-01,-1.255939049682250341e-02,-2.481735125753433552e-02,-4.786609633230029873e-03,2.309583872556686401e-01
3.506628545351377357e-01,8.799890243056605055e-01,7.510430548376952897e-01,2.793123122388821086e-02,-2.285904902274213391e-01,-5.344185102455784042e-02,6.294665932655334473e-01
5.535382498116180328e-01,6.596198574520825142e-01,6.971101235122365569e-01,4.798711983226117139e-02,-3.151308319199145648e-03,8.184321722984696026e-03,1.541910767555236816e-01
3.347674941864430820e-01,8.434553430653394246e-01,7.616802981683402640e-01,-1.489273601090715209e-02,-4.443066541646076284e-02,-1.098570066999522352e-02,4.804187715053558350e-01
9.638268047901499269e-01,4.058866471851200752e-01,8.117090419871911822e-01,1.200560716320087790e-02,9.836298789573028750e-03,-2.332559219896455649e-01,6.430490612983703613e-01
6.975477964842939915e-01,5.475292144064107802e-01,6.471358226249729340e-01,3.878166431375855341e-03,-1.002987692236600309e-02,-1.240068083347793150e-02,1.352495998144149780e-01
6.871155481946311649e-01,5.586184021696840585e-01,6.703479270039462978e-01,2.066185079342537298e-02,7.977806694423748152e-03,-5.399694618350011494e-02,1.576602756977081299e-01
4.582694463593374179e-01,7.431733779807996321e-01,9.471425521409813086e-01,3.220438803068952360e-01,8.319502578299120543e-02,-5.800386332285653590e-02,7.231041789054870605e-01
6.117722124492724900e-01,6.139490699610619107e-01,6.818095493884754887e-01,1.168549591453606207e-02,-2.195188762461097558e-03,-2.647951477814828886e-03,7.212939858436584473e-02
4.609858425687462513e-01,7.276162490918314241e-01,7.190320909044313202e-01,1.371891076857189966e-02,-1.093760185310573355e-02,1.435677900760300163e-02,2.653649151325225830e-01
6.067449049641409076e-01,6.063319722466611328e-01,6.672828429565217379e-01,1.853043741864346741e-02,6.308352113577389390e-03,-5.327423162765050971e-03,7.017600536346435547e-02
6.521312528800242703e-01,5.658128574252132559e-01,6.968789108747167615e-01,9.558794920705583620e-03,-2.547663353546841033e-03,-6.212154823331428755e-04,1.166640743613243103e-01
6.054516290544182944e-01,6.318621547698808349e-01,6.570473711904529779e-01,5.552977086130048145e-03,-5.101486646192724024e-03,1.212686148598127005e-02,5.107573047280311584e-02
6.436547046125907778e-01,5.739524517572895945e-01,9.533438217084170274e-01,3.121049735050985263e-01,7.627017100747852940e-02,-6.826966172686348144e-02,6.678428053855895996e-01
7.101957122210076356e-01,5.435499215130379369e-01,6.570799795756853134e-01,1.474065721886142627e-02,-2.300660202125229259e-03,2.708798486023984362e-02,1.568744927644729614e-01
7.828404575491232364e-01,5.078308457249071095e-01,8.207990659047281756e-01,2.595096756990159514e-01,1.379302502832064070e-01,-2.040201253600401055e-01,6.866533756256103516e-01
6.692036590168732868e-01,6.066299213255176292e-01,6.023221351372033405e-01,1.699267113663830917e-02,1.647080821984585330e-02,-2.294280825861489542e-02,8.638759702444076538e-02
6.035696333952510484e-01,6.179919017777091295e-01,6.781519506316561197e-01,6.962200307554911212e-03,-4.277577964677713868e-03,7.020397034830097409e-03,7.101440429687500000e-02
8.360413790021752334e-01,4.354386510584005165e-01,9.865312961398035041e-01,2.499229826254258380e-01,1.827178176763136902e-02,-3.890000099028356056e-02,6.605619788169860840e-01
4.845673366376060387e-01,7.722922184712817106e-01,7.609991141798789771e-01,-5.912642630182873144e-02,-4.522367629038646225e-02,-1.545263773788091606e-02,3.114539086818695068e-01
4.939638052977157745e-01,8.444306207916592033e-01,8.099549244704864481e-01,2.267328370559265338e-01,-2.084015032037059567e-01,1.325478885818172359e-01,6.701915264129638672e-01
2.497689266456014634e-01,8.543719503471391974e-01,7.132160462081352792e-01,2.774731565474431241e-02,1.909431325950122771e-01,-1.355555849043372715e-02,6.421567797660827637e-01
4.686853713245993092e-01,7.371075797101516169e-01,7.299977572470919274e-01,1.965418492772290360e-01,1.521309096690553753e-01,-7.903731846028237695e-02,5.236896276473999023e-01
4.636295228553157788e-01,6.669217000304612508e-01,7.079213142168198081e-01,1.071750529191648066e-01,4.064831776985421835e-02,-4.826563166864408089e-02,3.126477599143981934e-01
2.838865696652471127e-01,8.621351222171134143e-01,8.429291268123842995e-01,-3.956788589102147591e-02,-1.706700751840576347e-01,9.391033467709269944e-02,6.649613380432128906e-01
4.878166378692279093e-01,7.141776513969257945e-01,7.054640680734797220e-01,1.761553580511982658e-02,9.003265028447246521e-02,-4.153515549098560009e-03,2.732089459896087646e-01
2.610544874228105106e-01,9.152023350061442297e-01,7.817985629797964409e-01,-1.057315626645989881e-01,6.188512379045288392e-03,5.180356971327603616e-02,6.325688958168029785e-01
4.671099854111472327e-01,7.463350872926850510e-01,7.371516525760263283e-01,2.136919276005936619e-01,-1.960852144483268555e-01,2.124129034468660304e-01,6.805772781372070312e-01
5.932873422474528313e-01,7.997575115931547796e-01,5.995411653269376862e-01,1.964166945796175234e-02,-1.845111846629401975e-01,7.239081564975543420e-03,3.805595040321350098e-01
4.756457384933607813e-01,6.977509973362658879e-01,6.821594723246698910e-01,4.017258771410430612e-02,5.711090227665812508e-02,-5.442941503082760098e-03,2.466297596693038940e-01
6.327894567132441583e-01,6.287056972326622306e-01,6.290338393526009320e-01,-5.920095176198134426e-03,-3.183642780967135995e-03,-3.637407209257423508e-03,1.380891818553209305e-02
6.510689763994143009e-01,6.622788921268402129e-01,5.884317849007331125e-01,-1.424420253591771914e-02,-6.120250461525385439e-03,-9.413106790909651217e-03,7.575038820505142212e-02
2.269556124922836871e-01,7.788199393809318583e-01,7.119142951751743498e-01,5.851508789023811968e-02,1.901542726363417424e-01,8.947646612385158280e-03,6.253766417503356934e-01
5.404911947099508840e-01,6.982962102353571510e-01,6.794234692516947227e-01,1.435632337669876836e-02,8.297187991091118167e-03,-9.687919306085092733e-03,1.529274284839630127e-01
5.511173920157244055e-01,6.547916516067044945e-01,6.949393181638386929e-01,-5.217214160559559971e-02,-5.490954947116483478e-03,-1.719118196422916942e-03,1.574407219886779785e-01
8.069056178686524472e-01,8.055449343582996580e-01,5.798210335286695383e-01,-1.211320013721633587e-01,-2.124788812861494181e-01,-2.600229583815629186e-01,6.584503054618835449e-01
4.995875826205815606e-01,6.830843333304893461e-01,7.229608103833368160e-01,6.692557038026186733e-02,5.010411416189484296e-02,-2.674740614475372077e-02,2.563064992427825928e-01
6.795988934705272655e-01,5.883726168084637553e-01,6.244124762208583812e-01,1.103373037837837405e-03,-1.448254413135003369e-03,-5.658993952499581127e-03,8.024550229310989380e-02
6.250267751911833258e-01,6.125662712887379735e-01,7.165074738534893406e-01,7.335873890367809735e-02,-2.323736070775889520e-02,1.892278359181240668e-02,1.688269227743148804e-01
6.780440195890972133e-01,6.497675094392046935e-01,5.913824438241156445e-01,-1.062487741493413178e-02,-1.556611650652163503e-03,-5.803211455248980834e-03,7.941201329231262207e-02
6.690058298269248027e-01,6.895904446741832894e-01,6.171693463724885476e-01,4.277752918947796967e-02,5.784016858431730718e-02,-5.571824571494437411e-02,1.703454107046127319e-01
6.400667829920064777e-01,6.274513574347171385e-01,6.282923988899121737e-01,-4.311880992210422037e-03,1.630536013542540925e-03,7.964572545101904644e-04,1.465954072773456573e-02
8.813655500444999014e-01,8.595887453060431227e-01,4.414321620197124707e-01,-4.874966232940617511e-02,-1.417482786421503105e-01,-2.488563810213479943e-01,6.615369319915771484e-01
6.879318595479736453e-01,8.907136865514967417e-01,3.593509771360683946e-01,-5.637168032369279519e-02,-2.390898005934345705e-01,8.813887600693107172e-02,6.481100320816040039e-01
5.519423130849853143e-01,6.561741110173391345e-01,6.926417959589017403e-01,2.416281015427555745e-02,1.270654791864576048e-02,-1.387346272922641670e-02,1.371443122625350952e-01
5.816062640625405677e-01,6.951864588175344917e-01,6.299455363459833812e-01,8.089701598901580595e-03,1.749078901344704173e-02,-3.102199996334271091e-03,1.043539419770240784e-01
6.107980519899083305e-01,6.812750417862218910e-01,6.011345548536123351e-01,-3.314750347198468748e-03,1.164982418750431722e-02,2.113508359638015602e-03,7.870808243751525879e-02
6.746076826916820313e-01,7.750280100052077126e-01,7.669099066357191186e-01,2.525726343237642002e-01,-2.321187091544233139e-01,1.898734249026250709e-01,6.859349608421325684e-01
6.666242427529638359e-01,8.783445568180692220e-01,5.029409259276106381e-01,1.768815192323832663e-01,-3.851183335680926634e-01,1.909673118251498380e-01,8.686126470565795898e-01
6.184755146236559087e-01,6.774821930354750776e-01,6.106681854944817633e-01,3.434640504934639762e-03,2.161266709925294561e-03,-7.765957870075174650e-04,6.367605179548263550e-02
5.947159976857925301e-01,6.238337023178299745e-01,6.875116232518057036e-01,4.425017659096247037e-03,5.247912757156580248e-04,-2.755356824469287584e-04,8.256312459707260132e-02
6.822341987410140973e-01,7.690976966644391677e-01,5.733245461408097432e-01,2.284833749933722347e-01,-3.498175754107877289e-01,2.640699005494215879e-01,8.728095889091491699e-01
6.149240416405199472e-01,6.324317646227975986e-01,6.540950641147272870e-01,1.866935372978003422e-03,-2.376991340799014616e-03,8.385877652217047645e-03,3.732920438051223755e-02
6.394112224743740969e-01,6.564141234385990620e-01,5.918669829525327053e-01,1.547192932533114802e-02,-1.116996918840675208e-02,1.080786446156905591e-02,6.928794831037521362e-02
7.640546657920314066e-01,9.675715355566825160e-01,4.343357926078083020e-01,4.993600334732634788e-02,-3.104273398711392962e-01,2.631776642100707581e-02,7.182555794715881348e-01
5.964205551590145982e-01,7.032790356995702874e-01,6.354063733054058360e-01,1.052034029072011594e-03,3.410213796966344441e-02,-9.100003662337640201e-03,1.118627786636352539e-01
6.097016522253917437e-01,6.771043537673283597e-01,6.163785612899147504e-01,1.552978603795284059e-04,3.123413168421987091e-03,-1.292640829520889760e-03,6.459114700555801392e-02
7.051309560069231042e-01,9.745409725072903262e-01,5.597880377406967423e-01,3.563838382011539491e-02,-3.334491043589798975e-01,4.554004469456862658e-02,6.902608275413513184e-01
4.526532223717305570e-01,7.787534839749499227e-01,5.398949971827506911e-01,4.760078818224846436e-02,-2.933068141844685783e-01,5.428657775837462951e-02,5.993564724922180176e-01
6.150287575424874253e-01,6.817685046699202278e-01,6.175689009846537791e-01,1.496558240460172653e-03,1.395396244254345879e-02,-1.965075494701925792e-04,6.987196952104568481e-02
8.747041428181802081e-01,9.292325708894337843e-01,4.025756948431167270e-01,4.932023494850831108e-02,-2.013151264730601575e-01,9.636543283884867195e-02,6.390326619148254395e-01
6.154363221742099599e-01,7.134134001520586743e-01,5.856028653666952577e-01,3.704411282426155888e-02,-6.617911739765863777e-02,3.591396402356406697e-02,1.858434826135635376e-01
6.628695773430364202e-01,9.031595251862923890e-01,6.451506056891380680e-01,1.022837408276639770e-01,-3.330681301083832646e-01,1.107696996901313125e-01,6.806685924530029297e-01
6.521425109112396479e-01,6.793237758746840660e-01,5.881974941784263722e-01,-1.204676883966808269e-02,-9.034160220103044578e-03,-1.628975289781302641e-02,8.967822045087814331e-02
8.153000216904530140e-01,9.140699281846539348e-01,4.216164606526767722e-01,-3.613604646330761949e-02,-2.833827353377597613e-01,-1.021729443627485273e-01,6.926608085632324219e-01
6.254157403463802556e-01,6.825989174359395895e-01,5.762329941555411894e-01,-6.506641060881068056e-03,-1.953445866736109801e-02,-3.768922392127960815e-03,9.907417744398117065e-02
6.182953836868785302e-01,6.261051395136757458e-01,6.538660556854232198e-01,3.567634703552518844e-03,-2.756561059629385451e-03,7.681370764703802749e-03,3.586721420288085938e-02
6.305090342018655480e-01,6.330477909822497251e-01,5.990751044887747678e-01,3.798994092960152058e-02,-4.853552994760840927e-02,5.014429474919821633e-02,1.414725780487060547e-01
3.069220571710220002e-01,7.436088381154355442e-01,7.438960958725758799e-01,1.198584394936564879e-01,-1.096383816063824373e-01,1.674067100262177643e-02,5.204051136970520020e-01
6.200436880991861965e-01,6.230720124877249244e-01,6.528549215572122533e-01,1.658498663502306269e-03,-5.400678579465453821e-03,1.302157292657974644e-03,3.297309949994087219e-02
7.332124032265154856e-01,6.572353414340723621e-01,5.395831627681823006e-01,-1.080262119628827705e-01,-9.168825372080155467e-02,-9.200913263884284710e-02,3.379048109054565430e-01
6.248969947350566656e-01,6.610005808033641017e-01,6.424767790831095171e-01,2.885314260028796693e-02,-5.355931370431048916e-02,3.432589129115761611e-02,1.249637380242347717e-01
5.351150357164257132e-01,6.552190678777569666e-01,6.942082360417105580e-01,2.684540000210256308e-02,-3.878611022753698789e-03,7.520644923732653676e-03,1.516730934381484985e-01
3.382176393783933865e-01,9.739229882535427318e-01,8.086638709343226816e-01,4.033749130055821336e-02,-2.222424967983100408e-01,1.929149153082387186e-02,6.932162642478942871e-01
4.212060523453479699e-01,8.689062930889659420e-01,7.519937135644966242e-01,1.802843992293091113e-01,-2.699271007410392054e-01,1.094506946680348369e-01,7.167914509773254395e-01
4.802211546655688057e-01,7.542059332178900899e-01,6.574209088273753609e-01,7.366678055388127012e-03,-1.181041508121657979e-01,-2.821658595052093169e-02,3.198663592338562012e-01
6.524561746160989495e-01,6.713409464251760550e-01,5.453670992715579091e-01,-2.427734688692079895e-02,-4.239398850977225963e-02,-2.611076478055698868e-02,1.518298089504241943e-01
4.677894559079691650e-01,7.163984778006926568e-01,5.894191340586607541e-01,1.253047098806627999e-02,-1.283410061831658511e-01,1.931599838649139880e-02,3.120362162590026855e-01
6.399723422933650818e-01,6.781986386455667315e-01,5.951306212643833193e-01,-8.123873295352598486e-03,-1.832837053264700644e-02,-1.024651459957863497e-02,8.189576119184494019e-02
7.093051700056710596e-01,8.006737117087769917e-01,5.064357219878018457e-01,8.273758440355795320e-05,-1.186831139135797186e-01,-1.297460466896940313e-02,3.328696489334106445e-01
7.054274627200110004e-01,4.765958720608180488e-01,7.160595721786284784e-01,5.451216841527842250e-03,1.234108908820545549e-04,9.641521064931424939e-03,2.351126819849014282e-01
9.001670135980391896e-01,3.207118393907642528e-01,1.009699035470048578e+00,1.399663906791348833e-01,3.168575862903012796e-02,-9.154501385178263895e-02,7.058042883872985840e-01
7.081576274544714167e-01,4.811764938006876102e-01,7.013635238544132511e-01,-2.921678343995985378e-03,-2.380259056375004078e-03,-7.568063373512208016e-03,2.241403460502624512e-01
6.711438022407516524e-01,5.591436098333822935e-01,6.500692011191110398e-01,1.056485053337838723e-03,1.100049163058338005e-02,-7.902738367229430322e-03,1.057429090142250061e-01
7.065301804996073631e-01,7.082545155350281618e-01,4.396574863893309981e-01,1.612028049357216650e-02,4.771491143230554427e-02,-6.865571916016971477e-02,3.056709766387939453e-01
6.468105868532521008e-01,6.219186955286295504e-01,6.261550762591511221e-01,-2.755381023054379042e-03,-6.126815122271725596e-03,-4.391847762548407169e-03,2.693244442343711853e-02
6.239905398094250932e-01,6.347751584232949051e-01,6.402420535241087896e-01,-1.320462494620573777e-03,2.486253869115411051e-03,6.399706155779665874e-03,1.875625923275947571e-02
6.419165510095706795e-01,6.330959732654601879e-01,6.289280310056394319e-01,-1.180270421475741868e-03,1.952560591972039199e-03,2.115162714514156033e-03,1.268764492124319077e-02
6.524623503775920375e-01,6.143801182200209210e-01,6.306656340595021559e-01,-3.068458361211910679e-03,1.067568906047438627e-02,5.065911793214796129e-03,3.927382454276084900e-02
4.584005369317509238e-01,7.490894319236574006e-01,7.454810630508406089e-01,-4.006929336574698020e-02,-6.083834638293398461e-02,-7.369418269177367220e-04,3.152559697628021240e-01
6.676839241061984787e-01,6.750209640365663066e-01,5.689630546107328213e-01,-4.270895248992102183e-02,5.321430467893172034e-02,3.155300815613851922e-02,1.657654643058776855e-01
6.569519546211045613e-01,6.376125713101914450e-01,5.923368141165283873e-01,1.336144005875171924e-02,-1.062842364358517443e-02,9.149160380855234434e-03,6.652148067951202393e-02
6.356898916358237894e-01,6.313150653473759144e-01,6.286175066210011320e-01,4.327927037812167969e-03,1.885653213993924732e-03,-2.698504268574906245e-03,1.126600988209247589e-02
5.198135268493421224e-01,6.977763377562662406e-01,7.030909234499089777e-01,-4.647146017968482867e-02,1.759979264287837505e-02,3.378762505166949827e-04,2.001329511404037476e-01
6.830955754025310744e-01,6.069424306151444126e-01,6.153166308813602381e-01,-2.803328552507909546e-03,-8.417533933172299029e-04,-1.023879263008337440e-02,7.464520633220672607e-02
6.371161700434559982e-01,6.194956422269740637e-01,6.393197411748807735e-01,9.530983934671064320e-04,7.059197843681325885e-03,-1.409675560452681433e-03,2.263515815138816833e-02
5.283948549251455962e-01,6.807981913908747185e-01,6.980238699736728281e-01,-1.318984044248150064e-02,4.022171795965170352e-04,2.081811111089332863e-03,1.633528470993041992e-01
5.361045707011358186e-01,6.532250281440873385e-01,6.926037380606240301e-01,-3.115992099866732312e-02,-1.686056791676760944e-04,2.739901482520779724e-03,1.510475575923919678e-01
6.276452039897020274e-01,6.440862778640421560e-01,6.442608085737493440e-01,-4.547214412823200741e-02,2.864343065326937013e-02,3.098047369015534749e-02,1.087063178420066833e-01
3.887521877423875116e-01,7.348257731407441540e-01,6.539337795838080503e-01,-1.335140364265757773e-01,2.134136144948164115e-01,5.154371286063959973e-02,5.444265007972717285e-01
3.953937841923953478e-01,7.032118206062013543e-01,7.246222913844242441e-01,-1.948033501280419522e-01,1.352385083002060340e-01,8.667259385502062985e-02,5.413415431976318359e-01
6.190133160549190494e-01,6.646720364094378386e-01,6.443740457795401610e-01,1.903288934645087221e-02,-1.442991983817499407e-02,1.856513683311154100e-02,6.569140404462814331e-02
7.833111095310941741e-01,7.288898363814119152e-01,2.937197945992509607e-01,-2.331551813487297425e-02,1.132018505993857699e-01,1.402910662470388814e-01,5.613703727722167969e-01
7.541649349979927530e-01,7.723906062554724006e-01,4.870295664382040535e-01,1.324555344371575530e-02,1.192454058036145625e-01,-7.427701254668599151e-02,3.691858053207397461e-01
7.151314254434505413e-01,7.145674642898288687e-01,3.959582967461019454e-01,8.526662741612508339e-03,2.779160877047873526e-02,-3.946371033945174356e-02,3.299987614154815674e-01
6.361504510992269656e-01,6.959026266793614246e-01,4.296470230160104875e-01,-4.508323923721520299e-02,1.186567825991576980e-01,6.621470810898157089e-02,3.464707434177398682e-01
6.649652556659904068e-01,6.918663476228692488e-01,5.347352278696457795e-01,-9.280275508934095544e-03,2.110823078599768574e-02,2.279418841130125689e-02,1.560148298740386963e-01
6.499074762215694134e-01,6.954443906472076442e-01,5.252018212130359354e-01,-3.768033022464613562e-03,2.686318677019832943e-02,2.383108948777604326e-03,1.597759276628494263e-01
7.198963238369927575e-01,6.895858910330475711e-01,5.077058551726896241e-01,-1.174834519735279935e-02,1.338303961432890654e-02,2.304728352846437817e-02,2.050776779651641846e-01
6.302513807500088605e-01,5.793526027116177035e-01,6.768429472904117228e-01,-1.795162425606470352e-02,-1.535998047061769463e-02,-8.441187333704407159e-03,9.498023241758346558e-02
6.356656231307946658e-01,6.525988414234864532e-01,6.156625662895617301e-01,9.711040903737215915e-03,-2.936779656741063480e-03,1.646784953641352396e-03,3.664007410407066345e-02
4.107147715357984952e-01,7.323285061854694078e-01,7.986902069913417446e-01,6.066445323960586306e-02,-1.065580240824674221e-03,-2.409178735839409211e-02,3.767854571342468262e-01
4.198878100482296150e-01,7.473190866454854087e-01,7.253422186029394592e-01,4.631640148642936911e-02,8.137092076182854405e-02,-1.341289262330047074e-03,3.560941219329833984e-01
2.288677226638254347e-01,7.252116870979952168e-01,9.587751864668319079e-01,1.820528313208390481e-01,1.151734223554067293e-01,-9.431717924026597477e-02,7.633798122406005859e-01
6.335622836439781524e-01,6.324901417735393494e-01,6.347514463711809718e-01,2.933360467016552365e-04,7.028251870418020979e-04,-1.208588898491539710e-04,2.371159149333834648e-03
6.230809208821198597e-01,6.454685379908916554e-01,6.285088403806764479e-01,-8.835970168282284223e-03,8.517849988393833005e-03,7.859940047882223516e-03,3.234764188528060913e-02
6.547559098518537235e-01,6.151308133228552411e-01,6.367860927512647429e-01,2.249518490485764247e-03,-9.937811516808170431e-03,2.438898054135615803e-03,3.886274248361587524e-02
1.136756447640948076e-01,8.076168797999080384e-01,8.306737172832439065e-01,4.123486426068888495e-03,3.143834374422371097e-02,-1.140265824613317588e-02,7.081612348556518555e-01
5.010017058708204907e-01,7.457735847185467115e-01,7.692288426925766309e-01,-1.261251923801908759e-01,-2.447305408589694475e-01,-1.647977724304849345e-01,6.124388575553894043e-01
6.764308344046706667e-01,7.244415171329294800e-01,5.704184496252365788e-01,7.376421369998630018e-04,-5.442036336621278864e-02,-1.028282451390236628e-02,1.668440848588943481e-01
6.231271970584832953e-01,6.890063477472333497e-01,5.733069684254177290e-01,2.830479862204959667e-03,1.784454307416509164e-02,7.044622049703561095e-04,1.052855104207992554e-01
6.036335375693241412e-01,6.846883544117960962e-01,6.351156353733756754e-01,1.287518490450515612e-02,-2.527338973226076618e-02,1.315243106589371672e-02,8.911640197038650513e-02
6.259439385725296123e-01,6.825754530994175839e-01,6.048574763964060796e-01,5.296059153592940112e-03,-3.120812935800141436e-02,7.671586401535170768e-03,8.960174024105072021e-02
7.676281687031782930e-01,8.035274819621213149e-01,3.777251141845396343e-01,1.494846209349267284e-02,2.209855003091724113e-01,1.625525915611754635e-01,6.274986863136291504e-01
4.944323315301141775e-01,6.796637290541635013e-01,6.909027291613697441e-01,-4.182522663282102482e-02,-3.707836005060262397e-02,-1.631609242301977625e-02,2.160784751176834106e-01
6.003319189771403330e-01,6.766998923267047994e-01,6.268209490322571575e-01,3.234000983786540842e-03,-4.176104056135178030e-03,7.716443679300743173e-03,6.908798217773437500e-02
6.321141390702716967e-01,6.335240538121529319e-01,6.340779556817691676e-01,-2.805931663033607191e-04,-2.681756572999143668e-04,-7.114685515173221940e-04,2.246360527351498604e-03
6.247081367751291525e-01,7.174771481022705899e-01,5.631400299452057334e-01,1.219030867532068865e-02,-6.267476804345953334e-02,-8.420928182578540228e-03,1.747891902923583984e-01
5.805932050701541058e-01,6.360561415226517745e-01,6.954904109805368773e-01,2.144188155906532819e-02,3.081113400022823367e-03,5.859522704806135150e-03,1.068443432450294495e-01
5.777307340983475203e-01,6.181297992230477822e-01,6.848897202732739942e-01,1.686100898846258633e-02,3.504389216281374436e-03,-6.088457732415275374e-03,9.892896562814712524e-02
6.330898140186813627e-01,6.339290207502519259e-01,6.346167679137694195e-01,1.158531057327977649e-04,-7.807080462903920586e-04,-2.988681169864819019e-04,1.972605707123875618e-03
5.572269368720840221e-01,5.755207178335314255e-01,7.161735811768445981e-01,1.154641229619490922e-01,1.196230269336749814e-02,-1.792433808514467750e-02,2.531402707099914551e-01
4.707047294649677194e-01,6.911473357868782585e-01,7.452262811808070264e-01,-4.914610439990103191e-02,-4.197384100420676473e-02,-4.342943463573147034e-02,2.857106029987335205e-01
6.122917434995216457e-01,6.092807897904941594e-01,6.739196262432104456e-01,-6.907015733738974816e-02,7.390849250214419353e-02,6.951634977716991681e-02,2.217873930931091309e-01
6.292694028299588016e-01,6.258791107321871605e-01,6.478317057926261668e-01,-2.142036636184874252e-03,4.773320731562772333e-03,1.946872374396858884e-03,2.263789810240268707e-02
6.349488313924561700e-01,5.966101731430171196e-01,6.629835967432006205e-01,1.226072850741848595e-02,1.410394224513947942e-02,-9.133321676597864341e-03,6.803388148546218872e-02
5.895542418446532151e-01,6.307497306108181823e-01,6.904687108979269405e-01,3.071478316775940257e-02,-2.021035820317851860e-03,-5.726001482633729517e-03,1.032685115933418274e-01
6.536040523443324979e-01,6.303341779553714996e-01,6.123929513593258100e-01,8.208979090540940993e-03,-3.160520717386171297e-03,2.371106854966736725e-03,3.911342471837997437e-02
6.322731445832353581e-01,6.338749689152241018e-01,6.351676213670248705e-01,6.519412950032278577e-04,4.758541818384118965e-04,-6.825461719226467126e-04,3.107956843450665474e-03
6.390634320865076212e-01,6.048747633370800125e-01,6.536834367676334079e-01,1.030528848193324777e-02,1.385102714552663081e-02,-4.708633514014125797e-03,5.332083627581596375e-02
6.445982932279219479e-01,6.242716558692107398e-01,6.208200773870669043e-01,5.408078180393843283e-03,-2.908577110143654477e-03,4.743136427509766530e-03,2.599726803600788116e-02
6.413921086283743689e-01,6.208794731368474373e-01,6.541588460487983703e-01,-1.559546169416894945e-02,1.757238959586041038e-02,1.434391941571595830e-02,5.584714189171791077e-02
5.226185739905796490e-01,6.437631018922082005e-01,6.991628208813738254e-01,5.675778659581451335e-02,1.437770669308202978e-02,-1.754214208361583316e-02,1.888495981693267822e-01
4.451738444668172368e-01,7.400456661031949990e-01,7.377897487642524066e-01,8.095877960861994072e-02,4.668832373238029215e-02,-2.798375254366107685e-03,3.354327678680419922e-01
5.582452948766021272e-01,6.963962804499868042e-01,6.486662678227912426e-01,-2.535673021440021531e-04,-1.391136953563153721e-02,-8.598278666169287265e-03,1.247896775603294373e-01
4.649036402247431754e-01,5.102787039536790248e-01,6.558911482117517622e-01,-2.831107517579258825e-01,1.787050939470941346e-01,1.613803381312473306e-01,6.665294766426086426e-01
2.625132896776813385e-01,8.290899804667797302e-01,7.306617766387883961e-01,-5.669854037768534000e-02,1.664951249799749011e-01,9.137325182567686624e-03,6.066190600395202637e-01
5.165579507198408971e-01,7.371622372338028084e-01,6.802668170328716180e-01,4.251825271321300198e-02,7.965669052594749611e-02,-5.768414423010848752e-02,2.716492414474487305e-01
6.021043994040731206e-01,6.692196361753629530e-01,6.272054134296569661e-01,-3.156678328068951347e-03,-4.822257309900548732e-03,-5.925909069594494268e-03,6.045544520020484924e-02
5.997644266435216975e-01,6.099606653897843289e-01,6.801608823153020289e-01,-9.957526831193184991e-03,-1.538667848503260998e-03,-1.528691740064780716e-03,7.784203439950942993e-02
5.652789692071206185e-01,7.532535022047838202e-01,6.191322538787022989e-01,6.555330677250301163e-02,1.080726606544301777e-01,-3.260261607571430381e-02,2.814802825450897217e-01
4.100528867398687827e-01,7.632917895061391844e-01,4.914596015634942194e-01,3.904399371545350106e-02,2.811065180270115316e-01,-2.966855078792001929e-02,5.890036821365356445e-01
5.720032955747889059e-01,7.502487767158999565e-01,6.039779146432368018e-01,9.492453541260381655e-02,2.270195663656766061e-01,-6.742025419677159792e-02,4.715682566165924072e-01
3.526069295917976798e-01,8.006428771903805197e-01,7.266755229187672471e-01,5.079368162263890596e-03,5.486016210397964832e-02,5.342567502900294647e-03,4.269183576107025146e-01
3.702629075138281212e-01,7.639316137931689843e-01,5.535528957097668457e-01,-1.647843366366081794e-02,-2.810797568259247314e-01,4.196832052902554032e-03,5.952307581901550293e-01
5.574667412989184889e-01,7.948016275152989252e-01,6.800748956632106657e-01,-2.390616457526978031e-02,-1.504503381856035216e-01,-1.172512522857436894e-02,3.351033926010131836e-01
6.399465715163177304e-01,6.314332992730722349e-01,6.330403313177600522e-01,1.515317281517891647e-03,-3.421102451574321857e-03,-3.063421824023501434e-04,1.018131524324417114e-02
6.299796668167355618e-01,6.326929433613863729e-01,6.360499743272899353e-01,1.707297213177824116e-03,-4.234644272740699031e-03,2.528323110150924261e-03,1.046224497258663177e-02
4.865093804911319042e-01,7.120460168827857927e-01,6.954611415117183393e-01,-3.060644581152802916e-04,-3.078615006035616622e-02,1.147509460350653330e-03,2.241627275943756104e-01
5.364945284610522780e-01,7.001638152613728350e-01,6.496969382074491151e-01,1.264834831964753870e-03,-3.659009500860770092e-02,-9.622178018389314705e-03,1.592913269996643066e-01
6.545522858368560959e-01,6.486977922370845695e-01,5.844228757304554822e-01,1.777078990974375119e-02,1.263360996011603926e-02,-9.869515270118965969e-03,7.912196964025497437e-02
6.762441028679493371e-01,6.485906927379939679e-01,5.642141161342452138e-01,1.443763786003221875e-02,5.295264034577849312e-03,-8.910586066798323671e-03,1.056648939847946167e-01
5.566562661412711721e-01,6.813310922218062116e-01,6.466957266474797628e-01,-1.006553877759521279e-02,-1.899516689184524085e-02,-1.749946352878429395e-02,1.213686540722846985e-01
4.829304778966976297e-01,7.074416052429467472e-01,6.579309236233275016e-01,3.348870938008697510e-03,-1.079620110962016405e-01,-6.656438659235160149e-03,2.772630751132965088e-01
6.356675979230966833e-01,6.405144036622946180e-01,6.339807186681463147e-01,-6.771908025633119853e-03,-5.946873921547089596e-03,-5.361659437408991362e-03,1.908998191356658936e-02
6.548836395520226672e-01,6.225634391634554676e-01,6.204922944808582974e-01,-1.245438282645042324e-03,-1.937595101715843936e-03,7.382279733687542246e-06,3.364136070013046265e-02
9.310137256949104767e-01,3.162258770822792830e-01,9.094462073713017736e-01,-1.269177195659304536e-01,-2.807022097596644297e-02,-1.094637643339949895e-01,6.721643209457397461e-01
6.523955401579986102e-01,6.499257910189089049e-01,6.013594707694505104e-01,1.139901323691450488e-02,5.720120837891179595e-03,-4.109281186199545584e-03,5.498512834310531616e-02
6.693924172956042806e-01,5.947572762191498663e-01,7.072955669106247845e-01,5.263849780918533616e-02,2.359747245971628715e-02,-1.312567290476484780e-02,1.426035314798355103e-01
6.846727284187523743e-01,5.401703230369336861e-01,6.866337035244579612e-01,-5.252505388653214841e-02,-1.726081799010192874e-02,-3.006820676545261806e-02,1.817990541458129883e-01
7.269260113261064582e-01,3.375414042191664521e-01,6.587948726786869713e-01,-1.100865034634654765e-01,-6.106527902549847842e-02,-2.041729907224846263e-01,5.498516559600830078e-01
7.026299412728667093e-01,4.675008204912685650e-01,7.182205991082936114e-01,-4.433669449496381587e-02,-9.283455393619244322e-03,-2.048064710468410626e-02,2.580866813659667969e-01
7.222066482848527036e-01,5.049933006499146559e-01,7.033554156422987536e-01,-1.635435614241770655e-02,-2.558636962988442443e-03,-2.669380394785965047e-02,2.154111862182617188e-01
7.621433587965977807e-01,1.723837150787210781e-01,7.636050664030400448e-01,-1.832723724760237927e-02,-1.448737952193226639e-02,-7.948144221639040496e-02,6.076757907867431641e-01
5.034964501674475956e-01,6.757058544753771212e-01,6.862995243387488564e-01,2.850307118451754843e-02,2.339005907498331940e-02,-1.126935577840082817e-02,1.898741424083709717e-01
6.799369760894825587e-01,6.021540084760330647e-01,6.149008757427536498e-01,4.659641566407077555e-04,-6.117947804105917584e-04,-1.062916454531389471e-02,7.457811385393142700e-02
5.625325793792378404e-01,6.146663061048397436e-01,7.078936014932726284e-01,-5.115067833754132626e-02,3.299908437356078444e-02,2.676370045458325436e-02,1.718558222055435181e-01
7.204465451594419534e-01,4.979062448605796609e-01,7.280955735015640640e-01,2.026776502253078635e-02,-2.555814886087168485e-03,-2.055386324159246512e-03,2.292368412017822266e-01
6.354866064027880901e-01,4.027354806156790978e-01,7.854539947832881452e-01,-2.845612066108352822e-01,6.875879790170372208e-02,6.091240301502377774e-02,6.162855625152587891e-01
7.760410856728523488e-01,4.019010192594564823e-01,8.180788550390992730e-01,-1.170470593078168642e-01,-2.588552476782336048e-02,-1.331026663826103199e-02,4.484614729881286621e-01
6.658485536716849396e-01,5.395206838053279164e-01,1.019755942077848809e+00,-3.564087667566385176e-01,5.448905432170025182e-02,9.228302375611653618e-02,7.755351662635803223e-01
6.211084386213014952e-01,6.414138803248259357e-01,6.372844544278865042e-01,3.356948618347939048e-03,3.755123598918655090e-03,-7.347641392267408034e-03,2.415754459798336029e-02
6.193173545904040456e-01,6.107307901751430901e-01,6.689280997196083156e-01,5.906265563993486414e-03,6.746238391748293414e-03,-3.257093854968996175e-03,5.686786398291587830e-02
5.463043503092125386e-01,7.014546758895237044e-01,6.602359563987439950e-01,-1.286086564156293708e-04,-6.724730627115330095e-02,-4.917243543111941666e-03,1.816994696855545044e-01
7.810499351878299468e-01,2.501900622114056616e-01,7.487476070066509948e-01,-1.083371143209550976e-02,6.908759786610340660e-03,1.109796551315734431e-01,5.505927801132202148e-01
7.236195052307454745e-01,4.087583797067001479e-01,7.207855041916442218e-01,1.485425623784156907e-02,1.037414426708414003e-03,1.624401870012804824e-02,3.157689273357391357e-01
4.860987024425259539e-01,7.103948157159611920e-01,7.369122249271827796e-01,-8.993343782210827531e-02,-1.014535177161969420e-01,-8.016445491560481029e-02,3.624654710292816162e-01
7.505954929477260951e-01,4.341271253846225586e-01,7.520289999027921501e-01,-1.062452741421298502e-02,3.091109650290431790e-02,7.623916207767758579e-02,3.482101261615753174e-01
7.565250731754656899e-01,5.078566528881403030e-01,7.567145514780430071e-01,7.372585005744757003e-02,-3.615445754537006257e-02,9.612115993317672802e-02,3.314044475555419922e-01
5.533874805148548681e-01,6.821374092150517265e-01,6.827978947759412165e-01,-7.478698759185981211e-03,6.165979994185845012e-03,7.095969820283646277e-03,1.307475715875625610e-01
6.791713326180264243e-01,5.084064023898113849e-01,7.043846193804583766e-01,8.854809374325514973e-03,-9.531046741411492579e-03,2.109792821508042066e-02,1.895917505025863647e-01
8.066148224126827859e-01,5.634954933919704700e-01,5.126590525650546182e-01,3.327511401968284623e-03,-8.908121205778095353e-02,-3.669245450132668784e-01,7.083721756935119629e-01
7.797109122108963897e-01,8.362531589360280293e-01,6.236505812240075164e-01,-1.374629711587918579e-01,-2.449580339863127731e-01,-2.242683321487678183e-01,6.511269211769104004e-01
7.542991435233712405e-01,8.324740466318393262e-01,3.898059575010465183e-01,4.759382999637993411e-02,-3.192921789485861361e-01,-4.514604604774214575e-02,6.972900032997131348e-01
6.269453098755715104e-01,6.047452158179690285e-01,6.689245071865643766e-01,-4.613626424196048091e-03,-5.265819687380272202e-03,-3.129917958073373096e-03,5.799544602632522583e-02
7.371135896951963584e-01,8.669886768036649816e-01,5.954416007517301379e-01,-1.128039335160098411e-01,-2.808876410047853045e-01,-1.560717193741258668e-01,6.350441575050354004e-01
6.306235663216023246e-01,6.235733425579697009e-01,6.467637676512492106e-01,-2.818379260701101528e-03,-5.894935400965841711e-03,-2.110103714649211662e-03,2.377902343869209290e-02
6.135482621728166608e-01,6.775337408173608411e-01,6.162409188098929569e-01,-1.069060401341055807e-03,-9.647639999738846133e-04,-2.342099357797653315e-03,6.286317110061645508e-02
6.211876116927104174e-01,6.678485943338886566e-01,6.150276469062702089e-01,-1.594685350692259503e-03,-3.181279364155827852e-03,-1.812029668637358312e-03,5.050211399793624878e-02
6.510789139143133841e-01,5.657929379224303501e-01,6.972608284681468538e-01,1.164413353369200127e-02,5.783716090697559216e-03,-3.437698038988915711e-03,1.178460940718650818e-01
6.487343806791157075e-01,5.305026907366728883e-01,6.930364180611069402e-01,1.237941367153066671e-02,2.233729034634921937e-03,-2.049333733212230571e-02,1.513735651969909668e-01
6.677110903130709652e-01,5.655221849810709855e-01,7.097154282746211962e-01,4.863361559024780012e-02,-1.100944448681890481e-02,1.315470222559841744e-02,1.564536988735198975e-01
6.145673397986558539e-01,6.114217344045561608e-01,6.752080220688599921e-01,2.001156714223286011e-03,3.080554420245967904e-03,-8.641241858363811913e-04,6.261519342660903931e-02
7.087025358068061998e-01,5.008901229942945843e-01,6.864280259973737364e-01,-2.119550685746713140e-02,-1.598268761954628123e-02,-3.345076775428302424e-02,2.110075354576110840e-01
5.343796008725893998e-01,6.805575333089552981e-01,6.787723328519903454e-01,1.016094261049633497e-02,8.914127419200942176e-03,-1.158879665738642845e-02,1.485302597284317017e-01
5.800842127879611843e-01,6.328783131710713494e-01,6.971909043119528526e-01,1.872861812234196885e-02,-4.742218079046998415e-03,4.740304749648178474e-03,1.072651520371437073e-01
6.378131233112639409e-01,6.685006908331974085e-01,5.961834941306862756e-01,4.006458748324016189e-02,-4.949745397744306774e-02,2.572327341580553373e-02,1.345467716455459595e-01
6.345778974487623625e-01,5.761173564990078599e-01,6.824185539708216286e-01,1.551395691438314794e-02,1.614016797244463564e-02,-9.416871250469307023e-03,1.013545766472816467e-01
4.678255025419947866e-01,6.943595370044145509e-01,7.454048272093920513e-01,2.089827405234777058e-01,-1.067846080752441751e-01,8.586298740587122724e-02,5.028263926506042480e-01
5.581058296573582211e-01,6.477141333427511860e-01,6.718575165522746584e-01,9.443371207415817911e-03,-1.603260885384621753e-03,1.095484001760137389e-02,1.068235337734222412e-01
5.851828307355044778e-01,6.345281881972207882e-01,6.729867096999313514e-01,2.406586027674976341e-02,-1.948562623026170405e-03,1.035857425629499798e-02,8.878377825021743774e-02
4.909442188231255000e-01,6.930894204430523287e-01,7.223504704075243144e-01,2.092524401030111322e-02,6.048889551847155648e-03,-2.439725976000743125e-03,2.215289920568466187e-01
6.162048318751499609e-01,6.006607581602221302e-01,6.772772984655262007e-01,6.981462797518336004e-03,8.734267881406231407e-03,-4.994382810094586365e-03,7.328502833843231201e-02
5.843979376769395939e-01,6.499063759933608742e-01,6.732128626131671512e-01,8.328327102528823925e-03,4.435271727377966197e-03,-1.050357183546744497e-02,8.342297375202178955e-02
5.891298802456884642e-01,6.288838952858990528e-01,6.720548059950531838e-01,1.229886203533660585e-02,4.347054890546348839e-03,-1.076637446112468401e-02,7.757929712533950806e-02
2.384102869920697865e-01,8.112786161846292643e-01,9.832046565020838846e-01,9.807291914171455127e-02,-1.060084397667567513e-01,2.189213162759277853e-02,7.212722897529602051e-01
3.441965786583742193e-01,8.646602131550705783e-01,9.940159485767838810e-01,1.862247141692832120e-01,-6.412726070897144248e-02,3.546124177194871080e-02,6.892667412757873535e-01
6.328200754916768478e-01,5.940591091761605602e-01,6.715183466747555174e-01,1.511963438112694583e-02,-1.192230354785514708e-02,4.163993114180431984e-03,7.526089251041412354e-02
5.056891130337181073e-01,7.033404785362744605e-01,7.011056699625590749e-01,5.759572879827379484e-03,-1.774644997249666054e-02,8.379274120324593095e-03,1.997105628252029419e-01
5.342855817207968760e-01,6.591504447838418823e-01,6.936993242027039708e-01,2.670865771502615310e-02,1.849225051989394257e-03,-5.418283039331281588e-03,1.527651399374008179e-01
1.761369740839070497e-01,8.336891956501587542e-01,1.052175890581378948e+00,-1.415035884784197028e-02,-1.103629182384420065e-01,-4.061179057941647491e-02,8.160063624382019043e-01
9.097724326422422791e-01,4.847600540545152770e-01,7.573838009611083555e-01,-1.773144942169694593e-01,-1.006678420469605539e-01,-2.545143887924090076e-01,6.768654584884643555e-01
6.186132407041278203e-01,6.212650956228417121e-01,6.624034167904433446e-01,-1.110867560658379723e-03,-1.961991604945603762e-03,-4.353353538782479479e-03,4.336579516530036926e-02
6.494923749684109460e-01,5.825165946439607723e-01,6.775181232855085334e-01,-8.506187845882254989e-03,-1.128541072603773260e-02,-6.289989784465125841e-03,8.869094401597976685e-02
7.402745517291441368e-01,5.949605391029266777e-01,7.921762763474047286e-01,-2.365422577609962995e-01,-1.212639470394022978e-01,-1.919281346281178358e-01,5.948384404182434082e-01
6.344351776244211427e-01,6.309327062918386186e-01,6.356291626889595259e-01,-5.019680824493034932e-03,-6.354726060079527936e-03,-6.348286545660748216e-03,1.831710338592529297e-02
6.332504371521563424e-01,6.396405275037412297e-01,6.269592583198035918e-01,-5.401641136319411916e-03,-2.274959884349868518e-03,-3.131073267110836764e-03,1.590860635042190552e-02
6.357277446392584075e-01,6.232396576112789743e-01,6.403844472510061836e-01,-1.974825297552435313e-03,-7.046143715277870291e-03,-1.157559297541288761e-03,2.001136168837547302e-02
5.351317310087705392e-01,6.792119221535735107e-01,7.056865216819478981e-01,-1.151675597642214458e-02,4.613411522334317713e-03,6.373927521858962879e-03,1.608045697212219238e-01
6.116327607249499865e-01,6.588999612308870102e-01,6.316948975644526287e-01,-3.350724386714301443e-03,-3.074750625364097538e-03,-8.635831351486426832e-03,4.443167522549629211e-02
1.154050994819990072e-01,8.181364314697234796e-01,8.576576550809655863e-01,-4.008790018899063834e-02,-1.983881281653542342e-02,6.995479966443671378e-03,7.275401949882507324e-01
4.500112436546011008e-01,9.659434025305648763e-01,7.549716603833178663e-01,-7.916654091216446254e-02,-2.565251319834401800e-01,-4.279209027000408644e-02,6.508140563964843750e-01
4.647174443656895138e-01,7.700909848698036519e-01,7.544432702822891912e-01,-5.423786072230320221e-02,-5.271226994591148712e-02,-1.838465020474853648e-02,3.269471228122711182e-01
5.393566277253538654e-01,6.773793948715686186e-01,6.944059882592029664e-01,-1.033891719553695770e-02,-1.790950848102145637e-02,-1.102742406600079432e-02,1.527677625417709351e-01
6.461034553109434864e-01,6.286269265311251742e-01,6.254051726057208160e-01,4.326707724085913573e-03,-1.305991977973640274e-03,1.885852483654508515e-03,2.107276022434234619e-02
6.369194046693429367e-01,6.401980059880320040e-01,6.286760301809068974e-01,7.254034387398541547e-03,8.223490180159814442e-05,1.034940081671369572e-03,1.633480377495288849e-02
5.949721515362181856e-01,6.345029633780804312e-01,6.630922353060179075e-01,-8.081073136811986468e-03,-7.672966799550723187e-03,-1.381642289394397795e-02,6.674881279468536377e-02
3.734493431509400829e-01,5.414070120933357488e-01,8.041535053480702855e-01,-2.832392257645798828e-01,-1.335671727536675013e-01,-7.524402569697645482e-02,6.727218627929687500e-01
6.183987883015297227e-01,5.925079143262648174e-01,6.881976726867868877e-01,-4.147057671532894396e-02,-3.078877089263298492e-02,-3.484052365113968902e-02,1.378195732831954956e-01
5.141523923109787564e-01,5.870335331999344541e-01,7.225038762671083248e-01,-1.490762634226714400e-01,-1.371528598736364291e-02,-1.297037544219006508e-02,3.182409703731536865e-01
6.318413691057898074e-01,6.356116364290218534e-01,6.344140811350673648e-01,-3.848316431953288652e-02,-5.082634278653131582e-02,-2.682661178140394870e-02,1.198455169796943665e-01
6.247505873226910644e-01,5.886047945337126164e-01,6.624295034588824072e-01,-1.572762700396391350e-02,-1.291914966975319344e-02,-6.553885610609617302e-03,7.389046996831893921e-02
6.570550568132724756e-01,6.082239109873416316e-01,6.288651037788562936e-01,1.967769511685175943e-02,1.537072319916938171e-02,-2.464515444405317515e-02,7.412941008806228638e-02
6.329734596498807209e-01,6.645055866460365390e-01,6.112795186195270070e-01,1.264432577451576369e-02,1.886234717262401384e-02,-1.810082212009042277e-02,6.840232759714126587e-02
6.960567828349406572e-01,6.514427963979576575e-01,5.511571927009051297e-01,6.913205723903730971e-04,8.253274353392131210e-03,-5.226290104259481012e-02,1.578662991523742676e-01
9.724052311541342419e-01,6.678636205663154302e-01,4.476577663241783078e-01,5.944329561391666072e-02,4.133769201043192149e-02,-3.587787667302608785e-01,7.811475992202758789e-01
7.740131189359528152e-01,5.461978041963353458e-01,6.888698608485631647e-01,1.312405008165140954e-02,2.532710844650635541e-03,-1.290039495261501301e-01,3.003569245338439941e-01
6.811408536486258658e-01,5.541020265595288929e-01,6.797059531521004727e-01,8.106109924842874390e-03,5.779748102657787136e-03,-9.431685527798099045e-03,1.285412311553955078e-01
6.874760225878667752e-01,5.061913557349291271e-01,6.786992553086819147e-01,-3.149275040764977496e-02,-9.635892598941627266e-03,-7.426380665919725399e-03,1.864656955003738403e-01
6.139262053775274008e-01,6.157914584686989823e-01,6.719210651355447261e-01,3.050008582515252240e-02,1.243040637027832858e-02,-1.493579978968696646e-02,8.474817126989364624e-02
6.696846306587415087e-01,6.044298833185003383e-01,6.338955492833556749e-01,4.366843878760123289e-03,6.796845633174405411e-03,-6.400001880833635845e-03,5.934907123446464539e-02
6.516474625467577608e-01,6.022799625226623599e-01,5.861740649181430562e-01,-5.474202668411190520e-02,7.053744026322067429e-02,1.007710941351153827e-01,2.405675798654556274e-01
6.367857125611070535e-01,6.371586820222981951e-01,6.253949102162041918e-01,-8.181505255900911946e-03,2.764049904134320990e-03,2.852902516958644337e-03,1.955213770270347595e-02
6.211998097036197652e-01,5.898855841198702432e-01,6.508163910320504675e-01,-2.235354172899589251e-02,2.405823146154246334e-02,1.442137865106540677e-02,8.151385933160781860e-02
6.513966214485725770e-01,6.205639211398945587e-01,6.387608081616629185e-01,-1.782059410018910217e-02,1.977295337196359817e-02,1.760925265142393101e-02,6.145412847399711609e-02
6.528438500662471222e-01,6.315366741408585671e-01,6.168914460746229844e-01,-1.089703931943608074e-02,3.493442410554328630e-03,4.606759050869011461e-03,3.790834173560142517e-02
6.326412467946320728e-01,7.136047159128559025e-01,6.562357565406886639e-01,-7.627472600221285592e-02,1.203396140257777525e-01,7.827419067535155983e-02,2.906551361083984375e-01
6.756943623250641906e-01,7.584463745697048731e-01,4.840189063123930269e-01,1.177085475217889629e-02,-1.498726006133929978e-01,3.813659189707936051e-03,3.567822575569152832e-01
6.018130266069422474e-01,6.808784404518118949e-01,6.125158729354474030e-01,1.182872137312803964e-04,9.230829281726178268e-03,-1.227954482110873210e-03,7.602536678314208984e-02
7.537913648288776525e-01,4.413681846238884376e-01,7.670803954647885670e-01,-6.985784600470831829e-02,-6.224036006341754227e-04,2.512341512859684461e-02,3.441972136497497559e-01
6.123937049555356893e-01,6.063806846640641401e-01,6.769222084036418119e-01,-7.491502028699804396e-03,1.812672178634086454e-03,2.314677289737003280e-03,6.915485113859176636e-02
6.108609492826425624e-01,6.225164147341423204e-01,6.577561045218222047e-01,-3.059774465866670415e-02,-2.486624164111717744e-02,-1.954866139150750540e-02,8.716952800750732422e-02
3.795068038378066055e-01,7.630838089546807534e-01,7.824370092942820598e-01,-1.794453494720739950e-01,-1.107612194658681437e-01,-6.988475795568520332e-02,5.504425168037414551e-01
7.083450633425949494e-01,5.600980122150241991e-01,5.375243172573900274e-01,-1.864099599161982493e-02,2.628395735409929518e-02,1.234741713485486558e-01,2.732871174812316895e-01
5.947205005874069972e-01,6.272086085659897003e-01,6.864269450256836880e-01,-6.914595389711157385e-03,-3.392159001081908928e-03,-4.827376350815341596e-03,8.206123113632202148e-02
6.265956952189475349e-01,5.803995731637104916e-01,6.945434327655747309e-01,-1.781799724219612982e-02,-1.859036432529570428e-04,6.371423200834971240e-03,1.047102212905883789e-01
7.314587738185327481e-01,6.119323908060385619e-01,5.736663681140549143e-01,8.670469497485272514e-02,5.351450890761822593e-02,-1.484676605799861437e-01,3.429243266582489014e-01
6.786852400254683726e-01,6.249249701936622214e-01,6.053183627006052392e-01,-1.035279590650876533e-02,-3.403074714143740527e-03,-8.254362244510052293e-03,6.992374360561370850e-02
6.784642073682249919e-01,5.303236441531922196e-01,7.077322957171530149e-01,-1.013996674284474951e-02,1.041681936438943346e-03,-1.469153082985651072e-03,1.656991988420486450e-01
6.525476759644949221e-01,6.348844916652769399e-01,6.019528189957888964e-01,-1.222205762783431203e-02,-4.960024094784579000e-03,-7.322924955642490241e-03,5.158467590808868408e-02
6.375875900792135065e-01,6.522477419129230070e-01,6.030851455847170417e-01,-1.303769979131466292e-02,-6.108160756148075209e-03,-4.894603509933703744e-03,5.103817209601402283e-02
5.154738704037747921e-01,6.869063420121548358e-01,6.887068150258494059e-01,-6.438132397115270411e-02,-2.335514055343146725e-02,-1.278965438816445643e-02,2.103876769542694092e-01
6.350538769800049277e-01,6.721414110257499797e-01,5.870309326451071952e-01,-1.127879736901162867e-02,-1.057265945412589475e-02,-4.340631152542414641e-03,7.896987348794937134e-02
6.851397072731277849e-01,6.857040799366915795e-01,5.062283117889916362e-01,-1.602034397148944037e-02,-1.767097986514346020e-02,-2.244969200883445079e-02,1.879608780145645142e-01
9.134605249554352824e-01,6.769137723511937654e-01,5.994420045419359688e-01,-1.363023582445817838e-01,-1.204867221981162084e-01,-3.282962998016858980e-01,7.091568708419799805e-01
6.100438973249628916e-01,6.421167181198647045e-01,6.531980321079660090e-01,-2.363060807120541569e-03,4.660616534860616972e-03,1.098200960746171725e-02,4.416560009121894836e-02
4.543407332532638510e-01,6.593257664622500513e-01,7.042791992314926253e-01,-6.741504682099405676e-02,-1.989023869076333648e-02,-1.201334569315968930e-02,2.617415785789489746e-01
6.731884087400828998e-01,4.571411997349036360e-01,6.764048390124202115e-01,-8.269302074996762175e-02,4.878703456303204455e-02,6.925363485972289845e-02,2.990397512912750244e-01
7.310753751267721201e-01,4.922328319341539027e-01,7.834531579863743822e-01,-2.705911081102755356e-01,1.940874258147673101e-02,9.986783782993190195e-02,5.683385729789733887e-01
6.702187821643229571e-01,6.320564566083918256e-01,6.066899909611944697e-01,-7.380394891476247179e-03,2.920582914764372449e-03,4.074632941467885329e-03,5.750367045402526855e-02
6.733704675531975159e-01,6.271066117599846113e-01,6.065058326161578695e-01,-8.146362512717584409e-03,2.101916561672511567e-03,5.268300667789591052e-03,6.175286695361137390e-02
5.931215550456229169e-01,6.315234794451320965e-01,6.860415527815362235e-01,-3.199059442670672965e-02,1.874956334820944946e-03,2.549399627604145672e-03,9.818740189075469971e-02
6.498604967554080236e-01,6.754102294355587288e-01,5.683535769315789521e-01,-1.107072103219628421e-02,9.694018217855655817e-03,5.313312400282743306e-03,1.005631387233734131e-01
6.115018378879548688e-01,6.250571179439113889e-01,6.598436926149555681e-01,-4.934906320139128937e-03,4.583586158991670260e-03,7.890309247997134845e-03,4.677875339984893799e-02
6.190421399291798910e-01,6.145692931216516497e-01,6.706653262192960874e-01,-1.259094542091022994e-03,3.498418265743837626e-03,2.259034087047947885e-03,5.452196672558784485e-02
6.598454494187134811e-01,6.328106719807689018e-01,6.177909537842035670e-01,-1.067862131578273949e-02,1.176013819630837218e-02,2.011391083068227517e-02,5.773418024182319641e-02
6.809473008587536569e-01,6.107345175145083571e-01,6.012971080859466078e-01,-2.200770153167002740e-04,5.412907745599991908e-04,1.006595467133040989e-02,7.737261056900024414e-02
4.943588964332918945e-01,7.380209258966680119e-01,7.279024754275128517e-01,-2.027150116058033524e-01,1.482522733241270207e-01,2.277048531089764238e-01,6.338555812835693359e-01
6.748676765284100654e-01,6.047993963206691470e-01,6.004698527318803603e-01,-9.260780090893023717e-03,9.164242421556901760e-03,2.373697936989217078e-02,8.620464801788330078e-02
6.804685542977999546e-01,6.500121892713132121e-01,5.816713401013768880e-01,-9.709952867024177273e-03,3.389396094652425903e-03,8.461938116488151168e-03,9.061789512634277344e-02
5.974419154490029360e-01,6.772741403128850202e-01,6.283372962932047834e-01,-9.873216840409636610e-03,3.027600354038820565e-02,6.443842877445878949e-03,8.960011601448059082e-02
2.557464426803658375e-01,6.624450223600848453e-01,7.651770396611362601e-01,2.208365125551116914e-01,3.977585588855941240e-02,-8.669342166710536021e-03,6.074674129486083984e-01
4.653526556528743141e-01,9.949388516285460060e-01,7.275202329880254837e-01,4.176287259572431659e-02,3.040773168618711164e-01,-2.418320467580971009e-02,7.033697366714477539e-01
5.692804597399433453e-01,7.000304644220108896e-01,6.492133962260738800e-01,1.479953882192672860e-03,9.885115865490862880e-03,1.378784130067691946e-03,1.154947057366371155e-01
5.005725494595939518e-01,7.104251571639360607e-01,6.128735685787192189e-01,-1.040348209122033719e-02,1.085811685367189111e-01,9.656392877644874931e-03,2.627870142459869385e-01
3.195522545726601216e-01,9.229739153480720493e-01,9.492494589851464548e-01,1.344291124811942684e-01,5.968204122524694427e-02,-1.431500972591589864e-02,6.679651737213134766e-01
3.296574158891047990e-01,9.118834368463873963e-01,9.649417283274761559e-01,-1.226049255712940989e-01,8.396030852768938957e-02,2.362679468356845836e-02,6.637867093086242676e-01
4.845157441796490994e-01,7.082188660340787978e-01,7.199466112563779330e-01,-3.857266677830146432e-03,8.755695426599774791e-04,-3.978216928222862853e-03,2.299969047307968140e-01
7.112000895263248523e-01,7.381069132876537653e-01,5.571979001680752441e-01,-6.924038842303513464e-02,9.787402538202157054e-02,1.226136873198057919e-01,3.417709469795227051e-01
6.509646739921531866e-01,6.918417698468788402e-01,5.712445695710605120e-01,7.359481439882862956e-03,-1.149343609619248203e-02,6.239799489343044250e-03,1.093642860651016235e-01
6.527880792316267389e-01,5.935556358625415641e-01,6.542207274050987342e-01,6.544761937609790657e-03,1.301224611514838550e-02,-6.030012125106092545e-03,6.588576734066009521e-02
6.962595014243588842e-01,6.322762035529224667e-01,5.844233769514989296e-01,3.132094210019646836e-03,6.510202683899206019e-03,-1.616246527780994258e-02,1.019107028841972351e-01
6.541096204891705401e-01,6.282305765301696709e-01,6.240480972695476858e-01,4.793276604440666749e-03,1.964075159174943214e-03,-1.271511689225005102e-03,2.967837825417518616e-02
7.708162510102404275e-01,7.328462789947903788e-01,2.591457323412177383e-01,5.861143679380122901e-02,1.434849795698279473e-01,-1.704149612598251373e-01,6.348336935043334961e-01
6.361995092020523712e-01,6.304455375519544269e-01,6.337849923017369047e-01,4.248328085272679543e-03,4.010963435047204192e-03,-3.622369226174858639e-03,1.291580591350793839e-02
6.407721912576613832e-01,6.195303480304256150e-01,6.360931374871980903e-01,2.408821498294441525e-03,7.235912502347803706e-03,-2.720909332876547161e-03,2.388326451182365417e-02
6.449799747740374567e-01,6.253132380152984782e-01,6.280276240840485524e-01,7.093720733170975727e-03,8.244396395502515476e-03,-7.326221722501751951e-03,2.926873229444026947e-02
6.547542952310233533e-01,6.218827532730308860e-01,6.216236100149938881e-01,2.150488404136872717e-03,1.810572340689129778e-03,8.903219473938143481e-04,3.339476138353347778e-02
6.266669323486814269e-01,6.423779915910704519e-01,6.408128700948596546e-01,2.349723971613872000e-03,2.001213483122104772e-03,-5.130534851089454083e-03,1.822752319276332855e-02
7.184194102066709942e-01,6.951722943550959766e-01,4.666135134154579811e-01,7.778358744623729837e-03,1.989707502137627593e-02,-5.290311533258432869e-02,2.604962289333343506e-01
6.923296290895757377e-01,6.783077352391790882e-01,5.282328027374945112e-01,1.434764693438755900e-02,1.808835956413997262e-02,-1.073885290015134768e-02,1.636109203100204468e-01
9.548361182572865369e-01,5.586754299423657422e-01,6.625671427417195725e-01,2.291912084082115691e-02,-3.053494929856170187e-02,3.272542453069001156e-01,6.724864244461059570e-01
6.853411771790074436e-01,6.510989775916750100e-01,5.633080530038501177e-01,2.556461872956735434e-03,-3.170602222076841954e-03,1.075173869833385629e-02,1.108264103531837463e-01
7.015958193580553726e-01,6.729040399718053678e-01,5.260566421196698483e-01,1.484427530524611537e-02,7.851562853271052203e-03,-2.853535398197919182e-02,1.728857606649398804e-01
7.156652422449186757e-01,5.294318917917890666e-01,6.959401862090420776e-01,6.824130892717538213e-03,-5.888166674405700789e-03,2.618629845945403059e-02,1.835738569498062134e-01
6.768040802675477918e-01,5.827913734969467630e-01,6.517036567193025265e-01,5.181646352928111036e-03,-1.300643197739215044e-02,7.346661889345823537e-03,8.864892274141311646e-02
6.693192626611039753e-01,6.033734755004899197e-01,6.253679133698277770e-01,4.049872042979810183e-03,-6.519809525934661815e-03,4.603058193023668379e-03,6.018682569265365601e-02
6.618284036940225157e-01,6.120641943327498335e-01,6.167044284981402225e-01,2.361844512061056413e-03,-7.908392486302404795e-03,7.523290296106685364e-03,5.139312520623207092e-02
6.835496659049009605e-01,6.368619088914834192e-01,5.800357312588489966e-01,1.396549615934005936e-02,-6.557954770477525050e-03,1.635604942326581573e-02,9.787101298570632935e-02
6.363996350886845788e-01,6.076917039430929091e-01,6.426615429346690389e-01,-6.611644749617446963e-03,-9.680157597484360596e-03,-5.831146410209958608e-03,3.946375474333763123e-02
6.353597802503117009e-01,6.060512013782221041e-01,6.528999991638873013e-01,-1.115256358466319188e-02,-1.816523471529069358e-02,-3.685554416830431890e-03,5.553869903087615967e-02
6.330079785010135351e-01,5.977332731770232943e-01,6.661991216110906278e-01,-1.610252943991189248e-02,-8.455182594962473708e-03,-1.384823526921892707e-02,7.130519300699234009e-02
6.625811093920507266e-01,6.166171061718426216e-01,6.893352738854573447e-01,-1.406560865944735117e-01,-1.026354019032611614e-01,-1.051829495123679237e-01,3.580545186996459961e-01
9.757820587715858585e-01,3.142387454562487470e-01,9.488250734901737538e-01,-7.250412809996711894e-02,1.688549420512892862e-02,6.502678707314012152e-02,6.707043647766113281e-01
9.005628931661679992e-01,3.546513875501741686e-01,9.182280428098059666e-01,1.509700035510061211e-01,4.385611996690127329e-02,-1.014501797135208411e-01,6.426486968994140625e-01
6.985340912550191961e-01,5.207047440041929764e-01,7.085767814013194110e-01,-5.116261591435122130e-02,2.958650652464282966e-04,6.302852597925321515e-03,2.036720365285873413e-01
6.489969769427300639e-01,5.424225984613447737e-01,6.879957687803467392e-01,-2.622212171009980983e-02,-1.069984188750811895e-02,-7.386769461764814380e-03,1.400186717510223389e-01
6.883339079241398428e-01,4.846740324548904910e-01,7.012333234909440272e-01,-2.762781372301995053e-02,4.680261036953443574e-03,3.115904511220116222e-03,2.159989923238754272e-01
6.352567552075830681e-01,6.023346631789268102e-01,6.845603604360983585e-01,2.964147775111472538e-02,-1.061527090138458980e-02,8.893240452053502443e-03,9.137319028377532959e-02
7.037246057392910759e-01,4.957968440146172662e-01,7.172393042687441600e-01,2.524910591200858062e-02,-9.260197755682509366e-04,1.143086256552020702e-02,2.203038781881332397e-01
6.815419801551516610e-01,5.683114072358526059e-01,6.497528245543170433e-01,8.961373193117167998e-03,-1.321625600279100268e-02,9.984949750781147229e-03,1.062837392091751099e-01
6.957274946404842231e-01,5.648300699012339665e-01,6.483538104466219920e-01,-1.771282689225667659e-06,-6.810826733934086975e-04,1.109085837904905635e-02,1.163946837186813354e-01
6.566059416262284287e-01,5.785382601116464407e-01,6.241149926830299455e-01,2.667698439579322886e-02,-2.784804632813939890e-02,4.397640235810110210e-02,1.219714283943176270e-01
6.754036792268766076e-01,6.066994075707737855e-01,6.021448165245625317e-01,1.113266254206881842e-02,-1.382095638049770335e-02,2.343018496589726815e-02,8.743984997272491455e-02
6.108748231043205079e-01,6.127382577659166163e-01,6.579514216450316200e-01,1.853852215370043258e-02,-1.143390390643249724e-02,1.149330986527689023e-02,6.286076456308364868e-02
6.799686507304789629e-01,6.163493606358573240e-01,6.108661244909602273e-01,2.796131763903497193e-03,-1.189961953843459309e-03,1.859895686876975734e-03,6.681616604328155518e-02
6.811771479159750564e-01,6.032027102527007800e-01,6.111072469909004656e-01,2.555722058699895385e-04,-2.046676025249649037e-03,7.804979721311553972e-03,7.564164698123931885e-02
6.777471885520874872e-01,6.105139946490018010e-01,6.138891037483532598e-01,1.417953614074025362e-03,-5.146053869266636795e-04,1.636765561543703342e-03,6.572394818067550659e-02
5.518758389038038725e-01,6.187518402872612677e-01,7.253680833939992745e-01,-5.538573068847250924e-02,7.508263538345584520e-04,3.695357368745858309e-03,1.794850528240203857e-01
6.661485585228673623e-01,5.672675297922095128e-01,6.744701920862993250e-01,-1.521951435911133611e-02,-1.437238346794436974e-02,-6.046439172313380385e-03,1.099719703197479248e-01
5.489386682616336222e-01,4.337786735703625385e-01,9.480324841911538236e-01,-2.678571478264250016e-01,1.284465554161519085e-01,7.781145609662307172e-02,7.080954313278198242e-01
7.006667380153394076e-01,4.976152365832104962e-01,7.131209677065446506e-01,-1.780142608783808963e-02,-5.649931147809653803e-03,-8.508703650471228369e-04,2.120435833930969238e-01
6.871877473839529404e-01,5.531440574761290474e-01,6.762947153414785584e-01,-1.949823723357657634e-02,1.179384582746879906e-02,1.258967710664525910e-02,1.365999877452850342e-01
7.808254652654724737e-01,1.131260656358271111e-01,7.856717536007413738e-01,-3.373356887565789886e-02,3.026642259606319475e-03,-2.967327516637150928e-02,6.746589541435241699e-01
6.270119697247472645e-01,6.083236527075545075e-01,6.553848402859556721e-01,-2.986629559010763393e-02,2.017199995606693344e-02,2.207923248708235781e-02,8.392679691314697266e-02
6.383452453461306852e-01,5.961838785205934022e-01,6.523398853519557505e-01,-1.141491024623841194e-02,1.861691490246772385e-02,7.771899031809757601e-03,6.461687386035919189e-02
6.490200543277679923e-01,5.791503795157217915e-01,6.828409819005503145e-01,-8.359560008495326225e-03,1.271244099559828804e-02,9.898467635594376812e-03,9.683536738157272339e-02
5.378358103039052596e-01,7.049388620299553709e-01,6.829648084933056529e-01,-2.406780048790874149e-02,9.614413021561327849e-03,6.251226586551097107e-03,1.639105826616287231e-01
6.352439355056769266e-01,6.059928476493890992e-01,6.508374029549254258e-01,-1.241488033413448537e-02,1.559627270098615064e-02,4.464574040365617766e-03,5.297947302460670471e-02
6.462953764699197468e-01,6.180184280182544621e-01,6.366963540013098610e-01,-8.844399843295999188e-04,9.699393961954830626e-03,3.224208328265185976e-03,3.059516288340091705e-02
5.397059038783512674e-01,6.760058816408420768e-01,6.786623241346289026e-01,-8.202528605731984265e-03,-8.347334136394813503e-03,-9.487038572524952515e-03,1.400989145040512085e-01
5.609248441123340090e-01,5.061255464008851401e-01,7.852795646312630273e-01,-2.272320015709797802e-01,6.999638611588505921e-02,7.332702001953982085e-02,5.013628005981445312e-01
5.462669517952508658e-01,6.858890919981592837e-01,6.570740525674864108e-01,-1.011140495052983111e-02,-2.167187184016530418e-02,-1.691918907053631752e-02,1.373897343873977661e-01
5.467924490080406930e-01,7.184420860219262739e-01,6.895606908942805147e-01,-1.461349342132562401e-01,-1.126343114837812104e-01,-7.653048126174182009e-02,3.808368742465972900e-01
6.241768880887218485e-01,6.612568841822986654e-01,6.200030410499643985e-01,-6.628698183976372039e-03,-8.183141502887803995e-03,-4.238655790409850445e-03,4.397410899400711060e-02
9.429057796891177068e-01,7.375247497173204048e-01,4.987855895436946185e-01,-8.209796506045843878e-02,-1.266631083325262808e-01,-3.360087211033135346e-01,7.451621890068054199e-01
6.529911878902777689e-01,6.205788510421046400e-01,6.406699450970833043e-01,-1.903349144948555602e-02,-1.516709249745466434e-02,-1.439869176547242668e-02,5.658553540706634521e-02
7.096115006076378906e-01,5.883786675724780313e-01,6.089910276915427856e-01,-2.507551327594297053e-02,-4.828371813085301049e-03,-7.626661286828546882e-02,1.789677292108535767e-01
6.756848153351489028e-01,6.230295372167057311e-01,5.762266780356242180e-01,-1.609801463934279128e-02,-9.777312203992404374e-03,-1.717991221153334150e-02,9.683582931756973267e-02
5.353426178722056061e-01,6.155166970940896265e-01,6.847980076209340128e-01,-1.299244601742127747e-01,-1.182025667214203074e-01,-7.806164773797981404e-02,3.572391867637634277e-01
6.980285474332381668e-01,6.183013433172537265e-01,6.069994130475218075e-01,9.926533479941964180e-03,-3.841021075290784910e-03,-5.656466179260827287e-02,1.316198408603668213e-01
6.490106190432102240e-01,5.903498814592811339e-01,6.374133243875396149e-01,-1.267727168313380857e-02,-1.639968245684245152e-02,-1.073568901624136034e-02,6.730547547340393066e-02
7.043979070894856864e-01,6.776683341117203385e-01,5.250059021364665846e-01,-4.947333098126467828e-03,-2.958896971827191559e-03,-1.424763187213933316e-02,1.697338223457336426e-01
6.299591474307207895e-01,6.565836634205468592e-01,6.041459099647648046e-01,-1.209418836891964534e-02,-6.617112478032113540e-03,-7.488657110402747834e-03,5.292315036058425903e-02
6.368338388444714226e-01,6.709303053940720574e-01,5.983092447299570571e-01,-1.255345914557265234e-02,-2.037871743136506625e-02,-1.176242662787018757e-02,7.806391268968582153e-02
6.567909377347352917e-01,6.543629326178994621e-01,5.738703314536983680e-01,-1.962997864981229357e-02,-1.486638001256926876e-02,-1.239038277603481120e-02,9.465722739696502686e-02
6.268542717234361072e-01,6.307655433031443826e-01,6.256184889151866768e-01,6.573897692508290716e-03,9.109965816276708803e-03,-7.564079598967411722e-03,2.391500398516654968e-02
9.282545193726692290e-01,8.649519697656600226e-01,2.574189373513930401e-01,-3.001439508475899423e-02,9.702082247042321389e-03,-2.511206906508579584e-01,7.770017981529235840e-01
6.449621677711774304e-01,6.358178936472690390e-01,6.201153480485930292e-01,9.515337534896254473e-03,2.369392618268500745e-03,-3.801412764973797521e-03,2.838301099836826324e-02
6.472783542506767018e-01,6.216134978576560721e-01,6.293259163971319792e-01,4.056276521212414526e-03,6.224313153374049987e-03,-3.066433108710592097e-03,2.672121860086917877e-02
6.761975157598582031e-01,6.185467555894752500e-01,6.221264885946252710e-01,8.235707253707419753e-03,6.558068078527788669e-03,-1.027457853055901461e-02,6.147565692663192749e-02
6.265858530392829362e-01,6.450607548841243988e-01,6.277332617962997352e-01,3.409029604683275617e-04,-7.723591037524984776e-04,-3.736220838082884074e-03,1.911691948771476746e-02
6.293842743577964249e-01,6.537591695172729755e-01,6.244959460186401135e-01,-1.446737347015463913e-03,-1.720604024914336146e-03,-2.295075408434486038e-03,2.771545574069023132e-02
6.182752717737211023e-01,6.643629716322172474e-01,6.190979575550006331e-01,-6.647307702859035598e-03,-1.219023826815820825e-02,-9.218550937682156582e-03,5.403839424252510071e-02
6.321964749340871492e-01,6.649855393853351115e-01,6.070713263307053742e-01,-1.035292381886180821e-02,-4.423908399854735093e-03,-5.769742967017241903e-03,5.486672744154930115e-02
6.129348887114165478e-01,6.607231679796472523e-01,6.206400011589902066e-01,-1.615515964777060418e-03,-5.093388326945593771e-03,-7.661964623873975325e-03,4.729322344064712524e-02
6.208047021284135436e-01,6.364416643872548018e-01,6.422160644220391568e-01,-2.343404458800572941e-03,-2.659640052713125539e-03,-8.916938819221897905e-03,2.538470923900604248e-02
6.041260180156687865e-01,6.514216614896847224e-01,6.355744077906498868e-01,-5.502705956091205435e-03,-9.567836156213684051e-03,-1.288942998371258621e-02,5.101361870765686035e-02
7.309879405167787336e-01,6.908859410866734496e-01,5.064042944013429359e-01,-1.939095121015282572e-02,-2.608655556239016654e-02,-4.319364208279014711e-02,2.276100963354110718e-01
6.804121244810246161e-01,6.295773257356553909e-01,5.862503406790753324e-01,-3.958823260028500324e-02,-2.599440992076526916e-02,-5.059823016002950452e-02,1.451663821935653687e-01
8.965364123629999682e-01,9.318129915206886382e-01,3.295212549576907457e-01,1.423325844793376770e-03,-1.719755838636513323e-01,4.420895868121366146e-02,6.613237857818603516e-01
9.723569101913808188e-01,8.693325991459620594e-01,4.021933937426657169e-01,-2.525108227859261534e-02,-6.986929295592721190e-02,-2.521796877532920256e-01,6.959177851676940918e-01
7.691320036313628039e-01,6.698754066772742988e-01,4.225336350599970259e-01,8.299556428630047722e-03,-3.033865750387337509e-02,-1.349586813204435298e-01,3.913944363594055176e-01
6.923880966725375341e-01,6.438120532178893685e-01,5.308841469517376899e-01,2.574161240313351841e-03,1.099164249140388355e-03,-3.060932874903595641e-02,1.530759036540985107e-01
9.155368781464950922e-01,7.086807806557477996e-01,5.056921058911728606e-01,2.537489703767083216e-02,3.959592291563428929e-02,-3.430104547780039592e-01,6.968407034873962402e-01
6.788810378318207439e-01,6.925762762315641474e-01,5.375278183106797503e-01,-9.996779336197348514e-03,7.643814388086866106e-03,1.580508248338363675e-02,1.527372002601623535e-01
7.059887010442966737e-01,7.009934427250891220e-01,4.730105330003034347e-01,-1.021223878259729621e-03,1.800286859745088390e-03,4.342978299717730611e-03,2.306716889142990112e-01
7.958297709576328538e-01,7.117291620072802028e-01,5.275506094251863898e-01,-2.158827104546092931e-02,2.003753416028790021e-03,-1.394122694491130576e-01,3.408837318420410156e-01
6.384885567568676645e-01,6.431044969229617880e-01,6.107176091002010088e-01,-1.349671616139472459e-02,-9.164485476977984879e-03,-8.186442623922356859e-03,4.382034391164779663e-02
6.582795476357976572e-01,5.627848304562813597e-01,6.765559024432425961e-01,-1.664086183220760129e-02,-1.533301723148178079e-02,-9.344399286315006187e-03,1.140025183558464050e-01
6.209142595439459678e-01,6.176249909047100140e-01,6.464363984076574310e-01,-1.146031822376440863e-02,-1.088184340405976176e-02,-1.094303662789667189e-02,4.306574538350105286e-02
6.573793999077948147e-01,5.674229700195762005e-01,6.491843650966581114e-01,-3.006790895668552330e-02,-1.872461005417438290e-02,-7.867886707124450291e-03,1.066391244530677795e-01
7.153491614270625076e-01,3.694701387402123949e-01,7.310924725611140929e-01,-8.593954391306131424e-02,-3.998127490095461367e-02,-8.248685752098315616e-02,4.155598580837249756e-01
6.159539824457409551e-01,6.244832947260391398e-01,6.551654251884456714e-01,-9.835726728641093139e-03,-3.177258816570197823e-03,-7.296517413499666559e-03,4.190545156598091125e-02
6.362360539976865681e-01,6.361006599940979278e-01,6.292009499231571157e-01,-4.966125248967552357e-03,-2.373217718602714608e-03,-1.715974164198900672e-03,1.217685919255018234e-02
5.906278700729391540e-01,6.609892051425846349e-01,6.506060198683338847e-01,-6.100374344120483398e-03,-6.513166029181424559e-03,-1.533672469923324198e-02,7.261202484369277954e-02
5.763883208331724850e-01,6.598885240889874604e-01,6.530034127264591204e-01,-1.018606330452873944e-02,-1.303683272121534086e-02,-2.025411042548497936e-02,9.217707067728042603e-02
6.227181503801830775e-01,6.550043398391406368e-01,6.172991964698154588e-01,-7.240603262516489419e-03,-3.359244954266781859e-03,-3.633985240299014794e-03,3.843788057565689087e-02
6.287499720926771341e-01,6.621554581066432243e-01,6.135671046451272037e-01,-2.020272247695532528e-02,-3.039886409104860729e-02,-1.852660886294452483e-02,8.294615894556045532e-02
5.713147251542042282e-01,7.227675071175302390e-01,6.533237736754273772e-01,-1.565565491423779459e-02,-1.310317208040921166e-01,-2.962437150135713293e-02,2.685497701168060303e-01
6.731331711877197588e-01,5.732901036296900177e-01,7.047840071391898720e-01,1.375292557326701914e-01,-2.121649675370992916e-02,7.267851036973188572e-02,2.967664599418640137e-01
5.981687297138833515e-01,6.696865142032231155e-01,6.680688792115336838e-01,4.492242651768923317e-02,-2.817559962606664900e-02,3.242281115207375913e-02,1.288064569234848022e-01
6.589786575521435763e-01,6.770851581873450487e-01,5.748390433898327156e-01,1.944606395890293229e-02,-3.503020185388000529e-02,1.827710381488574162e-02,1.214444115757942200e-01
9.073225209131579039e-01,7.307637087189107206e-01,5.719483481053402318e-01,1.122679206162542492e-01,-1.821376654861886768e-01,2.920334676322421941e-01,6.911011934280395508e-01
6.789316659407934607e-01,6.761826305740692433e-01,5.561499916783498865e-01,9.772811764977245783e-03,-9.034157841343599948e-03,8.442938415931832905e-03,1.244611889123916626e-01
6.588166822527694588e-01,6.394168488848257503e-01,6.143492420446210467e-01,1.331917313347336269e-02,-1.445188525420137808e-02,1.950752980347720406e-02,6.157474219799041748e-02
6.955286116756731474e-01,5.914686102217180386e-01,6.326046142043898479e-01,4.972991983638013445e-03,-5.648855768608427273e-03,2.830049024450844927e-02,1.039842069149017334e-01
6.413276759963829621e-01,6.525888474949055329e-01,6.060793697539350600e-01,1.246786193992855014e-02,-7.426897312259730238e-03,4.143697982846578434e-03,4.949266836047172546e-02
6.352462416909692156e-01,5.169190691958926998e-01,7.578056609818129008e-01,2.075895358784461131e-01,-2.292199821301905971e-01,2.386245413303339225e-01,7.079935669898986816e-01
6.171946366994056632e-01,6.692294321600750218e-01,6.070955476225103897e-01,-6.420564191199853825e-03,-8.335095363324463227e-03,-3.531234530787325399e-03,6.086556240916252136e-02
6.240281786347572357e-01,6.591991383157176365e-01,6.274569105044244255e-01,-6.661388848735323200e-03,-6.258378020649952439e-03,-6.622494355002582489e-03,3.886331617832183838e-02
6.125353076580474232e-01,6.583838896146190223e-01,6.251226733177800421e-01,-3.718758552243653544e-03,-2.805996608060034019e-03,-7.695535871580666890e-03,4.388841986656188965e-02
6.168070725180253566e-01,6.742730324258975338e-01,6.039307216851069748e-01,-4.139996619187802547e-03,-6.852543936207199440e-03,-6.000172124508129298e-03,6.714451313018798828e-02
6.174197459386329134e-01,6.588868327076335962e-01,6.326450765343220040e-01,-1.212741859810411577e-02,-2.146225774571635866e-02,-1.011249162071056230e-02,5.873564258217811584e-02
6.175618795158038798e-01,6.636808675331056229e-01,6.156769704424822631e-01,-7.004173996509889186e-03,-7.475670342811437455e-03,-4.974479159913154300e-03,5.105401575565338135e-02
6.056624040208986592e-01,6.757009231492099310e-01,6.180892187403954630e-01,-4.449344304954296232e-03,-7.826923029938516463e-03,-8.249953493104335983e-03,6.809420883655548096e-02
6.864341969113295638e-01,6.272146167415051377e-01,3.172812263819163037e-01,8.631165578512696446e-02,-1.986533550313437646e-01,2.536487355028628765e-01,6.720650196075439453e-01
9.159367688514291617e-01,3.040230157076371786e-01,7.493407584648191788e-01,8.265704637767774809e-02,-5.992210261637126445e-02,1.284759569151107117e-01,6.172819733619689941e-01
6.782218284093310956e-01,7.624648956872668304e-01,2.794528370873485823e-01,3.678178398485651424e-02,-1.831893834409714927e-01,7.828627514594420356e-02,5.681787729263305664e-01
6.776761182674424511e-01,6.082303140996668800e-01,6.031615041053154380e-01,9.618104756511059242e-03,-9.837260591243544156e-03,1.965239021156664490e-02,8.322805166244506836e-02
8.243363745757253946e-01,2.062599381671291199e-01,6.172249236232917324e-01,4.626944129050970106e-02,-5.103185415699550836e-02,2.571844106358974202e-01,7.138414978981018066e-01
6.842268817952558146e-01,5.988133551765496554e-01,6.002459730755509426e-01,2.467911712643014194e-03,-4.733407134518792720e-04,2.499521686474203211e-02,9.522806853055953979e-02
8.147744035906421267e-01,2.664053306593853754e-01,8.612333662526916456e-01,-7.845563459915850038e-03,4.509222210763202954e-02,2.111702197707935880e-01,6.844025850296020508e-01
5.919071126653276949e-01,6.813227976257740792e-01,6.249228147493252061e-01,1.142317827574440732e-03,-8.394006902309514295e-03,1.714792129118038015e-03,7.973201572895050049e-02
6.777239309354113894e-01,7.038461434108080894e-01,5.198517775360387283e-01,3.601688027473946320e-03,-1.165590304621296792e-02,4.012170373893840167e-03,1.738526523113250732e-01
6.255558849449150971e-01,6.802579669254124051e-01,5.953863656844546881e-01,2.234705725121807676e-03,-7.482494977556885390e-03,9.531953861050133014e-04,7.575304806232452393e-02
5.483207479475158408e-01,7.221770944822787364e-01,6.104492802264203100e-01,6.832404149695606860e-03,-6.925194162799766517e-02,9.841899493845632230e-03,1.951990574598312378e-01
6.505356177617030999e-01,6.566699822514391327e-01,5.852017444923406364e-01,1.578369098140250046e-02,-6.721471161765826992e-03,1.029063562412971429e-02,7.686044275760650635e-02
6.404018234716212232e-01,6.273755380715998475e-01,6.366097002573901653e-01,1.161822790704253316e-02,-1.055703948796853781e-02,1.112227608190755057e-02,3.528576344251632690e-02
5.902320024652685237e-01,6.855524261489887028e-01,6.671893463652860401e-01,5.257042767567363800e-02,-5.616582269209038913e-02,3.414500959059860175e-02,1.700741052627563477e-01
6.169486446011548386e-01,6.611838713943842816e-01,6.111455735744669715e-01,1.691249624153814274e-02,-2.105281755605607069e-02,1.293196482300092327e-02,7.026093453168869019e-02
6.631666318490445633e-01,5.590897435303336938e-01,7.156452898501481918e-01,-4.850186826353380942e-02,4.620519254835041972e-03,-6.839193707474299118e-03,1.622020006179809570e-01
5.550882068785762957e-01,6.757384459944574262e-01,6.567897191220881670e-01,-5.995219442246013664e-03,-2.348635033986512174e-02,-1.489530306278758105e-02,1.227095350623130798e-01
4.775932760543487587e-01,6.942026249877339961e-01,6.863722619452856666e-01,3.283291319485678178e-02,-4.765553114004953544e-02,1.133443486932168148e-02,2.360452413558959961e-01
4.876107027860188126e-01,6.846389906116473467e-01,7.206805604864864323e-01,2.128973414671218520e-02,-6.631144811141553505e-03,1.031148076985461369e-02,2.214294523000717163e-01
7.094250393260326248e-01,6.577254427984866592e-01,5.402915295503762927e-01,1.311375184076823790e-02,9.671303926416846899e-03,-5.897184822017736278e-02,1.837509423494338989e-01
4.371319681826214554e-01,7.308089097585702687e-01,7.715205584403469485e-01,3.168505326126890703e-02,2.424068419360257340e-02,2.657951982639441754e-02,3.267318904399871826e-01
3.042235987395394692e-01,9.653915892011231126e-01,8.947025983565499718e-01,5.159624649835663213e-02,-1.729395659242953798e-01,1.691602773219751110e-02,7.028314471244812012e-01
4.671559655670851630e-01,7.094807073407439768e-01,6.836069185751555422e-01,7.583385695090891741e-03,-4.685786896415356645e-02,1.291343679895526298e-03,2.447149008512496948e-01
5.203494057198009282e-01,6.951475435770589906e-01,6.789059657145662952e-01,-9.711063709857856120e-04,-9.315996942387135341e-03,-2.022478239778378872e-03,1.680911779403686523e-01
3.928197832704541925e-01,8.800369478432785719e-01,7.636775330523545291e-01,5.108207026928927863e-02,-2.509455219910423085e-01,-5.884252521093230603e-02,6.335331201553344727e-01
6.945467065259653960e-01,6.485186829074073289e-01,6.015502503517242694e-01,-3.646077844044812166e-02,-5.107050606879048188e-02,-6.533054726025197545e-02,1.763617694377899170e-01
6.532274409336045196e-01,6.837041453530936508e-01,5.594131566621197704e-01,-9.169842791086037226e-02,-2.660795253124701443e-01,-2.262158952938620182e-01,6.353980898857116699e-01
6.334161609527771963e-01,6.065837431980175554e-01,6.722792612870069906e-01,-2.451770287013191330e-02,-1.502271295281668376e-02,-7.623235045374174811e-03,7.699253410100936890e-02
8.097390172861378410e-01,4.380373781607926342e-01,6.680096545671326824e-01,-2.280637540372043581e-01,-6.799781706293536732e-02,-1.798141412901232694e-01,6.103097796440124512e-01
6.125445545425448612e-01,6.559372272329249132e-01,6.127264478801738301e-01,-1.259778675301655507e-02,-1.081676021000355266e-02,-7.025559122127214388e-03,5.338782072067260742e-02
6.899498894388478298e-01,5.895247679618584868e-01,6.196389131413245766e-01,1.254068497199511446e-02,8.235481663430320454e-03,-3.733734665656490009e-02,1.132491007447242737e-01
6.791749133917441839e-01,6.945546295629948519e-01,5.364751771672137126e-01,-1.140734048505445165e-02,-9.165781000213951701e-03,-9.262403882626838586e-03,1.539292931556701660e-01
6.362529744443375934e-01,5.099371452136050031e-01,6.570885968073466588e-01,-2.507852271897752505e-01,-1.208722519549669250e-01,-1.710511361992416712e-01,5.825007557868957520e-01
6.656056940343035855e-01,5.578247290763922450e-01,6.779163742975591322e-01,-1.593243748518361966e-02,-1.529276791810254069e-02,-9.473454166896776857e-03,1.217683032155036926e-01
6.803419589843040516e-01,5.447732851810397348e-01,6.513232264742697675e-01,1.746740043601842374e-02,1.700504695411259037e-02,-2.463614086123364771e-02,1.374430209398269653e-01
6.322712688585390151e-01,6.171450754931940841e-01,6.508603151683226562e-01,3.754688430263704822e-03,1.027965064871407680e-02,-3.494746684874388502e-03,3.537629544734954834e-02
6.586943969203733484e-01,6.035799520853034617e-01,6.329438011388861529e-01,2.494527232512240653e-03,1.286952077248882699e-02,-3.888091222766641708e-03,5.331377685070037842e-02
6.585721699556904563e-01,5.668087610739256377e-01,7.058386589372974695e-01,5.556060146761301194e-02,2.186352249856559835e-02,-2.686449275103214990e-02,1.668893694877624512e-01
6.631304155876381889e-01,6.194049885697230362e-01,6.182487390182117570e-01,1.003979289811480699e-02,1.030227477968833141e-02,-1.055513716491613026e-02,5.402631685137748718e-02
8.312279600196647023e-01,6.531317077611002997e-01,6.753257882372608600e-01,1.820994091717405283e-01,1.642574150034426805e-01,-2.579195444500729240e-01,6.389426589012145996e-01
7.756774151338563517e-01,6.219716775630430572e-01,6.496921342551882361e-01,-6.921661328573702754e-02,8.392566085321336022e-02,1.459596975778869876e-01,3.457587957382202148e-01
6.614811794838822978e-01,6.196650957255867009e-01,6.220426941137059407e-01,-8.013955702956451418e-03,5.456584196730792681e-03,1.170367675994243286e-03,4.405585676431655884e-02
7.144990315984144358e-01,6.681429713055980768e-01,4.799673668851803798e-01,1.103258653341784162e-02,-1.484304875200257194e-03,8.606299888859271496e-02,2.624391317367553711e-01
6.780460385202276008e-01,5.562645577404790043e-01,7.037477831531419037e-01,-5.538343085743607092e-02,2.761331254066428514e-02,5.205192534475951843e-02,1.955478787422180176e-01
7.025790136440998035e-01,5.420762548950911475e-01,6.568825907393972541e-01,-1.403317899362800832e-02,7.493103599433964361e-03,5.408665843297597031e-02,1.733500063419342041e-01
6.631788162585753321e-01,6.422044675962917948e-01,6.126392722553107850e-01,-1.368542106920765840e-02,1.013487272454148200e-02,2.016120843037294899e-02,6.343167275190353394e-02
5.880422242710995340e-01,6.601755326867259077e-01,6.430853237425062652e-01,-2.150521259579201566e-02,1.949320003802650081e-02,1.544028598196360048e-02,8.663198351860046387e-02
5.773597990572600924e-01,5.889957484029839652e-01,6.684126525294201704e-01,-6.311351924401364943e-02,2.848621466969909061e-02,2.481957923768719418e-02,1.536193639039993286e-01
5.361398095043139467e-01,7.336692626018987973e-01,7.010695360844048096e-01,-2.332284272728569197e-01,2.632774018580539277e-01,5.156256023712307152e-02,6.424552798271179199e-01
3.989037655153579442e-01,8.690784101090767155e-01,7.266211276030882793e-01,-1.058628407002551106e-02,2.186821030752257033e-01,8.626174243903050876e-02,5.835267901420593262e-01
6.479122389187509379e-01,6.949666478229545863e-01,5.609648190956799674e-01,-4.242923038409739805e-03,1.388336380071505775e-02,3.514628625134775218e-03,1.205592751502990723e-01
6.142215139137929825e-01,6.137096505861009410e-01,6.686010599817977518e-01,3.799004500637132584e-04,1.213580445368027524e-03,-2.099145167592779242e-03,5.480239540338516235e-02
4.362255440919316496e-01,5.510204925999943049e-01,7.208264508534072412e-01,2.615950333731138500e-01,1.214033238986084867e-01,-7.655856923574634598e-02,5.732370018959045410e-01
6.371918275441006418e-01,6.462325092524457970e-01,6.206437672752264101e-01,9.532062359659082898e-03,2.622825104708566540e-03,-1.803673717762772823e-03,2.842808328568935394e-02
5.708176783475951144e-01,6.814778445600013779e-01,6.479044323155269680e-01,5.207451814280368053e-03,9.993467424424157947e-03,-1.158779191658420096e-02,1.021831631660461426e-01
6.018165485338878851e-01,6.348806583154615879e-01,6.319805691428798111e-01,-2.523217285174688199e-02,-2.482969126086290168e-02,-1.973081118489990182e-02,7.702726870775222778e-02
6.314549317446102039e-01,6.337882897300913809e-01,6.472099377876066040e-01,-3.922880767198102907e-03,-5.813026979197219619e-03,-7.341333790632363632e-03,2.293750457465648651e-02
6.307971883137921676e-01,6.034302781489753187e-01,6.960849849978478776e-01,-3.054497001699564215e-02,-5.163964502733305560e-03,-1.898780504114028385e-03,9.842748939990997314e-02
5.704363048799163671e-01,6.455228932624035298e-01,6.893405433090875611e-01,-8.979319855335557432e-02,-7.172327219794420727e-02,-6.286031222791670092e-02,2.496467381715774536e-01
6.299127631887792012e-01,6.415923040146811474e-01,6.491686523609282444e-01,-1.238597530474908753e-02,-1.229203626535097481e-02,-1.358986693119625111e-02,4.183149710297584534e-02
5.956648627366055715e-01,6.273971118903970412e-01,6.861090073705085057e-01,-5.949323047721615139e-03,8.580257208744058485e-04,7.584293361955864784e-04,8.016981929540634155e-02
6.929818455469295424e-01,5.015028352939050471e-01,7.184654852469244402e-01,-2.347625774506543334e-02,7.856427040040294893e-03,-1.140095758205580956e-02,2.107646316289901733e-01
6.322168663281048095e-01,6.081196273534654750e-01,6.710379229764121822e-01,-5.786490949732476727e-03,-7.273288138695687896e-03,-2.788499110460148245e-03,5.749531835317611694e-02
6.384852031091932112e-01,6.277401054718877438e-01,6.446266521528722926e-01,-9.253658598490983878e-03,-9.362098251154655354e-03,-1.022128271212871010e-02,3.244111686944961548e-02
6.139784552754923297e-01,6.097420739805633483e-01,6.700899969102792619e-01,-3.425049591301693695e-03,-3.089310861876015061e-03,-2.354193159705092984e-03,5.903061106801033020e-02
6.168832254738250143e-01,6.078043385186410186e-01,6.774359482816689759e-01,-7.467531108030851100e-03,-2.430219470240111129e-03,-3.516511017636884950e-03,6.723776459693908691e-02
6.227421146816025654e-01,6.140866787411458638e-01,6.621965221017587222e-01,5.832981206608394559e-03,-7.123264528137965464e-03,3.370035284208843917e-03,4.755446314811706543e-02
6.397448757322087287e-01,6.346853118718295272e-01,6.090076295185535837e-01,1.328130365290775342e-02,-6.413739980869545207e-03,8.895203111182926545e-03,4.128948599100112915e-02
6.414292153641204530e-01,6.256760626856140428e-01,6.272602861909886141e-01,1.099045244757814246e-02,-1.280657353731752025e-02,1.012712391648801918e-02,3.725299984216690063e-02
6.845840561737460694e-01,6.096019513753635488e-01,6.388970867149538213e-01,1.718777353800617427e-02,-1.422193968167934953e-02,2.636643507921042004e-02,8.867088705301284790e-02
8.769486161608482933e-01,7.915153340283548333e-01,3.784057146532769922e-01,1.005979675895177505e-01,-1.172619401938726075e-01,1.507870020663976407e-01,5.941992998123168945e-01
7.275773135979033412e-01,7.012620987218165514e-01,4.426464529871692033e-01,1.395454333870271846e-02,-4.563079840170666812e-02,5.912046654155352077e-02,3.028142154216766357e-01
7.895012665428382537e-01,3.589497290503915750e-01,7.598193832422752703e-01,7.207514963483228898e-02,-6.673943616846977032e-03,9.323611669295107929e-02,4.639753103256225586e-01
7.257839141390735049e-01,6.574342519494131842e-01,5.210747101178750951e-01,1.685234326360449814e-02,-2.292477358382294383e-02,8.822758390081428259e-02,2.415919899940490723e-01
4.649524291511669682e-01,7.067508193561924390e-01,5.061941984176292486e-01,-1.246344080822886363e-01,-2.886334020810595313e-01,-1.156389919956675449e-01,6.219655871391296387e-01
3.951246830771426022e-01,7.588700963144084932e-01,5.399201225896935741e-01,1.532315751147346645e-02,-2.572106870129822753e-01,6.254316324968704939e-03,5.476326346397399902e-01
6.345918266859650325e-01,6.755074952062998239e-01,6.039576832279710539e-01,1.809575187610330815e-02,-2.688592572387622087e-02,1.716425887879787643e-02,8.888600766658782959e-02
6.633005889866780969e-01,6.289635728591406183e-01,6.684646984395017366e-01,9.425880060401101157e-02,-3.911100872119454425e-02,9.337767361989189607e-02,2.424548715353012085e-01
5.660090823355800049e-01,6.863797910930407031e-01,6.500699921561355898e-01,9.566853082114329171e-04,-1.133594142873539656e-02,6.648899384507470783e-03,1.093515083193778992e-01
5.689202624774937211e-01,6.841615970187411300e-01,6.479636851442999168e-01,-1.076433687642901205e-02,-7.487589432198588774e-03,-9.916267538680991617e-03,1.059724539518356323e-01
5.789855860903417861e-01,6.856845975092578094e-01,6.335511562875915104e-01,-6.410379833316631748e-03,-1.189242908191622504e-02,-9.934070490471512069e-03,9.686905890703201294e-02
5.748035582532960985e-01,6.878500176221697959e-01,6.233077591440405740e-01,-1.236463664761914411e-02,-6.367644571086697458e-02,-2.004893318217416259e-02,1.532237976789474487e-01
6.083730259969071241e-01,6.506789744898284766e-01,6.592696512834147482e-01,-3.190762859574836074e-02,-2.295516598676305281e-02,-2.141111600933975553e-02,9.076038002967834473e-02
6.887608428335919575e-01,6.616453636467485300e-01,5.917696065487361157e-01,-1.570889453103259392e-02,-2.256370149967264899e-02,-3.078607251277523660e-02,1.123548075556755066e-01
5.483763541784421047e-01,7.029263876329305827e-01,6.618530896650055562e-01,-9.398306604260360866e-03,-2.162216555994333350e-02,-8.183857292004211720e-03,1.452353745698928833e-01
5.909471119963792818e-01,8.215799737141643577e-01,5.657186263244472491e-01,-2.668499231204641831e-01,-2.571401602712995449e-01,-1.450217697762788971e-01,7.312525510787963867e-01
6.021511259631405766e-01,6.099480770375658167e-01,7.517365642602198417e-01,-2.296178392782203537e-01,-1.613370691043060634e-01,-2.652293561447694459e-01,6.845232844352722168e-01
5.383980123642657656e-01,6.832243903570761612e-01,6.502748554246812196e-01,-2.490090681442536091e-02,-4.705358329580868609e-02,-1.961862028064953467e-02,1.641503721475601196e-01
5.806982760165624313e-01,7.732871471505572414e-01,3.550599564159195309e-01,-2.308041829585776028e-02,-2.431470643254850239e-01,-4.397303706088109831e-02,5.623335838317871094e-01
6.427342159800286669e-01,6.197576623434742915e-01,6.240338201256476758e-01,-2.791870020300754249e-03,-3.849106494624954418e-03,-4.317247027187964305e-03,2.391030080616474152e-02
6.413783830175145972e-01,6.278265451759152960e-01,6.265488858026351249e-01,-1.845362887356337194e-03,-1.061007688865562345e-03,1.883443382633685423e-03,1.506103388965129852e-02
6.526874498909044364e-01,6.283118835199604790e-01,6.275380936953249833e-01,-3.099518077995350521e-03,-3.978163090450306805e-03,2.393315863846867426e-06,2.626646123826503754e-02
6.507650836040738129e-01,6.369503964854881239e-01,6.220280402689691845e-01,-8.791415625396183098e-03,-4.691959845858824710e-03,-2.997330742923825196e-03,3.073324635624885559e-02
6.413584492230954837e-01,6.416264706919191374e-01,6.148452021327193151e-01,-1.469212440754412430e-02,-1.799122535149871860e-02,-1.210352542701022098e-02,5.261410772800445557e-02
6.251494010922862277e-01,6.389090856821768583e-01,6.382142876414927946e-01,-1.872732181150132263e-02,-1.505677595299534377e-02,-1.204965546441605535e-02,4.845710843801498413e-02
7.074593424613804249e-01,6.790032378086710008e-01,4.778491537159123004e-01,6.470578952465843442e-03,9.043814600269046988e-03,-3.349324316611096419e-02,2.252402007579803467e-01
6.412491045819621593e-01,6.283745938526554831e-01,6.331386760423963755e-01,-1.978368522099629035e-03,-3.756056068029110795e-03,6.314456673382018524e-04,1.350467093288898468e-02
6.205793887417867527e-01,6.092668198484122444e-01,6.703202426071985798e-01,-6.185834443840469883e-03,6.360179007786305114e-03,2.834173102867790835e-03,5.852410197257995605e-02
6.305559382809706737e-01,6.118903262026033074e-01,6.646951064503814344e-01,-3.690039746350510033e-03,-9.245974446948778888e-03,-2.962811755574622057e-03,4.974700510501861572e-02
6.777747959626542196e-01,5.316710078204959222e-01,6.953323879201083191e-01,-1.203373201347155037e-02,-1.794733200925263585e-03,-3.463967593204774886e-03,1.571620404720306396e-01
5.102354498776400238e-01,4.387643863416493817e-01,7.958005296055024047e-01,-3.216479442967334901e-01,-4.343036492826867628e-02,1.849683961961702972e-03,6.504661440849304199e-01
6.661910041677413519e-01,5.466874918475603806e-01,6.924927774686400195e-01,-3.067922747331042546e-02,3.284377966281339881e-03,6.506516371744235604e-03,1.452550739049911499e-01
7.077955863817819715e-01,5.393826342053608114e-01,6.634806723312313137e-01,-9.078422080091972171e-03,5.332532408688324572e-03,-3.059701116049273056e-02,1.612594872713088989e-01
6.274410977973921000e-01,5.977042707476747374e-01,6.804339557836410757e-01,-5.568978988252876704e-03,3.931486079664900206e-03,1.496659747247265377e-03,7.358323037624359131e-02
6.709239172528578266e-01,5.104341346972534055e-01,7.613503421962038997e-01,-7.206409670343652540e-02,-1.426948794437620481e-02,-3.050261330845701474e-02,2.596694231033325195e-01
7.723736227493462891e-01,7.599861954348566817e-01,5.690195780966177397e-01,-1.688926074040204006e-01,1.331534760292678587e-01,2.176432569734501887e-01,5.655587911605834961e-01
7.078323324259115923e-01,6.924715990766749929e-01,4.995644943685025874e-01,7.534526425345884973e-03,7.582090147567543785e-03,-1.826768247511745269e-02,2.043433189392089844e-01
6.328743313952909233e-01,6.854472237371085352e-01,5.831383092788707811e-01,-6.589674993401078637e-03,8.428089804941210628e-03,4.282186857037108274e-03,9.083352237939834595e-02
7.033714884849811000e-01,6.579822843430152002e-01,5.061468376833117011e-01,-3.414061571473549217e-02,6.329278202203218739e-02,9.421073327211075543e-02,2.723004519939422607e-01
6.647632524005772092e-01,6.957773545425283146e-01,5.564280996339644458e-01,-2.607598641176141728e-03,5.345778158409969505e-02,1.530682285562303194e-02,1.592318862676620483e-01
4.112585759401145569e-01,8.297539423122347602e-01,7.177974924949509505e-01,-2.585915408621916045e-01,-1.644256070114602508e-01,-7.353862793273387155e-02,6.623890399932861328e-01
6.476757588698544010e-01,6.788640074830467608e-01,5.364621339525268429e-01,-1.314348284653208722e-02,-2.807647190285135833e-02,-7.756653104496850047e-03,1.409728676080703735e-01
6.484956346470411859e-01,6.933469994663804536e-01,5.346684953888642955e-01,-6.840482930738144701e-03,-2.965000206685965839e-02,-3.963055152101178057e-03,1.513222604990005493e-01
5.442316118932482016e-01,6.970080752604216334e-01,6.059092409370175902e-01,1.471338767165636342e-03,-7.138786015919129646e-02,2.628835901775264643e-03,1.817630231380462646e-01
5.014829168918594204e-01,6.889026653646559417e-01,7.117320794270806106e-01,-4.831535332619370238e-02,-1.269399093120818396e-02,2.150310422298331615e-03,2.177761048078536987e-01
6.244030491305289088e-01,6.853988973300477738e-01,5.952808342187497770e-01,-2.924971046869913067e-03,-5.494326461707211423e-03,9.922119786087944815e-04,8.039971441030502319e-02
6.619363146568316703e-01,6.198484794045822088e-01,6.421842037169919193e-01,-1.211807673613684265e-02,-1.406323604666635113e-02,-1.677054704826599560e-02,5.663770064711570740e-02
5.191950655175859852e-01,7.826585536676001764e-01,6.688601336831437871e-01,-4.159238208751665777e-02,-1.141873464857334208e-01,7.827154384482936170e-03,3.112413585186004639e-01
7.297080253847041398e-01,6.948631959896938159e-01,4.661433952665532954e-01,-4.932180908649355829e-03,-5.500888693912920485e-02,-1.348941484907305866e-01,3.538881540298461914e-01
5.565420480532671244e-01,6.753772512346287726e-01,6.772444309343614854e-01,-6.697323408000677332e-03,9.097178126692868905e-03,8.845634296040941549e-03,1.223305091261863708e-01
5.202574426305877076e-01,7.396190498590754503e-01,6.841191466636118435e-01,-2.025644539762803120e-01,1.863171000667109278e-01,2.099592801153923605e-01,6.312789916992187500e-01
2.625553492003386280e-01,7.469420170694764938e-01,7.861905595588511986e-01,-1.882321316787512189e-01,-8.088292367501845326e-03,1.108652807361744895e-02,6.016987562179565430e-01
5.421887589861325019e-01,6.947852624030546043e-01,6.477319263835041863e-01,-5.032080866623426206e-03,2.974621394597170773e-02,3.426958079964957313e-03,1.452075839042663574e-01
5.675079613925373412e-01,6.504105414836238719e-01,6.793511341017988148e-01,-1.032136982701574272e-02,7.038095449791875909e-03,1.287884911139616784e-02,1.052398979663848877e-01
3.027487890680149452e-01,9.989893947103873906e-01,9.757919823284734173e-01,7.422639340621023374e-02,1.168793349660837561e-01,-3.615619450867850471e-02,7.284030318260192871e-01
5.372157153544783181e-01,7.173367084532802362e-01,6.757030354267774541e-01,9.682844795569729712e-02,-7.633904165372545902e-02,4.134927291964644869e-02,2.782396674156188965e-01
5.365223418817607337e-01,5.548487425139301266e-01,7.230929090953620575e-01,-1.297108842830176634e-01,1.517465176027883549e-02,1.550359026147777805e-02,2.891572117805480957e-01
6.968915139858805619e-01,5.315810926578531381e-01,6.596534137574612267e-01,3.109508879474206979e-03,-6.565219349673436650e-03,2.616112939535191265e-02,1.573845446109771729e-01
6.132193525621260077e-01,6.254772617683141966e-01,6.805962917735723927e-01,-3.090631441978848246e-02,-2.199995728538167022e-02,-2.354735366455099066e-02,9.922216087579727173e-02
6.414649834090665470e-01,5.974813917873780245e-01,6.560833833194970044e-01,-1.711734904878507713e-02,-1.329783120720615802e-02,-1.158407671240031106e-02,6.784765422344207764e-02
7.694235610142025061e-01,5.019458337599498332e-01,7.752930401023692131e-01,-8.626300043100458559e-02,-1.298882929722585539e-02,-6.237892872947903983e-02,3.281038999557495117e-01
6.697670998594276170e-01,5.546134018646108332e-01,8.009987298975935754e-01,-1.377506506405761222e-01,-1.060881582430427475e-02,-3.179627082745795086e-02,3.254078924655914307e-01
6.510719638891664385e-01,5.870486755278916391e-01,6.558984051393298431e-01,-7.504781301665645020e-03,-1.576402863135589402e-02,-1.030297446198112296e-02,7.526096701622009277e-02
8.579245196935396667e-01,3.363456332846246899e-01,7.695913972846273321e-01,-5.185142273182901523e-02,6.979159021592400147e-02,-2.038735505848320861e-01,6.173703670501708984e-01
7.371748246524890691e-01,6.806912783017573521e-01,6.475168611844671629e-01,-9.852971459269346810e-02,-9.337529711652742259e-02,-1.285790251378013116e-01,3.332320451736450195e-01
6.593877352962462801e-01,5.683801448800742673e-01,6.543809054666200886e-01,-3.783648627020447935e-02,-1.771328920373955659e-02,-3.522298955271827708e-02,1.296527981758117676e-01
7.541537250215550880e-01,3.278882601376866268e-01,7.846330450847347482e-01,-7.963184460775582507e-02,-2.667005662264166754e-03,-1.195695163584671039e-01,5.075028538703918457e-01
6.100868094274112252e-01,6.242063586769266426e-01,6.811197556636627848e-01,-1.074085085020415158e-02,-4.750384390838554953e-03,-6.515763655744617397e-03,6.916104257106781006e-02
5.454355552669680751e-01,6.461767991717147774e-01,6.854675659312762237e-01,1.161179327228715856e-02,4.834890300194948434e-03,-2.092248208026135491e-03,1.270374953746795654e-01
6.327971117092040521e-01,5.828171423052399547e-01,6.846888857245694293e-01,3.395911137978563366e-02,-8.593225270631592132e-04,-2.413481445348104187e-03,1.061303764581680298e-01
4.835102133838871108e-01,7.581905715300331083e-01,9.204221472689664285e-01,3.140193197229463329e-01,8.935416044842529881e-02,-4.883322469747074235e-02,6.879398226737976074e-01
6.229314861842484286e-01,5.762046579065018825e-01,6.795039490870027343e-01,1.683161188401886138e-02,-6.859011240981231425e-03,3.919646406777149011e-03,9.520730376243591309e-02
6.263346669710122550e-01,6.810843307822334047e-01,6.022419780282854962e-01,-5.654031679141250516e-03,3.594596350900376280e-03,1.665729221401008979e-03,7.099325209856033325e-02
5.810183840059937044e-01,6.700608587864457233e-01,6.265329317215373450e-01,4.115386756353751722e-03,1.447181394542746725e-02,-1.083064173461371037e-02,8.353697508573532104e-02
6.391358389937522588e-01,6.773356778586374638e-01,5.946130380722760567e-01,1.135336596003159830e-02,2.851329273038625059e-02,-7.706921552239514792e-03,9.025619924068450928e-02
7.175400779942467944e-01,4.265633892705735786e-01,7.215272372346409613e-01,3.581240834194313050e-02,3.765312255853378674e-03,1.456149942548774952e-02,3.006155788898468018e-01
3.584924582643370661e-01,7.497251932473480984e-01,5.129930027641613766e-01,1.360239428804379536e-01,3.186656568797470723e-01,-1.077020240441163013e-01,7.151488661766052246e-01
7.121914009957120983e-01,5.499166079879439506e-01,6.614478567094416173e-01,-8.073983862853640822e-03,-8.341668223866998723e-04,5.758685169623092154e-02,1.755562871694564819e-01
7.077822752792031213e-01,7.326461041046260503e-01,5.881880404079811164e-01,5.975703811453647596e-02,1.336583735230660319e-01,-9.896082135718914374e-02,3.340369462966918945e-01
6.598920806030504904e-01,5.651880236019853898e-01,6.943472962229471079e-01,-5.468926132491659653e-02,1.050806542537371761e-02,1.111179972282057456e-02,1.519654244184494019e-01
6.237582628386041383e-01,5.979733207389607008e-01,6.845012574367678182e-01,-3.781750686401762641e-03,-1.578248606124316514e-03,-8.167332325973916934e-04,7.728653401136398315e-02
6.470911393639497966e-01,5.752780921340108211e-01,6.782157596668495492e-01,-1.067293345231830337e-02,-1.266941892937017110e-02,-7.098294750008536831e-03,9.662009775638580322e-02
5.747928179715124930e-01,6.259246966963368797e-01,6.938785144373984526e-01,-1.658287964444695589e-02,-3.326571462678718210e-04,3.794979577077255313e-03,1.075886115431785583e-01
5.134604212862954320e-01,6.571639931643268318e-01,6.887112666691203033e-01,-4.698698734681190647e-02,2.694602337629892902e-02,1.148998949125066768e-02,1.880878955125808716e-01
5.819171755418917069e-01,6.323362143089784615e-01,6.845882515636700916e-01,-1.768202469205806815e-02,-5.617296701352116062e-03,-1.355103992430616196e-02,9.741852432489395142e-02
5.959073383488848741e-01,5.194874682680091782e-01,6.693965648202520047e-01,-1.014462073877525211e-01,-5.380194162811784836e-02,-6.470553317983873676e-02,2.626310288906097412e-01
6.967553908186403522e-01,4.878957957645627674e-01,6.875311369250305393e-01,2.987203107142120603e-02,-9.141756546936127478e-03,4.642977849625781056e-02,2.262205630540847778e-01
5.958632880702984247e-01,6.347922955515140631e-01,6.981944789025419373e-01,-3.037733069345274761e-02,-1.764386806035165645e-03,-2.049623979241440522e-03,1.038931086659431458e-01
6.712854639533119006e-01,5.878660341460655303e-01,6.283873539285731447e-01,-4.922279733386197148e-03,1.176310046342081590e-02,1.169624587823636826e-02,7.822223007678985596e-02
7.736223258510086520e-01,4.532872473373637523e-01,7.424156032878397315e-01,-4.464994215856125936e-02,6.806124579604127915e-03,5.992397860035034857e-02,3.323917686939239502e-01
6.856128124507704369e-01,6.245877691450357760e-01,6.103336492910038658e-01,-6.077551199696680506e-02,-6.352246001774422557e-02,-1.406377378147392887e-01,2.955000996589660645e-01
6.811718144195698654e-01,5.214317986512346792e-01,6.860190930203725612e-01,-1.196075940390945065e-02,1.268617542608005411e-02,1.414932178149148380e-02,1.668151021003723145e-01
6.791003710809262461e-01,5.411106452492734364e-01,6.478348683880187364e-01,1.784968412763016793e-02,-1.924898882988483606e-02,2.659166677455781364e-02,1.410430222749710083e-01
6.592676955792209359e-01,5.872803433132937068e-01,6.541438715286154171e-01,-1.172432554281586936e-02,1.345033081543306648e-02,9.088351907168052204e-03,7.773345708847045898e-02
6.595660420389479750e-01,6.526834362885443053e-01,5.985625241381290484e-01,-1.726308266905871719e-02,-2.833981064529850213e-02,-3.509861671790950877e-02,1.017258688807487488e-01
6.497473158088518108e-01,6.771363587887219149e-01,5.696594314319887165e-01,1.407846940638206833e-02,-1.160206612602891242e-02,8.542033960497855821e-03,1.028352677822113037e-01
5.748170541052158855e-01,6.936398003594522743e-01,6.311642612104019223e-01,2.233800453383318931e-03,-2.508045413162382498e-02,8.484302873837014022e-03,1.127675920724868774e-01
6.536028907558308898e-01,6.766072660750950263e-01,5.603803198593935164e-01,-1.313741905582863079e-02,-1.720985315287788114e-02,-6.804459721334058138e-03,1.136194989085197449e-01
6.482844926708413169e-01,6.930248897452984114e-01,5.314300457633340802e-01,-6.959778160099542796e-03,-2.908483196096795301e-02,-6.042768857670165368e-03,1.538746953010559082e-01
6.413532992304992186e-01,6.290689919711157652e-01,6.335904167396920750e-01,1.327446116847421850e-03,3.113369508662515699e-03,4.009551614185794975e-04,1.227406878024339676e-02
9.224835147013639158e-01,2.828382172251229232e-01,8.234704230341673981e-01,-1.612728190148206564e-01,3.644252048874253164e-02,-1.041594696570656425e-01,6.856930255889892578e-01
4.676635005972496484e-01,7.166668487764571438e-01,7.124529455973322989e-01,-1.341655682702520141e-02,-7.139819125910534976e-03,-4.236944814954949311e-03,2.484309673309326172e-01
6.174685610351917653e-01,6.075250160647474029e-01,6.760821332790803995e-01,-6.552000878177253670e-03,-5.947861511966363000e-03,-2.553940492195900126e-03,6.611911207437515259e-02
5.788913124706587254e-01,6.249310037128906758e-01,6.825209243703332929e-01,-1.680570286414692638e-02,-1.009246689199698281e-02,-1.023645553106255525e-02,9.774915874004364014e-02
6.132028794470129052e-01,5.739365150630750811e-01,6.975501525925855706e-01,-9.092186706836490051e-02,7.156461646490490185e-05,-2.662673950686183372e-03,1.918071061372756958e-01
6.214666609679694309e-01,6.144660406532502783e-01,6.690197474941028677e-01,-2.805101841361035478e-03,1.833736938701239876e-03,1.568541525529877113e-03,5.181004106998443604e-02
5.308139729402414630e-01,7.058041147135960536e-01,6.599499092338136919e-01,-1.033547148051434765e-02,4.306542491918002175e-02,6.867125700539031263e-03,1.752882003784179688e-01
4.208431451844727444e-01,7.369716325278253821e-01,7.531236184733322014e-01,-3.422447973520481579e-02,-1.579884864658557750e-02,2.226510118954687367e-02,3.332479000091552734e-01
6.018627206763428328e-01,6.325942783166627059e-01,6.873217189163821628e-01,-3.319951423466107471e-02,-5.705896482605497463e-03,2.832658381514178373e-03,9.513016045093536377e-02
6.404137400311554762e-01,6.331740365372737767e-01,6.268274516207575919e-01,-4.660620854786278085e-03,1.792667666812703753e-03,1.459327011412017445e-03,1.482679601758718491e-02
5.567115086535110446e-01,7.468816051193056804e-01,7.239581590863884974e-01,-9.805350762819846355e-02,1.086914631409409276e-01,3.906051947720719925e-02,3.181083798408508301e-01
6.968837236840612626e-01,5.642947684307160205e-01,6.461768617929676273e-01,8.761043705988045193e-04,8.597313926441688863e-04,-9.099825628484665974e-03,1.169648990035057068e-01
6.264287890601663022e-01,6.964910204232261925e-01,5.734245692109698478e-01,-1.798546457197153442e-04,-1.757809921143056037e-02,-8.684758738174542213e-04,1.111804246902465820e-01
7.100894141534614956e-01,6.053296413723749936e-01,6.134043764436216684e-01,6.783726719921627860e-03,-8.823212618792333761e-03,-6.405046902585741220e-02,1.512378752231597900e-01
6.889394707654958872e-01,5.079870698626449688e-01,6.921401496024157662e-01,-1.998147691814688987e-02,-1.700846014520553812e-02,-1.728902475120935173e-02,1.905139386653900146e-01
6.916571694219014743e-01,4.803152101475234304e-01,6.893601894882354086e-01,-5.317733196020003189e-02,-1.545058759469308124e-02,-4.134274587708208770e-02,2.418937087059020996e-01
6.910017447406515689e-01,6.046082793835261260e-01,6.096450660930693433e-01,-5.577407099442968988e-03,-1.146484931822500108e-02,-3.781531260696630731e-02,1.087736114859580994e-01
6.169979574309907289e-01,6.368192915000894239e-01,6.412233180241386776e-01,2.788868830819492099e-03,-2.960769788794730736e-03,8.256428394561185491e-03,2.745381742715835571e-02
6.309171032806916157e-01,6.230206706536848271e-01,6.478834894103728814e-01,2.586890429376810258e-03,-7.413966109651213589e-03,3.226506366823527795e-03,2.646495029330253601e-02
6.400715453095339180e-01,6.275638503010477764e-01,6.272763718349281259e-01,1.351174231327656591e-03,-3.992935542091017448e-03,8.186495932748611652e-04,1.467783842235803604e-02
6.478121918393939804e-01,6.257433588072495168e-01,6.277647983125254072e-01,2.954253465854907168e-03,-4.187946755490192657e-03,8.902070822249397034e-04,2.297141216695308685e-02
6.537950084245649496e-01,6.233319261452676674e-01,6.162064206049655546e-01,8.085963537174976207e-03,-3.142326366665203815e-03,7.866227616104755696e-03,4.009040817618370056e-02
6.448865136222616812e-01,6.366157563151454424e-01,6.220149300320377828e-01,9.325568261669536091e-03,-4.598854229240109844e-03,3.737700019394059325e-03,2.772377431392669678e-02
6.665570183730712417e-01,5.610369955811068676e-01,6.950842827693269887e-01,4.849006873293790210e-02,-5.783887418436470078e-03,2.457801491411547648e-02,1.546768695116043091e-01
6.600440024314703225e-01,5.745235861402655519e-01,6.656301375482107652e-01,1.507940339708395069e-02,-1.641580296787992915e-02,1.864675313834620110e-02,1.017663031816482544e-01
6.187358841118190123e-01,6.599785024710390635e-01,6.162053366580735325e-01,1.231087846822796587e-02,-1.565762767629049618e-02,1.171156108602865002e-02,5.842399224638938904e-02
6.561667303060474410e-01,5.664419190985244823e-01,6.949920895413981281e-01,-1.560432656203370252e-02,-7.258224137408983033e-04,1.384315569489793975e-03,1.173855289816856384e-01
6.370314271593856548e-01,6.601912179471665088e-01,5.947185140143336213e-01,-1.573504070660822901e-02,9.191654153075717523e-03,7.622909782792877155e-03,6.691245734691619873e-02
6.554904669624018743e-01,6.301417077210418327e-01,6.178176626967555318e-01,-3.987650785846694190e-02,3.682281159204276594e-02,5.723103101722498004e-02,1.406100243330001831e-01
5.674666191516538616e-01,6.882137045287529675e-01,6.559054131286954359e-01,-3.239823605381038363e-02,4.690954043496511211e-02,1.288384638533307709e-02,1.482261270284652710e-01
6.895693268291900324e-01,4.589632707472890427e-01,7.166923927240063108e-01,-6.675538665615544931e-02,1.011131054414644414e-03,2.290178985998619042e-03,2.712143063545227051e-01
7.035037122449181446e-01,5.297497012260934390e-01,7.144553879687063347e-01,-2.282330468135989610e-01,9.242673812139616529e-02,2.658455530171544012e-01,6.527893543243408203e-01
6.926534559691295279e-01,5.317316613067589737e-01,6.542970848324134447e-01,-3.316846489940000059e-02,1.468301320968336092e-02,4.535374220484632984e-02,1.769541203975677490e-01
6.295572049333314490e-01,6.400916644989275150e-01,6.272985915716838834e-01,1.579047587301477722e-03,-1.319652678147231230e-03,4.002568230751443745e-03,1.416459400206804276e-02
6.301641733682954438e-01,6.418840290208001065e-01,6.326670329890309308e-01,1.576463181480827497e-03,-1.317495637366822422e-03,1.012654185843852878e-03,1.140287984162569046e-02
6.335595995687467452e-01,6.401067947739406128e-01,6.299452099725985077e-01,3.167827503382326070e-03,6.634383603963707595e-04,9.839781813656331682e-04,1.067352667450904846e-02
6.252119343676972862e-01,6.317890236326926257e-01,6.399661837608751069e-01,9.547897024939986776e-04,-1.732807141836988822e-03,4.252774957000448469e-03,1.516268402338027954e-02
6.623761405275118141e-01,6.246241238552469044e-01,6.402856763211511870e-01,9.160210786541174433e-03,-1.453994060501513121e-02,1.900371351483700483e-02,5.521435663104057312e-02
6.286017924608792162e-01,6.272647633623060770e-01,6.398747508017389451e-01,1.425423986798874700e-03,-1.726447360792113944e-03,4.242630012733896241e-03,1.459371764212846756e-02
6.393317914868604790e-01,6.185443173151619067e-01,6.639527132371367824e-01,2.183925270074541305e-02,-1.459287539742882590e-02,1.588798147956494225e-02,6.615976244211196899e-02
6.239644393550816126e-01,6.497251611748279254e-01,6.259642217814472831e-01,8.260538556456857584e-03,-6.458836895440061426e-03,7.341273571455026251e-03,3.328122943639755249e-02
6.874730472588258534e-01,5.989526441382695410e-01,6.405616569778269653e-01,1.173572394494198923e-02,1.523284436501243580e-02,-2.970879524294828614e-02,9.818891435861587524e-02
6.470175374144527813e-01,7.169571333478237385e-01,3.717008311258751529e-01,1.186815353720008237e-01,2.394618460237647461e-01,-1.877578991707404832e-01,6.480642557144165039e-01
5.951998048619905335e-01,7.082197363604053608e-01,6.658398414913586638e-01,1.241584795704836902e-01,1.508547791205926414e-01,-7.807582790176165188e-02,3.776039779186248779e-01
6.734991273171394566e-01,9.077243525786813372e-01,3.667526909128063783e-01,-1.510590309032888157e-01,2.740865907217827635e-01,1.188512098543910434e-01,7.463285326957702637e-01
6.700059659507852095e-01,6.668306591406869543e-01,5.966889773515879902e-01,2.187325526316218072e-02,2.638629200373783512e-02,-3.050644286664531621e-02,1.070916205644607544e-01
9.006982111032265648e-01,5.755716934599877099e-01,7.079382104324634106e-01,1.468095501521935742e-01,9.714566831961074511e-02,-2.802151816575782495e-01,6.393159627914428711e-01
6.564871200558761721e-01,6.755960255345351273e-01,5.696853964664905234e-01,2.423343360366919316e-02,9.511215703119763748e-03,-2.273311405427858381e-02,1.146382391452789307e-01
6.156901410474345804e-01,6.122682536438203149e-01,6.765738083851060569e-01,1.885295892214255541e-03,-3.015772310515495592e-03,1.182494320489083919e-03,6.300007551908493042e-02
6.090695589750683148e-01,6.318301978371897443e-01,6.592947289542053779e-01,3.231539931144962203e-03,-3.367474611292503670e-03,9.448614847657323818e-03,4.722959548234939575e-02
6.147154450664716885e-01,6.212034990608898966e-01,6.688847231950438843e-01,3.003157449957774387e-03,-1.660694774607708374e-03,1.781746004104164342e-03,5.167017132043838501e-02
6.211443470477658879e-01,6.185077755814396561e-01,6.624610110409742125e-01,1.712870419697557758e-03,-4.196648619451415381e-03,2.002951013076709197e-03,4.355026409029960632e-02
6.143833507032772090e-01,6.567231031393976348e-01,6.343413167963922739e-01,1.703427719608646349e-02,1.516642038588665933e-02,-1.371230713161667066e-02,5.891181901097297668e-02
6.103366348104354300e-01,6.200758813521332069e-01,6.699705938690563300e-01,5.725617512285721342e-03,-3.176591963082764456e-03,6.817008029197519671e-03,5.777808651328086853e-02
6.274838521945785841e-01,5.828819795403274995e-01,6.724849162256140156e-01,1.396218317813916095e-02,-1.054621421769262428e-02,4.679517418346615387e-03,8.370032161474227905e-02
6.947478500702628512e-01,6.508070925784708027e-01,5.593834492797107316e-01,-1.833685136207917170e-03,-6.147378500202856783e-04,-9.892968495398392695e-03,1.208765059709548950e-01
6.884442472500186261e-01,5.115899033812106866e-01,7.365698927620696335e-01,-1.349137077429343190e-01,-1.560906633471211835e-01,-2.809435225279498516e-01,6.376445293426513672e-01
6.822808961904409664e-01,5.040098502346372911e-01,4.712323126532408368e-01,-1.551764416647105349e-01,-1.685838955647241399e-01,-2.545671082704611954e-01,6.249898076057434082e-01
6.904439773873316533e-01,6.827943904099523786e-01,4.981246443966679815e-01,1.991373739955404950e-03,-4.663365238258740039e-03,9.466796889070712429e-03,1.895259320735931396e-01
6.909878375896906233e-01,6.444217702116817881e-01,5.359410100995304349e-01,1.093593453806533666e-02,-5.404623388337781963e-03,3.013129366805080908e-02,1.488559544086456299e-01
6.159913550901559010e-01,5.917722823328459558e-01,7.627300526713183260e-01,-1.508223326140571696e-01,-5.484669882713459794e-03,-4.635838448902831338e-02,3.169421851634979248e-01
6.740550850832556229e-01,6.746091343921640782e-01,3.640868450760506025e-01,-8.972370897017285796e-02,1.867363320681356409e-01,1.660260117540595659e-01,5.547149181365966797e-01
7.681191831249309931e-01,8.539212979721954033e-01,2.947435724737095253e-01,-9.519807695742514564e-02,5.756134412542315143e-02,1.766634444099875745e-01,6.346817612648010254e-01
7.119139409083592440e-01,6.912761836934956383e-01,4.982165878264727676e-01,-4.190518424482691032e-03,-1.391747007149844902e-02,-4.718051820010224495e-02,2.213459163904190063e-01
7.725782508473513222e-01,7.896320312159672561e-01,2.080492840218756689e-01,-6.273621232868427725e-03,8.280942662463589010e-02,-7.141999020556857869e-02,6.038243770599365234e-01
7.334318166577865616e-01,2.238224323794058002e-01,7.782398728701800383e-01,1.534484615918237371e-01,1.625957232917040612e-02,-2.998859969930545502e-02,5.988943576812744141e-01
5.954635030265841289e-01,6.988287996161224314e-01,6.347180333359314641e-01,-9.842440004883627400e-03,-3.367176569397535568e-02,-8.584055819061070861e-03,1.099126413464546204e-01
6.945751843349405874e-01,6.952040681581944659e-01,5.403175553866992331e-01,3.454287637544824013e-04,-6.719982377156585689e-03,2.847237304276015180e-02,1.626673936843872070e-01
6.810243500225432456e-01,6.969177832510147219e-01,5.323821864105983126e-01,-3.754936256866870092e-05,-7.359102167697726543e-03,7.336732138471594757e-03,1.582197397947311401e-01
6.557424456196203622e-01,7.136006202611753224e-01,3.487088034820946536e-01,-1.183000375719176489e-01,-2.362482810689222334e-01,-1.906123539419616042e-01,6.586389541625976562e-01
7.249413272122088303e-01,9.593479173012404715e-01,5.579710368904324813e-01,-9.320767094713884593e-02,-2.809095427430209346e-01,-1.064865599308362915e-01,6.471291780471801758e-01
4.344799227938149766e-01,7.371419084216177531e-01,5.071104431327275730e-01,-8.531577772204380905e-02,-2.882039929408639067e-01,-1.088764853008613032e-01,6.176408529281616211e-01
6.881991011533556968e-01,6.592299033088039328e-01,6.014308964355090659e-01,-3.937255456093094463e-02,-5.280049225774612054e-02,-6.579485304247556510e-02,1.784810572862625122e-01
6.520492538488473766e-01,6.954336452995739659e-01,5.601793574970903578e-01,1.023912867990248990e-03,-1.279088818335966625e-02,3.804066515043585950e-03,1.218416243791580200e-01
7.009499960566130117e-01,6.864070935902627513e-01,5.016199776611246497e-01,-8.531991187552242020e-03,-6.158325226499472907e-03,-2.336220180825743925e-02,1.975212693214416504e-01
8.013878665095326426e-01,8.042533890302434596e-01,2.991691170928757471e-01,-3.114758018922667016e-02,-5.365975746390684760e-03,5.278195192629442367e-02,5.148064494132995605e-01
8.369479538650618222e-01,7.019596044464541107e-01,3.853923172682681142e-01,-1.403688006436637770e-01,1.651663022952328808e-01,1.639242504815868196e-01,6.186541914939880371e-01
7.818133745427885417e-01,6.184621236023274404e-01,4.031171304423278867e-01,6.369030127733568691e-02,-6.054343359897702836e-02,2.704099301288576673e-01,5.922536849975585938e-01
6.893876970314596342e-01,6.632861028185423891e-01,4.645848583554562650e-01,-2.682384069958927350e-02,6.065187953930476633e-02,7.353822513453069087e-02,2.734374105930328369e-01
7.465887711139291838e-01,4.431898334243781767e-01,7.540293954276370281e-01,1.466236749439133943e-02,-2.293471575755279615e-02,3.733026033246576031e-02,3.174387514591217041e-01
7.027772441722566210e-01,6.960618669815186177e-01,4.091536919719669374e-01,-2.804929001877922790e-04,2.897932719258667494e-02,4.228053642852581950e-02,3.035962283611297607e-01
7.788363081227053231e-01,6.362988725087139752e-01,5.809374316805779870e-01,-2.937076944477827814e-02,1.717247894343723880e-01,2.962696538752873643e-01,6.210122108459472656e-01
6.669919809677622435e-01,3.655503593326631662e-01,1.050211225289144901e+00,-2.478004063601738360e-01,9.719228482068548169e-03,-2.177276574445692961e-02,7.342771291732788086e-01
6.421289624852073441e-01,7.815126578603019958e-01,3.501083526482122732e-01,8.679934988568986654e-02,-1.789619261025464925e-01,1.483401049913325165e-01,5.745481848716735840e-01
6.695847501060822049e-01,6.197267949414925203e-01,6.194094774294514050e-01,3.090561603802329665e-02,-4.555195619717979788e-02,4.022660268104434611e-02,1.282446533441543579e-01
6.975219785829450680e-01,5.762371482864760974e-01,6.723494960542802934e-01,2.991530173348997193e-02,-2.346587548159658615e-02,4.481947339646405459e-02,1.505114585161209106e-01
5.810025340044577824e-01,6.734736848804694365e-01,6.515665031186729239e-01,1.010145428811870874e-02,7.605807814050435586e-03,-1.782402515415359642e-02,9.185753762722015381e-02
5.819117042522510275e-01,6.714515774168972051e-01,6.298906055153594696e-01,4.553748988436316127e-03,1.999702396457019374e-02,-1.340768454561015038e-02,8.845614641904830933e-02
4.956363364495375290e-01,6.914032524007893699e-01,7.026242204894648236e-01,2.058217059909965216e-02,6.042105638007346478e-03,-6.603879265443326173e-03,2.053254097700119019e-01
6.231562198265414576e-01,6.441654697708180111e-01,6.309891241630168901e-01,4.604402000925105973e-03,5.131685756194707092e-03,-5.951661356635395278e-03,2.422912418842315674e-02
5.981861013582081554e-01,6.746820622968392467e-01,6.376730570087503214e-01,1.569986708588586716e-02,1.103583152308768196e-02,-2.061675895555993218e-02,8.228145539760589600e-02
6.637900697977971998e-01,6.916413313798128737e-01,5.465973023201375902e-01,8.678543854597441792e-03,2.332481437570190289e-02,-1.352392429277414314e-02,1.420583873987197876e-01
3.078115841424708399e-01,7.530288788650471021e-01,7.926823650693446410e-01,-1.020205184968111939e-01,9.132216440372242783e-02,2.989239286834679404e-02,5.257087349891662598e-01
6.117629383227285444e-01,6.878383219066225296e-01,6.058372991938286711e-01,-2.669925457029979476e-03,1.098484669012706090e-02,-2.606956836901932421e-03,8.171381056308746338e-02
6.620384294100210010e-01,6.936736078119849491e-01,5.458865389873898133e-01,4.486711527121241619e-03,2.444303105212445454e-02,-9.932505472407428607e-03,1.425316631793975830e-01
5.179750160192063690e-01,6.838846724898888230e-01,6.358883671441629692e-01,-5.883462038410069983e-02,8.199586284428064809e-02,4.032902168288148709e-02,2.393750250339508057e-01
6.380049511718368649e-01,6.080016725366403918e-01,6.379630787311771911e-01,1.069631861395090207e-02,1.236467962980554100e-02,-7.145531215195812663e-03,4.305819049477577209e-02
7.164967117482704539e-01,5.534061232306161093e-01,6.545711565254461739e-01,2.321776228739894921e-01,-1.937906720590354959e-01,1.308601013519740952e-01,5.882948040962219238e-01
6.477564180198046584e-01,5.656256176288931847e-01,6.858580325019791868e-01,9.120686583302617390e-03,-1.690698542381368578e-03,1.492056854165376518e-03,1.076630502939224243e-01
6.157614722505776461e-01,7.274590437846848445e-01,4.405552366865955749e-01,5.799045607054321289e-02,-2.382919183789638795e-01,9.920316528263779798e-02,5.222119092941284180e-01
6.229015671968405332e-01,5.914705941858663385e-01,7.136661198607856527e-01,7.287544849419705373e-02,-2.344871797512055808e-02,2.445628197263851472e-02,1.773563623428344727e-01
6.323112612164876190e-01,5.119812303809495591e-01,6.097437291517048275e-01,1.587041276494756403e-01,-1.429235019481701618e-01,1.805016768601825639e-01,4.968480765819549561e-01
6.493541989824853644e-01,5.615658702038457406e-01,6.636733195076165437e-01,7.355744962496929551e-02,-5.071486241513738918e-02,6.246474243815282323e-02,2.117132395505905151e-01
6.505712240066356955e-01,4.809722856341771546e-01,6.967939790714857695e-01,9.430638459047821498e-02,-5.554020796704994822e-02,7.982129520069759787e-02,3.062502443790435791e-01
5.893987505794988646e-01,6.215770955829722499e-01,7.559064506203205802e-01,1.700619010948249132e-01,-4.525743304184356997e-02,6.199304437438301479e-02,3.575466275215148926e-01
6.199728563267844494e-01,6.175367553338364512e-01,6.549207086919428544e-01,1.309158035472905886e-02,1.272473125818143237e-02,-1.478053921871347320e-02,5.447698011994361877e-02
6.580282855638498463e-01,6.506223924802126968e-01,5.878966789924340297e-01,-1.483178017676656246e-02,-1.055163012805378740e-02,-6.627434937890943484e-03,7.469689846038818359e-02
6.517563347288655162e-01,6.408760763532668214e-01,6.004767130484953697e-01,-2.409975301314484092e-02,-4.841301982578422036e-02,-4.523594738715135122e-02,1.307775676250457764e-01
6.913055206340327219e-01,4.985709897464676299e-01,7.402841525724515037e-01,5.627038924494598415e-02,1.655366659158417214e-02,-3.359618415049651224e-02,2.503849565982818604e-01
7.638228973771055141e-01,5.808713341409534880e-01,5.560141029104018751e-01,-2.174707648848179520e-01,-2.023246683892429010e-01,-2.032208193694859666e-01,6.536201834678649902e-01
6.933627738034915389e-01,6.128401653320968423e-01,6.193818449291809136e-01,3.626411744810373924e-03,-9.637561241293333785e-05,-4.624041528884922231e-02,1.115972176194190979e-01
6.941622860584067967e-01,6.344334857245833570e-01,5.842138663728554393e-01,-2.606734205456308958e-03,-6.044859425002263933e-03,-2.271826884095032653e-02,1.037663891911506653e-01
7.166861285339963805e-01,6.900173728257756878e-01,4.806868269326410870e-01,-5.306939049335227671e-02,-1.404468624900691576e-01,-8.150475313972684044e-02,3.710353076457977295e-01
6.376368079246045317e-01,7.195070207087193026e-01,5.887788246036196327e-01,-8.866401639593904371e-02,-9.996154447871882787e-02,-9.535534122893905840e-02,3.064777851104736328e-01
7.012271594654078122e-01,7.606053798162252244e-01,4.866372922019231995e-01,-1.623005581526404395e-01,-1.297014483321582701e-01,-2.953581647028928336e-01,6.734372377395629883e-01
6.422675414996668053e-01,7.050237516338355714e-01,5.680619196000262772e-01,-1.810343525549328036e-02,6.669326408688192043e-02,2.165646910659207655e-02,1.727306097745895386e-01
6.010165532041985559e-01,6.929181724968376255e-01,4.801781645444702651e-01,1.554160079113055259e-01,2.224881765293742486e-01,-1.760421033700600157e-01,5.899922847747802734e-01
6.518240838694012718e-01,6.921775113685950664e-01,5.745902641838702696e-01,-1.121901002547914111e-02,8.752444214206411138e-03,6.587953592218685241e-03,1.069940626621246338e-01
5.915388675083113057e-01,6.791275963245853031e-01,6.228900877374176082e-01,-2.234991873792086404e-03,4.093091855119924613e-03,2.425603431405143080e-03,7.740521430969238281e-02
7.755323668030534856e-01,8.740966231878942727e-01,3.138133905568535886e-01,-8.662069949730603902e-02,2.109209018745621389e-01,-3.223849761534779840e-02,6.538337469100952148e-01
6.730227736519516224e-01,7.838848484263934990e-01,3.085017070435423503e-01,5.610403339197790433e-03,2.165217090608347050e-01,-3.735662179739782096e-02,5.748943686485290527e-01
7.187737159581496504e-01,4.932394021025994779e-01,7.126457005877698814e-01,2.231526090179108621e-02,-4.789684752353639240e-03,9.574624556503395778e-03,2.266251444816589355e-01
6.385029399752710777e-01,7.825394103356313469e-01,5.157055246330147780e-01,2.132328059809208420e-01,1.583085255060620589e-01,-2.240326597083035221e-01,6.447281241416931152e-01
4.049573117878961792e-01,8.546749581434218701e-01,4.951076825480764665e-01,6.779500574973747196e-02,3.460275107837231245e-01,-6.737484202765842145e-02,7.459507584571838379e-01
6.600273333374028217e-01,6.081676997775053994e-01,6.323618285528782579e-01,-2.324868299920451655e-03,-1.028007254978204402e-02,-4.534061408652874381e-03,4.914271831512451172e-02
6.774561468766150396e-01,6.127026856041475344e-01,6.147350444590876650e-01,-4.044422410009193905e-03,-5.854596503911654697e-03,-1.326483739313007691e-02,6.888619065284729004e-02
6.935099636006587520e-01,6.478951591915804720e-01,5.255062283937186329e-01,3.029445498641572011e-03,4.753332004276361253e-03,-3.531179004892175816e-02,1.627224385738372803e-01
6.805492092414904270e-01,6.151442640119690886e-01,6.112194803263618637e-01,-6.443129383869466986e-02,-6.813023355482253351e-02,-6.304276220424000210e-02,2.070083171129226685e-01
6.801224386663626831e-01,6.025441328293442700e-01,6.130431059917965664e-01,1.607144608464033952e-03,-2.524710930384998966e-03,9.472408309225879147e-03,7.490113377571105957e-02
6.845179461531474274e-01,6.151541496673204046e-01,6.016723332607496477e-01,-3.640492868554498669e-03,1.175164747228166521e-03,9.097560607188658055e-03,7.886979728937149048e-02
6.800691103194630438e-01,6.135347948288690789e-01,6.103159862581259976e-01,-1.063359032076421212e-03,6.181274312157433422e-04,2.341574630027671005e-03,6.835440546274185181e-02
6.812349418284648905e-01,6.027260676274756035e-01,6.132156613169655879e-01,-4.393560112277446585e-04,1.307367637965413170e-03,9.302522762392939279e-03,7.560070604085922241e-02
6.756138867495561362e-01,6.130836214479910007e-01,6.159448315206430546e-01,-1.233151347243171972e-03,2.768279024277811758e-03,1.756244617754392249e-03,6.145009025931358337e-02
6.991268113828078556e-01,6.624508291386365100e-01,5.246592573934335535e-01,5.549045500271595696e-03,-1.011685727100830601e-02,4.668198319125758944e-02,1.797841340303421021e-01
6.871199929551536911e-01,6.279646687935324101e-01,5.941882434869443230e-01,5.869202089814694323e-03,-1.564597186432110454e-03,6.272580172210640535e-03,8.286722749471664429e-02
6.774233742278450432e-01,6.158930630976073850e-01,6.103094609593474607e-01,-1.176931603438846402e-03,3.157082105157648071e-04,2.615083095645122716e-03,6.469688564538955688e-02
6.789556455445934224e-01,5.319272692862575536e-01,6.946083354749588157e-01,8.138399116770280231e-03,-7.720449864280770104e-03,1.223088731329227859e-02,1.580823808908462524e-01
6.857163925761167178e-01,5.720340072347734894e-01,6.225968933683303508e-01,-4.795243148425149047e-04,4.678887154639600233e-03,1.810607648587369070e-02,1.038365885615348816e-01
6.871856465951058368e-01,6.933777419837936495e-01,6.375132899774623718e-01,8.477422952580450366e-02,-9.380397739050547190e-02,1.010763729303506692e-01,2.853421270847320557e-01
6.545237019225840225e-01,6.285080500935915637e-01,7.022919409669370339e-01,1.070837479389252916e-01,-8.828100539590121032e-02,9.161420315473829679e-02,2.952324748039245605e-01
7.318326884929190479e-01,5.556757986283364925e-01,6.612074393815393636e-01,2.477875221098651583e-03,1.130190188359082122e-03,5.053102758023252788e-02,1.768062710762023926e-01
6.661504587180573367e-01,5.876596947093213341e-01,6.513016321277464993e-01,1.204496138633043452e-02,-1.360619047553670441e-02,7.156834256844763278e-03,7.975012063980102539e-02
6.281173166622049386e-01,5.976200998720444524e-01,6.811134641548344248e-01,-2.968907327290613851e-02,-3.193548055777815139e-03,-8.673916476597123143e-03,9.085998684167861938e-02
5.616120877376111764e-01,6.480163076470155659e-01,6.935031373772224672e-01,-1.046860862833631084e-02,1.120434331703924757e-03,3.888325116031818903e-04,1.174648478627204895e-01
4.197056170692196053e-01,5.895454572170433227e-01,6.947463620375525784e-01,-2.325060433840208662e-01,1.554754110199044470e-01,1.102929506035410512e-01,5.735579133033752441e-01
6.136916742937498226e-01,6.573445687225557554e-01,6.143237049261723870e-01,-1.179532751255783947e-02,-1.601247335327094998e-02,-1.160579923270180225e-02,5.889868736267089844e-02
6.363457638387984838e-01,7.511538196746543328e-01,5.426349616135710541e-01,-2.398805731979810618e-01,-1.815356976533217259e-01,-1.796814095707324199e-01,6.333019137382507324e-01
6.728348078289161371e-01,6.150702527326302738e-01,6.177289878502185694e-01,-4.092079575621442727e-02,-2.431045467086878631e-02,-4.599137287300819610e-02,1.277981996536254883e-01
6.089466238499082751e-01,6.330728507272062044e-01,6.343641592501075843e-01,-9.242398755776062153e-03,-9.237322434534858684e-03,-1.495518339975871955e-02,4.240423813462257385e-02
7.079308528056993399e-01,6.626362439871161802e-01,6.018807750774179954e-01,-2.345337929737265764e-02,-3.347403305632227349e-02,-6.781142562655437245e-02,1.652319878339767456e-01
6.631252730827683628e-01,6.268737801370567464e-01,6.140826028468316933e-01,-7.012095145700971560e-03,-9.893452361784004292e-03,-1.375415653876336207e-02,5.431541427969932556e-02
7.280381327905722788e-01,5.017686923003281674e-01,6.703069625745967652e-01,-3.912169081263611875e-02,-5.611765958620278799e-02,-9.941471065914418703e-02,2.918165624141693115e-01
4.926320690165248983e-01,6.269782123242341187e-01,8.018054792314261991e-01,2.097273041256078330e-01,1.542999029040318104e-01,-1.098496630733303697e-01,5.582863688468933105e-01
6.599084644407736677e-01,7.024473932842546509e-01,5.248544174022540254e-01,9.777524092128053734e-02,1.103004492136991366e-01,-9.730361959045419340e-02,3.455094099044799805e-01
4.625799161799372117e-01,8.242443400041032930e-01,7.288471901170182621e-01,6.108032047075515752e-02,2.704077482295553225e-01,-9.405134450836280524e-02,6.020718216896057129e-01
7.095811755513378172e-01,6.395637206236967076e-01,5.164328829748942029e-01,1.831611326905044704e-02,2.483978418596033064e-02,-7.714798170410865075e-02,2.222563177347183228e-01
7.138143981081322975e-01,4.859732793371386861e-01,7.066050343179305360e-01,1.134916351407403920e-02,-1.410409857994607491e-03,1.759259646058222368e-02,2.272484004497528076e-01
5.624401094552853309e-01,7.273089336004832095e-01,6.723012893508917287e-01,-1.190946186305314076e-03,5.026607389066647946e-02,-1.677022428313122021e-04,1.694783121347427368e-01
6.581725130165464455e-01,6.248143170325867191e-01,6.272571391870882529e-01,7.960323161578188381e-03,5.919848638661085946e-03,-5.700203673598448761e-03,3.781480714678764343e-02
6.375250185630016997e-01,6.460089300523669253e-01,6.696025730537950027e-01,1.239925992679195427e-01,1.204804337978390566e-01,-1.109216615062377925e-01,3.569436073303222656e-01
5.951498646126965886e-01,6.503876884482338028e-01,6.386193245309109701e-01,1.124188676914612481e-02,1.191867315708567028e-02,-1.612653710327981507e-02,6.422735005617141724e-02
5.606963149723188655e-01,6.547130470430446714e-01,7.057318120282477514e-01,1.424813900525008781e-01,2.525081089663756134e-02,-3.532521047291603544e-02,2.877463102340698242e-01
4.192936248383510311e-01,7.871302947911736902e-01,8.275492176695833368e-01,7.276118800473344028e-02,9.325668433227764925e-03,1.182776214958030335e-02,4.103269875049591064e-01
5.768186556352170591e-01,6.512705083530978545e-01,6.579588917995460307e-01,1.112408551871305919e-02,1.427437685627587147e-02,-2.192564731004012502e-02,9.225229918956756592e-02
6.186732528762991512e-01,6.390631250252135631e-01,6.476181236530603735e-01,1.685632263715687237e-02,1.334978199264018339e-02,-1.648007855373046643e-02,5.352761968970298767e-02
7.032961412414191482e-01,4.925299373636962685e-01,7.019430334190817078e-01,5.838640199373760532e-03,-6.198518754504516240e-03,6.409723327376264101e-03,2.109023928642272949e-01
6.199907385597022147e-01,6.693349901789688028e-01,6.159265207201581882e-01,-1.866082368759998692e-03,2.590648996863115575e-03,2.107336229281725135e-03,5.192131176590919495e-02
5.911201328292190471e-01,6.866349539295282245e-01,6.260959795893861202e-01,-5.289693004136962300e-03,3.982254858571759176e-02,2.199776367843282818e-03,1.089111790060997009e-01
6.221312493385187103e-01,6.540920001686755247e-01,6.217596595808270177e-01,-1.328071906942872695e-03,-5.120975705429613861e-04,1.884001601978553542e-03,3.240725770592689514e-02
6.128814860521202279e-01,6.701934474134696451e-01,6.153547297625762136e-01,-4.498531606937542816e-03,2.328637895878942366e-03,2.164853063667618056e-03,5.692160502076148987e-02
6.591755081006477335e-01,6.172173537353019546e-01,6.376408500868626650e-01,-8.554526526279833398e-02,6.754496936909043514e-02,1.440060358308830057e-01,3.149203658103942871e-01
6.811324822511060084e-01,6.288471110865605507e-01,5.826353090143006064e-01,1.079311765418986858e-02,2.750785206322993361e-03,-1.268249216461165597e-02,9.022307395935058594e-02
6.525581159692087629e-01,6.370108349763029532e-01,6.041288710953298668e-01,1.223737862693433966e-02,4.828571578445603300e-03,-8.096624057556839685e-03,5.049790441989898682e-02
6.427681079951351739e-01,6.721233197411280447e-01,5.947363178387022886e-01,1.296748458362826512e-02,1.765150592934716309e-02,-3.838968555664954048e-03,7.785994559526443481e-02
6.717200295498243490e-01,6.281554969896825380e-01,5.810769564406202958e-01,1.268271103973644953e-02,5.377640282334145150e-03,-1.361453657802333926e-02,8.538495004177093506e-02
6.711715877165238542e-01,5.904190225637275802e-01,6.385157525241226262e-01,2.433334673460050418e-02,9.332031532026023243e-03,-2.809249790737639724e-02,9.672382473945617676e-02
6.576618585511141424e-01,6.109776768034246297e-01,6.306753850899401437e-01,1.722683431212831962e-03,9.708685521850423869e-03,-3.654409746074168980e-03,4.449251666665077209e-02
4.892066811466231901e-01,7.818361469626835536e-01,7.192022677225036187e-01,3.010467766929263503e-02,-2.982163572726780898e-01,1.011510849461305650e-01,6.094579100608825684e-01
6.829110340450661454e-01,6.549968930796346012e-01,6.393522719350703820e-01,7.904884982683696437e-02,-9.452486020650997800e-02,1.044431743776569194e-01,2.823770642280578613e-01
6.386185559960251279e-01,6.659252819846869231e-01,6.179803330026476527e-01,1.143752528861461878e-02,-1.897570378254900478e-02,1.303085112646274260e-02,6.096923723816871643e-02
6.280465209294351370e-01,7.861333889994475133e-01,5.677018461920521064e-01,1.301540454793341690e-02,-1.560341144016605119e-01,8.809016734819256900e-03,3.345946371555328369e-01
6.745551163802576689e-01,6.880969284940235964e-01,5.799775055245040001e-01,2.672782588467569401e-02,-4.098120223546453111e-02,2.677938133248886424e-02,1.405061185359954834e-01
6.628947967935227004e-01,6.696935560834942347e-01,5.731170529680555958e-01,1.659002423135069737e-02,-1.939032595911681367e-02,1.706808793489082363e-02,1.074441447854042053e-01
6.663930718616041249e-01,6.493111391369021934e-01,5.856232183390019941e-01,1.689847949309603720e-02,-1.810327269428823466e-02,6.208716074136430910e-03,8.597303181886672974e-02
6.266782544809065270e-01,6.832061799427240345e-01,5.809342549568170533e-01,-2.775538223538262256e-03,-1.713131850754338534e-02,-2.688373410318612832e-03,9.380283951759338379e-02
6.008705197704207190e-01,6.845884465438528688e-01,6.404788563939115553e-01,-1.715806232873880177e-02,-2.786923635448796885e-02,-9.709653096019427165e-03,9.358256310224533081e-02
5.881942100666669448e-01,6.727021577109280059e-01,6.325761445617736900e-01,-6.720547181093101952e-02,-6.941293765081293921e-02,-2.477102711967526030e-02,1.876318901777267456e-01
5.309968637019394366e-01,6.917846300702876761e-01,6.761822461991744415e-01,-1.735215010486114429e-02,9.685569773828318907e-03,9.789723810492692233e-03,1.583025753498077393e-01
6.168453835660150375e-01,6.713986885655087722e-01,6.109206821867311232e-01,-5.687282346288284607e-03,-1.088087520389748042e-02,-4.720284165746300303e-03,6.207605451345443726e-02
6.500031750065442537e-01,6.539453675810340538e-01,5.854621549661531699e-01,-1.708560728215273439e-02,-8.165078926017872718e-03,-1.376820870750784277e-02,7.797414809465408325e-02
6.642282963632686332e-01,6.775671807816839864e-01,5.578028886657138141e-01,-1.489893637726622672e-02,-1.376624134603704475e-02,-6.760736660563261904e-03,1.195636838674545288e-01
5.082308728006903475e-01,7.107012241289693000e-01,6.825816476688048029e-01,5.989580668853963959e-03,1.049147106814663465e-02,7.704716665457231328e-05,1.911267340183258057e-01
5.150947896345678956e-01,6.911576643809573817e-01,6.526338991251396937e-01,3.040004114591162310e-03,4.933438282585320828e-02,-1.094406234336165948e-03,1.817486584186553955e-01
5.734175256696499856e-01,6.923591683935204077e-01,6.515288466021508240e-01,5.851083691448898116e-03,9.289942896548327583e-03,-8.421622228837778723e-03,1.073880344629287720e-01
4.952473164883134382e-01,7.141632678533533785e-01,6.685819870454740022e-01,-1.161626106856521005e-02,6.578537572560468061e-02,1.453975667648165458e-02,2.324769943952560425e-01
3.851439444874977802e-01,8.317943651350582224e-01,6.535765816401447603e-01,-1.360294660785692396e-02,2.337807079599877880e-01,-5.546411377748560953e-03,5.623742341995239258e-01
5.756346534649876556e-01,6.517215291279476741e-01,6.756206369935880973e-01,1.065990147773758848e-02,1.022159073157212841e-02,-1.438640667720139654e-02,9.723187983036041260e-02
5.678338200871427821e-01,6.949692518517038842e-01,6.506614792046065965e-01,2.393796634568507668e-03,5.447130829310525141e-02,-1.512728864201331016e-03,1.463520973920822144e-01
1.874984543059762809e-01,7.718628547347489155e-01,7.742907722626413136e-01,-3.215015879645743979e-02,3.105295696951706000e-02,3.226699140113049608e-03,5.907042026519775391e-01
6.167074356486231812e-01,6.534186140681272903e-01,6.378911622771507028e-01,2.784193565613406716e-03,2.383159100991594139e-03,-1.133574885403878726e-02,3.800753131508827209e-02
7.538654044818905442e-01,8.871718893014348684e-01,1.843816904160726078e-01,1.121527108991522276e-01,2.226741388225394747e-01,-3.590290247076262375e-02,7.799687385559082031e-01
5.276678920683571805e-01,6.956848950705928347e-01,6.964338477539436800e-01,1.997433249132619243e-02,4.494940844501819216e-02,-2.187936555350928833e-02,1.924850642681121826e-01
7.299849595625891308e-01,4.748898218361652379e-01,4.321228290330814681e-01,-1.049051829724724355e-01,-1.196754689915832948e-01,-2.879162288935082081e-01,6.344141960144042969e-01
7.298143974265152156e-01,6.442648015825329644e-01,6.435430818183218715e-01,-8.601396500142982626e-02,-1.001635956343832901e-01,-1.204723034171308327e-01,3.212711811065673828e-01
6.906578558446470062e-01,6.190640369823752209e-01,5.510530888161268015e-01,-6.561378835917583939e-03,-8.505506406179030865e-03,-4.729297596781503049e-02,1.472290456295013428e-01
8.606224138065722284e-01,6.810653762273420897e-01,3.688052154682954775e-01,-1.159223180835398936e-01,-2.036383273770243085e-01,-1.997125108337297617e-01,6.857044100761413574e-01
4.350592486349449950e-01,7.057938406081263327e-01,7.277784474645330182e-01,-3.944068877777073823e-02,5.745107280236521480e-02,1.412394130644877704e-02,3.080577552318572998e-01
6.003721788616496191e-01,6.347153313233452332e-01,6.522081125795585743e-01,9.679924712673447507e-03,-5.392995730511620199e-03,1.302104938394326068e-02,5.443533882498741150e-02
6.022688585405444606e-01,6.254923563663055130e-01,6.623143642443848345e-01,6.625131083478724703e-02,-6.239469227968230669e-02,5.748197290379557928e-02,1.936746239662170410e-01
5.664962292991821968e-01,6.837555825833931955e-01,6.164724882082540658e-01,1.047346710859762111e-03,-2.210900707345581084e-02,1.338628878210749258e-03,1.089141368865966797e-01
6.183644367654793639e-01,6.424728355511221123e-01,6.893255497759520622e-01,5.623616573536531493e-02,-4.526509298435850426e-02,3.017280090066275233e-02,1.492361724376678467e-01
6.005821780792076625e-01,6.847021817179036463e-01,6.222461591703313255e-01,2.449527468580452519e-02,7.761570493504577062e-02,-2.639533620307229350e-02,1.663908660411834717e-01
7.676739509925705196e-01,7.818694187121884021e-01,4.648068918919270320e-01,1.781828165756739815e-02,9.693545126233196751e-02,-8.872227940798796397e-02,3.859872519969940186e-01
5.658450813736237706e-01,6.773677806446880556e-01,5.882687406936436547e-01,5.968365719400681169e-02,1.146893296517509375e-01,-5.183257408814975070e-02,2.620049118995666504e-01
6.347700692372337805e-01,6.295469889619071946e-01,6.331367774868318365e-01,-5.112328340017743313e-03,-5.820961902457678395e-03,-4.686438156270258254e-03,1.635126955807209015e-02
5.291511483888118317e-01,6.802056295331739832e-01,6.677052802876317639e-01,6.828632114882815518e-02,-1.191809425509201548e-01,3.356487326687353223e-02,2.847220301628112793e-01
5.353812594480574782e-01,6.774891308204711304e-01,6.917547314506137246e-01,8.641503124425627819e-03,-1.150597196016117131e-02,1.044865383281710740e-02,1.528859734535217285e-01
6.338114561917020939e-01,5.843558408405882254e-01,6.941811485552160654e-01,3.342323114083784602e-02,-2.083807387033251822e-03,8.711889769035744812e-05,1.115363836288452148e-01
6.503386773509701735e-01,6.115309168594216249e-01,7.163859733409274622e-01,2.992198434779459459e-01,1.419940617460478116e-01,-8.000118256946121831e-02,5.972574949264526367e-01
4.751577602929835109e-01,6.973759590632686578e-01,6.907680639755610086e-01,-5.462429818922910629e-02,5.549643150096114641e-02,1.353550297563018215e-02,2.582572996616363525e-01
5.034490142610077434e-01,6.851178998961997557e-01,7.020841521345071445e-01,1.916795948178838527e-02,-7.727164580482667917e-03,9.250928156454008011e-03,1.947094649076461792e-01
6.390205976903391427e-01,5.731542865018640631e-01,8.920279716910461953e-01,3.240358008891177088e-01,1.339282665270165595e-01,-1.305676333592631078e-01,7.106106281280517578e-01
3.847280027849523387e-01,7.783338996234959728e-01,6.847072699359068038e-01,9.391719807395383646e-02,2.248945518592134762e-01,-5.195803232853076631e-02,5.595824122428894043e-01
4.914782089242905605e-01,7.696621960943295093e-01,6.817481629459893888e-01,1.185351004211648331e-02,1.373942819157438766e-01,6.461918090684783123e-03,3.432743549346923828e-01
6.806509839486306612e-01,4.321521619293852146e-01,5.529234266390210539e-01,-1.357181312153771802e-01,1.266591902596771735e-01,2.346915940657497701e-01,5.612059831619262695e-01
6.451289129192876448e-01,6.342503846105953524e-01,6.195920222611559502e-01,-1.816265989125250002e-02,1.275121913418225846e-02,1.478962872357481723e-02,5.124742165207862854e-02
6.657536450953719376e-01,7.111233167191117754e-01,6.116380783107512320e-01,-2.365270097017895257e-01,1.238790799347336269e-01,2.262073115496490705e-01,6.122291088104248047e-01
8.489374664258424463e-01,5.937125471510403818e-01,5.537753535548276540e-01,-3.389561777151347405e-02,1.696786679748419346e-01,2.692127273052571934e-01,6.198173165321350098e-01
6.821816869581652787e-01,5.795701425800074968e-01,6.564716682521990476e-01,-2.478664087044615133e-02,1.558182171688831524e-02,3.928774029012267743e-02,1.255152672529220581e-01
6.363620382855035285e-01,5.429759379093063165e-01,6.762415184634443799e-01,-3.351835318765711280e-02,2.288744044065404992e-02,1.970230111964818218e-02,1.419225633144378662e-01
5.616885835538130145e-01,7.760438760278313142e-01,6.741315181211051666e-01,-4.075545321056777553e-02,1.255887963820637165e-01,2.486231070637121704e-02,2.977313101291656494e-01
6.284497590808745260e-01,6.098768830486747117e-01,6.707792000878280980e-01,-2.999739726222001857e-02,2.081085684656391183e-02,1.808568324615805398e-02,8.889879286289215088e-02
5.852703517626105523e-01,7.912954168745821582e-01,6.787251434586855092e-01,-5.147935183089189654e-02,1.293286957878454491e-01,3.792112864988361753e-02,3.071941435337066650e-01
4.106385440603687043e-01,7.719283162936154685e-01,5.198250500965257981e-01,-9.410752378508493998e-02,2.708136669176397504e-01,7.132450716005292457e-02,6.040318012237548828e-01
7.170646447895678843e-01,7.051711649056154885e-01,4.877485481372768050e-01,5.736633637455977423e-03,-6.113838757435069654e-04,4.691393631619040355e-03,2.239773124456405640e-01
6.217949052340293603e-01,6.657550326282909436e-01,6.158427873769107830e-01,9.910117561372475820e-03,1.316195403858393641e-02,-1.106696773045643019e-02,5.840678140521049500e-02
6.545871280950130711e-01,6.503556226126256945e-01,5.850244060728105877e-01,1.803286422778569917e-02,1.529940015069854338e-02,-1.014851821028133795e-02,8.092754334211349487e-02
5.727369786452318756e-01,6.967819892905010581e-01,6.611629106063726669e-01,-2.554815412083867587e-02,5.056969415118107297e-02,2.143501055948483780e-02,1.524660587310791016e-01
7.244169221025560379e-01,5.589098624194782650e-01,6.038036810910869523e-01,9.443311900937806369e-03,-4.396542509052282777e-03,-7.560796593742934169e-02,1.986278146505355835e-01
5.546776406121102232e-01,7.076093198111806926e-01,6.703173629354990393e-01,-1.393233492918455330e-02,5.519726961280987942e-02,4.596654716149727558e-03,1.698870211839675903e-01
7.039118667300077181e-01,6.887579043340594787e-01,4.869141535023241429e-01,3.902947623412537231e-03,2.364965063799639305e-03,-3.199749661251669736e-02,2.171710729598999023e-01
7.597451803748809240e-01,3.158900602257183055e-01,6.455717394872314552e-01,9.606034187944643976e-02,4.914112664112951778e-02,-2.021486454133905875e-01,5.629262924194335938e-01
6.897319842394937783e-01,6.862018576486119681e-01,4.879143268620681484e-01,1.706927459258880675e-02,3.907987501860906571e-02,-4.117878932361154071e-02,2.248849868774414062e-01
6.955336478032728698e-01,6.656807131402290301e-01,5.818707694202340797e-01,1.586839688522835232e-02,1.373273222186432302e-02,-3.567335242791232208e-02,1.247245892882347107e-01
6.213595688533041228e-01,5.726267065410269863e-01,7.054336161239077585e-01,-5.730259273978191570e-02,1.182061759523756264e-02,2.546020567118213035e-02,1.604840010404586792e-01
5.551882019626618314e-01,6.605047109455756127e-01,7.091202095422309837e-01,-5.365864071390844675e-02,2.426488332561019257e-02,2.265567218846582104e-02,1.746968477964401245e-01
6.575336012956812803e-01,5.415429590054194886e-01,6.962410274729481374e-01,-2.250417995023770365e-02,1.338457377040346355e-02,4.734637350601244091e-03,1.468529850244522095e-01
5.434553000060872163e-01,6.567967913310157613e-01,6.819867170250510924e-01,-1.862172962060634415e-02,-9.366053176619388437e-03,-1.384404003455388076e-02,1.349605023860931396e-01
6.239577023763251962e-01,5.667144562135798536e-01,6.925935613749841790e-01,-1.799696905636121586e-02,8.953161584019483227e-03,4.940762923039963492e-03,1.148999258875846863e-01
6.031274107891747560e-01,5.726118730701760251e-01,6.801052664168446560e-01,-5.590611485005515108e-02,-2.077919947322912422e-02,-2.168379342509380719e-02,1.459046751260757446e-01
4.402630210987807935e-01,6.982938991805078821e-01,7.589188683860681461e-01,7.739657920340228814e-02,-6.768593906452868847e-02,-2.293117369105822194e-03,3.429709374904632568e-01
5.478439328616074855e-01,7.126535452538969029e-01,6.561512960993176602e-01,3.939432409219764501e-03,-6.400322509667356885e-02,-2.265974365787867470e-03,1.827397048473358154e-01
6.095479084850393692e-01,6.769605771673732342e-01,6.004622753635870946e-01,-1.485226192580041578e-02,-2.454179117459809670e-02,-1.497955241438825996e-02,9.154961258172988892e-02
5.710137644361849008e-01,7.253979166307303883e-01,6.664029859690944191e-01,-2.376902476858068144e-02,-5.657418512636284286e-02,-2.234046629923781141e-02,1.760712713003158569e-01
6.190205583274680512e-01,7.231366557202748568e-01,5.675451235805192285e-01,-2.529300739781309426e-02,-5.372460382605768331e-02,-2.261932747451938022e-02,1.759613901376724243e-01
6.041797079268036441e-01,6.871557778290059426e-01,6.105439913482060277e-01,9.291235881009532807e-03,-1.923187150582926844e-02,1.115179444881888096e-02,9.021703153848648071e-02
6.007789788397781550e-01,6.759842072985051686e-01,6.270151898222817710e-01,-4.192315999600425280e-03,-4.984824624583513060e-03,-8.200740678836112088e-03,6.855722516775131226e-02
7.100842093576084091e-01,5.277404659068358761e-01,6.578645285697690692e-01,-8.706735535936729192e-03,-1.039251552540021266e-02,-1.142226220260067066e-01,2.571887671947479248e-01
6.109217259836406955e-01,6.785181888245634951e-01,6.146888028347329280e-01,1.714512587672829737e-03,-3.509461226206988648e-03,-1.192712354231820378e-04,6.614107638597488403e-02
5.875577592624575685e-01,6.725127428762942561e-01,6.312181447946239032e-01,4.789405878560843918e-03,-1.161571921855415225e-02,1.143818523893109541e-02,7.924959063529968262e-02
6.200890603933483236e-01,6.695335441810540411e-01,6.101620707385499998e-01,6.053823783260216945e-03,-4.947778851737988197e-03,2.739197421317482711e-03,5.692129954695701599e-02
4.530057673329387358e-01,7.631752485641060124e-01,7.686677054821242638e-01,6.317023717325605248e-02,-7.013368392970156795e-02,1.645127001796939728e-02,3.542293608188629150e-01
6.856665125793031113e-01,6.235650509112673490e-01,5.753590049750230140e-01,-5.474009507906366437e-03,3.597251940826283294e-03,1.574580873568066225e-02,1.002326607704162598e-01
6.845747680686433689e-01,6.778276149991292465e-01,5.683574378184987896e-01,-9.820794814131492134e-03,2.203496680851038669e-02,9.174477373496603763e-03,1.215168014168739319e-01
6.482091023789229300e-01,6.923058770289427510e-01,5.404168394440934664e-01,-6.972833477953522575e-03,3.018845443998203343e-02,7.905860734819764729e-03,1.462340056896209717e-01
6.821062782737274954e-01,5.311590265672194722e-01,6.798189126396683157e-01,1.619498500961635140e-02,-1.192239472941286627e-02,1.262708052073346042e-02,1.553596705198287964e-01
6.701931726788166177e-01,5.467568175416841481e-01,6.606626621726766624e-01,-7.072204321730133324e-03,1.497420901073975331e-02,3.039971452333130320e-02,1.332145184278488159e-01
7.801733359566832560e-01,4.935596326144962576e-01,6.411849306441009810e-01,4.383988465931633327e-02,2.793001919362665328e-02,-9.622467201848008966e-02,3.122704625129699707e-01
6.998667872542024826e-01,6.313366586010979997e-01,6.021967404440823346e-01,-2.421386807763237572e-03,2.305947968756320854e-03,3.103728865543044224e-02,1.023032590746879578e-01
7.925776292377141319e-01,8.141613249746764147e-01,4.013544776188258667e-01,2.237853101194795316e-02,-7.414162758399173159e-02,2.972420915254617713e-01,6.670961976051330566e-01
7.838548654141362926e-01,7.450611256488357537e-01,2.679595178505293496e-01,6.613804787260008956e-03,-2.788129268753321115e-03,1.534948955893805089e-01,5.643368363380432129e-01
7.326486322469637491e-01,7.789441909867896863e-01,4.964019423832611855e-01,-2.030663100177042962e-02,1.190887653859114687e-01,7.659178809103939223e-02,3.609367609024047852e-01
6.867361582851917445e-01,6.762937472907987191e-01,5.085389346789433995e-01,-1.242804498583151632e-02,3.343996969594382335e-02,1.127280235954652814e-02,1.849372237920761108e-01
7.830112014012745592e-01,7.857115621822522433e-01,1.981008643292351268e-01,2.574854200935238618e-02,-5.382608806229034586e-03,7.652522403796203909e-02,6.027860641479492188e-01
7.092836591151672199e-01,8.055342710758025548e-01,3.944706149663343986e-01,-1.415634908796602753e-01,-2.653566727548709037e-01,-6.163530188943273230e-02,6.491781473159790039e-01
7.061450145250443011e-01,7.059068962976785544e-01,5.062499963838880124e-01,4.704153931731353509e-03,-2.285684699464440167e-02,1.421731042183834847e-04,2.038240134716033936e-01
6.007116685974467352e-01,6.823218770986252402e-01,5.902305325763443911e-01,-6.959025852860871095e-03,-2.963492567622619256e-02,-7.668877608386891372e-03,1.028681397438049316e-01
6.019066304566528247e-01,6.966606718591707992e-01,5.832699160279637418e-01,-1.033562999657156381e-02,-3.239531019049322891e-02,-1.572321735419362132e-03,1.206972226500511169e-01
6.790690183084910903e-01,6.871976891526034859e-01,5.358642562891662298e-01,-1.198498613242547986e-02,-1.251984688794166405e-02,-1.300621533743222952e-02,1.521393656730651855e-01
7.173821248160835440e-01,7.149993902275132429e-01,4.243231045171791393e-01,-3.351205596938073628e-04,-1.804624682397172261e-02,-5.355130367653822970e-02,3.078498840332031250e-01
6.914734293504893881e-01,6.756909908560017053e-01,4.450043142443065314e-01,-2.236029101531075008e-02,3.656355944218409731e-02,7.986250886619181144e-02,2.859211862087249756e-01
7.914326566271281393e-01,5.618177379314264197e-01,3.824044292093276010e-01,-6.264826211245612397e-02,8.734868741503458434e-02,2.384414612828979485e-01,5.756169557571411133e-01
6.195945112064963345e-01,5.034185051181082615e-01,5.069119292804766808e-01,2.083687104980635196e-01,-1.990603661273241398e-01,2.733710902516499064e-01,6.974425315856933594e-01
8.336802566544080362e-01,7.703111624932791335e-01,4.817036267024399354e-01,1.442524698104718506e-01,-2.538096632856974844e-01,3.019519770281411941e-01,7.967484593391418457e-01
6.619603740943391657e-01,6.371005651306764772e-01,5.912071494992949816e-01,-1.650049484404998712e-02,9.962940388311442019e-03,7.836603949485225831e-03,7.186051458120346069e-02
6.765741782070270327e-01,6.268664431577705143e-01,6.009975939254903476e-01,-6.417127691627185979e-03,3.082799876155357683e-03,3.545507485859449720e-03,6.793893873691558838e-02
6.744298351216350129e-01,6.226969991175992369e-01,5.769283539300558150e-01,-7.283302112695003681e-03,3.908010700305990237e-03,1.520094127431172171e-02,8.964909613132476807e-02
6.172259169359372022e-01,7.291435696683468137e-01,5.219091828624480289e-01,-8.522892787576501206e-02,2.316597971896162400e-01,1.313873215702078823e-01,5.165820717811584473e-01
6.312309449218578283e-01,6.230047437909123076e-01,6.478791085721097298e-01,-4.535603404389028370e-03,6.798303348001442231e-03,2.827846294064220202e-03,2.657327428460121155e-02
6.759042584094001604e-01,6.157416819945479292e-01,6.166240715220016044e-01,-4.468539989509767198e-03,5.187025978444244519e-03,1.215061455412010105e-02,6.442638486623764038e-02
7.296182615407754701e-01,2.939174288476468222e-01,6.899191725146904819e-01,1.341659716723972717e-01,5.334129177251168558e-02,-1.721277437563550061e-01,5.705572366714477539e-01
6.461023405981894951e-01,6.217844062141602013e-01,6.224819669333190308e-01,-3.003998850061913133e-03,5.287647718112930585e-03,5.259108585795616193e-03,2.772741764783859253e-02
6.610910542543994017e-01,6.149140078536289300e-01,6.226231120321302770e-01,-2.408559971380654086e-03,7.105333803123520080e-03,4.634928228636585323e-03,4.548708349466323853e-02
6.773801936555378100e-01,6.203920234007356260e-01,6.179086327260128186e-01,-6.668181791559011501e-03,6.576835708544483128e-03,1.011231775621670298e-02,6.297045201063156128e-02
6.256263267587772736e-01,6.893006317049575893e-01,5.937326060111075554e-01,1.511363006744544969e-03,5.592136965623355736e-03,-3.827911856606611412e-03,8.512969315052032471e-02
5.935917816300204652e-01,6.732483234552889551e-01,6.042808978525864294e-01,-1.344457606249310593e-02,3.335630978814523029e-02,1.469694771451308599e-02,1.006785184144973755e-01
6.416011104304006896e-01,6.925386897738398106e-01,5.830219122416933075e-01,-9.472190017947327775e-03,1.471159955450963668e-02,8.482843210768272954e-03,1.007193028926849365e-01
5.788028729378951187e-01,6.292862956900299176e-01,6.760696356776059179e-01,1.277694744072574266e-02,-4.874470144043009830e-03,8.599637957839134650e-03,8.878025412559509277e-02
6.195079381816779307e-01,6.585276914930956460e-01,6.184180785659232349e-01,-1.096822501921936033e-02,1.544416669151498986e-02,1.179113795647515964e-02,5.531564354896545410e-02
6.189812811876312937e-01,6.744319250567863966e-01,5.984833253174474121e-01,-1.030703791084012187e-02,1.115770750803233256e-02,6.142508845811391061e-03,7.373563945293426514e-02
6.156472797224314952e-01,6.767023009189279126e-01,6.137847334909117825e-01,-2.253189875644810627e-03,1.411179609261971422e-03,1.084296725293225003e-03,6.220638751983642578e-02
5.998644151179910455e-01,6.774809228163799490e-01,6.272414181015578682e-01,-3.307243357776914073e-03,3.513353920185794625e-03,7.209911402473732564e-03,6.981910765171051025e-02
6.320825284356218488e-01,6.670965535691469883e-01,5.978341734908660943e-01,-1.130510804105222360e-02,1.155218075845097433e-02,9.038542043670763290e-03,6.802179664373397827e-02
6.172219707205903738e-01,6.766840875433158820e-01,6.074171880625682807e-01,-5.082208111246348456e-03,6.632578958489765072e-03,2.178552780548018413e-03,6.662273406982421875e-02
6.148378381755541522e-01,6.673064774099316532e-01,6.210216790859717229e-01,-1.626501535736834484e-03,2.543319594437980224e-03,1.616906504632088055e-03,5.001924932003021240e-02
6.213301398221343641e-01,6.608933587122626241e-01,6.190235385034799087e-01,-4.409716848855994333e-03,9.498323653070738252e-04,5.081861316503343950e-04,4.151678457856178284e-02
6.798199024945622559e-01,6.876226621082439650e-01,5.046548799725172341e-01,-1.276914388833368282e-02,1.000353175653889704e-02,2.423438646647186126e-02,1.861765831708908081e-01
5.198002917870780948e-01,7.178748197575859358e-01,5.815854954140921018e-01,-1.001071383464739381e-02,1.176020043207296889e-01,6.238960203328169397e-03,2.696682512760162354e-01
5.568058272495115535e-01,7.924601512221328692e-01,5.030445225199497994e-01,-6.385645820008239992e-02,2.401970406017325532e-01,1.137165148684843308e-01,5.433263182640075684e-01
6.533909287006030020e-01,6.747463551877918020e-01,5.604297683653617357e-01,1.602991470331675480e-02,-2.096358800979164494e-02,7.099417882778941320e-03,1.154276952147483826e-01
7.038919039185782545e-01,6.778874404609861459e-01,5.271235096510402673e-01,5.351311435164176483e-03,-4.764030839487942530e-03,1.208227946043091000e-02,1.670882105827331543e-01
6.539870570604386923e-01,6.748627765065942086e-01,5.481009466497313021e-01,1.992567530275957122e-02,-2.245378458889008347e-02,1.387484519323063312e-02,1.309169977903366089e-01
6.578207694943813966e-01,6.507229005989624282e-01,5.829593263062368136e-01,1.634475030204556728e-02,-1.204374659553348118e-02,6.834268285661426051e-03,8.062250912189483643e-02
6.958268567573355767e-01,7.024966422919762810e-01,5.070646449490280316e-01,-7.745322780145898200e-03,-2.461122587082486060e-02,-7.630929716703275557e-03,1.977535337209701538e-01
6.986364679836976066e-01,6.500919418311962295e-01,5.670931618393644236e-01,2.331794326430912455e-04,1.463688697311859178e-03,9.624342839707252656e-03,1.164430305361747742e-01
6.639620887918221692e-01,6.917244847959095333e-01,5.753901918617225775e-01,1.176725932880357157e-02,-3.975005759943333467e-02,2.391716862761409518e-02,1.339641660451889038e-01
6.728517499855926065e-01,6.326003829519464272e-01,5.873958581294020931e-01,1.095469262267064099e-02,-5.075274660385944991e-03,9.106110108391855112e-03,7.854438573122024536e-02
6.902624751990189544e-01,6.059778009674391397e-01,5.742522272550214524e-01,1.900701334135854528e-02,-2.036819118829482841e-02,5.418955304409795587e-02,1.480618417263031006e-01
9.431660911841978079e-01,3.402354832858302536e-01,6.861044690660933476e-01,-7.085442586465177939e-02,-7.425999021948999357e-02,-1.578193314738761677e-01,6.172043085098266602e-01
6.177195578099442530e-01,6.123947856653376709e-01,6.764611783189156125e-01,-1.154390623538531502e-02,-5.991223381702781743e-03,-5.361009372386213792e-03,6.622241437435150146e-02
6.361381118935370838e-01,6.207865600901328884e-01,6.479020040809694292e-01,-3.142525854544787108e-03,-9.403449373006855794e-03,-2.267793642470034791e-03,2.941059321165084839e-02
5.270831499913259943e-01,7.994766126903292136e-01,5.173747461394883063e-01,4.296213011764557499e-02,3.944430446853718353e-01,-1.454095229504469844e-01,7.827272415161132812e-01
6.000436916098321749e-01,6.993590205140676197e-01,6.302895411399034309e-01,-6.175602341935126569e-03,2.917020922900188593e-02,3.318634123898333427e-03,1.023456230759620667e-01
5.235524487622276180e-01,6.414753788680932489e-01,6.675233409060551404e-01,8.957456046985567966e-02,6.871086290752685677e-02,-5.172438892952920669e-02,2.528172433376312256e-01
5.866054836770639991e-01,7.821151058467163963e-01,4.576401158076023323e-01,8.116425143556052491e-03,2.674988262517214443e-01,-3.790140585473000812e-02,5.470320582389831543e-01
6.042822561402559911e-01,6.761951521508743346e-01,6.134771532521260395e-01,-1.544718538368662413e-03,8.715223374427507469e-03,4.190833697743127743e-03,6.987483054399490356e-02
7.133426979439050353e-01,6.820634895199922942e-01,5.224205631598610733e-01,4.456376845061011359e-03,-2.540292054352628719e-03,-1.305560805279966548e-02,1.790196597576141357e-01
6.102668090416971669e-01,6.591415621827901861e-01,6.312991110744688994e-01,4.203932026319925040e-03,-2.959608237847032291e-03,8.901483030745791294e-03,4.604516178369522095e-02
5.854496368400127215e-01,6.312478320075834981e-01,6.726558604903445371e-01,1.281579284471007218e-02,-4.793446494899432885e-03,1.057486176445047131e-02,8.127521723508834839e-02
5.920750183272048828e-01,6.608713241807834260e-01,6.356990049095468942e-01,-9.524173389900700629e-03,-8.371365594078540237e-03,-1.486972972705419456e-02,6.914123147726058960e-02
6.371862488241012423e-01,6.687969515564639034e-01,6.176148603428892603e-01,-1.315822459511892424e-02,-1.919597537281653166e-02,-1.260878065146706604e-02,6.405277550220489502e-02
5.889675666758549255e-01,6.615894680009435369e-01,6.516041076396287268e-01,-1.048468845183547597e-02,-6.548359020269273363e-03,-1.370708422944647530e-02,7.530321180820465088e-02
6.040117827279696261e-01,6.891514081120969637e-01,6.326272894312567896e-01,1.052343402246910288e-02,-2.447531501982215876e-02,8.099587265289134516e-03,8.920454233884811401e-02
5.300885737311518131e-01,6.958932634751230362e-01,6.480770815947612951e-01,-4.109745818542994387e-03,-3.470773147609532150e-02,-7.741763485297183112e-03,1.602928191423416138e-01
5.609923863774144426e-01,6.974026096748394687e-01,6.488348344974183002e-01,-4.389720263032279718e-03,-1.321415293023769227e-02,-2.872096822478816154e-03,1.222613379359245300e-01
5.941546135201171142e-01,6.866304079168229491e-01,6.255474888957955892e-01,-1.606899997950035934e-03,-7.512751214680172748e-03,2.059894602132376248e-05,8.253045380115509033e-02
6.185050237527274231e-01,6.751702554254840338e-01,6.128764051028576798e-01,-5.245291472588714705e-03,-1.448965095826666542e-02,-5.046169551755241844e-03,6.595724076032638550e-02
7.072220887204556661e-01,6.946078579341230519e-01,5.861345118872235416e-01,-5.846094181339107215e-02,-3.042081445211573532e-01,-1.582469241754820011e-01,6.134337782859802246e-01
6.693768304644148737e-01,6.987292177206723132e-01,5.428697574449866670e-01,-1.601864964840088402e-03,-2.127188887111092219e-02,3.845714963639869366e-03,1.482849717140197754e-01
5.156740861436722723e-01,7.294584590733116380e-01,6.229238846241587080e-01,-3.008399143687670932e-02,-1.009916796913072484e-01,-3.721912096716527979e-02,2.678560018539428711e-01
6.721567407730431043e-01,7.131165851175292891e-01,5.851964585395891261e-01,1.128003621656096939e-01,-1.562346562747843060e-01,1.449183484173889869e-01,4.326722025871276855e-01
2.402390628653353066e-01,7.669613127066717828e-01,6.789409358087810098e-01,-6.061687176374840752e-02,-1.792751874174589866e-01,-2.157077015302055409e-02,5.896266102790832520e-01
5.876910183786721031e-01,6.628507236634182398e-01,6.515521369005706775e-01,8.013255641039853522e-03,-6.240650735188595262e-03,1.437525682282246760e-02,7.653012126684188843e-02
6.520398767613663216e-01,6.010923417820653869e-01,6.364460543583364549e-01,5.755952818492314667e-03,1.492553956334555232e-02,-1.270058516762302692e-02,5.741057917475700378e-02
6.775882075514786385e-01,6.422115567119113244e-01,6.955202539998196487e-01,1.206507014274789680e-01,8.611699545613858697e-02,-1.182592688248593066e-01,3.317851722240447998e-01
6.026276728249624348e-01,6.190510322332469784e-01,6.938786627860115130e-01,7.302470809894705261e-02,8.043605411252052056e-03,-4.647952671774609797e-04,1.526118963956832886e-01
6.517922045796094022e-01,6.058531397722630718e-01,6.283284267523641109e-01,2.447316891437285521e-02,2.271764115263230285e-02,-3.102606915954532821e-02,8.840800076723098755e-02
7.069463187330354836e-01,6.396101267513499833e-01,6.936593071134974364e-01,1.001891811153558520e-01,9.309072445277026542e-02,-1.334638595053369292e-01,3.366973102092742920e-01
5.204234665986462449e-01,6.469304215063844676e-01,8.150973587800496301e-01,-3.138040154278810556e-01,1.876217454699207199e-01,1.894996760354145104e-02,6.838569641113281250e-01
5.908503208230124759e-01,6.306543235989946483e-01,6.727616466164667575e-01,-1.094263683701775236e-02,4.708007543846481034e-03,9.615844915649787022e-03,7.573994249105453491e-02
5.685048906879042185e-01,6.469498141272335134e-01,6.799348138011684917e-01,-1.162814572901318261e-02,1.031185470201635875e-02,1.299212539420920888e-02,1.051672622561454773e-01
5.171709818082899091e-01,6.205649626311253719e-01,6.986955981906448621e-01,-9.269168148020356934e-02,-3.972728651774515979e-02,-3.499578688730811682e-02,2.430166304111480713e-01
4.965557096109094459e-01,6.910839469343138530e-01,7.164551646081509517e-01,-2.438155477069717247e-02,1.276433871286057620e-03,8.257224210672961355e-04,2.126279920339584351e-01
4.682496007990714082e-01,7.131163979697530131e-01,6.444523049018744398e-01,2.869281453771383925e-02,8.105716281242607291e-02,-1.603382795245368586e-02,2.661067843437194824e-01
6.695861572679752127e-01,5.594098696404512516e-01,6.451316619013497400e-01,-2.500447214712388233e-02,-2.276728875117312034e-02,-4.363141076565388299e-02,1.385075896978378296e-01
6.565560356914118545e-01,5.478252939805157151e-01,6.887941940675856856e-01,-2.189959100716232232e-02,1.036885197661989097e-02,1.065200465790482921e-02,1.358994543552398682e-01
6.187789892735291453e-01,6.137605010389520777e-01,6.474914941878746610e-01,1.442813013224840922e-02,-1.511996498550378411e-02,1.687680266248850480e-02,5.620070174336433411e-02
6.503243220719224782e-01,5.297417093951386491e-01,6.967780731747477141e-01,-5.336645789915420157e-02,3.901393612757502686e-03,6.311152979854437600e-03,1.760929375886917114e-01
7.668520376012816220e-01,7.749399902869833490e-01,4.678780183114442659e-01,-1.125608885913586404e-02,4.115498731310272633e-04,9.037593221305612046e-02,3.416913747787475586e-01
8.859228576361440899e-01,5.316896968153598246e-01,5.168741201480474556e-01,-1.653066897717200834e-01,8.029145888711827772e-02,2.644079866015549563e-01,6.648327708244323730e-01
6.707621645237885621e-01,6.247569027264335828e-01,5.970468534026119878e-01,-1.472037182661275513e-02,1.172573934478881794e-02,1.528216553763555273e-02,7.695660740137100220e-02
7.186036877694066405e-01,5.408053919941312460e-01,6.848532443076137399e-01,-2.546455283969245587e-01,2.672830320024129347e-01,1.719363792799307178e-01,7.240791320800781250e-01
6.157797194121408246e-01,6.582497693742230815e-01,6.142112662560345049e-01,1.239488208680356029e-02,-1.389080257500274057e-02,1.229302553527081635e-02,5.801633745431900024e-02
6.622885719813212946e-01,6.318141044494444136e-01,6.112260462337021361e-01,-1.059306457294659914e-02,1.738283666536201422e-03,4.567074788158914829e-03,4.886972531676292419e-02
6.410292375277294452e-01,6.901705811217031528e-01,5.287777103766241327e-01,-3.537500705540543803e-03,3.049533229728485298e-02,2.458798503160624597e-03,1.528955250978469849e-01
7.369905871535294972e-01,9.172999695021664124e-01,2.925802272980681518e-01,-2.515388693533574319e-02,-1.007207578673284393e-01,1.361723510590945041e-01,6.309550404548645020e-01
6.719580549730502783e-01,6.288253066623727960e-01,6.097078914209805856e-01,1.126718780001481797e-02,-1.237931228711538351e-02,2.950181869270191229e-02,8.063596487045288086e-02
6.219166253276259271e-01,6.364657513754951035e-01,6.301055919626599167e-01,2.862260578982421533e-02,-4.013970596230059806e-02,1.843557209653141904e-02,9.203561395406723022e-02
6.236458062527171498e-01,6.212545116797453248e-01,6.631035002550010882e-01,1.157331912263766770e-02,-9.079874056247135353e-03,7.573004809961531372e-03,4.978143796324729919e-02
6.572396113265176476e-01,6.075593718772501761e-01,6.327489213450080419e-01,3.588281701656546689e-03,-1.132006277253997523e-02,3.862220641418590526e-03,4.815626516938209534e-02
5.761775866917420164e-01,6.692141421535531265e-01,6.804996053015476276e-01,9.163214806187121655e-03,-1.279616836364563109e-02,1.735951500185521634e-02,1.071461662650108337e-01
5.871073531168826687e-01,6.538316756483764092e-01,6.799416811466738597e-01,7.563061148087774077e-03,-1.246590770203039045e-02,1.504554619659735984e-02,9.051486849784851074e-02
7.527095148526556923e-01,2.934087445325234134e-01,7.171483128735671730e-01,1.168833934870662505e-01,-4.312720414493206866e-02,1.637219221948638670e-01,5.682148933410644531e-01
6.217027717477234816e-01,6.138263761504990645e-01,6.619039438723014479e-01,5.162071930676801965e-03,-9.806660888054907418e-03,3.427686943278952011e-03,4.897460713982582092e-02
6.353942512204541204e-01,5.867909067797261180e-01,6.711623750891623219e-01,1.192957865584437678e-02,1.174983011676755847e-02,-4.688573961803896642e-03,7.929162681102752686e-02
6.506517457306547625e-01,5.835290548452448656e-01,6.632340632868801711e-01,6.897661667696640408e-03,1.276654868148591714e-02,-8.714312466088806539e-03,7.979871332645416260e-02
5.618609594107051297e-01,6.482692716456762705e-01,6.966687901936415850e-01,-1.045634576907049709e-02,2.383648394636648810e-03,2.383837966659479708e-04,1.197340860962867737e-01
5.745198494919382393e-01,6.561173401457849330e-01,7.075219141180997262e-01,-6.938380791010868853e-02,2.972140573964782151e-02,2.658888396427881717e-02,1.808546185493469238e-01
6.020161035075776157e-01,6.271313963046619699e-01,6.805519472918079016e-01,-4.812844608009976717e-03,2.111465252004395086e-03,4.407314600824153300e-03,7.047939300537109375e-02
4.441277759906145928e-01,7.858919589145085816e-01,8.050205731420088107e-01,-5.586699533114960342e-02,-5.933839998860096845e-03,-4.752311414867494907e-03,3.650245070457458496e-01
5.625325137608947479e-01,6.133209863801923900e-01,6.802119331625233745e-01,-5.586681497366675214e-02,-2.037698062754756539e-02,-2.087041105202814759e-02,1.495554894208908081e-01
4.910116921774984600e-01,5.245113833966941197e-01,6.730867815891519168e-01,-2.581049170540666848e-01,1.945543818656557122e-01,1.782658657653348744e-01,6.609984636306762695e-01
6.235883177484841111e-01,6.482594172066188376e-01,6.308365472898828097e-01,-1.728919717605926273e-03,1.834546324223679204e-03,5.878123414412248296e-03,2.459876798093318939e-02
6.258863875599147697e-01,6.323885774031023921e-01,6.291792551160673153e-01,-8.777845713527692925e-03,8.922090484752728118e-03,8.966857806381416454e-03,2.725595422089099884e-02
6.194239527255146482e-01,6.605908239037819873e-01,6.208685915778136000e-01,-1.411213735868247767e-03,9.221238781976938805e-04,3.458571714512235096e-03,4.100899398326873779e-02
6.271606819011763534e-01,6.480191067282998763e-01,6.282757080425989127e-01,7.160420462276697359e-05,1.026730200760997457e-03,3.604464384333153776e-03,2.133574150502681732e-02
5.901972865277095304e-01,6.736311375475650953e-01,6.388495279761098322e-01,-2.114870534386609213e-02,3.483301138787660289e-02,2.483521773814100983e-02,1.100054010748863220e-01
6.640680233577133107e-01,6.147268928860727399e-01,6.136817177435224258e-01,-1.181211464297436849e-02,1.032103483939250145e-02,1.399643421128361938e-02,6.174997612833976746e-02
6.612628779136247026e-01,6.008302699255891888e-01,6.354877201832170863e-01,-2.266529764012245596e-02,2.427571444042391988e-02,2.889415204232315126e-02,9.258776158094406128e-02
7.006645054676424733e-01,6.151393364519623930e-01,6.572398398870837877e-01,-4.389825063420929596e-02,5.598002008440872146e-02,1.189837350049472026e-01,2.512771487236022949e-01
6.766693206713507713e-01,6.277103817789801976e-01,6.024835959629010196e-01,-6.551283809567904660e-03,1.029686333967727921e-02,2.797419292450828779e-02,8.404133468866348267e-02
6.239459543735640379e-01,6.496502133176947913e-01,6.241614589193703599e-01,8.174283392050132879e-03,-3.125179575269162232e-03,4.175617380611032665e-03,3.061503358185291290e-02
6.763830245695128252e-01,6.194112069541648502e-01,6.057740336450485596e-01,-6.598013147082719930e-03,2.989596576402170098e-03,6.766964022254150224e-03,6.710800528526306152e-02
5.690183811215948628e-01,6.604826331412014806e-01,6.576792638986479478e-01,1.326672026477399534e-02,-1.532580374369471067e-02,1.492478905070333990e-02,1.000902950763702393e-01
6.328414392841031910e-01,5.987141665835535864e-01,6.760436470828886657e-01,2.957631728236381416e-02,7.469576330645651824e-03,-1.029385647020304544e-02,8.726411312818527222e-02
6.160968746693402665e-01,6.074527547641287439e-01,6.693933819735168322e-01,9.766132007075383967e-03,-5.433728966289025873e-03,2.338323057902136001e-03,6.137631088495254517e-02
6.126220393118250174e-01,6.196915783972194447e-01,6.620546425462825457e-01,6.272969513176168861e-03,-3.263362979910245081e-03,7.391418970211968351e-03,4.957815259695053101e-02
6.292625430032432465e-01,6.330678441677365376e-01,6.418617555451637813e-01,1.422883658467157756e-03,-1.723371726235059737e-03,9.886111442613931127e-04,1.196630951017141342e-02
6.178185859822337145e-01,6.197892677348506574e-01,6.670889662967446343e-01,1.122694058868213551e-02,-6.581956687130329116e-03,8.244660297660555068e-03,5.519402027130126953e-02
6.210085358812517109e-01,6.278589196568752362e-01,6.548525015140134187e-01,2.813494333739717003e-03,-2.331336110972173983e-03,1.658569108028502088e-03,3.176165744662284851e-02
6.273552739792657151e-01,6.252544157328809860e-01,6.456987554433960552e-01,1.605489823907684790e-03,-4.039764360857974086e-03,1.126975573175945837e-03,2.097465284168720245e-02
6.176376813469961480e-01,6.143179870105625051e-01,6.666611454245826573e-01,7.159864444193141629e-03,-6.472556097927677221e-03,4.911512416169749526e-03,5.411935970187187195e-02
6.235458887446065912e-01,6.240060853025407583e-01,6.480190807358116034e-01,4.715917107844158976e-03,-8.092186326792653178e-03,4.637754690547966040e-03,3.025859780609607697e-02
6.255058706315066441e-01,6.400986695479033983e-01,6.314450539544449459e-01,1.699614682445555911e-03,-1.281282692966882351e-03,4.127630846787900404e-03,1.504185888916254044e-02
6.231900795090946632e-01,6.205376308009401543e-01,6.628392236409558214e-01,9.209580904116101627e-03,-7.156993818968935585e-03,7.492723411003399461e-03,4.754783958196640015e-02
5.939378479909526165e-01,6.311137546088536610e-01,6.639462771697722809e-01,1.236542910662967454e-02,-1.220952834691800722e-02,1.266112741212731783e-02,7.118597626686096191e-02
5.340248366622670773e-01,6.553598279861261311e-01,6.955070314218515515e-01,2.713155341957994640e-02,-3.775669853435270965e-03,8.024730624155500605e-03,1.537841260433197021e-01
1.930546950081510893e-01,8.350794841767843479e-01,8.360605697497305311e-01,-2.497993298791884725e-02,-5.469491792078060022e-02,-2.583095849695187657e-02,6.524377465248107910e-01
5.191273693868465600e-01,6.507912461825188233e-01,6.660673343185248285e-01,2.229874278820228872e-01,1.690868547120389920e-01,-1.506963930380790240e-01,5.680224895477294922e-01
2.019938898120303139e-01,8.492636644205596719e-01,8.255909662325557896e-01,1.932394377413968189e-01,6.448542436899841468e-02,5.371845164056395644e-02,7.330433130264282227e-01
5.407622333734432019e-01,7.042821711032039023e-01,6.835822488995048074e-01,1.189683564461062673e-02,-1.212549636081605882e-02,4.702885314809414179e-03,1.572082936763763428e-01
5.585720010962426096e-01,4.771682515471296626e-01,7.701648271093437526e-01,2.513722111721116703e-01,-4.551882211285546154e-02,1.176942768303775588e-01,5.531349182128906250e-01
5.316553168097344351e-01,6.803460867400141776e-01,7.497260762718011007e-01,5.983799311550716538e-02,1.183479978781628444e-02,-7.295381398952086732e-03,2.203640192747116089e-01
6.396470420102435828e-01,6.055313571106196724e-01,6.863082296690923290e-01,2.566903921902504923e-02,1.428359748575626365e-02,-1.547055428057121478e-02,9.077335149049758911e-02
5.688053080893642477e-01,6.165278379223344540e-01,7.162129575782184565e-01,5.938952224480460729e-02,-1.934604476101827591e-02,4.645415574462622398e-03,1.695307791233062744e-01
6.120911870862845161e-01,6.330515419913009811e-01,6.823978682334073120e-01,2.001388036836117268e-02,1.612655730271101220e-02,-1.264571454215630483e-02,7.981427758932113647e-02
6.325763532353730900e-01,5.976932546650701727e-01,7.869076274583219899e-01,1.486844345180286242e-01,-2.765097301582420536e-02,6.009789765116813065e-02,3.314644992351531982e-01
6.452075299583741597e-01,6.329432496851554735e-01,6.289570660829792992e-01,6.343534395411625816e-03,-6.810234240327893082e-03,4.101478613409526713e-03,2.292412333190441132e-02
5.804832432659783326e-01,6.559468236037221400e-01,7.746783302131706739e-01,1.398364420790410845e-01,-4.106120994812004904e-02,3.472577703587864661e-02,3.099842369556427002e-01
5.511490181015369361e-01,6.723351843378706505e-01,4.985459104208200265e-01,1.457720672223788427e-01,2.806703861096842556e-01,-1.879986266678171924e-01,6.556938886642456055e-01
6.916597979254561768e-01,6.572097077189408276e-01,5.373251363529293334e-01,1.559738688557812773e-02,1.786295833909516337e-02,-2.004578271204792914e-02,1.502722352743148804e-01
6.937677459668886160e-01,6.871954354738672999e-01,5.150892081120492794e-01,1.854049503457131098e-01,3.227299649254376512e-01,-1.720998656317591358e-01,7.316002249717712402e-01
6.196187768604863866e-01,7.928070026867636289e-01,5.268735341178236720e-01,-5.547396081922410793e-02,3.919337798683361629e-01,5.300279765580270114e-02,7.301742434501647949e-01
6.347811417502021714e-01,6.350345624864546235e-01,6.329194507065692976e-01,-3.041844162919024770e-03,-3.457436042222478915e-03,-2.407463459624059610e-03,9.220064617693424225e-03
5.940070741417501354e-01,6.893331064235157513e-01,6.183705460829795886e-01,5.884150708738492691e-02,1.689221075264813465e-01,-7.591361175636447689e-02,3.473295271396636963e-01
6.263602426673423595e-01,6.563775160647637996e-01,5.896766243134690111e-01,2.552283546981892401e-02,3.345479422609528436e-02,-2.533543438593870156e-02,1.028855443000793457e-01
6.749886193055933958e-01,6.517934295350552576e-01,5.838231239313318444e-01,1.007345372587179280e-02,1.059389140770251002e-02,-1.184852125577041428e-02,8.829972147941589355e-02
8.886231212263907553e-01,5.456382816050380224e-01,4.974730817694854590e-01,1.749861168538761058e-01,5.211721551799037427e-02,-2.524821839467805695e-01,6.540101170539855957e-01
6.968736112222466694e-01,6.508947410679744028e-01,5.680783290262817475e-01,6.606963182023742852e-03,6.934460652721109730e-03,-4.676579609900775002e-03,1.145480126142501831e-01
6.751438090889446686e-01,5.564816699175483272e-01,6.527579066564681565e-01,5.435722392764082145e-03,1.410513722248766914e-02,-5.825258947292207175e-03,1.127509623765945435e-01
6.881225616981634374e-01,6.632746403882994191e-01,5.468823616123030806e-01,-1.291833365673833098e-02,-1.402459359026579470e-02,-2.581624194262212985e-02,1.419395655393600464e-01
6.963256099113737108e-01,6.497272845897356097e-01,5.388299908783008574e-01,7.903633476282066056e-03,2.880496741761264141e-03,-2.591409062176944916e-02,1.478653252124786377e-01
6.761263744388652519e-01,5.953414379113665111e-01,6.620154834388829457e-01,2.179635788951314601e-02,1.847033722333753236e-02,-3.585065232843236832e-02,1.090407595038414001e-01
5.913059431936156241e-01,6.534494336753409183e-01,6.380706824712226721e-01,2.742677396326489297e-02,-3.291024378455938149e-02,2.469323960103453341e-02,1.023612916469573975e-01
7.331575101039026210e-01,7.208874393548821979e-01,5.424561818383087930e-01,-6.688257509458189753e-02,-1.152416159064509060e-01,-1.170527046519830305e-01,3.585294485092163086e-01
6.581757982815205077e-01,6.504599763912682908e-01,5.692615606557810404e-01,-1.806736638648752044e-02,2.797269424455678388e-02,8.698820711894424823e-03,1.040814146399497986e-01
6.022673003788284740e-01,6.065376713309323931e-01,6.637576344462559064e-01,-2.320204353974529218e-02,1.018981805149424789e-02,1.056065550424251966e-02,7.614324986934661865e-02
6.839869650728093164e-01,6.504515759117396323e-01,5.653126442864337964e-01,1.107442119366506932e-02,-4.192517742790273505e-03,9.180799852048971213e-03,1.090960502624511719e-01
6.791201538716530317e-01,5.997818065919416908e-01,6.290208862736650364e-01,-3.835504855079647276e-03,6.121866864094784554e-03,5.341822151240752103e-03,7.121717929840087891e-02
6.315800546661953785e-01,6.207165767601822148e-01,6.346463423421091488e-01,-2.317761590780101355e-02,2.037534370839021863e-02,2.048101296476943778e-02,6.539276242256164551e-02
7.477028551032675052e-01,5.961831741313848854e-01,3.411123517299726737e-01,-5.472559268306183278e-02,1.084696817799720853e-01,2.497347055113051939e-01,5.983740687370300293e-01
6.930879387575112904e-01,6.594773999026906086e-01,5.308699711999596005e-01,-2.991298311577849332e-03,2.159344826860740574e-03,2.786060425290132897e-02,1.560819447040557861e-01
6.646979819296300329e-01,7.017198267880808693e-01,5.757728943071812600e-01,2.969494347663370268e-02,1.048099177972637158e-01,-1.253658045474727867e-01,3.087408840656280518e-01
7.351966844210743313e-01,6.568582503632011127e-01,3.818980137557391741e-01,8.596457871464960321e-02,1.387573318683262003e-01,-2.064657484341504978e-01,5.577587485313415527e-01
6.583138359081894819e-01,6.740613425317620866e-01,5.630048370935215596e-01,1.480967282052267700e-02,1.982997004316328082e-02,-7.817070157348095238e-03,1.133739426732063293e-01
5.969164396038185716e-01,6.803758336685169494e-01,6.272115804345568257e-01,-1.074067318275961740e-03,4.995309452728994778e-03,4.210445033078632007e-03,7.406993955373764038e-02
6.067353140992055582e-01,6.789012794903883652e-01,6.332281804901142008e-01,8.869152788508834553e-03,2.512466183994511298e-02,-1.535593220910739728e-02,8.267442882061004639e-02
6.156208213686428232e-01,6.744065601418522959e-01,6.120685678441647459e-01,4.003123245953896063e-03,1.904700281945614915e-03,-1.104792319499532140e-03,6.115409731864929199e-02
6.132158878670957991e-01,6.815982973696892433e-01,6.106708997484801005e-01,5.041126602216423587e-04,1.766322357804265457e-03,2.693549427737081917e-04,6.976390630006790161e-02
6.093904841266467587e-01,6.780681722871328976e-01,6.134963309088683481e-01,1.279227754344972523e-03,1.692735539519828669e-03,-5.858615733882027157e-04,6.682842224836349487e-02
6.231316311379089257e-01,6.854057390650066806e-01,5.655783835837098206e-01,5.078417763714131866e-03,2.044769030604114135e-02,-7.202492573037932435e-04,1.100353077054023743e-01
6.132695039609549204e-01,6.801819959735900811e-01,6.034784434872523251e-01,3.723820866091143329e-03,9.588072517315195456e-03,-1.117273490901039010e-03,7.449449598789215088e-02
6.340047141290398036e-01,6.618818982952455743e-01,5.981135641926559332e-01,-1.302947236179855840e-02,7.833855141275289022e-03,5.832990638074535619e-03,6.213965639472007751e-02
6.561750353811720560e-01,6.875217132517376095e-01,5.510712037574990729e-01,1.801817397311371999e-02,2.499789999223138437e-02,-9.732210113155217654e-03,1.358561068773269653e-01
6.305572499445374346e-01,6.341921167005384330e-01,6.495230059115623122e-01,6.289314301726020746e-03,8.338108505578232382e-03,-8.222148890543255761e-03,2.887947298586368561e-02
6.493992258401471984e-01,6.407769251995064641e-01,6.368666158805703637e-01,1.419149729017058284e-02,-7.280545936452959693e-03,1.550976330458889857e-02,4.010266438126564026e-02
6.187376053347040106e-01,6.484827834291985171e-01,6.160249641047065294e-01,1.046015811501355489e-02,-1.490539564263332860e-02,1.040958281797529916e-02,4.788170382380485535e-02
6.558863963039863743e-01,5.441168114264103295e-01,6.527545705464634640e-01,3.637820633742096244e-02,-2.286640393778886435e-02,3.851795376909317864e-02,1.488013565540313721e-01
6.296597978220004332e-01,6.342110911632422576e-01,6.375910895172863802e-01,2.906147331564460333e-03,-2.831457535782141641e-03,5.245770270777469317e-03,1.339645031839609146e-02
6.624235283443129507e-01,6.244606827054605125e-01,6.183095290367882635e-01,7.633391385332355221e-03,-7.754322335327749199e-03,1.134511298529632291e-02,4.953644052147865295e-02
6.578616198348211652e-01,5.567305188628403068e-01,6.810866850128353134e-01,4.291134623787362656e-02,-1.541739402743630243e-02,1.829857133576475933e-02,1.426794677972793579e-01
6.406630086068909602e-01,6.269441004907766457e-01,6.351397750975301681e-01,1.830368063898547880e-03,-5.829578023095327056e-03,2.201681180054061108e-03,1.641605049371719360e-02
6.795463100510981125e-01,6.124291495864208068e-01,6.114501937005771826e-01,9.170986008675731252e-04,2.730739235673291902e-03,-3.734847127436598073e-03,6.810372322797775269e-02
6.764584797540889038e-01,6.135701219551056296e-01,6.315110398266130520e-01,1.920959878656655975e-02,-2.982794874966102766e-02,4.220583779045046502e-02,1.107641234993934631e-01
6.694748352066568486e-01,7.690686788223638493e-01,5.536111368791024612e-01,-1.307245648006085392e-01,1.877030614639350892e-01,2.544376265484105670e-01,6.213390231132507324e-01
7.744224888150608166e-01,6.696207095217794336e-01,5.403214901522996882e-01,-2.990097116420851325e-02,6.118703801113525853e-02,1.523904316281937399e-01,3.533196747303009033e-01
6.343667854704040376e-01,5.133555034154408947e-01,5.547310244478291796e-01,-2.043649063070285543e-01,1.867128348777853941e-01,2.343669505432920408e-01,6.371910572052001953e-01
6.503980725563659471e-01,6.420237424902516254e-01,6.218059474943390397e-01,-1.755342649596411050e-02,1.321699666271530273e-02,1.753532165555405156e-02,5.494631081819534302e-02
6.621751970315615798e-01,6.804790129442058744e-01,4.696221230840631478e-01,-8.669126657419433390e-02,2.199949441863672250e-01,1.745736502385183408e-01,5.478170514106750488e-01
8.184561143223991753e-01,7.202616802001736707e-01,5.248360389933730552e-01,-1.628240255905959444e-01,2.786612042590103644e-01,1.314041352845832789e-01,6.567460298538208008e-01
6.931443135916738330e-01,4.951926428737779551e-01,7.113072814870353699e-01,-5.191904902169044295e-02,1.317986942112013907e-02,4.425656535631713323e-02,2.399874329566955566e-01
6.317794854600790044e-01,5.976498811326785843e-01,6.546701288401483021e-01,-3.217432344859145338e-02,2.308858399317519766e-02,2.550818996942970721e-02,9.553466737270355225e-02
6.374202655675625939e-01,5.909818176324604933e-01,6.623509998448868785e-01,-8.385872308630059821e-03,1.636773552987802818e-02,1.045237629727049922e-02,7.265155762434005737e-02
6.272472376102151692e-01,5.997152218077939079e-01,6.758068327276094411e-01,-3.891535690323047643e-03,7.336937975600079861e-03,2.646266637340165869e-03,6.841726601123809814e-02
6.151051563422468282e-01,6.179932365807511152e-01,6.595826522771887079e-01,-1.328006188514643630e-02,1.232953121777309938e-02,1.332081533208158593e-02,5.809990316629409790e-02
5.649918879243986947e-01,6.880183670019861530e-01,6.748582182802568274e-01,-3.410308434858452808e-02,3.324050474639008573e-02,2.312161707888036807e-02,1.486517339944839478e-01
6.147347482202556446e-01,6.202519771680283789e-01,6.778966715399343812e-01,-3.488538279403777947e-02,1.048764999703347654e-02,9.362376411358164924e-03,8.896794170141220093e-02
5.501922069018894135e-01,6.136606357150797830e-01,6.949644121996422230e-01,-5.710168407877226626e-02,-2.734561940462145162e-03,-4.738064200388421299e-03,1.602197140455245972e-01
5.975472932020656769e-01,5.514283186083751565e-01,6.919271570837014496e-01,-6.613925650838009540e-02,-1.339057036173019882e-02,-8.876372221245723559e-03,1.711277812719345093e-01
5.732259785923474738e-01,6.844048059737242173e-01,6.486033445204896219e-01,-6.362956644395993504e-03,7.791225193452655517e-03,1.202224505122855523e-02,1.019768938422203064e-01
5.750826556516334120e-01,6.251579755375121783e-01,6.844528249983211632e-01,-1.849742011797967170e-02,3.140418762999222686e-03,5.913357861302631809e-03,1.007649675011634827e-01
5.408192838852844408e-01,6.629184388366206049e-01,6.923011379813089894e-01,-2.538161345810197728e-02,1.762412997764970565e-03,4.470637546864797765e-03,1.461543887853622437e-01
6.796646206195714468e-01,5.176817288650047422e-01,7.289905950293692483e-01,-7.862468595996782716e-02,4.793925796533542172e-02,1.173065166217155536e-01,3.215337693691253662e-01
6.547874382397687043e-01,4.953867249415245810e-01,7.262656715427678877e-01,-8.655052732490527145e-02,-9.126122612723746490e-04,4.314288714957411307e-03,2.538557052612304688e-01
7.082827711995051123e-01,5.129145168777635710e-01,6.910369838671871490e-01,-1.636077642312319322e-02,2.330539193066137691e-03,1.763924933239353898e-02,1.919625997543334961e-01
8.904885133426956312e-01,3.168227904296224140e-01,8.184840636708651251e-01,-1.547864843459556376e-02,-6.974610609069691047e-02,1.346136290930173285e-01,6.022003889083862305e-01
6.424440816313395919e-01,3.687782388521063104e-01,9.316094900069786799e-01,-2.010539459998020306e-01,-2.620971970914526619e-02,-1.018790505682432568e-01,6.261878609657287598e-01
6.646470740289884827e-01,5.661013925520752554e-01,6.742546271884020115e-01,1.145979610418272100e-02,1.469873937515308801e-02,-6.894199178178385401e-03,1.092477440834045410e-01
7.057715077347288535e-01,3.659325353622265853e-01,6.975469990005964682e-01,2.118057420804460578e-01,8.051105148768858411e-02,-1.503332872347371840e-01,5.784415006637573242e-01
6.984565987193318559e-01,5.089611081887269739e-01,6.896619956781853134e-01,1.769654573163974287e-02,-1.224821712200211375e-02,1.185720941243094753e-02,1.900807470083236694e-01
6.502889458175191706e-01,5.685659940433868131e-01,6.833023904260218107e-01,9.232644881800056505e-03,1.364530687549743958e-02,-7.486578374868805945e-03,1.069997176527976990e-01
6.182068877175498356e-01,6.166887588628802153e-01,6.793925771846757167e-01,9.161406036935632047e-03,8.196747524439577590e-03,-8.255422040452688182e-03,6.705737113952636719e-02
7.050688728583466292e-01,5.314093977811296110e-01,6.562614638099212305e-01,-2.910670187303909112e-02,-1.006730170475341260e-03,-5.287610348760702489e-02,1.870726943016052246e-01
7.100218059840330831e-01,4.156095002943479555e-01,6.917449401512596463e-01,1.024406672957141329e-02,1.189120228809469526e-03,-5.795900543191664228e-02,3.033620119094848633e-01
7.968016283351827544e-01,4.278223415239890692e-01,7.758431902869886709e-01,1.733591458096091914e-02,1.071245906013291831e-02,3.015615489631780569e-02,3.644527196884155273e-01
6.931921327799923649e-01,4.275434965906406148e-01,7.551810348703674736e-01,1.052914010571512765e-01,4.427534011056916130e-02,-1.229303674624862217e-02,3.612093627452850342e-01
5.648157227227840194e-01,6.718727114013859358e-01,6.768544819371528076e-01,-1.860137421770311286e-02,-6.666749182623618944e-03,-1.345491778114432484e-02,1.171914041042327881e-01
6.930248861714883857e-01,5.230269601869658169e-01,6.902233325420623622e-01,-3.316231344602328657e-02,1.552891608926953992e-02,2.736762595771793233e-02,1.862807124853134155e-01
7.708447893912486748e-01,3.055315360398480617e-01,8.976274691960315355e-01,-1.673147925499005040e-01,3.043234384683799268e-03,1.838869942919968692e-01,6.906791925430297852e-01
7.298175484125595247e-01,2.848721605799063861e-01,6.772514583549269496e-01,-1.820571130119237602e-01,6.981493103204711170e-02,2.471544691177256226e-01,6.889581084251403809e-01
7.160885245512867980e-01,4.840234570544407200e-01,7.200208330006298008e-01,-2.725546176905582416e-02,9.904585131144413510e-03,3.688687469790991741e-02,2.477640360593795776e-01
7.255268713805959058e-01,5.221146106453220526e-01,6.825370447618706038e-01,-3.340481917912960230e-02,7.658712827075114804e-03,6.636819923093750795e-02,2.263135910034179688e-01
7.856410492627711184e-01,3.588427751742155336e-01,7.193137234274487035e-01,-1.547344844027669780e-02,1.543905024425243702e-02,2.320898267565341816e-02,4.016180336475372314e-01
7.121285549315528041e-01,5.045796067706438404e-01,6.827994812369891919e-01,-4.349662992779177242e-03,-1.083936890646004618e-02,9.778918749516536668e-03,1.963304877281188965e-01
8.490809556096284849e-01,4.287382441091126539e-01,9.487718544659076159e-01,-2.315872638717026699e-01,6.502261039760413863e-02,1.123604539854527740e-01,6.633151769638061523e-01
7.605432106384625301e-01,4.659884740784588364e-01,6.593488305299202157e-01,-2.821088381106138035e-02,-2.977257430348433619e-03,1.270253352218693177e-01,3.435345292091369629e-01
7.138699482913719585e-01,5.104687122961054646e-01,7.040939986769465531e-01,-2.062825746246749192e-02,-1.429199129467589131e-03,-8.232625733215136535e-03,2.023986726999282837e-01
4.466010089619614765e-01,8.191262704577760845e-01,8.708547746504220477e-01,-2.181671803380694219e-01,1.512033613489090211e-01,8.320822366784642876e-02,6.267934441566467285e-01
6.214384383468278816e-01,6.553948908931155337e-01,6.213742944083390229e-01,1.936387629057264095e-03,-3.162227062538241091e-05,2.050043950781301003e-03,3.433777391910552979e-02
6.278550139959960807e-01,6.552962504795015741e-01,6.219270097586533375e-01,4.581186235909596657e-03,-3.158109006869761875e-05,2.047075643793631015e-03,3.203702345490455627e-02
6.040526314249697881e-01,6.531301992594961137e-01,6.360986384619224943e-01,4.948269142402334647e-03,-8.970319207821677437e-03,1.243141128246558029e-02,5.139348283410072327e-02
6.344822223168117281e-01,6.401149981658250665e-01,6.301010676384853904e-01,3.758845103980016245e-03,7.462973352412134655e-05,1.405745865983252466e-03,1.113250013440847397e-02
6.274198435028265353e-01,6.420908996220312526e-01,6.296679480699688414e-01,1.638388556402130053e-03,1.083801585765037942e-03,1.043256835707272916e-03,1.421807892620563507e-02
6.200327859141350206e-01,6.607508674233095736e-01,6.386813701792862785e-01,1.468259398192665703e-02,-1.806963103078215727e-02,1.427022909234153605e-02,5.902191251516342163e-02
6.471281210192196820e-01,5.872495240026033292e-01,6.506992564559324066e-01,5.214861444209259456e-02,-2.963564297495482544e-02,5.150721162812866433e-02,1.502140462398529053e-01
5.473000703815019685e-01,7.499249892388132332e-01,5.543567351654622444e-01,-5.685897109974089383e-03,-1.324362561431986218e-01,-5.823105426634615951e-03,3.041276037693023682e-01
5.354630238333610848e-01,7.278881277845631326e-01,6.481287195747837959e-01,-1.831243237539680394e-02,1.380702473171861178e-01,-2.548516632479015664e-02,2.969612181186676025e-01
2.861503088055402655e-01,7.472567152466796925e-01,9.498143669561340818e-01,-1.172439853707344659e-01,8.744898736519154947e-02,1.022667753163205087e-02,6.415165662765502930e-01
6.324482121580464744e-01,6.360522973249914669e-01,6.355720593309414079e-01,-2.508405705878412589e-03,3.625989716450126691e-03,2.843772705591723123e-03,9.698973037302494049e-03
5.586751174012692944e-01,6.744112603046275023e-01,6.607939448310591324e-01,-5.594042490982063624e-03,1.470910370783802025e-02,1.357964602095749866e-02,1.153275519609451294e-01
5.990586251941950602e-01,6.640122648481561196e-01,6.494086172093767040e-01,-3.819712941392121221e-03,5.530009632005131182e-03,1.233850281876553746e-02,6.384286284446716309e-02
6.078122054554623288e-01,6.702327678263013677e-01,6.178698704897683802e-01,-3.279191935588794682e-03,9.668686771133871288e-03,6.562781342937108568e-03,6.173814088106155396e-02
6.204164171149814111e-01,6.585189238573255777e-01,6.251117720686862889e-01,-8.809406324160069107e-03,1.304634350663953953e-02,9.069381784508064037e-03,4.780315607786178589e-02
5.912977362889451083e-01,7.667555005040193050e-01,6.257042696649591784e-01,-4.466876929855505968e-02,1.436425835883605728e-01,2.790184005885047377e-02,3.100860416889190674e-01
4.326875840312487398e-01,7.569359244058413427e-01,7.461393249611553147e-01,3.363057802438167848e-02,9.958450410585080459e-02,-1.327537577354571778e-02,3.680023849010467529e-01
6.273961195883850372e-01,6.740579387902447817e-01,5.852057808388133608e-01,-9.921516109806006317e-03,8.238597214249618328e-03,5.863130264919442537e-03,8.079659193754196167e-02
6.518057938223337233e-01,6.605871130643143907e-01,5.871548897294568414e-01,-1.334264364714277812e-02,7.063924307886114244e-03,1.013854177017384228e-02,7.626740634441375732e-02
6.363387390637598173e-01,6.522292754974688966e-01,6.027045392054101169e-01,-1.327420600810057770e-02,9.150529433717795313e-03,5.516206521497246489e-03,5.281410738825798035e-02
6.004660109362229825e-01,6.635305471231663921e-01,6.055865501304219523e-01,-4.829870655864063056e-02,5.655415925589025311e-02,4.168420059515315357e-02,1.596451103687286377e-01
9.322248279543426941e-01,9.571169629108209342e-01,2.993545439560752475e-01,1.221770525213708262e-02,-4.128044038896088591e-02,-2.583149822855037442e-02,6.515057682991027832e-01
6.991512670347085345e-01,7.027541818139971808e-01,4.905264495610053288e-01,-5.293693004086505579e-04,-5.096392699987255595e-03,8.257237839177824622e-04,2.106413096189498901e-01
6.876492304640471342e-01,6.779410222898882843e-01,5.403198656708455561e-01,1.456746506073923648e-02,-1.316291900753339093e-02,1.250365468558520612e-02,1.483082324266433716e-01
7.047680034955418060e-01,7.218324985799415838e-01,5.052893374614815247e-01,-1.869167141346291146e-03,-7.594045909848404739e-03,1.376857722105014580e-02,2.103310525417327881e-01
5.930491352291874518e-01,7.115232576519774366e-01,7.304427884017984374e-01,-9.023305582502051669e-02,1.016572800705683316e-01,6.462573756135113479e-02,2.908498346805572510e-01
5.645970859618530957e-01,6.486859931778984345e-01,6.960515178487497456e-01,-1.122548549269767812e-02,-3.015768893680142743e-03,-1.718560841660959513e-03,1.170962527394294739e-01
6.187473823951989971e-01,9.301945985991415533e-01,2.786309614238776100e-01,5.513378620667117730e-03,2.822723145006792445e-01,8.782047058768492620e-02,7.621471881866455078e-01
6.485926350206303592e-01,6.806326294605792304e-01,5.526758361417281051e-01,1.160237211794736857e-02,8.222006327214290838e-03,-2.684273464667090089e-02,1.267596632242202759e-01
6.425153488459137696e-01,6.338646592173647898e-01,6.293780099543448969e-01,-1.136494062732101851e-02,8.495692894481867916e-03,9.667048184456438972e-03,3.190844133496284485e-02
5.767093074751243886e-01,6.060152575383657148e-01,5.773909749866449337e-01,-1.591437273318271062e-01,1.885550738536894977e-01,1.617562931927372105e-01,5.118337869644165039e-01
4.307527806065980513e-01,7.034530261481620750e-01,6.756285214727293376e-01,-1.829664426106913933e-01,1.843684713800984309e-01,8.379214235063867089e-02,5.394632816314697266e-01
7.504011762176557854e-01,4.863602006287762736e-01,7.175483049697826132e-01,-5.407749468718831866e-03,1.287059715123761890e-02,4.519370267622339205e-02,2.623633742332458496e-01
6.608114242588258858e-01,5.943523334580760320e-01,6.604280098368128238e-01,-2.654798641424088723e-02,1.985001318361204886e-02,2.808754181553924090e-02,1.002729386091232300e-01
7.020251771753077685e-01,6.311142146904845651e-01,6.028672652770372675e-01,-1.485138196861279227e-03,1.040150512210564647e-03,3.097915657333958489e-02,1.035290285944938660e-01
6.793768935000101816e-01,5.348358712155897310e-01,6.892596380880974261e-01,-9.169593450730238043e-03,1.045448505108135390e-02,1.002004920577760118e-02,1.526419818401336670e-01
6.894347184417648489e-01,5.789996123166409880e-01,6.231020113568923602e-01,-1.167576734322791493e-02,1.641401364489007003e-02,3.409663272432192360e-02,1.182178184390068054e-01
6.798493479208025381e-01,6.006729166632139849e-01,6.356442793110615996e-01,-8.947259680072230242e-03,7.127052973237494107e-03,2.952036868253317750e-02,8.791983127593994141e-02
7.043892901535743212e-01,5.501863274701903617e-01,6.645306856346376856e-01,-1.189875375635912613e-02,4.299853585336176412e-03,2.778524479339947867e-02,1.483819931745529175e-01
5.916364963772501318e-01,6.311192853977144468e-01,6.557487093383376209e-01,-9.697755191446961326e-03,1.184630207136001812e-02,1.105786342439849836e-02,6.486841291189193726e-02
6.417389519074803150e-01,6.418871360595593822e-01,6.134435330700567235e-01,-9.735371770368083169e-03,3.383630415356399333e-03,2.972660820075767509e-03,3.391216695308685303e-02
7.446278195255967569e-01,7.187120361756162978e-01,5.849289064588147902e-01,6.718459366474566208e-02,1.035802223704767044e-01,-1.191765876453748790e-01,3.322254121303558350e-01
6.849733729117046810e-01,5.802796995559766913e-01,6.267591362060860316e-01,6.910865533305218106e-03,1.068076496037707358e-02,-1.427414825320366155e-02,9.670455008745193481e-02
6.629146483574618332e-01,6.123512606781539303e-01,6.052392147764020791e-01,-4.213226946687747415e-02,-4.528289557352928318e-02,-6.623155704652339271e-02,1.661436408758163452e-01
5.457334500933687105e-01,6.658666388990508445e-01,6.268309549232286004e-01,7.500033130788243130e-02,1.047715723422759787e-01,-5.207495589558964327e-02,2.630743086338043213e-01
6.682234413916623428e-01,6.245318906257357749e-01,6.038459438112995237e-01,6.408008682315871965e-03,3.136462694175178294e-03,-5.604384398161976928e-03,5.905580893158912659e-02
6.349100896321049348e-01,6.328707449357110493e-01,6.289673407014627626e-01,4.986237276499284540e-03,2.705621202502941133e-03,-2.475421459918743933e-03,1.192844752222299576e-02
5.356314955225939256e-01,6.532703572403425474e-01,6.938093305590549154e-01,-3.044787888303364387e-02,1.495536324669658130e-03,-1.865789626727522169e-03,1.518210917711257935e-01
6.497041097913204277e-01,5.869343402901767703e-01,6.503924218232171039e-01,-1.242922259463566034e-02,-1.614522338308901211e-02,-8.115013474647389882e-03,7.366643846035003662e-02
6.745533169988260358e-01,5.703147778017000347e-01,6.654225913846426588e-01,-5.830640194716139695e-03,-1.019288667853522623e-02,-1.954675107678716800e-02,1.075042784214019775e-01
6.772390122769906817e-01,6.063864214738386993e-01,6.163244093517128430e-01,-2.545690823788207113e-03,-7.478225382801107456e-03,-1.023682459495364391e-02,7.011641561985015869e-02
6.967194148531504760e-01,4.427826772316602044e-01,7.014970779273775880e-01,4.606880314649967195e-02,1.312857214118273892e-02,-3.266896575860284146e-02,2.753284871578216553e-01
6.276387379385987009e-01,5.757934605745212986e-01,6.868417105398040290e-01,-1.488269550402538527e-02,-4.707538277280261078e-03,4.261654733768268288e-04,9.996914863586425781e-02
7.471792939269398248e-01,4.881663734219990891e-01,6.849013135730028790e-01,-1.770701608440712269e-02,-4.294152116466751212e-02,-1.153692652974721150e-01,3.181794881820678711e-01
6.254946809855707057e-01,6.044182513641899179e-01,6.603618991162700791e-01,-2.854569748445561633e-02,-1.794532809538280232e-02,-2.484880095461841978e-02,8.750930428504943848e-02
6.651066622990042809e-01,5.761717475023504509e-01,6.659416381969378573e-01,-1.474713312803085236e-02,-1.015314304251831688e-02,-1.638288025980822946e-02,9.874849021434783936e-02
5.997847776554474652e-01,6.640988377740835169e-01,6.585414499365968011e-01,-2.053852343959244181e-02,-2.598697589573114794e-02,-1.774011356608602707e-02,8.969593793153762817e-02
6.979145107835302841e-01,6.185425208763043470e-01,5.240381772134503624e-01,-3.828171314121260604e-02,-6.650748684649410158e-02,-1.205058931104436570e-01,2.897640466690063477e-01
6.554987694269300835e-01,6.997449064946089647e-01,5.236416173293859666e-01,2.154071371884161076e-02,-3.254930664821952674e-02,1.338596205834304172e-02,1.740291118621826172e-01
7.092494194264085117e-01,6.784619237095921296e-01,5.308072016918039537e-01,-6.725343065108217375e-04,2.098609523815945892e-03,1.081725186178841662e-02,1.663169115781784058e-01
6.781409849699939763e-01,6.888865825222767469e-01,5.365571043738019963e-01,1.213658162418936558e-02,-1.068517874772234588e-02,1.621568852222286805e-02,1.524995714426040649e-01
7.377993029527070146e-01,7.664194460377818929e-01,5.183998052559621872e-01,-2.068639326820985447e-02,-9.466227965118670373e-02,-4.021050710099127040e-02,2.970719933509826660e-01
7.878447776180796946e-01,3.661962341820154676e-01,7.276333963447646491e-01,-8.566834324418534305e-03,-3.536575318236386684e-02,3.422654325131536078e-03,4.000404775142669678e-01
7.098071413852431455e-01,4.808150429679725057e-01,7.315369776533579005e-01,-5.770021042201754422e-03,-7.371261342516245881e-03,-2.315548279385555661e-03,2.411731779575347900e-01
5.005911128164715063e-01,7.073131081146648569e-01,6.959223485659837838e-01,4.688136531877454272e-03,-1.664360383663176374e-02,-5.609887630529135881e-03,2.037164419889450073e-01
6.298489582992246039e-01,6.591470373413171879e-01,6.068697710589322503e-01,-1.852698895820362179e-02,-2.875084227972522083e-02,-2.246946806642203046e-02,8.416578173637390137e-02
5.412119621830687732e-01,7.028344703888471656e-01,6.587873367667645974e-01,-2.357917211066816107e-02,-4.632206880012892936e-02,-8.044589144258283697e-03,1.710036695003509521e-01
5.165808270293028581e-01,7.140455971381081124e-01,6.962324940998108058e-01,-1.200821376705306885e-02,-1.338486509108322182e-02,-3.607703928389443745e-03,1.918366104364395142e-01
5.345564325878238154e-01,7.030392428831389040e-01,6.800050457509377866e-01,-9.212719146482006502e-03,-7.626912194441730526e-03,-8.134609598087719218e-03,1.601992845535278320e-01
6.161077155088757751e-01,8.272709111694953599e-01,5.275971136485415602e-01,7.238550800563527642e-03,-2.818814547947230964e-01,-1.304834090973791827e-01,6.006002426147460938e-01
5.980114178992705920e-01,6.384220586038918954e-01,6.539977732805398736e-01,-1.000197892913831481e-02,-5.114669832304706565e-03,-1.607795041774954733e-02,6.049088388681411743e-02
5.900010295708351116e-01,6.267141392382785670e-01,6.657861379511927913e-01,-1.085501069877114338e-01,8.520256628469316529e-02,9.914799948702443522e-02,3.015422224998474121e-01
6.649632540613878984e-01,5.675742785870521168e-01,7.091130915385663869e-01,-5.211227204969324373e-02,1.821404112588373772e-02,1.407940039973717625e-02,1.595949232578277588e-01
6.179132611436256584e-01,6.185572566269688100e-01,6.509004035984541359e-01,-1.519652884266971087e-02,1.217658178957260751e-02,1.459897942797954741e-02,5.333220586180686951e-02
7.810475500120602765e-01,9.190005302856121272e-01,2.639287888575139740e-01,1.127011188161094191e-01,1.162505914739138113e-01,-1.854233057169562271e-01,7.345566749572753906e-01
8.975428580896652742e-01,7.892612509028562595e-01,2.946408790104856901e-01,6.768905017735428464e-02,2.078417907893097549e-01,-1.042030143478782922e-01,6.970275044441223145e-01
6.018511536246118343e-01,7.993189387371270049e-01,6.653292605774850932e-01,6.336325545194984588e-02,1.677562113356012574e-01,-1.663993122052839085e-02,3.574771583080291748e-01
7.180860746832515851e-01,7.287284000844114207e-01,4.894720413160879580e-01,-1.221514847398442148e-03,1.745097418067355008e-02,8.407850415707369268e-03,2.365180402994155884e-01
6.235374384157917893e-01,6.948368653164443964e-01,5.774068182806026961e-01,5.873808035467375892e-03,1.501847600874592001e-02,-6.877644126469462105e-03,1.068775206804275513e-01
7.323934042950078771e-01,7.628674168965136060e-01,4.743178218874697372e-01,1.674949992646201369e-01,1.413348695109878927e-01,-2.594723885734810387e-01,6.492028832435607910e-01
5.255622702759137344e-01,6.773743783704140320e-01,6.993634300361297740e-01,5.174475125039802725e-02,-3.807888729717997384e-02,1.331966123540084986e-02,1.994578689336776733e-01
6.113977349074248835e-01,7.484581607242313250e-01,5.152001929509747447e-01,2.129924110738535062e-02,1.479779246978376039e-01,-8.339725342116210971e-02,3.593648374080657959e-01
5.903933756110557596e-01,6.493651357971355065e-01,6.593871008640171949e-01,5.831546752934816009e-03,8.383896585263376014e-03,-1.582578484413078163e-02,7.234209030866622925e-02
5.631750504556859438e-01,6.840705965098493602e-01,7.311434827185042673e-01,1.082471167158777364e-01,7.297214225079064198e-02,-6.254361096970668943e-02,2.922066450119018555e-01
5.973845744355739118e-01,6.280726919693057075e-01,6.881923772860965016e-01,6.489871262164926408e-03,3.129187922815484905e-03,-4.743581016250706696e-03,8.139000087976455688e-02
4.087700361805403637e-01,6.947425727369385129e-01,7.219870919581413693e-01,1.749582060338123191e-01,-1.272796959553920415e-01,8.588468196223449092e-02,5.028655529022216797e-01
5.282806912337248972e-01,6.788199640112307920e-01,7.092147099467457361e-01,1.155532485992346627e-02,5.241335328756244628e-04,3.588351907718514110e-03,1.691199094057083130e-01
5.422213685985869391e-01,6.554013320637853690e-01,6.952744487829840558e-01,2.484204086532769765e-02,-3.366745418738416318e-03,5.575052351652152322e-03,1.445373147726058960e-01
5.745607548254418884e-01,6.137447522508083786e-01,6.757487404799340514e-01,5.060273686283112832e-02,-2.359761889618051944e-02,2.388466896906502393e-02,1.373802423477172852e-01
6.721623845924347140e-01,6.301052080448407144e-01,5.880699161620607240e-01,-1.132680365553638373e-02,5.215171833167784113e-03,1.163680897653563730e-02,7.858999073505401611e-02
6.552743521914647928e-01,6.693087452072282728e-01,5.694348581522149511e-01,-2.378761996330676365e-02,2.015547534282870201e-02,1.508008880607331244e-02,1.112141981720924377e-01
6.790785402684734740e-01,6.624898460083968876e-01,5.537089377885641150e-01,-1.255658014824704086e-02,5.765219460822553106e-03,1.763826597996154266e-02,1.241734474897384644e-01
6.582204357783955073e-01,6.151598465014440631e-01,6.142766544294969711e-01,-1.198449705329280614e-02,1.135853105919421187e-02,1.500489714904678848e-02,5.819277465343475342e-02
6.418394701909917455e-01,6.159788961727310497e-01,6.383526951692108931e-01,-1.013683930639515049e-02,1.493584865814632893e-02,1.859113096752593869e-02,5.104069411754608154e-02
6.815662338480623639e-01,6.491831090588970898e-01,5.712781180640791323e-01,-1.006300914493066072e-02,7.789450729784403761e-03,8.750683106733991856e-03,1.017654389142990112e-01
6.783696539049428598e-01,5.442425765659685277e-01,6.550782848134838465e-01,-1.449071159435672169e-02,1.626662075773500221e-02,2.193080285989218448e-02,1.351857632398605347e-01
7.963789565438754714e-01,6.468542248498269087e-01,4.292871180532019659e-01,-1.138603290699948117e-01,3.063833404114129633e-01,2.442816774289998660e-01,7.757255434989929199e-01
7.022727015494185654e-01,6.537995793549149504e-01,5.468917798772414685e-01,-8.353543188606027403e-02,9.938101618920285041e-02,1.212171084883228722e-01,3.370550572872161865e-01
7.759647405501091111e-01,8.251670064938296800e-01,3.630423155467030760e-01,-3.417456204903995126e-02,2.906785649010751663e-03,2.308794578219589277e-01,5.972332358360290527e-01
6.801748352324916702e-01,6.171220537226307368e-01,5.703694141340643897e-01,-1.908375471005660517e-02,1.849975405390633793e-02,4.802607568754024836e-02,1.347150653600692749e-01
6.832222842325961221e-01,6.633895737666486436e-01,5.683300730819270674e-01,-1.291003721057228104e-02,1.976111890884234973e-02,3.838763497014395509e-02,1.319366395473480225e-01
7.814949365942859272e-01,1.333072253518886030e-01,7.780022775378022670e-01,2.044351404035227651e-02,-4.376657818769977217e-04,4.858784130805246515e-02,6.528646945953369141e-01
6.943230908989301842e-01,7.090531541917597380e-01,5.119352484252965851e-01,2.526513971606448097e-02,6.337240709381262993e-02,-4.122573679143112096e-02,2.350122034549713135e-01
6.501048317131924437e-01,6.607733630237493383e-01,5.855024165400161129e-01,1.418820409367855216e-02,7.173274840362527278e-03,-1.338130816133882225e-02,7.919573038816452026e-02
5.489803527668135619e-01,6.805656882812658459e-01,6.751012157943058201e-01,6.814228028416888239e-02,1.081579975885572781e-01,-3.480169293327919910e-02,2.632176876068115234e-01
6.869414681329811811e-01,6.923956318709720836e-01,5.018531830385379866e-01,1.902579069035164466e-02,2.623128474074945538e-02,-1.822094387957912121e-02,1.986028999090194702e-01
7.023614547720661294e-01,5.954722435225778820e-01,6.360264754056184078e-01,8.911822510737511110e-03,1.112212426929762646e-02,-3.266199322530106974e-02,1.120041236281394958e-01
5.920506325389172098e-01,6.430198543038498915e-01,6.694782739490390266e-01,-1.242294003667190200e-01,7.234977522679846007e-02,3.614470659828650234e-02,2.656465470790863037e-01
5.377756238375719366e-01,6.817311607020348774e-01,6.964232671989466494e-01,-9.622314066805139413e-03,1.368139828886035490e-02,1.057170915050828670e-02,1.556555628776550293e-01
4.953631018001080077e-01,7.425727102102973598e-01,7.768799093010096968e-01,-1.237613414737754741e-01,3.384114571108428476e-02,1.323705138839719082e-02,3.473939895629882812e-01
5.150808997384255239e-01,6.569359339256962693e-01,6.990174845655094948e-01,-4.763315649813765207e-02,1.787406052153867747e-02,7.055283582800845645e-03,1.891499906778335571e-01
5.577100309610174556e-01,6.539396937309182034e-01,6.755696165452934610e-01,-2.133372060021651931e-02,6.730511062357034252e-03,1.455089374583447281e-02,1.180927976965904236e-01
5.632402751733821544e-01,6.757435270273032257e-01,6.590445841090285528e-01,-7.072965851613351521e-03,1.394949146535060316e-02,1.519789852695208748e-02,1.117314845323562622e-01
5.251339228211743260e-01,6.784780858950599791e-01,6.677485587859883776e-01,-4.735904739465134072e-02,7.316040966600065309e-02,4.046121938103452997e-02,2.228935807943344116e-01
5.623269960131587197e-01,7.189375350424814792e-01,7.247312528212987992e-01,-8.573541472091381066e-02,9.173251399321652455e-02,6.486763669025825962e-02,2.922113239765167236e-01
5.778701368813332628e-01,6.585580763605040078e-01,6.625469619053823145e-01,-3.108574734062927516e-02,3.316874912018913379e-02,1.447199055954669251e-02,1.169448345899581909e-01
6.640437091876650877e-01,5.569050779527525696e-01,6.761343673617813410e-01,1.978620210016205846e-02,-1.348104785389404002e-02,5.241259964022470207e-03,1.213357150554656982e-01
6.929762509260819492e-01,5.151615056916606372e-01,6.828017814214132342e-01,1.516956014128574559e-02,-7.172920807735571301e-03,5.172710950051860601e-03,1.756058186292648315e-01
6.865510727408665748e-01,5.257314638877124136e-01,7.775665634211522681e-01,1.411709451138826454e-01,-2.052756262339621232e-02,4.396080634873204829e-02,3.400490283966064453e-01
6.325736792540570530e-01,5.879747017596065328e-01,6.626319355927607901e-01,1.183847866450772092e-02,-1.567754711471967821e-02,1.281071301933235478e-02,7.670256495475769043e-02
6.369541203506005056e-01,6.866191405275020587e-01,6.045292894979578113e-01,1.430750094341387557e-02,-2.667742896756759852e-02,1.603600463221303146e-02,9.299996495246887207e-02
5.963706157890049653e-01,6.338061199785917088e-01,6.584376803795263244e-01,7.669187782045376427e-03,-6.536156015776319050e-03,1.266808489678722220e-02,6.096129864454269409e-02
6.689803535028383541e-01,5.479838695467739162e-01,6.912911646382325914e-01,5.601449940754988505e-02,-9.134416179157041002e-03,8.405361676122559064e-03,1.664709746837615967e-01
6.520395635376247112e-01,5.846131695480225599e-01,6.637913978018665784e-01,8.718740578237543781e-03,-1.523446346110619160e-02,1.293051428286719901e-02,8.308260142803192139e-02
6.191061668440192012e-01,7.051988833302006432e-01,7.082663819654977377e-01,1.025400595175707669e-01,-9.699293081255817850e-02,8.015885775047232320e-02,2.944962680339813232e-01
5.399164763995794036e-01,6.693236508794346840e-01,6.767262463403977968e-01,-2.364839959725790336e-02,-1.833709289278393634e-02,-1.858892160128357285e-02,1.465677171945571899e-01
6.804880504562899057e-01,6.576071929979383501e-01,5.611942847806866697e-01,-1.293857228736880645e-02,7.274755304579665245e-03,1.549602895627734400e-02,1.157858371734619141e-01
7.549933134420072633e-01,6.052965200469541118e-01,3.128583431947495885e-01,-6.540815837654294362e-02,1.115251286412037995e-01,2.362571406091001636e-01,6.077061891555786133e-01
6.958583703041052448e-01,5.326368482339718380e-01,6.625354681418059721e-01,-1.308867171352799804e-03,4.639078742689175389e-03,2.795639800229014760e-02,1.572483628988265991e-01
6.953893865978089117e-01,5.734866526211275239e-01,6.210075756254286317e-01,-2.932503431501702791e-03,-2.926504088898499584e-03,1.830720388766541792e-02,1.112768501043319702e-01
6.983988670996549297e-01,5.125419549307165257e-01,7.018793170254213898e-01,1.264749971048719987e-02,-5.470384274548145513e-03,5.508167143510061918e-03,1.893738210201263428e-01
6.482135652857154984e-01,5.718254372035471711e-01,6.838474246148297242e-01,1.030401097471549642e-02,-1.084267111581221563e-02,5.589872155444282516e-03,1.029168143868446350e-01
6.215769569170649378e-01,5.626484534392989234e-01,7.114299656176847897e-01,5.494189384265555504e-02,-2.599319231246043083e-02,2.166670192688022883e-02,1.712663024663925171e-01
7.103986189106930027e-01,4.975978107356257008e-01,7.074021431824070172e-01,1.028825477821814771e-01,2.298280243747539975e-02,-1.729913420043785455e-02,2.808778584003448486e-01
7.152478542276269335e-01,4.619086913386241111e-01,6.982598777521451527e-01,3.948154164992551118e-02,-4.404023108369059525e-02,5.172756928762882456e-02,2.805135250091552734e-01
7.240231376472049396e-01,3.996104645266120303e-01,7.804574805211231814e-01,9.285113042989082566e-04,-2.087585818627607157e-02,5.713233232807219536e-03,3.579725623130798340e-01
6.605484568252302235e-01,5.382465522791923807e-01,7.553571512042077662e-01,1.511318760477252110e-01,-4.406673073722234407e-02,6.180350567369744669e-02,3.483517169952392578e-01
7.120447125805982047e-01,5.835306596848806038e-01,3.818752879627103081e-01,-9.239131411297200891e-02,-1.305565498535089797e-01,-2.557973077009225715e-01,5.967718362808227539e-01
6.753083744898366048e-01,6.484234135450075431e-01,5.581468791683000807e-01,-1.614905536733579269e-02,-7.863679516798390695e-03,-1.761920720934351953e-02,1.148866042494773865e-01
6.746295873747544247e-01,6.133033198067830982e-01,6.133079401211811721e-01,-1.815319045896354386e-02,-9.627799447555740117e-03,-2.701733872254295440e-02,8.495372533798217773e-02
6.368277475025785339e-01,6.616001937340484362e-01,5.929163409982715072e-01,-1.468930868794736735e-02,-8.507470907869955912e-03,-9.946071767737565267e-03,6.921640038490295410e-02
6.943963936450963104e-01,6.690020166235359778e-01,5.483351012782667899e-01,5.880378759082615682e-03,1.072125619601410618e-02,-1.969858952630631002e-02,1.410046666860580444e-01
7.650669810839263452e-01,8.422774765521650053e-01,2.110742481691402772e-01,1.193320059984628173e-01,1.383756942936517076e-01,-2.443431947558951101e-01,7.968174815177917480e-01
9.703133710097364695e-01,6.967727809789978632e-01,3.667461624195480496e-01,-1.631414214412975003e-02,1.423068402589335035e-01,-1.889473152871645190e-01,6.653368473052978516e-01
6.293061521866395447e-01,6.031881867583722689e-01,6.787580078067561029e-01,-4.293269944582725137e-03,-5.647930860779056331e-03,-3.298591842836551009e-03,6.784432381391525269e-02
6.913746536038569701e-01,6.473839876101969981e-01,5.251764443335936727e-01,-3.273828218333204709e-03,-5.436243812220564568e-04,-3.550689358284112723e-02,1.614345461130142212e-01
6.859994089057500632e-01,6.586064073412005726e-01,5.263074197349902894e-01,-1.431783402621075556e-02,-3.161892416217029073e-02,-4.704622425357980059e-02,1.792533844709396362e-01
7.435377236520503974e-01,7.479029869830181587e-01,4.859815976275589922e-01,1.113733872351475029e-01,7.501695108662373435e-02,-3.017364933319246489e-01,6.282578706741333008e-01
7.373575338588028716e-01,4.898908073632229909e-01,4.757253977840229520e-01,9.011393994972934085e-02,9.699780742679080248e-02,-2.746464107163838486e-01,5.863660573959350586e-01
8.907599688196765619e-01,3.802030740069361481e-01,7.395599046829266499e-01,1.562181046583820676e-01,1.524855650885518013e-02,-1.419126852116899817e-01,5.836617350578308105e-01
8.010487587018584321e-01,5.140458463315322746e-01,6.453526949631722687e-01,7.547796177856772037e-02,-6.032107299433399350e-02,1.517744531592692403e-01,3.987979888916015625e-01
7.743456117460418842e-01,3.008135960411732479e-01,6.211660249665070799e-01,9.612193235971344674e-03,1.751815020248029264e-02,2.497560703808768545e-01,6.029040217399597168e-01
9.457616830108719341e-01,4.080275914986656316e-01,6.651301249092156365e-01,1.771134191825741999e-01,-1.503243088846566633e-03,2.187314044328456941e-01,6.742784380912780762e-01
6.876155058008096566e-01,5.439015540060494480e-01,7.639490274271185655e-01,3.284898411791533634e-01,-4.305767116600105887e-02,1.008707328658735719e-01,6.302809119224548340e-01
6.577387440124479179e-01,5.395480286022675820e-01,6.812160242120992582e-01,2.497225156012430891e-02,1.442953548818169153e-02,-1.017381019327022115e-02,1.417780667543411255e-01
6.080977962196356668e-01,6.096338104534148039e-01,6.752972598096893542e-01,1.826197135304498745e-02,9.262930446957473585e-03,-9.868678159150760798e-03,7.723331451416015625e-02
5.578763382410080185e-01,5.796325386694658466e-01,7.571610651722967544e-01,1.172743677861508987e-01,6.075245983644764897e-02,-3.429768991335505751e-02,3.028423190116882324e-01
6.931736846157201537e-01,5.072432952832524045e-01,6.860081300573530605e-01,2.262212646381966605e-02,2.479896845880177544e-02,-2.239191488613421696e-02,1.953806579113006592e-01
6.964360263619094882e-01,5.526576725358710585e-01,6.042876925533360311e-01,-7.273811887280020108e-03,-7.037864902871599111e-03,-7.307345590536651336e-02,1.795580834150314331e-01
8.400282746887357543e-01,6.663114397473480777e-01,4.661902898601822942e-01,4.254141515580960042e-02,1.885491041948666180e-01,-2.953461889983177713e-01,6.919249892234802246e-01
6.763943089215215254e-01,6.601784357454477670e-01,5.589590933933814565e-01,1.447154695152480693e-02,8.661556943102600298e-03,-1.337874998984529655e-02,1.163614541292190552e-01
6.869941361606436425e-01,6.315929843933504317e-01,5.749932829107946564e-01,3.319433321613895344e-03,-1.593252483006868739e-03,-1.541593505589725771e-02,1.008073762059211731e-01
7.976228495969817089e-01,7.297977081124193965e-01,3.901546676132702229e-01,3.218039284762595894e-04,-4.083783749050257095e-02,-1.132154002821680605e-01,4.317993223667144775e-01
6.097663455334249027e-01,6.806874883849969304e-01,6.138348951427233802e-01,6.221247301022566961e-04,-2.808435158727904703e-03,5.444679428636327399e-04,6.916305422782897949e-02
6.174734709605977923e-01,6.641694633735871767e-01,6.163189132306833296e-01,7.044150742341099940e-03,-6.779639918900488317e-03,4.805324229715391381e-03,5.090958625078201294e-02
5.386144866185709201e-01,6.883183154037417761e-01,6.810738353795937616e-01,9.739259417058483345e-03,-1.250332186978918812e-02,1.498367242262022524e-02,1.510174870491027832e-01
6.029447826787007747e-01,6.806714254231071015e-01,6.111757485277709012e-01,1.913446046608428559e-05,-7.937613278022804045e-03,-2.722798727648818168e-03,7.537024468183517456e-02
6.102489073839798550e-01,6.808948799789078521e-01,6.138954646394945147e-01,2.912900141348109817e-04,-1.630756932519077714e-03,-9.720360055224553384e-04,6.897538155317306519e-02
6.104748511492755769e-01,6.772764348944435575e-01,6.136129738749215301e-01,-1.036925749154636719e-03,-8.441816304300834087e-04,-1.368531120576165893e-04,6.533060222864151001e-02
5.660382759104920503e-01,6.803480388452584071e-01,6.177964456692717210e-01,1.716111228066937583e-02,-5.027805156040911216e-02,1.825983765187575575e-02,1.389121711254119873e-01
6.096618510187634676e-01,6.780952295426569965e-01,6.150816952957276484e-01,3.352608702366185372e-04,-2.965342149628212749e-03,1.104265249973986930e-03,6.612094491720199585e-02
6.155902264604661278e-01,6.819821918758282031e-01,6.130732378052234921e-01,2.750377873753615931e-03,-1.378247232589119645e-02,4.650106430807779412e-03,7.237935066223144531e-02
4.850642734628817232e-01,7.686203404164930753e-01,7.606692309795467510e-01,6.422829013774243589e-02,-4.215046739769343770e-02,1.111669739113419798e-02,3.103050589561462402e-01
6.226918794598640394e-01,6.620278692387454589e-01,6.159127827149746270e-01,6.748173358284038394e-03,-4.664581462559452656e-03,2.774680421842643137e-03,4.566096514463424683e-02
6.359484030162024792e-01,7.624419243100374333e-01,6.242053948086779824e-01,-5.523918837084320493e-02,-1.577114641172570331e-01,-8.194738988431972404e-02,3.486299812793731689e-01
4.798708040663892671e-01,6.882287133926588973e-01,7.580309713576528496e-01,4.423118009871991607e-02,-3.789304832910985604e-02,1.406382942363344768e-02,2.712921798229217529e-01
6.389110853175130611e-01,6.532128103489982518e-01,7.065530106401300969e-01,1.134156841276568323e-01,-8.951458684547837497e-02,8.252135987682197860e-02,2.947368919849395752e-01
5.854167700050351142e-01,6.512314405502641623e-01,6.648699640666392296e-01,6.592633293133967273e-03,-1.251312958950168489e-02,1.407377104282919039e-02,8.129902929067611694e-02
5.614043510799338055e-01,6.749262212827670249e-01,6.580886156158096689e-01,6.634804533879475573e-03,-1.533135590755313298e-02,1.477810867708241258e-02,1.129233092069625854e-01
5.707992631076526102e-01,6.961650133889559777e-01,6.489810122240755597e-01,7.528011430916274269e-03,9.065841973790867217e-03,-6.872717264443589831e-03,1.121870204806327820e-01
5.359482296932788215e-01,7.159669839374948053e-01,6.553077367997022229e-01,5.703230504541086099e-03,3.416837578722708296e-02,-3.898597382758629652e-03,1.697412878274917603e-01
5.645278151691329738e-01,6.755743560452029950e-01,6.492832829574850528e-01,-1.059333670871641896e-02,1.313336196797195050e-02,2.035567017867414077e-02,1.104544848203659058e-01
5.713470771454872699e-01,6.967311925234069836e-01,6.520327707153166230e-01,-6.513995820228330423e-03,1.100760513552982017e-02,7.444289466512271289e-03,1.130119636654853821e-01
5.931253389346011762e-01,6.787080232036447613e-01,6.274043957277941619e-01,-8.269521469626723307e-04,5.648379307452593145e-03,6.186763328336486109e-03,7.601545006036758423e-02
5.929223579248291687e-01,6.856531222525732439e-01,6.286161402384944363e-01,5.606529917676630718e-03,3.554714782390776956e-02,-1.408526236545502332e-02,1.050876379013061523e-01
6.009592592075615469e-01,6.846582508639649234e-01,6.273080185320706326e-01,7.409716606573012523e-03,6.222383050288778951e-03,-4.410944865437748351e-03,7.637833058834075928e-02
5.688105265112662901e-01,6.200497771192683416e-01,6.770777813686463809e-01,-4.894445373994580489e-02,-2.426135849638884345e-02,-2.370399152334689077e-02,1.394198089838027954e-01
5.629388560209445114e-01,6.484140897087419253e-01,6.943478209769267107e-01,-1.179090467809288181e-02,1.367402693244763878e-03,1.890148706345164348e-03,1.173691749572753906e-01
6.962507194552701728e-01,5.525163035003467504e-01,6.742549977327388921e-01,3.834984303142018741e-02,-1.785685285338813044e-02,7.925136421023819266e-02,2.054091542959213257e-01
6.294362047548942574e-01,6.687472284066213746e-01,6.020373372187896033e-01,2.945744516858617504e-02,4.771296332268591678e-02,-3.972103903369245126e-02,1.324357092380523682e-01
6.612200526466764927e-01,6.332993354626259563e-01,6.108421280104560092e-01,1.033701981843754107e-02,1.588894109998967167e-03,-5.464821613093598374e-03,4.825600981712341309e-02
6.560468628579115835e-01,6.241286473536392654e-01,6.086199357289958645e-01,2.198529009309083126e-02,1.057124483486571002e-02,-9.184903442077873778e-03,6.158492341637611389e-02
6.628608153191456465e-01,6.036098395876668965e-01,6.253815523953266675e-01,2.544655296078853629e-02,2.198912089923513169e-02,-2.846862255232968444e-02,9.229964017868041992e-02
6.573091186643644779e-01,6.617433753287026432e-01,5.659248118941694328e-01,1.798224722701825470e-02,1.916262714277875562e-02,-1.087945550987119356e-02,1.058431193232536316e-01
6.499866981040239855e-01,6.619498886819313865e-01,5.937050365740446090e-01,1.350876740119952117e-02,6.998214719514915527e-03,-1.140253162972320981e-02,7.119332998991012573e-02
5.789687725302156140e-01,7.016953601362393433e-01,6.463746580117075702e-01,1.058248202758948486e-01,7.589703833783037479e-02,-7.255045838337495501e-02,2.792871892452239990e-01
6.317478022380825786e-01,6.071007390304308249e-01,6.550138747741981460e-01,4.181334090136335120e-03,1.060875258122409050e-02,-3.574318009907150127e-03,4.637502506375312805e-02
6.353656693546360090e-01,6.354787656288211073e-01,6.333898729805220729e-01,2.338628498013946691e-07,9.667703066875767441e-04,7.341682157932574986e-04,2.925911918282508850e-03
6.325276844804056386e-01,6.326487357062723360e-01,6.329154594943839918e-01,-2.361994801223117439e-03,9.734312431249991619e-04,7.405096246703457043e-04,4.619838669896125793e-03
6.353462308621458110e-01,6.337329991869640189e-01,6.349013262789511280e-01,-1.136283278550609746e-03,-3.366986124800106446e-07,8.994716926693397405e-04,2.895391080528497696e-03
6.315729670968273091e-01,6.343954862913173676e-01,6.367922456553664068e-01,-1.009760735523159260e-03,3.413474378272107757e-04,1.474465228437238850e-03,5.514210555702447891e-03
6.373031751597764138e-01,6.341295146220757850e-01,6.276185934244640219e-01,-4.402653923646297762e-03,1.247472432183131417e-03,2.543358821421690553e-03,1.246404182165861130e-02
6.316597253714746341e-01,6.348678850067696056e-01,6.273679876571718328e-01,-2.605913624277100132e-03,2.973856878167372136e-03,8.378494367008326076e-04,9.565023705363273621e-03
6.755815318367041078e-01,7.629763747299633803e-01,5.702004525626477305e-01,-4.078843407067981458e-02,-1.243555529087515266e-01,-6.918024540250264365e-02,3.060956001281738281e-01
5.180545256328307202e-01,8.092888190235231205e-01,3.810381430437078665e-01,-1.943111693002457646e-02,-2.865026218055121143e-01,-2.898944320290149090e-02,6.272159814834594727e-01
5.651912530549595415e-01,7.900944241795364587e-01,5.757569526958765671e-01,-2.053943559851754280e-02,-3.158965661764953636e-01,-1.512735895820593868e-01,6.462239623069763184e-01
5.291865592864907208e-01,7.470544906776483973e-01,3.928260955666337262e-01,-5.027581054192187260e-02,-2.760308673133523572e-01,-6.638726555341807611e-02,5.874972939491271973e-01
6.525164436356467590e-01,6.973504677722048850e-01,5.632419162720948558e-01,-1.806260659887325192e-03,-1.144075379796569841e-02,5.226206550640728711e-04,1.199410110712051392e-01
8.766583643511427493e-01,9.359261780869815306e-01,3.643730919968671822e-01,-2.465024164030634249e-02,-1.650817843334179968e-01,-9.712906296743352430e-02,6.388990283012390137e-01
7.081711070205783942e-01,6.558547587463254835e-01,5.248449621384616570e-01,-1.580201637034338302e-02,-4.887781934016462160e-03,-2.821146611813255684e-02,1.730981320142745972e-01
9.121803976859549357e-01,7.385801199354191660e-01,3.704402784372088364e-01,-6.930306308228546819e-02,-9.852287601286396912e-02,-1.610959287576002597e-01,5.924170017242431641e-01
7.335394585739496431e-01,6.088763487768645843e-01,4.943463982664872414e-01,-1.631625879130565700e-03,3.003218605591014348e-02,-1.849964812408533277e-01,3.851240575313568115e-01
8.234014743372921608e-01,6.440171362980425807e-01,5.774169592989031319e-01,3.182529305649983709e-02,5.640415222961801117e-02,-1.667591481947781062e-01,3.802236616611480713e-01
7.051775048205902729e-01,6.690742155048576834e-01,5.125655117428842278e-01,1.234114304282899269e-02,1.920519907990908548e-02,-4.690217193765406495e-02,1.990270614624023438e-01
7.118117647002237813e-01,5.390010975670946891e-01,6.635472414737243474e-01,-2.590805297066773368e-03,-1.110530380886857842e-03,2.682038006890639578e-02,1.613511741161346436e-01
7.926108471673112277e-01,5.234565012142168294e-01,3.861651382651820619e-01,-1.767471002096337659e-02,-3.305261977222920949e-02,-2.972910544115485720e-01,6.305601000785827637e-01
8.283920211276463164e-01,7.331602596163768748e-01,4.913609483889139762e-01,3.334907078648272072e-02,5.890190763703421345e-02,-3.070620212921644221e-01,6.222290396690368652e-01
7.277088938798641493e-01,4.943814923176965137e-01,4.419788058862118563e-01,7.234068522471480411e-02,1.151126937251808341e-01,-3.160809889189331034e-01,6.516046524047851562e-01
7.381847819837129565e-01,7.854417400771879221e-01,4.051969924295106829e-01,-1.465802825465438164e-01,-1.215390970528330838e-01,-2.460500595141244529e-01,6.474909782409667969e-01
8.010550630711322784e-01,6.299308961391208994e-01,4.798005645127805252e-01,3.906097139020730385e-02,1.709613206653309500e-02,-1.535551492190173895e-01,3.920525312423706055e-01
7.089495089689100693e-01,4.757932492433360472e-01,6.318772054859366216e-01,5.686875053376424030e-04,2.068885673591997626e-03,1.071206472184993014e-01,2.770747244358062744e-01
6.153018402673078313e-01,6.682038259116741541e-01,6.143861190658064242e-01,1.377310998434520904e-03,-7.029560376376151618e-04,2.122529151368482154e-03,5.355922877788543701e-02
6.139386130517388018e-01,6.695569872163849023e-01,6.147578948596049697e-01,1.930236177160110471e-03,-2.221304764603645489e-03,4.172399704409325387e-03,5.591703206300735474e-02
6.221333452016668542e-01,6.698852982569679648e-01,6.151428353972520080e-01,4.948282789073273763e-03,-1.403714000412605413e-03,2.000340083786648817e-03,5.248141288757324219e-02
6.181289954821447274e-01,6.775587470619885977e-01,6.201649633299223252e-01,6.873592498115486775e-03,-1.044625855264243348e-02,7.405530343373534045e-03,6.362924724817276001e-02
6.263610803219212819e-01,6.816641004579836460e-01,5.999443710508615135e-01,5.268340077212787208e-03,-4.322243011810330410e-03,2.279813126649155464e-03,7.329457253217697144e-02
6.346730663734110323e-01,6.727654033622657570e-01,5.877137427525089830e-01,1.180207848888982676e-02,-8.214759953833852477e-03,4.838904005292662784e-03,7.832977175712585449e-02
6.083565733873401715e-01,6.343849680603333985e-01,6.364259347083757179e-01,8.296107926038015848e-03,-8.167754085419400012e-03,1.349612512929407142e-02,4.108302667737007141e-02
6.418289617282060266e-01,5.469192691616103774e-01,6.726377677526083065e-01,-4.133660100609571481e-02,2.336353533918897329e-02,1.295603752354704957e-02,1.419449597597122192e-01
8.680190786495722843e-01,3.574211889171650669e-01,7.656529225184608434e-01,4.972032538065708496e-02,-1.063503493006796863e-01,1.944911469397836157e-01,6.113501787185668945e-01
7.016161543750925045e-01,2.842659325744202881e-01,7.371797098610790577e-01,-1.584129740011978593e-01,2.187101143639184550e-02,8.632066474450073024e-02,5.379230976104736328e-01
6.524318678726240828e-01,5.871823805347176073e-01,7.656225598083000738e-01,-1.379663884351479408e-01,3.473294889800774415e-02,3.294402567346522981e-02,2.973793745040893555e-01
6.756499861378442162e-01,5.814248227355977017e-01,7.414491120039213845e-01,-1.126640713230817048e-01,5.483603623509208935e-02,9.351359350722474040e-02,3.045369684696197510e-01
7.924016171953619514e-01,5.044170957209691553e-01,7.083609915405527646e-01,-2.413971600663577521e-01,6.663800205541509092e-02,1.383468717058269348e-01,5.579916834831237793e-01
6.971071427274122545e-01,6.622255254596196572e-01,6.615949089245568571e-01,-1.052089538242975408e-01,9.713252704067154575e-02,1.019555542743683235e-01,3.064879775047302246e-01
6.124611545785527689e-01,6.226521492115013601e-01,6.699013247071724519e-01,8.768560906036867390e-04,-2.115017386807831277e-03,5.211631184200021978e-03,5.399135872721672058e-02
6.967861227269784852e-01,4.906356166198909685e-01,7.124108575523728781e-01,2.349237547676338161e-02,-8.664980594190666366e-03,9.731599508981779098e-03,2.193814963102340698e-01
6.206034938975377724e-01,6.144158547824549732e-01,6.687250355742180297e-01,4.040433127880255389e-03,-1.650593241089714711e-03,1.819027828952422951e-03,5.214214697480201721e-02
6.108145665370549038e-01,6.058724115097168239e-01,6.766881984089613278e-01,1.004170966493799985e-02,-2.386415514061039200e-03,2.347782294551855643e-03,7.089038938283920288e-02
6.334832932492057145e-01,6.298888516192625575e-01,6.361777494382895304e-01,7.289324027944175640e-04,-2.335500292276048318e-03,1.062980511061984443e-03,7.156302686780691147e-03
6.171651348413048632e-01,6.130367117836226232e-01,6.777008451086159457e-01,2.667365634132090255e-03,-1.815896221917036183e-03,2.107721175610448392e-03,6.305630505084991455e-02
5.956258535621303807e-01,6.249770567283007283e-01,6.782496744544250777e-01,4.976650164960583385e-03,-4.720351846402326933e-03,8.144727820857801046e-03,7.485476881265640259e-02
7.334106267694651127e-01,6.785050588273686678e-01,4.217116328256678148e-01,-1.110737418698485440e-01,-1.267017951876912296e-01,-1.784978338996988656e-01,5.136277675628662109e-01
8.207420949148891420e-01,7.895469429083252777e-01,4.160421662518980490e-01,9.905836593887261746e-03,-1.096286908445506386e-01,-2.871669846376274648e-01,6.602081656455993652e-01
6.934356929307138317e-01,9.423532482542442690e-01,3.538528118056112892e-01,-3.816191992513860622e-03,-1.714133883530360447e-01,-8.575323156781236578e-02,6.099646091461181641e-01
7.985696226682318377e-01,7.323351690250298196e-01,3.588800154917193841e-01,-2.445835313048480911e-02,-5.468979567340981340e-02,-2.066226917696684373e-01,5.544706583023071289e-01
6.968711949862969046e-01,6.522657736911265935e-01,5.590614022251829685e-01,-9.198660751993514980e-04,-1.811407166474349184e-02,-5.541153474363221670e-02,1.582160890102386475e-01
7.084096975234903670e-01,5.704376454423862874e-01,6.239709936535717816e-01,-2.047682761605389840e-02,-3.380075345338144632e-02,-4.768750161010566757e-02,1.613185256719589233e-01
6.956598787597922939e-01,6.113708836713883654e-01,5.997036750109494552e-01,-1.708105560912104000e-03,1.562065828539913569e-02,7.486464130271400230e-02,1.605586707592010498e-01
6.504061228523384530e-01,6.935752457603268084e-01,5.654400810378508169e-01,-2.213181036226479978e-03,9.973504841737481155e-03,1.615551985107337510e-03,1.143313050270080566e-01
6.088937565783214545e-01,8.092240258276925946e-01,6.090467843220777056e-01,-2.071982946176650908e-02,1.377552767091874408e-01,1.406801265974098360e-02,3.145040571689605713e-01
6.170372644036342669e-01,7.275079481752537713e-01,4.629740763588791053e-01,-2.116400143845205417e-02,1.192054627833049329e-01,2.278953019409033984e-02,3.138317465782165527e-01
6.798630456268028865e-01,7.049992469612816892e-01,5.234166798938603149e-01,-1.086458279291020387e-02,1.795087001723186249e-02,3.219749266141072770e-03,1.743320971727371216e-01
6.417824388693502691e-01,7.113788045887288192e-01,5.281363622489709808e-01,-7.215529161002093295e-02,8.747139274401384557e-02,1.050674014481954160e-01,3.120237290859222412e-01
6.557655036584741914e-01,7.089914221869360045e-01,5.433106405122393179e-01,-8.861621920344441017e-02,1.000042298454184991e-01,7.883850473213424581e-02,3.060591220855712891e-01
5.616491789463111672e-01,6.928753054230134545e-01,6.238443418954384700e-01,-1.129374574285189198e-02,6.888609454254816800e-02,1.269518004085697614e-02,1.674184501171112061e-01
6.822471211168872340e-01,7.060554724926715320e-01,5.290879448461098811e-01,3.918000057417837106e-02,-6.726269832303649610e-02,4.122272853776796919e-02,2.257144451141357422e-01
9.489335202070167119e-01,5.021512979596383097e-01,5.155368888555359463e-01,1.064953639522895658e-02,-3.474559210041006790e-02,2.817880992964593712e-01,6.602944135665893555e-01
7.642062291707323318e-01,7.019208696928451729e-01,4.998811903064621642e-01,7.580915662251928866e-02,-1.006788936893752429e-01,3.311109449670777138e-01,6.586628556251525879e-01
6.849601954345000410e-01,6.871835837528975643e-01,5.033249144344564829e-01,1.735229136079768225e-02,-2.575437557912085146e-02,1.902774490984729394e-02,1.933377832174301147e-01
6.963677937714967126e-01,6.071766899339026136e-01,6.265908703862778095e-01,-5.245342826973004025e-03,7.336936183183241644e-03,3.378084628123440708e-02,1.013304516673088074e-01
9.145373072862448272e-01,7.910053018496134847e-01,2.029560885338773657e-01,5.033713266416077470e-02,-6.490740309901223137e-02,6.038829576600085458e-02,6.818251609802246094e-01
7.813408100637360132e-01,7.626798125806376616e-01,4.514491888350219417e-01,2.237484857680635802e-03,6.358612707810747978e-03,7.871357583954850801e-02,3.489189147949218750e-01
7.447125505548405355e-01,4.378380444321153253e-01,4.796498365536608910e-01,1.298649565919638427e-01,-1.051830801059864956e-01,3.178756685139590421e-01,6.855721473693847656e-01
6.807016841325337353e-01,6.184798013007171136e-01,5.758058457791935814e-01,1.084535514639031750e-02,-5.888070916349858429e-03,1.882884084025579496e-02,9.933947771787643433e-02
5.093407476511129239e-01,5.722996643387679994e-01,8.822973486233631757e-01,-3.123461779521670700e-01,-3.692769066900049302e-02,-1.122372028356299067e-01,6.739009022712707520e-01
6.594142289882415353e-01,4.130348288862856210e-01,6.990547566552254288e-01,-1.880314445538899260e-01,-8.660459456300172165e-02,-1.432975140248916313e-01,5.120662450790405273e-01
6.135900609043378751e-01,5.420810447274089228e-01,7.147701412215214933e-01,-1.908472335226064631e-01,-2.124791001945901259e-01,-1.588118479089654922e-01,5.856278538703918457e-01
3.916106144928640509e-01,5.664124585397724010e-01,7.037283072442002130e-01,-2.625008867584627259e-01,-1.681473280357722588e-01,-1.138975773956199949e-01,6.355100870132446289e-01
5.914892989344614493e-01,6.507090628492264717e-01,6.638563247794289079e-01,-6.019282613928325643e-03,-8.523888819345723511e-03,-1.297150162060838920e-02,7.273138314485549927e-02
4.808367504182790575e-01,6.798698325062721981e-01,7.932533069114811042e-01,-1.114069839158668140e-01,-1.497262825785840128e-02,-4.642332357192620329e-02,3.455567955970764160e-01
5.963494202769835661e-01,6.587290443732938261e-01,6.412620283179889524e-01,-7.203880753072246235e-03,1.068142955350214439e-02,1.783900243302383865e-02,6.752321869134902954e-02
6.004765733503666381e-01,6.299314880442348219e-01,6.612006469995569402e-01,-3.070733652238966452e-02,2.232447214675150476e-02,1.964417473151426966e-02,9.081867337226867676e-02
6.079123501269844132e-01,6.750101730175932513e-01,6.510343575112139680e-01,-1.621081897949933071e-02,3.906856133571725946e-03,1.716442564674558122e-02,7.201560586690902710e-02
5.835166625520502581e-01,6.499191803267121426e-01,6.571427963029946584e-01,-7.322770484816835262e-03,1.309356406999211478e-02,1.456410290044592853e-02,7.907384634017944336e-02
6.144037256884807841e-01,6.317939218834363047e-01,6.666551730200369619e-01,-3.653736839846087082e-03,4.112284025456006999e-03,1.136298691554235921e-02,5.101082473993301392e-02
5.993843607566545773e-01,6.576657121420118601e-01,6.334430412874759719e-01,-6.330159637727171551e-03,7.442156101166524929e-03,1.394422457749701708e-02,5.866359919309616089e-02
6.136116662108079822e-01,6.584486666799617138e-01,6.283333796678076677e-01,-3.623695527730314871e-03,4.356266938922426050e-03,7.112630074866141926e-03,4.260400310158729553e-02
6.202198793188136161e-01,6.131427796511379480e-01,6.610982404096146237e-01,-6.974432732008833784e-03,7.080946131982295173e-03,3.837338033869379557e-03,4.848658666014671326e-02
5.670672133343271915e-01,6.950426166395372585e-01,6.486389711088368371e-01,-1.382612131772394072e-03,9.278721429237081833e-03,6.839952512677578613e-04,1.133926808834075928e-01
6.341648674160221821e-01,6.882874350029796195e-01,5.952805258731884708e-01,9.059361638733550576e-03,3.333003966595286111e-02,-1.289472195616527678e-02,1.030702516436576843e-01
5.163575621271049298e-01,7.860967830573936110e-01,7.048566834795125802e-01,6.130540911126554360e-02,1.180988038640653215e-01,-5.973848021578297141e-02,3.482365012168884277e-01
6.200937190324894432e-01,6.264098453240426467e-01,6.048498190607276559e-01,4.479347829619605148e-02,4.762594647917926804e-02,-5.031146048436040130e-02,1.441746950149536133e-01
6.170899689059915483e-01,5.756169722575569248e-01,6.780878309855394859e-01,-4.634679366638094072e-02,1.882504603934952170e-02,1.543342378996088483e-02,1.272490024566650391e-01
6.300893838451382400e-01,5.810998871263590715e-01,6.789683369432528703e-01,-1.383759020299826434e-02,1.403371245227192504e-02,4.071471628980261222e-03,9.164431691169738770e-02
6.496733818326154708e-01,5.767461229076754625e-01,6.802963766438496762e-01,-8.451870220471913511e-03,1.184698847398492697e-02,3.432512232843554743e-03,9.570844471454620361e-02
6.562892647271969526e-01,5.579336860316488345e-01,6.756412919196741473e-01,-1.551614177949944134e-02,1.383174590770071093e-02,5.769777892165504039e-03,1.155325695872306824e-01
6.935264591186859340e-01,6.566827573195865853e-01,5.391466355385023945e-01,-6.328565104102614955e-03,-3.414836927805572908e-03,-2.241186562376908456e-02,1.454808413982391357e-01
7.046739924257028331e-01,6.549717427134366110e-01,5.321884725035315178e-01,1.438668341087387045e-02,8.078228165868872254e-04,-2.899330021715697606e-02,1.636868119239807129e-01
7.027654635421588525e-01,6.472336463957170105e-01,5.309656768274463312e-01,-7.282236945562045420e-03,-5.094053867236841664e-03,-3.039802730017986815e-02,1.614548116922378540e-01
6.754649292926784288e-01,6.583150678316765925e-01,5.600420404800652285e-01,-1.415710326479288281e-02,-6.978828055953694223e-03,-1.612430024965600880e-02,1.147363781929016113e-01
7.055385482406775211e-01,6.494566918296363900e-01,5.149436866466268192e-01,-2.216638924992589063e-02,-5.952037166286274633e-02,-1.087467888224206841e-01,2.763373255729675293e-01
9.206171394655917606e-01,6.586461635764472300e-01,3.577321396465902303e-01,-1.223622761111504836e-01,-6.954530113984090656e-02,-2.535184413887277555e-01,7.001791000366210938e-01
7.773042838784963715e-01,7.217856755138795100e-01,4.393818891123519865e-01,-1.883275654093146886e-02,-3.071407851702975572e-04,-6.210797302132142067e-02,3.333907425403594971e-01
6.778103263666086509e-01,5.553928174792800432e-01,6.603636616774579693e-01,5.473579971579415129e-03,-1.521132574328729233e-02,1.146182591508458984e-02,1.197197139263153076e-01
6.806568032508359956e-01,5.352041030131065025e-01,7.132590990501981310e-01,1.307487632808182823e-02,2.883127823535880201e-03,9.036803792477106009e-03,1.665661334991455078e-01
6.595424409475678651e-01,5.034689462936853266e-01,7.030732207294693170e-01,5.443504704100521341e-02,1.348925864316496970e-02,-1.015807223365941883e-02,2.068642675876617432e-01
7.306252663149942483e-01,3.901503146574453185e-01,7.309831993233314451e-01,-4.524608384980297591e-04,-4.299973525141188684e-03,-8.675867805729760990e-03,3.410675525665283203e-01
9.500221385497693571e-01,4.213054845335820753e-01,7.979688912032182335e-01,1.362397536802894271e-01,-5.853936375036924294e-02,2.439558716339929323e-01,6.832101941108703613e-01
5.440834116902170114e-01,6.497275943562195177e-01,6.963809496217437944e-01,-1.472324426390604624e-02,-1.320342327731999221e-02,-1.689769978880922494e-02,1.424633115530014038e-01
2.983726242199522538e-01,8.120161832535094382e-01,9.914827111339209464e-01,-1.649817807294298444e-01,-3.717386655080997387e-02,-6.832997120695841198e-02,6.985909938812255859e-01
3.125049759089000290e-01,6.721430468460143359e-01,9.982841078360236153e-01,-2.718716382117917774e-01,3.878882989040721013e-02,-8.010745084216036593e-02,7.736331224441528320e-01
3.786685578155871701e-01,8.633994884854971907e-01,9.485084922815469888e-01,-2.207887528301532287e-01,1.032658468584620598e-01,1.112807938883350091e-02,6.797562837600708008e-01
4.758117642968987537e-01,7.034457745259419248e-01,7.170836270173372995e-01,-1.587789387400492802e-01,-2.033241086647899487e-01,-1.926489777827367911e-01,6.050643920898437500e-01
7.522943173774911951e-01,7.974564742388512428e-01,4.512692412721887592e-01,2.001965604248887379e-02,9.593749281492776337e-02,7.591301205391249099e-03,3.677470684051513672e-01
6.228789288647239575e-01,6.458445397579698488e-01,6.200535756136772436e-01,-6.720598160265022110e-03,4.371944321044583283e-03,2.330045398142239869e-03,2.845024131238460541e-02
6.316674469537958414e-01,6.418141229089607824e-01,6.171769773995622321e-01,-1.320118296883961498e-02,6.348209500187428425e-03,7.591697596595602462e-03,3.572916612029075623e-02
5.979016507384754542e-01,6.785575370396725869e-01,5.969192150018670651e-01,-7.859519896680704221e-03,2.763241456332032192e-02,7.521735029351315528e-03,9.607951343059539795e-02
6.090787645626343227e-01,6.903261314021282846e-01,5.518991086526082723e-01,-1.105065870514656233e-02,6.043322733755122911e-02,1.680653946114190472e-02,1.633603423833847046e-01
4.129622141716403627e-01,7.033557225497055754e-01,7.174088518992853825e-01,-4.297303075585074544e-02,2.410993442888529487e-02,1.018659080581798930e-02,3.101645112037658691e-01
6.621729832755586242e-01,6.759113661662889960e-01,5.636950005252679974e-01,-1.750826050052274943e-02,1.247444075422295476e-02,8.326627892817777682e-03,1.132874041795730591e-01
3.936475060405726367e-01,7.731594425085865918e-01,7.952704636092924328e-01,4.880338765026881465e-02,-6.889100878253043292e-02,-5.558504472504787602e-03,4.175949096679687500e-01
5.479467839003269169e-01,8.636865224958614196e-01,5.352960003645056419e-01,-1.950126752932356544e-01,2.647014807109739909e-01,5.475545206736343734e-02,6.611587405204772949e-01
5.361048420990004448e-01,6.823390443172778763e-01,6.569037330132595498e-01,-1.692920417557523122e-02,1.963163636071047283e-02,2.110159898671660345e-02,1.471859812736511230e-01
5.381855221208602380e-01,6.977404616361463363e-01,6.513577316735824629e-01,-3.733183275548601025e-03,2.353573662152600582e-02,7.284442341698092044e-03,1.485642492771148682e-01
4.888627594166293777e-01,6.862976733891370529e-01,7.038829889184078370e-01,-2.888524876003512043e-02,-1.817539091509176282e-04,-3.992513844203112415e-03,2.128678858280181885e-01
6.328430759396413974e-01,6.967045822666816379e-01,5.947992725510051759e-01,-5.429592568625515175e-03,3.273209818143361927e-02,9.748562465542204292e-03,1.074377670884132385e-01
6.940758776646123174e-01,6.308183577439966383e-01,5.475436087380600725e-01,3.861531548603026800e-03,6.042520580451660704e-03,-3.785957440823702752e-02,1.437298357486724854e-01
6.854946185513027812e-01,6.135775212496712427e-01,6.048204954451973370e-01,-1.166866275972852770e-03,1.302881866890356248e-03,-7.870669943847833500e-03,7.793300598859786987e-02
6.983991562744533699e-01,4.941228844649872554e-01,6.614366663874242658e-01,1.715656841633880075e-02,1.830911933088821483e-02,-9.198670026473615424e-02,2.506348788738250732e-01
7.813774991529300884e-01,5.387603427495605279e-01,5.762320256941678709e-01,2.507236230641306587e-02,3.941485252892792251e-02,-1.437838722569653727e-01,3.460401892662048340e-01
6.941066825353712222e-01,6.478115060345153164e-01,5.591372534429166485e-01,-3.677682135489291921e-03,-1.150090235793387299e-03,-1.165929352520015533e-02,1.206810623407363892e-01
6.253978436400772223e-01,6.221999670605947719e-01,6.287710157342348838e-01,1.665129103932930232e-02,1.459799133672441511e-02,-1.380383710354649712e-02,4.555359482765197754e-02
6.856484326881279179e-01,6.317190363750049276e-01,5.805656092492471609e-01,4.938123514283917527e-03,3.765939009042155311e-03,-1.130557955069610813e-02,9.371700137853622437e-02
7.012996715387298519e-01,6.196265395341231663e-01,6.113267465411059698e-01,3.452228038108050463e-03,1.380835467851581223e-03,-4.912058349605621238e-02,1.212321147322654724e-01
6.291031220228155973e-01,6.290250870020264173e-01,6.416083679473166823e-01,-4.902724709454566072e-05,-1.478096840560415900e-03,-1.395265215721380996e-03,1.302938722074031830e-02
6.418966187466325080e-01,6.328509435989843057e-01,6.284131301719364515e-01,-9.011360539899802109e-04,-2.427395820588721265e-03,-2.457926987441515308e-03,1.341262646019458771e-02
6.473189946204140899e-01,6.231075607608839162e-01,6.265841201627320167e-01,-5.085139669672973997e-03,-8.473572647090662699e-03,-5.675906122770042056e-03,3.006219305098056793e-02
6.410426380959751702e-01,6.292491580506207605e-01,6.280345249690952869e-01,-2.762780058885562062e-03,-2.322453356417110600e-03,-1.750401004719415567e-03,1.425335742533206940e-02
6.368754782552812355e-01,6.208084722963512769e-01,6.451685539022706806e-01,-2.427290138942671954e-03,-7.368073827610183667e-03,-1.546705315413864513e-03,2.545361034572124481e-02
6.433361857203880874e-01,6.201281227377428706e-01,6.367458471997253788e-01,-2.796590780708028447e-03,-7.968323883170371283e-03,-2.787912002268340492e-03,2.581395767629146576e-02
6.288065954728249141e-01,6.351885194174266003e-01,6.353480268088360639e-01,-2.611885124633891737e-03,-2.012228153773405921e-03,-3.554702867752008565e-03,1.059684436768293381e-02
6.269008636231729881e-01,6.285729834325809451e-01,6.397331787696199923e-01,-1.080196748485230673e-03,-4.183710585652447751e-03,-1.731001424544426331e-03,1.452608034014701843e-02
6.207274502863608934e-01,6.411676928331641045e-01,6.312108568632283090e-01,-6.861208976967561254e-03,-5.811521106386733672e-03,-8.693952365043021435e-03,2.797724492847919464e-02
6.591563881960100790e-01,5.361940374826725808e-01,6.954294726284050432e-01,2.657994061062694466e-02,6.677284026701552772e-03,-4.029093961404941852e-03,1.523077040910720825e-01
5.272433079427834013e-01,7.145668076260818236e-01,6.821464456086533401e-01,1.495925809500220165e-04,-1.120690651787108021e-02,2.492172160101012706e-03,1.745381355285644531e-01
6.897434060729710215e-01,4.924536441221141758e-01,7.132034089427500279e-01,2.611801846542513919e-02,-3.144935655145349607e-03,-1.447214975079231169e-03,2.149056792259216309e-01
6.806566669686067161e-01,5.354357411583505755e-01,7.127601567882029254e-01,1.313897041900677527e-02,-3.419084692886931610e-03,-4.520102260299508311e-03,1.655177026987075806e-01
6.567034232212118905e-01,5.339352771123131447e-01,7.055456507052577653e-01,2.765175597168987448e-02,-1.437448593937710149e-02,9.934627873894857214e-04,1.623901128768920898e-01
6.209471650775916229e-01,4.833568201178878310e-01,7.229530992874224626e-01,1.264963044838392781e-01,5.926335305536532729e-04,1.837093770049173444e-02,3.039552867412567139e-01
6.547050579737166975e-01,5.356722390835316761e-01,6.946792561399497412e-01,2.252427695240859576e-02,-7.201957093805589315e-03,3.494922031104315870e-03,1.491283625364303589e-01
6.441046245557057182e-01,5.837531373144555502e-01,6.967985532543059524e-01,2.820020393155683869e-02,-2.217144235534027931e-03,8.147055853699730751e-04,1.095518246293067932e-01
5.055129601401032735e-01,6.855564666485060021e-01,7.016282653039692674e-01,1.930571610024258700e-01,-1.717556685497301783e-01,2.301419706864030190e-01,6.283126473426818848e-01
4.684019371868076709e-01,7.599633933873545244e-01,4.763738883892371656e-01,5.172292676838239484e-02,-2.719297916112751179e-01,3.202996058313314909e-02,5.618614554405212402e-01
4.332365215081078746e-01,6.984655806052926241e-01,6.706263700175141285e-01,1.444472171321673770e-01,-1.832787851925097300e-01,7.828821314526203390e-02,4.954726696014404297e-01
4.783281717342376949e-01,7.354019784143950300e-01,6.894556845942452217e-01,2.692265230501293682e-02,-5.128249833226625892e-02,-1.119983242635770072e-02,2.585089802742004395e-01
4.952130070906280435e-01,7.094981934711035443e-01,6.516399302496610479e-01,2.819100207615312260e-03,-9.021089822966300853e-02,3.820688401500949277e-03,2.476877123117446899e-01
5.466499382083990222e-01,6.929350899539512554e-01,5.952227021009859342e-01,-7.912524135837734063e-03,-7.009046810989108534e-02,-6.949673481505630468e-03,1.781121045351028442e-01
5.395409608453095585e-01,6.943367614272777377e-01,6.610098925652027058e-01,1.237131638559167386e-03,-2.373905893584849283e-02,5.415474384277834362e-03,1.472982168197631836e-01
6.797953790405820707e-01,7.418500732780188844e-01,4.649495060880499686e-01,3.586744380287303774e-02,-1.288125603440263833e-01,1.069465385269163932e-01,3.889625370502471924e-01
4.688697174559959269e-01,7.152527894961526744e-01,7.070718383852595545e-01,-1.272045592026584300e-02,-7.252790319756999803e-03,-1.534817232686207927e-03,2.437338829040527344e-01
4.619275042741799453e-01,7.633631963778377827e-01,6.898111020210146993e-01,-5.849072375906126664e-02,-5.297650817921460004e-02,-9.435248507187255548e-04,3.046109974384307861e-01
4.225119691157836477e-01,7.970829034199184981e-01,7.007230258844061588e-01,-1.068039827409394266e-03,-5.487554451697927022e-02,3.106835095064506679e-03,3.500876426696777344e-01
4.706411465568010044e-01,6.892798852658619246e-01,6.823061265366611172e-01,-4.379322065220514482e-02,-5.119384031706895183e-02,-1.850411684147661162e-02,2.469209879636764526e-01
4.287964113956018175e-01,8.150651446007022294e-01,7.735766739967082639e-01,-1.593539376574389099e-02,1.028054013696504537e-01,-1.248292119278552985e-02,4.096770286560058594e-01
5.304536807110570296e-01,6.662453555112941572e-01,7.170313995325555689e-01,7.175404624096597128e-02,-2.412391488458371508e-02,1.379218855321628391e-02,2.137227505445480347e-01
4.784231214031363644e-01,7.330586817167348279e-01,7.293461690615585802e-01,4.059761880473080134e-03,2.564262471494429315e-03,9.074080763150122950e-03,2.534243464469909668e-01
6.385486759256103761e-01,6.415014923765967048e-01,5.540423639538974987e-01,7.061447764617416467e-02,9.003911373533146634e-02,-1.007483428916650936e-01,2.777239382266998291e-01
4.996255513685269878e-01,7.121785950600696413e-01,5.309027261282459609e-01,-1.250210587478761959e-01,2.295097074326493403e-01,1.254774195488969346e-01,5.400533676147460938e-01
7.657665278233646289e-01,7.551731969527978316e-01,4.775730045022892334e-01,1.944896983677258870e-02,3.590982402115396044e-02,-1.195199280257756569e-01,3.577333688735961914e-01
6.860421015480417939e-01,6.551227428029229305e-01,5.425217390869210288e-01,-1.694565746737320203e-02,-1.348147418387241926e-02,-2.495689742331080874e-02,1.427998542785644531e-01
6.902760025703681412e-01,6.679661461784942578e-01,5.364774051667204890e-01,6.413449618516922461e-03,3.044169221120584037e-02,-3.140334516423551325e-02,1.630414426326751709e-01
4.822943986897804125e-01,6.701766603975402026e-01,6.185148199382124456e-01,-7.574128431175737586e-02,-1.053444967563083451e-01,-5.166594912431263925e-02,2.945726811885833740e-01
6.759519203165267331e-01,6.580516661212818530e-01,5.525053073110215429e-01,1.853372905035468449e-02,7.386985013094459970e-03,-1.714602292678751513e-02,1.242011189460754395e-01
6.935904874528606712e-01,6.778898788238174600e-01,5.258357074441314394e-01,8.601276446535327525e-03,1.772576273243769637e-02,-6.733285243436413700e-03,1.644836962223052979e-01
6.514610396263307290e-01,5.156854881583188277e-01,7.052928667144462427e-01,-4.853308528257856830e-02,3.142596712750893567e-03,5.974298695542217853e-03,1.893277466297149658e-01
6.918913353906115393e-01,4.643129730387614007e-01,7.597813113883264968e-01,-6.323587949466505376e-02,5.302800033058397040e-03,1.340180976306443866e-02,2.906385362148284912e-01
6.758263072194734544e-01,4.932117591420039915e-01,7.168801886050705230e-01,-8.260380037307139822e-02,-3.844946838539200877e-03,1.880039811433323598e-04,2.510879337787628174e-01
5.983167265112054878e-01,5.657186877234323674e-01,7.899772619395131201e-01,-1.945699532638986706e-01,-1.501025687576902461e-02,-1.182477989044354583e-02,3.983866870403289795e-01
5.887228976645115797e-01,5.905995923291068594e-01,6.918159706250378571e-01,-9.069226955127868139e-02,7.281091522280726258e-02,5.532758307026607036e-02,2.453593462705612183e-01
7.022308945139148495e-01,5.392215768060563130e-01,8.264052285538141529e-01,-1.747900316603816506e-01,9.174779882817119848e-04,6.460925117560663289e-02,4.079376459121704102e-01
6.573786575675241162e-01,5.551037591055016929e-01,6.852070236238860801e-01,-5.186852397644527851e-02,-1.247116583996616020e-02,-1.940699038242190907e-02,1.541046053171157837e-01
6.861975916759524008e-01,4.169683150525566040e-01,8.286290524375504729e-01,-2.614260380553745655e-01,-1.151182132762765403e-01,-4.207793703674877345e-02,6.174275875091552734e-01
6.823561880104517252e-01,3.434420636405707272e-01,7.479481760299108162e-01,-1.834208283863071332e-01,-5.266041208855899713e-02,-9.437058188574493078e-02,5.266512632369995117e-01
6.873522445008297677e-01,3.411754873526981480e-01,8.129175065943184952e-01,-2.203780843805343004e-01,-4.965962328074982959e-03,7.151164675367441270e-02,5.832563638687133789e-01
7.040112994370331112e-01,5.974153267594116690e-01,6.301706979725375524e-01,-1.690794998268192306e-03,-2.788879880799064945e-03,-3.411861139288208805e-02,1.116609796881675720e-01
6.849175319469438250e-01,5.757549812716060700e-01,6.254093903693500600e-01,2.240111031592312892e-03,5.658578550560871244e-03,-1.664875465061857115e-02,9.952023625373840332e-02
6.674203140805415879e-01,6.121324379271063654e-01,6.305987897582654433e-01,1.459141584925319028e-02,1.920960415488551926e-02,-2.702110901939505996e-02,7.945417612791061401e-02
6.691762813669365206e-01,5.235373148971720347e-01,7.940685850597362094e-01,1.513601978805687032e-01,1.074702524757828112e-02,6.734045474890604406e-03,3.524347543716430664e-01
4.868014893876247973e-01,7.146745816750860181e-01,8.076905835667312905e-01,-1.532192037418105002e-01,-5.167974823236362591e-02,-2.435420625087039367e-02,4.024849236011505127e-01
6.835380686324916688e-01,5.965848357648758649e-01,5.960397825468465305e-01,-2.932475716494424480e-03,-1.501911368471742843e-04,-3.129598212725399897e-02,1.028238162398338318e-01
6.820987435793706144e-01,5.978728663354473394e-01,6.264577139657094840e-01,3.644275257001819337e-03,6.601338641985739740e-03,-5.424169541796488268e-03,7.591012865304946899e-02
6.836098886744557124e-01,6.120753905295456265e-01,6.166369471525161572e-01,-3.671435939662708557e-03,-6.554996764667037588e-04,-1.496526567343547422e-02,7.433228194713592529e-02
6.914108112010906027e-01,5.782708224388454221e-01,6.266658679696833767e-01,-6.005724388785829530e-03,-2.013577848954555861e-03,-2.052408132283281908e-02,1.051256656646728516e-01
6.844392690420535441e-01,5.988325989199493327e-01,6.264507088385740108e-01,-2.292002118786337986e-03,-5.046752951615702740e-03,-5.092621485253574602e-03,7.679153978824615479e-02
6.800126486367957801e-01,6.304801733640496009e-01,5.812153889208050428e-01,7.149906890615772247e-03,4.090358235036251414e-03,-1.184873011570511045e-02,8.913711458444595337e-02
6.232365411151749024e-01,6.280308760855611849e-01,6.544101330266363092e-01,-2.087141388787303823e-04,-8.124462412519595786e-04,4.671552648704762473e-03,3.021428361535072327e-02
6.138890818003538419e-01,6.273366313130174232e-01,6.601718346626093137e-01,1.428681302488234162e-02,-1.362970412163465837e-02,8.176343582195766402e-03,5.541428923606872559e-02
6.226609458847502943e-01,6.221980469369502442e-01,6.536047339879794693e-01,-5.470251392231296897e-04,-8.313969112872212274e-04,1.895410962424447796e-03,3.139753639698028564e-02
6.325095842650190203e-01,6.323217362578357204e-01,6.369918737202793224e-01,8.873462403509040130e-04,-1.678802116501850123e-03,2.492041097705032827e-03,7.100442424416542053e-03
6.204173314087185753e-01,6.193936673209803345e-01,6.612017127100023872e-01,1.110642791592506614e-03,-4.686467451441926960e-03,9.303425733793275424e-04,4.217047989368438721e-02
6.216952240752021686e-01,6.401071309217399863e-01,6.427694288332084227e-01,1.716715279620761522e-02,-1.677509360796154356e-02,1.828444579474833645e-02,5.591432377696037292e-02
5.950999174750249976e-01,6.342147072493151683e-01,6.566038489738952322e-01,1.800949248516427875e-02,-1.082758673811517330e-02,1.646518862886595796e-02,7.102837413549423218e-02
6.392473026989041740e-01,6.050869807907812703e-01,6.523461180984762020e-01,3.818379155021995458e-03,-1.345946329260756455e-02,4.195419439934599745e-03,4.925426468253135681e-02
4.842447351477718875e-01,7.232833670111821212e-01,6.974277742320774687e-01,1.136261498436044043e-02,-2.717694902542686433e-02,5.111367576473358106e-03,2.330428212881088257e-01
4.682409055402402265e-01,7.226912333463846316e-01,7.074192255810787255e-01,1.272386018321699543e-02,-7.420812534175562011e-03,6.003180705810059158e-03,2.486991137266159058e-01
5.527712075454846996e-01,6.676262796105265629e-01,6.776265553472743397e-01,9.256508058295849148e-03,-4.273245185757375796e-03,1.622099534915442259e-02,1.246654242277145386e-01
5.036125216646172298e-01,6.946375879516983876e-01,7.016184566080252427e-01,1.718528004806695736e-02,-4.247453109865952266e-03,3.930957761048709843e-03,1.971276551485061646e-01
3.892576786870704519e-01,6.930554391837757677e-01,7.184121122298796625e-01,8.134626314528636826e-02,-9.624929545721116683e-03,-1.377755859113903320e-03,3.475264012813568115e-01
5.425197531080699909e-01,6.817423833598331706e-01,6.488430311609975076e-01,1.254652109971005070e-02,-2.696699723441815799e-02,1.504363040592259643e-02,1.386283040046691895e-01
4.752458488858188890e-01,7.060700773860630886e-01,7.133000920594965155e-01,7.840614745478405659e-03,-9.904151386823191461e-03,2.459299931629147385e-03,2.355797290802001953e-01
5.248841674115360956e-01,6.823915385195320482e-01,7.093421461914110049e-01,1.063879017111930315e-02,-1.497635376082880423e-04,7.324975918875256762e-04,1.735541820526123047e-01
5.362207276990420546e-01,6.611610636732019319e-01,7.087244441978685083e-01,2.590769870912195197e-02,-4.755847098455624625e-04,-1.975437014828418901e-03,1.607512384653091431e-01
1.715000118357951631e-01,7.861854769087676109e-01,7.917816124044733117e-01,4.143824942688088125e-02,-1.147294470767186159e-01,1.836453123125581996e-02,6.534225940704345703e-01
6.797388995282583890e-01,6.153349386478198513e-01,6.042070792426109671e-01,-3.456786219109845605e-03,1.698621377678164769e-03,8.147826256485959581e-03,7.233285903930664062e-02
6.973935823917567500e-01,5.682603804967236716e-01,6.471341839662920759e-01,1.107449601105802410e-04,3.068614246909903004e-03,1.103890654918243674e-02,1.144774779677391052e-01
6.927816868266805095e-01,5.452759200447231391e-01,6.581320013417751857e-01,-6.691012099596780130e-03,1.075954521010911470e-02,2.016463287626381676e-02,1.398176401853561401e-01
6.795235428231904962e-01,6.048204665115110013e-01,6.017337967262117449e-01,-8.730983552890416929e-03,6.991777397973867637e-03,2.305612653336066437e-02,8.826528489589691162e-02
7.116579571948524752e-01,5.130867086916480746e-01,6.790596521363622129e-01,-9.855730927733716285e-03,3.026682231212463828e-03,9.889964762584295410e-03,1.860978901386260986e-01
7.266249096614246783e-01,5.594721096459283061e-01,6.175514874980752023e-01,2.684994534090575594e-03,-1.036599337174357038e-02,5.828920754613831079e-02,1.792819797992706299e-01
5.755134134778111532e-01,6.857117626511004538e-01,6.300261357268616136e-01,1.188358074669876438e-03,1.929712158462457486e-02,4.460159643474316364e-03,1.014354676008224487e-01
6.201673840705679286e-01,6.703379643063458460e-01,6.100516733458389851e-01,-7.148387570039508622e-03,7.442885986117719378e-03,3.253586728865897910e-03,5.897602438926696777e-02
6.245120198870185435e-01,6.536363230157010706e-01,6.199201583254233539e-01,-8.054460913777865272e-03,3.678529250519757977e-03,2.673132863029455564e-03,3.549224883317947388e-02
6.385851068934260688e-01,6.391589090904156167e-01,6.219658338214643090e-01,-1.283140630367900561e-02,1.416595973584578415e-02,1.651268186445555355e-02,4.690447449684143066e-02
6.772553026262431164e-01,6.131063539791585804e-01,6.161620266497638276e-01,-2.048872982216441620e-03,-1.858211983813727770e-03,-1.615654254644295672e-03,6.292209774255752563e-02
6.717996933736516407e-01,5.905867906394500766e-01,6.310548561569404580e-01,-6.554688640809196859e-03,-1.120911764770286291e-02,-1.126920427990962988e-02,7.637722790241241455e-02
6.777995717450410185e-01,6.012320189612812005e-01,6.297348494806991326e-01,-1.968097261364341009e-03,-7.441578328595985399e-03,-6.268326859797623135e-03,6.919708847999572754e-02
7.135103090252744584e-01,5.692700815680529214e-01,5.480479998789599128e-01,-2.297372378217206034e-03,-1.827658747234729838e-03,-1.346500898846784422e-01,2.805966734886169434e-01
6.632963752747947916e-01,6.235236570384835586e-01,6.152841532797644897e-01,-7.821528461546406463e-03,-3.268902095536993426e-03,-3.260349276641898251e-03,4.716928675770759583e-02
6.682402412374792711e-01,6.219305310934017950e-01,6.135319863525521278e-01,-1.607469144045298301e-03,-1.583716939131145666e-03,-3.403831091842412105e-03,5.151789635419845581e-02
6.528564498362007251e-01,6.056815380707821772e-01,6.382972589688170606e-01,-4.218522997452675734e-03,-1.152995546016969894e-02,-6.684250243565657314e-03,4.834106937050819397e-02
6.537530753890822277e-01,6.195896287287190329e-01,6.254354868981933935e-01,-3.060769295866503682e-03,-6.378131523532487752e-03,-2.739811146338405785e-03,3.426757454872131348e-02
6.594455666343301825e-01,6.390153216691315530e-01,6.185268414360068912e-01,-1.343849675817883858e-02,-1.447238132259614195e-02,-1.857480078119583614e-02,5.882989242672920227e-02
4.206978497415232998e-01,9.601040891248788789e-01,5.738428865722796646e-01,-8.326952958360744894e-02,-2.502610609163207211e-01,-4.678714891853131413e-02,6.686295270919799805e-01
6.795489459147929789e-01,6.103371210941835878e-01,6.256067504389808409e-01,1.271695772288041967e-02,-6.556380302347950169e-03,3.035220539476932849e-02,8.569999784231185913e-02
7.707091135860142384e-01,5.906857948098156452e-01,6.477497320859477714e-01,4.635181318958291746e-02,-2.761060804788968009e-02,1.445605253570438620e-01,3.111552596092224121e-01
6.860594375438036074e-01,5.705638466177830326e-01,6.204842721919496817e-01,1.872752507625372173e-03,-4.455817854295465903e-03,1.998165845890705061e-02,1.064592674374580383e-01
6.769882088657883656e-01,5.738119203118867695e-01,6.189070471078811364e-01,7.078288341767486128e-03,-8.028220191814825282e-03,2.050784007392015759e-02,9.814044833183288574e-02
8.035057102746012703e-01,5.818728773925614384e-01,6.561284943677524462e-01,-1.878004034987172666e-02,2.798815499255717654e-02,1.536951325451191286e-01,3.353389203548431396e-01
7.232184677303434839e-01,4.666456695036468871e-01,7.156020379547859411e-01,1.533575790328006380e-02,1.081545342127114909e-02,4.528807266383968327e-02,2.667263448238372803e-01
6.329221999075300698e-01,6.310494665910389989e-01,6.422753949192225864e-01,-1.528637795010440951e-03,1.093002429135938626e-03,1.539503860064535875e-03,1.123431418091058731e-02
6.260497248829478556e-01,6.295491026791689704e-01,6.456408236558599523e-01,-1.219894240649167490e-03,1.058621468962310432e-03,3.194939833798769117e-03,1.912980712950229645e-02
6.325205529445062647e-01,6.320969261285128704e-01,6.364125462601940564e-01,-5.791098322503424956e-04,2.047234419787207372e-03,-4.651185668585672349e-04,5.586093757301568985e-03
6.325186820814717725e-01,6.347508477812058292e-01,6.307145246510581504e-01,-1.756002927504538447e-03,3.820171933129334354e-04,8.380515361415114255e-04,4.905116278678178787e-03
6.509478656037173128e-01,5.868089553494937327e-01,6.632315088079249188e-01,-6.222104320823015726e-03,1.456820117670181401e-02,1.064440733622576754e-02,7.839195430278778076e-02
6.225908220410589777e-01,6.353613335625420966e-01,6.487972630189512424e-01,-2.162240390517778874e-03,2.501125331244891201e-03,8.094512687970401021e-03,2.728644385933876038e-02
6.291421557965429789e-01,6.396404842973177907e-01,6.345002813167447409e-01,-2.480478926066547168e-03,2.510516048661106791e-03,5.068047612100656622e-03,1.403904426842927933e-02
6.654140839929691964e-01,6.151562058648341047e-01,6.180847017561480472e-01,-5.710434702105340356e-03,6.735473143998222702e-03,6.459403837719290484e-03,5.240562185645103455e-02
5.205591185354020434e-01,6.733388615446377345e-01,8.171229983315208001e-01,-1.061255868591384210e-01,2.836487130221664044e-02,3.238517242766491416e-02,3.245471417903900146e-01
5.449027298352868698e-01,6.925189597807550612e-01,6.485529453271962064e-01,1.331809565445025295e-02,2.762382566029904576e-02,-1.151040830903035488e-02,1.430114507675170898e-01
5.520555222292335973e-01,7.182935274839584716e-01,6.716973586783752115e-01,9.407930192084983448e-03,4.960031444509048482e-02,-1.496267686536654259e-03,1.723747104406356812e-01
5.460515827875881412e-01,6.981304739159635009e-01,6.866007206615566405e-01,1.382060706716291450e-02,2.088993791148789289e-02,-7.502382730504472165e-03,1.534879356622695923e-01
4.222278368818674910e-01,7.723992396439861574e-01,7.212399308101423712e-01,-6.466597978303173511e-02,1.784726456137252296e-02,1.933545682671925295e-02,3.492062091827392578e-01
6.590247018677418689e-01,6.387733998016104087e-01,6.167660577449517456e-01,1.718928006965679892e-02,2.329443040933248249e-02,-1.792439050708787701e-02,6.941378116607666016e-02
6.653723463866852983e-01,6.147679146777135228e-01,6.167609311438089215e-01,1.124629889687200381e-02,1.233634197765725617e-02,-1.306484513392828194e-02,6.174131110310554504e-02
6.173442308107059961e-01,6.069571078948725606e-01,6.814161426456676329e-01,-8.076704249061629481e-03,6.121729507544285478e-03,2.143861318960727999e-03,7.211476564407348633e-02
6.261094772320260349e-01,5.989125114571385300e-01,6.814024810338624727e-01,-5.073833612977491497e-03,5.474397445719201769e-03,9.691076209627942899e-04,7.396451383829116821e-02
6.299277280282931102e-01,5.830452827713819008e-01,6.728891252358496500e-01,-2.387321569937312510e-02,9.059721227813363406e-03,3.172266843629773219e-03,8.968833833932876587e-02
6.513226096601897330e-01,5.291789794462572472e-01,6.935756662951274576e-01,-2.928447679227576261e-02,8.207861897518622246e-03,5.874566268250018021e-03,1.573013365268707275e-01
6.093869806360302510e-01,6.049218529293793889e-01,6.679099316516527995e-01,-2.099315764641680390e-02,1.618232608468690367e-02,2.151739167626295912e-02,8.487002551555633545e-02
6.562592416380567117e-01,5.342834371794958903e-01,7.121037524128668306e-01,-2.636821062872291357e-02,1.035745895029852124e-03,-8.254547451670565198e-04,1.640106588602066040e-01
5.422237899197593913e-01,6.671931292214345888e-01,6.897280536102579074e-01,-1.304753612379918604e-01,-6.877161795103331476e-02,-3.930394049200681278e-02,2.980533540248870850e-01
6.514086930751190607e-01,5.436324358664885725e-01,7.132027485822181045e-01,-3.281713229277450489e-02,2.129339907887140091e-03,2.233332304041214106e-02,1.638138741254806519e-01
6.535393266323301642e-01,5.813647970341360161e-01,6.525410167993840327e-01,-1.251334514168574163e-02,1.743976826902589664e-02,1.666553867625574295e-02,8.575264364480972290e-02
6.542455887678215731e-01,6.287547685387425700e-01,6.219934442829471166e-01,4.685723781289452550e-03,-1.784742484969847453e-03,1.111680756895054074e-04,3.071335516870021820e-02
6.546769045288040045e-01,6.217021116651740842e-01,6.214139526010022951e-01,1.914513922313784222e-03,-1.657091466346073162e-03,-7.715893301412123702e-04,3.343563899397850037e-02
6.619423372771211511e-01,6.189861095491986376e-01,6.206431706946223814e-01,4.407609965088077103e-04,-3.976406097128035687e-03,1.465881957131351864e-03,4.279330372810363770e-02
4.860065119852446380e-01,6.833992000186047688e-01,7.060976654471954328e-01,2.843520873831295939e-02,3.072676659562766804e-04,3.344487317489220832e-03,2.154509872198104858e-01
6.656182257935656654e-01,5.964470171138200882e-01,6.353290105597755311e-01,1.021092141907982420e-02,-1.221926568205301475e-02,1.530131129314080130e-02,7.120436429977416992e-02
6.519309846464106384e-01,6.335219108506082719e-01,6.037962686698791215e-01,1.348217262989773700e-02,-5.875945487720914476e-03,5.908168057054553890e-03,5.023281648755073547e-02
6.851520720778832008e-01,6.244301245664548583e-01,5.984819307728563853e-01,1.461975600646444814e-03,-1.152552278960678551e-04,4.194935473455588433e-03,7.742953300476074219e-02
5.929974735705689781e-01,6.619801765704904639e-01,6.382651786222874879e-01,8.505065731914947941e-03,-8.793603678671647189e-03,1.629654980869179801e-02,7.021974772214889526e-02
6.030998397316247317e-01,6.763764999827759361e-01,6.302606636100563930e-01,-8.246639827843594076e-03,-3.232002053766017818e-02,-7.965609552574023228e-03,8.743597567081451416e-02
6.322943151317448329e-01,6.803990545077518437e-01,5.760288738694386845e-01,-1.101535934329873380e-02,-1.624312456139648253e-02,-9.577268167262578680e-03,9.806734323501586914e-02
6.243448287225363824e-01,6.480031165945440152e-01,6.408003342806637415e-01,-1.587646577451728644e-02,-1.770755704972539965e-02,-1.640903242847696619e-02,5.427538603544235229e-02
6.543093616232941168e-01,6.116497266945732925e-01,5.940792985562619588e-01,-1.090971202914405441e-01,-1.150685268803373906e-01,-1.590651669835117243e-01,3.926985263824462891e-01
6.667536038927587283e-01,6.498573397651765671e-01,5.949719758084508481e-01,-1.243596318663117012e-02,-5.518550004266181697e-03,-5.684871982197733063e-03,6.983924657106399536e-02
6.516670259164754064e-01,6.848042207122067015e-01,5.382611361266308458e-01,-1.741318947236710282e-02,-2.214137532331285699e-02,-1.327747860538207834e-02,1.436181664466857910e-01
4.247303431362440262e-01,7.346515859675490923e-01,5.189320946466415840e-01,-1.193699539321192299e-01,-2.622884338772216717e-01,-1.070998108800288590e-01,5.993949770927429199e-01
5.678807693770944187e-01,7.235526854405384123e-01,6.042956321937247299e-01,-2.091450614052559054e-02,-6.078728710015434550e-02,-1.927990087935178148e-02,1.827667653560638428e-01
6.232670823235529900e-01,6.985910064580341805e-01,5.897882416129566208e-01,-4.399007346248370171e-03,-4.090254176043665174e-02,-3.888031314984791847e-03,1.201613172888755798e-01
6.175489027248500795e-01,6.822701465704629209e-01,5.662054767241250230e-01,-1.559624751768163599e-02,-5.211068471727783175e-02,-1.787888232249519593e-02,1.413621604442596436e-01
5.665736643751376755e-01,6.818124221299757259e-01,6.018005007734967826e-01,-1.949222668199558986e-02,-6.004358602768006259e-02,-1.771249338661037148e-02,1.528337001800537109e-01
6.569956395150631234e-01,6.875941531228219050e-01,5.882991029563386931e-01,-2.172197498752532693e-02,-3.844874071908028351e-02,-3.535807866430958069e-02,1.317517608404159546e-01
6.463295973876996836e-01,6.806651731134769623e-01,4.220703681485311609e-01,-8.922005938165189498e-02,-1.904632848791595334e-01,-1.384551330266371727e-01,4.993897378444671631e-01
6.367855961069629478e-01,6.183531349945067257e-01,6.425906323642174289e-01,-4.899191091936038432e-03,1.159991289530047827e-02,5.405885546016246136e-03,3.230798989534378052e-02
6.192032165455276793e-01,6.574852725027574563e-01,6.136835249574917883e-01,-8.924941138817215139e-03,7.262661018983243913e-03,5.255914091499971214e-03,4.676926508545875549e-02
6.427978527540556541e-01,6.429581077926834753e-01,6.251942083626325086e-01,-9.691857085754535320e-03,8.490221769658686662e-03,1.087568409592461378e-02,3.414124250411987305e-02
6.183635591658384056e-01,6.536948733610163931e-01,6.283461553268612221e-01,-2.787784845972129336e-03,4.393818769252500964e-03,7.334891346984278616e-03,3.518365696072578430e-02
6.123498828478641798e-01,6.573316839975376080e-01,6.159928483885036554e-01,-7.289292190092985790e-03,8.111424871609262954e-03,1.266423457520205083e-02,5.206440389156341553e-02
6.312323917671719409e-01,6.576090067551090268e-01,6.017590003167381241e-01,-1.125099282817246422e-02,5.349700047871002069e-03,7.580255406003637113e-03,5.458761751651763916e-02
6.383568630837341829e-01,6.602119129697351374e-01,5.945207997938730671e-01,-1.512738433483654978e-02,1.054532172954791500e-02,9.062130087583037882e-03,6.799834221601486206e-02
6.528182958664238145e-01,6.354906570738296789e-01,6.011534084179437354e-01,-1.389596747625499069e-02,6.107078764437540337e-03,9.541430152847649518e-03,5.512328818440437317e-02
6.286553930330139872e-01,6.228600511629445169e-01,6.539411147580711514e-01,-5.927232251760548550e-04,-4.776168975239180985e-03,-2.015370301983000073e-03,3.001945279538631439e-02
5.649622849984012873e-01,7.153291642449792764e-01,7.211468807328474950e-01,9.150602315476324966e-02,-8.385079409227720604e-02,6.699776073252895758e-02,2.884404063224792480e-01
6.650900430598309931e-01,6.131179328095014425e-01,6.138702811501000056e-01,-1.541105855112317319e-02,-1.380974034197637000e-02,-2.788230393707430421e-02,7.924306392669677734e-02
6.112040154449136509e-01,6.397309017861433356e-01,6.621041307287933719e-01,-1.681125559412899664e-02,-1.215240397906314045e-02,-1.357324514598963472e-02,6.161314621567726135e-02
6.412111449054069823e-01,6.265310511181743092e-01,6.345174888412674630e-01,-3.062076007724693662e-03,-5.602085184359343467e-03,-4.810314858463141715e-04,1.688253134489059448e-02
6.221943508159023528e-01,6.262401791435120435e-01,6.465977061792291813e-01,-3.786275166514204305e-03,-2.644277414414595954e-03,-6.980634624439354709e-03,2.689484506845474243e-02
6.214652898024339844e-01,6.222461038711507575e-01,6.540905484040409057e-01,1.674646632283254032e-04,-1.830919742981014899e-03,-1.936578590715393264e-03,3.257199376821517944e-02
6.002956195558188934e-01,6.734974336899641756e-01,5.942092828478419131e-01,-8.225180530451622202e-03,-3.070437094036681386e-02,-9.294086717487640495e-03,9.555865079164505005e-02
6.843391822962064941e-01,6.358303361348571769e-01,6.491645637209838560e-01,-6.011410235401730418e-02,-8.254595283042613640e-02,-1.043216208258187366e-01,2.565457224845886230e-01
6.113329229193775749e-01,6.681861063127592093e-01,6.206347367583522345e-01,-3.095910449451924791e-03,-4.137371458962615239e-03,-6.957369807388633087e-03,5.491168424487113953e-02
6.064841413504918899e-01,6.815901246394432400e-01,6.316347681297694860e-01,8.117344148608552842e-03,2.636473662116264535e-02,-8.711304680962426647e-03,8.303693681955337524e-02
4.841874519168133384e-01,7.063653620467453820e-01,6.208035494227108764e-01,-2.159697948400483847e-02,9.647344498766843857e-02,9.958469835531993594e-03,2.594071626663208008e-01
6.508536475114213848e-01,7.633178923816960060e-01,5.950074744082439748e-01,-3.321761882300117846e-02,1.526145827094825547e-01,6.545960232640642140e-02,3.287650346755981445e-01
5.728753526946139818e-01,8.787439790843869503e-01,5.456141620212049403e-01,6.408439866198825663e-02,3.366593886568332583e-01,5.468008084993958989e-02,6.811357736587524414e-01
6.340021005407395771e-01,6.417918090511411933e-01,6.246619144321814421e-01,-7.107287692460799965e-03,-3.125489176154455564e-03,-3.666961828451030699e-03,2.102052420377731323e-02
6.212557136962910675e-01,6.441261050819061529e-01,6.253291716924288535e-01,-2.394902225422264590e-03,-4.216329040006119508e-03,-6.821093217609311941e-03,2.562434785068035126e-02
6.210033022872476494e-01,6.609412156022951290e-01,6.194459030481513917e-01,-3.834744078527694937e-03,-1.052862182943973017e-03,-1.017496492540259775e-03,4.135467112064361572e-02
6.198583151358052490e-01,6.530305834993309633e-01,6.249784234452410159e-01,-3.556511792091515255e-03,-2.884764616341348349e-03,-6.372937930289934889e-03,3.378644958138465881e-02
6.227582328613184837e-01,6.522237813747875368e-01,6.159196840547251917e-01,-6.837954365542803746e-03,-5.339203742069381468e-03,-3.529452464821183043e-03,3.714365512132644653e-02
6.423233917232111789e-01,6.172924393163304879e-01,6.160227830413786965e-01,-1.238066046918685596e-02,-1.432244436174424929e-02,-1.488831477166600512e-02,4.899149388074874878e-02
6.599026228687651097e-01,6.990977761342689334e-01,5.146806157183725361e-01,7.678328130735245435e-03,-4.165046708428427058e-02,7.585702743591864888e-03,1.840420365333557129e-01
6.866478698845417394e-01,6.899300161492628591e-01,5.020316797364102746e-01,1.500652463762894469e-02,-4.489050563177422043e-02,4.411291579454793693e-02,2.173907905817031860e-01
7.168215549985307300e-01,6.979148081951557225e-01,4.443258426573125641e-01,2.994755181208565934e-03,-1.862776667953897763e-02,4.580922185559307275e-02,2.771691083908081055e-01
6.891400559278559879e-01,7.069446919941627661e-01,5.131382791512383301e-01,1.384683193979171015e-02,-4.865663575520428469e-02,2.291300255941747938e-02,2.089973837137222290e-01
4.788275899044903139e-01,7.025903494916960756e-01,6.875917023074991086e-01,3.112363078221841439e-02,-4.724187321008382900e-02,7.019797007732069688e-03,2.380921095609664917e-01
6.799077152423629311e-01,5.326329743666509131e-01,6.937033043958944489e-01,-2.862926994369893730e-02,-1.670720231143793880e-02,-5.444747902460308348e-02,1.900047063827514648e-01
6.544062580410892060e-01,5.369715253301943214e-01,6.931227066724077179e-01,-3.393230132490156897e-02,6.827703557884891132e-03,1.095481961131975976e-02,1.542420685291290283e-01
6.815492020565432352e-01,5.194984422862289897e-01,7.124707413117032928e-01,-1.174367613532076478e-02,-3.231798859345814913e-05,2.963204392031226916e-04,1.806694716215133667e-01
6.728098664050067290e-01,4.975290372527213512e-01,6.824052653267889124e-01,-1.849642101827727106e-02,-2.363908342867173870e-02,-3.345696551676399788e-02,1.963624358177185059e-01
7.281366076389399478e-01,3.366141593953884126e-01,7.149620652307346891e-01,-1.143585733313293440e-01,-4.829467930783629820e-02,-1.473218550481072420e-01,5.095559358596801758e-01
6.795304470253521467e-01,5.507723071009260618e-01,6.788615047018220494e-01,-7.202761193090007757e-03,-1.618464461438144306e-02,-1.291813870762208681e-02,1.339219063520431519e-01
6.557798161590098207e-01,5.434595895681400002e-01,6.935758757805251529e-01,-2.866408786903466843e-02,-6.727706910309126653e-03,-7.394929271683265033e-03,1.451012343168258667e-01
6.103905166990266640e-01,6.231872094842897392e-01,6.778228878607788221e-01,1.919262995367301480e-02,-7.517817165650178893e-03,8.099412379541646653e-03,7.293417304754257202e-02
6.534752063539444045e-01,5.434025819447853012e-01,6.888080628281333384e-01,2.196984020475810373e-02,-1.328656329349454414e-02,1.388082505836596252e-02,1.407452523708343506e-01
6.113374220137414161e-01,5.989962994783417649e-01,6.686558074482873426e-01,1.498849334545149410e-02,-1.296987383789528075e-02,9.750988176461188039e-03,7.489283382892608643e-02
4.974141985164168833e-01,7.333557065099381989e-01,9.209931236657806775e-01,3.270654263875841239e-01,-9.448091001102038033e-02,7.584429918129259596e-02,7.071775197982788086e-01
6.488041890960618563e-01,5.657383577509217387e-01,6.949457029934346108e-01,5.116642648290032486e-02,4.526926763058918587e-04,-2.331815268317212302e-03,1.439885050058364868e-01
5.748293278354837943e-01,6.138632080399807345e-01,6.929147573551738271e-01,5.289707288999256907e-02,1.152645839644627582e-03,3.551818780350286223e-04,1.387701183557510376e-01
6.082956182623205921e-01,6.031998896762269524e-01,6.779607627494077526e-01,1.865851725889033572e-02,1.066086181869911262e-02,-1.104812351999068763e-02,8.358085155487060547e-02
6.218970330599770113e-01,5.725051298081162976e-01,6.851046156034430457e-01,2.014610848259899833e-02,5.827998313691108712e-03,-2.068355154250557226e-03,1.043505147099494934e-01
7.023323048247014366e-01,6.583460115776641475e-01,5.372456219796708510e-01,2.575797017650320944e-02,-4.921881979571945259e-02,1.139541714057707572e-01,2.648422420024871826e-01
7.204075438765087380e-01,6.785319140994614528e-01,5.469975302066797385e-01,-1.918857202271674958e-02,1.526974146717128764e-02,5.509547922493791827e-02,1.883443146944046021e-01
5.131990700857276266e-01,7.136986407186568515e-01,6.984100400039768841e-01,9.342845352090938665e-03,-1.888580577940128166e-02,4.185702907367137827e-04,1.967253834009170532e-01
4.859881929709436443e-01,6.406849806546417447e-01,4.780517602785675502e-01,1.731727583124155756e-01,-2.623060898646418782e-01,1.631413373304304582e-01,6.335984468460083008e-01
6.746505148600674406e-01,7.476393830603951240e-01,6.286021608846706910e-01,5.314136410420124135e-02,-1.301163455357127463e-01,7.293828796677752357e-02,2.933114767074584961e-01
6.447845370605956861e-01,6.705302467537854749e-01,6.242511122417794267e-01,4.213680912586091620e-02,-5.367450003521013341e-02,3.081015326595632278e-02,1.357582211494445801e-01
8.369922387205560588e-01,5.195967432162620359e-01,5.977590367444816088e-01,1.937452826584848756e-02,-1.630941043919858224e-01,2.763616538966057745e-01,6.261735558509826660e-01
7.955195792115861142e-01,7.178522647792217048e-01,4.015183623645049438e-01,2.066401272289717511e-02,-8.936575494555901167e-02,2.176146082954231731e-01,5.458719730377197266e-01
7.007829622979853124e-01,8.531683476321976212e-01,3.434242190879440715e-01,1.305631737661183678e-01,-1.907755412974097287e-01,2.381252260656811226e-01,7.319971323013305664e-01
5.455232705594782461e-01,7.064807074976537926e-01,6.161297338423866732e-01,3.230225069199422344e-02,1.123445240440844317e-01,-1.682680150245759870e-02,2.477328032255172729e-01
6.370249402337071487e-01,5.274405644428002971e-01,5.522545899323483276e-01,1.403387944741390780e-01,-1.387327926126653566e-01,2.124990699901514457e-01,5.120528340339660645e-01
6.788976407851533557e-01,5.682957888695322479e-01,6.116239623098230771e-01,2.129755498483648993e-02,-1.809760611880953732e-02,5.525752213145631447e-02,1.442963331937789917e-01
9.078350712371119346e-01,6.377305224232202585e-01,3.536778937745084228e-01,1.250196159934354179e-01,-1.151087101796660767e-01,2.667426162267685918e-01,7.283274531364440918e-01
6.638922494361827464e-01,6.369174943504708475e-01,6.029489636382719953e-01,1.614827422388772152e-02,-1.714912370533104233e-02,2.548171951880349659e-02,8.006449043750762939e-02
7.631424758343445802e-01,5.743227504647463455e-01,6.732374904526585713e-01,3.426956296882090885e-02,-3.384169727205308537e-02,1.300675596864987460e-01,2.906400859355926514e-01
5.960214918761035374e-01,7.987139775318568002e-01,4.338930021644875623e-01,4.262339648471629577e-02,2.519455099187745684e-01,-1.051059146170394559e-01,5.738064050674438477e-01
3.850169734483832595e-01,7.228736626350731331e-01,6.801607516639225359e-01,-1.732813445853735590e-01,1.807108421928459718e-01,5.723079695445629916e-02,5.471885204315185547e-01
5.961165125560100586e-01,6.610486316658208406e-01,6.489331920434077139e-01,-2.495195743971826557e-02,2.664131554873414021e-02,1.404218861954257755e-02,9.035990387201309204e-02
6.127060235569070645e-01,6.713636888163784233e-01,6.274304751301466032e-01,-2.746718179172654567e-02,3.797168334895098529e-02,2.817940585715618743e-02,1.084663569927215576e-01
6.608263902897140163e-01,6.756300066810642102e-01,5.803219894058294637e-01,-7.687481656657388362e-02,1.236921872389337568e-01,6.285626030440411016e-02,2.887439727783203125e-01
6.088990136661485142e-01,6.802348093197894130e-01,6.082986447831000287e-01,1.594884520947616614e-03,-5.889620150362938171e-03,-4.239347183049491010e-04,7.241696864366531372e-02
4.261596417589120778e-01,8.216240590881249695e-01,7.030302420490381898e-01,-2.151645391788150896e-01,1.402012738412388437e-01,1.154392625366918584e-01,6.011590361595153809e-01
5.559030781668136134e-01,7.538538640575503935e-01,5.157572349960896085e-01,-5.015418945200587897e-02,2.555097536042890138e-01,1.044232542303741434e-01,5.337206721305847168e-01
5.303026420708933930e-01,9.363107128739744933e-01,5.196796727198983445e-01,-3.628351969088077639e-02,2.627986947780532878e-01,1.018798025631030280e-01,6.415184140205383301e-01
5.545515003284892108e-01,6.964178101788475184e-01,6.747593948899841543e-01,-1.440192566343110811e-02,5.308440248701661729e-02,-1.223159332278500643e-03,1.631046682596206665e-01
6.814080399571703639e-01,6.134551057258612605e-01,6.107103955121855332e-01,7.319522408762884399e-04,1.979098953807040609e-04,1.655329266322895900e-03,6.943767517805099487e-02
6.844870365744486485e-01,6.161086111593712111e-01,6.033476274148932283e-01,3.584634641852322331e-03,2.406469613246371491e-04,6.632957133244264669e-03,7.669249176979064941e-02
6.852796595324359696e-01,6.249315715383455538e-01,5.712011685624006629e-01,-3.047553875906571386e-03,9.824400646363806722e-04,1.680820312207557954e-02,1.031972914934158325e-01
6.412968409974773021e-01,6.249501898760606577e-01,6.248043518201371604e-01,-9.407970341019667240e-03,8.577755434976125706e-03,1.275244613020201992e-02,3.526692837476730347e-02
6.833528372032254827e-01,6.263267895067189395e-01,6.041851108612390497e-01,-5.028705657651670602e-03,3.087362100268957379e-03,4.500648987624987322e-03,7.190342992544174194e-02
6.859513600633131425e-01,5.975367791767316472e-01,6.246189340108615484e-01,3.243221844490523479e-05,1.098521089590874956e-03,4.498527923035472269e-03,7.886987924575805664e-02
6.769176404220681453e-01,6.176119966321725885e-01,6.121123611456629199e-01,3.803520700144954938e-03,-4.064576022783096890e-03,1.152962899025057435e-02,6.607060134410858154e-02
7.215772598082305089e-01,5.537690488306640235e-01,5.410743375414061029e-01,1.712010519505631836e-02,-2.638027514188917913e-02,1.255858410512512569e-01,2.841363847255706787e-01
6.752288651388292928e-01,6.133770210084836805e-01,6.165334182454206280e-01,-8.973122802946272882e-04,1.582436920242249589e-03,1.772166841828926595e-03,6.049573421478271484e-02
6.777240860002387013e-01,6.097184000374367141e-01,6.164092005792528584e-01,-3.040375925293917658e-04,3.639219149384341663e-04,2.939557775301850258e-03,6.512392312288284302e-02
4.097894686885490412e-01,7.279358308096472996e-01,6.103431646142166711e-01,1.123380160035334641e-01,1.935363087735042509e-01,-7.665442578784913141e-02,4.954690337181091309e-01
5.439747092179778587e-01,6.795104665444475778e-01,6.509678998788875903e-01,6.755218787930328088e-03,2.986623157569845768e-02,-1.443847824764975425e-02,1.369465738534927368e-01
6.200011311249855606e-01,6.402728883793007419e-01,6.611057124891764891e-01,1.680720593035522903e-02,1.418464265975764686e-02,-1.602519929687423392e-02,5.906562879681587219e-02
5.088444950742687656e-01,6.943342582289904197e-01,6.933099863179050804e-01,1.705534040868380424e-02,2.223796146475587668e-02,-7.793158465224024785e-03,1.917183995246887207e-01
5.071273778761881124e-01,7.130915785828668696e-01,6.572494370852514090e-01,1.005650682817418526e-02,5.793988893288685993e-02,-1.016678199329628871e-02,2.114774137735366821e-01
5.336136009842736838e-01,6.992649442346501321e-01,6.813652080396956912e-01,-4.954610199482882386e-04,2.329632743108746989e-02,8.735193395571078101e-03,1.632588654756546021e-01
4.910612450198482692e-01,6.901790455211632702e-01,7.046697916567855602e-01,-2.653517956228812827e-02,9.896371016282023633e-03,1.053292447637440253e-02,2.132656425237655640e-01
5.402853721853533298e-01,6.570776770076355300e-01,6.937998591325281739e-01,-2.888116008246086400e-02,3.179017925378844426e-03,6.816832347109671834e-03,1.481550484895706177e-01
5.360290745237944465e-01,6.570708241193579102e-01,6.957967588565349137e-01,-2.117489518785458172e-02,-3.267574761960586726e-03,-8.001056147147047465e-03,1.496912389993667603e-01
4.712076466160269872e-01,6.974476590338138937e-01,7.029596502174787487e-01,-6.178551802545997895e-02,5.761476453715985539e-03,1.027884437549632900e-02,2.536352872848510742e-01
3.088938338731381794e-01,6.223759241267383668e-01,7.766360496901880683e-01,-2.517581227409401712e-01,8.296866931316200511e-02,2.625702481649850803e-02,6.191051006317138672e-01
6.765572521402600792e-01,6.139563029635098923e-01,6.080314916756034416e-01,-6.017191765819840561e-03,1.628808110059133500e-03,4.468223227168255894e-03,6.709213554859161377e-02
6.797584681139789975e-01,6.122133505606472959e-01,6.037364094808378434e-01,-1.143867563469629697e-03,7.226557435977708135e-04,8.677606532354267474e-03,7.374396175146102905e-02
6.836356313124489770e-01,5.717430327544393842e-01,6.193510661756861380e-01,-6.084970403219093840e-04,1.754738432764964967e-03,1.728062862814309236e-02,1.018120869994163513e-01
6.757051412764583098e-01,6.024940330280708078e-01,6.137226052528959030e-01,-1.164473714931246653e-03,4.070254283816548101e-03,9.012230854051951970e-03,7.043664157390594482e-02
6.819441925675175931e-01,6.130865473050653991e-01,6.127533737703312333e-01,-2.292268845147950296e-04,-1.898698428926243794e-03,1.198612615602682313e-02,7.215540111064910889e-02
6.864936673753307961e-01,6.137024258863545967e-01,6.156436991859193242e-01,7.196500106326773926e-05,1.909648277859320523e-03,1.252945653303250834e-02,7.511952519416809082e-02
6.805972780700191294e-01,6.121446885974654029e-01,6.030248445107220245e-01,1.511327906174497662e-04,1.211682361558173758e-03,7.997841134165609503e-03,7.476346194744110107e-02
6.929221575584498805e-01,6.142695082494320502e-01,5.567714851628976502e-01,-1.491363108618051769e-02,-1.650291080215444614e-02,-5.894436951993577839e-02,1.610038429498672485e-01
6.792300966591664491e-01,6.266346629736255780e-01,6.160639970856399694e-01,-1.044322676333032419e-02,-6.146051332130592591e-03,-1.362738051121231524e-02,6.657032668590545654e-02
7.133643481405333997e-01,6.232018978951409105e-01,6.364386131978404526e-01,-3.058407031939773882e-02,-2.942763185176705543e-02,-6.444124804824415131e-02,1.580289900302886963e-01
6.807081229881508655e-01,6.112129946459117225e-01,6.159701062708884400e-01,-6.777987861097336955e-04,-3.063688058507364493e-03,-1.854927447559644648e-03,6.753862649202346802e-02
6.777437510042552127e-01,6.106438761935356618e-01,6.125074979828725175e-01,-7.342060941635162284e-04,-3.667221423091137559e-04,-1.792634715025201355e-03,6.627577543258666992e-02
6.860073433931517251e-01,6.259050797747952588e-01,5.995955348081688507e-01,-1.035345565238916967e-04,7.690596173597769036e-04,-4.901811056531259550e-03,7.719862461090087891e-02
6.859342330941081700e-01,6.277869332260112012e-01,5.740418014419559345e-01,-4.918204877341215975e-03,-2.103162561772832246e-03,-1.584049350562765496e-02,1.011601760983467102e-01
6.813750570674611540e-01,6.293242533989531484e-01,7.071954149643608911e-01,1.101415426323998775e-01,8.531872813005314526e-02,-9.599270672391542469e-02,3.009901642799377441e-01
7.856581707097196610e-01,4.962308229305758545e-01,6.854935367764476428e-01,8.089413473904953633e-02,8.707443619052556219e-03,-3.059425872836986082e-01,6.045431494712829590e-01
6.187094581072832833e-01,6.409100516753091226e-01,6.134109987384582796e-01,-1.297433381648245218e-02,-1.498522800181396539e-02,-1.353429468626284049e-02,4.864947497844696045e-02
6.446937393045695242e-01,6.447326147259377915e-01,6.207965911929433922e-01,-1.713294643247919441e-02,-1.449618997250308461e-02,-1.569424425056815953e-02,5.312216281890869141e-02
6.673961963728558544e-01,6.406720260986569215e-01,6.207726729918277009e-01,-1.337386637126379216e-02,-1.219482109642713516e-02,-1.911599718207566620e-02,6.099954992532730103e-02
6.341545029285049484e-01,6.036561251989983612e-01,6.525540509380014509e-01,-7.228406299531265830e-03,-1.336736788061753528e-02,-4.708312575859321253e-03,5.088383331894874573e-02
6.305214666740360796e-01,6.349968122630799128e-01,6.367910991831320366e-01,-4.669557602028369392e-03,-3.471071912836657444e-03,-3.962998664148967287e-03,1.341468002647161484e-02
6.346285620276671535e-01,6.350580780165334671e-01,6.300434046193060800e-01,-2.777250554513660888e-03,-1.475066494863488866e-03,-1.538758759386800066e-03,7.742590736597776413e-03
6.234198052915885802e-01,6.183042887723200209e-01,6.531619447150806002e-01,-5.673764699092822238e-03,-6.835101521040759694e-03,-2.944690811038612379e-03,3.640953078866004944e-02
6.365816913092260387e-01,6.471509792613305834e-01,6.198214531936583338e-01,-1.004223655173047680e-02,-3.144997308460845912e-03,-3.069378723926422057e-03,3.049975447356700897e-02
6.937311299900058570e-01,5.574508841885605914e-01,6.140314184663333563e-01,8.409985012127838694e-03,-1.495068656397956913e-02,5.693066654624417272e-02,1.570633947849273682e-01
6.793992364210076351e-01,5.411985589535566188e-01,6.559595297040163864e-01,1.748637775248171669e-02,-1.557959079169931281e-02,3.538893192728984755e-02,1.476891487836837769e-01
7.196409218271561103e-01,6.645751469453738958e-01,6.614040452585148167e-01,1.053919597081233173e-01,-1.014794474336180446e-01,1.415785351162016925e-01,3.571652173995971680e-01
7.049885480042764607e-01,4.840471623882913743e-01,7.232972805454704890e-01,-3.890457117015662727e-03,1.756231244747678963e-03,4.755245103076200311e-03,2.309068143367767334e-01
6.519841524440233016e-01,6.058735989033743330e-01,6.345926253113781668e-01,4.963092840159628177e-03,-1.320643611691861563e-02,6.310983305697089214e-03,4.840793088078498840e-02
5.907156852325829988e-01,6.352720446088521156e-01,6.981097691506277236e-01,3.355331124661548037e-02,-2.558323091255049024e-03,4.929595473463103950e-03,1.104702726006507874e-01
5.209563984149981897e-01,7.068580191759397113e-01,6.796982022259836498e-01,8.957318451905520737e-04,-8.845194418098186948e-03,-1.071227516573888816e-03,1.746097803115844727e-01
7.082386905275711575e-01,5.016519305661386596e-01,7.039177211195987161e-01,-1.616128146947239802e-02,4.008768293675368972e-03,5.338867445941845695e-03,2.066915333271026611e-01
7.037941300573904435e-01,4.980963951358690078e-01,7.029888832028156065e-01,5.302088833719598507e-03,-7.707706283027753076e-03,1.336624346391096681e-02,2.072319984436035156e-01
7.109150194972320147e-01,5.011911758534416395e-01,7.020417615491356678e-01,2.245465256756412620e-02,1.629001670963586054e-03,-3.217653245220871826e-03,2.091734856367111206e-01
6.914756648926204674e-01,4.905996456904520020e-01,7.220663821892741030e-01,4.152288081800970670e-02,-6.303953513024297683e-03,2.727276496060038191e-02,2.344247996807098389e-01
6.892484533018752302e-01,4.899788584496169719e-01,7.075267423132385325e-01,2.684194825747392849e-02,-3.153001409345670969e-03,6.254717056658118217e-03,2.144608050584793091e-01
8.588389801187049644e-01,3.648017979482480744e-01,7.343384636993125492e-01,2.000837727670370103e-01,7.102790742552110397e-03,2.143328660687704168e-01,6.753761172294616699e-01
7.415243502117936369e-01,2.325589698181821929e-01,7.684900742363975912e-01,1.124790167423248000e-01,1.619498252043099357e-02,-7.549683017114659778e-02,5.738800168037414551e-01
7.348718848323129160e-01,5.377202502975818588e-01,6.964439212050501649e-01,2.124739555496115984e-01,7.718001503276382402e-02,-2.749867009427579001e-01,6.425948739051818848e-01
6.715127835044193416e-01,6.332739931711388603e-01,6.075136745315753428e-01,2.128272582168365748e-02,1.488622866960678630e-02,-3.034461876786384224e-02,8.886446058750152588e-02
6.306519008442488250e-01,3.019618026372342667e-01,7.703742513974454198e-01,2.477625556812890206e-01,-3.902613021911536390e-02,6.334318330707471023e-02,6.117596626281738281e-01
6.686909067827061515e-01,6.014930532502287264e-01,6.639134729513094246e-01,2.793531994342020666e-02,1.568954816536632588e-02,-2.804960215160874973e-02,9.827163815498352051e-02
6.380432762435205296e-01,5.119238420083823682e-01,4.919357161073731333e-01,1.681962741769677527e-01,1.714065895437255627e-01,-2.570190740575112320e-01,6.245106458663940430e-01
7.140444222667076124e-01,6.546461446534761475e-01,5.203124481106000676e-01,-1.558983743373424692e-02,-3.781016978707336940e-02,-7.038964152966489807e-02,2.223397195339202881e-01
7.164642092663795481e-01,6.590615234971665126e-01,5.085905175711735726e-01,8.159861455292270749e-02,1.109878252059726678e-01,-1.766793175255563508e-01,4.302913844585418701e-01
6.794624408661853465e-01,5.251445675449077921e-01,6.840161085664602236e-01,1.067373768419018105e-02,1.481746543028604306e-02,-1.976321116658263585e-02,1.634309142827987671e-01
6.967040786311303746e-01,6.618312391084402169e-01,5.262705019410467422e-01,1.416008879021790103e-03,-3.104538173487263620e-03,4.672289549129354791e-02,1.757960021495819092e-01
6.850650126427539899e-01,6.586665059629800423e-01,5.716794140669853030e-01,-7.760351697026083954e-03,1.718858715453781827e-02,1.797202168359184754e-02,1.122317090630531311e-01
7.103346493951795404e-01,7.465497668456242408e-01,4.295729766035853436e-01,-2.376787994253173539e-02,3.083098071935621437e-02,9.028119082939403683e-02,3.454054594039916992e-01
5.049619303552576044e-01,6.820116266276095018e-01,6.895400381464387163e-01,2.070074182278302047e-02,-1.602486390563549398e-02,1.546671506398790245e-02,1.884403973817825317e-01
6.459959507925182587e-01,8.121479399497137930e-01,5.286936452656776364e-01,1.162056530718551389e-01,-3.407774989316074699e-01,2.716467041963410711e-02,6.722865700721740723e-01
7.155769520086423530e-01,6.949080413123238653e-01,4.434792705795445045e-01,3.736464224684099122e-04,-1.810217685747350300e-02,4.750209955374413290e-02,2.767547965049743652e-01
7.202757203355838467e-01,6.233376253600101391e-01,6.172988709213179659e-01,-7.482826462087083241e-02,6.245639065013327412e-02,1.286886600776889489e-01,2.969871461391448975e-01
7.690344050598147962e-01,6.073736820816109105e-01,3.410055327370963285e-01,-1.871387728792610426e-03,9.280127971811814175e-03,2.472049754672767663e-01,5.689879059791564941e-01
7.817794791964560730e-01,8.123530036261280562e-01,3.426936517732075971e-01,5.030909140755630317e-03,1.568682858250316503e-01,2.122692339478805812e-01,6.451581716537475586e-01
8.413138627187621843e-01,6.631191014809429962e-01,3.807589825307293729e-01,-1.434338467004971085e-01,8.698265189852816270e-02,2.520190874112859247e-01,6.608738899230957031e-01
7.065222125931924779e-01,5.974455054856955272e-01,5.817397066242674386e-01,3.528720046168474372e-02,-5.373583777798191657e-02,1.213684927901680505e-01,2.654178738594055176e-01
6.870857463662445319e-01,5.779234782757985966e-01,5.501331938786788722e-01,8.113101129572222736e-02,-7.342027057257950740e-02,1.384254365564936418e-01,3.303414583206176758e-01
3.434298757798175394e-01,7.226659467846284768e-01,9.095026054286519113e-01,2.299708797480150002e-01,-4.515898958948404152e-02,1.528297349934596705e-01,6.960113048553466797e-01
6.475020456381883616e-01,6.407608444781949242e-01,6.223621485130869102e-01,1.246786093412237915e-02,-1.096047414365151559e-02,1.232857259869496458e-02,4.231671988964080811e-02
5.284660305537460800e-01,5.967947627343294092e-01,6.709655975804537098e-01,1.148613143573096185e-01,-8.333200562178524895e-02,6.251433563921729442e-02,2.955914139747619629e-01
6.254272342468878421e-01,5.856788472460784378e-01,6.722705397520329917e-01,-1.423951440232029513e-02,-1.056886097434315067e-02,-5.684985017290149385e-03,8.171001076698303223e-02
5.572691908841975739e-01,4.817884683539240265e-01,9.308835558264951793e-01,2.642494137618706662e-01,-6.358050595301324714e-02,7.202120451022546443e-02,6.408256888389587402e-01
5.927362894534917714e-01,6.378519534972436622e-01,6.685261137820919242e-01,3.619593584561717897e-02,-2.916299033626989362e-02,3.419674295632848388e-02,1.197929084300994873e-01
6.236628770033106894e-01,6.157129603274920093e-01,6.623615585738009681e-01,-4.746977564517832968e-03,-6.987573838814361248e-03,-2.972086109203057706e-03,4.592407122254371643e-02
5.324713062493682258e-01,6.570072322791951080e-01,7.021973318407565001e-01,-2.466988694297524154e-02,-2.531839135281186131e-03,-1.183437037869488478e-02,1.595127880573272705e-01
4.723024939857671800e-01,5.830816705868268057e-01,7.445612419358993428e-01,2.321706490974700665e-01,-9.141210249565460966e-02,6.332287334936415046e-02,5.050185918807983398e-01
7.269319619109066988e-01,7.549758309014206192e-01,5.092912579184529775e-01,3.960383846189600987e-02,-1.226319130076459069e-01,4.934659895567326815e-02,3.337421715259552002e-01
6.898707879828728240e-01,6.709997791878916651e-01,5.714814765539510955e-01,1.713325982457680058e-02,-3.060351409805316114e-02,3.813942620797085986e-02,1.420993953943252563e-01
7.802965915553484733e-01,7.028074003580577767e-01,5.207363859327535094e-01,6.700355250820611008e-02,-2.527358174820501513e-01,2.711364933046278569e-01,6.920278668403625488e-01
6.587115761943644898e-01,3.437113973668699529e-01,6.710832927749507126e-01,1.951053991400445442e-01,-9.713202697572498323e-02,2.106265384279821240e-01,6.155226230621337891e-01
7.403062051201348970e-01,5.200237906034782531e-01,6.819248064236146378e-01,3.092863325815171094e-01,-1.040319738333088384e-01,1.623155874766889217e-01,6.614782214164733887e-01
6.108721192851089832e-01,6.808475013957674404e-01,6.148781770584093032e-01,7.624012040024733417e-04,-2.407809117069490724e-03,-1.230159186976421092e-03,6.823454797267913818e-02
6.193854218167619274e-01,6.768839636929564474e-01,6.191147816382420732e-01,-7.421796071033011540e-03,-1.212809362347683911e-02,-8.261001537216183452e-03,6.428818404674530029e-02
5.747117758547174438e-01,6.735464545992113639e-01,6.213714991745031835e-01,-5.164466813219562372e-03,-1.818338531211553810e-02,-9.015714108773591889e-03,9.300320595502853394e-02
5.730606333567591637e-01,6.862057298995745125e-01,6.236314424457897188e-01,-3.062649921931669648e-03,-1.886645325360404232e-02,-3.888924451756483984e-03,1.038206145167350769e-01
6.048642129604020479e-01,6.754070930367074288e-01,6.092916784583187750e-01,-3.834135303734103641e-03,-8.399816301763424198e-03,-4.592061229553575513e-03,7.072911411523818970e-02
5.698904515632197132e-01,6.978775897319338117e-01,6.242136206732433745e-01,-6.371497477376027868e-04,-1.844403573895502316e-02,-4.601051381897053143e-03,1.160358637571334839e-01
6.243271988877834300e-01,5.781162929402795525e-01,6.794425521001473678e-01,-1.606854166192143996e-02,-3.706187653286336595e-03,-1.768348839232448391e-03,9.244059026241302490e-02
5.025059878063528052e-01,6.949289537401590611e-01,7.082481754010530040e-01,1.614707181696855426e-02,-2.160169299591064174e-03,2.868867892662742974e-03,2.014641314744949341e-01
4.551459014915343326e-01,6.513817753853234915e-01,7.171292298554291511e-01,1.105908903701853657e-01,1.253691514825697358e-02,-1.794460827127514375e-03,3.048039972782135010e-01
4.441356603056785257e-01,7.535075580412060603e-01,6.936351690062201314e-01,6.375438738579063125e-02,-6.994283621212496471e-02,-4.000362450235742280e-03,3.281626403331756592e-01
5.662796420733138270e-01,7.064315130739255988e-01,6.645484818076384803e-01,1.253469023222692630e-02,-4.504839222784982888e-02,3.639851397255639345e-03,1.487478464841842651e-01
4.897890980804121552e-01,6.909469163646436707e-01,7.134699458427640195e-01,2.688163932350117954e-02,-9.503414262992037828e-03,9.668153409500339314e-04,2.189613133668899536e-01
5.055689231822996232e-01,6.943822685501060965e-01,6.870158057687072439e-01,1.509300699114191242e-02,-8.124042677925404771e-03,1.091171343886852482e-02,1.885535717010498047e-01
5.871379732521899708e-01,6.295033225633399621e-01,5.839265049200075275e-01,1.062233085067837840e-01,-1.209354495265659302e-01,1.067350837448890616e-01,3.374087214469909668e-01
5.949858695792822338e-01,6.615998117567389869e-01,6.586575709984460181e-01,2.446687825785154660e-02,-2.420587930088381398e-02,1.737523021234310683e-02,9.332434833049774170e-02
6.218910661367373915e-01,6.190981953396172965e-01,6.624900933608831588e-01,-1.613675351179178364e-03,-4.448001667539608697e-03,-1.824607598416349468e-03,4.297234490513801575e-02
4.938618259036855473e-01,7.096947380343552325e-01,6.949525151531781297e-01,-8.274329045706885514e-04,2.161683970794493759e-02,4.847656560696055549e-04,2.121884673833847046e-01
4.816033061524317982e-01,7.070396862692229778e-01,7.214297407549378205e-01,7.427114175797407299e-03,9.499126673319601560e-03,-8.412785281906863836e-04,2.339037954807281494e-01
4.729634687788500935e-01,7.204060612964540145e-01,7.206522155297843124e-01,9.417860123274961540e-03,6.922266999585227794e-03,-1.701404963350746779e-04,2.483922988176345825e-01
4.069937895236940273e-01,7.195304008492423575e-01,7.165202360860344344e-01,4.977493890105408152e-03,1.412606870938696267e-02,-2.692056266132698307e-03,3.121571838855743408e-01
4.959408971097419849e-01,7.190428205247266780e-01,7.304740503638914584e-01,-1.823921253626106104e-02,3.600981646792612585e-03,2.274597373985521535e-03,2.313177436590194702e-01
2.809100864258039509e-01,7.560778022066952930e-01,8.098030852711405325e-01,1.380953821311902974e-01,9.896098065664715726e-02,-2.925946497968321541e-02,5.859679579734802246e-01
4.947689771909953849e-01,7.220454031513490190e-01,6.939891522254010292e-01,3.835700622702064872e-03,1.688191508326595397e-02,-4.229794965221372709e-03,2.168363630771636963e-01
4.112160681259531825e-01,7.383847789753411606e-01,7.299053074721383316e-01,-2.511841004921207959e-02,6.351736114743962783e-03,-1.073682326168690776e-02,3.266446590423583984e-01
6.411122190685661915e-01,6.245495312279423228e-01,6.385257614757441358e-01,1.536661796673752071e-02,-1.501927325177118168e-02,1.887896331842010833e-02,5.188982561230659485e-02
6.354833402891737482e-01,6.333526160708966568e-01,6.313030909779339117e-01,2.960468263215188314e-03,-2.236190052298190831e-03,6.315154704131851040e-04,7.456453517079353333e-03
6.249228739070856742e-01,6.249992740998341345e-01,6.408890499802000207e-01,9.859468214167412675e-03,-1.044958431806339641e-02,1.008285203666612999e-02,3.432062640786170959e-02
6.330460712260200795e-01,6.301392864531212279e-01,6.399574918922548150e-01,-7.194232024939026813e-04,-3.447642706075998344e-03,1.009776402263306205e-03,1.079710666090250015e-02
6.309718575545923969e-01,6.395523145832706646e-01,6.257486394569770072e-01,5.568960244881155687e-03,-2.154592215638751959e-03,3.378042140562443566e-03,1.693883351981639862e-02
6.225536636515276445e-01,6.529489131145261860e-01,6.186926634949860837e-01,6.523128464467581149e-03,-5.738007929116420783e-03,2.734276730285302610e-03,3.612466156482696533e-02
6.617082345838167790e-01,5.938575871747169277e-01,6.614091236591189693e-01,-2.598626303748972910e-02,2.065692266018349932e-02,2.856423680343251476e-02,1.016721948981285095e-01
7.027213004077830227e-01,5.371719595496657895e-01,6.694995938357870546e-01,-2.991280737716007360e-02,2.658280573762455273e-02,6.740900963356298570e-02,2.035844326019287109e-01
6.131308339073424651e-01,6.503749611076431458e-01,6.338564869314606831e-01,-1.726893516338474585e-02,2.079846127186813984e-02,2.154241264150479410e-02,6.803948432207107544e-02
8.155798717370428275e-01,6.840908829002315672e-01,5.485546422749970619e-01,-3.010415244574043969e-03,3.162415774442175337e-02,1.173208749152475500e-01,3.127314448356628418e-01
7.900387215545484620e-01,3.252521373049910292e-01,6.529421300540452222e-01,2.949901154833510161e-02,-1.173559318532804360e-02,2.261801457104167523e-01,5.723613500595092773e-01
6.944517338400393314e-01,5.584401398332166089e-01,6.038514597043843635e-01,-5.237687191195049795e-03,7.251988125441634521e-03,6.244831518208655147e-02,1.622477322816848755e-01
7.176876274340083794e-01,6.271411597339696664e-01,6.097945642545031797e-01,-1.792797458406181210e-02,2.599850020639286191e-02,6.500551578646723838e-02,1.604350209236145020e-01
7.272470327032710680e-01,6.614423160756354170e-01,5.241620920568373920e-01,-1.091773618876761519e-02,-3.520995704914968698e-03,5.233526960815255286e-02,2.020433843135833740e-01
6.978600098546241526e-01,5.470737417526964075e-01,6.582380624429587934e-01,-3.616653161549048066e-03,1.068963860860794139e-02,2.067239004418581702e-02,1.414073556661605835e-01
6.963468447742454659e-01,5.748202875735110018e-01,6.230955385206877750e-01,1.495587385857816013e-03,2.228442378688241972e-03,1.737872656354046141e-02,1.102730557322502136e-01
8.948039634955557986e-01,4.136104733914753862e-01,6.144996449703037378e-01,-1.292741967754674481e-01,3.214131810779318615e-02,2.112712196145627996e-01,6.019786596298217773e-01
6.978469905629482994e-01,5.539511938975121286e-01,6.548891663469151858e-01,-6.729148719895780908e-03,1.114401524170463738e-02,5.126401597617428335e-02,1.573605239391326904e-01
6.580068078342441451e-01,6.895975661401495538e-01,5.197676198272380699e-01,-8.197699822244082848e-03,-3.314759980040227205e-02,7.881189009166106058e-04,1.672569513320922852e-01
6.917213923578939827e-01,6.880522991653343912e-01,5.028415403939365813e-01,-1.072115294645096042e-02,-3.566772177450996950e-02,-3.884687622035180171e-02,2.090087831020355225e-01
7.011408810320901575e-01,7.005777606785926759e-01,5.012189946231628834e-01,-8.945961705694328164e-04,-2.563331263037101505e-03,9.342688877190944916e-03,2.003508657217025757e-01
8.319247929179960366e-01,8.537298521727380018e-01,3.171027032760092568e-01,-6.973046777986975642e-02,1.394964001039915823e-02,-2.457120264749152461e-01,6.877768039703369141e-01
7.059634392687859084e-01,6.620297372118828516e-01,5.532530284575624124e-01,-1.780676221438068320e-03,-9.161536267545233869e-03,-4.882473449741878829e-02,1.611036360263824463e-01
6.642995776489296622e-01,6.584989712469507817e-01,5.715325186928243983e-01,-1.445875857828795956e-02,-1.740554240885834256e-02,-1.535651854465881934e-02,1.017092093825340271e-01
8.090328246213318586e-01,7.446096073256724956e-01,3.871802757325343847e-01,-7.125903794370369235e-03,-4.711290332520877075e-03,-1.666737324114403729e-01,4.883565902709960938e-01
6.730180083562433691e-01,7.335983165567828701e-01,5.560880103250376294e-01,-6.258741741803323932e-02,-8.039713303946458001e-02,-9.827706865843598150e-02,2.907646000385284424e-01
7.575008108106622284e-01,7.465699969887821252e-01,2.759479087691653620e-01,5.076950933198880883e-02,-1.091205233776780664e-01,8.624124391360685205e-02,5.408475399017333984e-01
5.667625027165180684e-01,6.056983257496680872e-01,7.295420427656348350e-01,-7.508972382419937253e-02,-8.396505117681689334e-03,2.372889307476638149e-02,2.012245208024978638e-01
5.164998470537619513e-01,7.045506506785559342e-01,6.846386289864817565e-01,-1.912843147390141246e-02,6.227009085136076677e-02,5.831390158067936008e-03,2.117723375558853149e-01
5.198211629941821288e-01,6.852718016361964981e-01,5.872231116348202162e-01,-1.881585436524673693e-01,2.142907522493250339e-01,1.487150876097025898e-01,5.754009485244750977e-01
5.929341550726496823e-01,7.011144954584188627e-01,5.955113223221385477e-01,-1.056544773581800586e-02,3.898614478668595285e-02,2.132945153869465413e-02,1.330049186944961548e-01
5.480015781463216662e-01,6.581120457229953091e-01,6.886396760200216294e-01,-2.602467794493004694e-02,1.572300767178348366e-02,1.496767709900526447e-02,1.409370303153991699e-01
5.312505722963267729e-01,6.968974010126189889e-01,6.464936897840196650e-01,-1.206420571293817089e-03,2.688986791150577843e-02,3.190506311064194873e-03,1.543835848569869995e-01
6.164915715087085912e-01,6.122494098191840761e-01,6.763695937958860149e-01,-2.019503746255812970e-03,-3.108269816492890535e-03,-1.272097265700143989e-03,6.247767433524131775e-02
6.969545395039793423e-01,5.917408491146270988e-01,6.064041102520223436e-01,-2.356814898643811232e-02,2.056835049799205992e-02,7.076898844510427777e-02,1.664405316114425659e-01
5.603681566633621491e-01,7.265082365502650852e-01,7.440832966043686714e-01,-1.159358029195215467e-01,9.386843090002831846e-02,4.567453044015927499e-02,3.222529888153076172e-01
5.855111383934145097e-01,6.727476295344706481e-01,6.371976973557733626e-01,-2.306321753639955195e-03,2.201685709690382950e-02,1.227495218758288542e-02,8.772091567516326904e-02
5.832409611031941221e-01,6.960600538737128362e-01,6.293982895244306652e-01,-6.373281517124103693e-03,1.661949177618937679e-02,7.679183162044746561e-03,1.038200706243515015e-01
5.708965713569924549e-01,6.653385029468610323e-01,6.595950010584407108e-01,-1.409942761769980221e-02,1.269278180489378724e-02,2.085609238609774374e-02,1.038964390754699707e-01
6.486238597178859422e-01,7.337041324253906760e-01,5.638586316349969429e-01,-5.801383550542453006e-03,5.956472269030093497e-02,-1.211931488748938142e-02,1.811659932136535645e-01
6.474023815133059800e-01,6.280970555453898596e-01,6.334562795075061592e-01,-7.845018626157792760e-03,7.924789820193079912e-03,2.583525580982499233e-03,2.628723904490470886e-02
6.354583778499920399e-01,6.298113457628231604e-01,6.359604320931535604e-01,-1.520523885577335392e-03,2.800307189217446542e-03,1.043472716739123063e-03,8.288774639368057251e-03
6.416975370635573661e-01,6.328178961518481360e-01,6.301385974803014323e-01,-1.141450117167862885e-03,1.961088234336791879e-03,1.387661236184971423e-03,1.144731417298316956e-02
6.419698641614198786e-01,6.370956204064440742e-01,6.195839695481375475e-01,-8.124161787285597361e-03,3.029449990376952354e-03,2.782443243633380726e-03,2.577861398458480835e-02
6.427059946445554672e-01,6.313777937956568387e-01,6.342175839239110324e-01,-6.121457180376139659e-03,5.617125184402568458e-03,6.216520246255212087e-03,2.066957205533981323e-02
6.322179708088394579e-01,6.393553137612896231e-01,6.299750841885366492e-01,-6.153741113020572834e-03,3.826632124217223697e-03,2.578123900317706978e-03,1.579416170716285706e-02
6.302172229512692514e-01,6.423168641289230818e-01,6.335690850802665475e-01,-1.694529845372400078e-03,8.275663703476437852e-04,9.227784172339684784e-04,1.141505222767591476e-02
6.310948889238026105e-01,6.357051367380849305e-01,6.360294331070306395e-01,-3.987990151192991571e-03,3.563259586751467336e-03,3.683334838650340060e-03,1.222121715545654297e-02
6.509157650613376367e-01,5.739860678760713153e-01,6.808020234496217071e-01,8.607685435757688949e-03,9.815571837067658609e-03,-5.374837710319114656e-03,9.853165596723556519e-02
6.910863313643089700e-01,6.318901385984009300e-01,5.654163725067123947e-01,1.395838965519355032e-02,1.447304703602358619e-02,-4.210009315245221567e-02,1.356027871370315552e-01
6.106229794498939656e-01,5.562093390081063182e-01,7.222684550563717165e-01,1.096179050943306144e-01,1.531814481940150033e-02,-3.724932654003901191e-03,2.414423525333404541e-01
6.592805835017657712e-01,5.411896032764624831e-01,6.502982505968447624e-01,3.392753463120153079e-02,2.198592310424437105e-02,-3.592465463883835752e-02,1.474467664957046509e-01
6.857501452613514736e-01,3.774741130668583522e-01,7.971525331219019295e-01,3.744970182424693372e-01,-2.575770984968432653e-02,-9.852326183796498646e-03,7.515403628349304199e-01
3.718355884806093248e-01,5.980170247534273287e-01,6.904159337309647704e-01,2.336523120871747405e-01,1.498920809315519020e-01,-1.078273325570990038e-01,5.887765288352966309e-01
6.696893710022858714e-01,6.225198622658701941e-01,6.141529358477963996e-01,4.698411641337091500e-03,-1.784163939420604960e-03,1.179080181363774578e-03,5.262677371501922607e-02
6.680018361296548024e-01,6.164365756795627815e-01,6.134621974762416441e-01,1.437692513438280787e-03,-1.912953593323642176e-03,5.564994202125670125e-04,5.328513681888580322e-02
6.767544584410607467e-01,6.128333231555339600e-01,6.148081785253696196e-01,1.849104726965594128e-03,-2.787964661039568984e-03,1.657353650376374799e-03,6.328817456960678101e-02
6.571473105648808488e-01,6.007371377087741271e-01,6.348786632079378434e-01,6.344106217810053377e-03,-1.444484016754491937e-02,6.020359265384044034e-03,5.724735185503959656e-02
6.724839904875594687e-01,5.902574928263676357e-01,6.289193047947471138e-01,5.100670285769089672e-03,-1.200682167534049098e-02,1.307156848270079642e-02,7.810279726982116699e-02
6.160023163124177525e-01,6.145764994281870397e-01,6.680027735281077739e-01,-8.847758004643768281e-04,-1.432736597804616348e-03,-1.899352704426764517e-03,5.291080102324485779e-02
6.767804102022698665e-01,6.054477737062696763e-01,6.168825766099603758e-01,3.171562347068914572e-03,-6.636250050243297158e-03,9.024645074109952092e-03,6.935454905033111572e-02
6.853406581852948820e-01,5.968169230042926765e-01,6.274494447020260157e-01,6.762932637660941284e-05,1.043945945585870734e-04,5.345713579097370084e-03,7.841476052999496460e-02
6.333722267120149851e-01,5.997323854723378700e-01,6.525599099304912887e-01,9.177653622154840693e-03,-1.277523133308028358e-02,5.785238913574921281e-03,5.466252192854881287e-02
6.392657234935813504e-01,5.923450516413999445e-01,6.911594250466701617e-01,5.668394286494105733e-02,-1.013650454296839698e-02,3.379117966021245173e-02,1.438832134008407593e-01
6.226698484774153552e-01,6.166887716148541365e-01,6.536736249934453902e-01,6.909088513793637705e-03,-7.296692278657005912e-03,3.207138849253559406e-03,3.893882781267166138e-02
6.191934962413792043e-01,6.313634743728813170e-01,6.409347979795260164e-01,3.004330270640725910e-03,-3.840391169886934672e-03,6.316707948173730033e-03,2.339289709925651550e-02
6.308292510262548669e-01,6.276899755692086913e-01,6.490249020476748232e-01,4.838416798904570867e-03,-5.688237608405487082e-03,6.736065431752721530e-03,2.648548036813735962e-02
6.417681613261672080e-01,7.065886169964509245e-01,5.601242148258441800e-01,3.972073319524476592e-02,-1.444944916017517622e-01,1.387442189112001074e-02,2.900108695030212402e-01
6.316386417395609687e-01,6.321842299945410470e-01,6.323664329320971556e-01,4.814985229889636766e-03,-5.559336030473218358e-03,4.495520767889338298e-03,1.494423951953649521e-02
6.697622507904463784e-01,6.175071828717492162e-01,6.084310467840272629e-01,6.988778512779763273e-03,-3.282967668415519465e-03,6.507048564352943369e-03,5.994272604584693909e-02
6.262512359081979785e-01,6.360585327458831983e-01,6.324032498815846948e-01,1.107006938664518297e-03,-2.648067362482779512e-03,3.067107894736703904e-03,1.125301513820886612e-02
6.306548217816942969e-01,6.325470665161936346e-01,6.419700696454436750e-01,4.344086612335085890e-03,-6.189972549129557113e-03,5.825260360994393739e-03,1.958483457565307617e-02
7.388428123210755150e-01,5.457736513101691944e-01,6.723973028943133201e-01,3.461055270231113302e-03,-2.834777424913442062e-02,-1.284895770114243552e-01,2.843194901943206787e-01
6.833473491525346999e-01,5.424033116027140444e-01,6.491943641977231394e-01,-1.495369183166401356e-02,-1.452542321926195146e-02,-2.752729024025406257e-02,1.406948715448379517e-01
7.165093804573687830e-01,5.744522911014210420e-01,6.168700923558764204e-01,2.352341300884591008e-02,7.327817849896898009e-03,-6.747251255468202091e-02,1.772921383380889893e-01
6.964074047490753649e-01,5.744273044351779767e-01,6.279803746129106745e-01,1.218649408973067685e-03,6.056555120255405385e-04,-1.743568208349908361e-02,1.101464107632637024e-01
6.935679791453708276e-01,5.719104557570053871e-01,6.514388354638029899e-01,-6.983656752054887527e-03,-6.666713262005794990e-03,-1.025320752640221204e-02,1.097502857446670532e-01
7.022256699734428231e-01,4.969122749828112084e-01,6.970283227986284746e-01,4.679162654730626217e-03,5.488223189376661461e-03,-1.886575015195599697e-02,2.057603299617767334e-01
6.861110230487702522e-01,6.987789979749594593e-01,5.364812697881640169e-01,5.535595285797350988e-03,4.945008290659892031e-02,-3.231332038991994310e-02,1.870971918106079102e-01
6.018899418737448936e-01,6.538992407789127048e-01,6.444112774501641328e-01,1.713487170094656065e-02,2.781250943085451441e-02,-1.173531736850619810e-02,7.691617310047149658e-02
5.965433518157010617e-01,6.958442378722968780e-01,6.295524521175852595e-01,-3.262190393797201327e-03,2.839789059706073968e-02,4.195680148096636759e-03,1.008785963058471680e-01
6.489226703236874449e-01,6.930280078473247674e-01,5.454772578647183456e-01,1.100785153455612585e-02,8.340882314665393552e-03,7.156154455216438403e-04,1.333510130643844604e-01
6.518350268184581742e-01,6.911443848502384357e-01,5.890372583911213100e-01,1.461180118487807010e-02,2.406240737639146407e-02,-6.979302599456572651e-03,1.023766100406646729e-01
5.451443958341745111e-01,7.003709173431142965e-01,6.649193738207862525e-01,1.035729448885374347e-02,2.383639145088992106e-02,-1.756347249548699746e-03,1.479346454143524170e-01
6.948700247288804865e-01,7.910517754445243188e-01,4.922133817730316441e-01,-2.788058571958557802e-02,1.502641269000382362e-01,3.603490333612136692e-02,3.791806399822235107e-01
5.867620764648299181e-01,6.586503569828272564e-01,6.506845286353212243e-01,1.150441682565167198e-02,-7.445282099542974673e-03,1.496017012699673611e-02,7.676914334297180176e-02
5.441159742513502762e-01,6.956589179115106880e-01,6.666049848271772271e-01,-1.926235211076243172e-03,-2.792362732645186155e-02,1.017754796011419507e-02,1.485514789819717407e-01
5.600874884265748532e-01,6.943120396718704956e-01,6.485340883544949975e-01,1.652614892829950546e-03,-1.357100916285613156e-02,5.131793571878082161e-03,1.208596006035804749e-01
6.096000505709959771e-01,6.675131819070962980e-01,6.309693193453345117e-01,2.926886285453939637e-03,-4.152999891013143575e-03,1.056696276114195247e-02,5.463917553424835205e-02
5.505574800158090643e-01,6.495066946099528060e-01,7.276494618146495119e-01,1.405393929231950056e-01,-4.565448949402840795e-03,3.685871191860908697e-02,2.949942350387573242e-01
6.577672853517098073e-01,6.650857809957766431e-01,5.853900835517485968e-01,1.919344177404102778e-02,-2.825059937550531905e-02,3.074181913246216979e-02,1.102558150887489319e-01
5.154309331120906501e-01,5.683632837242624802e-01,9.216602634784609727e-01,-3.866270949790727163e-01,-8.784216293972141321e-02,9.113905456515912495e-02,8.017672300338745117e-01
5.906408889159879827e-01,6.188238279604648673e-01,7.916920175792766523e-01,-2.036291207990853780e-01,-2.379099405989694091e-03,-2.726352793762989307e-02,4.027293920516967773e-01
7.586378449722297468e-01,5.741402220032929549e-01,8.050587698122937397e-01,-2.868858393141019425e-01,1.692455473040206104e-01,2.038805706059035883e-01,7.087336182594299316e-01
6.259186722726475249e-01,3.925288777201473844e-01,9.678438794698376313e-01,-3.110477469241228476e-01,8.859949050654078451e-02,-8.019419643904426159e-03,7.517846226692199707e-01
5.101974365510458798e-01,4.647656914689544672e-01,8.011026633828149945e-01,-3.196421284265041907e-01,-3.329502377818741032e-02,-2.696952220049817286e-02,6.418156027793884277e-01
2.834486933355787053e-01,5.979899412930369529e-01,8.094098328434088385e-01,-2.910077621823356497e-01,4.092377222913937823e-02,2.704425055368396905e-02,6.865929365158081055e-01
6.099611562323844494e-01,5.052622698928534994e-01,8.037664794703611726e-01,-1.542092758618917869e-01,7.884905334542590891e-03,5.041522578324175718e-02,3.846643567085266113e-01
5.489838267578048825e-01,6.941510854813734976e-01,6.626317944851306541e-01,1.156996443701609548e-02,5.003733548123131397e-02,-1.641134368689029649e-02,1.619018912315368652e-01
5.070567960150664799e-01,6.743443301244119725e-01,6.644126858600948315e-01,5.465324210569832974e-02,7.234012303191098003e-02,-2.565057716639244229e-02,2.303397059440612793e-01
6.386388123460925437e-01,6.731409797295776487e-01,5.852872924927150500e-01,-1.202736093818012816e-02,-1.451374761701608451e-02,-4.078165695640812230e-03,8.362619578838348389e-02
6.259963477337757709e-01,6.845717918648216438e-01,5.964251630810610827e-01,-2.329776482712252531e-03,-5.907984133801829664e-03,-3.787026421799043804e-04,7.847999781370162964e-02
6.313800646043928877e-01,6.733745116893037341e-01,6.049740333891956423e-01,-9.941792636115442949e-03,-6.952609702475476446e-03,-6.705444927832308888e-03,6.439054012298583984e-02
6.729209504982244239e-01,4.863889320993905474e-01,7.672932881466115740e-01,-1.511605187243688087e-01,1.693580481533117632e-02,2.098278210384760603e-02,3.633642792701721191e-01
7.233690900614074826e-01,3.915831809402037234e-01,7.164638319081572115e-01,-1.880797505600380684e-02,9.629014192981892595e-03,1.689658737240122555e-02,3.317142724990844727e-01
7.349550751608445731e-01,4.271052904191413591e-01,7.993698221803913206e-01,-4.565821975985414304e-03,-1.729804605048326435e-02,-2.230002793435903463e-02,3.481420576572418213e-01
6.780483666161792877e-01,3.584993364291245710e-01,7.559095788393422888e-01,-2.047244395886214097e-01,5.007558507453342689e-02,5.256234016816175442e-02,5.240246057510375977e-01
7.067593860174983256e-01,5.072492480642606383e-01,6.923743657167447108e-01,-2.597183934007153000e-02,3.162765893562530500e-03,4.403039398798651999e-02,2.121577560901641846e-01
7.279739468014428949e-01,5.014960153742632487e-01,7.448361501730040857e-01,-3.453421792901064519e-02,1.041272630540896263e-02,5.986057666030323438e-02,2.646667361259460449e-01
6.217223850118038797e-01,6.874326366645393538e-01,5.523164447316138981e-01,1.740325075115480014e-02,5.960869165234549544e-02,-1.779017220702814456e-02,1.619054675102233887e-01
9.219983911610090122e-01,2.103123517501272466e-01,7.810124736222663344e-01,-1.245185499249276545e-01,-1.699340327658049876e-02,-8.217721899674195266e-03,6.882004737854003906e-01
6.973021666349560332e-01,3.423125367728905299e-01,7.068826075046439339e-01,-1.183329253610053144e-01,8.360620001545555902e-02,1.491143945410187410e-01,5.091106891632080078e-01
5.695429048700604291e-01,6.083889712189209931e-01,4.743899071149211277e-01,1.887937732072128005e-01,2.275109609018143575e-01,-2.140141746944849432e-01,6.433339715003967285e-01
3.834779620960016011e-01,8.006517644523135635e-01,7.052949317776063820e-01,1.354095655453467495e-01,3.180125034911731596e-01,-1.427549786130918180e-02,7.087743282318115234e-01
6.086035756549778020e-01,6.485282345769406431e-01,6.479857080956511473e-01,5.560177443378300915e-02,2.660733070501327541e-02,-3.813476398496284947e-02,1.316583305597305298e-01
5.760330314023337506e-01,6.169547251505581587e-01,6.764592196525766044e-01,4.483828485029506261e-02,1.895067179709779281e-02,-2.104483415442207420e-02,1.268378794193267822e-01
5.817168250453562672e-01,6.793116474809330896e-01,7.492466866005156323e-01,1.294313379241878170e-01,6.583482556954257936e-02,-6.081872953008717053e-02,3.091889321804046631e-01
6.156985187531128778e-01,6.567707582489995533e-01,6.647423454807426246e-01,1.865151065193654950e-02,1.498892661429642066e-02,-1.403827108890160977e-02,6.623250991106033325e-02
4.938315590299395819e-01,7.879749165879923467e-01,7.739757485248343061e-01,7.226264847950435166e-02,6.554803174973253266e-02,6.581064692688170462e-04,3.333993554115295410e-01
6.382794554586364022e-01,6.349784043939787903e-01,6.330467649050695034e-01,-4.042635021433093299e-03,4.265926834108976946e-03,4.810592910492678467e-03,1.393029466271400452e-02
6.548180247247861185e-01,6.219984139099246079e-01,6.231166814579534030e-01,-4.491221080759413148e-03,1.669791895872297684e-03,2.701011095443092355e-03,3.365175426006317139e-02
6.548762701194335012e-01,6.227094729071769308e-01,6.282738204287907635e-01,-1.819868648587421494e-03,1.674537849866310820e-03,2.832963947685832561e-03,3.048118390142917633e-02
6.499930538661358170e-01,6.270306904394137293e-01,6.282395695604645613e-01,-1.591167429364415218e-03,3.802530762536105152e-03,7.159138224028096858e-04,2.352623082697391510e-02
6.547577918391617180e-01,6.260423894029779612e-01,6.182951385772885722e-01,-6.392083817130593884e-03,3.514170046206851333e-03,3.132755090301300380e-03,3.600175678730010986e-02
6.418113253711167365e-01,6.373059507994828232e-01,6.187466118538816895e-01,-9.121320276327284440e-03,2.781010624229481466e-03,2.669129062814991175e-03,2.724948525428771973e-02
6.750873283259158919e-01,6.154439388801565824e-01,6.128583879628767273e-01,-2.658907476996296045e-03,-1.841452450482238793e-04,1.099417878861891134e-03,6.118142977356910706e-02
6.647098899780667924e-01,6.191834460324739942e-01,6.175957693888010080e-01,-8.418884375389248942e-03,6.930347255251271404e-03,1.054553875001221913e-02,5.327106267213821411e-02
6.585216540513900707e-01,5.916566549193785773e-01,6.330755393233306050e-01,-1.013421550336936552e-02,1.486676507099634649e-02,1.158656924705724761e-02,6.921628117561340332e-02
6.522831301781065738e-01,6.028500310446611721e-01,6.346647070190050144e-01,-5.260354001437836900e-03,1.336322698068694373e-02,8.284643678496905750e-03,5.203608796000480652e-02
6.472024021667851512e-01,6.262543616120133105e-01,6.276974709756272253e-01,-1.959982258308152082e-03,3.966793589840775756e-03,8.668440480108324754e-04,2.171768620610237122e-02
6.604044140826800247e-01,6.193011822618240680e-01,6.116620695408176989e-01,-7.546927065944916344e-03,2.207367921479927095e-03,6.156358714104451582e-03,4.859024658799171448e-02
6.449422610782730159e-01,6.373166262645499902e-01,6.147126702497556217e-01,-9.790358199031007694e-03,1.604720172149291801e-02,1.024392206681446101e-02,4.600395634770393372e-02
5.491377365365094354e-01,6.766700432943941745e-01,5.995380444265838715e-01,-7.107826328997254861e-02,1.064473950479384312e-01,5.068819384852460419e-02,2.631242871284484863e-01
6.408776321362265049e-01,6.071821239794582548e-01,6.345400787473786108e-01,-7.110181202999509703e-03,1.555616478662418499e-02,1.074056395741582876e-02,4.675180092453956604e-02
6.548027783310133021e-01,6.279184807987874262e-01,6.224608463084637666e-01,-1.783687498290773823e-03,1.660574325344854303e-03,2.394528697027358075e-03,3.056622855365276337e-02
7.265414784261144954e-01,7.211923231915968735e-01,4.873141982812096429e-01,2.650178243169506228e-03,1.392142413447767894e-02,1.176792258960853484e-03,2.378766089677810669e-01
6.943088710231072325e-01,6.926609024303902462e-01,5.238744676801074807e-01,2.345203650097684930e-02,6.639935318599821112e-02,-3.002265141688140529e-02,2.152914851903915405e-01
6.903025368452502253e-01,6.915275278989880814e-01,4.887476610711338210e-01,1.930369764405976893e-02,3.579462353971329253e-02,-4.494021223283860972e-02,2.278010100126266479e-01
7.254732009575934892e-01,7.050403569176066920e-01,4.844455184454761199e-01,3.415070707318471673e-03,1.424221735305878159e-02,-2.324807615980328292e-03,2.329091876745223999e-01
6.969910550861373455e-01,7.051345341463348682e-01,4.803893442950908921e-01,1.222018194128720453e-02,4.104434435734020947e-02,-2.272017359506924537e-03,2.329461425542831421e-01
7.077952759371350933e-01,6.904949444189431018e-01,4.593630987904903096e-01,1.332572883073853158e-03,9.143499873953931170e-03,-6.384558283805351342e-02,2.649618983268737793e-01
4.930949215611287739e-01,6.980435120037544738e-01,7.342502684396593482e-01,4.573472740936372627e-02,3.447413914521034461e-02,-1.851472705517819006e-02,2.482018470764160156e-01
6.065581299586663144e-01,6.839616416634333174e-01,6.113917250667952885e-01,2.983814912459230133e-03,-9.687177198597522049e-03,-4.284372452275067925e-03,7.748439162969589233e-02
6.396528842719625407e-01,6.335545681797180029e-01,6.307092181567717226e-01,2.921247341039181350e-03,-1.761541447458502690e-03,-1.706204571294180213e-04,9.881032630801200867e-03
6.412155290054555312e-01,6.310521239044063480e-01,6.272778548665848275e-01,1.172912753887558846e-03,-1.548277133666270790e-03,-1.436483219839454267e-03,1.316846441477537155e-02
6.461280536138320763e-01,6.268259565970086822e-01,6.273283867075111209e-01,1.222401393518562050e-03,-4.243307756925736481e-03,1.060575136408496277e-03,2.061551995575428009e-02
6.262616388677714196e-01,6.328338400810924469e-01,6.357522298512051639e-01,2.462775251981979933e-03,-1.292530490470617313e-03,3.119054019933446831e-03,1.110334414988756180e-02
6.199356457435306611e-01,6.799272162987133328e-01,6.114250207602256459e-01,9.282537665411240424e-03,-1.617920906599797440e-02,5.173027611426969131e-03,7.284272462129592896e-02
6.353622686959579102e-01,6.317500310828931820e-01,6.329207759162690516e-01,1.958342027908699726e-03,-3.131085476134116540e-03,6.665440395585471188e-04,7.241487037390470505e-03
8.023589179425401063e-01,6.532675488884946979e-01,4.588728689271139860e-01,3.040663747878512985e-02,-5.635701341797729608e-02,1.266808966805585690e-01,3.865828216075897217e-01
7.430220514263072840e-01,6.899536395450608373e-01,4.562966869576032258e-01,-5.783726032069499284e-02,3.687940799935857106e-02,8.454482516187705743e-02,3.246087431907653809e-01
7.140249482263093528e-01,6.610199011298339977e-01,5.349040497898968072e-01,-3.966678360255709336e-03,-3.607240581383495005e-03,2.781540469930224302e-02,1.667538583278656006e-01
7.119331789528373644e-01,6.663343059061845874e-01,5.842354034233556703e-01,-3.224252255501576514e-02,2.699767966715758624e-02,5.699324787878185666e-02,1.661720871925354004e-01
7.006837803574569312e-01,6.881784110780585495e-01,5.364314634382029157e-01,-1.789742319905028231e-02,4.643854450805450645e-02,3.180073929857048926e-02,1.885354071855545044e-01
8.465340351319587953e-01,5.198266768592199050e-01,5.307987274718161119e-01,6.095024301014856372e-02,9.995304341033485473e-02,3.143000400566611230e-01,6.638852357864379883e-01
7.671253312764058085e-01,7.018769692553973316e-01,3.009270373599647885e-01,-3.126972260656677577e-02,8.258376144258255946e-02,1.918769090981233549e-01,5.701082348823547363e-01
6.082361669372886581e-01,6.776936204893202476e-01,6.312086680148923934e-01,1.245979851614212319e-02,2.823461413234152825e-02,-9.640027042809539565e-03,8.302152156829833984e-02
6.249823615678926636e-01,6.769618804540631363e-01,5.975316112484569953e-01,1.836492976694620478e-03,5.774692725870222108e-03,-2.165759290372340062e-03,7.075677812099456787e-02
5.978010885865187030e-01,6.752453317827686874e-01,5.997516211192192026e-01,-8.730318345040953207e-03,2.898804322874650591e-02,9.537587013099205896e-03,9.419570118188858032e-02
5.503488593189841405e-01,6.984704780282443570e-01,6.625313765544635913e-01,1.207213294173960921e-02,1.687642547780835930e-02,-1.069366586464297678e-02,1.397962421178817749e-01
5.800006361449676628e-01,6.176694254375250104e-01,6.886813032264222922e-01,1.515893573302347710e-02,1.007138141115378801e-03,-4.034610073780643159e-03,9.938719123601913452e-02
5.662292799591682746e-01,6.468632319605289727e-01,6.977461412886318826e-01,1.955605608732952777e-02,9.456648791080699001e-03,-1.043485071670472320e-03,1.208828538656234741e-01
6.155193257157657305e-01,6.178884677117103541e-01,6.764865873132552831e-01,1.175689073195762026e-02,5.730978157191765100e-03,-5.515729782366158435e-03,6.467345356941223145e-02
6.091527600532293807e-01,6.135275894801229812e-01,6.798087557845258200e-01,2.309303887840035829e-03,2.209620651638706133e-04,-1.009927971338599921e-03,6.871321797370910645e-02
6.336632337717508223e-01,6.003120208273573510e-01,6.974062070283905124e-01,3.205586434982908572e-02,-1.178636227148280270e-03,2.175093566466425755e-03,1.019925102591514587e-01
6.261539661762731690e-01,5.733870106762284369e-01,6.859875394575511987e-01,1.633045404747247506e-02,-5.175354208402402172e-03,2.714750719003941604e-03,1.020987629890441895e-01
6.850224080542676175e-01,5.729619008871399410e-01,6.244794097237738040e-01,-9.529895157204470394e-04,-4.528863099245332598e-03,-1.827806013546657421e-02,1.024941578507423401e-01
6.921739474609217568e-01,5.586661666811720828e-01,6.621642062081718461e-01,-9.771455024790178662e-03,-1.430760301601610024e-02,-5.453651313015896868e-02,1.566577106714248657e-01
6.949331645156759940e-01,5.292317092000015100e-01,6.454603244322202338e-01,6.584334691279680697e-04,4.018795097453730335e-03,-2.811257103810290564e-02,1.553303450345993042e-01
6.903421175527257869e-01,5.396810529734352713e-01,6.458159943285355364e-01,-1.035873842782199239e-02,-1.039117192495842695e-02,-3.060013680605686709e-02,1.463827937841415405e-01
4.117482585440488396e-01,6.897321086259102785e-01,7.181733114138879603e-01,-9.280814668599672579e-02,2.059371929647003940e-02,1.281035815781699991e-02,3.370382785797119141e-01
5.342329378350483271e-01,6.576397935679594298e-01,7.064249923840778544e-01,-3.122532390650754192e-02,2.476464446070720995e-03,1.026413535875713226e-02,1.639792472124099731e-01
6.066677360850982748e-01,6.315518824421899602e-01,7.308685872135197714e-01,-1.082785942705703358e-01,5.246494344265130449e-02,9.246215901460620723e-02,2.864134609699249268e-01
4.068652904029728123e-01,4.945986560013714284e-01,7.978124429611892499e-01,-3.428976516400139007e-01,1.400740785308914049e-02,9.505924159728621620e-03,6.927003860473632812e-01
6.718195313047059525e-01,5.348016310132679418e-01,8.552719363926943874e-01,-3.327830496239493341e-01,2.735221296938240843e-02,1.530653120410470081e-01,6.944998502731323242e-01
8.106325301226134927e-01,3.795136848006846475e-01,8.153571565808174215e-01,-2.779805061615696626e-01,-1.637478955246255297e-03,6.555164481980388369e-02,6.577547192573547363e-01
6.217628407020906467e-01,6.178617965720741845e-01,6.676828190002535024e-01,-6.015808655440024744e-02,2.161748891260763944e-02,3.022568183800330294e-02,1.315397620201110840e-01
4.907238944297700467e-01,5.043068699961735790e-01,8.301643951805146582e-01,-2.886876176721053788e-01,8.756368026405625393e-02,1.348676300890280511e-01,6.621067523956298828e-01
6.075819540685499787e-01,6.185434982882030974e-01,7.056949517381490011e-01,7.850534803879048729e-02,3.554615719441914234e-02,-2.121535681395492201e-02,1.797247231006622314e-01
4.188708465297443784e-01,6.483790967167015751e-01,7.207542049135488016e-01,2.491018106481806549e-01,1.482872516190293921e-01,-1.234548144107788376e-01,6.102201342582702637e-01
4.427991112486356351e-01,7.666603455583000937e-01,7.357720179989394316e-01,9.544228881753111585e-03,4.060583833001435439e-02,4.356223777395566536e-03,3.179832696914672852e-01
4.834570655415538765e-01,7.213237320990059098e-01,7.057552006385718890e-01,6.488797088098271007e-03,5.998347772808316700e-03,3.516929627526446623e-04,2.309855371713638306e-01
4.863324594369410336e-01,7.102495974439563264e-01,6.644928072991818091e-01,-1.981403827976909327e-03,5.569638524011010644e-02,-4.439253063055067020e-03,2.266362756490707397e-01
4.680605242779920516e-01,6.617085479718898267e-01,7.085379856361431195e-01,7.513668227185843485e-02,-5.930522817304265115e-02,2.462016534248610833e-02,2.794053256511688232e-01
5.044094990517411503e-01,6.904994977695882996e-01,7.043058884271834463e-01,2.353495303146565035e-02,1.443004418955430232e-02,-8.066621857137742241e-03,1.996770054101943970e-01
5.348836889519519300e-01,6.823973987706746236e-01,7.063867266676007173e-01,9.469117092935474406e-03,1.161991387233467926e-02,-8.588730991843243970e-03,1.636150777339935303e-01
5.592542038917776015e-01,7.057796945683708634e-01,6.950678190109215171e-01,-3.782802727926819208e-02,3.468676654672263326e-02,1.390048128608531788e-02,1.688104420900344849e-01
5.300524095045144879e-01,6.891816928475807957e-01,7.176989679293668267e-01,-5.707225103583149495e-02,1.022241502992789486e-01,4.774533053223877638e-02,2.804161310195922852e-01
5.676841280546817137e-01,6.667357969704820198e-01,6.761661672016099356e-01,-1.479313094829183377e-02,6.147458616972942963e-03,1.605144634337929768e-02,1.112523674964904785e-01
5.091672129016910908e-01,7.195556731494875402e-01,7.002076490370594541e-01,-1.450667037529884337e-02,2.050651193705944550e-02,4.712450896524505647e-03,2.062196731567382812e-01
5.117010052390235098e-01,6.916975811931337370e-01,6.942869188188491858e-01,-2.203236114007756791e-02,2.509032441560376733e-02,1.544992741842816063e-02,1.921782791614532471e-01
5.155170948802698661e-01,7.426806023118608380e-01,6.842263692372998474e-01,2.695893039113148471e-03,7.046384390758136940e-02,8.788377900986106897e-03,2.385172098875045776e-01
5.143699738074521965e-01,6.688274557611570970e-01,6.868557597136292214e-01,-9.098446243831301294e-02,4.955419514350228177e-02,4.440627206273291966e-02,2.551153898239135742e-01
7.307041478571795201e-01,5.917093507365900340e-01,7.141939173245325234e-01,-1.068653832598745884e-01,-7.023734285566050894e-02,-1.043448809458299570e-01,3.146765828132629395e-01
8.056887196749227265e-01,4.134873031872820515e-01,6.873093441506864520e-01,4.854562706198702754e-02,1.092838995999958485e-01,-2.870298220983025228e-01,6.414548754692077637e-01
7.647795400774082264e-01,2.986574241817485098e-01,7.167088108113305323e-01,7.538478486858349141e-03,-8.847804585192947397e-04,-1.502767143850464449e-01,5.148746371269226074e-01
7.016064874349670077e-01,5.250790411795748236e-01,6.541114123362059551e-01,-1.335308308824843804e-02,-3.376249843452991048e-03,-3.499822774434947770e-02,1.711060404777526855e-01
7.098801800077421120e-01,4.695548961148983125e-01,6.262892977951393103e-01,1.435216161905195943e-02,9.166582137957259707e-03,-1.121492433410532508e-01,2.885430157184600830e-01
8.988437677888005961e-01,3.521813482173153931e-01,7.452170419565278259e-01,6.534823177444976094e-02,-5.775456679661956916e-02,-1.691102502353311332e-01,5.891280174255371094e-01
7.327243158561775882e-01,5.412058626783489146e-01,6.595162603761611786e-01,-1.256584714249663927e-02,-9.919024147948955414e-03,-6.166257542794693208e-02,2.004837244749069214e-01
6.407561368039692562e-01,8.867016049758038587e-01,3.432300559294849118e-01,5.067207328887250034e-02,2.626347974717904710e-01,2.406616752009578183e-02,6.622369289398193359e-01
5.925978541741383498e-01,6.996650735197095239e-01,5.981206085788589588e-01,1.014751172226776394e-03,3.453230468968684214e-02,-4.389825383440648134e-03,1.205857619643211365e-01
6.058819416664978919e-01,7.183625340257531189e-01,5.074742804664773566e-01,-5.253040985663161300e-02,1.376469135652824693e-01,9.808318628797808858e-02,3.569092154502868652e-01
6.846445154315106141e-01,7.628038531837471048e-01,4.369794417725428870e-01,-8.949456550376166941e-02,2.381647456019910236e-01,1.002356170171221916e-01,5.578000545501708984e-01
7.690028185469900412e-01,7.916837432032819422e-01,5.309883865393493219e-01,-2.383130005968515583e-02,3.068724065723676397e-01,1.426238746583545769e-01,6.385955214500427246e-01
6.136073432346322853e-01,6.105367633578663300e-01,6.803860913543723354e-01,-2.559456712645641601e-03,7.677752993857217805e-04,5.763825905634684197e-04,6.852953135967254639e-02
6.139537353648391038e-01,6.147542159044051546e-01,6.760526782892370967e-01,-1.219276751942612730e-02,4.942151907000159536e-03,4.706328557949003046e-03,6.627914309501647949e-02
6.341971833603314845e-01,6.062743190049376674e-01,6.821808671304550042e-01,-2.403100774882195936e-02,1.267367160139369966e-02,1.044920373422865076e-02,8.344970643520355225e-02
6.082751615059138750e-01,6.388133338826598173e-01,6.826201857038828313e-01,-2.761618056803305174e-02,1.509673207359833735e-02,1.292778811838938419e-02,8.753558248281478882e-02
5.729321970395041541e-01,6.223973132475570935e-01,6.852339817312527170e-01,-1.655036891326548340e-02,2.807285628777635936e-03,4.524650023708041459e-03,1.020307391881942749e-01
5.697110559779949845e-01,6.249453587125929355e-01,6.859309598215586057e-01,-1.965669866985007841e-02,-1.509673758148244926e-03,-3.184163187041422552e-03,1.064658612012863159e-01
6.154571010813517651e-01,6.105001459166197186e-01,6.779375234454129151e-01,-2.777832545824372723e-03,1.013061123106415466e-03,2.994463610209627778e-04,6.530378013849258423e-02
6.257671810536256096e-01,6.225690637356543489e-01,6.534662020063624066e-01,-2.265846101147486833e-03,7.142001002247269463e-03,2.931517783996622200e-03,3.256158158183097839e-02
6.026443172914281998e-01,6.146219626651520107e-01,6.798561214664785579e-01,-9.446564364401027758e-03,5.647289575916335019e-04,1.824716369610926165e-03,7.388483732938766479e-02
6.796697233235960978e-01,5.322038276359603026e-01,6.900601297969005676e-01,1.010843137635187780e-02,-9.514344317830176340e-03,1.380503721181874054e-02,1.566404402256011963e-01
6.376918988089314011e-01,6.087888819109253946e-01,6.339157336162540846e-01,6.367121461651499038e-03,-1.183858364175220841e-02,7.347774012727192189e-03,3.800720348954200745e-02
6.600684376384315932e-01,5.489314747526212734e-01,7.065987500922449316e-01,3.669742896007806288e-02,-2.384624621922284970e-02,2.274256142372173273e-02,1.642724573612213135e-01
6.495106542193257448e-01,5.711604232948221949e-01,6.825287369695363093e-01,8.915921116574848995e-03,-1.048971109763481395e-02,7.567100470529939879e-03,1.027438193559646606e-01
7.641715862608023935e-01,4.805795021580653303e-01,6.769838748687938557e-01,8.958972579234683598e-03,-3.379071877953618297e-02,9.027851983828569238e-02,3.023529052734375000e-01
6.855668677920389031e-01,5.841396021581967135e-01,7.926448500807385944e-01,1.361853901143188494e-01,-3.942805702718617245e-02,6.438862847516672872e-02,3.245837390422821045e-01
6.502793167299226740e-01,5.903507981430663465e-01,6.580546819399304415e-01,6.460417404378012395e-03,-1.606895474249635247e-02,9.676561124227628374e-03,7.279149442911148071e-02
7.639420208544496216e-01,2.658144429685996846e-01,9.172484199481888423e-01,1.843655210939100508e-01,7.612540588220961801e-02,4.485791993164041369e-02,6.880363225936889648e-01
8.008096913460486244e-01,5.062075756453883191e-01,6.995235915186688302e-01,5.298573915735746431e-02,-4.590209618214977083e-02,1.245643110347525034e-01,3.584724068641662598e-01
6.347954219054372516e-01,6.331786655033194711e-01,6.342725691564822244e-01,-1.196399449155083686e-03,3.818928565580350177e-07,-9.691629762711842034e-04,3.025540616363286972e-03
6.347879547926812416e-01,6.350557372195732020e-01,6.323081061611743880e-01,3.782158756938814758e-07,-1.207525670202292409e-03,-9.507363335873779756e-04,3.737843129783868790e-03
6.317746269552149130e-01,6.327179093070210980e-01,6.317703390371809391e-01,-5.604768954517935168e-04,-2.302079079036390124e-03,-4.621203293663670255e-04,4.286678973585367203e-03
6.326612753421125834e-01,6.354009059210262711e-01,6.299409260863060300e-01,-3.760653856153599491e-03,-1.532818674017202972e-03,-1.914984277908784744e-03,9.101443924009799957e-03
6.298267668628593219e-01,6.347938250599776122e-01,6.324510018927429478e-01,-2.457820635739966196e-03,-1.159444438313533832e-03,-2.544424129137236052e-03,7.752510253340005875e-03
6.321043056441869590e-01,6.363533166118676698e-01,6.356289741677836336e-01,-4.358270992001938952e-03,-4.201598129878027568e-03,-2.888458332225749513e-03,1.226680353283882141e-02
6.266742537956875303e-01,6.535824867429648188e-01,6.172369087196816206e-01,3.403756715714811171e-03,1.186015642136222350e-03,-1.178076820398711979e-03,3.331964835524559021e-02
4.801978173961203300e-01,7.083386468056784846e-01,6.147832660950940387e-01,1.829227626982195612e-02,1.032113971735899444e-01,-1.013407462520489466e-02,2.696789503097534180e-01
6.193598066900584120e-01,6.597208569491742614e-01,6.128757829091102671e-01,8.501398088164524580e-03,7.690643966043368175e-03,-8.341973072066986850e-03,5.035656690597534180e-02
6.361683608692406677e-01,6.604125850583750790e-01,5.918639443091912034e-01,1.503944498988461949e-02,9.295782011973723058e-03,-1.232196623773040844e-02,7.083834707736968994e-02
6.372865555500414336e-01,6.525663881204044614e-01,6.042316686004548520e-01,1.281660284729047201e-02,6.562494700694339669e-03,-5.150621532172939589e-03,5.032647028565406799e-02
6.444392648423798997e-01,6.367797444117088146e-01,6.077710830059209757e-01,1.302290248396984103e-02,5.230180557503063751e-03,-8.988231546317457590e-03,4.422194510698318481e-02
6.673187560681437258e-01,6.130417334104438787e-01,5.769186442084958122e-01,3.037373283998809695e-02,3.232069260246097503e-02,-5.254770279149813261e-02,1.428176462650299072e-01
6.211297152648868058e-01,6.586764280917907222e-01,6.206474259275938099e-01,8.281641642855221488e-03,1.149230038220833833e-02,-8.273665034210439528e-03,4.728036373853683472e-02
5.558361074859744511e-01,6.478843907867214424e-01,6.965657076826827776e-01,1.311835518448035282e-02,-6.230801575625411273e-03,5.431219309461391559e-03,1.266689598560333252e-01
4.754230817796076258e-01,7.009592457496170992e-01,7.555975096402094415e-01,1.311723518609208550e-01,-4.807707023582129258e-02,1.430966135377934566e-02,3.540365397930145264e-01
5.297480343302432004e-01,6.596683009968340450e-01,7.290235576350557745e-01,5.043965586769865589e-02,-2.009294968565277038e-03,2.313056802719213115e-03,1.958589255809783936e-01
6.616938030752993471e-01,5.559889412273099074e-01,6.941476511942841210e-01,5.519354783573816869e-02,6.050961632594504223e-03,-7.985598541002301987e-03,1.584216952323913574e-01
5.320200645494362890e-01,6.794094257395378866e-01,6.458315681943845865e-01,4.687390796046972397e-02,-7.803452981987649140e-02,3.637015010119139941e-02,2.161714434623718262e-01
5.762192999406254845e-01,6.555960012149008032e-01,6.576185189825551891e-01,3.052125352209301978e-02,-2.870513970067939749e-02,1.686703159917318437e-02,1.121845692396163940e-01
6.096168427236827725e-01,6.735946822853174920e-01,6.009955224403887852e-01,1.894388725011090721e-02,-2.292598401882325193e-02,1.735009887981731752e-02,9.097009152173995972e-02
8.554647105145813946e-01,5.183279269806397860e-01,5.289001722341120093e-01,2.084763310190132224e-01,-1.653622637017473085e-01,2.589407565497905961e-01,7.237270474433898926e-01
7.850745416681117472e-01,3.416327573410781193e-01,6.055663820393782926e-01,-1.196831407651531738e-02,1.903826293139336545e-02,2.585963606471874954e-01,5.927863717079162598e-01
5.568041756070001291e-01,7.673386141841238572e-01,6.046870200980548615e-01,-1.749686482187253617e-02,-1.565536228350054571e-01,2.032186535990678292e-02,3.349940180778503418e-01
4.438356037306725455e-01,7.812673506045635374e-01,5.195660227954944643e-01,3.249909346313089448e-02,-3.058248635282581063e-01,1.314700170137006983e-02,6.150732040405273438e-01
7.588560561448051134e-01,7.501858701269186191e-01,4.837336969105418549e-01,3.009315846455047627e-02,-5.067494927180091202e-02,6.572434218650537174e-02,3.110656440258026123e-01
4.686260709927220214e-01,7.304073044477779053e-01,5.362700440836443150e-01,1.228046638278391112e-01,-2.521610879785901038e-01,1.017359929604013946e-01,5.678436756134033203e-01
5.096835544970200749e-01,7.734152804956374583e-01,7.355356034769439111e-01,-4.507584218318359814e-02,-8.909384932646260968e-02,-1.397467947378972300e-02,3.024792969226837158e-01
5.162892576814254175e-01,7.173158067940821336e-01,7.727176618451310208e-01,1.227209456965096396e-01,2.731079616587184927e-02,-1.481302644641738393e-02,3.204613626003265381e-01
5.023089330412777720e-01,7.111946033275858836e-01,7.005296951579873532e-01,1.598105541305946085e-03,1.177929408578229711e-02,-5.943770601682305671e-03,2.050588130950927734e-01
4.447105556799862969e-01,7.027124397414151735e-01,6.673711226402875285e-01,4.359354680483373823e-02,8.682125677806835917e-02,-2.472371378242668380e-02,2.980681657791137695e-01
5.218947891414402740e-01,6.451040341150665602e-01,7.127285167473934591e-01,8.603250180060435792e-02,6.175087099750995595e-02,-4.477693785435465229e-02,2.602782249450683594e-01
3.577704004314818942e-01,6.304835135818686043e-01,7.103859681702143769e-01,2.193470796624828745e-01,1.384710514508075974e-01,-8.373504185955964185e-02,5.704770684242248535e-01
2.262556674207369389e-01,7.994601683241068235e-01,8.859014590830920355e-01,6.007999969032079557e-02,1.271480802269785437e-01,6.624547870822640461e-02,6.768147349357604980e-01
3.776171153582952855e-01,8.657789783791647320e-01,7.177618329951871434e-01,2.245775855433044532e-01,1.270719272933346633e-01,-7.804102395977192963e-02,6.371601223945617676e-01
7.212542472854688302e-01,6.838303336410660460e-01,4.521346112757305136e-01,-6.861609494537534472e-03,3.869623466227670606e-03,-8.042376650910582070e-02,2.886945307254791260e-01
7.869352105551069565e-01,7.586063143204311299e-01,4.910323731189213947e-01,2.476149477732618800e-02,7.585809055084120900e-02,-1.117046941464781978e-01,3.694793283939361572e-01
7.116971462298997686e-01,6.819296508816786728e-01,5.221949590317449541e-01,-5.726583209322630777e-03,-4.299501049282471177e-03,-1.314522170605400032e-02,1.784051805734634399e-01
6.962652934755003686e-01,6.689813033125798780e-01,5.464770290769966898e-01,6.226044314777510504e-03,3.666709599212223877e-03,-2.218301615942133709e-02,1.439687609672546387e-01
6.943016969279902639e-01,6.552902310217658677e-01,5.388902131920512151e-01,-1.164402195327063003e-02,-4.142255779859786192e-03,-2.608875811737103312e-02,1.487006694078445435e-01
6.220356580728674256e-01,6.601082819508846677e-01,6.190785444031390305e-01,-4.979467788559368419e-03,-1.757341481481085842e-03,-1.567077561759316635e-03,4.076606035232543945e-02
6.277768035849634609e-01,6.546254891292042633e-01,6.210866957912133390e-01,-2.280573321121942987e-03,-2.235765511880999194e-03,-1.682660330127159435e-03,3.137392178177833557e-02
6.233007631930024273e-01,6.546646882725875027e-01,6.281911439538824249e-01,-2.182256353547793078e-03,-7.455491719558221672e-04,-4.576576482862143233e-03,3.054536879062652588e-02
5.810760723438910258e-01,6.770037705944327300e-01,6.322764115023336018e-01,-4.144898695152145207e-03,-1.549297759676976707e-02,-5.517330540421263273e-03,8.817611634731292725e-02
6.227897615134087017e-01,6.452243766571051919e-01,6.212702843333098857e-01,-8.349008799606984568e-03,-5.013724222943702347e-03,-3.546926931567199841e-03,2.935952693223953247e-02
6.118764645713328232e-01,6.596423701885314461e-01,6.186894907174352864e-01,-3.584953766852704265e-03,-7.210464322336740395e-03,-4.537218513313877495e-03,4.752742126584053040e-02
6.052416149944609414e-01,6.533725553109578366e-01,6.415156575463096811e-01,-4.840016114871081333e-03,-1.338969549853535890e-02,-1.391716462530018239e-02,5.545882508158683777e-02
6.034029055896689142e-01,6.127165372669232113e-01,6.746998859672197479e-01,7.378275595309843199e-03,1.806132458662175087e-03,-3.989159283986833983e-03,6.875181943178176880e-02
6.002508717870019828e-01,6.263880375554211621e-01,6.759676788855700780e-01,4.341084357896862582e-03,2.933920460759641829e-03,-6.113909674883375583e-03,6.805631518363952637e-02
6.590776761627932245e-01,3.993676614014924908e-01,7.492686987115466657e-01,2.070750984272268780e-01,-8.041813915212746300e-02,9.306607034987195159e-02,5.225252509117126465e-01
6.134474892428535275e-01,6.228212525597247584e-01,6.603474444790190523e-01,5.526383210577002179e-03,5.005675946232160563e-03,-8.925624189078929654e-03,4.747249186038970947e-02
6.401751481202271332e-01,6.258539444254294093e-01,6.408263993382925516e-01,1.400493023861900353e-02,1.143501512484343917e-02,-1.571818367623628587e-02,4.400823265314102173e-02
6.108855612009407299e-01,6.147274041969893466e-01,6.751835397877148370e-01,1.518470559410641353e-03,1.432019541882537843e-03,-2.678313828248349120e-03,6.274197995662689209e-02
6.261592902836803365e-01,6.079435732163146477e-01,6.810025594756982104e-01,2.531584164454374342e-02,5.367995684503004163e-03,-1.287468899688724508e-02,8.273451775312423706e-02
5.470742449369204730e-01,6.601736300354092979e-01,7.058347029552292096e-01,2.564132859996678948e-02,1.218606064394267725e-02,-6.413599191997485481e-03,1.502730250358581543e-01
6.236971523437050413e-01,5.745892168915885945e-01,6.905390086833593788e-01,4.407633601612005736e-02,2.976118507704135496e-02,-4.000560504287216379e-02,1.531293243169784546e-01
6.287540508503081105e-01,5.772285524518115940e-01,6.854200055649458667e-01,1.431643739287572457e-02,4.203646280854697256e-03,-2.825796915174944284e-03,9.735243767499923706e-02
6.271481883809419955e-01,5.798311216213386521e-01,6.745778192807735385e-01,1.438138110176455375e-02,7.670899457814143486e-03,-5.970520566577293756e-03,8.738791197538375854e-02
5.662316159852587294e-01,6.303027935489973199e-01,6.964715497000406597e-01,1.765734433103845896e-02,-3.440208720763596531e-03,9.438996403810998373e-03,1.181569471955299377e-01
6.272334694629424501e-01,5.771814586971386607e-01,6.827911403307277416e-01,1.565893344169101004e-02,-1.079694114871830070e-02,5.538657157676025664e-03,9.772405028343200684e-02
5.533213991100268681e-01,6.557902967162075880e-01,7.162294169480805106e-01,4.430474391571768977e-02,-4.108589437808645578e-02,1.439151911069709751e-02,1.786620318889617920e-01
6.633170217350026210e-01,5.498789555862257927e-01,6.826474013908631067e-01,1.782482601266576622e-02,-1.283722768814817526e-02,8.723759889950270796e-03,1.308072209358215332e-01
7.764402657769613469e-01,4.522314232339566531e-01,7.912254049515067278e-01,5.471991750625258832e-02,-3.638952450770324698e-03,-6.026083008423505170e-04,3.451768755912780762e-01
6.224387928347422383e-01,6.621026186284353354e-01,6.144906536470208236e-01,-6.745780020270796158e-03,-3.862861902198380659e-03,-2.075271356543852662e-03,4.632329568266868591e-02
7.846387490796936648e-01,2.906042807964204777e-01,8.848241532573708490e-01,7.230306712573199290e-02,-2.225075101378104145e-02,-1.365762012261982350e-01,6.137832403182983398e-01
6.414984069062842353e-01,6.619073554385065394e-01,6.171655839349695638e-01,-1.433221276958222649e-02,-1.742658019541001163e-02,-1.559374508459650255e-02,6.133520603179931641e-02
6.235769452478671093e-01,6.632926982133260374e-01,6.220097634002403897e-01,-6.315531627014029335e-03,-7.584384926928630644e-03,-7.005705039226633318e-03,4.562351480126380920e-02
4.156855746230141979e-01,3.569033563401901032e-01,7.952624743732934487e-01,3.589277791142554408e-01,-1.842006204641825906e-02,-1.257059552956096664e-02,7.468773126602172852e-01
6.508649433340434332e-01,5.877257355771519087e-01,6.591969023251653681e-01,7.320311142288522463e-03,1.600924060577332483e-02,-9.994715999778079271e-03,7.623244822025299072e-02
6.795543549081043411e-01,6.112516775569593053e-01,6.127149139429709512e-01,7.532017199610544520e-05,4.862313217756604250e-04,-1.359635151800401122e-03,6.762932986021041870e-02
6.803419551393826703e-01,5.151791511906974597e-01,7.137823288388841503e-01,1.068990991743081972e-02,-2.938686908859476209e-03,5.947450293403417840e-03,1.854587942361831665e-01
7.041908460705312844e-01,4.968007413831550534e-01,7.039946435715637163e-01,1.749503304361199954e-02,6.620119294235162107e-03,-5.217003660354100833e-03,2.100032418966293335e-01
7.191556177701892150e-01,6.093893539334129805e-01,6.577994707579379874e-01,1.084362985480776947e-01,7.695769831481991119e-02,-1.289270747570629150e-01,3.346456289291381836e-01
6.526085329153792358e-01,5.707469059203796879e-01,6.963478661626304467e-01,1.116099532237944600e-02,1.690590751865616919e-03,-1.334051829324836612e-03,1.121723875403404236e-01
5.264470720054427177e-01,6.573913643881038604e-01,6.997943070001925170e-01,4.947789607778818599e-02,8.239569367369515424e-03,4.217892147536035467e-03,1.791593432426452637e-01
5.131358193812280977e-01,7.017300413977892726e-01,8.104713813314782245e-01,1.290230984540422787e-01,-4.090367461353725323e-03,3.247979669354604526e-03,3.433994352817535400e-01
5.304873358602869571e-01,7.211474743444179492e-01,7.843310241925234294e-01,1.177783567573898460e-01,4.616790191576004149e-02,-2.292771086102688566e-02,3.193379342555999756e-01
4.804294475309534018e-01,6.959975650907024303e-01,7.694652874052005931e-01,8.174883096283291906e-02,6.706998024030885741e-02,-2.416205684000260773e-03,3.182227015495300293e-01
3.887498648298610138e-01,8.451683461433207034e-01,9.288881227945214869e-01,2.708768743000801726e-01,-1.143684958177176442e-01,5.414931182248656355e-02,7.222865223884582520e-01
3.269586668366401550e-01,6.679592948746785330e-01,9.149255371407631898e-01,2.076046052819071619e-01,1.244955667639570385e-01,-3.646437130448974308e-03,6.613060832023620605e-01
6.453298343932164505e-01,4.836849552865298829e-01,7.563967636469448586e-01,1.172345600302601987e-01,-1.982405780574797438e-02,-2.704062989246943521e-02,3.178407251834869385e-01
3.931805705233696324e-01,7.105796980484699876e-01,8.437184478113713970e-01,2.992217457333857800e-01,-9.851909999146070407e-02,-4.596909987782658857e-02,6.817512512207031250e-01
6.364594182382248277e-01,6.328195086045659279e-01,6.310403793922434446e-01,-2.469607727086280471e-03,5.614662387124948065e-04,8.313586280020631445e-04,6.648774724453687668e-03
6.307652746365555174e-01,6.265934352666334695e-01,6.403757799182593358e-01,-1.841447992008505034e-03,4.672363879502018646e-03,2.152136035526239742e-03,1.547321397811174393e-02
6.873506874591436278e-01,6.114526910868589571e-01,5.855211733673314489e-01,-1.834788637086778515e-02,1.174964966616856045e-02,4.319117526099407883e-02,1.241838559508323669e-01
6.242317059488157183e-01,6.266514999179036982e-01,6.482298308319411895e-01,-2.386211374557625428e-03,3.071352320621011361e-03,6.965695987185070714e-03,2.673273719847202301e-02
6.849602555952507554e-01,5.409909411440170235e-01,6.604389856058630048e-01,-1.482630721476757389e-02,1.723565017249617873e-02,2.294398502292143566e-02,1.446654349565505981e-01
6.367601794218906708e-01,6.274844793339779958e-01,6.321085634806272724e-01,-1.480723581362565489e-03,4.708077559666713763e-03,2.976478351397177265e-03,1.281339209526777267e-02
6.314056621063475205e-01,6.311412530685418520e-01,6.365284427349440222e-01,-2.437286258285615865e-03,3.405109458267763928e-03,4.524663688057519763e-03,1.190338004380464554e-02
6.816074762320738500e-01,5.738144747892233166e-01,6.648097075872915207e-01,1.500420524785040649e-02,-1.293172460952775153e-02,2.115103239049635070e-02,1.122941672801971436e-01
6.850897746817256051e-01,5.768856201595388145e-01,6.299094390936855747e-01,2.897547313075707603e-03,-5.194501155288373112e-03,1.531937639595981095e-02,9.794107079505920410e-02
6.517393957347774602e-01,5.746383713072190647e-01,6.965228838171934056e-01,-1.167587532368353880e-02,3.742211901546013686e-03,6.783721035843234132e-03,1.095081195235252380e-01
6.684901034536949727e-01,6.208982270216786281e-01,6.193210059099766296e-01,-2.627428472381584945e-02,2.679841245875586378e-02,6.037925542186601408e-02,1.323063820600509644e-01
7.126421089710638368e-01,4.934734381662754243e-01,6.926414267655442991e-01,-5.989284450955149192e-03,7.970915625156156301e-03,2.131631929935367403e-02,2.138054966926574707e-01
6.955477112956247598e-01,5.679560404874299806e-01,6.469767469269740445e-01,5.549818164190781396e-04,-1.857481750357926637e-03,1.185659560937557359e-02,1.134660020470619202e-01
6.836342319090725761e-01,5.811415890375020155e-01,6.518702440302395207e-01,1.047443248332317889e-02,-7.662844311826292470e-03,1.722045010333392995e-02,9.824992716312408447e-02
6.736477817963973935e-01,5.854188226902971026e-01,6.500847228646942089e-01,4.608673999832696433e-03,-1.309755139688298549e-02,1.005880287973670920e-02,8.451342582702636719e-02
7.186460210999207066e-01,6.092455505070353272e-01,5.770330957221463386e-01,5.032739293774521686e-03,-2.072605098563327919e-02,5.339726834459240096e-02,1.626304388046264648e-01
6.950566410305712983e-01,5.363426115717924159e-01,6.608970124179025518e-01,5.442849616559365450e-04,-6.999842300404673402e-03,2.832194714605975813e-02,1.532634645700454712e-01
6.732406218796406216e-01,6.563137794763334032e-01,7.210310335709065876e-01,1.438311375677263082e-01,-9.251814178949828438e-02,1.020934929149429071e-01,3.498423099517822266e-01
7.356257408659773178e-01,5.442560816971163673e-01,7.449504781431458555e-01,9.282460015115803764e-02,-4.793162489036987411e-02,1.140514969584914273e-01,3.320520222187042236e-01
6.950506586115264840e-01,5.480011711242225303e-01,6.549947163263691863e-01,3.675059345905697106e-02,-2.017330454589505093e-02,3.788788739397918465e-02,1.640640348196029663e-01
6.435066399542743731e-01,6.146357643789697178e-01,6.446137479133031700e-01,1.777137504793047107e-02,-2.227130063423997386e-02,1.720179379058273811e-02,6.472958624362945557e-02
6.858360834432094544e-01,5.504709845040378635e-01,7.002157372122560508e-01,4.868977021715607811e-02,-1.929830423398055592e-02,3.215644694565992362e-02,1.783492416143417358e-01
6.424150370037012836e-01,6.596562234120947332e-01,6.161868840395140490e-01,1.453453592528197377e-02,-1.712069026097695970e-02,1.683729815820986936e-02,6.165204942226409912e-02
5.681144669059817742e-01,6.208354871799440788e-01,7.071665112981023738e-01,-5.074188911373033600e-02,-1.769005561956098899e-02,-1.768697487148723421e-02,1.561586707830429077e-01
5.672463555225597531e-01,4.650388280293157872e-01,6.958901314587130349e-01,2.426855178483721953e-01,-1.541817947703226777e-01,1.459411449664282379e-01,5.933340191841125488e-01
7.590662565016212948e-01,4.409430202863889314e-01,4.780172043229245493e-01,1.237377933489907517e-01,-1.116094646208053431e-01,3.195252930923346835e-01,6.930909752845764160e-01
5.151355167519726663e-01,7.011869656761170466e-01,6.929716770384726221e-01,-1.417942003518878231e-02,1.539801979935968151e-02,9.080883880815234649e-03,1.863223463296890259e-01
5.337521415776765865e-01,6.626063705112252844e-01,6.949397019236434048e-01,-2.906113889681134071e-02,3.919105589120381802e-03,8.565691506752529105e-03,1.568916290998458862e-01
5.407819019184815224e-01,6.519383002718992515e-01,6.970719390954148720e-01,-2.499738997284264852e-02,-5.853691843713885491e-03,-8.898417916217590123e-03,1.470531672239303589e-01
5.403673645723492402e-01,6.880817373150340810e-01,7.168470783205429520e-01,-2.890933964579149237e-02,-3.122406492973636184e-03,-3.286410920623020118e-03,1.716535240411758423e-01
4.535041315236838511e-01,6.938542173475021890e-01,7.174283401745347177e-01,-5.171689939212347625e-02,-8.404940630405137447e-03,7.010323680525325923e-03,2.690227031707763672e-01
5.485155752082437886e-01,6.646944082289975020e-01,6.955917467850734059e-01,-2.299829158946124080e-02,1.125354334417975194e-02,7.644198428284985219e-03,1.420696228742599487e-01
5.453802684578128446e-01,6.667702936742947450e-01,6.973507685255663224e-01,-7.227995726868541304e-02,3.736810578762408963e-02,4.658037779376777987e-02,2.139026969671249390e-01
4.844264759154818800e-01,6.835939708363244494e-01,6.840364484844225768e-01,-4.112211025942901638e-02,4.498432521566925885e-02,1.407547888640165064e-02,2.269233912229537964e-01
2.347823838383525374e-01,7.031444999279422570e-01,7.656436063676687054e-01,-2.036915293036594687e-01,1.874756547374350005e-02,-1.924049378706380866e-03,6.148802042007446289e-01
4.090625082020531988e-01,7.869410236141355375e-01,7.660852398658671847e-01,-2.796971343842552526e-01,6.924509387970491370e-02,1.411920415627196113e-01,6.665042042732238770e-01
4.646585472123059279e-01,7.632060616973314060e-01,7.206263618108411650e-01,-3.983108424450898521e-02,1.015003651510386490e-01,1.244476590977923978e-02,3.381755650043487549e-01
3.897778587019630758e-01,8.569497690644038990e-01,7.436064681554106492e-01,-1.921959178086124487e-01,-1.273526030837441314e-01,-2.086190594554870881e-02,5.821726918220520020e-01
5.229656422250433812e-01,6.728109436452931469e-01,6.901424956419924817e-01,7.095325679645721195e-02,-3.317895007792932838e-02,2.805691839204616303e-02,2.147515863180160522e-01
4.614574145287729801e-01,6.879802165993599283e-01,7.090205990462082886e-01,5.556908992573632300e-02,-1.007762013126380432e-02,-3.297955671935050119e-03,2.571429312229156494e-01
5.344969574122515610e-01,6.586002368069351354e-01,7.089595902559340246e-01,2.808192861272104310e-02,-3.537902912353112651e-03,4.228966936649163413e-03,1.632312387228012085e-01
5.489188490756783390e-01,6.569984011581331274e-01,6.914946362204386077e-01,2.208170452868192524e-02,-1.223404982822878968e-02,9.942130917379107119e-03,1.371418088674545288e-01
5.760593223344139258e-01,6.549275335135630316e-01,6.625382392840680756e-01,3.215452471887437352e-02,-2.715575858279260096e-02,1.831798960627550529e-02,1.148871332406997681e-01
5.699645959670863737e-01,6.489247509255260393e-01,6.815527647477790385e-01,7.717513835259383857e-03,-6.514608210349219670e-03,1.015760178806165807e-02,1.024262532591819763e-01
5.654268748197921468e-01,6.547014326103020032e-01,6.927810879661776555e-01,4.545999635069834094e-02,-2.210379034110401819e-02,1.015813390017652335e-02,1.442036032676696777e-01
5.670602136094431422e-01,6.950860411561377017e-01,6.271731744134503295e-01,-3.735888130357425951e-03,-2.148968522692901173e-02,-1.265568394432076138e-02,1.192306950688362122e-01
5.717576087359869108e-01,6.834771318000695262e-01,6.503458256282891314e-01,6.604684142206421540e-03,-8.662161560402658125e-03,1.287022136344675820e-02,1.035877093672752380e-01
6.159508559653711357e-01,6.740319218818243696e-01,6.063312353833147927e-01,-6.022508550509507105e-03,-6.600403816890123600e-03,-4.180323966251513375e-03,6.570082157850265503e-02
6.200356951924790305e-01,5.792798326327862624e-01,6.781155786123385099e-01,-1.796968595275162672e-02,8.480438246571814914e-03,5.727012387016431998e-03,9.318952262401580811e-02
6.211305530748074677e-01,6.847789450396827293e-01,5.719116454627442003e-01,3.511874684285596834e-03,-1.874100794904469056e-02,2.259338359522214575e-03,1.035003066062927246e-01
5.687035394902564267e-01,7.024410367184285020e-01,6.714789320978959974e-01,1.391915750565372867e-02,-4.686947101873639721e-02,2.226946414601615673e-03,1.479524374008178711e-01
6.031352577530385561e-01,6.801138140017013445e-01,6.128746655461186910e-01,1.595173631676171083e-03,-9.424118829924292909e-03,2.698305158905098949e-03,7.461063563823699951e-02
6.052153207946658897e-01,6.765017009349162391e-01,6.191649779962968836e-01,3.436938983368794005e-03,-7.465958104634241345e-03,7.306198853691882669e-03,6.815218925476074219e-02
6.186495225445558521e-01,6.792909813494513172e-01,5.727526570451149102e-01,6.681495488642218671e-03,-1.909374110021899024e-02,2.843157836973610013e-03,9.909113496541976929e-02
6.596768581574776746e-01,5.400785012270296059e-01,6.923441321976110396e-01,2.657869043293662956e-02,-1.962066013714656738e-03,5.784895211698154634e-03,1.466597914695739746e-01
6.489438240568435878e-01,5.713336822712780094e-01,6.940068657089023541e-01,1.260124842014138762e-02,-3.192282012767472255e-03,4.758628543193026139e-03,1.101192086935043335e-01
6.039227976103788142e-01,5.632242229714017334e-01,7.992912098483918593e-01,1.860962643405161543e-01,-7.660059915946352063e-03,-1.234173652766160784e-02,3.902625441551208496e-01
6.660205171448383421e-01,5.607483024896540158e-01,7.138173958857025880e-01,1.300464872506584546e-01,-2.072078967391909401e-02,6.436735943875028509e-02,2.878406643867492676e-01
4.914740432189862451e-01,5.688778549288560082e-01,7.151777304573510019e-01,1.464278695524403595e-01,2.201206413074624849e-02,-1.439269332875586262e-02,3.242184221744537354e-01
6.300082059414700009e-01,5.737897508405880309e-01,6.852597855407223104e-01,1.354544288493437186e-02,-3.032585150778437013e-03,8.070127707966456582e-04,9.949567914009094238e-02
6.294638150562624768e-01,5.757325307193988939e-01,6.955861950462748355e-01,1.294146186089437794e-02,2.616023980653259425e-03,3.569569969499477419e-04,1.064679175615310669e-01
5.701529430684418864e-01,6.258402358868548898e-01,6.932611660535950016e-01,1.622129089667477195e-02,4.241952342374907294e-03,-1.650834703949662563e-03,1.106918901205062866e-01
6.803862901344962522e-01,5.940285113061295474e-01,6.669227308970350210e-01,4.013633284900334358e-02,3.688514541956074838e-02,-5.042625482441243090e-02,1.517201066017150879e-01
6.651627702966096400e-01,5.600437035897598559e-01,7.139117192448006799e-01,5.294562476651487604e-02,1.168738338021181947e-02,-1.347612408204490290e-02,1.670785546302795410e-01
7.417882484324085368e-01,4.787061972029571510e-01,6.760070979622976317e-01,-8.469856373182886589e-02,-3.382948609707619320e-02,-8.639517775695185198e-02,3.218395709991455078e-01
6.464105784041883629e-01,5.553692841683127712e-01,6.916321469217635576e-01,-5.202225856935509263e-02,-1.243866682140984566e-02,-1.106903924319658887e-02,1.529745608568191528e-01
6.149505893381905786e-01,6.188926541169612605e-01,7.361960346512077535e-01,-1.497193785506335251e-01,-8.651475156257483479e-02,-8.793848397338099865e-02,3.565664887428283691e-01
6.562899154153699621e-01,5.464534560421285825e-01,6.795926495580714155e-01,-4.743838124816352614e-02,-1.265335428734654447e-02,-2.090083853303029843e-02,1.539760082960128784e-01
6.578719221270226125e-01,4.794659198613973605e-01,7.259109528791801713e-01,-1.493799931484334209e-01,-4.996786204775477414e-03,3.029733502347798854e-02,3.440471291542053223e-01
6.620387829805783886e-01,5.489815153215568122e-01,6.873057510869450271e-01,-2.323711682048373861e-02,-1.360339139926708754e-02,-1.497369561777937147e-02,1.382919400930404663e-01
4.406322944215580462e-01,5.570099289170172829e-01,8.884984025605213720e-01,-2.597083038651695208e-01,-5.936075432093073506e-02,-1.403032638008622213e-01,6.587697267532348633e-01
6.786828477601287712e-01,5.524837509328622831e-01,6.632063972151235332e-01,-1.309298938685726083e-02,-1.884232335167420128e-02,-2.747513107852827402e-02,1.343750208616256714e-01
7.123994499636281397e-01,6.635446189090498104e-01,5.611592469257090654e-01,-1.317327045450973275e-02,-2.286081124662349764e-02,-4.869221290783966316e-02,1.645382344722747803e-01
6.455355166833474101e-01,7.229908986952588990e-01,5.532429551707510607e-01,-1.816164142997986689e-02,-1.554827140582412948e-01,-3.247758714856744527e-02,3.135990202426910400e-01
6.538069486983282275e-01,7.256958065519799606e-01,5.741535146436651527e-01,2.739313208134084091e-02,-8.953142432500497960e-02,3.330812283969394189e-02,2.164854407310485840e-01
6.998620873167402667e-01,7.955598646068677837e-01,2.893249825572091205e-01,-1.016370522783684345e-02,-2.002032642386684380e-01,1.586266227774321344e-02,5.816314220428466797e-01
7.421614452001373818e-01,6.947615637828634672e-01,5.355835240930129082e-01,-5.422173525759595158e-02,-8.874588520496867750e-02,-1.069767278901477825e-01,3.192318379878997803e-01
6.827117714790335024e-01,7.100914298447723594e-01,4.389522944841582897e-01,-1.012007848157401788e-02,-6.094290144298717543e-02,-1.404543841543049593e-02,2.808621823787689209e-01
6.545050447625218037e-01,5.350562706640773492e-01,6.936632540772124100e-01,-2.459700393426213563e-02,-6.770037744850781330e-03,-3.015929232776941478e-03,1.498619318008422852e-01
7.091490450404894785e-01,6.837429097514731158e-01,4.837759566447840109e-01,-3.402397776318654907e-03,-4.090547221730893995e-03,-2.911776938360281786e-02,2.198660969734191895e-01
7.790593563149464940e-01,4.524242831489182493e-01,7.478580100925701357e-01,-1.132427457435632029e-01,3.352463628800894657e-02,1.239595775255943888e-01,4.305971860885620117e-01
7.115313117882388072e-01,5.079015676357613307e-01,6.937513528464156476e-01,-1.387225858050726568e-02,2.468544426268908659e-03,2.008523918726819527e-02,1.999162882566452026e-01
6.056848310866183027e-01,3.785665231638549177e-01,7.771691040074657497e-01,-2.647404198529110797e-01,4.821367132738321043e-02,8.527668858938426688e-02,5.991571545600891113e-01
7.284118736502499525e-01,4.795988160593006033e-01,7.271836536758157221e-01,-1.927904346796344929e-04,1.020555601692033900e-03,6.496740729380897673e-03,2.484626919031143188e-01
7.213457595673485878e-01,3.864847246924318913e-01,7.209065460300920769e-01,5.596598287702832415e-03,-1.582683124187998303e-03,-1.056596608628128375e-02,3.352930545806884766e-01
6.860869898934014444e-01,3.935254438689727019e-01,7.525685457444257764e-01,-1.671274253650384123e-01,1.278943629763234884e-02,-1.898842805988159091e-02,4.413945078849792480e-01
7.097135083526302513e-01,4.892139456973621514e-01,7.214394082457410429e-01,-1.075932333889802455e-03,1.279355234796315799e-02,1.632847929549545093e-02,2.294285595417022705e-01
7.280661110234959432e-01,4.899047034813349688e-01,7.088003180049108343e-01,5.423409985939484264e-03,1.039605789017236138e-02,9.861841274381510231e-03,2.306683808565139771e-01
6.642968097287208495e-01,5.560175071509407818e-01,7.232768812677270454e-01,5.518451848298756846e-02,6.078189524538439711e-04,-1.495157405824390365e-03,1.753088235855102539e-01
7.965434727683917693e-01,3.673032046366620507e-01,7.770679501425091784e-01,1.170612119567635868e-02,-1.477582578306836300e-02,-5.123201177151694326e-03,4.212026000022888184e-01
6.659914502020883864e-01,5.685361760520249996e-01,7.329714451327160596e-01,-5.349053128313394773e-02,-7.975348223753063329e-04,4.437698739628281701e-03,1.707515865564346313e-01
7.810802213058909427e-01,7.124420337494580258e-01,4.185743261208552668e-01,-6.045183331861982319e-03,-7.002070607124703154e-04,-3.715554619382770152e-02,3.398421406745910645e-01
6.261905088656644081e-01,6.029259685246396439e-01,6.803520468090862305e-01,-2.750312842088882895e-02,6.949563060905120104e-03,1.128969167046359710e-02,8.678295463323593140e-02
6.808712361936992696e-01,7.019092695632040968e-01,5.328894977807614453e-01,2.049478302738733798e-03,-7.171413713096517345e-03,5.630534914932493890e-03,1.603634506464004517e-01
7.160598697687884373e-01,7.078604332100235652e-01,4.768508780954963111e-01,2.461302586499179365e-03,-4.582437048406912995e-03,-3.000593015694200463e-03,2.354463338851928711e-01
7.185776517940483110e-01,4.837606208243400707e-01,7.068380046607870559e-01,5.001487392153977250e-04,1.508662433957385458e-03,-5.706520119349045919e-03,2.294023931026458740e-01
7.051940699941801061e-01,4.915670922941336451e-01,7.184883536809506532e-01,2.016026849681473720e-02,1.905759190676452851e-03,-5.915356157274873766e-03,2.235808968544006348e-01
6.823164163345647459e-01,4.720976008821977099e-01,7.087148056371458393e-01,4.153739715474335376e-02,-1.109444103475358372e-02,2.226526971883003442e-02,2.397307157516479492e-01
6.485675666478825097e-01,5.770145926118033231e-01,6.958146828929538952e-01,-1.081775745768755355e-02,-6.618278151814236537e-03,-6.201186771491524335e-03,1.064454317092895508e-01
7.278757208298084480e-01,4.823654611751563293e-01,7.325095372226781976e-01,-1.182682512948197593e-03,-1.969546777449870945e-03,-2.710268160598227043e-03,2.479360401630401611e-01
7.238648514192391747e-01,4.180855000426211276e-01,7.274522281482072028e-01,1.431602235705589990e-02,-1.270717481937886067e-03,4.886619503190622014e-03,3.087104558944702148e-01
6.436731060114641023e-01,4.804082287975602883e-01,6.999804402951613769e-01,9.737490405246373992e-02,-3.191874988806967656e-02,4.227294369248151690e-02,2.754668593406677246e-01
6.568472059104026872e-01,5.333829450112910209e-01,7.145452965619882857e-01,2.232783853637893001e-02,-1.524563253706865242e-03,7.136913477795603800e-04,1.649249643087387085e-01
7.838264014539253477e-01,4.527919861408482571e-01,7.828924554314293793e-01,6.354582248688600554e-02,-6.744346703779435792e-03,5.329841954646660426e-03,3.487282395362854004e-01
8.318540065925175142e-01,1.793739763066152237e-01,7.963308486301875488e-01,-4.560114199407920565e-02,2.615185682161530814e-02,-3.837491973204132378e-02,6.453851461410522461e-01
6.287961185189444580e-01,6.445349775430110340e-01,6.265949360567427684e-01,-2.742713510604283169e-03,-8.269254859386522202e-04,-1.234785299941612092e-03,1.778746582567691803e-02
6.229150684185353892e-01,6.528181176912085659e-01,6.261086233143352553e-01,-5.121211303414731353e-03,-5.714428700520930889e-03,-8.666003046695455042e-03,3.479709103703498840e-02
6.317751988766182603e-01,6.351728981126147922e-01,6.326882374548973287e-01,-5.233014996928273682e-04,-5.693605239253072018e-04,-2.011007403179059568e-03,4.816873464733362198e-03
6.340368584611441038e-01,6.413678340260540178e-01,6.311194552544554526e-01,-8.395543740906464322e-04,-1.516035163616778758e-03,-1.708025216736227441e-03,1.006993278861045837e-02
7.848348900469347411e-01,5.631187803870129072e-01,6.657844426485490796e-01,5.164352625863601054e-02,2.589727610294515966e-02,-1.379498606713853992e-01,3.225512504577636719e-01
7.642478224110731411e-01,3.937211011505302727e-01,4.767313382019875423e-01,2.601516455900759750e-02,3.767671365204242756e-02,-3.089386796528164614e-01,6.372138857841491699e-01
7.943787877172708844e-01,5.821917745553364387e-01,6.646860403214072122e-01,-4.469923702864060135e-03,6.444754140200445458e-03,-1.479932699981546251e-01,3.165675103664398193e-01
7.649907646493601110e-01,6.047976572797418848e-01,3.589820433590381610e-01,-2.250500395283887983e-02,-3.822554007054990155e-02,-2.627649344690183852e-01,5.818112492561340332e-01
7.157540259602546140e-01,6.759049625118344062e-01,5.122342212968653552e-01,-1.237151475101463775e-02,2.630534492564949936e-02,-1.194684781379817679e-01,2.832868099212646484e-01
2.604304785977868408e-01,9.240253193846141855e-01,7.718949788746199969e-01,1.253521847135844469e-01,1.040712572001846340e-03,-6.223853205554926576e-02,6.490858793258666992e-01
7.031294904689747716e-01,7.982213358191025954e-01,5.201668669578323190e-01,-9.243170331512480867e-03,1.763620707336343851e-01,4.677514231163794334e-02,4.000585377216339111e-01
4.224076300177534993e-01,7.808647160410957522e-01,7.851342362341802161e-01,1.257454598511179890e-02,2.970976973761617346e-02,1.814211281918080062e-03,3.649279177188873291e-01
5.002188203841467784e-01,7.197341955430376359e-01,6.379594420692292767e-01,-2.362925693462175278e-02,-9.578554383003073935e-02,-1.718390886494141484e-02,2.588605582714080811e-01
7.762508709128695950e-01,7.861384237117063911e-01,5.301705928951649938e-01,-3.018531858435462636e-02,1.529839341451231516e-01,6.383695627666520489e-02,3.850423097610473633e-01
4.551710176717825851e-01,7.606200825861442194e-01,7.171707558386186676e-01,4.125795946848908463e-02,8.361373834921423387e-02,2.314492289740408687e-02,3.310633003711700439e-01
3.698317696186921300e-01,8.644282720600835468e-01,6.479173791693696449e-01,3.939549742966129420e-02,-1.862305812558186224e-01,-3.015257296758730790e-03,5.414295196533203125e-01
5.007653291856912769e-01,7.186656530234738494e-01,7.219157468784179743e-01,-1.137719628526126861e-02,-3.261490968801803673e-03,-8.302900496956217707e-03,2.209668755531311035e-01
7.504913280003189247e-01,3.008899248509611102e-01,9.278430151446056540e-01,-1.220274372446544381e-01,-6.242847361405524237e-02,-9.355522054595376280e-02,6.292490363121032715e-01
7.561608964315790216e-01,2.443047035737995198e-01,7.855246342608417365e-01,-1.359637893491914828e-01,-4.738023857178953746e-02,-3.100351034682407095e-02,5.856328010559082031e-01
6.476980106702885376e-01,5.513437390227637902e-01,6.851056218768074579e-01,-5.059136886242050074e-02,-1.820999110560560588e-02,-3.027602437057380635e-02,1.603466272354125977e-01
6.246820527928107492e-01,3.878711705644191099e-01,7.377669057409509401e-01,-2.113975572398006098e-01,-7.085109378209136777e-02,-1.072553623899004105e-01,5.284740924835205078e-01
6.610221412362472515e-01,6.901281373059562352e-01,5.476400995981112185e-01,-1.091994683060423972e-02,2.012299181301098125e-02,1.116630036910841277e-02,1.376566141843795776e-01
6.562222870845043632e-01,5.452065396783293272e-01,6.933420064382330716e-01,-2.184508830982424821e-02,-1.587038341447246162e-02,-1.101521257408681446e-02,1.427391916513442993e-01
7.128102160828813094e-01,5.236695337878988221e-01,6.830405624509525708e-01,3.481248706793250384e-03,-5.429238266322517284e-03,-1.067162946723283594e-02,1.774717271327972412e-01
6.771028052589583845e-01,5.406465044975903300e-01,6.946244118491342601e-01,-9.280687692343204606e-03,-1.148466197596344218e-02,-1.143082941106290246e-02,1.495471149682998657e-01
6.947652907355733598e-01,5.077843306585948513e-01,7.027516208648971752e-01,-1.661385442827788619e-02,-8.922416585460784741e-03,-7.888486673329211940e-03,1.943515539169311523e-01
5.709153128975448244e-01,5.996466353825605777e-01,6.412007477871081162e-01,9.619809964252619416e-02,8.047823292590169930e-02,-7.410999485378337581e-02,2.596448957920074463e-01
6.119971301872856317e-01,6.315156763515772376e-01,6.624834243090825803e-01,1.364584383941570313e-02,1.577794055436642154e-02,-1.043218040526068709e-02,5.980275198817253113e-02
6.368885816986440407e-01,5.904930060578822415e-01,5.578177142814517708e-01,7.624413050797240743e-02,8.715191886491564788e-02,-1.012739952405994764e-01,2.751933038234710693e-01
6.367881368440706513e-01,6.407650218393196040e-01,6.434968114002436179e-01,2.073245144195767498e-01,1.169419422495018429e-01,-2.724064954755706092e-01,6.265992522239685059e-01
4.830039289117529222e-01,5.729173596093919407e-01,7.040495108266469071e-01,2.214317582951113028e-01,1.204112253754163614e-01,-1.045525308928813429e-01,5.103498697280883789e-01
4.801299338667807115e-01,8.083226474105675852e-01,6.742620477434437820e-01,1.929252844051970173e-01,1.892189717138370031e-01,-1.999359625187949463e-01,6.485985517501831055e-01
6.392935486124012856e-01,7.830316394379042144e-01,4.423675084135537672e-01,4.963811671619222654e-02,2.224432212614012583e-01,-1.012018610228332671e-01,5.237427949905395508e-01
6.668888073543415285e-01,7.112459842800806786e-01,5.313891229142803097e-01,-1.478072457624426440e-02,3.658651134151769818e-02,4.807092054298693629e-02,1.947862356901168823e-01
6.879648373570419473e-01,6.486884821623429831e-01,3.047223455107360701e-01,-1.119222871188479407e-01,1.777617896181060975e-01,2.423689781725774650e-01,6.648088097572326660e-01
6.882367192950191725e-01,6.882820070862765149e-01,5.239957798379626386e-01,-1.163322134046984244e-02,5.142244428228961994e-02,3.365097887381485880e-02,1.967701464891433716e-01
6.506158686362096821e-01,7.050204143519976929e-01,5.271391038726382927e-01,-3.403316736867480902e-02,1.317363643812222151e-01,1.033859730407584582e-01,3.354522585868835449e-01
5.464811659637632824e-01,6.568061617014908649e-01,7.019750715450899792e-01,2.574257697598144809e-02,1.192106247841073774e-02,-9.928987438987317213e-03,1.480041444301605225e-01
5.133140305276955306e-01,6.906886996254897326e-01,7.057277519833744517e-01,5.854467765183000300e-02,1.253153453006158533e-02,-5.354327964281073264e-03,2.125912904739379883e-01
4.820543032246715764e-01,7.038103492888441171e-01,7.185621083805910914e-01,4.670871195883870286e-02,-1.761359513581571903e-02,-7.463810896264638436e-03,2.455760687589645386e-01
7.507284612418593239e-01,7.158968273617876132e-01,4.501322266349809809e-01,4.082452062965388068e-02,-8.011856647465330494e-02,4.846043507613440049e-02,3.352658748626708984e-01
7.547199491423794981e-01,7.858489582030091514e-01,4.545361949127434409e-01,1.475926490817042712e-02,-8.183460210850380945e-02,3.208747602899381102e-02,3.525007069110870361e-01
6.263002105647076379e-01,6.852454858172100094e-01,5.726458442793781467e-01,-1.990245858607146180e-03,-1.608752034912699219e-02,-1.550457592798381440e-03,1.015456914901733398e-01
6.215176296658074806e-01,7.691786381792614646e-01,6.202520497626339280e-01,3.865023688107403071e-02,-1.452714023627876272e-01,6.735270046079988582e-02,3.215498030185699463e-01
6.664170976400352053e-01,6.602725517480166895e-01,5.728959792329357814e-01,1.897943167375349197e-02,-1.538540401547331023e-02,1.317527590855606737e-02,1.025712564587593079e-01
6.121755599142603144e-01,8.443891325343140242e-01,5.023851011128335209e-01,-6.166903309441033876e-02,-2.811647388229804312e-01,4.580551545137037661e-02,5.885035395622253418e-01
6.741658748483764230e-01,9.003687918790370670e-01,3.602207541734065432e-01,8.100132601818665901e-02,-2.193013098086987744e-01,-1.462765543252480399e-02,6.207651495933532715e-01
4.764403826579097778e-01,7.854307491618749415e-01,5.066892672426566158e-01,6.042819015189260234e-02,-2.597210690384977871e-01,6.881816544539050284e-02,5.608663558959960938e-01
7.015268006307192605e-01,7.336124183603927040e-01,3.286590863326723233e-01,8.669358987402493721e-02,-1.983112599264899301e-01,1.134208215212906545e-01,5.754526853561401367e-01
6.407658895923640241e-01,6.370147339007867782e-01,6.119095385276164256e-01,-1.833914813111996514e-02,-1.750517780211702235e-02,-1.722715831800982617e-02,5.964148789644241333e-02
6.278113099849855772e-01,6.183690771383517637e-01,6.476910200134401441e-01,-1.232124086949953554e-02,-1.249376504752335894e-02,-1.227769493317513484e-02,4.525499045848846436e-02
6.308787601010658053e-01,6.272293613679231772e-01,6.399482777513747500e-01,-1.231295245625256118e-03,-4.669406955563140844e-03,-2.023394517386879841e-03,1.452285330742597580e-02
6.159507052572281705e-01,6.409013578409163969e-01,6.555756002413121175e-01,-1.489964693310060623e-02,-1.199795577430842752e-02,-1.536539473675064757e-02,5.486472323536872864e-02
6.309941174412561082e-01,6.335671068400653416e-01,6.357158025442666283e-01,-1.049433020719527229e-03,-1.086463269638118876e-03,-2.305258592057777937e-03,6.289159413427114487e-03
6.312686823919396728e-01,6.292885213428344171e-01,6.351191093650023767e-01,-2.393964006645724497e-03,-4.099444559876443649e-03,-2.369019429619198709e-03,1.052699331194162369e-02
6.225042079466023281e-01,6.329413363406857229e-01,6.461737621535390552e-01,-3.582982966796694965e-03,-3.959920211888251322e-03,-7.499647814752178829e-03,2.600826136767864227e-02
5.802842281591070739e-01,6.507322603826170004e-01,6.518435640421423871e-01,-8.846387586704952677e-03,-1.313500637756132537e-02,-1.764394066062546437e-02,8.202887326478958130e-02
5.415379907121036229e-01,6.915900338747333898e-01,6.902792167500807485e-01,-2.260852698455209989e-02,-1.843824498021357297e-02,-3.314170175465609887e-03,1.578193157911300659e-01
6.345814568174006354e-01,6.115205399304241007e-01,6.803946280284903780e-01,-2.501405374321202454e-02,-1.406685090552461416e-02,-1.293751250540437284e-02,8.160895109176635742e-02
4.445637065628131324e-01,3.783833407241387614e-01,7.809225929322056725e-01,-3.389250950749196356e-01,1.945502068265009266e-02,1.036234093831301349e-02,6.970263719558715820e-01
4.083509732218824628e-01,6.695035583865831530e-01,8.289668098223843540e-01,-3.399437780707202372e-01,-1.177420236146836663e-02,9.302286636104077633e-02,7.129757404327392578e-01
6.591022653119854580e-01,6.108760941169738556e-01,6.335112759350990386e-01,1.699415321627256725e-02,-1.601798822428269348e-02,2.424134174573362027e-02,7.173260301351547241e-02
6.587056188683151348e-01,6.255570208635129470e-01,6.281777561671283427e-01,9.130734833991519667e-03,-8.766799462041310192e-03,8.571396112987779078e-03,4.147182032465934753e-02
6.571628567164600199e-01,6.116376249965506107e-01,6.268561831829881914e-01,4.850174381531428477e-03,-8.856506283353011294e-03,6.785875608274681732e-03,4.533600062131881714e-02
6.436094875311444419e-01,6.231671354815867536e-01,6.232262264160287613e-01,7.318335890584371471e-03,-3.676554312560127800e-03,6.880712758636899594e-03,2.756706625223159790e-02
6.521972778383466895e-01,6.391644887948437770e-01,6.036785439451859414e-01,1.255215126613104873e-02,-4.271148519325867685e-03,5.835237635299522253e-03,5.021089687943458557e-02
6.458450419926375918e-01,6.394635343791016391e-01,6.087964723927006272e-01,1.276259550642862978e-02,-6.171289669526347499e-03,7.326864771239569377e-03,4.405507072806358337e-02
6.659335544060618339e-01,6.204284450298034326e-01,6.182783914580916029e-01,6.971006711922410858e-03,-7.174243957317118225e-03,1.175551396982788162e-02,5.373961851000785828e-02
6.787965378641801495e-01,6.272276695792096124e-01,5.756110457338172726e-01,2.044853162834586388e-02,-1.020173891257041866e-02,1.796264066756108474e-02,1.025673374533653259e-01
6.410609937064449815e-01,6.098809100868398669e-01,6.509657085593377746e-01,6.582733948670525283e-03,1.296469205981434607e-02,-5.216764260848517736e-03,4.577140510082244873e-02
6.220154891488762772e-01,6.544648608980460081e-01,6.214965891747382676e-01,1.590970286607852613e-03,-1.085979551743349622e-04,-1.766766128122920386e-03,3.297062590718269348e-02
6.306523398010980275e-01,5.806358523899669555e-01,6.797454462892801308e-01,1.461884711884098992e-02,1.146844249112101942e-02,-5.536060472097172752e-03,9.216777235269546509e-02
7.010317124289464630e-01,5.337870800536776983e-01,6.603589353222234504e-01,1.568528678079023075e-02,8.342738115326472914e-03,-4.688713103452091940e-02,1.742550879716873169e-01
5.137823001907304565e-01,6.722452435539358895e-01,7.220966934875856502e-01,7.478978127916639795e-02,-3.931268117190904465e-02,3.165702505776580439e-02,2.447831183671951294e-01
6.251847952781515172e-01,6.158029772193538420e-01,6.554899135389467002e-01,8.702264579202069472e-03,8.110245967731164601e-03,-5.611738551264221567e-03,4.254088923335075378e-02
6.128211551626395748e-01,6.311142372136625545e-01,6.630676948191682740e-01,1.192379536064242830e-02,1.126385973073718363e-02,-1.157721701280414392e-02,5.611985176801681519e-02
6.060525858236459618e-01,6.169133059169783495e-01,6.753325675580232890e-01,7.438029748074610585e-03,2.186382916753395154e-03,-6.127597060398965595e-03,6.676972657442092896e-02
6.308872215508853909e-01,5.899335108227599100e-01,6.723469573267067956e-01,1.472402240187575123e-02,1.114406337054116986e-02,-4.257457033812046994e-03,7.855816185474395752e-02
7.194736842616746841e-01,6.924645682377263967e-01,4.901051269393703613e-01,1.401596381212502932e-03,-1.731735546859633490e-02,-5.449454206192110017e-02,2.386606782674789429e-01
7.177157006800917172e-01,7.377294473786981666e-01,4.392697947562316796e-01,7.285082208762568880e-03,1.771309090281609350e-02,-8.274389165262380219e-02,3.242615461349487305e-01
7.065339835938655444e-01,6.938943117971800856e-01,4.879424537532969230e-01,7.151210961804908145e-03,1.712886397464381989e-03,-3.281521912889530379e-02,2.203901708126068115e-01
7.085485170836336444e-01,6.780083508450314156e-01,5.258607292687613732e-01,3.747647890336072880e-03,2.307873200799455242e-04,-1.375900600274431763e-02,1.712846755981445312e-01
7.203062810274127870e-01,6.943552327936662882e-01,5.052125337125341620e-01,1.199884465204936052e-02,1.659065249927732522e-02,-2.209982382086496042e-02,2.099517583847045898e-01
6.894855888359449070e-01,7.098302146782624611e-01,5.083606143148603485e-01,-2.123589080600314649e-02,2.657948109364846948e-02,5.286989898338458928e-03,2.011497765779495239e-01
6.474586658048142596e-01,6.870131979068526684e-01,5.697043775801446941e-01,-1.556570721134074679e-02,7.113114187428870583e-02,2.635850248032485174e-02,1.693396866321563721e-01
7.706979828187192627e-01,7.761860955947810226e-01,4.834112401000281167e-01,-2.140480268845497414e-02,6.576975616280968107e-02,6.924108885385024670e-02,3.359686136245727539e-01
6.608771246160315416e-01,6.941443188354199378e-01,5.397854097220403657e-01,-8.050206256827834028e-03,2.092672797329089146e-02,3.084282776876073277e-03,1.460651606321334839e-01
