sxx,syy,szz,sxy,sxz,syz,smises
0.000000000000000000e+00,0.000000000000000000e+00,0.000000000000000000e+00,9.273015376718553657e-71,0.000000000000000000e+00,0.000000000000000000e+00,0.000000000000000000e+00
