sxx,syy,szz,sxy,sxz,syz,smises
-5.399752216859982079e-02,-5.399752216859982079e-02,-2.592949556628002528e-01,-3.198570034127742417e-37,-1.551125292318035439e-37,-1.551125292318035439e-37,2.052974402904510498e-01
