sxx,syy,szz,sxy,sxz,syz,smises
2.830241469053240699e-02,2.830241469053240699e-02,1.040351706189354686e-01,-2.826008485461352024e-37,-1.429957628277758734e-37,-1.429957628277685025e-37,7.573275268077850342e-02
