sxx,syy,szz,sxy,sxz,syz,smises
2.666666666666372976e-04,2.666666666666372976e-04,-5.333333333332745951e-04,8.000000000000000383e-04,4.000000000000000083e-02,4.000000000000000083e-02,9.799265116453170776e-02
