sxx,syy,szz,sxy,sxz,syz,smises
2.290358803361823570e-02,2.290358803361823570e-02,-2.258071760672366313e-01,-5.623903158281129710e-52,-3.273111638119632603e-52,-2.182074425413078387e-52,2.487107664346694946e-01
