sxx,syy,szz,sxy,sxz,syz,smises
-1.312144052854501419e-01,-1.312144052854501419e-01,-2.384407546464915040e-01,-4.409109067756790927e-52,-2.028190171168079479e-52,-2.028190171168079479e-52,1.072263494133949280e-01
