sxx,syy,szz,sxy,sxz,syz,smises
2.830241469053240699e-02,2.830241469053240699e-02,1.040351706189354686e-01,-2.059348573479159061e-86,0.000000000000000000e+00,0.000000000000000000e+00,7.573275268077850342e-02
