sxx,syy,szz,sxy,sxz,syz,smises
6.975790427415096140e-02,6.975790427415096140e-02,-5.622598085483022645e-01,-9.973709858796873205e-52,-4.651334461157840536e-52,-4.651334461157840536e-52,6.320177316665649414e-01
