sxx,syy,szz,sxy,sxz,syz,smises
-1.312144052854498089e-01,-1.312144052854498089e-01,-2.384407546464910321e-01,-7.463302150109581843e-53,-3.433118989050359002e-53,-3.433118989050359002e-53,1.072263494133949280e-01
