sxx,syy,szz,sxy,sxz,syz,smises
-4.124848406746892127e-02,-4.124848406746892127e-02,5.665929681349375358e-01,-7.000117186033501406e-70,-4.909019105732246504e-137,-1.198758396752784726e-65,6.078414320945739746e-01
