sxx,syy,szz,sxy,sxz,syz,smises
3.169253994783513551e-02,3.169253994783513551e-02,5.543844951609487592e-02,-5.555535384542175417e-37,-2.833323046116550957e-37,-2.833323046116467851e-37,2.374590933322906494e-02
