sxx,syy,szz,sxy,sxz,syz,smises
1.640338068304124158e-03,1.640338068304124158e-03,-3.280676136607978566e-03,4.921014204912105110e-03,5.467793561013450238e-02,5.467793561013450238e-02,1.342941820621490479e-01
