sxx,syy,szz,sxy,sxz,syz,smises
-2.291622439301208014e-01,-5.058417412528503077e-01,-4.525083848762359029e-01,-4.136404570041227191e-02,7.861815566698970859e-02,-1.527104588217065469e-02,2.983534038066864014e-01
-2.014409647141601478e-01,-4.686513084944543550e-01,-4.998774282552534420e-01,-6.902909738720297214e-03,4.648559516807546782e-02,2.967117675048401310e-03,2.955883443355560303e-01
-2.886972878225904093e-01,-4.791873036660255769e-01,-4.770739219143051435e-01,-9.818843234600898012e-04,4.736704993801160030e-02,2.066253608427001155e-03,2.064823210239410400e-01
-2.211549977709843240e-01,-5.818332110132768964e-01,-5.197670345095397604e-01,-4.214490720372678773e-02,7.206579331918118447e-02,3.631455840143526376e-02,3.693512082099914551e-01
-2.813408736919521536e-01,-4.671308915784422311e-01,-4.165984512792090255e-01,-1.599195667043245422e-02,1.341901479188023771e-01,-2.418079203631925619e-02,2.902160882949829102e-01
-2.794203290489439828e-01,-5.942490791593462163e-01,-4.476612449475108058e-01,-1.471605777877155879e-03,1.398662240698049786e-01,-5.702819078206946418e-02,3.780289590358734131e-01
-4.444734498084645935e-01,-3.975296241043238532e-01,-4.224054589276038385e-01,2.206210542063287428e-02,1.617123247965420590e-02,2.817642922055857771e-02,7.925422489643096924e-02
-4.333729625704515476e-01,-3.889496712178838189e-01,-4.134158050651514649e-01,1.589129451527139525e-02,9.183124528417269117e-03,3.339540971307863176e-02,7.642973214387893677e-02
-4.449604623529970215e-01,-3.888583623040561266e-01,-4.222829369131859134e-01,4.587480684847452736e-03,3.913403748264741161e-03,1.370368508324683668e-02,5.533453822135925293e-02
-4.470825515967686847e-01,-3.896093170682058404e-01,-3.968099063012967553e-01,7.190715061663611150e-03,2.918668821899750212e-03,2.429675004315871856e-02,6.994891911745071411e-02
-4.358047014439823119e-01,-3.883268904261615861e-01,-3.982072698949075118e-01,5.718302514877847582e-03,4.027113968717480064e-03,2.300309296030543862e-02,6.014018878340721130e-02
-4.317608695213398518e-01,-4.015726325887829518e-01,-3.997305137067668768e-01,9.045791283533763383e-03,3.996345740835830287e-03,1.250260375894493917e-02,4.162535443902015686e-02
-4.285376949150772052e-01,-3.831034498221308482e-01,-4.008602067158379412e-01,3.348462541947987321e-03,5.765657626864926708e-03,1.062124256068603528e-02,4.521731659770011902e-02
-4.060821356851730957e-01,-3.855821803549033255e-01,-4.205793001166664991e-01,-1.832463116814319823e-02,-1.175703597362898374e-02,1.333727650021225911e-02,5.369651690125465393e-02
-4.100202962309626997e-01,-4.405591437155582657e-01,-3.998173884004139755e-01,-2.223779614336974901e-03,1.060297827037996049e-02,-7.781307794213571322e-04,4.125805571675300598e-02
-3.995055952889929318e-01,-3.955218801204238299e-01,-3.978532266169568232e-01,-3.009410585319255080e-02,-2.606081915234143356e-02,3.081073077229515289e-02,8.726044744253158569e-02
-4.114094321902955764e-01,-3.785631709905145637e-01,-4.113000182769707136e-01,-2.401273787727706277e-02,-1.883969809591998223e-02,2.423744688896388444e-02,7.504861056804656982e-02
-3.973585647163040413e-01,-4.081336569885736787e-01,-4.090286704100239423e-01,-2.896382513363312747e-02,-2.819099356142494572e-02,2.081407658822104212e-02,7.954326272010803223e-02
-4.039039354540855942e-01,-3.867586272603457664e-01,-4.189475934572609583e-01,-1.861128937710922193e-02,-1.346130061197499742e-02,1.431778055733663041e-02,5.455234274268150330e-02
-4.302116345298294675e-01,-3.803035806402396690e-01,-4.320804432208392720e-01,-4.378740590648694253e-02,-2.930595093476877008e-02,3.798104757659397784e-02,1.234657093882560730e-01
-4.055043242014680360e-01,-4.086819375133651788e-01,-4.161418910470446875e-01,-1.450373528334683538e-03,-1.515444845581227556e-03,2.039232040483245426e-03,1.072981115430593491e-02
-4.049959229259430527e-01,-4.051725637590971041e-01,-4.229510515653928104e-01,-2.870151277454702221e-02,-2.267974845825355967e-02,2.170228440888970906e-02,7.580670714378356934e-02
-3.647413562004681586e-01,-4.033737431088798009e-01,-4.141357173373889644e-01,-3.520853908794478737e-02,-5.415732991435051602e-02,4.063923111388068055e-02,1.396304219961166382e-01
-4.140145009061890757e-01,-3.976587336875841983e-01,-4.238480609746194117e-01,-1.272929273093511074e-02,-1.011308800762726785e-02,1.005024629478134049e-02,4.026159644126892090e-02
-4.270729549149848703e-01,-4.055132137195208153e-01,-4.035383599918879738e-01,-1.939360549584539378e-02,-1.590049168368313018e-02,3.297770371967631564e-02,7.523761689662933350e-02
-4.106577156916886850e-01,-3.856661009375207394e-01,-4.172683691343091472e-01,-2.299616580498968152e-02,-1.640934252047536457e-02,1.910016676384874296e-02,6.574353575706481934e-02
-4.110175358155367942e-01,-3.948674503430089078e-01,-4.041759740748817054e-01,-1.219884172437095751e-02,-1.202228814925875716e-02,1.338667149611181759e-02,4.018446058034896851e-02
-4.235122119078253422e-01,-3.876561630798708302e-01,-3.979707632468136858e-01,-1.722271565269540422e-02,-1.580884201706035663e-02,2.372061486832184596e-02,6.595326960086822510e-02
-4.300362409335958813e-01,-3.905551118828944346e-01,-4.218983173199502557e-01,-1.730577072231929969e-02,-2.242193711913142984e-02,2.267963763226138810e-02,7.248094677925109863e-02
-4.028080385880339898e-01,-4.410060602993328138e-01,-3.881732431157356444e-01,4.582600163538009565e-03,-4.226296327885286502e-02,3.269228441502291540e-04,8.748760819435119629e-02
-3.748546680767441130e-01,-4.424388037525799899e-01,-3.583923845217048543e-01,1.063325120192449430e-02,-6.704310603827198789e-02,-1.014084378184526222e-02,1.417153924703598022e-01
-3.743853244120047830e-01,-4.490556209075838856e-01,-4.098474786850845319e-01,1.561246799880717942e-03,-4.380062967672469082e-02,-7.717087259928873642e-03,1.006315350532531738e-01
-3.761764980806888703e-01,-4.190951121407307522e-01,-4.400084672962137899e-01,-4.915662391066636001e-03,1.553206774022153781e-03,-2.960004951351460304e-03,5.729713290929794312e-02
-3.692319808198454290e-01,-4.484889415808435142e-01,-4.340436425149290511e-01,-6.750649359535958356e-04,-1.477330185829768550e-02,-2.669376005400375673e-03,7.760758697986602783e-02
-3.661426634900518673e-01,-4.484717244677675074e-01,-4.157166659258479391e-01,5.315000670719287681e-03,-6.181402304217119281e-02,-8.011646607400731146e-03,1.299788504838943481e-01
-3.983809095946930223e-01,-4.565778061708751778e-01,-3.582599691248880558e-01,-1.093209359564406222e-02,-6.587430307263181239e-02,9.443688003885883364e-03,1.448303759098052979e-01
-3.432470612948594901e-01,-4.696211687967605797e-01,-4.186178532502559113e-01,2.520529654747317647e-03,-4.156825068114873567e-02,1.040222019147926322e-02,1.328671872615814209e-01
-3.872937395322397780e-01,-4.596263696970515067e-01,-3.846280227562636211e-01,-1.198064106627679502e-02,-9.563648722911768929e-02,1.511556539150288141e-02,1.843556165695190430e-01
-4.325430977924236142e-01,-3.950457129552311097e-01,-3.920516179726311057e-01,-2.236639597870969214e-03,1.711008226569411209e-03,-1.241715811145310301e-02,4.487356543540954590e-02
-4.319611074803228479e-01,-4.024637144389501264e-01,-3.968261496591494186e-01,-1.462167085524219328e-03,6.913178446489431223e-04,-3.144272641484356992e-03,3.325174748897552490e-02
-4.308418607804251899e-01,-4.058048677195123521e-01,-3.844102761373532906e-01,-2.800644057275159578e-03,1.966782246612726586e-03,-8.564319900833439886e-03,4.330605268478393555e-02
-3.533717874705274986e-01,-4.279934462781345705e-01,-4.661366479885243330e-01,5.345889178516496226e-02,2.330968871084779931e-02,-3.551336472877373966e-03,1.418133378028869629e-01
-4.402638843057192775e-01,-4.481404500528795576e-01,-2.985181154052004571e-01,6.095447165426465426e-03,-2.268369184178690642e-02,-1.469540368932174303e-02,1.535361558198928833e-01
-3.870515035787418512e-01,-4.251679069468508043e-01,-5.078378418127125205e-01,8.261254310359800179e-02,2.976140849047279047e-03,9.092386088547295409e-03,1.794083118438720703e-01
-4.023122808402361805e-01,-4.191986791768211318e-01,-4.044902104930362952e-01,-9.396277888729833837e-04,-8.601120609083168092e-04,2.072159243325362964e-03,1.645800843834877014e-02
-2.667875154509349311e-01,-4.307855712244375024e-01,-5.566054486638326582e-01,1.129579617412550113e-01,6.065627863666643582e-02,-1.168885901801681873e-03,3.356789648532867432e-01
-3.085944769597003257e-01,-3.853143104573969469e-01,-4.664479225681277264e-01,1.143014285033034649e-01,4.366204492312530938e-02,3.463419494908134139e-02,2.592398524284362793e-01
-4.680617702781363354e-01,-3.488768286460282031e-01,-4.309757603963546013e-01,1.218630898698809355e-02,-9.583260515166445656e-03,5.380245690767586353e-02,1.434066891670227051e-01
-4.387763512520718168e-01,-3.747692433019867986e-01,-4.008465846438428737e-01,-2.492785465075246943e-03,-1.221744765588052024e-03,3.309466682941744620e-02,8.010426163673400879e-02
-4.532488687316824638e-01,-3.899425794648609389e-01,-4.101663322299396452e-01,-1.138515726248102294e-02,-7.067893377862181220e-03,4.734367173213090141e-02,1.019774302840232849e-01
-4.443574538668629281e-01,-3.534256460017894397e-01,-4.221571668881607953e-01,-3.584381979171909205e-02,-1.906012725210230740e-02,3.768514321783383858e-02,1.262831985950469971e-01
-4.544078120505418705e-01,-3.740125716455200422e-01,-4.335715610629615746e-01,-1.891372468112972882e-02,-1.024142073011004815e-02,2.821698442043455921e-02,9.486226737499237061e-02
-4.504820167872916059e-01,-3.749913027394735088e-01,-4.195814711256836693e-01,-1.627721607304289525e-02,-3.618293115092220767e-03,2.803084312618749074e-02,8.667347580194473267e-02
-4.524703844362935046e-01,-3.788566395463893732e-01,-4.038257616394670402e-01,2.451097278143303266e-03,-3.260705777088743641e-03,3.453769301680056913e-02,8.850337564945220947e-02
-4.175752739362522115e-01,-4.116013028871574053e-01,-3.745583200992999573e-01,-1.245947763669828096e-02,-2.129535828954647048e-02,2.301692844374223293e-02,7.102601230144500732e-02
-4.427629315898942708e-01,-4.070193643025287744e-01,-3.808540324162958401e-01,-8.466284265208567916e-03,-2.003451359155018763e-02,2.707172748337760559e-02,8.071731030941009521e-02
-4.468840066512532183e-01,-4.233511502614626942e-01,-3.919445908164441716e-01,-1.022093857729218687e-02,-2.001865515172678717e-02,3.876167906044705735e-02,9.111694991588592529e-02
-4.383261095866914925e-01,-4.004607390100780040e-01,-3.225858455734217367e-01,-1.828003535895342258e-02,-2.379499819422695520e-02,7.127406519888537795e-02,1.684877127408981323e-01
-4.364007886563631144e-01,-3.399146885262775419e-01,-4.403743857402583339e-01,-2.164740563213488067e-02,4.731836852119867404e-03,-1.584937350407835538e-02,1.092490851879119873e-01
-4.217182636770097082e-01,-4.300669231903888612e-01,-3.847388255070963714e-01,-1.406174420037534060e-02,-2.126437841813343110e-02,3.361427976469108514e-02,8.417473733425140381e-02
-4.162372980848228488e-01,-4.322524965702135291e-01,-3.382260525959822628e-01,-2.173646983234404917e-02,-4.305087394027987124e-02,3.888037510477682090e-02,1.382179856300354004e-01
-4.011072742359824694e-01,-4.315933007524476173e-01,-4.165253223886676293e-01,1.575184833526396821e-02,-2.899836030048123792e-02,-1.183878769035969468e-02,6.621651351451873779e-02
-4.313244348230952374e-01,-3.697419706727856359e-01,-4.254419414867736671e-01,-1.039130285035971997e-02,8.606256757896888973e-03,-2.445875030425171889e-02,7.619433850049972534e-02
-4.133731919250580034e-01,-4.316204333199322729e-01,-4.018777355586767297e-01,1.183446484600014260e-02,-2.422290550886318367e-02,-1.404112548463183792e-02,5.870892852544784546e-02
-3.886991132911912783e-01,-4.329132473652070323e-01,-3.708727846848555165e-01,2.882719448513852700e-02,-4.749834033062850375e-02,-3.203746395548499187e-02,1.241021305322647095e-01
-4.279825163831918466e-01,-3.984401103427724355e-01,-4.113583031297267101e-01,-1.469066848317734063e-02,1.576057649318846760e-02,-1.189531075209445884e-02,4.975066706538200378e-02
-4.078266807906446023e-01,-4.212471327005360977e-01,-4.158199989859966417e-01,2.818161195806298536e-02,-2.479968699253668613e-02,-2.791282962124441366e-02,8.186445385217666626e-02
-4.114114991687181089e-01,-4.161296534297768135e-01,-4.026803237919846512e-01,1.523616949619041941e-02,-2.293935075678612059e-02,-1.744859276770645978e-02,5.768980458378791809e-02
-3.964750718391937823e-01,-4.181028331916245566e-01,-3.878065164567750522e-01,3.629942097268627765e-02,-3.749578352138363546e-02,-4.348734482240332322e-02,1.207252144813537598e-01
-3.480499195545392332e-01,-3.991164455727558846e-01,-4.929750605455264223e-01,-6.532911134960052435e-02,3.660609324080377983e-03,-1.654438188990223560e-02,1.728447079658508301e-01
-3.850117231482323987e-01,-3.999104654641355561e-01,-4.571505567072000065e-01,-6.996765285638315013e-02,3.238604646342677779e-02,-1.305168905824520900e-02,1.506493687629699707e-01
-4.204792265666665863e-01,-4.057209947965315644e-01,-4.049491609746854737e-01,8.129870915195244220e-04,-8.089521895669516977e-04,1.115591154302566417e-04,1.528971642255783081e-02
-4.145727167582056172e-01,-3.955432131362934811e-01,-4.576474212641051253e-01,-4.034296262233168229e-02,-5.680279955967512283e-04,-3.238225936474515947e-03,8.917585015296936035e-02
-4.046834761631761257e-01,-3.949651525898683624e-01,-4.423133784486562026e-01,-3.990239619504936525e-02,8.936735837297357654e-03,-5.635415542072992785e-04,8.302593976259231567e-02
-3.714888841598065206e-01,-3.930289183681199838e-01,-4.367459755161673396e-01,-3.084497836869568022e-02,3.590807055263518267e-03,-3.976029042169478694e-03,7.910225540399551392e-02
-3.712105106647983765e-01,-3.934076572850617737e-01,-4.369098575731164558e-01,-3.003627898244795938e-02,4.763882463095329978e-03,-4.264971546887734097e-03,7.861276715993881226e-02
-3.732511022897799791e-01,-4.230527032047055602e-01,-4.420875147094880386e-01,-3.838039450448312018e-02,4.145121448791287862e-03,-4.775968497062538926e-03,9.126678854227066040e-02
-3.768838862933209244e-01,-4.019670642772835145e-01,-4.510167346884775830e-01,-2.677323755504012331e-02,9.757791321585197741e-03,-1.320930239595289636e-02,8.499927818775177002e-02
-4.386715172761209147e-01,-4.216485733669104174e-01,-3.737660515107324999e-01,9.440317794232579163e-03,-1.805086106091932305e-02,-2.888045016502909651e-02,8.452643454074859619e-02
-4.248143494500433714e-01,-3.981533394360886047e-01,-3.827685430564207736e-01,8.462024976996669612e-03,-1.160786544447000267e-02,-1.966568391219994383e-02,5.600837618112564087e-02
-4.253378486386154567e-01,-3.990691616621077076e-01,-3.846452725260593453e-01,8.692572632269766897e-03,-9.291918317426175328e-03,-2.280200661966481218e-02,5.764100328087806702e-02
-4.469287028723603061e-01,-3.797138242332142033e-01,-3.848942101981960850e-01,1.962558355995942111e-02,-2.241219751881000019e-02,-5.405697383686804136e-02,1.250014305114746094e-01
-4.358340899335899632e-01,-4.055457530927204512e-01,-3.884672922603047418e-01,1.458759128839825191e-02,-1.624907967226980540e-02,-1.955648466278032266e-02,6.560636311769485474e-02
-4.399981303721673953e-01,-4.047348079074430394e-01,-4.128796623529848442e-01,8.567707293965168974e-03,-7.288587487899465638e-03,-2.430328527447482567e-02,5.633970350027084351e-02
-4.032475502868014816e-01,-4.269935084640998912e-01,-4.029205781588781066e-01,-1.149093751680053607e-03,-1.507442315780176210e-03,1.860339130579871485e-03,2.434959262609481812e-02
-4.419398399294172664e-01,-3.970735365276605866e-01,-4.060915566095207874e-01,1.151016746727399030e-02,-7.010412416218072748e-03,-3.112339938246819898e-02,7.169792056083679199e-02
-4.354880937483731618e-01,-4.765856591943746778e-01,-3.437794182261824094e-01,-2.348399735698166162e-03,4.124888652846345205e-02,-5.092008279250479809e-04,1.378050446510314941e-01
-4.335259866260156025e-01,-4.651562711268605321e-01,-3.262535365665807374e-01,-8.508959994686950828e-03,3.910710279320371574e-02,-3.279720579253679602e-02,1.547035425901412964e-01
-4.429078443577519897e-01,-4.443112839207791209e-01,-3.549106281385858708e-01,-1.753490239643196863e-02,4.749232508891990806e-02,-3.241292113582501522e-02,1.367835998535156250e-01
-4.140904118255730459e-01,-4.092810853084648537e-01,-4.105395264315641612e-01,9.331939876658322790e-04,-1.501633495081238206e-03,2.002051492088164839e-04,5.306463222950696945e-03
-4.154527293199761218e-01,-4.364341161080352305e-01,-3.494698690870550739e-01,-9.862634104456136780e-03,4.331372048271524278e-02,-3.327677197538772558e-02,1.241791024804115295e-01
-4.157684995957345309e-01,-4.315997984722039216e-01,-3.582268967397383985e-01,-8.537743729149224053e-03,3.018795007434265862e-02,-1.990773208724788690e-02,9.281267970800399780e-02
-4.283681919901434765e-01,-4.444642507811419896e-01,-3.164415235068909205e-01,-5.793998978348194849e-03,4.025253265959750915e-02,-2.300062282720211418e-02,1.453851312398910522e-01
-3.973703256198891087e-01,-4.375064562724986783e-01,-3.316195408665204569e-01,-1.798505058763224390e-02,-6.314328447314004888e-02,2.259582725436606182e-02,1.517774015665054321e-01
-3.715738424974455723e-01,-4.428642483576849531e-01,-3.602949384281464162e-01,-7.900464994938443536e-03,-6.597445239032537212e-02,8.257187496823421846e-03,1.395109146833419800e-01
-4.029502366555038906e-01,-4.504170807609113591e-01,-4.128155809317110014e-01,-2.053430681975318070e-02,-3.401651833354148863e-02,1.902026156551649139e-02,8.777131885290145874e-02
-4.288751911000873163e-01,-4.529808933159293338e-01,-3.834206890455911232e-01,-1.255349850119733685e-02,-3.634584635267892883e-02,1.413054559781727615e-02,9.368969500064849854e-02
-4.057142322678194413e-01,-4.513929308007939567e-01,-4.059614715371278604e-01,-6.373318257308544475e-03,-3.828418818395860207e-02,4.351989068034686076e-03,8.155381679534912109e-02
-4.149200546963850988e-01,-4.172442888413975814e-01,-4.026743543051233831e-01,1.500505850888387942e-02,-7.905694824758474626e-03,-1.286998282720880522e-02,3.928976878523826599e-02
-4.053695318627470456e-01,-4.152451483781673947e-01,-4.071030257053662726e-01,9.542462073090989677e-03,-9.029794605956775050e-03,-1.574888024257547342e-02,3.667809441685676575e-02
-4.047197276651203768e-01,-4.138985619291233875e-01,-4.028077347831805488e-01,8.995107741944697102e-03,-7.976741820785789028e-03,-8.445481370164197379e-03,2.744186855852603912e-02
-4.009733256524092848e-01,-4.246729449065381745e-01,-4.001171569897458702e-01,7.762379661071998165e-03,-1.206611931099146190e-02,-4.809095457662099400e-03,3.563166409730911255e-02
-4.309573525791325910e-01,-3.537231758111008539e-01,-4.112131958397334253e-01,-3.025265664960576431e-02,2.465950864012415172e-02,-5.682063260913484959e-02,1.381510794162750244e-01
-4.034564656386703807e-01,-4.278013821586643672e-01,-3.900729488860311678e-01,1.339558068597383397e-02,-3.035196185992764667e-02,-1.519968977807330084e-02,7.136354595422744751e-02
-4.379740927765400360e-01,-4.230665508068897074e-01,-3.666687158860614248e-01,-2.093301762686372927e-02,-2.469764901469322441e-02,2.266850218135263093e-02,9.449752420186996460e-02
-4.220337410458228078e-01,-4.087740705020747600e-01,-3.833986207438162541e-01,-1.713933157176756455e-02,-1.707719815923870732e-02,2.254654706407085291e-02,6.661385297775268555e-02
-4.439065306025399837e-01,-4.063047518305377692e-01,-3.863511407867424863e-01,-7.309748648059041787e-03,-1.991241184370553391e-02,2.797641870101773981e-02,7.912130653858184814e-02
-4.370665525204892599e-01,-4.284252103404044276e-01,-3.845290971457405726e-01,-7.472984403551051306e-03,-9.907647881572268639e-03,1.860892682428356287e-02,6.230377405881881714e-02
-4.297088382674854601e-01,-4.324001944255453922e-01,-3.760827650648728149e-01,2.365905417998058827e-02,6.259162666313830559e-02,2.874629333462970157e-02,1.376181691884994507e-01
-4.244572941339972982e-01,-4.228803789321808337e-01,-3.916000221203512210e-01,-6.901267220480088171e-03,-1.516838552453635310e-02,1.279183373224652108e-02,4.852101579308509827e-02
-4.294633239422338544e-01,-4.301640733855867649e-01,-3.848154183954743401e-01,-2.399215886362288802e-03,-1.136798125991049339e-02,1.278346813216430476e-02,5.404096841812133789e-02
-4.246597609029661990e-01,-4.309497367153398706e-01,-3.873161329669089215e-01,-1.640851660950237018e-02,-1.911790456695752066e-02,2.910989893278877194e-02,7.820077240467071533e-02
-4.031990423371986654e-01,-4.066958907225355357e-01,-4.283050029487334709e-01,9.141735544435974827e-04,-9.364561271888062607e-04,-2.448285908361162028e-03,2.403883822262287140e-02
-3.676828170090808978e-01,-3.727648919059687316e-01,-4.474295399847647570e-01,-5.999567191466839700e-02,8.399429358417861285e-03,-5.797807691023709915e-03,1.307326555252075195e-01
-3.898440333243357592e-01,-3.759184905869767390e-01,-4.355515313773770658e-01,-2.952915176374681580e-02,-3.363700286030926658e-03,1.741659997045168868e-03,7.468971610069274902e-02
-3.987670074799194997e-01,-3.932999229427964205e-01,-4.389523351207861301e-01,-1.419745264377697547e-02,-5.028475735080605025e-03,1.875901575711396601e-04,5.044909566640853882e-02
-4.000541203336419604e-01,-3.785651562448434926e-01,-4.364806707490716531e-01,-2.580194361271803336e-02,8.511456467615559698e-03,-3.764826488339664476e-03,6.948751956224441528e-02
-3.929152587645038386e-01,-3.756141636850815479e-01,-4.353941100992610447e-01,-3.034789060724050330e-02,-1.510153463205248002e-03,1.043140171636010218e-03,7.491195201873779297e-02
-3.913825380272624166e-01,-3.937391568057733715e-01,-4.342551593163913037e-01,-1.507308878393237572e-02,3.722773265053432729e-03,-1.956531308134966396e-03,4.977184161543846130e-02
-4.375444107156166718e-01,-4.415226576658651814e-01,-3.599157015155577399e-01,5.932994039921781620e-03,1.550099193684020132e-02,2.298436459201728607e-02,9.360639005899429321e-02
-4.332859383079051274e-01,-3.713933577276633535e-01,-4.333958646885415211e-01,3.527809760854504206e-03,-3.701913122570764120e-03,-2.705918101340772011e-03,6.275286525487899780e-02
-4.433948004290659273e-01,-4.138023344683943727e-01,-3.440927759800325725e-01,-9.629002764019635105e-03,1.749762342296034417e-02,-5.807316970785472710e-02,1.382466852664947510e-01
-4.242173725234040238e-01,-3.952637554494790595e-01,-3.788360182911227336e-01,-8.172733592682820958e-03,8.473616592865770153e-03,-2.646075478155141339e-02,6.403223425149917603e-02
-4.396594836772236281e-01,-4.146943118753463886e-01,-4.121730743124416563e-01,-1.660756074313671921e-02,1.336659976188779055e-02,-2.361011464422379733e-02,6.105983257293701172e-02
-4.378643622504956867e-01,-3.963264336742850502e-01,-3.751660839005854786e-01,-2.375044221894904127e-03,1.778895148541062435e-03,-2.629963871916985926e-02,7.178819924592971802e-02
-4.343183713523049994e-01,-4.107284893552768379e-01,-3.826615899849505897e-01,-1.697727133592733667e-02,1.023750430548419840e-02,-2.363904712282068055e-02,6.972692906856536865e-02
-4.313384528787216343e-01,-3.997776748674771174e-01,-3.848666417385218086e-01,-2.387772410586214145e-02,2.208565313993312434e-02,-3.701826358897222086e-02,9.473038464784622192e-02
-4.065316599320860091e-01,-4.563820209131994599e-01,-2.796275159483636585e-01,3.863289572680871087e-02,1.051160786311300110e-01,5.891915177828555700e-02,2.701036930084228516e-01
-4.351948176825249925e-01,-3.914367679105845710e-01,-3.819822837320301367e-01,-1.362674777476799264e-02,9.842677047548202551e-03,-4.195402569178961760e-02,9.244449436664581299e-02
-3.973834369135991751e-01,-4.379011039392312066e-01,-4.133697897378273423e-01,6.779909208075265113e-03,1.445245554357012761e-02,4.250904884537725845e-03,4.547799006104469299e-02
-3.944133302854186951e-01,-4.289139111633551993e-01,-4.137886899906362825e-01,8.561250910328686847e-03,1.363030734702688589e-02,1.237258290850492062e-02,4.619217291474342346e-02
-4.676914935780491778e-01,-2.904681416716670128e-01,-5.673731651694036149e-01,1.308938889232325042e-01,-8.555470326290971761e-02,-6.388605619593254459e-02,3.802804350852966309e-01
-4.124792035359198250e-01,-4.101698827508912237e-01,-4.158222658318672660e-01,-4.600634812498555562e-03,-3.989622550072745126e-03,4.574991591668442145e-03,1.408082619309425354e-02
-4.079502185891685229e-01,-4.100273345486278309e-01,-4.149998755561274955e-01,-2.858307884476434402e-03,-4.340810719550133520e-03,3.034376890470846886e-03,1.216672267764806747e-02
-4.081217841083248921e-01,-4.101957348475910314e-01,-4.075379040376013173e-01,-5.600968217222633549e-03,-3.624838026355964304e-03,6.043306062452725308e-03,1.577810756862163544e-02
-4.918685450507551682e-01,-2.906392681667587796e-01,-3.130707302515037260e-01,-1.873922721779306896e-02,-3.644582336995363936e-02,1.568941127893914711e-01,3.396589159965515137e-01
-4.160124588064280093e-01,-4.130546834704370007e-01,-4.026606392738605877e-01,-7.468281856982576274e-03,-6.579658804224677686e-03,7.827767426642460308e-03,2.507092058658599854e-02
-4.123212267081348137e-01,-4.052084372288486391e-01,-4.003459987172535706e-01,-6.004883046120935118e-03,-7.725636139012267978e-03,6.250446950275282722e-03,2.265517786145210266e-02
-4.038269387871109561e-01,-4.268730992662043144e-01,-4.034863903781648609e-01,-3.347171857653052657e-04,-2.404707736251240110e-04,1.671317421986525005e-03,2.340895868837833405e-02
-4.171540572526809543e-01,-4.146748431226282006e-01,-4.171171857693379836e-01,-8.417704776733744843e-03,-8.402573998732856819e-03,9.484940533396393758e-03,2.646378241479396820e-02
-4.180995856278276745e-01,-4.026253808314248506e-01,-4.102837521498201023e-01,-6.253023089879451886e-03,-8.192474276527928964e-03,7.396102441085408534e-03,2.573620527982711792e-02
-4.183907085738349796e-01,-4.171323355967520019e-01,-4.122014568708192161e-01,-7.840403836338417920e-03,-9.044201129620954571e-03,9.088865875964569768e-03,2.664081379771232605e-02
-4.104535605897256523e-01,-4.138379480970791335e-01,-4.046082965261179609e-01,-6.213270004258229957e-03,-5.799659903007472160e-03,5.247000331929542807e-03,1.909762248396873474e-02
-4.132523320935211908e-01,-4.171480979535288625e-01,-4.091140055326141223e-01,-4.578606083183728824e-03,-3.633764685784427340e-03,2.780638191656581437e-03,1.319561153650283813e-02
-4.140045206663156008e-01,-4.062548799243365649e-01,-4.092095903962819636e-01,-1.676603621508245077e-03,-3.361684649252388597e-03,2.388732952898174177e-03,1.026368420571088791e-02
-4.115034832060039394e-01,-4.106088684462081972e-01,-4.092433953583355932e-01,-2.301281202887803419e-03,-2.940984464958902329e-03,3.049028238691867121e-03,8.579743094742298126e-03
-4.117800093138019313e-01,-4.110310147719939966e-01,-4.126315937933049405e-01,-3.855265288521032667e-03,-3.686778851465257606e-03,2.741199600956053736e-03,1.048011332750320435e-02
-4.611063265302696723e-01,-4.111872749388479908e-01,-4.067892281090829121e-01,5.537012717771992026e-03,1.735084831230429342e-03,3.511813149671638712e-02,8.081866800785064697e-02
-4.163602098156440334e-01,-3.707660883912796690e-01,-4.392309797771413171e-01,-4.933976608934687730e-02,4.648930192271436695e-02,-3.141540705744075290e-02,1.428021490573883057e-01
-4.075404144143516816e-01,-3.876058826769515075e-01,-4.246523937030650675e-01,-2.401722563324002954e-02,2.362258987152596190e-02,-1.458646850000768630e-02,7.123328745365142822e-02
-4.022785534623073422e-01,-4.143909051924602460e-01,-4.189675208941776585e-01,-2.630957707783856264e-02,1.957368231259053182e-02,-1.759689281417771423e-02,6.616652011871337891e-02
-3.986992442251434121e-01,-4.109596728395827903e-01,-4.546900116642857981e-01,-3.601414315788799281e-02,1.241797038698796291e-02,-1.216933497930217621e-02,8.600445091724395752e-02
-3.857118844037191185e-01,-3.658522197349889371e-01,-4.357735721384637939e-01,-5.151364528877205862e-02,2.618016134183362431e-02,-2.690681183818244629e-02,1.268222630023956299e-01
-4.144367859735115234e-01,-4.221897909105744584e-01,-4.324454683351517392e-01,2.019043941956247951e-02,-2.161280940527592065e-02,-2.202046458474077317e-02,6.575564295053482056e-02
-4.092786761126987471e-01,-3.894137061096468733e-01,-4.275464586808283007e-01,2.739578512724558795e-02,-1.674330558310477973e-02,-1.448007016337537166e-02,6.937461346387863159e-02
-4.149669709847164101e-01,-3.981839309176442576e-01,-4.310996083098740939e-01,3.325090573622525858e-02,-1.466888629966475906e-02,-1.934392853327474016e-02,7.679613679647445679e-02
-3.382770036908785416e-01,-4.054335575834092098e-01,-4.445694347784453493e-01,5.962183160618458183e-02,-2.847648153310512742e-02,-1.781885627896378360e-02,1.507295668125152588e-01
-4.172716778690237494e-01,-3.960892867611986445e-01,-4.490415567102117311e-01,3.409586139853967857e-02,-1.470534514571001164e-02,-1.719524132906090352e-02,8.458329737186431885e-02
-3.697962692329092582e-01,-4.196009292038180294e-01,-4.507022065303045166e-01,7.607955528092205655e-02,-1.625268566551751892e-02,-2.163695837400776700e-02,1.567099243402481079e-01
-3.890472930046051103e-01,-4.243406255930830540e-01,-4.378996783908490897e-01,3.866190298335107911e-02,-2.356061116452874346e-02,-1.133662544013766364e-02,9.188636392354965210e-02
-4.308378160708501992e-01,-3.255762467895069179e-01,-4.103160666587888916e-01,-8.927298355068562230e-02,-6.513824898198769531e-02,9.697254847687206136e-02,2.723783850669860840e-01
-3.585941761399856764e-01,-3.682510510428147477e-01,-4.437715607624825864e-01,6.391497890826378092e-02,-1.725760861987658129e-02,-1.354621919255214781e-02,1.422154903411865234e-01
-4.753067819864200683e-01,-4.264798977491658927e-01,-3.674603411783979312e-01,3.892719669184131065e-03,1.281638264322405157e-02,5.127574873163553981e-02,1.310532689094543457e-01
-4.896992817939903597e-01,-4.386133682663310718e-01,-3.657580505828893491e-01,1.430685573021143325e-02,5.850198064803970380e-03,5.497218323610635060e-02,1.463629156351089478e-01
-4.528066126167528127e-01,-4.271970583777795483e-01,-3.773968780063081674e-01,1.151603955636957329e-03,-7.545867237607367965e-04,2.510504685694465304e-02,7.942131161689758301e-02
-4.460276847281889889e-01,-4.088447578896746148e-01,-3.531182646865750341e-01,-1.361051812802173714e-04,-2.309169290824936421e-03,3.952406520800350737e-02,1.061253696680068970e-01
-4.594683669627864786e-01,-4.215046292164198460e-01,-3.565017834466810420e-01,9.368838673811653167e-03,-1.695602310345808343e-03,3.878082928582170241e-02,1.136581525206565857e-01
-4.500713141837255904e-01,-4.216306508115768015e-01,-3.588388609463675216e-01,-3.117243024505987094e-03,4.685446630534762652e-03,5.559244163365196362e-02,1.261114180088043213e-01
-4.648171534901026636e-01,-4.156411580581327314e-01,-3.562213998237714341e-01,-1.099245396501961555e-02,-3.977007873702431001e-03,4.022571581383274641e-02,1.188919171690940857e-01
-4.678371429779582535e-01,-4.426498697014099037e-01,-3.587419125668383502e-01,-1.180468951652593329e-02,-1.090575490942973132e-02,6.620883233746108210e-02,1.539936512708663940e-01
-4.348552208068007796e-01,-4.107924183696369247e-01,-4.142387772788918565e-01,1.065286362645192358e-02,-1.597967965078205682e-02,-2.323610611523055716e-02,5.687018111348152161e-02
-4.190337250721985485e-01,-3.913094014322789360e-01,-4.138125298859605672e-01,2.378120757209616770e-02,-1.669948014544646309e-02,-2.613441733172910952e-02,7.234240323305130005e-02
-4.215009383374974661e-01,-4.115050996084793633e-01,-4.030375391022534837e-01,1.183147416137004734e-02,-1.078977145593710066e-02,-1.145800374280793975e-02,3.767390549182891846e-02
-4.134820632478206637e-01,-4.096797166502084697e-01,-4.191179661921408117e-01,-8.661844306552569928e-03,6.129446491257278112e-03,-4.768157323850311449e-03,2.176349796354770660e-02
-4.217246549675218170e-01,-4.058114178035303610e-01,-4.105651585420661553e-01,1.093983581667109031e-02,-1.175483452409658257e-02,-1.043392536800034909e-02,3.606037423014640808e-02
-4.049821408260124156e-01,-4.170155639078397258e-01,-4.108110335429113191e-01,2.846281643317327345e-02,-1.883675831777945411e-02,-3.058477147191580869e-02,8.006115257740020752e-02
-3.994650407651940682e-01,-4.263600044105799736e-01,-4.026469581708327361e-01,-1.488913878854623537e-03,-4.536737769516902344e-03,2.523816431165328174e-03,2.711810544133186340e-02
-4.037783480963226257e-01,-4.241229309003033965e-01,-4.050641756084150114e-01,-9.040873388628061207e-04,5.388630388939391700e-04,-2.101637504329406311e-03,2.014868892729282379e-02
-4.329320458137200789e-01,-4.121211829516373548e-01,-4.108234329323562362e-01,2.767807476407195197e-02,-2.678528901614605356e-02,-2.586257398903653651e-02,8.318043500185012817e-02
-4.205951822255605266e-01,-4.379496551688650263e-01,-4.251262169426880400e-01,-2.799841467684107202e-02,3.397394707569738326e-02,-2.872786045227301854e-02,9.237621724605560303e-02
-3.953728960815866555e-01,-4.237719281968205243e-01,-3.840690082605580091e-01,-1.840082419083477472e-02,3.380851230133914698e-02,-2.252137385133549941e-02,8.498091995716094971e-02
-4.155476108310491301e-01,-4.273010264836983318e-01,-3.885835817025148908e-01,-1.812273650887687854e-02,3.804242145366858174e-02,-2.287187691819836041e-02,8.988029509782791138e-02
-4.196875450870609647e-01,-4.320452308208661552e-01,-3.926390811433225214e-01,-9.699656184770004061e-03,2.093551433445801219e-02,-1.379070153124832034e-02,5.819171667098999023e-02
-4.170759401131903243e-01,-4.200900419607577763e-01,-4.005625260086806971e-01,-1.408474952618646824e-02,1.821878050105266503e-02,-9.064485701430684966e-03,4.657207056879997253e-02
-3.785045421584853909e-01,-4.550717584714937258e-01,-4.209096492562968694e-01,1.190959072076839403e-02,3.943693100997791579e-02,1.027411360743421022e-02,9.910546243190765381e-02
-3.727081150341262084e-01,-4.557810428115661172e-01,-4.286099555697403529e-01,5.755900793938411968e-03,2.619788393205246119e-02,8.191617494279525291e-03,8.798797428607940674e-02
-3.986680899680333234e-01,-4.757899760349555418e-01,-3.664336712704811538e-01,2.462287696265562376e-02,6.095951607085887264e-02,4.434398161256566939e-02,1.683420091867446899e-01
-3.388950297602190131e-01,-4.753064133022713023e-01,-3.965638440155399014e-01,3.836601185389673652e-02,7.210626990369248257e-02,1.150103787957756397e-02,1.856817007064819336e-01
-3.542339826558132954e-01,-4.511701325991329670e-01,-4.124136558314309697e-01,1.032562151510267416e-02,4.816594659168533382e-02,8.761623357838223963e-03,1.210446506738662720e-01
-4.152080516787890474e-01,-4.579818610278835189e-01,-4.030011521422905418e-01,1.026221166479562158e-02,3.796319067104564349e-02,5.388271573316278165e-03,8.501408249139785767e-02
-3.983338776465523146e-01,-4.618712190018378072e-01,-3.734082925269695541e-01,2.257872627768580526e-02,7.641413159175791669e-02,-2.038511993358337114e-04,1.590247303247451782e-01
-4.122487944358687040e-01,-4.559273295409352333e-01,-3.982201080809917304e-01,9.137556838886971844e-03,3.466592515777833228e-02,7.782843313498133929e-03,8.218730241060256958e-02
-4.471630202913186025e-01,-4.440156119531906143e-01,-3.068007698840918840e-01,-6.316489822991812504e-03,-1.856522744362205934e-02,3.494331387844457071e-02,1.551982313394546509e-01
-4.253835493978563309e-01,-3.962669779762195144e-01,-4.139224617188012045e-01,1.952934962523154155e-02,1.215615709665325735e-02,2.220988939933716405e-02,6.093245744705200195e-02
-4.278496518218026234e-01,-4.077216028487042898e-01,-3.962532105639294810e-01,1.128896992858640161e-02,1.984543839549875524e-02,2.343801753242620925e-02,6.308222562074661255e-02
-4.173438415983454219e-01,-4.162185892510912311e-01,-3.887369681701980939e-01,1.345722018003937120e-02,1.547542984390025238e-02,1.786902479932225840e-02,5.483696609735488892e-02
-4.226557849798515676e-01,-4.258909727908568588e-01,-3.970996812000190945e-01,1.837372706733179581e-02,2.296022703027098683e-02,2.995856844170695019e-02,7.767306268215179443e-02
-4.161844728406945415e-01,-4.110799722331900941e-01,-3.867610384835901138e-01,1.292740146429993339e-02,1.563796676392168600e-02,1.564243474935847825e-02,5.206391215324401855e-02
-4.633131955500255361e-01,-3.374968912042783931e-01,-4.343934930211823531e-01,-4.307332387070207658e-02,-2.004838923640990533e-02,7.760080186897594379e-02,1.945891082286834717e-01
-4.593932932162687055e-01,-3.942087056411289758e-01,-4.013458024250612377e-01,2.942293201099334789e-04,9.765841776444073898e-04,4.380235886822020364e-02,9.794794768095016479e-02
-4.207024096958138504e-01,-3.607936069926840350e-01,-4.439565516392494082e-01,2.741052491498539162e-02,5.540581844587190918e-04,-5.506797535934540577e-03,8.870656043291091919e-02
-4.442097386244671098e-01,-3.970205748373108467e-01,-4.098209499194132577e-01,-2.156563500609919200e-03,-3.429509864745881962e-03,1.705354323762666574e-02,5.204166471958160400e-02
-4.330157959117082456e-01,-3.569941540674103075e-01,-4.084338215470415534e-01,1.474173847412610892e-02,8.863468900592915561e-03,2.607476629572779564e-02,8.626773208379745483e-02
-4.299680836417669738e-01,-3.570483056140767997e-01,-4.078344736358976430e-01,9.969432906424748053e-03,8.338009389131031610e-03,2.688863334548246414e-02,8.287909626960754395e-02
-4.286515585196118416e-01,-3.859618168511173564e-01,-3.944282510287481225e-01,1.390345022739791596e-02,1.310363846881806328e-02,2.671468922408542016e-02,6.905593723058700562e-02
-4.452519136410448275e-01,-3.716518089155471660e-01,-3.673187596734192040e-01,1.067897136532868115e-02,8.049906486470866096e-03,6.695233798461092123e-02,1.404956728219985962e-01
-4.543882708952480254e-01,-3.919018625785647414e-01,-4.017447771142352297e-01,6.169436197670361346e-03,4.948534491384553799e-03,4.001865569531018463e-02,9.153421968221664429e-02
-4.234881077921526793e-01,-3.856295456254949516e-01,-3.980351570165970299e-01,1.673662927892645425e-02,9.773630396537872148e-03,2.163743324022167694e-02,6.040664389729499817e-02
-4.306305355383435729e-01,-3.786750638511806599e-01,-4.484470247351199923e-01,2.056785868702454972e-02,-4.042474309803423260e-03,4.594424540296265791e-03,7.296522706747055054e-02
-4.488049589869285705e-01,-3.640935947268291173e-01,-4.161642060592939951e-01,1.450458871302264885e-03,1.783900569284151139e-02,3.034536744950426176e-02,9.591619670391082764e-02
-4.518473467556911594e-01,-3.946596891187716949e-01,-4.005201232362668451e-01,-2.241457589365023883e-03,2.526519416678453533e-03,4.188445179792069095e-02,9.092179685831069946e-02
-4.576364035187224788e-01,-4.081985122769319907e-01,-4.020802611804156212e-01,-2.206612180305291254e-03,5.253129611653856515e-03,2.818307253779189087e-02,7.255522906780242920e-02
-4.565806183010380770e-01,-3.810886994494732116e-01,-4.258821899424558577e-01,-8.254679275716528611e-03,-3.461645115280416029e-03,8.055730737520855333e-02,1.550249904394149780e-01
-4.537430199286987542e-01,-3.699650108505145307e-01,-3.606008935664026804e-01,-1.012518024377605588e-02,-6.145942771490937699e-03,6.805219258830709494e-02,1.490138471126556396e-01
-4.919965274038649583e-01,-3.858288169791156963e-01,-4.383613150455309970e-01,9.174211919493404851e-03,9.043466107894714001e-03,8.275609046959464532e-02,1.717485189437866211e-01
-4.712385809973485551e-01,-3.816835196499240301e-01,-4.065399219062268976e-01,7.713108871267341030e-03,3.032013222144412656e-02,7.320762059436497493e-02,1.594565957784652710e-01
-4.171931408753966619e-01,-4.103364573371560686e-01,-3.966505016201750111e-01,2.080616445009347490e-02,-2.869992418325787234e-02,-2.182128435542476236e-02,7.433983683586120605e-02
-4.048421019970828705e-01,-4.402093878988386222e-01,-4.008115236472398202e-01,1.395778945164493669e-02,-3.104719201340255461e-02,-2.384669414848653024e-02,8.119039237499237061e-02
-3.923369229557232551e-01,-3.916602933614583559e-01,-4.303920299234991198e-01,1.329517173800979710e-02,2.940869114435011849e-03,3.784559994128536276e-03,4.553677514195442200e-02
-4.207920991010853928e-01,-4.006770187213025691e-01,-4.142491565849028556e-01,1.928692263625897407e-02,-9.978220269098409673e-03,-1.768681115159281142e-02,5.166174098849296570e-02
-4.108313676338127829e-01,-4.156811885291215036e-01,-4.132573992315802247e-01,6.222728211065376401e-03,-7.433714614255437433e-03,-4.938677472756636613e-03,1.930698193609714508e-02
-4.110930117215517710e-01,-4.151026579787192028e-01,-4.083003197962444264e-01,6.042378846949820331e-03,-3.359585886376384185e-03,-4.125559692911884985e-03,1.515012513846158981e-02
-4.366461352725991563e-01,-3.310471055176376076e-01,-4.516552506275771095e-01,6.949694025588176727e-02,7.096814812132162635e-03,1.024232801664666861e-02,1.670828014612197876e-01
-4.146397708018835782e-01,-4.148897398281913285e-01,-3.996785088929760699e-01,9.208087477984575747e-03,-9.515627314387724647e-03,-8.916268564976927852e-03,3.149840235710144043e-02
-4.039227082294611915e-01,-4.296411186660303860e-01,-4.013334514990030133e-01,-1.134816862865211003e-03,-1.414619669529953170e-03,4.857580811667730979e-04,2.730031497776508331e-02
-4.269883912275136417e-01,-4.169178128267776451e-01,-3.774960604830934763e-01,3.197598861900131928e-02,-5.667457300566484946e-02,-4.758777987130557302e-02,1.467981487512588501e-01
-4.241554019486027949e-01,-3.996901769159766360e-01,-3.814170095465209687e-01,1.216713329323586799e-02,-1.169457451134344253e-02,-2.298466633827377092e-02,6.179647520184516907e-02
-4.216592412817106728e-01,-4.217987401311820150e-01,-3.702283095620527709e-01,1.749540045076222045e-02,-2.663889064738627840e-02,-2.612842110082268243e-02,8.802031725645065308e-02
-4.469789362823358148e-01,-4.036161895366714436e-01,-3.786745120758315819e-01,1.049115112233869884e-02,-5.187140731624342513e-03,-2.489220071671719575e-02,7.650968432426452637e-02
-4.291864406825046663e-01,-4.233785673143021233e-01,-3.576736983222372213e-01,1.194099762766021380e-02,-1.793637540270513059e-02,-2.632395972934553283e-02,9.057716280221939087e-02
-4.420571032225837915e-01,-4.208665889521582826e-01,-3.607927724978603479e-01,7.153874555293012263e-03,-1.800863619809043789e-02,-2.653308504789528635e-02,9.257093071937561035e-02
-3.459236543714208634e-01,-4.494785220515170598e-01,-4.573560765496409997e-01,3.492064893837369482e-04,3.602205613559021635e-02,-8.691939263645628855e-03,1.253842413425445557e-01
-3.333853541137639098e-01,-4.465315675825775044e-01,-4.362840098478649731e-01,2.942743783227045988e-03,1.974714942083981295e-02,2.195749432473779322e-03,1.138327643275260925e-01
-3.126597061179816617e-01,-4.475147946129972576e-01,-4.564764347828381696e-01,-5.741063926543176626e-03,2.590061963841975429e-02,-6.281865897815353504e-03,1.473245322704315186e-01
-2.895565127400880345e-01,-4.606093229382697829e-01,-4.337602624012839581e-01,-4.550791667752473318e-03,7.223561533776090560e-02,-9.674817601914869128e-03,2.034311145544052124e-01
-2.334212761714757889e-01,-4.453948578611819364e-01,-3.977972901801282157e-01,3.423469650177924511e-02,1.037778574315892793e-01,2.410730586699093292e-02,2.732726931571960449e-01
-3.113495641406452963e-01,-4.475286951278737435e-01,-4.587922921066517890e-01,6.840003776446850273e-03,2.592566383778298691e-02,8.654872557016069640e-03,1.502896845340728760e-01
-4.055301889048745778e-01,-4.067719497838612752e-01,-4.100978517300128412e-01,1.068450124692595267e-02,-1.101637547253969847e-02,-1.009151953524058294e-02,3.207502514123916626e-02
-4.130228462453701677e-01,-4.291843986624324092e-01,-4.358399743656616310e-01,3.272881916057165941e-02,-2.702148648801476483e-02,-1.949830846760969294e-02,8.341233432292938232e-02
-3.989069991274653004e-01,-4.284878913375549381e-01,-4.221741341371783585e-01,2.413582293059873124e-02,-3.111247163589572415e-02,-1.552821391268584955e-02,7.812217622995376587e-02
-4.858230394986779443e-01,-4.223396100977004908e-01,-3.774578579740247575e-01,-2.342765348560128802e-02,-3.666275610031592691e-02,7.588304565663331336e-02,1.784587204456329346e-01
-4.703993992159711812e-01,-4.303132177720417340e-01,-3.883550777118701669e-01,-4.033493033073062839e-02,-3.210726075641404109e-02,6.867049197791007253e-02,1.648319959640502930e-01
-4.679580798883281600e-01,-4.546197411804706046e-01,-3.599961855881732564e-01,-6.221460554251444924e-03,-2.719462270242137616e-02,3.987835925100332440e-02,1.322847753763198853e-01
-4.023599937996811260e-01,-4.273985109543658178e-01,-4.023993787371643593e-01,1.671984924795903759e-03,-1.103423277552779014e-03,-8.992199622209375151e-04,2.530627883970737457e-02
-4.766143507638822552e-01,-4.015784229807908834e-01,-2.385416014062132217e-01,-4.202751103960982587e-02,-6.171698796569487916e-02,1.342468354500926109e-01,3.394665718078613281e-01
-4.500987397739967810e-01,-3.227111386196612752e-01,-4.538353664866226489e-01,2.160202538148907336e-02,4.179474428835211128e-03,9.395416631960386983e-03,1.357745677232742310e-01
-3.839674668687728665e-01,-4.336636592152820491e-01,-3.941073107921067575e-01,-1.314866919420425162e-02,-2.992425602049627806e-02,1.078600563267314780e-02,7.498450577259063721e-02
-4.001540568321840241e-01,-4.302300393817133362e-01,-3.998019132970324074e-01,-5.641741672232613788e-03,-1.319530018677479710e-02,6.329606665996126945e-03,4.066088050603866577e-02
-3.835273467584905394e-01,-4.321284793568453964e-01,-4.054615177420602956e-01,-2.090509823894428493e-02,-2.343607668392235985e-02,1.449494680264482027e-02,7.325490564107894897e-02
-3.898035957652852268e-01,-4.291572044354938220e-01,-4.151339401685442687e-01,-1.118352398628837813e-02,-1.640986124186630604e-02,7.933085925568763436e-03,5.064936727285385132e-02
-4.104194252813082033e-01,-4.277731883762515563e-01,-3.944389013152078682e-01,-1.217110687738555755e-02,-2.605255993119698008e-02,1.626527004797032744e-02,6.409481167793273926e-02
-4.163759578565389141e-01,-4.084364796145695253e-01,-4.144482457871357384e-01,3.506160128954952538e-03,4.702122945950676716e-03,6.054023029585115998e-03,1.626681536436080933e-02
-3.946326520128944915e-01,-4.257117999610403047e-01,-4.093627406929140067e-01,-1.381291171102059026e-02,-1.484639818403352129e-02,1.351301274608529904e-02,5.006526783108711243e-02
-4.102752546189532001e-01,-4.242047825974798458e-01,-3.994779179289737470e-01,-1.376386361477381116e-02,-1.985705823333220460e-02,8.578361602418239917e-03,4.932566359639167786e-02
-4.131324634506296500e-01,-4.055610875065971399e-01,-4.206875204946100011e-01,8.863877022195040117e-03,-6.835505870078664899e-03,-6.972747132771281442e-03,2.633138373494148254e-02
-3.993975365817721279e-01,-4.022023123382963417e-01,-4.315615410348892511e-01,-1.097528304466645213e-03,-9.078563473945200411e-05,5.589070610618811176e-04,3.093141876161098480e-02
-4.132312647043865361e-01,-4.111359283271708853e-01,-3.918984892660094532e-01,1.169831828870981742e-02,-1.116642407607470154e-02,-1.418372835019441995e-02,4.246094450354576111e-02
-4.175541058074540568e-01,-4.150502044540876900e-01,-4.094535171888820657e-01,1.101292374253738313e-02,-1.485652866294419512e-02,-1.716490347985029363e-02,4.428894445300102234e-02
-4.032777612216155716e-01,-3.998421959529480096e-01,-4.136540183518473413e-01,1.635219842643884092e-02,-1.286472539712233548e-02,-1.619470113691452023e-02,4.733508080244064331e-02
-4.006234411111723182e-01,-3.957894482172018558e-01,-4.322096945381411759e-01,-4.788760705231254883e-03,-1.452430037247407846e-03,6.648804227379214544e-04,3.535814210772514343e-02
-4.091021162728593064e-01,-3.991053565912399126e-01,-4.358631676150161449e-01,-1.355955303607177254e-02,-3.911280567412782176e-03,5.478525884760918757e-03,4.208484664559364319e-02
-4.037976807234782139e-01,-3.796513986096307081e-01,-4.325814152048769179e-01,-8.974524630199716413e-03,-1.950914966324085410e-03,1.806628151153518097e-03,4.867650941014289856e-02
-4.042506511355504206e-01,-3.814375506450208286e-01,-4.293313596790609421e-01,-9.275345361598234806e-03,-3.205997784175823595e-03,2.289070436086240723e-03,4.501443356275558472e-02
-4.109597824204203609e-01,-4.051651839576789760e-01,-4.193642747198298992e-01,-2.912201007027826610e-02,2.147310863182637017e-02,-1.736421380301578915e-02,7.060466706752777100e-02
-3.902582799326693164e-01,-4.187452300937760663e-01,-4.410129524214810304e-01,-6.573470543428727719e-02,2.006567484297732545e-02,-4.133368158653965424e-02,1.457331925630569458e-01
-3.963920092861510369e-01,-3.866267094439923557e-01,-4.290107797083845265e-01,-2.433979104178212935e-02,1.454845173963460747e-02,-1.356009169147137129e-02,6.664648652076721191e-02
-4.119869689911352384e-01,-4.130444892344007912e-01,-4.086655125488387608e-01,-1.210071314859584302e-02,2.087181974482369556e-02,-1.946729344446774396e-02,5.384022369980812073e-02
-4.115599099964225016e-01,-3.971092959851810766e-01,-3.887829870065541704e-01,-2.674504671809735390e-02,3.045698215183858387e-02,-3.895857597686983032e-02,9.940098226070404053e-02
-4.113035299696330416e-01,-4.021375205997737012e-01,-4.076841424369406219e-01,-1.201282311106463552e-02,1.164112651849610880e-02,-1.250061167693957385e-02,3.704331815242767334e-02
-4.140311741263731915e-01,-3.987368437453312486e-01,-4.056656962455745807e-01,-2.228448275487011909e-02,1.506946106029135798e-02,-1.542003397975225988e-02,5.532039701938629150e-02
-4.131294879414218468e-01,-4.034612090786157124e-01,-4.133821787312887408e-01,6.371185785034140688e-03,5.697529012631443422e-03,7.015943859627708605e-03,2.151312306523323059e-02
-4.095107744395001803e-01,-4.163592957543374995e-01,-4.148149796412621271e-01,6.568133229759205022e-03,5.948414345098535644e-03,6.331053782420071989e-03,1.986276917159557343e-02
-4.157938366399118180e-01,-4.148568075422382484e-01,-4.004574732194831621e-01,1.143531816464775017e-02,8.384518936576244169e-03,9.143652662963306157e-03,3.279833123087882996e-02
-3.928566026074646333e-01,-3.940432292883222498e-01,-4.336183052793852744e-01,1.309434396258309617e-02,1.906063241909475899e-03,1.269493058229538823e-03,4.631063714623451233e-02
-4.086054472552757000e-01,-4.079518858345920762e-01,-4.158817907148935622e-01,3.864514616178291867e-03,4.557936610279600571e-03,5.231417562487126680e-03,1.572764478623867035e-02
-4.128633367627458917e-01,-4.034717106679133747e-01,-4.181779487117752714e-01,7.366791347498484986e-03,6.642036077607036716e-03,5.365490968140717437e-03,2.340693958103656769e-02
-4.095706624365186843e-01,-4.164699538276977475e-01,-4.098304442420672156e-01,5.798097080603611779e-03,4.380812554785507018e-03,3.768516718134193571e-03,1.571333594620227814e-02
-4.479509704856666774e-01,-3.599335206998283132e-01,-4.575567061532781477e-01,3.835366780338382575e-02,-1.164510609443360906e-02,-1.212774129427923904e-02,1.180927455425262451e-01
-4.476221544540357478e-01,-3.500573214202253869e-01,-4.740581947521981254e-01,4.343916784622214172e-02,-6.931597704453336221e-03,-5.362113871633249901e-03,1.367050558328628540e-01
-4.627850975206178052e-01,-3.052119388829684365e-01,-4.571706758781746149e-01,3.883629906346711819e-02,-6.434659734650694136e-03,-1.917945757081390701e-02,1.724200844764709473e-01
-4.497818421541574518e-01,-3.427912083948517208e-01,-4.580269237561332973e-01,2.788544551879217764e-02,-1.444223404207839803e-02,-2.153104361431998348e-02,1.294079124927520752e-01
-4.520425256765871480e-01,-4.603276224858427468e-01,-3.189521256543048078e-01,1.084056531655755960e-02,-5.968506640234761546e-02,-2.009995484789644724e-02,1.764535754919052124e-01
-4.152115847595190257e-01,-4.492575871665304699e-01,-3.609838754825184792e-01,1.344047795059259524e-02,-6.110382564645712444e-02,-1.233169770623369216e-02,1.347040981054306030e-01
-4.275133117314923181e-01,-4.862498166304010105e-01,-3.451600562559106189e-01,3.057152492219240500e-02,-6.555321268223787690e-02,8.096230844249447528e-03,1.759583801031112671e-01
-4.448487722054010884e-01,-4.688164768268564542e-01,-3.574993410982474362e-01,-5.318880602027589027e-03,-3.090267792427292548e-02,-1.453741518727740597e-03,1.151263564825057983e-01
-4.220571784390863002e-01,-4.496947024532709225e-01,-3.628067497949434284e-01,7.570959688717735121e-03,-4.247768085527339754e-02,1.561204916887886046e-05,1.072240695357322693e-01
-4.085261711441803834e-01,-4.339081844220073481e-01,-2.992489171797125258e-01,1.702337905068991922e-02,-5.376770717257387672e-02,-3.465359636386897840e-02,1.688322871923446655e-01
-4.075909355850751981e-01,-4.249928066557684403e-01,-4.099627344521222794e-01,-2.373339254806538720e-02,5.705394172016883120e-02,-4.842102730196279348e-02,1.369534283876419067e-01
-4.013656816363084801e-01,-4.375322454797741512e-01,-3.885846599352590913e-01,-9.878540466872903075e-03,2.235553709402365516e-02,-7.688613272050888285e-03,6.247424706816673279e-02
-3.991818714433545967e-01,-4.291401072376335724e-01,-3.801869087893647303e-01,-1.280283592659368225e-02,2.391031219875146274e-02,-1.436210227276681246e-02,6.821302324533462524e-02
-3.978850389254801057e-01,-4.246900387596302950e-01,-3.795212495218896476e-01,-1.409578441337913657e-02,2.386895787945580993e-02,-1.452311218298490969e-02,6.697757542133331299e-02
-4.082747092092913199e-01,-4.137997131887483082e-01,-3.578679192864742120e-01,-2.622712823578727745e-02,4.733853490206010178e-02,-3.681167447961515571e-02,1.253058761358261108e-01
-4.063074753320304877e-01,-4.286636146220382249e-01,-4.041196495181109682e-01,-1.821042969906703059e-03,-1.151935902820111620e-03,1.116919410128869089e-03,2.389909699559211731e-02
-4.190143196984576490e-01,-4.400146655139661744e-01,-3.395064077182260442e-01,-2.215421563653270642e-02,5.241582078775115089e-02,-2.701835545456792234e-02,1.426074057817459106e-01
-3.954329645943860383e-01,-4.387895318449242521e-01,-3.934222553762424246e-01,2.029136726475402365e-03,1.383875624071438486e-02,-2.802575961037391886e-04,5.057799443602561951e-02
-3.993783179471648292e-01,-4.425848414975885325e-01,-4.110576027616452133e-01,1.553153772511754911e-03,1.720508318802706216e-02,1.813753973003973596e-03,4.902793839573860168e-02
-4.015150796490098983e-01,-4.355713833649519917e-01,-3.751001282701492134e-01,3.782421244150801793e-03,2.567073056766000852e-02,2.839751830215420884e-03,6.929104775190353394e-02
-6.279279849373916589e-01,-3.120243394043827334e-01,-4.991435251396397210e-01,4.953333219791543340e-02,-2.169907836102803744e-02,-1.778707664411793288e-01,4.235378503799438477e-01
-4.018223928505610387e-01,-4.265834982976205447e-01,-3.671298974098008427e-01,9.920379257325851602e-03,2.646570356329114651e-02,9.296864703155808055e-03,7.301741838455200195e-02
-3.972302717936601613e-01,-4.325865557313476328e-01,-4.012251230898039589e-01,7.698206814110349419e-03,1.498655343763621167e-02,9.732604150913646765e-03,4.754503816366195679e-02
-3.942220988471560328e-01,-4.305632628060058198e-01,-4.052808764010543130e-01,3.663325456144427179e-03,9.689265471238283495e-03,3.405829359306599639e-03,3.738706186413764954e-02
-4.426563148378717671e-01,-4.279754650165372154e-01,-3.678358033239569336e-01,-1.816261668749727040e-02,-1.155485840130241609e-02,2.372928624741295692e-02,8.828720450401306152e-02
-4.478447580890607682e-01,-4.324787758094923440e-01,-3.540598848088434836e-01,-1.129201391953358127e-02,-1.490517014758958349e-02,2.071299741416909868e-02,9.963294863700866699e-02
-4.328205268993812749e-01,-4.126733871397243458e-01,-4.159069125079658535e-01,-2.325114118941946917e-02,-2.207398343136409216e-02,2.719943842939526873e-02,7.519490271806716919e-02
-4.240404345807308739e-01,-4.290072029762995176e-01,-3.959944961936918140e-01,-7.469267346481913393e-03,-1.293786716538502905e-02,1.117467079550784129e-02,4.466202110052108765e-02
-4.271011490340294037e-01,-4.246612377707987829e-01,-3.958189602687705588e-01,-9.310944775724290176e-03,-1.246516234655663247e-02,1.199741918056513625e-02,4.545589908957481384e-02
-4.232591882443950682e-01,-3.656196044149936375e-01,-4.450583626724785025e-01,2.223750061863615304e-02,-1.005222522225964789e-02,-1.771073286653036122e-02,8.821389824151992798e-02
-4.303949225778684329e-01,-4.396063789672959299e-01,-3.908542765856950485e-01,-2.046515118502999914e-02,-2.848918875376340101e-02,2.822357350499064485e-02,8.996454626321792603e-02
-4.328905116475181836e-01,-3.496315939996235134e-01,-4.405598007265441041e-01,-3.491105929654672591e-02,9.321193644195674421e-03,-2.390833591301320948e-02,1.151574030518531799e-01
-4.174561542392519198e-01,-3.562527942036230466e-01,-4.558581877211043132e-01,-4.171455204546167111e-02,-1.758838507119682816e-03,-1.235855014670257743e-03,1.131595149636268616e-01
-4.041003925906220817e-01,-3.897795593359514865e-01,-4.384066661453449032e-01,-1.905562420748063007e-02,1.235769710243290499e-02,-1.811986450307516427e-02,6.637603789567947388e-02
-4.033890615998840246e-01,-3.756515151540565922e-01,-4.538227524701320958e-01,-8.435154330882731200e-02,5.529936283354847451e-03,-1.185300752546305549e-02,1.630049198865890503e-01
-4.241226297673204026e-01,-3.815972534311748987e-01,-4.572009996230413376e-01,-2.449227967764960531e-02,6.614098150160972744e-03,-3.619303054832738106e-03,7.924272119998931885e-02
-4.065844469295468167e-01,-4.053148868882044953e-01,-4.593422965737563035e-01,-3.516996898869764049e-02,5.574774098031120770e-03,-3.435819760369445905e-03,8.180104196071624756e-02
-4.009123461904860464e-01,-3.816070805014761258e-01,-4.555288196514061805e-01,-2.696248631592909617e-02,5.939159755370160797e-03,-6.008707201274904146e-03,8.249302953481674194e-02
-4.538141424233227972e-01,-4.060767736689505636e-01,-4.100355161134046078e-01,-9.678645331975415517e-03,1.469035681290579640e-02,-3.019647122754203980e-02,7.595707476139068604e-02
-4.461675490830261936e-01,-3.973853110131885247e-01,-3.815204512673890380e-01,-2.686342231389426960e-02,3.913148028498537878e-02,-5.863416651485941350e-02,1.431012600660324097e-01
-4.029370219769807249e-01,-3.734128911660107852e-01,-4.147578531638989596e-01,-6.207303196640764908e-02,4.576719810329410443e-02,-4.215777220685090754e-02,1.566375792026519775e-01
-4.460527246918585265e-01,-3.948078449155660863e-01,-3.936308998598977982e-01,-2.922369891733774330e-02,2.538131164222835051e-02,-4.341568596725997597e-02,1.133014038205146790e-01
-4.256396778219271315e-01,-3.909460647796877408e-01,-4.211727662916671111e-01,-1.307937552391185906e-02,1.014491936372814360e-02,-1.270755355671822524e-02,4.873439297080039978e-02
-4.265356572072269148e-01,-3.912906935937550679e-01,-4.221827355114310953e-01,-1.067373123542818096e-02,1.299461696662447714e-02,-1.305382210954820522e-02,4.967201873660087585e-02
-4.406346060596600944e-01,-3.748268053214001694e-01,-4.217318546727775730e-01,-1.975142488017752815e-02,2.002789156973607682e-02,-4.194569212577291262e-02,1.053378432989120483e-01
-4.354423533717104444e-01,-3.910551254401942733e-01,-4.096125340806862636e-01,-1.796294916185089269e-02,9.486993914135700284e-03,-2.238861646942294156e-02,6.505884975194931030e-02
-4.442989625810149779e-01,-3.936955875694863050e-01,-4.241482967073316179e-01,-1.717864534965108519e-02,1.880310100418182070e-02,-2.619652243575296829e-02,7.714804261922836304e-02
-4.043421668150171677e-01,-3.959363381978316387e-01,-4.408203142973259325e-01,-1.736536382028586525e-02,-2.407568313331586926e-03,1.079806890039253231e-03,5.131760984659194946e-02
-4.168030507726129263e-01,-3.656327775479500941e-01,-4.482203309601922037e-01,-3.930043292088067353e-02,-4.157921283215460818e-03,-1.051026400147626882e-02,1.011430025100708008e-01
-4.011799183310057471e-01,-4.099710696765216378e-01,-4.429139121255340483e-01,-1.500372803256158627e-02,-4.598886267137993963e-03,3.745419945606624085e-03,4.725452512502670288e-02
-4.062873714311271978e-01,-4.046046120797403001e-01,-4.558567518736924007e-01,-3.937216989243701171e-02,-8.887741449139507921e-03,5.472425268593697142e-03,8.672191202640533447e-02
-3.832746628330518379e-01,-4.373136614873993078e-01,-4.778553208759981352e-01,-5.588575213976754164e-02,-5.191017692862198024e-02,2.328805282083427561e-02,1.607336997985839844e-01
-3.552779565593894295e-01,-4.407208096458392621e-01,-4.621201450130182908e-01,-3.004381757740696296e-02,-1.668698292242653397e-02,7.480197012205332292e-03,1.153167486190795898e-01
-3.752118818692221081e-01,-4.195856675543932490e-01,-4.550191856256260992e-01,-7.469193784580516193e-02,-1.100632798146005537e-02,4.363880136986571928e-03,1.481691300868988037e-01
-4.101565197227779458e-01,-4.389965474247047861e-01,-3.861609347929194636e-01,1.781474472267323894e-03,-1.666480890322911274e-02,-3.121939579230337530e-03,5.451125279068946838e-02
-3.879998825708965704e-01,-4.209709217279596905e-01,-4.811920895273968934e-01,-7.912818369897894888e-02,-3.048421236750069666e-02,1.915334574430590381e-02,1.713810265064239502e-01
-3.721433106883839659e-01,-3.993354329510105383e-01,-4.519562280365260754e-01,-3.197941572877253946e-02,4.367783905566105962e-05,4.890863006230510533e-03,8.988352119922637939e-02
-4.372677869309173904e-01,-4.039565757018445669e-01,-3.984351474650214553e-01,-6.568357119034293201e-03,7.996512699034728430e-03,-3.377683893657475178e-02,7.118943333625793457e-02
-4.325425742170145860e-01,-3.816855966630576802e-01,-3.604360021446738616e-01,-2.427045237459089788e-02,2.303847249936850916e-02,-5.531393374180886002e-02,1.290621608495712280e-01
-4.483496043845178747e-01,-4.223141994105412134e-01,-3.365269663788889587e-01,-8.878625898011884704e-03,5.353579383001149522e-02,-7.495383996548254935e-02,1.896305978298187256e-01
-4.107528895203970687e-01,-5.007613721141015439e-01,-3.448094861381159060e-01,3.929722444615136451e-03,-6.517827991135528853e-02,-1.558763567313957606e-02,1.786208301782608032e-01
-4.519504600217946200e-01,-4.213700536228648930e-01,-3.723028113536937522e-01,6.548697289851162845e-04,1.000164833202011466e-02,-8.632189374130419535e-02,1.658283621072769165e-01
-4.599898319138048253e-01,-4.068479487533612771e-01,-3.992005489692170284e-01,-5.648064162046532825e-03,1.043248752020945261e-02,-3.545604944776883927e-02,8.650171011686325073e-02
-3.980189183021664023e-01,-4.051802550353121313e-01,-4.418549097517925905e-01,-1.786070978040172480e-02,-1.914619415259701408e-03,1.921018950087790807e-03,5.136183276772499084e-02
-4.010175826515804398e-01,-3.972050909115558692e-01,-4.298771148629784156e-01,4.309437514966509702e-03,-2.338765598265791536e-03,-8.358708021584970206e-04,3.211936727166175842e-02
-3.912904494924054899e-01,-3.695147808734126071e-01,-4.349235575197647474e-01,-3.188909187436683723e-02,-5.447260951948338509e-03,5.876480991227005755e-03,8.106496185064315796e-02
-4.106591359075684178e-01,-3.953200932752094499e-01,-4.424499929613486815e-01,-1.656917392893060559e-02,2.535258563142891129e-03,-4.112303459103875888e-03,5.125635862350463867e-02
-4.075229736288142335e-01,-4.368569520292922559e-01,-3.946253983888245997e-01,-3.130629965129722459e-03,-2.959133510440340245e-03,2.362974176794134778e-03,3.843943029642105103e-02
-3.974618098458467808e-01,-3.715928551761799037e-01,-4.365336395178848194e-01,-2.992941027119282518e-02,4.576611650288587262e-03,-6.003036454070125906e-03,7.787690311670303345e-02
-3.865083950280853720e-01,-3.882561160897928243e-01,-4.511410860940184286e-01,-3.286090301926802848e-02,-6.503680697459431753e-03,-4.668854718639837802e-03,8.659841120243072510e-02
-4.282750493801887881e-01,-4.177693817079085048e-01,-3.778897041576250726e-01,1.222549948627610003e-02,2.633564157194914768e-02,2.088380525688765879e-02,7.718294113874435425e-02
-4.129563507378134490e-01,-4.387171707990422109e-01,-3.824660817516989941e-01,1.533138783019858667e-03,-8.389108634251612323e-03,-5.842686233086623717e-04,5.096996948122978210e-02
-4.170125637934634644e-01,-4.303599983577950372e-01,-3.644537451902991609e-01,1.979050280584519761e-02,3.866334439570383308e-02,2.496876276515639162e-02,1.056975945830345154e-01
-4.402024199467616805e-01,-4.226351241090473554e-01,-3.750067264665025712e-01,1.337087813283955283e-02,5.945526428162041001e-03,2.932716167164137883e-02,8.146417886018753052e-02
-4.359215049009964593e-01,-4.406863929528730961e-01,-3.400275820576985075e-01,5.786950736414374699e-03,2.731265111757602559e-02,2.041146917647215439e-02,1.151675581932067871e-01
-4.128617843464559845e-01,-4.358434124311181823e-01,-3.843383436230385919e-01,1.792970865233352480e-03,-8.826220666782600560e-03,-8.531442853550989412e-04,4.735811799764633179e-02
-4.393158191251942957e-01,-3.805312300119333413e-01,-4.186554953126880863e-01,1.510259884335211737e-03,-2.893923934564765921e-03,-5.082515572433888608e-03,5.270133912563323975e-02
-4.740456575328672040e-01,-4.368539726932073597e-01,-3.286182323946043593e-01,1.346672574382167496e-02,3.341739172429777915e-02,3.560538005410361639e-02,1.575472056865692139e-01
-4.524421032386907182e-01,-4.269768382760397718e-01,-3.732556379676322811e-01,8.020069589940436242e-03,-1.439054313891784196e-04,2.427888805381417728e-02,8.284860849380493164e-02
-4.002918610263617172e-01,-4.434708198908466903e-01,-3.980927321167769262e-01,2.733677546668472971e-03,4.064744342719094072e-02,4.560850835089681407e-03,8.369994908571243286e-02
-4.105797715384104651e-01,-4.120934181710707023e-01,-4.096808313082220265e-01,-1.684924289335194879e-03,-2.168607397205649795e-03,9.974481265220362918e-04,5.483620334416627884e-03
-3.766363050948580704e-01,-4.344007160366870623e-01,-4.177934623747700527e-01,-1.930229948499073440e-03,5.291982033194531088e-03,-1.057444501779087297e-03,5.245728790760040283e-02
-4.083721598109649187e-01,-4.594999513210885622e-01,-4.040614788840936056e-01,9.889028834367969908e-03,3.794564972202563169e-02,9.693069797488886030e-03,8.802210539579391479e-02
-3.588534063481977343e-01,-4.462889095669835826e-01,-3.629723191659102177e-01,8.732937123945211377e-03,6.896262785792540984e-02,8.169570920066142328e-03,1.483183801174163818e-01
-3.841752293563364118e-01,-4.443287937463186732e-01,-4.399264036392765420e-01,1.993244733626825527e-02,2.042493099081561791e-02,1.056546268468896987e-02,7.843048125505447388e-02
-3.887012624361818602e-01,-4.283541033933597197e-01,-4.169475199852826219e-01,1.575674442562226274e-02,1.622696935848459004e-02,1.728548814101812589e-02,6.067361310124397278e-02
-6.016563870910269785e-01,-5.443887318319988733e-01,-2.888083100210145360e-01,1.960248426495110607e-02,-4.563452167276121907e-02,-1.414129787681700501e-01,3.881116211414337158e-01
-4.155372430718315413e-01,-4.426092192417265814e-01,-4.192293423628220550e-01,1.682156259985360600e-02,2.591340926768926842e-02,2.092745310873045383e-02,6.945397704839706421e-02
-3.792298730243513494e-01,-4.369449771955307149e-01,-4.126482904653949180e-01,2.027930967741668755e-02,2.193777729390742476e-02,1.972574949146479670e-02,7.977431267499923706e-02
-3.700293417728963696e-01,-4.651529697921964468e-01,-4.313269342188520983e-01,7.600485660412770184e-03,7.487643622740514093e-02,2.455654350697792504e-02,1.605517566204071045e-01
-3.819927749996335220e-01,-4.232331402123754582e-01,-3.664427116527942951e-01,2.466935014546118785e-02,5.375460218896244841e-02,2.776108082417659551e-02,1.240576356649398804e-01
-3.970314664311196950e-01,-4.128066363632025837e-01,-4.444833229127453378e-01,1.774681068737147399e-02,-2.515101729893149123e-04,-2.650154836020323442e-04,5.193478614091873169e-02
-3.933571905542955216e-01,-3.950952319321998085e-01,-4.412294021374654207e-01,1.431120947844198056e-02,-1.139135743055935896e-03,2.170077516126423574e-03,5.332933738827705383e-02
-4.001487895779712312e-01,-4.044795005912088515e-01,-4.354003502093259925e-01,3.421647239518504219e-02,1.014788867368246819e-02,9.679847490539079946e-03,7.218796014785766602e-02
-3.642322549533965059e-01,-4.439605516435895516e-01,-3.817712472997383810e-01,-1.379121275097298406e-02,5.679727633796017444e-02,-1.364582899961633289e-02,1.267788410186767578e-01
-4.269507947606675513e-01,-4.269619340219449888e-01,-3.856122360792791914e-01,-1.898062199516410004e-02,2.835850571208278423e-02,-2.271024296049611521e-02,8.215843886137008667e-02
-4.103028145513629155e-01,-4.264648791732179034e-01,-3.842572162214143439e-01,-1.938914392190506722e-02,1.882267052121087969e-02,-1.837266149980941801e-02,6.755661219358444214e-02
-4.205166823071979643e-01,-4.389461653487135018e-01,-3.837513821791825319e-01,-3.315139611248912963e-03,3.087573287661847174e-02,-1.703827032611312381e-02,7.831162214279174805e-02
-3.792378674559826468e-01,-4.354168651587950745e-01,-4.021660125345252190e-01,-5.809513106231561398e-03,2.436245099378128373e-02,-7.775867512296291868e-03,6.676024198532104492e-02
-4.060015764510342962e-01,-4.370371138353822404e-01,-3.951688850917763896e-01,-4.063038754795349206e-03,1.780211198047449914e-02,-3.363318062500020907e-03,4.950713366270065308e-02
-3.939135826490113845e-01,-4.345703713996571516e-01,-3.916593385353367429e-01,-3.811805003259238940e-03,1.427420440214467040e-02,-3.420704203429426622e-03,4.939289763569831848e-02
-3.950806835417928209e-01,-4.376318016370165376e-01,-4.096135771516133395e-01,-3.887729466763188355e-03,1.427484328911540236e-02,-3.736967572043887412e-03,4.584717378020286560e-02
-4.569292927950122651e-01,-4.209263999790251454e-01,-3.872256066301004163e-01,-7.457171702337525229e-03,9.433110020929991874e-03,-3.264931444442389918e-02,8.530527353286743164e-02
-4.387582997851891542e-01,-4.082508192516005052e-01,-3.835021678590150307e-01,-6.202275275766012171e-04,2.721533305662381629e-03,-9.336853201343090630e-03,5.082445964217185974e-02
-4.373945071053353395e-01,-4.175663278930377142e-01,-3.607618132677375411e-01,-6.490929466559028707e-03,6.589985450355204978e-03,-2.375904958682456200e-02,8.183151483535766602e-02
-3.853747770340786860e-01,-4.303007615585396906e-01,-4.077677621115969320e-01,2.045092122188610882e-03,-8.015591924727855783e-03,-4.614280812507651555e-03,4.222480580210685730e-02
-4.274489942351796246e-01,-4.019771373591135011e-01,-4.048251960439530062e-01,-6.959108339050262999e-04,-7.653409661801033586e-04,1.532759417124169481e-03,2.438523620367050171e-02
-4.384941438641825062e-01,-4.212080617865298082e-01,-3.680555769590941328e-01,-2.713649184618411973e-03,5.943020986757648928e-03,-1.457716377153568492e-02,6.934208422899246216e-02
-4.303709605438728603e-01,-4.182103276919366674e-01,-3.666228385325205341e-01,-7.700138999502765744e-03,4.961488143818118882e-03,-1.456373477419680741e-02,6.576107442378997803e-02
-4.369831748239890734e-01,-4.199983643722401960e-01,-3.650651374332459231e-01,6.796910555223990673e-03,1.515426920119669271e-02,2.299842504520022146e-02,8.156902343034744263e-02
-4.388093345249649557e-01,-4.227110471105229306e-01,-3.687494455736694543e-01,2.677925653515057011e-03,4.387343430344043532e-03,1.368550025190586571e-02,6.841664761304855347e-02
-4.169063793885559033e-01,-2.707687025212400789e-01,-4.589475508027463513e-01,1.040747251831035114e-01,3.470995593138918867e-02,6.408056208196805104e-02,2.787389755249023438e-01
-4.472825531261397924e-01,-4.077201593575480731e-01,-3.872541726438168408e-01,2.999240156487912061e-05,1.464580232788765569e-02,2.873848504092932007e-02,7.690855860710144043e-02
-4.325013214811092577e-01,-4.046477491141201588e-01,-3.847233113282554351e-01,6.245623655626711401e-03,7.511438548289565498e-04,8.906979446639665121e-03,4.565621912479400635e-02
-4.382766380407320250e-01,-4.105791413726860850e-01,-3.915164705343323615e-01,1.779844776197116608e-03,6.225301358490885340e-03,2.032150242939493451e-02,5.498347058892250061e-02
-4.301204064531224391e-01,-4.075349669846508593e-01,-3.983266530122940297e-01,4.245899280219640921e-03,-1.302128909845141555e-03,-3.236223958777518627e-03,2.989076822996139526e-02
-4.431322338997824573e-01,-3.864732817189047709e-01,-4.049547320103932257e-01,-5.969787753969681664e-03,-1.433935229332153338e-02,3.824217977331550999e-02,8.726866543292999268e-02
-4.399074875818657637e-01,-4.055025335854601787e-01,-4.006839569044729488e-01,-3.751244176958957836e-03,-4.533405115152279105e-03,2.422488078635942621e-02,5.689558759331703186e-02
-4.357524441693532147e-01,-3.861770617381428683e-01,-3.948626100289115981e-01,-6.469844642259013102e-03,-1.189040734640872590e-03,1.348448531491232630e-02,5.270559713244438171e-02
-4.272463781339095323e-01,-3.977627088198908423e-01,-4.076812997209168232e-01,-1.075081471712277179e-02,-1.260542928649070922e-02,1.495832621035623339e-02,4.658233374357223511e-02
-4.262536501455042592e-01,-4.091988726712106339e-01,-3.947448433945955348e-01,-5.953653699687664301e-03,-8.658629408070141198e-03,1.101070464129984966e-02,3.796386346220970154e-02
-4.338419758085943490e-01,-4.269988642350350250e-01,-3.830407284206855389e-01,-6.511570365472573590e-03,-9.350212107564575409e-03,1.407161372619808622e-02,5.712677538394927979e-02
-4.082889333736184900e-01,-3.999817292346736775e-01,-4.408389047044915521e-01,3.178034457044724703e-02,-9.016019622588290067e-03,-6.661777350058352767e-03,6.932448595762252808e-02
-3.339146629654057841e-01,-4.154695626866635183e-01,-4.533820115269342477e-01,6.466350899586086054e-02,6.492721621667141285e-03,7.282432396615808913e-04,1.544430851936340332e-01
-3.230760935215589713e-01,-4.404666130570673577e-01,-5.010342688581347348e-01,9.676779909781330069e-02,-3.490205520673228187e-03,-9.425279938428222232e-03,2.301176190376281738e-01
-3.975226220058136750e-01,-4.322043108423676006e-01,-4.037914047878604640e-01,5.561956846478499118e-04,-4.217846966099601282e-03,-2.706971757232942873e-03,3.318112343549728394e-02
-3.697539469305172743e-01,-3.944684054671295237e-01,-4.354349686668523289e-01,3.288360940427352552e-02,-5.041118350723718111e-03,-3.648844278970207657e-03,8.161927759647369385e-02
-3.511741535819762339e-01,-4.292628567157326103e-01,-4.448516280744597151e-01,4.204794472634902636e-02,-7.346667446167364640e-03,-1.743025055990325483e-03,1.141634210944175720e-01
-3.569884463288768295e-01,-4.378515460596459907e-01,-4.720851654687184262e-01,4.043606946917287920e-02,-1.552933076028948506e-02,-1.049442503815297550e-02,1.282112449407577515e-01
-4.297908113359307225e-01,-3.957195176966736838e-01,-4.116750303478993178e-01,8.691691333616829995e-03,5.505956938973601347e-03,1.186447473849596736e-02,4.014582186937332153e-02
-5.197005342593646882e-01,-3.790577304181738105e-01,-6.169529178351708110e-01,1.940205767493823896e-01,-6.776542733718608769e-02,-1.095403854151082851e-01,4.534555971622467041e-01
-4.284386335984211036e-01,-3.928135312095912823e-01,-4.081463416041036241e-01,5.852123278305794950e-03,6.440655518879323180e-03,6.569481624145372817e-03,3.625841438770294189e-02
-4.322766394199381024e-01,-3.948605846065553759e-01,-4.265843015085008516e-01,2.159416305745882197e-02,1.443592684678784641e-02,9.323298094426654692e-03,5.919681116938591003e-02
-4.264342203654066243e-01,-4.077957309199485847e-01,-4.039116010503766563e-01,3.218152540575989953e-03,6.348829005820730460e-03,7.247674783436143173e-03,2.728466317057609558e-02
-3.895160741136131088e-01,-4.353295482047848663e-01,-4.062309876786581175e-01,3.632152689119696619e-05,-1.830954935916695578e-03,-1.071642494367529806e-03,4.032370075583457947e-02
-4.341658284510552801e-01,-3.752638958744932696e-01,-3.959086190553554596e-01,5.188557250042679161e-03,8.396076544615049819e-03,2.844543049307529312e-02,7.347993552684783936e-02
-4.249963760442655447e-01,-3.775850332248693042e-01,-4.003983630224010049e-01,1.313488949522128094e-02,1.028940314396872141e-02,2.240952980733371819e-02,6.346987932920455933e-02
-4.289464617976738725e-01,-3.544087463064400922e-01,-4.135812549100758573e-01,3.961491932740307531e-02,-1.948401996957579985e-02,-4.506637913459526218e-02,1.287886500358581543e-01
-4.056853187331268540e-01,-4.120080577233543595e-01,-3.972917434667093683e-01,2.033567615965466147e-02,-2.332026121635011676e-02,-2.767971627928221892e-02,7.303507626056671143e-02
-4.424243575707546561e-01,-3.787810500109340950e-01,-3.996896659901298388e-01,1.210235123608799715e-02,-1.420984754075757008e-02,-2.770694015196987006e-02,8.065439015626907349e-02
-4.232636541159723875e-01,-3.821185390662142911e-01,-3.978875323094586691e-01,1.271759522590282590e-02,-1.304898568307594903e-02,-2.299748052268637058e-02,6.225316599011421204e-02
-4.083101302836525393e-01,-3.907282942045590679e-01,-4.325093669273801789e-01,-3.129927818869343657e-03,3.416071473670428960e-04,-3.035670077894382320e-04,3.674516081809997559e-02
-4.698949904528032517e-01,-3.897910701673520384e-01,-4.170249884927700879e-01,2.554271531554632574e-02,-3.432365533315243772e-02,-7.404415219286208938e-02,1.640610247850418091e-01
-4.626749521231690032e-01,-3.738377048440940653e-01,-3.905113352139438776e-01,2.732914589567793720e-02,-3.355290475853313359e-02,-4.794927587877356040e-02,1.385794579982757568e-01
-4.169877583629936213e-01,-3.918450507821698015e-01,-4.074220702865531396e-01,3.662520308766659127e-02,-2.883283188150522966e-02,-4.832897642821737394e-02,1.183572262525558472e-01
-4.369950774049707887e-01,-4.351949754779093626e-01,-3.404074105880318668e-01,-2.063013350051848271e-02,-4.062192391521758650e-02,3.996313321168963595e-02,1.420455425977706909e-01
-4.582374197466787535e-01,-4.488692062843737673e-01,-3.310494538205943638e-01,-3.782906752017255181e-02,-3.566068911619944826e-02,5.527651962024741211e-02,1.798545718193054199e-01
-4.277984657122751444e-01,-4.485867145475833095e-01,-3.210045113687645668e-01,-2.544274576276998358e-03,-5.409740886352519540e-02,1.580237639514094766e-02,1.536402106285095215e-01
-4.175424531418168161e-01,-4.341172974416092623e-01,-3.965747271355025694e-01,7.095860751980462983e-03,-1.167099911339196730e-02,-7.303547229317369424e-03,4.220928251743316650e-02
-4.181572701572398021e-01,-4.357965067221252209e-01,-3.578774198131973172e-01,-8.684277520239449405e-03,-1.742202153510125084e-02,1.282745887437010228e-02,8.147732913494110107e-02
-4.047695362651649864e-01,-4.381895118298727576e-01,-3.263796401875653785e-01,-1.380767468743944286e-02,-5.460790089322620222e-02,1.820395283584518714e-02,1.428069919347763062e-01
-4.186625389179130519e-01,-4.246146498486279008e-01,-3.731388425812200982e-01,-9.915077522649046876e-03,-1.732992078426659477e-02,2.220341127580283819e-02,7.108920812606811523e-02
-4.382420936087819685e-01,-4.575004234720691509e-01,-3.589954294520734113e-01,-3.731422997548506770e-03,-2.462740031849557434e-02,1.404187719662569785e-02,1.031013876199722290e-01
-4.514979432159504924e-01,-4.484902603135940136e-01,-3.509193449223617089e-01,-6.927815277295351973e-03,-1.733255904528573088e-02,2.496751147698120926e-02,1.128625646233558655e-01
-4.237341674152479976e-01,-4.211301156803021195e-01,-3.696121406953715716e-01,-9.986329906853431276e-03,-1.706144428859408813e-02,1.853464731576866947e-02,7.069721817970275879e-02
-4.252105548941960134e-01,-4.331660969490954138e-01,-3.818249929100392959e-01,-2.441076129538867490e-02,5.057477172809553972e-02,-3.667874649903196671e-02,1.256496012210845947e-01
-4.305309850894647461e-01,-3.706759464141619609e-01,-4.309275575500463584e-01,3.958876056064422264e-03,-5.489751212545608897e-03,-3.073471587476432013e-03,6.141896173357963562e-02
-4.322782707566494853e-01,-3.712637487432869365e-01,-4.311162320923958013e-01,-4.056489146723826593e-03,4.367939325836149231e-03,-4.315501636705573046e-03,6.177129969000816345e-02
-4.110078511385882871e-01,-4.326097070501913611e-01,-3.965093475423915326e-01,-2.753677061990554564e-02,2.415362116528432107e-02,-2.874536774370246850e-02,8.656756579875946045e-02
-3.968709982951317272e-01,-4.371459926803223928e-01,-4.207824707450364965e-01,-2.410320113191897692e-02,2.922955071115757031e-02,-2.800941504760376746e-02,8.882777392864227295e-02
-4.363044214850368974e-01,-4.166335015904493733e-01,-3.936344071854810944e-01,-4.030848642970197293e-02,7.478212532620234776e-02,-5.721887998705486866e-02,1.812229007482528687e-01
-4.196626233203571421e-01,-4.132598130041957862e-01,-4.210771011342395731e-01,-1.374871257033974045e-02,9.056332913086547615e-03,-1.412112762719895317e-02,3.825447708368301392e-02
-4.043762214567018787e-01,-4.034996128789182235e-01,-3.976138221531589356e-01,-2.208881351284466485e-02,2.185765988403479132e-02,-2.350195565216954205e-02,6.778359413146972656e-02
-4.438783776337292819e-01,-3.961074781507803455e-01,-4.142240727481924512e-01,-3.908352072514617581e-02,4.407301124632786310e-02,-8.981968127433710702e-02,1.906761825084686279e-01
-4.250218008853876017e-01,-4.172336693283644204e-01,-4.124180418627751421e-01,-7.333204443959401297e-02,3.568112773008709493e-02,-6.724295628534282532e-02,1.834077090024948120e-01
-3.921322416911737774e-01,-3.919989096785735927e-01,-4.332275111932503142e-01,1.463544499250128174e-02,-1.184890643347563232e-03,-1.236305251193441524e-03,4.843246936798095703e-02
-3.981913080243882352e-01,-3.730374062084329534e-01,-4.386033110933658108e-01,2.993032271466121441e-02,5.788405989804433233e-04,-3.150904336812662123e-04,7.727317512035369873e-02
-4.050228901582846874e-01,-3.867154997155477503e-01,-4.567613705002036006e-01,4.302500275208760716e-02,4.011722665626875350e-03,7.080350288828427333e-03,9.854621440172195435e-02
-3.957338004295761769e-01,-4.091016499776933824e-01,-4.395547169220722084e-01,1.781680045362768819e-02,-4.290830240840551313e-03,-4.825901115506053135e-03,5.089791119098663330e-02
-4.341628224535122871e-01,-3.976336791704861429e-01,-4.055361337637884978e-01,5.206611354309034247e-03,7.909999733256712750e-04,1.126374832494719640e-02,3.964816033840179443e-02
-4.236520452778187451e-01,-4.107017178051770578e-01,-3.953812282717582560e-01,5.364431918856849349e-03,5.805873325709173631e-03,2.131806984804319668e-03,2.831825241446495056e-02
-4.324752679160237534e-01,-4.176390379429285593e-01,-3.789927545320535551e-01,7.234370890723290648e-03,6.751735617302319532e-03,4.720581790467982472e-03,5.145514383912086487e-02
-4.315315097068690431e-01,-4.297071510933836436e-01,-3.956987550211835680e-01,1.402391384961021274e-02,2.235312135699133590e-02,3.195737360485085415e-02,7.984209805727005005e-02
-4.338541729189028806e-01,-4.166527189118727770e-01,-3.681161306404701072e-01,9.830509317748120646e-03,5.088213579988961656e-03,1.095242678019524643e-02,6.491566449403762817e-02
-4.218704004642809258e-01,-4.165965873703731948e-01,-3.764014358645892400e-01,7.784116833068627749e-03,7.719257499202387095e-03,9.414916982379509941e-03,4.981872439384460449e-02
-4.288206491303060974e-01,-3.972377674133581449e-01,-4.109652326136743472e-01,-1.914915977701395211e-03,4.943390508075290804e-03,-2.418413042994588692e-03,2.922716177999973297e-02
-4.096172771268117296e-01,-4.415167494190576636e-01,-3.959153539298925772e-01,1.244556055665920185e-03,1.608347594368195882e-02,-6.118409996276322129e-05,4.922495037317276001e-02
-4.376443476360737939e-01,-4.386442219111030272e-01,-3.708828557003215898e-01,1.154346982629946526e-02,2.987778121891550287e-02,2.421596890631726173e-02,9.675686061382293701e-02
-4.206543150443114443e-01,-4.219495239811250076e-01,-3.780683659977148725e-01,1.629616575744384510e-02,1.852392126089801028e-02,2.175735648665920799e-02,7.153075188398361206e-02
-4.077178419760790762e-01,-4.363609399587984883e-01,-3.858445598887366712e-01,-4.638342053028276265e-04,-1.799447747455842905e-02,-2.564491116176706182e-03,5.401078611612319946e-02
-4.049644811078227380e-01,-4.209698862244083406e-01,-3.865419344992395145e-01,1.347646725201074279e-02,2.388835000493321967e-02,1.223232253829895783e-02,5.996764078736305237e-02
-4.104197261640477601e-01,-4.350450072509583488e-01,-4.034364661378717631e-01,9.484549326194701563e-03,1.488612844309211355e-02,9.665676565312270735e-03,4.518928378820419312e-02
-4.183982549821961272e-01,-4.185186040488730330e-01,-3.797026297566876152e-01,1.933317780849028861e-02,1.977615273628628018e-02,2.118948936686170653e-02,7.171896845102310181e-02
-4.087160573337191849e-01,-4.265515311234732709e-01,-4.050248255850926182e-01,1.409776345218171495e-02,2.268750724311872913e-02,1.766999755736257255e-02,5.894624814391136169e-02
-3.790691777256372519e-01,-4.601244353516965591e-01,-4.227810431689538739e-01,-4.311372690376163302e-03,-6.885333462211731814e-02,2.873934208835655577e-02,1.472873538732528687e-01
-3.756525512635429664e-01,-4.244104482899494490e-01,-4.025075116333093894e-01,-1.546599214891883518e-02,-2.529178741495200292e-02,1.255506625810619455e-02,6.999024003744125366e-02
-3.785016999862146347e-01,-4.364622545738761628e-01,-4.277182796570394019e-01,-1.686301633030132252e-02,-2.305991759635277541e-02,9.729842140620179394e-03,7.524260878562927246e-02
-3.425823833411137387e-01,-4.290632843631684845e-01,-4.245755128089054864e-01,-2.455310810522247367e-02,-3.189778470125226306e-02,1.766532505050791291e-02,1.136140078306198120e-01
-3.905689540645372881e-01,-4.377362403375448241e-01,-4.340668112710827642e-01,-2.124499039954006602e-02,-1.635690309285786626e-02,1.468357608311090037e-02,6.977576017379760742e-02
-3.734402085398136339e-01,-4.786802167510350592e-01,-4.403181910861158621e-01,-3.671721860278989724e-02,-5.535622246728428425e-02,2.420438051187591422e-02,1.533128768205642700e-01
-3.411129961920995046e-01,-4.393965012538452175e-01,-3.960344322921369731e-01,-1.462260384613586414e-02,-5.017036903138376303e-02,8.575802454641921757e-03,1.252654492855072021e-01
-3.803293572348420692e-01,-4.385652049302593003e-01,-4.444092459840807141e-01,3.529677968376903480e-02,2.648222514046398579e-02,1.522820085390791563e-02,1.015042215585708618e-01
-4.024750506302272601e-01,-4.071924051875570050e-01,-4.597108845850705339e-01,3.596273208184844195e-02,1.240345522927618037e-02,1.489756746158519586e-02,8.964093029499053955e-02
-3.632407311338616829e-01,-3.905109938898801980e-01,-4.761283764970033472e-01,7.881295101450282170e-02,2.087504014511266937e-02,2.058644706350493819e-03,1.742506027221679688e-01
-3.181843035505608208e-01,-4.279609087786989119e-01,-4.321503413909589253e-01,5.662313921281898060e-02,3.448271112517535542e-02,2.102704014188705450e-02,1.644398868083953857e-01
-3.627782608796796815e-01,-4.638832377196402956e-01,-2.355547976677038191e-01,-4.609197526565021047e-02,1.429537534437128610e-01,-6.196170725907630683e-02,3.441939055919647217e-01
-4.751350730541460399e-01,-4.544066182038045132e-01,-1.651325530177976675e-01,-1.179913044175601427e-03,6.500012865031036535e-02,-9.614150387883355769e-03,3.210325241088867188e-01
-4.359581964934812204e-01,-4.720278105667873314e-01,-3.163895365114597347e-01,-2.370707703860362031e-03,2.920228973493930319e-02,-1.158202111144315209e-03,1.499655991792678833e-01
-4.406346056468963268e-01,-4.641137822399156732e-01,-3.534899921267346534e-01,-8.782365829136801194e-03,2.330106657241384424e-02,-1.462889905655572788e-02,1.126665994524955750e-01
-4.457220843893432982e-01,-4.690747377725429934e-01,-3.362411805673429788e-01,-9.398083110449293592e-03,5.257393846310901703e-02,-3.113660952939597062e-02,1.629526913166046143e-01
-4.510528768011567990e-01,-4.957475840468000272e-01,-3.359462752808768382e-01,-3.462776268245011668e-02,7.793287119223521464e-02,-4.407968308883249142e-02,2.191773205995559692e-01
-4.521263995295117799e-01,-3.663330291302360209e-01,-4.318802890350899037e-01,-3.334223461668981130e-03,-4.030476749740355587e-03,2.847108909389524031e-02,9.245171397924423218e-02
-4.296418476953462462e-01,-3.640458592447594066e-01,-4.154607129153399248e-01,-4.093613358927106205e-02,-2.734407971124217657e-02,7.582328259517014113e-02,1.676055490970611572e-01
-4.433058892186345079e-01,-3.635083937251220032e-01,-4.222074434526801312e-01,-1.173804730216771244e-03,2.322834504703018711e-03,3.092075138064823495e-02,8.954206109046936035e-02
-4.001271042341207895e-01,-4.003108173831785854e-01,-4.292385435787735015e-01,7.876050289177038977e-03,5.014283765169750065e-03,5.059383038398432633e-03,3.435810282826423645e-02
-4.428525291037026523e-01,-3.441735786546273324e-01,-4.129827449823850194e-01,-1.579593644245083639e-02,-1.133390845296039680e-02,4.411161125850259629e-02,1.210521832108497620e-01
-4.420157962032019716e-01,-3.967669983507556841e-01,-4.072952779103612975e-01,-2.167593135847952629e-02,-8.916031797884938284e-03,3.198717545685036967e-02,7.999668270349502563e-02
-4.957008142316002286e-01,-3.795720933738146452e-01,-3.690597183636412648e-01,-1.875270590960814027e-02,-3.688781850383385241e-02,6.352142096887471168e-02,1.790508776903152466e-01
-3.134096641949603024e-01,-4.985736770042745736e-01,-4.950128581685555584e-01,1.650315111692630954e-02,-1.256743354868687136e-02,-1.685223673192789507e-03,1.869183182716369629e-01
-3.499349626987897088e-01,-4.531631062752090044e-01,-4.528238711264207517e-01,-1.645644464658541171e-03,-7.072958139246813582e-03,-1.782965742596802697e-03,1.038695722818374634e-01
-2.964847981203821981e-01,-4.415206710241585952e-01,-4.455028667627680128e-01,1.038916652601386964e-02,3.342186600574887159e-03,2.940030758471645460e-03,1.483646482229232788e-01
-3.142347634893957742e-01,-4.503770170991794886e-01,-4.832308467648179784e-01,1.671499737935294022e-02,-1.470867385586786293e-02,1.035761854371823956e-02,1.609221249818801880e-01
-4.090723209819319139e-01,-4.053575473912666705e-01,-3.542749328496858086e-01,-3.273263166039033778e-02,-5.297852782484580025e-02,5.139881430900246351e-02,1.495759189128875732e-01
-4.191463173484232252e-01,-4.401516864700149023e-01,-3.987102369172352834e-01,-2.371065679423505282e-02,-2.965313248879423991e-02,1.332204265104701413e-02,7.839047908782958984e-02
-4.246861833005508569e-01,-4.217668330187027692e-01,-3.776647796493995957e-01,-1.202608133387569368e-02,-1.483271507344783961e-02,2.522928558242981331e-02,7.131424546241760254e-02
-4.412167011904474800e-01,-4.742563824797906280e-01,-3.187578638307881351e-01,-2.663534499676212253e-02,-5.663915920619800454e-02,4.414776154891241616e-02,1.942502856254577637e-01
-4.112115064471270620e-01,-4.695126011167070623e-01,-3.521707970845330271e-01,-2.962114579724067429e-02,-7.227114654272717709e-02,4.933201105081366257e-03,1.694153547286987305e-01
-3.969679910899882036e-01,-4.493762912976910773e-01,-4.079495299596652136e-01,-1.416893812517547660e-02,-3.907399617752629895e-02,1.000456203112733838e-02,8.817359060049057007e-02
-4.003519560553829293e-01,-4.383175200493426571e-01,-3.784987670866076237e-01,-4.199759048487836099e-03,-2.921677831787350757e-02,5.909600322414550883e-03,7.394023984670639038e-02
-4.866502251779033505e-01,-2.948546515013104052e-01,-4.544191313654140085e-01,5.446561554905372804e-02,-6.803732401458506551e-02,-1.678268374285511177e-01,3.727289736270904541e-01
-4.609831983208490525e-01,-2.894136882669318123e-01,-3.229369511220790967e-01,2.769407133410422064e-02,-2.591550916856625447e-02,-1.480079144685642056e-01,3.079660534858703613e-01
-4.809959373598776677e-01,-3.000121246528184571e-01,-4.192484026432355959e-01,-3.464820730298334706e-02,2.423091231986449975e-02,-1.010577927078692151e-01,2.477771788835525513e-01
-4.957817363234048869e-01,-2.558827388131304503e-01,-3.705784424673214117e-01,-4.234200251504226936e-02,-7.522107800469084778e-04,-1.574254151314465888e-01,3.505991399288177490e-01
-4.581990514685813642e-01,-3.349588357050499177e-01,-4.199594840489693781e-01,1.262388897323370694e-02,9.065412021325696540e-03,-7.185092815820492973e-02,1.677798032760620117e-01
-4.971517899144343167e-01,-3.873894521787983880e-01,-4.339961147031992095e-01,-2.076488748985245297e-02,1.125482527473103088e-02,-7.098750015578424166e-02,1.609208732843399048e-01
-4.982407237232504560e-01,-3.872977699677544461e-01,-4.229038480318123572e-01,9.784543932826701013e-03,-8.643904885838849320e-03,-8.283014514203984602e-02,1.752705127000808716e-01
-4.052310565703967082e-01,-3.951833773508789949e-01,-4.189439233490803716e-01,1.581753565759354274e-02,1.404237642141266222e-02,1.344031110389105887e-02,4.807135462760925293e-02
-4.085012788398091899e-01,-4.130188703211060131e-01,-4.099033355943902390e-01,1.778296429036195503e-02,1.301187556243523294e-02,2.031723617988184794e-02,5.206763744354248047e-02
-4.132622110696043127e-01,-4.058092718224302065e-01,-4.246080205310645561e-01,9.694577602709581257e-03,7.227359479590859254e-03,6.354926761608025235e-03,2.878623455762863159e-02
-4.154236032138339252e-01,-4.130137335959264133e-01,-4.231666925232139276e-01,2.678745318298052583e-02,1.367875971790126835e-02,1.347569260486822067e-02,5.782070383429527283e-02
-4.060511109516569683e-01,-4.025157308165582815e-01,-4.227362884352121597e-01,6.280576871229010330e-03,8.283946118398855321e-03,5.659309473936442562e-03,2.775201015174388885e-02
-4.046989167211795801e-01,-4.303459305281489566e-01,-4.095257271818705247e-01,-1.569155214088779893e-02,3.091727816207298987e-02,-1.147726145431266637e-02,6.751862913370132446e-02
-4.187488101074404168e-01,-4.195282039868510893e-01,-4.130115616602432205e-01,-1.678242704544832126e-02,1.795401079716987466e-02,-2.273217102321482136e-02,5.831156671047210693e-02
-4.118222973704879220e-01,-4.411059533995752568e-01,-4.193044623078668320e-01,-2.106515784562822818e-02,2.584409504756248963e-02,-1.827760342307801350e-02,7.093375176191329956e-02
-4.248773434371191926e-01,-4.176464627941074426e-01,-4.095830311453984574e-01,-1.252054176773975507e-02,1.548312538436905951e-02,-2.575907753918321372e-02,5.792817845940589905e-02
-4.178821429102120844e-01,-3.829461092397643540e-01,-3.966252800023686853e-01,-2.930332292517387471e-02,3.067947317468398480e-02,-4.412037977794892873e-02,1.103146299719810486e-01
-4.273460363754228442e-01,-4.444203244967145361e-01,-3.742970539909460381e-01,-4.291848113877653331e-02,3.281741196173999786e-02,-5.394322470753983023e-02,1.466221362352371216e-01
-4.396121862716517170e-01,-4.027263903977424953e-01,-3.937706034833647339e-01,-4.849309337312800866e-02,3.313909008631603370e-02,-3.459117459451759025e-02,1.253399252891540527e-01
-3.501307961492670096e-01,-4.080735967749890003e-01,-4.312008251714093410e-01,5.458300401145046304e-02,-3.109345292132849672e-02,-1.677427862505777301e-02,1.338459700345993042e-01
-3.598375541322996196e-01,-4.480173903989395079e-01,-4.707681879628295429e-01,2.558941405289611934e-02,-4.731456497674460006e-03,-6.478616823696323364e-03,1.116108223795890808e-01
-3.390665912173491670e-01,-4.427779511460030459e-01,-4.682295080118055175e-01,2.774932490978533964e-02,-1.106966608362721857e-02,-3.734765215660509983e-03,1.294719129800796509e-01
-3.460637808816302008e-01,-4.213915918984886266e-01,-4.807886577890090329e-01,5.813081851088090779e-02,-3.365728483250039066e-02,-3.308291405083661069e-02,1.746310144662857056e-01
-3.239865809837133570e-01,-4.120843401086843882e-01,-4.511168964586003138e-01,5.818422309762136951e-02,-7.326615456704118831e-03,-3.654415231986208289e-03,1.519235074520111084e-01
-4.086328257169986600e-01,-3.954570358087610149e-01,-4.318106284540526030e-01,1.564188857290875478e-02,4.219426274168497880e-03,2.822991535873006514e-03,4.274953156709671021e-02
-3.579449453146635318e-01,-4.180847409441471041e-01,-4.556149803850778057e-01,3.349061121177895894e-02,-2.036705040080005920e-03,-6.579567189896621572e-03,1.038727834820747375e-01
-3.681691073563508887e-01,-3.992971841935801791e-01,-4.360401036116897666e-01,-2.844348670828025782e-02,2.879636051025651240e-03,-2.761984235075683625e-03,7.705578207969665527e-02
-3.272778024518872009e-01,-6.055704373278341102e-01,-5.059167233760791804e-01,3.521202130058594115e-02,1.772968818902051491e-01,3.411977127278065236e-02,4.014467000961303711e-01
-3.923313642634811971e-01,-4.189538399296734439e-01,-4.189812998245532882e-01,-3.164235703966804605e-03,2.850598543843233662e-03,-6.422526855024450997e-03,2.979344688355922699e-02
-3.901556591825952047e-01,-4.105979100683148086e-01,-4.416953923720078889e-01,-1.754551953452719582e-02,3.620084976209649768e-04,-1.419963836615025952e-03,5.431960523128509521e-02
-3.991331980163734250e-01,-4.096157103599366023e-01,-4.372166942773710874e-01,-3.080000530527538666e-02,-7.130437933757840900e-03,1.041708693625686966e-02,6.697031110525131226e-02
-4.029609069080870576e-01,-4.026372275315819871e-01,-4.361240742452932029e-01,-6.389892549183962510e-03,-8.025071183732718433e-04,7.689108993416840596e-04,3.516862913966178894e-02
-3.970419914903492997e-01,-3.952112094797609054e-01,-4.337513103750046950e-01,-1.096517173611771812e-02,-1.944631217294898054e-03,2.118849172224795095e-03,4.246941208839416504e-02
-4.070506392380744964e-01,-3.942253164414089017e-01,-4.357867057623063811e-01,-2.474279803938541841e-03,-3.002720371113581227e-04,-3.681818705401208695e-04,3.711931034922599792e-02
-3.965437409198744878e-01,-3.967539684508589182e-01,-4.334929816213767273e-01,-1.108471613882028133e-02,-3.909248787826231919e-03,5.480311466778922669e-03,4.315186664462089539e-02
-4.001159126003347999e-01,-4.083566181109713478e-01,-4.358813614134825487e-01,-1.499791639123041094e-02,-3.731204244718210657e-03,5.761545104743713563e-03,4.322624579071998596e-02
-3.999372497271751481e-01,-4.214109039530523626e-01,-4.033893667582288955e-01,-3.180725865779322498e-03,-3.440797654289493458e-03,4.165699799185618862e-03,2.273395843803882599e-02
-4.344193397572887472e-01,-5.061634708502070756e-01,-3.415055089833504143e-01,2.927207109095123806e-03,7.297919065835964392e-02,8.908785891279833585e-03,1.915408968925476074e-01
-4.565039796617688661e-01,-4.154451582028241829e-01,-3.377803973712232843e-01,2.758128339481868280e-03,-6.415169284306418765e-03,-4.619590772066574369e-02,1.321171373128890991e-01
-4.550436346259556508e-01,-4.247290899160601763e-01,-3.655295236962753380e-01,-1.821697492504516930e-02,1.488484068979562501e-02,-3.914318847682812796e-02,1.116914749145507812e-01
-4.433227940688146407e-01,-4.250975985072584229e-01,-3.787549201605705518e-01,-5.369625539298377923e-03,-1.891895774794259341e-03,-3.338960433151803853e-02,8.225715160369873047e-02
-4.383593574594268905e-01,-4.363687939941080507e-01,-3.460582977512443037e-01,-6.209123656813592650e-03,1.579211504652040798e-02,-2.661740309669088228e-02,1.064378097653388977e-01
-4.589245478226741115e-01,-4.394762694731031982e-01,-3.309237891842736756e-01,2.857295987513231925e-03,2.387295546356172152e-02,-3.766670467157168939e-02,1.423503607511520386e-01
-3.137841935639099633e-01,-5.103505480748999901e-01,-4.754840135453901606e-01,-8.689215852295250134e-03,-5.842718560864967187e-02,2.346899041602888702e-02,2.124159038066864014e-01
-3.487568997028722695e-01,-4.489562324361255907e-01,-4.406877698718043579e-01,-1.350151130805860543e-02,-1.827927014239113732e-02,1.068514853590003116e-02,1.056956201791763306e-01
-3.478543884893874338e-01,-4.612174036228655072e-01,-4.508728609386201125e-01,4.545569113190749480e-03,-4.083737796238029460e-02,-1.388433487623326641e-02,1.320184767246246338e-01
-3.457978536681566295e-01,-4.651020758705319835e-01,-4.243659732013628783e-01,1.163674132372628095e-02,-2.464468607557200250e-02,2.214090691127348215e-03,1.152213886380195618e-01
-3.327816140750671225e-01,-4.451762725816366117e-01,-4.401682140563862311e-01,-2.292340297126836072e-03,-2.227796244104488649e-02,-2.939847382108816474e-04,1.166177839040756226e-01
-4.048986751617030255e-01,-4.206739538135316758e-01,-4.027172161753592716e-01,-8.954729562589169075e-04,-1.227287445669581617e-03,8.344767046347419505e-04,1.723498478531837463e-02
-3.462524541014208035e-01,-4.747959779755073217e-01,-4.606692382933393892e-01,-1.656705348984626597e-02,-4.144686940611210652e-02,1.497667272561912198e-02,1.468227952718734741e-01
-4.100175431574802909e-01,-4.105248850242509406e-01,-4.124389668170831968e-01,1.181050023717015036e-04,3.722848611428992462e-04,1.124712440753240696e-03,3.024031640961766243e-03
-4.561877852003219935e-01,-3.321966445781618926e-01,-4.939576279959889682e-01,-6.764488156797046625e-02,-9.631665708341938248e-03,2.665050532258575119e-02,1.939588487148284912e-01
-4.207543433329472005e-01,-3.864134149266652551e-01,-4.553301147492410106e-01,-3.849437782711641332e-02,-7.282984149593762883e-03,6.154187024029455708e-03,9.099640697240829468e-02
-4.429229540836659429e-01,-3.249396318162260933e-01,-4.534787498947077666e-01,-3.847720945306887241e-02,-4.274068016301891051e-03,1.809524281136178645e-03,1.406520903110504150e-01
-4.256692270992540328e-01,-3.674081906882592508e-01,-4.490013865291841433e-01,-2.609121518769519366e-02,-9.537633503202398375e-03,2.207807182937124996e-02,9.526579082012176514e-02
-3.960183209461688447e-01,-4.108941445929496505e-01,-4.298588711678634766e-01,1.070822859597902327e-02,-1.014057477367514767e-02,-8.465150042346922254e-03,4.159970581531524658e-02
-4.019473168145129005e-01,-4.133913178040494185e-01,-4.129749062064336229e-01,1.885601918945775668e-02,-1.729338338344863293e-02,-1.200074081557035884e-02,5.022208765149116516e-02
-4.062718034692724411e-01,-4.118948766086731328e-01,-4.127575360264266191e-01,1.031145531130903473e-02,-1.358367411645072971e-02,-5.701963932556936183e-03,3.173764422535896301e-02
-3.993866640875900487e-01,-4.117951857889337042e-01,-4.121353884665648337e-01,1.292274634500699231e-02,-1.493733428382160340e-02,-1.236727053591789305e-02,4.227907955646514893e-02
-3.880231197263503407e-01,-4.133434824511300065e-01,-4.310437087393815259e-01,1.589678683076404392e-02,-1.195615089251262676e-02,-1.352874479969813117e-02,5.602363497018814087e-02
-3.878375745145082321e-01,-4.105918666802981232e-01,-4.187669219223363326e-01,1.538956537016829794e-02,-1.295501422618764928e-02,-1.074715856940207728e-02,4.828172177076339722e-02
-4.120410273736134221e-01,-4.299202523822471256e-01,-3.972027974307076881e-01,8.130983558742841538e-03,-1.230633428906754111e-02,-6.525380473149066697e-03,3.981901332736015320e-02
-4.035973052128547511e-01,-4.178846418044219746e-01,-4.061864780091045124e-01,8.352050937173987472e-03,-7.794782020558970424e-03,-8.756060784596118515e-03,2.820268273353576660e-02
-4.134004451653163215e-01,-4.198489425194953384e-01,-3.996655700272505052e-01,2.648453146797222560e-02,-2.441587966556952455e-02,-2.625961647682662631e-02,7.924770563840866089e-02
-4.409429750136318327e-01,-4.582296239111179892e-01,-2.220219113112534004e-01,-3.505801687240122245e-03,1.145560413822462459e-01,-8.374677803508302071e-03,3.026982247829437256e-01
-4.078844291549774126e-01,-4.249247018105097307e-01,-3.891245613219400656e-01,1.013104660629697562e-02,-1.568000887054597087e-02,-1.026306127042150677e-02,4.820239171385765076e-02
-4.048320737622876919e-01,-4.414167162123273647e-01,-3.946446096799033909e-01,1.062714033124027846e-02,-3.249069522721581560e-02,-1.769172603098495902e-02,7.911802083253860474e-02
-3.896867729903875088e-01,-4.367743613551134385e-01,-4.072903176320775143e-01,2.303643686303398150e-02,-3.923120487890643937e-02,-1.265832065152712460e-02,9.158717840909957886e-02
-4.309355061459321234e-01,-3.711233784379637246e-01,-4.511737453043877522e-01,-2.832709318503407250e-02,2.687223001083501213e-03,-3.149120373673568261e-03,8.750003576278686523e-02
-4.562906385038160151e-01,-4.511688686602731702e-01,-3.404100718993586239e-01,-2.887843974821166027e-04,6.759932127660336042e-03,3.533190554626845174e-03,1.141744926571846008e-01
-3.732494092585286749e-01,-3.543220371809487901e-01,-4.629817536634472930e-01,-7.303025225489087613e-02,2.433567886531497193e-02,-3.216758241529672074e-02,1.760389953851699829e-01
-4.073355241308721508e-01,-4.446820312427085531e-01,-3.823728211337081295e-01,-6.523764835642200006e-03,-2.722342062191550685e-02,1.561302370052321947e-02,7.766910642385482788e-02
-4.402849594947064737e-01,-4.471460760185428929e-01,-3.522325286199474714e-01,-2.790727919272365486e-03,-2.887887541408972261e-02,6.456537055040199001e-03,1.051419824361801147e-01
-4.036887815688062209e-01,-4.404584280154341114e-01,-3.873036889678715400e-01,-2.144199447146825054e-03,-3.922196092523401456e-02,1.101569858271678540e-02,8.494626730680465698e-02
-4.071883463110596013e-01,-4.663135920057804307e-01,-3.947617355267640793e-01,-5.231089563335036136e-03,-4.269105768996142580e-02,1.567285778360554037e-03,9.970949590206146240e-02
-4.198425235976456782e-01,-4.488656958765004368e-01,-3.461108120459933657e-01,9.247932154097214530e-03,-4.206690243844632415e-02,-1.019572562419580539e-02,1.195656359195709229e-01
-4.520224389976622015e-01,-4.643191714763927336e-01,-3.164670783862998937e-01,4.943698494159940240e-03,-3.960984863939456813e-02,-1.382463390599020236e-02,1.598338335752487183e-01
-3.997395740240581863e-01,-4.915451776274687434e-01,-3.621638539950804425e-01,-1.302874421663851798e-02,-6.278507416504293392e-02,-1.467556956267329279e-03,1.600982993841171265e-01
-3.803758319744986460e-01,-4.281215088460484375e-01,-4.501408006230865344e-01,2.641605203890569353e-02,8.826612170953252595e-03,5.440236865826762053e-03,7.894152402877807617e-02
-4.059924948470318706e-01,-4.005838310682113823e-01,-4.495198323255834572e-01,3.380078219650575755e-02,1.248624862025838299e-02,1.513664364743334302e-02,8.210882544517517090e-02
-3.949780009422333427e-01,-3.862182057871033636e-01,-4.413969134868375166e-01,7.956523922568584095e-02,1.269552942754467555e-02,2.494026393638270819e-02,1.548532545566558838e-01
-4.045912920570711724e-01,-4.114654797789132346e-01,-4.511995450658184414e-01,3.444664760807922971e-02,1.234158675143746421e-02,7.766156268611430595e-03,7.808193564414978027e-02
-3.923549430251376813e-01,-3.996511032466689706e-01,-4.210642373259166904e-01,2.943122058824369433e-02,2.403617110259193695e-02,1.798343978514168467e-02,7.726580649614334106e-02
-3.939741919952888805e-01,-3.988655070601230812e-01,-4.232053368944741489e-01,3.212654862098231201e-02,2.026969344755285424e-02,1.790410638434865656e-02,7.762733846902847290e-02
-4.019115854712706493e-01,-3.710084787933304318e-01,-4.525207188830046579e-01,-2.796680549279850075e-02,6.257535136838445356e-04,-3.661284000989196139e-04,8.618740737438201904e-02
-3.940004011169932485e-01,-4.126436511592101453e-01,-4.434550642448703561e-01,-1.628864912905874512e-02,2.646458521637307972e-03,-3.151549804480014306e-03,5.213546752929687500e-02
-3.927635526541577438e-01,-3.938785893058865950e-01,-4.411386316984314826e-01,-1.340492219882500995e-02,-1.188977170941300961e-03,-2.748743135060603433e-03,5.341755598783493042e-02
-4.107305368867788520e-01,-4.113549776859530271e-01,-4.115602508600373910e-01,1.760399930194920333e-04,-8.806693291584625246e-05,-3.260901800782709968e-04,9.977406589314341545e-04
-3.908371358135908635e-01,-3.931567816969099849e-01,-4.306354505481654882e-01,-1.520644896273712701e-02,2.918444194495774593e-03,-3.757105118830648613e-03,4.752448201179504395e-02
-4.301227863401961837e-01,-4.195457624579868594e-01,-3.863689037515503633e-01,4.973322113064218217e-03,2.392675513206745253e-03,4.044814788873700613e-03,4.127890244126319885e-02
-4.125553117303708550e-01,-3.884304796254897107e-01,-4.511785871729941944e-01,4.677740184770599191e-02,3.763821466747958866e-02,5.078451265456307429e-02,1.468231081962585449e-01
-3.685677599462384157e-01,-4.464451257368812209e-01,-4.361011763449645362e-01,5.034368718724310798e-02,3.357790175405039879e-02,1.274138873419318127e-02,1.297660917043685913e-01
-3.758226508374904462e-01,-3.910331516784623096e-01,-4.335818852094266429e-01,5.348569706704293936e-02,2.861074683633435881e-02,2.289197982738300219e-02,1.236889362335205078e-01
-4.101819858657100859e-01,-3.721339509128764877e-01,-4.584984859459443896e-01,6.483211107777644977e-02,3.835317344304536857e-02,2.317263961498999131e-02,1.557366549968719482e-01
-4.096911493163634677e-01,-4.418358223019669961e-01,-3.892258120465154625e-01,8.858930881011963790e-04,1.797438165078800443e-02,-8.976809776799614957e-04,5.553349107503890991e-02
-3.928482982733477735e-01,-4.248381557644455575e-01,-4.263157988964483835e-01,3.589066601467517242e-02,2.523962170090505996e-02,2.633859320024224335e-02,9.449604898691177368e-02
-3.856366269726421159e-01,-4.016533264059408692e-01,-4.290079392180446982e-01,2.611770694331596102e-02,1.656601434924913352e-02,1.329706067698129338e-02,6.959222257137298584e-02
-4.103061500754738855e-01,-4.274977753204598496e-01,-4.233876710526769394e-01,3.194971218416256531e-02,3.071871429552911967e-02,3.018030427812700561e-02,9.416797757148742676e-02
-4.031360240897561842e-01,-4.212184861503742717e-01,-4.079974384235612317e-01,-1.535547387444639042e-03,-2.222088501500183496e-03,1.520744209126125251e-04,1.687182858586311340e-02
-4.181576088616724696e-01,-4.176640641956428923e-01,-4.125457378953417131e-01,1.127576505499291830e-02,1.051306527105118002e-02,1.320339628118828365e-02,3.556625172495841980e-02
-4.236510368095762757e-01,-3.991305344767021590e-01,-4.104488755058525729e-01,1.089042006223678478e-02,1.464111610498227377e-02,1.548755349517368443e-02,4.658660665154457092e-02
-4.051302790154395206e-01,-4.137126982874410608e-01,-4.080128855628858409e-01,8.076214919888594079e-03,1.448995710599119795e-02,1.016230514188780701e-02,3.453399986028671265e-02
-4.181865099281139586e-01,-3.965053330233800355e-01,-4.017889520886927524e-01,9.235587251971757658e-03,9.420603877295907411e-03,1.019875691636676004e-02,3.489427641034126282e-02
-4.205946336898527260e-01,-4.156581814364480598e-01,-4.006870074032619078e-01,6.784102006868559728e-03,1.075756173890548943e-02,7.167193585384746407e-03,3.101229853928089142e-02
-3.248763160031642450e-01,-5.559393258209379685e-01,-5.081915626001424213e-01,-1.296987952518716125e-01,-1.484096336133688965e-01,7.514817203433213355e-02,4.220433235168457031e-01
-4.025553139163489114e-01,-4.192101135662534284e-01,-4.065110590153909742e-01,2.446177300490529755e-02,3.583315677749129846e-02,2.058376616154621030e-02,8.453048765659332275e-02
-4.056623438962725925e-01,-4.518366844325444331e-01,-3.696718544519524419e-01,1.018831788935801660e-02,2.597156668421810727e-02,8.399006962798266987e-03,8.738320320844650269e-02
-4.249602571121939287e-01,-4.393559522497959002e-01,-3.679475953403176236e-01,5.195504800832215740e-03,2.056091238803227361e-02,1.246675371242516976e-02,7.806349545717239380e-02
-4.413664938429776585e-01,-4.461965553315803135e-01,-3.745134964252211374e-01,1.501462694779198172e-02,2.635975007565199285e-02,2.872334507601177755e-02,1.002570465207099915e-01
-4.472467624488906113e-01,-4.019545107720642330e-01,-4.082985406903462122e-01,8.098546637746050283e-03,-1.272064404743443282e-02,-3.607119771243002398e-02,7.993683218955993652e-02
-4.392208034489520907e-01,-3.732535477413190250e-01,-4.016445523520260630e-01,2.412231069540085419e-03,-1.865705114798550494e-03,-2.668279042201304047e-02,7.381507009267807007e-02
-4.365518932373906869e-01,-3.916752944220229793e-01,-3.663758377429918722e-01,1.826654238775356296e-03,-1.898762042848164055e-03,-3.293128668914738211e-02,8.404498547315597534e-02
-4.508936611631251257e-01,-4.508486299260761054e-01,-3.521604006293013178e-01,2.998684168483024132e-03,9.322125591774567399e-03,1.925113558814133853e-03,1.002128422260284424e-01
-4.151804676042095688e-01,-4.060954680542839812e-01,-4.089672578928157387e-01,4.048079424641783108e-03,2.777448059715158235e-03,3.400650059313353561e-03,1.310308929532766342e-02
-4.363864424432753464e-01,-3.892658242696063198e-01,-4.120597343784972444e-01,1.542087311731154577e-02,2.187127412514269786e-02,2.146266761548269383e-02,7.208507508039474487e-02
-4.295639555873920212e-01,-3.538911486825355723e-01,-3.892609575970102931e-01,3.059227556243938537e-02,2.359912855293924694e-02,5.957610003193872933e-02,1.393815577030181885e-01
-4.350424408668913112e-01,-4.494382154617826419e-01,-3.602630206940515278e-01,2.020113002292625755e-03,8.153220456711570557e-03,1.653064142284446690e-03,8.423522859811782837e-02
-4.431131962556744686e-01,-3.987742876595393171e-01,-3.939276207788285356e-01,4.829478869664806211e-03,8.966459977132671191e-03,1.345978091252434013e-02,5.530809983611106873e-02
-4.624234422642778952e-01,-3.402129001714478962e-01,-4.595695244519237277e-01,1.656644425405135596e-02,-1.179941482291112752e-02,-1.538408788326375669e-02,1.286305338144302368e-01
-4.498501880688999810e-01,-3.474270904867189369e-01,-4.416955881262865091e-01,2.351724613116391166e-02,-8.483787879277400468e-03,-1.927874891128221121e-02,1.127469986677169800e-01
-4.337208059183144115e-01,-3.089250784090385449e-01,-4.566160074622696019e-01,5.726013317521361223e-02,-1.118247616848031152e-02,-3.246500705962682143e-02,1.798016428947448730e-01
-4.424181357842866813e-01,-3.337740157256405271e-01,-4.753618081123037187e-01,5.023444089531229478e-02,-2.366442667544433123e-02,-5.300658169347090276e-02,1.847906112670898438e-01
-4.293882314606701778e-01,-3.595211262068428448e-01,-4.362560396558632370e-01,3.187966330201900261e-02,-1.005761038386576191e-02,-1.334495601493642866e-02,9.641100466251373291e-02
-3.935886920516440957e-01,-4.429722694424523266e-01,-4.120716691595220360e-01,-7.744720240774407866e-04,-1.651056771788590033e-02,3.152250839365434033e-03,5.212493240833282471e-02
-4.101106565267026438e-01,-4.324713665951217534e-01,-3.921918016370986582e-01,-5.544302853469446242e-03,-1.956015925175413894e-02,4.597540382554251084e-03,5.025131255388259888e-02
-4.069345109521088633e-01,-4.503011250328657900e-01,-3.992655572770120176e-01,-4.885891471979960168e-03,-3.735852543022181310e-02,6.500721627534001429e-03,8.159304410219192505e-02
-4.356813803962906184e-01,-4.445164653902361485e-01,-3.487337924335911499e-01,-5.366568757078585099e-03,1.253624265794956068e-02,-6.534591042329646916e-03,9.535253793001174927e-02
-4.599556606949200543e-01,-4.403950777991721410e-01,-3.398925516731030605e-01,-1.012672600333604754e-02,-1.951592571649288926e-02,2.354204007732385237e-02,1.247485876083374023e-01
-4.718920049437214659e-01,-4.700674573416431246e-01,-3.052304378830623666e-01,-1.695270953429782804e-02,-3.616381527530489193e-02,1.899911402957658868e-02,1.826030462980270386e-01
-4.636470891025832319e-01,-4.672564482415121900e-01,-3.359610137360993232e-01,-7.735323656554993210e-03,-2.466153097329747135e-02,3.995572385455411352e-02,1.535287797451019287e-01
-4.173431114540837594e-01,-3.819038690577869488e-01,-4.178237189154727083e-01,-1.475782079161853944e-02,-1.521538636178542368e-02,1.892891385160713758e-02,6.079488620162010193e-02
-4.122285053780579411e-01,-4.174716456564558920e-01,-4.170630844980521834e-01,-5.841853178769315473e-03,-1.105418129943345346e-02,8.721340062465859910e-03,2.688246965408325195e-02
-4.102778064078491105e-01,-3.999150174991939477e-01,-4.234152846226331146e-01,-1.135813941688442429e-02,-7.110084925706623357e-03,8.505073219754698960e-03,3.423174470663070679e-02
-4.191877824706957134e-01,-4.037978423170250908e-01,-4.106228020964524661e-01,-7.060499791175753846e-03,-8.647854109627685359e-03,7.012096279974303938e-03,2.645394578576087952e-02
-4.172859266315183668e-01,-4.033148821353863545e-01,-4.103889510916662320e-01,-7.599434118333979297e-03,-3.024705658104479694e-03,6.076964658907118774e-03,2.139835618436336517e-02
-4.198590642791251160e-01,-3.898407411193096639e-01,-4.077738464135013396e-01,4.441120147421132383e-03,6.610284202855968259e-03,5.889097904891811043e-03,3.128381073474884033e-02
-4.081534435632279134e-01,-4.110265505867902736e-01,-4.139626178609675522e-01,-1.081140020616340415e-03,1.068690073932545160e-03,-2.684282367139863290e-03,7.338928524404764175e-03
-4.193152091778661883e-01,-4.126605466373698961e-01,-4.096273135182127989e-01,-1.650108583877136353e-02,-2.234143243591883710e-02,1.970327612870183265e-02,5.960372090339660645e-02
-4.133261668785602749e-01,-4.106510189056088445e-01,-4.190643770309088745e-01,-1.246946353299880662e-02,-1.073785873011693856e-02,1.541469549762538270e-02,3.975726291537284851e-02
-4.470699051488944420e-01,-3.330865768530288928e-01,-4.347524086659729226e-01,-3.433354023630810770e-02,-2.959520225048156705e-02,6.482959102939794827e-02,1.746784597635269165e-01
-4.361772470737287910e-01,-3.741064492319433610e-01,-4.254500520679977416e-01,-7.048595207510214254e-03,-1.836105314992392268e-02,2.274681232065698527e-02,7.755447179079055786e-02
-4.046498298704349628e-01,-4.180539332709166112e-01,-3.910790899800845044e-01,1.278795480890262092e-02,1.638659063440865704e-02,1.350626657771837082e-02,4.887896031141281128e-02
-4.177946193197770719e-01,-4.220138633127928918e-01,-3.844792958400947702e-01,2.839208572400576946e-02,-3.849399631847615078e-02,-3.935933531651215900e-02,1.130462065339088440e-01
-4.209043763739681587e-01,-4.255087647965501985e-01,-3.861008004077055578e-01,1.000409410409303958e-02,-1.840995969613515998e-02,-1.275409370119159197e-02,5.654878169298171997e-02
-4.210146006494130955e-01,-4.325237262533521143e-01,-3.504749144749487177e-01,6.692303377461013107e-03,-2.362894997689052659e-02,-1.289668491750585108e-02,9.071093052625656128e-02
-3.996440396815297280e-01,-4.301620416619200138e-01,-3.963754296234027197e-01,1.298238952695697328e-02,-1.827263150494687002e-02,-8.007380045189528908e-03,5.235869064927101135e-02
-4.139588037478811877e-01,-4.524346436329698129e-01,-3.859457455944522719e-01,6.101090958848216957e-03,-1.747644859487616081e-02,5.200444629788001510e-04,6.611888855695724487e-02
-4.186257161770232660e-01,-4.323497925391709407e-01,-3.737898212089633687e-01,1.209367973010486673e-02,-2.258130544415298466e-02,-2.413018265048489513e-02,8.080379664897918701e-02
-4.257562272098007194e-01,-4.364425888185626823e-01,-3.898779072749093966e-01,1.536816287558875546e-02,-3.335118458888017279e-02,-2.170660368063882795e-02,8.511073142290115356e-02
-4.032721321557148908e-01,-4.250158875653232693e-01,-3.750923031625524873e-01,1.270642721741442258e-02,-2.402544747067434511e-02,-1.722489115231086443e-02,7.060981541872024536e-02
-4.332029436582994775e-01,-4.419184621121279855e-01,-3.541845474556685192e-01,1.406785318587546428e-02,-1.897351521343326394e-02,-1.782772535263211014e-02,9.816177189350128174e-02
-4.574685004733151095e-01,-3.755879355560105548e-01,-3.994129331925827531e-01,1.171312664746300414e-03,6.845451121580846312e-04,-2.717487777216598399e-02,8.684582263231277466e-02
-4.354795220911445441e-01,-3.915927144727950893e-01,-3.661587555208158373e-01,2.039843077237702730e-03,-2.099777458156373237e-03,-3.297165961616817936e-02,8.352397382259368896e-02
-4.332679632663916647e-01,-4.047108764762328281e-01,-4.013635289648309623e-01,-2.836802030647782302e-03,2.690250955825108231e-03,-5.225253066702610465e-03,3.240473568439483643e-02
-4.390743265499085779e-01,-4.069246963028282926e-01,-3.821764883731076923e-01,-1.804770111629478042e-03,-3.450306840531539867e-04,-8.213377133688585380e-03,5.151917785406112671e-02
-4.104415401795867835e-01,-4.109651544465661721e-01,-4.104782235394857093e-01,-3.135455132921655336e-04,-3.740370932133950616e-05,2.193963890442733708e-04,8.365664398297667503e-04
-4.438315900683434956e-01,-4.058093729435613972e-01,-3.848973187124570261e-01,-1.426810593846281061e-02,5.340629848647555390e-03,-2.679147427940507115e-02,7.434903085231781006e-02
-4.365982338181693123e-01,-3.756438488048997049e-01,-3.955541988978524826e-01,-3.774945607610602494e-03,3.973632912077484231e-03,-2.809586745212115655e-02,7.318803668022155762e-02
-4.362689311833103933e-01,-3.967378726923387333e-01,-4.086783790721695286e-01,-1.577899207254289480e-03,-1.196893793034491029e-03,-1.458270131917109753e-02,4.339345544576644897e-02
-4.418227809980244669e-01,-4.109503764640367041e-01,-3.964892379903844910e-01,-1.713063759218580060e-03,2.537298475302887223e-03,-1.560436441536818507e-02,4.865476489067077637e-02
-4.333730050604791550e-01,-4.091896090779613138e-01,-3.984457168201770427e-01,-2.601595862391226956e-03,5.279586777011278410e-03,-1.328645553046294697e-02,3.992002457380294800e-02
-4.726508455668894104e-01,-4.438161184663040326e-01,-3.070190177601140880e-01,-6.305539943343654689e-03,7.572786876033635144e-03,-1.950550133696808686e-02,1.578673869371414185e-01
-4.448705802353979943e-01,-4.454956330650556295e-01,-3.161094317722059621e-01,-4.085766960849675114e-04,1.002564074161201371e-02,-4.014832661770529297e-03,1.304250955581665039e-01
-4.398775840424953287e-01,-4.493131900272451795e-01,-2.961870462029763118e-01,1.753623643348459086e-03,-2.086592469743799028e-02,-1.712820917182591995e-02,1.558438986539840698e-01
-4.484115213267387268e-01,-4.534892285485462304e-01,-3.480723912264599984e-01,-1.348669246816849984e-03,-2.367487965409110877e-03,-1.183141054239781470e-02,1.050972640514373779e-01
-4.124775266699202692e-01,-4.147938275679661779e-01,-4.074143794085650638e-01,-1.075792816806491956e-02,1.325206145183732004e-02,-1.436181806212172632e-02,3.918627649545669556e-02
-4.022313591271735045e-01,-4.016195278468395746e-01,-4.270944811929872631e-01,5.942677165711967961e-04,-5.153408011100161969e-04,-1.084510945050193168e-03,2.528133429586887360e-02
-4.075377853851604448e-01,-4.021938285917450173e-01,-4.177745554965395791e-01,-1.401750157158579944e-02,1.199833686918548407e-02,-1.183868051616934584e-02,4.037163034081459045e-02
-4.217611832159726681e-01,-3.962804159948645766e-01,-4.045777048426165146e-01,-8.329943179197329961e-03,8.651788655580659737e-03,-9.497867666576679385e-03,3.478571400046348572e-02
-4.221366330729887650e-01,-3.979548108286146690e-01,-4.065538173836985014e-01,-8.500410046049899915e-03,1.030013763328340749e-02,-1.555231168721319876e-02,4.136950895190238953e-02
-4.290912048116901634e-01,-4.112827129901456269e-01,-4.042801806385654673e-01,-1.876687111156411653e-02,2.292700404234572845e-02,-3.073376293865452344e-02,7.718875259160995483e-02
-4.213598356099481079e-01,-4.082387017939803631e-01,-3.946592505739281997e-01,-1.308481747250751781e-02,1.322955584733731538e-02,-1.633594699440719597e-02,4.872405529022216797e-02
-4.146858045537141213e-01,-4.069128623376509490e-01,-4.071743121119624775e-01,-5.012021493431146821e-03,5.157339190533879840e-03,-3.959808353058014672e-03,1.614467427134513855e-02
-4.151857902346958173e-01,-4.132595825306633608e-01,-4.085002673149738528e-01,-5.512928356984471770e-03,5.725868651964935441e-03,-6.553094666898693146e-03,1.881201192736625671e-02
-4.269863526165484924e-01,-4.117983544398776119e-01,-3.850908718172967871e-01,1.741589130327120261e-02,-1.666968117270802366e-02,-1.772281825569890432e-02,6.352533400058746338e-02
-3.953343553832155965e-01,-4.305343421014867222e-01,-3.988015813245683883e-01,-1.939614707078921550e-03,9.666730847653832656e-03,-1.792365748104030520e-03,3.781898319721221924e-02
-4.602440364123217553e-01,-3.746025843085340479e-01,-4.271354586501580619e-01,-4.381476014803019846e-04,1.997344127465848496e-03,-2.777583973654556421e-02,8.900677412748336792e-02
-4.295439570929711626e-01,-4.115091583998676250e-01,-3.998824345534642277e-01,8.081451333181478847e-03,-8.124571098302856009e-03,-1.121258683486698118e-02,3.796369582414627075e-02
-4.269997371275862097e-01,-3.965945571265185876e-01,-3.987257349679592666e-01,7.457355290598230088e-03,-7.996416048818278527e-03,-1.015062592202999742e-02,3.914061933755874634e-02
-4.289183939672947532e-01,-3.993268305078946367e-01,-4.094124845355592290e-01,7.625838445312686266e-03,-8.054136747195555363e-03,-1.298322649582251027e-02,3.941688686609268188e-02
-4.342206891675651770e-01,-4.001954955370986555e-01,-4.090450599714277047e-01,4.280353315760238898e-03,-2.717221748469891666e-03,-1.494377373631949196e-02,4.101199656724929810e-02
-4.066714659043655922e-01,-4.095686946157183206e-01,-4.204055453712745027e-01,-4.125589893840522243e-06,-9.960630371661281877e-04,-2.198355264094929012e-03,1.321752183139324188e-02
-4.391234410671719934e-01,-3.955198124813920080e-01,-3.953245089651392097e-01,2.610662674242646662e-03,-3.415376464608870823e-03,-1.268531641348597840e-02,4.947750270366668701e-02
-4.386052271068235364e-01,-3.929485690885080040e-01,-3.856801522203469057e-01,2.317557100368017320e-02,-2.223213670011296370e-02,-4.297775720489142859e-02,1.053783670067787170e-01
-4.350133944192059454e-01,-3.931926836241771417e-01,-3.739271323097411726e-01,2.434691486132140731e-03,-1.780292514769262532e-03,-2.818633625668033604e-02,7.305157184600830078e-02
-3.929384398370726617e-01,-3.780989090659175877e-01,-4.749002234101425968e-01,-5.559770173128528864e-02,2.715256901703851436e-02,-1.197196889517692341e-02,1.416661739349365234e-01
-3.687485020134967928e-01,-4.037188550968088818e-01,-4.498750993392894859e-01,-3.304525733775245944e-02,3.862673788562304058e-03,7.140783815683119512e-03,9.187559783458709717e-02
-3.394983436004054833e-01,-4.216632606043904108e-01,-4.984853741235720781e-01,-5.747780847400334875e-02,1.503689411455997466e-02,2.668687681235615543e-03,1.719755232334136963e-01
-3.572332703993334468e-01,-4.218099589320877807e-01,-4.432559973291617661e-01,-2.665768636431352367e-02,-6.372957720216457927e-03,4.777286936226391931e-03,9.130828827619552612e-02
-3.693058445997087214e-01,-4.285243621473560638e-01,-4.584558633103280045e-01,-2.268307240195372582e-02,6.396663661263553811e-03,-2.348551045648611130e-03,8.864587545394897461e-02
-3.302349973558749707e-01,-4.072155916840145551e-01,-4.418251701916327545e-01,-5.705797942078760093e-02,1.678601069367979121e-02,-1.105478640079389507e-02,1.441071629524230957e-01
-3.842185332499408190e-01,-4.275764001361348488e-01,-4.551523288956014768e-01,-2.275612292192681282e-02,1.056664648979895385e-02,-5.002086531534426922e-03,7.615456730127334595e-02
-3.941444252553347183e-01,-4.103031964261155684e-01,-4.390154309023293067e-01,-1.544123626784012215e-02,3.542180946102138715e-03,-6.439571727300001311e-03,4.926249384880065918e-02
-4.071974952552488425e-01,-4.016402298698826256e-01,-4.435727281738857664e-01,-3.286596345822616339e-02,6.212804039921073114e-03,-9.900904624336551510e-03,7.215665280818939209e-02
-3.780004467553148007e-01,-3.950490279099812541e-01,-4.378272193494650022e-01,-2.698724080473758127e-02,7.721015779585458164e-03,-9.423899904485142504e-03,7.402797043323516846e-02
-3.825475776699971964e-01,-4.439521974357870659e-01,-4.037813495896104277e-01,4.617401071555744807e-02,-4.440215933379639685e-02,-3.441415825638673154e-02,1.370449662208557129e-01
-4.397125911865691350e-01,-3.677150256051208155e-01,-4.336078489058270979e-01,4.246640216318126049e-03,-3.680053385960422880e-04,-3.673550266435385292e-03,6.983111053705215454e-02
-3.680061220038627345e-01,-4.374648372026987975e-01,-4.337928320887413647e-01,3.727995550998583485e-02,-5.848116839018399626e-02,-1.637262572399054289e-02,1.407716572284698486e-01
-3.831268203858027577e-01,-4.020530262618030592e-01,-3.968313859418317047e-01,5.328735714438290194e-02,-4.414191824661246183e-02,-3.899199981916669222e-02,1.386070847511291504e-01
-3.449480637305080699e-01,-4.294574387685431982e-01,-4.737602034403965434e-01,-1.169026039228926866e-01,8.350934641280889636e-02,-8.042335085061652622e-02,3.068752288818359375e-01
-4.137533856707169000e-01,-4.111459485987678519e-01,-4.031459535763204927e-01,4.511372159842244080e-03,7.985319729818319331e-04,2.059840087238620256e-03,1.293666660785675049e-02
-2.943963435073790325e-01,-4.575066806785962337e-01,-4.325443141447035678e-01,-7.122469315761380260e-02,1.193731491434931180e-01,-4.787138696573439711e-02,2.966482937335968018e-01
-1.953434731602617935e-01,-4.594720720255925372e-01,-4.317863405344508076e-01,-6.057737168817074053e-02,9.768964074295237443e-02,-1.792193429800672741e-02,3.222112059593200684e-01
-4.204609075173607602e-01,-4.070631936517066785e-01,-4.084494494799710829e-01,8.939341549008969967e-04,9.675293876114391062e-04,1.329064548916330385e-03,1.316634751856327057e-02
-3.043735734471194609e-01,-5.707173078692487911e-01,-4.503296621790331411e-01,-8.444942258286639025e-02,1.481892829875456064e-01,1.266505985641611966e-02,3.756650090217590332e-01
-3.280246984151213852e-01,-4.953888175757895640e-01,-4.832823291807468169e-01,-4.800335595266450039e-02,1.786796420461565782e-01,-4.929358069233625433e-02,3.689348101615905762e-01
-3.133573717452232676e-01,-4.436703029272952570e-01,-4.626427221206295126e-01,-1.212095599662245116e-01,8.570402633798412939e-02,-3.613403178925458925e-02,2.997358441352844238e-01
-4.276624456638192240e-01,-4.162855536839615844e-01,-4.010368734416419612e-01,1.810757194018716362e-02,-2.409712492011676851e-02,-2.802952313307715410e-02,7.495377212762832642e-02
-4.212393307731663872e-01,-4.220780396214051655e-01,-3.794017965292300620e-01,2.058110951113669568e-02,-3.054128561673125075e-02,-4.141122052691458694e-02,1.048803925514221191e-01
-4.238189780157609610e-01,-4.422622881776233084e-01,-3.816993472562378309e-01,1.012537199978677180e-02,-2.426640090445923020e-02,-1.403670550773110370e-02,7.454042881727218628e-02
-4.322272608912328118e-01,-4.227883065389451134e-01,-3.859306145702628421e-01,1.195731948967400718e-02,-1.742718401932117148e-02,-1.749670482424380002e-02,6.367054581642150879e-02
-4.005445678382857366e-01,-4.378302726108069809e-01,-3.778616975765232144e-01,1.097789017732593228e-02,-2.552046691840604078e-02,-1.400511040254433411e-02,7.519532740116119385e-02
-4.093105493030547160e-01,-4.483320822377798165e-01,-4.107738502913185763e-01,1.271416335324960546e-02,-3.639318188242092467e-02,-1.135043693588701740e-02,7.945161312818527222e-02
-4.366407086262236725e-01,-4.287506216316235297e-01,-3.948109220139987552e-01,4.642358416706755808e-02,-4.137086840738733728e-02,-4.331445700603762244e-02,1.367861926555633545e-01
-4.370469978407122147e-01,-3.417099934612476408e-01,-4.232104106084245698e-01,-3.227075943029539262e-02,1.665446442020940276e-02,-5.568682412796720910e-02,1.456737518310546875e-01
-4.656653591400566339e-01,-3.473756567163369113e-01,-4.334646520487797638e-01,-3.632569797875315198e-02,7.289849285580152563e-03,-5.789521551209451944e-02,1.593549251556396484e-01
-4.280015280884588158e-01,-3.695933278636497343e-01,-4.051069866928374008e-01,-1.005677479296938903e-02,7.765603667928754235e-03,-2.486979681747970850e-02,7.027303427457809448e-02
-4.794711551557227502e-01,-3.340390858375309469e-01,-4.344497466199849223e-01,-6.989005793429964482e-03,6.995008748544423102e-03,-7.439160167358280229e-02,1.830997467041015625e-01
-4.612030425997901695e-01,-3.731057541672761491e-01,-3.713374709468483803e-01,8.072441421301713646e-03,-1.388545518799390961e-03,-6.204940845353826284e-02,1.402558535337448120e-01
-4.384258554146207021e-01,-3.778758783119854359e-01,-4.094228222421386065e-01,-9.084568924757794109e-03,2.781330409648456910e-03,-4.085481836268593098e-02,8.960740268230438232e-02
-4.277977841639606926e-01,-4.349635909855672500e-01,-3.768061041507333453e-01,-5.208418198574768510e-02,-6.051574197816937672e-02,4.038890230206168552e-02,1.644245684146881104e-01
-4.484939127925302027e-01,-4.174616325261378824e-01,-3.749254309540943630e-01,-1.468586220355944973e-02,-1.409382516499353005e-02,3.675063203670374951e-02,9.688697010278701782e-02
-3.898231054028204468e-01,-4.714246754682193119e-01,-3.807731921906760686e-01,-1.121268487566793280e-02,-7.511858267391748056e-02,3.820198795072719811e-02,1.707716584205627441e-01
-3.971770806347414973e-01,-4.404091321152297511e-01,-3.547895980813461358e-01,-1.044913378702514925e-02,-6.608994835163017889e-02,1.347844831546368347e-02,1.395507454872131348e-01
-4.311966874392926252e-01,-4.305101081128896445e-01,-3.849210887586180241e-01,-1.671483933985892095e-02,-2.649326809643933606e-02,1.755988846449176369e-02,7.732409983873367310e-02
-4.205192225594810984e-01,-4.206177093974783898e-01,-3.695139747558943144e-01,-9.810603393901110719e-03,-1.982165149460723280e-02,1.811834546866335910e-02,7.112544775009155273e-02
-4.180008499723227300e-01,-4.077380066841956863e-01,-4.081809024509613915e-01,2.708719124284571732e-04,1.870133289452531123e-03,4.231876056359924190e-04,1.059369184076786041e-02
-4.472367260150965085e-01,-3.437101557440414012e-01,-4.405543701585120653e-01,2.670017537446332779e-04,3.053373722545333312e-03,9.656772112194560165e-03,1.018751487135887146e-01
-4.491447527310551413e-01,-3.593482027877497598e-01,-4.212687045592924950e-01,5.998986212321290312e-03,3.402485721137760849e-03,2.118822590282399415e-02,8.846942335367202759e-02
-4.382536880333656737e-01,-3.642269329062355898e-01,-4.234096958815217748e-01,1.273734740815674537e-03,3.119789599073269273e-03,9.721846222148333716e-03,7.013601809740066528e-02
-4.228871263643975698e-01,-4.036950496594222115e-01,-4.045657658074162111e-01,-2.637171360294378319e-04,2.025636864695327423e-03,5.934146214144357580e-04,1.913002319633960724e-02
-4.137988960408353067e-01,-4.067608306184855582e-01,-4.106330062598144148e-01,6.771992723063002817e-03,9.909053179301656120e-03,3.253747092875682381e-03,2.238713391125202179e-02
-4.131638475888510520e-01,-4.024422782286571909e-01,-4.051272898318561966e-01,5.982682738859512218e-03,7.212428127038400527e-03,7.646001983475102064e-03,2.306930162012577057e-02
-4.184579801776945884e-01,-4.093913727050995655e-01,-4.066800919089040844e-01,1.911178727381489164e-03,2.771253231423756458e-03,2.809103174242963234e-03,1.310751959681510925e-02
-4.160257028399573787e-01,-4.133767598006007349e-01,-4.037587213884420989e-01,6.841462504275523659e-03,6.699814351229707761e-03,9.280131022069582764e-03,2.566014602780342102e-02
-4.559959731557967078e-01,-3.950899989778934862e-01,-3.326886153522453649e-01,-2.134307638534963837e-03,8.059832453806137914e-03,9.180247200453894862e-02,1.920825839042663574e-01
-4.307949656101420777e-01,-4.169273798157980826e-01,-3.797310007354981476e-01,6.829021779071979027e-03,4.846772683048061747e-03,5.922691006274313427e-03,4.906444251537322998e-02
-4.412774637493069863e-01,-3.827809917933590600e-01,-4.004213689790419584e-01,-6.908119130700843269e-03,-9.740486503640302662e-03,2.516128843683320196e-02,7.090972363948822021e-02
-4.144459236501951693e-01,-3.980038825969340888e-01,-4.122303946935543251e-01,2.397677540700971378e-03,4.758587318917834735e-03,3.597949755747775150e-03,1.904826052486896515e-02
-4.449582153744278679e-01,-3.531091683297373773e-01,-3.754800181693725980e-01,-2.192317210810846434e-02,-2.382724501868024175e-02,7.456168804231563807e-02,1.634178310632705688e-01
-4.757242764382740297e-01,-4.307074692923452131e-01,-3.876543153998588953e-01,-1.202707677749353943e-02,-7.473276270044850247e-03,5.589689217415897554e-02,1.256705671548843384e-01
-4.624384691837537531e-01,-4.175676820707941994e-01,-3.782236846012143050e-01,1.236365177594024893e-03,1.541937980001725555e-03,6.206974952569808274e-02,1.299862116575241089e-01
-4.675644105053932131e-01,-3.871289801931780961e-01,-3.803112351627593313e-01,-1.471849632513583250e-02,-5.902136710296194792e-03,4.792938562241502026e-02,1.212881430983543396e-01
-4.173641875766468945e-01,-4.308684417950966461e-01,-3.761689531651503104e-01,-5.373861358926762186e-03,-5.134793867999434824e-03,4.968601165171374415e-03,5.172540619969367981e-02
-4.062486465642190514e-01,-4.167788399039173974e-01,-4.160776045631622844e-01,-4.862259993837651784e-03,-1.072250978879936770e-02,8.616010368956917437e-03,2.724960260093212128e-02
-4.080202625422555962e-01,-4.333167985878563222e-01,-4.020791647969409466e-01,-1.077161573865990409e-02,-3.534641255891951550e-02,2.704265946882236996e-02,8.435405790805816650e-02
-4.087710967676336238e-01,-4.294884168979989369e-01,-3.914751633512809637e-01,-1.328460920847901461e-02,-1.638937152843158995e-02,1.085275603683813830e-02,5.268117412924766541e-02
-3.747309494028117638e-01,-4.246206297376295957e-01,-4.000871546456347683e-01,-1.179897552039963285e-02,-2.599345308892954745e-02,1.204912052775232792e-02,6.889902055263519287e-02
-4.008786137264399030e-01,-4.297900185951368246e-01,-4.106016170905112950e-01,-7.891782162335093248e-03,-1.468145908572620305e-02,8.705193490553823216e-03,4.135357216000556946e-02
-3.975457795780593107e-01,-4.282133170432781410e-01,-3.997234770685088590e-01,-7.462899889111723750e-03,-1.006451798540976966e-02,7.827288236603403490e-03,3.915639221668243408e-02
-3.993753321340743900e-01,-4.851211934309575535e-01,-4.101930120187360362e-01,-2.254645814106622653e-02,-7.320973316281687016e-02,2.476280360939001751e-02,1.611999273300170898e-01
-3.533323182080370661e-01,-4.280558213972038839e-01,-4.730033650783145305e-01,-3.951971417198608255e-02,2.206169375149791972e-02,-1.056219367511002268e-02,1.320711225271224976e-01
-3.343239564575428702e-01,-3.903708215882669696e-01,-4.421160805527547533e-01,-6.408391098084356696e-02,1.864567268644761952e-02,-1.410534704859786777e-02,1.505957841873168945e-01
-3.471321477271450129e-01,-4.421255352179546128e-01,-4.581855817035326295e-01,-6.654406185482295011e-02,-1.034144696792209904e-02,-7.475105477884555830e-03,1.567803323268890381e-01
-4.111796693190541974e-01,-4.243816752859043695e-01,-4.040127322935904153e-01,-4.981273928316395580e-03,9.284283188083462812e-03,-5.996877660915707862e-03,2.758979052305221558e-02
-4.148678917053896242e-01,-4.151780472144852574e-01,-4.028308938316393362e-01,-6.161977427839420048e-03,7.560002040852348976e-03,-6.006589310246905969e-03,2.328791469335556030e-02
-4.209998072544703929e-01,-4.441424035579685237e-01,-3.600608327558107447e-01,-1.599991819197296846e-03,-1.087801663518522463e-02,4.175201641545748729e-03,7.793840765953063965e-02
-4.323742171568211168e-01,-4.413992033606246035e-01,-3.726447674171233793e-01,-2.081754253114601223e-03,-1.303788055144963071e-02,1.561611905653246483e-03,6.869054585695266724e-02
-4.531057076812423645e-01,-4.474159095508359330e-01,-3.425317888955430323e-01,-6.351156743917805991e-03,-1.492094741563087038e-02,2.945811033319074065e-03,1.115561351180076599e-01
-4.519867753874557970e-01,-4.546073197010228606e-01,-3.447146181200446691e-01,-1.417717748867292809e-03,-1.798476944855895501e-02,5.783491763034308460e-03,1.134549528360366821e-01
-4.326112314056492214e-01,-4.383043617360096733e-01,-3.455034767545559493e-01,-7.506364089061677916e-03,-1.375922920912717347e-02,5.720563551272623594e-03,9.461104124784469604e-02
-4.316112855985712593e-01,-4.367263229765808719e-01,-3.498312155289171055e-01,-4.956430358381728324e-03,-1.445807975975707711e-02,8.287025617428483287e-03,8.966204524040222168e-02
-4.314504294438519238e-01,-4.396045305428848415e-01,-3.595393982885287665e-01,-4.812527583998489795e-03,-4.508948129750996875e-03,5.414897294889383858e-03,7.773346453905105591e-02
-4.276604456481431504e-01,-4.439309091956205044e-01,-3.429201173793751112e-01,-4.515233350153408445e-03,-1.991446917900669550e-02,3.539927062695323329e-03,1.005630642175674438e-01
-4.199664923299639696e-01,-3.441303955358027133e-01,-4.474726399823913958e-01,4.205804693298215158e-02,3.073244939106025732e-03,1.325690610564019684e-02,1.202325671911239624e-01
-3.690829505584444226e-01,-3.645989237082553625e-01,-4.389526741744642080e-01,6.130254036883368146e-02,1.639531845528050327e-02,2.206915837879957001e-02,1.369552761316299438e-01
-3.779030500495276779e-01,-3.807982336129906997e-01,-4.991816878773460142e-01,6.085951454200035082e-02,1.105595684549389932e-02,2.419593261067859869e-03,1.608156561851501465e-01
-4.259873183814278930e-01,-3.663762240054909136e-01,-4.552668650930802863e-01,7.108433853364193311e-02,-4.249738666292530997e-03,2.050944166687575579e-02,1.504366993904113770e-01
-4.273766793422789090e-01,-4.011572348751319961e-01,-5.107955646784827497e-01,8.334864516630512143e-02,2.974072144782952034e-03,5.647741767877566613e-03,1.754895448684692383e-01
-3.858960958275322040e-01,-4.342985132881447830e-01,-4.091443142466970606e-01,-3.929197569346338029e-03,-9.481897394687249445e-03,4.158512794306104890e-03,4.610768333077430725e-02
-3.774756163614735316e-01,-4.881959622352691208e-01,-3.848381079159565177e-01,-4.151177946952942788e-02,-7.780250135494354291e-02,2.088807481056786236e-02,1.900955736637115479e-01
-3.889916828557876127e-01,-4.514803740611722516e-01,-4.031396367753217191e-01,-7.547802847185419196e-03,-4.259272317702643418e-02,1.477495186568682402e-02,9.741221368312835693e-02
-3.693522496924749321e-01,-4.277833152423680674e-01,-4.274896844155570697e-01,-1.269684119908295362e-02,-2.118837412050504632e-02,8.585792408773908896e-03,7.381556183099746704e-02
-3.384773466058260682e-01,-4.492001203134000087e-01,-4.277131484011660323e-01,-1.651454790575247050e-02,-7.145931708801867011e-02,1.004175958515989703e-02,1.636524647474288940e-01
-3.319417997382151930e-01,-4.795656174252722614e-01,-4.232390091874124183e-01,-4.202098474695397518e-02,-4.466914217385631325e-02,1.734926799162843369e-02,1.698134541511535645e-01
-3.153967072542489536e-01,-4.734153819275955799e-01,-4.852034789141737026e-01,-5.842477348687705185e-02,-5.487484818941342629e-03,-2.267294775123108314e-02,1.970900446176528931e-01
-3.276274419734560017e-01,-3.989332564190544717e-01,-4.374913160529498302e-01,-5.921293443991774985e-02,1.383062094426705177e-02,-4.842925944137049452e-03,1.431201994419097900e-01
-4.217276430541002097e-01,-4.066513983822927503e-01,-3.896311495216185361e-01,1.240734549570733126e-02,1.150419593829123642e-02,1.752943405137228489e-02,5.054001137614250183e-02
-4.075722212165388547e-01,-4.085281754654220276e-01,-4.051585440995581489e-01,1.796625877275683653e-02,2.009088732248570652e-02,2.005090720603652787e-02,5.826194584369659424e-02
-4.120264409533036520e-01,-4.333268479817812269e-01,-4.093979253123032347e-01,1.682134271736335923e-02,2.042114181946763293e-02,2.164624087546923592e-02,6.342101842164993286e-02
-4.282844303165974642e-01,-3.914494463561757898e-01,-3.476740727392215180e-01,2.497631046081474904e-02,3.306058895490483762e-02,5.728326789045123241e-02,1.409969478845596313e-01
-4.278555636426161213e-01,-4.131589697112034720e-01,-3.691178925810635336e-01,1.344019093632168628e-02,2.463818784973901763e-02,2.794699601232329689e-02,8.665449172258377075e-02
-4.358619110600874258e-01,-4.196699744046586966e-01,-3.709303497331407073e-01,1.849299174828548942e-02,2.605923578513067232e-02,2.708378817266887673e-02,9.322412312030792236e-02
-4.208295843920351609e-01,-4.318161159068888422e-01,-3.706576711297291382e-01,-8.015959422568214379e-03,-9.577217670164379568e-03,4.784277655599905935e-03,6.103887408971786499e-02
-4.002339969171616052e-01,-4.206802912754941115e-01,-4.043188555212665070e-01,5.949387693947018330e-03,-9.997862721132427799e-03,-7.492465059957279828e-03,3.042507730424404144e-02
-4.022150051629401202e-01,-4.161437076810637348e-01,-4.125492457925069023e-01,3.642914527508088127e-03,-1.815772473630397491e-03,-5.282146391985903522e-03,1.703729666769504547e-02
-3.834519045602373666e-01,-4.223928397607725760e-01,-4.205816787055600137e-01,5.308818276067122158e-03,-4.878651863087311163e-03,-8.299343915447074740e-03,4.256454110145568848e-02
-3.946795840582923987e-01,-4.264057156145741323e-01,-4.135211269678853996e-01,6.002687235131708848e-03,-1.616982809185932290e-02,-9.487398314832761609e-03,4.388964548707008362e-02
-3.913550964474496463e-01,-4.130445479605148185e-01,-4.213141643806486147e-01,4.002085648871585646e-03,-3.952095389973472005e-03,-6.760365285094089779e-03,3.082526847720146179e-02
-3.907295374106969366e-01,-4.374581391845899225e-01,-3.722652071427020037e-01,-2.909463773783581286e-02,7.576655120482120309e-02,-3.341191060986337114e-02,1.627807617187500000e-01
-4.236147933197420556e-01,-4.352040078689420888e-01,-3.651781497921310349e-01,-4.981781831435360026e-03,-1.897067479720840333e-02,1.244016876334312627e-02,7.645111531019210815e-02
-3.807281850971677706e-01,-4.382003475132933423e-01,-4.092995016109602924e-01,-8.197064268022382499e-03,4.095860861346130311e-02,-6.213650522466024687e-03,8.847339451313018799e-02
-3.991375970318148392e-01,-4.536379597555385002e-01,-4.188003084575322443e-01,-1.989838822319668979e-02,3.152708412241757296e-02,-1.673209677015690539e-02,8.541009575128555298e-02
-3.415345378875763727e-01,-4.504098713933415987e-01,-3.869193319464434011e-01,-1.315170676231237727e-02,7.144573494437092553e-02,-3.742584975062220390e-03,1.576284766197204590e-01
-4.145217927732124386e-01,-4.102777606027920854e-01,-4.110044777796680870e-01,3.647142848269061249e-04,6.437187513629596351e-04,-3.048096980712915963e-04,4.168526735156774521e-03
-3.846882254579895299e-01,-4.601407899883240837e-01,-4.045679857657398237e-01,-1.327464358870034632e-02,4.288688832183826238e-02,-2.252151662795066206e-03,1.031990125775337219e-01
-4.197729859249996198e-01,-4.219947370602638026e-01,-3.784696496062626703e-01,-7.106366612604179435e-03,-8.229355485961303146e-03,7.694815397412222736e-03,4.832148924469947815e-02
-4.123438611206285964e-01,-4.040043393298305419e-01,-4.014714170819639327e-01,-7.233072068122190293e-03,8.023328508809157711e-03,-6.616823533857153772e-03,2.405217476189136505e-02
-4.070316589630211257e-01,-4.138956635771105508e-01,-4.071515252791484962e-01,-4.459079780347534328e-03,4.685369907306904079e-03,-4.476911763727497995e-03,1.522966288030147552e-02
-4.097671312054864678e-01,-4.122851337891771939e-01,-4.101873844750745790e-01,-1.532465773056159017e-03,2.166233197152764647e-03,-2.402012261330078915e-03,6.625012494623661041e-03
-4.070311051605380870e-01,-4.052386432266965044e-01,-4.057954152439433582e-01,-4.349631795089120914e-03,4.625847564692779287e-03,-5.035755399015325387e-03,1.412638369947671890e-02
-4.144408573721399813e-01,-4.132596983156386350e-01,-4.044022224533923571e-01,-8.620218711829311445e-03,7.529738466500321241e-03,-9.459608628880103801e-03,2.741860784590244293e-02
-4.117546183886988120e-01,-4.101306069345275751e-01,-4.096200193993516092e-01,-1.573160728027172281e-03,2.109015883899952037e-03,-1.416764781662216985e-03,5.524249281734228134e-03
-4.113226167068424477e-01,-3.594901287876177687e-01,-3.984591715097287046e-01,-5.084906323175460152e-02,3.872757036455826141e-02,-5.475205583153098382e-02,1.530850976705551147e-01
-4.274477707544902527e-01,-4.148418232678511286e-01,-3.981767884073307839e-01,-1.227073716872744552e-02,2.924371136188691142e-02,-2.719245547848554018e-02,7.669613510370254517e-02
-3.880273551195619897e-01,-3.960285807188640983e-01,-4.394241124269089860e-01,-4.791477513458105436e-02,2.277467461207089566e-02,-2.999241452376220224e-02,1.159162595868110657e-01
-4.083293169618016361e-01,-3.967390607258649005e-01,-4.097336111218675692e-01,-1.363262180435015000e-02,1.507679764522681237e-02,-1.322904271710213624e-02,4.378446564078330994e-02
-4.105978210961477304e-01,-3.952696206218384578e-01,-4.157598819122528266e-01,-2.101862741738307061e-02,1.253803554800424908e-02,-2.864418375290308030e-02,6.781702488660812378e-02
-4.149874675083937703e-01,-3.987608443409978998e-01,-4.292217491217245606e-01,-2.539704320401840743e-02,1.899650683669020998e-02,-1.007310813765217514e-02,6.339500099420547485e-02
-3.844674771232217125e-01,-4.184603869608914950e-01,-4.414192930508663570e-01,-1.256109481177521310e-02,-1.047497569129017016e-03,2.919447916017457560e-03,5.445433035492897034e-02
-4.020739949097721921e-01,-4.196524865288085993e-01,-4.076656185702846047e-01,-1.415728887227016893e-03,-8.275345039915876083e-04,3.004156059811313468e-03,1.664690673351287842e-02
-3.995897141294607602e-01,-3.741738128854700252e-01,-4.294232014852101820e-01,-2.328158931242302679e-02,7.612997261084918262e-03,-8.915195698979956271e-03,6.582296639680862427e-02
-4.094037126385886016e-01,-4.013404606510322381e-01,-4.059187851503932021e-01,-6.894835880596057731e-02,-6.014298161051217367e-02,3.178999348408377557e-02,1.679107993841171265e-01
-4.371535597657532080e-01,-3.884574161831296779e-01,-4.125186940651266454e-01,-1.307638596972536364e-02,-2.148997206740577495e-02,2.746711713871424071e-02,7.707352191209793091e-02
-4.384105106212403680e-01,-4.085647795095429524e-01,-3.509060694587042839e-01,-1.182338093344697388e-02,-1.194683663067680653e-02,3.787277122987256495e-02,1.052936762571334839e-01
-4.328323962636287381e-01,-4.314050873927014473e-01,-4.068490375362479039e-01,-2.247781368192084198e-02,-3.128769147723609034e-02,3.196664387362038035e-02,9.032275527715682983e-02
-4.381471695051787352e-01,-4.347427436228670783e-01,-4.017253971096649834e-01,-1.813579413918980573e-02,-3.081515602850164182e-02,2.913486539931035152e-02,8.715563267469406128e-02
-4.273917838896573174e-01,-4.105472595043629380e-01,-4.067950345122401945e-01,-6.426210351702088368e-03,-5.745001349124187473e-03,1.111685593276650653e-02,3.089787624776363373e-02
-4.403128742220710490e-01,-4.042607229031236482e-01,-3.935199353682226064e-01,-5.725794886011014578e-02,-3.334583829465002230e-02,5.653892496866010781e-02,1.567276418209075928e-01
-4.360626161826675062e-01,-4.195259693197760376e-01,-3.827295839747999473e-01,-2.442437714175297800e-02,-2.703112694853175221e-02,6.767921188207171035e-02,1.412764936685562134e-01
-4.296148814635970536e-01,-3.677935274927176534e-01,-3.733016202499420677e-01,-2.969162361830904318e-02,-2.620065723353630013e-02,5.983475606002382208e-02,1.376825869083404541e-01
-4.159267635897661020e-01,-4.211770665011896897e-01,-3.636248067285175467e-01,-1.229361184406850376e-02,-2.657211806264786827e-02,1.985692045468012007e-02,8.241470903158187866e-02
-3.621694146070873477e-01,-4.492118731433475953e-01,-4.170399772250750203e-01,-1.993984633535515576e-03,-1.361466106384253555e-02,5.139171469058852193e-03,8.036378026008605957e-02
-3.341042067218309430e-01,-4.653693378621369114e-01,-4.366627552500328968e-01,-2.167432145424630363e-02,-2.879982415830168591e-02,7.722902618532661093e-03,1.355100572109222412e-01
-3.597598571265562817e-01,-4.408274103196884730e-01,-4.408037978568418169e-01,-1.013709390099784211e-02,-1.243728957344101931e-02,3.175923061792592511e-03,8.586404472589492798e-02
-3.347379006607513197e-01,-4.514922051667088487e-01,-4.452666453318916417e-01,-5.692462413120308491e-03,-1.915093638176049856e-02,3.492337870871928263e-03,1.190694794058799744e-01
-3.423710018613310146e-01,-4.479614833619499636e-01,-4.548389152192832685e-01,3.652722682010142111e-03,3.190711005247489664e-03,-4.683399106579962286e-03,1.098144426941871643e-01
-3.646140281949407091e-01,-4.511998804044304867e-01,-4.401871666367162539e-01,2.924252453815440970e-04,-1.092891965215892977e-02,1.521154702298797932e-03,8.384728431701660156e-02
-4.417499598617943279e-01,-4.607399946918145361e-01,-3.493157635605359523e-01,1.530523498721137257e-02,-8.623278503745022971e-02,-6.365132528256258956e-03,1.838276535272598267e-01
-3.962696931286993074e-01,-4.780302135035635613e-01,-2.507839830937305114e-01,-6.117797230680599961e-03,-1.241664471969836925e-01,1.512740994912698325e-02,2.946125864982604980e-01
-3.746680057527387309e-01,-4.410759174857230014e-01,-3.476648269477405906e-01,-7.051200081996740650e-03,-6.503206516029474971e-02,9.961575002206776719e-03,1.416572332382202148e-01
-2.438302418487532652e-01,-6.261857997377224816e-01,-5.437679104835319022e-01,-3.571883045924732769e-02,1.596025244198971405e-01,-1.029604601425825224e-02,4.494885802268981934e-01
-4.325246480390668169e-01,-4.028049733203855065e-01,-4.217000689742690378e-01,2.514766707015910971e-02,-1.620048507119113343e-02,-3.645193634038908226e-02,8.572946488857269287e-02
-4.415548682489000010e-01,-3.985064700552231609e-01,-4.240818625050146173e-01,2.535335351485510161e-02,-1.977016326005948121e-02,-3.732423508638014337e-02,9.320159256458282471e-02
-4.251581351671510633e-01,-3.914661686566537346e-01,-3.911376140264592460e-01,3.189975488684817367e-02,-3.474665466139731373e-02,-5.006197867896040182e-02,1.238535568118095398e-01
-4.161941915305943929e-01,-3.910599286441446831e-01,-3.771260272346554920e-01,4.712865634623056993e-02,-6.720581334046910049e-02,-5.689778771390820861e-02,1.763558089733123779e-01
-4.025650998040874451e-01,-4.011212941141296118e-01,-4.496301185968230585e-01,8.186893413823008447e-02,-4.782048295921850767e-02,-5.875155356503547477e-02,1.990184634923934937e-01
-4.142071991069484205e-01,-3.988246316152690429e-01,-4.300579743749839978e-01,2.835320564757263032e-02,-2.310790383059733305e-02,-2.867306683986928575e-02,8.492213487625122070e-02
-4.120576662227308229e-01,-3.441175750295280555e-01,-3.993043140139652669e-01,4.928279795051547507e-02,-3.266278787385244742e-02,-5.958703643554039142e-02,1.582745760679244995e-01
-3.432457948792727587e-01,-4.392449305115961877e-01,-4.566290513650463900e-01,1.343854051409460251e-02,-2.134824662329073974e-03,-2.661660809881734313e-03,1.084601804614067078e-01
-4.300494866908503022e-01,-3.935757109272011167e-01,-4.138791772157354165e-01,2.122729856021054323e-02,-2.830840343277895438e-02,-3.154930257802897320e-02,8.799994736909866333e-02
-4.161164108069415057e-01,-4.151716595992763770e-01,-3.988071019273909390e-01,1.674869111758044496e-02,-2.059789388899986931e-02,-1.770263655702330671e-02,5.778129026293754578e-02
-3.672147308389718812e-01,-4.151000358175279681e-01,-4.386851017041242251e-01,2.972136727620529328e-02,-6.452806823764288720e-03,7.611184619594360632e-04,8.219105005264282227e-02
-4.298794679001058383e-01,-3.859228294315186769e-01,-4.098191592390847404e-01,1.373975215891782078e-02,-1.561356961866231484e-02,-1.948306881763556958e-02,6.236410140991210938e-02
-4.161142567527681968e-01,-4.003730669419029442e-01,-4.034522500544391321e-01,6.165285418808853432e-03,-6.409332349754459125e-03,-7.317708356694412747e-03,2.463156171143054962e-02
-3.158822767415926935e-01,-4.446388556626941213e-01,-4.952606877683393138e-01,4.175951551426386466e-02,1.097895918146437298e-02,1.198722638422661246e-02,1.779971569776535034e-01
-4.283839838130641953e-01,-4.024576679543964142e-01,-4.021205823923634237e-01,7.489960054287475057e-03,-2.493551204804925290e-03,-9.080966758905465591e-03,3.339716419577598572e-02
-3.811685408229857908e-01,-4.286696263412800856e-01,-4.563042811655235731e-01,-3.530004831655446373e-02,1.276654224210561905e-02,-9.324353259546053554e-03,9.391894191503524780e-02
-3.856802581428335763e-01,-4.108052699405857489e-01,-4.520920014993723979e-01,-4.219285996210763584e-02,-1.105163718613676009e-02,8.028442439817082277e-03,9.629997611045837402e-02
-4.121770660566153044e-01,-4.107231435776443895e-01,-4.101606014804535794e-01,-4.936478854935166718e-04,2.780369465283689815e-04,-3.197588696348500361e-04,2.125547500327229500e-03
-3.956326744471581058e-01,-3.950902288002747231e-01,-4.392436889405074707e-01,-1.368558379064728492e-02,-7.040270167752679968e-04,3.988168954676057226e-03,5.036824941635131836e-02
-3.947018297170765133e-01,-3.928562787457085537e-01,-4.334411636410604451e-01,-1.415501537628405249e-02,-3.409302529874473739e-04,-9.374366531415701670e-04,4.668742790818214417e-02
-3.939246532802581635e-01,-4.090808799843383969e-01,-4.405101417121506380e-01,-1.652301798223537038e-02,-4.764619842076316981e-03,3.031260460466215969e-03,5.107405781745910645e-02
-4.005218083038682986e-01,-3.678532504595406483e-01,-4.343392440077415428e-01,-2.872830141160897729e-02,3.618988569343245792e-03,-2.887493392244124425e-03,7.652366161346435547e-02
-3.963323106176057653e-01,-4.040316771581841104e-01,-4.355522256202530862e-01,-1.828651714266355324e-02,-2.881830060816682791e-04,2.955602858381955024e-04,4.795012995600700378e-02
-3.874539368892336300e-01,-3.800061680757365612e-01,-4.363456841819501886e-01,-3.150472807639932010e-02,-3.964186461768217165e-03,3.332557834830450309e-03,7.660360634326934814e-02
-4.226912872252275855e-01,-4.187477860540362862e-01,-3.772604162120916094e-01,-1.135626685742165479e-02,1.405598038887341701e-02,-1.613383704522257378e-02,6.050509586930274963e-02
-4.244442625665946212e-01,-3.968012569748450291e-01,-3.953228210446051438e-01,-4.667965352848304009e-03,4.521469409533769059e-03,-1.096764499371965726e-02,3.598275035619735718e-02
-3.502031486595419407e-01,-4.507149357203178996e-01,-4.447348210534056157e-01,-4.438775254788438450e-03,-5.817216501432870106e-03,-6.780220103252577058e-04,9.848510473966598511e-02
-3.727277264771635679e-01,-4.440159833503745102e-01,-4.298307963869447690e-01,-1.584089140849880353e-02,-2.193839962893306267e-02,5.745960075131898576e-03,8.104151487350463867e-02
-3.551105447867581866e-01,-4.344445145236961459e-01,-4.183035160267952746e-01,-4.515402793727335551e-03,-2.327103198191512318e-02,3.891105322450236388e-03,8.369643241167068481e-02
-3.483244853534296359e-01,-4.374529073212409247e-01,-4.333826627947555687e-01,-1.228552925638131017e-02,-1.283293331250731986e-02,7.832383781458212429e-03,9.342677146196365356e-02
-4.278027829730530751e-01,-3.893697931799639522e-01,-4.072352036228022998e-01,-1.317233018003171816e-02,1.325329944619873211e-02,-1.694279470980026431e-02,5.493907630443572998e-02
-4.265529443716761793e-01,-3.991597879381532099e-01,-3.976944681484862465e-01,-7.466549391566748919e-03,4.894542999258726101e-03,-1.123148514025117811e-02,3.755300864577293396e-02
-4.162724721427444319e-01,-4.043226591356011146e-01,-4.141279740554293376e-01,-6.339994937564257839e-03,8.261182835673461580e-03,-7.632484528555985581e-03,2.493718266487121582e-02
-4.049209977809550831e-01,-3.893167818997619323e-01,-4.176528758464583824e-01,-1.841605782307924322e-02,1.310369211330257924e-02,-1.230490242976284808e-02,5.090254172682762146e-02
-4.233874353099799648e-01,-4.024828667925552939e-01,-4.152275270760890091e-01,-5.276896910088006362e-03,6.220388901616881287e-03,-8.384204434862745775e-03,2.726732566952705383e-02
-3.781280745599294169e-01,-4.248508798396514741e-01,-4.278182622051577289e-01,-4.237625598254307624e-02,-4.603567273993813130e-02,1.195232823900735028e-02,1.204331144690513611e-01
-3.905861317321074333e-01,-4.175129900608928746e-01,-4.142352640853007029e-01,-4.434502274835916413e-02,-3.441632499805985512e-02,2.562837013068774289e-02,1.098675280809402466e-01
-3.617322356832244346e-01,-4.271780512496842763e-01,-4.481558048591571253e-01,-3.224844202326764692e-02,-2.319327898765920909e-02,1.901431815108532014e-02,1.091532409191131592e-01
-3.542276158933967967e-01,-4.351728709230262560e-01,-4.564704766760188104e-01,-3.206064519908263799e-02,2.674944135990279213e-03,-2.163038549635072638e-03,1.088522821664810181e-01
-3.378482937865444069e-01,-4.370689862854829077e-01,-4.667203849168761187e-01,3.016460735004922178e-02,3.593421562636624211e-03,2.725429389245928591e-03,1.282837390899658203e-01
-4.087071571790005242e-01,-4.071748105992667455e-01,-4.242512033965205043e-01,-2.380355384489043005e-02,-1.543679519286698942e-02,9.603982584600694733e-03,5.439857766032218933e-02
-4.225516843905020581e-01,-3.699803025969185533e-01,-4.259260189685558640e-01,-2.049683886529336807e-02,-1.065069263632806990e-02,2.329972524350856777e-02,7.862464338541030884e-02
-3.788058813894703003e-01,-4.012558726108244045e-01,-4.438568589647454710e-01,-2.753651286883355281e-02,-1.655285251723184747e-02,8.677401907235631623e-03,8.122745156288146973e-02
-4.101732653091454961e-01,-4.139283892483544558e-01,-4.111139237760788601e-01,7.521364859289375333e-04,-1.597700254305736592e-04,-1.504247949827120174e-03,4.473868291825056076e-03
-3.887093423552456795e-01,-4.017672542270099290e-01,-4.198272430132131694e-01,-1.630017872505460860e-02,-1.092954845226499355e-02,1.029750235348631665e-02,4.696878045797348022e-02
-4.273321517617800214e-01,-3.928012892594285876e-01,-4.047592721150718442e-01,-1.543562670187461315e-02,-1.437364455932164074e-02,2.654812357964186909e-02,6.611689180135726929e-02
-4.290982852801515368e-01,-4.086225935428591249e-01,-3.895158201287500788e-01,-5.143716526206671552e-03,-4.739710929436282555e-03,7.390572622096418416e-03,3.855096548795700073e-02
-2.302806558504114365e-01,-4.292528463153660323e-01,-4.731586213988177581e-01,8.266880213756516715e-02,-6.201448856654172281e-02,-3.258623888865162799e-02,2.923679947853088379e-01
-4.132206934316280944e-01,-4.291978606771831295e-01,-4.130248204942214563e-01,-1.444768364120964030e-02,-1.850320713989463822e-02,1.346011941195185586e-02,4.955073073506355286e-02
-4.064606494590959906e-01,-4.317902499435437025e-01,-3.952598959309068238e-01,-1.249121075766428286e-02,-3.640689918601164310e-02,2.710099629397406257e-02,8.774181455373764038e-02
-4.527001423187680951e-01,-4.522220720598330024e-01,-3.754508581761024089e-01,-4.590903481754714938e-02,-8.043486302592414705e-02,5.842859405147017571e-02,2.047063112258911133e-01
-4.247193406971714325e-01,-3.968712152776836533e-01,-4.128859192133338962e-01,-1.119104321702375955e-02,-1.546970255296177023e-02,1.488547531792817381e-02,4.841895028948783875e-02
-4.136940664206518181e-01,-4.135074365629982096e-01,-4.119854852926870814e-01,-1.352475351410432729e-02,-1.662358043630074098e-02,1.138863019583116754e-02,4.206572473049163818e-02
-4.104068181785264224e-01,-4.552691273470627076e-01,-3.536192817830774437e-01,-4.660797026072952681e-02,8.478082882370807649e-02,-3.344239696541229101e-02,1.980417370796203613e-01
-3.785619327025164793e-01,-4.457624830612456068e-01,-4.076554630669115276e-01,-2.667762330280600697e-02,6.456481844905981315e-02,-4.879478564232547083e-02,1.587166488170623779e-01
-3.802584434734502805e-01,-4.184256882460476445e-01,-4.076605886756562436e-01,-4.251906011623123732e-02,4.907026038167734694e-02,-3.773197044140462475e-02,1.344624012708663940e-01
-2.794006525622358961e-01,-5.419814434872388675e-01,-4.913761800003105806e-01,1.101423167594745706e-02,-1.505063807020862177e-01,2.583224824554399002e-02,3.585302829742431641e-01
-3.233878628512930620e-01,-4.507094853227708309e-01,-4.733967527483615156e-01,-6.661999809198561329e-02,-6.263057835971372334e-02,3.559544757654050512e-02,2.202217876911163330e-01
-2.827343000831639142e-01,-5.285887921881196050e-01,-6.075645504114328688e-01,-1.737390642063745549e-01,-8.567229492743215491e-02,4.616820264532154466e-02,4.528439640998840332e-01
-2.752938463955465487e-01,-5.064516787505397577e-01,-4.593203234606298424e-01,-1.576956474471969405e-01,-1.038635722315270765e-01,4.493609731291590276e-02,3.972215652465820312e-01
-2.972099254548501435e-01,-5.128791885585897159e-01,-3.356583476032674040e-01,-3.902526740618419976e-02,-1.420459422886181100e-01,3.843736303645968466e-02,3.305022418498992920e-01
-3.043667028501687577e-01,-4.363290749994986339e-01,-4.123759333433704710e-01,-6.846797009329466666e-02,-8.189897920298380707e-02,4.215132279500961865e-02,2.331159114837646484e-01
-2.785669420884920311e-01,-4.671060258895053385e-01,-4.205840009992940498e-01,-6.918135720457287141e-02,-1.188387663897331192e-01,2.095730622430167639e-02,2.949302196502685547e-01
-3.092793870283291890e-01,-4.456633141471931792e-01,-4.529130240793560191e-01,-1.197447602102202774e-01,-1.352488287791469013e-01,1.238569480021534108e-01,4.044213891029357910e-01
-4.029705188308683184e-01,-3.930618905914723960e-01,-4.072409579055821238e-01,2.641968015028463290e-02,-2.076390869001453615e-02,-2.583557656442607778e-02,7.448879629373550415e-02
-4.227622955511217140e-01,-4.005856391278317941e-01,-3.997431335049368428e-01,5.704899988976798279e-03,-5.028822737956531452e-03,-8.247209383217509945e-03,2.981194481253623962e-02
-4.198838389656435743e-01,-3.884766622221380583e-01,-3.806239541043428543e-01,2.899172094083052667e-02,-2.847970370982663008e-02,-5.243396131284536188e-02,1.204055994749069214e-01
-4.361614245684847790e-01,-4.187018387203060854e-01,-3.845954352039356317e-01,1.333505922590770380e-02,-1.388290774880553829e-02,-1.957080853009778021e-02,6.575936079025268555e-02
-4.315016178788067536e-01,-3.929187098385386046e-01,-3.921890779175088437e-01,1.990264924777963677e-03,-2.965244050657127491e-03,-1.319295789378705647e-02,4.558232426643371582e-02
-4.345368576380421177e-01,-4.085895013165349865e-01,-3.955520210257015279e-01,4.114356536376914675e-03,-2.413275418184319086e-03,-1.604352703882996889e-02,4.496631026268005371e-02
-4.106266954398593017e-01,-4.089924674390368886e-01,-4.118765586367828524e-01,-8.633201622548351047e-04,-1.738530586830857629e-03,9.187536363407260067e-04,4.484548699110746384e-03
-4.227924863806200029e-01,-3.840604678302186326e-01,-4.030042516075894032e-01,1.672738735876065988e-02,-1.022757667875822882e-02,-1.755934533655075305e-02,5.659967660903930664e-02
-4.256192722641332082e-01,-3.894656772004071454e-01,-4.095000394672766997e-01,1.438213166868304799e-03,-7.136320173673680288e-03,-7.905649394982370431e-03,3.647777810692787170e-02
-4.383353706517308379e-01,-3.949321542510074723e-01,-4.067707989911117372e-01,8.169840303676869503e-03,-7.201783893823605204e-03,-1.702042458969291183e-02,5.229797214269638062e-02
-4.249600796635311650e-01,-4.041695925876732653e-01,-4.033341149871982334e-01,4.875868275448848842e-03,-3.773766590072635731e-03,-5.468441385088670254e-03,2.557479403913021088e-02
-3.734313875477348055e-01,-4.896841465773747459e-01,-4.400626321580101696e-01,1.306355983948142944e-02,8.113900652538916236e-02,3.397652356127181701e-03,1.746584624052047729e-01
-3.789957877047602786e-01,-3.906404897438763846e-01,-4.348162713090905629e-01,-2.764827463333695973e-02,7.560844505375308600e-04,-1.611293903659235301e-03,7.003068923950195312e-02
-3.843704070242522919e-01,-4.283527928981231692e-01,-4.496519801315107534e-01,-2.379151501513376843e-02,8.251384221351087261e-03,-9.992642723100589319e-03,7.434257119894027710e-02
-3.715773568027189722e-01,-3.798719709625119068e-01,-4.398705190063146864e-01,-5.769921364217764359e-02,-1.782895871389719028e-02,1.101951442489896259e-02,1.243856623768806458e-01
-4.067794607041659294e-01,-4.218337580248000540e-01,-4.104415683709090046e-01,-3.497217378218646019e-03,-3.159521802653372357e-03,1.750652094796008827e-03,1.614763401448726654e-02
-3.897368357267153582e-01,-4.217377640246531278e-01,-4.319663187952594852e-01,-2.859941184624833349e-02,2.547600421990783501e-02,-2.281323237208960145e-02,8.612895011901855469e-02
-3.697450301333083389e-01,-3.996078074896490251e-01,-4.366362308981346363e-01,-2.854863460115543775e-02,1.154998589506629671e-03,-2.689881697646430946e-03,7.641624659299850464e-02
-4.159049367319435642e-01,-4.046206023915288053e-01,-4.430841751660912764e-01,-2.916706706121390338e-02,1.434270620909173372e-02,-1.631739351144265854e-02,7.169945538043975830e-02
-4.137830717117504942e-01,-4.101025764698641440e-01,-4.001744505762118709e-01,-1.249622384944643234e-02,1.514150836627403511e-02,-1.235377696723360605e-02,4.198528453707695007e-02
-3.548576261357224149e-01,-4.091821671107773173e-01,-4.714188626623743161e-01,-5.652064660877937491e-02,3.579800587959758307e-02,-9.071724455248175722e-03,1.545337289571762085e-01
-4.093607261408760412e-01,-4.146682755980996005e-01,-4.107512722814956607e-01,-6.555716025160371460e-04,-7.942897888019619242e-05,-1.615914612208930014e-03,5.644917953759431839e-03
-4.121530925531027290e-01,-4.338711089834089152e-01,-4.067186750951485297e-01,-2.060294667064073090e-02,-2.789234226749042964e-02,1.219944759821200812e-02,6.836009025573730469e-02
-3.752852789347517759e-01,-4.300650567697079096e-01,-4.481826111097418353e-01,-3.619626200595571497e-02,-7.363800696326272544e-02,4.795561559726486262e-02,1.772539019584655762e-01
-3.799406136722622285e-01,-4.498868227307383783e-01,-4.048145043978206292e-01,-8.923022842670359778e-03,-2.536404194627875711e-02,1.153404227589278561e-02,7.961981743574142456e-02
-3.613496946961973766e-01,-4.188636859979216198e-01,-3.695727814954782864e-01,-3.656735941382455862e-02,-6.355792977543532618e-02,3.711102917106803845e-02,1.521991044282913208e-01
-3.652510359858674449e-01,-4.540278132328207650e-01,-3.718966923527013413e-01,-2.511092070070328197e-02,-6.712720503020258578e-02,3.270337986140589570e-02,1.611021161079406738e-01
-4.054856232371463198e-01,-4.328648451032644506e-01,-3.720329654849263146e-01,-4.381712712234829554e-03,-2.740293853212691713e-02,6.722656843926396245e-03,7.232256233692169189e-02
-4.497613401471624583e-01,-4.812949483729884737e-01,-3.896117034472150742e-01,-2.537725909252024417e-02,-7.797254253889149278e-02,4.055916832184945642e-02,1.778071671724319458e-01
-3.664036976266935586e-01,-4.554741421460881123e-01,-3.677898040116948652e-01,-9.461470918526483642e-03,-7.882124521718025800e-02,1.400292442274248851e-02,1.652488261461257935e-01
-4.294131667913051453e-01,-2.726599146238575799e-01,-4.198384471365830817e-01,-6.986674986160060219e-02,4.828294989071087173e-02,-9.319129392835007186e-02,2.661842703819274902e-01
-4.597183617979682668e-01,-3.209484205170818338e-01,-4.856723718291016123e-01,-6.962021996498446788e-03,2.767895415493335301e-04,-2.806681451113568829e-02,1.613729298114776611e-01
-4.609299802019105607e-01,-3.287569440006797850e-01,-4.882434199189752966e-01,-2.113047439082064299e-02,9.333130692900384884e-03,-2.535142381273295872e-02,1.592316925525665283e-01
-4.430530358634528487e-01,-3.651581010587327536e-01,-4.422313778558123465e-01,-2.266109349523049224e-02,6.555915792643768163e-03,-2.346977920127857678e-02,9.657277166843414307e-02
-4.633317678239999848e-01,-3.342340334279005343e-01,-4.875208088180816857e-01,-3.825196023516404253e-02,-1.441843141662495480e-03,-2.487639669973228801e-02,1.631761789321899414e-01
-4.499031408094967266e-01,-3.133505280871761167e-01,-4.512164713101325941e-01,-2.876092554444644595e-02,-1.068890249017693909e-03,-8.228134200741693896e-03,1.466826051473617554e-01
-4.784914574439921298e-01,-3.307220555097204473e-01,-4.534191965943432656e-01,-3.383282900624060702e-02,1.056884250620346993e-02,-3.319802631220208911e-02,1.607324182987213135e-01
-4.403135041471635813e-01,-3.383670003815882898e-01,-4.372366007101200491e-01,-1.214350458757632728e-02,6.390438233826848530e-03,-1.826176911973215536e-02,1.079549044370651245e-01
-4.415069803628635103e-01,-3.184136235974974749e-01,-4.173977855527753467e-01,-4.238786183290391835e-02,1.792422199671116212e-02,-3.884891208204768742e-02,1.537767350673675537e-01
-4.425449349448900005e-01,-4.043595888061557453e-01,-4.020286257334843572e-01,1.267853313868369004e-02,6.267285057802957776e-03,3.654297593898023222e-02,7.847803831100463867e-02
-3.843542238633666508e-01,-4.094276847091817273e-01,-4.326618046481939817e-01,-6.026729331747967405e-03,2.453749855415016459e-03,-5.260197743261342540e-03,4.428429529070854187e-02
-3.918882819018560948e-01,-4.135971423649758560e-01,-4.344286602462217872e-01,-1.465534115815614151e-02,4.477984385694392180e-03,-5.147440850154366698e-03,4.627567157149314880e-02
-3.837457272815337217e-01,-4.221538916276637576e-01,-4.360589864300695173e-01,-1.700253609080559780e-02,1.340564610438749020e-02,-1.264922248999977503e-02,6.394536048173904419e-02
-3.721105481299146756e-01,-4.222167179873844156e-01,-4.328518117783919372e-01,-7.724388142771362008e-03,4.251201383156527798e-03,-6.607651650893933346e-03,5.933647230267524719e-02
-3.795453687996061531e-01,-4.221164876523347820e-01,-4.247735850898563537e-01,-7.139803831959451105e-03,6.825306162278898386e-03,-7.468247589883562909e-03,4.891303554177284241e-02
-4.156846178067743480e-01,-3.865700227785326404e-01,-4.317719092181476204e-01,-2.886446785818816071e-02,-1.389180958937987972e-02,3.377790648614508590e-02,8.986710011959075928e-02
-4.337411569060549144e-01,-4.020586487209448223e-01,-4.343486764377748610e-01,3.043375925869113569e-02,-1.945037489546733167e-02,-2.966623970611252312e-02,8.704739063978195190e-02
-4.030373509081331962e-01,-3.819823771296811388e-01,-4.370945844316475037e-01,2.255946146328723437e-02,-9.013225488176110356e-03,-6.912031049363925178e-03,6.507005542516708374e-02
-4.126129856782875249e-01,-3.983457178718106118e-01,-4.483821448619313976e-01,4.903960631697163591e-02,-6.471696671804328185e-03,-4.065298952253252988e-03,9.686688333749771118e-02
-4.172214811335546170e-01,-4.166156805957941800e-01,-4.335697778801944069e-01,2.038940355928143058e-02,-1.455025491199517067e-02,-2.081723412307266013e-02,5.882110446691513062e-02
-4.112200849095465349e-01,-3.851656340866653205e-01,-4.266315214992242311e-01,1.670041806057413758e-02,-1.479620479397381928e-02,-1.374613542496520499e-02,5.812268704175949097e-02
-3.986355163990136785e-01,-3.433288943306826990e-01,-4.571176035951696193e-01,6.889624310707209709e-02,-1.995354248928588037e-02,-1.883502867124114272e-02,1.619018465280532837e-01
-4.076160394996337644e-01,-4.356872373027298462e-01,-3.357443810834126463e-01,1.976583967250567300e-02,-5.246192491666881730e-02,-3.399909139940655162e-02,1.444565355777740479e-01
-4.386578610515435850e-01,-4.390365596812058069e-01,-3.283242452724665084e-01,1.811702390143558189e-02,-3.282055022544939915e-02,-2.949304231873766877e-02,1.379898488521575928e-01
-4.645716914865892222e-01,-4.479886105058363821e-01,-3.445960302870666458e-01,1.237130791498566688e-02,-5.765496188185613435e-02,-3.513538154205776698e-02,1.637513637542724609e-01
-4.317862472759475545e-01,-4.458370576170198607e-01,-3.835532450192027376e-01,1.582083053993125349e-02,-2.743266380898397652e-02,-2.092969386339452523e-02,8.674252778291702271e-02
-4.500920998404983053e-01,-4.558417934249718861e-01,-3.581946677325444361e-01,4.090373616834375690e-03,-2.180182933956244587e-02,-7.886871465550445576e-03,1.032924950122833252e-01
-4.105401957485785847e-01,-4.118104679283313141e-01,-4.150142424986331680e-01,-1.543614077544660027e-02,-1.197918074673243703e-02,1.917524175870309600e-02,4.758511111140251160e-02
-3.666160472255466374e-01,-4.577239877580270844e-01,-4.133880754753712639e-01,4.626770849394277324e-02,-5.032862739629084814e-02,-4.021175691833794863e-02,1.584264785051345825e-01
-4.089672875211246561e-01,-4.565578478546730712e-01,-3.423910638167457776e-01,8.568933972859266168e-03,-4.122781449226869260e-02,-5.892733185316230068e-03,1.236499324440956116e-01
-4.037247217655413056e-01,-4.590665552973531294e-01,-3.479337054264854956e-01,1.015382063857375380e-02,-5.895506825400065321e-02,1.239619725074737194e-03,1.414352953433990479e-01
-4.367884610030014492e-01,-4.275150343853248436e-01,-2.933330667296163430e-01,1.612409068898780495e-02,4.057958933862382267e-02,5.051864538182399694e-02,1.808634698390960693e-01
-4.555492760298691657e-01,-4.445683130944855788e-01,-3.581966744181662166e-01,1.243340133458617665e-02,1.956737317076222629e-02,3.385429898099624746e-02,1.165325716137886047e-01
-3.906739074830213876e-01,-4.253585507776582175e-01,-3.592655699250045798e-01,2.553297107248075209e-02,5.741065414656740251e-02,3.024663182310783835e-02,1.336683183908462524e-01
-3.664296712404772616e-01,-4.400526165454811678e-01,-3.799700867684931982e-01,-1.578455992833509985e-02,5.633132464528758238e-02,-1.132726090417887285e-02,1.235266253352165222e-01
-4.054055077674504903e-01,-4.164481711515988782e-01,-4.149758913374406721e-01,-6.148139498993052121e-03,8.804691058738923354e-03,-6.759651542184413886e-03,2.430834062397480011e-02
-4.027729553930005091e-01,-4.152952908126036902e-01,-4.074806042051380972e-01,-6.070755337466419987e-03,6.123031177945569871e-03,-6.746146511340625831e-03,2.189950458705425262e-02
-3.982372605022876377e-01,-4.180339839792372447e-01,-4.129205102747003364e-01,-1.962866162089629829e-02,1.670876118932532878e-02,-9.434058447458738839e-03,5.076646059751510620e-02
-3.701063780204748577e-01,-4.233338306562007824e-01,-4.419554495058697352e-01,-1.858284051658984359e-02,1.571996079183875933e-02,-5.423324130343102831e-03,7.769595831632614136e-02
-3.638264370442958473e-01,-4.588952417362562319e-01,-4.879164837203612270e-01,-5.378927619885034289e-02,3.794040365166978512e-02,-2.414534112296359836e-02,1.654889732599258423e-01
-3.511021505656954367e-01,-4.979961477169929651e-01,-4.722091680520931201e-01,2.608931589473041657e-02,4.676151937455703955e-02,2.119038110167776982e-03,1.645302623510360718e-01
-3.417913881751468708e-01,-4.882108712728531752e-01,-4.759037934449864560e-01,-4.279548578485942514e-03,6.002947451320859301e-02,-4.471343721809510618e-03,1.752531528472900391e-01
-4.115155737365204791e-01,-4.596055873845156792e-01,-4.015112610315439423e-01,1.156187291228909057e-02,3.540025729354168149e-02,1.316122698032618984e-02,8.702909201383590698e-02
-4.063254632041631287e-01,-4.732331000609313887e-01,-4.042514683565316402e-01,-1.386342300975747623e-03,4.036298250719175251e-02,9.294283308352471702e-06,9.753449261188507080e-02
-3.699343453945121984e-01,-4.561901497771031488e-01,-4.201502477070816477e-01,-2.722396363059396106e-03,3.075355308649765224e-02,-3.220458826600353097e-03,9.230914711952209473e-02
-3.835282477831974401e-01,-4.766320682388228147e-01,-3.949453699682657359e-01,-3.795462087413425945e-02,7.016547789893862186e-02,-3.427513446941874656e-03,1.638968586921691895e-01
-3.353086136909589898e-01,-4.281993930815598537e-01,-4.497110652414583742e-01,4.000358081901085605e-02,5.196456500652944094e-02,2.394838542676172577e-02,1.603498309850692749e-01
-3.723305214830396892e-01,-4.331732405778431216e-01,-3.869915882928493533e-01,3.038527864781339835e-02,-5.609952123847262301e-02,-2.719134869661945023e-02,1.321141123771667480e-01
-3.801975885577323910e-01,-4.926444254901248820e-01,-3.864744002580215998e-01,2.464636602623765729e-02,-5.466177919359747200e-02,-4.293180380390173440e-02,1.682063043117523193e-01
-4.304759074008804309e-01,-4.503578518284660492e-01,-3.802106824418477471e-01,1.534510686811577096e-02,-3.290077277259871591e-02,-2.427039890940041467e-02,9.819476306438446045e-02
-4.308420903553469294e-01,-3.988428210786598704e-01,-4.150958245617454301e-01,2.575853250031562292e-02,-1.800085594540656170e-02,-2.850397094122099698e-02,7.853697985410690308e-02
-3.691333304976379126e-01,-4.442173529052901304e-01,-3.624288743283761716e-01,1.282783763364152285e-02,-6.767443947364921997e-02,-1.362128499965300360e-02,1.448299884796142578e-01
-4.318727069458194734e-01,-4.824439054332069765e-01,-3.591638729428467958e-01,-8.556369841537785070e-03,-6.767318241167899484e-02,-9.552006394872081252e-03,1.604784429073333740e-01
-4.046636522237128664e-01,-4.149513965294859275e-01,-4.188537627318117962e-01,-8.318053868499538511e-03,7.186794515013810065e-03,-7.842904046646122229e-03,2.661327086389064789e-02
-3.990635188747003737e-01,-4.002470715561708969e-01,-4.253956728740945770e-01,-8.554312466089690828e-03,4.966050754849415244e-03,-5.851732188282390661e-03,3.255548700690269470e-02
-4.100388940102279167e-01,-4.012381230065345528e-01,-4.123768762829064238e-01,-2.072232660382680725e-02,1.182898005939715148e-02,-2.098058463562584713e-02,5.596489459276199341e-02
-4.126040855443151023e-01,-4.039622123941488119e-01,-4.186403603402276130e-01,-1.092782612758608218e-02,8.942136104138650662e-03,-7.521900856683480865e-03,3.051487915217876434e-02
-3.874881573890505693e-01,-4.086367743472745229e-01,-4.232720396839119159e-01,-1.806288491811839508e-02,1.192505610473552739e-02,-9.819502493613675026e-03,5.163005739450454712e-02
-4.505811076272893123e-01,-4.277565695897367903e-01,-3.885809859866737881e-01,-7.435438942202105342e-03,5.357158358306968182e-03,-2.589199441193484538e-02,7.220105081796646118e-02
-4.603470678630503521e-01,-4.403186352274677251e-01,-3.745506280665932275e-01,-3.482135639865467647e-02,4.121931639633496375e-02,-4.909021268411864480e-02,1.483510136604309082e-01
-4.285304337978962375e-01,-4.296830416080746340e-01,-3.605634366118957157e-01,-1.443884752883351982e-02,3.205555812018036355e-02,-2.766472898779842593e-02,1.034568026661872864e-01
-4.326345906530372210e-01,-4.257810766535786162e-01,-3.489431014570240630e-01,-1.163844310456603123e-02,2.315226882037199965e-02,-3.270535065717294909e-02,1.081712394952774048e-01
-4.514573172458792305e-01,-4.607360396267175529e-01,-3.318205408778179266e-01,9.598008883169716066e-03,7.853862297771682655e-02,-9.761518900849733629e-03,1.859470456838607788e-01
-4.243986069446719078e-01,-4.523948224918726835e-01,-3.834902931391335756e-01,-1.411035684374995630e-02,3.755051734316086631e-02,-4.331030063336727826e-03,9.212090075016021729e-02
-3.970356515031935318e-01,-4.191267799078222667e-01,-3.811711948219399515e-01,-1.556249125337170504e-02,3.239917648872589484e-02,-2.544785011949622991e-02,8.311820030212402344e-02
-4.203664152108885776e-01,-4.603772152507723536e-01,-3.761786213449417327e-01,-1.351602043968275040e-02,4.941144683312857083e-02,-1.532602457814518856e-02,1.178923100233078003e-01
-4.209939618919644744e-01,-4.204537769368092981e-01,-3.628064055676763489e-01,-4.520738954641302654e-02,5.193957909804104711e-02,-5.568495061550936959e-02,1.639554053544998169e-01
-4.427486947077176049e-01,-4.276234412107715044e-01,-3.706918607512778574e-01,-1.726883913499576567e-02,4.629044051521690600e-02,-3.307897475806081955e-02,1.222161650657653809e-01
-4.164324468492793252e-01,-4.497029763010104153e-01,-3.959807685171413683e-01,-2.083604849474753051e-02,5.445237522815556813e-02,-2.481981719681235904e-02,1.193788647651672363e-01
-4.122524874410652407e-01,-4.043828415265000031e-01,-4.122571510534551176e-01,-9.329857778801072237e-04,4.092210435437367358e-03,-1.548988782620187681e-03,1.104608923196792603e-02
-4.151304881164532556e-01,-4.655365682521563908e-01,-4.058203355536731394e-01,-4.729141822748722523e-02,7.401843089763518457e-02,-4.818052065435884240e-02,1.822263598442077637e-01
-4.197948755655119268e-01,-4.112296699431348124e-01,-3.647839579353991946e-01,-3.822173211912678614e-02,5.264262467490793407e-02,-6.642572286421993821e-02,1.690028160810470581e-01
-4.005697093746548587e-01,-3.431730501954978196e-01,-4.407852531460998424e-01,-4.720930238722644001e-02,-1.014938433343677039e-02,1.174807625358524101e-02,1.209509819746017456e-01
-4.207617942912340037e-01,-3.692188562604844515e-01,-4.498725129490191987e-01,-1.405952402352950159e-02,-8.478622909089516668e-04,7.232726391049453321e-03,7.587268948554992676e-02
-4.573361774557088699e-01,-3.446435824803409931e-01,-4.957796322017735680e-01,-5.444023407047513669e-02,-1.102479982390475524e-02,1.799715227792374195e-02,1.695209741592407227e-01
-4.356258325519667407e-01,-3.660642147943971025e-01,-4.502999861905541690e-01,-7.010383108597217396e-03,-1.736565996279519413e-03,1.111707512810449806e-02,8.125367015600204468e-02
-4.484381459135722281e-01,-3.553228137348579674e-01,-4.506671711321537654e-01,-1.192574540938959489e-02,-1.699510694552468486e-03,1.033094751691498829e-02,9.817592054605484009e-02
-4.303226840828197619e-01,-3.137508084087022309e-01,-4.382605445137527367e-01,-3.103491592872546778e-02,-7.048064925671200867e-03,1.911791931337079864e-02,1.367930918931961060e-01
-4.580862577651713119e-01,-3.247868494892204305e-01,-4.884427600754920329e-01,-3.102969231957638033e-02,-1.133093596154695348e-02,-1.568643027007342533e-03,1.613004356622695923e-01
-4.375457168329968671e-01,-4.061836093691859606e-01,-3.807826637565185912e-01,-5.389312620466471873e-03,-8.705993438722182259e-03,1.966875719406747935e-02,6.245409697294235229e-02
-4.404417862336646450e-01,-4.078659814656073745e-01,-3.781389342625851024e-01,1.171742038946147445e-03,7.427414105485433994e-03,2.068557530067738348e-02,6.607995182275772095e-02
-4.222759355216229027e-01,-4.158634114974147367e-01,-3.950328856644287900e-01,-7.685340177054996239e-03,-9.480575487528869472e-03,1.067992354697128166e-02,3.738485276699066162e-02
-3.955948154771784520e-01,-4.053717936742043948e-01,-4.359448578617775016e-01,-1.789387669163646638e-02,-7.788273307150139595e-03,1.044028466203087216e-02,5.290327593684196472e-02
-4.197196184445184386e-01,-3.900891727243016582e-01,-3.874291721845096736e-01,2.455576324204276212e-02,1.993204255847130790e-02,2.523283177992737339e-02,7.664697617292404175e-02
-4.351597509802827557e-01,-3.928540938041631403e-01,-4.054838834619539090e-01,4.447102703317875813e-03,3.226787166129753241e-03,8.438198235933530578e-03,4.146257042884826660e-02
-4.096103183793421976e-01,-4.102757481716812760e-01,-4.167960557300302571e-01,-3.371239590527635738e-03,-3.054122527682348164e-03,3.821448725802593666e-03,1.237680017948150635e-02
-4.342220265245392286e-01,-3.733501348185663815e-01,-3.963751120840324216e-01,3.786162110831662458e-03,5.860822122485195504e-03,2.973895909152313166e-02,7.505486160516738892e-02
-4.440591083959570806e-01,-3.706589612036917947e-01,-3.645783649749768651e-01,5.771145248760008346e-03,9.922490754165244967e-03,5.675825308000963937e-02,1.262166947126388550e-01
-4.323600825682277771e-01,-3.971618459179884764e-01,-3.961237265557844278e-01,-5.092009314625178112e-03,-3.944061611337166227e-03,1.167783206315434891e-02,4.254528507590293884e-02
-3.993505668251159380e-01,-4.006871818736868485e-01,-4.222052812718303794e-01,8.297964840696631789e-03,5.824728136254689326e-03,5.145319615770051029e-03,2.968754805624485016e-02
-3.945760391843528003e-01,-4.217081318711252691e-01,-4.123947923192319287e-01,-2.550425881223986405e-03,-3.702411948910720469e-03,6.537872164838116375e-03,2.755117602646350861e-02
-3.906278485575833126e-01,-4.057691291446020032e-01,-4.187370912029667602e-01,1.920344868984073458e-02,1.451062602502647784e-02,1.264291783751460632e-02,5.302169546484947205e-02
-3.949738601374945257e-01,-3.714286811187086368e-01,-4.314844258848312686e-01,2.839110177235460927e-02,7.156151153427570480e-03,7.941346617991618118e-03,7.421613484621047974e-02
-4.099682507180594238e-01,-4.032120428744636054e-01,-4.260604411640680489e-01,1.205713207505525186e-02,5.456655320326410721e-03,5.186664926770877607e-03,3.192929923534393311e-02
-4.012075589709812040e-01,-3.569994952458385717e-01,-4.612610217199995533e-01,7.080655988337658524e-02,-3.840113115480913494e-03,-1.066056913379824153e-02,1.537579596042633057e-01
-3.946067006957740819e-01,-3.284089313321026937e-01,-5.055220462499929734e-01,1.187975292568757973e-01,-1.355275385447209102e-02,-9.766943266138881918e-03,2.592343986034393311e-01
-3.717842718798280433e-01,-4.189615329903867980e-01,-4.589936565974593874e-01,2.896139643870787594e-02,-9.806698265435401934e-04,2.563029665491856155e-03,9.086116403341293335e-02
-3.919610188103274107e-01,-3.989610041312230959e-01,-4.327976941454718118e-01,1.185920158202197032e-02,6.035662957506266781e-03,8.238335800103326750e-03,4.653598368167877197e-02
-4.069478109281461919e-01,-3.932098826790849100e-01,-4.102044383826830565e-01,-1.414416219712795984e-02,-1.235955323534064509e-02,1.444101454343581226e-02,4.391072690486907959e-02
-3.704844022817481708e-01,-3.935272830655804910e-01,-4.334554652218007287e-01,3.178176783808372985e-02,-5.881277338693637231e-03,-6.619447089662710941e-03,7.944026589393615723e-02
-3.849380830925126507e-01,-4.334963913997960105e-01,-4.645900643993927659e-01,4.137201669763165834e-02,1.809773633705512742e-03,-1.391818147068519000e-03,9.992572665214538574e-02
-4.037235972782315940e-01,-4.272356404647265071e-01,-4.059080008467594869e-01,-1.206176303664368817e-03,-9.695541893395695976e-04,7.390427747966280903e-04,2.269474044442176819e-02
-4.420431143606681768e-01,-4.452318815046475975e-01,-3.637616278485460430e-01,4.754398356897588073e-05,1.708739405776543707e-02,-5.008105276245653631e-03,8.566777408123016357e-02
-3.971865675206803226e-01,-4.211291746200277464e-01,-4.082031811034510516e-01,-1.066575691540977248e-02,-1.328609079512216642e-02,8.519462996193879339e-03,3.897983208298683167e-02
-4.284380211115594306e-01,-4.451964728218623102e-01,-3.911868024897852680e-01,-1.032838222382107332e-02,1.709230846701877138e-02,-2.180663582298095898e-02,7.011295855045318604e-02
-4.162355296984456277e-01,-4.534852746967471537e-01,-3.763969970402961107e-01,-6.146188338823524271e-03,7.642896281383616819e-02,-1.179328434092319529e-02,1.500445157289505005e-01
-4.229394096783495871e-01,-4.470489635171108755e-01,-3.187998677847109219e-01,-1.544254853460529792e-02,4.562623161399063931e-02,-2.024808059307972585e-02,1.487538367509841919e-01
-3.675154839396010953e-01,-4.798407260269937913e-01,-3.949089097764018619e-01,-1.776009970293704332e-02,5.979131398085115595e-02,-3.229378315249191445e-02,1.583992391824722290e-01
-4.091908542762542345e-01,-4.419648018916776389e-01,-4.085759846496519465e-01,-1.021621595250893702e-02,3.027926377037623226e-02,-7.114935767402405693e-03,6.565167754888534546e-02
-4.123399034738831626e-01,-4.447795829188656569e-01,-3.852683631435484535e-01,-3.070684608492937635e-03,2.910076000251397843e-02,-1.362178188340172798e-02,7.608483731746673584e-02
-6.382570217832707060e-01,-4.494761184078042704e-01,-3.851408841552583229e-01,1.731484218306154899e-02,3.319497659607481554e-02,2.160722810253654924e-01,4.429326653480529785e-01
-4.681451977042853096e-01,-4.638749490173305623e-01,-3.542230494833362719e-01,4.972892088452054299e-03,-5.779847209881789488e-02,5.087276262458690496e-02,1.742707937955856323e-01
-4.626126374859320101e-01,-4.224932479799793916e-01,-3.760382499147076896e-01,-5.845723380461254233e-03,-1.780735237649908390e-02,4.961332658785375799e-02,1.186155453324317932e-01
-4.461289379943630951e-01,-3.927340767000301880e-01,-3.708312344379152137e-01,-2.881205303140467813e-02,-3.734892859785270136e-02,5.039589227216621781e-02,1.370938122272491455e-01
-4.601710291338849124e-01,-4.144398041048622527e-01,-3.949418015387570757e-01,-1.837533947801701928e-02,-4.756961881640133644e-02,7.252474682983450771e-02,1.641470938920974731e-01
-4.536318547933850254e-01,-4.147046836427816796e-01,-3.422676845574560978e-01,-7.725716776611820519e-03,-1.033383028386870156e-02,3.902632471284615823e-02,1.210404783487319946e-01
-3.412798833868475046e-01,-2.897204013488426932e-01,-4.628854779942995212e-01,-1.588082341418610433e-01,-5.308565017982482589e-04,5.702639256290367199e-03,3.153962492942810059e-01
-3.153158693898769349e-01,-3.778506076143331449e-01,-5.926400362574251179e-01,-1.467302776884722437e-01,-3.919811564417799432e-02,4.015898153668467224e-02,3.708286881446838379e-01
-4.562828635819056733e-01,-3.847062979364979651e-01,-4.814846171483120330e-01,-6.557279383749643753e-02,3.189682191344930806e-02,-5.238077500458461488e-02,1.781713217496871948e-01
-4.135671991121677715e-01,-4.002808904685108971e-01,-4.926182859199195740e-01,-8.219345289189329551e-02,8.639601998143455050e-04,1.055631302358460769e-02,1.675700843334197998e-01
-3.746489580682305087e-01,-4.154325732947902750e-01,-4.445965886539908762e-01,-2.945237239894978737e-02,-1.886599177541223998e-02,1.077381003627510617e-02,8.787254989147186279e-02
-3.923960829547993301e-01,-4.272600141811186414e-01,-4.313030634067620550e-01,-1.301439522031461703e-02,-1.325429627363774662e-02,1.077765590872761456e-02,5.250164493918418884e-02
-3.660510152913865611e-01,-3.840128418935438437e-01,-4.813904276080901434e-01,-5.786684918479444162e-02,-2.991412688634672440e-03,6.358173717355662669e-03,1.474718302488327026e-01
-4.218688019185504179e-01,-4.374816493535003126e-01,-3.803879925740674128e-01,1.269135617547791257e-02,1.839009161501488354e-02,2.229551406001169245e-02,7.484062761068344116e-02
-4.431812585094299650e-01,-4.508289772324736711e-01,-3.344578885780744582e-01,6.535022254896268945e-04,2.485886302167811604e-02,2.817290613303439009e-02,1.301808506250381470e-01
-4.363029615757925139e-01,-4.412107956573085854e-01,-3.146337739524595611e-01,3.431316757346344719e-03,1.703854227990198728e-02,1.535968494297337492e-02,1.305321007966995239e-01
-4.367813028878671511e-01,-4.091489491837711490e-01,-3.925085334291866790e-01,1.161350218136297623e-02,9.692868897619760088e-03,1.752302755324637584e-02,5.574862658977508545e-02
-4.080421073137683319e-01,-4.255193475749277088e-01,-4.103686109791530034e-01,2.871685926976424649e-02,3.335624833593660299e-02,2.422690645555615821e-02,8.856029808521270752e-02
-4.215382422217880953e-01,-4.012521068508182465e-01,-3.643561313754590247e-01,3.176975797973929233e-02,4.131248628323651306e-02,5.075212166297606714e-02,1.356346905231475830e-01
-4.558287025231099188e-01,-4.689471006229878891e-01,-3.355923330828476381e-01,-1.634990687494004228e-03,5.882057049385953917e-02,2.186559662310640084e-02,1.674159318208694458e-01
-2.468266967126007128e-01,-5.389969878505842527e-01,-5.103787596201935228e-01,1.276445048845462060e-01,-4.937141606559751483e-02,-5.419660336986185240e-02,3.779217898845672607e-01
-4.527029418821295059e-01,-3.440114480991262047e-01,-4.656750350374777025e-01,-3.506310906079351114e-02,3.278102717166861413e-02,-4.881503411610740167e-02,1.656890064477920532e-01
-2.937666537924329968e-01,-4.231596866816533242e-01,-5.058205509042918990e-01,2.035657844264658345e-01,-2.519187604826689155e-03,-2.216866641359893295e-02,4.001019597053527832e-01
-2.998374001129990862e-01,-4.438611818742024262e-01,-4.789704559751415403e-01,8.633502873530880806e-02,-2.831818931159714101e-02,-1.238341590007041408e-02,2.286024987697601318e-01
-2.314338355329151886e-01,-4.188749736854515682e-01,-4.928143124304841249e-01,1.233231488129960945e-01,3.360819599631997834e-02,1.676704921945852689e-02,3.229832947254180908e-01
-3.230375675697396698e-01,-4.571486956319929518e-01,-5.080498847810521745e-01,8.663842542445490680e-02,1.305784789449682300e-02,1.589179696457981373e-03,2.245904952287673950e-01
-3.257508348664693854e-01,-4.533162239433766727e-01,-4.689527653694571807e-01,7.978724524656520545e-02,1.358481332134355533e-02,1.177550928745350542e-02,1.964173018932342529e-01
-4.398151648632599997e-01,-3.125812973838486553e-01,-4.495180711843556609e-01,-3.732548675507178781e-02,1.125392669575360233e-03,-1.843384286296775865e-02,1.507313400506973267e-01
-4.474579243801760642e-01,-3.573216381946627829e-01,-3.902461863191474256e-01,2.386361823749473879e-02,1.875302852402593173e-02,6.061912831018455988e-02,1.415215879678726196e-01
-4.674520110351367275e-01,-4.225591164513569642e-01,-3.316560318538468444e-01,5.156161349434725330e-03,2.914359561532612122e-02,8.713050563782678837e-02,1.994056850671768188e-01
-4.349538457647643130e-01,-4.185861154249807536e-01,-3.840501752738985641e-01,1.598845420325695210e-02,1.782705606179475072e-02,3.346960906418117165e-02,8.430217206478118896e-02
-3.038361986980344653e-01,-4.483252400021548456e-01,-4.362506258326445119e-01,-5.786298437774720603e-03,-3.257919301073773644e-02,1.628280269652545046e-03,1.502359509468078613e-01
-3.024956252005898683e-01,-4.490497255837089807e-01,-4.536374875972636889e-01,6.696253791857774765e-03,-4.425773735489222510e-03,-1.219443997068222867e-03,1.495635360479354858e-01
-2.945743026425989841e-01,-4.539629470954041901e-01,-4.538215924483315900e-01,-2.325293504923476380e-04,-4.862375962258574415e-03,-3.313149619169569824e-03,1.596441417932510376e-01
-2.813276027227225029e-01,-5.269237817693133152e-01,-5.150979143690072037e-01,-9.766019742285156867e-04,-4.655575852057947106e-03,-1.622426051780483797e-02,2.416826635599136353e-01
-2.763120380079601146e-01,-4.701906928513523987e-01,-4.460693020952732901e-01,-1.169425515907690158e-02,-1.523542034967210676e-02,-2.029102723522879272e-03,1.860460340976715088e-01
-2.697592552992721937e-01,-4.639252922596462381e-01,-4.522828628056393407e-01,2.244320504871449504e-04,-2.789761416684487585e-02,-2.308525272673562188e-03,1.947470158338546753e-01
-2.809763549506058000e-01,-5.064673465672674402e-01,-5.159370277919156367e-01,-7.148461643029638051e-04,-8.304127482912504812e-03,-6.405806701417253272e-03,2.310902476310729980e-01
-3.878276895111304468e-01,-5.039914760623341872e-01,-4.620470255312555397e-01,-4.419011049910567118e-02,-7.707586473663435855e-02,3.045375525255303653e-02,1.919468492269515991e-01
-2.744380856262565449e-01,-4.816975496187224093e-01,-5.102214180905898511e-01,-8.554826198318293828e-03,-7.299827451803834848e-03,-8.198032566373233965e-03,2.241940647363662720e-01
-5.255687055461971680e-01,-2.873816211964218548e-01,-5.984124237012650172e-01,7.318132274468255871e-02,-2.062592089603666051e-02,1.056700516348274554e-02,3.115566074848175049e-01
-4.607423030185512358e-01,-2.688233526102801196e-01,-4.979793989624359263e-01,4.129080349556400742e-02,4.827548202745824768e-04,1.591951310557896196e-02,2.263664603233337402e-01
-4.653435980584295084e-01,-3.028207422462659837e-01,-4.664106238739694210e-01,2.766670862150446761e-02,-8.957598704448756916e-03,9.550703576886563489e-03,1.714611798524856567e-01
-4.549683449464486107e-01,-2.294955192678905520e-01,-4.590692151556843292e-01,4.128330783493891487e-02,7.643806610838414957e-03,3.291832559968704830e-02,2.455982714891433716e-01
-4.348104895593440933e-01,-2.271366974295427055e-01,-5.010722891814155533e-01,7.295032373768381428e-02,4.313196598986168868e-03,6.633352338318640462e-02,3.008344173431396484e-01
-5.061623226613627402e-01,-3.007824490102752879e-01,-4.676063315491422734e-01,1.125160275045955331e-02,9.106365487875051068e-03,4.057444447775609975e-02,2.032640278339385986e-01
-5.290902533393226914e-01,-1.378328257647388755e-01,-6.225535701981064207e-01,3.394499372200925069e-02,-1.888422092330636556e-02,4.634900994707576161e-02,4.575558006763458252e-01
-5.948528405697648402e-01,-1.815602106766451840e-01,-5.365781688111591619e-01,6.065487395690403322e-02,2.416869652171379362e-02,1.134546299323513190e-03,4.036279618740081787e-01
-4.544581723889633551e-01,-4.099990491039605112e-01,-3.436612778962375159e-01,-2.619667544284390998e-03,6.558040325170299764e-03,4.568237468144722979e-02,1.254467368125915527e-01
-4.609485415584465562e-01,-4.322350896552393795e-01,-3.539882333128325786e-01,5.638992389517470151e-03,1.451902995210449000e-02,4.711772200229203539e-02,1.287703812122344971e-01
-4.458003724668126999e-01,-4.165565500067443527e-01,-3.434424361133247561e-01,-5.052842092592046974e-03,6.097553725006268910e-03,4.661827419103459214e-02,1.226659491658210754e-01
-4.513172774715291657e-01,-4.397884570233018264e-01,-3.507150626074350130e-01,8.602373941311399668e-04,-1.044811982257647445e-02,2.549423118537526636e-02,1.066464781761169434e-01
-4.559482259777182800e-01,-4.374746774738494937e-01,-3.253873195024279408e-01,-7.285461573327751180e-04,-5.723018914362946324e-03,3.655099652183498721e-02,1.381422281265258789e-01
-4.510247001838642023e-01,-4.037854563999966340e-01,-3.253421021490076614e-01,-1.419359466379009095e-02,-2.668109884015683678e-02,7.236554439482299761e-02,1.747593879699707031e-01
-4.089636067279041054e-01,-4.111830374647998387e-01,-4.141746066677842175e-01,2.650094114344502807e-04,7.821666661946934237e-04,1.383999665293075962e-03,5.320465192198753357e-03
-4.187766999586916006e-01,-3.755585407171733170e-01,-4.484546829343962759e-01,2.544167317477075488e-02,8.290985594278807436e-03,9.123602244412939294e-03,8.018103241920471191e-02
-3.930491294016258408e-01,-4.078445218666439387e-01,-4.325516275953191769e-01,2.377459499620364781e-03,-4.478840043500422548e-04,-4.473237260826639500e-04,3.482893854379653931e-02
-3.940866523412809852e-01,-3.939197889424150834e-01,-4.392481348368761362e-01,1.366371514721404987e-02,1.920224243091799834e-03,2.886156285420726081e-03,5.141270160675048828e-02
-4.195660971256326977e-01,-3.975194423995407345e-01,-4.187918093775520045e-01,-2.519156875796804695e-03,-6.415991454900661639e-03,3.054501258050618465e-03,2.530034072697162628e-02
-3.920991157056244458e-01,-3.840450515126692110e-01,-4.345980412050804431e-01,2.943840924432755343e-02,-7.706688154434312293e-03,-9.084157676832379028e-03,7.238038629293441772e-02
-4.056818531842865116e-01,-4.127543484430896137e-01,-4.637609333660309141e-01,3.533845072042708646e-02,-1.547277816039614956e-04,-2.468350954466602340e-03,8.232377469539642334e-02
-3.949695609951016095e-01,-3.732873084995007029e-01,-4.349716973392784292e-01,2.910858984852263132e-02,-5.038368451574066868e-03,-5.228146910180166834e-03,7.508470863103866577e-02
-3.909625426479184651e-01,-3.743303564320188404e-01,-4.322508519091563528e-01,2.939153105945355518e-02,-7.988238479870280601e-03,-6.678728830256898917e-03,7.473223656415939331e-02
-3.999748979239181601e-01,-4.686823905700280846e-01,-4.272130684116367538e-01,5.917223661360556525e-02,7.839259993493349898e-02,6.216470229209675180e-02,2.100590020418167114e-01
-3.860096178317056204e-01,-4.094772205041093960e-01,-4.216946606775014428e-01,2.428049995182256920e-02,1.783722726725590207e-02,1.396343571076353630e-02,6.553448736667633057e-02
-4.024628745833654375e-01,-3.787774107706275428e-01,-3.968037828893852259e-01,4.557472574182890729e-02,4.001857062835888212e-02,4.568625454102735739e-02,1.332528293132781982e-01
-3.668417583093536161e-01,-4.335919077908523822e-01,-3.862533980539533118e-01,1.175879047294196671e-03,3.670144323143285925e-02,1.467459453955246391e-03,8.711062371730804443e-02
-4.226770204023583832e-01,-4.087879107203864493e-01,-4.283073437064055522e-01,2.813295558178874681e-02,2.275999080780652384e-02,2.604636866027133790e-02,7.916115969419479370e-02
-4.041223365974300208e-01,-3.735196562199237791e-01,-4.391319074847481185e-01,2.781112593250729959e-02,-3.441304553485973264e-03,-4.043175032066544279e-03,7.509012520313262939e-02
-4.411937998823688423e-01,-3.336750458840908040e-01,-4.605886656866734485e-01,6.777382709022808371e-02,-9.537294139598240499e-04,-1.225787601246437070e-03,1.667599081993103027e-01
-3.991088013765966558e-01,-3.695668150245939865e-01,-4.543151637892403616e-01,2.730581089439414882e-02,3.506754707424280561e-03,-3.196314523897640127e-04,8.846127986907958984e-02
-4.162736744536247868e-01,-3.675680428256202781e-01,-4.524863438217845424e-01,3.060128936825596072e-02,-1.257484378053480567e-03,5.401406196259478376e-03,9.137254953384399414e-02
-3.973803385088645612e-01,-3.728335877540054355e-01,-4.396225520536449771e-01,2.675769872139814598e-02,3.525785758051049480e-03,6.302315946766075434e-03,7.568507641553878784e-02
-4.305428271040543375e-01,-3.468626589076686528e-01,-4.537291491705893742e-01,4.080452477761695174e-02,4.899825256455213850e-03,5.622132453130881079e-03,1.210044994950294495e-01
-4.198897841889955296e-01,-3.371948454239020454e-01,-4.301815910685122812e-01,4.634201694217842532e-02,-1.968717733697613465e-02,-4.764791277303661449e-02,1.490366607904434204e-01
-4.724044336729563698e-01,-2.858682642782348626e-01,-4.687808218292895401e-01,6.691359204461334864e-02,-2.486599969736436912e-03,-8.480667133895717757e-04,2.181420028209686279e-01
-4.428423503044858767e-01,-3.650586501757011604e-01,-4.506390829914099783e-01,1.580392216320375409e-02,-8.063630788107765263e-03,-2.073547562303813471e-02,9.461390227079391479e-02
-4.860130444194913357e-01,-2.769688509728333581e-01,-4.812440216374135327e-01,2.081518288904174452e-02,-3.593986880070927994e-03,-5.815389211650393714e-02,2.328292727470397949e-01
-4.710370639573538964e-01,-3.024790576104318673e-01,-4.682062281440080298e-01,5.847653320825377254e-02,2.000803775384695470e-03,-3.077451928922117844e-02,2.026188373565673828e-01
-4.928511247766959036e-01,-3.581459101941916190e-01,-4.318178139490536638e-01,4.228179972283895027e-02,-3.391538682470815469e-02,-7.181484649708146095e-02,1.947695612907409668e-01
-4.709120914208135833e-01,-3.598526215810404771e-01,-4.137721102205524915e-01,3.155611293742623114e-02,6.654731147186345244e-04,-6.504282715930548298e-02,1.579039245843887329e-01
-4.070954193052914172e-01,-4.158916017902401507e-01,-4.040718360305224910e-01,-3.379263262476522693e-03,-2.339809615934744600e-03,1.654996240154237800e-03,1.311527006328105927e-02
-4.771059163428091887e-01,-2.855109861815088301e-01,-4.512878901607043081e-01,2.324488218394487812e-02,-1.649460868757526844e-02,-7.860312986863653151e-02,2.310868501663208008e-01
-4.129866765330391654e-01,-4.034626440060152253e-01,-4.243707732920268261e-01,8.416908125457884388e-03,7.341214444101082717e-03,7.742706220033824735e-03,2.971176803112030029e-02
-3.736367574128294233e-01,-4.176988624273841322e-01,-4.395507216735977107e-01,4.054598495679606618e-02,2.690650971068371880e-02,1.911492633623047832e-02,1.076186075806617737e-01
-4.244542175304056864e-01,-3.792084931628861288e-01,-4.015251916489764872e-01,3.014999997889012198e-02,3.307756800221547944e-02,6.197711962247466622e-02,1.380884051322937012e-01
-3.940934451572721819e-01,-4.081574318033769355e-01,-4.055577337381465752e-01,1.522616399097684141e-02,1.760313832328084735e-02,1.392248438933214004e-02,4.873005673289299011e-02
-3.837542725955275791e-01,-4.165689464447392965e-01,-4.173327842095125306e-01,-7.982885038567793384e-03,-3.606991687021977432e-03,8.031819961535225511e-03,3.906651213765144348e-02
-3.852711706470915987e-01,-4.348363984581792852e-01,-4.315376566788596824e-01,-1.031720770916300968e-02,-1.084701614017027915e-02,1.129063876503498022e-02,5.795544758439064026e-02
-3.826212642319288815e-01,-4.305907540519881005e-01,-4.207285079638734548e-01,-9.357316407036207762e-03,-1.283251740728576749e-02,7.195306910505400513e-03,5.326598137617111206e-02
-3.942154690313228738e-01,-4.266409102105896411e-01,-4.292044284751044825e-01,-1.725002703799265874e-02,-1.483975159382709338e-02,7.666447525816751964e-03,5.357958748936653137e-02
-3.768383180383699793e-01,-4.316170037639049384e-01,-4.248125129581352133e-01,-1.432769867061436248e-02,-2.390324528449681504e-02,5.090589218447643186e-03,7.128780335187911987e-02
-4.452688604950066908e-01,-4.476979880014786972e-01,-3.161605248810033797e-01,-2.280445871600052688e-04,1.026126674491912791e-02,-5.340316572397033751e-03,1.318714469671249390e-01
-4.780474963720373061e-01,-4.716354939172891503e-01,-3.002643274834176368e-01,6.760561002556854902e-03,4.537526540028936559e-03,-3.154433448013858887e-02,1.835539191961288452e-01
-4.557977820414791381e-01,-4.512412201132738332e-01,-3.492360599887502359e-01,-4.543676512617491822e-03,4.580518750787607651e-04,-8.546773317538603615e-03,1.056991666555404663e-01
-4.484392459643139484e-01,-4.469664696245880808e-01,-3.298640157944762175e-01,-2.509299013321281786e-04,2.538432852308495670e-03,-1.017831735850007954e-02,1.192389801144599915e-01
-4.810643374440856102e-01,-4.665264318145894151e-01,-2.848312220214935242e-01,-7.290376056623726862e-03,1.046951896037322249e-02,8.704998024882419291e-04,1.906738579273223877e-01
-4.919280279767016539e-01,-4.963568559335527208e-01,-2.933221707650478516e-01,1.639886170172322969e-03,-6.293252388368860556e-04,2.414066431794195666e-02,2.051854431629180908e-01
-5.030741962281024549e-01,-4.757115138377642216e-01,-2.796291924105502869e-01,2.852437852394697562e-03,2.436294451597010441e-02,-3.527621086511143183e-03,2.154175788164138794e-01
-4.555948577931461241e-01,-4.642207537195367495e-01,-3.213378672859846241e-01,-8.477033639791707598e-03,1.724092439894594347e-02,4.203328774718661717e-03,1.428907513618469238e-01
-4.537517618606050074e-01,-4.679588090127707600e-01,-3.224523015059299058e-01,-3.150579385100393554e-03,1.166156690430016074e-02,6.271389771653186271e-03,1.409344226121902466e-01
-4.521125197035751886e-01,-4.532157956287511946e-01,-3.367639367055983435e-01,1.222199920100593574e-03,3.958420716832160291e-03,-1.239758850543168540e-03,1.161459162831306458e-01
-5.303035319933857572e-01,-5.298277879279956748e-01,-1.822762275076543204e-01,4.603188167111015028e-02,-1.294757971178409905e-01,5.333346994774855899e-04,4.214347600936889648e-01
-4.317041145354806320e-01,-4.661494660896303155e-01,-3.286292233866781043e-01,-2.648829073995649132e-03,-5.522825043914936227e-02,5.993457938505778078e-03,1.569734364748001099e-01
-4.337081204368921084e-01,-4.490851264435411494e-01,-3.476382725762897086e-01,-8.512295936148583583e-03,-1.662512705261722998e-02,7.263053832127139113e-03,1.008602306246757507e-01
-4.562940359462215323e-01,-4.829383480234535342e-01,-3.205722564561510612e-01,-1.679709015452430371e-02,-4.911081647975749226e-02,-1.833451900753968120e-02,1.784293800592422485e-01
-4.355228962946651738e-01,-4.506363049899774209e-01,-3.411143315271416565e-01,1.601693672116733967e-03,-1.663761405359705237e-02,-1.545048867116381557e-03,1.068340539932250977e-01
-4.303321698293511854e-01,-4.443295172530116743e-01,-3.387822904148410919e-01,-3.036729255796268012e-03,-1.832367165328033232e-02,1.592597329032007869e-03,1.044093221426010132e-01
-4.255957399690467602e-01,-4.162751543981580427e-01,-4.051781563776394313e-01,7.558594528651526277e-03,-6.813313134265069210e-03,-8.380854701137072094e-03,2.889332361519336700e-02
-4.144026434133518677e-01,-4.007403646179680257e-01,-4.022584153113663574e-01,5.734855704844794150e-03,-5.875199617816011244e-03,-7.159012197998816315e-03,2.289533428847789764e-02
-4.267589423913397129e-01,-4.049065456284357545e-01,-4.115854450912144746e-01,5.484441009555808891e-03,-5.444125944686505417e-03,-9.964707893504121117e-03,2.920999750494956970e-02
-5.298736361089229074e-01,-2.670082961114267350e-01,-5.176941243256948377e-01,-1.371825650171145661e-01,3.811057765818746945e-02,6.120595589785532420e-02,3.716152310371398926e-01
-4.929101531911276313e-01,-3.228747178476957247e-01,-5.073089067006171238e-01,-4.575992158021218587e-02,1.558076084743059610e-03,-1.283503376720042909e-02,1.958343237638473511e-01
-4.342004217971650037e-01,-4.199392430141018484e-01,-3.892097885207888575e-01,-5.699461281382621480e-03,-7.277293499957652317e-03,5.467623626432731657e-03,4.395375028252601624e-02
-4.350020578808350136e-01,-3.266172850099096081e-01,-4.628972425783727807e-01,-3.845763628586881810e-02,5.848414050402259319e-03,-5.072838722750866620e-03,1.420056223869323730e-01
-4.087765374208984781e-01,-3.270636739397980719e-01,-4.438181555261763167e-01,-5.563711420055537232e-02,-1.483418267568823931e-02,2.441666117273289666e-02,1.500113457441329956e-01
-4.406032070786267130e-01,-3.413406796438345769e-01,-4.522935187590563788e-01,-4.165259971401651107e-02,-1.103648194593901191e-02,1.874574606778896951e-02,1.333212703466415405e-01
-4.144256671259786140e-01,-3.357600381785384447e-01,-4.609612465963229821e-01,-5.093686245987946032e-02,9.614595406395047908e-03,-1.145867197082063409e-02,1.430716961622238159e-01
-3.925741276593990858e-01,-2.517686586334986210e-01,-4.724954596746531732e-01,-1.157046415363025549e-01,-2.074155356094447428e-02,3.983528484416028193e-02,2.892763912677764893e-01
-4.418985116359079313e-01,-3.539186493759246543e-01,-5.012627486804713817e-01,-8.516340142548256553e-02,-6.963099823580327571e-03,9.312098090773095194e-03,1.965996921062469482e-01
-4.101975786267033630e-01,-4.226953932550032156e-01,-3.990813121319816692e-01,-4.386160417858331328e-03,-1.790759756871814845e-03,1.621485856952037310e-03,2.222429029643535614e-02
-3.630419298379349291e-01,-4.424161053446667990e-01,-4.526175243615874200e-01,-2.575261719249677395e-02,-7.329206970596365001e-03,3.483259760431541788e-03,9.695979207754135132e-02
-3.530864629769013829e-01,-4.324421961000370351e-01,-4.622907259911988587e-01,-6.180367784156724775e-02,-2.248536079762908022e-02,3.487044021463846233e-02,1.618042588233947754e-01
-4.121645580584480384e-01,-4.157258586896582786e-01,-3.983746424762286131e-01,-6.384231508265276848e-03,-3.774822492923313004e-03,2.794105788987566973e-03,2.098568156361579895e-02
-3.792666982563739908e-01,-4.161144431631690899e-01,-4.281968037641194491e-01,3.089915661522692897e-02,-1.649446422792755218e-02,-1.669520689943169642e-02,8.040903508663177490e-02
-4.181909106656713226e-01,-4.097939387676503564e-01,-4.059175603259289611e-01,9.879926804524935199e-03,-1.225307761773544724e-02,-9.966094470127020641e-03,3.404859825968742371e-02
-4.147879028873761031e-01,-4.255023548605362804e-01,-4.011545613356753970e-01,5.427383924567784346e-03,-8.985387606346768863e-03,-5.457545734802382413e-03,2.943937480449676514e-02
-4.028926417161997064e-01,-4.091136319168368618e-01,-4.128724386393001211e-01,5.986500877398341115e-03,-7.190160504394318974e-03,-7.002822908499363973e-03,2.204407565295696259e-02
-4.079178567875867412e-01,-4.184627615782696708e-01,-4.103550468382709537e-01,1.289303725273417169e-02,-1.256327079266802808e-02,-1.148727818257063056e-02,3.820348531007766724e-02
-4.085792862628457867e-01,-4.166968119852597630e-01,-4.143560244398153958e-01,5.041375536289171774e-03,-4.344792200568371038e-03,-4.738596879116094458e-03,1.589380577206611633e-02
-4.075241295823003873e-01,-4.170855292656598379e-01,-4.069574752864260625e-01,5.240430773623251312e-03,-5.042883070950067610e-03,-3.420279951837785267e-03,1.705675199627876282e-02
-4.007529640544892913e-01,-4.465924028847108596e-01,-3.370765176979766964e-01,-6.796595110943154730e-03,5.492311129229079242e-02,-2.128270940523849589e-03,1.351911574602127075e-01
-3.862743479871939001e-01,-4.292795778955690866e-01,-4.198544537166772339e-01,2.410838925006969675e-03,3.740375117558718179e-03,5.255108365728244219e-03,4.092932119965553284e-02
-4.301544038692211025e-01,-4.555549755544414103e-01,-3.752652471896591457e-01,7.272651467994927302e-03,3.181604303867566208e-02,9.081242009180316016e-03,9.216880053281784058e-02
-4.223765517000655501e-01,-4.431985746280015515e-01,-3.293222969448633686e-01,1.890335213698402655e-02,5.634199227659057035e-02,2.153984885741285632e-02,1.517148464918136597e-01
-4.113158786682341028e-01,-4.149496764131634929e-01,-4.007325744588303706e-01,-4.998311272812999695e-03,-2.996585735313860108e-03,2.969423798628177593e-03,1.708826422691345215e-02
-4.047784215151966625e-01,-4.933024380175050627e-01,-3.411192482103804213e-01,-9.013179638692665231e-04,5.876107471777340663e-02,6.481202735050925652e-03,1.673660725355148315e-01
-4.373833305724274534e-01,-4.546657490397478796e-01,-3.573048239327792919e-01,-3.030566781258315148e-03,2.266993680409361972e-02,-1.153405100576564320e-02,1.003176644444465637e-01
-4.080502687557340802e-01,-4.560883935181953008e-01,-3.939052225912568761e-01,-3.615171415282283744e-03,3.835843245226825543e-02,-5.507775194193684264e-04,8.741550892591476440e-02
-4.179493737813378962e-01,-4.067009419744746501e-01,-4.105348861643138281e-01,-2.845643766819616616e-03,-2.517717977471841360e-03,2.653672172985771689e-03,1.274896785616874695e-02
-4.270373001672495006e-01,-3.926732732229260003e-01,-4.359115018414854159e-01,-2.777194222103434446e-02,1.303996156429538048e-02,-1.791673089583788875e-02,7.315451651811599731e-02
-3.599511883284062241e-01,-4.282355089209554100e-01,-4.296081344803040492e-01,-3.392963778968313693e-02,2.170853870496080446e-02,-1.809521356274242099e-02,1.029957011342048645e-01
-3.563145874926289536e-01,-4.220124194138050733e-01,-4.469267519721296655e-01,-2.473938064086683708e-02,4.780194228007947355e-03,-8.259387532458797247e-05,9.207838773727416992e-02
-3.930744348918608910e-01,-4.199263336988399709e-01,-5.092517968974398235e-01,-9.368162107748601031e-02,1.534229802770855668e-02,-8.551509964415738782e-03,1.958389729261398315e-01
-4.316239719657681828e-01,-3.826186720182885304e-01,-4.070469576226329322e-01,4.544859230724763131e-03,-5.970046241103953329e-03,-7.409779507197087299e-03,4.620336741209030151e-02
-3.781747155531763327e-01,-4.204494281429128066e-01,-4.334461407814066414e-01,-1.967523102869295909e-02,8.461151910842342611e-03,-7.171108250210325372e-03,6.352865695953369141e-02
-3.659899306472420566e-01,-4.282213930787883149e-01,-4.373408888793710037e-01,-5.662086307203271357e-02,3.395047539970689338e-02,-1.319629704000804989e-02,1.346162557601928711e-01
-3.661904364081053354e-01,-4.019355044158659518e-01,-4.284925562020743262e-01,-4.767958491412128963e-02,3.212058184089618129e-02,-2.302391609402990036e-02,1.201573833823204041e-01
-3.999856855010205381e-01,-3.961793295196771592e-01,-4.321931244640317415e-01,-4.214410094576405766e-03,1.014373711507293458e-03,-4.806669520506432727e-04,3.509222343564033508e-02
-4.438209231269865662e-01,-4.432017656009225037e-01,-3.280384054689360340e-01,2.218419705363864930e-04,-3.239749794659566983e-03,1.411200097853064668e-03,1.156369224190711975e-01
-3.116378537925502679e-01,-4.858578710873137640e-01,-4.932655115254391265e-01,1.334328703026855341e-03,-1.078941096891910048e-02,8.088916706916417145e-04,1.790379434823989868e-01
-2.046028544775682911e-01,-5.544433882772166200e-01,-5.538984387898181483e-01,4.135784672985812031e-03,6.638121202176075486e-02,-4.614900550659403050e-02,3.766403496265411377e-01
-2.266467091360734321e-01,-4.780262294791716715e-01,-5.873590561208019700e-01,-7.838944245542293909e-02,4.762146252116725154e-02,-2.336600415858448507e-02,3.598685860633850098e-01
-1.449579100816781319e-01,-4.521285367130912780e-01,-4.632527827797019437e-01,-7.408490139668141850e-03,-1.516218803147964360e-02,3.959467311553954445e-04,3.142441511154174805e-01
-1.884711933060504441e-01,-4.475765382601154529e-01,-4.641147413131588850e-01,-8.226650877073059254e-02,-3.287794129717113703e-04,-2.013046216037840501e-03,3.033315837383270264e-01
-4.239057528136487285e-01,-3.900992850733296380e-01,-4.080681716735009013e-01,3.067282028578923250e-03,-5.836231467870351720e-03,-6.730942213281834209e-03,3.353535011410713196e-02
-3.199960257890427928e-01,-4.833354059479997855e-01,-4.719693042398933613e-01,2.373322158771933033e-02,-3.418678711209775789e-02,-1.386829487299624623e-02,1.752866357564926147e-01
-2.219658314398425814e-01,-4.680663865125592182e-01,-4.244875974784768080e-01,5.229331764050069303e-02,-8.951634953357136271e-02,-1.043820152312902906e-02,2.903618514537811279e-01
-2.387532991964962381e-01,-4.852272816474234030e-01,-4.311088654930573805e-01,3.115885841062699183e-03,-1.263469470738085021e-01,2.764877191037875409e-03,3.134998679161071777e-01
-3.139846779889489126e-01,-4.813601894621307165e-01,-4.484068413501161587e-01,-8.664688907577003385e-03,-8.752542683376156318e-02,-8.847397245771920077e-03,2.168572396039962769e-01
-1.805085630654874318e-01,-4.698274453530929540e-01,-4.614297960641254859e-01,-2.607342625264895755e-02,-6.298908250234114270e-02,-2.664148732763665581e-03,3.087231218814849854e-01
-2.137880765719377962e-01,-5.269061732545530230e-01,-5.389458809337378531e-01,5.904420344751766525e-02,-7.210081308137650247e-02,3.393058082699796502e-02,3.625821769237518311e-01
-3.935719620358145709e-01,-4.287721243573487939e-01,-3.942798981033986960e-01,-4.129493864132336572e-03,1.272166527939041190e-02,-4.384172021030621237e-03,4.253206402063369751e-02
-3.706891184898083447e-01,-4.475342498218201071e-01,-3.976460012138112732e-01,-4.090841385404097100e-03,3.417071709651520878e-02,-8.487454732083420106e-03,9.126649051904678345e-02
-3.952376746359423376e-01,-4.318989721790042480e-01,-3.942396508032105507e-01,-2.512003596621890412e-03,1.211628693053501404e-02,-3.586921519225932074e-03,4.335409402847290039e-02
-4.057846845522848911e-01,-4.059940684003042755e-01,-3.806266356138949813e-01,3.617102374663393183e-02,5.114536374020960119e-02,4.284238127702556798e-02,1.338552236557006836e-01
-4.153521123324186437e-01,-3.978071768077206527e-01,-4.093053922484389262e-01,9.403363616335052091e-03,1.008706598578039577e-02,1.115212879593693168e-02,3.437913209199905396e-02
-4.025223567352951837e-01,-4.122177115384197954e-01,-4.030480816899560947e-01,8.748878082826153785e-03,8.355562974048172387e-03,5.939054663151571017e-03,2.518077008426189423e-02
-4.020308934413471258e-01,-3.878113215968919669e-01,-4.307932678122526338e-01,2.524390933432820588e-02,1.125690117876914850e-02,1.524833608993093025e-02,6.654256582260131836e-02
-4.117296753021645328e-01,-3.837233352228542338e-01,-4.093609152151239661e-01,2.187019301241271280e-02,1.641678357492363377e-02,2.109271052874147484e-02,6.558796763420104980e-02
-4.162849548065806204e-01,-4.077249801662222728e-01,-4.160435005816227050e-01,2.422172112111427647e-02,1.658349724599739866e-02,3.109857263571735864e-02,7.455025613307952881e-02
-4.101463943578622096e-01,-3.835280614702670232e-01,-4.134468513271905010e-01,2.372383246652843072e-02,1.547085077752636748e-02,2.251395863907284384e-02,6.880711019039154053e-02
-3.970337652742969015e-01,-4.166485385900311478e-01,-4.151920733858478485e-01,1.433240642917757088e-02,9.127184438366757815e-03,1.410927624749435880e-02,4.268111288547515869e-02
-3.976178728130277951e-01,-4.336490538182863896e-01,-4.029106118540073389e-01,-2.419400103585197213e-03,-5.099275900296856498e-03,-1.401636156506246231e-05,3.508738055825233459e-02
-3.949562850800484304e-01,-4.321919018144966262e-01,-4.018781444023901139e-01,-5.586858344757871035e-05,-3.709064791090713967e-03,3.284542886838987224e-04,3.490369766950607300e-02
-4.023671431328070258e-01,-4.369917249227843192e-01,-4.018166702046253591e-01,1.402961131790913998e-03,-9.051005408542787262e-03,9.215570988210915139e-05,3.833949565887451172e-02
-4.096982820719439755e-01,-4.440085762127307656e-01,-3.927533615711026327e-01,-2.305806548076996202e-03,-1.677762270069713124e-02,2.694668967933388712e-03,5.411018058657646179e-02
-3.816992807446935032e-01,-4.341302128263727633e-01,-4.064275436146257414e-01,-1.299811057905313249e-04,-8.254555757216813783e-03,-1.153860287349261831e-03,4.766992479562759399e-02
-3.881459802107422030e-01,-4.319729839594063092e-01,-3.858770478185609143e-01,2.313024628186307989e-03,-2.056466871148138198e-02,-1.783993049855126314e-03,5.761692300438880920e-02
-4.475974407007035083e-01,-4.809616579993435947e-01,-3.314378420848438367e-01,-1.557920406275127567e-02,-5.146351798823698559e-02,-3.920957832777713196e-03,1.649288833141326904e-01
-4.325016998698255066e-01,-4.497863693578101341e-01,-2.990839015690890945e-01,-6.355141309872192924e-03,-4.010782196162007707e-02,1.967797322251927522e-02,1.628308743238449097e-01
-4.118726408115086501e-01,-4.191133347307100521e-01,-3.976879064328778246e-01,-5.740849963067840879e-03,3.166956337245719483e-03,-2.027364287332555567e-03,2.230769395828247070e-02
-4.262837878181968132e-01,-3.810339896966883910e-01,-4.254272094172745211e-01,-6.823829049846731783e-03,6.495399961557455845e-03,-6.962367674161532710e-03,4.920575395226478577e-02
-4.766327896194633706e-01,-4.914860579465248902e-01,-3.241397579948379626e-01,-1.115117336091532053e-02,-5.933745289291901537e-02,4.666001085588184633e-02,2.078631222248077393e-01
-4.974386124731354220e-01,-6.036532445629687604e-01,-1.820686055989847452e-01,-1.187337624670909905e-02,-5.151061745785158463e-02,2.439912819210703077e-02,3.929447829723358154e-01
-4.348365617402091265e-01,-4.602501495077587768e-01,-3.007818130115295086e-01,-7.824636591916586323e-03,-4.055801912742002663e-02,1.824262450240892591e-02,1.677505671977996826e-01
-4.578206218871727073e-01,-4.538138790195409000e-01,-3.353629192346557208e-01,-2.188588727673167374e-03,-3.514456683359844236e-02,1.898629654336755901e-02,1.390054523944854736e-01
-4.972572896907907491e-01,-5.010671992153978849e-01,-3.116643722155222895e-01,1.525629472130566331e-03,-3.738796342178893339e-02,2.003833080123125152e-02,2.014236897230148315e-01
-4.525536816322954792e-01,-4.818771370698357037e-01,-2.831784026830125311e-01,-1.208929620979697648e-03,-1.191380330088098044e-02,-5.055091061061374111e-03,1.871400028467178345e-01
-4.557277653549232643e-01,-4.894498125225084095e-01,-2.886641555081061461e-01,3.521348949019161099e-03,-1.462667937246730880e-02,2.099364471446098918e-02,1.915264278650283813e-01
-3.514343839986687756e-01,-4.386784910975685126e-01,-4.033011503339498094e-01,2.146711452451066302e-02,-4.437720732592797396e-02,-1.459240870486195989e-02,1.170724630355834961e-01
-4.084605507844085159e-01,-4.494811418242214418e-01,-3.993440743832220030e-01,1.099202786645274779e-02,-2.934814178709303084e-02,-6.197913111826402512e-03,7.212086021900177002e-02
-4.193220250347335920e-01,-4.529549670640533043e-01,-3.708814688298616158e-01,2.528996273120847835e-02,-7.130689218132924001e-02,-1.052369526197583643e-02,1.503724455833435059e-01
-4.041729138778417663e-01,-4.252967239127232735e-01,-4.154237850893083284e-01,8.586080823308580440e-03,-1.455666466148562536e-02,-8.996487241009952507e-03,3.787873312830924988e-02
-4.392996574572949342e-01,-4.090181777575416233e-01,-4.080995829037889489e-01,1.803773528256440162e-02,-1.662464277673241647e-02,-2.778102325444995607e-02,7.117724418640136719e-02
-3.928790382163835360e-01,-4.299644152667421171e-01,-4.201155588646660610e-01,1.065559706525537331e-02,-1.624908499797803052e-02,-1.062250619743047853e-02,5.077709257602691650e-02
-4.446628608050760545e-01,-4.119572693487040804e-01,-4.119218142872813626e-01,-1.536878357144568288e-02,1.387542544200994453e-02,-3.106778812660583589e-02,7.247495651245117188e-02
-4.073277199226190137e-01,-4.144827293830217751e-01,-3.895174711540416723e-01,-3.058009426325416016e-02,3.452936251993775352e-02,-3.636435771428368768e-02,1.041402369737625122e-01
-4.250518670523645848e-01,-4.287162326700522108e-01,-3.798322356271255362e-01,-7.386360091159611778e-03,1.582291793552476067e-02,-1.876335841922437825e-02,6.476807594299316406e-02
-4.613200587227347382e-01,-4.489036174033309567e-01,-3.446645919945998116e-01,-2.779256353437786070e-02,5.857191681135386768e-02,-6.607334952184695798e-02,1.949886381626129150e-01
-4.413968998915961950e-01,-4.527663982025010858e-01,-3.488946726544620569e-01,-3.191772588959498631e-03,1.645210156113987437e-02,-1.576507032447754461e-02,1.064228415489196777e-01
-4.390874560529339776e-01,-4.341031726847128791e-01,-3.442133519354865223e-01,-5.621606529102566793e-03,1.602639034092611520e-02,-2.224278370887483244e-02,1.044156402349472046e-01
-4.249697337491410432e-01,-4.632234978470446962e-01,-3.652046024754527220e-01,-2.518179514119071177e-02,5.349617991103489817e-02,-4.769094062148052093e-02,1.569478660821914673e-01
-4.310143816690096275e-01,-3.891450102527386212e-01,-4.184690320001936970e-01,1.574576648983336269e-02,-1.615722807166327518e-02,-2.819975989931535615e-02,7.278598099946975708e-02
-3.790864476250582760e-01,-4.551671288502208146e-01,-4.098796854662503653e-01,1.480620974520652959e-03,-3.271491159392500570e-02,-2.027277808277912555e-03,8.731222897768020630e-02
-3.922109503791955110e-01,-4.463585410517446062e-01,-4.098865938883437532e-01,3.413746690140770541e-03,-1.749926224550582207e-02,-5.759232441763341599e-03,5.779650807380676270e-02
-3.921838362713614412e-01,-4.412579648884801253e-01,-4.110075190432890269e-01,3.799135782318873236e-03,-1.840805884065312148e-02,-4.209941587886376763e-03,5.433126538991928101e-02
-4.317646971941776490e-01,-4.450941032607604320e-01,-3.791570739548700275e-01,-1.420879083838751111e-02,-2.890023979777090607e-02,5.573812737479597393e-03,8.277080953121185303e-02
-4.088006617777814600e-01,-4.259711636331475204e-01,-3.937097509597750622e-01,-9.661126908251178175e-03,-1.311397097306632106e-02,1.094213005037821679e-02,4.400922358036041260e-02
-4.046518865675439725e-01,-4.160285640139345098e-01,-4.107367867034357745e-01,-2.342210672864947565e-02,-2.809702746370798879e-02,1.044885438794443920e-02,6.662490963935852051e-02
-4.081354469743442848e-01,-4.161934618013645171e-01,-4.101951151954943975e-01,-5.560948024690292799e-03,-7.371753956094285326e-03,9.260019182923890854e-03,2.378279902040958405e-02
-4.256594259269000924e-01,-4.132587330587231267e-01,-3.943189835167480450e-01,-8.987105382134204928e-03,-1.284559766281711049e-02,1.296334297185696392e-02,4.459635168313980103e-02
-2.384795275016079463e-01,-5.497500631618397193e-01,-6.465692050753026887e-01,-1.472030709278660254e-01,5.629827144626074753e-02,-2.373945103890359731e-02,4.610917866230010986e-01
-4.370276733036334016e-01,-3.869261385285422405e-01,-4.321779591812260346e-01,9.546803581830853869e-03,-1.156667299403877844e-02,-2.218734999925813314e-02,6.665080040693283081e-02
-4.002955530682645313e-01,-3.849364562366268117e-01,-4.233505592386836991e-01,-2.112743235642277478e-02,-1.461348274740183889e-02,1.197035588605923316e-02,5.942368507385253906e-02
-4.058757682468364658e-01,-4.118841392181210037e-01,-4.155324518635083453e-01,-1.014836122770654270e-02,-8.635521895270687615e-03,5.812813820213798797e-03,2.655902691185474396e-02
-3.973154078186291183e-01,-3.898557410238680521e-01,-4.241843310706469028e-01,-1.910194728299222794e-02,-1.240493925628909262e-02,1.669174017494353193e-02,5.805309861898422241e-02
-3.979822073926523873e-01,-4.027710755871848347e-01,-4.178558800481344537e-01,-1.950374855291284876e-02,-1.107646493816772174e-02,1.347294948378268027e-02,4.874974489212036133e-02
-4.117396744191980096e-01,-4.511601751952038497e-01,-4.069110495245472636e-01,-1.355163745805415890e-02,-3.638241011079031140e-02,1.853254363537477911e-02,8.555690199136734009e-02
-3.994823786806122046e-01,-4.148318393495069034e-01,-4.106508606858939037e-01,-5.487778860552587103e-03,-6.417345667567935473e-03,7.976289255560636143e-03,2.436531335115432739e-02
-4.008741138035121776e-01,-4.086642764031853670e-01,-4.352462150490608583e-01,-2.889297397885966928e-02,-1.828977020663800912e-02,7.080515646024923559e-03,6.806411594152450562e-02
-3.987343127177480628e-01,-4.072105343307353409e-01,-4.134849097004182905e-01,-6.200280354946079327e-03,-5.971730818239253877e-03,7.550568478966447790e-03,2.361663617193698883e-02
-4.042145534691188868e-01,-4.231301140367626501e-01,-4.444682563798940111e-01,-2.858290955080568588e-02,-1.845633166966717184e-02,1.564654082300767288e-02,7.364806532859802246e-02
-4.396442837820892513e-01,-3.618480738749740855e-01,-4.186506081312458827e-01,-2.680969561773178383e-03,-8.391230511921028527e-05,2.583288908892489993e-02,8.296598494052886963e-02
-4.068819531895231378e-01,-3.480515597480295931e-01,-4.105449544637896353e-01,-4.377598179458941363e-02,-2.992610648407867044e-02,4.032064430068364735e-02,1.303952336311340332e-01
-4.337771871189022299e-01,-3.590009547807374579e-01,-3.525170061156843171e-01,2.474484959115056878e-02,2.651753217442472110e-02,7.100315015201952296e-02,1.587109863758087158e-01
-4.363423736073093750e-01,-3.713484165365355527e-01,-3.542310491581815990e-01,3.371457633044655511e-02,2.937959468548251643e-02,7.031250276867331839e-02,1.626677215099334717e-01
-4.228732049520806946e-01,-3.812824582600566892e-01,-4.203931319864053773e-01,8.718764755327089444e-03,-1.084928474347064166e-02,-8.682553491927209877e-03,4.939761757850646973e-02
-4.441571171497478154e-01,-3.775419035064802586e-01,-3.990698802907533538e-01,-3.137511170851288358e-04,3.418329797515148871e-03,2.872816098799380394e-02,7.731895893812179565e-02
-4.344503877350249232e-01,-3.998692731868774275e-01,-3.709887302328734315e-01,7.403984230473266079e-03,6.059887479729835630e-03,2.826121268430090150e-02,7.549419254064559937e-02
-4.647613366871437002e-01,-4.835244058707403036e-01,-3.579678726902725261e-01,-2.917022673426918414e-02,-7.895570591414591277e-02,4.335985299567920309e-02,2.016323804855346680e-01
-4.071106929459254453e-01,-4.323157355205625718e-01,-3.979131867371769604e-01,1.109378352310683678e-02,3.464022672664485158e-02,1.142355298263510524e-02,7.288523018360137939e-02
-4.481708327289771754e-01,-4.511061447225437337e-01,-3.861244722389649553e-01,3.626100144907982992e-02,5.369998276957963640e-02,3.996287202873050060e-02,1.463804394006729126e-01
-4.323683665074188331e-01,-4.602694500398374911e-01,-3.815997573412739929e-01,8.672867067522106732e-03,2.606382155247280105e-02,1.157790791612460859e-02,8.624494075775146484e-02
-4.043695784854767772e-01,-4.129980651756403054e-01,-4.213539222422701402e-01,1.529766274638348416e-03,1.415965299166468006e-03,3.422054129117826568e-03,1.626457273960113525e-02
-4.188542795582134159e-01,-4.657451884297973965e-01,-3.477575494857083616e-01,3.014874992195302680e-02,4.911773507877378875e-02,2.183560367455649603e-02,1.482638567686080933e-01
-4.218485311041879626e-01,-4.384135100359921600e-01,-3.526294624471758010e-01,1.287138577899233846e-02,3.870749398900426297e-02,1.965192585519983520e-02,1.111877411603927612e-01
-3.452110405278105976e-01,-3.965312187916217312e-01,-4.334937473651769291e-01,5.698962687259163939e-02,-2.763068165160667902e-02,-2.130427418169641984e-02,1.388968825340270996e-01
-3.669162913924287617e-01,-4.089785298641844258e-01,-4.705624967914153745e-01,4.798289700697979526e-02,-5.013341882880648775e-02,-3.177406344739390487e-02,1.600877940654754639e-01
-4.096366343625164608e-01,-4.552618366981299736e-01,-4.370331229084635782e-01,5.128378007705691050e-02,-7.147021621162386040e-02,-4.488104196607002605e-02,1.756110340356826782e-01
-3.905798712796899608e-01,-4.333818887732652780e-01,-4.353877019655192915e-01,2.706411796716532564e-02,-1.345204840393643929e-02,-1.069750380867229636e-02,7.074934989213943481e-02
-4.058141264448507646e-01,-3.998959484254869801e-01,-4.390547406106020123e-01,5.225295126640294024e-02,-6.461074060230009852e-02,-4.600007135928275981e-02,1.685214042663574219e-01
-3.710992155645375656e-01,-4.226138484013182151e-01,-4.178261223488843323e-01,1.853894972935481861e-02,-2.436280255077715937e-02,-1.570917154202054744e-02,7.734398543834686279e-02
-3.897267783638121985e-01,-4.274279169917081789e-01,-4.259749940359079390e-01,2.628036050156119449e-02,-1.531208838050093259e-02,-1.833401601158171981e-02,7.178071141242980957e-02
-4.107358119271170005e-01,-4.149066392143622162e-01,-4.118361098710674462e-01,3.488542552238987904e-03,-2.349700074322324909e-03,-3.200903535812461842e-03,9.890789166092872620e-03
-3.980553095181409984e-01,-4.192287143280118977e-01,-4.143744853716889165e-01,1.941467823351175322e-03,-3.772524807037006857e-03,-6.201983729958987675e-03,2.320546470582485199e-02
-4.313811535025564581e-01,-4.006800583816508277e-01,-3.957944583703968400e-01,1.402421455829255034e-03,1.080722694653318047e-03,4.231602870906538832e-03,3.434447944164276123e-02
-4.066433358247767416e-01,-4.167136953180620162e-01,-4.087927079289329080e-01,3.701256902215054826e-03,-3.857127084985232084e-03,-3.102991614451428796e-03,1.410683710128068924e-02
-3.989289702908778712e-01,-4.132096965855044379e-01,-4.135895134968970988e-01,2.898494467814894619e-03,-3.902709169908957863e-03,-6.313038585160125199e-03,1.999920234084129333e-02
-4.330215989164039603e-01,-3.467588730381279127e-01,-4.594436851129999333e-01,4.190004317965152769e-02,3.065846660259939280e-03,-6.570770689105451604e-03,1.258697360754013062e-01
-4.492209433250877737e-01,-3.529306369052066517e-01,-5.069306770861063960e-01,8.904615098228252368e-02,-9.281343922540853664e-03,-2.441118958097240541e-02,2.097449004650115967e-01
-4.484329043170713902e-01,-3.914950215175392323e-01,-4.203171649626081807e-01,1.263917012595095792e-02,-1.646266604102235298e-02,-2.946266270140224589e-02,7.954882830381393433e-02
-4.141315923612683969e-01,-3.321208240944628631e-01,-4.510829802088224816e-01,6.370967664104119910e-02,-1.748838968105441080e-02,-2.686938028045553206e-02,1.624246686697006226e-01
-4.409913117536142235e-01,-3.388309415595386898e-01,-4.501751693698399226e-01,2.664366111618633390e-02,-8.237928297598608673e-05,-1.105114307477738072e-03,1.165875196456909180e-01
-4.054666506846522633e-01,-4.064781972973625646e-01,-4.173956655651998582e-01,-4.228713944144193645e-03,4.739079400122647896e-03,-5.023115260022973511e-03,1.811009645462036133e-02
-4.564933679824284551e-01,-4.745557229483808870e-01,-3.184095608855232462e-01,1.807436067828429660e-03,-6.955971796054180589e-02,3.292005995537564123e-02,1.991586238145828247e-01
-4.012615102490339480e-01,-4.072646029872984408e-01,-4.175241122896980461e-01,-1.226782641231859844e-02,1.142760067330540232e-02,-1.192830371699722843e-02,3.837975487112998962e-02
-3.921326352645508329e-01,-4.183927872404932247e-01,-4.027441342449930572e-01,-3.103160503659465816e-02,3.639209993755239403e-02,-2.945666725820600060e-02,9.994329512119293213e-02
-4.077530454232919377e-01,-3.978112398950017781e-01,-4.229044959107838286e-01,-3.304435541389343090e-02,2.989270569558320073e-02,-3.233186974240134792e-02,9.783454239368438721e-02
-4.063465724485655906e-01,-4.150010973116408097e-01,-4.150794988694803678e-01,-4.594018687989632338e-03,5.182765200878143748e-03,-4.275596640785078208e-03,1.656278409063816071e-02
-4.455659258995519623e-01,-3.788805189399802043e-01,-4.193146287885705092e-01,1.277619167129577515e-02,-1.260433893438447570e-02,-2.553103430055317022e-02,7.941850274801254272e-02
-4.726360945743050546e-01,-4.217403043943214747e-01,-3.456616953004567616e-01,1.084926599522353756e-02,1.094025008512167739e-02,-6.774373592446139569e-02,1.634938716888427734e-01
-4.927092345873497203e-01,-4.586236731423686264e-01,-3.516114802349527002e-01,-6.631379568363807153e-03,9.834413566436904508e-03,-7.035286662571042793e-02,1.775715500116348267e-01
-4.369544668325575087e-01,-3.940674639978589133e-01,-3.725073240750326198e-01,1.241975949367114199e-03,-9.290465667225964721e-04,-2.812903640074141884e-02,7.489812374114990234e-02
-4.626402536929447584e-01,-4.043521132280912811e-01,-4.020106113981010698e-01,1.931055445754010407e-03,1.496143738146367723e-03,-3.889376761800804327e-02,8.997527509927749634e-02
-4.729732675228438543e-01,-3.698671158982920204e-01,-3.738681995086452492e-01,-1.427483674110695787e-02,-5.520862522563219771e-03,-7.813779254899323734e-02,1.710369735956192017e-01
-4.460561913589473626e-01,-3.952872139643020533e-01,-3.622787612579655980e-01,8.521697135711752552e-03,-1.270963333199353999e-02,-5.852354848966482420e-02,1.277510523796081543e-01
-4.583174037570592052e-01,-4.322097620939311935e-01,-3.644275652910557439e-01,-7.843954023232409256e-03,-1.862506910341773375e-02,-6.215171335799643537e-02,1.409235149621963501e-01
-4.058694669511210829e-01,-4.032879292524897963e-01,-4.215257320550422904e-01,2.935772054231109221e-02,-2.409290837806775734e-02,-2.231392741986011272e-02,7.818546146154403687e-02
-4.302211119665890759e-01,-4.086051917724106697e-01,-4.351570206649344463e-01,4.638382393298821904e-02,-4.081985620908912260e-02,-3.466630510693712031e-02,1.251268237829208374e-01
-4.174179093913515382e-01,-4.204133355034784247e-01,-4.199055925619025187e-01,3.986872224848374280e-02,-6.354018226316529572e-02,-5.024030154270680421e-02,1.563987880945205688e-01
-3.927560566847614898e-01,-4.354529883979024185e-01,-4.020739230536080067e-01,1.999432941925103485e-02,-2.463825880818263855e-02,-1.490574170310032288e-02,7.210409641265869141e-02
-4.257938628421694127e-01,-4.040135025389210988e-01,-4.252736168076787782e-01,3.166049802803089230e-02,-3.841448089011405970e-02,-5.953609151424676948e-02,1.361291259527206421e-01
-4.042575391073743862e-01,-4.143971777823960423e-01,-4.134154695644679522e-01,7.538336242294200844e-03,-6.769003879808691178e-03,-7.573191110492508323e-03,2.395452558994293213e-02
-4.449994347152650409e-01,-4.314057113957838752e-01,-3.948653683578745577e-01,-1.949674449115099129e-02,-3.193773480249242208e-02,3.184108498697638123e-02,9.622211754322052002e-02
-4.242046010266755096e-01,-4.247094173083468815e-01,-3.748375564413322092e-01,-1.993713233280409308e-02,2.044142322636423315e-02,-2.257067896881057023e-02,8.022849261760711670e-02
-3.701044507829676089e-01,-4.143669549591218471e-01,-4.346279753360077769e-01,2.461633182817185225e-02,-1.954873796790995016e-02,-1.083551036567128971e-02,8.113604038953781128e-02
-4.133522542516693266e-01,-3.972715920501085352e-01,-4.252163598869936889e-01,-1.224648535101631290e-02,-6.523680063385365983e-03,6.955158327017183645e-03,3.623333200812339783e-02
-3.634462465605801107e-01,-4.129693766533428234e-01,-4.308352597384192961e-01,2.438921463210316429e-02,-1.593367797357311821e-02,-1.113324290793849328e-02,8.108329027891159058e-02
-3.928991865370892733e-01,-4.059691606369940642e-01,-4.543004545536338257e-01,3.905227908565563066e-02,-1.201395465722564573e-02,-7.227730475167229267e-03,9.112296253442764282e-02
-3.694074099007972345e-01,-4.042904435618629999e-01,-4.367445523899370907e-01,2.546526897801176456e-02,-3.148961302470750304e-03,-2.750592031244928140e-03,7.348522543907165527e-02
-4.132334000966107479e-01,-3.967162243460747861e-01,-4.428162253012753458e-01,1.435351037518250820e-02,4.058956166545352878e-03,2.496296151014812479e-03,4.819517582654953003e-02
-3.958349610682598829e-01,-4.085456285432511603e-01,-4.407148485619363232e-01,3.507441721701018422e-02,-9.660141858450366908e-03,-3.776854076874560165e-03,7.495802640914916992e-02
-3.885287284209885117e-01,-4.218022771064687815e-01,-4.339599281843377065e-01,1.323026294263626376e-02,-6.369396335036752073e-03,-2.912361072011782851e-03,4.828807711601257324e-02
-3.870162916827448174e-01,-4.089986860432524574e-01,-4.386662685698572983e-01,1.120713681565519565e-02,-6.761906974132239970e-03,1.856953408028695412e-03,5.039712786674499512e-02
-3.689165626580873658e-01,-4.228601705781982467e-01,-4.013798780072793670e-01,-3.541560052126392633e-02,5.570807983138674480e-02,-3.098739197043538091e-02,1.347820907831192017e-01
-3.877805464991919693e-01,-4.478852796469420250e-01,-4.104309086277728724e-01,-1.927783990979381207e-03,2.320227207828245292e-02,-4.539299158115112261e-03,6.672499328851699829e-02
-4.633150069197842225e-01,-4.654619885656984257e-01,-1.830868410181781814e-01,-5.923571076200393956e-03,-7.102964298366434837e-02,7.191128088698393872e-02,3.314945995807647705e-01
-3.985486629674691583e-01,-4.365702003301798473e-01,-4.052678457326987504e-01,-4.589374137591764602e-03,2.685066330582840111e-02,-1.155899008719083777e-02,6.214662641286849976e-02
-3.499472921938764358e-01,-4.227572036817096590e-01,-4.652482181049310550e-01,4.242101393752303884e-02,-5.463438627577550839e-03,1.165065464270570190e-03,1.252708435058593750e-01
-3.698141722705882706e-01,-4.210895177084917340e-01,-4.511919668864398658e-01,2.931943911934698638e-02,2.743328311571382148e-03,-4.524283372059598879e-03,8.798696100711822510e-02
-4.007349737554931068e-01,-4.060109508079245422e-01,-4.403472250205047733e-01,1.772330749574633005e-02,-4.163143377426930213e-03,-5.109301281620385118e-03,4.960473999381065369e-02
-3.776631441094683295e-01,-3.813402991237736517e-01,-4.198799705825335127e-01,4.715798129755243567e-02,-2.771227605127969326e-02,-2.762807219154742727e-02,1.136046275496482849e-01
-4.039388382406783329e-01,-4.111699940327523950e-01,-4.611636738948749481e-01,3.430654517158655825e-02,-1.474876256616982620e-03,-1.144209782113468589e-03,8.033952862024307251e-02
-3.734285212166501000e-01,-4.242334131407485831e-01,-4.583858345694828973e-01,2.423127573783174366e-02,-4.334748113582903041e-05,-3.179085537671577297e-03,8.529023826122283936e-02
-3.830665209463276488e-01,-4.318339370601581573e-01,-4.104518707496265240e-01,9.853712946610267750e-04,9.059967876835071932e-03,-5.468976056544814363e-03,4.616921767592430115e-02
-3.687861285998425553e-01,-4.270162410432354338e-01,-4.002083515823495197e-01,-1.482368349185018974e-02,2.236261160967144279e-02,-8.466987026780337100e-03,7.016363739967346191e-02
-3.897828456454361934e-01,-4.353584567487113199e-01,-4.101527396069838405e-01,-1.881234126330022472e-03,2.092243484698071837e-02,-2.746083342066678225e-03,5.394611507654190063e-02
-3.977174836782407241e-01,-4.359598236856580544e-01,-4.021188242156305548e-01,3.382159971700551869e-04,7.894872935151411864e-03,6.945115008570837585e-04,3.875961899757385254e-02
-3.760384051858043364e-01,-4.429551330828222500e-01,-4.064260170876374811e-01,-6.294897563397524633e-03,1.943657278720429052e-02,-2.690193044225459244e-03,6.813035905361175537e-02
-4.001335611993373509e-01,-4.327767933026687719e-01,-4.024135089864680492e-01,-1.768245725773720306e-04,9.226575392578150641e-04,3.644260388706093649e-04,3.161329030990600586e-02
-4.079447467743717026e-01,-4.276561761666088923e-01,-4.137989902427968714e-01,-5.546862954066658635e-03,-1.089127985260730444e-02,6.206379730618595721e-03,2.951503917574882507e-02
-4.257700107392674571e-01,-4.498878766954961805e-01,-3.668610738239602709e-01,-9.893187113468437238e-03,-2.362544536274265375e-02,1.520204766674528724e-02,9.018930047750473022e-02
-4.077411693113151547e-01,-4.359236119237190343e-01,-3.863702397829428814e-01,-3.678790464826013108e-03,-7.335725012190966524e-03,4.726067490824381601e-03,4.606840386986732483e-02
-3.938268845798795770e-01,-4.391257697286178319e-01,-3.951416182242506459e-01,-3.835595575029850362e-03,-1.195510278536220279e-02,2.694887072881274777e-03,4.988845065236091614e-02
-3.961361974268024500e-01,-4.290812114596898597e-01,-3.937436284171991763e-01,-4.646404777294542779e-03,-1.221162716043035397e-02,4.065986880730239339e-03,4.161318391561508179e-02
-3.971179805340016578e-01,-4.413102946096167933e-01,-4.094046197698789080e-01,-3.900859188258795716e-03,-1.511561636410394330e-02,2.908886995358918835e-03,4.813966900110244751e-02
-3.784737921865864996e-01,-4.475268842047220863e-01,-3.291983897332807496e-01,-1.443006688175950229e-02,8.016910594126516743e-02,-1.925811388270493724e-02,1.778133213520050049e-01
-3.925009400355304878e-01,-4.351054050535245743e-01,-3.681673393300114450e-01,3.638033635775575567e-03,3.319519512993703708e-02,1.959243279271660754e-03,8.246798813343048096e-02
-4.322568250249199662e-01,-4.558712428545693141e-01,-3.407343710725049823e-01,-6.144338429154447279e-03,4.561904529662520053e-02,-9.609740536619891180e-03,1.331496983766555786e-01
-4.386565782619643028e-01,-4.671617078242270016e-01,-3.419643943856212620e-01,-2.234326846925891938e-02,6.190781371803270178e-02,7.743144325304967407e-03,1.615345478057861328e-01
-3.990631654448585919e-01,-4.455913751815826496e-01,-3.761751189515827321e-01,-5.537988293104618466e-03,2.904515799060008660e-02,-6.283926282174150807e-03,8.059163391590118408e-02
-4.166593665067114816e-01,-3.531915085546133426e-01,-4.104259577224003142e-01,3.707285631380430324e-02,-2.236240504366495199e-02,-4.395106102104164025e-02,1.228410005569458008e-01
-4.349416829571782217e-01,-3.573202752932364001e-01,-4.159096831578632525e-01,3.488175586114282412e-02,-2.165176752620293424e-02,-4.667394183223665116e-02,1.284600645303726196e-01
-4.505839907307565562e-01,-3.367982535787405474e-01,-4.708803457547339200e-01,8.146709634533472882e-03,-6.242867745876853371e-03,-3.208180071493774155e-02,1.381025910377502441e-01
-4.570620258918164369e-01,-3.420175589696093921e-01,-4.382706793055635708e-01,1.481871474382142652e-02,-8.682691476797457829e-04,-1.952636840231151971e-02,1.150277629494667053e-01
-4.753610646789624417e-01,-3.275991031140528253e-01,-4.738643022690569584e-01,2.860231640300603742e-02,-2.080431022785499823e-02,-3.920751248184574378e-02,1.731447279453277588e-01
-4.729609689441660048e-01,-3.262489580159603220e-01,-4.414096072216711075e-01,2.452082589211999897e-02,-1.864309621601035333e-02,-2.856045768319734335e-02,1.522647291421890259e-01
-4.423801940332054428e-01,-3.905066812364987872e-01,-4.105466397295696179e-01,-2.903018769837760645e-03,8.263184294524161594e-04,1.613531544319563374e-02,5.349106714129447937e-02
-4.386946375462854597e-01,-4.182537219743641121e-01,-3.765072792832280246e-01,-1.265198690638613677e-02,-7.523325505616567689e-03,2.830283639814199295e-02,7.789161056280136108e-02
-4.521730293079075924e-01,-3.619874847998068579e-01,-4.142142480330232024e-01,2.112669362123053944e-03,7.688923869471165707e-04,5.727455759835991395e-02,1.265197843313217163e-01
-4.287507349172088866e-01,-4.011699775438831717e-01,-4.131165085812009696e-01,-1.340478590497642605e-02,-1.202883737479115180e-02,2.647564594981050012e-02,6.041478738188743591e-02
-4.532900545760550348e-01,-4.100259737888774514e-01,-4.082706986082487721e-01,-1.758454192875773259e-02,-1.958961219922719654e-02,3.396675054233800478e-02,8.655015379190444946e-02
-4.784956386408159568e-01,-4.129018710055157304e-01,-3.763841288954474784e-01,-3.236952636008604001e-02,-3.943083611359082807e-02,9.546384504515038893e-02,2.077960371971130371e-01
-4.340038199012214437e-01,-4.121551830139976724e-01,-3.961305395169855137e-01,-3.280993272216476634e-03,-3.788505634881189892e-03,1.272804594339673086e-02,4.056638106703758240e-02
-4.031289911876636545e-01,-4.332215222140689548e-01,-4.004330210251975664e-01,-1.438690159439709763e-03,-1.160200458948854735e-03,3.665101190699910760e-04,3.169555217027664185e-02
-4.405109418808380028e-01,-3.923551235418931693e-01,-3.965395268604524071e-01,8.894460835501988858e-04,-4.273273362647464317e-03,1.462066702765340079e-02,5.323003232479095459e-02
-4.398323479554887006e-01,-3.652852596099920301e-01,-4.807934037138746342e-01,-6.834230595796061958e-02,-2.992637409799737275e-02,4.983001314401114962e-02,1.855706572532653809e-01
-4.632680154811656403e-01,-3.642678361419341426e-01,-4.736914853531212222e-01,-5.850294179138270517e-02,-1.616668625686275285e-02,4.490753837378189811e-02,1.674620509147644043e-01
-4.142483433514287383e-01,-4.184835561164708673e-01,-4.184022443788671941e-01,-1.871669423416520012e-02,-1.388225683468852570e-02,1.647754366964113149e-02,4.961071163415908813e-02
-4.278064045666560289e-01,-3.853058757919803901e-01,-4.422435097940096149e-01,-2.733382017354365687e-02,-1.780707589819600228e-02,1.841548404958796500e-02,8.269455283880233765e-02
-4.302626913935835851e-01,-3.715206860432876956e-01,-4.501062731437736053e-01,-2.695856534120210160e-02,-1.143741335282045558e-02,8.938332317033823027e-03,8.844467252492904663e-02
-4.248312830465864054e-01,-3.742053197040132728e-01,-4.359352684358803742e-01,-2.436040562190130987e-02,-5.027573481173835609e-03,1.096576075199712924e-02,7.392765581607818604e-02
-4.231439257631827711e-01,-3.475669020452073488e-01,-4.501249027736314856e-01,-3.578400943582092653e-02,-1.256857438966276809e-02,1.798354851584518105e-02,1.173227131366729736e-01
-4.373159066196639078e-01,-3.335370973041196230e-01,-4.447242378388027717e-01,-3.150156828403832820e-02,-7.949103732146498708e-03,2.825318895477369960e-02,1.309774518013000488e-01
-4.433076430312526406e-01,-3.628319822174737586e-01,-4.396045859797851341e-01,-2.000439396239041961e-02,-1.040731725680370950e-02,1.984762059662005182e-02,9.433603286743164062e-02
-4.124245079890291876e-01,-4.162945874337037333e-01,-4.045867998995125170e-01,-4.628256691374550355e-03,-1.993310972962090977e-03,2.254035868765113387e-03,1.407707016915082932e-02
-4.115782399323350549e-01,-4.109403061091523868e-01,-4.096834220044164865e-01,-4.157270657549154251e-03,-3.317345565741861100e-03,2.732386681908636171e-03,1.049044262617826462e-02
-4.164311198229683209e-01,-4.146168246692156778e-01,-4.039972566003046106e-01,-8.541739697141132598e-03,-5.957697512685839608e-03,6.426817047096067964e-03,2.417875640094280243e-02
-4.140800672616776201e-01,-4.063401262529226510e-01,-4.124328403139314592e-01,-3.440847509195579714e-03,-4.418578807302446509e-03,3.339448313239293514e-03,1.331976614892482758e-02
-4.189487172341575527e-01,-4.173545932846215445e-01,-3.995583552285764672e-01,-7.994030478927351829e-03,-3.773155451057886613e-03,6.288614545671939587e-03,2.647036872804164886e-02
-4.430465563625947123e-01,-4.035322722452581168e-01,-4.152600260274809663e-01,-2.550399473518487684e-02,-1.997874018070498400e-02,4.906163981845294841e-02,1.077285930514335632e-01
-4.051729275911867822e-01,-4.189965477183681397e-01,-4.140138552780708858e-01,-4.907871394296289477e-03,7.969595963978799019e-03,-5.243047023284078470e-03,2.218816056847572327e-02
-4.017686710820809748e-01,-4.270542163651898093e-01,-4.065245761028002391e-01,-1.952440533286349490e-03,2.973969656267393645e-03,-4.590539670491245242e-03,2.535567991435527802e-02
-3.905296246710851515e-01,-4.215850760065082414e-01,-4.107921871190618468e-01,-5.114978777439753259e-03,5.652386561460352732e-03,-6.915887789030062544e-03,3.261250257492065430e-02
-4.057757332711485754e-01,-4.166492541177724274e-01,-4.057005673508897181e-01,-1.867250151197800143e-03,2.186783725721388669e-03,-4.552159428418232380e-03,1.435370463877916336e-02
-3.970940278124608369e-01,-4.170026547203274925e-01,-4.116008362409632193e-01,-2.762247587212346249e-03,4.679699300061142438e-03,-5.727630824566951225e-03,2.247212268412113190e-02
-4.292137584304711595e-01,-4.366391989206673818e-01,-3.876756780254602130e-01,1.185447932858028561e-02,-3.155946861317331098e-02,-1.796930583776409213e-02,8.041928708553314209e-02
-4.358787998794784180e-01,-4.434173943219639757e-01,-3.454936731697458852e-01,5.040058730043555160e-03,-2.841801150350233701e-02,-1.008882380939743126e-02,1.082219406962394714e-01
-4.712075316520563106e-01,-4.428495257407955576e-01,-3.213365802188621334e-01,2.991275251252996370e-02,-3.400257885525879986e-02,-4.290369942529848740e-02,1.751869469881057739e-01
-4.895725195525790774e-01,-4.762423984974292201e-01,-3.264868745986309051e-01,1.443724435483717539e-02,-3.621550095128887176e-02,-4.616042177918654177e-02,1.885550618171691895e-01
-4.470962726149608213e-01,-4.268323801497052039e-01,-3.280071684211476879e-01,1.132198328615241847e-02,-2.314548965016389320e-02,-4.222866331760122272e-02,1.397179812192916870e-01
-3.945686635670891396e-01,-4.244468714347806038e-01,-4.378452267524982622e-01,-1.923534594606484543e-02,-1.114483553525218509e-02,5.797925619430284623e-03,5.528116971254348755e-02
-3.982363452484554145e-01,-4.061183392590632657e-01,-4.422123590691506845e-01,3.771118228856598642e-02,6.860003999791621822e-03,3.661805297738136844e-03,7.808458060026168823e-02
-4.012821059046796091e-01,-2.218005021105933783e-01,-4.741690443893609164e-01,1.235696345281242642e-01,6.642371631781812842e-03,4.877891818503012414e-03,3.108377754688262939e-01
-2.616086417157933997e-01,-2.809045833490781963e-01,-4.615183760510563893e-01,1.750396511423229773e-01,-1.605338560895138702e-04,2.201757434640066492e-03,3.583434820175170898e-01
-2.945890016137971967e-01,-4.729826266810029933e-01,-5.131614794675746216e-01,1.682860623094635244e-01,-5.329713300181360136e-02,3.208649300424958051e-02,3.703744709491729736e-01
-4.565957242058906185e-01,-2.841638941140213204e-01,-4.985013256298845841e-01,1.947502926472579887e-01,3.228936217147360122e-02,-6.003309592182901749e-03,3.946309983730316162e-01
-4.174509230142915972e-01,-3.847615591069513674e-01,-4.623214583316644921e-01,8.314544698782795618e-02,-1.405524798557580531e-03,-1.320614695161220764e-02,1.606778651475906372e-01
-4.484537451966729149e-01,-3.692535321818493643e-01,-4.869526922800307411e-01,6.661832295074641974e-02,1.475230436759158471e-02,2.565574443217204931e-02,1.635405570268630981e-01
-3.664935578248245118e-01,-4.447852762141079053e-01,-4.439998264065485034e-01,-2.025855539201234026e-02,-2.204298314879216819e-02,1.102027480879950311e-02,9.550896286964416504e-02
-3.947069995021105226e-01,-4.394427702662162538e-01,-4.090231946910429239e-01,-1.839503843183679273e-03,-1.361768487041214830e-02,3.320668536313381002e-03,4.653334617614746094e-02
-3.803649315629744621e-01,-4.310883026573898436e-01,-4.259194873058284037e-01,-7.715308533963782626e-03,-9.827252570487301359e-03,6.739203193517627304e-03,5.423974990844726562e-02
-3.790524875794714643e-01,-4.386369313645248624e-01,-4.204773238096553012e-01,-3.792584453031199246e-03,-2.656645682207869549e-02,4.030323033093711517e-03,7.076198607683181763e-02
-3.857674967469814642e-01,-4.374109131001147066e-01,-4.064167484956167642e-01,-3.462114551338154027e-03,-6.614067336264592076e-03,2.856628086460483683e-03,4.710322245955467224e-02
-4.081701959955914560e-01,-4.103006485380333301e-01,-4.113600557139922564e-01,-1.409572627441707526e-03,-6.945848056772204035e-04,2.097170138259669969e-03,5.340466741472482681e-03
-3.912397997529915572e-01,-4.309980091067611152e-01,-4.083157487730290081e-01,-5.656716423763908513e-03,-6.027761822353207635e-03,5.899685129552080000e-03,3.876609355211257935e-02
-3.875747366690185935e-01,-4.324572966232219651e-01,-4.216619501935808256e-01,-5.068109830938961197e-03,-4.477703127929557117e-03,6.116521422491119978e-03,4.354196786880493164e-02
-4.306979437263249721e-01,-3.936438561855081786e-01,-4.115233567515776403e-01,-4.417929114434055241e-03,-3.899906823658763882e-03,1.535762616187602916e-02,4.291766136884689331e-02
-4.344100270144331533e-01,-3.718733059668567487e-01,-4.155126257211663732e-01,-1.082786557392572888e-02,-6.765532819056701251e-03,2.921535094708899855e-02,7.833152264356613159e-02
-4.268369293310301793e-01,-4.111286461460561537e-01,-3.937702744818193934e-01,-1.159512672111281256e-02,-1.259634054540128417e-02,1.367720547214127530e-02,4.755287244915962219e-02
-4.295885029215409379e-01,-4.016041110712452733e-01,-4.098296988741693125e-01,-6.384871824321004113e-03,-1.305950850299189905e-02,1.559321108334616596e-02,4.454205930233001709e-02
-4.314712385394987582e-01,-3.704568213061624760e-01,-4.007782272634470289e-01,-1.134758314545711647e-02,-1.084604965951588458e-02,2.741132607194312829e-02,7.606220990419387817e-02
-4.410919384608859017e-01,-3.802032300449766367e-01,-3.955388736319718768e-01,-3.177192736316169618e-03,-6.616398542848881195e-03,2.954226572416646102e-02,7.608350366353988647e-02
-4.096141380149225242e-01,-4.202090606961249031e-01,-4.017370616335326772e-01,-3.524703410888245427e-03,-1.723991816988048632e-03,1.197209742533850239e-03,1.755690015852451324e-02
-4.428661278286932235e-01,-4.114352425308852590e-01,-3.978441014453631963e-01,1.943576647349185699e-02,2.074027861010908913e-02,2.521307925770757685e-02,7.701054215431213379e-02
-4.348129964018604965e-01,-3.973227691490917035e-01,-4.001788784876201821e-01,1.227474491325595326e-03,6.134058284368756366e-03,1.244230267189795278e-02,4.345608130097389221e-02
-4.271543138201701062e-01,-4.097806486911800827e-01,-3.982790179323107971e-01,5.382154426622657445e-03,6.469488362068987440e-03,1.167730369978320533e-02,3.543305024504661560e-02
-4.271345474795354424e-01,-3.917866249589931349e-01,-3.515511780833689981e-01,2.799222433301640570e-02,3.818771432128802157e-02,5.643522063509701092e-02,1.434259712696075439e-01
-4.448886850302932183e-01,-4.125721347535839523e-01,-4.200560561108854785e-01,2.305620874068646867e-02,1.826520325121240573e-02,3.122635535048401759e-02,7.987108081579208374e-02
-4.241001283873656047e-01,-4.391436157840006294e-01,-3.610642787878969306e-01,1.982961963453130916e-02,5.022939332702900522e-02,3.815585565432887127e-02,1.351455897092819214e-01
-4.166914915156720856e-01,-4.394467967969423738e-01,-4.105784077347042205e-01,1.554826660420059042e-02,2.752650091532462748e-02,1.729111618818721108e-02,6.774656474590301514e-02
-3.522994012960485311e-01,-4.374685735313325052e-01,-4.527679801277871841e-01,3.388343033785293223e-02,2.485542049602924852e-02,1.086353525261749692e-02,1.201772987842559814e-01
-3.804124269886720588e-01,-4.425361204438841289e-01,-4.299383124820656543e-01,1.870281880168521427e-02,4.487686335035800944e-02,1.253494993136709812e-02,1.039134040474891663e-01
-3.874536848164510938e-01,-3.972558799180724298e-01,-3.946839395756243651e-01,3.815827485233633937e-02,3.873506057816536452e-02,2.882455905784328878e-02,1.069552674889564514e-01
-3.785778953475393283e-01,-4.265168273134823385e-01,-4.054912473179090315e-01,1.009271404015862211e-02,2.295788923777069765e-02,7.107951961646569172e-03,6.140540540218353271e-02
-3.960106878208301540e-01,-4.412922217996179119e-01,-4.081012482007549402e-01,4.009942279910531926e-02,3.902566445211066992e-02,4.232220022008872928e-02,1.281230896711349487e-01
-3.578449173026486685e-01,-4.290068202361037031e-01,-3.351662049942916721e-01,-8.152345004798614014e-02,1.340296591717776153e-01,-7.322729004666034269e-02,3.116231262683868408e-01
-3.940827281340233412e-01,-4.818876814698914157e-01,-3.810123746823278479e-01,-1.869288446873212245e-02,8.381599646490908717e-02,-4.494512051856196233e-02,1.929041594266891479e-01
-4.049349910600666402e-01,-4.511940648794806052e-01,-3.837490783929479732e-01,-2.378987357417057264e-03,4.180201205307432222e-02,-1.542092060448236289e-02,9.768010675907135010e-02
-3.980271645302216887e-01,-4.429551116538157363e-01,-4.170431218702921883e-01,-2.024874430474740000e-02,3.196213602650055385e-02,-1.421734374555118537e-02,8.016823977231979370e-02
-2.900028446800821946e-01,-5.650682853825330643e-01,-3.367075272881160375e-01,-1.007929756771264312e-01,-1.922540985749934817e-01,8.838668099892764418e-02,4.793690443038940430e-01
-4.182352518509850903e-01,-4.952738765459565040e-01,-3.663572342885076938e-01,-3.963934582598335754e-02,9.368247401439874777e-02,-5.147938571737146335e-02,2.271922528743743896e-01
-4.177273111292633123e-01,-4.084014493278341762e-01,-4.155866477564921779e-01,-5.191870690358811255e-03,8.598700164183296218e-03,-6.985659018992545349e-03,2.281815931200981140e-02
-4.097448758988091466e-01,-4.148074778088382542e-01,-4.198049960289423899e-01,-1.536433829560952119e-02,1.441115815888109608e-02,-1.188994574726908587e-02,4.279312118887901306e-02
-4.036800997346092212e-01,-4.157376996362873167e-01,-4.253937881271859789e-01,-9.034162285290121483e-03,5.836501514856025884e-03,-5.765683268360187116e-03,2.831654623150825500e-02
-3.997173128204273840e-01,-4.118199940067829301e-01,-4.224306203197299991e-01,-1.277351963914700322e-02,8.748095087918211776e-03,-7.697504302125264888e-03,3.583724424242973328e-02
-3.968550058449452633e-01,-4.145122874761552056e-01,-4.161108583228863567e-01,-1.199847810776051397e-02,8.860009913027263456e-03,-1.150868341721615271e-02,3.751400485634803772e-02
-4.147794690112160954e-01,-4.078605840335629562e-01,-4.080037460147930006e-01,-8.132949334799023135e-04,-3.876201857131088236e-04,-2.715035489190557503e-04,7.039686199277639389e-03
-3.479864020446213346e-01,-4.393195048095437372e-01,-4.415973770879551563e-01,-1.993567371919240452e-02,1.329619167930660983e-02,-4.060142331398690699e-03,1.016222536563873291e-01
-3.924353609509921292e-01,-4.387034565110122797e-01,-4.319815830420557501e-01,-2.668848477592287299e-02,2.503293291804200779e-02,-2.104534567503835857e-02,8.497294038534164429e-02
-3.382642463898080654e-01,-4.634412473397114818e-01,-4.344762644770220339e-01,-1.560699647463215448e-02,4.854517197141845070e-02,-2.860428190303012860e-02,1.521109938621520996e-01
-3.514795269649474974e-01,-4.222816036841413601e-01,-4.252995996614968854e-01,-3.189753527534064381e-02,3.837055815964739158e-02,-1.853187923144867383e-02,1.171975731849670410e-01
-4.219316036877190923e-01,-4.177972778877185878e-01,-3.761986807112252529e-01,-1.383697562863476886e-02,1.669774789868568032e-02,-2.272438606964024069e-02,6.985371559858322144e-02
-4.150032530627734140e-01,-4.080952845454975386e-01,-4.179346685205376222e-01,-2.847167292733934416e-02,3.289047148844623930e-02,-1.763167573341185845e-02,8.177071064710617065e-02
-4.193475892365249313e-01,-4.416456880541249630e-01,-3.154488758883107202e-01,-5.967401396753578557e-02,7.336119887747197255e-02,-7.233691868196648334e-02,2.369289845228195190e-01
-4.326203751367976857e-01,-4.289183531305171826e-01,-4.002412209224898709e-01,-1.869355694158852943e-02,2.955365808908608921e-02,-2.903469854495329891e-02,8.449787646532058716e-02
-3.785588786815444751e-01,-4.448062066936516734e-01,-4.275461090865378400e-01,-7.488000710863070529e-03,2.215414968144550911e-02,-1.868003040318206697e-03,7.207136601209640503e-02
-4.170782255936680838e-01,-4.137431919824232085e-01,-4.063529452686059917e-01,-5.747933004794766355e-03,-5.041579665678873161e-03,5.931551260929291379e-03,1.926923915743827820e-02
-4.069868843582837292e-01,-4.137947327717138024e-01,-4.158683614085286195e-01,-5.432895869111288231e-03,-5.494082152022119678e-03,4.513583547160940519e-03,1.746381632983684540e-02
-4.232050432909317816e-01,-4.061804077289521975e-01,-4.145203968817211537e-01,-5.789859662737328189e-03,-6.918829007168637683e-03,9.704487183766877939e-03,2.727851830422878265e-02
-4.151764399061571020e-01,-4.034586971701834002e-01,-4.147539650033077452e-01,-7.965675136710544113e-03,-8.430801822238119525e-03,7.748951788333707791e-03,2.676310017704963684e-02
-3.707074043080387238e-01,-4.189665507509928721e-01,-4.300024944544550420e-01,-1.592294477608917347e-02,1.265501865604171973e-02,-1.035916268455522316e-02,6.742646545171737671e-02
-3.668621110667894536e-01,-4.218053999679896582e-01,-4.345228489902998037e-01,-1.086585057893963389e-02,9.346143199753065983e-03,-9.046209499967622358e-03,6.885484606027603149e-02
-3.678667576878857370e-01,-4.433614098238898849e-01,-4.451891229707659603e-01,-1.165738138089844264e-02,1.299753465650412346e-02,-3.117622918264528666e-03,8.236756175756454468e-02
-3.501081761320765096e-01,-4.341833669454447375e-01,-4.446154476590983284e-01,-2.693331658589624873e-03,9.750231972214966347e-03,-5.219943318196185872e-03,9.188716858625411987e-02
-3.660510363565451786e-01,-4.304484219387456623e-01,-4.250130037906265645e-01,-8.497252729742797717e-03,1.215002983747507856e-02,-1.001048639865619386e-02,6.918561458587646484e-02
-3.656316922414974413e-01,-4.348762392458473403e-01,-4.339337908418637868e-01,-3.228985032972940105e-03,6.356447626155383064e-03,-5.414667298205879872e-03,7.050450146198272705e-02
-3.503529018984108401e-01,-4.397015200097845744e-01,-4.435743332622421042e-01,1.380111010615679007e-02,-1.578942909222972105e-02,-5.544975055946923040e-03,9.877132624387741089e-02
-3.373063902115955859e-01,-4.499668557859898277e-01,-4.463539354454322261e-01,1.135385087813841135e-02,-1.623811778185008103e-02,-4.984378617045168679e-03,1.164074391126632690e-01
-3.569549647381066171e-01,-4.343930986256078763e-01,-4.223005378018266365e-01,9.132467754832972184e-03,-2.084985492704285320e-02,-3.560363361741699078e-03,8.245515823364257812e-02
-3.708431426614697268e-01,-4.379619668463418658e-01,-4.262627694084578089e-01,5.050557219676023689e-03,-9.948848557467752235e-03,-2.409886098747489325e-03,6.517251580953598022e-02
-3.431054074556288969e-01,-4.420294773803083999e-01,-4.317110888320327966e-01,7.084933958144645078e-03,-2.555306891185393434e-02,-3.500727461327848237e-03,1.049663573503494263e-01
-3.563383949133419604e-01,-4.478704196732135601e-01,-4.321816950303758453e-01,-1.625922927611803039e-03,-4.914749389844314323e-03,-5.369376217437064587e-04,8.526128530502319336e-02
-3.434299534936818277e-01,-4.446385306565479034e-01,-4.414173665725416584e-01,8.994398649690862977e-04,-1.169872139866751266e-02,-1.136998647333937931e-03,1.017075628042221069e-01
-4.096307378836041568e-01,-4.237366578158313080e-01,-3.982882079711877465e-01,-5.806153255723832396e-03,-2.873609183903302802e-03,3.774040023935806669e-03,2.561765164136886597e-02
-4.052834221156745853e-01,-4.232152914438835345e-01,-4.051157178475754406e-01,-3.564826825739117813e-03,-5.679111171408375916e-03,4.150459864393635234e-03,2.260856330394744873e-02
-3.939705428668739406e-01,-4.300689480410517795e-01,-3.890225586062540097e-01,-6.499232795794803071e-03,-1.686731292024496245e-02,4.609516947360736000e-03,5.049924179911613464e-02
-4.081957509176851739e-01,-4.342091376253192081e-01,-4.012836210565749462e-01,-2.459274244114637367e-03,-7.161628332555900096e-03,1.995589737284815535e-03,3.298847749829292297e-02
-4.145737812305940739e-01,-4.289937010248408567e-01,-4.053064785365086409e-01,-7.420913156000267727e-03,-9.182217629749800381e-03,4.163483526140698658e-03,2.996003627777099609e-02
-4.133710353667430226e-01,-4.258956366314969877e-01,-3.910187403500477998e-01,-8.818907846664711392e-03,-7.314959154345048245e-03,5.088267082103247862e-04,3.648378327488899231e-02
-3.984776086828249464e-01,-4.033099421971272913e-01,-4.271764855527767080e-01,-2.731909467237570062e-03,1.568553968423089858e-03,-3.642570610002150711e-03,2.789033018052577972e-02
-4.226111659926232722e-01,-3.931271941281925253e-01,-4.122046440885736018e-01,1.195188393471066646e-02,-1.174260478142800067e-02,-1.490347963641534129e-02,4.668323695659637451e-02
-4.112478862513663791e-01,-4.197492453040519433e-01,-3.932193326799440780e-01,9.079651360943026550e-03,9.243115454707415482e-03,6.235507724197304931e-03,3.421753272414207458e-02
-4.270933125750756010e-01,-4.064920304736119316e-01,-3.585143346648455021e-01,1.693767691776141421e-02,-3.067123201681863642e-02,-4.688555014616452993e-02,1.182889118790626526e-01
-4.190795964989348921e-01,-4.235333073725421338e-01,-3.725857039971515738e-01,1.294478132061254068e-02,-2.124360556574134834e-02,-2.197587936261770694e-02,7.545846700668334961e-02
-4.136387595371480153e-01,-4.138566742573324131e-01,-4.211348618006153788e-01,1.755391495451871786e-02,-1.199531995095510020e-02,-1.358674348944146140e-02,4.432253539562225342e-02
-4.523416809324004584e-01,-3.569033008832973586e-01,-4.482636397570726738e-01,2.390825900028711176e-02,-7.509458025605364288e-03,-2.715329099130234236e-02,1.132775694131851196e-01
-4.007571089780962437e-01,-3.842286826670299749e-01,-4.233688001674292267e-01,2.208215289366494832e-02,-1.078457606381726802e-02,-9.561805839685430172e-03,5.695860832929611206e-02
-4.254945398112383592e-01,-4.044418146787298607e-01,-4.154197927330432472e-01,7.230281264854526192e-03,-7.044419315239527739e-03,-9.702839873829735562e-03,3.034393861889839172e-02
-4.429705309269229563e-01,-3.774783003282713434e-01,-3.699592892531747834e-01,1.099701520168192871e-02,-1.213829746763090897e-02,-5.882425887632128370e-02,1.265855580568313599e-01
-4.462312241499185039e-01,-4.081583592071701405e-01,-3.627941105604873262e-01,1.576429857019882863e-02,-1.802224646932163235e-02,-5.014898556977222255e-02,1.204130873084068298e-01
-4.296219265318886316e-01,-4.108444315473677166e-01,-3.992338047587426497e-01,6.437736433010115070e-03,-7.062771965399652387e-03,-1.361284811017881256e-02,3.918328508734703064e-02
-4.232550335873235259e-01,-4.397347798657312845e-01,-4.021408149241342822e-01,1.577745550698057136e-02,-3.034605996288953708e-02,-2.602409999479774264e-02,8.128065615892410278e-02
-4.365426308647730735e-01,-3.685038956044258684e-01,-4.417088198972640156e-01,6.864518018670129340e-02,-5.223595781265546328e-02,-3.735524278676191634e-02,1.775273829698562622e-01
-4.377897061422191816e-01,-3.528305217706018126e-01,-3.934005358626091464e-01,2.891157794217185870e-02,-2.185111160459126539e-02,-6.386096280518355206e-02,1.469418704509735107e-01
-4.488857236045066257e-01,-4.136714417469993244e-01,-4.119399455721234893e-01,6.424443437698780512e-02,-4.678374411916336878e-02,-7.627077125917931799e-02,1.941749453544616699e-01
-3.993764152952306024e-01,-4.101680885103753949e-01,-4.338776727400803224e-01,1.482192177177119735e-02,-4.359549709019690938e-03,-2.365303238489504644e-03,4.083307087421417236e-02
-3.973700533505314936e-01,-4.295228235431588493e-01,-4.080052642060156831e-01,-4.644680453331143230e-04,-3.768177484072015269e-03,3.988301768101890771e-03,2.993194200098514557e-02
-4.326682310611415505e-01,-3.584098611426669301e-01,-4.516244956356277873e-01,3.656144023117613440e-02,-1.727530995110135303e-02,-1.134792667573788875e-02,1.121300980448722839e-01
-4.269727426965615469e-01,-4.058898036017811184e-01,-4.025472148101177927e-01,7.914271389914481628e-04,-6.554080303793184291e-04,-1.262059351869492582e-03,2.311019226908683777e-02
-4.089413548615534189e-01,-3.975859326091894519e-01,-4.311278014089319766e-01,1.245172758211416861e-02,-3.699821036244862419e-03,-4.073885134716999021e-03,3.780360519886016846e-02
-4.112015566913538311e-01,-3.997796672084286129e-01,-4.295849402538560180e-01,-1.147462993371016829e-02,-7.343073512745405471e-03,5.890140611292314816e-03,3.659543767571449280e-02
-3.977097214780457302e-01,-4.118351242587013350e-01,-4.317999324385358717e-01,-1.259464755289105460e-02,-5.504487339276576199e-03,6.432878017049092553e-03,3.963648527860641479e-02
-4.334104492369990069e-01,-4.620574446567575211e-01,-4.033644682906752377e-01,-4.776961108945090850e-02,-6.216527776494173291e-02,6.972250948219092803e-02,1.886986941099166870e-01
-3.969775420718625880e-01,-3.687362220651534406e-01,-4.350246544615679056e-01,-2.926680784469899016e-02,-4.218525701097187997e-03,3.654936188568800454e-03,7.734828442335128784e-02
-3.635840388069950802e-01,-4.037717809031163840e-01,-4.351442016005321878e-01,-2.889207160932029395e-02,-4.362927530968735076e-03,3.273444967923553727e-03,8.033415675163269043e-02
-3.954372855553942023e-01,-4.100974957616476124e-01,-4.336686213648665023e-01,-1.448494630560112975e-02,-3.602740918256889472e-03,3.491526721097010233e-03,4.267352819442749023e-02
-4.253079838834158966e-01,-4.077269224603135567e-01,-4.039352225655198358e-01,-3.697024183242186325e-03,3.455679328872703938e-03,-4.382851705593358155e-03,2.290393225848674774e-02
-4.233242382392053416e-01,-4.083735241635741975e-01,-4.081764309180813122e-01,-3.933195273824382013e-03,3.964488322930797073e-03,-3.349923335586236627e-03,1.880789548158645630e-02
-4.219587350502874146e-01,-3.982588107211240125e-01,-4.100741740649183620e-01,-1.804399274489292340e-03,4.860249262352130117e-03,-2.457696813416490947e-03,2.280395664274692535e-02
-4.261979729764463487e-01,-4.112852715138055615e-01,-3.955370052404917902e-01,-7.130440442499679302e-03,2.809167841508683483e-03,-3.273368106737028528e-03,3.022572398185729980e-02
-4.381067307942781985e-01,-4.094917187549961257e-01,-3.969318140454567434e-01,-4.079755211169229685e-03,3.607092272780507928e-03,-1.522481358469740011e-02,4.604696854948997498e-02
-4.813199543982286666e-01,-3.799487348369934292e-01,-3.666289935748711093e-01,-2.508432584755307393e-02,1.389523166242302363e-02,-6.105518261308286870e-02,1.595427393913269043e-01
-4.374624542850589215e-01,-4.150076854368459078e-01,-3.987449611771367586e-01,-6.298717116326540098e-03,6.748541584514688649e-03,-1.233904665688097084e-02,4.296829923987388611e-02
-4.253932324796205755e-01,-4.034465533635242518e-01,-4.030855880220253762e-01,-4.327970345858345863e-03,4.250164071498771165e-03,-5.790479721203153039e-03,2.647043019533157349e-02
-4.323233962409859243e-01,-3.978366327438010996e-01,-4.027710065115599480e-01,-1.748936417985400612e-03,3.759788503458101616e-03,-3.700619855195687747e-03,3.370730578899383545e-02
-4.009902341200546894e-01,-3.922042687886552192e-01,-3.811553538245897599e-01,-4.464406004122548760e-02,-4.688888426526604397e-02,5.158275608065603784e-02,1.444079875946044922e-01
-3.981105819343548347e-01,-4.218012643874337053e-01,-4.102583104284662219e-01,-2.048043773810689829e-03,-2.485255619426681405e-03,5.655464232191115964e-03,2.341139689087867737e-02
-4.127148085673376099e-01,-4.079821396814988788e-01,-4.114594663483248094e-01,-9.190691379167262223e-04,2.174239050976974497e-03,-1.378528945502045539e-03,6.360027939081192017e-03
-4.535204302668919274e-01,-4.075615282312013976e-01,-3.869151655330564932e-01,-1.756490650322333402e-03,1.031794527075148224e-02,-4.274453282289703004e-02,9.642250090837478638e-02
-4.722019057967664635e-01,-3.917874882159915750e-01,-3.912955881521062440e-01,1.490318541471835102e-02,1.855983213418738523e-02,-9.225431294885351463e-02,1.836806088685989380e-01
-4.425718417734919585e-01,-4.099558542727401722e-01,-3.930594013604050696e-01,2.381695917728626245e-03,-1.509659630606345355e-03,-1.459579158697812615e-02,5.062957108020782471e-02
-4.327485404075699926e-01,-4.110142625416146056e-01,-3.949313452708668737e-01,-8.023317557337449057e-03,5.863813110067844434e-03,-1.438916393120165046e-02,4.469907656311988831e-02
-4.431921726549466478e-01,-4.191000021284067567e-01,-3.807457613529767748e-01,-9.053619953093752087e-03,7.384496595365402536e-04,-3.322023993074181558e-02,8.083198964595794678e-02
-4.373858194513494113e-01,-3.954207390623874496e-01,-3.990511902550697987e-01,-1.698360514661796357e-03,6.482969545457894882e-03,-1.395180725183540159e-02,4.837969318032264709e-02
-4.352425335940613982e-01,-4.096167951107847482e-01,-3.927779475498733297e-01,-2.289819741382998462e-04,-3.943108085513553017e-04,-1.373509977978349880e-02,4.402630776166915894e-02
-4.324004626753401026e-01,-3.916309323377668572e-01,-3.920892925735074419e-01,-4.779937187758384522e-04,7.263635921590197875e-04,-1.417644698632109304e-02,4.742215573787689209e-02
-4.162429632720445749e-01,-4.051945834181761019e-01,-4.254085429390198070e-01,-8.488719540168231797e-03,-8.314358214791865709e-03,8.056360539778680344e-03,3.042392060160636902e-02
-4.068280878544485168e-01,-3.943593471863045541e-01,-4.230125465841201859e-01,-8.032019080257107868e-03,-4.324050928151940143e-03,6.042733859591787292e-03,3.127910196781158447e-02
-4.010446391913728426e-01,-4.064493601359605024e-01,-4.314420409271348955e-01,-1.285774560068788513e-02,-4.683217332399722266e-03,2.904775036183445194e-03,3.709446266293525696e-02
-3.996015603594619825e-01,-3.718679282059196289e-01,-4.301721386953032411e-01,-2.655622732929395838e-02,-9.876035761797415102e-03,1.123318991946962477e-02,7.306441664695739746e-02
-4.041745219266341116e-01,-4.117031177375540807e-01,-4.247545390706772839e-01,-7.027877900321386970e-03,-7.368406073468935884e-03,6.788650328467164298e-03,2.783143892884254456e-02
-4.148909254948839331e-01,-4.039815298648541941e-01,-4.179335988588946393e-01,-8.444302793791831629e-03,-7.887462607250870714e-03,8.497363668064347730e-03,2.790406905114650726e-02
-4.172290186683273450e-01,-4.120033865678247031e-01,-4.091459532040726543e-01,-6.790080057202978019e-03,-3.890017466080017850e-03,6.054520065323051523e-03,1.854960806667804718e-02
-4.162434942610538369e-01,-4.082070110899771453e-01,-4.074866845922469061e-01,-3.973433250340545342e-03,-4.390900069660835792e-03,3.293342318646329259e-03,1.444422546774148941e-02
-4.111648199636702139e-01,-3.730284300395863006e-01,-4.361097344195993819e-01,-5.251430145033257613e-02,-2.232382675264081920e-02,3.173739478834347594e-02,1.257698088884353638e-01
-4.066008815143144495e-01,-4.248869239470225434e-01,-4.150574197509253049e-01,-6.324282483499649686e-03,-7.406058446665739203e-03,5.993988618762387255e-03,2.536884322762489319e-02
-4.143486046426250180e-01,-4.119965086889226802e-01,-4.025669391370752526e-01,-8.529966939931979408e-03,-6.912885303181019042e-03,8.364935111245690169e-03,2.623337134718894958e-02
-3.939046747214225430e-01,-4.101148775587541984e-01,-4.083709620148733288e-01,-1.315824453239117231e-02,-1.331573744485750090e-02,1.164993657765665477e-02,4.118313267827033997e-02
-4.062744200881031609e-01,-4.193652704442343282e-01,-3.886308796137484256e-01,-1.206685521569000191e-02,-1.599703445848081954e-02,1.245873376362799205e-02,4.882454499602317810e-02
-4.147129889588365703e-01,-4.246315814494844298e-01,-4.022750104394415271e-01,-7.473213309418727003e-03,-8.828741224515993663e-03,6.908345262838997726e-03,3.034817054867744446e-02
-4.118220292535337834e-01,-4.285992904575525730e-01,-3.812724316764081745e-01,-1.853198803432033054e-02,5.108582177203608438e-02,-3.746397391757724793e-02,1.216450929641723633e-01
-4.236912426097462769e-01,-4.304488416277741369e-01,-3.775349263985025017e-01,-1.872007168265851090e-02,4.271130016250048594e-02,-3.878109247888435196e-02,1.162926703691482544e-01
-4.240536002705122542e-01,-4.136945859557266680e-01,-3.928537313081839621e-01,-9.826027241284724170e-03,8.919360779944537215e-03,-1.331707981680876375e-02,4.263674840331077576e-02
-3.898485376950884262e-01,-4.182324383594943629e-01,-4.065215864427718651e-01,-2.199200294694510921e-02,2.662825856491444695e-02,-1.597721966952650105e-02,7.038708776235580444e-02
-4.436454494342844668e-01,-4.390123484536491150e-01,-3.522941002163172963e-01,-2.637773648306070487e-02,4.657680193813745068e-02,-5.956231603779912204e-02,1.648692041635513306e-01
-3.837451662691070409e-01,-4.607194284652836869e-01,-3.354767826576688927e-01,-2.049665378717386785e-02,7.783142074925680776e-02,-2.548285080161738839e-02,1.826251745223999023e-01
-4.202780337573033820e-01,-4.246095282025498796e-01,-3.799547830627755252e-01,-1.431364557697294843e-02,1.813858192053607876e-02,-1.882127491245180750e-02,6.696098297834396362e-02
-4.154411435341662240e-01,-4.396240560213904858e-01,-3.572359906877656810e-01,-9.829418466483514499e-03,3.186234599532225542e-02,-2.013626092852882632e-02,9.965997189283370972e-02
-4.207508968723838727e-01,-4.380490203893316892e-01,-3.729896426053441738e-01,-9.613389569266774307e-03,2.539057671513417214e-02,-1.651175432889254863e-02,8.022314310073852539e-02
-3.849038070894279517e-01,-4.064540280592439103e-01,-4.308874428701706116e-01,8.257516279798753078e-03,3.056978817026799640e-03,3.467182030850085150e-03,4.308838024735450745e-02
-3.937091961411270935e-01,-4.099881529790126433e-01,-4.410566743955326996e-01,1.482099877481492765e-02,-2.811631962251737258e-03,-3.003820436209103054e-03,4.945494234561920166e-02
-3.958617009948440790e-01,-3.976926167788520927e-01,-4.275915438561881388e-01,1.113696798697949575e-02,4.985551697830656499e-03,4.966858647326909300e-03,3.837594017386436462e-02
-4.123925422667055196e-01,-3.905755163058356461e-01,-4.399569343756880024e-01,2.505898856127198454e-02,1.913408804125046186e-02,1.529394885650597544e-02,7.430386543273925781e-02
-3.768516765531690904e-01,-3.746434526732831394e-01,-4.648723840556063802e-01,6.517370297009358882e-02,4.881187930904729542e-03,2.608796810301857588e-02,1.510064601898193359e-01
-4.004040030548126072e-01,-3.771680470572661981e-01,-4.286126855616855802e-01,2.477660696200086055e-02,1.061249162360106135e-02,1.046153427286768481e-02,6.707414984703063965e-02
-4.611923362030008189e-01,-3.257147035195171458e-01,-4.725632748317133980e-01,1.551518630387219329e-02,1.465481545990826237e-02,1.514841498693256586e-02,1.485896110534667969e-01
-5.162903561013535425e-01,-2.969036877661409557e-01,-5.076681917793330889e-01,9.773029519693724604e-03,-4.222260067691666757e-03,1.779740742059775921e-02,2.181823253631591797e-01
-4.813818964970627556e-01,-1.155560029782183862e-01,-4.643880428572012553e-01,2.366884234229288050e-02,2.177964822612173806e-02,1.302419001436965103e-02,3.626474440097808838e-01
-4.993040982245579018e-01,-2.289240037923812310e-01,-4.596368717356584810e-01,7.507856665892773118e-02,-9.643106434127064405e-03,7.232180454564698935e-02,3.111821413040161133e-01
-4.362087496495801187e-01,-3.699459147002010506e-01,-4.439520899188870162e-01,-3.866273521483935827e-02,8.969061282166030519e-03,-1.576182556926389658e-02,1.021512448787689209e-01
-4.578236667619247080e-01,-3.254117685912385483e-01,-4.382196533659308280e-01,-2.749848301494822039e-02,1.249349856009090293e-02,-2.424168507154828012e-02,1.407876610755920410e-01
-4.380909392186875806e-01,-3.143212980402287360e-01,-4.307885391674876052e-01,-1.650276786119293099e-02,7.038109770027974402e-03,-2.791117016945096965e-02,1.333085298538208008e-01
-4.770299269418042387e-01,-3.259359291564949412e-01,-4.784006738564899330e-01,-4.674303196065161120e-02,9.444648495070115043e-03,-4.052318209633029578e-02,1.865130215883255005e-01
-4.621353392114765368e-01,-3.571062522514115156e-01,-4.324818690856101489e-01,-3.000057770163602408e-02,1.302403865903235813e-02,-3.764776969892894704e-02,1.275029629468917847e-01
-4.434269680572461847e-01,-3.543683536826424119e-01,-4.329704644802823688e-01,-2.488812360907490667e-02,1.201643845482931391e-02,-3.558963231096182178e-02,1.148949041962623596e-01
-4.503533241360649364e-01,-4.213099612032608077e-01,-3.739378941234475784e-01,-7.608681614849210559e-03,1.593892441269906257e-02,-2.310129390750987124e-02,8.366783708333969116e-02
-4.623883050464729361e-01,-4.269578544466137160e-01,-3.805129029688422149e-01,1.241758922668213892e-03,-3.993719171260666848e-03,-3.499746780511459043e-02,9.372811764478683472e-02
-4.829819796077454708e-01,-3.735990356153666703e-01,-3.969753994292759547e-01,-1.096495812719599540e-02,1.027935282398884098e-02,-1.046992306554054841e-01,2.086086720228195190e-01
-4.839091424404049491e-01,-3.906750653054280598e-01,-3.643020782158273851e-01,-2.665675338375580669e-02,4.456826417766402565e-02,-6.992246068959667715e-02,1.860246658325195312e-01
-3.784303146248541028e-01,-4.484046722472305735e-01,-4.048269965970103801e-01,2.709678930683924979e-03,-2.730919103710050672e-02,-5.600305248843954857e-03,7.809992134571075439e-02
-3.994828774714543340e-01,-4.061717405955955762e-01,-4.212062280389768931e-01,-3.522474819810335767e-03,2.510696592318425405e-03,-5.075563656417620730e-03,2.246683463454246521e-02
-3.755907651400620662e-01,-4.343768750018554559e-01,-3.978653856725672955e-01,-3.643018959515141857e-03,-2.513565425110875565e-02,4.885190549292352247e-03,6.818607449531555176e-02
-3.948229616027077449e-01,-4.402477269392005010e-01,-3.940845540471884512e-01,3.186716451608373121e-03,-1.324379541816020182e-02,-1.420581872937385108e-03,5.157722905278205872e-02
-3.701616081465430863e-01,-4.379610358639911549e-01,-4.020285979657641784e-01,4.925837753214881709e-03,-3.953864253972802500e-02,1.329611351097128224e-04,9.063366800546646118e-02
-3.839469448001897600e-01,-4.635258478139810956e-01,-4.044829642875204523e-01,-8.890830622249660392e-03,-4.015054170681407741e-02,2.623041404630606366e-03,1.010657027363777161e-01
-3.922410513373812968e-01,-4.327082757485939402e-01,-3.921896051828457908e-01,-2.791090704476928050e-04,-1.379931497612344946e-02,-6.422538882882561210e-05,4.702329263091087341e-02
-4.363378530413152823e-01,-3.587240238318666896e-01,-4.455668016536686871e-01,-2.937083211924279569e-02,2.170920550411034253e-03,-1.274269631032006432e-02,9.957198053598403931e-02
-4.184645946299128116e-01,-3.667633637681123604e-01,-4.216717643997890952e-01,-1.978287166538410247e-02,8.486457659217858454e-03,-1.444123036955085627e-02,6.974891573190689087e-02
-4.183938021037862942e-01,-3.666082875756299098e-01,-4.307344258559649974e-01,-2.142708485761803117e-02,8.374888351139191112e-03,-1.189673805568792174e-02,7.406395673751831055e-02
-4.318271230909631053e-01,-4.033860466671308487e-01,-4.028125348792441773e-01,2.386040373984653871e-03,-1.735736330523914104e-03,-5.088720252664115026e-03,3.048504889011383057e-02
-4.934393765880175087e-01,-4.854394945645944537e-01,-2.907416568635201592e-01,6.086886360955688635e-03,-4.451228847084221993e-03,2.663725107279504498e-02,2.045190185308456421e-01
-5.015819081717107775e-01,-4.977831157707366949e-01,-3.028411700554018982e-01,1.079990289550841493e-03,-1.788534568960545995e-02,5.846104253788552210e-03,1.995570659637451172e-01
-4.789411040225545757e-01,-4.774936346172012347e-01,-1.867017342152429427e-01,-7.449613684108554097e-05,1.054618536411480213e-02,5.884963145979897614e-02,3.093646168708801270e-01
-5.093642294225789735e-01,-5.742057703822734949e-01,-1.946668531620944498e-01,3.465443454229177878e-02,5.474800021026353380e-02,2.822265423284814334e-02,3.723287582397460938e-01
-4.727756850189953619e-01,-4.772517622515247693e-01,-1.975895277078907331e-01,-2.948127619704320017e-03,2.968814358307492879e-02,5.614646106989802654e-02,2.985074818134307861e-01
-4.824878679148750793e-01,-4.908930792004590482e-01,-1.668507412942719648e-01,-7.166162911885054672e-03,-2.412337613395811736e-02,-1.696202634799346548e-02,3.242120444774627686e-01
-4.121381774590878733e-01,-4.140765814839313386e-01,-4.092062778081370644e-01,-2.660754919614208118e-03,-1.232297550800755818e-05,-1.179311884962384134e-03,6.591531448066234589e-03
-6.473130702485907495e-01,-6.343894911891524435e-01,-2.122796766845216343e-01,4.546607784496605950e-03,-4.380383813271160331e-02,6.202054204953248717e-02,4.485051631927490234e-01
-4.279037778953500570e-01,-4.027479951003475889e-01,-4.458472888406080359e-01,-3.485440123257992073e-02,3.032439491840856552e-02,-3.709875279898913053e-02,1.092625856399536133e-01
-4.210281391306647247e-01,-3.955458157522447893e-01,-4.434862298199140351e-01,-2.771555609353889074e-02,1.719897412480095311e-02,-1.644996233701212854e-02,7.569460570812225342e-02
-3.952422045714080179e-01,-3.934678292220413764e-01,-4.239821908597349309e-01,-2.006611823178804099e-02,9.615422127678102671e-03,-1.189424459021267214e-02,5.281918495893478394e-02
-4.037778057762813066e-01,-4.082864462815606332e-01,-4.570864103589003524e-01,-3.391109279325195403e-02,3.226556732194588162e-03,-3.647302896204342344e-03,7.837609946727752686e-02
-3.987775813468186770e-01,-4.042649732988980449e-01,-4.387056084662572242e-01,-7.804507604437727064e-02,2.785020482715986137e-02,-3.816276283147283788e-02,1.624021232128143311e-01
-3.902919405173784773e-01,-4.072685104622693619e-01,-4.229557162828316841e-01,-1.792640713258549651e-02,1.346169425267711162e-02,-1.273900424286185384e-02,5.286940187215805054e-02
-3.787286505566357375e-01,-4.086966286217643129e-01,-4.290578176651388409e-01,-2.073051958644918369e-02,9.742547184779438985e-03,-7.208483491237101248e-03,6.043792888522148132e-02
-3.984033575523008852e-01,-3.760731126785283873e-01,-4.565297692246800820e-01,2.983865851825263232e-02,-2.058414380207554189e-04,-1.981907421238199036e-03,8.864673972129821777e-02
-4.009856682056596733e-01,-3.794953308230593070e-01,-4.449528907505344022e-01,2.540489764166448464e-02,1.454453894354005433e-02,1.212744447907402462e-02,7.969883084297180176e-02
-3.527290873974884278e-01,-4.350338764949996384e-01,-4.415175892119572176e-01,3.156382512044957067e-02,-1.326686476197930231e-02,-1.900337545012505472e-02,1.093160361051559448e-01
-3.608977004975303382e-01,-3.971814932090879102e-01,-4.399364703682625000e-01,5.244532895705372733e-02,2.244376176253096850e-02,1.551249803577875452e-02,1.232088953256607056e-01
-3.960879581025087970e-01,-4.121423109764126291e-01,-4.424409731318265093e-01,1.527695624734226598e-02,2.357420750067803269e-03,2.014021592063796814e-03,4.889963194727897644e-02
-3.230653631507905965e-01,-4.992407930446150499e-01,-5.168264230554953098e-01,-5.323272790263179621e-02,-1.108967547668971571e-02,-2.168761362449942408e-03,2.081571966409683228e-01
-4.068248855254421592e-01,-4.129390757703605419e-01,-4.206000951591628567e-01,1.835372639119673029e-03,-3.001196887993017457e-05,5.065547652762135249e-03,1.516585890203714371e-02
-4.086940434574361514e-01,-4.103789193751782305e-01,-4.123052025708868751e-01,-2.067593302204292788e-03,1.947625094221945921e-03,-2.438280401186630059e-03,7.199660409241914749e-03
-1.799922478203551945e-01,-4.552050843208744757e-01,-4.438646045806797225e-01,-6.727016126567578191e-02,8.106233404876314608e-02,-9.917692634372128266e-03,3.260887563228607178e-01
-4.010169377760792186e-01,-4.207685272357041817e-01,-4.092666645432243011e-01,-1.656420417065482004e-03,1.262691836119773491e-03,-3.787351532826082733e-03,1.874258555471897125e-02
-3.627228793916377203e-01,-4.325759268379660849e-01,-4.297614309806143118e-01,-5.091912692245665825e-03,-4.331806714978066013e-03,6.267908018619192979e-03,7.030437141656875610e-02
-4.055634497882367184e-01,-4.153105883440380008e-01,-4.021377187128651887e-01,-6.387191526923820077e-03,-7.149933939333282841e-03,5.381676667012709123e-03,2.242262475192546844e-02
-1.298050260248706789e-01,-4.875632191130154780e-01,-4.898225203362424063e-01,-5.710782016273764639e-02,1.254135108917868403e-03,-1.363166263813016255e-02,3.730286955833435059e-01
-5.791085027395719287e-01,-2.690445670118175592e-01,-5.092115529109112471e-01,9.379751006513545319e-02,-2.536275079590603887e-02,7.548410273147265759e-02,3.532279431819915771e-01
-4.053497264309652293e-01,-4.205403678984396265e-01,-4.051468142117514715e-01,-9.428103477511775524e-04,2.127246517054100472e-05,6.273546809038721287e-04,1.541842706501483917e-02
-3.961938214679111003e-01,-4.186990908884802298e-01,-4.098299559782952461e-01,1.679232904775317939e-03,-2.212572127688520671e-03,-5.123897974900796029e-03,2.207839116454124451e-02
-1.613061524247469125e-01,-4.293740562831882546e-01,-4.710346748361092239e-01,-1.210275626150491696e-01,-3.598753741059421141e-02,1.326628375669763708e-02,3.648563921451568604e-01
-4.432894985968498514e-01,-4.444632895735334266e-01,-3.324479418855885715e-01,-1.273612544324628911e-03,-1.092852966944400043e-03,1.543658800001846939e-03,1.115030571818351746e-01
-4.078010644959665920e-01,-4.180750032627692514e-01,-4.100296143521694470e-01,-3.834991514685610805e-03,-2.293337440267326395e-03,4.059289976268094791e-03,1.403415296226739883e-02
-2.532730503025341084e-01,-6.167585096073111561e-01,-5.422513189362434538e-01,2.799389891000432506e-02,-1.441613055212102035e-01,2.221953308308589631e-03,4.186931550502777100e-01
-4.411106992312638364e-01,-3.962973683347240650e-01,-4.131552863918915852e-01,-1.786251039193081707e-03,2.633603975316484679e-03,-1.576063171053355624e-02,4.808884114027023315e-02
-4.391439110657446299e-01,-3.837596153031768709e-01,-4.056922067212942462e-01,-1.500967848553191701e-02,1.379171627089892556e-02,-2.329079388350790286e-02,7.216388732194900513e-02
-4.570224535755534889e-01,-4.183849347528433849e-01,-3.772039264688061277e-01,-1.727296536450540149e-03,7.289529112453818280e-03,-3.597607530204504495e-02,9.397372603416442871e-02
-4.378072447799081224e-01,-3.989899508414055385e-01,-3.826660808675500514e-01,-4.068295168184023550e-03,4.957528591582524395e-03,-2.455876437552757807e-02,6.587626785039901733e-02
-4.334356717550703619e-01,-3.964416062949559505e-01,-3.824526511092767311e-01,-6.965210282051000935e-03,6.534013831715742258e-03,-2.475527590019596658e-02,6.475996971130371094e-02
-4.145141613307427031e-01,-4.037646978742210346e-01,-4.000269050911595681e-01,-7.142486479127583936e-03,8.659762896418024547e-03,-7.598172654429191653e-03,2.684991247951984406e-02
-4.228858654704111264e-01,-4.044695409259831398e-01,-4.043677919849394398e-01,-5.061984998169694744e-03,4.899699198830041388e-03,-6.158851130169122785e-03,2.457095310091972351e-02
-4.972868551580847951e-01,-4.270081211201144922e-01,-3.819949300849985185e-01,-1.149825341723539722e-02,2.262319423636583587e-02,-8.025550350280122314e-02,1.771543174982070923e-01
-4.081171127226779216e-01,-4.109049580333239970e-01,-4.079335244181698794e-01,-1.073501539002771378e-03,2.112720489702075120e-03,-1.808753485535642257e-03,5.914418958127498627e-03
-4.499032708250334522e-01,-4.122525538223606456e-01,-3.080866567133483946e-01,-9.958589737223353874e-03,1.472424647503243361e-04,-6.828897225776646429e-02,1.745788305997848511e-01
-3.962120415064329659e-01,-4.130467463721186339e-01,-4.428152881437910637e-01,1.727642822344067214e-02,-2.155710558195390002e-03,-8.746781694962179948e-04,5.081711709499359131e-02
-4.376840733910610792e-01,-4.307552116733140424e-01,-3.520003249487075325e-01,4.168534047317028549e-03,3.770830292865381549e-04,-6.406403127123170248e-03,8.349674195051193237e-02
-2.391074272008091306e-01,-6.229828576135401086e-01,-5.938649648290659222e-01,2.449956583943672939e-02,-9.970815305090174885e-02,-7.369635587292370366e-03,4.108762741088867188e-01
-4.086118116765884989e-01,-3.965334638083605756e-01,-4.282098071811644147e-01,2.601467907001235938e-02,-2.634803523074654569e-02,-2.739200577404065848e-02,8.444283902645111084e-02
-3.734185312583180871e-01,-4.253941832973355819e-01,-4.327701040408238331e-01,1.660567785418579079e-02,-1.389886881480331682e-02,-8.179363323925662593e-03,6.889650225639343262e-02
-4.114184151776941190e-01,-4.017788684984668901e-01,-4.279385263818917262e-01,1.101958661690406391e-02,-7.730480883281510944e-03,-7.058379699534923953e-03,3.490155190229415894e-02
-4.338540208624546146e-01,-4.408073746058092657e-01,-3.557869202926400298e-01,2.234682354382147747e-03,-7.304501810313123594e-03,-9.985793363444014220e-04,8.284738659858703613e-02
-4.013640595765559649e-01,-4.204563318969497532e-01,-4.119286903419305257e-01,-1.657284229851269932e-03,1.264712216989370350e-03,-4.606030598562032077e-03,1.873788423836231232e-02
-4.063119565246895437e-01,-4.246127434626656982e-01,-4.018487796116858579e-01,-3.800327144913175689e-03,2.609314540615410676e-03,-2.153430918721589704e-03,2.267560921609401703e-02
-4.280513842654353196e-01,-3.659861402168893552e-01,-4.326231056043048917e-01,3.935115566630632486e-03,-5.113694683339294229e-03,-3.725972674512615171e-03,6.575176119804382324e-02
-4.059439228258033272e-01,-4.286512097222872630e-01,-4.341839022509537127e-01,2.736259023399243220e-02,-2.465080781055324979e-02,-1.984452080499828769e-02,7.695712894201278687e-02
-4.197404808323787484e-01,-3.814496188248223119e-01,-4.359795049618332974e-01,-4.622359839221325609e-03,-3.089907015763044759e-03,8.950766738846435830e-04,4.946561530232429504e-02
-3.726920204499247213e-01,-4.230374734630324984e-01,-4.394395973619446005e-01,2.041065020279222292e-02,-1.662637206574815729e-02,-6.174344484381443822e-03,7.630810886621475220e-02
-3.193759862980640740e-01,-4.666970859467213795e-01,-4.852454991847917620e-01,8.950126769440090724e-02,-1.450737370118535541e-01,-4.315915890113637687e-02,3.428394198417663574e-01
-3.588172505721478611e-01,-4.329112611006199485e-01,-4.382921618093596483e-01,5.730593015347724799e-03,-3.868164398323527264e-04,-2.738074101143688974e-03,7.771118730306625366e-02
-2.962005975639445676e-01,-4.358486980287312740e-01,-3.813616461659645740e-01,7.684911096601171332e-02,-1.110721911046191057e-01,-6.490285231165497659e-02,2.867525219917297363e-01
-4.329452666004089401e-01,-4.004835218653264861e-01,-4.026379628487800066e-01,-5.156582829190150402e-04,1.083528635971222134e-03,-9.094246268602952654e-04,3.154790773987770081e-02
-3.762815311451814249e-01,-4.543801205037281132e-01,-4.316949082667303483e-01,5.314057891129142508e-02,-6.867342182652673432e-02,-4.415046500690285314e-02,1.825102567672729492e-01
-4.093908613966987797e-01,-4.243850146319035899e-01,-3.997474783852676961e-01,-4.222598233875772197e-03,1.717599930307629969e-03,-1.300820241602262343e-03,2.301807329058647156e-02
-4.059849938243069167e-01,-4.176222395071079729e-01,-4.089231896709536462e-01,-1.186365940585303209e-03,1.311963548919934872e-03,-3.383187788423100851e-03,1.239314302802085876e-02
-4.009486684095849296e-01,-4.336176449262079124e-01,-4.118971911411428710e-01,6.811312069126299225e-03,1.211047303806172051e-02,7.546916386604944973e-03,3.974286839365959167e-02
-4.101118484749985416e-01,-4.327864216800236252e-01,-3.966480704536410329e-01,7.228800485012763961e-03,1.354100176115748642e-02,7.117523203374447223e-03,4.312209784984588623e-02
-3.891627727576036921e-01,-4.460766395029152065e-01,-3.371071661297895261e-01,1.122636201581254239e-02,5.722369253038649822e-02,1.340937955875298564e-02,1.401885896921157837e-01
-3.678499030981834950e-01,-4.457080986947061230e-01,-3.581337394009578290e-01,1.307036528299155946e-02,6.529865178129357073e-02,1.479315811454420988e-02,1.444767862558364868e-01
-4.049751290362636480e-01,-4.134532881757795320e-01,-4.010917233626750122e-01,-5.232791432502481403e-03,6.985022568891287829e-03,-6.113357673661190018e-03,2.145976573228836060e-02
-4.033127285461863276e-01,-4.854298695818943798e-01,-4.211927345639305820e-01,2.893017730273580654e-02,7.329928741992666752e-02,3.218473273813701740e-02,1.653222888708114624e-01
-3.893846040561552146e-01,-4.754605170682955628e-01,-3.740737613315965882e-01,3.107183191127873764e-02,5.615846571600139475e-02,2.783653096694355816e-02,1.537650525569915771e-01
-3.777460873239981698e-01,-4.264715109536946769e-01,-3.910062382537582981e-01,9.978234350582955783e-03,2.829841973719824863e-02,1.154188186971938715e-02,7.074344158172607422e-02
-4.002811263920483253e-01,-4.288060215736407832e-01,-3.809744640984366604e-01,1.071302661598153017e-02,2.358434073451006266e-02,9.743937145536899630e-03,6.352118402719497681e-02
-3.781586222969790523e-01,-4.394157254846641214e-01,-4.241165816598029825e-01,1.459332132019068237e-02,2.701446810029227777e-02,3.860383619664968860e-03,7.695623487234115601e-02
-4.133296877778064871e-01,-4.205860453473531102e-01,-4.024546755522132591e-01,-4.743471955058589477e-03,-1.186915215262927901e-03,1.278750106499191783e-03,1.806839928030967712e-02
-4.062792506890988142e-01,-4.172750110680544799e-01,-4.064925275627341850e-01,-3.914557328163370542e-03,4.190080464419853809e-03,-4.098071227360111646e-03,1.635943911969661713e-02
-4.220539602677883528e-01,-3.757477127485912560e-01,-4.402793094848649336e-01,2.362537138203227999e-02,7.746485035568370300e-03,1.237275716166819951e-02,7.506086677312850952e-02
-4.057536631763839496e-01,-4.233998762673277794e-01,-4.025623555127016973e-01,3.382985011140432138e-03,1.931730568431907439e-03,1.122844901535224524e-03,2.066878415644168854e-02
-4.183423600284901234e-01,-4.175395054311170084e-01,-4.187013406953548622e-01,2.292692431405160894e-02,1.975975895205455551e-02,1.683935794134600039e-02,6.000024452805519104e-02
-3.941528677447516671e-01,-4.233948983578189051e-01,-3.986302336821285763e-01,-6.890506757974962544e-03,9.834564310896484404e-03,-6.455054955438906811e-03,3.608063608407974243e-02
-4.016443718733055390e-01,-4.131522786450308460e-01,-4.314964761383784375e-01,9.056910813694047518e-03,4.990536600255859184e-03,5.205493883603713040e-03,3.289582952857017517e-02
-4.109988377209249921e-01,-4.021472243380670442e-01,-4.124108152287247475e-01,-1.305692854593853806e-03,-4.712918261262034544e-03,1.497634986175386002e-03,1.308896671980619431e-02
-3.987459096481218990e-01,-4.099749573826095839e-01,-4.214656662891271277e-01,-1.766098281203380693e-02,1.944198010625512035e-02,-9.229326326018215398e-03,5.208072438836097717e-02
-4.076945741064439965e-01,-3.807734585245182157e-01,-4.644514835494966132e-01,8.581183900410793708e-02,-2.004370655860930606e-02,-2.852095509007086110e-02,1.766653656959533691e-01
-3.742876919090036836e-01,-3.848144110771061221e-01,-4.368677956233426030e-01,3.549906839903228806e-02,8.470941620434433925e-04,4.486273851682376899e-04,8.456728607416152954e-02
-4.195176424561376516e-01,-3.862210138231012557e-01,-4.296151067537039570e-01,-4.521783306306847647e-03,-5.233904339269101688e-03,1.997346216632061786e-03,4.125924035906791687e-02
-4.095111956483580284e-01,-4.022284076254676322e-01,-4.362335586740309079e-01,1.395665517689486691e-02,7.384528406603628817e-03,8.082096552608407369e-03,4.365382343530654907e-02
-3.954494643905692164e-01,-4.095257436723422351e-01,-4.352837776862319985e-01,1.547184796468549332e-02,6.807678095560276005e-03,6.027946039443296024e-03,4.680140316486358643e-02
-4.097063528182411929e-01,-3.959404683793837920e-01,-4.397502911332983322e-01,1.363371688960143130e-02,-5.349766751950218828e-03,-4.713502489602765071e-03,4.707297682762145996e-02
-4.073450834232021367e-01,-4.521299257337524913e-01,-4.010892659909202074e-01,-7.444932763942209430e-03,3.733051435589740397e-02,-5.604662874629181418e-03,8.225693553686141968e-02
-4.312882467542620279e-01,-3.557582222745324652e-01,-4.388342212113668928e-01,5.948724637691067338e-03,2.335325816669506400e-03,1.718022865003303616e-03,8.039310574531555176e-02
-3.748095662262523331e-01,-4.544854751171684137e-01,-4.283657994841280070e-01,-3.030089869157158271e-03,2.940838865160929835e-02,-3.400055101699205832e-03,8.721332997083663940e-02
-3.532043962416682170e-01,-4.225959092742779255e-01,-3.871130491309335842e-01,-3.324662424997517490e-02,5.483708345995516598e-02,-2.630443933805612367e-02,1.342576146125793457e-01
-3.837713171721557348e-01,-4.303078306224046856e-01,-3.693017809380828576e-01,2.249130729220637573e-02,-5.320737987580625300e-02,-2.435074932958915250e-02,1.218109428882598877e-01
-4.303644579258609215e-01,-4.014277598824883553e-01,-3.760913294857045619e-01,-1.120874918080527402e-02,1.260066077466570622e-02,-2.439628623162082635e-02,6.965051591396331787e-02
-4.027143034701592961e-01,-4.273883528274906030e-01,-3.995620809301699272e-01,-2.949693275224294069e-03,-5.232733405796574991e-03,1.655282641031371755e-03,2.851297520101070404e-02
-3.566483331876963980e-01,-4.308793600185664707e-01,-4.210482148557786464e-01,-2.463064709027466478e-02,3.882324639393997662e-02,-1.859067271531607279e-02,1.107054650783538818e-01
-4.021379655728092306e-01,-4.329963362104365387e-01,-4.003700828146937729e-01,-3.326319622037191747e-05,9.383238110935174583e-04,3.151637570244248407e-04,3.182547912001609802e-02
-3.620910601823474351e-01,-4.493058039225987232e-01,-4.268008674806381686e-01,-5.241753717281054901e-03,3.703274484820864854e-02,-6.803856683589958564e-03,1.023997068405151367e-01
-4.039127460489695953e-01,-4.021563817199493296e-01,-4.237917999766537269e-01,-3.586510903699776254e-03,-3.652954108459461821e-03,2.735558358495898245e-03,2.311379835009574890e-02
-4.298288911887209185e-01,-4.114963406856938510e-01,-3.977845636980955057e-01,-5.746522863129338403e-03,-1.913963167109521395e-03,1.768785390596226519e-03,2.991504967212677002e-02
-3.620636334564351633e-01,-4.561582262114710073e-01,-4.512616248742606917e-01,-5.609034385934292925e-03,-1.859425822186330790e-02,2.603122069557310680e-03,9.782114624977111816e-02
-3.805714596123861426e-01,-4.408993119454330256e-01,-4.064435269711162979e-01,-5.759421271533259230e-03,2.424316891344451344e-02,-4.252419791358788732e-03,6.830053776502609253e-02
-4.028644811289092131e-01,-3.989714267390282454e-01,-4.276967670721161241e-01,3.365914137753881884e-03,-3.354095125911833557e-03,-1.895817203341633190e-03,2.840760722756385803e-02
-3.869248435016486853e-01,-4.257058778373227770e-01,-4.460106270939126483e-01,-2.059505978758944394e-02,-1.630321431132944823e-02,1.115710837257095391e-02,7.174251228570938110e-02
-3.802914684836891102e-01,-4.190988021608995640e-01,-4.412116032014152256e-01,-4.351622555979267268e-03,3.019756256267901824e-04,-3.764805156178347247e-04,5.395027995109558105e-02
-4.056808567171135138e-01,-4.083234260574315488e-01,-4.488209119838401651e-01,-3.529222488096298016e-02,-1.248317928894913248e-02,1.458242407953493254e-02,8.121638000011444092e-02
-4.194201678188608229e-01,-3.904120230689378523e-01,-4.560525622314089977e-01,-6.841650694722255233e-02,-3.834596645826134770e-02,1.310093498932837774e-02,1.490457653999328613e-01
-3.747694711244546895e-01,-4.352697357124213906e-01,-4.170610775058106179e-01,7.369914505925247638e-04,-4.306176851813889490e-03,3.321808995378859510e-03,5.459460243582725525e-02
-4.400728410477294239e-01,-3.968133178307378661e-01,-3.932129756568155665e-01,-3.096422824264370450e-03,1.552257435636690596e-03,1.752673111690768171e-02,5.475078895688056946e-02
-4.334960601223030174e-01,-4.052182860382292917e-01,-4.043363755897924627e-01,-2.822416798545787989e-03,3.799535415991865239e-03,-5.632893149535396146e-03,3.142840787768363953e-02
-3.998240349621736689e-01,-4.312465765674725615e-01,-4.028048422303268095e-01,-9.016886206918682273e-05,-1.257970486028326708e-03,-3.931717059159625595e-04,3.013025783002376556e-02
-4.341570907007279989e-01,-4.070187401386435866e-01,-3.812292356457424036e-01,-2.406694641754261732e-03,3.992442056428758710e-04,-7.651457653043424421e-03,4.790576547384262085e-02
-6.250951779676559017e-01,-6.319735722799100230e-01,-1.812644451268434209e-01,-3.309579101287403805e-03,-3.576798860599059160e-02,2.609102074898700038e-02,4.538711309432983398e-01
-4.060697244924371674e-01,-4.058835262627586427e-01,-4.200553824176773143e-01,-3.968388091355365649e-04,-9.604553858912471577e-04,-7.922720440628466939e-04,1.426044758409261703e-02
-3.801381747924553745e-01,-4.327209096323840209e-01,-4.323523065430465717e-01,-6.495298698032239693e-02,-3.981290826652377629e-02,2.112857873231055450e-02,1.466179490089416504e-01
-3.352605952736703587e-01,-3.730973279688989952e-01,-4.422860720826806702e-01,-7.293152687999404638e-02,-1.134164677402172555e-02,7.008496803639089646e-03,1.591441333293914795e-01
-3.828455073669272402e-01,-4.221198207478204512e-01,-4.476258514709183234e-01,-2.818942920919860484e-02,-2.137478022428117297e-02,7.391291414955804447e-03,8.433996886014938354e-02
-4.390799668410418910e-01,-4.208696189720924630e-01,-3.724324227469991699e-01,4.740141873690824348e-03,4.133587945882748194e-03,2.346471098997589960e-02,7.300877571105957031e-02
-4.202511242861419194e-01,-4.034484335987185699e-01,-4.071042831976385834e-01,-1.333187247806579077e-03,3.116434115572090050e-03,-2.349665323607970629e-03,1.689079590141773224e-02
-4.476301829622546524e-01,-4.510109217241139445e-01,-2.912660043429453061e-01,5.368922075331222961e-03,3.969882312318862017e-02,5.086359002414867631e-02,1.938184499740600586e-01
-4.534163142122437096e-01,-4.529977386916606008e-01,-3.283941949422319873e-01,5.361654955165159192e-03,1.229270750742249112e-02,2.864984938512563778e-02,1.363099068403244019e-01
-4.925896123087440959e-01,-3.930748117591548740e-01,-4.422180894349996838e-01,2.517456548099078831e-02,-1.745770605513870602e-02,-7.284104957088211041e-02,1.617430746555328369e-01
-4.397773105543734129e-01,-3.225625746651971104e-01,-4.362477725252629779e-01,3.133020553881595699e-02,-1.574285067680717895e-02,-2.927645982153465748e-02,1.399915367364883423e-01
-4.809639276570158439e-01,-3.559328644730582192e-01,-4.677683392796542772e-01,4.341727992148297632e-02,-2.231622357601544676e-02,-6.244309907643936369e-02,1.816691309213638306e-01
-4.001823024835956533e-01,-4.031441700560565167e-01,-4.329312311883583564e-01,9.498490355605467006e-04,-3.711670133995789646e-04,-1.071744374172507773e-03,3.147749602794647217e-02
-4.511486575000100974e-01,-3.636443407968397712e-01,-4.158499859113323760e-01,2.859709498497670782e-02,-2.023597609075926743e-02,-4.251654527992878435e-02,1.221435666084289551e-01
-4.096199953578629760e-01,-4.118228223816521871e-01,-4.105267961630760243e-01,9.446869388429634693e-04,-9.178130517389368817e-04,-1.595870393699631590e-03,4.064733628183603287e-03
-5.421407932276238739e-01,-2.579341095538818518e-01,-4.259388808041530972e-01,5.746616989111615059e-02,-5.467029589940911732e-02,-9.317335612814645063e-02,3.258349299430847168e-01
-4.535131672678478498e-01,-2.157540872807210963e-01,-3.787271626392195167e-01,9.388020883182343623e-03,-1.217388683123940248e-03,-1.127375010145132000e-01,2.876445055007934570e-01
-4.174791146652326868e-01,-2.187252590844954714e-01,-4.657022731479908972e-01,8.507206960011738650e-02,-4.883817054290402401e-03,-4.512999717750651452e-02,2.816142439842224121e-01
-4.464159691701986010e-01,-3.323026656347053409e-01,-4.374880600847643186e-01,5.677098754317908696e-03,-3.636605092428519051e-03,-1.941591084417539081e-02,1.155424416065216064e-01
-4.666973251046294124e-01,-3.208060082667533730e-01,-4.506686166381838055e-01,2.450761810797855156e-03,-7.111989861694970570e-03,-2.470638271465337016e-02,1.456149816513061523e-01
-4.593193412579524293e-01,-2.994973112123172077e-01,-4.621226013573645486e-01,-7.395853265197195343e-05,-1.155881565588547447e-02,-2.969155510454536337e-02,1.704246550798416138e-01
-4.120328000218104747e-01,-4.143008823320418754e-01,-4.080759130620960629e-01,-3.070585576301928295e-03,-1.146403448907947105e-03,1.361261141985377777e-03,8.219671435654163361e-03
-4.088761379156172215e-01,-4.090521476884096952e-01,-4.147872123802035516e-01,-2.517123485670665593e-04,-5.704151518670756704e-04,-6.561980719393416175e-04,6.032359320670366287e-03
-4.496903759844498305e-01,-4.155519543398341620e-01,-3.752520411105481624e-01,-1.232332797249831996e-02,-1.694671628763392418e-02,4.923162735112555921e-02,1.129323542118072510e-01
-4.341993945970767932e-01,-4.148073761647180224e-01,-4.276268014811411278e-01,-2.347876500188435939e-02,-2.191717668612254422e-02,2.865153761547853048e-02,7.648117840290069580e-02
-4.127999497966164943e-01,-4.235182366040775026e-01,-4.039854677691588347e-01,-5.643263740171105755e-03,-6.033192738823039795e-03,5.130773441717635490e-03,2.389068715274333954e-02
-4.092041495073497348e-01,-4.115628690132011602e-01,-4.144600683060111757e-01,-2.521333282108949650e-04,-5.707544096570005190e-04,-1.417714659357084380e-03,5.290438886731863022e-03
-4.138932478236181378e-01,-4.314346424991324369e-01,-4.007344036246774377e-01,-1.001105946754538359e-02,-1.113012403505203758e-02,7.939042586868710200e-03,3.966192528605461121e-02
-3.931904108606127934e-01,-4.296919676925356479e-01,-4.117196978217118053e-01,1.031431398153397376e-03,-4.006951420138660756e-03,-5.471644569949644238e-03,3.377166762948036194e-02
-4.050413636002442308e-01,-4.342586051432554828e-01,-3.807158205076095481e-01,-1.242327373088633006e-03,-8.708673608587288312e-03,4.801696404282068480e-04,4.887687787413597107e-02
-4.280857426678046362e-01,-3.958177945763425853e-01,-4.098746998793652008e-01,1.170170472677219305e-03,-3.642207998460307659e-03,-3.001393802981814057e-03,2.926020510494709015e-02
-4.354314307444908660e-01,-4.145518508940251312e-01,-3.969762888920594368e-01,-7.137473764341512039e-03,-2.601075458799749062e-03,1.342777710985715300e-02,4.273020476102828979e-02
-4.270911212307221261e-01,-3.787265979598972154e-01,-3.979711838084650788e-01,-1.137746450711899122e-02,-1.094453039238645065e-02,2.589401670269254538e-02,6.736404448747634888e-02
-4.203977039149425776e-01,-4.273617042345919104e-01,-3.791899705454876424e-01,-7.851638434021587093e-03,-4.885105382263926939e-03,1.332786848249555012e-02,5.313171446323394775e-02
-4.241875599215689796e-01,-3.981544342052095731e-01,-3.934111983227089882e-01,-7.028793097198063160e-03,-8.744448532062975427e-03,1.066728867190917113e-02,3.927702084183692932e-02
-4.065068750948802601e-01,-4.136676532446970644e-01,-4.130574565984386770e-01,9.394844554106598455e-05,-9.383895904312184334e-04,-3.442305834398543419e-03,9.246416389942169189e-03
-4.058226795316634550e-01,-4.205896381481546986e-01,-4.085022823275881731e-01,6.430868713464208677e-04,-2.178202368207665814e-04,-2.096380621959037342e-03,1.415066141635179520e-02
-4.596533674583769269e-01,-4.251963055880100262e-01,-3.538083261433014881e-01,3.576135134202289290e-03,1.437794961867168084e-02,4.097996897276447170e-02,1.201664209365844727e-01
-4.108061422342795810e-01,-4.150123861253918744e-01,-4.094871789964652509e-01,5.611534772425080982e-04,-3.093510202944468141e-04,-6.813603430949463288e-04,5.254004616290330887e-03
-4.511809512916217235e-01,-4.068251797688345328e-01,-3.193259583617610309e-01,6.825295794908582854e-03,2.538918280453939316e-02,6.164753397535062407e-02,1.642543226480484009e-01
-4.453162159441689250e-01,-4.276458674654891601e-01,-3.656372755481345216e-01,3.765326078475696170e-02,2.918458010929071353e-02,8.161492928718913631e-02,1.790098696947097778e-01
-4.678415257696593721e-01,-4.093303828201933503e-01,-3.603362338094935335e-01,2.982036537011866634e-02,4.194350434864425881e-02,5.761100441977750480e-02,1.630745381116867065e-01
-4.550374905535990444e-01,-4.078550817638816883e-01,-4.168105141172602779e-01,1.496123874747069295e-02,4.787161398789035495e-03,3.900871777301427590e-02,8.478884398937225342e-02
-4.918939199902834236e-01,-3.712138676537980464e-01,-3.566130994787413133e-01,9.417194722410893518e-03,1.461446946393904359e-03,7.063365797303361449e-02,1.782657504081726074e-01
-4.311108241387411333e-01,-4.033419898564292172e-01,-4.181278721270504373e-01,2.223585535831051896e-02,1.428422468566459269e-02,3.831194644357595325e-02,8.413071185350418091e-02
-4.287755114376501364e-01,-4.142100714952503537e-01,-4.124370509264032592e-01,1.268021378851143244e-02,1.241991862603768378e-02,2.172560641582469559e-02,5.101228132843971252e-02
-4.081487885593292342e-01,-4.209718230120939042e-01,-4.063800947850247924e-01,7.782357648655901941e-04,-1.164063160254095487e-03,-7.136690534606803275e-04,1.405875384807586670e-02
-1.879542442617753162e-01,-4.543965030844894781e-01,-4.731337858075483904e-01,6.526158264405050591e-02,-1.147285905668293977e-02,-2.824372187213713189e-03,2.992173135280609131e-01
-4.515842572548232625e-01,-4.458393115269994045e-01,-3.510555475307197693e-01,-3.658608678980430733e-03,-9.314252406529822254e-03,-6.603889306338384287e-03,9.996374696493148804e-02
-3.756569346221623751e-01,-4.385847279486994044e-01,-4.200846583784150767e-01,7.635452237918779279e-05,-4.903243836004326367e-03,1.145458924316725396e-03,5.669277161359786987e-02
-4.261792800029349237e-01,-3.969294990487481356e-01,-4.112176164857258565e-01,8.389487127750352990e-03,7.470552547007890468e-03,1.301615117119026867e-02,3.909749537706375122e-02
-4.263912577851262098e-01,-3.883783819010424576e-01,-4.192772921055558100e-01,-2.484427327067776151e-02,-1.164892365403372328e-02,1.936195504337642065e-02,6.788686662912368774e-02
-4.082902466519454654e-01,-3.876686248617721708e-01,-3.851869544654155653e-01,-3.706066712195807411e-02,-4.133616385547232014e-02,4.971367778957118400e-02,1.309330016374588013e-01
-4.298316407800599759e-01,-3.771530291170313021e-01,-4.173119326016386799e-01,-1.213964573511374864e-02,-1.111232019747611377e-02,2.152445289261866249e-02,6.689341366291046143e-02
-4.685188131515855003e-01,-3.529873438132420937e-01,-4.770187104263344802e-01,-4.646714083206818224e-02,-1.569021720948328424e-02,3.352301829364035674e-02,1.580799967050552368e-01
-3.997670830764243344e-01,-4.327549588110530254e-01,-4.015868947377364551e-01,-1.709895464783313358e-05,-5.384471837445801556e-04,-3.619525344719413344e-04,3.213632851839065552e-02
-4.377863237116809136e-01,-4.431777682745998148e-01,-3.485835748738398410e-01,4.947758205498035272e-03,-7.500378776903285881e-03,-5.105798711392445753e-03,9.374190866947174072e-02
-4.399817105465558820e-01,-3.301270732096769356e-01,-4.366415107544395768e-01,-2.038861932055864926e-02,-7.381658986119556815e-03,2.141034865533175333e-02,1.204077452421188354e-01
-4.493408060401347659e-01,-3.612447102072867122e-01,-4.370538802325915073e-01,-3.265307766833892150e-02,-9.369041195403864791e-03,2.429780210632448423e-02,1.098299473524093628e-01
-4.200159447378218336e-01,-4.445542882791969630e-01,-3.614705440681164617e-01,-4.998635846312542153e-03,-1.383831644091155534e-02,1.374495239227921427e-03,7.823953777551651001e-02
-4.173685339888895118e-01,-3.977641637581853518e-01,-4.325522181836265467e-01,-4.459027329165168169e-02,-2.989740816299496506e-02,6.291014373821907091e-02,1.463968753814697266e-01
-4.529479724100338722e-01,-3.813654889935289560e-01,-4.264533763407264977e-01,-2.669144314110917862e-02,-1.336028150202589471e-02,4.531948402487852995e-02,1.129770949482917786e-01
-4.016289294299986712e-01,-4.198270542542951733e-01,-4.104885003124461029e-01,-1.035414359685056171e-03,-1.757447589068930442e-03,4.802256881122731608e-03,1.816874556243419647e-02
-4.275259308190196283e-01,-4.077677025927292642e-01,-3.936390695456979394e-01,-2.966661310498800060e-03,-1.025832712755452274e-03,2.751756019615381535e-03,3.035521879792213440e-02
-3.926515572478330718e-01,-4.370384641781014379e-01,-3.678397570200863109e-01,3.412989544414806592e-03,3.298680047094555007e-02,2.197279467882466177e-03,8.367173373699188232e-02
-4.237393228597465811e-01,-4.422192577960411541e-01,-3.608241029563236668e-01,9.140177971548743563e-03,-1.551464416301242925e-02,-2.138043916495420416e-03,8.030539751052856445e-02
-4.004822609292762459e-01,-4.342602245946279860e-01,-3.812957069691593204e-01,-6.096104653590073315e-03,1.901325274119755604e-02,-7.303147538600828284e-03,5.927195027470588684e-02
-4.013192664910813501e-01,-4.316684291000543738e-01,-4.009143887133277406e-01,5.551252894908601659e-04,-7.502983698643087137e-04,-6.324328808239568418e-05,3.059654682874679565e-02
-4.020778586055792081e-01,-5.038242576959679475e-01,-4.126866298794318322e-01,-2.476382205554967381e-02,9.065586870782388340e-02,-2.628833780550097685e-02,1.948176175355911255e-01
-4.194587055994147273e-01,-4.362493349130525111e-01,-3.802223047374611586e-01,3.228416374656778269e-03,-5.460691319674004438e-03,-1.839316194269109120e-04,5.100050196051597595e-02
-4.316749971138759134e-01,-4.632998063234193276e-01,-3.699019816178227837e-01,-5.300587768002788802e-03,2.719290504558042817e-02,2.796058452658081728e-03,9.537137299776077271e-02
-3.721190649598537514e-01,-4.377716772901248943e-01,-3.909895275429644546e-01,3.859401809560212854e-03,3.305638395662535700e-02,4.357804373848479795e-03,8.250632882118225098e-02
-3.852350925249690139e-01,-4.087322833190264459e-01,-4.306483318409475292e-01,-9.123761592954322125e-03,2.613632889700694042e-03,-4.502469356235312345e-03,4.334092512726783752e-02
-3.998312258132754038e-01,-4.009077560448558453e-01,-4.292025248788473024e-01,-1.098821693390928181e-02,5.450662189549182121e-03,-7.411249638304292196e-03,3.805712610483169556e-02
-4.027046513882643342e-01,-4.075680974640762955e-01,-4.131934961758390035e-01,-5.529732558083957396e-03,8.857309181229820055e-03,-6.755906234648702269e-03,2.338104881346225739e-02
-4.143734684228313481e-01,-4.026017126138451974e-01,-4.318898069364889292e-01,-8.848316182133933103e-03,7.445722485211532515e-03,-7.332821770715833819e-03,3.484393283724784851e-02
-4.053667478558807269e-01,-3.882951194558121322e-01,-4.225411339651420906e-01,-1.641547856781053888e-02,1.431479143212563941e-02,-1.509151915854580785e-02,5.464430525898933411e-02
-4.340398372939019978e-01,-3.896084843822406607e-01,-3.820918834647734630e-01,-2.377552360186613659e-02,1.583091097291006860e-02,-4.675031186264201610e-02,1.066258475184440613e-01
-2.059727232464964308e-01,-5.120069955348973689e-01,-5.154746220173415105e-01,2.957388983435046623e-02,1.094853866060259244e-02,2.918031404304926441e-02,3.166514635086059570e-01
-4.101807662709910374e-01,-4.101209922259240748e-01,-4.101485534778669950e-01,-3.951064517352595993e-04,-2.102859289781207168e-04,8.167988203501402302e-04,1.614048960618674755e-03
-1.947658649483297033e-01,-4.913689463916379729e-01,-5.225552554517345349e-01,7.677323708868635799e-02,6.145436508313355944e-02,9.666654468778981130e-03,3.570554256439208984e-01
-3.889207123018746382e-01,-4.357613474538086229e-01,-4.062055113451177868e-01,-5.714228089398304096e-04,-2.658500783373787119e-03,9.496698393268891225e-04,4.132876172661781311e-02
-3.972241802985573278e-01,-4.207186389821795380e-01,-4.206283881018134108e-01,-1.795397952380977475e-03,-2.272994762023691512e-03,5.610669656643690363e-03,2.587442845106124878e-02
-2.497943445810917595e-01,-5.169435627433287550e-01,-6.646840374673583796e-01,9.715837333492725880e-02,9.727577089026193113e-02,-1.201094885540801918e-03,4.351735413074493408e-01
-1.928981407122307146e-01,-5.741970188128600050e-01,-5.714666948711888406e-01,5.039192001010958655e-02,5.912409534112054305e-02,-2.547389196870403563e-02,4.054713249206542969e-01
-4.335434882035973381e-01,-4.824655087988509727e-01,-3.299650278296644701e-01,2.333517828472201142e-02,-3.939869642480157280e-02,-3.732449717721747495e-02,1.692892462015151978e-01
-4.055055257020912518e-01,-3.136917356666427681e-01,-3.488771459353042781e-01,7.994522856306000846e-02,8.901262094272070768e-02,1.223510919497403926e-01,3.070669472217559814e-01
-4.260748145847736978e-01,-3.366121340992994648e-01,-4.716532289908733633e-01,8.713899285865524258e-02,4.569026366545894668e-02,1.525527089852928286e-01,3.361814022064208984e-01
-4.415415702626686034e-01,-3.393055701348295927e-01,-4.040759978399639518e-01,2.017211820580881720e-02,1.448843530222017166e-02,4.919909543298370269e-02,1.309109628200531006e-01
-4.159109226700056228e-01,-4.062731774914539740e-01,-4.079848017147619244e-01,-1.399108372958842014e-03,-1.315201099821031649e-03,6.669148070141535335e-04,9.576831012964248657e-03
-4.783109467478021681e-01,-3.680027333789129829e-01,-4.375300051305097693e-01,3.643128290898883098e-02,2.296148049006399225e-02,6.192081068194629084e-02,1.624760925769805908e-01
-3.592780314055425417e-01,-4.657296242701512434e-01,-4.389090614854015970e-01,2.040419550882166880e-02,-4.544529943409487960e-02,9.813913597721960966e-03,1.301151365041732788e-01
-5.299969362223064806e-01,-2.504200401056942971e-01,-4.227713328351714317e-01,3.977842739442197934e-02,-3.392541082028238675e-02,1.681918816524737015e-01,3.908299803733825684e-01
-3.900373947990524726e-01,-4.125980672860562470e-01,-4.403073207016184876e-01,-1.709246058822722070e-02,-3.222008329281005404e-03,1.453798650131646287e-03,5.306474491953849792e-02
-4.328223037730903333e-01,-4.387562050189862117e-01,-3.607215046761599320e-01,-5.718898853964416579e-03,-5.461745187327001622e-03,8.277607846106312811e-03,7.781221717596054077e-02
-3.111468871374036826e-01,-4.390539018709319063e-01,-4.769724195846614112e-01,5.463905640667546249e-02,-2.562553333093624958e-02,3.976334946247207314e-04,1.832343339920043945e-01
-4.142034049748278268e-01,-4.104848474865755437e-01,-4.083111032637605775e-01,-1.527460330659219205e-03,-4.013598717134260561e-04,-2.365887051674179533e-04,5.855477880686521530e-03
-3.663646314660455316e-01,-3.793326403083980281e-01,-4.604863233369955178e-01,6.149235902462769215e-02,-1.048140069009443655e-02,-2.384135708753691227e-02,1.455514729022979736e-01
-4.057623735801363374e-01,-4.196394634923285571e-01,-4.019072590252903976e-01,-3.195611019828483584e-03,-1.615514361439699103e-03,1.359324973056694544e-03,1.746259070932865143e-02
-4.182997869667038349e-01,-4.284031092557917808e-01,-3.848310073746541993e-01,-4.196525557721753757e-03,-3.882821125082941242e-03,3.037178023146458895e-03,4.106235504150390625e-02
-3.056253162673960300e-01,-4.729405466303479022e-01,-4.701928036763329821e-01,6.255548264133534153e-02,1.448613667448783206e-02,4.774078826926494469e-03,1.999492049217224121e-01
-3.693076916455884651e-01,-4.231843897690842349e-01,-4.460766557778641506e-01,2.918086109944969045e-02,-7.108141039679899235e-03,-4.549548322687448423e-03,8.618789911270141602e-02
-4.204768894422259429e-01,-4.046345891049528132e-01,-4.097723387622451696e-01,-8.665419678732053793e-04,-3.829157981128980710e-03,6.360375342333315050e-04,1.560239866375923157e-02
-3.765620614247410791e-01,-3.961709740509086752e-01,-5.026303858831386862e-01,7.182788442411254526e-02,-1.954226613397849061e-02,-7.822455066836546574e-04,1.744446605443954468e-01
-3.642090816852588953e-01,-4.408292939799547949e-01,-4.727685863207355954e-01,6.677115819895176885e-02,-1.499247466317905030e-02,-2.486215301231782526e-02,1.588767915964126587e-01
-4.189832105627688819e-01,-4.397264312318196477e-01,-3.777159627221401972e-01,-3.402803740081138985e-03,-5.130472145854929333e-03,1.308752240649982412e-03,5.575054883956909180e-02
-4.629223912224116333e-01,-3.789107418174774700e-01,-4.341378702573907566e-01,-1.253374099413619158e-02,-7.031033637884631302e-03,2.712499436181256898e-02,9.107775241136550903e-02
-4.761471555749310358e-01,-3.848600793341370729e-01,-2.537844585979467382e-01,2.558601435068575194e-02,1.617849720631004545e-02,1.315341058964677179e-01,3.035333454608917236e-01
-4.615034959259840530e-01,-2.621503996596040720e-01,-3.988183725729351758e-01,2.972647451375697372e-02,2.363100755927197150e-02,1.305723023249460435e-01,2.943607568740844727e-01
-5.256215231497851637e-01,-4.147929118322126740e-01,-3.200378862376710432e-01,-7.462116308819328157e-03,9.195234826697905317e-02,1.851533506365918846e-01,4.001763463020324707e-01
-4.201335201693392474e-01,-4.102208576984821553e-01,-4.015242884559418468e-01,-3.878235230587116951e-03,-1.304688916704883688e-03,2.091497991768674018e-03,1.798469386994838715e-02
-4.957506830419096677e-01,-3.284445303300563834e-01,-4.119934351833256514e-01,7.031848433104437301e-02,1.404206952931313403e-02,1.819798032756854700e-01,3.684685528278350830e-01
-4.705110476831246835e-01,-4.400359281993097560e-01,-3.531440978678774822e-01,-1.446276555515155606e-03,3.466412535930095320e-03,5.109615437940173005e-02,1.378467828035354614e-01
-4.093717352879893689e-01,-4.145486966948606078e-01,-4.079271975957590723e-01,-8.787041269272523542e-04,-3.652094291486222030e-04,1.351808362765019329e-03,6.675671320408582687e-03
-4.195680615805394420e-01,-4.076639095881910424e-01,-3.926970761122234865e-01,1.224991308952448101e-02,1.303757519443741845e-02,1.593956788829311785e-02,4.760470613837242126e-02
-4.416248230423194809e-01,-4.129286354009186755e-01,-3.950540135694701749e-01,1.962812465529525496e-03,3.040965501740319939e-03,1.639017717953547559e-02,5.001120641827583313e-02
-4.582212744951575378e-01,-3.767282539698413313e-01,-3.929997642342698549e-01,3.572707066504451912e-02,4.966660318054676865e-02,7.112186735502122603e-02,1.788418442010879517e-01
-4.231284712996806752e-01,-4.388390870403083843e-01,-3.726789049879399851e-01,2.474188563275039193e-02,3.633300496536975843e-02,5.327078728542512104e-02,1.337708830833435059e-01
-5.019817054489792429e-01,-4.026807810066800886e-01,-3.735500731145968700e-01,2.321539542317325013e-04,1.511797967131966493e-02,9.379326152910780201e-02,2.016911655664443970e-01
-4.022680170765026708e-01,-4.062598157993111414e-01,-3.915606898786989643e-01,1.513522884290656630e-02,1.652618709503316310e-02,1.454341997694250967e-02,4.810848087072372437e-02
-3.943325512505139741e-01,-3.906914800144473121e-01,-4.328471413188252903e-01,-1.386010932839771073e-02,-3.746610809739723017e-04,3.141640900750950838e-04,4.705199971795082092e-02
-3.675554026525603146e-01,-3.885907758554638658e-01,-4.216610396534415939e-01,-5.152721986572808555e-02,-3.498924623974111053e-02,3.079315381547986438e-02,1.292839348316192627e-01
-4.021859416612972860e-01,-3.388602088455946459e-01,-4.156874534524241382e-01,-4.935130147816810947e-02,-2.737841078602697500e-02,3.341097205566758571e-02,1.339839398860931396e-01
-3.985643752613821644e-01,-3.787338998977759497e-01,-4.644055944242645451e-01,-5.477114062076564316e-02,-2.611241628382802299e-02,1.687489966014894122e-02,1.339159160852432251e-01
-3.750197366795213760e-01,-3.501266011201693562e-01,-4.887398446090736037e-01,-7.727210348266635997e-02,-3.181116604777867434e-03,-1.736668184436650220e-03,1.852973848581314087e-01
-4.088077432081453355e-01,-3.860538195110406190e-01,-4.327838425412124934e-01,-1.894824368001004483e-02,-8.259989150554297027e-03,9.612518512552601507e-03,5.654322355985641479e-02
-3.925127328014271222e-01,-4.033802705234164065e-01,-4.396332299580632541e-01,-6.388674022981352674e-02,-1.030872991284607215e-02,4.520914261933463296e-02,1.432526409626007080e-01
-3.971147309360925082e-01,-3.763911055320051657e-01,-4.313255143458925023e-01,-4.860737651722828873e-02,-2.650716542149719746e-02,3.188565072475295359e-02,1.206433698534965515e-01
-3.835304056189101085e-01,-4.042591845733262135e-01,-4.390915770826080422e-01,-2.182055650710886321e-02,-9.286047065125875577e-03,7.539596778905836502e-03,6.498191505670547485e-02
-3.990149230158835936e-01,-3.752368932362710185e-01,-4.424309501584792748e-01,-2.790486525178352897e-02,-1.287496681882464508e-02,1.346904009574442784e-02,8.282679319381713867e-02
-3.181550851044469552e-01,-4.819869653715948554e-01,-4.666261199440632779e-01,1.874150910481719794e-04,2.517916781458267791e-02,4.448372099636497753e-03,1.628547906875610352e-01
-3.543576186438317510e-01,-4.841155850170140162e-01,-4.673841593377670578e-01,-8.761822462075265910e-03,5.552562522778588250e-02,1.404199900184751031e-03,1.563059240579605103e-01
-2.782667216464520532e-01,-4.613773766696620537e-01,-4.680121236543502983e-01,-1.113970327942046673e-02,5.278034243420808014e-02,-4.624723919520753665e-03,2.087634056806564331e-01
-3.123946322811500531e-01,-5.789377885195929885e-01,-3.741286762988322301e-01,2.969552966348380091e-02,1.308530377945680834e-01,1.686533702058069101e-02,3.365529775619506836e-01
-4.112025586266407906e-01,-4.103621079056780641e-01,-4.105020948855037655e-01,-3.686673831241842731e-04,9.303429864221491132e-05,1.084485490042891623e-04,1.037929672747850418e-03
-3.176301809324476588e-01,-4.980778709564653850e-01,-4.891938972646816541e-01,4.807033285557216901e-02,1.747998536924618429e-01,3.090359217505992892e-02,3.640048503875732422e-01
-2.969720853308553399e-01,-4.684564196116499657e-01,-3.534647816471105375e-01,4.537455465075550948e-02,1.262827637626058597e-01,3.741058854487554208e-02,2.848296165466308594e-01
-2.810648251560590727e-01,-4.684549724693193862e-01,-4.801702561740112674e-01,6.666857873806186774e-02,-2.851321314348917446e-02,-9.995346293718352162e-03,2.313449233770370483e-01
-3.656512344059226760e-01,-4.918830916795500219e-01,-4.097973805591217378e-01,2.600143347384367351e-02,8.514155753522449632e-02,1.965614286972490812e-02,1.929903775453567505e-01
-3.462559578788291792e-01,-4.403428311388226657e-01,-4.509213451858345434e-01,2.123125836226848195e-02,9.648830334847927764e-03,9.458701155449017938e-04,1.076746359467506409e-01
-3.058605028879288756e-01,-4.736320158337528063e-01,-4.686286686143177338e-01,5.739444811394444484e-02,2.714639855616320444e-02,5.459449108237032083e-03,1.987849622964859009e-01
-3.130911885793313254e-01,-4.492235092228076820e-01,-4.653814947456100803e-01,3.960055095897983823e-02,8.702247551260627184e-03,1.006797405028903893e-02,1.619524806737899780e-01
-4.104056357217182871e-01,-4.201476414286318684e-01,-4.032022493247846562e-01,4.962764663461452161e-03,-2.334804662962457721e-03,-1.444717960982441068e-03,1.770518347620964050e-02
-3.511407562930810577e-01,-4.369756213986961679e-01,-4.679202244708882685e-01,3.813336795941223850e-02,1.863407585801425030e-03,6.764695437546846234e-03,1.244647726416587830e-01
-3.690829488934186942e-01,-4.439284717397461999e-01,-4.377982075458431432e-01,2.021367962957689585e-02,2.124799624570040957e-02,8.059021772232496245e-03,8.919452875852584839e-02
-3.637361061302117893e-01,-4.306002436363038366e-01,-4.216709122449684988e-01,2.332778727566671081e-02,2.502079872858416904e-02,1.975463871806417901e-02,9.292421489953994751e-02
-3.688646343958575380e-01,-4.232847065048523927e-01,-4.230575881257589987e-01,2.674739516790825694e-02,1.578348228940164300e-02,1.404572128278432259e-02,8.021662384271621704e-02
-4.422327344580205266e-01,-4.441717898112665375e-01,-3.529146679498061379e-01,1.122842980885760747e-02,-2.659507308254062743e-02,-1.904814058543909117e-02,1.083664670586585999e-01
-3.515688379267000174e-01,-4.320722007221779459e-01,-4.352931500297455569e-01,4.924280004189441479e-02,6.032722820801328378e-02,4.157411790951957842e-02,1.735752522945404053e-01
-3.570968351481833558e-01,-4.490792646423088508e-01,-4.340717343769084358e-01,4.339250282803060882e-02,2.273447787621772978e-02,2.954932556063061266e-02,1.308600306510925293e-01
-3.967049468022400549e-01,-4.196175385955642212e-01,-4.182215911478616710e-01,2.479741744093592014e-03,-1.960231704560893781e-03,-4.685436548556741986e-03,2.430608123540878296e-02
-3.733243085903946157e-01,-4.316817571312318580e-01,-4.425565037430191917e-01,4.253367728379758850e-02,3.957162619393474190e-02,2.230561767033775733e-02,1.256032586097717285e-01
-4.031727038675448904e-01,-3.993299402281161870e-01,-4.262282253437300605e-01,8.575358313157595280e-03,-8.174955209099839248e-03,-6.872519022884256666e-03,3.460802510380744934e-02
-4.003130643082903894e-01,-4.201798129599396137e-01,-4.113441244266561880e-01,8.578315666330724740e-04,-1.375525156134330129e-03,-3.965333965378005539e-03,1.876902021467685699e-02
-3.383985245160425759e-01,-4.827841086287256722e-01,-4.329427022610073394e-01,3.984773734320463251e-02,7.048121182877907509e-02,1.723101544808485278e-02,1.915516555309295654e-01
-3.283846704174938624e-01,-4.750767465265662293e-01,-4.297396514725643213e-01,4.443504845269578146e-02,-6.021415385577976592e-02,-1.334809833013052977e-02,1.850907653570175171e-01
-4.303941156932556411e-01,-4.224694075197927834e-01,-3.601178209754275494e-01,2.007855834060004452e-02,-3.173385179183357829e-02,-4.584783376987486281e-02,1.223979890346527100e-01
-2.588302476606280100e-01,-4.334998975164888191e-01,-4.038025331345441726e-01,6.377062554786158688e-02,-1.252581463648518856e-01,-5.507295154134021764e-02,3.075258731842041016e-01
-2.462440671498080658e-01,-5.325984789956251797e-01,-4.762310156832591512e-01,-1.350004803389507312e-02,-7.262754191209465360e-02,5.133428459543324177e-03,2.923784554004669189e-01
-3.021176631199011808e-01,-4.628363827069759129e-01,-4.778836188744432500e-01,1.626373037680840100e-02,-5.573655533356226127e-02,-7.162560386938274064e-03,1.968309432268142700e-01
-3.053832127236982275e-01,-4.740770402175870091e-01,-4.454127730855480527e-01,3.692924582936174538e-02,-7.089841769326907239e-02,-1.702930858172359285e-02,2.109142392873764038e-01
-4.165241852538777989e-01,-4.039269537833729551e-01,-4.101915862144688285e-01,3.710925503643393818e-03,-6.957337800729566923e-03,-2.703636474744893284e-03,1.809625141322612762e-02
-4.324872055213594413e-01,-3.437728422226052905e-01,-4.710317327653885666e-01,5.612778673372368493e-02,-4.196303669843511053e-02,-4.176669236179308964e-02,1.809486597776412964e-01
-3.058907052506583124e-01,-4.772540069581602262e-01,-4.180129867155896184e-01,-2.541449391390691002e-03,-7.024884992698400554e-02,-5.836955965328981255e-03,1.940346211194992065e-01
-3.963079334546729116e-01,-4.320749680546267513e-01,-4.031033606851329720e-01,5.290577654192382857e-04,-3.824675149701067551e-03,-1.755354362895939846e-03,3.371015191078186035e-02
-3.391280769314785060e-01,-4.398637197462750836e-01,-4.408755062260810154e-01,1.988571679323966265e-02,-1.995504941012708755e-02,-1.059796092306660581e-02,1.138793379068374634e-01
-4.736864142447472781e-01,-3.081717232495134184e-01,-4.135903553872357641e-01,-8.101625667094791705e-02,3.100956591376665197e-02,-1.099344274295228907e-01,2.826522290706634521e-01
-5.594837298363557476e-01,-2.671201361953975395e-01,-4.760530461969684213e-01,-6.414875495947341966e-02,5.466718428202190644e-02,-1.238830095247248492e-01,3.679629564285278320e-01
-5.643886798172312869e-01,-3.898433640210802187e-01,-4.364661805345683154e-01,-8.287774734330294324e-02,1.654319858486437075e-02,-1.819660137250314891e-01,3.811351954936981201e-01
-6.292073566136585638e-01,-3.476550226420285217e-01,-4.184172127223953486e-01,-3.225626584192640978e-02,2.935838187342046379e-02,-1.506121659349129727e-01,3.716382086277008057e-01
-4.760009349896330288e-01,-3.193877160408465365e-01,-4.146209129189155629e-01,-6.746865904225685107e-02,3.068822104591767061e-02,-1.357922078835231416e-01,3.008026182651519775e-01
-4.087674161315817400e-01,-4.311951867070129008e-01,-3.861390899918721864e-01,-2.629579421067678065e-03,-1.049109499105300818e-02,5.496354931577705771e-03,4.431830346584320068e-02
-4.066446673458404271e-01,-4.352282570233663161e-01,-3.867853404860178701e-01,1.389703374391983506e-03,-4.858587796225577807e-03,-7.264148365147719355e-04,4.309593886137008667e-02
-4.495799799989068091e-01,-3.219353435278483611e-01,-3.547591640179029726e-01,-5.860302770765463132e-02,5.597383168630518102e-02,-1.244715041315184317e-01,2.817133069038391113e-01
-4.233414430650391802e-01,-4.398290604799426906e-01,-3.646696607098016685e-01,-2.275555344794355245e-03,-1.004106817695949588e-02,1.508174666604268459e-03,7.075595110654830933e-02
-4.326039301494312705e-01,-4.283660200182791700e-01,-4.049530934438473340e-01,4.423524638386429342e-02,3.934189338526260238e-02,5.978692286754389018e-02,1.479945927858352661e-01
-4.366579647978368062e-01,-3.981187555808218259e-01,-3.843267659472763276e-01,1.003130321908119599e-02,1.113825104198960109e-02,2.835753876621181779e-02,7.275668531656265259e-02
-4.036883240293880348e-01,-4.082031078230973775e-01,-4.001193301192532692e-01,1.497729042430002815e-02,1.768088283640025654e-02,1.618716394834115307e-02,4.945812001824378967e-02
-4.174913301809214938e-01,-4.101583468018368261e-01,-4.123559200016768123e-01,2.738066365616801962e-03,3.787279159310879325e-03,2.578988583465573973e-03,1.131203863769769669e-02
-4.031871765687852216e-01,-4.093031552491690483e-01,-4.197791211785809051e-01,-1.941831959163946167e-03,-1.642609822625266686e-03,5.320419963274620502e-03,1.776370033621788025e-02
-4.227897533022379473e-01,-4.030429574340411158e-01,-4.026382265092937618e-01,6.067233206254307905e-03,6.070989893556975533e-03,6.910030410881869492e-03,2.761054411530494690e-02
-4.620822734650741337e-01,-4.011316266026318522e-01,-4.068949894475747397e-01,-1.492476766716205674e-03,1.323895028369916071e-03,-3.949942627583823140e-02,8.994148671627044678e-02
-4.897097808553083076e-01,-3.844069772932907636e-01,-3.792552603744284156e-01,1.400029298431590234e-02,-4.511571205258515724e-03,-6.094189314894533915e-02,1.531291604042053223e-01
-4.449883978561505748e-01,-3.933588614223916258e-01,-3.952903508721837267e-01,1.940874923514727263e-02,-1.263928155105301099e-02,-3.747232188327734304e-02,9.160510450601577759e-02
-4.466173611357284190e-01,-3.735842898926968747e-01,-4.233863352782880063e-01,-5.124004034441321034e-03,2.862375419718813860e-03,-2.808951362471548072e-02,8.153088390827178955e-02
-3.240735053979834079e-01,-4.598494814974153910e-01,-3.910145097877763543e-01,-4.468909083707902491e-02,-1.063544255251481913e-01,3.920252374794819250e-02,2.415841072797775269e-01
-4.054860102180378734e-01,-4.020589378538440561e-01,-4.282430192895844145e-01,-6.057799301501045914e-04,-2.333411197473605689e-03,9.449423113507295340e-04,2.505454607307910919e-02
-4.500366330258265268e-01,-3.642917830563218162e-01,-4.240653179138253459e-01,1.103667411500185505e-02,-1.073200291844439783e-02,-2.456325471400223545e-02,9.121838957071304321e-02
-4.400988038684088832e-01,-3.876174081028461171e-01,-4.036867839362971999e-01,1.362195784207660340e-02,-6.881663201387995359e-03,-2.650071595873306624e-02,7.053217291831970215e-02
-4.050418007186936120e-01,-4.094176572054255558e-01,-4.140075781798502330e-01,-1.814984505599093580e-03,-1.994715089628632844e-03,3.139858180032192424e-03,1.056861504912376404e-02
-3.363515327708429536e-01,-5.733283881993497255e-01,-5.486984457347071631e-01,-1.232172256067726179e-01,-1.359444114181558028e-01,5.993144677951366128e-02,4.033526778221130371e-01
-4.502768098872718672e-01,-3.981336514615395616e-01,-4.222248210792501899e-01,1.925954745598884577e-02,-1.608159176026942999e-02,-3.965265597007611165e-02,9.299863874912261963e-02
-4.508385800323122528e-01,-3.265631381863638438e-01,-4.165158848433083150e-01,1.133150509438126535e-02,-5.535171985416362413e-03,-6.135411750149526167e-02,1.553289145231246948e-01
-4.982659690081149839e-01,-3.101261544103771084e-01,-4.532544496939305834e-01,4.907199238859252799e-02,-1.893797901556589988e-02,-8.755648273471546006e-02,2.454642653465270996e-01
-3.963118200634567212e-01,-3.788164244662107771e-01,-4.499240223430827634e-01,-2.836924484831726545e-02,-9.514199190483615953e-03,4.324069739807477261e-03,8.282764256000518799e-02
-4.101174210223570982e-01,-3.055685480188302661e-01,-4.911018074910949438e-01,-6.057820371159546025e-02,-2.646634532649804611e-03,-5.462968732804542212e-03,1.925498992204666138e-01
-4.302700494755893890e-01,-3.998954417105733405e-01,-4.105458205022291529e-01,-1.156208530987313946e-03,-5.017894511767262422e-03,1.502497401574563740e-03,2.826423570513725281e-02
-3.905797606898915308e-01,-4.037881126561910783e-01,-4.329880652859253165e-01,-1.664640558465904641e-02,-1.048665986564358867e-02,9.452824889940494857e-03,5.331104248762130737e-02
-3.785545700691959059e-01,-4.234541127029564644e-01,-4.905050630407268297e-01,-7.889164112889550384e-02,-2.484964228538847665e-03,5.833892271766506245e-03,1.682695895433425903e-01
-3.736649984022963333e-01,-2.721131755260575713e-01,-4.797839195354954844e-01,-1.284264251822453129e-01,-1.706609857305087241e-02,2.596880819403844451e-02,2.910798788070678711e-01
-3.942705247321897088e-01,-3.747241596529480856e-01,-4.306427144204191260e-01,-2.756519018099482660e-02,-7.235344948610228887e-03,8.035684555157473347e-03,7.103680074214935303e-02
-5.085815397265983639e-01,-4.039175926580032550e-01,-4.283947952772204637e-01,-3.910186996008796489e-02,2.976819973096437102e-02,-9.373552842528613815e-02,2.063883394002914429e-01
-3.937050948321135779e-01,-4.085772073618897937e-01,-4.363111313117680745e-01,2.366327626725466763e-03,-1.214355633445186790e-03,-2.006634599350948407e-03,3.789610043168067932e-02
-4.524296247170305763e-01,-4.304073233652311870e-01,-3.444092789177389258e-01,-2.226413257083606489e-02,1.747638800733942316e-02,-6.585416767143562056e-02,1.587078571319580078e-01
-4.341410672609642418e-01,-4.166236640678825376e-01,-3.742150906285929834e-01,3.701873515852134935e-03,-7.058783792989534178e-04,4.395027615944414531e-03,5.430275946855545044e-02
-4.068632138350217198e-01,-4.246903246546380184e-01,-3.986426469334732881e-01,-1.214104300664851747e-02,1.461227948996828875e-02,-1.140297619046745821e-02,4.477484896779060364e-02
-4.238939331803689425e-01,-4.430536530519848526e-01,-3.767363874794921186e-01,-7.258259755112463421e-03,1.925707535689803740e-02,-9.260707273464955508e-03,7.086810469627380371e-02
-3.955706723546174586e-01,-4.392537823480692216e-01,-4.096884323284641360e-01,-6.123281105237745117e-03,-1.712524260243683538e-02,7.887271937179951217e-03,5.166962742805480957e-02
-4.192320889562639596e-01,-3.905481639508349700e-01,-4.198752812638810727e-01,-2.255735985684426473e-02,1.670453325439866937e-02,-2.622096423729085302e-02,7.258012890815734863e-02
-4.668693423317585856e-01,-3.465990114293572844e-01,-4.225518189563567950e-01,-3.071109198346086769e-02,1.112079227007035237e-02,-5.450532221121564408e-02,1.523546278476715088e-01
-3.013087689085571785e-01,-4.546250039958205091e-01,-4.481821960997889320e-01,1.456485117902862891e-02,2.295003173175735357e-03,-4.418436218097817128e-03,1.525462716817855835e-01
-3.798620807449777370e-01,-4.286687252620847155e-01,-4.183810016828366507e-01,1.458693601623624889e-03,-5.533511170227182682e-03,-5.058391503301395108e-03,4.648463428020477295e-02
-4.038554866812165134e-01,-4.098394515799643756e-01,-4.200140872914995827e-01,8.723037103743539042e-04,-1.258844227265297142e-03,-3.557754870154009822e-03,1.565967313945293427e-02
-4.445811177478223297e-01,-3.728670169549551661e-01,-4.303357776184072447e-01,-1.650276247136275853e-02,1.445496146358928556e-02,-2.316395939216400052e-02,8.589422702789306641e-02
-4.382682882469464136e-01,-4.215029889223187443e-01,-3.806904774989668949e-01,-5.935348890316996355e-03,1.355797522938138183e-02,-2.035395538271142848e-02,6.731241941452026367e-02
-3.525524086504501775e-01,-4.442485709150924555e-01,-4.304403450420256072e-01,1.844289228145975026e-03,-5.641991268094048544e-03,-2.921940802103324339e-03,8.639447391033172607e-02
-4.367988480934492657e-01,-3.806202161933200934e-01,-4.289609431774469295e-01,-2.004375570672093862e-02,1.383653427355123651e-02,-3.362202341601169819e-02,8.915197849273681641e-02
-4.269576714463709788e-01,-4.128696932763259442e-01,-4.027573078738644896e-01,-5.504617756346653554e-03,4.258952946538071757e-03,-1.074187600631145920e-02,3.057248331606388092e-02
-4.162471797257314421e-01,-3.922301095879579536e-01,-4.202701170259073304e-01,-3.283776860245709445e-02,1.767438018393834367e-02,-3.495015800599968192e-02,9.233781695365905762e-02
-4.201495992625809972e-01,-3.945334212553471831e-01,-4.200007680032954438e-01,2.726532259052264276e-03,-5.637621295758983922e-03,-2.813648697768293423e-03,2.817442640662193298e-02
-3.969873366597305164e-01,-4.196439859119306948e-01,-4.201225787907286735e-01,2.476673029374508450e-03,-1.937685409965345931e-03,-5.356199343273759100e-03,2.530075795948505402e-02
-4.241993186037820163e-01,-4.153817579214845179e-01,-3.900985125697867817e-01,1.421805376401482322e-02,1.492337250016438112e-02,1.838371640796560014e-02,5.681893974542617798e-02
-4.192281323953897521e-01,-4.412352001615865160e-01,-3.778032043731213152e-01,-2.622241184204152781e-03,-5.851658912929847203e-03,1.805747699439753636e-03,5.696589499711990356e-02
-4.334602413394604281e-01,-3.991023191340312692e-01,-3.962021526788901959e-01,-2.151174402339091352e-04,-1.575789322402496593e-03,5.222081810482242896e-03,3.712034597992897034e-02
-4.445388030896080256e-01,-4.196334357822200101e-01,-3.464310054581285492e-01,5.407766588573652972e-03,7.444756400782470002e-03,3.381296278010679363e-02,1.071725785732269287e-01
-3.842918114988392864e-01,-4.191866716768214984e-01,-4.285007669564764310e-01,3.904239590758820655e-03,-2.336965428562916367e-03,-4.659040920903557981e-03,4.191242158412933350e-02
-3.797732001011375758e-01,-4.292723900178794794e-01,-4.171311553901182467e-01,1.705419202964216082e-03,-5.932823315462958103e-03,-4.836536090889008779e-03,4.670219495892524719e-02
-4.342530321738748977e-01,-4.067423320893340244e-01,-3.932634793397861706e-01,-7.294871282080513976e-04,-1.773643411295971117e-03,3.231125568442409519e-03,3.676526993513107300e-02
-4.300023344825167904e-01,-3.939963510197103114e-01,-3.989091773650237926e-01,3.980056825776508850e-03,5.677913386548700744e-03,1.206949779244628242e-02,4.153230786323547363e-02
-4.336215512739547417e-01,-4.017360398241260344e-01,-4.147831527493233139e-01,1.084200661939039786e-02,9.355563828538967369e-03,1.427879199575434084e-02,4.469650983810424805e-02
-3.761552367631489924e-01,-4.422415996613016653e-01,-4.199448485366940598e-01,2.554278559382934608e-03,-5.202810103219173213e-03,-3.646326642130056240e-03,5.942818522453308105e-02
-4.596384298465150953e-01,-3.936047865967017279e-01,-4.190641664045835491e-01,1.472777067987186307e-02,1.349822800731050737e-02,3.397048345655107743e-02,8.936864882707595825e-02
-4.347299148236690169e-01,-3.998090141217383042e-01,-3.952621819040040840e-01,2.368162093890263989e-04,-1.499810013553125711e-03,8.472411150174488301e-03,4.026393219828605652e-02
-4.327759832841571730e-01,-4.106372705996406691e-01,-3.828239567453098902e-01,-2.230063742441315468e-03,3.524108489055357597e-03,8.671386848260055624e-03,4.644577950239181519e-02
-4.118863438311717307e-01,-4.075637721428234106e-01,-4.137984806360050505e-01,-1.065210253490433100e-03,-2.911942975713338513e-03,1.209715037435827537e-03,7.989914156496524811e-03
-3.801782645586660458e-01,-4.285202733844238887e-01,-4.186446367452270056e-01,-2.017745740867322828e-03,-5.047284215176106939e-03,6.786022805324048827e-03,4.673178121447563171e-02
-4.347712187305758924e-01,-4.011111915591561439e-01,-4.034163851983693649e-01,-1.320333187317375239e-04,-2.405745191969311907e-03,7.520494889294098394e-03,3.532431274652481079e-02
-4.093391747726097263e-01,-4.122423804310151318e-01,-4.428211671016635820e-01,-2.662849608236174045e-02,-1.417306518876711337e-02,1.691012327862499720e-02,6.797044724225997925e-02
-4.027085601029594120e-01,-4.011729625273309785e-01,-4.120132772172614422e-01,-8.540039523940452793e-03,-6.223688629887215093e-03,7.615321714683731015e-03,2.474274113774299622e-02
-3.046727717891107856e-01,-4.775896850619782974e-01,-4.535638559843829798e-01,1.016239427719804831e-03,2.046283530075033649e-03,-6.766034780025869614e-04,1.622962057590484619e-01
-3.415589163609584200e-01,-4.541811185169946086e-01,-4.536592347622017130e-01,-7.410644320639519361e-04,-4.007775319911881370e-04,3.156367123843632598e-03,1.125045493245124817e-01
-3.080816651109271054e-01,-4.680454573667915952e-01,-4.682549343264392760e-01,-1.266560767413416229e-02,-1.474141358456445249e-02,1.941614067384534945e-02,1.669913381338119507e-01
-3.500815905711340825e-01,-4.517686786632066909e-01,-4.544033573578466489e-01,7.512783416405033159e-03,-4.007891919399486093e-04,2.732535451498047628e-03,1.039582937955856323e-01
-3.445723052692324373e-01,-4.579903834806160479e-01,-4.524519504197596631e-01,-3.711326312751317066e-03,-7.276369428236899480e-03,4.605532326586533496e-04,1.116555929183959961e-01
-4.078839421973014523e-01,-3.820091687845106887e-01,-4.390364287337308880e-01,-7.646152181595467640e-03,1.517882349806570991e-03,-7.218178431971754977e-05,5.126756429672241211e-02
-3.967560713278639462e-01,-4.185068910702328115e-01,-4.196238600400108432e-01,-2.188592860839100145e-03,-2.388172030478211139e-03,6.720831241978799872e-03,2.579979412257671356e-02
-3.538941119291011406e-01,-4.468983918416237766e-01,-4.330431662799878456e-01,-1.391047294871152308e-03,-2.577419915956078583e-02,-5.087368331908623080e-03,9.813024848699569702e-02
-3.444151554409332627e-01,-4.518341256990259236e-01,-4.420081663470383782e-01,-5.643308492847331180e-03,-1.003080668042437111e-02,2.475695341172628322e-03,1.048602387309074402e-01
-3.514625257511244660e-01,-4.519214189222616751e-01,-4.523454251961931960e-01,-3.062433807621420517e-03,-7.724003310962534487e-03,1.565398576012008020e-03,1.017311736941337585e-01
-3.949734410329990286e-01,-4.201782151848721947e-01,-4.198075163951864308e-01,-2.587130277259389911e-03,2.342870400746560004e-03,-5.159671130028369371e-03,2.724863588809967041e-02
-3.397720838072599836e-01,-4.486191860313437640e-01,-4.442028522991720019e-01,-2.045430947282150282e-03,-7.419668673528027978e-04,2.434542148911775748e-03,1.068572625517845154e-01
-3.067771060189687926e-01,-4.696578247022114572e-01,-4.985608466589208088e-01,1.812861124439313007e-02,8.738688381161350410e-03,-3.610997318959170178e-03,1.825579553842544556e-01
-3.944718262656801144e-01,-4.321480423094730128e-01,-3.919670558910183233e-01,2.721945368032102977e-03,1.343398670421680832e-02,3.676215030272726638e-03,4.609043151140213013e-02
-3.978698622501247728e-01,-4.400727062742385565e-01,-4.105593698161237870e-01,-7.917061958051606341e-03,1.501259075354911821e-02,-1.450331911548298665e-03,4.771848767995834351e-02
-3.787696316231199956e-01,-4.437868474596523560e-01,-4.272849379730154773e-01,-7.780916952848360678e-03,2.117370596218304951e-02,1.956493191071734944e-03,7.046085596084594727e-02
-3.746781945096371302e-01,-3.964135835563850629e-01,-4.305249845570824352e-01,2.634408861079828162e-02,9.770308906954693756e-03,8.488382025583593449e-03,7.044151425361633301e-02
-4.128710999193564435e-01,-4.056000314654888972e-01,-4.153646493030725417e-01,1.404431992546081604e-03,-3.666945678278191872e-03,-7.521836100730136098e-04,1.118798833340406418e-02
-3.729878878068789150e-01,-4.484781283723703327e-01,-4.269942990107421510e-01,2.200983605646593313e-03,2.819956303127173908e-02,-4.192503261680722432e-03,8.361472189426422119e-02
-4.004217914449464955e-01,-4.320325640128095945e-01,-4.121167055528677237e-01,-8.914563160157581989e-03,1.137424109047586659e-02,-9.072852733884792520e-03,4.049450531601905823e-02
-3.825041701517467030e-01,-4.877656352346787516e-01,-3.709699704728559588e-01,-1.254779566131584891e-03,5.710379311888820475e-02,-1.185748561557814842e-02,1.504532247781753540e-01
-3.925163077066098904e-01,-4.081707636049458632e-01,-4.451615277246523950e-01,-3.263305273491448610e-02,-4.206727229884861530e-03,1.282174875016257876e-02,7.702907919883728027e-02
-4.069381062468843124e-01,-4.101499432715527416e-01,-3.979419385234738704e-01,-1.236026536202338051e-02,-1.742783393615082721e-02,1.451367585724400167e-02,4.606080800294876099e-02
-4.143875924754060747e-01,-4.117567128307337843e-01,-4.207746347717462587e-01,-1.137743018081654837e-02,-1.797765202655115385e-02,1.755137864938582232e-02,4.844169318675994873e-02
-4.238477731873385723e-01,-4.489556055793418321e-01,-3.766737883482610405e-01,-1.304363904980352512e-02,-1.707441998855043636e-02,1.694745339898090855e-02,7.928991317749023438e-02
-4.021752257369477501e-01,-4.053853433222638913e-01,-4.272726358812523051e-01,1.505911802071087900e-03,7.435454236931568093e-04,8.227922353351339001e-04,2.387701906263828278e-02
-4.255162759597754252e-01,-4.089251657058786682e-01,-4.001428976307905283e-01,-2.193831835152195570e-02,-2.866145544022869959e-02,2.485314210798832482e-02,7.911664247512817383e-02
-6.099473877789763909e-01,-4.394967805058606070e-01,-3.650753764888641228e-01,6.528262431693790391e-02,5.484623368342243094e-02,2.218581797860436633e-01,4.655642509460449219e-01
-4.251973065366770332e-01,-3.986801639207915304e-01,-4.271521416406335314e-01,-4.674072630140730517e-02,-5.865900953109320914e-02,3.642130338199633249e-02,1.470206677913665771e-01
-3.975347019571634499e-01,-4.102778442845712581e-01,-4.291583750428702437e-01,2.458407753829955182e-03,-1.123500015656798707e-03,-4.640425919192538162e-03,2.908570319414138794e-02
-4.436608161414572482e-01,-4.534536850277614550e-01,-3.448658172847124392e-01,1.905516725911800616e-03,4.060997866804780081e-03,-2.980616977552277141e-03,1.044550538063049316e-01
-3.807519029266978605e-01,-4.335347102789758877e-01,-4.193744185087360798e-01,3.584008561013167851e-03,5.050349508884811878e-03,5.969534946319189975e-03,4.960925504565238953e-02
-3.519720782863917097e-01,-4.400946307726981699e-01,-4.302437020230733822e-01,2.534069234091974876e-03,-5.733998722526557380e-03,-1.437802477551472502e-03,8.437202870845794678e-02
-4.555187772696284720e-01,-4.485620761438899318e-01,-3.196862045211749104e-01,-2.105610794960943374e-04,9.255824910225713548e-03,1.327722161280047927e-02,1.354250162839889526e-01
-4.418749680057746931e-01,-4.442232114786319741e-01,-3.481789128656270771e-01,1.689170098473567879e-03,8.675298989580151887e-03,1.546994742362450045e-03,9.615616500377655029e-02
-4.175658291188560356e-01,-3.759192579655856736e-01,-4.352113970596608317e-01,6.021022751598876892e-03,1.055475788659776754e-03,6.811789138617548815e-04,5.379751324653625488e-02
-4.445510656742348576e-01,-4.492896023441854680e-01,-3.490952325638694842e-01,-3.435981070969399039e-04,2.871149453671678273e-03,1.022802055403046646e-02,9.962686896324157715e-02
-4.522943064931203017e-01,-4.531641930279470820e-01,-3.439423411698926958e-01,-4.916070530780571653e-04,1.262302531798024539e-03,7.705272193834285417e-03,1.096301898360252380e-01
-4.068030286617540514e-01,-4.168676593201349201e-01,-3.901045157809857056e-01,1.065625104695227220e-02,-1.535807449608690006e-02,-1.049467043405019964e-02,4.389640316367149353e-02
-3.746307853948813715e-01,-4.325633966121207874e-01,-4.311818501979790552e-01,3.344195190625542154e-03,-4.510145771674854351e-03,-4.492671533044202692e-03,5.859340354800224304e-02
-6.290152198576873799e-01,-2.472211937463467957e-01,-5.689004016584618961e-01,6.560668500581473550e-02,-4.395953030572308760e-03,-1.371593749781606641e-01,4.425356090068817139e-01
-4.087289842467715650e-01,-4.429550637524936052e-01,-3.946823486933445646e-01,3.952801535423357271e-02,-6.511202163871272763e-02,-2.445119395643453875e-02,1.450834125280380249e-01
-3.859249343558336376e-01,-4.386033004730263141e-01,-4.269054826625596211e-01,1.354280976703953546e-02,-1.715745051755971501e-02,-8.664845202620327647e-03,6.288261711597442627e-02
-4.360992537895492238e-01,-4.022087942721724874e-01,-4.023308191600035166e-01,5.524243116944427528e-04,-4.392829433008164594e-04,7.331620896502966979e-03,3.615515306591987610e-02
-3.843760696965101142e-01,-4.176804718759669632e-01,-4.361358250166260109e-01,-5.050684822951715183e-03,-1.755789311848800259e-03,2.824362465512448434e-03,4.662762582302093506e-02
-3.732792716008044853e-01,-4.517779362498076101e-01,-4.261573992447802994e-01,7.312296940797133153e-03,-2.424660348908181176e-02,-2.987122683361047477e-03,8.220794051885604858e-02
-3.410523228686982988e-01,-4.469404852735003875e-01,-4.708020433076648414e-01,2.818446477255615729e-02,-1.711600085983854685e-02,-8.350022150960510064e-03,1.333396732807159424e-01
-3.588048334239322679e-01,-4.447956950571702595e-01,-4.320579634001022740e-01,-1.447948248421130788e-03,-6.088749734364096514e-03,8.146501685199631628e-04,8.112242817878723145e-02
-4.091217273758053219e-01,-4.564525383425671601e-01,-4.116525586516489588e-01,9.724597070915892705e-03,-3.589382073268677226e-02,-1.252287830037290307e-02,8.213461190462112427e-02
-3.422273053340966209e-01,-4.455254450050047388e-01,-4.446927569215745057e-01,-3.618090794806383490e-03,-3.373182859497064843e-03,5.512590886354735422e-05,1.032404974102973938e-01
-4.422990603661600684e-01,-3.526097057414572244e-01,-4.158031845986790431e-01,-6.043665735237411379e-02,-3.857517655082002422e-02,5.203692604229767649e-02,1.729602217674255371e-01
-3.732724617358603725e-01,-4.309062739530463704e-01,-4.013537521698842259e-01,7.890739398822590317e-03,-2.773797689194429719e-02,-7.503516403321757941e-03,7.180298864841461182e-02
-3.628367871670335476e-01,-4.700260460500828019e-01,-4.308212301039561765e-01,2.219200755335253364e-02,-3.695429792571100491e-02,-2.487581398226295162e-02,1.274949163198471069e-01
-4.109131882816779435e-01,-4.104058690039830148e-01,-3.904171608054382570e-01,3.944726409985871429e-02,4.629465329870368490e-02,4.690411110491275737e-02,1.345651447772979736e-01
-2.343115358240114299e-01,-4.661150080375575655e-01,-4.563193678541463405e-01,3.845885994976976779e-02,2.453942174321270542e-02,8.117414579695083482e-03,2.408311069011688232e-01
-4.204494907681706195e-01,-4.056545821254610718e-01,-4.085765095061958951e-01,-1.201013574403540481e-03,-1.994560752381938692e-03,3.243865544743733918e-04,1.416951417922973633e-02
-4.098080145254105466e-01,-4.008898137530830796e-01,-4.201452189806317850e-01,-6.039330849235799610e-04,-3.538608995876197424e-03,1.485316969131740984e-03,1.799609139561653137e-02
-3.939458951976999579e-01,-4.077847078449718388e-01,-4.324597924427233675e-01,-2.642753204924490860e-03,-5.055463066283464669e-04,1.799682732202689686e-03,3.425320610404014587e-02
-4.030362414285920680e-01,-4.313079922821643208e-01,-3.990044591591885292e-01,4.455854803943340436e-02,8.070602111850731786e-02,3.499590479448185659e-02,1.734948158264160156e-01
-3.513580969653509745e-01,-4.233384255536439822e-01,-3.836908271951057214e-01,4.502846590404227523e-02,6.396107713435431052e-02,3.400037721825719533e-02,1.603841483592987061e-01
-3.980941985940565919e-01,-4.098749558228569345e-01,-4.285784138893570794e-01,-2.553034558057359904e-03,-1.054942820991081444e-03,3.336557380912969547e-03,2.766291797161102295e-02
-3.953973025968897104e-01,-4.203700871527124572e-01,-3.986976621867760473e-01,5.938590056542317371e-03,1.521340835984369595e-02,7.779480290206699025e-03,3.916398808360099792e-02
-3.934714900283084460e-01,-4.215420671226012272e-01,-4.115275218554876879e-01,7.358416791185330361e-03,1.325073523020756268e-02,8.133215220882995117e-03,3.866221383213996887e-02
-4.203337063137493890e-01,-4.050441195690844265e-01,-4.084357285577062679e-01,-1.487486181418386710e-03,-2.611497627506963008e-03,8.678809681082394261e-04,1.492566335946321487e-02
-4.029255421776809509e-01,-3.982576056258116948e-01,-4.290226235947274813e-01,3.281212968190630463e-02,1.312957699643838884e-02,2.144284300388735187e-02,7.714349031448364258e-02
-4.093124380900670101e-01,-4.116330190661822153e-01,-4.157405867427542701e-01,-5.567117152855054901e-03,-3.681706865313772760e-03,6.452416587445291077e-03,1.703917421400547028e-02
-4.060571568284218613e-01,-4.161873562716122965e-01,-4.069991978239122510e-01,3.938658418623704541e-03,4.442000241059005858e-03,3.104332537361943582e-03,1.511982642114162445e-02
-4.047312215278070502e-01,-4.359704004877805739e-01,-3.946761965978050068e-01,1.937121858005258490e-02,3.357293036295895539e-02,1.047396721535642262e-02,7.891368865966796875e-02
-3.936480809752709864e-01,-4.238605819180208956e-01,-4.103164759802415684e-01,9.957327003170864804e-03,1.279272737004739056e-02,9.368663660009844685e-03,4.169842973351478577e-02
-4.086785053950447444e-01,-4.487540968395404284e-01,-4.112814060720806353e-01,1.901159924597368989e-02,3.612483798988774808e-02,2.256806220431687229e-02,8.964263647794723511e-02
-4.078964949039063370e-01,-4.070070009403472522e-01,-4.083724312325838213e-01,4.359058761490999453e-03,3.994239404251264530e-03,4.444461573677742708e-03,1.286727655678987503e-02
-3.975593114352611313e-01,-4.127408111578591554e-01,-4.133319215650174683e-01,2.776187392313950696e-03,6.308391892117430275e-03,5.880766883221714460e-03,2.204678207635879517e-02
-4.059791419152049552e-01,-4.241838990252032038e-01,-4.009501691057791861e-01,9.983140053179895973e-03,1.401191907163980288e-02,8.595773324185766034e-03,3.947034105658531189e-02
-4.726990395090305275e-01,-4.951818645485116521e-01,-3.240869242825135665e-01,2.832196062534905398e-02,6.646515290166572776e-02,3.657058630065756349e-02,2.135502994060516357e-01
-4.584097751408443000e-01,-4.633206414116410876e-01,-3.190661780068346220e-01,1.181182693046683128e-02,5.321874593443677581e-02,8.214480452165669189e-03,1.710051149129867554e-01
-3.718467291060781332e-01,-4.666901920051313435e-01,-2.485067940299804934e-01,1.452168603766138336e-02,1.230661628373324462e-01,2.387891301473689040e-02,2.892837524414062500e-01
-4.842762375368833139e-01,-4.882943006802949459e-01,-1.409879211654181397e-01,-8.406653226990289454e-03,3.850009700937935542e-02,-4.085957818723433103e-03,3.520670831203460693e-01
-4.363008797638809888e-01,-4.764735076186940033e-01,-3.152784699191647499e-01,1.005080201453102326e-02,4.658475670392932255e-02,-1.548242184791418299e-02,1.692768186330795288e-01
-4.750228695659330369e-01,-4.964600764843692948e-01,-3.187954421120166026e-01,-5.265833934261227554e-03,2.855272821239441053e-02,-9.042687019864621006e-03,1.760395318269729614e-01
-4.132522069895289141e-01,-3.793209616179540333e-01,-4.410798936524060188e-01,2.661436260505622292e-02,-1.667415790339232817e-02,-8.159489733645013468e-03,7.764486223459243774e-02
-4.174044725352051288e-01,-3.726851703479683309e-01,-4.450554400361769747e-01,6.809086998353311437e-02,-1.308831527097325219e-02,-3.503091177573423171e-02,1.486789435148239136e-01
-4.010069111519854457e-01,-3.284938085153089049e-01,-4.309594009412257010e-01,5.188947542618023434e-02,-1.806174025883774265e-02,-2.134392539699590807e-02,1.369312703609466553e-01
-3.220745428471987193e-01,-4.540498134442763623e-01,-4.601218584184665339e-01,-3.683766974955925231e-03,-2.129641893771810901e-02,-2.255119386011094490e-03,1.402579098939895630e-01
-1.939434672339122590e-01,-5.212342868704378240e-01,-5.580346463056573558e-01,1.818119400315899165e-02,-9.316670911370543429e-02,2.542713701266895859e-02,3.866385519504547119e-01
-3.748697508579287296e-01,-4.186806874270832535e-01,-4.355780858263706978e-01,6.122842110276391185e-03,1.937671395886399260e-05,2.597008754638219577e-03,5.547894164919853210e-02
-1.925699355895869602e-01,-6.003787107635787379e-01,-4.752338986088904815e-01,-8.475308520374397192e-03,-1.104923532722068419e-01,-2.329103674050150841e-02,4.115855395793914795e-01
-1.751852672129201594e-01,-4.608918870666489642e-01,-4.165105781067408031e-01,6.434658097464447668e-02,-9.263915504735985296e-02,-2.178021733916494715e-02,3.324282765388488770e-01
-2.647924553870523168e-01,-4.788782211364319141e-01,-4.022463590932679467e-01,7.350398980890146192e-03,-1.369004989000063843e-01,-2.380649886793222494e-02,3.055927753448486328e-01
-3.781285021280152980e-01,-4.178456709360545140e-01,-4.353391750454073117e-01,5.613465784758558258e-03,-2.012961650209805012e-03,-6.977478612537565440e-04,5.183066800236701965e-02
-3.938650526005345598e-01,-4.088293525171469156e-01,-4.330281197587998454e-01,3.291198667298588735e-03,7.445490127916182992e-04,1.924558824313091568e-03,3.488408029079437256e-02
-3.620642844490858381e-01,-4.885440653260302302e-01,-4.252044935611910548e-01,5.617476112287551372e-04,-8.773177166347782829e-02,-4.447145013615334125e-03,1.874799430370330811e-01
-3.788365533064215751e-01,-4.032937088674452553e-01,-4.497516138973097766e-01,3.702503427361111821e-02,-3.151900169499847332e-04,1.187104744372778457e-02,9.180599451065063477e-02
-3.234576191508496401e-01,-5.043475248303025404e-01,-4.818244921712162565e-01,4.619887534317992234e-02,-1.603105781551925069e-01,-3.430473906248909799e-02,3.408609032630920410e-01
-3.043378649676521386e-01,-4.790016564373753005e-01,-4.107917647452023480e-01,5.846921312926811609e-02,-1.189655138264936046e-01,-1.401817498983854403e-02,2.766768634319305420e-01
-3.973189023830279165e-01,-4.086812399931837869e-01,-4.286522199114272125e-01,2.438211542827332587e-03,6.325718698213620306e-04,4.109440679727627277e-03,2.871510572731494904e-02
-3.634824901210738646e-01,-4.326780315827032375e-01,-4.396992703267166847e-01,5.794013667869093998e-03,-1.940667515496842998e-03,-7.468802586125604078e-04,7.373495399951934814e-02
-5.585684937057038280e-01,-3.557775729326989600e-01,-4.017737160964480747e-01,1.020322406828948897e-01,-3.300769433195167857e-02,-1.590604754434458978e-01,3.798857331275939941e-01
-4.786335061011578462e-01,-2.839520928039729331e-01,-3.789861077099202502e-01,4.675875614490134641e-02,-5.161866769214618761e-02,-1.289374996262555861e-01,3.047264218330383301e-01
-4.189914242219373586e-01,-3.941930839770079187e-01,-4.188157285582897460e-01,2.775349290263472851e-03,-6.446201789607343413e-03,-2.864143090094391567e-03,2.798231132328510284e-02
-5.478870362626779844e-01,-2.553236235779612895e-01,-6.273710365323620364e-01,1.640916222430783000e-01,-9.410362766742660923e-03,3.327936464355348012e-02,4.466895461082458496e-01
-4.459124058791534839e-01,-3.573458938336413482e-01,-4.478904238553266248e-01,3.886887748466802406e-02,-3.313129824208108174e-03,-5.971885834096008101e-03,1.126739308238029480e-01
-3.818917769689596509e-01,-4.269206286359347735e-01,-4.234302533794524481e-01,1.741195011274176280e-02,1.935436088497462584e-02,1.334551580643439719e-02,6.670998781919479370e-02
-4.403948514132284831e-01,-3.389160748367029963e-01,-4.626900843162127241e-01,8.664332808337357750e-02,-7.853760160617992425e-03,-3.905274662745689823e-02,2.008459717035293579e-01
-4.808950382274652657e-01,-3.515766431306370232e-01,-4.131874703085992029e-01,3.764764389587992727e-02,-4.459397079594396018e-02,-6.543601960970160669e-02,1.887200325727462769e-01
-4.688237759798016824e-01,-3.452484981831204225e-01,-4.302090294102374202e-01,6.671141006217991623e-03,-6.737978294166661886e-03,-3.758819561840685830e-02,1.284462958574295044e-01
-6.053014643263344707e-01,-2.366207601196035348e-01,-4.601852263659274578e-01,6.392057761763857149e-02,-5.583017082652497708e-03,-1.319322835175272546e-01,4.099414944648742676e-01
-3.363075494535877064e-01,-4.463420966875978335e-01,-3.965626049178501700e-01,-3.053548314131043773e-03,-5.243178537671932399e-02,4.212499670620093936e-03,1.320477873086929321e-01
-4.044244282670466650e-01,-4.441055321189230076e-01,-3.758904948704744342e-01,-5.956576043097763958e-03,-3.004907841484276421e-02,2.525740237280729304e-04,7.960218936204910278e-02
-3.347065316178507444e-01,-4.447039069767623198e-01,-4.425411072618762320e-01,9.926262029259845347e-04,-3.679969105106997707e-03,-1.727499354079249606e-03,1.091729477047920227e-01
-3.768637071351599865e-01,-4.427363784914602474e-01,-4.014178156457881008e-01,1.844253161003068207e-03,-3.104939927049515241e-02,6.170275335268451261e-03,7.963218539953231812e-02
-4.037612283634503529e-01,-4.322497550944592870e-01,-3.986292629235558826e-01,7.741659147888010559e-03,-1.131410641170657420e-02,-6.936987963127787954e-03,4.113791137933731079e-02
-2.025207128611924701e-01,-4.314365813202536981e-01,-5.691505587553298273e-01,-1.781986892199696471e-01,2.324763671500199025e-02,4.528519700686599314e-02,4.537956118583679199e-01
-4.215767479574349941e-01,-4.359812212306989343e-01,-3.666014018908121397e-01,-6.305864751432716832e-03,1.262880025170881257e-02,-7.744479056614781733e-03,6.927734613418579102e-02
-4.105151655890942886e-01,-4.229990005257510677e-01,-4.159026245488312568e-01,1.348788330756428393e-02,-1.529229490144963337e-02,-9.614011028338507320e-03,4.052449017763137817e-02
-3.456974503692401557e-01,-4.438591041751807076e-01,-4.468771866145677674e-01,-3.702013837933817476e-03,2.347661879656611026e-03,-1.466203957079009485e-03,1.000258848071098328e-01
-3.802520692397398649e-01,-4.671943885132469609e-01,-3.943568377403317560e-01,-1.017770350215761385e-02,-6.999451571194559296e-02,-1.113979847931741499e-02,1.480282098054885864e-01
-3.883205544490316852e-01,-4.301769715574824127e-01,-3.924842373471738588e-01,-2.907922533399784695e-03,-1.650915138654056660e-02,1.603550180133507096e-03,4.945459961891174316e-02
-3.674557161261514104e-01,-4.337502122170043273e-01,-4.318278392521954778e-01,-4.802830605890046588e-03,4.311994776211712510e-03,-4.960278343519163025e-03,6.685811281204223633e-02
-3.842753627407253791e-01,-4.311716114548480028e-01,-3.875203751432714228e-01,4.959442091860047017e-03,-2.062534952552678644e-02,-3.658610154152492494e-03,5.871770530939102173e-02
-3.773284903872111684e-01,-4.324739283660206657e-01,-4.123655417611438723e-01,3.503158925405146229e-02,-4.165823956380126925e-02,-2.115096478137734604e-02,1.121001094579696655e-01
-4.198068297376570945e-01,-4.559229908513461882e-01,-3.726691530567607380e-01,4.614992879745724239e-03,-2.823903868434328793e-02,-3.733607970978718334e-03,8.790229260921478271e-02
-3.723550213893912497e-01,-4.172645803686714783e-01,-4.350507720425209057e-01,-5.133448475589894380e-03,-1.433795510652443369e-04,-9.986331500309885735e-04,5.669301003217697144e-02
-4.015402504134425454e-01,-4.016016464553865961e-01,-4.307165268575955941e-01,-6.695617561599938490e-03,-2.127586541839037067e-03,1.723041011009578474e-03,3.172456473112106323e-02
-4.837517198286598874e-01,-4.818777755257809270e-01,-4.866953981929106887e-01,-1.500019684807776532e-01,-1.344868866878925484e-01,1.331551067556083212e-01,4.182947278022766113e-01
-4.002734323276077033e-01,-4.021893560235705323e-01,-4.266634416353267678e-01,-3.822325036977559584e-04,9.921409161597544765e-04,-6.371844511631267723e-04,2.557638473808765411e-02
-4.038376387877574691e-01,-3.978828447493952813e-01,-3.944027183282499127e-01,-2.138684764020865742e-02,-2.198963837512689021e-02,2.474649257236397754e-02,6.876252591609954834e-02
-4.428746711754526499e-01,-4.194636267398842988e-01,-3.848713039934267277e-01,-2.871813377882863859e-03,-8.457554997582282996e-04,4.066523534875925508e-03,5.129372328519821167e-02
-4.057759341350377080e-01,-4.521402190336947791e-01,-3.909546917707136804e-01,2.533026605545954054e-05,-4.318198579425607669e-02,-3.198035866462666053e-03,9.317310899496078491e-02
-4.029925083471892489e-01,-4.018956471984543311e-01,-4.277736053253932136e-01,-1.532182635028712762e-03,1.270460505645538410e-03,-1.033096822892892556e-03,2.564320899546146393e-02
-3.995786676226401046e-01,-4.014804064437754172e-01,-4.309494251899062545e-01,-8.939399609583493058e-04,8.027667256927615300e-04,1.808948680311780435e-04,3.053704090416431427e-02
-4.340756568518456815e-01,-4.106791844665777513e-01,-3.932922498995081173e-01,-5.036908536194397573e-03,-2.118770689315479551e-03,1.304376547553246293e-02,4.308702424168586731e-02
-4.314234765755147194e-01,-4.003958864097504344e-01,-3.961701269335424769e-01,-9.949528648471915940e-04,2.533064787353907568e-04,3.532722003112346611e-03,3.394534066319465637e-02
-3.838969575299704950e-01,-4.328194307659466999e-01,-3.979921285040748380e-01,-1.240798718064739688e-02,-4.079028304200552069e-02,9.016063546357935832e-03,8.717680722475051880e-02
-4.098556027190409790e-01,-4.286295121283917875e-01,-3.948252790243718113e-01,-4.876761411456570494e-03,-3.372059334132406373e-03,1.567799397440612034e-03,3.119908645749092102e-02
-3.654774673086663705e-01,-4.170658023041641793e-01,-4.318231255628702248e-01,1.286522007312762214e-02,6.533720858953537443e-03,6.400491472671931449e-03,6.624159961938858032e-02
-4.240904277351338902e-01,-4.037297274009097880e-01,-3.763978951473518353e-01,-1.043866636965005631e-02,-1.577614532307373280e-02,2.630833787406870392e-02,6.977123767137527466e-02
-3.886622051945652911e-01,-4.354225622199432988e-01,-4.096882581522556799e-01,-2.096015069806848874e-02,-1.830407630088930551e-02,1.776703988662863345e-02,7.011094689369201660e-02
-3.961830073322230028e-01,-4.067980793836667441e-01,-4.273652346911924749e-01,-1.998800400893800157e-03,1.808208617313758438e-03,-3.287459925498806453e-03,2.842931821942329407e-02
-3.874743012968437927e-01,-4.311566113793512400e-01,-4.278296343603441021e-01,-1.363743696681334570e-02,2.212552488503735648e-02,-1.679850580526604659e-02,6.816896796226501465e-02
-4.148214738649922406e-01,-4.025808766245461690e-01,-4.086024270850896478e-01,-6.402717535394783673e-03,-5.987510788894510189e-03,6.537613839091912550e-03,2.170576713979244232e-02
-4.684880142660783342e-01,-3.896179792302568723e-01,-4.112876573733618146e-01,-1.820472912367756060e-02,-1.605154864408057588e-02,4.941200592951248277e-02,1.186288371682167053e-01
-4.115272823986548256e-01,-4.137095793452323922e-01,-4.061671414903387789e-01,-3.100536279483844578e-03,6.420869972160198752e-04,-1.403909874386791547e-03,9.010029956698417664e-03
-3.927922747721190322e-01,-4.148786334016449917e-01,-4.723112146432203451e-01,-6.988154768796975280e-02,-2.894841515443981675e-02,3.254274507245495662e-02,1.593618541955947876e-01
-4.075922244508510262e-01,-4.239271637897852330e-01,-4.150283526857286298e-01,-6.444241364032612072e-03,-1.058820920461805287e-02,8.400795670639395543e-03,2.955153025686740875e-02
-3.998924536494100068e-01,-4.020467182013394147e-01,-4.329044175512957726e-01,1.386064228372082532e-03,3.664364734343080192e-04,1.589310463295016095e-04,3.208670020103454590e-02
-4.112348007175264941e-01,-3.956390850979388252e-01,-4.344440095310698191e-01,-1.440540908881215131e-02,-4.644002464326516845e-03,6.397758147910829335e-03,4.420293495059013367e-02
-4.106306280606811243e-01,-4.220039333962919414e-01,-4.321862685805513693e-01,-2.570909098959994754e-02,-2.220386932995993545e-02,2.063142056893807127e-02,7.132820785045623779e-02
-3.851137577143589064e-01,-4.099156289649359963e-01,-4.046644335748310617e-01,-1.771594933338497407e-02,-1.889980636702026998e-02,1.424461750690739735e-02,5.598543211817741394e-02
-4.830429944399442510e-01,-3.822625603191455168e-01,-4.556197897087909121e-01,3.484113028132461432e-02,2.545995703330515211e-02,7.394880159249377083e-02,1.735990345478057861e-01
-4.675926865523753473e-01,-4.164917195966336694e-01,-3.880135054308365694e-01,3.842535178891449271e-02,4.894026268274805774e-02,8.937373237524962044e-02,2.011356353759765625e-01
-4.309028772969982768e-01,-4.086338472657384258e-01,-3.716949935353666690e-01,2.825483367076973146e-02,3.067863096924898156e-02,5.012804764153377945e-02,1.242577433586120605e-01
-4.278323846940833008e-01,-4.081224796517664566e-01,-3.890617905910307428e-01,4.375372751841482936e-03,1.609839942011056678e-03,2.267235416222197590e-03,3.475776314735412598e-02
-4.250787499204392583e-01,-4.090840985662789198e-01,-3.956012531808320576e-01,1.340779694728733498e-02,1.034593658358082605e-02,1.656653251492665874e-02,4.834295809268951416e-02
-3.842864424233722320e-01,-4.046063426847331668e-01,-4.181249725106694348e-01,1.782702843398278891e-02,1.223645639008069316e-02,1.258751755694143513e-02,5.242410674691200256e-02
-4.360466202151630499e-01,-4.261210520770575272e-01,-3.712300788903243887e-01,2.325420332313776067e-02,2.283450422539876068e-02,3.809657503152227842e-02,1.058155223727226257e-01
-4.386306960296164070e-01,-4.322000842140020227e-01,-3.524651093426524051e-01,2.424535971172868539e-04,-4.518952335565186440e-03,4.291509307711115911e-03,8.383587747812271118e-02
-3.945844797029497419e-01,-4.188606307827263397e-01,-4.195043044445138647e-01,3.083098450377495976e-03,3.133114713072551738e-03,6.048369941212107005e-03,2.780442126095294952e-02
-4.092410368468581416e-01,-4.108134983504582172e-01,-4.151248715699739078e-01,7.189827431630660881e-04,7.440134554518804946e-04,4.099309511882878840e-04,5.617441609501838684e-03
-4.332789738030565219e-01,-3.973064876774433651e-01,-4.029141915426828757e-01,-2.321783448741399514e-03,8.737969275098157306e-04,6.379271184769666307e-03,3.555686771869659424e-02
-4.060749788272295935e-01,-4.197560480021772511e-01,-4.050102207333992621e-01,1.061815398178918898e-03,1.212155515622749926e-03,2.304370137712649473e-03,1.505300868302583694e-02
-3.645765613278157402e-01,-4.204586791708237459e-01,-4.496484138399047259e-01,1.299639560893789056e-02,7.489386210728614249e-04,5.088843503568210580e-03,7.869006693363189697e-02
-4.538416807158585642e-01,-3.731722047273943743e-01,-4.382218377165271739e-01,2.593404775347246324e-02,1.074231152673322913e-02,7.870404204533401615e-02,1.625988781452178955e-01
-4.292588570249554203e-01,-3.730241725470241354e-01,-4.278928643857032310e-01,2.302565439500702665e-02,1.909430508619154240e-02,3.619468350699608927e-02,9.849809110164642334e-02
-3.870746857083812720e-01,-3.987815763315766815e-01,-4.120500634392402772e-01,5.198972189544298628e-02,-4.227161690745920991e-02,-3.530148765576748143e-02,1.329529434442520142e-01
-4.500825169536370463e-01,-2.974497397725031633e-01,-4.483014815086002192e-01,-5.612078460873186347e-03,6.691020465918189226e-04,-5.912216247065182201e-03,1.524099260568618774e-01
-4.121181786156067339e-01,-4.709550343488310697e-01,-3.462883956959357246e-01,4.232644138051665922e-02,-8.303006466065082636e-02,-3.669542319401028485e-02,2.043643146753311157e-01
-4.448678659432690474e-01,-4.438789463811137481e-01,-3.602190497823481996e-01,7.613861336733563322e-03,-3.768057672001638714e-02,-5.618382913851339283e-02,1.448652744293212891e-01
-4.423171627046635357e-01,-4.344205983163483831e-01,-3.777468550074814524e-01,1.256530939667774120e-02,-1.931541285741601027e-02,-2.511617168571987288e-02,8.489511162042617798e-02
-3.607326016426068982e-01,-4.001048870302027494e-01,-4.079230785587597552e-01,4.923887161154238273e-02,-4.523360363369440668e-02,-3.345776980832478043e-02,1.367078125476837158e-01
-4.456261581645432623e-01,-3.857863284120386371e-01,-4.345279621211919352e-01,-1.394897958325684584e-02,1.274077868705783198e-02,-2.381753172653283679e-02,7.623903453350067139e-02
-4.301593806472182591e-01,-3.645788462633576255e-01,-4.250653769324438391e-01,-9.134363390084890982e-03,1.170279812354270421e-02,-1.135431984221393041e-02,7.099736481904983521e-02
-4.404414591288151604e-01,-3.676600371871803219e-01,-4.430171462274085092e-01,-8.099638613959809358e-03,2.466816511283117554e-03,-1.060094147885396951e-02,7.773955911397933960e-02
-4.337732742360755345e-01,-3.316955039883344725e-01,-4.405687932721862876e-01,-1.867556341037826528e-02,1.953521615270877379e-03,-7.748314201355299691e-03,1.113445535302162170e-01
-4.250049537226914254e-01,-3.694758064465970548e-01,-4.394055366344115643e-01,-1.096410369721941870e-02,5.025619342245565488e-03,-7.346185678066972230e-03,6.847495585680007935e-02
-4.273316868134161561e-01,-3.676935881789302196e-01,-4.451385946696543305e-01,-2.217314252400251484e-02,4.922223630130051313e-04,-1.344645143815957622e-02,8.338975906372070312e-02
-4.354901093385955546e-01,-4.183818335488928009e-01,-3.781016935418262670e-01,-1.608982005892545903e-03,7.800106065887850958e-04,-5.472085181343536338e-03,5.199739709496498108e-02
-4.317495039884520214e-01,-3.625348719467219594e-01,-4.440140088733517398e-01,6.092985076220794848e-03,2.206089849277792243e-03,2.012326379830585432e-03,7.699408382177352905e-02
-3.377058064375949020e-01,-4.300390578198024505e-01,-4.407808668226055326e-01,-1.288725051312845579e-02,-7.334138689117078100e-04,2.514440088540449009e-03,1.007544845342636108e-01
-3.719478124068990033e-01,-4.310540387560898301e-01,-4.313496605696575115e-01,4.294156158834962905e-03,-3.555654408091085770e-03,-5.624765346935572605e-03,6.082160770893096924e-02
-4.407533190861507300e-01,-4.195675136769931868e-01,-3.817716858212122921e-01,-2.685211741640887873e-03,2.892746068686163387e-03,-6.415806318739403387e-03,5.336965993046760559e-02
-3.593912062041729194e-01,-4.392730295283240882e-01,-4.330372713851747823e-01,-1.410138071884855723e-03,5.400778725760916818e-03,-7.357015923427612757e-04,7.756907492876052856e-02
-4.423684562825633826e-01,-3.964952547076355249e-01,-3.838903845813113058e-01,7.833289357465696157e-03,-1.313757032410471821e-02,-2.826104215039655990e-02,7.706741988658905029e-02
-4.301708332431848358e-01,-3.931577454838546815e-01,-3.984534140175997052e-01,3.802432669194421352e-03,-5.264411405413548309e-03,-1.212264566199273974e-02,4.206420108675956726e-02
-3.875056379262624695e-01,-4.298694026705441873e-01,-4.194842271782447396e-01,2.398955734725866876e-03,-3.501088180642054990e-03,-5.709551129633106542e-03,4.017984494566917419e-02
-4.827489552130153072e-01,-6.175643562621002669e-01,-3.670694503772022887e-01,-8.467832869535678320e-02,-2.006495854355124231e-01,1.178666297273186225e-01,4.807514548301696777e-01
-4.419816589121364214e-01,-3.973997327110722066e-01,-4.101422538956721042e-01,-7.838751161077142215e-04,8.080981527327103092e-04,-1.541394178924706225e-02,4.794168472290039062e-02
-4.559912089775188804e-01,-3.995407367380159336e-01,-3.718250070000461704e-01,-5.648295392246805574e-03,7.961927329150728094e-03,-2.730069665503896681e-02,8.967304229736328125e-02
-3.550961828476821847e-01,-4.328942195926930858e-01,-4.361526125889177430e-01,3.998239818921632549e-03,6.635528223091038610e-03,4.169895130959434121e-03,8.092503249645233154e-02
-4.444461330934901810e-01,-3.994114134173074038e-01,-4.079725688106162207e-01,1.962711344979562941e-03,-1.636334241771137321e-03,-3.758905153291842299e-02,7.729340344667434692e-02
-4.511616333295860315e-01,-3.655029665577774756e-01,-3.726859993559332729e-01,-5.089317492695223481e-03,5.061044916696138055e-03,-6.350957603743480340e-02,1.379444003105163574e-01
-4.391958378983244482e-01,-3.467204534742493460e-01,-4.309372723250419202e-01,-1.409758312980998645e-03,3.415024601255432172e-03,-6.127668470163836860e-03,8.949737995862960815e-02
-4.430557018095532262e-01,-4.264797602232944795e-01,-3.873814531078968448e-01,-5.136004885745621383e-03,4.946358036135906425e-03,-2.621206808010453915e-02,6.830287724733352661e-02
-4.072850071677010519e-01,-3.959869614174694186e-01,-4.275761285419469315e-01,-2.673371943422989810e-03,-3.077248636998827259e-03,1.544743619583809069e-03,2.873383462429046631e-02
-3.354205073784157221e-01,-4.413179408990622332e-01,-4.354949374144890806e-01,1.392517863968351956e-02,2.090186284521594606e-02,4.266714617669232178e-03,1.121541038155555725e-01
-4.208840324851217951e-01,-3.146519539022389345e-01,-4.396904474396935991e-01,-5.122711428028109415e-02,1.993907954502963271e-03,-2.848976972398879065e-02,1.547784209251403809e-01
-4.108626703099115263e-01,-3.992060348067962283e-01,-4.285860337231230943e-01,-2.170602896153577769e-03,3.078315199372431629e-03,-1.311447831407025347e-03,2.653887495398521423e-02
-4.240574671751583535e-01,-3.559193041255494516e-01,-4.195820612994017873e-01,-3.137818876553194469e-02,2.142196128424150858e-02,-3.693748271802525796e-02,1.130552887916564941e-01
-4.054699408556940998e-01,-4.079290639295816145e-01,-3.934874694796057781e-01,-1.415625128638919698e-02,1.463351962360498297e-02,-1.478692487679749389e-02,4.559244215488433838e-02
-4.316001837760198856e-01,-3.717650200258429960e-01,-3.932041257818451041e-01,-2.838525779802301974e-02,2.581294353676373901e-02,-5.134326316915153315e-02,1.228069812059402466e-01
-2.999456717650383353e-01,-5.736109430740337078e-01,-3.633652999819573237e-01,-4.077954488230212116e-02,1.318409782118679097e-01,-7.243845385715212692e-02,3.666551709175109863e-01
-4.498298853422850185e-01,-3.789371088859703196e-01,-4.642544735896382835e-01,-6.105481824755275289e-02,2.609772616751428881e-02,-4.478556783143937403e-02,1.596873253583908081e-01
-4.082810916521963929e-01,-3.873873173762997224e-01,-4.195455240585566625e-01,-1.780764370934260002e-02,1.277029811970208963e-02,-1.544270756624564235e-02,5.435810238122940063e-02
-4.345198622560514368e-01,-3.780156363586839596e-01,-4.266008199712831850e-01,-9.582419902856289737e-03,7.264938339254740050e-03,-2.587749913192305060e-02,7.246185839176177979e-02
-4.263683077036717339e-01,-3.995283287358625257e-01,-4.135572834822005550e-01,-6.035371478661111060e-03,6.624796494816720220e-03,-1.247825857076596129e-02,3.533724695444107056e-02
-4.355531437892343760e-01,-3.967913659505486468e-01,-3.935999515263791104e-01,-4.165849999689156223e-03,3.496275197990590146e-03,-1.160315153049711924e-02,4.614108428359031677e-02
-4.029546656371092994e-01,-4.440315505584895850e-01,-4.083197735752676638e-01,-9.535081314158453530e-03,3.084025178705591605e-02,6.761599536469567202e-04,6.799412518739700317e-02
-2.515829505472997329e-01,-5.734007735149818652e-01,-6.055664494057099168e-01,-1.320432407878200376e-01,-6.660878158105629221e-02,2.755451464005017129e-02,4.276061654090881348e-01
-4.091251815914824785e-01,-3.975121082095876557e-01,-4.188302988218577938e-01,-2.259632056923054078e-03,5.314815246252496336e-03,-1.475488249535234983e-03,2.117427252233028412e-02
-4.072494323587061427e-01,-4.369909124234965803e-01,-4.025004114088758245e-01,-4.341712165692224873e-03,1.270486086128115588e-02,-6.151567938135768000e-03,4.126340895891189575e-02
-3.743036074420028614e-01,-4.293692194565473241e-01,-4.000466246414902116e-01,-1.038814079631039319e-02,2.454560151540780347e-02,-7.992260887077023979e-03,6.782475858926773071e-02
-3.996474978822210922e-01,-4.297150530452098494e-01,-3.784708153740439784e-01,-6.557188687125023799e-03,2.157583246481661887e-02,-1.370880122809321235e-02,6.386371701955795288e-02
-4.019125897586565688e-01,-4.028690540457249836e-01,-4.340114238971850003e-01,6.935813022134264781e-03,5.226307589216176632e-04,-7.560436676608520319e-04,3.387328237295150757e-02
-3.514293420688286984e-01,-4.294586476093655292e-01,-4.277546886794416081e-01,-3.667892700328338751e-02,3.983097819089775199e-02,-1.592587478368648682e-02,1.245590969920158386e-01
-4.037581093970313839e-01,-4.304096950514836317e-01,-3.904895887135619303e-01,-9.953483529229064167e-03,2.084375786648188372e-02,-1.430927386159616850e-02,5.877802148461341858e-02
-4.113081761299187677e-01,-4.249002888805582523e-01,-4.016544523044783821e-01,-7.276708100380696598e-03,1.188019111040175893e-02,-6.472091424635490094e-03,3.342284634709358215e-02
-5.444460219978388693e-01,-2.463367730072109907e-01,-6.492298507740452695e-01,1.751537741910118851e-01,-1.998627541899865301e-02,-8.326463741670562732e-03,4.738445878028869629e-01
-3.955684782946742306e-01,-4.238135027582289327e-01,-4.119242850266021660e-01,-1.019136455587689796e-02,1.291345194929827481e-02,-1.022625667927936320e-02,4.158023744821548462e-02
-4.031002927399268132e-01,-4.206066730256827202e-01,-4.061436907315410516e-01,-1.753518645895425819e-03,1.989651878146046163e-03,-3.638168084516087055e-03,1.797960512340068817e-02
-3.980840416972125650e-01,-4.152571953815185068e-01,-4.227066828337568971e-01,-1.295654713104332431e-02,1.036923859632061552e-02,-9.926501790292096422e-03,4.000161588191986084e-02
-3.924151178121349504e-01,-4.083501453112317048e-01,-4.329720203887102992e-01,-2.905681027844852962e-03,4.982736895823045931e-04,-1.767074134193765463e-03,3.588806837797164917e-02
-4.126876739226599811e-01,-4.117583387836457054e-01,-3.942847036443720143e-01,-1.168621145321906141e-02,1.115197679613289666e-02,-1.353988384034235902e-02,4.068437218666076660e-02
-4.086840088289041550e-01,-3.933056659207849748e-01,-4.365293943326167270e-01,2.738498001990396363e-03,2.090461665794976932e-03,1.569580977851770583e-03,3.851069509983062744e-02
-4.053454154752387795e-01,-4.036986511800417232e-01,-4.261034950399034127e-01,-6.765931571920264821e-03,3.325122688657919118e-03,-2.857751030157770333e-03,2.574483305215835571e-02
-4.076705122028242978e-01,-4.131323385774556267e-01,-4.114823091328639881e-01,-6.128339922903173163e-03,3.887342426908416831e-03,-7.393502505233784210e-03,1.858863979578018188e-02
-3.795321822757140584e-01,-4.330577623251772867e-01,-4.340075475521801840e-01,3.983630077253996760e-03,4.954728471658240499e-03,3.658126525239657149e-03,5.548088997602462769e-02
-4.073932021809305581e-01,-3.925697043750007165e-01,-4.327688944208207822e-01,2.867345043859858764e-03,3.384051123715283793e-04,8.244053911460111480e-04,3.559305891394615173e-02
-4.090474839390809692e-01,-4.148353894887887860e-01,-4.163844059423620347e-01,-6.672430746667705991e-03,5.141444594130584363e-03,-5.819615427283701681e-03,1.895616017282009125e-02
-4.424855679803034181e-01,-3.801157162340522699e-01,-4.177765700899447876e-01,1.003754751747739293e-03,-1.471025845399022208e-03,5.719275270633176686e-03,5.538123473525047302e-02
-4.462322890345380988e-01,-4.378393056446051035e-01,-3.053803276317680893e-01,3.031593011875777666e-03,8.574333545801150758e-03,2.479328978488187785e-02,1.442906856536865234e-01
-4.048230166701206612e-01,-3.922292038184458374e-01,-4.186020370414031966e-01,1.480964132498790997e-02,1.413538299865387329e-02,1.484163719408212491e-02,4.939860478043556213e-02
-3.790897353469379061e-01,-4.318468408260472402e-01,-4.320241294701116508e-01,4.222525584711627616e-03,5.456204855038699654e-03,4.754547634273584636e-03,5.480249598622322083e-02
-4.159049261680517473e-01,-4.033584764011579060e-01,-4.204282374569561775e-01,-8.153565533916233912e-03,6.313004779659985542e-03,-5.334332843937699895e-03,2.527834102511405945e-02
-3.908464818219293258e-01,-4.081713329361396636e-01,-4.217154825025236087e-01,5.159381248355607991e-03,-2.594256945038486348e-03,-5.056438419941302991e-03,2.991647832095623016e-02
-4.078327690608473666e-01,-4.142602553221358397e-01,-4.145716266728486921e-01,3.439835702847298836e-04,8.975734463695900873e-04,2.310135826599753542e-03,7.886249572038650513e-03
-4.299834815234661600e-01,-3.770514109612558840e-01,-4.366992871742338966e-01,4.919090504509082695e-02,-3.424641549432238391e-02,-2.767073543018698512e-02,1.275816708803176880e-01
-4.046266680929401227e-01,-3.947111251491506878e-01,-4.281922599490874948e-01,1.765492323855283666e-02,-1.347987849745880574e-02,-1.284240835590409399e-02,5.350059270858764648e-02
-4.311706841609771468e-01,-3.904128287645255435e-01,-4.298831451296796780e-01,2.049606682580375899e-02,-1.477403159045922836e-02,-2.612422565673579861e-02,7.465180009603500366e-02
-4.148237845645287303e-01,-4.012787155895187197e-01,-4.117269300296551582e-01,1.668000641277576912e-02,-1.146385061184083433e-02,-1.623148761574846888e-02,4.658780246973037720e-02
-4.512395654118896426e-01,-4.208599843344940639e-01,-3.850625456809272373e-01,7.762663944467549683e-03,-6.197366816681186379e-03,-3.530084151408335869e-02,8.559400588274002075e-02
-4.083238030173484967e-01,-4.204679766713479427e-01,-4.086609574463276329e-01,-1.931349619240519712e-03,-8.128123800224310088e-07,1.609220680336947550e-03,1.274595130234956741e-02
-4.065846577178615640e-01,-4.013643791694677665e-01,-4.180371954475485818e-01,-6.830955590947835471e-03,4.174475870928846810e-03,-5.681148832977246654e-03,2.252306230366230011e-02
-3.959913472109535815e-01,-4.106147035449802529e-01,-4.104173809942290863e-01,-1.008599301331246367e-02,1.157213124359004856e-02,-8.187570562418238634e-03,3.345189616084098816e-02
-4.016161358351464372e-01,-4.267151102493321746e-01,-4.024222968047991289e-01,8.536187348016397803e-04,9.271538123250045761e-04,1.997555126976199771e-03,2.504216693341732025e-02
-4.348088859353686497e-01,-4.178176620891069781e-01,-3.780830326408413100e-01,1.231759153447138698e-04,-3.888552283482465781e-03,3.912244979718633095e-03,5.132258310914039612e-02
-4.219202991144951898e-01,-3.838551373543122036e-01,-4.210499433875890540e-01,-5.257620277905741997e-03,1.011439860554118157e-02,-7.290590726831842547e-03,4.433816298842430115e-02
-4.299619579960776150e-01,-4.016044122153693552e-01,-4.034127457965354102e-01,2.181487057468386949e-04,-8.663109756158201375e-04,9.605808909188154419e-04,2.759171836078166962e-02
-4.206148689560358922e-01,-3.914710493495356380e-01,-4.066318160984708219e-01,-5.647251540646065944e-03,8.461092207954313410e-03,-6.227189770456102724e-03,3.262126073241233826e-02
-3.943883862043675026e-01,-4.217517336980717846e-01,-4.113353385985199506e-01,-1.979707734529796703e-02,3.176935639909632403e-02,-1.961159790857077562e-02,7.700467109680175781e-02
-3.816310971004238106e-01,-4.179904135812644306e-01,-4.358507723746814499e-01,4.291542490438244456e-03,2.571273464701721335e-03,4.117946611282483765e-03,4.915629699826240540e-02
-3.930777785248552592e-01,-4.322748005668166082e-01,-4.000685959916156498e-01,-6.295123896255880184e-04,5.518729131291017984e-03,-7.046053408955320384e-04,3.748741373419761658e-02
-4.209778789583869529e-01,-4.013213574613025969e-01,-4.008280764218270509e-01,-5.455320278124701702e-03,5.421873124286994555e-03,-9.080915507671795395e-03,2.865622378885746002e-02
-3.884286330089357087e-01,-4.067068271301262916e-01,-4.102528058472550421e-01,-2.373679438692544511e-02,2.464097006224759412e-02,-1.898403383740542016e-02,7.074248790740966797e-02
-4.157795782640333337e-01,-4.141853424948198081e-01,-4.058810665874630352e-01,-1.138397495541082494e-02,1.683226936510079028e-02,-1.570793594160352011e-02,4.542818292975425720e-02
-4.085811241586012055e-01,-4.078417583068861263e-01,-4.137083035889607130e-01,5.659838017693194934e-04,6.935210689364844534e-04,1.938164881321071276e-03,6.655739620327949524e-03
-3.793300250568134580e-01,-4.364602865423192757e-01,-4.196118962144789744e-01,1.088195959976105904e-03,5.955115722725412043e-03,2.810421277947131903e-03,5.214230716228485107e-02
-3.981682285022377643e-01,-3.938706402381247362e-01,-4.309800270948363488e-01,1.084050540483120009e-02,-4.671443565365628395e-03,-4.975185254975596216e-03,4.157365858554840088e-02
-3.864299044570422281e-01,-3.909212925498601332e-01,-4.434943831736586906e-01,3.360078585980216803e-02,-7.594863209091353914e-03,-1.670767009137224396e-02,8.612637221813201904e-02
-4.118805994176265584e-01,-4.148842811398267827e-01,-4.035761475803218978e-01,-4.673077551412241695e-03,1.510857096298516902e-03,-1.369485036868174242e-03,1.345055550336837769e-02
-4.274606150057707055e-01,-4.170779747772974111e-01,-3.769378366660013358e-01,-5.379193745029242288e-03,-2.102808958229371132e-03,4.277543291676174503e-03,4.786183312535285950e-02
-4.113866484313926652e-01,-3.955430838122047654e-01,-4.419954696175896758e-01,1.527927169817076304e-02,-1.145054893964266712e-03,-1.277994972116646474e-03,4.880648478865623474e-02
-4.121943026689814937e-01,-3.962367185551642357e-01,-4.317576514521965780e-01,2.154647305164665919e-02,-8.611577636603929761e-03,-1.849221050831959673e-02,5.992218106985092163e-02
-4.028861608489206492e-01,-4.109666710564435221e-01,-4.300602689320597305e-01,1.447302145935389257e-02,-8.980269615977302944e-03,-7.431775381141686627e-03,4.025146737694740295e-02
-4.027697299999629110e-01,-4.282781612667022619e-01,-4.055919386372969782e-01,-1.003579704925108189e-03,6.220169735006032385e-04,-2.114663777553517365e-03,2.458154782652854919e-02
-3.947702007886303988e-01,-4.284931717192407841e-01,-4.074661836662911707e-01,-1.834826410895339360e-03,-3.067872369574110598e-03,3.197274674228790369e-03,3.064773231744766235e-02
-3.901980196712971916e-01,-3.718533944085218867e-01,-4.604675696500644122e-01,5.946040988749579093e-02,-3.293749667412135262e-02,-1.801800410912465095e-02,1.462826281785964966e-01
-4.096129178434466112e-01,-3.795895549159902793e-01,-4.306022963502497136e-01,2.135516353677739329e-02,-9.368707409341387599e-03,-1.023939380306643568e-02,6.259481608867645264e-02
-4.442404595035366888e-01,-2.886941699367847058e-01,-4.557940139065320140e-01,-1.758882430187292886e-02,4.175548737131586086e-03,-7.960666928183285362e-03,1.652143150568008423e-01
-3.872202965539223163e-01,-4.192781571450500677e-01,-4.216541440551045405e-01,-3.719194961732573673e-03,5.594307761931874116e-03,-6.567568669219255723e-03,3.707163035869598389e-02
-4.518432170357721267e-01,-3.329872780675109389e-01,-4.606315817019170922e-01,-2.857764071060235004e-03,-2.436611852266954478e-03,1.227748720785733043e-03,1.236743852496147156e-01
-4.277575736893503011e-01,-4.015315178479910707e-01,-3.970490113218207440e-01,-2.551471948518138633e-03,-1.569747528420844000e-03,2.697400979788112160e-03,2.956700138747692108e-02
-4.544903293856125681e-01,-3.346201862617753098e-01,-4.614846370629609451e-01,2.247821846288921481e-04,-1.905013308510072846e-03,7.109364675528709971e-04,1.235667243599891663e-01
-4.511962245423122297e-01,-3.374527149698497430e-01,-4.481491588837968054e-01,-5.688248900594387175e-03,-3.142738331112767802e-03,1.049535257005416652e-02,1.142691671848297119e-01
-4.502527290604052546e-01,-3.449343233002312159e-01,-4.528039777565886492e-01,-1.088934260443771493e-02,-2.496411565884779603e-03,1.417310772413913830e-03,1.083864569664001465e-01
-4.036415648535364165e-01,-4.096728653464795089e-01,-4.197177546638661272e-01,-1.387958186841546041e-03,-1.127780135190814808e-03,3.305963724278812143e-03,1.549978274852037430e-02
-4.516195260355704288e-01,-3.353490604978721090e-01,-4.472610323713566149e-01,-4.498306220499301419e-04,-2.907797935676126148e-03,4.259143883491540300e-03,1.145052313804626465e-01
-4.442895060714076028e-01,-4.553561021617802407e-01,-3.508220249619884434e-01,1.241551396757325804e-03,1.044700175572125557e-02,-4.278559611993320959e-03,1.013901829719543457e-01
-4.333427731691729123e-01,-4.446092027321683626e-01,-3.651473849545767147e-01,-2.191918929151557508e-03,5.333283144466644671e-03,-7.965382221271721450e-03,7.639338076114654541e-02
-4.091542452354258175e-01,-4.388604283749930612e-01,-4.177751530137422953e-01,-2.258027729793367008e-02,-2.870107956162386287e-02,1.865996179734717361e-02,7.580322027206420898e-02
-3.975359621479512273e-01,-4.376699461423679827e-01,-3.767822240073123718e-01,3.409556432298585169e-03,-2.825815708664838541e-02,-4.471275203165426572e-03,7.324483990669250488e-02
-3.991781713699138479e-01,-4.999529954479806082e-01,-3.941593212347391240e-01,-6.493012332059836271e-04,-9.411705547703247410e-02,6.648007847321276559e-03,1.933764219284057617e-01
-3.948936670086972134e-01,-4.199539996436532641e-01,-4.205409700641539184e-01,2.973885145168976563e-03,3.032265467318516483e-03,5.313019958377089916e-03,2.796202525496482849e-02
-4.044928317081957769e-01,-4.507022575026511380e-01,-3.771684071784107695e-01,-3.237941256328198941e-03,-2.721689480442737383e-02,-1.984463245430946078e-03,8.006326109170913696e-02
-4.057227653487160413e-01,-4.085037898914271604e-01,-4.209464709040768304e-01,1.256056388632100862e-03,9.782414627856486980e-04,7.870168425620155742e-04,1.437427941709756851e-02
-4.216239890401394241e-01,-4.646803362925607805e-01,-3.264326449250038453e-01,-2.876082873017002384e-02,-4.499743851070136386e-02,3.271675114616463820e-02,1.636485755443572998e-01
-4.035057749473942579e-01,-4.089015087509391133e-01,-4.195773539924431694e-01,-1.335690986201257865e-03,-1.310876585660228962e-03,2.189660969530347889e-03,1.501941680908203125e-02
-3.797481201180178956e-01,-4.365857084883630890e-01,-3.987591042433193400e-01,-5.822431224667095999e-03,-2.559210224531627276e-02,4.782505464223192268e-03,6.816580146551132202e-02
-3.849556633399124905e-01,-4.400955075012386586e-01,-4.333024910226963011e-01,-2.270870201323699211e-02,-1.758433407852738259e-02,1.183512623742010925e-02,7.487906515598297119e-02
-4.252595136354568317e-01,-3.937878209224091597e-01,-4.065487416038117696e-01,1.316152261528220208e-02,1.221956912425374749e-02,1.578462585263036566e-02,4.966683685779571533e-02
-4.048777086400531799e-01,-4.159971903035385998e-01,-4.130300253369462715e-01,6.294287125296779868e-03,7.200125895196264267e-03,9.406756081030743372e-03,2.528427168726921082e-02
-4.525022664070598166e-01,-4.533456182790641664e-01,-3.339952407476786123e-01,3.141282873828843067e-04,5.650117244933283147e-04,-3.157352673910406200e-03,1.190618723630905151e-01
-3.946599189185922563e-01,-4.097495264180164298e-01,-4.198151356213622454e-01,1.187173657044349878e-02,8.031390379540617047e-03,8.500390977073880167e-03,3.624903783202171326e-02
-3.569319961189467150e-01,-4.294067779030909526e-01,-4.588859953269641689e-01,4.262789352614655691e-02,-6.976914644494501029e-04,-2.839940316115195868e-04,1.170949712395668030e-01
-4.314825583818848176e-01,-4.155267593135062998e-01,-3.530706247284509658e-01,9.099632448269948798e-03,1.362515308044826012e-02,1.963677337401385087e-02,8.434481173753738403e-02
-4.061779376897393101e-01,-4.069535823468133917e-01,-4.172059121162052242e-01,3.221865459750396146e-03,3.634341694297928745e-03,3.627980690201276174e-03,1.496386807411909103e-02
-4.221054398584503375e-01,-4.221173432848821516e-01,-3.935802672344271835e-01,8.525001799932523799e-03,1.706125901541946654e-02,1.429472810399602320e-02,5.018296092748641968e-02
-4.193385828042573427e-01,-4.309112588039695768e-01,-3.894110956937338330e-01,-5.318449497309177612e-03,-3.752396772679280224e-03,2.716318467934939612e-03,3.905325382947921753e-02
-4.244414653793379122e-01,-4.073535250501421623e-01,-4.024269538583966077e-01,3.644119056156587978e-03,2.473699676248328812e-03,3.788854673235626455e-03,2.239902690052986145e-02
-4.070102775020478791e-01,-4.355944680680790548e-01,-3.871913914895577791e-01,1.493777437662369492e-02,1.677820828044245677e-02,1.585207449983000449e-02,6.359364837408065796e-02
-3.982074821778258111e-01,-4.229527847728113965e-01,-4.176134362148581358e-01,8.896599166763467445e-03,1.117086540546656862e-02,7.816763114267877288e-03,3.610863164067268372e-02
-4.141757425837246931e-01,-4.084495921543637720e-01,-4.068886739007758213e-01,2.154210506823249320e-03,1.419345656431491437e-03,2.179628969169099435e-03,8.853313513100147247e-03
-4.172537477845030263e-01,-3.410841769464205697e-01,-4.785060302134028776e-01,4.813172344911638423e-02,-2.356423944638298858e-03,-9.189455570871460366e-03,1.464212834835052490e-01
-3.865698365558413729e-01,-4.298014937871304508e-01,-4.196569511529644192e-01,-2.671327402996341409e-03,4.311043505855012906e-03,-4.650560176145587463e-03,4.093126952648162842e-02
-3.903749182914042493e-01,-3.919233371969993440e-01,-4.326927101781697371e-01,1.442163972363518648e-02,-9.473036678355559875e-04,-8.680593959562571665e-04,4.854452982544898987e-02
-4.378424249989155692e-01,-3.887136235752376434e-01,-4.758530676299147499e-01,7.928956826562541527e-02,-1.911937789224591594e-02,-2.369632373819331728e-02,1.654314696788787842e-01
-4.177494529889194119e-01,-3.749629448898449402e-01,-4.169452441585253522e-01,1.414768879734263490e-02,-1.320004534920155882e-02,-1.418683820135574654e-02,5.936258658766746521e-02
-3.802005084314524774e-01,-4.257527045062681204e-01,-4.350316265929144999e-01,2.594803781050450744e-02,1.358202352880333134e-02,5.277043683793406804e-03,7.239222526550292969e-02
-4.248510529786749257e-01,-3.932436941062871782e-01,-4.272837023024667613e-01,1.998635240878392227e-02,-9.620187548069723815e-03,-2.317274169960366337e-02,6.456599384546279907e-02
-3.827250035836397557e-01,-3.684463242422504337e-01,-4.219771752703053158e-01,5.454957914149061171e-02,-2.009896325059058741e-02,-2.494248987350950603e-02,1.196258366107940674e-01
-4.227687816340628402e-01,-4.184814436590964526e-01,-4.319735984127416883e-01,6.875414356001186000e-02,-4.593241262778337275e-02,-5.083437636573195223e-02,1.685400009155273438e-01
-4.032305915954332853e-01,-4.051370736754103530e-01,-4.136364969471073572e-01,-7.351585796848957369e-03,-7.485998106046651279e-03,7.514438031282794084e-03,2.432564832270145416e-02
-3.588071921060704272e-01,-4.452700486251988665e-01,-4.339101400660839714e-01,1.432313017799719543e-03,6.898602338141081314e-03,8.932298864981619291e-04,8.230420947074890137e-02
-4.344041990895350369e-01,-4.079905174386587174e-01,-3.948045533792121642e-01,-5.689321287344672150e-03,1.236014231765153850e-03,-1.493667338083874696e-02,4.461886361241340637e-02
-4.020731680154903120e-01,-4.156183225187150554e-01,-4.045639823291700132e-01,-5.575679350002716965e-03,-6.243994232035238352e-03,5.997771743697857469e-03,2.177346311509609222e-02
-4.010752459997421471e-01,-4.100301722156576845e-01,-4.246194977314260988e-01,-1.855090536959581610e-03,-2.102625882988598364e-03,4.058676711204616677e-03,2.228656969964504242e-02
-3.833957977343794843e-01,-4.203380204856098090e-01,-4.270667979811349491e-01,-1.907977253360211567e-02,-1.874589008518834365e-02,5.492605023456149579e-03,6.241333857178688049e-02
-3.901205209400372964e-01,-4.094154660138196178e-01,-4.264331668167606337e-01,-4.156874975392699408e-03,-2.355730559641768581e-03,4.956705605581907155e-03,3.365184366703033447e-02
-3.581840107770390969e-01,-4.432905446675750039e-01,-3.797831365344494503e-01,-2.000532252959708046e-02,-7.531979337078931191e-02,1.741256880751435032e-02,1.581166088581085205e-01
-4.482303447717248535e-01,-4.424744893880636631e-01,-3.412981028736697953e-01,4.176511676163270279e-03,4.743750801487181014e-03,9.588653433734294074e-03,1.060557141900062561e-01
-4.044268617203555238e-01,-4.130587396622245056e-01,-4.216156719770399186e-01,-6.067866948608862786e-04,-1.458480336365158446e-03,5.148622248693134063e-03,1.756712235510349274e-02
-4.115628909364111299e-01,-5.933702156804420147e-01,-4.139575113875585410e-01,6.670053814102289147e-02,-2.104053729661738148e-01,-6.546292706101981829e-02,4.377654790878295898e-01
-3.253461052243237783e-01,-4.815903472314086997e-01,-4.597367260636000541e-01,3.490851771583194929e-02,1.023182194685572869e-03,6.016854876853685447e-03,1.588801592588424683e-01
-4.494609255995613561e-01,-4.409990339450295949e-01,-3.517404543579547016e-01,-3.050747380492603382e-04,1.686537420870232434e-03,9.385716980975167961e-03,9.522122144699096680e-02
-4.467202211514004206e-01,-4.446068721376733590e-01,-3.509760066891391972e-01,-3.105690471106421161e-04,6.761289609089320835e-03,3.830476175249048106e-03,9.565841406583786011e-02
-4.419028819144804054e-01,-4.481162602994918642e-01,-3.428451195047206301e-01,4.097784283683538831e-04,2.385512673469395925e-03,1.054223690097477826e-03,1.024082005023956299e-01
-4.555588374057316647e-01,-4.578007209194678295e-01,-3.392190757878595364e-01,1.935318542915142259e-04,4.251173544757388956e-03,6.758605134826402641e-03,1.182884275913238525e-01
-4.497268928466073845e-01,-4.448063278994733305e-01,-3.318966095571168617e-01,-5.898502700797251305e-04,2.649518188631350569e-03,1.610988712743242511e-03,1.155780479311943054e-01
-4.164237688405899029e-01,-4.076131678790989588e-01,-4.093351058244409924e-01,-4.059833732819674405e-03,4.957737783147751764e-03,-3.432784799291332695e-03,1.496518403291702271e-02
-4.199203392296292359e-01,-4.313611503773674971e-01,-3.868312024001283600e-01,-5.479382336398179801e-03,3.800234342452420144e-03,-2.132674593935587112e-03,4.184962064027786255e-02
-4.099879311104160928e-01,-4.002733146075554416e-01,-4.236883449892368536e-01,2.331545964198516140e-03,4.493614760779056014e-03,1.961983076563463511e-03,2.244111336767673492e-02
-1.671008791068336885e-01,-5.684966987239091774e-01,-5.266936301417238786e-01,6.816442148487417141e-02,-2.495568023771161997e-04,-7.330260732016199293e-03,4.002337753772735596e-01
-4.468365246917707645e-01,-4.417336982716548732e-01,-3.463829110430003966e-01,1.787190446606543330e-03,-6.785322280092528045e-03,-2.391606715758955171e-02,1.070887893438339233e-01
-4.795288659835546530e-01,-3.079391187363132443e-01,-4.996214772681344951e-01,3.248137204183655646e-02,8.860178515171703711e-03,3.336562518487403567e-03,1.916467249393463135e-01
-4.322004097808552769e-01,-3.758131101054492662e-01,-4.340759252608498708e-01,-2.881591722848088431e-03,-5.174030424416669813e-03,3.953796123114774325e-03,5.865935981273651123e-02
-4.220553619957390645e-01,-4.232115743746867054e-01,-3.918904593360995059e-01,7.742766140875436201e-03,-1.390143585525632428e-02,-1.434392918509650762e-02,4.819731414318084717e-02
-4.333253964439882644e-01,-4.264968910107622690e-01,-3.810334257587628115e-01,6.332485056869947664e-03,-1.190375155846844918e-02,-1.782606541602539674e-02,6.263152509927749634e-02
-4.470239519420214913e-01,-4.027067574802260519e-01,-3.414126382937248128e-01,-4.297005740822357894e-03,8.619033466864010895e-03,-6.479597906766013105e-02,1.459834873676300049e-01
-4.366166507590077406e-01,-3.567458865354299347e-01,-4.256552067162511221e-01,2.021120051558961475e-02,-1.084838243792317358e-02,-3.277408585896202098e-02,1.021026745438575745e-01
-4.464794464811577823e-01,-3.445149479396359959e-01,-3.767828747000329659e-01,-9.278866417017025275e-03,7.197495033803682010e-03,-7.691662890951669884e-02,1.622035801410675049e-01
-4.084677816788209737e-01,-4.134673467418428228e-01,-4.092702213112889842e-01,1.810788318814420417e-03,9.233436518988626628e-04,8.767254887177951478e-04,6.027288734912872314e-03
-4.364924620139755129e-01,-4.077994971154710324e-01,-3.939981170186744874e-01,1.137825472010966848e-03,-1.144403481762849584e-04,3.589513905959308346e-03,3.810963034629821777e-02
-4.240611113505141083e-01,-4.071463488957454135e-01,-4.065810034937509809e-01,3.493331114729707199e-03,3.500808354925871030e-03,4.099985754373917934e-03,2.048897743225097656e-02
-4.180876250624619428e-01,-3.909627472632973832e-01,-3.772201261066456257e-01,2.910517855035311269e-02,-3.702149289038544899e-02,-4.200183417428066113e-02,1.150780394673347473e-01
-4.207187343238323884e-01,-4.356390321397690113e-01,-3.598329781107189596e-01,-5.644790095392118040e-03,-2.624754494260513396e-02,8.567829627298378936e-03,8.497492969036102295e-02
-4.573164696964374665e-01,-4.516107420310987441e-01,-3.613358262530624865e-01,6.144114557786471524e-03,-1.822788798306124863e-02,-2.129807988514455588e-02,1.056789606809616089e-01
-4.314636570777290459e-01,-4.012201797786886237e-01,-4.027570310187198466e-01,-4.339111309063693083e-05,1.391576290062396682e-03,9.300894348422745388e-04,2.964726649224758148e-02
-3.866409170926660699e-01,-4.397506284499416718e-01,-3.390538740951253849e-01,1.632301310360897637e-02,6.615847504157591763e-02,1.771605614946058713e-02,1.499474346637725830e-01
-4.138037065348505461e-01,-4.225373115170039662e-01,-3.957215807417304720e-01,7.345938011611949023e-03,4.325588902275817431e-03,2.544069733087869854e-03,2.825948968529701233e-02
-4.115361017770449159e-01,-4.418264429851853081e-01,-4.016477968484263861e-01,1.552484560871838365e-02,3.854985480486757682e-02,1.569313721899233405e-02,8.505859225988388062e-02
-3.430927789237365189e-01,-4.497515849936952748e-01,-4.527441061524171140e-01,5.201413299126850243e-02,5.820999858000335675e-02,2.696327114953590842e-02,1.793513596057891846e-01
-4.257652372558481391e-01,-4.303895993504296968e-01,-3.569643050471825174e-01,1.781739608411369788e-02,5.236027187925550858e-02,3.337922430857930001e-02,1.326378732919692993e-01
-4.334118517488843025e-01,-4.075868371249371513e-01,-3.970238013295498414e-01,-2.093723388534083837e-03,-7.304331975514231955e-04,2.264027928812276276e-03,3.288508579134941101e-02
-4.026189489071310135e-01,-4.226335815699834297e-01,-4.046980267511247065e-01,4.440756971924395696e-03,8.567236761805856887e-03,4.803123659709069779e-03,2.668069861829280853e-02
-4.094458122746713613e-01,-4.145327024190387788e-01,-4.107708711613224928e-01,7.224901691008214560e-04,6.057084592059490315e-04,5.539246591616917188e-04,4.947618115693330765e-03
-4.041166962907142834e-01,-4.268151446711852537e-01,-4.053466016187984855e-01,7.555886611642226823e-03,8.708265144590773138e-03,5.722608073859117295e-03,3.139802441000938416e-02
-3.922131062681820102e-01,-3.912677552227566968e-01,-4.321418777937705014e-01,1.449041327020450520e-02,3.640652042949076017e-04,1.723963085923828288e-04,4.757468029856681824e-02
-3.933964498481123950e-01,-4.326200350482790613e-01,-4.081261307664383331e-01,6.732135636763732440e-04,3.693539451709298461e-03,1.494684347380284073e-03,3.502414748072624207e-02
-3.753043938715252548e-01,-4.183559835622325251e-01,-4.741170551145252321e-01,8.234996639845795774e-02,1.815814451868844742e-02,1.270858362952851338e-02,1.708261370658874512e-01
-3.963096200760054533e-01,-4.298548124421689431e-01,-4.099394693828540825e-01,-1.236293456141133833e-03,2.762880426609712944e-03,-4.215605279326696195e-03,3.057182580232620239e-02
-4.086079192833791396e-01,-3.988847674654549258e-01,-4.332478655720476968e-01,1.425541846688704352e-02,1.044478714498956601e-02,9.820468976648824913e-03,4.655642807483673096e-02
-4.149363107256862082e-01,-3.461850676939434712e-01,-4.501573728119436790e-01,4.472275561268946459e-02,1.280959944172661196e-03,1.591386420550523068e-02,1.231007650494575500e-01
-4.006084985473658544e-01,-4.339557500244857757e-01,-4.031602177041332391e-01,-8.558551679806905392e-04,1.788594264209991029e-03,-9.325021902367643676e-04,3.237068280577659607e-02
-4.036458096704496623e-01,-4.022864867034437464e-01,-4.249225798760450368e-01,2.600440733733577238e-03,3.520933915138301472e-03,1.817145771994448881e-03,2.347029186785221100e-02
-4.265645139499491534e-01,-3.814105560259009042e-01,-4.410184792905773588e-01,1.879980061434352590e-02,1.133204616196033590e-02,1.912511723383100715e-02,7.377875596284866333e-02
-4.192818233819001761e-01,-3.428035825421509863e-01,-4.798054431253485075e-01,4.564097979564850360e-02,5.176659572639638954e-03,3.477150393400081640e-02,1.552341282367706299e-01
-4.196795465555038795e-01,-4.017949426447053329e-01,-4.107180621053627689e-01,-1.199607723563185600e-03,5.009523578842548647e-03,-1.558451047067097592e-03,1.807717047631740570e-02
-4.184892454470968137e-01,-3.369960770351694279e-01,-4.451684280439141550e-01,4.288209668562598109e-02,-2.545535758157285678e-04,2.643336100995033987e-03,1.227390095591545105e-01
-4.370244017762022204e-01,-3.634119387880255792e-01,-4.548701554274213188e-01,3.278748663018012099e-02,3.447708161234725593e-02,6.178239193004679553e-02,1.590383350849151611e-01
-4.658323807717351661e-01,-3.622114190085040653e-01,-4.245639469376731867e-01,2.664581825928577508e-02,-6.676217399888889278e-04,7.195920990090122482e-02,1.607166230678558350e-01
-4.520616876986984223e-01,-3.308510879288908413e-01,-4.068275547176934404e-01,1.161116969510725752e-02,6.104256220695975128e-03,5.376846172788074529e-02,1.429848521947860718e-01
-4.090093937573586746e-01,-4.091213374291794436e-01,-4.075580179452868990e-01,1.875474007833013990e-02,2.141237565097253714e-02,1.858585277487176390e-02,5.890053883194923401e-02
-4.413139466711028525e-01,-3.765641288918179508e-01,-4.234695706416892191e-01,2.380049618818288332e-02,1.362822882679133769e-02,1.804596261034310117e-02,8.117319643497467041e-02
-4.299241203642912845e-01,-3.729732182775524763e-01,-3.840928980564969342e-01,3.585924851522093171e-02,2.950204868119519000e-02,5.672197211362845631e-02,1.373123973608016968e-01
-4.546018550108946177e-01,-3.839313484375506125e-01,-4.060791407917103690e-01,5.481852201814294001e-02,4.853407356164846781e-02,4.729573070748593205e-02,1.634386330842971802e-01
-4.090040439930210381e-01,-4.079347191198526290e-01,-4.147942961007743401e-01,1.159191850538484378e-04,3.979672975650467605e-04,-9.779872750352021187e-04,6.651838775724172592e-03
-3.811653712243078251e-01,-4.289560182272351696e-01,-4.223992103746819771e-01,7.837259504287184125e-03,8.914125629724500149e-03,6.201148568249007821e-03,5.051335692405700684e-02
-4.226080533355047186e-01,-3.987413630114422514e-01,-4.099841667263872669e-01,1.135309332150101838e-02,1.095538478491963480e-02,1.162438584204105591e-02,3.974681720137596130e-02
-4.127477991383278755e-01,-4.411922230072617968e-01,-4.129593648892065927e-01,5.097892972989366556e-02,3.677313013069438696e-02,6.666109746560988647e-02,1.612065732479095459e-01
-4.026724879550401814e-01,-4.273923190787783932e-01,-4.017267250496572850e-01,-8.823851526626877917e-04,2.727941554923032550e-04,-8.639833699216661325e-04,2.530102990567684174e-02
-3.925620052459692921e-01,-3.985074619572895327e-01,-4.126987055302528962e-01,5.611314859588575205e-02,7.733944612827579890e-02,5.759331635910765884e-02,1.940677911043167114e-01
-4.057279281555385420e-01,-4.142510751908958788e-01,-4.116441398307588706e-01,-1.249007090675200533e-03,9.901898657168777852e-04,-3.093489760606849253e-03,9.672195650637149811e-03
-4.405926052899883927e-01,-4.433350752456171606e-01,-3.651455160233711972e-01,9.210158282268052221e-03,1.610099574435312417e-02,3.175923133852057156e-02,9.982409328222274780e-02
-2.693376568778286240e-01,-4.948345820289334895e-01,-4.667046970675116091e-01,6.433314900533056158e-02,2.185270566666135117e-02,8.952590169401735548e-03,2.436930090188980103e-01
-4.908622607631206725e-01,-3.263944920568578878e-01,-4.709740208728691035e-01,-6.714367283659861130e-02,7.595824972540393683e-02,-2.013632271901689696e-01,4.202968478202819824e-01
-4.528790992551718353e-01,-4.234292896982188581e-01,-3.723102780481730711e-01,7.650578410331576769e-03,8.186831062196217243e-03,2.370819542482933626e-02,8.395708352327346802e-02
-3.910507796556358939e-01,-4.315469560019576378e-01,-3.773809343517621206e-01,2.767654738339211593e-02,5.938034609195494418e-02,3.954219993923289295e-02,1.412345170974731445e-01
-4.313738203059498399e-01,-3.943560213618467758e-01,-4.087418642257563128e-01,-1.582200402140540455e-03,3.353367450284515296e-03,-2.598982750786694648e-03,3.326029330492019653e-02
-4.474721292571759990e-01,-3.366503733256204778e-01,-4.454166130586570960e-01,-7.216513336308722111e-03,4.863289053558197424e-05,-7.851578890224204799e-03,1.113511323928833008e-01
-4.005206894083140345e-01,-4.530277339834679062e-01,-4.174581515329052750e-01,2.138156017896691158e-02,3.837038798049330346e-02,1.776002024519785644e-02,9.428233653306961060e-02
-3.051887908818052275e-01,-4.669858108278323594e-01,-4.840184015362184455e-01,-1.241908647544301240e-02,1.473374910775615207e-02,-1.022536587052440965e-02,1.750766485929489136e-01
-4.288991027184544391e-01,-3.585458526280336233e-01,-4.538342504700156321e-01,-3.463515508042137869e-02,-3.965764199847267302e-03,-3.844202433229634147e-03,1.049566939473152161e-01
-3.143586799155776990e-01,-4.277190212384414658e-01,-4.559200291083673751e-01,-5.254750088629781685e-02,-2.159420425126167692e-02,1.630620174052225396e-02,1.652968972921371460e-01
-3.102568880129885076e-01,-4.864584412386178114e-01,-4.672645492447031756e-01,-5.539358770647347802e-02,-2.492060756332477658e-02,6.471143805274523660e-03,1.980592906475067139e-01
-3.790485800938159788e-01,-4.215579004843308941e-01,-4.190304721804587462e-01,1.749093885489477057e-02,1.539715615777069620e-02,9.429232381043425176e-03,6.001448258757591248e-02
-2.944454160080904881e-01,-4.542968624160867996e-01,-4.500805658103703144e-01,-2.803445226141544275e-02,-7.558644563745535276e-03,6.509421119106523733e-03,1.659897267818450928e-01
-3.347510950851458889e-01,-4.394817980991361228e-01,-4.437426919475005449e-01,-2.233427763037004396e-02,-3.692137811678133843e-03,5.812588286514754239e-03,1.143312528729438782e-01
-4.838832974618018645e-01,-3.101650745447213642e-01,-4.538462894171801376e-01,-4.312027282505448422e-02,6.675011692749899771e-03,-2.313493405222681598e-02,1.821529120206832886e-01
-3.930385092574211203e-01,-4.291734040586109300e-01,-4.232511693414552356e-01,1.199624305135095319e-02,1.489656132102048711e-02,7.548602626927125407e-03,4.894078522920608521e-02
-4.274032938602988496e-01,-3.955843957800313504e-01,-4.153404756301545264e-01,-2.338550666100354045e-02,1.517085676870876497e-02,-2.576731652669345118e-02,7.139399647712707520e-02
-4.103548719227375630e-01,-3.662273309264038601e-01,-4.359951671915667237e-01,-5.089323211539222708e-02,1.989752883646678933e-02,-2.273200545950133586e-02,1.193500682711601257e-01
-4.163281142494227316e-01,-3.053747135891498043e-01,-4.312806505969520865e-01,-5.734787809852948115e-02,1.221781809743342426e-02,-2.539341526601403623e-02,1.626096814870834351e-01
-3.831898998367090914e-01,-3.683680469862693485e-01,-4.324378976749796433e-01,-5.281510617514369177e-02,1.862104492124432714e-02,-2.069838805363270057e-02,1.186119914054870605e-01
-3.932273523908106361e-01,-4.358730299048775292e-01,-4.164138539359787394e-01,-2.508520693146834568e-02,2.512351024913913808e-02,-2.496012063473662321e-02,8.377268165349960327e-02
-4.282791706339472704e-01,-3.976135396593668547e-01,-4.113966877365622388e-01,-1.370629518473610343e-03,3.696882127331535366e-03,-2.672056551068985493e-03,2.785217203199863434e-02
-3.995951963468972745e-01,-4.093459032965817146e-01,-4.236051090466995683e-01,-1.694998147625855845e-03,-1.957814203402679677e-03,5.039245213480881766e-03,2.310278639197349548e-02
-4.404607444862217447e-01,-4.283213619017622320e-01,-3.709151174928784211e-01,2.724823576680881348e-03,-3.011974674316556747e-03,-6.994075547988187584e-03,6.584800034761428833e-02
-4.179729075616949729e-01,-4.089527208544216363e-01,-3.774649809283106561e-01,-1.479487165315006812e-02,1.777876009526438428e-02,-1.799953358366195022e-02,6.271948665380477905e-02
-3.732576335506093690e-01,-4.459335527063525428e-01,-4.465672270681905753e-01,-1.548159430676826140e-02,1.515709060049499901e-02,-2.656023050377295195e-03,8.220497518777847290e-02
-4.064873007172243313e-01,-4.275063911780603298e-01,-4.072017282741176580e-01,-4.232165911714362398e-03,2.807071092618903824e-03,-4.318942636687273309e-03,2.367759309709072113e-02
-4.081096418598164632e-01,-3.935827773384557027e-01,-4.337299686183729852e-01,-4.405288291335027542e-03,1.526689757081130770e-03,-6.601495715017622126e-04,3.614046797156333923e-02
-4.006471560014520095e-01,-4.010347920606697203e-01,-4.326098560441812291e-01,-8.781103943168354353e-03,2.077977455035369576e-03,-8.583668126175001464e-04,3.543814644217491150e-02
-4.206277607039404232e-01,-4.203138192575799348e-01,-3.944875735571504172e-01,4.914457332426500936e-03,2.695757255443158827e-03,3.021505097910273056e-03,2.822847664356231689e-02
-3.809880812120186588e-01,-4.230812400608027213e-01,-4.361432447595160466e-01,-4.190723168054221598e-02,5.224921478196782598e-02,-4.015087112407859926e-02,1.441774517297744751e-01
-3.543801447577138997e-01,-3.993174746223915328e-01,-4.206059324869201310e-01,-5.769772407004488540e-02,3.974317399421556374e-02,-2.915112617744355927e-02,1.438895910978317261e-01
-3.823344195046695648e-01,-4.290735856630679135e-01,-4.347655256858083961e-01,-2.350375441665245382e-02,9.441370954000473381e-03,-1.348030316963252581e-02,7.037640362977981567e-02
-3.999851752115686221e-01,-4.313271808137315033e-01,-4.028726745181716029e-01,-1.965302223000154355e-04,9.318033674003644001e-04,7.087992729403699323e-04,3.007302433252334595e-02
-4.333471624403824052e-01,-4.005364585466931193e-01,-4.596927959172789624e-01,-7.442134637339881120e-02,5.210748442278402559e-02,-5.147179066594706476e-02,1.880007237195968628e-01
-4.126552101687518403e-01,-4.335822554322005806e-01,-4.029833260223833480e-01,-7.322036418747783493e-03,1.177470443142774464e-02,-6.679406306156785399e-03,3.800659999251365662e-02
-4.045443285395432520e-01,-4.158451910904811255e-01,-4.238793276599863713e-01,7.050955140964487722e-03,-8.033125208663624908e-03,-6.499687506148696392e-03,2.743225358426570892e-02
-3.972828366518634802e-01,-4.410310116505481992e-01,-3.819559064602845999e-01,-9.635544243214109669e-03,2.349284095823584231e-02,-4.362660905076591773e-03,6.935930252075195312e-02
-3.579683384516783029e-01,-4.409787728265111562e-01,-4.319324326087026211e-01,2.074468978967380136e-03,7.078980407542892136e-03,3.033601181697223158e-03,8.007797598838806152e-02
-3.848083781448809471e-01,-4.270714269282478437e-01,-4.043994905843518728e-01,-1.511083057923866269e-02,1.905314921995842486e-02,-1.310010477268921947e-02,6.025706604123115540e-02
-4.145297335948876505e-01,-3.986772200216797679e-01,-4.404719158454755701e-01,-3.169477831346685648e-02,1.676846057282222607e-02,-1.796945927428354045e-02,7.849504798650741577e-02
-4.248654572520951245e-01,-3.990409796512121576e-01,-4.316048501736191034e-01,-2.989948475993176383e-02,2.325742549197449410e-02,-2.077272470549860681e-02,8.053287118673324585e-02
-3.788294061941160362e-01,-4.390324745565713505e-01,-4.300575804270461155e-01,-1.429600827297087054e-02,2.074789407484229492e-02,-1.256103050738794670e-02,7.444819062948226929e-02
-4.439188524063876762e-01,-3.310507745147397429e-01,-4.985570564153219975e-01,-8.381680083742495957e-02,-3.923378820304590411e-05,-5.163615494995399575e-03,2.074782103300094604e-01
-4.055138344563588015e-01,-4.213401657821161383e-01,-4.084737540901596242e-01,-1.050483725615127721e-03,-1.184388622384275279e-04,-2.235628011010929068e-03,1.518999505788087845e-02
-4.238932602194764310e-01,-3.601005810355972780e-01,-4.311540948630122605e-01,-3.541764099907598884e-02,-2.632525125772846794e-02,2.550259468684233644e-02,1.112602576613426208e-01
-4.099640072364856835e-01,-3.455841251475888498e-01,-4.947058410838918729e-01,-6.160217798478079265e-02,-5.189607862973056457e-03,6.895113171454235815e-03,1.684919148683547974e-01
-3.790312478954737108e-01,-4.193178038219932402e-01,-4.280907659553540578e-01,-5.826898264414245854e-02,-4.211544762726271429e-02,5.127443454076531515e-02,1.595229208469390869e-01
-4.487640683698257971e-01,-4.043685514846847573e-01,-3.737417123343976799e-01,1.024332367169951971e-03,-3.841104894348198822e-04,2.220683713979829804e-02,7.583983987569808960e-02
-4.195840113356934520e-01,-4.217855971469440246e-01,-4.002652944520149747e-01,-3.130129678576430013e-02,-5.883872993846062105e-02,6.810094135719642339e-02,1.663102805614471436e-01
-4.195877367384767131e-01,-3.800175254881500986e-01,-4.270340420458606512e-01,-2.406062009725934772e-02,-1.069553615812402284e-02,2.307726515159752578e-02,7.478974014520645142e-02
-3.975722284353110925e-01,-4.058255433603947249e-01,-4.222175362173828939e-01,-7.112268078829852951e-03,-5.350482188159071811e-03,4.353832266693806116e-03,2.768765948712825775e-02
-4.911672004783907419e-01,-2.622881515880096659e-01,-5.022493035220173541e-01,-1.297156827714454341e-01,-8.502221376470800451e-02,7.344705194669076675e-02,3.786728382110595703e-01
-4.012570751458858775e-01,-3.266263392698320334e-01,-3.813015073841162228e-01,-9.193405649523289647e-02,-8.762937756494106056e-02,1.300984135846648959e-01,3.219437897205352783e-01
-4.545348725128476319e-01,-2.867991536035485733e-01,-4.169487813412807720e-01,-9.288045666560601488e-02,-4.758002952923048867e-02,1.061659767072279104e-01,2.995480298995971680e-01
-4.856976408430395686e-01,-3.387759081143947304e-01,-4.857491988824737539e-01,-1.597684167281284984e-01,-2.168600678572423987e-02,8.809668546871703143e-02,3.505215346813201904e-01
-4.510472511717334432e-01,-3.529620302504478113e-01,-4.584431806114373509e-01,-1.149867387154379500e-01,-1.314760018700831812e-01,1.099668485938258833e-01,3.717561364173889160e-01
-4.302909371308787367e-01,-4.391448068902329416e-01,-3.074822284372688563e-01,-1.773522259204485946e-02,-6.138404739289778783e-02,2.377296321914108140e-02,1.737549453973770142e-01
-4.038624737584704527e-01,-4.170595063261149371e-01,-4.117888411197101473e-01,-2.589415564256768339e-03,1.539670863648649485e-03,-4.187496264021688813e-03,1.456766296178102493e-02
-4.109906745602637246e-01,-4.101418192395945850e-01,-4.113908480881440233e-01,-9.722779232831928349e-05,2.320265275187743535e-04,-4.681423688296835963e-04,1.437958329916000366e-03
-4.417022613519703267e-01,-4.499068479441242774e-01,-3.569557142942105243e-01,-9.792565728811819525e-03,-1.737116701352705433e-02,3.590229391154607652e-02,1.140372008085250854e-01
-3.741607755638550747e-01,-4.454115012933977380e-01,-4.236875612786555889e-01,1.892779594965537243e-02,-2.496653715008823743e-02,-1.024025714226934995e-02,8.520625531673431396e-02
-4.482003402661067226e-01,-4.586169573211033024e-01,-3.526495373903789643e-01,-6.679577553594436695e-03,-2.627076825952831887e-02,1.331743065054218425e-02,1.138865649700164795e-01
-4.110556640820866026e-01,-4.109551041505696833e-01,-4.100262720212654588e-01,-1.832489107184454317e-04,7.739900987678430874e-05,-2.452498934978402322e-04,1.124899834394454956e-03
-4.049584249858285134e-01,-4.074757682149419136e-01,-4.171775146396994316e-01,-2.499338863617769132e-03,1.642845055216338645e-03,-3.654906297745819186e-03,1.384902372956275940e-02
-4.415215265574577996e-01,-4.518428007365679622e-01,-3.408666680320505682e-01,-2.885742524401825951e-03,-1.843112848221418673e-02,1.884396344239744336e-02,1.156987547874450684e-01
-4.261675048155891821e-01,-4.496891225392363745e-01,-3.611109423162185417e-01,-2.768796915542206844e-04,-2.566087475970673867e-02,6.998533046461990863e-03,9.186113625764846802e-02
-4.209775135763979548e-01,-4.402822506033575722e-01,-3.831956412579912152e-01,1.088672564394775437e-03,-2.301574433204845588e-02,-2.889043963820803976e-03,6.439938396215438843e-02
-4.639199563422969907e-01,-5.044783883105996569e-01,-3.425678123401292852e-01,-3.207497499171854801e-04,-7.542708309599982508e-02,1.174790670847289387e-02,1.969143599271774292e-01
-4.021210102643014705e-01,-4.024032946468171223e-01,-4.264863772494461025e-01,6.262882587536189186e-04,1.272735713261599405e-03,3.694616982203808371e-04,2.435813285410404205e-02
-3.876417041258759522e-01,-4.116862609847428134e-01,-4.238886033641806050e-01,2.033074251767708063e-02,-1.429238907708430331e-02,-1.690815821959613247e-02,6.108133494853973389e-02
-4.183602113342926310e-01,-4.180095728121575593e-01,-4.283488231414964709e-01,1.530593887988539875e-02,-1.783383388209285741e-02,-1.831165502291347974e-02,5.259562656283378601e-02
-4.191644411094712086e-01,-4.212422009755326657e-01,-4.608996832774797103e-01,6.768345032354364244e-02,-5.648253698893851427e-02,-6.772413380138814221e-02,1.968072354793548584e-01
-4.017608532565346557e-01,-4.047787874576308509e-01,-4.275821205671435088e-01,-1.336146617078805016e-03,-6.716107434056339288e-04,8.911912900437210820e-04,2.463758550584316254e-02
-4.377085943768913578e-01,-4.108412186553060397e-01,-3.946595812532134873e-01,1.500956864436132389e-02,-1.627913214080389803e-02,-3.081472710938269743e-02,7.574954628944396973e-02
-4.013828318007687801e-01,-4.019382994026169387e-01,-4.278473344973151016e-01,-1.197660983937619446e-03,-7.078211930475549092e-04,1.784510576462305627e-03,2.648278512060642242e-02
-5.155685589774319233e-01,-3.810287810723917423e-01,-5.233525034855078806e-01,-1.577305264909358851e-01,9.976065803154338107e-02,-1.654972740857273972e-01,4.537291824817657471e-01
-4.023950865206027960e-01,-4.001213357168628137e-01,-4.331745160274066975e-01,-1.290022163385093259e-03,-8.995281565226853539e-04,3.736706319477011914e-04,3.209932520985603333e-02
-4.126338802966205144e-01,-4.142850146603339612e-01,-4.075723100213999861e-01,-3.656536868972290553e-03,-4.103760250727631499e-04,8.030101466785101016e-04,8.902446366846561432e-03
-3.907442143379131760e-01,-4.317913023644733839e-01,-4.199123332581988222e-01,7.623427883780796270e-03,-1.679675014151124635e-02,-1.004761156727644947e-02,5.159439891576766968e-02
-4.027824727813461014e-01,-4.028004658279607519e-01,-4.284918765099041682e-01,5.298487360012526200e-08,2.231838199176720404e-04,-1.604377352217835557e-04,2.570482157170772552e-02
-3.356828071222923149e-01,-4.283939319804727641e-01,-4.260307903892742165e-01,3.628630249694139026e-02,-3.314666127781661087e-02,-1.554367488264724907e-02,1.278782784938812256e-01
-4.106994364817307952e-01,-4.093271519469238173e-01,-4.116740310884777765e-01,-5.824279691718679212e-04,-9.683108700751004048e-04,5.130734328371379426e-04,2.964911283925175667e-03
-3.708951617028338199e-01,-4.409886798431389976e-01,-3.872194190390300661e-01,2.160202283291074582e-02,-5.058079646438450039e-02,-1.273853819205240066e-02,1.166077256202697754e-01
-4.162113115940197505e-01,-4.093796087191704514e-01,-4.064493699930937232e-01,-2.463542307810772519e-03,-6.911149748388957471e-04,6.721792765152984680e-04,9.811854921281337738e-03
-4.059444583035062837e-01,-4.270266524611944225e-01,-3.940198389867115569e-01,-2.960590243638542424e-03,-3.043690846430795616e-03,1.643667844428857699e-03,3.000408224761486053e-02
-4.036360546266878346e-01,-4.049097886408899449e-01,-4.226588600154428388e-01,5.415277580883520563e-03,-5.215561531292807126e-03,-6.308623628631784830e-03,2.506466954946517944e-02
-4.091709306429356374e-01,-4.039792617551397069e-01,-4.122886244949705570e-01,6.281938799489772060e-03,-6.949884760361371011e-03,-5.720155033452434604e-03,2.035463042557239532e-02
-4.013381240998716848e-01,-3.997140469983622157e-01,-4.314748499802945059e-01,-1.110320550419912483e-03,5.816071551077424493e-05,7.229937554741486336e-04,3.106575272977352142e-02
-4.054761371856336338e-01,-4.012741985798214395e-01,-4.268352183819055790e-01,1.765333906070036063e-03,9.954179717846516236e-04,6.938532587014035330e-04,2.402877993881702423e-02
-4.084397579991475569e-01,-4.155156395677676029e-01,-4.160064830465031727e-01,5.344171940888578845e-03,-6.611050927544445156e-03,-5.860110469538785428e-03,1.932882145047187805e-02
-4.051451621668494263e-01,-4.017197175158226941e-01,-4.241880418591644775e-01,1.125130340344772991e-03,1.923870597832152540e-03,4.668319860889445653e-04,2.133426070213317871e-02
-4.137559817326181832e-01,-4.051192519526496394e-01,-4.085831987943797650e-01,-1.643014619754820963e-03,-2.468072191656934221e-03,1.984314358173938034e-03,9.739609435200691223e-03
-4.059724498581510632e-01,-4.128042239223204679e-01,-4.184120972002687289e-01,7.566115915406285489e-03,-5.189419283468128113e-03,-4.472934380394130716e-03,2.071190625429153442e-02
-3.867788651679809342e-01,-4.219004104726146731e-01,-3.768395758381389848e-01,3.051418839055076992e-02,-4.879648643367321542e-02,-3.663588685775463066e-02,1.250783652067184448e-01
-4.227603231047827315e-01,-3.691214878269323263e-01,-4.181981005721711608e-01,2.487448089601540166e-02,-1.397587985849760642e-02,-1.988965836331565984e-02,7.926043868064880371e-02
-4.299118548784654492e-01,-3.931009381134998870e-01,-4.116822332374421300e-01,-3.745493623231543542e-03,-4.634080558702605504e-03,4.980852751381830909e-03,3.460130840539932251e-02
-4.163339691836230871e-01,-4.228112340398851865e-01,-3.941749588348893441e-01,6.616857664409810449e-03,-1.188111160411015922e-02,-9.802967256405777791e-03,3.898245468735694885e-02
-4.279972889073174191e-01,-3.972662287367215717e-01,-4.111278906956873924e-01,1.760521679082433432e-03,3.227875969615387388e-03,2.625095453587719934e-03,2.778109721839427948e-02
-4.090393252789981671e-01,-3.980032348343612303e-01,-4.168256880684358956e-01,1.328671013243678221e-02,-9.605478835284980699e-03,-2.094300932014053068e-02,4.889364168047904968e-02
-4.086280762283195922e-01,-4.094454644830655132e-01,-4.151257459817992435e-01,1.408655702552698979e-02,-1.577803403170624508e-02,-7.955114563605879957e-03,3.961768001317977905e-02
-4.379887274151348375e-01,-3.887271933239521693e-01,-4.108231996239988804e-01,2.272909625765704052e-03,-5.618705276677048339e-03,-9.552557195878124199e-03,4.701500758528709412e-02
-4.277819040535183470e-01,-4.029330509319444809e-01,-4.059061439996387022e-01,-9.097235093333437073e-04,-2.297835320933103685e-03,9.290772107122586719e-04,2.394450455904006958e-02
-4.359283038151232081e-01,-3.655963733186611275e-01,-4.204272412873308329e-01,5.770737218488608891e-03,-6.360295316444283288e-03,-2.525530391169782812e-02,7.893921434879302979e-02
-4.549551233172149933e-01,-3.792735865384043725e-01,-4.136132592355454274e-01,1.523485162701092299e-02,-3.203761884648628766e-02,-8.375560078100659223e-02,1.706709116697311401e-01
-4.048517040343662110e-01,-4.040671537449190276e-01,-4.197827255342733710e-01,-5.688225647758085547e-04,-1.000514988102011327e-03,2.587419959661212132e-03,1.610350981354713440e-02
-4.039356428652395303e-01,-4.131081703370335645e-01,-4.210368172506515627e-01,-1.356015172855860613e-03,-1.552370566300373097e-03,3.566052354023555807e-03,1.645054668188095093e-02
-4.784952169118247278e-01,-4.176181104346785022e-01,-3.681918032618783920e-01,2.514031376841555782e-02,-2.224840848730980439e-02,-4.969520065049178037e-02,1.412367969751358032e-01
-4.547928506357412637e-01,-4.416981132271101118e-01,-3.709558579359690800e-01,1.324230646852783168e-03,-6.798178240463600627e-03,-1.901090323281232064e-02,8.561798930168151855e-02
-4.322701788362087738e-01,-4.401427574720859770e-01,-3.574334708998415655e-01,-1.267864421151926107e-03,-5.895688500270821787e-03,2.085204364901309913e-03,7.983615994453430176e-02
-4.536632531254809475e-01,-4.177734641921924674e-01,-3.674877482836129694e-01,-1.666522994657062369e-03,-7.338924737019501127e-03,-1.730577848736993690e-02,8.179153501987457275e-02
-3.809656868263105456e-01,-4.462056623722577831e-01,-4.041979610422057334e-01,-1.389901886005346851e-02,-2.719673480425710207e-02,9.220305306702758497e-03,7.958578318357467651e-02
-4.083670122145006132e-01,-3.942774676767837883e-01,-4.363954082670856160e-01,-2.837531727157589258e-03,-2.394489605580373687e-03,6.871748418872315094e-04,3.770657256245613098e-02
-4.251436712031054777e-01,-3.804910729435216910e-01,-4.240524358558218077e-01,-6.879496105570211129e-03,-7.691997571394919991e-03,6.153605762908527510e-03,4.877911880612373352e-02
-4.809787032845727062e-01,-4.081356681777119633e-01,-4.209941359000932692e-01,3.552009441509315635e-02,-3.883873284083409760e-02,-8.025262766368018719e-02,1.793505549430847168e-01
-4.740676796492610534e-01,-3.539921094905075227e-01,-4.829696140645539093e-01,7.191399816324417493e-02,-2.582671131330645242e-02,-5.483274506558748207e-02,2.051879763603210449e-01
-4.331287347122690923e-01,-4.003149855236159960e-01,-4.030325577710132667e-01,-5.560872301832832723e-04,-1.313159262941100691e-03,7.413595631359262651e-04,3.166548907756805420e-02
-4.327821371868297851e-01,-3.599388237422675441e-01,-4.438970738557014850e-01,-5.868285830254083360e-03,5.366779752220202700e-04,-1.436493464801822523e-03,7.968503236770629883e-02
-4.274422395912707007e-01,-4.023779743602970416e-01,-4.024854617690146741e-01,-8.477025424255892365e-04,-9.898686338059474801e-04,2.117926371789371435e-04,2.511502988636493683e-02
-2.248694492089159946e-01,-4.398813122101165596e-01,-4.702550320508621651e-01,-1.005861371192888765e-01,5.350752164154184976e-02,-2.248611606023134812e-02,3.068259060382843018e-01
-4.406482060168637194e-01,-4.295880988629007247e-01,-3.671485961889618954e-01,3.876718494080870752e-03,-4.747710330214482966e-03,-2.901988372208229999e-02,8.573666214942932129e-02
-4.336337752316463123e-01,-4.225339501378003737e-01,-3.850423024799322080e-01,6.803832476136249460e-03,-1.644379862296389480e-02,-2.609334244073636955e-02,7.026834040880203247e-02
-4.287004328699585698e-01,-4.187701383975875880e-01,-3.875761996373194296e-01,1.031022164772948252e-02,-9.053015439783301116e-03,-1.792390622487294305e-02,5.394450947642326355e-02
-4.452031708597911641e-01,-4.380922233074775463e-01,-3.695255053963257819e-01,8.206748265582501992e-03,-1.906971981302734570e-02,-2.053468311718167211e-02,8.830384910106658936e-02
-4.206325708333631397e-01,-4.051396577313001179e-01,-4.130101660492607185e-01,-9.740448228118941129e-04,-5.013406995804631228e-03,1.435016477290872302e-03,1.626238040626049042e-02
-4.770463856636484867e-01,-4.622113557515741822e-01,-3.653266048775626884e-01,2.702889688986993139e-02,-4.857777441823343811e-02,-5.411089602545563620e-02,1.705844998359680176e-01
-4.634833089711825616e-01,-2.687986960358748068e-01,-3.152880878896767713e-01,-2.800565831644166032e-02,-2.287564101598721714e-02,1.530141193869845317e-01,3.243075609207153320e-01
-4.421838698229862419e-01,-4.039467878544409918e-01,-3.133446399906051338e-01,9.207416550343339862e-03,-1.065495054454064852e-02,-5.827493997788835145e-02,1.546544730663299561e-01
-5.065299570469919965e-01,-5.257943754173294293e-01,-2.491446791206015365e-01,4.287882167016683274e-03,2.977226745272173666e-02,-6.893741109228153537e-03,2.728251516819000244e-01
-4.666932170918235978e-01,-4.717828880610752118e-01,-1.532342948922113257e-01,-3.321025215649714250e-03,-5.426841812488886196e-02,-2.167420201527880258e-02,3.318966627120971680e-01
-4.071069385018253328e-01,-4.014345296119221640e-01,-4.243881633332957648e-01,-3.089703044893203372e-03,-4.526934038115732611e-03,1.973424038876310689e-03,2.303572371602058411e-02
-4.100571278966910205e-01,-3.985382623720111761e-01,-4.241259780474325725e-01,-2.073534939525385583e-03,-5.096959233258085455e-03,1.114681132462888493e-03,2.423297613859176636e-02
-4.208437673202474194e-01,-3.959199844817117286e-01,-4.212297295521577056e-01,2.214584950758873884e-03,5.026883538771282148e-03,2.214798880197515595e-03,2.713303081691265106e-02
-4.033693946198863567e-01,-4.149548090118516663e-01,-4.021108514889373819e-01,-5.568336821661816829e-03,-6.662922020630190206e-03,5.201466367306821319e-03,2.139520831406116486e-02
-4.346858098457233588e-01,-3.845757678020738646e-01,-4.103832445749018842e-01,-1.960962984787998666e-03,-3.343271007182563228e-03,5.535751766942204402e-03,4.495364800095558167e-02
-3.979703525038943979e-01,-4.079526228209880978e-01,-4.296316952284091606e-01,-2.999827868993634478e-03,-7.574281497339726025e-04,3.636227524560303303e-03,2.923044189810752869e-02
-5.926761457088111085e-01,-5.098266838498854980e-01,-1.899786030968082795e-01,2.109772672842531727e-02,-1.033274599019795223e-02,-3.547098035573183206e-02,3.756278455257415771e-01
-4.342455700942892682e-01,-3.485787962078341629e-01,-4.069024265831182041e-01,-1.862544674190440980e-02,-1.844619356310171071e-02,4.273136368747081776e-02,1.152538955211639404e-01
-4.016072025441305149e-01,-4.069764899080540732e-01,-4.278647553962920402e-01,4.091035143691989541e-03,1.845782043124231204e-03,3.735487355450144587e-03,2.606906183063983917e-02
-4.330100015614328779e-01,-3.991358972181403009e-01,-4.021026619572604099e-01,4.162271058640230306e-05,4.909067585952784100e-05,1.207168882965396761e-03,3.255985677242279053e-02
-4.296567694357940059e-01,-4.105967082392160683e-01,-3.943618866545395285e-01,-4.689815107718955239e-03,-1.367252807845136279e-03,2.235006630658729985e-03,3.198232501745223999e-02
-4.312265011406757331e-01,-3.998730406446278640e-01,-4.019445769386652545e-01,-4.479372233159150535e-04,-2.737011939377823381e-04,7.889457793810622814e-04,3.041504323482513428e-02
-4.188192850721912941e-01,-3.914573269786911780e-01,-4.201451192400499357e-01,-3.011758838576138013e-03,-5.518586051938762990e-03,2.968642905367220933e-03,3.052420355379581451e-02
-4.407854124226301962e-01,-4.258160925160922039e-01,-3.748520123782979607e-01,5.613072776243211402e-04,-5.067518058608560735e-03,2.627675033565550142e-02,7.572121918201446533e-02
-4.104148453497974414e-01,-4.105953962221705056e-01,-4.066678194560773285e-01,-1.174247175692517270e-02,-1.387090671864600264e-02,1.436331156430964602e-02,4.030541703104972839e-02
-4.887188072973874808e-01,-4.298574543811946036e-01,-3.534873959582993663e-01,-4.716081757735844648e-02,-4.769831850371378940e-02,9.369700408185839546e-02,2.315760999917984009e-01
-4.273850059949342306e-01,-4.020656648670524747e-01,-4.024350107999477566e-01,8.371728107214429547e-04,1.634481667489418033e-03,1.231334138359941937e-03,2.542674914002418518e-02
-4.314111296138307128e-01,-4.167232122334667554e-01,-3.015569955076896624e-01,-2.634703663837161328e-02,-5.255300925722839606e-02,6.655522593451798641e-02,1.970464289188385010e-01
-4.504322857060283347e-01,-4.257207591570468797e-01,-3.778689219831135593e-01,-4.335590791650762582e-03,-8.568744217238704122e-03,2.376555424547244222e-02,7.780756056308746338e-02
-4.349924961042315741e-01,-4.137246726638585947e-01,-3.524739404628299821e-01,-1.188844874014553972e-02,-1.733251845693423165e-02,3.155286890763261964e-02,9.908908605575561523e-02
-4.201853483176007376e-01,-4.064433977565418687e-01,-4.045680712489657660e-01,9.083639827618660576e-04,2.412776263167135376e-03,1.182242327844348906e-03,1.556475646793842316e-02
-3.970643486877331041e-01,-4.095000749179552590e-01,-4.417484699922163416e-01,-4.260515308519601668e-02,5.782360406980097817e-02,-2.566132286774327684e-02,1.380125135183334351e-01
-3.996915669205293176e-01,-4.126137709067643211e-01,-4.260076603808115592e-01,-1.241850435167528646e-02,8.068850948062039272e-03,-6.030607530536911606e-03,3.586836531758308411e-02
-4.401970886492856949e-01,-3.775098223333254177e-01,-4.184397465206718958e-01,-3.578191501274175884e-05,2.422341950618712818e-03,6.583424915170991119e-03,5.645173788070678711e-02
-4.185245524489759061e-01,-3.835214197783552437e-01,-4.284233647565426351e-01,-3.470922989736060886e-03,-4.911064553891107166e-03,2.574888599519472264e-03,4.240380972623825073e-02
-3.910966018303049241e-01,-4.117299087457261808e-01,-4.317795156798849843e-01,-1.528223113547414608e-02,3.719615831297656047e-03,-3.632367144488666752e-03,4.497931152582168579e-02
-4.084494132754278306e-01,-3.792645232321313342e-01,-4.313632584928122626e-01,-2.264126660246696884e-02,9.980366599420864571e-03,-9.734365683692319804e-03,6.454856693744659424e-02
-4.101751195092694369e-01,-4.001301021453123608e-01,-4.336396675127587863e-01,-1.489382051785538216e-02,7.660361876953658208e-03,-6.593545652854921300e-03,4.311768710613250732e-02
-3.249073364109065221e-01,-4.181369947392462594e-01,-4.480112484703904774e-01,-6.768638476867644416e-02,2.382481566405922693e-02,-2.585698653584387816e-02,1.726915240287780762e-01
-3.924641607855003378e-01,-4.153275640535795121e-01,-4.584839945060467103e-01,-3.908717132131897531e-02,-4.071356608114305373e-03,2.313822761767026295e-03,8.956073969602584839e-02
-3.871465568978960659e-01,-4.184326277598549026e-01,-4.236271261884645423e-01,-3.816039008131051190e-03,-2.343330135799689008e-03,7.590020688565322221e-03,3.743396699428558350e-02
-4.090908665916837550e-01,-4.105848979187665115e-01,-4.114088860647833190e-01,-1.092993518841427203e-02,-1.472624598303924962e-02,1.293959711583713389e-02,3.892838582396507263e-02
-4.333909915800691626e-01,-4.017989775655684825e-01,-4.005274986293372863e-01,5.207508370989400240e-04,9.072639952622317907e-05,2.177281903279168138e-03,3.247923031449317932e-02
-3.838071380404231570e-01,-4.096783421853719132e-01,-4.109638165587404246e-01,-1.913762591651711059e-02,-1.856604476149860405e-02,1.488082716940009563e-02,5.917250737547874451e-02
-3.717149276948271130e-01,-4.188284120546703626e-01,-4.297309781049297173e-01,-1.146384888541830162e-02,-6.130696011507562847e-03,9.713186564504542458e-03,6.035112217068672180e-02
-4.064517009331133912e-01,-4.196275783955124572e-01,-4.109371075630895431e-01,-1.222956424724095173e-03,-2.678885803256914749e-03,5.653589779847370371e-03,1.601651683449745178e-02
-4.106239344101533240e-01,-4.096999716658109580e-01,-4.103726786993098785e-01,-3.108466050458590264e-03,-2.722997901426905780e-03,2.808599165838393530e-03,8.693745359778404236e-03
-4.046489179343239484e-01,-4.047224531499150069e-01,-4.200347844982374457e-01,1.470784615690559291e-04,-7.896435201092447641e-04,1.059512742597539317e-03,1.552102155983448029e-02
-4.273394489554608322e-01,-4.031245041889980341e-01,-4.010613868799693393e-01,1.536085219240654028e-03,8.838080106451479904e-04,1.086474548142311522e-03,2.556446008384227753e-02
-4.253045257829668468e-01,-3.584227417330390630e-01,-4.284677999002479143e-01,-6.623495612296521895e-02,-4.350428910083556366e-02,4.343642500988632860e-02,1.708624958992004395e-01
-4.193938007134017099e-01,-4.051315571952780470e-01,-4.061118957231114601e-01,2.557095054994401508e-03,1.229287048058053979e-03,1.337942472025344543e-03,1.482938788831233978e-02
-3.924426832395506159e-01,-4.124306148617589152e-01,-3.959666576618058875e-01,-2.646380195850196043e-02,-3.062948824005368512e-02,2.560040768298744995e-02,8.498904109001159668e-02
-3.706962224625953151e-01,-4.323787106355318488e-01,-3.904435485415266305e-01,-3.402904744599503928e-02,-5.519827726343558977e-02,3.040633739239604477e-02,1.355165541172027588e-01
-4.235677437439607229e-01,-4.172502229532613072e-01,-4.008339144805922460e-01,8.930665366217388837e-03,9.316906765442934529e-03,9.652715088021242285e-03,3.453007340431213379e-02
-4.335474278911554680e-01,-4.072380189613737378e-01,-3.848716608683592777e-01,-9.152069193377593975e-03,-1.011110256389967724e-02,2.031400603691877610e-02,5.980673432350158691e-02
-4.454900580521408138e-01,-4.592171814610946923e-01,-3.610443279137843242e-01,4.402542852218364411e-04,3.452325037242358341e-02,1.439574238010870449e-02,1.125902757048606873e-01
-4.404910333127997069e-01,-4.111956683043033745e-01,-3.512317404967669754e-01,-2.732272645571320532e-02,-5.291528262779447711e-02,5.241445499116884066e-02,1.584047228097915649e-01
-4.054570794019652924e-01,-4.242053248995770187e-01,-3.820608995807547870e-01,-1.081961138528232669e-02,-2.116891991198966566e-02,1.880975473893737454e-02,6.398826092481613159e-02
-3.998698897037775701e-01,-4.215256720458722128e-01,-3.974170838934192318e-01,-8.347686181748199818e-03,-1.382712287887379564e-02,8.935811050161980573e-03,3.937349840998649597e-02
-4.467247448667082677e-01,-4.543044817160665216e-01,-3.758411833044424943e-01,-1.332497313336723256e-02,-2.892244501210570681e-02,3.296717606248561472e-02,1.091874688863754272e-01
-4.147640668872916714e-01,-4.081494414038840390e-01,-4.101475301466958601e-01,1.015916377988362570e-03,6.194011742158357691e-04,9.704154206956702201e-04,6.449912209063768387e-03
-4.134696352665546693e-01,-4.075524747331182307e-01,-4.074703522487989615e-01,8.576942187377592335e-04,2.002110878346300294e-03,4.969620675282569559e-04,7.104832213371992111e-03
-4.037448140194834778e-01,-4.129505675231591177e-01,-4.144446036441568060e-01,-8.651174292307826572e-03,-6.140388159102852517e-03,9.661061900470710451e-03,2.680264227092266083e-02
-4.063362951146961555e-01,-4.332265646133233727e-01,-3.700531301700368259e-01,-7.160694816788979768e-03,-2.043290984308038238e-02,1.104002693086884521e-02,6.918961554765701294e-02
-4.175750149638462472e-01,-3.871989976216682061e-01,-4.300576630899254349e-01,4.786305848214895270e-03,5.481744879929797629e-03,2.028869940255098592e-03,4.035982862114906311e-02
-4.103310647426138269e-01,-4.089806714342015814e-01,-4.147796475357213297e-01,7.068374187057789061e-04,4.788772752919377403e-04,8.821479172807740248e-04,5.669406615197658539e-03
-4.132104001322949860e-01,-4.495489207902329531e-01,-4.007928937336037722e-01,-2.051009283905872935e-02,-4.064837498753089140e-02,2.197436594448250180e-02,9.794589132070541382e-02
-4.047274378044902754e-01,-4.031754614264135284e-01,-4.232732676306009134e-01,-8.491266985431952102e-03,-7.602865603273427191e-03,8.019360671589353257e-03,3.094810247421264648e-02
-4.121559493790159512e-01,-4.072451402270436671e-01,-4.121581309292413065e-01,1.550887579393628486e-03,3.791362270302489103e-03,1.384071383384614809e-03,8.956157602369785309e-03
-3.799803395283571361e-01,-4.498130036308325974e-01,-4.287265063116839081e-01,-1.283910903003552748e-02,-2.424539449057979551e-02,8.482105671993249441e-03,7.951477169990539551e-02
-4.099939607083136206e-01,-4.098383294697877655e-01,-4.116909568635596650e-01,2.490375037845547843e-04,1.067894034495708811e-03,5.857850641594024169e-04,2.793708583340048790e-03
-4.298425681159026013e-01,-3.583985161813395548e-01,-4.166714764040162500e-01,1.253983685300752091e-02,9.902194505904578226e-03,2.323034890183394569e-02,8.198526501655578613e-02
-4.254220302158144840e-01,-3.997480483287661479e-01,-4.260900387289761060e-01,1.260147524533276192e-02,7.387163026034412015e-03,1.188401532039929688e-02,4.171979799866676331e-02
-4.197767763305449984e-01,-3.955195897660829796e-01,-4.195390505429339445e-01,2.356868533411803687e-03,5.979164579346296984e-03,2.496957818987394131e-03,2.693178690969944000e-02
-4.084444431956076316e-01,-4.053759954035272561e-01,-4.206259476464997982e-01,1.478043774241945144e-04,-2.317632421146645361e-03,1.060988546594385760e-03,1.465399656444787979e-02
-4.157815617636330674e-01,-4.069631964779096278e-01,-4.062474467722499427e-01,3.149852985875733775e-03,1.988327556824049346e-03,2.246847140837748315e-03,1.188939157873392105e-02
-4.096722243483729153e-01,-3.899491618359790523e-01,-4.275131810476671124e-01,6.550692921531692421e-03,5.110646049194523394e-03,2.352926150645785319e-03,3.581726923584938049e-02
-4.018702561449729593e-01,-4.065307951657012309e-01,-4.235651727931973864e-01,3.723022526302952918e-03,2.512302832988872435e-03,4.268138207301186079e-03,2.250441536307334900e-02
-4.017018355113910477e-01,-4.027278613752747760e-01,-4.272148423062742673e-01,2.112913960224443478e-03,1.612091127664942161e-03,2.276807919738718829e-03,2.573966793715953827e-02
-4.021660077343406359e-01,-3.995819814136229997e-01,-4.221998383415219713e-01,2.926496378693588859e-03,3.383490912406389006e-03,1.683352657152372821e-03,2.298559807240962982e-02
-4.100916390363311126e-01,-4.114804639326600788e-01,-4.102894205156343288e-01,1.378926025351425214e-04,1.395692499572448485e-04,3.104367222799414572e-04,1.448400085791945457e-03
-3.966293128194238737e-01,-4.118448945843564690e-01,-4.315751298750350462e-01,1.228606704587998678e-02,4.935796037492531756e-03,9.122558106189369159e-03,4.118974134325981140e-02
-4.079296501666537234e-01,-4.083300952275105145e-01,-4.142741055600856481e-01,2.392636469475163403e-04,-7.462516419916367938e-04,5.011037738658412300e-04,6.361414678394794464e-03
-4.027337736957894987e-01,-4.052571939702950266e-01,-4.277724708788834262e-01,9.296456741612550267e-04,1.187372107008085025e-03,1.809521847486297635e-03,2.422325871884822845e-02
-3.994411888843547032e-01,-4.315968587978237236e-01,-3.937253149192332380e-01,-1.455788117136213667e-03,3.761162529801746496e-03,-2.563631392364928985e-04,3.604788705706596375e-02
-3.987751440153586291e-01,-4.123119755885271132e-01,-4.137439783507181335e-01,-3.500596813515811923e-03,-2.043633846346024074e-03,4.613688068092118219e-03,1.782782748341560364e-02
-4.042620255612616731e-01,-4.364288871911667367e-01,-4.022685042067135064e-01,1.495609912191277766e-03,6.453812656849475596e-03,1.313651292681249343e-03,3.520864993333816528e-02
-4.736341369742322338e-01,-1.591077192670950768e-01,-4.714075073247894765e-01,1.194494131326835282e-02,-3.821598088819716174e-03,4.288446643710745743e-02,3.228321373462677002e-01
-3.988610484381639454e-01,-4.316845132824551623e-01,-3.945758040009164080e-01,-7.207645572509726196e-04,3.619401460546747828e-03,4.462059245021357903e-04,3.574710711836814880e-02
-4.312538289454502793e-01,-3.990377927280929216e-01,-3.968704485090592815e-01,3.500289112932329898e-03,2.458737763154671737e-03,4.158329370974525076e-03,3.491648659110069275e-02
-4.021720346660379031e-01,-4.314423724910592117e-01,-4.021545095618258570e-01,8.651889490527434274e-04,2.804660176936470519e-04,7.004852650328364291e-04,2.934654429554939270e-02
-4.273630192148512030e-01,-3.989727045674923422e-01,-4.071796702879754704e-01,-1.154233875156839310e-03,-2.834593535144097707e-03,1.499303083928169543e-03,2.598482556641101837e-02
-3.945092016824596759e-01,-4.314044285937941869e-01,-3.993658273076139409e-01,7.562000212418196676e-04,4.010724463995935657e-03,1.324596574529446303e-03,3.550908714532852173e-02
-4.325325173331934780e-01,-3.938755208751071324e-01,-4.056828999417321224e-01,-1.100288478815253553e-03,-4.880950897602314960e-04,2.233269063867245226e-03,3.459261357784271240e-02
-3.588794553030253409e-01,-4.333337781802080180e-01,-4.395968408458574839e-01,-5.822404548010254137e-03,2.832393042138200805e-03,-7.259278263627791123e-04,7.858965545892715454e-02
-3.965948824954516061e-01,-4.298457422731956634e-01,-4.012288379557841234e-01,-1.282570077782042330e-03,3.836792935041195840e-03,-2.352807196403651317e-03,3.222910687327384949e-02
-3.978442823379336746e-01,-4.268172878732701125e-01,-4.011888241421520673e-01,-1.073629538301282662e-03,4.401114838287155211e-03,-2.224613768126444679e-03,2.881204150617122650e-02
-4.057403018752317458e-01,-4.330243013155538057e-01,-4.033883067591580995e-01,-3.185914796070924218e-03,4.361648777110863594e-03,-2.903582952558746762e-03,3.044560365378856659e-02
-4.003720775397485721e-01,-4.243049474730227200e-01,-4.013049043082668188e-01,-1.385548849280014705e-03,3.866357557186228967e-03,-2.137609483287259988e-03,2.481210790574550629e-02
-4.046219048826371067e-01,-4.249097222357220982e-01,-4.021053713467361290e-01,-3.254280387079638761e-03,4.556737742139552877e-03,-2.045044020840015245e-03,2.399151213467121124e-02
-4.103147421399025996e-01,-4.141462493477229834e-01,-4.117505733695922543e-01,4.446302349158211091e-03,5.330831955369215447e-03,6.219157647097483567e-03,1.648746617138385773e-02
-4.130540536765215376e-01,-4.035234996775278749e-01,-4.217643273392255865e-01,1.506250023285018438e-03,3.126108870696154337e-03,1.182403649584392192e-03,1.703033596277236938e-02
-4.044489998646185192e-01,-4.044847038360405156e-01,-4.209293632822419529e-01,6.743053223477975863e-04,1.255049191928639700e-03,6.893609307681813599e-04,1.668922975659370422e-02
-4.004238805766502374e-01,-4.118496037632345952e-01,-4.241126376871043879e-01,9.036713076498999880e-03,5.869359106974796417e-03,5.100937027853029611e-03,2.911076322197914124e-02
-3.916376617552203010e-01,-4.097134761639608103e-01,-4.224142228000863919e-01,4.557188084217464810e-03,3.007166735311329539e-03,5.241133586304728975e-03,2.982384711503982544e-02
-4.366518626294995098e-01,-3.951560091099091121e-01,-4.064829376179580622e-01,-2.711124171885327455e-04,1.724355280750233289e-03,4.945559243869595070e-03,3.824527561664581299e-02
-3.993243293235336222e-01,-4.103539677956137832e-01,-4.237033126840874520e-01,1.643669818597400965e-03,1.961775516468165781e-03,4.204463746690974973e-03,2.279867418110370636e-02
-4.358746934935325834e-01,-3.946756834988587315e-01,-4.078286822692699376e-01,-1.086019257112645110e-03,-2.391786007962555007e-03,2.245679760466723872e-03,3.693641349673271179e-02
-4.018958235833772208e-01,-4.131910768078966290e-01,-4.146608800673390327e-01,1.721563250092075477e-03,1.552719965622575320e-03,4.472729139605150298e-03,1.491592917591333389e-02
-4.051857385869521155e-01,-4.139918276081993587e-01,-4.152844117045482730e-01,6.099003912049582969e-03,4.636279709522383649e-03,4.418645270529353818e-03,1.803476363420486450e-02
-4.006273005850963798e-01,-4.065496202209896714e-01,-4.233136526915729503e-01,2.458354564037237757e-03,2.337426190902842232e-03,3.450351059352641664e-03,2.203689143061637878e-02
-4.298345781381897601e-01,-3.890454060882435061e-01,-4.201076764148549691e-01,3.408591672984243731e-03,4.879871106902778331e-03,4.407456500907281499e-03,3.906646743416786194e-02
-4.422886383898327889e-01,-3.505906326945802398e-01,-4.317841204373155106e-01,-2.354544388123439719e-03,-3.512051468740156474e-03,6.647828531980018787e-03,8.798773586750030518e-02
-4.203758058363264438e-01,-4.033060900037450658e-01,-4.108763075890664584e-01,1.239833652485285284e-03,4.574913159149797404e-03,1.860469000530508591e-03,1.724085398018360138e-02
-4.080157583773278973e-01,-4.108849772246487841e-01,-4.140855628856078829e-01,2.834254834538946113e-04,9.210793361069855543e-04,2.259150854797305555e-03,6.764376070350408554e-03
-4.083019720374487238e-01,-4.071989756751588363e-01,-4.167593459433925895e-01,6.600380463284585917e-04,1.778327374856663408e-03,6.084245587694428123e-04,9.694176726043224335e-03
-4.294096479311100278e-01,-3.972112472888584267e-01,-4.093180221627639725e-01,1.391928621031147907e-03,3.364522467573274802e-03,3.061884537303496794e-03,2.934944815933704376e-02
-3.943404991514154467e-01,-4.069307883118693514e-01,-4.359904483046354584e-01,-2.959197934648114762e-03,2.727808598954185697e-04,8.707914916879850231e-04,3.738472238183021545e-02
-4.123613292366092309e-01,-4.103856845773923845e-01,-4.094990723682611633e-01,-8.507841392800096630e-04,8.386813216092614141e-05,5.633064244423358416e-04,3.096034284681081772e-03
-4.179948157965818756e-01,-4.107993912302119188e-01,-4.097662146653849868e-01,-1.649204350576067126e-03,-2.949264167428171206e-03,1.977371976082288683e-03,1.030824147164821625e-02
-4.157184511774876245e-01,-4.077832414913992731e-01,-4.065459419651191730e-01,-1.898177608171658457e-03,-5.681802316946755419e-04,8.149423538361846679e-04,9.385457262396812439e-03
-4.310253410570963895e-01,-3.917318912182912172e-01,-3.923459347888244020e-01,-3.603324954792421105e-03,-2.752377686283718951e-03,1.317107622903007993e-02,4.585122317075729370e-02
-4.073989525091929464e-01,-4.050432652146886414e-01,-4.161464228262817810e-01,1.085595127438255224e-03,2.613574048736165729e-03,1.539874821179238644e-03,1.156785618513822556e-02
-4.007522697806368828e-01,-4.325123998966133310e-01,-4.038810559706798586e-01,3.651830999198942885e-04,6.225048383073127425e-04,1.324097874726447299e-03,3.042937442660331726e-02
-4.119458743446825499e-01,-4.114406871167594071e-01,-4.069021163846862632e-01,4.144691117206056319e-03,1.274399464691469610e-03,1.491228455420371812e-03,9.285775944590568542e-03
-4.138526869843922595e-01,-4.091397154875665021e-01,-4.073556798731296502e-01,-2.250318014142751490e-03,-1.103134008935392979e-03,5.616035230134842297e-04,7.320635020732879639e-03
-4.344224284727148389e-01,-3.580524663566404531e-01,-4.314949642451917922e-01,8.408508295877928362e-03,-6.816301346836335130e-03,-5.624733009260188786e-03,7.787026464939117432e-02
-4.398143789916907354e-01,-3.481765702644839533e-01,-4.401430776394402167e-01,1.193435800433213442e-02,-4.467296785494031738e-03,-1.021617642347060970e-02,9.606239944696426392e-02
-4.234933298910233956e-01,-3.802496753139171792e-01,-4.246779965826696368e-01,6.468988313029910321e-03,-7.915389151138926133e-03,-7.732427904029091220e-03,4.914795234799385071e-02
-4.305806685988810001e-01,-3.767020753902577401e-01,-4.253574495323840243e-01,3.428487392922961990e-03,-6.617676474655772439e-03,-8.093754722522881681e-03,5.488111078739166260e-02
-4.222468058509798450e-01,-3.786412856090977663e-01,-4.379803202269011986e-01,2.101289549818479568e-02,-4.666731517136550947e-03,-1.001134878475733528e-02,6.727328151464462280e-02
-4.211776322049867738e-01,-3.730913714617862809e-01,-4.315164035077456162e-01,7.787253336784966291e-03,-6.704898446196833756e-03,-2.858890542366673056e-03,5.707575753331184387e-02
-4.020544892955226213e-01,-4.028990113809784446e-01,-4.331384190365623055e-01,6.420058782562002367e-03,-2.541932989340429678e-03,-8.880536475172853177e-04,3.295564278960227966e-02
-4.025945706586181450e-01,-4.011697366537991249e-01,-4.307490513258497300e-01,6.848894382125606884e-04,-1.437305394279050214e-03,-4.247307981428997069e-04,2.903388254344463348e-02
-4.072359102388045105e-01,-4.079522551374432648e-01,-4.172100971541912173e-01,-4.269855191077441547e-04,-3.810513544111908055e-04,1.802914115289957131e-03,1.017775200307369232e-02
-4.055893368216289541e-01,-4.149806422863520083e-01,-4.062791749031228750e-01,3.419070780876526383e-03,1.742365444288436829e-03,2.415540379857176838e-03,1.199483964592218399e-02
-4.018044717079399808e-01,-3.999903005624213526e-01,-4.335350523815101886e-01,9.145044284640554792e-04,4.811412238766809538e-05,-2.556804762582785742e-04,3.271693363785743713e-02
-4.015237271456271739e-01,-3.968067717353250812e-01,-4.321329767963301149e-01,4.500228443740429164e-03,-1.646300826895577465e-03,-8.268444732427535516e-04,3.427092730998992920e-02
-4.072956061440157205e-01,-4.060919960733198608e-01,-4.170011468907573460e-01,1.765709158082359774e-03,-2.846422872164732290e-03,-9.806591728590320373e-04,1.199468690901994705e-02
-4.076058489335646073e-01,-3.891965670247511389e-01,-4.208389272867557040e-01,5.758337348762031065e-03,-4.925970485648701810e-03,-3.211974485622548503e-03,3.099755942821502686e-02
-4.343670523407222595e-01,-3.756103259084816459e-01,-4.172579626998313973e-01,-4.547574328733275384e-03,-4.108120131007763059e-04,3.751215909994613535e-03,5.333443731069564819e-02
-4.378414297454946147e-01,-4.093242669321999760e-01,-3.693282371740186365e-01,-1.163327885081611324e-03,-5.349462177750835892e-03,1.815016153159969628e-02,6.805644184350967407e-02
-4.064939235316021304e-01,-4.009858064879208706e-01,-4.224920880174057869e-01,2.352359191147970329e-03,-3.478804289963728646e-03,-2.781836173683387321e-03,2.122553251683712006e-02
-4.124717013219633688e-01,-4.010519630732746754e-01,-4.155889319445244534e-01,5.134100181466516241e-03,-4.834604915758834373e-03,-5.888395951457420924e-03,2.071092277765274048e-02
-4.112101212723195398e-01,-4.076369664922186997e-01,-4.242568171255258203e-01,8.173758488607296702e-03,-4.707900921444903991e-03,-6.515901476148408186e-03,2.497791871428489685e-02
-4.355001521766603267e-01,-3.767129526867410982e-01,-4.174669536307877293e-01,-5.098848138439299096e-04,4.369029589487989640e-03,6.558936557957337904e-03,5.392693355679512024e-02
-4.191457489426441141e-01,-3.837998420276406697e-01,-4.297504136617647519e-01,-3.479209388903694005e-03,-5.585933672904107826e-03,2.556313717567768387e-03,4.342983290553092957e-02
-4.217517561449038999e-01,-4.026477350099082475e-01,-4.006096290815612249e-01,-2.635253417060812696e-03,-1.072881033829794139e-03,3.237589487072316859e-03,2.153570018708705902e-02
-4.342282223589820633e-01,-3.756529651982943863e-01,-4.308813502706892451e-01,-3.194398502674723663e-03,-4.773306537983719802e-03,4.374087037899793140e-03,5.833165720105171204e-02
-3.786783407629599751e-01,-3.331765480381866373e-01,-4.402822349672562696e-01,1.421656818914081577e-01,5.596067022320392464e-02,7.997750655900849603e-02,3.128670156002044678e-01
-3.748051403417724803e-01,-4.187764529736935915e-01,-4.305755526180939374e-01,-4.135368987221390083e-03,1.599124327939864879e-03,-6.629410000469521634e-03,5.274788662791252136e-02
-4.221130969890569684e-01,-3.896421429591080954e-01,-4.179846372833484480e-01,-6.317600814027007732e-03,9.300386296936951486e-03,-4.169940512192132909e-03,3.699655458331108093e-02
-3.669811228849729767e-01,-4.289137063211755918e-01,-4.331939429833497335e-01,-5.227392300842405651e-03,4.504304991567556135e-03,-3.766074456403550267e-03,6.560826301574707031e-02
-3.536732376757957819e-01,-4.263454283779585796e-01,-4.451326441112394838e-01,-3.437302753726305393e-02,5.338348893730767049e-03,-5.898693476578466786e-03,1.036045700311660767e-01
-4.275630349925268470e-01,-4.014604682912881195e-01,-4.049860079033818505e-01,-9.180684351287954825e-04,-4.097855937173723248e-03,3.784719107302052417e-03,2.641260810196399689e-02
-3.595574145688963386e-01,-4.344180553208762952e-01,-4.435512984252948376e-01,-5.838274831379952796e-03,2.753397338661636804e-03,-2.448795225185001860e-03,8.071085065603256226e-02
-4.265787381139602985e-01,-4.029275689691541595e-01,-3.985167632114173242e-01,-3.421983832215659202e-03,-1.252521950967911985e-03,4.011753393710250012e-03,2.777179516851902008e-02
-4.223221915280563343e-01,-4.031629328039710303e-01,-4.042319511193291359e-01,-1.063322836999766163e-03,-2.265487264918876822e-03,7.028404729980741250e-04,1.918357610702514648e-02
-5.185863539589135041e-01,-3.779733413674922771e-01,-5.365621577995585145e-01,1.331930570355370214e-01,-7.558739437777386994e-02,-1.268970039680882567e-01,3.758894205093383789e-01
-4.589997662495494679e-01,-4.327767521343107715e-01,-3.142369333535882103e-01,-1.314953804992353807e-02,2.324769603575615323e-02,-2.883338695300956614e-02,1.499399691820144653e-01
-3.540401529709569228e-01,-4.441251056881976855e-01,-4.378466844437517991e-01,5.464276918801712346e-03,6.236018759046869919e-03,4.896528516761981115e-03,8.869776129722595215e-02
-3.950022513033783489e-01,-4.206560652142554146e-01,-4.195266486924514870e-01,-2.594110590795385869e-03,2.347350899566912931e-03,-5.228119726022597766e-03,2.737038582563400269e-02
-4.099124284881497937e-01,-4.028896180445818986e-01,-4.206083074779307096e-01,2.421273672109090433e-03,4.616104738688850753e-03,1.363214631074512271e-03,1.805338822305202484e-02
-4.376512191097622351e-01,-4.371666270412314925e-01,-3.464114071020102381e-01,-9.682654344060077911e-03,-1.088730541477402579e-02,1.138296823003540417e-02,9.646917134523391724e-02
-4.167011089421614467e-01,-4.378618038128272438e-01,-3.178249599278061277e-01,-8.785096370273151600e-03,4.672368550187285668e-02,-1.554382477899942348e-02,1.407914459705352783e-01
-4.870789162925843185e-01,-3.673700366498778846e-01,-4.416917531939864583e-01,2.800446036549516377e-02,1.895446679351916325e-02,7.180920979132383863e-02,1.727924048900604248e-01
-4.197323746801046029e-01,-4.302516446155505991e-01,-3.630993811844265284e-01,-6.421732737031751043e-03,2.358072665403634569e-02,-8.123320475989884507e-03,7.683438062667846680e-02
-3.713857979338043847e-01,-3.783223591592326795e-01,-4.443160196340160684e-01,-5.964177696809850465e-02,-1.490631043574494434e-02,1.044960671428172769e-02,1.285560131072998047e-01
-3.895986552967528604e-01,-4.047336065722590415e-01,-4.204667676204318916e-01,-1.829587590291770205e-02,-9.635555023103543892e-03,1.115433319652315430e-02,4.869010299444198608e-02
-4.076382712266603536e-01,-4.077034010956186449e-01,-3.905902757221506039e-01,-1.175249668215573758e-02,-1.312174582076709554e-02,1.360692505947979671e-02,4.216749966144561768e-02
-4.094252603108084476e-01,-4.085341279673064263e-01,-4.174977825017140431e-01,-3.928270073934436897e-03,-3.362224045607422815e-03,3.586312231434671694e-03,1.385445427149534225e-02
-4.081514437455689426e-01,-4.035560954931916577e-01,-4.202998231747647750e-01,-1.349205555950362158e-03,-3.399110171503327490e-03,1.603353329522308815e-03,1.650337874889373779e-02
-4.130351681411653098e-01,-3.931607950062522283e-01,-4.228941106981704556e-01,-4.538562866967067906e-03,-6.580652442288417898e-03,3.099838064575936337e-03,3.014411032199859619e-02
-4.020187310380313739e-01,-4.058722433305414490e-01,-4.536176748100775868e-01,3.070785461061177959e-02,1.237951364941983733e-02,1.047994120055362015e-02,7.808088511228561401e-02
-4.331324143077395772e-01,-3.467010051897095879e-01,-4.529051138449187164e-01,3.220850680913216191e-02,1.059173537852445453e-02,2.615386484894522204e-02,1.227644979953765869e-01
-4.173157894326962047e-01,-4.016471670445885267e-01,-4.370103632030526430e-01,3.400412874705683458e-02,2.037954124484297330e-02,2.097752117391609578e-02,8.352818340063095093e-02
-3.766957914930128548e-01,-4.404517093355941326e-01,-4.182683770838172554e-01,6.160333421198751699e-04,3.940101466498567746e-03,3.334702557867146727e-03,5.677738040685653687e-02
-4.045967891042195896e-01,-4.020424224423219117e-01,-4.202275266410214205e-01,1.398128317531902249e-03,2.280805127027608816e-03,1.203432782767465152e-03,1.779288239777088165e-02
-3.964255501736911880e-01,-3.624239996746349557e-01,-4.249463872933880726e-01,5.939771024339050853e-02,2.524950206859178856e-02,3.248809431576452078e-02,1.363913565874099731e-01
-3.825090576598067504e-01,-4.021662556039643510e-01,-4.596446459205825175e-01,7.566482506151391008e-02,4.042863913232355028e-02,4.756030343752214173e-02,1.835344731807708740e-01
-4.220500349570249221e-01,-3.688653847965389643e-01,-4.323574360995286470e-01,-8.410640304867130282e-03,6.710816174313528545e-03,-5.696462325322906861e-03,6.267149001359939575e-02
-4.037877345843691734e-01,-4.049701088163450424e-01,-4.248190781770612157e-01,1.095938743387000472e-03,1.542709397396475500e-03,1.525202629919129686e-03,2.089426480233669281e-02
-4.315202389042754882e-01,-3.640408482395377510e-01,-4.207355664637204562e-01,3.159100696103127326e-02,3.283841653802376664e-02,4.061327291689197788e-02,1.229609996080398560e-01
-4.178955477751911674e-01,-4.283129905566090412e-01,-3.773303284211197983e-01,5.840563367411556045e-03,4.097052160158144024e-03,1.651695126012758938e-03,4.834794998168945312e-02
-4.011138849090465364e-01,-4.116520593076573586e-01,-4.198486642262905244e-01,-8.758237887920187559e-04,2.427843542611200604e-03,5.058192744733545215e-03,1.900934241712093353e-02
-4.046230314344198553e-01,-4.046000120566375924e-01,-4.250231496206601789e-01,-6.751434045581129317e-04,-1.990077722408894675e-03,1.639767235196699880e-03,2.092725783586502075e-02
-4.621039106775379213e-01,-3.626299399995968620e-01,-4.436030771428438046e-01,2.324603820644067717e-02,1.289892506784539455e-02,2.921709462610328975e-02,1.143599450588226318e-01
-4.425408703166588409e-01,-3.684292124180924555e-01,-4.424291346061107189e-01,-3.278982231305595935e-03,1.641258055033477381e-03,-1.238509002416386499e-02,7.736133784055709839e-02
-4.177209537578223664e-01,-3.890281676366560970e-01,-4.350524542332061539e-01,-1.133561997237901749e-02,3.607093869160272852e-03,-4.221542928710404589e-03,4.581410810351371765e-02
-4.090989339510640033e-01,-3.948965912267093925e-01,-4.324496935019465083e-01,2.182942608511714757e-03,2.498551937137633884e-03,8.687928511100542186e-05,3.334136679768562317e-02
-4.021418184623323233e-01,-3.981157229807364972e-01,-4.271010661325994606e-01,-3.569542018439483648e-03,-3.177090817945058508e-03,1.484186997909517141e-03,2.854429557919502258e-02
-3.633391240735948657e-01,-3.733283858795902188e-01,-4.311958685332041297e-01,-5.675928962812205880e-02,-2.273887125620428079e-02,2.715150942782668109e-02,1.321140378713607788e-01
-4.408972396728387255e-01,-3.541231279480899774e-01,-4.407167727336655516e-01,-5.758111636538255050e-03,5.431579508518540392e-03,-5.705757915204026816e-03,8.831624686717987061e-02
-4.053268311881606523e-01,-4.129780107100486930e-01,-4.201959463125929939e-01,-1.717961542604769330e-03,-1.579456968225410787e-03,3.704730990324483705e-03,1.494584139436483383e-02
-4.168184902259422508e-01,-4.172842400626063930e-01,-4.023850231025915547e-01,-7.379268747937785949e-03,-5.055336250509169516e-03,6.207049157861002121e-03,2.389302663505077362e-02
-4.064834472863457226e-01,-3.934751810898715618e-01,-4.327734509845114763e-01,-2.679352614076954079e-03,-4.852909830689358097e-04,1.085606152985963118e-03,3.504490852355957031e-02
-3.996929824978412427e-01,-3.955381643296752570e-01,-4.293915537128202287e-01,-4.793442809978544494e-03,-2.415434698637282732e-03,6.951317205048707006e-04,3.332482278347015381e-02
-4.373910510136179153e-01,-3.298305606888116692e-01,-4.114363358654148373e-01,-9.130045520221813371e-03,6.497302832429251336e-03,-4.893148205284981317e-02,1.304254233837127686e-01
-4.088111789022236264e-01,-4.282373927652298184e-01,-3.870598655186285875e-01,1.241244431146769529e-02,-1.685153385378011792e-02,-1.092218200535875761e-02,5.426835268735885620e-02
-4.484164442549203322e-01,-3.642327749062549969e-01,-4.259688113935483633e-01,-2.161914833080744169e-03,-2.020833090563459167e-03,-1.354649639702877606e-02,7.923293113708496094e-02
-4.311440646735980042e-01,-3.541877791716652180e-01,-4.392725198444960566e-01,-6.275652416448420506e-03,-1.106111383843881926e-03,2.968502776679711030e-03,8.223220705986022949e-02
-4.522148810572882982e-01,-3.334415228568382572e-01,-4.118281931498983250e-01,-4.654716998385792157e-03,4.566832312679141095e-03,-4.767456284302690889e-02,1.337441205978393555e-01
-4.078858890422690786e-01,-3.938834267247172671e-01,-4.319263569185524676e-01,-3.275560522334585584e-03,2.645801013686477875e-03,-1.344350652891115969e-04,3.411570936441421509e-02
-4.649245513817873432e-01,-3.571199753517737552e-01,-4.190837046246574937e-01,-2.985159671730623979e-02,5.762951170260678484e-03,-4.925256258292071837e-02,1.372289657592773438e-01
-5.753855725774643659e-01,-3.082768808199891630e-01,-5.274915270491771224e-01,7.333527469593931203e-02,-3.418891326548924303e-02,-1.501325615479062459e-01,3.848482370376586914e-01
-4.092380634372071446e-01,-4.102734480813043372e-01,-4.140133937184020119e-01,-1.527000027637525226e-04,5.280311931383386420e-04,-1.521166494339460220e-03,5.174914840608835220e-03
-4.049105181282635635e-01,-4.209507451386567123e-01,-4.048097398625496446e-01,-1.049185704028091038e-03,-1.178259016808116716e-04,-8.239377994856214322e-04,1.625718921422958374e-02
-4.142427900794022899e-01,-4.028863390101163899e-01,-4.141288388813286203e-01,-2.125113567659338461e-03,-2.992448228009410380e-03,1.816779695401920646e-03,1.334175840020179749e-02
-4.412865369370193025e-01,-3.152249739702380760e-01,-4.530506475204040817e-01,-3.768010416951683705e-02,7.372434176639299300e-03,-1.043334638703732192e-02,1.492042541503906250e-01
-4.299904676612371079e-01,-3.739654204496902223e-01,-4.299727656366434392e-01,2.234039010096879226e-03,5.825117143712100695e-03,3.406830226526607816e-03,5.735331401228904724e-02
-4.105829698875112510e-01,-4.156775762769500671e-01,-4.103678266435039634e-01,3.112570285096740320e-03,-2.022269123313784247e-03,-2.775129858946439459e-03,9.567361325025558472e-03
-4.450154817959194320e-01,-3.523060318908166066e-01,-4.329745057028639432e-01,6.207411767981671014e-04,4.098205340511302803e-04,7.205465448155476578e-03,8.821071684360504150e-02
-4.064672213406571033e-01,-4.137660179245780667e-01,-4.091595304958587920e-01,1.351984908280098137e-03,-1.197325861568524375e-03,-2.429356192571610271e-03,8.268011733889579773e-03
-3.896046969311512398e-01,-4.185871537848817603e-01,-4.215302452251749044e-01,3.343505149470660763e-03,-3.081861991272635999e-03,-7.242759330454315476e-03,3.396094962954521179e-02
-4.124686588089183092e-01,-4.035885512941527198e-01,-4.206317073516289140e-01,-1.234399912774626022e-03,-3.395688229241998219e-03,1.312837584809372878e-03,1.619612239301204681e-02
-4.102540719889581911e-01,-4.125411324024848003e-01,-4.100276870108354732e-01,1.160816473021984707e-03,-2.550782553708136335e-04,6.660705340832528271e-05,3.170274430885910988e-03
-4.346866915341797144e-01,-3.994795035519331794e-01,-4.253039075174179229e-01,-1.346087972633198526e-03,-9.188956390745274538e-03,1.084999547694349975e-02,4.011427611112594604e-02
-4.383988253578401939e-01,-3.708098021459884652e-01,-3.990640512220734459e-01,-8.378567143411379953e-03,-9.100814943933950574e-03,2.890661947957641476e-02,8.014209568500518799e-02
-4.196468153320696559e-01,-3.780832110347986386e-01,-4.356485832750605636e-01,-5.796282726471698593e-03,-5.816174187908876953e-04,1.772339858929658464e-03,5.253484472632408142e-02
-4.919177466884595562e-01,-3.810876943078483348e-01,-3.715526007333257441e-01,7.552762057668360078e-04,-1.644996760603958247e-02,7.321972125990426628e-02,1.741490513086318970e-01
-4.333501819585785508e-01,-3.748705313258358096e-01,-4.331603942708942556e-01,1.716614141445326792e-03,3.582081501405934114e-03,2.930228848409939958e-03,5.900762602686882019e-02
-4.457214148784991448e-01,-3.783325022663397985e-01,-4.194206311602317050e-01,1.250163220123994760e-04,-2.819358136003891416e-03,6.060731254118770922e-03,5.995586887001991272e-02
-4.444263214215200541e-01,-3.299019093029204597e-01,-4.443710536856599891e-01,-1.534907065842987814e-03,5.811789682827790552e-04,-2.692168361231301807e-03,1.146269589662551880e-01
-4.186184540494318207e-01,-3.788725852678542783e-01,-4.407775826100531202e-01,-4.436756847699958872e-03,3.053517292015871503e-03,-1.934587736392585997e-03,5.522453412413597107e-02
-5.049937546184830595e-01,-3.901509928537716387e-01,-4.297996813448910491e-01,-2.025989353470432699e-02,-1.494723792586284336e-02,7.473635878084569639e-02,1.698991805315017700e-01
-3.779003744500352702e-01,-3.779651884403884554e-01,-4.581237477977530004e-01,1.221089657903502296e-01,7.992325172531117294e-02,5.530737656468307645e-02,2.819615006446838379e-01
-4.413324968729461228e-01,-3.810480833721122673e-01,-4.107439166883657400e-01,-1.219719108754867059e-03,-7.554835253246716328e-03,9.555484617181218832e-03,5.635129660367965698e-02
-4.199521186539412754e-01,-3.873461754558222281e-01,-4.287305709165725176e-01,4.303804849156424479e-03,5.121153130691854724e-03,2.356183576475710459e-03,3.971574082970619202e-02
-4.164391546646831199e-01,-4.071925564802030273e-01,-4.051849405268133641e-01,3.483672532132027835e-03,-1.873167278301027423e-03,-1.775637209941047668e-03,1.282523199915885925e-02
-4.137999844125592741e-01,-4.098063493098328403e-01,-4.079191486621104312e-01,2.245851889742902716e-03,-9.775486474565596787e-04,-1.021303768110261041e-03,6.940819788724184036e-03
-4.173562806527988944e-01,-4.081010628793418360e-01,-4.071816791821319947e-01,1.977643581082546946e-03,-8.508703828566748471e-04,-3.393832346786762448e-04,1.045294851064682007e-02
-3.404308256912674802e-01,-4.837099327021641693e-01,-4.756381720212725095e-01,-2.556727365402125529e-02,5.859402597134089757e-02,-8.650274385549831108e-03,1.786696910858154297e-01
-3.690828517251830698e-01,-4.311513889337408312e-01,-3.504406950653409236e-01,-2.843750992806298034e-02,5.934543976214533278e-02,-3.373113726841005244e-02,1.475202143192291260e-01
-3.346783276115204986e-01,-4.381254485198520232e-01,-4.373834533424501014e-01,-1.968040102214754783e-02,2.491137134008376136e-02,-6.199630231791636477e-03,1.173204630613327026e-01
-3.007831125529147887e-01,-4.598537588120556463e-01,-4.532525571156195143e-01,-1.538121694515154347e-02,9.626335488571261326e-03,-1.835820610232329888e-03,1.590435355901718140e-01
-3.035289308725732105e-01,-5.026177830512411626e-01,-5.013985387109499703e-01,2.721048327015861221e-03,3.779680147127845169e-02,4.628316220474548714e-03,2.092065811157226562e-01
-4.024126780631708256e-01,-4.009734837950864050e-01,-4.278351248403371443e-01,2.051540089757648497e-03,1.710366095149264175e-03,5.550626961779135411e-04,2.659486234188079834e-02
-2.861894748418084555e-01,-4.443630968868742537e-01,-3.513795399935548680e-01,5.873055158757121974e-02,1.379225264258009676e-01,4.933043258341303361e-02,3.060612082481384277e-01
-3.940280289687500548e-01,-4.236365820484776501e-01,-4.139100768743199099e-01,3.392934048788110932e-03,7.922233779018477209e-03,7.551710893197176484e-03,3.282057121396064758e-02
-4.028344770996708513e-01,-4.280233608225874065e-01,-4.060744691149058561e-01,1.224422421524997383e-03,4.583606374349281877e-04,1.957548110936513808e-03,2.408297173678874969e-02
-3.327602300970265992e-01,-4.508319655655858571e-01,-4.608717172439649734e-01,7.361215329835364913e-04,4.725457158875386726e-02,8.909769487515910996e-03,1.488821804523468018e-01
-2.026589635981982107e-01,-5.002987043696670577e-01,-4.283623153310551213e-01,1.693638072931265975e-02,9.267218415964564859e-02,2.081060783963742042e-03,3.146284222602844238e-01
-1.918326113659219734e-01,-4.892151310164779554e-01,-4.870635868456301143e-01,-5.811232141791899258e-02,6.978784172782598327e-02,1.419744185392800978e-02,3.363748192787170410e-01
-4.125957464347081438e-01,-3.902090896140469334e-01,-4.287897928235711031e-01,-9.616370520261399019e-03,7.890734650050169885e-03,-2.696762038301381715e-03,4.014937579631805420e-02
-4.147237154579851981e-01,-3.190256380979108464e-01,-4.133375268907811262e-01,-8.490219854519749643e-02,5.711188956712263259e-02,-9.250429874917276418e-02,2.571166753768920898e-01
-4.946573982977001682e-01,-3.029505561131219382e-01,-5.224127280206818380e-01,-9.936358799579304846e-02,9.582098080945802843e-03,-1.361271336223965900e-01,3.582308888435363770e-01
-4.085066613335900931e-01,-4.360112244184409791e-01,-3.928668827156582277e-01,2.510718884464259210e-04,2.674632420942574772e-03,2.542445455142335444e-04,3.811971843242645264e-02
-4.027452711062495805e-01,-3.997216843874181746e-01,-4.312750070109938050e-01,1.244122035013310243e-03,3.355291541606767293e-04,2.125837218438690417e-04,3.024015389382839203e-02
-3.995901255652529183e-01,-4.292181641811988468e-01,-3.893334969099467302e-01,9.576476054054898197e-05,1.289426011370095951e-02,8.757476542824754371e-05,4.225800931453704834e-02
-3.898274514151416348e-01,-4.085771062968534539e-01,-4.186727860377937316e-01,-6.388793083487383923e-03,-1.813454218891834063e-03,5.411662484872542533e-03,2.937578968703746796e-02
-4.319765021962764240e-01,-3.732909491925416323e-01,-4.535599287252615186e-01,-2.791523711149584974e-02,5.959488093088364906e-03,-8.799339779868811662e-03,8.861764520406723022e-02
-4.228561973542838137e-01,-3.762270330576428234e-01,-4.303840527536772487e-01,-8.368759525862256438e-03,6.556957081847716515e-03,-3.328184122618811462e-03,5.435333400964736938e-02
-4.814500478211112822e-01,-3.652001290341947426e-01,-4.616958202543939849e-01,-2.895634543807617395e-02,2.147114773963013090e-02,-5.355146319790030085e-02,1.552725434303283691e-01
-4.170283756715514323e-01,-3.796011012983450117e-01,-4.302614868841190265e-01,-1.948376897019709481e-02,8.410792296820911867e-03,-2.236651128450134474e-02,7.016447931528091431e-02
-4.177381506626126617e-01,-3.352347923404454533e-01,-4.800522693754985526e-01,-5.215693855475245222e-02,9.742597197700247208e-03,-2.223147498793965476e-02,1.604976207017898560e-01
-4.052326625598979271e-01,-4.043616940393713888e-01,-4.239209285910576774e-01,4.347073577890587398e-04,-2.197445404729902064e-03,-1.318962960748177975e-03,1.966110244393348694e-02
-3.905133783936981517e-01,-4.057763620103799762e-01,-4.320950472371114515e-01,-2.703849383334264427e-03,1.880890123499256690e-03,-5.859103009904632724e-04,3.689049929380416870e-02
-4.081764951858543045e-01,-4.079367327979647184e-01,-4.164605444773455400e-01,4.349028817363828864e-04,-1.577264822171953662e-03,-3.778336157590559937e-04,8.895400911569595337e-03
-4.079198064308594551e-01,-4.091295078208779801e-01,-4.239754059930369023e-01,2.441413584532205541e-03,-3.538357973534855816e-03,-4.633439415079208465e-03,1.896499097347259521e-02
-3.956841685911633988e-01,-4.275459256077170922e-01,-4.079754783851669009e-01,-8.237884861220301025e-04,3.089069304666421274e-03,-2.729917099174543251e-03,2.876882627606391907e-02
-4.483366262078329889e-01,-4.241257077221428640e-01,-3.528303638475116522e-01,1.355608563876161549e-02,-2.100217559921613297e-02,-2.949765633735874221e-02,1.089964807033538818e-01
-4.089682174291648931e-01,-4.148022239483060147e-01,-4.080059923362003849e-01,-5.543548395210299087e-04,-5.249320679725100885e-04,-7.049831913117022208e-04,6.619269493967294693e-03
-4.049325688805549550e-01,-4.075212301427927897e-01,-4.198223430964327374e-01,1.601647708784426647e-03,-1.449727441262373909e-03,-3.174324285604292022e-03,1.530006248503923416e-02
-4.708049142683404242e-01,-4.117864606031164665e-01,-2.266640284625893176e-01,4.326846534100635411e-02,7.750689413590808319e-02,1.246172109552511481e-01,3.448273837566375732e-01
-4.083237528495654578e-01,-4.143677635783154511e-01,-2.551186665624483596e-01,6.045121574036333573e-02,1.154853922517037057e-01,1.122101131982122663e-01,3.364242911338806152e-01
-4.637273646097239688e-01,-4.894290464812158237e-01,-3.021157256789924750e-01,2.114081558557530383e-02,4.772786453753655872e-02,4.016940732126660085e-02,2.096377462148666382e-01
-4.171180762184896196e-01,-3.600542637638401988e-01,-4.369447423466160108e-01,-6.289850966068558959e-03,3.045163772790834399e-03,-8.408129530660467255e-03,7.168930023908615112e-02
-5.087582370196428450e-01,-4.626350540472474737e-01,-2.920780036562732884e-01,1.841706698992047822e-02,3.965601949736027865e-02,5.644092741078857167e-02,2.331861704587936401e-01
-4.405647137031482030e-01,-3.683937732678294608e-01,-4.434056265956315412e-01,1.471379265029855096e-02,-5.782618137843715395e-04,-1.398483435927585367e-02,8.160247653722763062e-02
-4.323203661604720915e-01,-4.023159842183907098e-01,-4.000526631395394106e-01,-1.858215130217800819e-04,1.506083753040792287e-05,8.454764826150433683e-04,3.123369812965393066e-02
-4.036103110005399563e-01,-4.057725784687566950e-01,-4.237765059520335886e-01,-7.402326245092480904e-04,4.371019801720877154e-04,-2.117677845378380247e-03,1.958103105425834656e-02
-4.113139439335606329e-01,-4.106449009125097138e-01,-4.096882776837544871e-01,1.036043766751573638e-03,4.354407424347961418e-04,4.585922918788351912e-04,2.534299856051802635e-03
-4.108396271205963513e-01,-4.115905760346859621e-01,-4.099817571645736347e-01,9.836117055099895257e-04,3.501899579508471099e-04,3.874733898904962398e-04,2.380097284913063049e-03
-4.099671763376686595e-01,-4.079474186201873520e-01,-4.178680505072809304e-01,2.277404719399578770e-03,2.546448770291304467e-03,3.244675247323137914e-03,1.220892090350389481e-02
-4.111756842931073574e-01,-4.085568278502142991e-01,-4.113648420036888909e-01,1.378375635196627327e-03,2.007747644237362072e-03,1.081267353213160014e-03,5.356294568628072739e-03
-4.109161799611605881e-01,-4.117949829549161223e-01,-4.115206985586837840e-01,3.705776340846077092e-04,5.445617872584659295e-04,9.738693804515546925e-08,1.381343812681734562e-03
-3.865192276973719587e-01,-4.298049050179733044e-01,-4.192995000303763042e-01,-2.666885775809175498e-03,4.288003234541877540e-03,-4.527942695842820074e-03,4.083239287137985229e-02
-4.327530817295021093e-01,-4.007422893087839721e-01,-3.978369065552174177e-01,-8.087980071817518334e-04,-2.039931314151237070e-04,1.384971722117275296e-03,3.367458283901214600e-02
-4.332328343367452539e-01,-4.412906060402843056e-01,-3.346633315739906411e-01,-3.259068258761526476e-03,-1.985794725478464209e-02,1.334098269627896757e-03,1.086063683032989502e-01
-4.104995585959288484e-01,-4.102724230329357624e-01,-4.102862756889937290e-01,2.357509197072611318e-05,2.876699379745530083e-04,9.614070545873312432e-04,1.752562704496085644e-03
-4.433061220547260262e-01,-3.339033729870367062e-01,-4.456475234739708524e-01,2.368808927278362626e-03,3.973179254352439578e-04,1.912817704163196969e-03,1.107198446989059448e-01
-3.574363273632960025e-01,-4.328567518014858062e-01,-4.389326300199556385e-01,-5.713488063198878496e-03,-7.782151733399959642e-04,2.846985846559553588e-03,7.941956073045730591e-02
-4.053015840723012131e-01,-4.046830126444804776e-01,-4.319344709648225700e-01,-5.238237705564034036e-03,-3.420457615558188634e-03,3.910623120663796887e-03,2.982385829091072083e-02
-4.023462454541432698e-01,-4.009450085317745049e-01,-4.305251226321245017e-01,-8.754957048423908390e-04,-1.397324344962265052e-03,6.796276651244187884e-04,2.906958200037479401e-02
-4.014141804635105171e-01,-4.028822783901562787e-01,-4.232916413453288729e-01,-3.333629988383147742e-03,-1.768120672262803780e-03,2.863818094973754301e-03,2.271525375545024872e-02
-5.063584037170493213e-01,-3.948057852426303249e-01,-4.407338135855242145e-01,2.600548630801878536e-02,-1.137682820492358533e-02,-7.337887830241959786e-02,1.673335283994674683e-01
-4.038106271196665875e-01,-4.031963241454222246e-01,-4.234087520239724345e-01,-5.227678942045763805e-03,-4.461843398201109298e-03,2.996893072282147321e-03,2.377303503453731537e-02
-3.981996604605073653e-01,-4.026755530415788153e-01,-4.265316741022301406e-01,-4.159749480479058362e-03,-1.292315888019148276e-03,3.020686647924385876e-03,2.793241851031780243e-02
-4.363309405634521743e-01,-4.124262658530420400e-01,-4.021738055414326163e-01,1.005989865115973145e-02,-5.669153104683802118e-03,-1.078087141311862701e-02,4.086969792842864990e-02
-4.338873352659544658e-01,-3.568918046396829524e-01,-4.447176248696013690e-01,5.656691454543056122e-03,-5.621334591794917724e-04,6.169110111232378995e-04,8.353187888860702515e-02
-3.983836802597026661e-01,-3.940327481381183938e-01,-4.299278000298326630e-01,1.114607117418287344e-02,-4.903188032780114725e-03,-5.003458693281698233e-03,4.087958857417106628e-02
-4.059822394181465954e-01,-3.932308032714270096e-01,-4.320131456187326635e-01,2.528689206457751699e-03,-5.890220628648307720e-04,-5.296159693398952342e-04,3.454278036952018738e-02
-4.053666709647886224e-01,-3.904354095749225095e-01,-4.358866157763096050e-01,7.659651268821848769e-02,-4.077946946737309730e-02,-3.827219525631186947e-02,1.690986901521682739e-01
-4.436380321924698333e-01,-3.543244284634534669e-01,-4.417663738343218238e-01,2.070966677822300150e-02,-3.741171440170293610e-03,-1.597332188939964287e-02,9.953571856021881104e-02
-4.209256645590697676e-01,-3.797625822742086155e-01,-4.233809393280484334e-01,7.151712850835935734e-03,-6.658478108049722607e-03,-7.128230217501594149e-03,4.733261466026306152e-02
-4.241211430255206194e-01,-3.898197342569905133e-01,-4.189444042745130714e-01,5.755282386787583318e-03,-7.381487184216382544e-03,-3.363880922842361204e-03,3.636745363473892212e-02
-4.365676620643605399e-01,-3.686406309107788659e-01,-4.216652432002570006e-01,3.500919728281327078e-03,-6.309747333257956919e-03,-1.195768651242055426e-02,6.640070676803588867e-02
-3.573181146522606544e-01,-4.442628014444762186e-01,-4.324390640794290031e-01,1.194851190136696564e-03,4.408146972051692550e-03,2.667185372913001996e-03,8.218934386968612671e-02
-4.109210359274110824e-01,-4.084686188017325192e-01,-4.069000829604505487e-01,-4.560369692493262267e-03,-4.138889418794733030e-03,3.678704873278090988e-03,1.291131693869829178e-02
-4.170072656191894933e-01,-3.774388760194759551e-01,-4.358585509898042498e-01,3.809140875427482597e-03,4.115111038327299089e-03,-1.236264106275246138e-03,5.259143933653831482e-02
-4.115573271451636317e-01,-4.109222032253994628e-01,-4.119473627220917589e-01,-1.810553329136088078e-03,-8.554771443933745310e-04,2.044746179861590095e-03,5.037462338805198669e-03
-4.082029123630812606e-01,-4.071381531001596055e-01,-4.172734155579061466e-01,-4.635807447005105709e-04,-1.706845862657002276e-03,5.061928018205995349e-04,1.015967689454555511e-02
-4.092134199697885499e-01,-4.101526227073500896e-01,-4.113250217642467899e-01,-5.570866317704587954e-04,-1.984894969832481915e-04,9.879753974385021252e-04,2.708368236199021339e-03
-4.078635598552295960e-01,-4.102323567998762965e-01,-4.138238628588183921e-01,-8.579237010169293116e-04,-9.084714118718770952e-04,2.538510822255168799e-03,7.143796887248754501e-03
-4.203213132273819763e-01,-4.088421699969982392e-01,-4.055938427414736425e-01,-3.547734666319553223e-03,-1.548738068341014296e-03,8.745297326146919768e-04,1.506186649203300476e-02
-4.114653197840768550e-01,-4.194839120508791486e-01,-3.971643227720852987e-01,-5.741502574639800911e-03,-3.832440783231504718e-03,2.211630281927091934e-03,2.326201833784580231e-02
-4.075956066279277090e-01,-4.161626129813028041e-01,-4.060104145121223307e-01,-3.322259557424022455e-03,-2.909931181475951169e-03,2.153460642068009273e-03,1.272455416619777679e-02
-4.098299137682345772e-01,-4.004088247769964637e-01,-4.186249765142295853e-01,-3.982579132712509365e-03,5.520309173638809214e-03,-2.846862178402408648e-03,2.030485682189464569e-02
-4.051169120824786862e-01,-4.161470712441760478e-01,-4.055040292081443232e-01,-1.353445613297072194e-03,-2.403286237241500888e-03,2.504540358149394234e-03,1.261686440557241440e-02
-3.841139729890636345e-01,-4.101991552127651763e-01,-4.357763565310940335e-01,-9.292523072881843371e-03,1.712389008437454545e-04,-5.904471813049517580e-04,4.756051674485206604e-02
-4.083393073254961703e-01,-4.235687773432991743e-01,-4.072956239780426424e-01,-3.658731891897667402e-03,-2.617890514396161404e-03,3.187056935767320579e-03,1.844212040305137634e-02
-4.315494724063076992e-01,-4.035905231971276819e-01,-4.044949706536432599e-01,2.018028975074968954e-03,-2.223596232821284380e-03,-5.459603883504736757e-03,2.955851331353187561e-02
-4.210864699145270285e-01,-4.076300242338091739e-01,-4.057122046866681320e-01,3.868791347047587179e-03,-7.080986673823111942e-04,-2.369475437163174811e-03,1.654723845422267914e-02
-6.259869118062973969e-01,-3.098579518397139854e-01,-5.194790995350122564e-01,-1.144705504311652883e-02,1.623918295645908599e-03,1.602104220087577913e-01,3.937186598777770996e-01
-4.314657994630882731e-01,-4.453478581330597708e-01,-3.536974280951481475e-01,-2.025942938266554489e-03,-6.121384499504709843e-03,1.955488773963042978e-03,8.635053783655166626e-02
-4.240177335589805918e-01,-4.057062239238586332e-01,-4.042978819031454729e-01,1.431365177008824029e-03,-2.355134354016422235e-04,-6.188063405659121252e-04,1.924955286085605621e-02
-4.266141635432942336e-01,-4.015236105269419653e-01,-3.985668532574582201e-01,3.038085164404456459e-03,-1.764641413374396731e-03,-2.758020168348794890e-03,2.779058739542961121e-02
-4.202519736174336051e-01,-4.413118673266940850e-01,-3.730602826168637476e-01,1.267801737795488590e-04,-5.392356211550031891e-03,1.827045705660253254e-05,6.125119328498840332e-02
-4.113580210027622530e-01,-4.177466111683740824e-01,-4.104615126501569566e-01,-3.510328214241876903e-03,-2.349189959700035378e-03,2.216597869633508272e-03,1.075213681906461716e-02
-6.117318283086820019e-01,-4.761384280852870021e-01,-3.577246931966596710e-01,-3.040079905945174826e-02,3.042354941486014042e-02,-1.932551773447566679e-01,4.074991941452026367e-01
-3.972946651073049340e-01,-4.112644711238124806e-01,-4.304856264550243061e-01,-2.627840931983288063e-03,1.448732113539971797e-03,-5.927255941996776786e-03,3.107304871082305908e-02
-4.098097475008180557e-01,-4.113255277059621462e-01,-4.102746189507964214e-01,-5.233535679831562235e-04,-1.143433122122280618e-04,6.484973814822080681e-04,1.982830930501222610e-03
-4.057507045737480111e-01,-4.159653973068248578e-01,-4.092932409230769508e-01,-1.718643998648603649e-03,-1.554747640501697890e-03,2.600830725721431022e-03,1.082171313464641571e-02
-4.442168108398181769e-01,-3.420750068758033891e-01,-4.433753350777144830e-01,2.144301231298345427e-03,-1.194417888752618076e-03,-2.995790561877556546e-03,1.019446179270744324e-01
-4.461510656974962963e-01,-4.398021379816063336e-01,-3.481167965115861129e-01,3.016782177844927557e-03,-3.826133312657873341e-03,-1.206227594919877417e-02,9.765414148569107056e-02
-4.081329285330070888e-01,-4.146032502631688543e-01,-4.095244230187185530e-01,-1.318455921450347075e-03,-9.118876569705231276e-04,2.052122487562806942e-03,7.425706833600997925e-03
-4.069903376329565559e-01,-4.139914615299557510e-01,-4.086816794558074672e-01,-1.359686606513380025e-03,1.831065532777585714e-03,-2.870332257719186448e-03,8.964158594608306885e-03
-4.298927529432335359e-01,-4.029873294952246998e-01,-4.013613246976537319e-01,-1.063925969880000384e-03,4.197153808284625445e-04,7.534416132651918689e-04,2.785536460578441620e-02
-4.035898574420142548e-01,-4.223984305085157764e-01,-4.051492006679890956e-01,-7.146629404891874197e-04,-9.509637520344715704e-04,1.790117634792705087e-03,1.845870353281497955e-02
-4.064004524373129867e-01,-4.324988587245146010e-01,-4.052028783652923960e-01,-4.328809110264638868e-03,-4.617754002468161048e-03,3.743369544008248468e-03,2.959798835217952728e-02
-4.334127667901416792e-01,-4.384713030903859554e-01,-3.530426223368103855e-01,-3.459854149799711101e-04,-6.744945720705002208e-03,3.351193822898857703e-03,8.403593301773071289e-02
-4.008879932730620155e-01,-4.299041277354233581e-01,-4.027582938475033902e-01,-7.962896548658822708e-04,-9.248431517071374749e-04,1.643977371238395085e-03,2.835033275187015533e-02
-4.316033480554895552e-01,-4.469130991636116601e-01,-3.633963396023920933e-01,-3.484564413566662577e-03,-1.482443369510719894e-02,3.394480229139270125e-03,8.161557465791702271e-02
-4.138592539222277766e-01,-4.077263268197316437e-01,-4.105754639969921849e-01,1.395406960413169643e-03,-2.489884833942390338e-03,-1.157501813055753382e-03,7.531023584306240082e-03
-4.049696068647170577e-01,-4.272860906171735973e-01,-4.001619992674863013e-01,-3.621143120653053799e-03,-3.190658283224994101e-03,1.439245187099997408e-03,2.654280699789524078e-02
-3.967322736717984188e-01,-4.107451754792653675e-01,-4.321552690979455491e-01,-1.337774933850498921e-02,3.905227726638533896e-03,-5.091029577686955951e-03,4.018919914960861206e-02
-3.834808078528637032e-01,-4.338816635424086465e-01,-4.095995721263146483e-01,-3.994528053081538091e-03,6.498114304019512837e-03,-4.926655076167093736e-03,4.640462249517440796e-02
-4.441415004853117021e-01,-3.685927514825872997e-01,-4.356249173741242320e-01,3.992365707543537104e-03,-2.577428307328154342e-03,-3.757642009605278652e-03,7.243503630161285400e-02
-3.940968967061885264e-01,-4.253021839590098718e-01,-4.116830021555675234e-01,-6.318384509719517268e-03,1.229453730405971786e-02,-6.685698610443010712e-03,3.796827793121337891e-02
-3.800327400026259350e-01,-4.302783608957032602e-01,-4.290534460724096943e-01,-3.261245538884701908e-03,6.691122934797576020e-03,-5.525782251944359388e-03,5.217662081122398376e-02
-3.833745822554766036e-01,-4.254304332891965523e-01,-4.290249407076092703e-01,-5.290070617069511823e-03,5.420728734420610789e-03,-5.022386035077789843e-03,4.669652879238128662e-02
-3.891885969001238066e-01,-4.194662864435028671e-01,-4.229376914696723611e-01,-1.681673541274131614e-02,1.776170670243752345e-02,-1.060292114498592557e-02,5.626725032925605774e-02
-4.416578105665461829e-01,-3.420622115655963524e-01,-4.458326973164512541e-01,2.142884956153000807e-03,-1.160329802673117951e-03,-2.997586962041979500e-03,1.019670739769935608e-01
-4.082194687007425493e-01,-4.358313963048598416e-01,-3.957418087441300636e-01,-8.225125580625443789e-04,-1.686329679873118867e-02,-1.853184307387877538e-04,4.602051526308059692e-02
-4.339041244362917826e-01,-3.532968784139612350e-01,-4.434359667636378344e-01,6.867299628925353089e-03,-3.555656065767655565e-03,-3.914269393578754391e-03,8.707520365715026855e-02
-4.338209563802900015e-01,-3.664739547697256628e-01,-4.302909282367009536e-01,6.622169120610343560e-03,-6.309388024879564530e-03,-5.194269585528283467e-03,6.813419610261917114e-02
-3.595927570105097448e-01,-4.464046254893267451e-01,-4.320351188603823167e-01,-9.941048780839442656e-03,3.568262323886282894e-02,-1.151004058542183690e-02,1.049238070845603943e-01
-4.103070199437552912e-01,-4.351386176477404777e-01,-3.923356445866197362e-01,2.748038841415272916e-03,1.696173175998740359e-02,3.680636256700627485e-03,4.808569326996803284e-02
-3.680987129868935059e-01,-4.432788010108478227e-01,-4.342852544335581433e-01,2.135493925198165069e-03,-1.531770150226902105e-02,-1.280524369381432458e-03,7.602164149284362793e-02
-4.082033617008830606e-01,-4.207102980282283466e-01,-4.056954747926374560e-01,8.673627531742766298e-04,-7.606588723680671009e-04,-5.709047652459578633e-04,1.410849019885063171e-02
-4.140768249826999314e-01,-4.584568840880235419e-01,-3.184238718740622365e-01,-4.803942705833865595e-02,7.277170643888153378e-02,-8.105349139561084104e-02,2.405902892351150513e-01
-4.161879443158217895e-01,-4.464031621811679895e-01,-3.613391631457591457e-01,3.341781291327181611e-04,1.535713556709238439e-02,1.694858239507630350e-03,7.934162765741348267e-02
-3.984260262961676347e-01,-4.449944841249121597e-01,-4.122453654576450077e-01,4.687966780212132756e-03,1.618245277918716613e-02,4.526363302796623106e-03,5.127436295151710510e-02
-4.065844308667436735e-01,-4.355539638164375171e-01,-3.915618950597687942e-01,-1.469683780146271643e-02,1.577748671905543701e-02,-9.274480313036357129e-03,5.615098029375076294e-02
-3.196392890520411978e-01,-3.995031662435619135e-01,-3.852724681307655441e-01,8.221187603697480140e-02,-1.088169635695182685e-01,-7.275105895630951114e-02,2.777087688446044922e-01
-4.073669959647773231e-01,-4.373177436561812570e-01,-3.856842038264614025e-01,-2.014385787289166632e-03,9.222871396326479121e-03,-3.502711725392914938e-03,4.817438125610351562e-02
-4.120354411837950370e-01,-3.951965591452960558e-01,-4.381122064225604906e-01,1.396120214004919688e-02,4.168081803013736798e-03,5.058694843666357126e-03,4.600309208035469055e-02
-4.214430200748598421e-01,-3.910401914608825913e-01,-4.399701172492547219e-01,1.985130114997105469e-02,1.315111443778123335e-02,1.759157798911309759e-02,6.678570061922073364e-02
-4.013837720118195729e-01,-4.315073216080347329e-01,-3.999228000611325107e-01,-2.366679087229065230e-04,-8.505227960143224228e-04,6.596850673002819078e-04,3.093890845775604248e-02
-4.015108871738968244e-01,-3.995325126676959604e-01,-4.312585399309254441e-01,8.205334453183638077e-04,-6.658194790486802030e-05,-5.252208905184776056e-04,3.083098307251930237e-02
-4.023402257973496265e-01,-4.032342634553270355e-01,-4.362297807899709889e-01,-7.758017980156470608e-03,-1.880828630225766536e-05,-1.142469116651535343e-03,3.610374033451080322e-02
-4.081977717490152813e-01,-3.988901946236310669e-01,-4.290696646105203738e-01,-2.902373328473108714e-03,3.833018156860430996e-03,-1.052264095549801382e-03,2.809275500476360321e-02
-4.016112436209642866e-01,-4.026391478487568176e-01,-4.286007236343805094e-01,-9.597634272647108736e-03,5.662129421628006067e-03,-7.462226323457028278e-03,3.523242101073265076e-02
-3.994848781149929473e-01,-4.018159161766431398e-01,-4.334452214194672859e-01,-1.133814422193090733e-03,7.445801983289685128e-05,1.658850469780419009e-04,3.291704133152961731e-02
-4.007034158191324913e-01,-4.025477754944571385e-01,-4.310308230614736114e-01,-8.574899423641141674e-04,5.337179081981106420e-04,-1.412440351056648644e-03,2.960175648331642151e-02
-4.022565069440019458e-01,-4.129837529785323480e-01,-4.198115053739848168e-01,-1.003874183608712087e-03,1.180726640727925792e-03,-4.549348783210876296e-03,1.744220033288002014e-02
-4.009339965896163149e-01,-3.946056055569502896e-01,-4.319509083843603992e-01,-5.698643565392746274e-03,6.099896488004098987e-04,-1.653473518519927871e-04,3.601397573947906494e-02
-4.444051852922734636e-01,-4.238806906286066156e-01,-3.486586906689364551e-01,1.504346560654331059e-03,-5.898086914502703899e-03,-2.369235757092428424e-02,9.704963862895965576e-02
-4.123260516704247425e-01,-4.126097119657023415e-01,-4.122027581777205074e-01,-1.651555304407531163e-03,-1.805473670652161557e-03,1.286758059198434175e-03,4.802081733942031860e-03
-4.087614747031093620e-01,-4.119265607711870558e-01,-4.115162905717316688e-01,-1.057622850094065703e-03,-1.150596353316692133e-03,1.321271366831573094e-03,4.631645511835813522e-03
-4.095661676379934724e-01,-4.119020309907273636e-01,-4.108746740689376842e-01,-8.706909638520285996e-04,-5.743764029376252460e-04,8.778297563357546603e-04,3.112513804808259010e-03
-4.366256629728569316e-01,-3.940071053898352993e-01,-4.085617027291693626e-01,1.386307082176691050e-03,-1.859161181113657075e-03,-2.808810051095531144e-03,3.804845735430717468e-02
-4.104476031784677903e-01,-4.118543832742339594e-01,-4.096791997828510001e-01,-1.021889999511747674e-03,-4.646854645712671442e-04,7.263822983153925966e-04,3.002318786457180977e-03
-2.830821412705687434e-01,-4.760021697835992160e-01,-5.189543962527004561e-01,-1.839598136307324661e-01,6.392596136841130830e-03,-4.651386814436799660e-02,3.943174183368682861e-01
-4.116544120248520899e-01,-4.119632512922458134e-01,-4.087155904372131165e-01,-1.676821775210375924e-03,-1.121933358520204715e-03,1.007479832911024583e-03,4.989601206034421921e-03
-4.015876623726264971e-01,-4.312119960717268885e-01,-4.028945887855427399e-01,-2.407115598317595428e-04,1.097479742192093537e-03,-1.618557442182914268e-03,2.919312939047813416e-02
-4.000042799107160763e-01,-4.333325913551631658e-01,-4.019091335303496826e-01,1.143029223353954278e-04,-7.602134021181711524e-04,2.183159622487956580e-04,3.244742378592491150e-02
-4.017418513468390406e-01,-4.326489560778274956e-01,-3.986400084017944767e-01,1.584261420986595847e-03,-3.152146300317377938e-03,-1.320843331242223468e-03,3.321612626314163208e-02
-4.021738851958751582e-01,-4.274219385435692464e-01,-4.024146201275557444e-01,-1.029379051824678201e-03,3.182969485729166426e-04,-7.118264661452414774e-04,2.522790059447288513e-02
-4.015275765441868594e-01,-4.311100111834162973e-01,-4.030353579026742517e-01,4.933139903587190761e-04,-5.550962086746954018e-04,-1.124189724298233200e-03,2.895230427384376526e-02
-4.105435380656697886e-01,-4.095709753291244537e-01,-4.102966081112681684e-01,-2.924257079027842631e-04,1.050688676663161410e-03,-4.684164209513867402e-04,2.234573476016521454e-03
-4.312861526945714896e-01,-3.779056016026703380e-01,-4.184226833732063722e-01,-5.856379262962394363e-04,4.470902126407788439e-03,-4.806402943417072311e-03,4.958420619368553162e-02
-4.013297357694008971e-01,-4.317990469226403727e-01,-3.971440288715281652e-01,7.934053188686815243e-04,-3.940780537610306597e-03,-5.072338718457593786e-04,3.350647911429405212e-02
-4.708662540449028433e-01,-4.853719240256954559e-01,-2.047910253452528695e-01,7.092862852140080845e-03,1.036369581693864506e-01,6.205852230045528356e-02,3.446630239486694336e-01
-4.821146219386155951e-01,-4.774745597682074627e-01,-3.148300367692944968e-01,4.860967135120087754e-03,2.998936655866955847e-02,-2.249403844983827346e-03,1.732443422079086304e-01
-4.152914976853573914e-01,-4.340795459617388663e-01,-3.596663183939521335e-01,-1.042001449784566401e-02,1.985516445156860349e-02,-6.493122758293223828e-03,7.827601581811904907e-02
-4.429029468915003376e-01,-4.460688132598465971e-01,-3.635297142799474024e-01,-1.113404973740831153e-03,1.566898045265285866e-02,3.342629610939060799e-03,8.564582467079162598e-02
-4.216035179307367486e-01,-4.316626195272267874e-01,-3.706324360178420707e-01,-7.605144265142802992e-03,1.458981984851846943e-02,-3.173001584985147509e-03,6.367312371730804443e-02
-4.307481249847923688e-01,-4.011042647751405510e-01,-4.034565469671428928e-01,1.627595108761618070e-05,-6.905660103706237271e-04,1.167377032902762153e-03,2.863705158233642578e-02
-5.022699705213943266e-01,-3.136091269605517651e-01,-4.956766253476442285e-01,4.042188984300781884e-03,-8.749407781715269616e-03,3.210001303503835779e-02,1.943254619836807251e-01
-4.201778882704038653e-01,-4.091730718489463570e-01,-4.001876823274211348e-01,-4.069158417962551524e-03,1.387460919752110059e-03,-1.883998764766761430e-03,1.915263570845127106e-02
-4.271867708443041756e-01,-4.407215026126251045e-01,-3.678561034199584467e-01,-2.627065435952408330e-03,9.205088424038901374e-03,-2.666388996418185379e-03,6.930062174797058105e-02
-2.648866233107320944e-01,-4.626147374334932394e-01,-4.670293982174505976e-01,-3.714522294611758649e-03,1.922834846629775619e-03,8.251440327470665678e-03,2.006129175424575806e-01
-4.377881465573315034e-01,-4.529487533584082848e-01,-3.344051722110385483e-01,1.932663149561656508e-03,2.358672012169377510e-02,2.736091004987395436e-03,1.191129535436630249e-01
-4.733605753596827892e-01,-4.797803111464364889e-01,-2.842495976189985951e-01,-9.584477545086966116e-03,2.510739821670058061e-04,-8.525439143258612545e-03,1.936802566051483154e-01
-4.068180479615941536e-01,-3.944323786895008732e-01,-4.276072006732991038e-01,2.515564740425333540e-03,-2.505164609672712317e-03,-2.625789026616061686e-03,3.002627752721309662e-02
-4.527546086114654367e-01,-4.531626748768562418e-01,-3.267821349350970017e-01,2.784957832706469981e-03,3.356905658974641653e-03,1.858375504041512684e-05,1.264029741287231445e-01
-3.645509532937447617e-01,-4.378628817516678762e-01,-4.324583951714110475e-01,9.625303012584346743e-03,6.267013377796883285e-03,5.220512325785891389e-03,7.406187057495117188e-02
-4.503438319826877922e-01,-4.488452673032246043e-01,-3.347977917776092660e-01,-3.374621833364896146e-04,4.803406392948839781e-03,-3.102143795471128986e-03,1.152319833636283875e-01
-4.520597655356879963e-01,-4.529160998279140316e-01,-3.369551950559358522e-01,1.052771943201824892e-03,2.998366426584494430e-03,-4.208305517903287822e-04,1.156684532761573792e-01
-4.424370382678053937e-01,-3.366616198041116337e-01,-4.459362374478970104e-01,-2.900592469555531190e-03,-1.180684014854018610e-03,2.608409690353245824e-03,1.077991053462028503e-01
-4.012884357416220404e-01,-4.328565009317099643e-01,-4.006166099544933301e-01,-3.328220074820854597e-04,-7.043164754709204181e-04,-6.455349707051386823e-04,3.195736184716224670e-02
-4.033161471369526851e-01,-4.346343806372969798e-01,-4.044732770945578260e-01,-1.573595201178888767e-03,-6.667418363003062981e-03,3.406706780677157482e-04,3.297076746821403503e-02
-4.008891109241352613e-01,-4.295253288741175401e-01,-4.029527174476842943e-01,-3.129939364419384411e-04,-9.122441395274176034e-04,1.423146112387408974e-03,2.782200649380683899e-02
-4.014760809626174987e-01,-4.302643629360680677e-01,-3.956677983070752691e-01,-1.969183546382140271e-03,-4.103982810647988783e-03,5.413584051328376810e-04,3.305679932236671448e-02
-4.027624712153079489e-01,-4.218230272054222518e-01,-4.030774274091608600e-01,-5.562267587162637167e-03,-6.053343759997984776e-03,5.148850683487164390e-03,2.529185824096202850e-02
-4.136884486965169971e-01,-3.985443759485146620e-01,-4.122748507245582172e-01,-3.029317840889340051e-03,-5.433932844575493568e-03,1.973602849674776800e-03,1.837748847901821136e-02
-4.071770425175696984e-01,-4.172807785559890514e-01,-4.085263923757780913e-01,-5.961351697025643083e-04,-7.315070980445116926e-04,1.428260716317678340e-03,9.953089058399200439e-03
-4.033306802590652662e-01,-4.193189069535332991e-01,-4.058079834677802977e-01,-1.678188965291284784e-03,-2.202065924910969440e-03,3.023695815493991634e-03,1.650991104543209076e-02
-4.310964410954596371e-01,-4.001330336694768897e-01,-4.015979864990240067e-01,6.374174764119308872e-04,-6.326915323198856037e-05,-8.013264799787005481e-04,3.030966967344284058e-02
-4.027393157397041179e-01,-4.230482548714128987e-01,-4.058095378958605504e-01,-1.263373396147494943e-03,-1.555081806123209459e-03,3.110947256133409812e-03,2.001508139073848724e-02
-4.330427468825163717e-01,-4.067678113127246586e-01,-3.818387783731623797e-01,-2.102078649078927171e-04,-1.204453884221367020e-04,-6.653373459410603062e-03,4.582374915480613708e-02
-4.405198470279917400e-01,-4.219398765355099057e-01,-3.652637307868117911e-01,-1.536851127297073375e-03,-4.233055566404632695e-05,-1.011964720461395323e-02,7.017659395933151245e-02
-4.033893863067972152e-01,-4.052058117850911301e-01,-4.206289877233712615e-01,-2.693257291941283656e-04,-9.107981825024796980e-04,-1.061233634862663059e-03,1.659137569367885590e-02
-4.075912276495582409e-01,-4.324285699417509399e-01,-3.948497612726847850e-01,1.817113808730101091e-03,-2.484914489158070346e-03,4.615051867883597737e-06,3.352808952331542969e-02
-4.249926563201401608e-01,-4.020971845943087652e-01,-4.030753785365842057e-01,2.034809483434334501e-03,-3.183791388104289209e-03,-3.192313564157750038e-03,2.400347404181957245e-02
-4.305309464360272398e-01,-4.028374270776258759e-01,-4.010642836461932870e-01,1.362714355119862449e-03,-5.167369021943149770e-04,-7.219900474671246769e-04,2.875961549580097198e-02
-4.231688807501178817e-01,-4.048817038714630501e-01,-4.031103048163781621e-01,1.961853609663791621e-03,-3.880755883619779940e-04,-6.021811354744238069e-04,1.957137882709503174e-02
-4.267361293812962919e-01,-3.989416900688876333e-01,-4.024638185013990621e-01,1.252069043180690112e-03,-2.760489919724869699e-03,-4.217559341381514268e-03,2.771223522722721100e-02
-4.322292502181954710e-01,-4.022361445117408896e-01,-3.996016818872965004e-01,-3.374580534446410674e-05,3.879185823908409651e-04,9.214875708556079237e-04,3.144113346934318542e-02
-4.336541902649849178e-01,-4.030413450239798689e-01,-4.027020004066826364e-01,2.124417763657382961e-03,-1.252589122324695861e-03,-6.438931355766402617e-03,3.301932290196418762e-02
-4.298323601896603674e-01,-4.019557478984912557e-01,-3.974125305299862077e-01,2.048717297964664907e-03,-8.057135803941014879e-04,-4.003523073568574127e-03,3.141687065362930298e-02
-4.203777566631420326e-01,-4.052499020152634523e-01,-4.051668521211593821e-01,-9.505869846352510552e-04,8.287557772417182816e-04,-2.259494251501191584e-04,1.533100660890340805e-02
-4.190405085509089633e-01,-3.972493055091234071e-01,-4.186741677353919000e-01,-2.732366778459385023e-03,7.024157954550014175e-03,-2.540552541456043804e-03,2.562781423330307007e-02
-4.205933798849058602e-01,-3.977622947458263059e-01,-4.206433758963502023e-01,-2.522250263622567972e-03,5.807835445164519737e-03,-2.242391181013205989e-03,2.564693801105022430e-02
-4.334536968760105968e-01,-4.017293312330427191e-01,-3.997443779892944637e-01,1.977014862527823932e-04,-2.810936479670789190e-04,-8.813585370585783280e-04,3.280291706323623657e-02
-4.317583583813042747e-01,-3.963602274324555808e-01,-4.013087457135602332e-01,2.700072225512893599e-04,-6.988772834489365062e-04,-4.749276235410668581e-03,3.423007577657699585e-02
-3.955159657696730724e-01,-3.954913967469426694e-01,-4.286725450545324501e-01,1.115280008958750152e-02,-4.613336984240053174e-03,-3.787944054487826697e-03,3.975201770663261414e-02
-4.046305775280456540e-01,-3.976295083633710759e-01,-4.304440009953058865e-01,3.869786679278129898e-03,-3.418000612710935839e-03,-1.314424567485263443e-03,3.132453560829162598e-02
-4.352577874942484271e-01,-3.785696520170363510e-01,-4.191409910101489555e-01,-1.141949296888463208e-03,2.808860966265109421e-03,-5.384680394019233235e-03,5.171296000480651855e-02
-4.321439823097401045e-01,-4.261777420838497310e-01,-3.713699654232526237e-01,-1.648397351095627628e-02,2.944128459983984952e-02,-3.127029562644857708e-02,9.856729209423065186e-02
-3.973666663510262986e-01,-4.139126243011123640e-01,-4.265785334153574526e-01,1.291477222076177316e-02,-4.303559894418461373e-03,-6.499892096448814383e-03,3.642039746046066284e-02
-3.844684222860307310e-01,-3.981992138666297643e-01,-4.229859864956034277e-01,2.353395301358708613e-02,-1.297098002119521226e-02,-1.334816727590914208e-02,6.200049445033073425e-02
-4.047891718775667447e-01,-4.039020662792000560e-01,-4.261556973712148366e-01,5.310374363346082038e-03,-4.072782733879044825e-03,-4.170201260244442432e-03,2.574498765170574188e-02
-4.398309405672040096e-01,-3.526210708108661884e-01,-3.067043847158703040e-01,-5.174952815464825551e-02,-8.445688141017243522e-02,1.495140660462195292e-01,3.319858312606811523e-01
-4.306101799656733564e-01,-3.488147989283655326e-01,-3.053097498992943803e-01,-8.803008554829019894e-02,-8.315157404947966235e-02,1.486250016184272327e-01,3.498575389385223389e-01
-4.474717331361650619e-01,-3.223670829285790185e-01,-4.032321410625895330e-01,-5.530799024352961793e-03,-2.734173713773157665e-03,5.548711745345805135e-02,1.463707387447357178e-01
-4.634842624912766107e-01,-4.333806817738632966e-01,-4.140190189415615674e-01,-4.136780252510141587e-02,-4.622652887814693995e-02,7.330572133576848670e-02,1.718420833349227905e-01
-3.750786779432015439e-01,-4.191737998225559259e-01,-4.406325790418606503e-01,-3.935085313162777453e-03,2.388929581356849085e-03,-3.361028304381479936e-03,5.872436985373497009e-02
-4.295500856597309625e-01,-3.872032510512384285e-01,-4.213754040725813388e-01,2.808238493587460628e-03,-5.885289820895732611e-03,-4.592646729891897497e-03,4.128866270184516907e-02
-4.202964482470909480e-01,-4.017710963407036817e-01,-4.125861775163892631e-01,9.949366072783262342e-04,-4.742206465367476871e-03,-1.410058004864276140e-03,1.833579875528812408e-02
-4.214468487158007370e-01,-3.954974247395613984e-01,-4.197586159448653542e-01,3.146379944991726293e-03,-4.382644796440970242e-03,-3.304027491764743689e-03,2.743147313594818115e-02
-3.202153998852647621e-01,-4.443891969872222347e-01,-4.657687550528342713e-01,3.474838493538080775e-02,2.567978107359066703e-02,3.242673861405618446e-03,1.554453223943710327e-01
-4.208774373509626687e-01,-4.023472635154180521e-01,-4.132640332213747270e-01,-1.045294249191234051e-03,3.712349998949852296e-03,-1.065412174722805624e-03,1.755794510245323181e-02
-4.323478832742706501e-01,-4.013164518296832850e-01,-3.970395139695273579e-01,-5.905466714223501796e-04,5.060260943913893680e-04,2.703373224844920694e-03,3.372981771826744080e-02
-4.106192377857545983e-01,-4.075259878500310240e-01,-4.078165445009354628e-01,5.172463643274498313e-03,4.325967024525105911e-03,4.009918717580960267e-03,1.390673592686653137e-02
-4.175821276984054697e-01,-4.092654451194784326e-01,-4.075525170732254288e-01,7.992635004770400542e-04,1.115651434543240422e-03,5.978921029029813164e-04,9.647286497056484222e-03
-4.206961320649205693e-01,-3.956110054366885898e-01,-4.212878696478457030e-01,3.149117553328682241e-03,-4.653340304042481029e-03,-3.310491710959695237e-03,2.778573706746101379e-02
-4.104647634323433381e-01,-3.937798451520109211e-01,-4.195411895964106241e-01,3.722893167550686989e-03,-5.141608638028335662e-03,-5.195670541019035884e-04,2.517748065292835236e-02
-4.462228917859041299e-01,-3.559565988299456252e-01,-4.375720568997801818e-01,4.991136679631832246e-02,1.739713314958188373e-02,3.429774203127315679e-02,1.391128301620483398e-01
-4.062164608460669957e-01,-4.206463386205951949e-01,-4.034474311749824404e-01,-3.312356260440112860e-03,1.916740882746551531e-03,-1.533237322607758661e-03,1.751670427620410919e-02
-4.194132742452310603e-01,-3.777399054929856392e-01,-4.356018215583716824e-01,4.778054814343297985e-03,-4.050325301515441323e-04,-3.638664496299439158e-04,5.237125977873802185e-02
-4.119344731462605269e-01,-4.096578014633313614e-01,-4.099477298364866962e-01,6.960019027746942128e-04,1.306355412719222659e-03,3.255594359158436825e-04,3.390890313312411308e-03
-4.138228316867085810e-01,-4.075530752385258526e-01,-4.097885403993991593e-01,1.023669657179166826e-03,2.345178729201955175e-03,3.831004665672411557e-04,7.097528781741857529e-03
-4.141476679126976368e-01,-4.075325089808967682e-01,-4.097295709240060813e-01,1.039317634105090590e-03,-2.377990876443610794e-03,-9.366007615469097323e-04,7.542560808360576630e-03
-4.182586764718869698e-01,-4.084270408606285874e-01,-4.078131520750231664e-01,1.846939015952647322e-03,-6.515102720614568063e-04,-2.751476665835561478e-04,1.071482710540294647e-02
-4.323655196583884308e-01,-3.933256287636672233e-01,-4.081635155075419297e-01,5.006723603986870967e-04,-2.416612639967581860e-04,-2.729369728107959928e-03,3.447146713733673096e-02
-4.226860946425609056e-01,-3.923351720065581527e-01,-4.224388575520657829e-01,1.399511567270043250e-02,-8.130653197053432438e-03,-1.257874893997859393e-02,4.662963375449180603e-02
-4.290640127148336869e-01,-3.866487724757105560e-01,-4.179896093921611211e-01,2.797352514198343104e-03,-4.541559432790616413e-03,-4.369315493881528040e-03,3.993240743875503540e-02
-4.385866617180523841e-01,-4.006294716370886189e-01,-4.087219603973257231e-01,-4.124239112407344747e-03,3.748376828361752334e-03,-1.525303002323071672e-02,4.461179673671722412e-02
-4.296615966154206379e-01,-4.033382246576697749e-01,-4.087409490703792225e-01,8.427559457343729993e-03,-1.243527737249488889e-02,-2.325053593510698069e-02,5.365289747714996338e-02
-2.526256458536547678e-01,-5.145859964594508007e-01,-5.525930578277435945e-01,6.030594083854420168e-02,6.595588679525299369e-02,3.024432763880040287e-02,3.266943693161010742e-01
-4.479461327564209228e-01,-1.561202391290114622e-01,-4.836747628522662379e-01,9.578143827680908606e-02,-1.030159107519826658e-02,-1.737102902821700823e-02,3.544168472290039062e-01
-4.833763138178081564e-01,-1.786262020656738114e-01,-4.638288846485757455e-01,3.207234601501414428e-02,1.732332998042604129e-03,-7.710155378303024110e-02,3.289779722690582275e-01
-3.085413501365343314e-01,-4.789695063588043089e-01,-4.988396570828906862e-01,6.277165254331495969e-02,7.020524437061827910e-03,7.947234410256704112e-04,2.116544693708419800e-01
-4.492304208208098837e-01,-2.050936740157238147e-01,-4.103223761816691684e-01,9.830868732755475292e-02,-3.678727966787700976e-02,-1.229466464597369774e-01,3.605815470218658447e-01
-4.026142563354491721e-01,-4.047281620440775773e-01,-4.188502602744067493e-01,6.487758174179049375e-03,5.186650905544923015e-03,3.831059919919119552e-03,2.201733738183975220e-02
-3.719574739969313537e-01,-4.014912093218097611e-01,-4.353055532979626108e-01,2.654199304935141168e-02,-6.532942932555389597e-03,-5.425432380850236762e-03,7.310329377651214600e-02
-3.906005965923033951e-01,-4.100714898706523392e-01,-4.289724888578010376e-01,8.398366379749919869e-03,2.659709855741589253e-03,5.789971853803755654e-03,3.791799023747444153e-02
-3.947201502474620982e-01,-4.082952508987032769e-01,-4.328953185329394437e-01,2.492596964651837711e-03,1.421711205043075816e-03,3.170968391411940757e-03,3.432583808898925781e-02
-4.018629771691774599e-01,-3.998853497370662424e-01,-4.332680543801457063e-01,7.142603020458527206e-04,9.981673555459926578e-05,1.723622343030229918e-06,3.246317803859710693e-02
-4.093382111887581276e-01,-4.061889424602993515e-01,-4.212766542791673285e-01,3.641395332905043988e-04,-3.210650361097253450e-03,-1.110193861126293306e-03,1.500206254422664642e-02
-4.432415998805095403e-01,-3.599509956109686604e-01,-4.208164208549066143e-01,-1.830889940252926340e-03,-1.966117237172073512e-03,1.678949992543182085e-02,8.024787902832031250e-02
-4.507701962681455732e-01,-3.530232733601590400e-01,-4.340236396838919042e-01,1.019000656155954814e-03,-2.829787661935552652e-03,6.826994877880297394e-03,9.146007895469665527e-02
-4.497598448032527618e-01,-3.332427945333177322e-01,-4.621596301842466614e-01,-5.562579673027819895e-03,-3.400737227359179691e-03,5.350792228145057755e-02,1.545690149068832397e-01
-4.298155649928607214e-01,-3.974873865342156698e-01,-4.089685373707959148e-01,-9.639691677108949350e-04,4.003771094401847169e-03,-3.226904566811994099e-03,2.979731932282447815e-02
-4.186643953529291529e-01,-4.122897688752383272e-01,-4.013336276826056648e-01,-8.381590834959692926e-03,6.408222952996669303e-03,-9.111072425933218824e-03,2.852189168334007263e-02
-4.107823864691996785e-01,-4.149591129753191776e-01,-4.047565305052623352e-01,-3.684379264842864866e-03,1.817143949029525335e-03,-2.174471110691150559e-03,1.198913250118494034e-02
-4.935203341543906719e-01,-3.446949067928812283e-01,-4.787007329707332892e-01,-3.119677497103811106e-02,-9.110751439950361130e-03,4.457353953022245852e-02,1.711497306823730469e-01
-4.722321357259913199e-01,-3.020497975804915525e-01,-4.604790516995138638e-01,-1.289174859309264766e-02,-2.020296550791744056e-02,2.202336387978750740e-02,1.740061789751052856e-01
-4.095656301152466594e-01,-4.062667236980183616e-01,-4.141241010723337168e-01,-1.858881338879028299e-03,3.155723914315197807e-03,-1.467233119835774195e-03,9.664410725235939026e-03
-4.505973576598814589e-01,-3.391317684628025186e-01,-4.432222137345442348e-01,-1.116409216529165756e-03,-7.625207683667261857e-04,1.415888141724899220e-02,1.107420474290847778e-01
-4.266417850203663154e-01,-4.568152107978887821e-01,-4.147310210091680882e-01,-4.254026232340989144e-02,6.733092300611331904e-02,-4.120004461295885545e-02,1.597917526960372925e-01
-4.359407154903109372e-01,-3.934723783003867270e-01,-4.087258797424049850e-01,1.157259010094785685e-04,7.396452321821014907e-04,-3.449768182838334075e-03,3.776006028056144714e-02
-3.869637279235826899e-01,-4.362085701278463068e-01,-4.149812550399873401e-01,-1.434136205080377251e-02,1.878350251783843586e-02,-1.816802107298800401e-02,6.705246120691299438e-02
-3.991358674689336472e-01,-4.412605167416761565e-01,-3.983857162129293972e-01,-5.394996638110050036e-02,4.868201660774961609e-02,-3.108010214712663213e-02,1.433393806219100952e-01
-4.194735431794824887e-01,-4.406380566239552765e-01,-3.773514106398623280e-01,-2.397343581728074696e-03,6.653765910625872304e-03,-2.149298797722519992e-03,5.725052952766418457e-02
-4.329910871403040984e-01,-3.930508041616433412e-01,-4.087912025047989450e-01,-4.474161691005245581e-04,1.738890925447580862e-03,-3.334141160231655736e-03,3.545887395739555359e-02
-4.021570036810073190e-01,-4.245292286109362268e-01,-4.016945389909981068e-01,-5.350558191342277142e-03,6.586152868279783641e-03,-6.379234707538889576e-03,2.914066240191459656e-02
-4.184787223720908278e-01,-4.346561919549316033e-01,-3.801108769452287151e-01,-5.658296078004922125e-03,4.626011281078709104e-03,-2.839844007900673394e-03,5.038789287209510803e-02
-4.094466785338979342e-01,-4.330958676364112248e-01,-3.825686373037803234e-01,-7.976249463946354784e-03,7.071258536163400540e-03,-4.582799740362327248e-03,4.817917570471763611e-02
-4.295260079066079983e-01,-3.971048678919100183e-01,-4.105846403462909966e-01,1.621326836340108470e-03,-4.737739910043582518e-03,-1.816594567676653883e-03,2.968045882880687714e-02
-3.424487790136250265e-01,-4.471926711591406312e-01,-4.501517101123976849e-01,4.251830755859499836e-03,7.324989633565164590e-04,1.237485041408933805e-05,1.065167784690856934e-01
-4.459444613279515690e-01,-4.318224877787715243e-01,-3.533874346245057807e-01,-2.123621432941009447e-03,-3.220174122207390601e-03,3.985460234403041813e-03,8.689898997545242310e-02
-4.114277313064685360e-01,-4.244052944898235036e-01,-3.915715376252051905e-01,-5.517719629049922317e-03,4.998856834323688568e-03,-3.014451273644131249e-03,3.184230998158454895e-02
-4.201624046804914858e-01,-4.013391836241994026e-01,-4.097958350859287613e-01,1.073584971976572402e-03,-3.723878378347701603e-03,-1.995708549960116627e-03,1.799042336642742157e-02
-4.275374776362551588e-01,-4.023531083845287570e-01,-4.019419926735517956e-01,-8.935975126170415776e-04,1.798674365398749342e-03,-1.175141715749073064e-03,2.571029588580131531e-02
-3.988852049754246232e-01,-4.290728452719740904e-01,-3.954862007951609471e-01,2.618866375387432152e-03,-5.553118836300914053e-03,-1.262096488025225144e-03,3.381301835179328918e-02
-4.015327616230089935e-01,-4.326148580209082661e-01,-4.055071184986096533e-01,2.797566474464451697e-03,-8.890160575052903982e-03,-2.872292600280100614e-03,3.381856158375740051e-02
-4.139096293040408492e-01,-4.308050190866464235e-01,-3.859669272031683862e-01,8.180663945378308100e-03,-6.363811497694354079e-03,-3.441591856574677429e-03,4.354479908943176270e-02
-4.014227865257637973e-01,-4.309050197783033109e-01,-4.044759801376922592e-01,2.521918859001946560e-03,-8.937830605062703840e-03,-1.888284531290234953e-03,3.252599760890007019e-02
-3.966138020928555163e-01,-4.012874485613242004e-01,-4.326814283339707190e-01,-3.489979810091716622e-03,-4.301352062216320840e-05,1.247544857401090617e-03,3.457403555512428284e-02
-4.013000877688427948e-01,-3.969165477315069190e-01,-4.353832981355977849e-01,-4.460656358479064484e-03,-1.094889920832643575e-03,-9.322901035813102024e-04,3.736551851034164429e-02
-4.225031352992355549e-01,-4.072054696431403609e-01,-4.001613949310652285e-01,4.172402799407116426e-03,-2.043688591681358958e-03,-1.959726475524730012e-03,2.162576839327812195e-02
-3.958460145279970033e-01,-4.010146395733377167e-01,-4.316862877845839552e-01,-3.741230955234489501e-03,-6.534424264670775362e-04,1.503600938537360578e-03,3.429356589913368225e-02
-4.271054732500377815e-01,-3.962929064702999105e-01,-4.074593940430268346e-01,1.229134223452073467e-03,-2.809458485086839541e-03,-2.386182395340141846e-03,2.784474194049835205e-02
-4.085263897441017145e-01,-4.079841360636509151e-01,-4.141013638483941328e-01,2.658851882334937805e-04,-7.248712750337696093e-04,-6.238948323420181715e-04,6.111755967140197754e-03
-4.016337974415304934e-01,-4.000606744885486510e-01,-4.331133280874646663e-01,-9.337542215036306143e-04,2.229555380535731270e-04,-1.452560855753351886e-05,3.233762830495834351e-02
-3.909163364777730187e-01,-4.939205404388995468e-01,-4.347859017652199176e-01,1.067077083685135687e-03,6.603402410462057281e-02,2.079761673529204914e-03,1.453049331903457642e-01
-4.267901304778690119e-01,-4.021316191588112376e-01,-4.023781591300737426e-01,9.952583402592575686e-04,-6.248185248447263480e-04,-3.981633898027934939e-04,2.463010512292385101e-02
-4.097874683477104596e-01,-4.118623975473941767e-01,-4.080129907637969344e-01,2.041310974437865640e-03,-1.296564072159189264e-03,-7.741236186711380161e-04,5.520679987967014313e-03
-3.036460532019587544e-01,-5.587706756452063273e-01,-4.811839642073721390e-01,9.500127259340154784e-02,1.071340069134302520e-01,5.162159626137976381e-02,3.475876450538635254e-01
-3.460145114575377545e-01,-4.526891746826903207e-01,-4.456552684664030206e-01,7.959910068784185541e-03,-3.414462708335175723e-03,-2.037364343708340710e-03,1.044802814722061157e-01
-3.179125481048816759e-01,-4.585641688556287843e-01,-3.636441136288934284e-01,7.034813009620130564e-02,1.302115936147419939e-01,7.823812039958166764e-02,3.154637813568115234e-01
-3.871633403865131773e-01,-4.276732819560569165e-01,-4.086215063011858772e-01,1.718732431486253223e-02,2.612899793046566388e-02,1.317575080341258989e-02,6.846477836370468140e-02
-4.104417972112088808e-01,-4.886415898594359541e-01,-4.139989629693565654e-01,1.707724473592588804e-02,9.049196342542503713e-02,2.574637793147779505e-02,1.824269741773605347e-01
-3.549834308905467917e-01,-4.428193282934903552e-01,-4.257026775857823409e-01,1.262662833251654987e-02,4.116285715911963822e-02,8.207813459008716020e-03,1.107619553804397583e-01
-5.019212664988761397e-01,-4.260535213565965762e-01,-3.927591772160233807e-01,5.681550215367717205e-03,-1.144998200618591033e-02,-8.395934671708030206e-02,1.761478334665298462e-01
-4.527185482027941688e-01,-4.328073431616198397e-01,-3.706562561566975056e-01,-1.023783278008187116e-03,-5.449084494603584523e-04,-2.805288442145573852e-02,8.866591751575469971e-02
-4.400071673774308967e-01,-4.074754139969313238e-01,-3.842688555864234856e-01,-1.509211310303762064e-04,-4.066980852629859498e-03,-9.919911956439091127e-03,5.192988365888595581e-02
-4.424955858151456423e-01,-4.221410442446450473e-01,-3.820680779799697779e-01,2.271666033260027855e-03,-5.366174594531021233e-03,-6.105538743893970492e-03,5.522244423627853394e-02
-4.330779541455763160e-01,-4.056135624848486443e-01,-3.810223395899167698e-01,9.906345554245575048e-05,4.928770898703865953e-04,-8.036371733409191503e-03,4.721135646104812622e-02
-4.372367222867599157e-01,-4.148967516417449986e-01,-3.615302325054274291e-01,-5.637462022823534064e-03,3.289835956060253169e-03,-1.471045847700768947e-02,7.291276007890701294e-02
-4.400619213442575894e-01,-4.241300787512938819e-01,-3.658699754023659878e-01,8.547078715930460152e-04,-3.668868118051110596e-03,-1.438942989912159534e-02,7.238780707120895386e-02
-4.426005399511085403e-01,-4.232303376139577300e-01,-3.684933046057690120e-01,-6.194416200708931577e-04,3.739210733775324980e-03,-1.246700976619908620e-02,7.029217481613159180e-02
-4.124268199777965105e-01,-4.227201402553315002e-01,-3.934185025064401708e-01,-1.024955557483067659e-02,1.303856276050102854e-02,-1.099164784305899263e-02,4.301800578832626343e-02
-4.868816491586745454e-01,-4.365154637702508000e-01,-3.530552757474131886e-01,-2.766701288001448614e-02,3.862783944446754325e-02,-6.758198869302434186e-02,1.848800182342529297e-01
-4.067308954977396640e-01,-4.254462886157529544e-01,-4.130832272104398295e-01,-1.399064294306186056e-02,1.964548164479287817e-02,-1.323156338697500760e-02,5.041828751564025879e-02
-4.345878130010484286e-01,-4.359323400884065336e-01,-3.441488155370222013e-01,-6.960803681627407077e-03,1.948193812308382511e-02,-2.608238127316713645e-02,1.078308224678039551e-01
-4.335271439060102705e-01,-4.351339870363087337e-01,-3.462951751851384152e-01,-7.922802971549045697e-03,9.611809192226861837e-03,-1.324674325453630355e-02,9.350971877574920654e-02
-4.387650505071498674e-01,-4.218123551076563560e-01,-3.643976644097469131e-01,-2.736675920883248174e-03,9.418840264805997597e-04,-1.050595831945101699e-02,7.009585946798324585e-02
-4.497689700728096929e-01,-4.352664143495161286e-01,-3.544620092069513673e-01,-1.853330920312139946e-02,6.727467687310290274e-03,-3.127654579828547526e-02,1.096012815833091736e-01
-4.194401304873480174e-01,-4.201071772831651563e-01,-3.951222076367112424e-01,-5.880523080379213181e-03,2.010257791047785972e-03,-1.974681984997493124e-03,2.712177485227584839e-02
-4.419279346654610974e-01,-4.348845426337345499e-01,-3.465239188571844209e-01,-4.738057466116634385e-03,6.457703124102997377e-03,-1.434149503315596506e-02,9.637974947690963745e-02
-4.123088630202978444e-01,-4.082185305951962495e-01,-4.096711954048169457e-01,-1.040923632109244526e-03,1.678007652657378685e-03,-1.247198963273445744e-03,5.409563891589641571e-03
-4.305954600555261802e-01,-4.040284975408220958e-01,-3.974303096522733836e-01,1.887670909209087722e-03,1.585719317950919907e-03,3.417190566092079967e-03,3.127136826515197754e-02
-4.329052155332127061e-01,-3.995506375809438349e-01,-4.017822042239558855e-01,-3.162145764667012972e-04,1.762371745368841724e-04,-1.422918032999010872e-03,3.239663690328598022e-02
-4.298682706978108059e-01,-4.191455463326158037e-01,-3.909435100331689061e-01,5.902115400869143748e-03,1.440049292487512178e-03,2.807255970136739425e-03,3.670289367437362671e-02
-4.327695889641868798e-01,-4.016799447842015480e-01,-4.003318562852848372e-01,-5.525275838201207509e-04,3.747780465741122786e-04,1.099478408499247103e-03,3.186312317848205566e-02
-4.317763824542787399e-01,-3.994361694724101186e-01,-4.021469579862151367e-01,-1.598421854005864767e-04,4.419236954607862807e-04,-1.496937527472413671e-03,3.119223192334175110e-02
-4.315777919468244406e-01,-4.038057798782186958e-01,-4.013768786488638995e-01,1.551988030361385303e-03,3.573529507677245497e-04,1.095759044926508446e-03,2.925492823123931885e-02
-4.318174145162329003e-01,-3.948272256266347480e-01,-3.988825479010187358e-01,8.684776723317502636e-04,8.760546079729400297e-04,3.852733395471924418e-03,3.583027049899101257e-02
-4.327275325706706477e-01,-4.055086848408622213e-01,-4.038425838416404012e-01,1.996442643942233051e-03,3.595596863364972345e-03,5.929524035629857824e-03,3.074428439140319824e-02
-4.326961578579651690e-01,-4.005810362878755582e-01,-4.030332439854631965e-01,4.637853702761426250e-04,-1.117815828825881709e-03,-9.545969776727560594e-04,3.107682429254055023e-02
-4.274852674195243063e-01,-4.047320382769685754e-01,-4.032177980157434227e-01,2.630955553813980712e-03,4.431828280786467497e-03,6.311406882863869992e-03,2.745262905955314636e-02
-4.269744252089089920e-01,-4.036189515840183373e-01,-3.982293581653619796e-01,1.927614481122089671e-03,1.067403758201739645e-03,3.549592596671804264e-03,2.743658795952796936e-02
-4.239249946522744561e-01,-4.054824945005346404e-01,-4.038887190237374081e-01,1.784968701477017156e-03,6.119270754616219343e-04,6.087478990137633675e-04,1.959215477108955383e-02
-4.104800766591432115e-01,-4.152383500324998700e-01,-4.097944903226791169e-01,3.428774243065069692e-03,-2.391035457955977515e-03,-2.617671499079238240e-03,9.967478923499584198e-03
-4.278263540833996958e-01,-4.027630931722583352e-01,-4.056128193353304989e-01,9.488062072028398018e-04,-2.110391900379367074e-03,-7.310567209916812902e-04,2.413565479218959808e-02
-4.059425380649095416e-01,-4.160101994483100252e-01,-4.048814851237733659e-01,3.698378909255259622e-03,-2.217733912990549859e-03,-1.145562179227805483e-03,1.314883865416049957e-02
-4.207016725659447065e-01,-4.062647961637085858e-01,-4.083750529274093877e-01,8.599667432852346706e-04,-2.079988063313583605e-03,-2.812453609179024522e-04,1.406577602028846741e-02
-4.100573655719160771e-01,-4.141613664903762704e-01,-4.078942389459672690e-01,2.297057516722479827e-03,-8.665805979146928417e-04,-7.706951239651315148e-04,7.089684717357158661e-03
-4.075782610037658737e-01,-4.165127460291069283e-01,-4.070525064828866002e-01,2.110581338736448008e-03,-2.949078341535783646e-04,-4.063536314157270807e-04,9.945789352059364319e-03
-4.802478014477545298e-01,-1.775682273320971505e-01,-5.680392918351175879e-01,-1.749676864257146761e-02,-2.333027196218566413e-02,-7.695022606226512019e-02,3.823745250701904297e-01
-4.101231582401266285e-01,-4.276983721637024338e-01,-3.965260411281995023e-01,3.793754777682495100e-03,-2.385472953123313374e-03,-9.534807283261409732e-04,2.820848301053047180e-02
-4.083629860926092370e-01,-4.074889247287897254e-01,-4.182050260138280295e-01,-2.772023123204603399e-04,1.671609803103936984e-03,-3.247374369925522426e-04,1.073135621845722198e-02
-4.102096496895048516e-01,-4.085677644393319596e-01,-4.177861683417062322e-01,-3.682521043811509340e-03,3.659795424543902612e-03,-3.525611891142401300e-03,1.380920689553022385e-02
-4.105482037340164592e-01,-4.116460824039361865e-01,-4.113480370713258893e-01,5.491287387384686906e-04,-3.552471228714706433e-04,-9.414927898446103281e-08,1.500059850513935089e-03
-4.085941746504356265e-01,-4.071291335610404127e-01,-4.113764553889364683e-01,-2.125816258540430374e-03,1.966246179726317215e-03,-9.346152722172911030e-04,6.460631731897592545e-03
-4.112003326169335615e-01,-4.114122620122285245e-01,-4.159466253941602742e-01,-2.279610293420258633e-03,3.861381697499319688e-03,-3.421649124389211736e-03,1.081711892038583755e-02
-4.092520618506252372e-01,-4.110107341460719210e-01,-4.126567196146339045e-01,-2.546715154171801804e-03,2.004693908947081764e-03,-2.659691677908459020e-03,7.837887853384017944e-03
-4.078502376779695737e-01,-4.238229768760014560e-01,-4.099818550511044601e-01,3.365322072378000313e-03,-3.923442117332934242e-03,-3.158885538599850648e-03,1.832256652414798737e-02
-4.038527081013514319e-01,-4.220753723227320120e-01,-4.033925703985715705e-01,2.269571439800919382e-03,-5.369146622696823346e-04,-1.051104594682332645e-03,1.898141950368881226e-02
-4.064463738142415350e-01,-4.223768719520332171e-01,-4.021157554387641553e-01,3.366236966591805175e-03,-1.722675145159926298e-03,-1.441422007602413853e-03,1.976498216390609741e-02
-4.096272378454451357e-01,-4.143781872425420509e-01,-4.050047222117560963e-01,3.423669386800462164e-03,-2.006602738011138004e-03,-1.706975281104829200e-03,1.104018557816743851e-02
-4.046273644554710391e-01,-4.161998801551178295e-01,-4.081547610358131073e-01,1.601807154906831733e-03,-2.480422958714680048e-03,-3.306268972414781303e-03,1.282551698386669159e-02
-4.029755125738108679e-01,-4.221362858414134944e-01,-4.052224333775217291e-01,1.187767245862133766e-03,-7.987030093160656053e-04,-2.156129348399291306e-03,1.868753507733345032e-02
-3.576670604359075134e-01,-4.203521471686815225e-01,-4.230592798076945327e-01,-3.147407647490969851e-02,-2.354158256450326198e-02,1.233173192211864909e-02,9.590167552232742310e-02
-4.492008868325617632e-01,-3.702305710857057286e-01,-4.426550305595952084e-01,-5.503613835282596123e-02,-4.669619782800191882e-02,6.795629887854057194e-02,1.877363622188568115e-01
-3.902377706174047223e-01,-4.253566779513443530e-01,-4.239393297889654244e-01,-1.358013856170406895e-02,-9.776874550856642920e-03,9.125911631228642712e-03,4.770157113671302795e-02
-4.150081657135842317e-01,-3.969537589912315867e-01,-4.236544802865598869e-01,-1.098895181934276058e-02,-6.526898714943228479e-03,5.592492741172822024e-03,3.377461805939674377e-02
-3.673154521436542419e-01,-4.185157199229587177e-01,-4.302017874895790461e-01,-1.185097000548584849e-02,-4.273769967233265882e-03,7.894793960775161462e-03,6.339934468269348145e-02
-3.845111346389855078e-01,-4.170372131036250707e-01,-4.318445792693275664e-01,-4.583134831871921167e-03,-2.992797149522212919e-03,4.881955215042099033e-03,4.382026568055152893e-02
-3.847674303745459712e-01,-4.081025887934052743e-01,-4.300084128455842758e-01,-7.161244444244162059e-03,-3.433872747371129099e-03,6.606800074491544356e-03,4.307835549116134644e-02
-4.314340013649498040e-01,-4.013474465179595052e-01,-3.960825585874244159e-01,-8.135924575716846699e-04,-2.432328216590881988e-04,2.745403018912470974e-03,3.340804204344749451e-02
-3.834812598471627476e-01,-4.017983437514605072e-01,-4.279301643733437466e-01,-8.303759004495096102e-03,-2.371984849024329732e-03,3.778137512709005014e-03,4.199530184268951416e-02
-3.910785918357607138e-01,-4.074273410708002530e-01,-4.217553940614066632e-01,-5.550236105881880579e-03,-3.150776405083333728e-03,5.801828661099757596e-03,3.049592860043048859e-02
-5.035404833213441567e-01,-4.078051329204528397e-01,-4.120832713908186284e-01,-3.424241325718901940e-02,2.019756927493226994e-02,-9.299132896768406986e-02,1.986393928527832031e-01
-4.400418958271468117e-01,-3.288303389980764546e-01,-4.215077530483932744e-01,-6.798697064652555258e-03,5.365084730798561422e-03,-4.446431475277039247e-02,1.296401172876358032e-01
-3.624426595130691986e-01,-4.335445656153527616e-01,-4.460942485026299087e-01,6.529152635084477935e-03,-6.879924697656822005e-04,1.600569476013158398e-03,7.900808006525039673e-02
-4.436327069248971466e-01,-3.712570860630321490e-01,-4.250328867193256532e-01,-5.092759278992757370e-03,-2.081586510961150197e-04,-2.576869459327489620e-02,7.942307740449905396e-02
-4.902246319311576173e-01,-3.560662485345992279e-01,-4.183715403762555685e-01,-3.329864769847207251e-02,3.959377947473112502e-02,-6.353319942653598562e-02,1.834678351879119873e-01
-4.584411668701837694e-01,-3.823902992631461606e-01,-4.083211960684164921e-01,-3.602419206124756520e-03,3.706245600919247461e-03,-4.241261710116494416e-02,9.980335831642150879e-02
-4.342797671909256474e-01,-4.370501545876841476e-01,-3.598003481524659763e-01,6.249289989352316103e-03,-1.079023843753150469e-02,-1.378917060724893853e-02,8.245039731264114380e-02
-4.590062023352963760e-01,-4.520636812823812800e-01,-3.548170028799346731e-01,-1.101231837160649872e-03,-3.781974931632205161e-02,-6.089961926718698987e-02,1.600036919116973877e-01
-4.150026261379519132e-01,-4.373150044615338738e-01,-3.667563547916202205e-01,2.334307402194856634e-02,-4.616882042690086813e-02,-3.421175621415001311e-02,1.242688372731208801e-01
-4.327982971682245439e-01,-4.247121316727577867e-01,-3.698677923759286501e-01,6.295615292064701482e-03,-4.904171951353069811e-03,-7.624168749561885394e-03,6.230737268924713135e-02
-4.093478275400394550e-01,-4.150517000343190710e-01,-4.113178029061152485e-01,-8.878809144226784906e-04,-3.051698828192868493e-04,1.417006213740435025e-03,5.817781202495098114e-03
-4.301183345785405399e-01,-3.970491813060495478e-01,-3.996211094692064814e-01,-1.403114320640738797e-03,1.897709698231292907e-03,-4.038845409250339455e-03,3.287520632147789001e-02
-4.019997335725308263e-01,-4.019979389208963028e-01,-4.271739666530301460e-01,-1.129920119660975542e-03,-1.737136887436825433e-03,8.728972930162823274e-04,2.547461725771427155e-02
-4.314912307360634358e-01,-4.030372337404860006e-01,-4.012621021104333940e-01,-1.480670811097736187e-03,8.043799862934459264e-04,-7.820271255489206780e-04,2.955746278166770935e-02
-4.313831850482204300e-01,-4.014515180537697736e-01,-4.025468447161135721e-01,-7.885826265802289110e-04,1.453247871348833757e-03,-6.558817163250078592e-04,2.956030145287513733e-02
-4.149698584506392174e-01,-4.080729469915883589e-01,-4.082499249130445151e-01,-7.324892366294667939e-04,-5.902430606847901533e-04,-6.128550787531613676e-05,7.003153208643198013e-03
-4.106063297689421798e-01,-4.103343517410854013e-01,-4.104851563358790645e-01,-4.084941735153652933e-04,-7.630268165073092294e-04,3.397438247688570412e-04,1.627638936042785645e-03
-4.333292991895048019e-01,-4.001698959679360068e-01,-4.021386254489946466e-01,-3.573234135320498922e-05,2.659927470705427408e-04,-8.463160005689000223e-04,3.225685656070709229e-02
-4.048867243567140783e-01,-4.358305404984129106e-01,-4.028130641487527308e-01,1.302849475450843213e-03,5.853294843075541876e-03,2.118689890821555833e-03,3.387224301695823669e-02
-4.038644835641378994e-01,-4.303012349167873452e-01,-4.018884471274543624e-01,3.000277463047755066e-03,5.867193594878248805e-03,1.294595843214265069e-03,2.983875572681427002e-02
-3.958628703846375774e-01,-4.311967174537043035e-01,-4.004375809127614372e-01,5.690875045885623613e-04,4.051724822644224913e-03,1.620185857303213777e-03,3.414472937583923340e-02
-4.021765975923733416e-01,-4.303888738876456843e-01,-4.022051206602692552e-01,1.011904092620715453e-03,4.496245547354135058e-04,6.278939002462944220e-04,2.828408963978290558e-02
-4.066272412790603030e-01,-4.071671873171447409e-01,-4.188428647981475295e-01,4.377111973328150218e-03,-3.860517610798197118e-03,-4.049621264191152238e-03,1.715528033673763275e-02
-4.103644944657085514e-01,-4.083163640724040144e-01,-4.180585979647707950e-01,2.842754792166691472e-03,-3.034321925738687076e-03,-3.224901559677197885e-03,1.273646950721740723e-02
-4.231765276114585750e-01,-4.067747365118332126e-01,-4.117139067562846089e-01,-1.011537164481016333e-03,-6.511021515895443201e-03,6.612663273735421877e-03,2.176774479448795319e-02
-4.031666943204090803e-01,-4.051171277061333953e-01,-4.252158908196320142e-01,4.647411655326369830e-04,-5.593770721863849157e-04,-1.992726260398863716e-03,2.145845443010330200e-02
-4.307149397855703499e-01,-3.975919647013361202e-01,-4.013076111564884974e-01,5.955374796648505234e-04,2.799970719102624385e-03,4.080865221078330482e-03,3.259460255503654480e-02
-4.049252830855333274e-01,-4.073992990102196510e-01,-4.170434429526027054e-01,1.846746504725355932e-03,-2.154360226333190166e-03,-3.222688572823772819e-03,1.335299294441938400e-02
-4.032399831714367777e-01,-4.073817106872942295e-01,-4.204775917670933172e-01,1.155665115903099349e-03,-1.637803164725500126e-03,-3.299252718393895934e-03,1.695891097187995911e-02
-4.104573468942134817e-01,-4.114428319008271995e-01,-4.101050867030978098e-01,-7.738633330952857971e-04,-3.084241625840360374e-04,4.138862194829762554e-04,2.009549876675009727e-03
-4.200918124463053904e-01,-4.057609361232913381e-01,-4.061058776237760348e-01,-8.056804759122120074e-04,-6.902551608352613119e-04,-4.627664704803524111e-04,1.430275756865739822e-02
-4.125671526482467821e-01,-4.096234942108357702e-01,-4.108042923425730963e-01,-2.321917269829811112e-04,-8.099702084430875776e-04,4.614271752027733356e-04,3.058133879676461220e-03
-4.112077653857652004e-01,-4.102107618924546451e-01,-4.106875950068747394e-01,-1.373596036864952537e-04,-2.275643865915153970e-04,6.505233882055663991e-05,9.852088987827301025e-04
-4.105346540385440002e-01,-4.111308340024064090e-01,-4.114808990025712876e-01,-5.262990916699917306e-04,-4.056394528151751775e-04,1.030500699628298670e-07,1.418196130543947220e-03
-4.101297993611694448e-01,-4.117941010165633853e-01,-4.082622793803685202e-01,-1.756445592768331740e-03,-1.387098610214182806e-03,8.695504371433901382e-04,5.163470748811960220e-03
-4.117347398639547573e-01,-4.093296551649225901e-01,-4.098192381361275283e-01,-1.607315663216120480e-03,-2.553891042476178364e-03,7.606824077260898077e-04,5.822372157126665115e-03
-3.734834093104151820e-01,-4.068908203524832512e-01,-4.509332918816325586e-01,-3.105553033362061857e-02,4.276743263577699114e-03,6.084800384690478708e-03,8.710007369518280029e-02
-4.200833499328340825e-01,-4.129788264717906832e-01,-4.044229918883189834e-01,-4.068503901339446879e-03,-1.797407942057074274e-03,1.555621735459421316e-03,1.584524475038051605e-02
-4.214099873958095377e-01,-3.639993817180460778e-01,-4.287710520046723039e-01,-1.063600589538865777e-02,-1.048127708562490712e-02,9.247428192318222356e-03,6.854382902383804321e-02
-4.077376983750391481e-01,-4.112223813215801771e-01,-4.090950769546444210e-01,-7.126597743904906782e-04,-1.443213895559561453e-03,1.153740045017363422e-03,4.584872629493474960e-03
-4.048233593279793596e-01,-4.074548779867007697e-01,-4.237699761261339293e-01,3.774103804602771568e-03,-4.304229222896025116e-03,-3.816354538449890678e-03,2.140199206769466400e-02
-4.403141225927382774e-01,-4.422642518192408390e-01,-3.428345703893043162e-01,1.251056284952646288e-03,1.712160252742109040e-03,1.926007340431878630e-03,9.859402477741241455e-02
-4.037896235606565631e-01,-4.038898422129880150e-01,-4.321610769192855694e-01,6.264334790505603559e-03,-3.731341905835525944e-03,-3.079028912821355542e-03,3.146492689847946167e-02
-3.989857723615669594e-01,-4.035600164230799258e-01,-4.275636162267957840e-01,2.665910537340028010e-03,-1.448024364177781043e-03,-3.026257172736399482e-03,2.760400436818599701e-02
-4.012634768779908545e-01,-4.030966823870909543e-01,-4.317647273729886548e-01,8.102110520557744304e-04,-4.726968217512997534e-04,-1.451401324990865332e-03,2.977803163230419159e-02
-4.524438792114461871e-01,-3.231821046552583176e-01,-4.402939189963127609e-01,-4.697820678187095145e-03,4.274776732126631118e-03,2.534728567743122982e-02,1.316593587398529053e-01
-4.067119099614341371e-01,-4.204342434866541467e-01,-4.086024810146032249e-01,1.064679914844956100e-03,1.338362407153017089e-03,8.195194563947523925e-04,1.329371146857738495e-02
-4.143165274114735119e-01,-4.090343885444825411e-01,-4.051743110120927804e-01,2.856481249468276456e-03,-1.930964111161395267e-03,-2.008367683333873912e-03,1.053354609757661819e-02
-4.237806823977284809e-01,-4.085342486751429858e-01,-4.070798413965335816e-01,3.999153205343140144e-03,-3.646799850035235824e-03,-2.685246827125045612e-03,1.913771964609622955e-02
-4.304961167296613156e-01,-4.021541012240291701e-01,-4.008067777474362825e-01,-4.084438312499484103e-05,-6.317669113849465378e-04,6.659303366930454217e-04,2.908270619809627533e-02
-3.991607942871237547e-01,-4.295005373981862218e-01,-4.085125922963257494e-01,1.026346831580242196e-03,2.236589050902449555e-03,3.524676639260471839e-03,2.792243100702762604e-02
-4.244913994953564695e-01,-4.049787067305839483e-01,-4.062603745024439550e-01,3.505055632504200901e-03,-3.075206044508212253e-03,-3.871689273019083243e-03,2.162350341677665710e-02
-3.940206590658962837e-01,-4.369309218529088268e-01,-4.080806115679735946e-01,-2.372571977790119944e-04,3.870155691009795514e-03,1.476437127033843012e-05,3.848065063357353210e-02
-4.050500844526695454e-01,-4.047484327808997251e-01,-4.201856090796568521e-01,7.771450516307874552e-04,9.660537966155080709e-04,2.356653428235779522e-03,1.596915349364280701e-02
-3.374784467034586122e-01,-4.221498841482336228e-01,-4.653731420500760718e-01,5.823921781451832369e-02,1.188137797117393840e-02,8.095543277176563135e-03,1.532736569643020630e-01
-4.021109312376452971e-01,-4.269862049004767290e-01,-4.055068985405996251e-01,7.922878853391865372e-04,1.576958022567338455e-03,8.330935295259375576e-04,2.360639534890651703e-02
-4.204086960997575617e-01,-4.074395227423792676e-01,-4.038483349365653563e-01,3.514769947468126144e-03,-1.490368284512419862e-03,-1.298411951048314503e-03,1.662687212228775024e-02
-3.882795393271985529e-01,-4.193615231452589298e-01,-4.289258364523465539e-01,3.069642447846944455e-03,1.934123627733586081e-03,5.552645493714786218e-03,3.855943307280540466e-02
-3.776632443313850951e-01,-4.399564521623024471e-01,-4.195365043302677899e-01,-1.354305879011439683e-03,5.385539972661236227e-03,-3.574107289797411307e-03,5.618034675717353821e-02
-3.983202845151275762e-01,-4.327088745452103979e-01,-4.027143617381476193e-01,-1.597406447699789350e-03,-3.746483250355329454e-03,1.822122570395801359e-03,3.332417830824851990e-02
-4.019586242612401272e-01,-4.302064751311507895e-01,-4.035928110591907592e-01,-2.337192108231930451e-03,-5.960281744816504045e-03,2.927452781355969601e-03,3.005198203027248383e-02
-3.991929857884519151e-01,-4.276222061424214127e-01,-4.106350454308675957e-01,1.393531460347641020e-03,1.837274009645412359e-03,3.441607340119324371e-03,2.579416520893573761e-02
-4.025522008903592575e-01,-4.358817417429036722e-01,-4.018880926918388385e-01,-1.202891725093017516e-03,-6.801990478822465998e-03,8.573278409545656000e-04,3.576004505157470703e-02
-3.958269291998405826e-01,-4.319654247944689773e-01,-4.014062161158896691e-01,-2.668289677462672236e-04,-4.927243800657740182e-03,1.086821066661011748e-03,3.481497615575790405e-02
-4.218819357490509181e-01,-4.012162599247028338e-01,-4.072164542480963823e-01,-1.674756190349046539e-03,-2.831933462149810628e-03,2.485257023318588644e-03,1.975039020180702209e-02
-4.226343815970936557e-01,-4.011609886172320949e-01,-4.045127001020180635e-01,-1.152713255633901722e-03,-2.803732049257153663e-03,2.866166101443102035e-03,2.127396687865257263e-02
-4.230651078984812297e-01,-4.050939192621903495e-01,-4.033624985829761256e-01,-2.133099923089173088e-03,-1.038126369776863969e-03,8.962197017498120880e-04,1.940026320517063141e-02
-4.042645530881471272e-01,-4.207644218986058005e-01,-4.133607735505420155e-01,1.522687723611664077e-03,1.804825245555751866e-03,3.411203703252011551e-03,1.601678133010864258e-02
-4.036207850164302835e-01,-4.196780805051907870e-01,-4.100915586639209964e-01,1.627848116678537807e-03,2.473288815938225541e-03,4.921285529055192953e-03,1.716865785419940948e-02
-4.313850791443469834e-01,-4.021041442184329906e-01,-3.994568932831678576e-01,3.053637948872088537e-04,2.232564106105506792e-04,9.244092552221791709e-04,3.073902986943721771e-02
-3.865333500119328414e-01,-4.310755901843794646e-01,-4.198734219474213880e-01,2.064024196687241387e-03,3.802365188274588453e-03,4.629973537756784316e-03,4.160522297024726868e-02
-4.198113225325970088e-01,-4.060010927413587600e-01,-4.036622494897132429e-01,-3.499061393159355691e-03,-1.508313273610792935e-03,3.304605325309336716e-03,1.745878532528877258e-02
-4.049925174197064881e-01,-4.016015788375393858e-01,-4.357163739269245273e-01,6.415801378015077196e-03,1.200688136480421251e-03,1.037116916562426470e-03,3.450617194175720215e-02
-4.006060160368003498e-01,-4.018674225282733437e-01,-4.333671462871904190e-01,8.960216951721369696e-04,3.068260727361649706e-04,2.143059920876785580e-04,3.219295665621757507e-02
-4.046021913471262166e-01,-4.012026638183822658e-01,-4.320893769051967204e-01,6.655007277323220921e-03,1.464559282336693998e-03,1.417922799633514848e-03,3.171560168266296387e-02
-3.946757516265877452e-01,-3.994067351220486617e-01,-4.308676849137363929e-01,5.175130587168507400e-03,6.020500875549500766e-04,1.040988717278970880e-03,3.529446199536323547e-02
-3.971759731567082730e-01,-4.355534878457590353e-01,-4.016854470651538001e-01,5.516906179415373207e-04,4.326159001873393362e-03,-5.442493703710692219e-04,3.712216764688491821e-02
-3.969869028089189067e-01,-4.300326228838555198e-01,-4.003171209358017957e-01,-9.277778790459211954e-04,4.420473821510400789e-03,-2.113301449430573208e-03,3.267510980367660522e-02
-3.825077693930371003e-01,-4.287826749044111874e-01,-4.053959906772177657e-01,-1.412365450870542568e-03,7.450301804172027899e-03,-3.532900128475440198e-03,4.261498153209686279e-02
-3.674215521678950713e-01,-4.954205812364517181e-01,-4.070972867117928495e-01,1.432276576287766327e-02,-8.969165454310083774e-02,-1.853588634470618168e-03,1.940076500177383423e-01
-3.919885324394963844e-01,-4.326475009935293325e-01,-3.923266792622008836e-01,3.917075540304871663e-06,-1.369415754233507462e-02,-1.900317660155489085e-04,4.692776873707771301e-02
-4.146131809400159796e-01,-4.188878728072692459e-01,-4.049996826003415262e-01,7.548894611331232601e-03,-7.547221695952243542e-03,-7.607595259075297656e-03,2.583123557269573212e-02
-3.796712752418306414e-01,-4.589452342189795364e-01,-4.219563303255451370e-01,1.457232233606324708e-02,-7.444728673473688385e-02,-2.422419032679859127e-03,1.483311802148818970e-01
-5.838630140252392131e-01,-4.778598087933743632e-01,-2.526996819359184077e-01,-5.160107636474117049e-03,8.059584609431437452e-03,9.162002872968331990e-02,3.335549533367156982e-01
-3.627878680184520865e-01,-4.368985043721766437e-01,-4.221620638216855848e-01,-7.353733760040219664e-04,-1.085048592804025401e-02,2.726327316015607523e-03,7.067207247018814087e-02
-3.815595179733040077e-01,-4.330227672583872867e-01,-4.051046660195002369e-01,-3.042088881369165885e-04,-7.042552810310432135e-03,4.152389922595625584e-04,4.626788944005966187e-02
-3.801756414174123910e-01,-4.424780094430535993e-01,-4.195807609035724917e-01,-1.224739452549130844e-04,6.192260021381626282e-03,7.465665082450461407e-04,5.564229935407638550e-02
-4.112893996196647084e-01,-4.110029246905684830e-01,-4.105874932182713710e-01,-1.250035824354946319e-04,3.457389134671019293e-04,6.514337976250541488e-05,8.898745873011648655e-04
-3.635879013782518099e-01,-4.382005734466282165e-01,-4.229896678725272308e-01,-7.173267264914861738e-05,-9.643714990255515887e-03,4.648936556825031610e-04,7.030763477087020874e-02
-4.171903618422584392e-01,-4.115108686774598401e-01,-4.038892567876508632e-01,-9.856155914720193811e-03,7.421390503385315134e-03,-1.148568874763231280e-02,3.140156343579292297e-02
-4.145956133898821561e-01,-4.072572481071264905e-01,-4.091847628906637446e-01,-4.921141900615700476e-03,4.759348832551100160e-03,-3.601250221145013176e-03,1.493104919791221619e-02
-4.138819174252115762e-01,-4.144595386693789019e-01,-3.993332627153840519e-01,-6.313207362410728531e-03,3.977797782115058411e-03,-2.464604662267583235e-03,2.014104835689067841e-02
-4.147714038308020212e-01,-4.024756511963143435e-01,-4.123527259902396991e-01,-7.641811000606927575e-04,3.632597569634267269e-03,-1.099993627609500025e-03,1.312498562037944794e-02
-4.092821294400069698e-01,-4.136507640262353513e-01,-4.148579076980254410e-01,-6.402027545065691605e-03,5.120292815420303574e-03,-4.721821516640438074e-03,1.715554110705852509e-02
-4.159774611599116878e-01,-4.056518392829709385e-01,-4.107393703669741658e-01,-2.330237635237366808e-03,3.262590588341073451e-03,-2.257107744865828255e-03,1.197817362844944000e-02
-4.144161235177289959e-01,-4.078835830439438981e-01,-4.090321931111661202e-01,1.618867197435329116e-03,1.061376936925388127e-03,1.020738088103363998e-03,7.131446152925491333e-03
-4.117290148124104210e-01,-4.115826251756772303e-01,-4.058994513590910569e-01,4.482705759827700781e-03,1.313127299726249333e-03,1.552596122310431802e-03,1.028787530958652496e-02
-4.324063536557639087e-01,-4.010370378552916004e-01,-4.013084138755131924e-01,2.078370625845406814e-04,-8.586133642296460509e-04,1.395917921501016543e-03,3.136529400944709778e-02
-4.191696734870659635e-01,-3.841296710954081872e-01,-4.353938044068315083e-01,4.731323226113765684e-03,-3.158498289006923029e-03,-1.186446418517713829e-03,4.648467898368835449e-02
-4.026230626043542649e-01,-4.031451922366366403e-01,-4.364246682248872355e-01,6.229096689578210444e-03,-7.458898453986806528e-04,-6.785255706772032195e-04,3.527927771210670471e-02
-4.004783810932628918e-01,-3.956953514210197476e-01,-4.324651970961667091e-01,3.418777461546343693e-03,-1.790979269816099040e-04,7.001745591181973466e-05,3.513121977448463440e-02
-3.968046503880756637e-01,-4.026647647033371746e-01,-4.306218890972226543e-01,4.069475772679763403e-03,-1.736921524648529476e-03,-3.184543979176020830e-03,3.269449993968009949e-02
-4.017037399388913022e-01,-4.014647289928940932e-01,-4.314315948361082120e-01,6.248356302012102875e-03,-8.342873933599188191e-04,-2.337991028287932094e-03,3.203935548663139343e-02
-4.270828349143093727e-01,-4.008763200609074540e-01,-4.020510995177660196e-01,5.331538242786465010e-04,7.792144097802085421e-04,6.165279913761232983e-04,2.571360021829605103e-02
-4.212340140849017422e-01,-4.083035319975149013e-01,-4.049730526279394782e-01,2.609139884899618544e-04,1.247036837428800761e-03,1.244650599121063664e-03,1.519444491714239120e-02
-4.004174493118847766e-01,-3.951792515649658055e-01,-4.314380500987811118e-01,3.746765122747327485e-03,-7.796028142721076479e-04,-4.328511513549524359e-04,3.459347784519195557e-02
-4.026657408232700019e-01,-4.365577776591169079e-01,-4.025070377817412393e-01,-5.779556822932403574e-04,7.072911862409312668e-03,-5.691305418529025474e-04,3.614036738872528076e-02
-4.027125908873002147e-01,-4.304403016069575094e-01,-3.976175656932830482e-01,-2.556818459668813194e-03,3.836046801168561254e-03,-1.281568750462967667e-03,3.169769048690795898e-02
-4.204716637946591118e-01,-3.946173250256806431e-01,-4.198102007109500433e-01,2.949255163645578010e-03,6.548307798786645942e-03,2.550724889338964324e-03,2.874085307121276855e-02
-4.022125601956040297e-01,-4.334409280107960893e-01,-4.016714362265485505e-01,-3.978393646237951163e-04,6.827987706430341079e-03,1.236298362399830455e-03,3.372427448630332947e-02
-4.009974949445161974e-01,-4.309856612255003605e-01,-4.024172589815925294e-01,-6.717139298719717374e-04,7.674907073581114418e-04,-1.512338472992836311e-03,2.947391942143440247e-02
-4.206076089179366928e-01,-4.121765452835598476e-01,-4.008889704952129374e-01,3.864790123902827126e-03,1.154781994976137195e-03,1.740754565392113725e-03,1.874992065131664276e-02
-4.397647690555502309e-01,-3.776189094704325844e-01,-4.197205312252202947e-01,2.080390288815753535e-03,4.165845732368885640e-03,4.046854808106349968e-03,5.596776679158210754e-02
-4.011392796928748283e-01,-4.319122177392491491e-01,-3.953925978845070910e-01,-5.784562410346757045e-04,5.047371035853677815e-03,-1.673070685578090092e-04,3.513340279459953308e-02
-4.113813936603805121e-01,-4.095802368346623812e-01,-4.103864891123837344e-01,6.835528103509874069e-04,8.616667109940460544e-04,4.127003892240981042e-04,2.565565984696149826e-03
-4.226963788009819867e-01,-4.075274661849312419e-01,-4.084320835432858621e-01,4.274783721612688756e-03,3.576026415488556265e-03,3.010050257455980805e-03,1.837276853621006012e-02
-4.254149799119785746e-01,-4.070135342672689949e-01,-4.044405407488116944e-01,3.462424542396312296e-03,4.043822190437414837e-03,4.535721753704816811e-03,2.322329208254814148e-02
-4.149886141262754125e-01,-4.050105690186148744e-01,-4.087969106873028946e-01,1.892993491517106245e-03,2.763213458982335686e-03,1.619863701434995406e-03,1.084645930677652359e-02
-4.273098765158791501e-01,-4.027840186319696092e-01,-4.050973797814871324e-01,-7.890519459528504793e-04,7.829006114144479358e-04,-1.598650310081258267e-03,2.369611524045467377e-02
-4.123885922440136964e-01,-4.124599842651259785e-01,-4.106570973883082454e-01,2.363346339449261778e-03,2.455886739391958257e-03,1.593420415129827555e-03,6.752341054379940033e-03
-4.190094664500710331e-01,-4.058572685868074292e-01,-4.029017383839826327e-01,3.672466013087789631e-03,2.286477295093895801e-03,2.319775350680564063e-03,1.711362600326538086e-02
-2.895508780955024508e-01,-4.750953515185885045e-01,-4.570721276178658643e-01,9.611786302789231129e-02,7.166216241593113823e-02,4.752362540655960532e-02,2.851408123970031738e-01
-4.370747805261651076e-01,-4.231743867296906547e-01,-3.797045804272284886e-01,-4.218303697444916560e-03,1.269878211797097027e-02,-2.335289852247012313e-02,6.971603631973266602e-02
-4.304717075059024123e-01,-4.136233854915912223e-01,-3.638980566210882617e-01,-7.938121026269248301e-03,4.983432294704115591e-03,-1.432283879339555158e-02,6.688227504491806030e-02
-4.107468640646906310e-01,-4.106527659116525064e-01,-4.103060083297277449e-01,5.992010513260182490e-04,1.612110803291169733e-04,1.707523570538013280e-04,1.185025903396308422e-03
-4.254094024703091170e-01,-4.097147351109926006e-01,-3.987115101238322690e-01,-5.675396807917711985e-03,2.668810665836116036e-03,-2.025795809014139907e-03,2.589198946952819824e-02
-4.327481303137187818e-01,-4.071752325346257861e-01,-3.950115175686282898e-01,-2.793433980894736643e-03,7.935347909323553451e-04,-2.017835833708123746e-03,3.391908481717109680e-02
-2.464534439316055647e-01,-5.110698267279696339e-01,-5.235553126194549822e-01,1.232466863745905333e-01,4.539045865041112238e-02,6.657343097322795944e-02,3.721931874752044678e-01
-4.089136737171535363e-01,-4.106286200690733579e-01,-4.147743899483275487e-01,-9.234798238076079042e-04,-7.587182154812438734e-04,4.902698052467443840e-04,5.678443238139152527e-03
-4.088362719422671265e-01,-4.133913232848397401e-01,-4.078604503540092518e-01,7.315894114302122107e-04,6.494981157852365225e-04,1.965146288757818084e-03,6.371989380568265915e-03
-4.113950285137766283e-01,-4.117229206600049873e-01,-4.105654791954285732e-01,3.242715569159945955e-08,2.235162760273301356e-04,3.006127255471532965e-04,1.220102771185338497e-03
-4.103789741836171290e-01,-4.168545370328317623e-01,-4.056877784687825117e-01,-3.596669565647833081e-03,-1.635701545823875286e-03,1.397758732544174005e-03,1.212494168430566788e-02
-4.085002821118409178e-01,-4.049295793312550629e-01,-4.169067624640820369e-01,-2.301037724588148297e-03,-3.513489497386920995e-03,1.417100091562404707e-03,1.312930043786764145e-02
-4.053017238415898005e-01,-4.073462221445818265e-01,-4.167067601777381114e-01,-2.093560560843753769e-03,-1.375798639381418378e-03,3.810306385695360482e-03,1.316510606557130814e-02
-4.082538446622466233e-01,-4.075418400101646355e-01,-4.134736242447812904e-01,-5.877603487934601485e-04,-6.700937728584509256e-04,2.018071419143050750e-03,6.787551566958427429e-03
-4.113686878443557071e-01,-4.107187229593952105e-01,-4.103857409795715339e-01,-4.283902515656119931e-04,-1.199847421984848357e-04,1.328333217762232951e-04,1.181708765216171741e-03
-3.368536901196182987e-01,-4.448705191418778071e-01,-4.416717519718198481e-01,1.037017602138617933e-03,3.423552817946154229e-03,6.628459076032946172e-04,1.066398322582244873e-01
-2.787765245429124628e-01,-4.588950962580900517e-01,-5.569078076951786693e-01,1.796710402861803613e-01,9.292262466187686809e-02,-1.616239211196677031e-02,4.280603528022766113e-01
-4.041301733160889142e-01,-4.121112713091433788e-01,-4.142900042272638639e-01,-1.266793066864771097e-03,-1.693054601944664513e-03,3.761704991033286948e-03,1.190371159464120865e-02
-4.073291317559009084e-01,-4.202949538125926310e-01,-4.029842708487951231e-01,-3.228800563233006227e-03,-1.725476179096011552e-03,1.500717482564887725e-03,1.703786291182041168e-02
-5.299656050135045371e-01,-6.059963304899810277e-01,-3.216124688648338559e-01,-4.486447974759655288e-02,-1.779244100172415188e-01,1.008022089892174483e-01,4.433124661445617676e-01
-4.203338265324877421e-01,-4.060532570011800013e-01,-4.065657240345609824e-01,1.558173158196555618e-03,3.394489955043710448e-03,3.476134450874495806e-03,1.658254861831665039e-02
-4.093050410396367744e-01,-4.109462502414362728e-01,-4.114726338955834173e-01,-6.580110032760844944e-04,-9.493478048164957989e-04,9.535691578133340465e-04,3.250408452004194260e-03
-4.170924824016820076e-01,-4.094184654888169961e-01,-4.098912153913792933e-01,-3.234793219311170483e-03,-2.666479988270334302e-03,3.352253849741059551e-03,1.191305834800004959e-02
-4.142801976266051178e-01,-4.098840869041924795e-01,-4.064999550096503600e-01,-3.145040147581213297e-03,-1.478359640696615823e-03,2.379442867882961953e-03,9.943383745849132538e-03
-4.360452247011675220e-01,-4.078345615731137630e-01,-3.960144630090117190e-01,-1.732134126213564097e-03,-1.298696139887078275e-03,2.631909694018655464e-03,3.610887005925178528e-02
-4.116470629203951015e-01,-4.086331195971869557e-01,-4.115271549734361156e-01,-1.441696047234694794e-03,-1.779718518000649114e-03,1.037807461251803211e-03,5.263613536953926086e-03
-4.103209493257036766e-01,-4.206076361254665885e-01,-4.020125870149935943e-01,-3.702670597632666365e-03,-1.119609223797862329e-03,1.265651891928676331e-03,1.760698296129703522e-02
-4.059503036093844996e-01,-4.046330635992805846e-01,-4.206711666794314408e-01,-7.104892882717398113e-03,-6.890436926853272734e-03,6.606054080458476779e-03,2.574145607650279999e-02
-4.068114340747210345e-01,-4.095260276760602225e-01,-4.142221888135665386e-01,-2.382503144129877962e-03,-1.837914458071671694e-03,3.144504902753364039e-03,9.949753992259502411e-03
-4.067571654556400573e-01,-4.142481024901188413e-01,-4.086395321094044020e-01,-1.779645086909573343e-03,-2.572601230692290672e-03,3.198269902720593267e-03,1.027617510408163071e-02
-4.360459122503725360e-01,-4.332978297443313975e-01,-3.637155895029060559e-01,5.500630261186661984e-03,7.706770071998404574e-03,5.191912427079659748e-03,7.341852039098739624e-02
-4.082068433914255445e-01,-4.171682759342468794e-01,-4.070062471365972212e-01,-1.745811637147197956e-03,-5.469630278890043936e-04,2.763126515498947862e-04,1.013794355094432831e-02
-4.011461651248947047e-01,-4.314763692271127438e-01,-3.982752351256392265e-01,-4.035475322671982297e-04,7.078358667337271903e-04,-3.895191784130957752e-04,3.190119564533233643e-02
-5.245445075511289135e-01,-5.760301608849083266e-01,-1.891329396294834375e-01,-4.120366663263291818e-02,-1.048887433448233118e-03,3.357651496845469319e-02,3.753654956817626953e-01
-4.089075491340550816e-01,-4.149975300266751099e-01,-4.084422750161055826e-01,-7.893021585462843635e-04,3.034522676979464458e-04,3.948105920596341710e-04,6.538404151797294617e-03
-4.202831459569314476e-01,-4.059445157529537607e-01,-4.078670026849523511e-01,5.237337384849617347e-04,1.939310187980141298e-03,-6.183376417838811921e-05,1.392277143895626068e-02
-3.961415279463659234e-01,-4.366237115041889938e-01,-4.092631064337414748e-01,-1.318237333545443316e-03,1.860782120361811898e-02,-3.279452818047014868e-04,4.820873215794563293e-02
-4.272639662331620958e-01,-4.132566557859207457e-01,-3.980552849149385231e-01,-8.629333180545505078e-03,-8.026989039967468570e-03,1.547227792524821614e-02,4.213175550103187561e-02
-3.256744816735449022e-01,-4.976739119689762014e-01,-4.707889520416236873e-01,4.201188283602778212e-03,4.776505943135821164e-02,-1.302931410281276629e-03,1.805130243301391602e-01
-4.038754573610659482e-01,-4.105440290908264900e-01,-4.204652593537705485e-01,2.014484787363905391e-03,1.508070109750262941e-03,4.581096766964049341e-03,1.705924049019813538e-02
-3.658092936177291254e-01,-4.468872431305095372e-01,-4.318296176342230619e-01,-4.628282924449430799e-04,1.332579667292792258e-02,4.614472445799616728e-04,7.818910479545593262e-02
-3.775862441741187903e-01,-4.294234879781593794e-01,-3.939016084241074300e-01,1.227694227277717487e-02,2.840644303652751015e-02,1.054174002976895202e-02,7.289636880159378052e-02
-4.357221067526814151e-01,-3.797803563729763576e-01,-4.169354423911185159e-01,1.595516198071806951e-03,-1.059838988541778179e-03,-5.045304368082327226e-03,5.018796026706695557e-02
-3.768351133160060540e-01,-4.347387967267435371e-01,-4.058688658385846693e-01,-2.727714618750497894e-03,9.826317978428509431e-03,-3.599599381461751277e-03,5.353033170104026794e-02
-3.637707389434046146e-01,-4.398235539903139202e-01,-4.259465730955466767e-01,6.701986309894420075e-04,1.446434950594734960e-02,5.320096595083022642e-03,7.506749033927917480e-02
-4.401472709254650728e-01,-4.336767236718340746e-01,-3.619094480295406147e-01,2.609670592092111149e-03,2.903416745452462155e-03,5.788688396109110956e-03,7.617762684822082520e-02
-4.132202500376364607e-01,-4.042248515449489710e-01,-4.178691105586173071e-01,7.180533727863922140e-03,5.721001982105489679e-03,4.935037342261973728e-03,2.168596349656581879e-02
-4.026061206768875578e-01,-4.373710614369595850e-01,-4.056664346472836358e-01,2.028589830241523013e-03,-8.908140339564390650e-03,-1.397960435896090231e-03,3.698443248867988586e-02
-4.057417399614793863e-01,-4.320030164799662509e-01,-4.053277316270154085e-01,4.519313521203691814e-03,-7.485998245710467382e-03,-4.976747430569347652e-03,3.169219940900802612e-02
-4.007658124367164953e-01,-4.308309504924852651e-01,-4.032023331229627194e-01,6.956675556981889268e-04,-7.653796229531743475e-04,-1.157214227087989197e-03,2.904860675334930420e-02
-3.996390629687623930e-01,-4.314762710150304437e-01,-4.013771682350768533e-01,4.720685521329814460e-04,-3.217984857250691453e-04,-1.462824506525496940e-04,3.102153725922107697e-02
-4.415114495532683758e-01,-4.452430785724720841e-01,-3.433774638118798350e-01,-1.673602308747745631e-04,1.741289953831175749e-03,2.043493302294589059e-03,1.001604273915290833e-01
-3.954693167913039265e-01,-4.358738969016752174e-01,-4.035517647841511124e-01,-5.072580345286575084e-04,-3.674067660609730591e-03,-1.598116888930846803e-03,3.768578544259071350e-02
-4.015363461830781522e-01,-4.338738127623179008e-01,-4.012747822191978231e-01,-2.870756145905704101e-04,-7.508473721373273716e-04,-6.348059435432132922e-05,3.249906376004219055e-02
-3.658317459137691574e-01,-4.322014341543326532e-01,-4.374643469847458999e-01,4.900341530679818564e-03,-5.297484464346035454e-03,-5.996875045758984744e-03,7.103554904460906982e-02
-4.044540883937121079e-01,-4.128257341800414815e-01,-4.096196692511114845e-01,1.980658816954100447e-03,1.469213474122933001e-03,2.766824097087903882e-03,9.733139537274837494e-03
-4.099561915245436006e-01,-4.085163789905676968e-01,-4.132397194574767840e-01,-1.968648640801677271e-03,-3.399269639416157077e-03,2.281018853190214767e-03,8.915338665246963501e-03
-4.106678570876852175e-01,-4.096992299249750391e-01,-4.115277859518043369e-01,-6.472560587002067212e-04,-1.230701348055934395e-03,7.729389959809034689e-04,3.178626997396349907e-03
-4.201229192209200991e-01,-4.109521730249401927e-01,-4.006369628928256321e-01,4.456894521075263974e-03,1.147807340584315345e-03,1.712998115058558682e-03,1.890638843178749084e-02
-4.121940079879117258e-01,-4.154279743291892646e-01,-4.045371362434854734e-01,4.548665444049201402e-03,1.495342787087293760e-03,2.908985378704909228e-03,1.371182315051555634e-02
-4.159898581183998911e-01,-4.133083706004886393e-01,-4.076192403810089404e-01,5.214328105333447105e-04,3.929656421698884267e-03,4.743955607250199998e-03,1.301804650574922562e-02
-4.045498479111433454e-01,-4.196036433652911013e-01,-4.059965683562956063e-01,2.636928540344223547e-03,1.276164371191795604e-03,1.078546498816002931e-03,1.536772213876247406e-02
-4.196786656690217332e-01,-4.052396671873062517e-01,-4.018284744319345347e-01,2.916341273147107175e-03,1.629700406458622604e-03,2.021841715807918931e-03,1.775166392326354980e-02
-4.154829892587627027e-01,-4.032976844169300357e-01,-4.123709831664533754e-01,9.045295708837278225e-04,4.834641154812772609e-03,1.174157326219007645e-03,1.403414458036422729e-02
-3.887942811019639011e-01,-4.201964010898734947e-01,-4.316914489362521090e-01,3.008230448695282076e-03,1.430477792356875302e-03,4.312338728520459866e-03,3.960144147276878357e-02
-4.131436223165275146e-01,-4.119037027390833883e-01,-4.027384003095901832e-01,8.095655334010900747e-03,6.511024193137622887e-03,8.654605388521214443e-03,2.540492452681064606e-02
-4.046464727373157433e-01,-4.174450466988606223e-01,-4.062081640167340968e-01,2.213062794883285944e-03,3.401744931232260523e-03,3.701647258507720622e-03,1.538733486086130142e-02
-4.074681441934217552e-01,-4.146818378343968270e-01,-4.077063942153614784e-01,9.061915129731589434e-04,3.096700486206594273e-04,8.233251041968053406e-04,7.426998578011989594e-03
-3.971238641331532038e-01,-4.055210547896384576e-01,-4.297015396757474792e-01,-1.081620845319327014e-02,-5.625478222463747673e-03,9.936530079844487634e-03,4.000462219119071960e-02
-4.201270239747642021e-01,-3.963195846286620139e-01,-4.100736540490693138e-01,-2.026382814764604492e-03,-5.316062860793687936e-03,1.308766014070762403e-03,2.303819172084331512e-02
-4.076087046714794715e-01,-4.191992545585611629e-01,-4.084079918679116017e-01,8.959533813477226112e-04,6.987927181042242510e-04,1.828410633175465549e-03,1.181600242853164673e-02
-3.763509021941363608e-01,-4.366137226281817663e-01,-4.004289185939270412e-01,-1.065088166002540982e-03,-2.444283784679684296e-02,1.215604886831337435e-03,6.753178685903549194e-02
-4.050198485437906393e-01,-4.492028752046108298e-01,-4.448082567260341347e-01,-5.471798260352392362e-02,-6.845687804122491116e-02,5.103319303870618856e-02,1.806423217058181763e-01
-4.078000671435353386e-01,-4.088817490110837616e-01,-4.081863520151090552e-01,-1.908237800968845413e-03,-2.001293413622011116e-03,3.540220060628835024e-03,7.838401012122631073e-03
-3.730417833072763312e-01,-4.166097229664376123e-01,-4.424674645447976284e-01,2.390996310119967647e-02,5.278732104703079062e-03,-1.797963750367999368e-03,7.417350262403488159e-02
-4.032590742558679886e-01,-4.252458800516997206e-01,-4.030084844120975229e-01,-6.046231116272773529e-03,-5.910998875809567871e-03,4.616206411592997834e-03,2.770217694342136383e-02
-4.018069155457014152e-01,-4.017860388707104602e-01,-4.225520772364068645e-01,2.611840673214536022e-03,2.700776413637300411e-03,3.297456192047991917e-03,2.248916774988174438e-02
-3.826241530483602826e-01,-4.313743625597911135e-01,-4.207409990299591507e-01,-3.033460187459153645e-03,-4.236238339983275716e-03,6.330209165714028273e-03,4.661469906568527222e-02
-3.546157082583801246e-01,-4.374662033005412010e-01,-4.335451528789034947e-01,-1.367584394635843999e-03,-6.042588989132847456e-03,1.595316853631671694e-03,8.171598613262176514e-02
-3.979384267732078984e-01,-4.186935604990085213e-01,-4.735038894463539094e-01,-7.867859959728493169e-02,-3.442506717457881338e-02,3.211831672476214011e-02,1.726080030202865601e-01
-3.617800991752310735e-01,-4.383455635168947984e-01,-4.379026172556769181e-01,-2.661141226069477228e-02,-9.973529790332979691e-03,7.377257215144394399e-03,9.173189103603363037e-02
-4.053504035387295312e-01,-4.224294666674360266e-01,-4.032436868234354765e-01,-1.868549535079338207e-03,-8.835679906614459216e-04,6.794323289404391192e-04,1.860953494906425476e-02
-4.061271450193850718e-01,-4.076984316787001239e-01,-4.162569804936399054e-01,-5.370181235689927123e-04,6.166142148508450436e-04,-1.847995932970187064e-03,1.007058657705783844e-02
-4.104735971408077222e-01,-4.097854400263196695e-01,-4.119682819474208002e-01,-4.919902154618545050e-04,8.225552207414446419e-04,3.992259596661673610e-06,2.547984011471271515e-03
-4.605415186896900659e-01,-4.236797005287986639e-01,-3.775426893739435297e-01,-1.405632124424679736e-03,3.192640175930140309e-03,2.626123021916571335e-02,8.540242910385131836e-02
-4.352946621010215233e-01,-4.176806163010889361e-01,-3.763808577627034690e-01,3.396361986357844445e-03,2.643727072727723813e-04,5.470099593531604909e-03,5.355335772037506104e-02
-4.082712770532239133e-01,-4.067328842820143731e-01,-4.131413158349629411e-01,-1.373086263454858114e-03,2.638307283283452577e-03,-1.458002872474701119e-03,8.154224604368209839e-03
-3.765512987063818762e-01,-4.024255668287715637e-01,-4.305054990603364162e-01,-2.382510047842504794e-02,7.963393991218420745e-03,-8.531261058218195942e-03,6.554394215345382690e-02
-3.615118341363660059e-01,-4.203044812971832300e-01,-4.394739918575745752e-01,-1.427614402568725890e-02,3.511699849541784213e-03,-4.780194986821962450e-03,7.528641074895858765e-02
-3.404280718255849880e-01,-4.223121549524121443e-01,-4.436319727657616618e-01,-4.143377627709113331e-02,8.028462897485454108e-03,-3.416437642043988754e-03,1.195154786109924316e-01
-4.227198800427753866e-01,-4.003044065997875545e-01,-4.053145406150857610e-01,1.752394963760421729e-03,3.563769924817045912e-03,3.421766020918129772e-03,2.230896428227424622e-02
-4.349847995136331136e-01,-3.455068235386030695e-01,-4.292805894621471441e-01,2.217519107134295619e-02,-9.370892674235437037e-03,-2.770491854108494620e-02,1.075629591941833496e-01
-6.119145480301547702e-01,-4.649501898009266165e-01,-3.878405014081247049e-01,-5.103300998826679896e-02,-6.140003904165479420e-02,2.044609717162576834e-01,4.282670617103576660e-01
-5.076339989116394058e-01,-3.452536944569539745e-01,-4.326323728706497063e-01,-5.840602673527125338e-02,-1.018743020192150600e-01,1.339842895322650163e-01,3.391726613044738770e-01
-4.316601587543722474e-01,-4.324052996237923163e-01,-3.739145671232079193e-01,-4.524043960311337556e-03,4.591721216072555678e-03,-4.258050812820674685e-03,5.964212119579315186e-02
-3.796653807557371918e-01,-4.359094969664358277e-01,-4.180593704717294745e-01,5.164018499512047864e-04,-4.841754251402873542e-03,-3.369722652624924063e-03,5.082574114203453064e-02
-5.262455391286358086e-01,-5.782592672138915368e-01,-2.778588492681037248e-01,-6.039860499988535664e-02,1.878148711273662785e-01,-1.417673017197482177e-01,5.043630003929138184e-01
-3.880455279171780014e-01,-4.276745520729127725e-01,-4.772352595350734528e-01,-6.945126059271661267e-02,3.701631720765694716e-02,-3.127859904152839599e-02,1.658519655466079712e-01
-4.148623003048938496e-01,-4.057241759496306721e-01,-4.176831917608970213e-01,6.000716538382524883e-03,6.806288148428952037e-03,5.884409023096562157e-03,2.163611911237239838e-02
-4.436508021645379496e-01,-3.335641536256033768e-01,-4.426471882005678093e-01,2.469140112861686019e-03,1.295924798839447663e-03,1.569523114820455412e-03,1.097283512353897095e-01
-4.203000431653056146e-01,-4.469959507022877032e-01,-3.127807411451493103e-01,1.023671869723773512e-02,-4.788404917796064419e-02,-2.047558669003608431e-02,1.536039113998413086e-01
-2.363110769858601246e-01,-4.146734553949532609e-01,-4.761688820749917506e-01,1.232461700978202679e-01,4.309146790318763021e-02,2.324791312991717623e-02,3.151573836803436279e-01
-4.570354823664659616e-01,-4.592252228963814575e-01,-3.310925209125555879e-01,-9.917172695101204166e-03,-2.980282127504173262e-02,-4.140442869158302008e-02,1.557076126337051392e-01
-4.506548891174100846e-01,-4.379358756718806367e-01,-3.347686093390906392e-01,4.168962932472120367e-03,7.051680126470056924e-03,1.445319319830104185e-02,1.137780621647834778e-01
-4.360742573311441883e-01,-4.102760961526277783e-01,-3.939331108663753356e-01,-5.123675091728199099e-04,8.087698115168021973e-04,1.770265430560429704e-02,4.792868718504905701e-02
-4.014579541301956933e-01,-4.257665844378255571e-01,-4.018801574698958046e-01,4.418640781851085331e-03,7.747340272185251897e-03,6.309441191400318172e-03,3.064129129052162170e-02
-4.428160230321573354e-01,-4.431501772776022530e-01,-3.279047380505759612e-01,5.791077814050640642e-04,-3.249086177681177051e-03,1.412644348356171392e-03,1.152465865015983582e-01
-4.504407424543341310e-01,-4.487034918819121643e-01,-3.481864528138335357e-01,1.134073495917635498e-03,-2.396026461736761449e-04,-1.027244759300887864e-02,1.029656082391738892e-01
-4.188732939481284445e-01,-4.178900170231846234e-01,-3.938808386427757324e-01,6.356822691503322305e-03,2.779266072956484025e-03,3.157610956250803732e-03,2.784469723701477051e-02
-3.426885614248177947e-01,-4.091581372744447775e-01,-3.360971392515295642e-01,7.486827772533227732e-02,1.218937326407572852e-01,6.546086287254973546e-02,2.813275158405303955e-01
-4.327527601404198565e-01,-4.207741645716847612e-01,-3.266305487545528852e-01,1.073091241485740407e-02,-2.501258823993698227e-02,-3.617347471591659397e-02,1.276014149188995361e-01
-4.207640077844271298e-01,-4.324596623918462446e-01,-3.868206360610297878e-01,3.960684292901307281e-03,3.419000571257170638e-03,1.519410013353976680e-03,4.213058575987815857e-02
-4.317286285659742706e-01,-4.321328917767480182e-01,-3.734981474627512843e-01,4.666147512725496438e-03,4.542564691804407834e-03,3.693198804249981249e-03,5.985512211918830872e-02
-4.420500732072834560e-01,-4.342631239831235557e-01,-3.622441548566230907e-01,1.758579149325273415e-03,2.401286096323959098e-03,5.728120396593107920e-03,7.702718675136566162e-02
-4.454687560926407497e-01,-4.307506517074314312e-01,-3.437443213175480627e-01,4.801320316295485877e-03,2.374150707433581552e-03,-5.916615085962311990e-03,9.622047096490859985e-02
-4.336086828363274748e-01,-4.393313697737401546e-01,-3.682741167803911253e-01,4.768463884522565130e-03,-1.093628101026266827e-02,-1.802750010135351078e-02,7.795663923025131226e-02
-3.776834422736005670e-01,-4.291327380141777281e-01,-4.163674406145943530e-01,3.945184100863571852e-03,8.369420516358277995e-03,6.649390670584143584e-03,5.042514577507972717e-02
-4.017387584921656707e-01,-4.368364486960679693e-01,-4.128916820181904312e-01,7.879072219550276382e-03,1.333567351500569015e-02,5.841359645088278763e-03,4.227195307612419128e-02
-4.291563038484819681e-01,-4.411464740910200910e-01,-3.700494953973390011e-01,4.595048072026054406e-03,2.850114150559420953e-02,1.134031808836229952e-03,8.276609331369400024e-02
-4.270008236271156665e-01,-4.393106815095845219e-01,-3.855680536130670633e-01,-3.849615278572360733e-03,1.948653632880347625e-02,-7.564364271793777225e-03,6.110262870788574219e-02
-4.098948598869512905e-01,-4.195895508707083166e-01,-4.005839229887484532e-01,5.047130120106661094e-03,2.219195353160688389e-03,1.227314739301246273e-03,1.914840005338191986e-02
-3.788186051813764998e-01,-4.207406908851958338e-01,-4.146151627673878570e-01,7.849814317017828752e-03,9.251554115534408804e-03,8.605546459910020166e-03,4.692533612251281738e-02
-4.097213230965370823e-01,-4.272560504905233425e-01,-3.916523320612116943e-01,3.743127345887567892e-03,3.282618055639763797e-03,1.104002655244599009e-03,3.207500651478767395e-02
-4.085399868286241909e-01,-4.324332596112051008e-01,-3.922345133617303747e-01,1.708082670172270416e-03,1.996383028982989631e-03,8.436878345477905484e-04,3.534392267465591431e-02
-4.383528323198481180e-01,-3.548690533507232181e-01,-4.330731667553389674e-01,1.842137983542792116e-03,2.209962977715504689e-03,5.021031040617421337e-03,8.159114420413970947e-02
-3.896671581597610512e-01,-4.206635521233175190e-01,-4.077144150739402395e-01,2.473724948454347240e-03,6.257859599573532480e-03,4.784535351388377947e-03,3.052205406129360199e-02
-4.049374631640332844e-01,-4.243622447659563535e-01,-4.155024360164776831e-01,6.931158519439845067e-03,8.984739277159054655e-03,6.712040188148679642e-03,2.837556041777133942e-02
-3.825883688160198193e-01,-4.319264288505091365e-01,-4.083438030459140000e-01,3.803957878336610646e-03,7.633482901361600403e-03,7.005853954531155760e-03,4.682232066988945007e-02
-4.082697705058214166e-01,-4.098470929590746770e-01,-4.109424490804877705e-01,1.239575039333485392e-03,1.164242811779899823e-03,2.592796976754961277e-03,5.853143986314535141e-03
-4.238896203264155838e-01,-4.079720197888099253e-01,-4.017215819131309540e-01,-4.678739932135481117e-03,-1.208898956022794700e-03,2.980980235070975967e-03,2.210531197488307953e-02
-4.154812403070669569e-01,-4.087001751144626049e-01,-4.109751473409135603e-01,-1.010898266516027004e-03,-3.135833855811406747e-04,1.111075801623732668e-03,6.541851907968521118e-03
-4.185734924474650009e-01,-4.492163263407796259e-01,-3.893994114294316300e-01,-1.102856181831363483e-02,-3.863418411002152164e-02,1.314666247768548138e-02,8.969547599554061890e-02
-4.201047784223905235e-01,-4.162433612640834002e-01,-4.012902365719450692e-01,-5.423165064903015878e-03,-2.585781920068595634e-03,3.349022407897419510e-03,2.093288116157054901e-02
-4.221366113157483668e-01,-4.033612247116516447e-01,-4.044168321756329010e-01,-2.451430041453970567e-03,-4.497351120037476613e-03,3.974966013517535965e-03,2.144570089876651764e-02
-4.024758759713971124e-01,-4.269530713548761458e-01,-4.023643639880500333e-01,-8.214304060473559500e-04,1.471706701179409708e-04,9.474699743142859804e-04,2.463041432201862335e-02
-4.226141720093422038e-01,-4.056845789194231111e-01,-4.030505993427698774e-01,-2.449916636652535278e-03,-9.403786906210153057e-04,1.147623855609631715e-03,1.904603652656078339e-02
-3.915661820881196631e-01,-4.226463763229529325e-01,-4.189838550460445732e-01,6.158233770960212274e-03,-2.915809810112951223e-03,-7.046865781549086979e-03,3.396782279014587402e-02
-4.206866095647708859e-01,-4.072979928485452872e-01,-4.084284304768267537e-01,-8.208208182785124317e-04,-6.774352302677643777e-04,9.033780726824539508e-04,1.308603119105100632e-02
-4.224536776714682418e-01,-4.012687753151705228e-01,-4.105144621898188517e-01,-2.555661173139370766e-03,-6.648992425319040674e-03,3.692969386435944381e-03,2.305535599589347839e-02
-3.963711289623312872e-01,-3.999654054425486605e-01,-4.303334303654648418e-01,4.597998243917785985e-03,-1.201642191047640543e-03,-2.144927559865893694e-03,3.355362266302108765e-02
-4.054102152738353615e-01,-4.041934794742029213e-01,-4.256328564690193828e-01,-6.189300470488051306e-04,-2.318456639120547707e-03,1.143141046899420407e-03,2.135969325900077820e-02
-4.314273780283251480e-01,-4.319422413678522532e-01,-3.693237039610557937e-01,-5.736249045795725407e-03,-4.542943259063602843e-03,4.664218984218902048e-03,6.414826214313507080e-02
-4.040865327517156880e-01,-4.047891605108023261e-01,-4.253510203801785239e-01,-3.507022324606965161e-04,-1.277007937615498839e-03,2.151236706389396142e-03,2.137465216219425201e-02
-4.007456024829660901e-01,-4.021134289039140497e-01,-4.241081430363238258e-01,-2.963798907686434822e-03,-2.122056059899444548e-03,3.263937833390250214e-03,2.423932589590549469e-02
-4.077710670265404791e-01,-4.273502772653349768e-01,-3.977644675228672044e-01,-3.215255382364541701e-03,-1.418931264826045219e-03,1.642093779044306347e-03,2.691731601953506470e-02
-3.964872202897574138e-01,-4.024436229492077688e-01,-4.300818190656215401e-01,-2.894417734990703539e-03,-1.473415871491229063e-03,2.566392214024658044e-03,3.186499327421188354e-02
-4.922935223330685561e-01,-4.940808325646016685e-01,-1.960698265964717080e-01,1.809193381239616177e-02,6.645913225295294047e-02,9.793946481196635911e-02,3.623395264148712158e-01
-4.720929612078307303e-01,-4.010500728724350483e-01,-3.708966417914775215e-01,3.200090488586854881e-02,1.104519791609026580e-02,6.135782301794912713e-02,1.510993689298629761e-01
-4.835227878140418989e-01,-4.091091853523830535e-01,-3.584504976535101139e-01,-1.574328056335419154e-02,-4.311256004190536228e-03,6.300402210746766651e-02,1.567839831113815308e-01
-4.115298351576779368e-01,-4.105626131579163118e-01,-4.091930031544667168e-01,-1.431710277799379087e-03,-9.780995643059724621e-04,6.836605542734293427e-04,3.815450239926576614e-03
-4.198486109770698249e-01,-4.294105012905867769e-01,-3.892675629370097035e-01,-4.974359680172533993e-03,-3.724426534199426313e-03,2.658633277438128550e-03,3.815880790352821350e-02
-4.422362733153785697e-01,-3.793811137377048892e-01,-4.178815266088127256e-01,3.499825089390300637e-04,8.349772742777642224e-04,-5.917700079894684315e-03,5.586250871419906616e-02
-4.325460538844756453e-01,-4.399292968145325222e-01,-3.614784226662291489e-01,2.432552692614270776e-03,7.167288663865009797e-03,2.046939556151388621e-03,7.625130563974380493e-02
-5.068837395468510643e-01,-4.416999317872650765e-01,-3.606559650753646262e-01,2.297384617723094435e-03,-1.371192922742955726e-02,8.131127254718799324e-02,1.910870522260665894e-01
-4.844448197779112619e-01,-4.273052019825706038e-01,-3.230285983573373265e-01,1.201596477105640499e-02,2.224513931016451271e-02,9.289266637469809074e-02,2.188645750284194946e-01
-4.194094801440764186e-01,-4.351777097371201664e-01,-3.805424878207654960e-01,3.662430578125938120e-03,-3.938858877392003612e-03,-1.671812961288018972e-03,4.967205226421356201e-02
-4.089655068885088562e-01,-4.067984605593183978e-01,-4.137264048035499964e-01,1.618628164127012973e-03,2.296419517208057263e-03,1.078696596796950265e-03,8.052986115217208862e-03
-4.336453255093815073e-01,-4.345291389469560506e-01,-3.740911191571414385e-01,3.187908870620756192e-03,4.123163812295825223e-03,3.108311892389974303e-03,6.091464310884475708e-02
-4.797790553870543984e-01,-4.647792295034451349e-01,-2.909424042521087106e-01,-8.002100131145845757e-03,1.895154874174847376e-02,7.135014851775406397e-02,2.226968258619308472e-01
-4.833876865027617598e-01,-4.866294104321166603e-01,-1.694144940317648951e-01,9.263872535030383965e-03,2.398891587716410478e-02,1.008130361366187111e-01,3.634297251701354980e-01
-5.153074997061040108e-01,-5.489763464744649157e-01,-2.396529617344934637e-01,7.592080801621730116e-03,8.949525421471804520e-02,1.540501450610073653e-01,4.263747632503509521e-01
-4.253812623832677331e-01,-4.051613801924114910e-01,-4.035420918036689009e-01,1.983336681642443918e-03,8.151444476651306193e-04,4.697198226479432082e-04,2.141643501818180084e-02
-5.068259156186252223e-01,-4.557306485085346193e-01,-3.330189537963036406e-01,3.129470166281089760e-02,4.136826886074439213e-02,8.134194554718655878e-02,2.277289777994155884e-01
-4.072097081854162415e-01,-4.347730336099233095e-01,-3.810392090053539293e-01,1.836207817248839205e-03,8.568539597518895490e-03,1.420795314780211750e-03,4.901437088847160339e-02
-4.431417064240059100e-01,-4.439585834268736653e-01,-3.420689966141962635e-01,-7.307830234563256807e-04,1.998536702952829168e-03,-3.433102131121672273e-04,1.015522629022598267e-01
-4.752729555572728914e-01,-3.803550168015625288e-01,-2.768903308208892078e-01,1.142142911178503292e-02,-1.416992432432025032e-03,1.284980433209403361e-01,2.819000184535980225e-01
-4.766392839765993816e-01,-4.982781027871520108e-01,-1.978127143241031893e-01,1.569407825440610749e-02,-9.849052832982026218e-02,-9.558212977786466336e-03,3.381717205047607422e-01
-4.224559467540309199e-01,-4.214562474904427480e-01,-3.817708431585654649e-01,-9.444623138226623804e-03,5.576515180562747684e-03,-6.021520593255419440e-03,4.566481709480285645e-02
-4.322486937629910764e-01,-3.524689711378239387e-01,-4.388849156237420446e-01,6.849724994659381512e-03,-1.433732824558733854e-03,-3.935867963543520157e-03,8.444924652576446533e-02
-3.602572811666940877e-01,-4.441309279377004260e-01,-4.346052316620488964e-01,-2.143956895967646242e-03,5.304929869741079398e-03,-2.936442921581394142e-03,8.031598478555679321e-02
-4.453848621324118517e-01,-4.506401537395632317e-01,-3.639370596301297889e-01,1.229930083184143166e-02,-2.192754784545029867e-02,-2.430074967160934796e-02,1.037171334028244019e-01
-3.861158309334063454e-01,-4.315274362062031521e-01,-3.895919638931262252e-01,-1.924376137608868522e-03,1.838623758539895472e-02,-3.110282941545156749e-03,5.450443178415298462e-02
-4.883155027483713773e-01,-4.912912119359499341e-01,-2.786366418381141519e-01,-1.814300497618350416e-03,5.589840930126272443e-03,-1.226215084079068478e-02,2.124916911125183105e-01
-4.293731277415888670e-01,-4.065010065389145222e-01,-3.783325967591929517e-01,-1.416847038604683758e-02,1.312366892048061340e-02,-2.086404945243908182e-02,6.622476130723953247e-02
-4.485861986183622419e-01,-4.514600360951839253e-01,-3.493888463050381921e-01,1.908885423895573946e-03,-4.622127420030813262e-03,1.369593986823449024e-02,1.037844419479370117e-01
-4.198117470282517472e-01,-4.044943310577428508e-01,-4.042262408209435498e-01,-1.098313142570164942e-03,2.470415732636553098e-03,-9.352826635752225018e-04,1.622817106544971466e-02
-4.327053420012564877e-01,-4.393601799833226629e-01,-3.555948210024082456e-01,-2.873204499828313583e-04,5.978622594222889920e-03,-2.613954411534736774e-03,8.143374323844909668e-02
-4.652376449609758602e-01,-4.462595574337584470e-01,-1.932308742193021012e-01,4.216801999832858923e-03,-1.357208136373922250e-02,-7.423053267242200881e-02,2.938063144683837891e-01
-4.015592438670212427e-01,-4.275777963609455057e-01,-4.019177380962800639e-01,1.769382391878206000e-03,7.355211091489869887e-04,1.137634358736311921e-03,2.612783573567867279e-02
-3.243756928497369962e-01,-4.626904708824455259e-01,-4.700870993222405758e-01,-1.492280545190726067e-02,3.381221566156031311e-02,2.546179484820927305e-03,1.559681594371795654e-01
-4.347610615720805538e-01,-3.763971669335520742e-01,-4.160225006970224015e-01,9.817662155577582938e-04,1.163172475914617254e-03,4.747580705298994064e-03,5.232964456081390381e-02
-3.505956556551172998e-01,-4.502276090827687094e-01,-4.454580087576912040e-01,-6.174510374156417895e-03,3.553682792075579019e-03,-6.334557033338344230e-04,9.811999648809432983e-02
-3.472263203876123638e-01,-4.445752980515377817e-01,-4.426361080601508013e-01,-2.949254354768812529e-04,8.926392386603990148e-03,-2.909873279413942933e-04,9.762869775295257568e-02
-4.122722806345817115e-01,-4.200267449628187766e-01,-4.009988907064440111e-01,4.072639999465506311e-03,2.222537265554381993e-03,1.228937770363793414e-03,1.854047551751136780e-02
-4.078438957176913626e-01,-4.285261440013100609e-01,-3.915661194002806322e-01,3.952348832828878403e-03,2.840236385461511557e-03,1.440171918554753600e-03,3.326663002371788025e-02
-3.511181729773300009e-01,-4.529975337741899422e-01,-4.527890406815323621e-01,6.453152309291611613e-03,-8.073864279975188907e-03,-4.769454356029981116e-04,1.033410876989364624e-01
-3.104234464578177199e-01,-4.467013795713957736e-01,-4.444200136543425828e-01,-1.883147848394211080e-02,-1.179111315162268206e-02,2.219417588553198803e-03,1.405763924121856689e-01
-2.460108558569649995e-01,-5.428247654642204267e-01,-4.956169561002956581e-01,-1.746267980919375198e-02,4.528878667502787142e-02,-2.423635129084424078e-02,2.917968332767486572e-01
-3.413506253620220976e-01,-4.454278758369510927e-01,-4.496690860974797976e-01,2.961067164732498428e-04,-9.678792948988590699e-04,-6.786748688884769974e-04,1.062823161482810974e-01
-3.361664330260689670e-01,-4.564213027914977849e-01,-4.529890741176136326e-01,-2.226876661223719904e-03,-4.203047009189682555e-03,1.338063389495725182e-03,1.188844665884971619e-01
-4.122531887303069187e-01,-4.057213386173855185e-01,-4.199074064634513714e-01,1.662165556462127632e-03,-4.372285564556256839e-03,1.408552196369959337e-04,1.472911611199378967e-02
-4.135604417993794524e-01,-4.096483464010183817e-01,-4.091641091896164872e-01,-2.756016187733113364e-03,-2.238925722080711313e-03,1.775115243718054271e-03,8.044358342885971069e-03
-4.026391015988094457e-01,-4.313000015572328039e-01,-4.003286451963720127e-01,2.856337948117712295e-04,-1.390885868832147628e-03,-1.560588239648902096e-05,2.998423390090465546e-02
-3.924613288099969566e-01,-4.104997230082821358e-01,-4.409636112079501347e-01,1.617091888399572325e-02,-2.080194172228556557e-03,-1.107984007509854726e-03,5.103050172328948975e-02
-4.053822362598662465e-01,-4.169950051382410039e-01,-4.138826508338860899e-01,-5.673159771003457794e-03,-7.240329245569491166e-03,5.051077900657592948e-03,2.094663679599761963e-02
-3.965897079622197063e-01,-4.147850781614056404e-01,-4.269365989113796389e-01,-1.312121377370267621e-02,-1.337502471678555377e-02,1.608299995809529120e-02,5.028910189867019653e-02
-4.074094048712686988e-01,-4.152977472342614385e-01,-4.077460733726261388e-01,-1.393204257422677242e-03,-2.288907192073700183e-07,9.605759589954594030e-04,8.262851275503635406e-03
-4.075024427515995251e-01,-4.141026497903042003e-01,-4.095683787924751518e-01,-4.419848764481646699e-04,1.013499499706002876e-03,8.368455367450232255e-04,6.321688648313283920e-03
-4.087722803499655999e-01,-4.370649897127333872e-01,-3.946113818578573795e-01,-3.091575193407700931e-03,-2.550508607375355681e-03,1.097148203447167797e-03,3.812425211071968079e-02
-4.808825193630075212e-01,-4.522654150428886410e-01,-3.038564099228840965e-01,-9.275222352383604568e-03,3.148345205363058900e-03,2.046013932201597857e-02,1.692184507846832275e-01
-4.154212879575195916e-01,-4.062578785838446005e-01,-4.054842750535762597e-01,-3.422530718672085834e-03,-1.659791836421104991e-03,2.203961930587657221e-03,1.223248150199651718e-02
-4.102675621931117234e-01,-4.140809143132710424e-01,-4.086004386074973405e-01,-2.623800598103316790e-03,-8.154836545812025944e-04,1.410956205554620303e-03,7.231784518808126450e-03
-4.109085755935240614e-01,-4.144107459136349147e-01,-4.101275073907105773e-01,-1.738409461435578554e-03,3.178206525840648737e-04,9.007861428463633099e-04,5.235855001956224442e-03
-4.446590187930714588e-01,-4.437107629249956164e-01,-3.389176791586545057e-01,-2.074070332588643327e-04,-1.528051865201634401e-03,-2.795627983615800970e-03,1.054155603051185608e-01
-4.111600892291671916e-01,-3.985273717075221711e-01,-4.449141394214715106e-01,1.704352381108053399e-02,1.635259403416613067e-03,1.445637594867466751e-03,5.109857022762298584e-02
-3.967070188777740425e-01,-4.107843553640371237e-01,-4.422538561275505820e-01,1.545262568854800442e-02,3.106021722625422650e-03,-9.519619322140317457e-04,4.878031834959983826e-02
-4.191309277342965545e-01,-4.351675465207341942e-01,-3.720489533341071464e-01,-1.841904429396289903e-03,-5.887001844144579971e-03,6.566098229139021155e-04,5.783046409487724304e-02
-4.052815357979875910e-01,-4.328157342550119080e-01,-4.059341708609315869e-01,2.973341708798855985e-03,-5.491916766757403562e-03,-3.385303614645868153e-03,2.986594662070274353e-02
-3.824582221194789966e-01,-4.245667154054711401e-01,-4.461353741707519416e-01,1.930776429682452833e-02,2.147455298949602423e-02,1.056787060533830556e-02,7.735265791416168213e-02
-3.684587635355696111e-01,-4.250943788150794433e-01,-4.375707673179982105e-01,2.016539725636114916e-02,1.342091250081875985e-02,9.348715509353372477e-03,7.805350422859191895e-02
-4.271849335838533990e-01,-4.276831984361462724e-01,-3.922111975893107227e-01,1.122551836248426860e-02,-1.757568477582290012e-02,-1.067471604439511855e-02,5.373486876487731934e-02
-4.325842251381271097e-01,-3.593655888021668465e-01,-4.398376015776237491e-01,-5.760197321624155146e-03,1.993779680733725676e-03,-2.153946356942355346e-03,7.791049778461456299e-02
-4.423755264459154346e-01,-4.418600181206973065e-01,-3.383850666663505979e-01,1.194959421193926520e-03,-1.474420378192470770e-03,-2.754012877620408764e-03,1.038952991366386414e-01
-3.686424777915089379e-01,-3.779894978688349005e-01,-4.631237605514438860e-01,5.954662681074904956e-02,1.595075057936512497e-02,1.685333777921135118e-02,1.427716612815856934e-01
-4.035831987360188333e-01,-4.229058923517569069e-01,-4.051132930447945979e-01,-1.567047395252822890e-05,5.968877555001816677e-04,1.844195854878453045e-03,1.890541985630989075e-02
-3.810677748811743815e-01,-4.066969350746019729e-01,-4.375893097442948299e-01,9.074467045295653636e-03,-1.082165436228489045e-03,6.720993717920395417e-04,5.152518302202224731e-02
-3.780727604594572577e-01,-4.028352189280038909e-01,-4.406240839483214766e-01,2.610941632353348460e-02,3.538408672871514848e-03,2.110703377710601309e-03,7.122467458248138428e-02
-4.799468875966996229e-01,-3.375833544395819286e-01,-4.817961242373391406e-01,2.601933936229459607e-02,5.947969295504109029e-03,2.347063897114403525e-02,1.559609770774841309e-01
-4.033783553813391487e-01,-4.322540528787480740e-01,-3.962928231384464373e-01,1.002547741357048133e-03,2.262675874472061185e-03,1.455404789595702176e-03,3.336673974990844727e-02
-4.199218189950864599e-01,-4.044396578616173410e-01,-4.042020231762776805e-01,2.059656758125035826e-03,1.123058536891271154e-03,5.155437062985734811e-04,1.614746265113353729e-02
-4.441958343132315079e-01,-3.206343593457141039e-01,-4.438223399492917665e-01,1.248422065831516006e-02,-5.049581371324156787e-04,1.762174755161721729e-02,1.289237737655639648e-01
-4.334331437743010884e-01,-4.323831161499114284e-01,-3.617473715534189060e-01,3.546157385854824956e-03,-3.487244124764714206e-03,-3.871526341273980997e-03,7.199899107217788696e-02
-4.934575205844409229e-01,-1.943102411312905009e-01,-6.004588827997155986e-01,1.151289887216800506e-01,-1.848609259164126634e-02,4.236472200402346955e-02,4.232270419597625732e-01
-4.500379435193683775e-01,-3.521237524022385323e-01,-4.428162061162113639e-01,6.174044165103793544e-03,2.028720691006448212e-04,1.185975137177036794e-02,9.730710834264755249e-02
-4.405929059909611811e-01,-4.065552211960666296e-01,-3.829090155433246823e-01,2.275295658634970877e-03,3.859312121452506414e-04,-7.126354041344615774e-03,5.187389999628067017e-02
-4.449723427052795222e-01,-3.364139783968858599e-01,-4.414912729847668693e-01,-2.272655512648951229e-03,-5.293379784452199779e-04,1.689708152373661050e-03,1.069768071174621582e-01
-4.204291024256966436e-01,-4.403722563356525788e-01,-3.767859927138021980e-01,8.041045091934953494e-04,5.693160080260275917e-03,2.938703291047500745e-04,5.720372870564460754e-02
-4.158138729135418266e-01,-4.078626299699474878e-01,-4.074813140579043313e-01,3.605152274719750668e-04,1.426339672930659755e-03,-6.055901574218721698e-08,8.537731133401393890e-03
-4.388879368135832348e-01,-3.340001403959441673e-01,-4.312993052542141159e-01,2.011297913896367695e-02,5.816811545486301818e-03,2.585284090556863243e-02,1.165473833680152893e-01
-4.410687998677782495e-01,-3.473561596408746843e-01,-4.318608109710107557e-01,-1.990204910128279790e-03,6.666191108614415335e-03,3.527660692623273142e-03,9.047912061214447021e-02
-4.372740262055133664e-01,-3.695849668047037073e-01,-4.399458163862418059e-01,7.543039390549733693e-03,5.510374319519817030e-03,1.420989201375518450e-02,7.508226484060287476e-02
-4.403086434584323472e-01,-3.411173347002153244e-01,-4.542719071401378206e-01,1.038298737101715774e-02,3.223781288374340248e-03,3.376271410425821067e-03,1.086633279919624329e-01
-3.772229271294906816e-01,-3.604962302064832480e-01,-4.189486783188493546e-01,1.041335855616513095e-01,-7.050673150399346112e-02,-8.680417151212301008e-02,2.697566747665405273e-01
-4.018401411589189731e-01,-4.328510648025655216e-01,-4.016103421680808916e-01,-2.031742346248431304e-04,8.492844086263885402e-04,2.777323333475096873e-04,3.116689808666706085e-02
-3.912968842478081188e-01,-4.352218577305026481e-01,-4.084857608682879171e-01,-4.894345167745050955e-04,4.171789870845789977e-03,-2.127466469507456950e-03,3.919627889990806580e-02
-4.030743419757067958e-01,-4.329722119885976994e-01,-3.987785317384396899e-01,-1.592720426307356546e-03,7.087230148993717456e-04,-3.898125760838138591e-04,3.240903094410896301e-02
-4.523635526096868587e-01,-3.417590970416859997e-01,-4.567333084162398249e-01,8.675431411541825732e-03,4.899385085438476631e-03,3.617596994724664883e-03,1.143364235758781433e-01
-4.637574497063270407e-01,-4.369687711235330507e-01,-2.919072712441855844e-01,-5.041573842073263090e-02,9.785344422443048584e-02,-1.103569321828656441e-01,3.139005601406097412e-01
-4.686847143192721665e-01,-2.777275080025394804e-01,-4.042507865324209138e-01,-6.814670058012592402e-02,5.839237576155976994e-02,-1.275578877151095636e-01,3.182549774646759033e-01
-4.495721048714571011e-01,-3.683862043872656034e-01,-4.426419660174703563e-01,5.018062018653022052e-03,2.685414317312857964e-03,1.370097184046274036e-02,8.207846432924270630e-02
-4.080906222917839998e-01,-4.368775353640458325e-01,-3.934426953976989938e-01,4.057494416998928149e-04,3.207245109152230284e-03,1.404503408514236361e-04,3.868241235613822937e-02
-4.302827009116421686e-01,-3.874308386025817064e-01,-4.081349580239617136e-01,-3.095136187163075904e-03,5.085442443343074839e-03,-5.550559592586791317e-03,3.970495611429214478e-02
-4.346932736770123262e-01,-3.705588992732367082e-01,-4.023312896251758919e-01,-6.405182061361645515e-03,6.723037301904022899e-03,-2.837211667166783524e-02,7.588549703359603882e-02
-4.034534610765235785e-01,-4.034714239197244590e-01,-4.323245186164694775e-01,5.632272995777891163e-07,1.514722146429401187e-03,1.812690916729090907e-03,2.915064990520477295e-02
-4.618622557220439795e-01,-3.456489709013966238e-01,-2.436049348738874576e-01,1.289671787989907399e-02,-1.284771101165883660e-02,-1.371080419199044442e-01,3.052333593368530273e-01
-4.965995511050727007e-01,-4.264140257368722042e-01,-3.732390524093995299e-01,9.820337277110928118e-03,-7.378202345806469768e-03,-7.112729190153689596e-02,1.646681725978851318e-01
-4.069053788133473737e-01,-4.209794318878521402e-01,-4.087396878228040653e-01,6.875374832126224765e-04,-1.428501535321861481e-03,-7.470848824877265220e-04,1.359565649181604385e-02
-4.143411033428364143e-01,-4.089088105698346354e-01,-4.078131674301974097e-01,8.449696151028994896e-04,-6.379066491206183010e-04,5.283122556952370846e-04,6.392349489033222198e-03
-4.639102235376825201e-01,-4.097752056840102686e-01,-2.745429351058858436e-01,-3.477238807945653293e-02,6.969943343133434832e-02,-1.298700751882884419e-01,3.119924068450927734e-01
-4.014902991116768294e-01,-4.328288471297633278e-01,-3.972328459858393002e-01,2.618747042330330475e-04,-3.672311479781062687e-03,-3.675098856488064297e-04,3.427420929074287415e-02
-4.515084251965008622e-01,-4.205258615339445005e-01,-3.869493152365499067e-01,-6.184334537781584554e-03,1.438362579500754995e-02,-2.908150027346676283e-02,8.000122755765914917e-02
-3.854135629088936144e-01,-4.006013306869218304e-01,-4.298386332003815147e-01,2.346685378374491898e-02,-1.271154865438968613e-02,-1.096881522190660055e-02,6.346110999584197998e-02
-4.328968067807474895e-01,-3.987864969905923207e-01,-4.021777734901670343e-01,1.607768610501035447e-03,-1.231229425279463689e-03,-4.008836521013778992e-03,3.346417844295501709e-02
-4.017710496488297034e-01,-4.219469164766966318e-01,-3.966235206199377195e-01,8.779413296990253371e-03,-1.142918992453150102e-02,-8.096904329731528793e-03,3.684035316109657288e-02
-4.332425113594388089e-01,-3.882927347037162247e-01,-4.061445824875221655e-01,3.268545403742105591e-03,-1.806655152993232776e-03,-7.396916388303449198e-03,4.174589365720748901e-02
-4.183412431143313515e-01,-4.027375589616315477e-01,-4.136897951266338413e-01,5.654503525137548857e-03,-8.408144127957576167e-03,-9.312786513348913706e-03,2.758126333355903625e-02
-4.131248000260153708e-01,-4.212875875110893009e-01,-4.035016760254732104e-01,3.328967551988405889e-03,-2.032755745797768833e-03,-1.467996724948366586e-03,1.702629029750823975e-02
-4.804171026952714918e-01,-4.485626622274866415e-01,-3.203603227094557471e-01,-7.913269113216329226e-03,-4.663149548790810478e-02,-1.892526153267503480e-02,1.712314337491989136e-01
-4.217738820810271183e-01,-4.214066643567199177e-01,-3.788341084678326642e-01,1.003261165501805746e-02,-9.558533293067635397e-03,-8.076881583123769054e-03,5.098975822329521179e-02
-4.312121730196946112e-01,-4.291206232448755431e-01,-3.610001321243271888e-01,5.416768220622987517e-03,-3.115955305281634287e-03,-3.219546954183718362e-03,7.025312632322311401e-02
-4.107059204978661393e-01,-4.104426701173552461e-01,-3.977641788218562180e-01,7.095745588591956948e-03,-4.152120858150004645e-03,-4.054402815952381535e-03,2.040183171629905701e-02
-4.009319554162684707e-01,-4.231261578832161696e-01,-3.997616660973138392e-01,4.388489822904184656e-03,-8.498181948009756251e-03,-5.753262565506738965e-03,2.989414148032665253e-02
-4.694671342112256007e-01,-4.719669760935412683e-01,-1.733731337349056767e-01,1.584981203609237281e-04,6.049054864999495185e-02,-2.219653357671795904e-02,3.176059722900390625e-01
-4.428469327800379496e-01,-4.255468739547317858e-01,-3.169654622716097103e-01,9.407568017660046869e-03,-1.387496875615195843e-02,-4.105750618971146237e-02,1.409534960985183716e-01
-4.425855033371708380e-01,-3.471621950011639646e-01,-4.308832092212060982e-01,-1.936627011254670383e-03,2.281235534908095629e-03,-6.027088857790030736e-03,9.089400619268417358e-02
-2.307826053257126808e-01,-4.571962525755012274e-01,-4.638992434612687621e-01,3.335363160796678272e-02,2.573203453143122973e-02,6.902558594608984056e-03,2.414383143186569214e-01
-2.476940646924547518e-01,-4.633123808056450743e-01,-4.121716009884939247e-01,4.772720360548286800e-02,1.060766882588913967e-01,2.157826345996787312e-02,2.829612493515014648e-01
-4.196299033248684363e-01,-4.354359795070401606e-01,-3.766381045257477522e-01,-6.525394482042440585e-04,6.428654960433547588e-03,-1.121258353957989631e-03,5.391373112797737122e-02
-3.038368186042922359e-01,-4.526406541161548391e-01,-4.756608009163548756e-01,5.772731742048967107e-02,1.630403090014731493e-01,3.430246118370011699e-02,3.455021381378173828e-01
-2.991025627555037314e-01,-4.377781502332684926e-01,-4.362062033343597767e-01,9.373008816167429161e-03,2.709269799999173417e-02,2.359136907597183565e-03,1.466209292411804199e-01
-1.791846977730081336e-01,-4.630191994425099100e-01,-5.238620966249329935e-01,5.763450855373099951e-02,6.067352856930158245e-02,1.646508194335847761e-02,3.512200713157653809e-01
-3.506423459168492851e-01,-4.331331333289554775e-01,-4.419008771257272317e-01,4.702283871896683135e-03,2.517028362352084249e-03,2.575556572942842154e-03,8.780719339847564697e-02
-3.017355091221119445e-01,-4.456962054132175277e-01,-4.309149888870964507e-01,4.984208039657170297e-03,2.706583839667423691e-02,-1.361340078124275441e-03,1.452343612909317017e-01
-4.335723779667551847e-01,-3.718285851520520824e-01,-4.339366310170725272e-01,-3.916601856382162690e-03,2.958357017441769383e-03,-3.832168184915499959e-03,6.285897642374038696e-02
-3.920291292955225826e-01,-4.905330962473553602e-01,-4.512194521713571160e-01,-3.562914815619691589e-02,7.533455108434122804e-02,-1.928229269461483042e-02,1.712473630905151367e-01
-3.126325208693860325e-01,-4.591242238787718866e-01,-4.792492917611584358e-01,8.163995783587963892e-03,1.511005003456793692e-02,1.174606537879436391e-02,1.615914553403854370e-01
-3.163302716694911254e-01,-4.927947508577775748e-01,-4.845782688449793985e-01,4.436553566089316409e-05,1.616515609451468077e-02,1.309679654785397569e-03,1.747752726078033447e-01
-4.562740596766445278e-01,-4.560192504759199572e-01,-3.448556673021825336e-01,1.797003106237471653e-03,2.681871642374621112e-03,-6.547134132199148790e-03,1.120071113109588623e-01
-2.859279036173782984e-01,-4.988393153013860326e-01,-4.779261524378000114e-01,3.221584416649631022e-02,5.383563628656762128e-03,-2.287752972924110735e-03,2.110265642404556274e-01
-3.260270061753220983e-01,-4.855315671188626392e-01,-4.935368599667529499e-01,-3.492519980113253930e-02,5.947997101061415536e-04,-3.995782013019926956e-03,1.746165454387664795e-01
-4.030351387706161970e-01,-4.310086468830287010e-01,-4.005137023407528973e-01,-1.488660456245817325e-03,8.124585458095837879e-04,-3.095530875361173070e-04,2.946734242141246796e-02
-2.243096616708086244e-01,-6.321679328208776871e-01,-5.777729552406165592e-01,-2.844657337980631764e-02,1.173993779297578255e-01,-6.927108575354263761e-03,4.370825588703155518e-01
-3.412178711748499182e-01,-4.533502445553366234e-01,-4.505027750123903885e-01,-4.089214385198410365e-03,-2.752727403211541364e-03,-1.312333049721214288e-03,1.110880151391029358e-01
-3.299365525045392933e-01,-4.412775929858171464e-01,-4.330349583841941463e-01,-5.394213570393387169e-03,2.210529996094659153e-02,-1.441421863400574148e-03,1.144835501909255981e-01
-4.526613749521022356e-01,-4.542208613491230396e-01,-3.401641437906627874e-01,1.158884368315887987e-03,-9.333217675032253607e-03,-4.107404872098197740e-03,1.146711185574531555e-01
-4.371030087386408303e-01,-4.355193165921565912e-01,-3.488400777125250096e-01,8.451213888724919132e-03,1.273395226267288842e-02,7.249936001182533465e-03,9.225771576166152954e-02
-4.702323471092818008e-01,-4.760266637643383869e-01,-3.201317553876136257e-01,1.675695471481964891e-02,1.962113531304708267e-02,1.566457679536375353e-02,1.617621183395385742e-01
-4.834471638727684817e-01,-4.828264549742926626e-01,-3.377404458847187430e-01,1.251548253993809562e-02,3.366933190395862696e-02,2.713864719384855712e-02,1.649869531393051147e-01
-4.078697527919484811e-01,-4.361786333328288023e-01,-3.933113637165081555e-01,-2.458309160307202510e-03,3.755657841572500408e-03,-1.231569653198450690e-03,3.860655426979064941e-02
-3.117355081065000810e-01,-4.587314343252966164e-01,-4.191242809239644762e-01,-6.623732909434909555e-02,8.050845601369921445e-02,-4.083271191988945004e-02,2.344426512718200684e-01
-3.861542833549818643e-01,-5.433536622865142718e-01,-3.580367008581019639e-01,3.686448270664365034e-02,2.045683666175585891e-01,-2.658389112588204622e-02,4.020746648311614990e-01
-5.908819835446580404e-01,-2.858374903239244702e-01,-5.845766318046160537e-01,-1.374701322810555626e-01,3.682577672191331836e-02,-9.157991516636464213e-02,4.208225905895233154e-01
-4.098690405521230318e-01,-4.100499026370893474e-01,-4.099703210268839104e-01,1.101142589604388149e-03,-2.174768218361246015e-04,-3.411742050962047459e-04,2.037960803136229515e-03
-4.032515524799409889e-01,-4.000638982489317930e-01,-4.313058333469484418e-01,-1.638046994420395410e-03,4.303415286254849573e-04,-1.839495622039271402e-04,2.992219664156436920e-02
-4.560928017783270061e-01,-4.371264011087466761e-01,-3.455890395924567371e-01,9.216905261985278153e-03,1.235262738523491312e-02,3.228270794379058117e-02,1.196414753794670105e-01
-4.061959571599332852e-01,-4.202406179876804759e-01,-4.047218045358147998e-01,6.851877636680776384e-04,-1.128143444175640133e-03,-2.400765567580662608e-03,1.557713653892278671e-02
-4.475250186614545544e-01,-4.508434897874296077e-01,-3.482352775448708249e-01,-1.309124675264011209e-03,6.494102970768932115e-03,2.981909344827674262e-03,1.017707809805870056e-01
-4.440102636619231435e-01,-4.531711822283176483e-01,-3.514291728532633607e-01,1.132329135945794396e-03,1.091784019592352897e-02,3.967006049667473719e-04,9.932383894920349121e-02
-4.573356584398189928e-01,-4.475760904219284742e-01,-3.203773987454430205e-01,4.212283617795071003e-03,2.329942213711380661e-02,6.904243004366523648e-03,1.390718668699264526e-01
-4.110790874555934615e-01,-4.116152843021555485e-01,-4.095220233700645474e-01,-8.373295167616483844e-04,5.524138867152499164e-04,-3.777693834642358093e-04,2.644583815708756447e-03
-4.100435678065295075e-01,-4.117648286516698009e-01,-4.104157236661099550e-01,-5.354730692101080909e-04,4.191172089822909372e-04,-8.804229469478611157e-04,2.484606113284826279e-03
-4.055114862488906624e-01,-4.267544062006131678e-01,-4.027677060779507601e-01,8.023762082860983738e-04,-1.633251746058005582e-03,-7.038850817581035566e-04,2.298904582858085632e-02
-4.060976896141983428e-01,-4.171394914317894664e-01,-4.047847912341581145e-01,-3.314025688341343083e-03,2.473286117897478126e-03,-1.051315634973786156e-03,1.388370897620916367e-02
-4.072249176104189572e-01,-4.175764966144937529e-01,-4.081626181477361892e-01,-3.347579123349611390e-04,4.139661769050777046e-04,-1.703529291907024878e-03,1.038672775030136108e-02
-4.382757971313376855e-01,-4.085465327007500869e-01,-3.987099479662090107e-01,2.357325024381550557e-03,7.358709269525742606e-03,1.721291066980058099e-02,4.838385805487632751e-02
-4.334358495157334956e-01,-3.823710589312385166e-01,-4.046735772897956385e-01,1.529567351141694403e-03,4.043702779746463291e-03,8.769212924081531968e-03,4.746485501527786255e-02
-3.780336206170548663e-01,-4.184509767268779767e-01,-4.389707688852473866e-01,6.524267783842159843e-03,-4.667682062691760566e-04,-1.466080402070777961e-03,5.494342744350433350e-02
-4.180479562337767740e-01,-4.288888415387501762e-01,-3.794630003908818217e-01,5.720407683398544621e-03,-4.561965555187134404e-03,-2.391206159945512017e-03,4.692947864532470703e-02
-4.266419952769861523e-01,-3.972618360790420855e-01,-4.005337321589821364e-01,1.218955232109802814e-03,3.525006408195505841e-03,4.372453118446363932e-03,2.961181849241256714e-02
-4.104072165850382592e-01,-4.203240102091130859e-01,-4.133932339089890218e-01,1.141212371289729820e-02,-1.475663260172858926e-02,-1.286483280334417383e-02,4.022615402936935425e-02
-4.258701692384957438e-01,-4.067599422180235291e-01,-4.018721801303157259e-01,2.857552399580271397e-03,3.459633022483925031e-03,4.867776154492037960e-03,2.477876096963882446e-02
-4.317462774442963891e-01,-3.748550967933935163e-01,-4.320528880997044907e-01,3.418678862326061333e-03,3.960831878626171546e-03,5.488458031043644096e-03,5.853750929236412048e-02
-4.518340587282587140e-01,-4.482163749543602860e-01,-3.325348640062230077e-01,1.167086880230311504e-03,2.943287122570793085e-03,1.192386556987327928e-03,1.176781132817268372e-01
-4.072761282712409336e-01,-3.951384183295189034e-01,-4.118712949835906523e-01,2.332108214566123647e-02,-1.781485086877990232e-02,-2.889764305499799638e-02,7.289143651723861694e-02
-4.225859824228259121e-01,-3.935800279301154281e-01,-4.119726247743731307e-01,3.504907339283891161e-03,7.337399356178418014e-03,3.383753414867749724e-03,2.964545413851737976e-02
-4.275600061943923835e-01,-4.024765222838080359e-01,-4.016355371679409259e-01,1.798002657457749417e-03,-7.980773503583210322e-04,-1.033637944914187704e-03,2.580305561423301697e-02
-3.793471092410707346e-01,-4.055585815116969917e-01,-4.329954023781302785e-01,-8.978549594459084987e-03,2.134157055822284970e-04,-6.356696150723272192e-04,4.901195690035820007e-02
-4.400456090704201184e-01,-4.336172244986371549e-01,-3.628097830554058434e-01,2.762251478222584218e-03,-2.982772372453714859e-03,-3.729007073048648622e-03,7.484312355518341064e-02
-3.956443553694943827e-01,-4.086817273221798885e-01,-4.334602862343973628e-01,-2.418627624249256036e-03,-8.587106842333145891e-04,3.073766494418492170e-03,3.398680314421653748e-02
-3.979480532951714111e-01,-4.016560914666947868e-01,-4.327108768540562922e-01,-3.832396970548286336e-03,-1.459102092080470084e-03,1.868243624450865049e-03,3.397383168339729309e-02
-3.964702895641029623e-01,-4.021343476230099245e-01,-4.351713225592383494e-01,-4.816553869043805128e-03,-4.511422069342035219e-04,-1.028456142502957426e-03,3.720252588391304016e-02
-4.883881927260400602e-01,-4.217291435538983446e-01,-3.191800168847794272e-01,2.396261186419751735e-02,6.722099813296750735e-03,6.722622099118442940e-02,1.929037421941757202e-01
-4.398564230907289763e-01,-4.332601470602171490e-01,-3.594858852383038816e-01,-1.283576788138137467e-03,1.553016514162140326e-03,-5.678051683456759001e-03,7.798517495393753052e-02
-4.026392332460312917e-01,-4.021325823363313123e-01,-4.358992138880669609e-01,-7.012512864230935339e-03,-1.031526145292441981e-03,9.476590704389555595e-04,3.573159128427505493e-02
-4.112491089656879484e-01,-3.929262382795934982e-01,-4.214536303462935729e-01,-5.357982889210443841e-03,6.168898509855714855e-03,-5.047546123820276925e-03,3.005925752222537994e-02
-4.004369867928986304e-01,-3.962533575485693293e-01,-4.294872802089452768e-01,-5.087525813033875327e-03,-2.194892508096161869e-03,1.048989691333831282e-03,3.283840045332908630e-02
-4.014163626041505339e-01,-3.950209657742762004e-01,-4.346274960899828010e-01,-4.941819864040524098e-03,-9.627398483075751178e-04,3.107202662270488764e-04,3.784988448023796082e-02
-4.018080836470186989e-01,-4.021690935008744305e-01,-4.334054962362165475e-01,-7.139269943489418707e-03,-2.084235488164025082e-03,1.884290152618747121e-03,3.411320969462394714e-02
-4.008627253960279080e-01,-3.952828940228831356e-01,-4.318730842523542113e-01,-5.082924311949129671e-03,-1.565535106849960580e-03,8.228671427986228824e-04,3.539352864027023315e-02
-3.789647465152729544e-01,-4.370684038677899452e-01,-4.263650646279651402e-01,9.259106885492234679e-03,2.001971607757871766e-02,4.545080584048262831e-03,6.625878810882568359e-02
-3.532810409389270379e-01,-4.329784218370539839e-01,-4.465338551748518903e-01,3.299565378916708563e-02,9.481217411178844562e-03,1.420270245086273277e-03,1.056296676397323608e-01
-3.458393150053581389e-01,-4.375172913702945476e-01,-4.364517363379823434e-01,2.021514527874004527e-02,1.316281465381830863e-02,6.994338118011248460e-03,1.009989902377128601e-01
-4.033869963471787834e-01,-3.909110050841165807e-01,-4.039244285181959326e-01,1.383866591573685093e-02,1.404610609444674994e-02,1.485251771828445186e-02,4.461884498596191406e-02
-3.866379419996699429e-01,-4.071698461376443423e-01,-4.433222439124100411e-01,1.958540881387350885e-02,1.869221672004289098e-02,1.583872399305687531e-02,7.363687455654144287e-02
-4.083364235221943472e-01,-4.076907702088884422e-01,-4.146659378574067412e-01,-4.711059590132595648e-03,4.615809723489261787e-03,-4.226107842194792852e-03,1.512103155255317688e-02
-4.310334762450759305e-01,-4.195673478308089011e-01,-3.830283948849470543e-01,-5.697317804362578633e-03,2.728499606118757297e-03,-4.162247166033481230e-03,4.535650834441184998e-02
-3.982117545628071631e-01,-4.486047240176876949e-01,-4.269417363231656770e-01,5.478309608662892266e-02,6.499261110420170851e-02,3.565860487670004242e-02,1.655516922473907471e-01
-4.079391023575902886e-01,-4.218903025187695222e-01,-3.903692007426897148e-01,-5.285705063596556758e-03,6.131149447208854818e-03,-3.669055506043912562e-03,3.139161691069602966e-02
-4.117043886416882348e-01,-4.159646261177711302e-01,-4.103215207634337003e-01,-3.593249718515690704e-03,1.510657420261158875e-03,-3.721206877001787504e-03,1.063372101634740829e-02
-4.421766804254526617e-01,-3.774835816420081258e-01,-4.590705082533115822e-01,5.779450180968012662e-02,4.060941754960928352e-02,4.597163168927601712e-02,1.639258116483688354e-01
-4.056222747062338541e-01,-4.280249164540161355e-01,-4.022553686896800373e-01,-2.128015465994535088e-03,6.114913190772930471e-04,-8.542224603672730248e-04,2.460768632590770721e-02
-4.427727719884159696e-01,-3.957410993749248540e-01,-4.120747864014008832e-01,2.971626965344278037e-04,-9.701471495038718274e-04,-1.658773760138780237e-02,5.038962885737419128e-02
-4.413101731243495585e-01,-4.100752465356355403e-01,-3.966652756279392955e-01,3.587211451250451807e-03,-2.717192101192478226e-03,-1.377587289472682018e-02,4.695088043808937073e-02
-4.101171846913220786e-01,-4.297282184306959740e-01,-3.991854946998095732e-01,-4.653235235185541538e-03,1.507411431798714790e-03,-1.184497509972846137e-03,2.818616665899753571e-02
-3.616622964309927357e-01,-4.317631434892712505e-01,-4.462871453647890840e-01,-3.312074342284428152e-02,1.458955134751101917e-02,-8.650757338473664265e-03,1.014753282070159912e-01
-4.127395056505256399e-01,-4.111159868665764661e-01,-4.085043447905944425e-01,-2.012871462742017725e-03,1.905707812737975852e-03,-1.534020150731962157e-03,6.618633866310119629e-03
-4.123530811960642306e-01,-4.199963633031510435e-01,-4.015499186750276506e-01,-4.679972234251518481e-03,1.509287037125721983e-03,-1.208677787241094377e-03,1.829269528388977051e-02
-4.328213330558207672e-01,-3.814437483781498162e-01,-4.048596517248553295e-01,-5.929149694079931645e-04,2.643432811904999750e-04,-8.415165555400141301e-03,4.688941687345504761e-02
-4.014167825623414232e-01,-3.998758558253194817e-01,-4.318464145182006608e-01,-1.345016130103896066e-03,8.786591319497911046e-04,-3.155170437113848482e-04,3.135711699724197388e-02
-4.356298420181565212e-01,-4.013184260826857530e-01,-4.027306552101029280e-01,-2.436295030585184068e-04,4.504768640947038314e-04,-7.025390229424534339e-03,3.577243536710739136e-02
-4.122410200164004501e-01,-4.149634985659131359e-01,-4.040178429462021881e-01,4.136647691721757371e-03,-1.621460184895411397e-03,-1.487665193880024009e-03,1.277819834649562836e-02
-4.032156752916379872e-01,-4.036875239051737618e-01,-4.249439539631604812e-01,5.626561521187869314e-03,-4.199756267479698782e-03,-3.671975035529942769e-03,2.550346963107585907e-02
-4.120402406721649369e-01,-4.105515527641593332e-01,-4.121645538769538319e-01,1.771524324058442422e-03,-1.299609760916388456e-03,-1.848922101152362983e-03,5.210959352552890778e-03
-4.110729527089991286e-01,-4.045549110798105086e-01,-4.132858412609193288e-01,1.101532185512117939e-03,-2.847552814145908832e-03,-8.551541670214308707e-04,9.589843451976776123e-03
-4.358849830413674686e-01,-3.947903727207239255e-01,-4.106878145111849121e-01,-5.044422694699785773e-04,3.436317993820091040e-04,-1.652374583689337345e-02,4.591749981045722961e-02
-4.400549645335388727e-01,-4.293247425939580864e-01,-4.258480267833837374e-01,5.046953556544000324e-02,-5.805857140083210688e-02,-5.283355238302116230e-02,1.621499210596084595e-01
-3.998066155408290245e-01,-4.018401194255599718e-01,-4.331325903712281988e-01,-8.717338871033404081e-04,3.280966494308884584e-04,2.170645679512119063e-04,3.239955753087997437e-02
-4.525257438892292261e-01,-3.424037029981079061e-01,-4.094081808927631516e-01,8.504746183705740384e-03,6.994847638789165011e-03,4.681057085730477851e-02,1.271819919347763062e-01
-4.601262407566308887e-01,-1.557519607006452311e-01,-5.004651601607938982e-01,9.390373176506065789e-02,3.566247694519899310e-03,-5.728898852681267237e-03,3.648827373981475830e-01
-4.106819813454622436e-01,-4.082611368364268967e-01,-4.137903365738824779e-01,2.660619183293760838e-04,-1.367951482239289362e-03,-6.241142514620411259e-04,5.481058266013860703e-03
-4.662929915463376318e-01,-1.683503838070947722e-01,-4.629725782551546431e-01,-4.434751530582746459e-02,3.799318191861154881e-03,-1.089133919418230293e-03,3.061674237251281738e-01
-4.838406055683988072e-01,-3.509424334334534934e-01,-4.618711033437566948e-01,1.356453336538457344e-02,7.007950566646403180e-03,4.692549552928920037e-02,1.501006484031677246e-01
-4.201113212090324400e-01,-4.198575810680651998e-01,-3.938896376712892056e-01,5.511515797134412982e-03,-3.262381876659500596e-03,-2.899474398352095209e-03,2.879701741039752960e-02
-4.136178135798182498e-01,-4.077738899126465144e-01,-4.087555648433894850e-01,2.000080940304445418e-03,-8.628980229058842927e-04,-3.558190298775896088e-04,6.632711738348007202e-03
-5.012355262308529902e-01,-1.976298916918390047e-01,-5.219527929466010185e-01,-1.669421448403151861e-02,2.692173944159855642e-02,9.810132002216231939e-02,3.616317212581634521e-01
-4.842316058981624427e-01,-3.508524455156185051e-01,-4.627753504134966001e-01,1.459602389686822863e-02,8.423848481915588438e-03,4.681945188816532405e-02,1.510521471500396729e-01
-4.735030997119263341e-01,-2.320149432064832207e-01,-4.619017002159189755e-01,-4.367605252433071766e-02,-1.793590614746067013e-02,7.060845754867248192e-02,2.780181169509887695e-01
-4.296266010131804536e-01,-4.197252065114690511e-01,-3.858926814037776931e-01,5.544339423601340328e-03,-2.369946104168470236e-03,-3.878737090127165870e-03,4.161573573946952820e-02
-4.201698196627176030e-01,-4.047148971252730321e-01,-4.050220462954004508e-01,2.433087384688340220e-03,-7.685181402752509858e-04,-1.073051203201983664e-03,1.603708043694496155e-02
-4.921522934880594446e-01,-3.248580665584568372e-01,-4.800561177585658257e-01,-3.425672756614890624e-02,-7.360459153686453072e-03,2.788191521166554290e-02,1.792354881763458252e-01
-4.339870206939300812e-01,-4.016650426275550356e-01,-3.986273293181361588e-01,-2.390660105776241245e-03,2.111093396173048878e-03,-3.967546690632456352e-03,3.506940230727195740e-02
-4.347210743340716443e-01,-4.090665682659373470e-01,-3.958413898264129260e-01,-3.717087633326500180e-03,1.452488503881427511e-03,-2.182867036160972447e-03,3.513429313898086548e-02
-4.300251329998883709e-01,-3.983284163475772077e-01,-4.025201599222741899e-01,1.143475721821191927e-03,-2.433765210574986328e-03,-3.634138867012439138e-03,3.083344362676143646e-02
-4.324251206579732831e-01,-3.931543451094888231e-01,-3.915823350000577907e-01,5.880997008123895874e-04,-1.531141847558957882e-04,-1.405050298573471378e-02,4.690156504511833191e-02
-4.336490928448930027e-01,-4.007923876294685606e-01,-4.018870198988004350e-01,1.368236656577737488e-04,-6.554273632959021351e-04,-7.308664107718120320e-03,3.473312407732009888e-02
-4.272322298437523647e-01,-4.053275400783658555e-01,-4.020061132679542126e-01,9.226921359799926956e-04,-6.982182472429301380e-04,-1.381821305132979955e-03,2.394466660916805267e-02
-4.339868796894018610e-01,-3.812249908076539295e-01,-4.047196581398685433e-01,1.366577344595745497e-03,-1.831172895415852844e-03,-8.642641913738573906e-03,4.833157733082771301e-02
-4.334521742083340956e-01,-3.960782819672906685e-01,-4.083891655812952326e-01,9.989809446958614753e-04,-2.450620849011149287e-03,-2.209639054035456018e-03,3.352488577365875244e-02
-4.357434265554873676e-01,-4.184949968437847168e-01,-3.789446158692491018e-01,2.352386510797132603e-03,-1.843677957959569255e-03,-5.289335761805003672e-03,5.152332410216331482e-02
-4.352180251379311748e-01,-4.122119230676873358e-01,-3.975042267615995217e-01,5.731535304136651035e-03,-6.429683068481528013e-03,-1.221823586618349215e-02,4.188548400998115540e-02
-3.968039329648902491e-01,-4.019972160838708453e-01,-4.306722414059944715e-01,-4.108431413722341170e-03,7.031822315198082117e-04,-2.145209339379028270e-03,3.262010961771011353e-02
-4.347503676335713330e-01,-3.964489856020805281e-01,-4.019668974909392234e-01,7.076210637865117917e-05,3.894081828569493048e-04,-4.281267129101928859e-03,3.662727400660514832e-02
-4.034066645504327253e-01,-4.250938741485454364e-01,-4.040496002430996603e-01,-3.340873628954421377e-03,5.324375816094364944e-03,-4.369224221897308365e-03,2.515166997909545898e-02
-4.060813095712500487e-01,-4.245229646362024267e-01,-4.051204694922059812e-01,-3.187184007274408964e-03,3.771122735989222274e-03,-3.626684191279911859e-03,2.171023748815059662e-02
-4.334618513726067324e-01,-4.035038856031186172e-01,-3.995062291774249541e-01,-1.483607247240492687e-03,3.912192330186992756e-04,-1.246508420941083977e-03,3.232562914490699768e-02
-4.273830163144705652e-01,-4.080503306024544918e-01,-3.964783541016661528e-01,-2.769808914504446468e-03,1.402804171288860816e-03,-1.703549410482337522e-03,2.773095853626728058e-02
-4.015854429848716434e-01,-4.152844544603708221e-01,-4.109473273866753318e-01,-1.137877963755282162e-02,1.156040033320882530e-02,-1.161830518771079720e-02,3.662475571036338806e-02
-4.134920651223356614e-01,-4.124167498561926992e-01,-4.087279253496318154e-01,-3.193227448170132821e-03,2.929763721504648720e-04,-1.085283109566272542e-03,7.287763990461826324e-03
-4.018318258637930129e-01,-4.167236369044515221e-01,-4.004954335058835135e-01,-5.663756552005831495e-03,6.945929789268532467e-03,-5.256418975640326022e-03,2.381838299334049225e-02
-4.241296457037082579e-01,-4.037634346808497976e-01,-4.047662132215583131e-01,-5.375360301414697489e-04,2.046404835587298503e-03,-6.182618831301683274e-04,2.024702914059162140e-02
-4.001577982768780850e-01,-4.031512255934964761e-01,-4.332024003778166543e-01,-9.868834935713927722e-04,6.653566391891564420e-04,-1.182310684009400554e-03,3.178731352090835571e-02
-4.200928530604463029e-01,-4.197195970576212964e-01,-3.951609982768950480e-01,-5.972871969447044599e-03,2.029102618802540968e-03,-1.987468031223718103e-03,2.727009728550910950e-02
-4.108637391458347388e-01,-4.183768074754695698e-01,-4.082171411684848428e-01,-2.925179190141733495e-03,1.930338418888400721e-03,-3.027304130446335784e-03,1.215224619954824448e-02
-4.079819168306639821e-01,-4.176672437629548318e-01,-4.073658491207435839e-01,-1.809055814149097266e-03,3.647136028527426773e-04,-2.939029332213972598e-04,1.051799207925796509e-02
-2.115543772803388789e-01,-4.149973748276960528e-01,-4.702404683169548738e-01,1.118322658705100392e-01,3.132918528839275484e-03,4.675741201136885544e-03,3.054407835006713867e-01
-3.737012331302017043e-01,-3.989012227177068937e-01,-4.369948860117147671e-01,2.807292363663817930e-02,4.062698592113151916e-03,4.107487189573880842e-03,7.423290610313415527e-02
-3.480363690606956828e-01,-4.328717973992106116e-01,-4.716425996793231490e-01,7.648031591566908927e-02,2.138791483105623170e-02,1.054483765437221054e-02,1.767568588256835938e-01
-3.941620678101487307e-01,-3.924599812788347464e-01,-4.289241059093525932e-01,1.332634594760798326e-02,3.104748063748151779e-03,3.003433777900697647e-03,4.311866313219070435e-02
-4.090505670248749115e-01,-4.207335882899148061e-01,-4.011709801537085562e-01,-3.786175887615945285e-03,1.414710263880819986e-03,-1.172451025609385408e-03,1.854108273983001709e-02
-3.706888862313821309e-01,-4.217580105810576629e-01,-4.605709424769717786e-01,7.705555021111842873e-02,-9.478066586673099259e-03,-3.951639169531491122e-03,1.556459516286849976e-01
-4.218643625918975237e-01,-3.868960774786799339e-01,-4.024658273830419297e-01,-9.191510310369596301e-03,9.401972488178528611e-03,-1.931324625586677834e-02,5.058060958981513977e-02
-4.006331992566573574e-01,-4.029531659825100753e-01,-4.314115173226683586e-01,-7.818176728757577970e-04,3.828106120141843696e-04,-1.420985145241314461e-03,2.982638776302337646e-02
-3.941503481392489849e-01,-4.221783142632550279e-01,-4.527013473013029032e-01,4.157480566918977938e-02,-1.394460520102333567e-02,-8.580733062011697970e-03,9.253300726413726807e-02
-4.596376994476064071e-01,-4.403080893484892511e-01,-3.450360964179356449e-01,-3.023238661139918994e-03,-8.539451283270660387e-03,3.002770027111089854e-02,1.193445920944213867e-01
-4.126689763155858004e-01,-4.112136924188367626e-01,-4.092807753375130031e-01,-2.054551230870648934e-03,6.131711024555223932e-04,-1.079998076919456897e-03,5.094863008707761765e-03
-4.135256081199988332e-01,-4.109628117379938161e-01,-4.104005006551372792e-01,-1.558204611266872505e-03,1.011235954390435717e-04,-6.599758394384785086e-04,4.116624128073453903e-03
-4.077201816084408681e-01,-4.139527377215619919e-01,-4.092644549826635059e-01,2.007831095344294811e-03,-7.794126121267017007e-04,-7.899940046302642970e-04,6.884304340928792953e-03
-3.882601568653393231e-01,-4.245381134934625433e-01,-4.362115422575593704e-01,1.336714972451775660e-02,-9.340190020242215840e-03,-8.298406562572323286e-03,5.366747081279754639e-02
-4.192873726524473654e-01,-4.272043909084121127e-01,-3.893131880549396406e-01,6.755767026393019910e-03,-3.607625152845877169e-03,-5.644223626395894651e-03,3.834025189280509949e-02
-4.030703435427084869e-01,-4.130860473472997008e-01,-4.213331102685370921e-01,1.381930774687317081e-03,-1.721214625680467280e-03,-3.143766672505362691e-03,1.718124747276306152e-02
-4.099036862397800740e-01,-3.994919808002200257e-01,-4.227900873469060961e-01,1.355695973473568326e-03,-4.163246520172406671e-03,-2.440429966872986224e-03,2.200025133788585663e-02
-4.111537359365673994e-01,-4.151480199525044434e-01,-4.094343762419877519e-01,6.163705835674324236e-03,-3.765427133595557370e-03,-4.823017249958207534e-03,1.587676629424095154e-02
-4.102225835285983058e-01,-4.104266959645338497e-01,-4.104115562771727399e-01,4.190568902230167839e-04,-2.663373810546353906e-04,-7.518174663027650658e-04,1.572934328578412533e-03
-4.098943698297222715e-01,-4.124190263127781031e-01,-4.106631760509945606e-01,5.624216644350263274e-04,-2.290777701954701206e-04,-6.773612274986796390e-04,2.739857882261276245e-03
-4.092579399066911816e-01,-4.075176284630648293e-01,-4.079735818583204443e-01,3.944687181405816256e-03,-3.918654666282877543e-03,-4.435592721486774324e-03,1.241836417466402054e-02
-4.112142467188649730e-01,-4.103736024422284245e-01,-4.102700634124226697e-01,1.796391038305257125e-04,-3.239438605838934658e-04,-1.566873676321844054e-05,1.103090471588075161e-03
-4.035508537494630898e-01,-4.037538297473306503e-01,-4.166464926933448054e-01,5.273890381925942089e-03,-4.956208893339761681e-03,-5.182437766465848930e-03,2.016396820545196533e-02
-4.483859023255968856e-01,-4.217731119401912365e-01,-4.620877693440419431e-01,6.689624870233984444e-02,-5.502835488643757073e-02,-7.150748224268942133e-02,1.977631747722625732e-01
-1.337112656530765054e-01,-6.175097851560304996e-01,-5.276222670949656246e-01,-4.896889648775135107e-02,-5.459230831955550270e-03,1.777016768935622132e-02,4.548449516296386719e-01
-4.144645874095226334e-01,-4.060070714305136219e-01,-4.129351584569413425e-01,8.439318062117742714e-03,-6.462249919067833762e-03,-6.194215474555428251e-03,2.269331924617290497e-02
-4.024047340655337868e-01,-4.100772937026869736e-01,-4.198337566741418558e-01,1.960454454995901995e-03,-1.919939072688979032e-03,-4.706540659786401237e-03,1.783134974539279938e-02
-4.144832829986374034e-01,-4.147138905413614851e-01,-4.074984466374674819e-01,2.304892060807713257e-03,-9.509216010148157944e-04,-9.849400947371240826e-04,8.486019447445869446e-03
-3.438352966408108058e-01,-4.865265296636865355e-01,-5.162079114489934728e-01,-6.748635876936077971e-02,1.551489000317057658e-02,-1.489165790347739445e-02,2.013149112462997437e-01
-4.136268997336235431e-01,-4.047473390613436361e-01,-4.120213324735938487e-01,6.112866918557111236e-04,-3.296927693330905552e-03,-5.508615207546180672e-04,1.009000837802886963e-02
-4.167409320241124426e-01,-4.179424438284893850e-01,-4.152720337973672127e-01,8.831762332911947955e-03,8.639989190257085089e-03,9.326133225440687291e-03,2.691179700195789337e-02
-4.212912557914065270e-01,-4.133559700213470522e-01,-4.036454452634890000e-01,3.432971168696583985e-03,-1.536634567502448076e-03,-1.510958763346116097e-03,1.684064790606498718e-02
-4.087808486417270348e-01,-4.081502703028291323e-01,-4.120306033149669367e-01,1.904334110886529924e-03,1.766207504260343224e-03,1.083263286996881229e-03,6.063503213226795197e-03
-4.043250842859964500e-01,-4.131678204446443403e-01,-4.122142152713365593e-01,1.346659885090398159e-03,1.508242467628778064e-03,4.043084258766622453e-03,1.148805115371942520e-02
-3.779976389718769370e-01,-5.182081676811589599e-01,-2.956589353034934087e-01,4.340769125321655014e-02,-1.737492031784487745e-01,-1.267260658501981885e-01,4.270608127117156982e-01
-4.427819191520272479e-01,-4.392676192650861178e-01,-3.436236879546215039e-01,3.023070136461956849e-03,-1.004119278100383582e-03,-1.182381631811316343e-02,9.973005205392837524e-02
-4.443688588083893887e-01,-4.334296655525756159e-01,-3.674092911657429461e-01,-2.271603831543224546e-03,5.671123290482517516e-03,-6.121262874351765179e-03,7.365419715642929077e-02
-4.322785825183257935e-01,-4.088803340559479804e-01,-3.838574289630612424e-01,6.094001941419665246e-03,-3.097837910898687194e-03,-6.197706213685254262e-03,4.488375037908554077e-02
-4.084418265460171837e-01,-4.110325885545481062e-01,-4.099298734457552662e-01,6.168133807225872640e-04,1.193337570939008137e-03,1.301002573067170862e-03,3.944935742765665054e-03
-4.120161314018871423e-01,-4.128129976644671628e-01,-4.123582415330980244e-01,9.998223118528283201e-04,2.147822889219571860e-03,2.186970934818868902e-03,5.627282429486513138e-03
-4.326691700417907849e-01,-4.081202073979288136e-01,-3.943165461372290514e-01,2.025870950711388015e-03,-6.031809041439233944e-04,-2.232736120215050076e-03,3.406490013003349304e-02
-4.078440639629687947e-01,-4.135481213543258372e-01,-4.098819367328234708e-01,5.978758283948748227e-04,6.154314701645167453e-04,1.798307525643288085e-03,6.080741528421640396e-03
-4.366164481383950635e-01,-4.082164411485889599e-01,-3.949083774146621706e-01,6.240934919171368424e-04,2.256209783073000500e-04,-2.363588195380819830e-03,3.714424371719360352e-02
-3.728021533593440240e-01,-4.451219673981036129e-01,-3.645460296647798359e-01,7.747089065346598330e-03,5.987793375734561108e-02,7.025237956246046904e-03,1.303058564662933350e-01
-4.349554813902291039e-01,-3.757053953556168113e-01,-3.890643762955704466e-01,5.448564944023086623e-03,-6.792187759259332366e-03,-3.213715122031220867e-02,7.888831198215484619e-02
-4.258862600705591861e-01,-4.003801709500803274e-01,-4.105202501391719827e-01,1.492034723208997618e-03,-4.277535203577528811e-03,-2.275816890402469587e-03,2.391352131962776184e-02
-4.310593630016273936e-01,-3.870240669667059930e-01,-4.138347741893954601e-01,-4.421644756900368518e-03,5.016219610966576523e-03,-1.482488384264048220e-02,4.765265434980392456e-02
-4.327858222387268028e-01,-4.071387390171040122e-01,-3.915640913631440734e-01,-1.003918652590948422e-03,7.472503654218433139e-05,-3.367789958905300588e-03,3.656300157308578491e-02
-3.886182291590846716e-01,-4.400427721136455639e-01,-3.297282299882593470e-01,1.412244468821829101e-02,6.145048446886189342e-02,1.636538128245664664e-02,1.478891521692276001e-01
-4.239549742464763238e-01,-4.381656554901755540e-01,-3.695053001492267786e-01,3.798575588091603408e-03,1.082063967269504892e-02,2.738414956557629325e-03,6.601151823997497559e-02
-4.302251921822476399e-01,-4.102556925797014586e-01,-3.972189004047751437e-01,-4.525361088550946403e-03,1.920933363697793555e-03,-1.343834536419552354e-03,3.011646308004856110e-02
-4.147155190860076779e-01,-4.392343393340492064e-01,-3.877013992200901704e-01,5.772593027517585774e-03,7.016648077530771195e-03,2.297247054915166255e-03,4.750568419694900513e-02
-4.255432762752107134e-01,-4.400681149431466821e-01,-3.702057968726687465e-01,4.963076685765832434e-03,9.212895783465487390e-03,4.584999905933770901e-03,6.684736907482147217e-02
-4.173752972783963400e-01,-4.531593685172228825e-01,-3.686950867001996257e-01,5.998651983826685727e-03,1.902791584174746281e-02,1.385362428768280307e-02,8.462944626808166504e-02
-4.467503786383295039e-01,-3.640946490164286842e-01,-3.756637358432516338e-01,-4.249789469412564719e-03,5.043892950509349521e-03,-7.795488989761148457e-02,1.561120152473449707e-01
-2.516370869742882155e-01,-5.831333452591036526e-01,-4.503662135668484723e-01,-3.232685785319446524e-03,1.281894363192566666e-01,-6.021707371638584938e-02,3.790940642356872559e-01
-3.959209540060636412e-01,-4.354265730428594772e-01,-4.136577284145719346e-01,-7.009083132689178375e-03,1.250038999747340659e-02,-4.996963424104697640e-03,4.319322481751441956e-02
-4.109778820381297937e-01,-4.110061778219653572e-01,-4.104421812903551459e-01,-2.219817001612753605e-05,1.519009045374569320e-04,-4.386883930657550865e-04,9.751802426762878895e-04
-4.078097212280280548e-01,-4.079174403786524072e-01,-4.141083194185675720e-01,-4.803707366740107843e-04,1.955250561736520537e-03,-9.052635037228557542e-04,7.322926539927721024e-03
-4.210120873699477739e-01,-4.089556978017989120e-01,-4.058136695616846312e-01,-2.462551336307924540e-03,8.340035156994213619e-04,-6.262767287874997958e-04,1.464807894080877304e-02
-4.111390544458448093e-01,-4.085842670536851129e-01,-4.152189100814036582e-01,-8.537560965163046084e-04,4.096665255445969809e-04,-9.677311351937696940e-04,6.252600345760583878e-03
-4.125270344197708994e-01,-4.078571394257577976e-01,-4.070246855157479415e-01,-1.557473491015095744e-03,1.079204567259871728e-03,-6.294778776134133964e-04,6.192601751536130905e-03
-4.130388417158311620e-01,-4.096614778101531629e-01,-4.084951889477690945e-01,-2.002756703228125539e-03,4.249307141280383462e-04,-1.935353938796873039e-03,6.365326698869466782e-03
-4.141282037443820840e-01,-4.085652070241999612e-01,-4.101301803344999386e-01,-9.321317824028000970e-04,-3.864482797426655120e-04,5.251853911297332637e-04,5.345299374312162399e-03
-3.965329386956563118e-01,-4.023910408853700882e-01,-4.325102365025929041e-01,-4.175738710792150851e-03,9.017635871439009685e-04,-1.681878707669184903e-03,3.436801955103874207e-02
-4.122847292976610789e-01,-4.100259216061688528e-01,-4.115690561515884527e-01,-8.438454565406121408e-04,3.335139735327706337e-07,-8.192277430697923919e-04,2.854375634342432022e-03
-4.132311589285765363e-01,-4.113510702750057257e-01,-4.116296403550618321e-01,-1.924120926238399865e-03,1.515072763299392562e-03,-2.021414007889069629e-03,5.774080287665128708e-03
-4.575693134059822809e-01,-4.495004561586271041e-01,-3.499772977090240822e-01,2.487691940712084132e-02,2.284282652797426164e-02,7.964129847221762537e-02,1.822722703218460083e-01
-4.316170329371725178e-01,-4.423831786448189085e-01,-3.463924306986855273e-01,-1.748642615284411433e-03,4.920155434840083920e-03,5.905128440928759589e-03,9.210370481014251709e-02
-4.389869273473853140e-01,-4.547447163075313270e-01,-3.577997743391689300e-01,4.189338726093687695e-03,3.010469916558393064e-02,1.209084395795225440e-02,1.064381897449493408e-01
-4.390934703958702667e-01,-4.376960188155568088e-01,-3.435999258016393387e-01,6.546583839800104374e-03,2.028785185691115572e-02,1.551493144486551859e-02,1.052284464240074158e-01
-4.433891875487439571e-01,-4.522035031618666934e-01,-3.519761483866073459e-01,6.223848098045854996e-04,9.293735212550693209e-03,5.290690551073918071e-03,9.789808839559555054e-02
-4.265248373063239007e-01,-4.384553013365110608e-01,-3.666434310925059670e-01,1.342326703433661169e-03,1.142318893565433431e-02,8.121850174375130123e-04,6.958005577325820923e-02
-4.207728269067108062e-01,-3.930786365938800375e-01,-4.191359674810389846e-01,-3.393189447893169616e-03,5.383308351924297706e-03,-3.002794039881993577e-03,2.954399399459362030e-02
-4.083943236496453966e-01,-4.145151773651666871e-01,-4.087623569352471509e-01,-7.600131510437915447e-04,-3.130187293891622722e-04,-4.589079620951178637e-04,6.164917722344398499e-03
-4.320112648521595711e-01,-4.000508139672722119e-01,-3.935536325013445080e-01,1.120504103796381894e-03,6.912592577427222962e-04,5.240702319372100675e-03,3.686368837952613831e-02
-4.271046866633074757e-01,-3.992118827784612578e-01,-4.035021941285172886e-01,1.664433966567221762e-03,3.411225567079460147e-03,3.709646257244336113e-03,2.759078331291675568e-02
-4.334746684743621681e-01,-3.943671003379575768e-01,-3.913329199904764244e-01,1.865110915725517234e-04,-1.216938900103129546e-05,1.641286910555306983e-02,4.965399578213691711e-02
-4.276366441238725891e-01,-4.101095803126523220e-01,-4.003930305380292709e-01,4.050059570471905776e-03,1.919072259788754276e-03,1.618796706528445812e-03,2.529883198440074921e-02
-4.144144800935500861e-01,-4.188556603328584815e-01,-4.017201506230744790e-01,-5.647127198818687258e-03,7.994178734481919082e-03,-5.294230650951908292e-03,2.467235922813415527e-02
-4.256094646733504794e-01,-4.078351427362728043e-01,-3.908174282030196789e-01,5.561010216373708792e-03,3.450911866419656589e-03,6.348524264598460684e-03,3.402087092399597168e-02
-4.297688143230614655e-01,-3.972763129496987289e-01,-3.984676682943613657e-01,2.062023787100476010e-03,1.819754238314114569e-03,4.106832673823275319e-03,3.304179757833480835e-02
-4.111291811738794766e-01,-4.104821387788114562e-01,-4.102293414459702858e-01,-5.843905155667974321e-05,3.532800496348994677e-04,-7.737451538033065157e-05,1.024093362502753735e-03
-4.032315832743062489e-01,-4.221636636360320827e-01,-4.048689319271002174e-01,4.958153402039412044e-03,7.686376301890376385e-03,4.505413991442951821e-03,2.533758990466594696e-02
-4.097553305146666158e-01,-4.002993464875632124e-01,-4.202646391831600936e-01,-1.960772999493395549e-03,3.705793305351293924e-03,-1.401547101303964732e-03,1.891725882887840271e-02
-2.495349919515004733e-01,-4.617337973414871177e-01,-4.191549180938671237e-01,-1.677889619604169824e-02,1.274788028445474064e-01,-2.035379856152202613e-02,2.977348864078521729e-01
-3.953221131872562966e-01,-4.448144184331669915e-01,-4.142471862044105890e-01,2.816553277694538657e-03,1.877802973496804292e-02,5.899102662620382643e-04,5.434783548116683960e-02
-4.107251362858792554e-01,-4.114268895562741557e-01,-4.101328357655161239e-01,-3.743159134311710976e-04,1.804545127336635007e-04,-6.898908132625539494e-05,1.338369795121252537e-03
-2.949556475912779030e-01,-4.523985318208795792e-01,-4.382418733342766659e-01,-8.712870394192715959e-03,2.583523540800047522e-02,2.912040534451748770e-03,1.581624746322631836e-01
-4.303109758885124703e-01,-4.503800274287041994e-01,-3.712235126732050805e-01,4.106911962817163869e-04,2.963496070706323274e-02,1.540043014027193307e-03,8.787626773118972778e-02
-4.041525895238685662e-01,-4.297270028264434383e-01,-3.834843372314713505e-01,-5.267047147795248657e-03,8.217835185575866896e-03,-1.675453408952196034e-03,4.363543167710304260e-02
-4.010947016555435618e-01,-4.307065538864282561e-01,-4.022244804030067900e-01,-1.094830834069980378e-03,5.070578876613180547e-03,-2.479492327585905691e-03,3.072222694754600525e-02
-4.271517048189434340e-01,-3.991954520989048349e-01,-4.025076559039487134e-01,-1.588696752199879108e-03,3.592328793367078731e-03,-2.975973303430847969e-03,2.779894880950450897e-02
-4.024555793402402326e-01,-4.350622059538964415e-01,-3.957083969632071430e-01,1.719239241200624154e-03,4.167950040400898032e-03,-1.065156608990885137e-04,3.727916628122329712e-02
-4.207062425670534678e-01,-4.060020147147644365e-01,-4.045248466549440369e-01,-7.200257522688119187e-04,9.422983331266739744e-04,2.031471706094612763e-04,1.563521288335323334e-02
-4.209070145491566328e-01,-4.065833643193062508e-01,-4.082229715188350760e-01,-7.873522773165152980e-04,2.300828617645492465e-03,-3.166617488556014264e-04,1.422716211527585983e-02
-4.062123992525052962e-01,-4.339390952128732160e-01,-3.808202981856365632e-01,-1.740247267319946665e-03,9.382325101416073843e-03,-6.004290208557318351e-04,4.890622198581695557e-02
-3.963471046848814905e-01,-4.307886604397609398e-01,-3.986051816988717134e-01,-2.787722118877817602e-03,5.350215872348662235e-03,-2.933772600882134270e-03,3.533493727445602417e-02
-4.045209232853552161e-01,-4.318002431528266682e-01,-3.975480592783350864e-01,-3.384562811097385250e-03,3.266751862427998403e-03,-6.866830985739135699e-04,3.241593018174171448e-02
-4.330429052122406475e-01,-3.993301731816464306e-01,-4.029329517156582940e-01,-1.253678574682019894e-03,-1.002283033682672617e-03,6.891938925158618348e-03,3.432628884911537170e-02
-4.328994598446392894e-01,-4.045200533695518796e-01,-3.798364928565418630e-01,-2.532410847529085454e-04,-6.174215978548981253e-04,9.063653123903780973e-03,4.861027747392654419e-02
-4.144170128929326458e-01,-4.083786941426960637e-01,-4.092381488894815122e-01,-6.962041996992049441e-04,6.023579354845890778e-04,6.877571261121844925e-04,5.997660569846630096e-03
-4.050935662530396608e-01,-4.201390665956642456e-01,-4.054921669400042283e-01,-9.029974715172831186e-04,-8.661130452313453413e-05,-9.257923247803067496e-04,1.501894835382699966e-02
-4.318786445696609633e-01,-3.993706599224245424e-01,-3.955426437031138165e-01,-4.581971473224692726e-03,-3.133411285317464108e-03,1.145560234201530893e-02,4.101212695240974426e-02
-4.144093918631365225e-01,-4.168150580506341796e-01,-4.028728652443400171e-01,-5.927357428365081539e-03,-7.734877841317784782e-03,5.479553829832143827e-03,2.327217161655426025e-02
-3.990336551945970478e-01,-4.155599438265098478e-01,-4.123529567887141978e-01,-2.358470790705178080e-03,-3.212108019150206138e-03,5.279851790820432045e-03,1.901772804558277130e-02
-3.701014761493287564e-01,-4.181387745953972779e-01,-4.207678572088714430e-01,-1.487249350795539181e-02,1.369273687860821272e-02,-9.123860795205570792e-03,6.258250027894973755e-02
-3.987657446033344710e-01,-4.132601108135557366e-01,-4.197110551155328606e-01,-2.968263547538611737e-03,-2.128282736402206145e-03,5.909197461499135495e-03,2.213549241423606873e-02
-4.212409760868934261e-01,-3.994951902070224548e-01,-3.739360381473739725e-01,-1.002823953164504178e-02,1.043149767722555653e-02,-2.463191549734412497e-02,6.426735222339630127e-02
-3.990873341981852618e-01,-4.094758975235909260e-01,-4.228884761758813782e-01,-9.620807287613636349e-03,-5.160038914486492212e-03,5.961129893882981430e-03,2.985498122870922089e-02
-4.040843574599465304e-01,-4.067494006378508109e-01,-4.200780548565103967e-01,-1.024469986884519058e-03,-1.518175191906834254e-03,3.620786718554866185e-03,1.642164401710033417e-02
-4.112757176258886593e-01,-4.044220716133455906e-01,-4.145434645188070255e-01,-2.206120388276682290e-03,-4.145934523094214202e-03,2.553218037643366616e-03,1.287519372999668121e-02
-4.140521823718170125e-01,-4.070130103514903452e-01,-4.136028783349848803e-01,-6.622842306330851622e-03,-6.355504363140332576e-03,6.791840420259659047e-03,2.092223241925239563e-02
-4.106826681354031061e-01,-4.117378775357731224e-01,-4.108603147897235131e-01,1.429285040878817991e-04,-3.793917931860411131e-05,-2.154657545147744960e-04,1.078170258551836014e-03
-4.082304593395021386e-01,-5.010805241922710040e-01,-3.964954539065741468e-01,-3.121257908109665788e-02,-9.087111286795825082e-02,2.600866970258498834e-02,1.989300101995468140e-01
-3.703260734320015235e-01,-4.338154646202723175e-01,-4.222994998631498520e-01,8.410981804025476072e-03,-2.415370344865990643e-02,-6.281536393833777980e-03,7.425085455179214478e-02
-3.483927811240813410e-01,-4.203756131067286073e-01,-4.016627482887762945e-01,-3.694169893316036346e-02,-4.688260923711816408e-02,2.544818621608206308e-02,1.296747028827667236e-01
-3.976480173979765609e-01,-4.253916681357266527e-01,-3.826400277639638858e-01,-1.636735239911136022e-02,-2.602860808449290048e-02,1.618909854823271169e-02,7.094873487949371338e-02
-4.324673083984555411e-01,-4.484465095373865173e-01,-3.646331180352387902e-01,-9.969080550753451481e-03,-3.010234557745018399e-02,1.561009679048460004e-02,9.842954576015472412e-02
-4.371594739631949333e-01,-4.510809311051376391e-01,-4.405185167406585611e-01,-5.627535982053771813e-02,-5.672932667030883280e-02,5.718965175800064249e-02,1.706625223159790039e-01
-4.344737107969000589e-01,-4.019791104650062841e-01,-4.013638665477268219e-01,-2.397658916540978524e-03,2.363035914477071200e-03,-7.382301631725788835e-03,3.568981587886810303e-02
-4.418226267409730568e-01,-4.101347305257985187e-01,-4.018373947292483983e-01,-6.078141392226801831e-03,6.409183320828379209e-03,-1.454041495321530854e-02,4.694921523332595825e-02
-4.272601136614255224e-01,-4.024023248360844018e-01,-4.012488853311654835e-01,-6.744470231832497015e-04,1.077984961810709349e-03,-3.773649859719934363e-04,2.555758319795131683e-02
-4.749754713854540955e-01,-3.551461111627383094e-01,-4.230211561876600634e-01,3.903481986338055293e-02,-9.254693476612996933e-03,-5.423205558531695586e-02,1.564740240573883057e-01
-4.294272439526838347e-01,-3.938643847404411646e-01,-3.971996876666766818e-01,-4.600992091666498973e-03,4.121192845130679065e-03,-1.206281520052330213e-02,4.133065417408943176e-02
-4.358700067524268196e-01,-4.034812487690689897e-01,-4.029809356768035977e-01,1.794750846369042680e-03,-1.357378969625527669e-03,-6.454837937634153207e-03,3.472279012203216553e-02
-4.007766864536898010e-01,-4.323109761904599946e-01,-3.966591384859353142e-01,-9.736551979653956237e-04,-3.381220515730994688e-03,-5.537707432449546011e-04,3.434052318334579468e-02
-4.384146245224022076e-01,-3.824532644191771524e-01,-4.093246031341784552e-01,-1.637119164622517959e-04,3.913411430661018452e-03,-9.170089013547922524e-03,5.146146565675735474e-02
-4.316473117752832045e-01,-4.051182836976650603e-01,-4.019816580987138344e-01,-3.292959051040632908e-03,2.079302019196401299e-03,-5.970189760296306693e-03,3.081022761762142181e-02
-4.323825685903167626e-01,-4.056998760817717709e-01,-4.044570440203414385e-01,-3.523198576575933220e-03,3.095588814945045720e-03,-5.544991143475009633e-03,3.008156269788742065e-02
-4.313000636794482312e-01,-4.014057677743234076e-01,-3.999800170194869886e-01,-2.473959773288313883e-04,7.184252131934666446e-04,-7.115359838268976722e-04,3.068508394062519073e-02
-4.024197166520385172e-01,-4.026046920756099490e-01,-4.271235961611905552e-01,4.012624886537405670e-04,-9.911530483830525984e-04,-6.138840205951723566e-04,2.470439299941062927e-02
-4.324246861551689913e-01,-3.871540933170395937e-01,-4.091343390467696572e-01,-6.457005909648570047e-03,6.076382466246449399e-03,-1.657231508957304408e-02,5.096341669559478760e-02
-4.143274671602571457e-01,-4.092695244083818240e-01,-4.050471770684432871e-01,3.005035880164449221e-03,-1.966443081375259840e-03,-2.124913429114044620e-03,1.081686560064554214e-02
-4.314876418031871053e-01,-3.781020105125478259e-01,-4.277752879866895674e-01,-3.144303940535256216e-03,6.786885680738760813e-03,-6.747925138002447247e-03,5.449834465980529785e-02
-4.179158880227643591e-01,-4.213324279227311231e-01,-3.768589403556503181e-01,8.124147944809260308e-03,9.131086951968443374e-03,7.631651847701987311e-03,4.960322752594947815e-02
-4.523731412533267826e-01,-3.714181689185841462e-01,-3.706422111941746200e-01,7.146031555816127236e-03,1.763902668289521946e-03,6.203850442787311320e-02,1.353735029697418213e-01
-4.258767487092605109e-01,-4.113653039188218674e-01,-3.929877372083501741e-01,6.641572413401258639e-03,3.321930757409446641e-03,4.543219206025926604e-03,3.228562697768211365e-02
-4.318073703444434974e-01,-4.383035480209053758e-01,-3.602657974820150377e-01,2.299990623798274340e-03,5.971375980030864741e-03,3.591793445972756254e-04,7.581802457571029663e-02
-4.198577848319351991e-01,-4.386977267176603301e-01,-3.778949691571952263e-01,4.655590517315935997e-03,4.151553092787722485e-03,2.471607204666132797e-03,5.514938384294509888e-02
-4.314343886398353534e-01,-4.026576567711185328e-01,-4.003050383090872022e-01,3.813876129695036726e-04,9.350405875212711008e-05,-1.384011726615354135e-03,3.012548573315143585e-02
-4.042283560481573224e-01,-4.247672060263885663e-01,-4.015642461156447296e-01,-3.128722273208356559e-03,2.729192186178382683e-03,-2.031037352268792555e-03,2.340399846434593201e-02
-4.093653511371344034e-01,-4.069780228323496840e-01,-4.510416230139315807e-01,3.020817809060630937e-02,-1.165909359301126741e-02,-1.271188830927126416e-02,7.397491484880447388e-02
-4.016372385894914632e-01,-4.280561335970123893e-01,-3.808710714950486187e-01,-9.523515109941774193e-03,2.349681210757873992e-02,-9.226662705893128730e-03,6.214175373315811157e-02
-4.366315550438875093e-01,-3.939179371695368803e-01,-4.073488479611601099e-01,-3.575914289549973215e-04,-1.613964203564493671e-03,-3.328668408528546833e-03,3.837444633245468140e-02
-3.949290581106332798e-01,-4.360330778372685234e-01,-3.779515773091490782e-01,-1.219591585736464964e-02,3.788702685775863221e-02,-1.052579892071370087e-02,8.809368312358856201e-02
-4.217070156869471287e-01,-3.139828677190218409e-01,-3.095171257146812627e-01,7.942828738700953572e-02,7.629843738946512355e-02,1.497492972113934340e-01,3.402513265609741211e-01
-3.260621110011845958e-01,-4.285635483366165288e-01,-4.398199064423952143e-01,-3.101505045926748749e-02,2.578464713946181444e-02,-1.510816227309379027e-02,1.317275911569595337e-01
-3.933161185981118857e-01,-4.318470387276933664e-01,-4.082748791709269742e-01,-2.470514378746057130e-03,3.541191598521567768e-03,-3.618108519223531445e-03,3.503175824880599976e-02
-4.075540704402263459e-01,-4.256075975052891480e-01,-4.080033777151635954e-01,-3.819970563423303895e-03,4.259724071721318443e-03,-3.336292235710103162e-03,2.120436169207096100e-02
-4.044310010249056453e-01,-4.225665888833623485e-01,-4.018948091941553780e-01,-6.377649432971508464e-03,-7.054084477834877097e-03,5.778710125465838510e-03,2.743740379810333252e-02
-3.849035183490286394e-01,-4.347300734643521625e-01,-4.116876595850053611e-01,-8.388253323802472060e-04,1.015062888034705749e-02,-2.909214734618094031e-03,4.692677035927772522e-02
-4.668405565016024439e-01,-4.206243153039826432e-01,-3.684562603045103968e-01,3.130487508627578797e-03,-3.600467781902635944e-02,-7.515076529183481457e-02,1.677193492650985718e-01
-4.020992690975769834e-01,-4.204838921820423514e-01,-4.130203301513062919e-01,-1.015053203311595776e-03,-1.493620260077656650e-03,3.697182585742074881e-03,1.752927713096141815e-02
-4.080360930637861872e-01,-3.935880701586894626e-01,-4.360050230950906491e-01,2.396306788887546824e-03,-6.072724078212158802e-04,-2.123726112974424400e-04,3.759748116135597229e-02
-4.084888114567502004e-01,-3.876445628504731067e-01,-4.282880983845419598e-01,5.539847043532275528e-03,-5.095161293807675199e-03,-2.126631672743258157e-03,3.771889582276344299e-02
-4.198560524729591514e-01,-4.291884449200111251e-01,-3.853265730634354291e-01,5.131441905108101789e-03,-4.079660846356916552e-03,-3.342435672431243870e-03,4.200074821710586548e-02
-3.983150463262860042e-01,-4.018337599261060933e-01,-4.301800668311849263e-01,3.569800209881314728e-03,-1.089195000698270268e-03,-2.106264565393230117e-03,3.115662932395935059e-02
-4.013382324557677738e-01,-3.788274005079694251e-01,-4.325924246653912175e-01,9.924850257752377419e-03,-5.634030969034055196e-04,-1.705813509686629308e-04,4.983640834689140320e-02
-3.918816134047108934e-01,-3.949026982413422204e-01,-4.366529499417876603e-01,1.400301166022532330e-02,-4.280709996017055888e-03,-4.757765925982685232e-03,5.088690295815467834e-02
-3.925717028643321282e-01,-4.076042802530315812e-01,-4.131400205570517903e-01,1.455684359065121877e-02,-9.097768884767095526e-03,-9.406131973621414261e-03,3.859117254614830017e-02
-3.643161257658584229e-01,-4.135664367406851061e-01,-5.027191489875388886e-01,1.150477570162737051e-01,-1.185435354588312319e-02,1.997652029333217213e-03,2.343205213546752930e-01
-4.149176629325563304e-01,-4.089214603548624316e-01,-4.106441394984127746e-01,8.547602817321070263e-04,-6.177907298943826784e-04,-8.315778250688568877e-04,5.831290036439895630e-03
-4.211024544795086144e-01,-4.086533829676887719e-01,-4.064668053398122760e-01,8.598845582118179107e-04,-7.783492650710098579e-04,-1.091699966478667941e-03,1.394964102655649185e-02
-4.070860704847177325e-01,-4.247435384069645492e-01,-4.058720972389568415e-01,2.471176655049760369e-03,-3.869864196300407122e-03,-3.447592976484873620e-03,2.082308754324913025e-02
-4.155004984227311793e-01,-4.052942754560460714e-01,-4.064905446093659558e-01,2.843390084432291780e-03,2.170220153089972605e-03,1.761114560454755127e-03,1.187760103493928909e-02
-4.056088784640577982e-01,-4.237016137711967501e-01,-4.024142666150001268e-01,2.980055486641985506e-03,-1.348117420474692412e-03,-6.593494021462271721e-04,2.070629224181175232e-02
-4.031888532238895873e-01,-4.035499854131403552e-01,-4.368149839658814204e-01,6.731029007424527491e-03,-1.184880080852775998e-03,-1.236494806586663003e-03,3.554465249180793762e-02
-3.988729744038482239e-01,-4.025542768208458799e-01,-4.325791128704520871e-01,4.060678473147329333e-03,-1.582365890607080779e-03,-8.509720026161553090e-04,3.293515741825103760e-02
-4.037020445828460868e-01,-4.039686679695513871e-01,-4.259934498133590153e-01,2.393508412483782294e-03,-2.613879094875357946e-03,-4.113989805902181982e-03,2.407265827059745789e-02
-4.036580094342974712e-01,-4.160341815124696252e-01,-4.125785186639197022e-01,-1.575442689430770534e-03,-1.233915091020808220e-03,4.139041113481521476e-03,1.362908817827701569e-02
-4.070683346750847975e-01,-4.165234177014860428e-01,-4.080758704802410208e-01,8.281720787253846758e-04,-4.689835814513354495e-04,-1.696026589441099880e-03,9.603871963918209076e-03
-4.038234535193968022e-01,-4.081284797940847864e-01,-4.242462826650010843e-01,1.427339841245426092e-03,-1.572209194979615112e-03,-3.822578597188755131e-03,2.012630365788936615e-02
-4.195684873228313072e-01,-4.198277704944792799e-01,-3.929783915615859269e-01,6.032931944857750257e-03,-3.351626869106132025e-03,-2.984788266841002791e-03,2.972558885812759399e-02
-4.211137101881463063e-01,-4.023972418871721857e-01,-4.129793563388577948e-01,1.419206779177376162e-03,-3.214725001737808556e-03,-2.388682238614649785e-03,1.784350723028182983e-02
-4.082325824531119474e-01,-4.110212796170737426e-01,-4.183027976662292424e-01,1.882588791440798241e-03,-2.818299062825143329e-03,-2.318744465675952847e-03,1.147579494863748550e-02
-4.055687363551383484e-01,-4.032742351919385015e-01,-4.314792808576367600e-01,4.915834041939010426e-03,-3.451973510692989307e-03,-2.623077931483546246e-03,2.941018715500831604e-02
-3.993036510393673244e-01,-4.021905593259417211e-01,-4.269912994525872918e-01,4.519378329625218724e-03,-1.076171726355254488e-03,-2.747252771634879631e-03,2.797140367329120636e-02
-4.100702011693603821e-01,-4.103035166393866340e-01,-4.135477870653337940e-01,2.033191410457493246e-03,-2.477692664104277735e-03,-1.436406804479261950e-03,6.953052710741758347e-03
-4.122354734623222550e-01,-4.146367945536853505e-01,-4.040842955017843741e-01,4.397976809053465337e-03,-1.422809560190900534e-03,-1.220860021611164725e-03,1.266305241733789444e-02
-4.101113014269388568e-01,-4.105894242242213443e-01,-4.101698194059754665e-01,4.522479992855721180e-04,-1.129103716260933601e-03,-3.388400302577120006e-04,2.233090810477733612e-03
-4.096192541362017048e-01,-4.076177042405687567e-01,-4.117700878360958661e-01,1.460869049903146342e-03,-1.885774895671956742e-03,-6.949149504520638759e-04,5.608642008155584335e-03
-3.819042681869092570e-01,-4.220736718582202007e-01,-4.202505542088251778e-01,1.184503153800418006e-02,-1.263707169833405523e-02,-8.344212856373080245e-03,5.150291323661804199e-02
-4.071810563918163983e-01,-3.964609373148643146e-01,-4.392190935306334865e-01,1.567074417790501398e-02,-4.158828236272942014e-03,-2.766785676393739967e-03,4.792053624987602234e-02
-4.368628335721352340e-01,-4.780732620281851752e-01,-3.956712912465767951e-01,2.996310479586369868e-02,-8.262655063106957853e-02,-2.867015483644218266e-02,1.753091514110565186e-01
-4.286270510810285539e-01,-3.957436459979783994e-01,-4.088165303024152153e-01,1.191895643904919509e-03,-3.820841120699925916e-03,-2.965592159034885489e-03,2.994628809392452240e-02
-4.429736384830070817e-01,-4.451828403523411803e-01,-3.596860712603558996e-01,5.725857804247594385e-02,-1.023598259198477828e-01,-8.997576547365977728e-02,2.695938646793365479e-01
-4.080312495555948882e-01,-4.093927769350158008e-01,-4.140470893561312704e-01,7.382454427270664912e-04,-1.881001184290597957e-03,-7.121269182898487754e-04,6.604865193367004395e-03
-4.004420554160652568e-01,-4.193866439942334212e-01,-4.130109203075988389e-01,1.047419998801816599e-03,-1.690235861402985618e-03,-4.269318935401052867e-03,1.858238503336906433e-02
-4.202774610206800876e-01,-4.098935324117588541e-01,-4.025936352554907449e-01,5.179359673252762267e-03,-1.505869049078062752e-03,-2.409153063862043073e-03,1.848264969885349274e-02
-4.199060489190955536e-01,-4.122335746081318697e-01,-3.927382824546459816e-01,1.154813480713342590e-02,-1.215779851461509797e-02,-1.409207313449623196e-02,4.503092914819717407e-02
-4.396137514648225664e-01,-4.113301780563909937e-01,-3.530238050898409918e-01,5.179311427133223567e-02,-1.056090987599784953e-01,-7.918298586461562649e-02,2.572274506092071533e-01
-4.140092339161996482e-01,-4.083828658068885953e-01,-4.079698959792878998e-01,7.772218494995661005e-04,-1.865284626518626081e-03,-3.820633162477778881e-04,6.843835115432739258e-03
-4.176413344378686610e-01,-3.839099210594556499e-01,-4.296145283564066220e-01,-4.694002218267252433e-03,4.426618478811088220e-03,-2.411634524703797945e-03,4.274777323007583618e-02
-3.220603339825414690e-01,-3.972634648109740207e-01,-3.688529673660671526e-01,8.199848940626155991e-02,-1.132584404976004766e-01,-7.273590404979440871e-02,2.808047831058502197e-01
-4.119272186031923133e-01,-4.006371417168088644e-01,-4.203834645549117122e-01,-1.505414147621511427e-03,4.503111022366090496e-03,-1.343532576004878272e-03,1.917012408375740051e-02
-4.078815564570043573e-01,-4.324874319628577712e-01,-3.922627393446248001e-01,-2.561799651977892485e-04,2.876888805714490974e-03,-3.277694309828837116e-04,3.548323363065719604e-02
-4.153557944382153533e-01,-4.030348564423015256e-01,-4.118103520796306261e-01,-1.344434979097096404e-03,4.195824065356281926e-03,-1.455791899310992761e-03,1.361204683780670166e-02
-4.016407420999951738e-01,-4.329901410786458071e-01,-4.001053016627970638e-01,-3.758429791577958977e-04,6.803088011028326360e-04,7.725986964074408204e-04,3.220062702894210815e-02
-4.055570658371386861e-01,-4.255905371100415224e-01,-4.042825498081870639e-01,-2.122349951411787398e-03,6.157936768171248104e-04,-1.336124599920682741e-03,2.117790654301643372e-02
-4.073976739042505235e-01,-4.326201073756466009e-01,-3.982406849322204234e-01,-5.128237455652250205e-03,1.105480415929861043e-02,-2.750902775994261418e-03,3.767237812280654907e-02
-4.043194647487951543e-01,-4.255162047232445843e-01,-4.054069209401768292e-01,-1.247201037610696107e-03,5.665424100679496058e-04,-2.189977403523173279e-03,2.115304395556449890e-02
-3.981177954390748841e-01,-4.204185348886840812e-01,-3.967034682964841186e-01,-6.301394014406780375e-02,7.038907854942463849e-02,-4.301277879524768866e-02,1.812658160924911499e-01
-4.080094306306470964e-01,-4.297205319258437517e-01,-3.825033227120942514e-01,-7.685276983239034895e-03,7.623945036922940427e-03,-3.829863683885795407e-03,4.551117122173309326e-02
-3.818707505131328506e-01,-4.350106428720508789e-01,-4.084632192080125401e-01,-5.797768919087683583e-04,-8.499857868083483120e-03,9.735248457391291457e-04,4.835784435272216797e-02
-3.965790037927870437e-01,-4.346852690979038369e-01,-4.082399796192858199e-01,-2.646187836182962300e-02,-3.128236591609116074e-02,1.444864342586706790e-02,8.250122517347335815e-02
-3.974877668974787781e-01,-4.273615816253134581e-01,-4.110096403020262468e-01,-9.404076952399263766e-04,-3.173689091655359888e-03,3.699119827715835820e-03,2.729938365519046783e-02
-4.101152068393977279e-01,-4.428163853838869013e-01,-3.951568781847638046e-01,-4.967790517304872255e-03,-1.794133475571017128e-02,1.427375909161504152e-04,5.312293395400047302e-02
-4.359148035023674983e-01,-4.097028702865642691e-01,-3.955099800605124116e-01,9.403874706015983740e-05,2.281741948084665787e-03,-1.547885596084635704e-02,4.466494172811508179e-02
-4.325323524623641558e-01,-3.937752094782605572e-01,-4.067095595759344095e-01,-1.177329239572853271e-03,2.103141607252747701e-04,-3.017995695746930433e-03,3.463713452219963074e-02
-4.067909158527776015e-01,-4.312689731251538872e-01,-4.055891446124793021e-01,-5.090070341928553538e-03,-6.250266645098622072e-03,3.323222631340569042e-03,2.929320558905601501e-02
-4.165138126116860740e-01,-4.175207074528611284e-01,-4.091890530620567734e-01,-6.918849606331873951e-03,5.357769896159673452e-03,-7.174830421241254648e-03,2.112354896962642670e-02
-4.390618833829815770e-01,-4.199235418744124981e-01,-3.778934544539033213e-01,-2.679751913818383992e-03,9.821523613517885772e-04,-5.432146224043929786e-03,5.522818490862846375e-02
-3.962447550945314423e-01,-4.279877464999687353e-01,-4.033392566689142922e-01,-1.905583525008311321e-03,-4.769212563540552868e-03,3.770185147625575075e-03,3.089533187448978424e-02
-4.371625321373545647e-01,-3.946697987684452125e-01,-4.082074919240596955e-01,-1.179022074749433695e-03,2.336658332090734390e-03,-3.023519889238423033e-03,3.823117911815643311e-02
-4.200067828617147780e-01,-4.469872202385355431e-01,-3.812867373625551393e-01,-1.853111654387087220e-02,-2.890755197148140929e-02,3.365784244071636736e-03,8.272244036197662354e-02
-4.056893541305007234e-01,-4.292948734111182163e-01,-4.002652943780358741e-01,-4.767803810151936134e-03,-6.645367737750417295e-03,1.057402493147853754e-03,3.031025640666484833e-02
-4.008344461988994634e-01,-3.947198612825678077e-01,-4.325384655604662121e-01,-5.397550468314068171e-03,1.492516279872838493e-04,1.824503382247965347e-05,3.638486564159393311e-02
-4.323524186938933478e-01,-3.935366826661882422e-01,-4.090540435220895166e-01,6.122871576079120604e-04,-2.508084372113212040e-03,-2.803187968073142435e-03,3.447755426168441772e-02
-3.340113098215820031e-01,-3.595158982256063118e-01,-5.801776779087576275e-01,1.618584931161050067e-01,-6.080822545931487133e-02,-3.865632385191335174e-02,3.861869573593139648e-01
-4.359713437932846714e-01,-3.775390210246773459e-01,-4.176440490449775944e-01,-1.356859413507675340e-03,4.662766798419188774e-04,-5.743577400728784067e-03,5.276799201965332031e-02
-3.854266303141170025e-01,-4.280693990975549257e-01,-4.077170527389412102e-01,-2.123848514291360162e-03,-9.321575555609100741e-03,5.747074154626286187e-03,4.168977588415145874e-02
-4.188983967652651907e-01,-3.954920766262275400e-01,-4.109854687206163093e-01,2.545288523950710226e-03,-6.070410529421236059e-03,-4.005443060728180321e-03,2.456366457045078278e-02
-3.054261491661385275e-01,-4.831785627962373875e-01,-6.989459940215559941e-01,2.269409771217985317e-01,3.946913149743690175e-02,1.961240143611826803e-02,5.261546373367309570e-01
-4.174704195970467824e-01,-4.055016182164215555e-01,-4.060556503241200543e-01,1.661302231491109836e-03,-2.857368138965617980e-03,-2.177323678943571608e-03,1.356184761971235275e-02
-4.070183303300479172e-01,-4.062880856219887593e-01,-4.156351009350935377e-01,-6.479980676551795257e-04,-1.998028068808368508e-03,1.175641152729256381e-03,9.922539815306663513e-03
-3.912744785799255332e-01,-4.104983041459541182e-01,-4.250847434948335501e-01,5.711357582045653233e-03,-3.310229697926427191e-03,-6.620717010203777848e-03,3.354042768478393555e-02
-4.286917199575674409e-01,-3.858188759508419663e-01,-4.190409838215196081e-01,2.551688099277223468e-03,-5.212522685307065251e-03,-4.405078100692251183e-03,4.094779118895530701e-02
-3.997457763179033119e-01,-4.017899391060094638e-01,-4.313264856134246816e-01,8.074022860856158420e-04,-5.475155414816024408e-04,-4.375832712963141776e-05,3.065655566751956940e-02
-4.344628006659014829e-01,-4.017903215707392395e-01,-4.020114152996639989e-01,1.018731058764782904e-03,-1.999648858588381518e-03,-6.655527099221857784e-03,3.476080298423767090e-02
-4.315639302749850192e-01,-4.030005434308445156e-01,-3.825004715715398240e-01,3.888006074488897530e-03,-3.159506705166571696e-03,-9.375384476607535184e-03,4.648292437195777893e-02
-4.270640648838461839e-01,-4.041669958040269295e-01,-3.822349342474269940e-01,4.977423110825485858e-03,-2.058366278457441842e-03,-1.004495799494975472e-02,4.355696588754653931e-02
-4.314128705158922772e-01,-3.962126895200707710e-01,-4.027579866012954146e-01,1.827511399078586563e-03,-2.880368424336618698e-03,-3.137766598847576294e-03,3.340574353933334351e-02
-3.326266554483366944e-01,-4.541020463596842083e-01,-4.554853383263295918e-01,5.016247249798243442e-03,7.554699362594520604e-04,-1.745215207807552897e-03,1.225257441401481628e-01
-4.041680831213398384e-01,-4.119290223617335100e-01,-4.200314933890248459e-01,4.292362912762916010e-04,-1.182772096499107653e-03,-4.292032741457438294e-03,1.577273570001125336e-02
-4.242244744006564150e-01,-4.394996285125690183e-01,-3.696634111413892865e-01,5.653274265738012991e-03,-9.160848807428172147e-03,-6.067237692221750904e-03,6.709504127502441406e-02
-4.233257959599203146e-01,-4.021111800243653001e-01,-4.059687927329612700e-01,1.107190775573286233e-03,-3.140479056383823232e-03,-1.540960112148218953e-03,2.057893201708793640e-02
-4.307362241280511261e-01,-3.858733904770599854e-01,-4.173639246732117059e-01,2.326262515165305328e-03,-5.085911330833157128e-03,-4.601932644537915645e-03,4.182033240795135498e-02
-4.037917812851166688e-01,-4.098440860302312028e-01,-2.482962242439168965e-01,5.785764568041294048e-02,1.224214274156955606e-01,1.059809318591858895e-01,3.374255597591400146e-01
-4.235748241494091682e-01,-4.116258471409294240e-01,-3.938870102942493290e-01,6.975354914531980109e-03,-2.782497228446202155e-03,-4.061448879083993588e-03,2.980075590312480927e-02
-4.069960016465722918e-01,-4.098888133898288544e-01,-4.138685675533766428e-01,1.103685133253567985e-03,-1.517029456319284259e-03,-2.362251131315610403e-03,7.938429713249206543e-03
-4.244159997453541000e-01,-3.987960988594652090e-01,-4.097642912520842451e-01,3.433717981772263506e-03,-4.919589032330879547e-03,-2.371282093270052002e-03,2.491031587123870850e-02
-4.122517818327000594e-01,-3.974702557084631160e-01,-4.192279598707657762e-01,4.225710524893575362e-03,-6.138616445569689169e-03,-2.535559537416698546e-03,2.358355373144149780e-02
-4.069082348780447278e-01,-4.327473017434310676e-01,-3.946768393106992456e-01,-3.010155645809330961e-03,-3.069546346245813091e-03,9.442421123063067002e-04,3.451719135046005249e-02
-4.230726079281567631e-01,-3.911568911717941965e-01,-4.109288656369959880e-01,5.629159145014726688e-03,-7.238634653020329518e-03,-4.698827021632771134e-03,3.312098979949951172e-02
-4.285462841362897013e-01,-3.700868363002436934e-01,-4.272160878353649105e-01,2.516108432011871648e-02,-1.904008720674489619e-02,-2.000974602648753625e-02,8.677268773317337036e-02
-4.093327749733500776e-01,-3.941747202963618024e-01,-4.337307509191706822e-01,-2.546232160796392096e-03,2.391266365024292441e-03,-1.194582370692325382e-03,3.515307977795600891e-02
-3.612793555762349729e-01,-4.140781635933076799e-01,-4.375271008781030369e-01,1.540073140314394268e-02,-8.959097229413915016e-04,7.990240583258746872e-04,7.274278998374938965e-02
-3.626297953259211004e-01,-4.337444516830673558e-01,-4.471757245988575713e-01,6.629964249299480708e-03,-4.606279300329962738e-04,-1.751724188075898681e-03,7.958998531103134155e-02
-3.566458060824257981e-01,-4.536894644007596900e-01,-4.422408177382455841e-01,6.876243512164503802e-02,-2.910249568703543802e-02,-1.519920336549994769e-02,1.607988029718399048e-01
-4.042388175783738768e-01,-4.043502219305717960e-01,-4.200950567090353527e-01,-8.688837173096744223e-04,1.093699423885543479e-03,-2.428492929996972638e-03,1.652913913130760193e-02
-3.900528226819883204e-01,-3.929837720577608051e-01,-4.286290465974572639e-01,-1.496776933189449162e-02,3.730792611552041348e-03,-3.431948287294412422e-03,4.618272557854652405e-02
-3.624599858918788886e-01,-4.399169481474344279e-01,-4.390059312733650132e-01,1.117855770170590735e-02,-1.533898716686776277e-02,-8.263789683667237956e-03,8.494380861520767212e-02
-4.328413472477407598e-01,-3.548313719170037017e-01,-4.423853525126959507e-01,-6.408956950881894432e-03,-2.749979131447502674e-03,2.663445715463351286e-03,8.419243246316909790e-02
-3.340699023594442263e-01,-4.722626503931883213e-01,-4.420532932019894390e-01,2.618378367806568213e-02,-2.749465568469351695e-02,-5.389179721063546563e-03,1.422915905714035034e-01
-3.544195423971632786e-01,-4.395808086206316467e-01,-4.363770854490299778e-01,7.754094384212584061e-03,-7.656581434160480981e-03,-7.416791922267887763e-03,8.666686713695526123e-02
-3.728653053003924689e-01,-4.260296274093388069e-01,-4.313992986463038859e-01,8.385368503360895315e-03,-5.519886082238887465e-03,-8.324330074125366880e-03,6.042340025305747986e-02
-3.824676193250156064e-01,-4.402431999729821688e-01,-4.246378306892040211e-01,-1.438386245171713491e-02,1.517484512355873026e-02,-1.042569726098051264e-02,6.570795923471450806e-02
-4.017191639854239549e-01,-4.033630194940647229e-01,-4.308551973746296837e-01,-6.731863533628244280e-03,-2.168713561084458473e-03,2.970864582907004926e-03,3.130906075239181519e-02
-4.283252305288818285e-01,-3.860231539216648078e-01,-4.189007552894817854e-01,-2.726637806618950523e-03,4.511591954237391053e-03,-3.548349534555972525e-03,4.000938683748245239e-02
-4.012692578726876902e-01,-4.024324576885115468e-01,-4.263491282005170691e-01,-2.887404827133871693e-04,-1.072961101600543397e-03,6.749343738268886875e-04,2.462215349078178406e-02
-4.302817673230766027e-01,-3.642150570923972652e-01,-4.169622732158774769e-01,-6.870209364916762124e-03,8.841390509310622509e-03,-1.294542974570724037e-02,6.738772988319396973e-02
-3.956410090460097950e-01,-4.076894727996684398e-01,-4.269183888553256812e-01,-2.403573329694637037e-03,-1.278733806574018726e-03,3.051420690789356273e-03,2.822704426944255829e-02
-4.117525165186552982e-01,-4.063060743454393609e-01,-4.136069899875922662e-01,-1.243627631151363998e-03,3.335485624057688784e-03,-1.111536041553018613e-03,9.215521626174449921e-03
-6.390652645407279842e-01,-5.541255665275870435e-01,-3.223624020401443246e-01,8.553370329706634634e-03,-5.222530119504866473e-03,-1.738987978945530088e-01,4.142927527427673340e-01
-3.845515306503340391e-01,-4.066494000259613384e-01,-4.351311941698438601e-01,-7.383094305877560895e-03,-1.211049597184779341e-03,1.936111764931258000e-03,4.591395333409309387e-02
-3.835456122176460481e-01,-4.068798864250461889e-01,-4.288039182472163646e-01,-7.352235178389697479e-03,-4.304148738959850604e-03,6.723103085120176771e-03,4.347500950098037720e-02
-4.037169964352417817e-01,-3.965621422515919203e-01,-4.305734036254291186e-01,-3.855822682451323820e-03,-3.505892255524127935e-03,2.061747420335636148e-03,3.253982961177825928e-02
-3.908711495970645378e-01,-4.088044921903802309e-01,-4.234580238420332932e-01,-5.395348139937900141e-03,-3.809099726029727909e-03,6.026885008452333506e-03,3.223266452550888062e-02
-4.020004610585889981e-01,-4.060728790997415460e-01,-4.276576736794255873e-01,-6.953631674422461068e-04,-9.990367037185136044e-04,2.396281612632303933e-03,2.433231472969055176e-02
-4.837449351808257303e-01,-3.481745290875428167e-01,-3.381662750188164090e-01,1.140126764027357686e-02,4.875487715256913990e-03,-1.467769528440686644e-01,2.914241254329681396e-01
-4.355126349517456363e-01,-3.772405707732745528e-01,-4.167987361859667450e-01,-5.959077316459759129e-04,-3.940905089262994321e-03,-5.544709878982996727e-03,5.286997929215431213e-02
-4.321885056800035541e-01,-4.001208580673661919e-01,-3.948359086589934841e-01,-8.986897923196948126e-04,1.259337258115911153e-04,-5.566550497235800248e-03,3.634791076183319092e-02
-4.405511016162269033e-01,-3.685137535028966127e-01,-4.255325432014754328e-01,-1.720891096666211928e-02,1.071164663901720895e-02,-1.549558803528278648e-02,7.928453385829925537e-02
-4.287106426052146313e-01,-4.186746179014373959e-01,-3.802935972433594269e-01,-4.831767638109950996e-03,2.824674318167857620e-03,-4.327845980346588933e-03,4.592583701014518738e-02
-4.301607135065772525e-01,-3.970760983042609937e-01,-4.005981419858947179e-01,-1.255327067462422459e-03,2.060077850406620125e-03,-4.602903923977493678e-03,3.273363038897514343e-02
-4.413037869010906777e-01,-3.783071160612513917e-01,-4.185908926459079860e-01,4.924287629704616397e-05,-1.335496812266331271e-03,-5.646996478569859569e-03,5.616620928049087524e-02
-4.458056671522345749e-01,-3.475337642499498614e-01,-4.432065642103933945e-01,-2.677074503896469462e-03,-9.492120020692015588e-05,-4.202377826544435521e-03,9.738177806138992310e-02
-4.335340576612669583e-01,-3.862831538046687663e-01,-4.091253882940083519e-01,-4.627396713827777036e-03,3.486886264752539141e-03,-7.318531747972009498e-03,4.400563240051269531e-02
-4.250988388820832742e-01,-4.103595380615024935e-01,-3.909114750397545412e-01,-5.032182296141010647e-03,3.086906725968870027e-03,-5.418375476050587419e-03,3.278348594903945923e-02
-3.755658532454952958e-01,-4.183193705448116084e-01,-4.408809909847203889e-01,6.375519266821152477e-03,-9.683817064909827242e-04,8.946597241607246722e-04,5.855454504489898682e-02
-3.997562997042415356e-01,-4.023158066939139799e-01,-4.317239535301004572e-01,1.448560289268354491e-03,2.055864505042265136e-04,4.757318506091923107e-04,3.088302537798881531e-02
-4.271483672189793634e-01,-4.041916346851587849e-01,-3.988497464288147110e-01,-3.109363597102722705e-03,1.232285420928162616e-03,-3.384361788505789968e-03,2.731485664844512939e-02
-4.208546192127227137e-01,-3.638892273056107407e-01,-4.384459899499369429e-01,-1.335071081285893295e-02,-1.698597946086710534e-03,1.716458367761905480e-03,7.147607952356338501e-02
-4.451040706917700485e-01,-3.337133115180035414e-01,-4.422885490851229395e-01,3.866879138810455033e-03,-1.769433057176876675e-03,-1.790727809135715014e-03,1.102999374270439148e-01
-4.048428620830279434e-01,-3.846557705583146802e-01,-4.284372005430026054e-01,6.687115190237981170e-03,-4.018689359234354705e-03,-1.864535134581703484e-03,4.041712731122970581e-02
-4.267289907516957359e-01,-4.101301571836679094e-01,-3.999413393474910983e-01,-4.007887552963466590e-03,1.647935139400535714e-03,-1.859955952352607090e-03,2.480263449251651764e-02
-3.642077968991454529e-01,-4.453427282505818541e-01,-4.202912954276771251e-01,1.093236303417650549e-04,-9.543110819521121585e-03,-1.207373326356582250e-03,7.386153936386108398e-02
-4.166344946548158346e-01,-4.025133630685511221e-01,-3.927567140903036047e-01,3.074314347300385886e-02,-3.612092304827960870e-02,-4.616629728709950586e-02,1.165158376097679138e-01
-3.486988688047264473e-01,-4.660160774211292156e-01,-4.465950124658050191e-01,1.007484872231189689e-02,-2.852907089162862522e-02,-2.009038235336826211e-02,1.257743239402770996e-01
-4.075110182270497705e-01,-4.077268659125555805e-01,-4.178698530867782091e-01,2.504067830064376186e-03,-3.024691983773513098e-03,-3.250846621387465298e-03,1.353061292320489883e-02
-2.469065769468692939e-01,-5.739276575903762279e-01,-6.922503372747794703e-01,1.586459994231009529e-01,-3.411327771691663457e-02,-8.697365703738458437e-03,4.887338578701019287e-01
-4.103532801219729187e-01,-4.052027782995687999e-01,-4.201238297130565624e-01,2.189041011342810449e-03,-5.003406002839291475e-03,-1.385160341742940233e-03,1.635690964758396149e-02
-3.414420869637261879e-01,-4.440221031211980529e-01,-4.506130945182927894e-01,2.018143731486634826e-02,-1.871138878086077428e-02,-2.461266375900094186e-03,1.163296923041343689e-01
-4.246757285893349443e-01,-4.509769187415759717e-01,-3.540704951002590084e-01,4.580990914493685701e-03,-2.351186363844877392e-02,-7.906526216448800382e-03,9.717392921447753906e-02
-4.020008365454531551e-01,-3.990257399188841814e-01,-4.330853758018156086e-01,3.911269545410192040e-03,1.909869568793234537e-03,2.018346644315435062e-03,3.371405228972434998e-02
-4.013323271020145522e-01,-4.030000562150370946e-01,-4.308382221580486782e-01,8.592990761876286888e-04,-6.704907506314299916e-04,-1.204382285175322528e-03,2.884591557085514069e-02
-3.375217503320837587e-01,-4.390544000855340911e-01,-4.317676731486151942e-01,2.094204045232337524e-02,-2.200761326719159403e-02,-6.723618042403838035e-03,1.119217053055763245e-01
-3.520751221961961885e-01,-4.354532585921063181e-01,-4.399199195365173787e-01,9.623652795596855658e-03,-7.296039435894688223e-03,-5.579770963682954138e-03,8.874248713254928589e-02
-3.641024692466151569e-01,-4.375892349934089043e-01,-4.340612610176772246e-01,6.211788402359904281e-03,-4.862064318719152775e-03,-5.082754549911680519e-03,7.360484451055526733e-02
-3.993903607424611479e-01,-4.267920577921059389e-01,-4.033743227188053004e-01,-1.234750643377275888e-03,-4.425953195916638647e-03,2.762299629564407728e-03,2.727250568568706512e-02
-4.126639717193728019e-01,-4.160746532991317914e-01,-4.025986782253616059e-01,-4.331471381628948861e-03,-1.367591620096880560e-03,1.305754420983299986e-03,1.463841646909713745e-02
-4.072067057352891650e-01,-4.223805884681240963e-01,-4.000572909799494647e-01,-3.910018528374451310e-03,-2.393354405859846046e-03,1.856401276878381261e-03,2.152284979820251465e-02
-4.054317921624323584e-01,-4.024986399577287766e-01,-4.283875006142365827e-01,-6.754083501617929620e-04,2.220101941981366105e-03,-9.567656795081541090e-04,2.493595331907272339e-02
-4.079685761130439348e-01,-4.311751962600207655e-01,-3.952052488178668943e-01,-3.918498271231008433e-03,-2.128251777631108652e-03,1.199316407588944984e-03,3.258236870169639587e-02
-4.029147101394708885e-01,-4.253858826182745356e-01,-4.042507284673770851e-01,-2.672189138094069761e-03,-2.985024559073887196e-03,2.777432919178613249e-03,2.340965531766414642e-02
-4.079070252566321941e-01,-4.300255880813753651e-01,-3.879472526444066038e-01,-5.563852506867889014e-03,-4.697247465007097812e-03,2.855861712891746840e-03,3.889260068535804749e-02
-4.016479525881492263e-01,-4.021922866426613785e-01,-4.277283382948465218e-01,-1.153064490124606784e-03,8.626822580032741591e-04,-1.789252359093413932e-03,2.611727453768253326e-02
-4.078211998860564180e-01,-4.227090693397725918e-01,-3.937634498311026188e-01,-7.230431245972535580e-03,-5.207132030215701202e-03,5.858288998481904486e-03,3.113996982574462891e-02
-4.081471045481767090e-01,-4.142534552756464983e-01,-4.052787880716726132e-01,-4.939330620648675271e-03,-6.487289033193281707e-03,6.019026371536622885e-03,1.926555112004280090e-02
-4.018740878431962260e-01,-4.359784442896297296e-01,-3.741933650761154473e-01,-3.587129644636873060e-03,-2.768954946445673082e-02,4.215737489742986399e-03,7.256318628787994385e-02
-4.053049919660385303e-01,-4.258089445168164455e-01,-4.045649469475408599e-01,-4.254254487690669814e-03,-4.649773600169652965e-03,2.822686250539302010e-03,2.406643889844417572e-02
-3.678694975508670639e-01,-4.373930622877472696e-01,-4.230271977765642233e-01,-2.813243044781549990e-03,-1.051560620509399760e-02,3.065808118614028049e-03,6.651926040649414062e-02
-4.013550058575908741e-01,-4.260803348646950983e-01,-4.102673517675251569e-01,-2.042379595857250676e-03,-2.104115763605315416e-03,4.044210880587363784e-03,2.335110120475292206e-02
-3.902322615226627711e-01,-4.241693234473757346e-01,-4.091035747352061991e-01,-4.442289772424232522e-03,-6.402012992716622775e-03,6.426096540592087653e-03,3.425575792789459229e-02
-4.160618572081466460e-01,-4.068192850358656742e-01,-4.072897983496471253e-01,-2.481305255792758558e-03,3.196875834185273872e-03,-3.698022015913169248e-03,1.309406477957963943e-02
-3.848085346910598559e-01,-4.312421251799030131e-01,-4.069069462905585133e-01,-2.666059860612050511e-03,-6.392621629000708530e-03,4.270573058454286280e-03,4.262561723589897156e-02
-4.064849811814723046e-01,-4.049793240355777368e-01,-4.247725160058591354e-01,4.457232806694503072e-03,3.322077762723682059e-03,3.031193567965659481e-03,2.201157622039318085e-02
-4.105509075740844116e-01,-3.954319792827473146e-01,-4.302917348981492585e-01,-2.286549800002362666e-03,4.178814453148316926e-03,-1.598671934733592037e-03,3.150368481874465942e-02
-4.092220693089213546e-01,-4.155734106279016515e-01,-4.253255629260440096e-01,9.111648913268769606e-03,8.102889370931719640e-03,6.530813401632585592e-03,2.777363359928131104e-02
-4.383312823505957079e-01,-3.472839609517804349e-01,-4.304578473600260691e-01,1.652931411432297581e-04,-3.048530297854585430e-03,-5.544820907695479327e-03,8.806218206882476807e-02
-4.053160280693772766e-01,-4.102968144596971234e-01,-4.147386514654907153e-01,1.524793787660132195e-03,1.688055923258977671e-03,3.377595392322397822e-03,1.078934781253337860e-02
-4.325646994125304512e-01,-3.581459371676528614e-01,-4.426987881390939128e-01,-4.685497481002080453e-03,1.435090864124913528e-03,-2.116342208319874595e-03,8.050151914358139038e-02
-4.060253400398929902e-01,-4.057138470332136704e-01,-4.169917429068449310e-01,1.816877662800448151e-03,3.588568415380219249e-03,1.483598958483023453e-03,1.337590254843235016e-02
-3.461487690714237786e-01,-4.256048215289001679e-01,-4.560822536395526816e-01,-4.287692877368234901e-02,5.551937988658880952e-04,-5.332322589290124093e-03,1.235527172684669495e-01
-4.534971114463164921e-01,-3.470755259860367481e-01,-6.394500103133180513e-01,-2.108599320882360850e-01,6.032839549807029328e-02,-6.585377238217438034e-02,4.722370803356170654e-01
-4.371544134793931558e-01,-3.449413513508434725e-01,-4.321259453039361653e-01,-2.296720049497955572e-03,2.225134308246863937e-03,-2.404254649294104360e-03,9.007143974304199219e-02
-4.512744723852809003e-01,-3.350659605229667770e-01,-4.482532730291633460e-01,4.427382070671235029e-03,1.113543911021784311e-03,-1.701338521953742189e-02,1.187154054641723633e-01
-4.487221155537435280e-01,-3.641693947200499437e-01,-4.351878355770953943e-01,-1.168100118098647569e-02,2.971614218096275441e-03,-6.575808549640019957e-03,8.217987418174743652e-02
-4.317570868013926866e-01,-3.656328584066981247e-01,-4.305169864472471741e-01,-4.355840836765515096e-03,4.078473730384351084e-03,-3.716478156466991763e-03,6.663489341735839844e-02
-4.478358910687890715e-01,-3.717077945911609338e-01,-4.297626327240619548e-01,-9.190794720819128738e-03,4.552718833710007150e-03,-2.442740312140125047e-02,8.277641236782073975e-02
-4.396099305708518479e-01,-3.453781695776891314e-01,-4.329844561683246495e-01,-1.313299533315501980e-03,3.355099743273004184e-03,-2.576898783423335094e-03,9.142240881919860840e-02
-4.500889712326431868e-01,-3.267951062024963549e-01,-4.059903581848489096e-01,1.761306494120901990e-03,-1.674209963124711998e-03,-5.162293320542599845e-02,1.404331624507904053e-01
-4.778772145095805945e-01,-3.313482968416447960e-01,-4.805037617160189400e-01,7.646073352022427459e-03,6.175569371146012905e-03,-3.619367027063574715e-02,1.614999473094940186e-01
-4.520525607960490522e-01,-3.447329601394312770e-01,-4.467761790011882672e-01,2.268194138916417284e-03,1.553190122060875081e-05,-9.299467341954841676e-03,1.060846522450447083e-01
-3.791383526220304945e-01,-4.202142532575960931e-01,-4.401427155098225352e-01,5.761010351616888819e-03,-1.626953032330429993e-03,-3.170503177853647471e-03,5.514179542660713196e-02
-4.486180296534088563e-01,-3.545715569837404324e-01,-4.455849582387461094e-01,-9.762732423027697601e-03,3.426616412032664882e-03,-1.014683128903193753e-02,9.590996801853179932e-02
-4.400876095622475725e-01,-4.184954461532010006e-01,-3.771693486408425611e-01,1.466897915313479083e-03,-6.077046243898342505e-04,5.489411686630247048e-03,5.625257268548011780e-02
-4.275194736909646576e-01,-4.017237604142445684e-01,-4.008092743181240203e-01,1.760647827953175371e-03,8.992034586531249228e-04,1.179839832165481724e-03,2.656588703393936157e-02
-4.320604834593624322e-01,-3.598653951409396812e-01,-4.442581816948554252e-01,5.749452118689303559e-03,-1.305147538465745508e-03,-8.190406763142638611e-04,7.967320829629898071e-02
-4.147440813205786059e-01,-3.793313908043715044e-01,-4.390509881394145109e-01,9.035036832057894568e-03,-2.788921546693288924e-03,-2.740429310663232507e-03,5.473953858017921448e-02
-3.949075746211995197e-01,-4.010522115523822428e-01,-4.349391996749203404e-01,4.114678059524737655e-03,-3.187736903481670921e-05,-8.251779911511298833e-04,3.804136440157890320e-02
-3.998890344429628652e-01,-4.016589330940800728e-01,-4.326796755078139434e-01,1.509140877308912760e-03,-2.118954852080726168e-04,-6.224180573362607556e-04,3.206948563456535339e-02
-3.998934346702295306e-01,-4.028588546510937229e-01,-4.315285050542350120e-01,1.755090266774903766e-03,2.610771007415321624e-05,-6.061487388429965878e-04,3.043198026716709137e-02
-4.084071168090345205e-01,-3.973004039830957401e-01,-4.297881632053888734e-01,2.185914257508024192e-03,-3.735895608481821280e-03,-7.504099504312857069e-04,2.959520369768142700e-02
-3.963585500222862046e-01,-3.937823305591443002e-01,-4.370243944261114066e-01,1.314079218789807740e-02,-5.160943802470497471e-03,-2.482263938166536388e-03,4.880106821656227112e-02
-4.192902240704184380e-01,-3.851599117978510844e-01,-4.296122246896270092e-01,3.585931212856636498e-03,-5.494649337974374936e-03,-1.955920258407219548e-03,4.200407117605209351e-02
-4.507518099958123248e-01,-3.323414970787034184e-01,-4.519072314684376979e-01,-3.463936966523780206e-03,3.668464865256950043e-03,-6.311744045093266135e-03,1.198124960064888000e-01
-3.890848278138059335e-01,-4.279430233562698804e-01,-4.086353601725425944e-01,2.503159608975739220e-03,5.874231614678418131e-03,5.028915507411795861e-03,3.647837042808532715e-02
-4.056718144472610810e-01,-3.818163278171450847e-01,-4.327367518112947842e-01,6.595265783718017895e-03,6.611607265825213001e-04,5.183650542550026323e-04,4.560539871454238892e-02
-4.441684551469494147e-01,-3.578925323085546117e-01,-4.344821505762214153e-01,-5.792973114272482408e-04,-6.980601299974257146e-04,6.044542556174987979e-03,8.254539966583251953e-02
-4.187219066050710259e-01,-3.853237366852487189e-01,-4.313239239253043311e-01,3.754193371793885896e-03,-5.100778298458084024e-03,-1.612230132362975701e-03,4.269972443580627441e-02
-4.393038252709135505e-01,-3.191304165726503994e-01,-4.509653017292337696e-01,2.532222310174886415e-02,2.330548720939945324e-03,8.542751541944337834e-03,1.346770673990249634e-01
-4.069056344188131669e-01,-3.818735333175612423e-01,-4.342440832675336093e-01,6.983582886757551400e-03,-1.340934617119095415e-03,1.276423369744936057e-04,4.701159521937370300e-02
-4.104557331284294230e-01,-3.974057337870735562e-01,-4.284831021771893789e-01,1.702109805674082181e-03,-3.479967438039631520e-03,-1.105979590516723400e-03,2.791482210159301758e-02
-4.251921171285179546e-01,-3.759594440853837871e-01,-4.465578937325345166e-01,1.634591763895585845e-02,-3.557913547374125631e-04,3.627511153324036123e-03,6.909175217151641846e-02
-3.957165006335011670e-01,-4.007437478542023590e-01,-4.317278456975759404e-01,-4.798823142587144153e-03,-3.148639590602755021e-04,9.717238357601844408e-04,3.483200445771217346e-02
-4.008373508222771719e-01,-3.960276499053025923e-01,-4.327556554294847979e-01,4.521090803570245245e-03,5.361130390394883930e-04,-3.232676990716077238e-05,3.546286746859550476e-02
-4.028846069140367692e-01,-4.014682687892597301e-01,-4.316119060642318872e-01,8.153846611962317159e-04,-9.263698290580135589e-04,-8.084134662370457292e-04,2.957162447273731232e-02
-3.918541974110554271e-01,-4.332513848692524094e-01,-3.924934471606634778e-01,-1.052411600982235389e-03,1.445431561098263137e-02,-1.102896087901585444e-03,4.818117991089820862e-02
-4.187149116862358689e-01,-4.358673164717926651e-01,-3.769734371476997636e-01,-5.920351406494744678e-04,-5.752405070155942185e-03,7.816422776304615162e-04,5.342917889356613159e-02
-3.945046950279424980e-01,-4.361412052570957099e-01,-4.080373626688332811e-01,2.092354127469523372e-04,2.570508922329342236e-03,1.431040498058193172e-04,3.705798462033271790e-02
-3.634746463342896639e-01,-4.308857404684016124e-01,-4.128344758253154612e-01,-4.235947579846795902e-03,1.350774425969276937e-02,-7.101119227941970341e-03,6.637569516897201538e-02
-4.204464803871424960e-01,-4.086495042740390660e-01,-4.065896251912554660e-01,-1.935553087356839223e-03,-7.243754572519951404e-04,9.667289522509530623e-05,1.343701593577861786e-02
-3.818826036262735757e-01,-4.341313362035516543e-01,-4.062997319625094028e-01,-9.973018588316194533e-04,8.186307533850634144e-03,-1.711086962594233173e-03,4.757285490632057190e-02
-4.483979568078428901e-01,-5.060720526684375775e-01,-3.612963540332817525e-01,-1.629295823161951151e-03,-7.884036066760621853e-02,7.488295291331621001e-03,1.864405870437622070e-01
-4.014935680900750259e-01,-3.994851244940725854e-01,-4.326363981516939683e-01,-1.344450286436004761e-03,-4.134198687287491954e-04,2.873011294553792024e-04,3.228995576500892639e-02
-4.012458282493581163e-01,-3.990753446062308973e-01,-4.313783440487611864e-01,-1.092188492714531514e-03,1.079213714690927488e-06,-5.021273154479685263e-04,3.134352713823318481e-02
-3.954617218825856595e-01,-4.316025975175180052e-01,-4.085862415364595601e-01,4.182347380486229433e-04,2.605156595052272178e-03,3.003983806337303785e-03,3.243518620729446411e-02
-3.830234128230194934e-01,-4.344572411643589649e-01,-4.102653107055451165e-01,8.615474139636362071e-04,6.425645227614980477e-03,2.020046402511591066e-03,4.609490185976028442e-02
-3.982727242510945564e-01,-4.314032048209829884e-01,-4.046318191485344107e-01,7.714832987331523640e-04,3.548294845208744587e-03,3.371020815194673229e-03,3.163913637399673462e-02
-4.193497895641828399e-01,-3.604509988457333391e-01,-4.392104237541584744e-01,-1.163261302531386904e-02,-2.124020621219486343e-03,1.352371247317908556e-03,7.387999445199966431e-02
-4.613844150372094499e-01,-2.985788955023799263e-01,-6.151727609983872469e-01,-2.178778304055799253e-01,3.859872574477944684e-02,-3.393117541189538677e-02,4.748998880386352539e-01
-3.988911414138090472e-01,-4.537388571675931015e-01,-4.031544797846226547e-01,-7.829871266672921992e-03,3.767623391567252733e-02,-8.085337937310903972e-03,8.620410412549972534e-02
-4.030852113655216118e-01,-4.343028064069932581e-01,-3.956369009589880137e-01,1.570117760915751629e-03,3.896891946783740800e-03,5.188856859577059642e-04,3.628077730536460876e-02
-4.054915227670854438e-01,-4.369724602093472132e-01,-3.935857641328273648e-01,1.219297765899436670e-02,2.610417466070825282e-02,2.145017278011835879e-02,7.333635538816452026e-02
-4.230856242694719938e-01,-3.411502299705185814e-01,-4.311098703166323376e-01,1.510193062760675255e-02,1.021055974558717286e-02,1.135538435154260194e-02,9.390991926193237305e-02
-4.327283848965466917e-01,-3.577701303053664184e-01,-4.397451248670637414e-01,-4.674454186143178758e-03,4.807336730579034171e-04,-2.079957852766737333e-03,7.920328527688980103e-02
-3.610793432786710278e-01,-3.595438097599744642e-01,-3.511918162935749876e-01,1.134292118685461398e-01,1.239682610373930016e-01,1.105653226928459965e-01,3.485139310359954834e-01
-4.525795454490384451e-01,-3.029924420025491560e-01,-4.777131346397767153e-01,1.475359807981629565e-02,4.113452245530399912e-03,3.399288874487627760e-02,1.758919507265090942e-01
-2.997754685399108276e-01,-3.403701131100395627e-01,-4.260638320531777157e-01,-1.281734785865713544e-01,7.824586772398359202e-02,-6.524815184288949854e-02,3.047861158847808838e-01
-3.818203990588620589e-01,-4.280373516430352465e-01,-4.184335623945924509e-01,-2.321845660835306080e-03,-4.642281700505294234e-03,4.374593313690555707e-03,4.384766891598701477e-02
-4.011974038545204069e-01,-2.553527728204816327e-01,-4.580979696663305401e-01,-9.973531691801570953e-02,3.174994716454745958e-02,-4.633606414344280250e-02,2.685398459434509277e-01
-4.695341865521026614e-01,-3.027466142832567209e-01,-4.630994204317424034e-01,3.305806541704035817e-02,1.957191419551265396e-02,4.556791480234525897e-03,1.768509000539779663e-01
-4.308449349671809592e-01,-2.940521930765318537e-01,-5.442690621285729557e-01,-7.934074016016141873e-02,6.263027709394505815e-02,-1.021361710378280441e-01,3.302132487297058105e-01
-4.453207909208730109e-01,-3.016167916054389719e-01,-4.358174452543400745e-01,1.562819497210548789e-02,2.846888422968498877e-03,3.134192011877159900e-02,1.519192755222320557e-01
-4.769815925636274323e-01,-3.438292739411036303e-01,-4.891333691591800981e-01,4.343403908109492312e-02,1.058551353702646795e-02,3.272264128249366411e-02,1.694203764200210571e-01
-4.139224163057416139e-01,-4.131675977973148783e-01,-4.047418733563261650e-01,6.180523993852835365e-03,5.756293891058415421e-03,6.231197575486929763e-03,2.020909078419208527e-02
-4.184194274660083535e-01,-3.766954514811360899e-01,-4.399015686384168955e-01,5.253966036580928929e-03,-7.968548251590203742e-04,-1.144974712402432502e-04,5.642206594347953796e-02
-4.151501758260484620e-01,-4.165809668881836347e-01,-4.082520011073280108e-01,5.244550668906358855e-03,4.676341611867005504e-03,3.819056985934931713e-03,1.585490070283412933e-02
-4.254755052725571751e-01,-3.999104181825707816e-01,-3.966620169899572890e-01,4.708012247098056560e-03,6.794619560434743757e-03,1.017867434377962670e-02,3.553849086165428162e-02
-4.406284810291112852e-01,-3.467622636534750669e-01,-4.497366434742803842e-01,-8.941635946667431806e-03,2.730557102981326367e-03,-2.670823133953352871e-03,1.001618728041648865e-01
-4.273492006596334991e-01,-4.043773201343033863e-01,-4.029280211916189680e-01,2.715949802891016313e-03,2.920004947203017325e-03,2.789321422903450094e-03,2.518234029412269592e-02
-4.165574178648526749e-01,-4.056333959165701053e-01,-4.086748928779416201e-01,1.305679680627122499e-03,-2.788578002097613206e-03,-2.291713625279397613e-03,1.181348133832216263e-02
-4.191902953283001554e-01,-4.123513750077734130e-01,-3.978776303356204580e-01,5.684216417797437887e-03,2.287476287139067824e-03,2.993207269956721372e-03,2.224300615489482880e-02
-6.269424262314886587e-01,-2.680131908665318585e-01,-5.705054974777026278e-01,5.094168354090159584e-02,-1.024265963027652746e-03,1.276880183017879422e-01,4.104381203651428223e-01
-4.020869915716788201e-01,-3.965833500357986430e-01,-4.355324598462222419e-01,4.444168085625943045e-03,-1.155223678347255247e-03,6.056832092548743819e-05,3.736613318324089050e-02
-4.211383229419504159e-01,-4.032179629590483816e-01,-4.026615955883997011e-01,5.593211803303385458e-03,5.144390305793070106e-03,6.458180504409201036e-03,2.509561181068420410e-02
-4.210843144916079916e-01,-3.985829314321305827e-01,-4.069544090847588835e-01,2.654149760748066716e-03,4.190814700608799445e-03,1.675700641910683264e-03,2.168571576476097107e-02
-4.168640519085130003e-01,-4.075780367292816675e-01,-4.067650096286092865e-01,3.203915376529362265e-03,-2.426384836073489266e-03,-3.113876511576709177e-03,1.311437413096427917e-02
-4.718625614825094350e-01,-4.404895787419377262e-01,-3.451324675322828828e-01,-5.780647813822892625e-03,1.382518506501630856e-02,-4.528865944510784836e-02,1.410522013902664185e-01
-3.801349331461700842e-01,-4.058812293241044200e-01,-4.390576398480466880e-01,7.921295536472763854e-03,-9.523569366127857157e-04,-1.190214971220165691e-03,5.303703621029853821e-02
-3.856140138945615137e-01,-4.449510727751236905e-01,-4.303343251299975858e-01,1.843940376367653872e-02,-6.730262015670862574e-02,-1.924259870815646714e-02,1.363342106342315674e-01
-4.080354357643568020e-01,-3.943845987392068930e-01,-4.352322775854846615e-01,2.897199587899077118e-03,-1.106836729277963470e-03,-2.051515889285228259e-04,3.641779720783233643e-02
-4.057048237452053341e-01,-4.083297651455152777e-01,-4.246151224651110168e-01,3.804619165756467115e-03,-3.392963371645794143e-03,-3.844606544680388878e-03,2.090828306972980499e-02
-3.950928383931649468e-01,-4.062533497139159122e-01,-3.931778167804376722e-01,2.260271070179532479e-02,-2.768740662209058165e-02,-2.172822126379370805e-02,7.347359508275985718e-02
-3.944426100119212686e-01,-4.087331367390097392e-01,-4.370722180180569016e-01,3.467848636173227750e-03,-1.114575746617847923e-04,5.564380051141414518e-04,3.807029128074645996e-02
-3.962202801759996951e-01,-4.008528223021797787e-01,-4.321351610803745302e-01,4.678120437209995659e-03,9.733979288450736412e-04,1.465970501884684887e-03,3.492715209722518921e-02
-4.036300243786630215e-01,-4.136077089683738439e-01,-4.105638941692071331e-01,3.078337287440386164e-03,-2.061222058943591468e-03,-3.220789899281377173e-03,1.227776985615491867e-02
-4.363242653843152352e-01,-4.873707466401788757e-01,-3.872062557894505597e-01,2.405250858295729030e-02,7.178762020114097531e-02,3.176182796677402831e-02,1.665773689746856689e-01
-4.447154480053193693e-01,-3.431789641302535609e-01,-4.398830703646943174e-01,7.498082304325100157e-04,2.490587821722432121e-03,9.498418435286077807e-03,1.006643027067184448e-01
-4.108818772092656113e-01,-3.979593962354685543e-01,-4.279344074566723832e-01,-2.551291537152257805e-03,-3.601415978902040328e-03,1.310388988470882841e-03,2.723471075296401978e-02
-4.100736955183756915e-01,-4.071787809081074405e-01,-4.151756610184564322e-01,3.437976382664710822e-03,-4.097238667986172894e-03,-3.596820657592441142e-03,1.318380981683731079e-02
-4.038689091697512112e-01,-4.050679321498902308e-01,-4.195325859352821429e-01,-8.778399455856212468e-04,-2.501980030583472823e-03,1.040044904111755899e-03,1.588533632457256317e-02
-4.161506392798937082e-01,-4.089757099790115036e-01,-4.062732914770370019e-01,2.858114075532708267e-03,1.870899657364702038e-03,1.906462052296427432e-03,1.113927178084850311e-02
-4.201802648179943089e-01,-4.043620889975911847e-01,-4.067752390323569056e-01,1.789258159698086086e-03,2.771848500657511476e-03,2.128116308505716842e-03,1.625136099755764008e-02
-4.755798877121505952e-01,-4.633943655505905479e-01,-3.745291492025341062e-01,3.860813285030866016e-02,5.275820986123318929e-02,6.991016351146861485e-02,1.913445144891738892e-01
-3.957882982896929192e-01,-4.331947406918309484e-01,-4.083093018826000620e-01,-1.133594749060368341e-03,-2.050433363677532476e-03,2.751352181442878828e-03,3.356827422976493835e-02
-4.230940148372860365e-01,-4.232030778906036850e-01,-3.893342096575604372e-01,8.947344302693373275e-03,1.316642494124733304e-02,1.532813424979466779e-02,5.107350274920463562e-02
-3.890066314900994526e-01,-4.182376415916157497e-01,-4.377019442180341002e-01,-1.240757121966883439e-02,-1.237687745090919637e-03,1.877970734754516200e-03,4.774192720651626587e-02
-4.194445530985255743e-01,-3.959545616522717748e-01,-4.118677120823748261e-01,2.791756963471253572e-03,6.911257552470172552e-03,3.932255131541531959e-03,2.538255974650382996e-02
-4.244459315453315562e-01,-3.994822248141408627e-01,-4.005801074677172169e-01,1.431409510047451129e-03,3.489566062925269097e-03,4.676236062245906627e-03,2.655681408941745758e-02
-3.907550824683709290e-01,-4.321703856123848553e-01,-4.126642074813767769e-01,4.597645345018423757e-02,7.210195363809254743e-02,2.520190485615556725e-02,1.585271209478378296e-01
-4.206176862985018250e-01,-3.626867134576879370e-01,-4.385443803857918543e-01,-1.072915426640993347e-02,2.390379608358302738e-03,-1.372790353412448646e-03,7.130227237939834595e-02
-4.163407894011753041e-01,-4.043571289999659535e-01,-4.110684275031042945e-01,1.926678625621306958e-03,3.901622849294389579e-03,1.448005258043172372e-03,1.308885496109724045e-02
-4.321396343636558779e-01,-3.501972735748793975e-01,-4.433811785239973324e-01,-6.082967017043212216e-03,-1.120182163294426107e-03,1.481402969501205598e-03,8.878871798515319824e-02
-4.129327917716822394e-01,-3.974298381723793683e-01,-4.110878697319095276e-01,3.408015613629577188e-03,6.718984639484878139e-03,3.938817164616956190e-03,2.078375220298767090e-02
-4.345407031109102536e-01,-4.005302743829859402e-01,-4.020678711265890937e-01,2.200130611414286182e-03,-2.425399232474873944e-03,3.986957538500832642e-03,3.444758430123329163e-02
-4.446707780859420756e-01,-3.385653095160364723e-01,-4.448911846337891829e-01,-2.127743326885202582e-03,-6.131551588233531171e-04,2.830117651962373027e-03,1.063980460166931152e-01
-4.268361721275152898e-01,-3.815687434936213540e-01,-4.273202497536144340e-01,-6.590156193824040810e-03,5.692245717970604267e-03,-6.461574851141294040e-03,4.923452809453010559e-02
-4.323894613505541717e-01,-3.790893760023072434e-01,-4.007212914900902256e-01,2.153724640880526662e-05,-6.225767756739653902e-04,1.014126463290582203e-02,4.965436458587646484e-02
-4.318482855800189757e-01,-3.999856192047090975e-01,-3.961893376206242490e-01,-5.057771652298909733e-04,4.000878805354196772e-04,3.169954662775878451e-03,3.438014537096023560e-02
-4.337597465196084134e-01,-3.980924884196566094e-01,-3.996168389406939414e-01,-9.835089115645860927e-04,6.192303620034952331e-04,3.652537788288834786e-03,3.555534780025482178e-02
-4.196852545861741723e-01,-3.864121503975556093e-01,-4.307876081746388475e-01,-4.532583550345622991e-03,-4.772562259045844829e-03,1.773653126336641487e-03,4.170340672135353088e-02
-4.448300387481878282e-01,-3.959257386129103051e-01,-4.119966864506516280e-01,2.316302487498376854e-03,3.511699562023152480e-03,1.741864745450946023e-02,5.317224189639091492e-02
-4.229907338202520961e-01,-4.060596370858487458e-01,-4.117697790923671719e-01,5.319909159539487793e-03,6.372591689449738118e-03,9.536662262222092568e-03,2.649842761456966400e-02
-4.339014010838997959e-01,-3.796357414783038120e-01,-4.046551053500541117e-01,2.430318908161248565e-04,2.211336251661485432e-03,1.077705865437860941e-02,5.075746402144432068e-02
-4.292547507680281593e-01,-3.833323490359618058e-01,-4.099132582039045625e-01,5.997899917957038619e-03,1.034445560265828852e-02,9.553928385593494360e-03,4.793258756399154663e-02
-4.325776449520492006e-01,-4.033795752221017716e-01,-4.012962507014237734e-01,-1.190530678934958574e-03,-7.697281008806854379e-04,6.022041380984420340e-04,3.041075542569160461e-02
-4.325033587203038765e-01,-3.634859782030275266e-01,-4.334396244098911999e-01,-7.039576113842489768e-03,-5.572800544559885182e-03,8.069643928608162195e-03,7.256780564785003662e-02
-3.708892918016031826e-01,-4.208789225687863400e-01,-4.394051630046745260e-01,2.285338781301850253e-02,-3.674285824896052731e-03,-8.884502170012863447e-04,7.333488762378692627e-02
-4.134150742833335723e-01,-4.352756124400517512e-01,-3.961887251069196592e-01,4.498614791269225227e-03,1.430614060748701399e-02,6.680513849582766020e-03,4.426968470215797424e-02
-3.552314856151009281e-01,-4.401717229200778903e-01,-4.989061128101918707e-01,7.453832743831242946e-02,5.476299817508507514e-03,3.554406872679806428e-03,1.801367402076721191e-01
-4.438952124046003922e-01,-3.509005217377075270e-01,-4.406908702504469533e-01,-6.806251511306726266e-03,-4.368953378605272206e-03,9.825985515777405782e-03,9.405414015054702759e-02
-4.324416794610620451e-01,-4.095059853539375072e-01,-3.936505992967646028e-01,1.951386434226435457e-03,8.067546831970438814e-04,3.072295243628448639e-03,3.439166769385337830e-02
-4.424736829703484475e-01,-3.380634479161773731e-01,-4.431751058722782077e-01,-2.482763100465202807e-03,-1.939891384917246959e-03,3.074260039426406250e-03,1.050398051738739014e-01
-5.987389963339898591e-01,-2.210380027783806489e-01,-6.205419647896324165e-01,-6.286291485390846367e-02,1.647598499069469896e-02,-5.418605697213400157e-02,4.157480001449584961e-01
-4.318849862250097593e-01,-3.729587795748929846e-01,-4.182860330391572901e-01,3.458763592700908000e-03,6.868937177666451302e-03,4.473351047593736654e-03,5.561801046133041382e-02
-4.279844491957421893e-01,-4.070875468602322411e-01,-3.984035848319802398e-01,3.558805652884232743e-03,1.773802441156589662e-03,2.922066795590456869e-03,2.768771350383758545e-02
-4.250484486949603347e-01,-4.252259229239614968e-01,-4.023977186001285178e-01,8.710570688520612864e-03,9.389424071691226253e-03,1.071338776833444598e-02,3.679052740335464478e-02
-3.508494426709122260e-01,-4.370318594190322758e-01,-4.854728340492813765e-01,6.724265526878667187e-02,-3.620628444727368167e-02,-1.594336254253694157e-02,1.794677674770355225e-01
-3.971881547646644584e-01,-3.358252765488419223e-01,-3.691059892542314369e-01,1.020357049556838980e-01,-1.001180672615813172e-01,-1.300453309019593551e-01,3.389261066913604736e-01
-4.628630195952923021e-01,-2.189281600623370350e-01,-5.920846856397452562e-01,-8.747974554788885693e-02,1.218940467370354525e-02,-4.756623014846660114e-02,3.713699281215667725e-01
-3.068125628006427852e-01,-4.394020994421631299e-01,-4.617545309748216642e-01,3.030777614503457965e-02,-2.472894189915112589e-02,-4.882716869460725258e-03,1.603280454874038696e-01
-4.174817621023209635e-01,-3.885265532642895869e-01,-4.226661869113235159e-01,3.501994047247307656e-03,6.801564918323121933e-03,5.252744400203689795e-03,3.568960726261138916e-02
-3.995804352156593353e-01,-3.999761880080933141e-01,-4.239283252737023888e-01,8.256623677748176418e-03,5.497349546910825988e-03,5.149669936099669082e-03,3.095280192792415619e-02
-4.109963732881505849e-01,-3.976376522307814576e-01,-4.165181281978056482e-01,4.453069893186669195e-03,6.146540656540109421e-03,2.745740141809041926e-03,2.186676487326622009e-02
-4.404070411540290664e-01,-4.182659699024839917e-01,-3.753326602203303497e-01,-1.193275182560738163e-03,-1.413380170678506806e-03,5.786656239022286603e-03,5.826496705412864685e-02
-4.017007183419629146e-01,-4.019649474566323044e-01,-4.274664997196476190e-01,1.048261532544790802e-03,8.500264971178936530e-04,1.941944049913185482e-03,2.595986984670162201e-02
-4.178645989600597299e-01,-3.766479230991117699e-01,-4.400753448952759439e-01,6.120966600386943540e-03,2.838853627520261571e-03,1.430701925850254037e-03,5.701141431927680969e-02
-3.993660772657980917e-01,-4.042479476820024509e-01,-4.274595352242720470e-01,3.027550224943299177e-03,1.215055437115198245e-03,2.727170562967057635e-03,2.702158503234386444e-02
-4.044498776830580122e-01,-4.071560503326056568e-01,-4.204643762469877921e-01,1.222849998274672155e-03,1.436529977393606996e-03,3.370457719949327465e-03,1.628516055643558502e-02
-3.975558337964238964e-01,-4.107721967752391845e-01,-4.282005394513535568e-01,1.978436078628669631e-03,8.098218932174131848e-04,3.543284817965806476e-03,2.757051587104797363e-02
-3.895561274035544419e-01,-4.188745520522981769e-01,-4.202356510130511591e-01,-2.386723767012884946e-03,-1.678872674604458973e-03,6.188235914943854450e-03,3.227624297142028809e-02
-3.933657158486922878e-01,-4.237936914065575378e-01,-4.100492103510964825e-01,4.020950394767205602e-03,7.034252343272071745e-03,6.552965987681374192e-03,3.197383508086204529e-02
-3.946862553252619144e-01,-4.084437666297212055e-01,-4.296652492225128128e-01,2.274235900986921674e-03,1.194512187688261205e-03,3.941961180230457197e-03,3.159097209572792053e-02
-4.099617387716927852e-01,-3.979826061327390585e-01,-4.303297479825669569e-01,1.908471807179816602e-03,4.182956926446003074e-03,2.087295972251429835e-03,2.964515239000320435e-02
-3.954569022037501269e-01,-4.084997654155720914e-01,-4.200694642734910667e-01,2.600567337689735359e-03,4.507079445707652524e-04,4.720657690296461984e-03,2.329438365995883942e-02
-3.971850781233215444e-01,-4.102742736459498163e-01,-4.300316662094308962e-01,2.607483149418891605e-03,2.161056687502438400e-03,4.744920790231788553e-03,3.036840818822383881e-02
-3.962890479087313733e-01,-4.107093981762825474e-01,-4.193216145714740439e-01,4.607218092794952008e-03,2.804119313045907655e-03,5.861951632484702426e-03,2.442670613527297974e-02
-3.972668390426847274e-01,-4.036299612660563252e-01,-4.293113925090675798e-01,4.060973746410059468e-03,1.590724696016831150e-03,3.147195941006146469e-03,3.082563169300556183e-02
-4.147748861524442887e-01,-4.109723623660632708e-01,-4.086561689297252831e-01,-1.675911113455914783e-03,-7.423617760357888824e-04,5.622355261015242293e-04,6.297538056969642639e-03
-4.115675208789267847e-01,-4.092427227254643030e-01,-4.104653105297561000e-01,-1.209448523257957483e-03,-1.302103299112980245e-03,6.152090187702815779e-04,3.829791210591793060e-03
-4.303606073980814628e-01,-3.721313939008846217e-01,-4.302598999419876002e-01,-4.415721294168882018e-03,-4.710346606936697753e-03,5.123829900970249679e-03,5.990497395396232605e-02
-4.093546371082923407e-01,-4.061960604417680920e-01,-4.138864010916532554e-01,-2.965776940354331991e-03,-3.485095509552268989e-03,1.463640546703755610e-03,1.068079192191362381e-02
-4.141138674661857255e-01,-4.119119167961793893e-01,-4.033742342922725932e-01,-3.249555600832407156e-03,-1.383936944124561190e-03,1.687867873518112891e-03,1.193781942129135132e-02
-4.045589167390165053e-01,-4.023261134790265259e-01,-4.268472620435880271e-01,-1.416426028110156273e-03,-9.624338361562451063e-04,7.875913667945307582e-04,2.371033094823360443e-02
-4.087746784522447441e-01,-4.048437301100475949e-01,-4.101156702751701522e-01,4.810656606114608116e-03,5.166719198375224406e-03,5.374096861552421500e-03,1.608343794941902161e-02
-3.876900563473533734e-01,-4.100664965320490185e-01,-4.288263775917346976e-01,4.158453911942513147e-03,2.571116561997602995e-03,5.308597526749836426e-03,3.779776766896247864e-02
-4.075014900082836733e-01,-3.854684492190182388e-01,-4.369889467288889384e-01,7.070404923677028712e-03,3.903053569348965621e-03,2.403758590796072417e-03,4.709215462207794189e-02
-4.094996137337901243e-01,-3.898967602383568987e-01,-4.215026246363776097e-01,5.178671076363931813e-03,7.770949601882107607e-03,5.767612845407125467e-03,3.354179859161376953e-02
-3.954722858022198251e-01,-4.092582964687762059e-01,-4.355772819321951372e-01,1.368122686506993528e-02,6.629500231276372162e-03,4.495368239019610114e-03,4.471667110919952393e-02
-4.372766773997568412e-01,-4.278985776420990428e-01,-4.522337516567608295e-01,5.882429776253671888e-02,5.213856983176826804e-02,4.420424436273062002e-02,1.576393395662307739e-01
-3.967390982299554003e-01,-4.121180511406348224e-01,-4.438216246670542708e-01,3.679292745235036854e-02,4.623685856684217610e-02,4.375428969678663016e-02,1.339671909809112549e-01
-3.522840946908086801e-01,-4.447965102283243932e-01,-4.445902170422221245e-01,-5.266597296348282317e-03,9.948946125311096747e-03,-3.595984782869823208e-03,9.464910626411437988e-02
-3.643798652745551814e-01,-4.268110376781980575e-01,-4.361877364523787382e-01,-4.208578555708672453e-02,5.507302926826077027e-02,-1.970379764909726758e-02,1.419452279806137085e-01
-3.713311496090966335e-01,-4.867579761479775557e-01,-4.465952938612380851e-01,-3.446413264198910226e-02,5.793425800093085498e-02,-2.292980379444276712e-02,1.597195416688919067e-01
-4.276398109382850143e-01,-4.062770637313694033e-01,-4.019491409189697162e-01,-2.348035427296772237e-03,-6.438296645875265633e-04,1.206549229689122876e-03,2.428383938968181610e-02
-3.685533189109816421e-01,-4.439161092276340259e-01,-4.228731150715561160e-01,-3.507728151380048141e-03,1.205924923127289598e-02,-1.139483814312209405e-03,7.080665975809097290e-02
-4.008670699763982048e-01,-3.389935622131158288e-01,-4.085353492250263230e-01,-9.682145082483227527e-02,-6.563504926389904237e-02,9.286944746324606037e-02,2.669884860515594482e-01
-4.291422833575657680e-01,-3.058353367505843856e-01,-4.545009232037784952e-01,6.666073300464447904e-02,-9.437990955941451265e-03,-2.525287926043516193e-02,1.857037246227264404e-01
-5.942764617586627773e-01,-1.839260464555472208e-01,-6.041267129937750724e-01,-1.823627128808326045e-02,8.402943591732912193e-03,-6.408093647591769915e-02,4.313411116600036621e-01
-4.103386342585140789e-01,-3.850267387625291859e-01,-4.566327136386516550e-01,4.461869089530696303e-02,-9.665316399304273859e-03,1.234255918167085188e-03,1.010590568184852600e-01
-4.774248856767826510e-01,-2.901761233898334513e-01,-4.867565332138938938e-01,-2.342353395682003278e-02,-1.176978387574875370e-02,3.654215181912058574e-02,2.072777748107910156e-01
-4.311160623756928878e-01,-3.886369935007863430e-01,-4.188612815739869988e-01,-2.304801223235365508e-03,-5.276843789734675036e-03,5.075120950743547063e-03,4.013504087924957275e-02
-4.218903676091312338e-01,-3.980002226045522562e-01,-4.197683710032676374e-01,-2.057807810766632255e-03,-5.275345404690694878e-03,2.937549085468483222e-03,2.542884647846221924e-02
-3.946613313833569059e-01,-4.200254154358159520e-01,-4.004339419441663717e-01,-4.010051711931504614e-02,-4.189523675034971528e-02,3.086209814382412375e-02,1.160923615097999573e-01
-4.222776392623231456e-01,-3.794378122938548703e-01,-4.334037825892331774e-01,1.817004982726827880e-02,-5.966088133542066761e-03,-6.995688472315667386e-03,6.066083908081054688e-02
-4.350546394548246432e-01,-3.757635984839636234e-01,-4.352872174946836314e-01,3.564830587299951462e-03,6.217057134217289852e-03,5.364848795286286665e-03,6.139784678816795349e-02
-4.281027770503548768e-01,-3.857892155174708071e-01,-4.107667658989373471e-01,-9.215997422863669722e-04,-4.760905083431942082e-03,6.353434191378242064e-03,3.935824334621429443e-02
-4.177065846811116034e-01,-3.862144688061591724e-01,-4.297157412949105249e-01,4.193564876065591050e-03,4.068434447854805437e-03,2.984344016993859764e-03,4.053764045238494873e-02
-4.328150879839587906e-01,-4.146333320005421430e-01,-4.103050664694073424e-01,-1.572575589282633468e-02,-2.783095014640617204e-02,2.556555922032271999e-02,7.385379076004028320e-02
-4.228656249811141854e-01,-3.638963527973651524e-01,-4.337424011578707717e-01,-9.244212389775494781e-03,-8.027536752039352713e-03,8.547667856548210943e-03,7.004251331090927124e-02
-4.249941809829053674e-01,-3.611402124059448493e-01,-4.355064481108067431e-01,-1.959210036361706819e-02,-6.294332451660652160e-03,1.912443131962786314e-02,8.501014858484268188e-02
-4.187315167382428260e-01,-3.693268970873627155e-01,-4.646657822277383554e-01,-6.105786456772040877e-02,-1.375544713941766022e-02,4.902961387312465558e-02,1.605729460716247559e-01
-4.150161530836998236e-01,-4.140825104225410724e-01,-4.067644477835082872e-01,2.472525722467408538e-03,1.317088426640099230e-03,1.556699444071463559e-03,9.595438838005065918e-03
-4.226053623926095959e-01,-3.552058291288073821e-01,-3.844226742248234574e-01,-3.805585888472272360e-02,-3.067783559404775595e-02,6.358026027506806510e-02,1.507401764392852783e-01
-4.057200071427674581e-01,-4.024764578565661610e-01,-4.278023490428430331e-01,7.399559282924302690e-04,2.117543471363829422e-03,8.456896715756850912e-04,2.422840707004070282e-02
-4.257743247130881259e-01,-3.824342102464749482e-01,-4.203901663897395280e-01,-1.069105563917172909e-02,-6.293129998884421962e-03,3.006646814258731159e-03,4.650624468922615051e-02
-4.138034259941000270e-01,-4.025981758170048552e-01,-4.227284064169564148e-01,-9.908214895905747416e-03,6.470967173086877508e-03,-6.870494212171555926e-03,2.944433875381946564e-02
-3.546297639449540462e-01,-3.742479332917755253e-01,-4.351599032830382185e-01,5.915270118497443358e-02,-2.147462991479973798e-02,-2.086398610791337371e-02,1.359288245439529419e-01
-4.185179237965097609e-01,-3.827933074980091610e-01,-4.382775387083312491e-01,4.531218628167559687e-03,4.526683692645977128e-03,3.209085754901279484e-03,5.026488378643989563e-02
-4.122071317074419983e-01,-4.022101096264719122e-01,-4.205686152838446490e-01,8.546165942931175296e-04,5.122291508458644282e-03,1.087467458749872239e-03,1.838198304176330566e-02
-4.069000032399613387e-01,-4.080305000277635319e-01,-4.166338199294427058e-01,4.587418327358858670e-04,5.634772041383335692e-04,1.814826534302512243e-03,9.822718799114227295e-03
-4.093635547519610673e-01,-3.954395069993759115e-01,-4.369105598134470081e-01,-1.544052692104146314e-02,3.787154694936034106e-03,-1.274953902474496720e-03,4.581938683986663818e-02
-4.098598983126133799e-01,-3.877566647768720398e-01,-4.338679984887467977e-01,-1.089254098069696031e-02,2.973960681597016885e-04,-4.711134736793663041e-03,4.492650181055068970e-02
-4.068612582764834507e-01,-4.010271315046964324e-01,-4.282428915712694351e-01,-2.033337317388869605e-03,2.604244874581068507e-03,-1.689690784211815913e-03,2.563726343214511871e-02
-4.077108894678213025e-01,-4.058158381830253014e-01,-4.207047360644095013e-01,-1.266918347758578135e-03,-7.589145242707538361e-04,1.092495087200578323e-03,1.439371425658464432e-02
-4.122602209799069439e-01,-4.161137445834321436e-01,-4.106180483491588817e-01,-3.521952221577248372e-03,-3.206314504544863393e-03,3.926759179429598068e-03,1.175528112798929214e-02
-4.392387843208210851e-01,-3.477207002443589712e-01,-4.765778433314307727e-01,6.968558519792827921e-02,6.850287899628740469e-03,2.531862491962525927e-02,1.726820319890975952e-01
-4.371559034642106267e-01,-3.028229147260244059e-01,-5.066991938666756123e-01,6.926448322674633173e-02,-8.697770025144492892e-03,-2.471399699705248074e-02,2.206254303455352783e-01
-4.081795222129841472e-01,-4.149757620155732352e-01,-4.090276651218176518e-01,-8.469237734512014915e-04,3.532678556510418185e-04,3.372820250372483711e-04,6.634120363742113113e-03
-4.029732594496099329e-01,-4.050435784727829946e-01,-4.198537629300422847e-01,-4.123784003490262571e-05,-9.879925492308685043e-04,9.416998274469959556e-04,1.612090133130550385e-02
-4.651933766802174297e-01,-3.421905311342050560e-01,-4.463068342872081873e-01,-6.786499459047061304e-03,2.056817015035532561e-02,3.686903048682910189e-02,1.365598738193511963e-01
-4.452528368174049622e-01,-3.331747497015055126e-01,-4.742717817442541062e-01,2.865312005785609212e-02,-1.153840093981422631e-03,2.139491555190763117e-02,1.431649774312973022e-01
-3.934462151949782438e-01,-4.086325331316676968e-01,-4.357264958003473354e-01,-2.784595152239980123e-03,-2.153966150489736880e-04,-5.543800216243815809e-04,3.742308914661407471e-02
-4.239824979705111296e-01,-2.784551731830995358e-01,-4.589543677804760469e-01,7.250143386583046690e-02,-1.914991904200783260e-03,-5.817017553538798196e-04,2.080191969871520996e-01
-4.322881218578762397e-01,-3.982879873700257978e-01,-4.032778482517000995e-01,-4.248156327112266638e-04,-1.235462517143596931e-03,7.030119111138716757e-03,3.412682563066482544e-02
-4.118958973745964203e-01,-4.156444280853330842e-01,-4.036151221355281926e-01,-4.901163185311680978e-03,-5.477777950845024758e-03,4.934566639494139539e-03,1.867607235908508301e-02
-4.204425819512398466e-01,-4.110317009494763862e-01,-4.041866966702097885e-01,-3.514587340447590264e-03,-1.579084565628705462e-03,9.375418712370442746e-04,1.571657508611679077e-02
-4.140647323129408308e-01,-3.953915459607906802e-01,-4.206029183784140146e-01,-2.585008483034558716e-03,-6.537109603977940726e-03,2.990669098092271338e-03,2.624128572642803192e-02
-4.345561059302792128e-01,-3.993974644054824052e-01,-4.081032035634153399e-01,-5.054288592907411198e-03,-3.661160208770223874e-03,1.363124895478324931e-02,4.098927602171897888e-02
-4.388101951024306335e-01,-4.073936532503542596e-01,-3.803863177918160310e-01,-3.536939191181262890e-03,-1.943991958952092378e-03,8.979027271220355738e-03,5.343789234757423401e-02
-5.940513131610951625e-01,-3.511976128767547722e-01,-2.785855771262208957e-01,-3.140673374227170161e-03,-4.191048679361729368e-02,1.753412894823356549e-01,4.235767722129821777e-01
-4.341635251473103252e-01,-4.000986681979313286e-01,-4.056878173851618530e-01,-2.179433612578191015e-03,-2.118988718276192465e-03,5.575831954176876243e-03,3.349998965859413147e-02
-4.537357915914384532e-01,-3.811514733950511769e-01,-4.295923603216821318e-01,1.102333199097045233e-02,9.875756040300047445e-03,2.556632502959616318e-02,8.195729553699493408e-02
-4.273403580854763240e-01,-4.016241753126753022e-01,-4.006586608364179902e-01,-2.016651479430518236e-03,-3.760788327304934175e-03,1.561646688623359808e-03,2.736843191087245941e-02
-4.271350320132651368e-01,-3.992466101152314928e-01,-4.044528389122974410e-01,-1.863517659443564506e-03,-3.498925237219615431e-03,3.116347085843675698e-03,2.712850458920001984e-02
-4.352585846895571375e-01,-3.791329876271151145e-01,-4.180666857334384146e-01,-4.220232987359924266e-04,-3.862926520826436266e-03,5.394861030021692525e-03,5.112096294760704041e-02
-4.351544620888800896e-01,-3.895877252218102882e-01,-4.071297794838832917e-01,-2.921045451938190799e-04,-1.202903701097671630e-03,3.097801878214563858e-03,4.022565111517906189e-02
-4.297031290356433941e-01,-3.884507067862374985e-01,-4.189751370354284910e-01,-2.573289257404288294e-03,-5.724462926210690215e-03,5.003398025166209441e-03,3.959257900714874268e-02
-4.269857946420667072e-01,-4.025434292397260805e-01,-4.013017529411805340e-01,-8.220881133232183294e-04,-6.369567283515156471e-04,5.067579652324026183e-04,2.516615763306617737e-02
-4.255919352003059708e-01,-3.957135486312793882e-01,-4.065430994166420176e-01,2.154504468497761560e-02,-2.372172084168075804e-02,-2.958416445047891072e-02,7.995513081550598145e-02
-4.332011219546775815e-01,-4.018933183444391988e-01,-4.013963072350176797e-01,-1.192553260007914780e-03,-7.571911652530293000e-04,2.290865899936874589e-03,3.190167248249053955e-02
-4.055121381351081133e-01,-4.382209488879071912e-01,-3.729796485007408902e-01,1.464473665730075050e-02,-5.558765050609650038e-02,-2.489538338381514990e-02,1.223316565155982971e-01
-4.085607322163778976e-01,-3.940712824831402727e-01,-4.309755758956939631e-01,-2.457511357011308434e-03,-3.175953788255740217e-03,1.950986560074845916e-03,3.312016278505325317e-02
-4.102053996317267526e-01,-3.957576124742728796e-01,-4.164793439850457690e-01,-5.590752163597690130e-03,6.340268134399587412e-03,-4.098873386565102250e-03,2.456652931869029999e-02
-4.068183922186544010e-01,-3.871569171423265843e-01,-4.245668149207369457e-01,-7.803205224059144192e-03,5.692052601371374101e-03,-3.281079132651253377e-03,3.691483661532402039e-02
-4.090413814907215007e-01,-4.114175919139300142e-01,-4.148512057264324149e-01,-4.559821253579427890e-04,-9.440531972671014531e-04,1.359066537130679264e-03,5.868025589734315872e-03
-4.073663882641146983e-01,-4.076774505394093473e-01,-4.245349625019379514e-01,3.055348537856139666e-03,4.210274659757980847e-03,3.528948659843145035e-03,2.020052820444107056e-02
-6.331204979995808113e-01,-5.382803093014489892e-01,-3.132535180632826100e-01,2.503195286319595189e-02,2.249090658319607972e-02,2.062183870193381729e-01,4.603788554668426514e-01
-4.345857386583857340e-01,-4.028757392126363079e-01,-4.033941237218112708e-01,-1.476600495492078795e-03,-8.401945424733773616e-04,5.369636955320805649e-03,3.293193876743316650e-02
-4.280027509995112389e-01,-4.014499511725603265e-01,-4.050185581603344409e-01,5.306888653457964011e-04,2.130688787340564213e-03,6.396976696493434072e-04,2.527294307947158813e-02
-4.106044826624197785e-01,-4.254101310727376739e-01,-3.901758928137608606e-01,6.486686059256953699e-03,5.796903153314388914e-03,2.646792423885400546e-03,3.445363789796829224e-02
-4.310923633903117613e-01,-4.032545730380315829e-01,-4.015783799466658976e-01,-1.613664163205449052e-03,3.692094537083522282e-05,9.305786743182949345e-04,2.889338135719299316e-02
-4.320510221250030147e-01,-3.954299831602289816e-01,-4.011013965168063189e-01,-6.407621386531043130e-04,-1.397295129275412644e-03,3.174797749573797165e-03,3.468284010887145996e-02
-4.376555902283293942e-01,-3.940560475751695990e-01,-3.990742320395957443e-01,4.158808556909274938e-04,5.870573572108578851e-03,1.816812461987516586e-02,5.292885750532150269e-02
-4.093669780886880494e-01,-4.177565677400837396e-01,-4.068070943826253560e-01,2.852790483586175024e-03,2.676083327907925746e-03,2.924069215107203377e-03,1.303704921156167984e-02
-4.206878425747963557e-01,-4.027884288523963519e-01,-4.130866667669165215e-01,8.181320594375171432e-04,4.956550348843657625e-03,1.117603694397092777e-03,1.793230697512626648e-02
-4.089467198459078023e-01,-4.016465250067508541e-01,-4.200216202603694882e-01,1.525130511250453406e-03,3.795543989379876818e-03,1.096283415732880826e-03,1.762376911938190460e-02
-4.322342056064256144e-01,-4.075763925368567908e-01,-3.942758212974784571e-01,4.535516616186983235e-03,2.025559060830583319e-03,2.705088884923440538e-03,3.476851806044578552e-02
-4.038914717708620983e-01,-4.043998489018179598e-01,-4.252924276252491032e-01,5.203929208218039532e-03,3.552484632512432471e-03,3.205146841041106847e-03,2.443975396454334259e-02
-3.872639022494056005e-01,-3.376623897321374690e-01,-4.335780545478378767e-01,1.032751713968714236e-01,-5.602397703389308536e-02,-7.335436234776991637e-02,2.538867592811584473e-01
-3.696093197352385284e-01,-3.323316696710442719e-01,-4.717614345509955065e-01,1.170902208164395081e-01,-3.316331497597059530e-02,-4.693707433862400608e-02,2.582086622714996338e-01
-4.107293735769376175e-01,-4.104327431412104210e-01,-4.127177207329221220e-01,2.643945308245613255e-04,1.049834790936795582e-03,5.702047447753010468e-04,3.020412521436810493e-03
-4.071939403804466506e-01,-4.120777240887077975e-01,-4.124834408392333840e-01,7.266990699452301932e-04,1.255858956104329276e-03,3.794609291386283161e-03,8.689670823514461517e-03
-4.437550893206358982e-01,-2.683188753298072493e-01,-4.396250118821106723e-01,7.642444851493068736e-02,-3.590420425804641269e-02,-8.603517152151902991e-02,2.714146971702575684e-01
-4.324882519251125879e-01,-1.840844702309373526e-01,-5.811775382989297078e-01,1.151597120173314115e-01,2.782385700200689510e-02,-2.116964283827230120e-02,4.052161872386932373e-01
-3.960028143674951817e-01,-4.096934410302686125e-01,-4.273957844218012059e-01,-1.997344192756733174e-03,-1.302146635137834373e-03,3.913441657604996640e-03,2.839299850165843964e-02
-4.071301715488096495e-01,-4.087449524290779901e-01,-4.139356182035676124e-01,-1.035288681357518243e-03,-2.387165574147144011e-03,9.126213061923810904e-04,7.793721742928028107e-03
-4.496189080733615229e-01,-3.356556645247354975e-01,-4.810529368240569204e-01,2.751224760163930444e-02,4.351703627754375072e-05,-1.442529102818011603e-02,1.430142819881439209e-01
-4.095885073147280120e-01,-3.921061236930660776e-01,-4.414383132864491133e-01,1.411253390571827818e-02,9.929408480335401906e-04,6.663976064697155026e-03,5.109333246946334839e-02
-4.140076898043273390e-01,-4.079601639803787094e-01,-4.075214531169846777e-01,-1.008685151218284256e-03,-2.029044198485575878e-03,1.108175714721464176e-03,7.648902479559183121e-03
-3.972426379389398243e-01,-4.000826086516027225e-01,-4.570752776283860119e-01,3.832914034591516222e-02,-7.943213165610593998e-03,-1.280053456288284854e-02,9.222961217164993286e-02
-4.124119746314285351e-01,-4.136448578582714863e-01,-4.033776152600771492e-01,-3.259385360276747298e-03,-7.477638957499559017e-04,1.044917736343758778e-03,1.144996751099824905e-02
-4.112335873265732245e-01,-4.095805620007609837e-01,-4.153900201172038287e-01,-1.038385247149044895e-03,-4.521098506676530897e-04,9.148482441736946165e-04,5.765231791883707047e-03
-3.798034216838155341e-01,-4.052934199994444597e-01,-4.333385027854481653e-01,8.460729930153131767e-03,8.507713604521889876e-05,-8.461822889234859495e-04,4.866268858313560486e-02
-3.965337591447820609e-01,-4.019459872135225376e-01,-4.354556831364219116e-01,4.151646206391310448e-03,3.719114396835507686e-05,3.070510196028714348e-04,3.722297027707099915e-02
-3.938594156227006593e-01,-4.084989191055798941e-01,-4.360757855451030118e-01,2.406351225380016882e-03,4.387108064199529288e-04,-4.982169067248804015e-04,3.737919032573699951e-02
-3.948590977359102694e-01,-3.551257576342728428e-01,-4.513244302981874179e-01,7.316997739781080923e-02,5.968551412778360862e-03,2.067801562558342979e-03,1.522887498140335083e-01
-4.043582816590204354e-01,-4.047971179099995598e-01,-4.306086438466630861e-01,4.824474145827342859e-03,3.168415097808280519e-03,3.214526123343840885e-03,2.843760326504707336e-02
-4.143281983487441811e-01,-3.653298349323884642e-01,-4.298467175575761967e-01,-1.319558299722972498e-02,-7.249871794676401686e-03,4.814397016746779084e-03,6.443317234516143799e-02
-4.101577782238368108e-01,-4.112102210371258448e-01,-4.156156033978243292e-01,1.947646585078775718e-03,2.555181850212701576e-03,3.287412524880327543e-03,9.409544989466667175e-03
-4.277121397078046394e-01,-4.102367363879430018e-01,-3.854952453436327753e-01,-5.672547176256922258e-03,-1.862319592315718909e-03,6.508820862879154644e-03,3.979862853884696960e-02
-4.294158211931688451e-01,-2.457760694163390602e-01,-4.128334168770874668e-01,1.126597101290716385e-01,-5.540970471180127477e-02,-1.088020954056005130e-01,3.372749090194702148e-01
-4.197447680580183027e-01,-4.065482151103620434e-01,-4.043480209159064920e-01,-8.170122685790631679e-04,-2.423833705446457997e-03,8.600222136505775898e-04,1.516150403767824173e-02
-3.901579579377976725e-01,-4.102974646148097038e-01,-4.277869014425441097e-01,4.381310241378203255e-03,1.977826640870277222e-03,5.441401808582107744e-03,3.495509177446365356e-02
-4.326064571934768455e-01,-4.017080155415837517e-01,-3.978194790153859461e-01,-1.051887925552693562e-03,-1.249923238529480028e-03,2.522574192279296735e-03,3.342275694012641907e-02
-3.751042764865293311e-01,-4.306766961652281345e-01,-4.237248948648131286e-01,-3.983276751781970881e-03,-6.936169183194717050e-03,7.468038412869787597e-03,5.576323717832565308e-02
-3.807048625392346342e-01,-4.531833062959933489e-01,-4.230481588124187509e-01,-8.491619012434102956e-03,-2.701624578335034763e-02,9.131396341079076398e-03,8.144449442625045776e-02
-4.292585560356613206e-01,-3.970159664537346589e-01,-4.076848572249328617e-01,-1.872537474335483291e-03,-4.020098419445486751e-03,3.517256167825586616e-03,3.009207919239997864e-02
-4.272964936568514061e-01,-4.016897871363663830e-01,-4.030256281744650781e-01,-6.939701052526669588e-04,-1.442984208291843429e-03,1.543981006358274627e-03,2.526112459599971771e-02
-4.217445390735443111e-01,-3.649167305704423825e-01,-4.454070188226911808e-01,1.099906674310391005e-02,-1.325119091648285514e-04,-6.798658664222192180e-04,7.415104657411575317e-02
-4.093637524075782186e-01,-4.079096285527497034e-01,-4.090121905428439342e-01,-2.111317335802041263e-03,-3.449583080145985758e-03,1.708291757629750189e-03,7.717091124504804611e-03
-4.146592978054210454e-01,-4.066411240592692211e-01,-4.035060072984354984e-01,-6.037532441830594648e-03,-6.783457518442530775e-03,5.958816413636275865e-03,2.128806523978710175e-02
-3.963091474596502350e-01,-4.320955817210455074e-01,-4.016383848493934594e-01,7.875625503409230130e-04,-4.139848957964821843e-03,-1.396986289576320405e-03,3.431451320648193359e-02
-3.963564486936951292e-01,-4.348995787546970915e-01,-4.021619945036711830e-01,1.758281688167233478e-04,-4.216862406719248599e-03,-7.137047116661870364e-04,3.674887865781784058e-02
-4.045313625354414189e-01,-4.317484658304195921e-01,-4.025560988421953978e-01,2.178027589015865510e-03,-6.376320468635880527e-03,-1.906609079141015220e-03,3.074967674911022186e-02
-4.323877364904342158e-01,-4.108233750147571861e-01,-3.908190710417986380e-01,-3.430907465223069670e-03,-5.465298545309155848e-03,9.193488750886618169e-03,4.092745482921600342e-02
-4.054275924120315233e-01,-4.083852411192587795e-01,-3.911241967375304052e-01,-1.319207551346291037e-02,-1.286205113226657204e-02,1.286202801476555267e-02,4.207522049546241760e-02
-4.196596689734580221e-01,-4.034163493027196901e-01,-4.063527260614471226e-01,1.203441460080837550e-03,3.032499886091357105e-03,1.769655762953961696e-03,1.631254889070987701e-02
-4.302619173211105763e-01,-3.963632177016204738e-01,-4.110219140006568517e-01,1.993366863056435234e-03,5.039348540443142413e-03,2.087203653148330708e-03,3.111693076789379120e-02
-4.104358790408825231e-01,-4.435350280472858397e-01,-3.976560015086578748e-01,1.325392295342571903e-03,-1.639033962670821340e-02,-1.892627622012804569e-03,5.003826320171356201e-02
-4.096170815735367121e-01,-4.053073014235608063e-01,-4.204561202243438656e-01,-1.608847903896096481e-03,-3.446689329427483732e-03,1.275401744228019281e-03,1.520055811852216721e-02
-4.270630416252615968e-01,-4.103012214155987158e-01,-3.892641215179331593e-01,3.889237322446202367e-03,1.295145226956952080e-03,2.897119879289782561e-03,3.393713012337684631e-02
-4.087706723258919261e-01,-4.110080698363624552e-01,-4.121660105861968959e-01,7.755332662806966194e-04,1.045898957982375034e-03,2.046016075007280662e-03,5.155789200216531754e-03
-3.542109282263519177e-01,-4.417235883437070632e-01,-4.384514338194663852e-01,5.614887808628148125e-02,-3.171509614613916839e-02,-2.229556859084262654e-02,1.461154520511627197e-01
-3.931515625402782765e-01,-4.353619084368919312e-01,-4.081538765509665767e-01,2.307255116845456297e-04,-1.420198106404827083e-02,4.511657104973243937e-04,4.449032619595527649e-02
-4.313401311424818751e-01,-4.090920580750649904e-01,-3.919714785966392223e-01,4.052749375195489716e-03,-6.303159831613541937e-04,2.012766465954874545e-03,3.509431332349777222e-02
-4.273636827173103447e-01,-3.953550728389982893e-01,-4.070221915558738801e-01,1.608750380353604669e-03,2.641638893719107806e-03,2.700643501349654467e-03,2.894484251737594604e-02
-4.201078895267558178e-01,-4.022996410194291106e-01,-4.103690392838152401e-01,8.176078644728570479e-04,3.807219420580416555e-03,1.116071363821890096e-03,1.696390658617019653e-02
-4.145022707922594307e-01,-4.059719442373644349e-01,-4.126268749078728648e-01,3.142088887886895212e-04,3.827090812371172941e-03,1.618381943278866049e-04,1.022743713110685349e-02
-4.122738918656516649e-01,-4.336942019763205813e-01,-3.946061958603644948e-01,4.207104664957495022e-03,-1.373980943924890501e-02,-3.431048494561982857e-03,4.247572645545005798e-02
-4.032369831548520134e-01,-4.320880517024043299e-01,-3.772915598085304634e-01,-7.538714948759267292e-04,-9.356069506343597103e-03,3.738889679732126611e-04,5.018799379467964172e-02
-4.629907764518736979e-01,-4.697545456776917039e-01,-5.369234682596523145e-01,-1.492555621577890401e-01,-1.121116742152737100e-01,1.042749973874760733e-01,3.770547807216644287e-01
-4.108098463565142411e-01,-4.092946671277930548e-01,-4.143873736684561826e-01,-1.007575040873911706e-04,1.487168836631079603e-03,5.027704728126228609e-04,5.285723134875297546e-03
-4.151672950155534947e-01,-4.112211377151845926e-01,-4.096468481855592980e-01,1.951104313590404404e-04,1.062969168810439131e-03,1.019786472256091177e-03,5.557584576308727264e-03
-5.835011908749214715e-01,-4.092320382980167426e-01,-2.898708117238107396e-01,7.185396830202925300e-02,1.180616095851209392e-02,1.737274015382555825e-01,4.145703613758087158e-01
-6.159409479377779828e-01,-2.192174360431728974e-01,-6.218576052164698220e-01,5.849114399494858424e-02,-2.378907253411682160e-02,-6.123529806550446347e-02,4.277645647525787354e-01
-4.021442768408478585e-01,-4.336563148410139124e-01,-4.017953344064811860e-01,2.407811334902878856e-04,-6.433742365593757631e-03,5.999356383104553899e-04,3.360891342163085938e-02
-4.027244713141248100e-01,-4.360672299400840113e-01,-4.031470563296474241e-01,5.378364635925205785e-04,-6.154388258540908520e-03,-7.250141123502385496e-04,3.484109789133071899e-02
-4.143187413474355152e-01,-4.120641259687499725e-01,-4.074919759664832331e-01,-3.469681874261789766e-03,-4.763606158535558686e-04,8.821477156692766712e-04,8.684910833835601807e-03
-4.207639995737026406e-01,-4.051575197535045025e-01,-4.061151877996851400e-01,-1.121203816521388133e-03,-7.772838306209119271e-04,-7.718528834760943474e-05,1.533411815762519836e-02
-4.132107915096421835e-01,-4.320077594827486100e-01,-3.875961123175910017e-01,-6.073338118346293009e-03,-1.211321995799003078e-02,4.565773333461923406e-03,4.587266594171524048e-02
-4.127520912029074562e-01,-4.203745375783333182e-01,-4.022253629369070826e-01,-4.674667562022444614e-03,-1.065436800391953787e-03,1.112106829720518279e-03,1.793952286243438721e-02
-3.933164159216689382e-01,-4.352617391194317786e-01,-4.074667198323841943e-01,3.942021223137507800e-04,-2.088106470601626841e-03,-2.785167705530083100e-04,3.714675828814506531e-02
-4.951212638816939737e-01,-4.038628522549476685e-01,-3.865811560632690380e-01,-8.817689641948060330e-04,-2.388708561283977780e-02,9.558208901427851789e-02,1.983072757720947266e-01
-4.070521050553509435e-01,-4.122837504461815961e-01,-4.125216490294049132e-01,-1.700795118611426408e-03,-1.291315317963572917e-03,4.199235940400908133e-03,9.759746491909027100e-03
-4.098134701543610370e-01,-4.146380858549730819e-01,-4.107756792781162569e-01,-8.897031409103108067e-04,-2.972978237003202689e-04,3.287239719003405927e-04,4.746000748127698898e-03
-3.618247344434023516e-01,-4.397124490189143753e-01,-4.261042814635532250e-01,-8.555857346792674484e-03,-1.856497096617841513e-02,7.881759927886484995e-03,8.143536001443862915e-02
-3.996649847705427416e-01,-4.327101842679370591e-01,-4.015640163450758804e-01,-6.810981691455386027e-05,-1.489121479407374410e-03,5.852005846021316989e-04,3.225727006793022156e-02
-3.974239851869675877e-01,-4.313475351381262368e-01,-4.044707140853835980e-01,1.564420298151375727e-03,-3.377163153697533733e-03,-3.400422598844257335e-03,3.221273049712181091e-02
-4.008742314558995101e-01,-4.308739272069145865e-01,-3.998096966432987953e-01,-3.580110102158934912e-04,-7.281061135428893490e-04,3.010088678835994209e-04,3.058263286948204041e-02
-4.098677184947925323e-01,-4.320642762443506202e-01,-3.867586799984838453e-01,4.229628208379873286e-03,-4.387271638422588112e-03,-2.455849244693356255e-03,4.085539281368255615e-02
-3.884651185890137803e-01,-4.318105394232184535e-01,-4.070335344643882802e-01,2.221340150618945463e-04,-2.954571587021716413e-03,2.030370856689067867e-03,3.817668929696083069e-02
-3.826041903167464175e-01,-4.385858502922813651e-01,-4.068450902642298805e-01,-2.261108290519258670e-04,-6.955516478797963212e-03,-2.081138900321617344e-03,5.022754147648811340e-02
-3.979795973282159172e-01,-4.196050600393890773e-01,-4.126871321155654027e-01,-1.764110106965958600e-03,-2.792718407233268398e-03,5.664262983704999171e-03,2.224636264145374298e-02
-4.313800227958840550e-01,-3.889939786409165601e-01,-4.068166488196039987e-01,6.356874641240803283e-04,-2.615318500242246654e-03,3.183868030085058864e-03,3.756241127848625183e-02
-4.765000304058911729e-01,-4.675764275423051619e-01,-3.162899754669639685e-01,-2.531913369136982919e-03,-4.794673728683006980e-02,5.749044033601036913e-02,2.028511613607406616e-01
-4.001183305887620612e-01,-4.327207608590559751e-01,-4.033900774482617746e-01,2.884973513080435004e-04,-7.053981295397837234e-04,-1.277742877041563186e-03,3.120250254869461060e-02
-3.833034916617336640e-01,-4.292820894495411044e-01,-4.054676821074929549e-01,1.387546613579795831e-03,-6.812841453585532885e-03,-3.207956828297896506e-03,4.197734594345092773e-02
-3.278674956245315464e-01,-5.141965048153169793e-01,-3.463386640636029190e-01,-4.168718031878045072e-02,-1.659740004645935130e-01,2.775413271089334499e-02,3.489762246608734131e-01
-4.233069260913372434e-01,-4.705265619805812927e-01,-4.271308939364026336e-01,-4.818591043687842079e-02,8.980505843169278579e-02,-4.820484599391620245e-02,2.004878073930740356e-01
-3.971660876732528989e-01,-4.276349265244248077e-01,-3.987215692710763815e-01,-3.508019553035281006e-03,-3.997377762272453366e-03,1.909143783247629379e-03,3.129163011908531189e-02
-3.790738307937410179e-01,-4.418278721790053210e-01,-4.072416959433104444e-01,8.855197350774120235e-03,-3.222181116571307125e-02,-8.728369349412099659e-03,8.088500052690505981e-02
-5.729482906875094095e-01,-4.195877289183654879e-01,-3.034013908956078587e-01,6.224424612470405571e-02,-2.526000720641589405e-03,-1.581898729495780920e-01,3.762331902980804443e-01
-4.012251477288313328e-01,-4.305358062521143503e-01,-4.014235340447114830e-01,1.367961184747881927e-03,-3.423711750084744605e-04,-4.057822907706732578e-04,2.932232618331909180e-02
-4.198189438958584985e-01,-4.217265052307294093e-01,-3.796251689181420197e-01,-1.070241212606722232e-02,8.390620455601478095e-03,-9.726663250029276772e-03,5.034388601779937744e-02
-4.419947181689584670e-01,-4.107688095906389392e-01,-3.937593871271835022e-01,-2.320433218582116600e-03,-2.456517112210317719e-04,-1.336373753419163937e-02,4.845219478011131287e-02
-3.969432864865801713e-01,-4.301520041300037622e-01,-4.029397184320085978e-01,1.066059544044881471e-03,-3.980413777819980653e-03,-1.723412264940749799e-03,3.161476552486419678e-02
-4.204040534283412511e-01,-4.053566057514179644e-01,-4.054317068681427827e-01,8.293960171624679923e-04,-2.137792381288543611e-03,-1.334488223395896393e-03,1.569770649075508118e-02
-4.318577366312374988e-01,-4.203908126096974618e-01,-3.593818354215805866e-01,-1.337232517401062276e-02,2.096066085004050228e-02,-3.728759702538564369e-02,1.028531491756439209e-01
-4.339806079826969976e-01,-4.411551444762485952e-01,-3.735569749482784419e-01,-3.403443752570238685e-03,-1.157816555236796698e-02,4.440845869060620031e-03,6.805936247110366821e-02
-4.308809849299631289e-01,-4.243050348658804483e-01,-3.772026583721970194e-01,-7.437817388511265039e-03,3.589899390685013115e-03,-8.825343475341838190e-03,5.486260354518890381e-02
-4.318437289862778194e-01,-3.942686240102397655e-01,-3.924665502860727462e-01,-2.242488954476880292e-03,2.220560463577740760e-03,-1.327309028655083295e-02,4.518022760748863220e-02
-4.200737902345301200e-01,-4.026342055075908810e-01,-4.060195427699434534e-01,1.570691532787284054e-03,-2.900266621304497302e-03,-2.133657602858905766e-03,1.740270294249057770e-02
-4.165935816922549106e-01,-4.070005533098080552e-01,-4.050403561862379598e-01,3.175350664356564948e-03,-2.010932990283380468e-03,-1.988529118207056287e-03,1.299675554037094116e-02
-4.054656433254266723e-01,-4.171104938329417422e-01,-4.294862641266858905e-01,9.728217976070110962e-03,-7.754916241491532219e-03,-8.817885888145103601e-03,3.362249955534934998e-02
-4.337679733640258384e-01,-4.234158416595613650e-01,-3.662360516468692317e-01,-1.074927278986490507e-02,7.333509447623757713e-03,-1.145649246519250125e-02,6.978798657655715942e-02
-3.855825141296618797e-01,-4.122415193946389889e-01,-4.321010895534135865e-01,-1.999287636270325602e-02,1.468271870492275991e-02,-1.700746140021452968e-02,6.594084203243255615e-02
-3.965319497878571076e-01,-4.041473871661029893e-01,-4.312007493885764431e-01,-3.758594132928037585e-03,1.793859670707126852e-03,-3.447701454679579641e-03,3.291803970932960510e-02
-4.038560029575028465e-01,-4.199301488243454283e-01,-4.055845511929770386e-01,2.632582603196045694e-03,-8.456904988539830402e-04,-6.918984286257083127e-04,1.606095582246780396e-02
-4.100371463224857793e-01,-4.114506895013427812e-01,-4.107192243196657877e-01,4.674140517171237823e-04,-5.567133018963939728e-04,-7.316653854412460273e-04,2.165734767913818359e-03
-4.006382710290560256e-01,-4.066412643040219210e-01,-4.225588072009489604e-01,-2.686822625092714738e-03,2.064531825291855780e-03,-3.630156172996748705e-03,2.142276801168918610e-02
-4.131654833910919922e-01,-4.210838517173404183e-01,-4.037480110129929578e-01,3.681880339026282964e-03,-1.787863274061091525e-03,-1.354451435654416627e-03,1.678457856178283691e-02
-4.600069854117049828e-01,-4.333623605743416318e-01,-3.482373986961479484e-01,-1.299107922419314165e-01,9.020341896379596713e-02,-1.104950530349265714e-01,3.491306304931640625e-01
-4.118962627301591128e-01,-4.095961139131082951e-01,-4.102895225814364721e-01,1.684462258263739239e-04,-1.137098222334729635e-03,-3.470446335008642541e-04,2.915814984589815140e-03
-4.301396586814575929e-01,-4.408864465216533746e-01,-3.630619853141591746e-01,-1.078858345507793803e-02,3.192484534629545789e-02,-2.420047561841394065e-02,1.024672314524650574e-01
-4.102023459559359098e-01,-4.116072067706549875e-01,-4.112812254358965136e-01,1.756832282986035268e-03,-2.315867035038141758e-03,-1.836600399450772888e-03,6.090184208005666733e-03
-4.125530168973792766e-01,-4.065693937966841087e-01,-4.123088685134222997e-01,1.552214438428553122e-03,-3.815375258101973577e-03,-1.479774768247375544e-03,9.584938175976276398e-03
-4.074499075512486024e-01,-4.139044254909937659e-01,-4.088158634870852626e-01,2.115735827564720409e-03,-2.991944434221447281e-04,-6.787429210241458129e-04,7.056181319057941437e-03
-4.109672081282777500e-01,-4.186687136765028794e-01,-3.953824134031441728e-01,6.021483176254604879e-03,-4.849001186036126093e-03,-2.680853666273904940e-03,2.496196143329143524e-02
-4.354758236683600181e-01,-3.896741600659716087e-01,-4.074104059953593815e-01,5.525255896006814283e-04,2.223767890933808257e-03,2.701092841455489911e-03,4.046796634793281555e-02
-4.201936954377295530e-01,-4.120989696376437528e-01,-4.018106917072676865e-01,-4.553005634443595476e-03,-1.262704020017494082e-03,1.811237048808172177e-03,1.820627972483634949e-02
-4.116603925619409243e-01,-4.265307495479410682e-01,-3.996040226662521122e-01,6.030274627421526590e-03,-1.073805210906800083e-02,-6.218449404938933105e-03,3.341830894351005554e-02
-4.030915279300696930e-01,-4.237891313873454191e-01,-4.018664619938424054e-01,3.113187325418841946e-03,-3.127966301189138987e-03,-1.581353618454508711e-03,2.282932028174400330e-02
-4.171193965404627058e-01,-4.150387906521433301e-01,-4.054729913216219006e-01,7.759400339408684816e-03,-6.390337188071255892e-03,-8.501407048262847599e-03,2.521293237805366516e-02
-3.992300630569012854e-01,-4.277111815923604343e-01,-3.956519722286965246e-01,7.354753071986440578e-03,-1.163797789912608335e-02,-6.782527110308690134e-03,4.040417820215225220e-02
-3.957025685969388085e-01,-2.269171054663649545e-01,-4.659640635819005117e-01,-1.256068314827592514e-01,2.455116365832103742e-02,-3.715821578376646978e-02,3.139522969722747803e-01
-4.118637153034129805e-01,-4.179112422137187255e-01,-4.034097575433955862e-01,4.134885902844874853e-03,-5.572109877511671402e-03,-8.556269791394659902e-03,2.287430502474308014e-02
-4.148865353840829884e-01,-4.084140150677693648e-01,-4.081516968905393727e-01,-6.967239588906190377e-04,-5.291980460619163636e-04,1.738108902572542931e-05,6.779197603464126587e-03
-3.543796150727110961e-01,-5.227499306031134774e-01,-3.430786361143410845e-01,-4.123707557706055710e-02,1.710550391336551068e-01,-1.271707511324222106e-01,4.144601225852966309e-01
-4.312077964170357158e-01,-3.989330309363529614e-01,-4.025463467822428809e-01,4.144246591025411693e-05,5.215427350689675560e-04,1.206854563281979480e-03,3.071299940347671509e-02
-4.228980305253952632e-01,-4.057461037930130132e-01,-4.016350224377015499e-01,-3.700239221900875845e-03,-1.770931048512375434e-03,2.385666298456638572e-03,2.119341120123863220e-02
-5.825408393807591789e-01,-5.764061458078545419e-01,-2.529336976227430922e-01,-6.263691727075321181e-02,-1.279156031872352717e-01,1.355278364119200107e-01,4.718232750892639160e-01
-4.335782465529293139e-01,-3.951583170526846156e-01,-4.096417416425233715e-01,5.357308933775189845e-04,1.700786469375880315e-03,4.126281048487085747e-03,3.449675440788269043e-02
-4.375096399067657793e-01,-4.097367077883394271e-01,-3.967043036372847054e-01,-3.350509630734955797e-03,-9.940929160626413470e-04,2.679228882835075088e-03,3.689585998654365540e-02
-4.098687034451478084e-01,-4.146248581354991525e-01,-4.041771815284970204e-01,3.427227939674129444e-03,-1.600917345353098861e-03,-1.840793467631302461e-03,1.162653136998414993e-02
-3.828004105355972686e-01,-4.273231188518153978e-01,-4.032537967091180398e-01,-1.147219115594284855e-02,2.196026063919204879e-02,-1.124870958626475806e-02,6.091933697462081909e-02
-3.894135428319622227e-01,-4.281343809298246428e-01,-4.089345061917580293e-01,-2.445434047999862567e-03,5.158733344480407289e-03,-5.234318637770094505e-03,3.611752390861511230e-02
-4.010374694867940848e-01,-4.224245881525894308e-01,-4.065577158354189979e-01,-2.324861339707024778e-03,2.227233379013910872e-03,-3.585679026221163298e-03,2.096396312117576599e-02
-4.248078350342768816e-01,-4.150418300458877940e-01,-4.054775029020090127e-01,-7.960074741149465727e-03,8.875112248428709133e-03,-9.727747133225996337e-03,3.147276490926742554e-02
-3.704100243327955178e-01,-4.376613950930543506e-01,-4.239307604399887297e-01,-1.466155522669838722e-02,1.441300932638649862e-02,-1.077117813089069343e-02,7.351201027631759644e-02
-4.014865583264000115e-01,-4.321335798182872057e-01,-3.999398886141757870e-01,-4.326436142603205305e-04,-5.118303474338537461e-03,2.965491438894659552e-03,3.308425471186637878e-02
-3.890065721088495909e-01,-4.298488446592971246e-01,-4.087273001057058486e-01,7.151872386036635040e-03,-1.641094714224275442e-02,-5.312773355651636414e-03,4.793371632695198059e-02
-4.346002092173920639e-01,-4.096029645489626114e-01,-3.408470438365391875e-01,-3.207371593444176272e-02,-6.566160143229196611e-02,8.394939990502051086e-02,2.103187143802642822e-01
-4.323331318149352120e-01,-4.067854779301827706e-01,-3.955180334025882871e-01,-5.284619394142936770e-04,4.182744463656275523e-05,3.131022240886731801e-03,3.313227370381355286e-02
-4.148598140000923640e-01,-4.229805169035375512e-01,-4.036833440422284425e-01,-5.581802158759932575e-03,8.637731323009606096e-03,-7.785717053749456433e-03,2.794231660664081573e-02
-3.901943618182758255e-01,-4.209687963687661072e-01,-4.079935165846150236e-01,-2.916299524253933902e-03,5.398450773566289967e-03,-5.007694327249481887e-03,3.007144853472709656e-02
-4.192631023243398869e-01,-4.308034135479142379e-01,-3.853122113403373850e-01,-5.361287079544122328e-03,-3.950481104046527081e-03,2.772183479970192176e-03,4.282230511307716370e-02
-4.025996915862535275e-01,-4.269570676502779660e-01,-3.984211264992185142e-01,-2.901807984649108947e-03,4.412128441657670042e-03,-1.234955305095784828e-03,2.829767577350139618e-02
-4.106905762893667267e-01,-4.149584630907475757e-01,-4.104550902676222246e-01,-2.627762832837495649e-03,2.253268857322618390e-03,-2.608018436470204739e-03,8.696418255567550659e-03
-3.956882166807700330e-01,-4.314004947278149427e-01,-4.087385285030728510e-01,-4.475466065254163177e-03,1.408448891920952711e-02,-3.346150870179504834e-03,4.084628820419311523e-02
-4.066739746872393702e-01,-4.234469466922289871e-01,-4.075176187144459727e-01,-3.654184569367701415e-03,2.725698968112425218e-03,-3.628729234057902642e-03,1.922873966395854950e-02
-4.100977526002894114e-01,-4.278765510103095249e-01,-3.933138969012744401e-01,3.686993590614195525e-03,-3.243499503653924504e-03,-1.192055017935086166e-03,3.118951618671417236e-02
-4.082060642248634408e-01,-4.326199662285073466e-01,-3.866298732835781737e-01,1.752040155480091973e-03,-4.791067891425372302e-03,-8.216684002196599380e-04,4.084638133645057678e-02
-4.060011215904980042e-01,-4.259313672238312365e-01,-4.164460136214867547e-01,-6.906545495320259680e-03,8.457352749864758407e-03,-7.395992432018517852e-03,2.863433025777339935e-02
-4.047124083537163575e-01,-4.237175358874118447e-01,-4.112045430859348483e-01,-6.241767826294107417e-03,9.291798778164949563e-03,-4.779937737603021791e-03,2.691456489264965057e-02
-4.114009859624603860e-01,-4.221248882035103511e-01,-3.912582012900761574e-01,-5.344408504921828451e-03,3.858639240518117221e-03,-5.252345525650221544e-03,3.081979788839817047e-02
-3.913973111978912844e-01,-4.074687918264876529e-01,-4.364856373571417425e-01,-2.877889419967079570e-03,1.138295719456419459e-03,-2.693960683865495934e-03,4.021342471241950989e-02
-4.446189321227243529e-01,-4.460846940684652928e-01,-3.444513785321345889e-01,-6.325295350079312962e-05,-1.187772059631868847e-02,9.097621866440542106e-04,1.029963344335556030e-01
-4.241807232500470759e-01,-4.400124830303658308e-01,-3.747547209552335445e-01,2.037294963034736589e-02,-2.954358288236624483e-02,-1.966464848843755761e-02,9.219442307949066162e-02
-4.313062510080449830e-01,-4.434977446143559265e-01,-3.679398259420775807e-01,9.106827139843794161e-03,-1.439888842646012100e-02,-3.812327969950821821e-03,7.649088650941848755e-02
-4.014979256981719979e-01,-4.132582591771882807e-01,-4.122351243492985429e-01,1.982723267729369528e-03,-1.711624867515398191e-03,-4.207816527044322755e-03,1.417813636362552643e-02
-4.071901523408594237e-01,-3.944539837154073525e-01,-4.365085731522950763e-01,-3.278476181412767840e-03,1.298961252776290737e-03,-1.358606153626124458e-04,3.784899786114692688e-02
-4.392698657048979549e-01,-4.423884580899807295e-01,-3.449497921083636842e-01,3.730169144226903183e-03,-1.269243935027174718e-02,-3.003839555170959453e-03,9.875349700450897217e-02
-4.281868266233003206e-01,-4.032603553985502076e-01,-4.031048597674533607e-01,6.294779969886266698e-04,-1.533894867475384116e-03,-1.719536092385968258e-03,2.534455992281436920e-02
-4.453514734838613376e-01,-4.375601694019903287e-01,-3.455367301168947858e-01,3.453757589975931398e-03,-2.721842845544569615e-03,-1.267695920923235520e-02,9.892485290765762329e-02
-4.146231665108086051e-01,-4.147718186152327124e-01,-4.073340144159143805e-01,2.523052998984457677e-03,-6.950175047529769676e-04,-6.600782050344283780e-04,8.723016828298568726e-03
-4.433875950832684709e-01,-4.582758701445897032e-01,-3.659676155749134185e-01,-2.494999982636884536e-03,-2.905862607822391405e-02,1.534598883617255098e-02,1.030851528048515320e-01
-3.961655381999138470e-01,-4.369734234165876252e-01,-3.972039981571602318e-01,-6.439092879338271895e-03,-1.709349542817695938e-02,9.854891700811422087e-03,5.400268360972404480e-02
-4.286586344299296858e-01,-4.549802334563194384e-01,-3.744920101327851025e-01,6.952573535644731781e-04,-2.716623958752104051e-02,-2.930466001207906665e-03,8.540391176939010620e-02
-4.201846003913958238e-01,-4.076825843745329747e-01,-3.855370936041906393e-01,-3.023994708052055863e-02,3.250873286787103744e-02,-7.205746930466114253e-02,1.497138589620590210e-01
-4.123169517171267340e-01,-4.126001961759869219e-01,-4.066650377141111106e-01,4.078933914083341869e-03,-1.100074699298277852e-03,-1.031580537211031993e-03,9.505856782197952271e-03
-2.215178333358669982e-01,-4.756526662480785594e-01,-5.652781034651941372e-01,6.934915561268030493e-02,4.093575321526762845e-02,3.990896416168784877e-02,3.458720445632934570e-01
-4.148777285079416899e-01,-4.072839001348685373e-01,-4.147688103263874049e-01,1.155361809537733654e-03,-2.152460201688995503e-03,-1.048964065732942846e-03,8.834918960928916931e-03
-4.098489343294776099e-01,-4.146727450969004969e-01,-4.082140361133581585e-01,4.895512506178279931e-04,4.702806776710075293e-04,-7.518936381718345019e-04,6.075112149119377136e-03
-4.236835514658255919e-01,-4.043164527066033798e-01,-4.057702672779431863e-01,-3.243465256837242943e-04,-1.707637030286033794e-03,-8.263582072539187983e-04,1.897772960364818573e-02
-4.289959268380196256e-01,-4.191976239246997249e-01,-3.792960295590967479e-01,6.139812158402483538e-03,-1.656370280124764638e-03,-5.847705056727725732e-03,4.798980429768562317e-02
-1.448898831990373948e-01,-4.593548575004374190e-01,-4.634949743906963682e-01,-8.229691084465806661e-03,-1.432074144519623372e-02,3.493585959607290879e-04,3.178460001945495605e-01
-3.662036362893256736e-01,-4.433235832699656820e-01,-4.347769653563641201e-01,-6.550451761415700125e-03,6.396204914800804504e-03,-1.028784516761514257e-03,7.494031637907028198e-02
-4.422077688040384480e-01,-3.771912158376046764e-01,-4.207016427900409639e-01,-3.164847752585345751e-03,-4.297525989184227541e-03,4.159173614255398665e-03,5.855563655495643616e-02
-4.390097345501250414e-01,-3.705638490500856586e-01,-4.178993009703618755e-01,1.946823142596331314e-03,5.316804074553203516e-03,1.069647003822469904e-02,6.422605365514755249e-02
-4.190703240101437133e-01,-4.202143142247889984e-01,-3.948200347558564749e-01,-5.103145696469408091e-03,-2.472096332012440126e-03,2.979628192162868307e-03,2.720702067017555237e-02
-3.660360950845994998e-01,-4.410310784334550149e-01,-4.217143015434425823e-01,-3.634906428179763595e-03,1.348607297961908549e-02,1.189326852736390279e-03,7.168143242597579956e-02
-4.202683507497929627e-01,-4.194537782910575108e-01,-3.948840260264934732e-01,-5.255621734845122503e-03,-2.502923165455198801e-03,3.001184318690218802e-03,2.744139172136783600e-02
-3.788418943692301033e-01,-4.371181555118764384e-01,-4.129774689478958871e-01,8.361086973142382861e-03,3.704680066450670439e-02,1.822407523008571020e-02,8.885683119297027588e-02
-3.825121803137179199e-01,-4.206453759489370281e-01,-4.275291828659170679e-01,-8.583624220195753760e-03,-1.131272648590921082e-02,7.628122369177515148e-03,5.043374747037887573e-02
-4.062130584783825160e-01,-4.207252953084052449e-01,-4.052193474003072393e-01,-3.197382553277840125e-03,-2.089788585793771105e-03,2.662706679615596799e-03,1.706033013761043549e-02
-4.230828179692896485e-01,-4.033099977427049287e-01,-4.052561155315733687e-01,-9.017262645683147854e-04,-2.263690687268678225e-03,9.440400343612028421e-04,1.941023953258991241e-02
-4.325562946404862275e-01,-4.021342095752332146e-01,-4.001533002898365887e-01,2.706644422152602175e-03,3.237316503537185537e-03,6.839674305981652790e-03,3.440134599804878235e-02
-3.623533300977778149e-01,-4.392094695542863025e-01,-4.233932241081792558e-01,-8.352514426189134884e-04,1.135616129764050602e-02,-2.651713570001397197e-03,7.315407693386077881e-02
-3.802805267640824716e-01,-4.281912367001708408e-01,-3.448030907266884104e-01,-3.069289328690990790e-02,-7.038541358514105450e-02,3.873185814797755477e-02,1.656586378812789917e-01
-3.519649445821951828e-01,-4.430466521558177884e-01,-4.400029581843800663e-01,-4.657884151445436209e-03,9.741553852212699732e-03,-3.519107956411592769e-03,9.173249453306198120e-02
-3.451649583331538595e-01,-4.434313457641563816e-01,-4.390092323806171759e-01,-8.726413196767488943e-06,7.332580786707186375e-03,1.337961476084316859e-03,9.699466079473495483e-02
-4.445135116651253715e-01,-4.845197706947907412e-01,-5.469376055621826271e-01,1.798328189752042283e-01,1.387534973039817043e-01,1.123613191830052094e-01,4.479351639747619629e-01
-4.008097086888401384e-01,-4.030502339252648447e-01,-4.314761823876027136e-01,-6.301945004183877840e-03,1.120264877280903676e-03,-2.110373996099934764e-03,3.182786703109741211e-02
-3.481272881952685583e-01,-4.453482946020229649e-01,-4.445787357182990895e-01,3.046111132454691096e-03,9.802587776257941365e-03,2.969292249038034230e-03,9.859136492013931274e-02
-3.418645017086648918e-01,-4.439910776614025001e-01,-4.434113876400259113e-01,-3.853446298790697867e-03,-3.552857794584239528e-03,1.011304792027873170e-03,1.022568121552467346e-01
-4.083952110175280148e-01,-3.984516884888940069e-01,-4.360893332705626513e-01,-1.425160828992338632e-02,-2.245123655661303806e-03,2.028531833688506335e-03,4.216641560196876526e-02
-4.267523544443837524e-01,-4.109372081748348116e-01,-3.996001548043632834e-01,-4.499659982092641189e-03,-2.180844476247049100e-03,2.427893276432197857e-03,2.550760470330715179e-02
-3.972485708110575775e-01,-4.031206605507842156e-01,-4.359484197923695348e-01,-3.983358831932235986e-03,-1.655043124940424899e-04,-1.170779868026297372e-03,3.683349862694740295e-02
-4.655353552535929640e-01,-4.643942595547033148e-01,-3.477291983465908842e-01,-3.152960562516016196e-02,6.264044090147874444e-02,-5.562827096494839946e-02,1.943772137165069580e-01
-4.317464343820872630e-01,-4.325918750468048524e-01,-3.724853608881882328e-01,-5.002152722686024032e-03,-4.998672655371684884e-03,3.937812779020838892e-03,6.131260097026824951e-02
-3.592082526626715899e-01,-3.733006141605657024e-01,-4.441256627362741294e-01,-6.110215191405158480e-02,4.883644061856304286e-03,-4.855176989588622094e-03,1.324974000453948975e-01
-4.026168203822973468e-01,-4.462452683940490994e-01,-3.813002976661946652e-01,-2.412834023854172529e-03,-3.329525644796740846e-02,1.796404338489410862e-02,8.717310428619384766e-02
-4.008862629245734666e-01,-3.364068201698091620e-01,-4.433112147458621033e-01,-6.060688703935961097e-02,-1.032439238666384498e-02,1.670839193751100238e-02,1.444641351699829102e-01
-3.981222892938295344e-01,-3.971771248615642014e-01,-4.326899864811933893e-01,-6.447830090148766805e-03,2.183137565365091473e-03,-4.350734563093698604e-04,3.698757663369178772e-02
-4.129020197424165817e-01,-4.217973125609369989e-01,-4.028140962874155462e-01,3.139734495431882079e-03,2.204738009267744915e-03,1.906120052608168986e-03,1.804671064019203186e-02
-4.067062865686695283e-01,-3.911520989751468003e-01,-4.268954035106931610e-01,-5.262282861019741687e-03,5.468676352940717023e-03,-3.693757774198317637e-03,3.431157395243644714e-02
-4.317864206682676675e-01,-4.391268049824691988e-01,-3.591860085136257541e-01,2.681488111755846865e-03,-4.457645145323686775e-03,-1.915615050273811659e-03,7.713499665260314941e-02
-4.015899901354783030e-01,-4.041716659871270600e-01,-4.366981510156656143e-01,-6.243388289477055063e-03,9.080694806916375997e-04,-1.189275763577521579e-03,3.566884621977806091e-02
-4.243800307389445914e-01,-4.069782011598762628e-01,-4.037481335759088852e-01,2.637752582404328042e-03,-1.957171498947552282e-03,-4.612452582297190892e-03,2.157904207706451416e-02
-4.224197249508088170e-01,-4.268123401897913616e-01,-3.670469690044347311e-01,2.175102105345482623e-02,-3.474819773848338011e-02,-4.077160986392351638e-02,1.155736744403839111e-01
-4.232157791827557136e-01,-4.340734528736417408e-01,-3.598166101249522519e-01,6.647842636788928172e-03,-1.837043181080896814e-02,-1.628092534323041796e-02,8.225519210100173950e-02
-4.169777631972781951e-01,-4.079800950743370236e-01,-4.090741486048898312e-01,3.088608607124026899e-03,-2.863675690044928737e-03,-2.437298363125028379e-03,1.197300106287002563e-02
-4.340904820781348872e-01,-4.015066986148330686e-01,-3.999601064075434254e-01,1.019841310518856134e-03,-2.188385265278072235e-03,-3.705558278098455144e-03,3.425156325101852417e-02
-4.315455422046255984e-01,-3.960175231398585516e-01,-4.014911786891501855e-01,1.021462932962820171e-03,-1.688503822282663887e-03,-4.323096488305934113e-03,3.413918241858482361e-02
-2.127812291220649854e-01,-4.578153984711185176e-01,-4.576699888059544419e-01,5.350433523702322058e-02,6.135045995789937395e-02,1.883204253436613490e-02,2.845168709754943848e-01
-4.204138334926015297e-01,-4.201530029183227488e-01,-3.931479845473327961e-01,5.629180402604828937e-03,-3.320394569175700878e-03,-2.979022774350807441e-03,2.985204569995403290e-02
-3.199254245707430777e-01,-4.486731367635985457e-01,-4.789259541045105539e-01,3.649515018221682894e-02,-9.811807767927852031e-03,-1.362066489541332789e-02,1.619483232498168945e-01
-4.147844785946220858e-01,-4.877330663562395308e-01,-2.837354531241484401e-01,-3.507420859225828663e-02,-1.285398517629496584e-01,7.127415836649825254e-02,3.171013891696929932e-01
-4.215251000571279549e-01,-4.134930257705092815e-01,-4.033086947525599264e-01,3.499406020689208637e-03,-1.382744141861863389e-03,-1.696652106887288833e-03,1.735354401171207428e-02
-4.650550325158694376e-01,-4.255009786572139796e-01,-3.610223505620166473e-01,-1.097361396102236597e-02,2.185991674825789668e-02,-4.356213611206793263e-02,1.255396902561187744e-01
-2.800176674607853800e-01,-4.014389937290876453e-01,-4.635297286604942446e-01,1.065200105095703148e-01,4.875633873813638858e-02,3.024980386048327016e-02,2.646767199039459229e-01
-2.690812833796486503e-01,-3.748747519808993678e-01,-4.543943320972115285e-01,1.279393115332202457e-01,-5.370247451516688836e-02,-3.841339581140294779e-02,2.968371808528900146e-01
-3.356609141873451163e-01,-4.315707136052950310e-01,-4.715778249458215110e-01,6.964538708927422994e-02,-1.675996572229998191e-02,9.448744633275080185e-03,1.740640699863433838e-01
-3.572800198724086496e-01,-4.155647297031402343e-01,-4.344109955231930109e-01,-2.248660136271817683e-02,-9.231341720484209298e-03,1.002214826705001560e-02,8.321455866098403931e-02
-4.322105674192020519e-01,-3.998059726136328207e-01,-4.019175674039867641e-01,3.351769156271631371e-04,-2.887437003861354238e-04,-1.141514624912407351e-03,3.147359937429428101e-02
-3.085555172894969278e-01,-4.339821570845359688e-01,-4.420362595453499188e-01,-3.854654793148675623e-02,-1.173298408532026139e-02,4.719079580647871086e-03,1.474592089653015137e-01
-3.375294490725659347e-01,-4.306296988728902098e-01,-4.377058401977165225e-01,-1.373814747292468295e-02,9.204995742207416724e-04,2.863931773263153277e-03,9.984926879405975342e-02
-3.611694933231956450e-01,-4.321846702269149243e-01,-4.409273152634129445e-01,-5.420435911756328780e-03,-5.306111329857660791e-03,1.620685476449138136e-03,7.694762945175170898e-02
-4.272042214665943693e-01,-3.973896466632062530e-01,-4.027051698423970705e-01,1.681583089485931418e-03,-2.582749111506217089e-03,-3.918637797314881641e-03,2.886599488556385040e-02
-3.844747702002147549e-01,-4.212873492800939257e-01,-4.385350751399879066e-01,-5.382128023214412076e-03,-1.271053751022164710e-02,4.578709891797044448e-03,5.405601114034652710e-02
-3.559881151610225225e-01,-4.049647991873361330e-01,-4.346421324027119892e-01,-2.560114652537245558e-02,-4.686288648563542540e-03,4.427799667820723692e-03,8.260697871446609497e-02
-3.726562762195121392e-01,-4.343971629827033665e-01,-4.404180726518084898e-01,-4.830513972020847313e-03,-3.075549774838841864e-03,4.291714181436799905e-03,6.613289564847946167e-02
-4.301183291629138705e-01,-4.201995805084657865e-01,-3.964020764754151993e-01,1.046927106441725153e-02,-4.141385881520835525e-03,-1.069063690949729507e-02,4.029743745923042297e-02
-6.116649500801696338e-01,-5.318767636457748527e-01,-2.711274516218700747e-01,-3.438046692316966413e-02,9.377260018800609442e-02,-1.913070766798745381e-01,4.846464991569519043e-01
-4.151933001848041038e-01,-4.102154750792801896e-01,-4.097755584848479238e-01,2.990275019756315645e-03,-2.591152880460427434e-03,-3.563033146097365714e-03,1.059316564351320267e-02
-3.960819958231719951e-01,-4.116306908432849632e-01,-4.186530475939172491e-01,-3.870306639113728960e-03,2.156552398948229868e-03,-5.606180012027377028e-03,2.352534048259258270e-02
-4.081777300348821136e-01,-4.055746545120441082e-01,-4.202307400847279384e-01,-2.510097762572004003e-04,3.123497621919823185e-03,-1.015137543779619797e-03,1.469609420746564865e-02
-4.210632599945733912e-01,-4.037181977168305957e-01,-4.129790371909610180e-01,1.176254922631512481e-03,3.607701062706287695e-03,1.442115977076823203e-03,1.659580878913402557e-02
-3.969969075933806879e-01,-4.109050412838450295e-01,-4.123067118192511593e-01,-4.288178265503610545e-03,3.222892626827035794e-03,-5.056455292556062339e-03,1.944029890000820160e-02
-4.304928239130524359e-01,-3.889173311026234980e-01,-4.185428136201858607e-01,3.239347211654754980e-03,5.191940228625620962e-03,4.705573634536637864e-03,3.941158205270767212e-02
-4.047955680699286685e-01,-4.102683761915527083e-01,-4.147356753422408171e-01,-2.103628009321176391e-03,2.383618810476696714e-03,-3.401723073002091077e-03,1.180647686123847961e-02
-4.052977656088726510e-01,-3.999969615030752879e-01,-4.175591295750856191e-01,-2.686866712177173565e-03,4.465741420541850110e-03,-3.365235801864133961e-03,1.894453540444374084e-02
-4.288058771304715244e-01,-4.169234477568409258e-01,-3.825149778995233785e-01,-4.404723757367936740e-03,-3.375869137768924833e-03,4.731678306845503446e-03,4.351495951414108276e-02
-4.597448709175237513e-01,-4.251749657649708802e-01,-3.061918453854372002e-01,-1.900509494755477785e-02,-5.139748889887933020e-02,6.670110727984258914e-02,2.045020759105682373e-01
-4.078709919596810174e-01,-4.069266102767027382e-01,-4.084185765867700546e-01,-5.086600981913736233e-03,3.870987430315900313e-03,-4.093093671146354542e-03,1.321148127317428589e-02
-4.788316642349629837e-01,-3.695926325148922720e-01,-2.654035020853884874e-01,3.336362069820958398e-02,5.584883233009938636e-02,1.405119299539695499e-01,3.257261812686920166e-01
-4.335119121275966547e-01,-4.091778113780354942e-01,-3.967545682307268007e-01,5.977954629260849757e-03,8.214399500600735177e-03,1.330373952309149392e-02,4.346721991896629333e-02
-4.297427979581108226e-01,-4.074783500890962196e-01,-3.961408321471150407e-01,3.347193497600481262e-03,3.780791453014943843e-04,2.166431578347747210e-03,3.041034005582332611e-02
-3.932974317144901089e-01,-4.129900427552922193e-01,-4.327930859522339802e-01,-8.506079081180464851e-03,4.705833617618714396e-03,-6.094734547893522307e-03,3.955837711691856384e-02
-2.814638446735135413e-01,-6.273048208684951499e-01,-5.220741123301141373e-01,1.892409247664027239e-02,-1.588929315099752715e-01,-9.061161474615418016e-03,4.139419794082641602e-01
-4.669821100629398258e-01,-4.127263464442098018e-01,-4.016677754141145806e-01,4.248571780063752773e-02,4.820733794662011851e-02,8.062253008257214137e-02,1.885547637939453125e-01
-4.386653818443216335e-01,-2.808260521921545072e-01,-4.121777463078702963e-01,7.078952922929068747e-02,4.148901647486442218e-02,1.001803793876748228e-01,2.678430080413818359e-01
-3.943764694656717862e-01,-4.320322095833960541e-01,-4.025527189419475516e-01,-4.998440014581675105e-04,-4.223256100198956656e-03,1.198215997320881566e-03,3.514950349926948547e-02
-3.607870044933034204e-01,-4.397872408279697165e-01,-4.326695537182039808e-01,-4.564038235544149585e-03,-4.542010204950984974e-03,5.670264768293738905e-03,7.713777571916580200e-02
-4.522381003027725055e-01,-3.481188193366496764e-01,-4.251142161613824522e-01,2.767798212395724405e-04,-2.875629769651809938e-03,4.367554450298983398e-02,1.204163953661918640e-01
-5.060485676743426975e-01,-3.831573546672232267e-01,-4.519898279202303470e-01,1.323910901844822970e-02,-2.110357039339574338e-03,7.743146307613918422e-02,1.729373633861541748e-01
-5.089875227700138005e-01,-4.377106272703830681e-01,-3.749828593310351454e-01,1.543720386999352170e-02,2.748333098487951154e-02,8.483889693971588541e-02,1.950898468494415283e-01
-4.101376250921622835e-01,-4.245647272533860095e-01,-3.998004252563176486e-01,4.276736838054422465e-03,-1.898706468374127682e-03,-1.001459974682622923e-03,2.308311685919761658e-02
-4.192629127430961833e-01,-4.118989844431342751e-01,-3.964021575671971553e-01,6.213133189251362869e-03,-2.852394778077011958e-03,-3.793216535810700792e-03,2.432857640087604523e-02
-4.247576970166528354e-01,-4.194207097838431042e-01,-3.888505643807409484e-01,6.796377948690137880e-03,-4.969654341329454716e-03,-3.313744590313633456e-03,3.703751042485237122e-02
-4.219142306414199739e-01,-4.187887351730052443e-01,-3.794364448221166364e-01,8.354180940852393503e-03,-7.940826057433531676e-03,-8.205258952157254079e-03,4.776916280388832092e-02
-4.180765189202140242e-01,-4.261659395946565398e-01,-3.623568819416301268e-01,-1.895207733493657620e-02,5.223469719094639419e-02,-4.169456115084718001e-02,1.345328986644744873e-01
-4.328900306491081373e-01,-4.416585422451142495e-01,-3.800725071717735437e-01,1.637696282734548130e-03,2.720440219336758142e-02,2.973081877590468425e-03,7.472958415746688843e-02
-4.244315313804216672e-01,-4.409812078257286383e-01,-3.803397644305380743e-01,4.783638128448142179e-02,-6.983172238066515103e-02,-7.037050887371990027e-02,1.982374191284179688e-01
-4.345532445394724164e-01,-4.315273151470364055e-01,-3.769902827892466224e-01,5.390837379608521586e-03,-3.706532259422997636e-03,-5.703140861106820170e-03,5.808997526764869690e-02
-4.306257538731274592e-01,-4.043675487373936117e-01,-4.108820708390026888e-01,6.717188780465896576e-03,-5.529088294378214224e-03,-1.055223209265770436e-02,3.349620476365089417e-02
-4.185921903995498683e-01,-4.346261289298272712e-01,-3.738324526255767943e-01,2.298143074702211752e-03,6.533144679407423827e-03,-3.760245877412140181e-04,5.587942898273468018e-02
-4.337624378455129381e-01,-4.340434418100578839e-01,-3.772272894889992512e-01,4.799271695851404194e-03,-4.086263329282063123e-03,-4.907518093631139770e-03,5.834065005183219910e-02
-3.562166730307874674e-01,-4.269145710690122053e-01,-4.179947841704281242e-01,2.411807036721727235e-02,-3.403735114363941328e-02,-1.604216890115191599e-02,1.021756678819656372e-01
-4.312637365928214672e-01,-4.180044407779217597e-01,-3.805610591195381920e-01,-5.482353597094636460e-03,2.339555957478299877e-03,-4.121263559136835800e-03,4.724227264523506165e-02
-4.272838922760898162e-01,-4.022951535406827928e-01,-4.020646375317765697e-01,1.930252203099729015e-03,-6.545130986938274293e-04,-1.259597002780907336e-03,2.544549107551574707e-02
-4.279936644686920255e-01,-4.104400233394661646e-01,-3.984361948916141372e-01,3.978713210504971134e-03,-1.301916486561206657e-03,-3.239380856557987336e-03,2.733110450208187103e-02
-4.415993872835815570e-01,-3.937667665875246303e-01,-3.947642582295091129e-01,1.398769459994388294e-03,-2.397358076063311290e-04,-1.330862818927544024e-02,5.271283164620399475e-02
-4.094684222234176163e-01,-4.286766534214692670e-01,-3.868334596231274847e-01,5.543430179758000384e-03,-5.042162823027209959e-03,-2.544099228068980555e-03,3.878081589937210083e-02
-4.236019986226183254e-01,-4.015193500061254306e-01,-4.017309527417085580e-01,3.700511951959895539e-03,-4.514513742474031421e-03,-4.143117758072516199e-03,2.523361891508102417e-02
-4.332526261214030838e-01,-3.692452029202454300e-01,-4.003800419801848420e-01,6.220192897947785828e-03,-5.239444617802200242e-03,-2.815090801252054936e-02,7.516193389892578125e-02
-4.169984954185545489e-01,-4.045109072040077858e-01,-4.126730630517014276e-01,7.187982927594105571e-04,-3.964927362459539847e-03,-1.631792924099213782e-03,1.331672631204128265e-02
-4.189668258345358165e-01,-4.042902561397210826e-01,-3.972102293523428473e-01,1.495777063710523186e-02,-1.951614038470186885e-02,-1.974501139154548682e-02,5.790405347943305969e-02
-4.331530321518423099e-01,-4.065077825036237380e-01,-4.009224627916367356e-01,4.126228589228256478e-03,-4.627048704122492008e-03,-1.098683662690925697e-02,3.697871044278144836e-02
-4.352874493346881035e-01,-4.128220368621290937e-01,-3.853019009861715638e-01,1.942242752662198466e-03,4.839192071769100943e-04,1.025712192624797167e-02,4.698881879448890686e-02
-4.279454337922864449e-01,-3.901841906447770514e-01,-4.100020085872105868e-01,2.164354601255203889e-03,-6.104582601980988385e-03,-8.415990213972511513e-03,3.753198310732841492e-02
-4.352903684022613739e-01,-4.066526408877031429e-01,-3.916138178254017221e-01,1.549597553621373568e-03,3.202712750396454746e-04,4.012189998568618625e-03,3.915058076381683350e-02
-3.357699413527122090e-01,-4.455854991407880439e-01,-4.637045473665792339e-01,-2.717152244816906786e-02,3.583944422842036490e-03,1.442978800703107693e-03,1.289851367473602295e-01
-4.291810466580288641e-01,-4.015693727438106042e-01,-3.954777049883787532e-01,-2.922203639911475324e-03,-1.658972241321976168e-03,4.585049555055087725e-03,3.262907639145851135e-02
-4.428607770908138952e-01,-3.508155308916069970e-01,-3.353514793558763363e-01,6.103484662730126326e-02,-6.756650954253873298e-02,-1.263842168563384383e-01,2.879674136638641357e-01
-4.411356967085575120e-01,-3.855553091950053024e-01,-4.054602879492659184e-01,4.961887722892221672e-03,1.294133530271915616e-03,1.148916369407919705e-02,5.342236533761024475e-02
-4.239897963408725823e-01,-4.181042207504979125e-01,-4.090137274450349469e-01,2.542719915495491451e-02,-2.320406354032219370e-02,-2.835726981055577620e-02,7.834600657224655151e-02
-4.250238247032720462e-01,-4.231005420253881599e-01,-3.914736900244339401e-01,1.003620261850567998e-02,-1.450054351410227059e-02,-1.169171643503770161e-02,4.906981065869331360e-02
-4.328011315418335281e-01,-4.072237178221660425e-01,-3.913327526544860269e-01,2.213847129709286404e-03,1.241646579347346739e-04,4.087423278881879146e-03,3.712205961346626282e-02
-4.150937563072242820e-01,-4.523104713578952052e-01,-3.982225391955150906e-01,4.388282807580284883e-02,-7.370206539134023516e-02,-5.645124898396534918e-02,1.842035204172134399e-01
-3.858799098317960974e-01,-4.088380647605039941e-01,-4.271482636082840623e-01,9.747208271105450850e-03,-4.528720778156979793e-03,-9.040159312434674355e-03,4.329473525285720825e-02
-4.354928103907007575e-01,-4.188098153462068152e-01,-3.747087439485471405e-01,-1.293720660190617825e-03,6.140652869674976264e-04,4.432720392510481819e-03,5.499149113893508911e-02
-3.851199544530856667e-01,-4.000253775620613017e-01,-4.286421954596818518e-01,9.520584619848913854e-03,-3.556274964689049457e-03,-5.416484181453943073e-03,4.319167137145996094e-02
-4.444624834494603771e-01,-4.410726834804277185e-01,-3.326754220978043186e-01,3.088528328753669576e-04,-9.455850905424425558e-04,-1.924795537533762054e-03,1.101952120661735535e-01
-4.042149385597684774e-01,-4.016100323332997268e-01,-4.339674177994348181e-01,6.157259113117985461e-03,-2.851265777347023953e-03,-2.900617141074942392e-03,3.365803509950637817e-02
-4.130380656956176288e-01,-4.287456032973911979e-01,-3.894026334416753610e-01,6.646690579568637243e-03,-6.218307612754324885e-03,-2.480349802834509558e-03,3.799485042691230774e-02
-4.228974818487309384e-01,-5.043717875284923213e-01,-3.825873204462138522e-01,1.371734869475867494e-03,7.871182839683882326e-02,8.722223813788921969e-04,1.736139357089996338e-01
-4.405913777228417927e-01,-4.311208181954100382e-01,-3.584363274402099231e-01,-6.185673399300698665e-04,-2.612102692778142839e-03,5.746548927050141274e-03,7.862426340579986572e-02
-4.023256931758145138e-01,-4.004044286047555024e-01,-4.243970469058609418e-01,3.716409979026838711e-03,-4.290633599550157211e-03,-1.874002917732989042e-03,2.530691958963871002e-02
-4.228801399564036667e-01,-3.990995098749449133e-01,-4.028080038453638045e-01,7.125972000966163946e-04,4.298409450331846030e-03,3.851066340101890872e-03,2.434184588491916656e-02
-4.038657158108692191e-01,-4.109949124360632866e-01,-4.241707018885823022e-01,8.367353755297499140e-03,-6.629744031321032488e-03,-4.772565736892907251e-03,2.699240855872631073e-02
-4.350645298914055936e-01,-4.197513764177900897e-01,-3.739668652013112271e-01,2.289414498187519915e-03,6.210759825186535797e-05,-6.044198034503298414e-03,5.618854239583015442e-02
-5.902478347081300258e-01,-4.403221114979506967e-01,-4.191045331815130837e-01,-8.178854676704967741e-02,8.473076201614473946e-02,-1.807756598031844408e-01,4.071295857429504395e-01
-4.302070845962219781e-01,-4.252747529210396116e-01,-3.996716196305590274e-01,-1.461490424945234047e-02,2.455920670613495269e-02,-1.083981910064185303e-02,6.007400900125503540e-02
-3.949401907050593130e-01,-4.092887094698033357e-01,-4.313640139763890713e-01,2.765191293267607424e-03,-1.578629712555411173e-03,-3.293335519761660460e-03,3.275515511631965637e-02
-3.319383834030318337e-01,-4.370296804979474370e-01,-4.534985839671595853e-01,3.084274421915389822e-02,-5.704170040534911092e-03,-5.241514971033547042e-03,1.268069446086883545e-01
-2.486175458067206023e-01,-5.377805829904936941e-01,-5.326794278093225365e-01,1.453519968875570667e-01,5.226041545977773428e-02,-4.215843165853072616e-02,3.988399207592010498e-01
-3.214964938599272348e-01,-4.707093165787589184e-01,-4.810859988960845546e-01,3.683161258113295394e-02,-3.058987965912558435e-02,2.599741088687778723e-04,1.754924654960632324e-01
-3.644356536040538330e-01,-4.391953174295238904e-01,-4.224093164640567166e-01,-1.093754752488995761e-04,1.263837276572937415e-02,1.994763034583939970e-03,7.146341353654861450e-02
-4.470811195666044568e-01,-4.824900121990874924e-01,-2.224585153130043680e-01,-2.732986155958315802e-02,-1.010467206826671099e-01,5.495736627821078135e-02,3.187409043312072754e-01
-2.116406729649472629e-01,-4.740403820659326861e-01,-4.892833605338979819e-01,1.049867143055548957e-01,-1.741296771104048485e-03,2.471587271993165753e-03,3.258523643016815186e-01
-4.361600107284880345e-01,-3.933312110211314439e-01,-3.900993613935611615e-01,-1.937879948504049252e-02,4.402318891030640446e-02,-6.978329381222764249e-02,1.534047871828079224e-01
-3.997574115984395826e-01,-4.272307393243131579e-01,-4.040836677100491103e-01,1.540516584205950780e-03,3.088492667755022257e-03,2.587279761411901899e-03,2.665448561310768127e-02
-2.363905325692826354e-01,-4.678721757736672426e-01,-4.967092544263317366e-01,9.481676220765007657e-02,-5.303310262543096260e-02,-5.322834178598041810e-02,3.240347802639007568e-01
-4.654924425934611198e-01,-2.888156787759079136e-01,-3.282829751384458428e-01,3.073407328254247964e-02,-3.483739423058859058e-02,-1.498018053524456383e-01,3.155880570411682129e-01
-4.284488016654412479e-01,-3.376519682802190392e-01,-3.517875556041557550e-01,7.636052064311885101e-02,-8.543672556678927332e-02,-1.312267633948963064e-01,3.133893609046936035e-01
-4.464415000530594368e-01,-4.361343085735642222e-01,-3.538816338810353290e-01,-6.444013528821382905e-04,-3.903610360510445130e-04,-6.809043040291840043e-03,8.865848183631896973e-02
-4.106296753023750967e-01,-4.413978699869823830e-01,-3.986816479804953239e-01,-2.874911141861506009e-03,-1.565827067501058406e-02,2.471315261730781983e-03,4.728338122367858887e-02
-4.023752585232781565e-01,-4.334389870387918009e-01,-4.032677038047722262e-01,-2.475108853755188243e-03,-6.178460625153819538e-03,1.848481336975883521e-03,3.288127481937408447e-02
-4.327419931299195666e-01,-4.016755981380173979e-01,-4.003558248152139232e-01,2.675207573557763325e-04,-1.984082128428494261e-04,-1.144031021087758056e-03,3.181387484073638916e-02
-4.280252370736911671e-01,-4.022118574011209202e-01,-4.050609595136054342e-01,-8.939454378661095208e-04,2.207790283978223588e-03,-3.583320944113514012e-04,2.486581169068813324e-02
-4.363696512212578149e-01,-4.073216808250372800e-01,-3.948805200204641430e-01,5.465453233436142052e-04,3.247726483872114618e-04,-2.737304667672782812e-03,3.719742596149444580e-02
-4.319687161386416840e-01,-4.187952773389633232e-01,-3.735563511511020840e-01,7.092782272016093410e-03,-1.285960800342352559e-03,-4.745304442641458745e-03,5.513156577944755554e-02
-4.055080727569741472e-01,-4.241801627465883184e-01,-4.068490340232900349e-01,-3.050467966060583375e-03,-3.321236531222580661e-03,2.682689822731740194e-03,2.019913308322429657e-02
-4.145311129975765563e-01,-4.161896859613079536e-01,-4.030173559501181724e-01,-8.903156789448279929e-03,8.047599089703795505e-03,-9.344404752663374933e-03,2.912829816341400146e-02
-4.028649658155046831e-01,-4.270544962088683727e-01,-4.026234245273103696e-01,-1.001143603393547495e-03,-8.073091635995774396e-05,7.672033633776853025e-04,2.440956234931945801e-02
-3.827302143685946123e-01,-4.344995972569694054e-01,-4.062688642945232464e-01,1.043361808270372101e-03,-7.183563670839848529e-03,-2.209582843851866287e-03,4.677904397249221802e-02
-4.274906811101605864e-01,-3.914479989759474532e-01,-3.935306795449656780e-01,-4.447260655380641872e-03,-3.587525312781311964e-03,1.408991283640475926e-02,4.383913055062294006e-02
-4.341094884459783532e-01,-4.090029014429819032e-01,-3.952274884168754387e-01,-3.162886802099681115e-03,6.881954567200883506e-04,2.854235434422215754e-03,3.495466709136962891e-02
-5.031448736452225345e-01,-4.207065760769342910e-01,-3.309240846972802963e-01,2.520292810508095033e-02,-3.193031087310197608e-02,1.962524175351013644e-01,3.778461515903472900e-01
-4.318319430328558806e-01,-4.102807366214997198e-01,-3.933457442101099821e-01,-9.789584774968065894e-03,-2.481392859278491042e-03,1.163357883366372171e-02,4.275766760110855103e-02
-4.272296779091731556e-01,-4.024246197837087480e-01,-4.050280156910041618e-01,7.043609058797472037e-04,7.885333340969871707e-04,1.792202042902448856e-03,2.388474158942699432e-02
-3.985416489845529098e-01,-4.219962433743124075e-01,-4.011861289751726956e-01,-3.155085053054461353e-02,-2.790103843827057215e-02,2.991530785167985027e-02,9.220430999994277954e-02
-4.122607124980747217e-01,-4.115809633894323971e-01,-3.997171430705359074e-01,6.703125181913516251e-03,2.589752377961011733e-03,3.725184137130337341e-03,1.859633810818195343e-02
-4.545528897860605655e-01,-4.251856823572636168e-01,-3.882999562346822753e-01,8.693448099711585664e-03,1.478795606460318185e-02,3.259727947916175178e-02,8.588799089193344116e-02
-4.241797570460557609e-01,-4.070451712960571067e-01,-3.894858053855814739e-01,-6.878610154444801845e-03,-4.655282813910276152e-03,7.527448746506281221e-03,3.577353805303573608e-02
-4.298826295134544617e-01,-3.974366096677179327e-01,-4.050221630520287053e-01,-1.484774605471909058e-03,-3.123067452264130864e-03,3.250117221986524498e-03,3.052421845495700836e-02
-3.757824708367325517e-01,-4.345100842144233866e-01,-4.177200364742323369e-01,1.528783685934482313e-03,4.016779144327428316e-03,1.098831668899984864e-03,5.295126140117645264e-02
-4.091418048432254873e-01,-3.988913158950878612e-01,-4.288265550159761630e-01,3.099325873764265799e-03,3.967836856863983172e-03,1.306868902549019338e-03,2.784802764654159546e-02
-4.287832234823207855e-01,-3.849607707814010071e-01,-4.094469131917894411e-01,-2.134676995451026144e-03,-4.347002766732303500e-03,5.169318727845985742e-03,3.996825218200683594e-02
-4.417316620886869161e-01,-4.426248022591549036e-01,-3.382387898634063306e-01,4.431151737007887263e-04,2.355786909809686261e-03,2.332503902108424079e-03,1.041036322712898254e-01
-4.299055265543432758e-01,-3.955419167395364255e-01,-4.070541239676097600e-01,-1.460248026093187001e-03,-3.180917960669134639e-03,1.851006816108019797e-03,3.106151893734931946e-02
-4.207811769124362167e-01,-4.027026490445872464e-01,-4.020721505177424215e-01,-6.230453540007137476e-03,-5.416922123737790210e-03,6.334822596178139344e-03,2.575857006013393402e-02
-4.205696606892325162e-01,-3.919783025037749113e-01,-4.104378878755838289e-01,-3.534502450076472315e-03,-7.076029929202610862e-03,4.264913723183477029e-03,2.954140491783618927e-02
-4.077979985197776602e-01,-4.026578553182766917e-01,-4.211656949050600063e-01,2.382715237493178428e-03,8.431787625399233318e-04,1.319989608410155951e-03,1.726905442774295807e-02
-4.194834160788470934e-01,-4.194775553585801675e-01,-3.967363192551468520e-01,6.091964449685263912e-03,2.424419016969968973e-03,2.562301867909629050e-03,2.580625563859939575e-02
-2.976302113477570788e-01,-3.569849947626251851e-01,-4.088382953621198523e-01,1.357098861467453677e-01,7.977139207261799148e-02,6.341549947486302408e-02,3.093477189540863037e-01
-4.246546787235578324e-01,-4.024214589102222961e-01,-4.014805091522115066e-01,-4.730053791730722337e-03,1.999945687349914333e-03,-2.667049647036965569e-03,2.483104541897773743e-02
-4.328095218672710631e-01,-4.038911752713295611e-01,-3.985588674373859441e-01,-2.897642517534265629e-03,1.126123605529623980e-03,-3.230022822856067934e-03,3.285115584731101990e-02
-4.326999812627035369e-01,-3.952872554944838468e-01,-4.076252999414842759e-01,-1.391784290291564301e-03,3.395596384891366032e-03,-2.485362159383949689e-03,3.390091285109519958e-02
-4.429884588516436739e-01,-4.491597746424571547e-01,-3.451406616340167988e-01,-2.030493082198224324e-03,4.879680291554652771e-03,-1.404624775045760360e-03,1.015177220106124878e-01
-4.331839385495397932e-01,-4.768793309816222736e-01,-3.614784313773303781e-01,2.343512540116811371e-02,5.469322410842703680e-02,5.030983619497304132e-02,1.685202270746231079e-01
-4.308154530519444081e-01,-4.024268126454105809e-01,-3.980416290564604553e-01,-1.710758630219928701e-03,1.251733285642242163e-03,-3.113396481076471239e-03,3.149911761283874512e-02
-3.212022360074467398e-01,-3.864329429321876064e-01,-4.246560951612013968e-01,1.137223352194624282e-01,-7.934941209219190106e-02,-6.999828571750735251e-02,2.838942706584930420e-01
-4.356266218931709733e-01,-4.550593046352072735e-01,-1.493364692259199489e-01,1.072635810483200426e-02,-7.955223858164467421e-02,-3.969811338031361408e-02,3.346068263053894043e-01
-4.317516107924215252e-01,-3.957218846270648127e-01,-3.998503658597390986e-01,-6.447150164590081164e-04,1.270129565199360237e-03,-4.146862644677347387e-03,3.498733416199684143e-02
-4.117875131334807204e-01,-4.088133780591973188e-01,-4.100327897390340648e-01,1.234833601598933498e-03,2.427631693833648061e-03,1.047647448464505623e-03,5.679178982973098755e-03
-5.016688111811842266e-01,-4.782897344549080221e-01,-4.075073613383967119e-01,-1.105034598758730113e-01,1.393536317155307236e-01,-1.527135769364325046e-01,4.148098528385162354e-01
-4.272514786823675692e-01,-4.016393209194800695e-01,-4.019567338096117770e-01,-8.929578698593329967e-04,8.593665581827025042e-04,-3.579763966935426821e-04,2.555280551314353943e-02
-4.349224827226885748e-01,-4.076516188091645621e-01,-3.928244208782631919e-01,7.508352419531219698e-04,-1.089248947884297655e-03,-2.489302625011857034e-03,3.730598837137222290e-02
-4.303632939531740753e-01,-3.815278562370941207e-01,-4.033983385385541687e-01,1.872042612934567444e-03,-3.310254258067219825e-03,-9.058858676654034381e-03,4.565894231200218201e-02
-4.335426044089570885e-01,-4.000799429293249165e-01,-4.019554021132703547e-01,1.010882109915295780e-04,-3.793076670929479985e-04,-1.047321131078764959e-03,3.262303024530410767e-02
-4.777560046283895745e-01,-4.416808147618895286e-01,-1.995454190969272457e-01,-2.522580822879314129e-03,1.070904171129820684e-02,-6.549625177736734249e-02,2.861790955066680908e-01
-4.407502755076491141e-01,-4.331804165799663653e-01,-3.458252444628505118e-01,-2.349141821395226912e-03,1.221175957755455364e-03,-4.667052892485139270e-03,9.184698760509490967e-02
-4.304248459776678359e-01,-4.410175908957280067e-01,-3.401361386975534362e-01,-3.582739153586763248e-04,4.630096428662605623e-03,-6.765529239874285526e-03,9.707047790288925171e-02
-4.177489068730877442e-01,-4.500766309030321821e-01,-2.528250930813484287e-01,3.536428028265004020e-02,-1.037782794815088755e-01,-7.589968398047267084e-02,2.948229014873504639e-01
-4.311583081766512393e-01,-4.033314162255834390e-01,-4.006792685417064348e-01,-1.772687688760226374e-03,4.087113508401322526e-04,-1.017626191047330724e-03,2.946533448994159698e-02
-4.357259605096664434e-01,-4.075879008384609703e-01,-3.947591151856298386e-01,-2.448673964222685372e-03,9.782635723412549510e-04,-2.223361154960869744e-03,3.678306937217712402e-02
-4.399874666256390898e-01,-4.201129016045742071e-01,-3.752326474780405818e-01,-1.246447684395570951e-03,5.668908188828094500e-04,-5.589656332947310485e-03,5.831439793109893799e-02
-4.315623645332359315e-01,-4.013236558822768085e-01,-3.989058736662308702e-01,-6.661776170974851468e-05,5.369046968685109705e-04,-1.062332115997107135e-03,3.158479928970336914e-02
-4.228394535684993905e-01,-3.948229649188772505e-01,-4.232181558049848413e-01,1.569699738425431312e-02,9.742238146577640936e-03,1.548765283818818832e-02,5.039047449827194214e-02
-4.444464362056277928e-01,-3.844536363435588355e-01,-4.562079082340440572e-01,1.634171855815478858e-01,3.941825787273577769e-02,8.510848682893176753e-02,3.330921232700347900e-01
-4.321807351136515152e-01,-4.065733639347993145e-01,-3.940924041582632431e-01,-8.660509013282414710e-04,1.086120243585267722e-03,-2.207748414734325704e-03,3.393417224287986755e-02
-4.356068575620382632e-01,-4.044393998272277080e-01,-4.018803015210360430e-01,-1.562377374123721796e-03,1.133891626131078344e-03,-5.524848559609872936e-03,3.406570106744766235e-02
-4.206902254898022830e-01,-3.647549231092637734e-01,-4.278704099403447536e-01,4.174274064039889404e-02,2.281850683941449506e-02,6.107181211991365155e-02,1.468354910612106323e-01
-4.297611997073124135e-01,-4.099507060833325056e-01,-3.958670423493259594e-01,-5.097538443753628877e-03,1.668379273303936339e-03,-2.406334539545014126e-03,3.120073862373828888e-02
-3.683074641669046856e-01,-4.355200873408395790e-01,-3.997619170153812185e-01,-5.738209640630758702e-03,-2.976355429522644855e-02,6.650130648357654647e-03,7.925808429718017578e-02
-4.405033751032715883e-01,-3.960798300264160576e-01,-4.100886119655781648e-01,2.057416102388861503e-04,2.227098593995579558e-03,1.638647180283937799e-02,4.866142198443412781e-02
-4.113335587602499621e-01,-4.080066703911580661e-01,-4.056902582332579388e-01,4.447503652219350796e-03,2.755473252270778956e-03,2.970161474914095271e-03,1.152062229812145233e-02
-4.096511996207897743e-01,-4.104220135735779373e-01,-4.107529943095163394e-01,2.312173120369805102e-03,2.181828108040365956e-03,2.577781829189985247e-03,7.156344130635261536e-03
-3.446973760665544284e-01,-3.459992638289823286e-01,-4.144221838328951413e-01,1.197429329582990754e-01,7.867168295458898397e-02,6.503418926031975800e-02,2.811469733715057373e-01
-3.954618086638106988e-01,-4.015289352470857165e-01,-4.323708161219375623e-01,-4.932916362637196177e-03,6.976311362050327015e-04,-1.368962912472735218e-03,3.542931750416755676e-02
-4.127502795269845093e-01,-3.872903412600957607e-01,-4.406483267709324636e-01,-1.687143037888190478e-02,-2.066123522285793178e-03,1.750605115338719825e-03,5.488832294940948486e-02
-3.915589882875402661e-01,-4.064655710245629328e-01,-4.463983767750166476e-01,-3.264658410670923105e-02,-1.601520115845632072e-02,2.808211930431373134e-03,8.001632988452911377e-02
-4.206290207177771356e-01,-4.096372936873053927e-01,-4.069677959399054523e-01,5.610224301531431361e-04,1.174121855523545428e-03,7.469717374835352060e-04,1.280782930552959442e-02
-4.095924056450803152e-01,-3.826043395968850569e-01,-4.377470756457543799e-01,-9.168886307781620726e-03,-1.136190441569880517e-03,-2.028372324039843209e-03,5.049061775207519531e-02
-4.343919226125032007e-01,-4.450959456340037312e-01,-3.615293250843319428e-01,-9.056509412676932687e-04,5.731503343719078145e-03,-8.663404718094184142e-04,7.941485941410064697e-02
-4.089399258613119481e-01,-3.820259791739227251e-01,-4.338464123101677949e-01,-6.339208486366487705e-03,6.027643861781909786e-04,5.370262279894516902e-05,4.622424393892288208e-02
-4.004504264085458343e-01,-4.242872807749576980e-01,-4.066074532423029075e-01,2.730082107335659453e-03,2.833040251484567323e-03,3.990263323848344812e-03,2.352754585444927216e-02
-4.415059872818844489e-01,-4.434814183004420207e-01,-3.552001338312107404e-01,-9.754093749748928227e-04,4.457634375117923951e-03,-3.388576558039982627e-03,8.786357194185256958e-02
-4.018945060883312714e-01,-4.015343153334761661e-01,-4.337755171981347857e-01,-7.435802795320712102e-03,1.129883610390449838e-04,4.310145193465546028e-04,3.456126525998115540e-02
-4.093635028305968038e-01,-4.191379137424877666e-01,-4.018990535184582269e-01,5.288243516319749739e-03,2.779690744169646070e-03,2.282162259202727330e-03,1.862576417624950409e-02
-3.894874398746106525e-01,-4.099985651683183963e-01,-4.354778582265962927e-01,-1.763138567962060227e-02,-1.558526544826555364e-03,-1.163688295965611573e-03,5.036324635148048401e-02
-5.693298805752180503e-01,-2.948395788036109466e-01,-4.189009180428395762e-01,-5.821368653802692916e-03,6.067077405446649752e-02,1.550587331650176703e-01,3.741077780723571777e-01
-4.202375896506183595e-01,-4.200563901404779088e-01,-3.969303535158088536e-01,5.631544307280487126e-03,2.322708245513789571e-03,2.493468916739299476e-03,2.586535923182964325e-02
-4.044758401294025751e-01,-4.055117264070318694e-01,-4.328356395272784374e-01,-5.573147792570141111e-03,3.747317582498395881e-03,-3.407458205534951400e-03,3.075895272195339203e-02
-4.052887094711336013e-01,-4.093401320122936338e-01,-4.217161613309506341e-01,1.032048692644420371e-03,1.264038140110597050e-03,2.655183275979798672e-03,1.577527821063995361e-02
-4.817803420639065193e-01,-3.385209590834827864e-01,-5.993296702507198148e-01,1.917095808050731931e-01,4.681251559638033299e-02,4.899316187197368111e-02,4.185857772827148438e-01
-4.085845276450343344e-01,-4.286391958566090343e-01,-3.932067989690736232e-01,3.945677875803686382e-03,-3.318728987105580824e-03,-1.143366792906844176e-03,3.210495784878730774e-02
-4.128377358268835451e-01,-3.959029679153588943e-01,-4.424935346384407109e-01,-1.495175138562164496e-02,-4.047341849022908708e-03,4.694460510606079245e-03,4.954178258776664734e-02
-3.841418400833305768e-01,-4.045013103872857063e-01,-4.309826685839353022e-01,-7.919118268353749976e-03,-1.792601827004153530e-03,3.993389306756744972e-03,4.359513521194458008e-02
-4.248684351528574932e-01,-4.198812507650067638e-01,-4.323174696440290066e-01,7.389927053770649346e-02,6.388236385516023186e-02,6.959771812032880534e-02,2.080269455909729004e-01
-4.426379083384709423e-01,-4.430759373459978168e-01,-3.473685404754935369e-01,2.642336574582072363e-04,1.112293026262001130e-03,-4.515578792058360866e-03,9.582936763763427734e-02
-4.186217112272754282e-01,-4.308921002306933534e-01,-3.777977466459965794e-01,4.706671897070983414e-03,4.160302130077443879e-03,2.206653758019739252e-03,4.950833320617675781e-02
-4.025046643469880614e-01,-4.023450008807273881e-01,-4.339261034121145721e-01,-8.004059853667411933e-03,1.320788995530848770e-03,-2.302935484588820771e-03,3.472302109003067017e-02
-4.022760332259233684e-01,-3.971390908370087680e-01,-4.304846925301180072e-01,-4.267998920390295506e-03,2.514138630361311723e-03,-1.051279208910265838e-03,3.231019154191017151e-02
-4.029272406969428566e-01,-4.022950583625285459e-01,-4.313777498752872086e-01,-7.275875859569686487e-03,2.587017199618137607e-03,-2.086359432188008775e-03,3.193381801247596741e-02
-3.993088162660200502e-01,-4.024276134191346888e-01,-4.316020706528596595e-01,-1.547212550029110865e-03,-1.909169048694696092e-05,-5.221812857619889756e-04,3.098170086741447449e-02
-3.835491799193840312e-01,-4.094712520326052596e-01,-4.344072687435240887e-01,-6.369537680939564919e-03,1.530238586943988158e-03,-2.387655848703851367e-03,4.567266628146171570e-02
-3.835976132260013882e-01,-4.185313903994900553e-01,-4.317573161036750706e-01,-3.937229264073328731e-03,1.865610976634860625e-03,-4.837789252477167103e-03,4.454755783081054688e-02
-3.918565882532210054e-01,-4.285997567310267931e-01,-4.108112706945929449e-01,1.829984150985722400e-03,6.565637745931674103e-03,5.586456278142581944e-03,3.529702872037887573e-02
-4.195217053383802908e-01,-4.414107495973423889e-01,-3.800803959153606915e-01,-1.298076630550023224e-03,5.717662580968753232e-03,-1.535528240613465113e-03,5.484781786799430847e-02
-4.029114540195722904e-01,-4.328784168918839992e-01,-3.997414172747238426e-01,-1.036716479687671338e-03,1.136827268976388448e-03,-3.791908233154609527e-04,3.178989142179489136e-02
-3.994210457906748335e-01,-4.017440179696326052e-01,-4.330297714704854362e-01,-1.424083623023425851e-03,1.839436125079880113e-04,-2.632304167903466870e-04,3.260772675275802612e-02
-4.318310318967813477e-01,-4.317608906448076600e-01,-3.608048728574324571e-01,-4.006380582599682397e-03,4.641418398653517768e-03,-4.655598989820393559e-03,7.223256677389144897e-02
-4.186035999728004442e-01,-4.016666429547894879e-01,-4.129910027392983407e-01,5.972392919466782205e-03,-4.855854949533012707e-03,-6.274814598834849849e-03,2.278525382280349731e-02
-4.399199473547709127e-01,-3.358950340078752927e-01,-4.382081731481330400e-01,1.215413502013135139e-02,-4.158011737482304043e-03,-2.103946912552183413e-02,1.116649433970451355e-01
-4.027105972177058013e-01,-4.133548989542580321e-01,-4.212509196842338377e-01,-1.603294229638358576e-03,1.457623253466753133e-03,-3.540649228515577868e-03,1.764625124633312225e-02
-4.587928761544310952e-01,-2.941216117769629990e-01,-4.067968719204765327e-01,-4.010290429970826687e-02,3.560924220065112000e-02,-1.050419919779235767e-01,2.509745061397552490e-01
-4.284843299304491593e-01,-4.059050094660295871e-01,-4.019465822660004406e-01,-2.318081724632363276e-03,1.079537874211207969e-03,-3.777384691825831056e-04,2.519758418202400208e-02
-3.277236835424995332e-01,-4.989473676209666975e-01,-4.572755525010364086e-01,-1.591745944617137254e-01,8.405040379124913141e-02,-5.503954545109717572e-02,3.608462512493133545e-01
-4.624158086977271376e-01,-2.483780985525790852e-01,-4.996897846375732422e-01,-6.679735886554317992e-02,-3.579994549670445850e-03,-1.941627050909243424e-02,2.640731334686279297e-01
-4.137369629684135020e-01,-4.086345663500052239e-01,-4.103743148420153641e-01,-1.371010041745172620e-03,2.866973748300125947e-03,-9.191803604168786524e-04,7.281248923391103745e-03
-4.188563515027016737e-01,-4.199817618622966320e-01,-3.962985435160565340e-01,-6.015405877745094200e-03,2.798075261272708024e-03,-1.885195527533819896e-03,2.604252099990844727e-02
-4.326904274238884129e-01,-4.073362601847366760e-01,-3.943434634269967765e-01,1.816551516663121590e-03,3.250359929443825263e-04,-2.734704885364525311e-03,3.425960242748260498e-02
-4.274725365444591030e-01,-4.063759593309131946e-01,-3.950094588809381912e-01,-3.058804224632051278e-03,1.768708211058455347e-03,-2.199763726720257734e-03,2.942835167050361633e-02
-4.497794444724074747e-01,-3.662362810595783946e-01,-4.853024701499547011e-01,-1.736061578142214512e-01,3.794953596120937550e-02,-8.161392248410287431e-02,3.548652529716491699e-01
-4.158154000205331324e-01,-4.046417541222299685e-01,-4.099743966039283150e-01,-2.168404636135549263e-03,3.864175653418362461e-03,-2.016274842300243200e-03,1.283744443207979202e-02
-4.200067302950806769e-01,-4.122862706102007890e-01,-4.009913514040671645e-01,-4.919221056684329636e-03,1.380788237352661811e-03,-4.526138957565437396e-04,1.879662647843360901e-02
-4.416514411070545099e-01,-3.756150288769641854e-01,-4.289712438221113810e-01,-5.089046827490744176e-03,4.011799253541224394e-03,-2.500983562558178191e-02,7.541017979383468628e-02
-4.077754898693259356e-01,-4.088828325961583188e-01,-4.143760651985811116e-01,3.465232282521208199e-04,8.164564185297170859e-04,-4.787258883106487750e-04,6.366496440023183823e-03
-4.924101789395267659e-01,-3.455776181245971967e-01,-4.419819805514275113e-01,4.040892149125907551e-02,-3.278953355057249303e-02,-5.078640466910968460e-02,1.804444044828414917e-01
-5.044043338185399961e-01,-3.094719032510797052e-01,-4.913779631938598458e-01,-7.156380822153303282e-03,3.977498137327974831e-04,-3.058886194608928175e-02,1.964439600706100464e-01
-4.068242292634011714e-01,-4.098180288568766816e-01,-4.136410819361275304e-01,1.839054268539055265e-03,1.398128255389175520e-03,2.390772570202718585e-03,8.257242850959300995e-03
-4.192004816601064832e-01,-4.089713231046597230e-01,-4.013435848158013464e-01,5.351407168925800296e-03,2.005893717907910982e-03,2.326417421867447120e-03,1.884313113987445831e-02
-4.150428874604507601e-01,-4.145576171981658065e-01,-4.078311689548151930e-01,1.984693295535308512e-03,6.238267930917451229e-04,8.345819991978959025e-04,7.988668046891689301e-03
-4.197773424487560856e-01,-4.118678226442727408e-01,-4.018567180472879530e-01,4.148515866790093015e-03,2.009935034174192142e-03,2.391447983616767133e-03,1.796866394579410553e-02
-4.998973043598908816e-01,-5.625391492738094357e-01,-3.668647352171717779e-01,-8.137749238913052907e-02,1.654443869941689127e-01,-1.372293908787111660e-01,4.340889453887939453e-01
-4.058298928758104496e-01,-4.085217106184078628e-01,-4.194277569612996359e-01,2.163019462404090678e-03,2.598698235431288160e-03,3.194164293424592554e-03,1.484750956296920776e-02
-3.969042645974411032e-01,-4.130960534003413898e-01,-4.191032665010539504e-01,5.750432123996874166e-03,1.847092500188841999e-03,7.109568680237548718e-03,2.562428079545497894e-02
-3.745914752311398921e-01,-4.326044880544007709e-01,-4.216406018626367436e-01,-1.131150149907347510e-02,2.397165071299672129e-02,-7.463724067547046655e-03,7.158603519201278687e-02
-3.715221380384626237e-01,-4.510318930289990424e-01,-4.454254623660980350e-01,-4.922637058842682656e-02,5.283005646876604705e-02,-2.823662627022894417e-02,1.547324806451797485e-01
-3.907437199991402044e-01,-4.384724447244484069e-01,-4.337438147789869358e-01,-7.332852346299781332e-02,8.103842746584716261e-02,-4.045123314667568165e-02,2.069214880466461182e-01
-3.484810863286370575e-01,-4.233654414668753252e-01,-4.424429992587345928e-01,-1.148105989037376262e-01,8.800558182123223439e-02,-7.387494393157276185e-02,2.941974103450775146e-01
-4.073680588111686651e-01,-4.244912031069845715e-01,-4.082771808539494840e-01,3.073598358595368545e-03,4.719104357606916308e-03,3.609076697617493844e-03,2.031474187970161438e-02
-4.098459891512835629e-01,-5.172643792983593336e-01,-3.832375334674000267e-01,-3.883963861474688806e-02,1.763788943494323802e-01,-1.100861973402395416e-01,3.864142298698425293e-01
-3.990447596093040228e-01,-4.329889349593409875e-01,-4.010605372638868515e-01,2.918530431287691233e-03,6.710972770279197142e-03,-6.637592769636465554e-04,3.535297885537147522e-02
-4.056848902575649896e-01,-4.204971531092740467e-01,-4.053672366967197016e-01,1.048318649034767243e-03,3.570668281589449715e-04,8.426396840831736328e-04,1.516636833548545837e-02
-3.541649837647701804e-01,-4.316125163140400178e-01,-3.529557741539512405e-01,-8.351619606422804043e-02,1.492705400059002874e-01,-7.367640209022528752e-02,3.318852484226226807e-01
-3.605990266228545349e-01,-4.334659040146958686e-01,-4.366715312272994587e-01,-5.102250405757031287e-03,5.581815503232189814e-03,-5.263198487415533464e-03,7.621099054813385010e-02
-3.961841752543684980e-01,-4.322720640645260626e-01,-4.134416522265936811e-01,4.608543811239879627e-03,1.419737044745781468e-02,2.503576704820181797e-03,4.079933837056159973e-02
-4.444003046030248760e-01,-4.360217274931691978e-01,-3.468792970159521594e-01,5.483900245442666077e-03,2.183061036308638850e-03,1.302667874654373815e-02,9.683521836996078491e-02
-4.070492542916076539e-01,-3.952808005964548732e-01,-4.370820717691327739e-01,2.696788900624020116e-03,1.600725929362637086e-03,-8.028052515301715509e-04,3.775374218821525574e-02
-4.122706617521257333e-01,-4.192065532284498519e-01,-4.055712184014593213e-01,-4.586581206998854854e-03,1.371018861665343133e-03,-1.601192873485890152e-03,1.469341572374105453e-02
-4.768479522049450248e-01,-3.668128894596995315e-01,-4.519848228738302942e-01,3.632429212443800959e-02,2.555573224998989104e-02,6.758121744992753865e-02,1.720737814903259277e-01
-4.181303029850142461e-01,-4.291215846159314173e-01,-3.834628275875027748e-01,-4.436835673486093368e-03,3.499953489148869071e-03,-3.175696999360366583e-03,4.277549311518669128e-02
-4.049913938771759203e-01,-4.168074897120586653e-01,-4.070940384102981202e-01,-1.288744568594144295e-03,1.718350011802666699e-03,-3.074139361240295961e-03,1.270385552197694778e-02
-4.158234891421208057e-01,-4.100117078849606633e-01,-4.048870734964510887e-01,-3.000557885359698366e-03,1.589352256979344310e-03,-1.853081223522846628e-03,1.160654239356517792e-02
-4.152984997818322532e-01,-4.119292484419149192e-01,-4.033805017761304956e-01,-3.793631006033222532e-03,5.709686537756573487e-04,-1.576303116414263898e-03,1.283911708742380142e-02
-3.985389826957105863e-01,-4.102694975977695946e-01,-4.168853830727933252e-01,4.190925846104132796e-03,-2.453303180539598456e-03,-4.949814666026463444e-03,2.008064649999141693e-02
-4.066805584223795456e-01,-4.102714348778548348e-01,-4.173918982662988553e-01,8.190827641279322096e-04,-1.090368941147889636e-03,-2.738383287807499671e-03,1.082772947847843170e-02
-4.201237455730723047e-01,-4.358117683845367796e-01,-3.793737103701392832e-01,4.258990508463926170e-04,5.751030079243739900e-03,-1.672316165951734856e-03,5.151819065213203430e-02
-4.093782906080709605e-01,-4.060887220508398454e-01,-4.149054987261266980e-01,1.582014320477445439e-03,-2.840818800602691076e-03,-1.163698762707946182e-03,9.763968177139759064e-03
-3.976326658505487943e-01,-4.097868976256449636e-01,-4.186957215042177993e-01,3.461878097864443810e-03,-2.019855504312497666e-03,-5.116599580730179543e-03,2.149661444127559662e-02
-4.102741278751712573e-01,-4.109473116755527067e-01,-4.157824043766823463e-01,2.054946784358499361e-03,-2.650019188951923538e-03,-2.144918208095911161e-03,8.638544008135795593e-03
-4.087126353142361834e-01,-4.072786529120016596e-01,-4.206776189414574429e-01,1.014343409218305524e-03,-8.046105249181405121e-04,-9.496087847473308171e-04,1.304257847368717194e-02
-4.049506745755112602e-01,-4.065911867985185779e-01,-4.198348323884185662e-01,5.827963165623327793e-04,-2.405774136329666153e-03,-9.288189524140082112e-04,1.485873851925134659e-02
-4.242572391581737601e-01,-4.054831503103496493e-01,-4.033866596519647407e-01,-2.012942671905482844e-03,1.081394545912579228e-04,-6.816218323090386232e-04,2.024366892874240875e-02
-4.021815865611769736e-01,-4.008116096150975971e-01,-4.333992163022437061e-01,6.653716153533457273e-03,1.926671824147966261e-03,2.775891291852027737e-03,3.444202989339828491e-02
-4.109479065033627698e-01,-4.097862768705992087e-01,-4.100968541950401058e-01,-3.643464364520800818e-04,6.151137220141664761e-04,-3.393427470968542344e-04,1.721588196232914925e-03
-4.155906444814930767e-01,-4.229867687500800666e-01,-3.933543715614787883e-01,6.646273603672816013e-03,-1.097581238252251512e-02,-9.202866229916726801e-03,3.823112696409225464e-02
-3.128104515968020416e-01,-4.280249164523695637e-01,-4.484002493778089238e-01,5.339799699419218310e-02,3.113097184938800124e-02,2.095229618553419437e-02,1.697513014078140259e-01
-3.904411063025897133e-01,-4.515459006033548661e-01,-4.749855121278306891e-01,5.313834395320073123e-02,6.119537143072087404e-02,3.740924728970045077e-02,1.721031963825225830e-01
-4.025157047307008629e-01,-4.517663567244243894e-01,-4.513594661797848406e-01,5.815665508760536201e-02,5.591947545654985668e-02,3.730420831479977495e-02,1.615800708532333374e-01
-4.169205079686102988e-01,-4.066021814819081870e-01,-4.063619286326962121e-01,2.876687801877215837e-03,2.986460660504687212e-03,3.251339804025644466e-03,1.386726554483175278e-02
-3.789519866233768131e-01,-4.183614093979679538e-01,-4.298520243177926248e-01,7.453138192295483133e-03,4.785297521837724929e-03,7.924083824274778809e-03,5.061317607760429382e-02
-4.026818793489422288e-01,-4.288584049815019617e-01,-4.061891596691262762e-01,1.143395223679417611e-03,-7.752803203568263976e-04,-2.213515674077215153e-03,2.502253651618957520e-02
-4.119272139824771695e-01,-4.103769238433064293e-01,-4.093039596773054845e-01,1.316490011130915655e-03,6.752346245417899543e-04,3.562863931624344498e-04,3.487999550998210907e-03
-3.794112564345334948e-01,-4.192101282520634409e-01,-4.345219957981552583e-01,4.604669371843688255e-03,4.219621931040921231e-03,6.013917939751811659e-03,5.151043459773063660e-02
-4.197039293470627430e-01,-3.767960631630358770e-01,-4.197777901865938910e-01,9.240305886189776816e-03,9.660746719363233481e-03,8.928508429397862683e-03,5.118158087134361267e-02
-4.230143656688907239e-01,-5.896294006967718326e-01,-3.697424314742520646e-01,4.851578893911424190e-02,-2.275405289203967785e-01,-7.080702808767459777e-02,4.657259881496429443e-01
-4.052256555549476058e-01,-4.208827721540427391e-01,-4.045741555677987988e-01,2.150033337296692292e-03,7.208129585898992268e-04,8.596920793234492930e-04,1.653524115681648254e-02
-3.687037874496068568e-01,-4.233192265491614870e-01,-4.471313864368637869e-01,2.217975485040003802e-02,7.438227978732043708e-03,2.839568472369496596e-03,8.072405308485031128e-02
-4.081025933324208821e-01,-4.183332770946580070e-01,-4.063705233077519186e-01,1.706412511922126684e-03,4.984452423838917415e-04,4.760272122743108283e-04,1.164250355213880539e-02
-3.717119669238890256e-01,-3.790549977145962757e-01,-4.569830139091775045e-01,5.694440651365280381e-02,2.917035710159456962e-03,1.665349977159366005e-03,1.282995194196701050e-01
-4.225584410729719687e-01,-3.931233161831353407e-01,-4.106912729536794648e-01,-3.054601321198072150e-03,7.466025772012106418e-03,-5.016756459829610840e-03,3.047399967908859253e-02
-4.194968200554146653e-01,-3.940193673580125178e-01,-4.100009151710480304e-01,-3.002654939027593964e-03,6.552256570422273010e-03,-5.014097700053072280e-03,2.699275687336921692e-02
-3.978918105163143926e-01,-3.966952908391928601e-01,-4.311558135421391103e-01,-1.138861497457522610e-02,7.667608927071692219e-03,-6.519945370300823939e-03,4.290377721190452576e-02
-4.158723132365633735e-01,-4.044733309673311794e-01,-4.067023860597191454e-01,-1.462522677485479997e-03,3.222208888306065267e-03,-2.729820753677314124e-03,1.301603205502033234e-02
-4.120478582293963798e-01,-3.953150546016413469e-01,-4.091218313407236074e-01,-4.391493793094372947e-03,6.558547348624874269e-03,-5.381343251857450063e-03,2.265752851963043213e-02
-4.150021364520601330e-01,-4.093430990917003576e-01,-4.124444053115629005e-01,-6.175109645094068248e-03,6.090628741955349430e-03,-8.467999863738088356e-03,2.156146243214607239e-02
-4.079974766924586160e-01,-4.359838070422185075e-01,-3.927910131629677726e-01,-1.510427731624633656e-03,2.984408257953070822e-03,-1.044470249231507861e-03,3.843021392822265625e-02
-4.617938518198909104e-01,-3.298366668274160252e-01,-2.753197627313664353e-01,-1.630313408334042868e-02,2.761051759003485886e-02,-1.531141192801057094e-01,3.177969157695770264e-01
-4.085628769274478045e-01,-4.194832351223230504e-01,-3.915334679062191792e-01,-1.011059573960835720e-02,1.485142939645547368e-02,-1.268067125272159291e-02,4.523259773850440979e-02
-4.285263407595508167e-01,-4.075618391657949147e-01,-3.883118928435149719e-01,5.345305512208757895e-03,2.207968150492869725e-03,5.275695779613240669e-03,3.738284856081008911e-02
-4.282066595891085292e-01,-4.147174831226905223e-01,-4.088536915891468060e-01,-5.684170838181870633e-02,1.141040802526442355e-01,-1.577083906420092274e-01,3.516580760478973389e-01
-4.009777085541795794e-01,-4.145965388427246268e-01,-4.238516824264717542e-01,-1.014571220783710634e-02,5.435302071902617035e-03,-5.521711902090828579e-03,2.976703457534313202e-02
-4.476342992908053930e-01,-4.105968232256589912e-01,-3.979188720499748366e-01,-1.299341120145288721e-02,1.080612564190948366e-02,-3.315602759080642226e-02,7.846549898386001587e-02
-4.166308678556773226e-01,-4.288958072888616746e-01,-4.018961021005668099e-01,4.199268452620192986e-03,9.402839522656785548e-03,7.441579558491457323e-03,3.213309869170188904e-02
-3.568021506539882370e-01,-3.694142465858620272e-01,-4.486135020201792445e-01,6.680359187775868068e-02,-9.380084484792269167e-03,-1.078414282688835817e-02,1.463948935270309448e-01
-4.082531572702756684e-01,-4.323016271213449557e-01,-3.941077739554881276e-01,1.864821555192519792e-03,2.074734113951694388e-03,8.226083263287419780e-04,3.382265195250511169e-02
-4.028548746322385687e-01,-3.613373491515407543e-01,-3.570729888219208448e-01,-7.645919035234093053e-02,7.211267921944274073e-02,-1.097738229580298014e-01,2.668493092060089111e-01
-4.460619778313541506e-01,-4.308440783556620746e-01,-3.699658107668558071e-01,-1.139125820815658878e-02,1.105136114528721888e-02,-3.330847230650182955e-02,9.459508955478668213e-02
-4.493808218411562971e-01,-3.607339002319296384e-01,-4.230657439057072255e-01,-1.596392736113317300e-03,-5.515056512645033146e-03,1.628170202347494974e-02,8.433376252651214600e-02
-4.032235836021164088e-01,-4.311260828632893505e-01,-4.012928268567019785e-01,-2.550655589705400593e-03,6.351376096106396002e-03,-2.180150855423802596e-03,3.147931024432182312e-02
-3.543168826265389870e-01,-4.400995797246936014e-01,-4.454258615235043295e-01,7.346798834411702797e-03,-8.894609322721954564e-03,-7.639081616011399699e-03,9.175118058919906616e-02
-4.235969996128877701e-01,-4.064702396176161914e-01,-4.054118435693740419e-01,-3.681169726764084438e-03,-2.864519644451572235e-03,3.524773851946046404e-03,2.037435956299304962e-02
-4.357883947982401085e-01,-3.938071310040945905e-01,-4.072326230346662301e-01,1.012071988540355497e-03,-8.772401443049462986e-04,1.804001202376315574e-02,4.858764261007308960e-02
-4.314640671746126088e-01,-3.747297121393401431e-01,-4.205596645705906855e-01,-1.570973374378514982e-03,-7.425868819026308111e-03,3.516162701841205572e-03,5.411989986896514893e-02
-4.302193396011687598e-01,-4.030422150356592903e-01,-4.027134660642781028e-01,-3.193050241458054734e-03,-1.916056387314600063e-03,6.515061229489465568e-03,3.027502633631229401e-02
-4.273313371792682447e-01,-4.007895954319780074e-01,-4.051637952748444738e-01,-1.157092313940546492e-03,-2.828717125061034135e-03,2.848146752604597751e-03,2.568766474723815918e-02
-4.102221663542299779e-01,-4.114567868949782770e-01,-4.109066291875133059e-01,-3.233086155245893214e-04,-2.530913757751647756e-04,1.987297333068598700e-04,1.331148785538971424e-03
-4.104833086195108782e-01,-4.114130882839602821e-01,-4.103569059923044549e-01,-3.617375660812441589e-04,-1.523634303938407972e-04,1.602247072561831329e-04,1.239845296368002892e-03
-3.999048309020886705e-01,-4.276407679564337427e-01,-4.046342153738934355e-01,-1.510637313368333240e-03,2.489736502075564489e-03,-3.230191032557153900e-03,2.678096666932106018e-02
-4.118684940038500053e-01,-4.181379820688607696e-01,-3.993130611389148488e-01,-6.077504032874072454e-03,3.732813341136806060e-03,-3.122652640316217216e-03,2.138981595635414124e-02
-4.164158506439207263e-01,-4.080664748213496673e-01,-4.067533872283304874e-01,-1.238077873752222672e-03,-6.074723131315599208e-04,4.448865036641176511e-04,9.418019093573093414e-03
-4.164812297286606402e-01,-4.071831921604499582e-01,-4.077782807317314462e-01,-4.175219879687223109e-04,-1.431253857851160069e-03,5.106449972147824147e-04,9.419404901564121246e-03
-4.163424807573342101e-01,-4.058923475269218817e-01,-4.080118319078366307e-01,-1.679041763326569745e-03,-3.984813142199476396e-03,1.560502179385583714e-03,1.244780514389276505e-02
-4.147696462384719007e-01,-4.067911124179614535e-01,-4.136901927681698732e-01,-1.688838041910748324e-03,-3.329431209641781683e-03,2.480681412639774118e-03,1.079272758215665817e-02
-3.962817569705883725e-01,-4.009808711935989867e-01,-4.300784178514113210e-01,-4.855620391703997091e-03,8.942869752706086254e-04,-2.149692106626451080e-03,3.305261582136154175e-02
-4.104384013156444078e-01,-4.104977101397034867e-01,-4.110232207466569254e-01,-5.842971223158880290e-05,3.892598898542338451e-04,-7.739177802081956812e-05,8.908573072403669357e-04
-4.134628012957286547e-01,-4.101334195593782095e-01,-4.082451514643178903e-01,-2.151837820877208415e-03,1.219646745245313172e-03,-1.047976085598336955e-03,6.525771692395210266e-03
-4.115619952613669419e-01,-4.106648412347909116e-01,-4.117174395950797261e-01,-5.401641659532909184e-04,-1.380213720582573793e-07,5.294816731420700197e-04,1.638563466258347034e-03
-4.134495301700777947e-01,-4.120765375491995952e-01,-4.062099222745968463e-01,-3.201007661991066202e-03,1.818866411048231460e-04,-9.923835325083192344e-04,8.840259164571762085e-03
-4.092447446144909518e-01,-4.053836420493314163e-01,-4.166474231810748385e-01,-2.156443907150864484e-03,-4.241929436851385113e-03,1.558952990041615914e-03,1.317246817052364349e-02
-4.033519339384029068e-01,-4.306643072743032707e-01,-4.062707975160271268e-01,8.605407572511641207e-03,7.865458731298739098e-03,6.416027741741710082e-03,3.472774103283882141e-02
-4.052900020760212274e-01,-4.200185149607030266e-01,-4.133726519502952113e-01,-1.784890281424284832e-03,-2.119748202879127852e-03,4.440692890985371843e-03,1.566555723547935486e-02
-3.794413208703439344e-01,-4.177210168246953126e-01,-4.252124823608214310e-01,-8.824861320580523749e-03,-8.583755469502738975e-03,6.537671400821582629e-03,4.889917001128196716e-02
-4.086830207131190162e-01,-4.089746893833811625e-01,-4.149090161727119752e-01,6.517130720612207594e-05,-8.383431054218902587e-04,5.270532582863583218e-04,6.323505192995071411e-03
-4.540000194538733602e-01,-3.184878464049251123e-01,-4.487113983758239666e-01,-3.028284385990061278e-02,1.153675334611506745e-02,-8.480953048956029611e-03,1.450553983449935913e-01
-3.769552434387114515e-01,-3.871473079195844602e-01,-4.364445032279199999e-01,-3.166086312379912809e-02,2.060838083215016207e-03,-2.293720181599272039e-03,7.792488485574722290e-02
-4.013986062175828318e-01,-4.304558275746471763e-01,-4.036681673860106900e-01,3.661230449150033482e-04,6.651235561812878687e-04,1.260884825172821876e-03,2.810737676918506622e-02
-4.073395180446150454e-01,-4.131770652220211892e-01,-4.064697355745814922e-01,2.336192664923603980e-03,8.376420983301544445e-04,8.566300511447920039e-04,7.783999200910329819e-03
-4.105973568054677170e-01,-4.150895107795126160e-01,-4.072467684659456522e-01,5.371364969547186025e-04,1.899833856295311861e-03,1.339917108792479297e-03,7.971012033522129059e-03
-4.102453525598724893e-01,-4.101987277813731181e-01,-4.098068712906580147e-01,9.434994687552331841e-04,3.653807880566804604e-04,1.703459234118342167e-04,1.825412851758301258e-03
-4.792199754394893541e-01,-3.093893255759114225e-01,-4.592851941976120456e-01,-3.238301956613272997e-02,1.182480201943810101e-02,-1.204841420960043111e-02,1.727867424488067627e-01
-4.016453265324513300e-01,-3.996720377624026765e-01,-4.320230432572652046e-01,9.968887977094146105e-04,4.570031564011892969e-04,4.014512635105065897e-04,3.147594258189201355e-02
-4.073523546203577372e-01,-4.140494572079080893e-01,-4.114153436173246803e-01,1.259751147853613827e-03,9.687683670968487469e-04,2.452009860147666420e-03,7.730609271675348282e-03
-4.465067030142312876e-01,-3.307547809917377180e-01,-4.530229585202973919e-01,-1.832487831402765388e-02,-2.466238432842951522e-03,-9.653160105065939495e-03,1.245007589459419250e-01
-4.021858152693981725e-01,-4.324662480378829166e-01,-4.012365605585603290e-01,-6.640467884527561596e-05,9.047927038554651972e-04,1.989568916137014873e-04,3.080807439982891083e-02
-4.328372860427814883e-01,-1.797355830029094548e-01,-4.645558827216296205e-01,-8.781501183545774303e-02,-1.063117888648831095e-03,1.635224339475092577e-03,3.102263808250427246e-01
-4.002178350356652148e-01,-2.019310991745670858e-01,-4.630726765635371778e-01,-1.056812071389307967e-01,-1.303432302092076729e-02,2.205305707873708720e-02,3.020031154155731201e-01
-4.019944109828541556e-01,-4.278191365110710076e-01,-4.035891829941404829e-01,2.163164064493514234e-03,1.602566072050157437e-03,1.041221440529950569e-03,2.555914968252182007e-02
-4.233751480324230987e-01,-2.698343581907469146e-01,-4.649059084027959976e-01,-1.139518801940893750e-01,3.188130196339499650e-02,-4.689420026596777952e-02,2.833333611488342285e-01
-3.999016163444039651e-01,-4.272370745944089609e-01,-4.800911747277389896e-01,6.594893131306187040e-02,-3.238352778367686868e-02,-3.731076262305361990e-02,1.592347770929336548e-01
-4.020924542339983643e-01,-4.273654095223935467e-01,-4.053002572476094301e-01,-8.230228764884448336e-04,1.508489628518026046e-03,-8.514385072265225453e-04,2.406190335750579834e-02
-4.021356864226990901e-01,-4.312537672018088575e-01,-4.010485916601687628e-01,3.725735084794034517e-04,9.077593902127871657e-04,1.744116275545273809e-04,2.972672693431377411e-02
-4.345788574090784229e-01,-4.503488120620000590e-01,-1.514633763932609900e-01,1.286533137612831494e-02,-7.909541355185008282e-02,-4.215262687589083068e-02,3.308521211147308350e-01
-2.662604191560553613e-01,-3.754319698479522405e-01,-4.702431781617401607e-01,1.310600933560177039e-01,-2.795291270599907160e-02,-1.283767146376513062e-02,2.926209867000579834e-01
-2.219273901447349762e-01,-4.710652956966330795e-01,-5.950031562857054368e-01,9.850028833960046415e-02,-5.814662119668208284e-02,-2.868078552326195491e-02,3.873314857482910156e-01
-4.056166365786416650e-01,-4.117192771493283776e-01,-4.137470609478839378e-01,9.674741917241501876e-04,1.120447155365833156e-03,2.949230241704261807e-03,9.295002557337284088e-03
-3.108135236066049134e-01,-3.786261635668924375e-01,-4.652135634657541541e-01,1.274725734584078174e-01,-6.154114179534762863e-02,-4.012870077216619535e-02,2.879379987716674805e-01
-3.905381091050667552e-01,-4.319111633149025353e-01,-4.857294033466651451e-01,7.013593065098243373e-02,-3.454374409196268175e-02,-3.215418382877476000e-02,1.681469231843948364e-01
-4.065313137862579529e-01,-4.075812927951178999e-01,-4.236176868097967785e-01,-3.741459890361650224e-03,3.681016891063666058e-03,-3.698922229297958112e-03,1.996991597115993500e-02
-4.017567811963886348e-01,-4.314388231305748000e-01,-3.993587891986415395e-01,-1.354870105950263472e-04,1.016810434143007504e-03,-5.388845703002869206e-04,3.101579099893569946e-02
-3.985560349005820568e-01,-4.283349397213828125e-01,-4.104032027614139544e-01,-1.388637700400911388e-03,1.767227815518219265e-03,-3.481185208654861106e-03,2.694166079163551331e-02
-4.036303736178219470e-01,-4.070857010248863372e-01,-4.167947602303040400e-01,-2.185042765851924734e-03,1.160414646164426456e-03,-3.256957985996946844e-03,1.378184836357831955e-02
-4.032455881593476343e-01,-4.072034472147924022e-01,-4.203824724119903378e-01,-1.645290794559434513e-03,1.534328606872042153e-03,-3.376839592289897652e-03,1.705592684447765350e-02
-4.044973805775097797e-01,-4.201105085351558577e-01,-4.071428694962423434e-01,-1.516428522305045788e-03,1.141154424654671363e-03,-3.344821809248697125e-03,1.593213342130184174e-02
-4.032598647406990811e-01,-4.048490367168245951e-01,-4.243830861148850664e-01,-6.184001244354017223e-04,9.119394606422459842e-04,-2.056664492911843001e-03,2.077207900583744049e-02
-4.058224113579023129e-01,-4.067526975798035349e-01,-4.174934118403150762e-01,-4.007827036962446389e-03,3.884895513781676246e-03,-4.169143875364212694e-03,1.648729480803012848e-02
-4.074756192362009588e-01,-4.246972486894377008e-01,-4.099684473065606238e-01,2.830687148353010565e-03,-4.305656978949705740e-03,-4.722168544932806022e-03,2.015984058380126953e-02
-4.104138455113320316e-01,-4.299049959914906238e-01,-3.962893459650199679e-01,-4.857868516542468082e-03,1.631803848130631077e-03,-1.762724148949676830e-03,3.070530481636524200e-02
-4.008498518595861038e-01,-4.233825556029431891e-01,-4.082577392370002056e-01,2.184185422665846279e-03,-2.327604455671427285e-03,-4.821557031025784992e-03,2.227077074348926544e-02
-4.103900751090043264e-01,-4.109829162787076995e-01,-4.155629200822513747e-01,2.903689615098302250e-03,-3.054145927244871026e-03,-3.284143303549071947e-03,1.047270558774471283e-02
-4.100741601525845770e-01,-4.101639522890666023e-01,-4.098357017063277707e-01,-4.428419974858806480e-04,4.662049031756547186e-04,-9.560024800140702259e-04,2.017059130594134331e-03
-4.064475422266968230e-01,-4.176200648981298613e-01,-4.099184203768837520e-01,2.908960342473608865e-03,-2.653348416428670878e-03,-2.740532936753048779e-03,1.292796526104211807e-02
-3.919337598827451474e-01,-4.209070991459576971e-01,-4.084555179978958117e-01,4.371125819007747049e-03,-5.570348742652494328e-03,-4.760517008028692862e-03,2.919120714068412781e-02
-4.030956168951760898e-01,-4.119865735595948930e-01,-4.140869767480803154e-01,1.140329610697473316e-03,-1.282771866033794849e-03,-3.613603121146541104e-03,1.225346233695745468e-02
-3.969386148162158956e-01,-4.001277313403215907e-01,-4.298654758402237208e-01,4.413854447433905939e-03,1.131329021328448484e-03,2.495567996063375628e-03,3.271560370922088623e-02
-4.010034240784698389e-01,-3.955594782169731261e-01,-4.322278735182519260e-01,4.879875704862774582e-03,1.194420093635163932e-03,3.936706311856662233e-04,3.536624833941459656e-02
-4.010408467215175743e-01,-4.023767798670951912e-01,-4.308657339312365608e-01,7.057697820124730860e-04,6.382410709082845645e-04,1.434143919367079998e-03,2.933174557983875275e-02
-4.023787590752610499e-01,-4.027310497082324803e-01,-4.365101840910180497e-01,6.724270195883210767e-03,9.834150366193859794e-04,3.437245146357175633e-04,3.594380617141723633e-02
-4.077470433310354525e-01,-4.139408075108486629e-01,-4.103073631167243329e-01,9.350566590521874714e-04,3.747976976742844026e-04,1.471804142950781154e-03,6.213129032403230667e-03
-4.036887800153763362e-01,-4.231085753241816683e-01,-4.054627903466690442e-01,1.610242676597250892e-03,7.443757359580609060e-04,1.383408682563357864e-03,1.900018565356731415e-02
-4.145912250117538833e-01,-4.079503316988817851e-01,-4.144383499118771685e-01,1.123659002118749780e-03,2.152065737362633506e-03,9.952716320654696712e-04,7.985192351043224335e-03
-4.198208815979913577e-01,-4.912587231460865400e-01,-2.551832704724257272e-01,4.022139050007114691e-02,1.175113542015723961e-01,3.410822608373435816e-02,3.061705529689788818e-01
-5.352708560736313403e-01,-5.104920904382691527e-01,-2.319559505494468155e-01,2.431069084226211707e-02,1.445993827393955988e-01,4.946471292119072882e-02,3.961545228958129883e-01
-4.093689772390226578e-01,-4.274088553057281969e-01,-3.935566525258466508e-01,4.484875239999514332e-03,3.471408654049117429e-03,8.699043997663390756e-04,3.097553551197052002e-02
-4.420413792892200489e-01,-4.648908766540383319e-01,-3.047577277366494419e-01,1.757763440301716301e-02,4.102589191909586375e-02,3.829514270746648200e-03,1.688965708017349243e-01
-4.019682422262231825e-01,-4.205870385293565272e-01,-4.099150720987025376e-01,1.458876639319707427e-03,1.700476010276120043e-03,3.571191238471377663e-03,1.775306463241577148e-02
-4.493936275935457303e-01,-4.401094279466720716e-01,-3.165481480944662973e-01,4.532810119567588433e-03,1.235012107780901133e-02,1.818944354111919071e-02,1.342107951641082764e-01
-3.939885068247468425e-01,-4.105409733832492414e-01,-4.330074199595575490e-01,1.529360095710402372e-02,4.669462110833052029e-03,3.185500225798273705e-03,4.413770511746406555e-02
-3.947878780237496499e-01,-4.361385662119915962e-01,-4.091740355408596819e-01,1.768209029865666550e-03,2.685234704387475316e-03,2.933679936368394081e-03,3.713211417198181152e-02
-4.061454502048714721e-01,-4.274401301490747818e-01,-4.041444252374753465e-01,8.547449944995483056e-04,1.606245835127256046e-03,1.042716367244378309e-03,2.265551313757896423e-02
-4.963802493400497617e-01,-4.947014927629415082e-01,-3.126903452612878054e-01,6.185076942636746726e-05,-3.818154807655314842e-02,-4.249924787996234646e-03,1.945870369672775269e-01
-3.937980088009818691e-01,-4.329308481578824641e-01,-4.080197404956408813e-01,-5.037116017391717309e-04,3.088003404939798462e-03,-1.700937640344509210e-03,3.485897555947303772e-02
-4.041486619655445534e-01,-4.141957406058672242e-01,-4.119759029900760816e-01,-8.600070509218040804e-04,1.165239810997833764e-03,-3.931261083181940633e-03,1.167155615985393524e-02
-4.027987077719321629e-01,-3.999146089533790471e-01,-4.325626758283399598e-01,7.756114196126206355e-04,-9.669739869462228672e-04,-5.709998706283946675e-04,3.139493614435195923e-02
-4.209990143689395503e-01,-4.004400808641517817e-01,-4.122104856858231914e-01,8.346169253683421996e-03,1.151174046901340398e-02,1.400695501476270297e-02,3.891459479928016663e-02
-3.908903015803332215e-01,-4.327201440441812430e-01,-4.203671053864378448e-01,2.210858764124128996e-03,3.546371560277777717e-03,5.957153105248392221e-03,3.929967805743217468e-02
-3.429575185057589515e-01,-4.389363483895800666e-01,-4.451853133541531782e-01,-2.104089139253993365e-02,7.319676548474365538e-03,-1.618244041318525010e-03,1.065246462821960449e-01
-4.022143951785180915e-01,-4.266818127048581655e-01,-4.032235805620740243e-01,1.395325501832985534e-03,-9.870177479764207634e-05,4.991559025957820108e-04,2.411635033786296844e-02
-4.554046368184828664e-01,-2.365025494089463831e-01,-3.932350490117459407e-01,3.855160853770706747e-02,2.300750677488649226e-02,1.207949920414765344e-01,2.966397404670715332e-01
-3.901839901888350393e-01,-4.295694354477048171e-01,-4.186143084028288164e-01,2.248446748554042834e-03,3.523960935776097696e-03,4.255368729840747558e-03,3.669470548629760742e-02
-4.039127758356348408e-01,-4.275225424162710786e-01,-3.997677492964800683e-01,3.509032516558621435e-03,4.587752760736765745e-03,1.716447905416634964e-03,2.795328944921493530e-02
-3.136030295010278079e-01,-4.245194904624386423e-01,-4.190491043485092826e-01,-7.134051922492101738e-02,7.406209639495020536e-02,-3.946984562828012577e-02,2.193700671195983887e-01
-2.933183982616892060e-01,-4.981265996515360506e-01,-4.774193152477351210e-01,-1.765206138839386096e-01,6.036948927480306065e-02,-5.410228588953446688e-02,3.890081644058227539e-01
-4.022527562263019663e-01,-4.332801918290442589e-01,-3.980280108641150449e-01,-1.394971943662751297e-03,4.082755465836521679e-03,-1.644049819250778836e-03,3.428682684898376465e-02
-2.863573472606519288e-01,-4.411273170612490802e-01,-4.584885553472857200e-01,-3.756048794647320194e-02,1.108648343874879538e-02,-5.663111815636523785e-03,1.778748631477355957e-01
-3.545452576367310593e-01,-5.767531477448741839e-01,-5.280008644787587135e-01,9.173080186094541288e-02,1.534349129012581581e-01,6.489192560719594938e-02,3.865531086921691895e-01
-3.428003105401123962e-01,-4.790221389553995790e-01,-4.878724748558482260e-01,-6.335392221011418301e-02,2.716270217712313945e-02,-7.778308925915153847e-03,1.851389408111572266e-01
-4.007273451819628463e-01,-4.319536692192238458e-01,-3.953153635891943352e-01,-1.392177040362312156e-04,4.766520895526720272e-03,-1.537059793643012924e-04,3.523715957999229431e-02
-3.035906459917975253e-01,-4.748686303516960194e-01,-5.164656359869798097e-01,-1.745771056285586598e-01,9.401080679785510374e-02,-1.261366236762362196e-02,3.957448899745941162e-01
-2.823952234230929781e-01,-4.768622345325174150e-01,-4.658555760221729791e-01,-2.911633862586570851e-02,3.079583617232111575e-02,1.199518228289165808e-02,2.040054351091384888e-01
-4.088986943153335440e-01,-4.204963670908051232e-01,-4.061126633515400042e-01,-2.353267994299503441e-03,3.197052621074370892e-04,-9.629391830959020508e-04,1.393848843872547150e-02
-3.366295071232115466e-01,-4.427943670642324747e-01,-4.420273665776239258e-01,5.380079383991639985e-04,1.992921418588686211e-03,-1.615551157850323534e-03,1.058808341622352600e-01
-3.983913864326268373e-01,-4.294198219971613328e-01,-4.081712105037960669e-01,-1.072355444983506953e-03,2.281256260861484926e-03,-3.876895122603929607e-03,2.862008661031723022e-02
-3.973413762581837760e-01,-4.292907876542697565e-01,-4.004022592456092933e-01,6.584914347473307811e-04,3.764768089124466855e-03,1.425551192023929905e-03,3.134100139141082764e-02
-4.271062610568790441e-01,-3.816562846618327121e-01,-4.056285316692718190e-01,1.632782304426101021e-03,4.657086091549479320e-03,9.091449566456471718e-03,4.326497018337249756e-02
-4.330302459726728115e-01,-4.109938888541471158e-01,-3.952863143223597775e-01,4.131889419883245929e-03,3.923625768196253166e-03,1.624400921045288798e-02,4.435619711875915527e-02
-4.253996411707301473e-01,-4.060492070209646420e-01,-4.015727466827624381e-01,3.228674982366548304e-03,1.371154306341015351e-03,1.855552843815492202e-03,2.298568934202194214e-02
-4.028031310375179141e-01,-4.309919343187714191e-01,-4.009241048085311343e-01,-1.410642097786834331e-03,8.830697884340185915e-04,-7.333724890514173485e-04,2.934330515563488007e-02
-4.048481628794884379e-01,-4.127788067661150029e-01,-4.138479920275033308e-01,-7.330868505700021721e-03,7.836095395810890527e-03,-5.347654614647983848e-03,2.244432829320430756e-02
-4.256198409108100100e-01,-4.044054112591370376e-01,-4.050983142410445881e-01,8.151989056944757396e-04,2.094542391865074696e-03,6.753274453048656615e-04,2.126865647733211517e-02
-4.237140004745127975e-01,-4.502649133314972074e-01,-3.636982355405153911e-01,4.818795035509347048e-03,1.709209623397452138e-02,-1.417579600442076459e-03,8.277938514947891235e-02
-4.051127048444859158e-01,-4.198158955362830125e-01,-4.046157038232309211e-01,-1.038927930819440442e-03,6.973633665039264892e-04,-2.323790206254405973e-03,1.564082503318786621e-02
-4.486531727917303369e-01,-4.579797427538828680e-01,-3.409846419828649333e-01,1.370477796249592890e-03,-1.721866662837769762e-02,-5.366406028225930054e-03,1.168980449438095093e-01
-4.302990317741410276e-01,-4.002782115635467042e-01,-3.965460868927651594e-01,1.957799808133844216e-03,1.297038744407765821e-03,4.259327681419927680e-03,3.313897177577018738e-02
-4.083887291231188543e-01,-4.162780597233163848e-01,-4.069551817265544269e-01,-1.802830324202930618e-03,7.313306049041932294e-04,-4.736378292133084831e-04,9.361327625811100006e-03
-4.038101760107526417e-01,-4.201351546372304457e-01,-4.099450647861379027e-01,-1.555241472593327495e-03,2.058755822593130551e-03,-4.782623039321524938e-03,1.710502989590167999e-02
-4.096907529827334415e-01,-4.121952024677359994e-01,-4.100847616731368439e-01,1.320444490685324936e-04,3.194103712402169594e-04,-8.091867806752373873e-04,2.786298748105764389e-03
-3.575859498454048713e-01,-3.770815488155158102e-01,-6.274250588315498645e-01,-2.374570947922697572e-01,6.411835305472782243e-02,-6.042597769496227400e-02,5.102720260620117188e-01
-4.276443275603285521e-01,-4.051733244565979275e-01,-4.013353487838682288e-01,5.209680554563252044e-04,7.933683336653119846e-04,1.908990939437899383e-03,2.489085122942924500e-02
-4.312716538340132799e-01,-4.022778501799724182e-01,-4.007534928189290802e-01,6.418821281382323159e-04,6.662405345269163453e-04,6.016691321392355230e-04,2.984652295708656311e-02
-4.136465585617342677e-01,-4.063564586506444587e-01,-4.120532729186379695e-01,-7.831255368469761287e-04,3.453786606571377683e-03,-7.093939787474039813e-04,9.121645241975784302e-03
-3.924571945571271314e-01,-4.134078544265752386e-01,-4.432621831213129915e-01,-1.568556389977652371e-02,4.542231033261307643e-03,-4.029871401888290849e-03,5.295663326978683472e-02
-4.087735931922639177e-01,-4.060587845352967018e-01,-4.172523195630626347e-01,-1.062011366679037686e-03,3.216348578730530896e-03,-1.154218052108638842e-03,1.186136808246374130e-02
-4.115551903353020236e-01,-4.168771815727509988e-01,-4.080919394895933805e-01,4.989844136690780446e-03,3.431152739966510622e-03,3.136026812478948794e-03,1.408073678612709045e-02
-4.059461008587749165e-01,-4.085560422652818047e-01,-4.158690503617739620e-01,1.276766299268731466e-03,1.552168996364107793e-03,2.138983760760830750e-03,1.025778893381357193e-02
-4.057538836037677954e-01,-4.139606462409594068e-01,-4.124259733574389131e-01,4.447565197024123257e-04,7.565030525691244590e-04,3.269890977850853364e-03,9.565477259457111359e-03
-4.090019850927865686e-01,-4.047973053145927369e-01,-4.163973059128102672e-01,1.758383246827005530e-03,2.941559193851529287e-03,1.206097289856039503e-03,1.196089945733547211e-02
-4.216439927277859101e-01,-4.003905881390407706e-01,-4.068578162625778871e-01,-1.912844842692463902e-03,4.149485166272720051e-03,-3.386567934905166354e-03,2.128661051392555237e-02
-4.108249386827163008e-01,-4.017766144243491988e-01,-4.005578484450462162e-01,6.149936789547728357e-03,6.821017530717007199e-03,6.681704093789061702e-03,2.194002829492092133e-02
-4.401549050304258692e-01,-4.186419922924561332e-01,-3.814199360691455931e-01,2.665380254291632202e-03,3.872313345238598183e-03,5.612563820721893325e-03,5.300793796777725220e-02
-3.980920569796830288e-01,-4.035553758780971445e-01,-4.142070622182688067e-01,1.466151406810247033e-02,1.119623823940068402e-02,1.064029401166386238e-02,3.952334448695182800e-02
-4.198290831685702607e-01,-4.386111347527357207e-01,-3.745633868954514889e-01,5.068915688576809946e-04,6.640515173836877665e-03,3.248852147590235162e-04,5.818340182304382324e-02
-3.840655889354329666e-01,-4.173076929360612919e-01,-4.290939025318190603e-01,4.419693510749628067e-03,3.504250730633821226e-03,4.274965822087768881e-03,4.226129502058029175e-02
-4.148229122447720796e-01,-4.127019072267228972e-01,-4.082457539806402247e-01,1.370518233297896449e-03,1.189462437656133628e-03,4.210390587831271884e-04,6.649716757237911224e-03
-3.800806608694199396e-01,-4.518023425821168781e-01,-3.972279096078303318e-01,1.412765309731500718e-02,2.800275752850830621e-02,9.790211767239147267e-03,8.629587292671203613e-02
-4.131934365772728102e-01,-4.191141826285463834e-01,-3.978933218437698538e-01,5.538398774101693268e-03,3.059019525329344322e-03,2.526221899158171899e-03,2.233778499066829681e-02
-3.929518554935853003e-01,-4.196673712175000293e-01,-4.195144533073616455e-01,2.547160061308157038e-03,2.319783512379239038e-03,6.101903026346913034e-03,2.927396073937416077e-02
-4.039585263459748998e-01,-4.322315071381941931e-01,-3.979785949043147530e-01,1.430978392029944165e-03,2.517975737924563022e-03,1.199182579157488486e-03,3.215072676539421082e-02
-3.966219680047516349e-01,-4.292840806469701564e-01,-4.104339083157076407e-01,1.174427999361505898e-03,2.697678631213057746e-03,4.288888084472577619e-03,2.979278564453125000e-02
-5.001513555539099931e-01,-3.079384597397349377e-01,-6.234591514315319660e-01,1.910885843884473911e-01,-2.543769742606153891e-02,-3.003099858823631355e-02,4.359395802021026611e-01
-4.266054833516668698e-01,-4.041573845876019755e-01,-4.054233455561050969e-01,-3.351502644186673749e-03,-3.886227137178132913e-03,4.683783994356637351e-03,2.493834123015403748e-02
-3.987834030308670119e-01,-4.248006156354183771e-01,-4.100765309015117488e-01,2.977946647230375610e-03,2.456749281342191123e-03,4.808169187043187520e-03,2.499362267553806305e-02
-4.138015390023521700e-01,-4.153093282322211643e-01,-4.009937687524297023e-01,5.207531811425416060e-03,1.678370639558247716e-03,2.322529677792782229e-03,1.707665622234344482e-02
-4.029084165868132006e-01,-3.986946315429200638e-01,-4.275551818121686720e-01,2.837700292210674786e-03,2.840751136973784178e-03,1.566834237372333183e-03,2.801441214978694916e-02
-4.010918930879994737e-01,-4.488852282620173773e-01,-4.233607213636109146e-01,5.816988832952751237e-02,7.874230713845492557e-02,6.617835624635266811e-02,2.088223844766616821e-01
-4.260261227885679958e-01,-4.035675897617428398e-01,-4.018325255894157344e-01,-3.298949475719878659e-03,-2.925342959261573433e-03,3.524708631975637715e-03,2.533685043454170227e-02
-3.825213651061459275e-01,-4.076631011574931018e-01,-4.340792942147402300e-01,7.379868197021723954e-03,1.184741211150398821e-03,1.811313127549731136e-03,4.659948498010635376e-02
-4.343447230684126525e-01,-3.685740367912698767e-01,-4.206398608885493773e-01,-7.994753052550981204e-03,-4.497018371454141947e-03,1.551312201695992203e-02,6.772456318140029907e-02
-4.023536587153867528e-01,-4.133532659204959825e-01,-4.118172247200646563e-01,1.986429111188596150e-03,1.929569818633291916e-03,4.556862903109511719e-03,1.384764816612005234e-02
-3.916044176809864719e-01,-4.359120061076079411e-01,-4.088956603547802549e-01,2.387611978128028809e-04,-2.430057039248981893e-03,-3.759979767546326509e-03,3.945016115903854370e-02
-4.068489164486254750e-01,-4.354433455493467719e-01,-3.948207357344145074e-01,-7.994095010390665215e-05,-1.948141863124007835e-03,-3.078553501402513191e-04,3.630353510379791260e-02
-3.910259488833942587e-01,-3.964756373186634764e-01,-4.299870178728600889e-01,1.300042832825216640e-02,4.300323477497224045e-03,5.033958901019416031e-03,4.442828148603439331e-02
-4.031269053905864319e-01,-3.837683856651036840e-01,-4.293879391641929333e-01,9.140946519767430972e-03,3.663755590099272274e-03,2.647847876808852134e-03,4.341361671686172485e-02
-3.946738040409595305e-01,-4.144343385887360176e-01,-4.365333884479977167e-01,1.439553123113424156e-02,5.751708422557598628e-03,5.840353708728798256e-03,4.624722152948379517e-02
-4.024390251493287218e-01,-4.207271067855623548e-01,-4.129535679373703694e-01,1.486008920403415409e-03,1.895959152156929646e-03,4.678846090209462689e-03,1.832490600645542145e-02
-4.095255951794536942e-01,-3.939403238685441067e-01,-4.352963355059903949e-01,1.567882277108571809e-02,7.562148641674031708e-04,2.260305034144465314e-05,4.525338858366012573e-02
-3.793590622659301914e-01,-4.521519954322633095e-01,-4.207848679508908174e-01,3.736387692610830969e-03,-2.744188808410383609e-02,-1.186690823789207216e-03,7.940202206373214722e-02
-3.680624228699353462e-01,-4.894356145686795667e-01,-4.611984529762828688e-01,-9.655142211426947368e-03,-6.651208087913448863e-02,-4.242594787244072588e-03,1.603333652019500732e-01
-4.395412243118254070e-01,-4.327054676203737071e-01,-3.615472248561280022e-01,2.457848686386006516e-03,1.838727363314314033e-03,5.623487957465285805e-03,7.562922686338424683e-02
-3.545298782854729991e-01,-4.171595890731676359e-01,-4.380373511043271773e-01,-2.465609859312521343e-02,4.730606391528949066e-03,-4.365014020359835739e-03,8.725821226835250854e-02
-3.836573903574068689e-01,-4.334814512895530658e-01,-4.090455165616695976e-01,-2.967445397188849497e-03,5.930303019425347232e-03,-6.428118476947371381e-03,4.602107405662536621e-02
-3.823658609784264528e-01,-4.085394734108063197e-01,-4.400846275756046810e-01,7.621141768139500471e-03,-6.883865410981537835e-05,1.055068634669262175e-03,5.180158838629722595e-02
-4.028582346379119827e-01,-3.963212709534227329e-01,-4.345456810147710902e-01,3.342756164506167915e-03,1.366607163031367637e-03,1.295028142388989965e-04,3.596027195453643799e-02
-3.995001836915316740e-01,-4.145708147465405613e-01,-4.126078630716627504e-01,1.887768338904953101e-03,-3.378462647360213223e-03,-4.851047945483842952e-03,1.780239306390285492e-02
-3.759762512858365602e-01,-4.876246378701769024e-01,-4.427344281505337653e-01,3.875443617360099791e-02,-5.966469268646582003e-02,-1.480699802545609733e-02,1.590963900089263916e-01
-4.014405717158830988e-01,-4.141244793187318085e-01,-4.142019029540435771e-01,-1.193411969458542431e-03,1.332993129829422585e-03,-4.262829099625702750e-03,1.503289677202701569e-02
-4.043979234713730442e-01,-4.210065386044047897e-01,-4.130491310832804519e-01,-1.492059117758117717e-03,1.435949109187442023e-03,-3.404272658961720113e-03,1.595734059810638428e-02
-4.098005509192402807e-01,-4.200352197079865180e-01,-4.022101947556363521e-01,-3.807110249821123692e-03,1.926853303769798234e-03,-8.737504245115105400e-04,1.723245717585086823e-02
-4.104167153503681109e-01,-4.256521411140732902e-01,-4.006391339780679961e-01,-4.308710337904693259e-03,2.181356346698938402e-03,-1.794777953019040424e-03,2.358640544116497040e-02
-3.926474394336176288e-01,-4.199955443914047959e-01,-4.201211923083996158e-01,-3.142795225526004866e-03,2.825593138091278371e-03,-5.670144839850344010e-03,3.002342209219932556e-02
-4.269180123022127682e-01,-4.131919204275285029e-01,-3.952751187326276616e-01,-6.288407417701400576e-03,5.561528244998092604e-03,-7.070779269559439133e-03,3.341791033744812012e-02
-3.544476848011351433e-01,-4.454103878370595515e-01,-4.235589364705276694e-01,-1.005002438490220328e-03,-2.362642141042128885e-02,-4.653233188746398394e-03,9.223146736621856689e-02
-4.089593816070437593e-01,-4.120758296284174893e-01,-4.100333312700737420e-01,-1.886342659828790184e-03,9.465547479196382815e-04,-1.181382817028900616e-03,5.006841849535703659e-03
-3.801433561569493302e-01,-4.200864652697329227e-01,-4.214526095651396909e-01,8.667188430548238703e-03,-7.511058684604669973e-03,-8.377854267118591686e-03,4.750852659344673157e-02
-4.003047896943113804e-01,-4.305427154726386707e-01,-4.122072355144795752e-01,7.357628312518224578e-03,-1.193593177715865893e-02,-7.653065216570572801e-03,3.823096677660942078e-02
-4.058798947620236852e-01,-4.162855600070210493e-01,-4.077101017736040611e-01,1.985297237090735082e-03,-2.206071106877525480e-03,-4.007270430440447451e-03,1.292989216744899750e-02
-4.045876786218455257e-01,-4.049103124691549871e-01,-4.203799633600640573e-01,-9.875823398904067321e-05,9.066255961008338289e-04,-9.945599466300359716e-04,1.580720767378807068e-02
-4.082456005581190372e-01,-4.055233104128432853e-01,-4.208365368184037170e-01,-4.511678272824620837e-04,2.339925212655214262e-03,-1.016093943676958655e-03,1.484427414834499359e-02
-4.057266390276835777e-01,-4.123941608993447749e-01,-4.119408435029659477e-01,-9.382320263995692694e-04,1.089932417708321328e-03,-3.857538782401456322e-03,9.616930969059467316e-03
-3.845184265626356845e-01,-4.340558279645603257e-01,-4.093672758380252907e-01,2.748599059790176290e-03,-5.480872309769638240e-03,-6.215883642428232311e-03,4.548810794949531555e-02
-4.306724495264040442e-01,-4.014226010137404987e-01,-4.028279282931555016e-01,-1.311825041468474024e-04,-1.424065042907179729e-03,6.313417594464910444e-04,2.870111912488937378e-02
-3.810015193189052463e-01,-4.400142403388868084e-01,-4.016275731107930014e-01,1.663274237981797639e-03,-2.420042951074895601e-02,1.002233987413694155e-03,6.677597761154174805e-02
-4.452146211932004327e-01,-4.118321336198220717e-01,-5.940144609438167134e-01,2.124306602949218581e-01,6.850850540351988149e-02,6.472273571449904672e-02,4.361774623394012451e-01
-3.929093902837181296e-01,-4.201583722241837848e-01,-4.187314673936038956e-01,2.558869772104262544e-03,2.335076213645218869e-03,6.000641049857053516e-03,2.914936840534210205e-02
-4.291361958307171043e-01,-4.178856390583655656e-01,-3.825183001571957897e-01,-4.458112941704773374e-03,3.008705689833380496e-03,-3.917576505961313516e-03,4.368237033486366272e-02
-4.019592482990976268e-01,-4.273077971059892621e-01,-4.028509856326512040e-01,1.325400834537796523e-03,-1.673323179161208545e-04,-5.129631056348020815e-04,2.503763884305953979e-02
-5.470409773415847443e-01,-2.698939229437330445e-01,-5.966570829853630187e-01,1.213953378610975187e-01,3.126157171852519262e-02,6.607153388823697182e-02,3.914867639541625977e-01
-4.009942275901002273e-01,-3.445783924067286619e-01,-4.468800865772726283e-01,-4.740455903001025706e-02,-8.261098486066282415e-03,9.230927454532644044e-03,1.227961406111717224e-01
-3.937389617372497597e-01,-4.093461814211625249e-01,-4.329284549605831312e-01,3.417542155582712488e-03,-5.541222676815456489e-04,-1.875151444237834700e-03,3.484639525413513184e-02
-3.951598653840160402e-01,-4.004737310344765322e-01,-4.317448031300495925e-01,4.348353474056163362e-03,-7.670819284516601413e-04,-1.408318845766249987e-03,3.516713157296180725e-02
-3.836523906539469619e-01,-4.366323745025534886e-01,-4.245748913875663777e-01,3.445134248565841911e-02,3.161819541223103575e-02,1.994255950956633217e-02,1.003313958644866943e-01
-4.544027961649324543e-01,-2.956947536186541048e-01,-4.681475845577280359e-01,-5.613202145395355773e-04,-1.678926845684183128e-03,3.826245100806990873e-02,1.787736415863037109e-01
-3.380583511912750305e-01,-4.433335989407923283e-01,-4.433002030137091487e-01,2.466002080557049437e-03,-1.052957020819275322e-03,-1.537136008436621555e-03,1.053945943713188171e-01
-4.074402689116671805e-01,-4.298651258565941435e-01,-3.964548849553738430e-01,3.970606522396245841e-03,-2.383476304335788165e-03,-9.537648912546805831e-04,3.060992620885372162e-02
-3.979421440835334556e-01,-4.095421756545859493e-01,-4.300882804197799225e-01,2.544784330569128082e-03,-9.796396190496436084e-04,-3.078120000743161770e-03,2.908212505280971527e-02
-4.599706733731324659e-01,-3.487114757835945156e-01,-4.292865984804500878e-01,-4.496693299661357057e-02,-1.685724778550867428e-02,3.311873650020068227e-02,1.418286412954330444e-01
-3.962957622376613309e-01,-4.193333688776046397e-01,-4.122459291836559903e-01,-2.870626086563317966e-03,3.878633451636783348e-03,-6.082517566955181545e-03,2.446486055850982666e-02
-5.500199873506367299e-01,-4.826156643230683496e-01,-3.720581048305441341e-01,9.026189233229639508e-02,-1.489036196741643503e-01,-1.986830719217015373e-01,4.833236634731292725e-01
-3.879289517689431532e-01,-4.599641360521064537e-01,-6.214462944458954974e-01,2.163424285153231763e-01,-6.483896549857293135e-02,-5.034984216454405775e-02,4.511404335498809814e-01
-4.551943665203860290e-01,-3.568670123060148636e-01,-4.801957045066539975e-01,-5.286120986749495709e-02,-1.103299155033647325e-02,2.421895047628474032e-02,1.525104194879531860e-01
-4.798866833758156925e-01,-4.511466069012814994e-01,-1.980749751416009397e-01,-4.493913851933827724e-03,-6.303826908884333467e-03,8.314855278264869642e-02,3.050661981105804443e-01
-4.746257574925152323e-01,-4.567045354858485506e-01,-3.211822457074038351e-01,-1.622761794965352569e-02,-5.829785146190544567e-03,4.194107580836159421e-02,1.651826649904251099e-01
-2.982637879317399099e-01,-5.005117490678983039e-01,-6.180889432180545207e-01,2.084823184354319958e-01,1.237512281652485870e-02,5.682613664218571191e-03,4.576672613620758057e-01
-4.412798610124388232e-01,-4.450849123622406811e-01,-3.384977357047880275e-01,-2.373668997715274440e-04,2.406434589583649961e-03,2.199600663272204860e-03,1.048894226551055908e-01
-3.871761114099288581e-01,-4.295095379285389092e-01,-4.198337834210468245e-01,-2.220838566541106715e-03,3.464687829289440652e-03,-5.754811504989208737e-03,4.032732918858528137e-02
-4.480373302124481261e-01,-4.409185545434297637e-01,-3.438449240923235339e-01,7.202565381175588238e-04,3.420451259948674265e-03,2.702371793624343266e-02,1.113216578960418701e-01
-4.499421929535281639e-01,-4.515887830551337800e-01,-2.500678462211209929e-01,2.322041202699816342e-02,7.365325907758607515e-02,5.748364718105902771e-02,2.609342038631439209e-01
-4.065864695656989380e-01,-4.079267615803852665e-01,-4.172868564754714793e-01,4.136691289146198912e-04,-1.463363294848704123e-03,-1.730699834620551096e-03,1.085710152983665466e-02
-4.274384382218907596e-01,-4.027790403799850205e-01,-4.020600510306907016e-01,-8.554219637628986779e-04,-9.822001798406301484e-04,2.011297305381041904e-04,2.513052895665168762e-02
-4.629088547991022096e-01,-4.569713554685960188e-01,-2.782493137197872279e-01,4.739077120550216210e-02,6.184471381501349674e-02,9.031031263402715392e-02,2.751686871051788330e-01
-3.688788529589819287e-01,-4.381369819300327539e-01,-4.435509790779512129e-01,1.361650846274402304e-02,4.063603100185396270e-03,1.728511919593250790e-04,7.620248943567276001e-02
-3.793442365700919194e-01,-4.412286951754261222e-01,-4.192990301175705814e-01,7.064498152441174919e-04,5.731888467176886673e-03,-9.646900414526250050e-04,5.528420954942703247e-02
-3.401518602250161449e-01,-4.379702724754804821e-01,-4.459717164476770246e-01,1.111588570645744012e-02,3.525001444859994591e-03,3.844038731519216438e-03,1.042470559477806091e-01
-3.529666893257724092e-01,-4.380542655899556936e-01,-4.439076929306737807e-01,9.299052983540598283e-03,8.875185172112217552e-03,6.342730042470077351e-03,9.158944338560104370e-02
-3.457096317278884889e-01,-4.382964150555602734e-01,-4.425935346675385351e-01,9.570351096384963757e-03,2.437068185472851187e-03,2.219879054908540511e-03,9.641581773757934570e-02
-3.206663787271168964e-01,-4.591423073302635660e-01,-4.831671762160015815e-01,6.496707693394943028e-02,4.006974749085939758e-02,-1.849266097505143083e-03,2.014170289039611816e-01
-4.286363986987641317e-01,-4.058307411494555539e-01,-4.026882150840784269e-01,-2.333621392342555712e-03,-8.509227375603367486e-04,7.981364943197861300e-04,2.494116127490997314e-02
-3.655460609224120416e-01,-4.205324530957328943e-01,-4.329956452674685319e-01,2.255280792669384082e-02,1.092543535165289327e-02,6.409138556114743653e-03,7.662476599216461182e-02
-3.609347831828757514e-01,-4.138083356385014455e-01,-4.361459778700199075e-01,1.540849242671295770e-02,-2.648334079748622220e-03,2.749160637885600411e-04,7.217469066381454468e-02
-4.213925952534010588e-01,-4.111192176052663183e-01,-3.909996750484699968e-01,6.332334903637408183e-03,5.335201272247243331e-03,4.689512199857279878e-03,3.144355118274688721e-02
-4.905759912138820122e-01,-4.546722493624084094e-01,-3.593826292204466699e-01,1.941171994115280588e-02,-4.071895168366086032e-02,-5.848779407502471828e-02,1.736590117216110229e-01
-3.718996888165407300e-01,-4.322519077555885270e-01,-4.338926920735048931e-01,-3.780922144770959038e-03,3.564078190955437264e-03,-4.180598604183318606e-03,6.226984784007072449e-02
-3.565713982110605973e-01,-4.443923913762967137e-01,-4.326390146094619138e-01,-9.962894198486918658e-04,4.779181105450974743e-03,-1.368831408713803944e-03,8.303972333669662476e-02
-4.661298008672835058e-01,-3.262374004679441386e-01,-2.940589718041555778e-01,-8.659631419006733055e-03,9.276204820359602865e-03,-1.570991192868141928e-01,3.156427741050720215e-01
-4.020293930658047632e-01,-4.099761734463941432e-01,-4.200100242799491568e-01,-2.269480014450042226e-03,1.587836894993736913e-03,-5.141265108315451991e-03,1.859783381223678589e-02
-4.392362765388565515e-01,-3.663408466928889662e-01,-4.206323880122957992e-01,-2.118771864170258118e-03,3.907757774745270959e-03,-1.145675936921264522e-02,6.896927952766418457e-02
-4.106320267305055838e-01,-3.992740580963696773e-01,-4.270517338900453597e-01,-2.229097532706462471e-03,4.234895099261581398e-03,-1.806327495975568924e-03,2.576049044728279114e-02
-4.122219745198029139e-01,-4.048204126447365048e-01,-4.181779677553265628e-01,-1.722898672181060646e-03,4.289108543611310290e-03,-2.033838895639939002e-03,1.452048961073160172e-02
-4.021051980586941021e-01,-4.017985721481618921e-01,-4.269796463558948596e-01,-2.690526315755029270e-04,5.732729742124457366e-04,-1.059246182027887354e-03,2.512027882039546967e-02
-4.441905811046982788e-01,-3.967512116777052178e-01,-4.088120139384636698e-01,1.099569847704516068e-03,-8.324624599185469990e-04,-1.616591965487717414e-02,5.112256854772567749e-02
-4.018590558283265390e-01,-3.976466817130643872e-01,-4.330802165835279105e-01,-4.853889636253093734e-03,1.297459589808612479e-03,-1.709968717893247097e-03,3.476382046937942505e-02
-4.272227557270315557e-01,-4.020066501297911987e-01,-3.974828087144055000e-01,-2.838607552525164879e-03,-1.089787215934904119e-03,5.507455879430451715e-03,2.981816604733467102e-02
-3.847945807954971653e-01,-4.202444230612430998e-01,-4.312598515770930119e-01,4.809720163885962928e-03,3.266701670489445975e-03,6.042951606348004323e-03,4.449148476123809814e-02
-3.813738432716546334e-01,-4.065672884636763462e-01,-4.336012155728134476e-01,8.043403054240219271e-03,-1.134100823181238100e-03,-8.831292794688812720e-04,4.740156233310699463e-02
-4.119918747675728188e-01,-3.975301076462371408e-01,-4.355229288185455405e-01,1.401473755503641373e-02,-5.372151276076989751e-03,-4.966247127283648921e-03,4.304606094956398010e-02
-4.293320258085070451e-01,-3.969338527005177308e-01,-4.007242323775757065e-01,-1.122133567487275255e-03,-2.059512231906957067e-03,3.434531959015519557e-03,3.151345252990722656e-02
-4.033164236124244240e-01,-3.939138407586815771e-01,-4.218165151432521354e-01,1.765531978110887121e-02,-1.238603592277318956e-02,-1.300541537270803738e-02,5.007400363683700562e-02
-3.977226959470259171e-01,-4.195054583425193440e-01,-4.194352703514048764e-01,1.907581269202273310e-03,-2.440977494157863924e-03,-6.199164162191917078e-03,2.484039776027202606e-02
-4.087709424286599669e-01,-3.900279011387587924e-01,-4.339748207040838857e-01,1.077433462216876789e-02,-5.261402255287544669e-03,-4.913159670031288541e-03,4.430189356207847595e-02
-4.676405514943189345e-01,-4.160733384678255709e-01,-3.636360443572823065e-01,2.558501661688472595e-02,-1.539272238774463432e-02,-6.052430722292813370e-02,1.475705057382583618e-01
-3.835734333707001564e-01,-3.699987295071711091e-01,-4.345646401565881334e-01,5.362612576990067464e-02,-2.452198310746258811e-02,-2.532592505951468398e-02,1.258254349231719971e-01
-4.106512562026424784e-01,-4.097528178373942009e-01,-4.100907419749239557e-01,-2.058533398390929598e-03,1.935040774597618970e-03,-1.403772202444432708e-03,5.520447157323360443e-03
-4.111255623811847504e-01,-4.106164738914262480e-01,-4.100709287880887066e-01,-2.312618995686738579e-04,1.804557464769497176e-04,-6.897447609008107580e-05,1.052108709700405598e-03
-4.416046031065600785e-01,-1.943555991480838963e-01,-6.073548643136164049e-01,1.242752895250717471e-01,-3.897327831153914179e-02,1.095006407387901642e-02,4.252485334873199463e-01
-4.026208020971372981e-01,-3.966815053874854780e-01,-4.317056897254008541e-01,2.931214625252974958e-03,1.154262677212969813e-03,8.089448616907610884e-04,3.294974938035011292e-02
-4.104882282995989673e-01,-4.115510303366614053e-01,-4.111900647559688649e-01,-4.434426492013245351e-04,4.668216588312962354e-04,-9.991722589443995481e-08,1.455987920053303242e-03
-4.109633468521173838e-01,-4.104883864164560192e-01,-4.093859985242545019e-01,-5.300158347821687377e-04,4.759405517684074942e-04,-3.678352737378673930e-04,1.972981030121445656e-03
-4.631071708659511010e-01,-3.101980193576786560e-01,-6.159392660067442016e-01,1.985536994005181466e-01,-4.629268138644585667e-02,-4.680151244296436308e-02,4.487529098987579346e-01
-3.028519731834962148e-01,-4.713814155891267177e-01,-4.416341570864567023e-01,-1.615967020741743490e-02,7.887379437067360000e-02,-4.283613548824304063e-03,2.092258632183074951e-01
-3.599032307283294152e-01,-4.340568607968587345e-01,-4.452159487671169535e-01,5.775535253354876185e-03,1.042549419270550389e-03,2.232335735500369476e-05,8.095742762088775635e-02
-3.772546922858578955e-01,-4.171676481858397900e-01,-4.347133073446508011e-01,6.598101525060070388e-03,-1.131396382184495213e-03,-3.372486639338153225e-03,5.262850224971771240e-02
-3.658306823126118434e-01,-4.336363747802563506e-01,-4.304511365422922786e-01,4.676549018815942191e-03,4.327876571605352926e-03,4.914213231930067774e-03,6.772024184465408325e-02
-4.430348985556059049e-01,-3.779697094633023280e-01,-3.555865361527566493e-01,4.598185846090038081e-02,-6.914990567168491364e-02,-1.317697788897014832e-01,2.810138761997222900e-01
-4.015664549480675860e-01,-4.323380277955721218e-01,-4.003260566365989259e-01,2.968428997880680708e-04,-1.122814368443273477e-03,-2.768570055939200032e-04,3.147814795374870300e-02
-4.094203451223329959e-01,-4.103770399688611570e-01,-4.118982028950946561e-01,-3.307792917329981227e-04,-2.538247975624216451e-05,-8.438225438892240629e-04,2.674093702808022499e-03
-4.107607906534782027e-01,-4.122723691395004386e-01,-4.095227969021563164e-01,-6.905005534357745636e-04,4.968717539360564556e-04,1.330195539380893356e-05,2.803635317832231522e-03
-4.429715246087003733e-01,-3.555350948841734526e-01,-4.314515634032915492e-01,8.168949035799313169e-03,2.143312629816031441e-03,1.482486557778276565e-02,8.742929250001907349e-02
-4.419487478458924978e-01,-3.724705716863846439e-01,-4.341473972108312873e-01,2.067476227052731166e-03,3.816209996265242273e-03,6.931029273076518872e-03,6.742911785840988159e-02
-4.285423552106594203e-01,-6.114996056768207122e-01,-4.128957503658959860e-01,1.952883432903101263e-02,1.870075698788548069e-01,2.620242979002708819e-02,3.803947269916534424e-01
-4.444959365303892129e-01,-3.383880526862176330e-01,-4.430218524662565827e-01,8.231638433572720584e-04,7.199542884514338256e-04,1.370426167589068080e-02,1.080354228615760803e-01
-4.808065517313678816e-01,-3.086300745739387619e-01,-4.408289664466375490e-01,5.871416544102444485e-03,9.517453242022163315e-05,2.899657762380036460e-02,1.642729341983795166e-01
-4.971248147482034141e-01,-3.488321043768047858e-01,-4.699720978515094516e-01,-2.335124251423668570e-02,-7.382236735238287273e-03,5.158841899278779342e-02,1.687746345996856689e-01
-4.396859472702749350e-01,-3.003189522901253405e-01,-4.346118615111208006e-01,1.413593739978024309e-02,6.122746538220585379e-03,3.059411966161598023e-02,1.492034941911697388e-01
-3.928453032474517603e-01,-4.085434594936173669e-01,-4.357288896160275149e-01,-2.960713585735299039e-03,1.983640928476057772e-05,-7.453770791683816781e-04,3.795005008578300476e-02
-4.045446994389696460e-01,-4.062584420782197614e-01,-4.240654867228856872e-01,8.567224022720805292e-04,-9.738721565613134767e-04,-2.531148017122161319e-03,1.936005614697933197e-02
-4.051144432984676858e-01,-4.311097185178288660e-01,-3.976544568179382066e-01,-4.257841113065493656e-03,-3.936147950667764212e-03,1.030958636554577500e-03,3.208404779434204102e-02
-3.888532040776300214e-01,-4.112474143366442458e-01,-4.279559589159052102e-01,5.158820901223682212e-03,-1.858069514478182882e-03,-5.359311387919517104e-03,3.648581728339195251e-02
-4.345606805053646715e-01,-4.444000982241702036e-01,-3.623510719012883463e-01,2.146415775800714239e-04,6.947318535535379133e-03,1.239249090741083911e-03,7.855623960494995117e-02
-4.091559357831924260e-01,-3.927759481655991869e-01,-4.360728847888169502e-01,-3.090846184589615686e-03,-5.526909118905459252e-04,3.387072457098751839e-05,3.825317323207855225e-02
-3.954446468520479430e-01,-3.966727558978629387e-01,-4.311096819331155516e-01,1.091019647836749193e-02,-4.249789968670739451e-03,-2.602465295747539726e-03,4.075904935598373413e-02
-4.168758904245401520e-01,-4.083160971376557646e-01,-4.261371822969227674e-01,8.462289786221592613e-03,-7.353645727013041582e-03,-6.919361265190419712e-03,2.755010686814785004e-02
-3.823212656685360811e-01,-4.046465388468583058e-01,-4.302981632947039392e-01,8.602689169959229151e-03,-1.915067603682264448e-03,-2.911196004396693088e-03,4.458194226026535034e-02
-4.026712256687653979e-01,-3.995248032956962847e-01,-4.330018524065215035e-01,-1.206114167469344266e-03,1.060117564299018714e-03,-3.696127822529786042e-04,3.214693441987037659e-02
-4.084948578967476096e-01,-3.947462857674322589e-01,-4.276572310139533650e-01,-2.620528794415245832e-03,2.548585784508264687e-03,-1.119978447832449715e-03,2.938580326735973358e-02
-3.210789954491300446e-01,-4.784887651801745800e-01,-4.578321323091678607e-01,-3.441992836060418781e-02,6.354145373214191601e-03,-4.439576095057382737e-03,1.602729707956314087e-01
-3.439628610770740780e-01,-4.505380393281435136e-01,-4.454308732452005315e-01,7.092253038854312748e-03,-2.637750869641247373e-03,1.576891405850816357e-04,1.049376130104064941e-01
-4.411217029476925955e-01,-3.571156167122747083e-01,-4.317246797665943991e-01,-5.339332080585802373e-04,-2.678064785641108558e-03,5.995060507490240775e-03,8.053641021251678467e-02
-3.509198488198908561e-01,-4.418226476831577654e-01,-4.439744686101356197e-01,-1.066466577234847883e-03,-3.476477274069642368e-03,8.713977497943385881e-04,9.222528338432312012e-02
-3.491065418142128562e-01,-4.326482675014201584e-01,-4.487730952131263606e-01,-1.266341508135586033e-02,-7.617532391926573436e-03,2.361752548936318225e-03,9.621967375278472900e-02
-3.255730168121581669e-01,-4.387647774261476674e-01,-4.520109709640262596e-01,-2.400652109016724461e-02,9.091918561516552921e-03,-2.284341424798932638e-03,1.283735930919647217e-01
-3.982274596084290352e-01,-4.087952214083518943e-01,-4.302119490863625106e-01,-2.529600750674857249e-03,9.791691867435433749e-04,-3.576754851430113177e-03,2.927683666348457336e-02
-3.958186076918038809e-01,-4.006403308481955583e-01,-4.326749863616538572e-01,-4.448947043024192687e-03,-8.693294330900991134e-05,4.714112730089765131e-04,3.555276617407798767e-02
-4.445504849596513264e-01,-4.341383590224079936e-01,-3.602329874014030819e-01,5.991323556328645699e-04,9.360689601962631813e-04,-5.071759312446596710e-03,8.012990653514862061e-02
-4.144022091964696397e-01,-4.126126576038497973e-01,-4.083930223650380498e-01,-1.515232579545694978e-02,-1.118063705768294371e-02,1.719613597482415324e-02,4.449133947491645813e-02
-2.954799200442078666e-01,-4.418705420172459597e-01,-4.473413905089089204e-01,-1.154611834065745121e-02,6.991238212920208688e-03,-3.681853585888051738e-03,1.511564254760742188e-01
-3.810051477248457830e-01,-4.222592335562916355e-01,-4.319540310817338580e-01,-2.143869125022723407e-02,-1.050186451118792323e-02,9.257282266470283696e-03,6.451860815286636353e-02
-4.288367889417302736e-01,-4.464869809854881133e-01,-3.644707564122183219e-01,-1.905970167056723864e-04,-2.259918580051353473e-02,8.302183336897254323e-03,8.561334758996963501e-02
-3.803861576782186504e-01,-4.182646560080832687e-01,-4.354424726724308581e-01,4.787592889836258733e-03,1.909745006643510414e-03,-6.590967191240921087e-05,4.960086196660995483e-02
-4.242615360502830502e-01,-3.901998752430886341e-01,-4.362365464855931796e-01,-2.323665340352674621e-02,-5.165135039546632847e-03,1.046574972616721652e-02,6.115508452057838440e-02
-4.230283982612808025e-01,-3.807880451617704498e-01,-4.229242459334587867e-01,-7.617125884351499780e-03,-8.554388211337466200e-03,9.430335376574304485e-03,4.939885810017585754e-02
-3.798502000923378308e-01,-4.347711842471356780e-01,-4.190617744499212649e-01,-4.574535595191435433e-03,4.842319377994036556e-03,-5.199905820337181322e-03,5.113280937075614929e-02
-4.248914383045661602e-01,-3.659983819692403939e-01,-4.370406379370877503e-01,-1.650008926163176390e-02,-7.229149404145811253e-03,1.810431211905061746e-02,7.929904013872146606e-02
-3.814752658745225178e-01,-4.189838740347249790e-01,-4.424173661218340214e-01,4.780569045043892365e-03,1.705520023113085530e-03,2.589047972252036395e-03,5.415144935250282288e-02
-3.640552798987578553e-01,-4.914368792037059341e-01,-4.364136531398688512e-01,-2.456980442773799497e-02,6.029063915959272796e-02,-1.475133839264490196e-02,1.600418537855148315e-01
-4.069106179040054561e-01,-4.354917995140252795e-01,-3.952007996195839312e-01,9.907786664753880004e-04,-2.486089487275022335e-03,4.099943222452717722e-06,3.619628772139549255e-02
-1.843811492714046152e-01,-4.337591231610030684e-01,-4.618539804731804921e-01,8.527693284038453947e-02,-1.975950258857661949e-04,9.870471682284372682e-04,3.029924631118774414e-01
-4.594749478588034397e-01,-3.142632217464012001e-01,-5.037927811069670136e-01,7.730489189991888999e-02,-5.216756550770477313e-02,-1.426381845863331777e-01,3.414900302886962891e-01
-3.896154090414395976e-01,-4.285701073458906274e-01,-4.091931354196494119e-01,2.525500309904823125e-03,-5.057615720796434372e-03,-5.406734325851763820e-03,3.635495528578758240e-02
-3.643281617132846373e-01,-4.335040827163381127e-01,-4.208539340820707242e-01,-6.781146043656515951e-03,1.159423948753062796e-02,-1.116106321287386495e-02,7.060585916042327881e-02
-3.823320034583999050e-01,-4.409442619014571352e-01,-4.295913525225020790e-01,-1.475136655744821272e-02,1.737314073637889061e-02,-1.220300502674795916e-02,7.002779841423034668e-02
-3.518722155053534140e-01,-4.538293382148046451e-01,-4.261617128109767005e-01,-7.561660972713738979e-03,5.292218168112769461e-02,-2.296496776648724106e-02,1.359993368387222290e-01
-3.501256898609353962e-01,-4.316267589806759286e-01,-4.395181095512740166e-01,4.455725157510658820e-03,2.989010894835476394e-03,1.248120539631997206e-03,8.624898642301559448e-02
-3.502481365552620463e-01,-4.353784846436212219e-01,-4.376620690106163281e-01,-6.861581261503198713e-03,1.026899655695655625e-02,-8.171278038746655759e-03,9.002612531185150146e-02
-4.187113846377177873e-01,-4.204214739759335462e-01,-3.959557184867016910e-01,-5.491919083338179727e-03,-3.010786131409961142e-03,2.334652452475580869e-03,2.633797191083431244e-02
-4.169655652252183264e-01,-4.111424195819325389e-01,-4.111096702195655705e-01,-2.903144779857429799e-03,3.896685195429567920e-03,-2.209523316109793419e-03,1.093544717878103256e-02
-4.061470321744038436e-01,-4.279217082567042807e-01,-4.030501504608383079e-01,-2.435648444418174463e-03,-5.991991421638474466e-04,8.867073969205620980e-04,2.392475306987762451e-02
-3.793441407184542369e-01,-4.184196020674770811e-01,-4.351794679300432511e-01,-4.267842605815874019e-03,1.364034869112814782e-03,-2.688170599221103869e-03,5.044391378760337830e-02
-4.246108141301709327e-01,-4.069217261230834715e-01,-4.016554165096218876e-01,-3.937181135263919524e-03,1.075263985676218510e-03,-1.725007348035903889e-03,2.219670638442039490e-02
-3.370060970000529066e-01,-4.437892630515705150e-01,-4.439593698979079628e-01,3.370914224192233274e-04,2.556107011171009601e-03,-6.236719857967321264e-04,1.069670394062995911e-01
-3.730881360732372642e-01,-4.330446908228727243e-01,-4.315617445371885408e-01,-5.030173708674836458e-03,-4.159689974249191138e-03,4.626041945530802099e-03,6.082839146256446838e-02
-4.070224645305371425e-01,-4.107226496131285987e-01,-4.228388575452453613e-01,-2.204282943223981328e-02,-1.983521938030786275e-02,2.814617488383746105e-02,7.224897295236587524e-02
-4.199328901140180759e-01,-4.066093481143696620e-01,-4.021719923407247044e-01,-3.505508234769147760e-03,1.693738462621683554e-03,-2.275389679271089087e-03,1.781382597982883453e-02
-4.165056016960565488e-01,-4.083052724605467088e-01,-4.066497852196275797e-01,-1.750761238303496711e-03,7.752174704081434562e-04,-3.683622221405816535e-04,9.745103307068347931e-03
-4.270775450420470354e-01,-4.150612910007430156e-01,-3.971230954238627042e-01,-6.318101977910924559e-03,5.725874943235686326e-03,-8.779550428060167722e-03,3.363142535090446472e-02
-4.092555538912490687e-01,-3.913684616810921835e-01,-4.359703640532469615e-01,-3.066544235535561148e-03,1.869488959485415911e-03,-9.698173344069589263e-04,3.940808400511741638e-02
-4.320953410028646746e-01,-3.780783860523342366e-01,-3.928315004284475553e-01,-7.962220817939675080e-03,7.632827352143858358e-03,-2.879246993305345850e-02,7.204552739858627319e-02
-3.857358339209365217e-01,-3.741018936498167746e-01,-4.392432960329726299e-01,-5.550175198536658888e-02,2.772335667592618763e-02,-2.343219015386142565e-02,1.296733915805816650e-01
-4.058292652336358275e-01,-4.085995558543970008e-01,-4.337140271475501963e-01,-3.380712543335914061e-02,1.732734470016986106e-02,-9.420158658059464216e-03,7.282636314630508423e-02
-3.607004818083121567e-01,-4.326340719115768785e-01,-4.441511250839086378e-01,-5.069143521420818761e-03,6.627692853289504724e-04,-8.168564040349021336e-04,7.884132862091064453e-02
-3.707516252728806916e-01,-4.335208574489878286e-01,-4.400429862869661424e-01,-5.049236158317269366e-03,-1.219835046519265279e-03,1.185709066685516769e-03,6.691090762615203857e-02
-4.022313768907403997e-01,-3.993924151149598201e-01,-4.312871762036050161e-01,-1.472981364864705016e-03,-6.262405664066758148e-04,9.317728514633484050e-05,3.070014715194702148e-02
-4.436054874675972037e-01,-4.441481002304361603e-01,-3.688561730477193934e-01,-1.315749425754889415e-03,6.708320044748389277e-03,-1.263433069264168450e-02,7.904044538736343384e-02
-3.780450427842179661e-01,-4.492321000270266262e-01,-3.830913849244800273e-01,-8.109445174240375448e-03,5.084760053680667524e-02,-4.175244250734049672e-03,1.128709465265274048e-01
-3.753598403569928799e-01,-4.224106695479060147e-01,-4.310890158434599884e-01,-7.651146003270980003e-03,3.293368519940266265e-03,-6.812838337319275690e-03,5.517989397048950195e-02
-4.439615786380025630e-01,-4.552420001692706886e-01,-3.669333721355949041e-01,-5.104514141670657510e-04,1.737312788060329377e-02,-1.697643690457678210e-03,8.856865763664245605e-02
-3.922823125765670937e-01,-4.274712094738650769e-01,-4.077105585590747316e-01,1.359697687978633687e-03,-3.187611888361617258e-03,-3.306942895119012547e-03,3.165790438652038574e-02
-4.085239238782675808e-01,-3.921785099203066172e-01,-4.325983863365041593e-01,-3.089641241728030997e-03,-1.974313478763250508e-03,6.175141470013695158e-04,3.580132126808166504e-02
-5.624935496355839559e-01,-2.609072317708816535e-01,-5.082532472132647028e-01,3.881886538730364156e-02,-3.444263946617528993e-02,-6.087497397749249556e-02,3.110226094722747803e-01
-4.325927354476525322e-01,-4.271667867448963873e-01,-3.660934765603239827e-01,-1.053301395341319467e-02,6.243366563657245204e-03,-1.197706512266049315e-02,7.050456106662750244e-02
-3.744612288735748584e-01,-4.322571607380593095e-01,-5.043336180564248483e-01,7.854678248707083754e-02,-2.721973387779868473e-03,8.461445338522534387e-03,1.773327887058258057e-01
-4.081106756277120828e-01,-3.941784168463277060e-01,-4.363828909299235503e-01,2.244803447518991558e-03,-2.844435392633063407e-03,-1.370468897310237084e-03,3.784634917974472046e-02
-6.051924516768785178e-01,-4.159279690324745316e-01,-4.669176220985621351e-01,3.662716801898727864e-02,-4.794305432583398363e-02,-1.906462715668162111e-01,3.856536149978637695e-01
-4.611128180759340167e-01,-4.148025116272252011e-01,-3.095225208346060741e-01,-9.832430135870970367e-03,4.030158405936571514e-02,-6.268379712812746640e-02,1.872285455465316772e-01
-4.521450432185420421e-01,-4.436863933044102870e-01,-3.641799568699863876e-01,-4.096131518890711682e-04,2.986515818117874144e-03,-1.416548542116966188e-02,8.771877735853195190e-02
-4.471872940597304558e-01,-4.075540922640250030e-01,-4.048077075961868387e-01,1.315744622601296675e-02,-1.405026113331908286e-02,-3.047502600838255041e-02,7.473250478506088257e-02
-4.478597101303218864e-01,-4.360563587892792303e-01,-3.518757815403632527e-01,-3.119839440367751498e-03,-4.021251769383171748e-03,-6.178518889553403191e-03,9.171442687511444092e-02
-3.941104923475990951e-01,-4.087777439404790547e-01,-4.360277741877794377e-01,3.639654297056052479e-03,7.098088507209826775e-05,-9.968762963139337317e-04,3.741808608174324036e-02
-3.980962347145363123e-01,-4.206918221365323340e-01,-4.208133000415848479e-01,1.688082422507432290e-03,-2.168525477425648634e-03,-5.313155707052225757e-03,2.491315826773643494e-02
-3.978814593472981276e-01,-4.107177394017690886e-01,-4.285149332439046610e-01,2.235638111104644877e-03,-1.357280778980229918e-03,-3.216650597438102614e-03,2.759567648172378540e-02
-4.409197954613552350e-01,-4.344741188705415480e-01,-3.539312268371989090e-01,-3.075859212859887934e-03,4.955753371926373621e-03,-4.067216299545216990e-03,8.485013246536254883e-02
-4.407287214870599379e-01,-4.453078078596037215e-01,-3.427159145744270163e-01,-4.255773308153463705e-03,8.732551873629593869e-03,-4.457336852018396051e-03,1.020734906196594238e-01
-4.154013995710676421e-01,-4.039325508667410136e-01,-4.221782852457844348e-01,-7.422904343099018948e-03,-6.593197531503903683e-03,6.633677544976605660e-03,2.613254822790622711e-02
-4.626754103156172637e-01,-3.982331692378900945e-01,-3.138933988880150405e-01,-1.518369605057602427e-02,8.454279152672224129e-03,-6.235966103926351978e-02,1.710943728685379028e-01
-3.989791535550261115e-01,-4.100864781892380462e-01,-4.232732824903241431e-01,1.644216078583164058e-03,-1.913489755808002110e-03,-4.385633727660894106e-03,2.281513996422290802e-02
-3.885807524980628425e-01,-4.184564634516536596e-01,-4.319334190922162198e-01,4.620092667905393441e-03,-1.587194522594238171e-03,-4.794917278779281880e-03,4.021675139665603638e-02
-3.462518114510291789e-01,-4.429395812589737025e-01,-4.331424427678711164e-01,1.915598591031195466e-03,-5.559036734090277120e-03,-4.933055854091095149e-04,9.274531155824661255e-02
-4.746841787776666099e-01,-4.782286532750891772e-01,-3.171368090930359318e-01,-1.878149693946349827e-02,4.676600560487215175e-02,-4.280891331818394152e-02,1.962380707263946533e-01
-4.111544409561691538e-01,-4.294903529767516992e-01,-3.985747270838114198e-01,-5.137053485890785004e-03,-1.421476413849048206e-03,1.644740131927586915e-03,2.860875055193901062e-02
-3.816522625787170941e-01,-4.221398592011930684e-01,-4.212500908065103244e-01,-5.864758612180140211e-03,6.875088445696809873e-03,-8.238528492322929123e-03,4.530584067106246948e-02
-4.186971195944932944e-01,-4.192030689513199793e-01,-3.935894104893728485e-01,6.225331218497674561e-03,-3.319998444983104837e-03,-2.915591120465725432e-03,2.860401570796966553e-02
-4.762194342076038756e-01,-2.370293448364769739e-01,-4.820123470604431026e-01,9.539299939180668347e-03,-1.947500473059860177e-03,-6.975934703682427906e-02,2.711356282234191895e-01
-4.062423820730717283e-01,-4.326360749462061506e-01,-3.935974680903696621e-01,-6.773937152182633956e-04,-2.544745164899608458e-03,1.095429987086276626e-03,3.485212475061416626e-02
-4.633761606058612315e-01,-3.041653598257825775e-01,-4.535409750476823709e-01,3.185611355349142471e-02,-9.011517069239517036e-03,-3.177557902980336028e-03,1.649160087108612061e-01
-3.173918551625620754e-01,-4.428898458978499098e-01,-4.764683484444737216e-01,-4.125004311659793976e-02,-2.664350439980231727e-03,1.106359717849550450e-02,1.630475372076034546e-01
-3.401777439406431514e-01,-4.908078822311323086e-01,-3.105455309429093758e-01,3.022695251424167492e-02,-1.483973198646198477e-01,-1.098372428281047843e-02,3.117679357528686523e-01
-4.440149809797970248e-01,-3.266505819920520470e-01,-4.527063577939665073e-01,2.335027590304534356e-02,-3.109370139624437635e-03,-9.061653164545541931e-04,1.285969465970993042e-01
-3.455437694787150127e-01,-4.412054436315786532e-01,-4.453466697931174889e-01,-1.735861299362933749e-03,-1.924932645341353131e-03,1.804387187991950744e-04,9.790156036615371704e-02
-4.493274829076240873e-01,-3.456362775732502168e-01,-4.563511789379312011e-01,7.600087005784274263e-03,-1.587483586681098227e-03,-1.133403704614274971e-03,1.082321181893348694e-01
-3.455373231622113628e-01,-4.392309432633109689e-01,-4.314423090683481288e-01,1.149973377760914010e-03,-5.322365565421539359e-03,-2.331985586391077583e-03,9.063485264778137207e-02
-3.756640307095061582e-01,-4.238200646093208124e-01,-4.001189451327736291e-01,-1.182934138725159727e-02,-2.529613148650045051e-02,1.272336850426272238e-02,6.756130605936050415e-02
-4.089541409622022838e-01,-3.979505948909236035e-01,-4.297777338420640247e-01,-2.899676822908491686e-03,-3.629886720422588042e-03,9.722558294597445899e-04,2.917913347482681274e-02
-4.533548494884657720e-01,-3.329415074838731892e-01,-4.552745153063725292e-01,3.621666523056542471e-03,-3.677108163416886472e-03,-3.932833875451784145e-03,1.219037547707557678e-01
-3.932213818669942906e-01,-4.081082888406911136e-01,-4.325016237366381966e-01,-3.257028558490809508e-03,-6.062962888503146356e-04,3.942733510129311212e-04,3.483087569475173950e-02
-3.719702724117996406e-01,-4.353575653967864945e-01,-4.470800436689427726e-01,-4.879383091741058484e-03,-3.513265479795829593e-03,4.239086015566983015e-03,7.113919407129287720e-02
-4.085715742966549713e-01,-4.209033903410174249e-01,-4.056807294515829554e-01,-2.191300213822533222e-03,-1.801634214554196929e-04,6.421203361079120490e-04,1.455402933061122894e-02
-3.928280164803206742e-01,-3.935759444216275216e-01,-4.306257239360298250e-01,-1.330911783290783523e-02,-3.578772238463530202e-03,3.484958961478590127e-03,4.480191692709922791e-02
-4.078486940501892533e-01,-4.499812268022506667e-01,-4.052587153858823732e-01,-2.097771866951793004e-02,-3.801961788999504155e-02,2.391108552540935697e-02,9.624379873275756836e-02
-2.999921900354116655e-01,-4.487850770136800338e-01,-4.434786712764390293e-01,-3.326870660895433866e-03,-2.159596326185671267e-02,1.187191633620315054e-03,1.510447412729263306e-01
-2.299288868649621564e-01,-4.649460169501024587e-01,-4.440047054108200442e-01,-7.770874339482361504e-02,-7.750084347187441436e-02,2.280467105399169858e-02,2.973974943161010742e-01
-4.336072796471474033e-01,-2.928975170991742760e-01,-3.724058992461943829e-01,7.347953699558576468e-02,-5.257030595208815604e-02,-1.225608834221147830e-01,2.906636595726013184e-01
-4.596614939076510975e-01,-3.671842151668502918e-01,-4.287386480834799452e-01,-4.616046493879030072e-02,-7.975075414900193935e-03,5.076301578081880012e-02,1.447840780019760132e-01
-4.823249113583465419e-01,-3.257293730630989037e-01,-4.439362187866741083e-01,1.006797105666939855e-03,1.532157501042233447e-03,2.399099369130558781e-02,1.473809480667114258e-01
-4.006390026193376031e-01,-4.029767178232022129e-01,-4.306068463226870868e-01,-9.960426433024624493e-04,-4.789853259874783534e-04,1.619467983249252285e-03,2.906910516321659088e-02
-4.751120666277756643e-01,-1.387716945958451242e-01,-4.597716043892060567e-01,-1.176454879366338642e-02,5.379128974678741744e-03,-4.471316593058953862e-03,3.297916948795318604e-01
-4.314605088617171624e-01,-2.984667046495930176e-01,-4.332906496534787433e-01,-7.626996285389162078e-02,-5.351204172624817595e-02,9.299456449733813079e-02,2.644239068031311035e-01
-4.026321414183940961e-01,-4.056269867474258661e-01,-4.240698185981963131e-01,-8.241078533982327528e-04,-6.264369674823335767e-04,2.214171477064106990e-03,2.054903842508792877e-02
-5.756092077754291214e-01,-2.845955374221360579e-01,-4.542060314705081980e-01,-7.273804471073797018e-02,-4.734773446094962118e-02,1.039663114814726452e-01,3.451413810253143311e-01
-4.198266475237971695e-01,-3.785584565692869941e-01,-4.409831630481629294e-01,4.941439704985602609e-03,-2.406065213309573764e-03,-1.823468742637446294e-03,5.589587613940238953e-02
-5.063634907232323901e-01,-3.692610414084209758e-01,-4.469247386728826266e-01,-1.111824148765007750e-02,1.039400019545344295e-03,6.976563335791294285e-02,1.707532256841659546e-01
-4.462515685006426258e-01,-3.406508198808748666e-01,-4.286547193527949218e-01,1.012733693058781928e-02,4.829185814011669430e-03,2.885098785664314339e-02,1.117037013173103333e-01
-4.579026941717405652e-01,-2.229359284047681133e-01,-4.091968973577789770e-01,-2.223345615083712097e-03,-1.949635633653288604e-03,9.509568307349051952e-02,2.707271575927734375e-01
-4.578022139450027006e-01,-3.753310393364871489e-01,-4.292238316782305274e-01,5.234322156209811165e-03,2.669346758807201493e-03,2.854097223889090137e-02,8.836661279201507568e-02
-5.771872826799535616e-01,-4.823254252506587458e-01,-3.754388212252214307e-01,6.188221405390469110e-02,-9.332929970463162139e-02,-2.030303222522528706e-01,4.380025267601013184e-01
-4.056142356170863161e-01,-4.082386833437229301e-01,-4.207267901152361711e-01,-1.423847031303752996e-03,-1.042241211778860031e-03,8.096684897957323341e-04,1.438479870557785034e-02
-4.027741736677102891e-01,-4.025911328320582183e-01,-4.244150159102191289e-01,-4.571527190233069457e-03,-3.117742903796745513e-03,3.286455108593231821e-03,2.442499995231628418e-02
-4.535523193729846803e-01,-3.664677662365790622e-01,-4.239658285880671951e-01,1.695012671989703547e-03,4.802727702882212193e-03,2.387589693794837237e-02,8.758165687322616577e-02
-3.695137893723046130e-01,-3.885759700241196990e-01,-2.732468602458997253e-01,-8.404152730836630947e-02,-1.315195012839854571e-01,1.146823459317976718e-01,3.521405160427093506e-01
-3.996049895774014815e-01,-4.316521608790742648e-01,-4.581030666569054222e-01,-1.171555787024349676e-01,-1.563894578283170911e-01,6.504881330199807632e-02,3.603021800518035889e-01
-3.115122401100461902e-01,-4.069162429076654264e-01,-4.292770121962380947e-01,-9.432483576538543135e-02,-1.022010510051742094e-01,7.271569476669999255e-02,2.926168739795684814e-01
-4.255582253321764652e-01,-3.845158161412521869e-01,-4.089542414587850616e-01,1.767763994877931052e-02,-2.006971188217242935e-02,-1.962957003256404764e-02,6.767969578504562378e-02
-4.326294114434344196e-01,-4.447380300380417983e-01,-3.436776573896577758e-01,4.838214751572034178e-03,-5.219997824080110232e-03,3.870092573089449484e-03,9.660755097866058350e-02
-4.427621212636851933e-01,-4.578422886598662034e-01,-2.996931538954639151e-01,7.872339823331436781e-03,-3.044986060680955273e-02,-8.824250230998592279e-03,1.614148318767547607e-01
-3.981765798628068564e-01,-4.278100507167856281e-01,-4.115168479487427144e-01,1.710892609710583986e-03,-1.655630165774896146e-03,-3.678144446854221972e-03,2.680257335305213928e-02
-5.105014369192144574e-01,-5.629192997072417493e-01,-3.041066150464377116e-01,8.537311077112438862e-02,-1.911671189534798754e-01,-1.285524421432220898e-01,4.870756864547729492e-01
-3.454715809903144419e-01,-4.457886993011234145e-01,-4.432094660888734605e-01,-3.717650586802046485e-03,2.368251936710148720e-03,-8.757056948377505475e-04,9.935805946588516235e-02
-4.000827429343492003e-01,-4.033200312505453855e-01,-4.243737445831164967e-01,3.148503795993056603e-03,-1.378866163528503531e-03,-3.585869588253982627e-03,2.441135421395301819e-02
-4.508427886743734403e-01,-3.159217466279401476e-01,-4.475067810490934161e-01,-8.434733440760826956e-03,-5.633636955729720217e-03,-2.403529201530287679e-02,1.407354027032852173e-01
-2.699544254225164086e-01,-4.915596257499589283e-01,-3.283628245447610117e-01,1.603627393356980152e-02,-1.536084332583977363e-01,-1.211796677141545493e-02,3.340291380882263184e-01
-3.992208043362291958e-01,-4.898425828178767372e-01,-2.671278543482065726e-01,1.062099578091918115e-02,-1.260612223003495513e-01,3.035948036993378965e-03,2.926973104476928711e-01
-4.031424807047971903e-01,-5.717933783528326153e-01,-3.032974209570408197e-01,-7.365316611750108433e-02,-1.359234195907678133e-01,9.352790630941358596e-02,3.913993239402770996e-01
-4.190777925924203395e-01,-4.340608230555721425e-01,-3.615626937277193198e-01,-7.930242403155485231e-03,-2.110860008352953565e-02,6.107006837640990317e-03,7.766273617744445801e-02
-4.008908273632355024e-01,-4.290026859033730933e-01,-3.970195692575282931e-01,-2.282715602115971062e-03,-4.399225695445678139e-03,6.846259398364529236e-04,3.145138546824455261e-02
-4.651587949458488302e-01,-4.809494527324624791e-01,-3.394995317151920378e-01,4.017215451536153281e-02,7.117558737127829827e-02,5.740086577478619584e-02,2.189696729183197021e-01
-4.264956929303299615e-01,-4.335122643173054402e-01,-3.817260191109413392e-01,6.991926058206637297e-03,9.040320495830176523e-03,7.612186144802894454e-03,5.416054651141166687e-02
-4.346670477942655708e-01,-4.340011174243317282e-01,-3.470679643661682134e-01,6.717610283747682196e-03,6.650263578974528050e-03,1.132741613676061659e-02,9.093236923217773438e-02
-5.148324172422718004e-01,-3.798178608857142868e-01,-4.385086761086232077e-01,-1.285246774436647407e-02,-2.215135383387273685e-02,-2.018568027871104897e-01,3.714236617088317871e-01
-4.088812632551624970e-01,-3.917219633724373096e-01,-4.352872776215042649e-01,-2.820819283143138727e-03,-2.604488873174416741e-04,6.896179604443965477e-04,3.834487125277519226e-02
-4.318015803995930990e-01,-4.223334671979270261e-01,-3.733580269471679092e-01,9.192245725572589787e-03,3.819481591428169030e-03,1.009229391851198740e-02,5.962184816598892212e-02
-3.900935259191813942e-01,-4.179509040223600702e-01,-4.090789024079415359e-01,-2.762412126670827153e-03,-7.299607223300015255e-03,6.720536167707093916e-03,3.042757883667945862e-02
-3.730655240622737789e-01,-4.317844092685642066e-01,-4.326584289320172805e-01,-5.044514663156520959e-03,-4.175390487659519714e-03,4.570577411234808506e-03,6.075612083077430725e-02
-4.368305456996948721e-01,-4.325170777973558756e-01,-3.631305413121098669e-01,5.573490838302682868e-03,6.023208629110253856e-03,5.008037839864593575e-03,7.355041801929473877e-02
-4.386399504772557356e-01,-4.075347596868791333e-01,-3.790457117401572207e-01,2.255139742886175074e-03,-2.613007205892305465e-04,1.774454379217298150e-02,6.021116301417350769e-02
-4.858251137661113717e-01,-3.099315613808931724e-01,-5.167914421128744218e-01,6.189731744177650458e-02,-1.089459332587406487e-02,-2.512400077242438884e-02,2.260260879993438721e-01
-4.493588076083679383e-01,-2.777432758896434262e-01,-5.602488616174340352e-01,9.322543576599646997e-02,1.168702521546791627e-02,2.233993502434460099e-02,2.979242801666259766e-01
-4.671106075622067366e-01,-2.585962477898632317e-01,-5.708076114929886424e-01,1.379112650442999854e-01,3.462145442604713796e-02,1.887165569223311565e-02,3.709130883216857910e-01
-3.909882341365806258e-01,-4.206877186890587983e-01,-4.283433606105612745e-01,-2.541623317656444350e-03,-2.580663264000080878e-03,3.782857419160941346e-03,3.535994887351989746e-02
-3.916545320768320404e-01,-4.211038455653689505e-01,-4.325448787518539895e-01,-2.542956450009530803e-03,-2.573027257270604426e-03,5.385312220737892980e-03,3.822768479585647583e-02
-3.851626235483236460e-01,-4.187631469737570500e-01,-4.191560279534193856e-01,-2.977577550596901320e-03,-4.449383505962362616e-03,6.334074194676317035e-03,3.672466427087783813e-02
-4.910029779210512424e-01,-3.010038940322606327e-01,-4.971991119734932019e-01,5.329013556131573237e-02,-1.515469346716255550e-02,-4.234514321486924915e-02,2.278226166963577271e-01
-4.106339465924698784e-01,-4.151964648751133025e-01,-4.098901132015371207e-01,5.597521023223287276e-04,-8.579387710546176535e-04,-8.119622644750931414e-04,5.467138718813657761e-03
-4.667117742003620839e-01,-3.129861767825170560e-01,-4.749711771462195031e-01,4.138158267571614285e-02,-7.937792562754272807e-03,-9.353275127662319388e-03,1.748091578483581543e-01
-4.046112074230004407e-01,-4.009261739287847126e-01,-4.197359743963802736e-01,5.165640580959940734e-03,-4.018908862552130271e-03,-1.487891691498220313e-03,2.081396616995334625e-02
-6.025687391215024391e-01,-1.896323408995567728e-01,-5.133155784314292758e-01,6.652796003144811898e-02,-6.182234056421002932e-02,-7.711740039545382508e-02,4.291991591453552246e-01
-3.644441504561225509e-01,-4.793628060099914268e-01,-4.664016251507029365e-01,1.703030146272252465e-02,-4.740401904073861944e-02,-1.343532549597752784e-02,1.415551006793975830e-01
-2.947511784536087642e-01,-5.812289153719705226e-01,-4.242338323390847932e-01,4.441218118671361181e-02,-1.391022955896531466e-01,-3.505271816543195640e-02,3.597125411033630371e-01
-4.597912632107877262e-01,-3.311316143695679504e-01,-4.265407294447974285e-01,-1.229802508075496931e-02,-1.015881891557559799e-02,-7.387045946161546750e-02,1.746847629547119141e-01
-3.965714769092139047e-01,-4.895342619148829177e-01,-4.320179873656805336e-01,3.379442331976569014e-02,-8.149087957912654057e-02,-1.617143150085847969e-02,1.753178685903549194e-01
-3.715190641176204234e-01,-4.215365181579895926e-01,-4.152791081457589129e-01,1.704249731766728504e-02,-2.546591201357568252e-02,-1.425400835813499939e-02,7.519527524709701538e-02
-4.053964622949544627e-01,-4.120797944724239326e-01,-4.124127132775150528e-01,1.315060648683781660e-03,-1.064654341690469703e-03,-3.791009400328309697e-03,9.935121983289718628e-03
-4.406230933181506937e-01,-4.191260516407453451e-01,-3.789323754252522658e-01,-3.640633835107415835e-03,1.751219330391948215e-03,-5.517667326802724176e-03,5.551573261618614197e-02
-3.883588634631310876e-01,-4.307012965588354336e-01,-4.376648604757287786e-01,3.834764185187433672e-02,-5.829587893582303948e-02,-2.640541955950335279e-02,1.372400075197219849e-01
-2.947305253014499971e-01,-4.531245757959195819e-01,-4.207000524565171484e-01,1.426495330010401665e-02,-6.281305807855996903e-02,-6.257290376456768957e-03,1.832171976566314697e-01
-3.876031586621543346e-01,-4.314569711768119209e-01,-4.185705812796297054e-01,2.064547610626742656e-03,-3.731450130843434916e-03,-5.476812007938517204e-03,4.084903001785278320e-02
-4.236222990745352468e-01,-4.432474178780212437e-01,-3.497211811825859940e-01,-4.461801451964760587e-04,2.152278791318676734e-02,-1.113852307528489377e-02,9.518049657344818115e-02
-4.030307248734690262e-01,-4.269243202609839249e-01,-3.986960945126264422e-01,2.719473629475459633e-03,-3.689603410198067854e-03,-1.487712543986224531e-03,2.762116678059101105e-02
-4.155263315318937778e-01,-4.061609033089963461e-01,-4.079720455484004416e-01,-3.211594362469041234e-03,4.111431009248326524e-03,-4.352412383145164848e-03,1.457787491381168365e-02
-3.549852070743644283e-01,-4.808907806993780176e-01,-3.960051065575552198e-01,5.564464702492760879e-03,-7.734012359461671371e-02,-1.137497523578914413e-02,1.754871904850006104e-01
-4.231736951722023798e-01,-3.999517440220395348e-01,-4.025345159903562786e-01,-1.343373729448615796e-03,3.766319204598504982e-03,-4.078922633378270421e-03,2.416267804801464081e-02
-4.203404589617785181e-01,-4.034880497803483013e-01,-4.086525715027657935e-01,-1.368876864211039527e-03,3.059694707990597527e-03,-1.700352154958634059e-03,1.631016843020915985e-02
-4.243202919673313422e-01,-4.056174184769038016e-01,-4.036555788522485644e-01,-1.821303390506514739e-03,8.058838620836645140e-04,-8.640699433273427502e-04,2.011163718998432159e-02
-3.962159378605291105e-01,-4.269302519215525393e-01,-4.074236276469923590e-01,-1.185594356126661465e-03,-2.102541971066681798e-03,2.861446623159426966e-03,2.769092842936515808e-02
-4.041766663365114476e-01,-4.223785154113656737e-01,-3.997471893982820768e-01,-2.993851768748161980e-03,-3.506169611125942772e-03,7.841760547171449129e-04,2.229722402989864349e-02
-4.550059253091287559e-01,-4.406463216027318719e-01,-3.456103186479758671e-01,1.352299660015554312e-03,7.274998276790627062e-04,-1.124123873345510283e-02,1.048279032111167908e-01
-3.898438719621493687e-01,-4.341246317932290766e-01,-4.098444216939405860e-01,-2.927548717856656713e-02,2.619496881490632548e-02,-8.869123878694316551e-03,7.962941378355026245e-02
-4.739708140306146955e-01,-4.550288300793738361e-01,-3.478709182690814528e-01,-6.350455086461931874e-03,1.984986751252025214e-02,-7.021326989629080029e-02,1.731015443801879883e-01
-3.783024524369016373e-01,-4.348756278997147895e-01,-4.176183408021058030e-01,-6.833968368866604089e-04,-5.348610956224830390e-03,1.334376655883405278e-03,5.113320052623748779e-02
-4.019786936169347236e-01,-4.351391268702199944e-01,-3.977894125999282271e-01,-1.163266271351893252e-03,-4.048409928797463628e-03,-8.480955198033790412e-04,3.621421009302139282e-02
-4.829351117331073806e-01,-4.528732237827096108e-01,-3.293196744774946616e-01,-1.231807135602817210e-02,-4.957028070587074856e-03,-3.113959145565334957e-02,1.527134329080581665e-01
-4.081898083597401139e-01,-4.276796520106580513e-01,-3.899747227440231723e-01,-5.831453823627538030e-03,-5.473830336657985185e-03,2.357412459688699568e-03,3.571037203073501587e-02
-4.078019166811404639e-01,-4.167907160343323203e-01,-4.069572739462796185e-01,1.530586901852649864e-03,-1.115225607168610788e-04,2.893286351404916247e-04,9.819408878684043884e-03
-4.356700826043950481e-01,-4.488517924598264264e-01,-3.567310884306700292e-01,-5.961318452041952220e-04,-7.035456664593989912e-03,-1.573270978720684235e-03,8.719322085380554199e-02
-4.110978393541112608e-01,-4.097519480187209462e-01,-4.079329464490847323e-01,1.838679193380963551e-03,-5.623479095651094705e-04,-1.502232607786440797e-03,5.042757838964462280e-03
-4.060152494847629190e-01,-4.111757317252580091e-01,-4.189600789587737406e-01,-2.344754131954093161e-03,-1.481744315261420602e-03,5.091248219196159094e-03,1.510762609541416168e-02
-4.114430775798391671e-01,-4.097379500823638554e-01,-4.102086604628596422e-01,6.541872440583248495e-04,-8.305417756178335928e-04,-2.800864955311758000e-04,2.432084176689386368e-03
-4.105553308559237169e-01,-4.094281475245849511e-01,-4.117889485488062662e-01,5.722992485644688839e-04,-1.061499395516688447e-03,-3.330271517038772789e-04,2.979683224111795425e-03
-4.120011147757973724e-01,-4.013922702341287674e-01,-4.138120835712169043e-01,-1.417274574576670148e-03,-4.362766181262661691e-03,1.614934286482352325e-03,1.435237657278776169e-02
-3.888839751651840815e-01,-4.274829632587434647e-01,-4.304347107665373318e-01,-1.963111756498199523e-02,-1.666439323425714103e-02,1.091618838580576609e-02,6.292270869016647339e-02
-4.110449882554157441e-01,-4.220890796814187329e-01,-3.952681149239306579e-01,-5.590788623954156752e-03,-2.872014920155586265e-03,2.922693512567109062e-03,2.625386603176593781e-02
-4.114332199447520155e-01,-4.116436625664925408e-01,-4.104474290760016242e-01,1.882039888281679007e-07,-5.614505615290440880e-04,-6.945814456734878024e-04,1.901718322187662125e-03
-4.097690989492208669e-01,-4.120135900957326291e-01,-4.112829593070503331e-01,1.765650108554500143e-03,-1.750760783792795067e-03,-1.270957714552105712e-03,5.227400921285152435e-03
-4.106118157885109698e-01,-4.104188290252124838e-01,-4.111719563528211108e-01,1.146726160437324814e-04,-4.284441952900520261e-04,7.025295864154589660e-05,1.031528110615909100e-03
-4.552048272816076047e-01,-3.206877595547005244e-01,-4.440481837653799668e-01,-1.676615254269328906e-02,-5.752769201695769920e-03,1.592067819228654146e-02,1.357260197401046753e-01
-4.571092039266337892e-01,-3.029504878339107643e-01,-4.609482257794474958e-01,-3.919379127038638555e-02,8.535304818417802780e-03,1.261168071382759957e-02,1.722662001848220825e-01
-4.558437120934671349e-01,-3.173152414855583414e-01,-4.497569964467290071e-01,-2.590963892654689349e-02,9.952810250439697928e-03,-2.265733408397263213e-02,1.491146236658096313e-01
-4.631016292676833346e-01,-3.040912461145490187e-01,-4.596039437895138580e-01,-2.801067205931715223e-02,3.994447242553966423e-03,3.490596224590026414e-02,1.754916161298751831e-01
-3.780736559176436362e-01,-4.269436541693516496e-01,-4.606695443555900438e-01,-3.807317154348530130e-02,-7.274756007919216342e-04,-2.961281121596102180e-03,9.772661328315734863e-02
-4.088112387827775307e-01,-4.139416113449406742e-01,-4.079658030852030826e-01,8.873982465483730431e-04,-7.126315086309982418e-04,-1.944296344631317496e-03,6.826397962868213654e-03
-4.076679435618335012e-01,-4.074427438114743838e-01,-4.130022111112112149e-01,5.416482241987529214e-04,-8.496480287616968484e-04,-1.987910580317222512e-03,6.678893696516752243e-03
-4.069416576995693591e-01,-4.144439102764950200e-01,-4.059240191399145492e-01,4.761842764029028049e-03,-4.842149562569792419e-03,-4.426922755642659357e-03,1.618986018002033234e-02
-3.967426791412878573e-01,-4.199555081133112266e-01,-4.123019308820649598e-01,1.948783191168868435e-03,-2.961392824896704086e-03,-3.834431359450432217e-03,2.239559963345527649e-02
-4.059493975320752623e-01,-4.143950950708704117e-01,-4.138000817264749220e-01,1.317508168012434915e-03,-1.066532479709275585e-03,-2.504931167617912777e-03,9.700646623969078064e-03
-4.062293072335497190e-01,-4.061507657527366200e-01,-4.186901537845154619e-01,3.020533893461216195e-03,-3.943879046134642075e-03,-2.540573388970590509e-03,1.580045931041240692e-02
-4.234217100239600073e-01,-4.038584788534951842e-01,-4.051137674493688889e-01,5.476342621137917938e-04,-1.873492308439227757e-03,-9.068996802040837782e-04,1.932964846491813660e-02
-4.076317478967221852e-01,-4.100943809029594100e-01,-4.139834841508802654e-01,3.993466544614741529e-03,-4.784417211303883255e-03,-4.647746577155434031e-03,1.456320844590663910e-02
-4.092115653103088335e-01,-4.104084475606006865e-01,-4.116987029257833663e-01,6.850517519171025809e-04,-1.003019434231599638e-03,-2.118575881563365855e-03,4.746861290186643600e-03
-4.164553548403960859e-01,-4.075332502346965535e-01,-4.055967594122887876e-01,3.549050447028516842e-03,-2.306711850371849677e-03,-2.944828749560328331e-03,1.343121752142906189e-02
-4.025993897068184113e-01,-4.201584377258713032e-01,-4.077917951920176920e-01,1.897098706958373193e-03,-1.979308152652907611e-03,-3.873336560711457960e-03,1.765405572950839996e-02
-4.048902818751031196e-01,-4.202685026622555164e-01,-4.051365398188291889e-01,2.172597949033790860e-03,-5.527958946366924413e-04,-5.801458615193992325e-04,1.577498950064182281e-02
-3.963313225642863813e-01,-4.363782465305045544e-01,-4.127376416895927602e-01,6.717740059321832859e-03,-1.287695398166440776e-02,-6.006032241600853597e-03,4.423742741346359253e-02
-4.098326568708041129e-01,-4.196308130723480634e-01,-4.027707898690083277e-01,5.044653009076765018e-03,-2.663820904863137447e-03,-1.689043938815778254e-03,1.792370341718196869e-02
-4.040109884386610672e-01,-4.243791423994965895e-01,-4.047243438170211594e-01,2.924578614108211058e-03,-5.690163698557178934e-03,-4.290616782030957053e-03,2.405955828726291656e-02
-4.022405693604368948e-01,-4.333453008796044337e-01,-4.025286079088052915e-01,1.588788344061433690e-03,-6.672084194526902400e-03,-1.394275400472792022e-03,3.325030580163002014e-02
-3.980134676832702834e-01,-4.297631379565982068e-01,-4.084166293322712415e-01,1.177702203958817372e-03,-2.386746793595265377e-03,-4.073790445147683348e-03,2.927470393478870392e-02
-4.003101602543818749e-01,-4.233716479173334490e-01,-4.045444581002826667e-01,1.712651850040802434e-03,-2.787621534979636655e-03,-3.560000076223838236e-03,2.285268343985080719e-02
-4.019632953368298955e-01,-4.269875060277215084e-01,-4.024824512573416668e-01,8.645628393148265499e-04,-8.167141921629068576e-04,-1.532131141084853163e-03,2.499549835920333862e-02
-4.075956098322173204e-01,-4.384566610145834153e-01,-3.789010865454540133e-01,3.099048361057854268e-03,-7.985245587596237482e-03,-2.310725953753448199e-03,5.382793396711349487e-02
-3.994629195404040822e-01,-4.269431587390675187e-01,-4.047053546752465980e-01,1.897502623222890308e-03,-2.260108039358191441e-03,-3.295837288784204695e-03,2.640637755393981934e-02
-4.204956233352239447e-01,-4.051797343112972793e-01,-4.105979573255731929e-01,-1.818306707244254699e-03,-4.447334294807587032e-03,1.626987517461135884e-03,1.606689207255840302e-02
-3.998902575902289480e-01,-4.326853217477401037e-01,-4.017953056684512858e-01,2.480394388693145618e-04,-9.926989252520656941e-04,-2.432376397832348969e-04,3.193724527955055237e-02
-4.355539526363529368e-01,-4.001595064165567317e-01,-4.126515029908390808e-01,-5.010873295675077194e-03,-5.274021393292065846e-03,1.331882470981627514e-02,4.071382060647010803e-02
-3.941466121965009894e-01,-4.365492417618928589e-01,-4.077825777054165934e-01,-3.434095058833072818e-04,-2.644966586863293535e-03,-8.310876326396520299e-04,3.780390322208404541e-02
-4.319835214976089910e-01,-3.849426506857566155e-01,-4.060357970559499430e-01,-1.757526556223928385e-03,-3.471989766379431682e-03,8.890671172477646045e-03,4.413714259862899780e-02
-4.001172652438253485e-01,-4.329088443052570567e-01,-4.030945266245055669e-01,-3.673003571127145999e-04,-1.097262002533591066e-03,1.304575070023414676e-03,3.155384212732315063e-02
-3.932110029202756096e-01,-4.357347825197384616e-01,-4.083118674146691274e-01,-1.123146103491623037e-03,-2.415053633841646175e-03,2.390716959747003854e-03,3.784957900643348694e-02
-3.925065130967789195e-01,-4.323116958109498031e-01,-4.068987212524566299e-01,-4.548212926280322129e-04,-2.583099717588935480e-03,7.126265321626668557e-04,3.522591292858123779e-02
-4.508172149599954381e-01,-4.354589406876313573e-01,-3.901667176904020651e-01,-1.562784917981888469e-02,-2.519140001919680308e-02,3.364917790672615483e-02,9.495358169078826904e-02
-3.959006388500224127e-01,-4.309835607930143642e-01,-3.942034083750473594e-01,-3.982291248206093481e-03,-1.161273636080790116e-02,3.361017910581244952e-03,4.218136891722679138e-02
-4.034714698822345902e-01,-4.278315605115385889e-01,-4.059475932906009277e-01,-9.677368383785296506e-04,-7.502920039442781235e-04,2.194103723394934431e-03,2.362556383013725281e-02
-4.280658188753957427e-01,-3.899109661475185229e-01,-4.071688613271115531e-01,-2.706037072994526768e-03,-5.281363894381418608e-03,7.878895114386283774e-03,3.724288567900657654e-02
-4.180301678415537792e-01,-3.907797031548487232e-01,-4.042522255419879751e-01,-6.153262406190814979e-03,-9.004102873654072636e-03,8.242272603453892899e-03,3.343020752072334290e-02
-4.010742343826536604e-01,-4.235933924995660682e-01,-4.043096339099427894e-01,-1.583249911654399005e-03,2.946428745459134160e-03,-3.569968741921310165e-03,2.272708155214786530e-02
-3.969147873656861947e-01,-4.290662753330305446e-01,-4.100583779422289910e-01,-1.536455865993933837e-03,-1.625542403321568203e-03,4.520272408819822271e-03,2.932906337082386017e-02
-4.055041335060575736e-01,-4.242619249050123553e-01,-4.040911011997787572e-01,-2.153114463541425105e-03,8.145416656874258704e-04,-8.502007938533078088e-04,1.996054686605930328e-02
-4.058829465046610574e-01,-4.201690120400193851e-01,-4.087679358406486330e-01,-8.094276887388053955e-04,-2.756163309743460323e-04,1.966745343798422235e-03,1.360137388110160828e-02
-4.060584000397834958e-01,-4.090148023190013915e-01,-4.254004715688025073e-01,-7.672677024200031011e-03,-7.253241258749871037e-03,3.197488499322143594e-03,2.628275752067565918e-02
-4.027450037027685559e-01,-4.198028156888513052e-01,-4.095244400592709111e-01,-1.307806182071042170e-03,-1.963523999730689730e-03,3.769397964426773971e-03,1.675141230225563049e-02
-4.100513512582697473e-01,-4.174031368844701717e-01,-4.063980359727011882e-01,-3.366785900635476964e-03,8.684208995754072848e-04,-1.225762567139312975e-03,1.162022165954113007e-02
-4.048924228789222979e-01,-4.139068594999031347e-01,-4.093447729883671893e-01,-1.401350254039953995e-03,1.604604675130200369e-03,-2.846677107645921405e-03,9.943559765815734863e-03
-4.057805529570476244e-01,-4.206696286184626876e-01,-4.082430939432203920e-01,-1.063949607616241407e-03,1.112918223406053489e-03,-7.661399420660889746e-04,1.414059288799762726e-02
-4.068066488836260541e-01,-4.161440037700114836e-01,-4.077150831521502705e-01,-6.139775183863457105e-04,4.412618551498874550e-04,-1.662077196697306098e-03,9.462115354835987091e-03
-4.478257086932976860e-01,-3.524962420018173392e-01,-4.351891425399212476e-01,-1.179370153800111259e-02,-1.563173642286059357e-03,7.429190344718407044e-03,9.291359782218933105e-02
-4.088609082447171028e-01,-4.139700089878828315e-01,-4.263605083811037311e-01,-1.023130044254740197e-02,-5.580997301780616857e-03,6.001497087021910246e-03,2.754027396440505981e-02
-4.241514485121526401e-01,-3.780481245266972268e-01,-4.301902223560709060e-01,-6.892521379176199531e-03,-6.928453723885404959e-03,3.652143301096874486e-03,5.260167643427848816e-02
-4.107613365401571737e-01,-4.142963287495363134e-01,-4.093134681900688632e-01,-1.510497673339037707e-03,-2.206265724092710493e-04,5.797162570312947710e-04,5.264004692435264587e-03
-4.048053432588946676e-01,-4.120026181710644830e-01,-4.142946029228103955e-01,-1.550415397387291342e-03,-1.787273922430989695e-03,3.223055215257646187e-03,1.102309674024581909e-02
-4.033150289308347070e-01,-4.029224079623703880e-01,-4.244537575332477108e-01,6.137037715574747594e-03,4.244129438135832433e-03,4.060458006211134334e-03,2.591889351606369019e-02
-4.139689225725952104e-01,-3.998673144715850225e-01,-4.192713509006351646e-01,-9.125133665514019118e-05,-5.534537520815358685e-03,-2.696688689148004324e-03,2.038329094648361206e-02
-3.728709643445045074e-01,-4.631825545998460858e-01,-2.232561914824482963e-01,-4.523390498462232651e-02,1.407800458423139611e-01,-5.967992350294911569e-02,3.468907177448272705e-01
-3.583214966632556342e-01,-4.340211070242754321e-01,-4.443652972955063341e-01,-5.724929638193376746e-03,-7.592466538030345942e-04,5.978269455716306302e-04,8.198542892932891846e-02
-3.899970960971007594e-01,-4.238835914259445614e-01,-4.117640547238909376e-01,-1.224658455823488326e-02,1.376066193363341406e-02,-1.169106538787293044e-02,4.808883368968963623e-02
-4.204028904141883793e-01,-2.497743309453396288e-01,-5.671483486427812970e-01,-1.081741033744276631e-01,-1.766919409510437494e-02,7.300679822938940799e-02,3.573776483535766602e-01
-4.189124929446425560e-01,-3.790954790719576750e-01,-4.420952372766099869e-01,-3.854657624820210810e-03,-8.556361328602695576e-04,2.350394341685346853e-04,5.561329796910285950e-02
-3.413396914789892378e-01,-4.439800886081974873e-01,-4.428428485551660354e-01,3.750776209669021664e-03,2.776342436988630830e-03,1.224201565717337840e-03,1.024179831147193909e-01
-4.142770566693940726e-01,-4.050427734419723702e-01,-4.146567517801232339e-01,-1.101174065155640768e-03,2.556184710596127486e-03,-1.764121894330454099e-03,1.102264691144227982e-02
-3.973616192838290151e-01,-3.401371829446266926e-01,-4.256182385949929814e-01,-4.913495884187744911e-02,-2.682048254334173931e-02,3.129553973434022474e-02,1.342721879482269287e-01
-5.569847347221588141e-01,-2.053989185017540409e-01,-4.561435402955550389e-01,-2.447199158122816132e-02,-4.310387247327164550e-02,-1.037945184168107549e-01,3.715071678161621094e-01
-5.036174210375381488e-01,-1.933968422130609988e-01,-5.857947418804072548e-01,-1.750669104732826414e-03,3.084178793756535072e-02,-6.872407428344272373e-02,3.814640939235687256e-01
-4.507521835566085655e-01,-4.428321084917689610e-01,-3.424108493856369284e-01,-2.037203530499107862e-05,2.117900620357296600e-03,1.454767305224679771e-02,1.076608672738075256e-01
-4.569123195653523872e-01,-4.478944536912231600e-01,-2.103434085230435624e-01,-1.334261293126315709e-02,4.966053248497956374e-02,-7.742961483842432380e-02,2.908137440681457520e-01
-4.183720795949227855e-01,-3.809802815651878172e-01,-4.293498935381251380e-01,5.720114071458864968e-03,-4.464988312442945244e-03,-1.436712940890990048e-03,4.575258493423461914e-02
-4.175863447555642760e-01,-4.059217835368374994e-01,-4.107778474707458605e-01,1.463332383640925148e-03,-3.965726260578677706e-03,-2.346994334737086824e-03,1.315787248313426971e-02
-4.437703573942587965e-01,-4.321886149298925783e-01,-3.620502795655655692e-01,1.186316986408175820e-03,6.080371556371360654e-04,6.001595342147925637e-03,7.732551544904708862e-02
-3.873874192931895388e-01,-4.312807859839498104e-01,-4.195387793637255225e-01,-1.870440732577853538e-03,3.585243169539050877e-03,-5.246460420981138503e-03,4.099682718515396118e-02
-3.318739590133633621e-01,-5.217703790332983704e-01,-5.956616776721106454e-01,1.862619807882929246e-01,4.455030671447349211e-02,3.319499444814062727e-02,4.109656512737274170e-01
-2.052492984832896550e-01,-4.693201432013598962e-01,-4.465702177649842897e-01,5.676383182477969663e-02,-6.782826393646326779e-02,-1.263919039084640365e-02,2.969697713851928711e-01
-4.759069550518106317e-01,-3.299345634811085559e-01,-6.342738583802128849e-01,-2.046104826946236188e-01,1.398767231446842139e-02,-1.255328834058670219e-02,4.429009854793548584e-01
-4.351925244473122678e-01,-3.772214015399240061e-01,-4.219446272800715936e-01,1.006989747152517781e-02,-8.415307554603731338e-03,-1.297321853591608225e-02,6.156083568930625916e-02
-3.931046848293208162e-01,-4.022248920739335820e-01,-4.560236012099445624e-01,-4.173855828847826410e-02,-1.495894990151463858e-03,4.681544317783154982e-03,9.363183379173278809e-02
-4.391976541943863332e-01,-2.736987117537350578e-01,-4.696260649645121465e-01,-7.113542440068654216e-02,4.332728723681035510e-02,-1.032187377301479886e-01,2.934731543064117432e-01
-3.377409418455090684e-01,-4.978444178291276945e-01,-4.850341230021454342e-01,-3.330238287118218038e-02,-3.090992972128800767e-02,4.549990930074156864e-03,1.732102185487747192e-01
-5.102495009518445146e-01,-2.095193090047956508e-01,-6.319964428162160308e-01,-3.117952494257264506e-02,-2.292424319695315904e-02,6.043954842598882327e-02,3.966431915760040283e-01
-3.385813113438777000e-01,-4.456983867552542500e-01,-4.449978678287264677e-01,2.916274961261703432e-03,-1.327447516559832064e-03,-1.602599822946912508e-04,1.069130450487136841e-01
-4.673108791771741211e-01,-4.799924180941936291e-01,-5.017038171763334997e-01,1.405441394108825903e-01,-1.193887319239679418e-01,-1.286286826629766677e-01,3.905925452709197998e-01
-4.218128798642897803e-01,-3.861112372321107711e-01,-4.314266762610597938e-01,6.590385966763052245e-03,-5.815238600207211540e-03,-3.403210469635403312e-03,4.446073248982429504e-02
-4.203316181921264438e-01,-3.785791035018218897e-01,-4.406529257690516288e-01,4.523217940767182421e-03,1.327210923724279467e-03,-5.427310022474708098e-05,5.541990324854850769e-02
-4.089938542491860507e-01,-4.061686759405284675e-01,-4.132146047058199989e-01,2.067995720695116422e-03,-2.363808246688931230e-03,-1.123048844819487992e-03,8.431905880570411682e-03
-4.102279865527659330e-01,-2.670920304044457350e-01,-4.654975124955470500e-01,-1.011858690110262332e-01,-3.806801574876705896e-02,6.955191083580140876e-02,2.846565544605255127e-01
-4.474288724329282263e-01,-2.824018256415200545e-01,-6.070308715579191272e-01,-1.222724535590290484e-01,2.333190078959202288e-02,-3.227425683623054431e-02,3.586851656436920166e-01
-4.456038745346053154e-01,-4.327803436897667555e-01,-3.593338798825945757e-01,-2.900152494812346937e-03,-2.059996181463439463e-03,5.844260579582947167e-03,8.149293810129165649e-02
-4.345974632532259574e-01,-4.041412711545039338e-01,-3.844071906042073050e-01,-6.259843755640179946e-03,-1.040682090179902326e-02,2.232811013832478389e-02,6.209778413176536560e-02
-4.309108439135064250e-01,-4.046833829770384305e-01,-4.001054829849536865e-01,2.303344116949850549e-03,1.794189023192417675e-03,5.552291062874610897e-03,3.077273070812225342e-02
-3.793390503540356451e-01,-5.366723355891761527e-01,-5.450501026221006295e-01,1.711561714422523695e-01,-1.271633460022919271e-01,-8.552828128680917130e-02,4.295138716697692871e-01
-4.420458169710502205e-01,-3.436087272101905343e-01,-4.439714263934501082e-01,8.150083457339347623e-03,8.007318816730408378e-04,1.909738244118870968e-03,1.004751548171043396e-01
-4.191292815737034383e-01,-4.105435207664367980e-01,-3.890438355519476032e-01,-8.891132293677815948e-03,-7.285206358031839219e-03,6.221370290255536992e-03,3.511464968323707581e-02
-4.328801789241161213e-01,-3.996873273861568654e-01,-4.021645762086716314e-01,-1.046473551506357910e-04,-3.248546668422642048e-04,8.317747241279083202e-04,3.206400200724601746e-02
-3.368724729339408475e-01,-4.429141479378985169e-01,-4.437905171134569615e-01,3.838970839418113070e-04,2.736530679973063571e-03,7.164032418689311385e-04,1.065972968935966492e-01
-4.311523272766142889e-01,-4.013844349427723168e-01,-3.999632909999722985e-01,-4.130481246535119117e-04,-3.158183218474604030e-04,9.588921496900662577e-04,3.056175634264945984e-02
-4.022507213507816592e-01,-4.017567337640786662e-01,-4.278759120235376412e-01,1.020995110475746192e-03,-1.865063665924636318e-03,-8.234280847408834364e-04,2.617536485195159912e-02
-4.425697647672324209e-01,-3.529974032635651571e-01,-4.476617358090233534e-01,-2.730085707789104213e-02,1.884321769492735806e-03,2.334882599280598166e-03,1.037701964378356934e-01
-4.642770609393876979e-01,-4.640306596153497276e-01,-3.161228289844364436e-01,1.526570957836313400e-03,-5.608379646981500634e-03,4.107406705642837469e-02,1.645473241806030273e-01
-2.226105375612705273e-01,-4.542036618036160434e-01,-4.689256928673525837e-01,8.627302961556876371e-02,-4.797918731068230580e-02,-2.652309414438465060e-02,2.976695597171783447e-01
-4.325604635675573961e-01,-4.033090409739478743e-01,-4.004543092655151182e-01,-1.571038678945902399e-03,-3.023937657684088918e-04,9.819662384775353775e-04,3.094950318336486816e-02
-4.323645396579277600e-01,-3.994304103874528056e-01,-3.992114753472025823e-01,-3.411209081563916002e-04,-5.832959788308101929e-04,1.939208335709217577e-03,3.323502093553543091e-02
-4.357071422404396599e-01,-3.947033479236297659e-01,-4.062837800960369394e-01,1.988385537538094180e-04,-8.348565416589002726e-04,2.556274846844416512e-03,3.691055625677108765e-02
-4.316427093999755105e-01,-4.036915251033521002e-01,-4.005440236221492478e-01,4.726917865497484196e-04,9.071545964753840270e-05,2.178413853953127966e-03,2.990122698247432709e-02
-3.907479990046046625e-01,-3.345145972315899940e-01,-5.446150148994344242e-01,-1.477613273217540657e-01,9.985223556579799278e-03,8.127350908036509725e-02,3.480017483234405518e-01
-4.461806718390176618e-01,-3.536852373515527725e-01,-4.738585332992856225e-01,1.037676580126448145e-01,-1.212378897086548307e-01,-1.049996108466962896e-01,3.483609557151794434e-01
-4.000802206092421431e-01,-4.141704110563447228e-01,-4.343052643858265061e-01,-1.289980777880305948e-02,7.466786729853117609e-03,-7.500724278329595762e-03,4.150790348649024963e-02
-2.678753321503116736e-01,-4.022846723989872975e-01,-4.519411355532361174e-01,9.651336212658026548e-02,6.213341283276273275e-02,2.897012489796768619e-02,2.631537616252899170e-01
-4.203127675662396423e-01,-3.993865606362287934e-01,-4.875579551393919298e-01,-8.087911804574327013e-02,-1.752212253754069013e-02,2.276585833463149952e-02,1.687223464250564575e-01
-3.148888354715689841e-01,-4.125226643253187553e-01,-4.583834255138916070e-01,-5.911540988762762489e-02,-9.175718878812945400e-03,3.826499340409499766e-03,1.639924943447113037e-01
-4.275588265988466419e-01,-4.094568086317822986e-01,-3.961072170283475580e-01,3.418950246099580412e-03,3.183375294946913904e-04,2.223031056056070254e-03,2.824440598487854004e-02
-3.241885443603081396e-01,-4.287480104359271404e-01,-4.501772348777101085e-01,1.039097962901111699e-01,1.024827989664564426e-01,6.121150311473352174e-02,2.979479432106018066e-01
-4.216176647105621678e-01,-3.986085589006504448e-01,-4.103597273215106589e-01,2.441527625716203870e-03,4.624324130436915578e-03,1.917640496697462426e-03,2.214031107723712921e-02
-4.363994768157319903e-01,-3.940990440024167429e-01,-3.929594095787939390e-01,-3.110086593158786544e-05,-1.700106267638301551e-03,1.118070155727315246e-02,4.714372381567955017e-02
-4.900338619795365780e-01,-4.147008910573717344e-01,-4.068374105149502595e-01,2.615333415555590874e-02,2.744328216558183584e-02,7.489732537134485835e-02,1.657392233610153198e-01
-4.649455709331153930e-01,-2.638225936222329260e-01,-4.002063999649380643e-01,-4.970145897965223131e-02,-3.029123450818449470e-02,1.240467057497882941e-01,2.965589463710784912e-01
-4.984220782408825823e-01,-5.052121593250470388e-01,-2.568028049446297034e-01,-8.265123145732355958e-02,1.325082115036014252e-01,-7.184080676804732724e-02,3.856408298015594482e-01
-3.789261736085434706e-01,-4.342892216314269138e-01,-5.109861945656712923e-01,-7.389131051840530651e-02,3.779574187667713789e-03,-4.724236658267632824e-03,1.722882986068725586e-01
-3.815018881569943732e-01,-3.809033915395659831e-01,-3.130276701405363404e-01,-9.825383008540636287e-02,1.165941860025819787e-01,-1.351505507105346671e-01,3.594289422035217285e-01
-4.069884484650505563e-01,-4.292703469223612678e-01,-3.939399416922346742e-01,7.148092461916822488e-03,8.632609368409083911e-03,4.408364783009436488e-03,3.731815516948699951e-02
-4.183485819168012987e-01,-3.779712622492515384e-01,-4.356947094492371608e-01,-4.809514141532826234e-03,3.788716261590473807e-03,-6.354203311340603146e-04,5.239536985754966736e-02
-4.168453982270671210e-01,-4.055020252510762591e-01,-4.086562584648278929e-01,-2.118279671937383160e-03,3.050656479508011536e-03,-2.386831968787451585e-03,1.270092092454433441e-02
-4.069755856831225871e-01,-4.180148432383923862e-01,-4.093549448537205926e-01,-3.182933355248636700e-03,3.029686870042971013e-03,-3.207497887381622302e-03,1.378602627664804459e-02
-4.804352886961218982e-01,-3.060060959216301391e-01,-4.788713009733195913e-01,-5.179501331479022253e-02,-1.094936935924692434e-02,9.587846601452856832e-03,1.970756202936172485e-01
-3.171097902792499590e-01,-4.608556294252251218e-01,-4.578997745446021228e-01,1.177706792828852288e-02,-3.187033988488731373e-02,-1.051101607577835384e-02,1.550529301166534424e-01
-3.802748628041323631e-01,-2.732640105321037516e-01,-4.798927265902450667e-01,-1.319119731076122126e-01,-1.839881033517601697e-02,2.374179326403541221e-02,2.948628664016723633e-01
-4.572657913304509769e-01,-3.575273523938934384e-01,-4.163939861560308486e-01,-4.701925734248511846e-02,1.825379859369434185e-02,-6.754446908159796037e-02,1.698839962482452393e-01
-6.022172067996816036e-01,-1.906960770227260071e-01,-5.869998146045427578e-01,1.628487699033455416e-02,-2.987122068658659311e-04,-7.724148255237076044e-02,4.266304373741149902e-01
-4.245781831985343535e-01,-4.047388025478001472e-01,-4.134539209484549005e-01,7.216016222717322459e-03,-6.539169027552853286e-03,-9.049004673275844179e-03,2.875413186848163605e-02
-3.878566805631923353e-01,-3.931304477826573773e-01,-4.334062868792663559e-01,-1.515194323309499748e-02,7.570898245658925227e-04,-1.555879214012044444e-03,5.059730634093284607e-02
-4.721432152457522013e-01,-2.827278827976085762e-01,-4.672490326149514872e-01,7.450684018153727606e-03,-2.016192153501635345e-02,-2.971255721529393601e-02,1.975085884332656860e-01
-5.876654748133025574e-01,-2.181039474882669194e-01,-5.899574240620132359e-01,5.026157417910417230e-02,-3.254062432355572191e-03,-7.182147395388127631e-02,4.006412327289581299e-01
-4.275445608735967129e-01,-4.043330237499164759e-01,-3.996816055024425274e-01,3.299296739939545572e-03,-1.500801706635304699e-03,-2.674597066818901886e-03,2.700465545058250427e-02
-6.319168836821876800e-01,-2.286729731443009062e-01,-6.333681254269274419e-01,-7.512961842610216268e-02,5.991670732229373644e-03,-4.240922354247844694e-02,4.308476150035858154e-01
-3.421821331860575022e-01,-4.465919675002737455e-01,-4.467789175404140445e-01,3.291296704662590410e-03,1.916850342919063479e-03,-9.997962398751421634e-04,1.047257706522941589e-01
-4.190642712707237094e-01,-4.291452299059155262e-01,-3.863909852804131573e-01,-4.414752647206986874e-03,3.751764734442236942e-03,-2.334251726232626847e-03,4.019441455602645874e-02
-5.801277572430799667e-01,-1.976633412532845524e-01,-5.229716142342311080e-01,-7.071565658172154767e-02,4.108455591594918632e-02,9.329452285771240236e-03,3.847241997718811035e-01
-4.531858199901854234e-01,-4.110597795890656991e-01,-3.427364779052856081e-01,1.051527402026772480e-02,1.556473048221115960e-03,-4.620581350573454288e-02,1.267469078302383423e-01
-4.192778861055542761e-01,-3.882257630758603195e-01,-4.316865162337396589e-01,-4.158659101636633451e-03,4.515914822286221965e-03,-1.552194998528932729e-03,4.029658064246177673e-02
-6.114284600792172508e-01,-2.294690373922316229e-01,-6.238381859761685799e-01,-8.315235885290517270e-02,2.464242088676834794e-02,-4.085408442575261256e-02,4.223255515098571777e-01
-4.357762447288740515e-01,-4.005968818629265238e-01,-4.123321398954704620e-01,7.570420831979899484e-03,-5.170029596291748214e-03,-1.309921217471988683e-02,4.158550873398780823e-02
-4.302176990128980805e-01,-3.833025619958190244e-01,-4.007168380187230983e-01,1.266273166614749306e-02,-1.021034660397709438e-02,-2.317623971751784501e-02,6.397262215614318848e-02
-4.717455305853333059e-01,-1.917493968647441815e-01,-4.654887610329347947e-01,-3.043569328160531176e-02,-1.729880729454400792e-03,-4.960325974412054667e-02,2.947109341621398926e-01
-4.260797431986141359e-01,-4.416960945118773019e-01,-3.835180860900665456e-01,4.652595402057712465e-03,2.249252692245845564e-02,1.523797581634889903e-02,7.070566713809967041e-02
-4.316176641596422003e-01,-4.857916030985177103e-01,-3.655386152497706598e-01,-1.452294285687987796e-01,1.487055871993113731e-01,-9.610587484883387210e-02,4.101278483867645264e-01
-3.912525331936973494e-01,-4.071414329064891868e-01,-4.181416905230634362e-01,8.224378932172414849e-03,4.828549431720393498e-03,9.555733858389110075e-03,3.309149295091629028e-02
-4.420861670444862779e-01,-3.487003214343596946e-01,-4.436624865211822311e-01,-1.001410353409933930e-02,2.983541501607343046e-03,-3.222015948061809128e-03,9.606926143169403076e-02
-4.196771074226244291e-01,-4.359939034356331566e-01,-3.760668810711185750e-01,2.569580567706547698e-03,5.676326854312471228e-03,1.044194872100955712e-03,5.476687103509902954e-02
-4.020634476148560177e-01,-4.314274958264875948e-01,-4.014308238053934663e-01,2.146279120332146063e-04,8.188078123857834905e-04,3.701861720748953442e-04,2.972851507365703583e-02
-2.849420138347227294e-01,-4.675561118031950070e-01,-4.349185483661490714e-01,-9.442983162721335644e-02,1.138854890497368044e-01,-2.969135560732675400e-02,3.110602200031280518e-01
-3.996161418260794074e-01,-4.299250891105177441e-01,-3.965288315933768182e-01,-1.551325888942050929e-03,3.561805666868262353e-03,-5.489846809547957798e-04,3.267904743552207947e-02
-6.062975695482905047e-01,-5.551159145248630855e-01,-2.415584464167936374e-01,-1.712499080364051837e-02,1.920504562347623984e-02,-1.351192189932459153e-01,4.168262779712677002e-01
-3.943521700973477428e-01,-4.123032646305440085e-01,-4.221572857050616689e-01,-4.608284826608043117e-03,1.995633862491042257e-03,-6.941284215030331037e-03,2.857332304120063782e-02
-4.928531623644426540e-01,-3.235301100490755588e-01,-5.038461651682897280e-01,-4.140143977005035503e-02,2.509522838219005632e-03,-7.661807567506226553e-03,1.897096484899520874e-01
-4.226782908215975798e-01,-1.912141375081879979e-01,-4.670721445495501500e-01,-1.027850918883576603e-01,1.252820795510164661e-02,-2.845850036530710517e-02,3.168862760066986084e-01
-5.038310813416417844e-01,-3.067174952822876999e-01,-5.036953604457315992e-01,-9.886211634521484617e-03,-1.007768282537912369e-03,-1.888615867669368037e-02,2.004828006029129028e-01
-4.226284797060148590e-01,-4.009882368328742674e-01,-5.049689155725350931e-01,-8.219094704002818941e-02,-7.120664451792073010e-03,9.751469826470546970e-03,1.724342107772827148e-01
-6.004423224921415780e-01,-5.852313610434847213e-01,-2.295155560496631164e-01,-2.005578309595117126e-02,4.725732284341714606e-02,-9.476765888343113842e-02,4.086870253086090088e-01
-3.998230881142958437e-01,-4.034728165555326873e-01,-4.233299246897453960e-01,-3.714807360588800230e-03,1.504501693786365049e-03,-4.318412893149247908e-03,2.417094074189662933e-02
-4.195141888756328541e-01,-4.295392843442849551e-01,-3.862270127117959362e-01,5.396660239593785956e-03,3.552864404779929389e-03,2.032605497603395817e-03,4.098634794354438782e-02
-4.549962866261529904e-01,-2.973139437184387224e-01,-4.945333326331096679e-01,-2.154294402038786638e-02,-4.603327679422413235e-03,-1.858691742805541891e-02,1.874926090240478516e-01
-3.597346332516399015e-01,-4.634484649244134391e-01,-4.813370648613343183e-01,4.445929486087260574e-02,3.285380925726844037e-02,1.309541949024320764e-02,1.503806263208389282e-01
-4.241548096013710856e-01,-4.244374568371177547e-01,-3.924165007640044722e-01,-9.164305506113997260e-03,1.052618355981200723e-02,-1.126523893346854759e-02,4.451340064406394958e-02
-4.463464782629503746e-01,-4.052327418224114797e-01,-4.030551512364125011e-01,-3.474998112427899865e-03,-6.587344520061644108e-03,3.724446184826549211e-02,7.818226516246795654e-02
-3.376107917042892592e-01,-4.345662002982817462e-01,-4.292309899097038750e-01,2.824552226829656759e-02,3.299086202742611273e-02,1.222475918238003986e-02,1.225499585270881653e-01
-5.079521060911520447e-01,-2.779708550155584046e-01,-4.647548324913455264e-01,1.203175295475318873e-01,6.725180191665477980e-02,6.966081979613658604e-02,3.411422669887542725e-01
-3.999973258768044770e-01,-3.961421624517009188e-01,-4.310331996287892764e-01,-4.590834940538432093e-03,1.593953970069005542e-03,-6.599368997346598958e-04,3.420368582010269165e-02
-3.987650228595323032e-01,-4.000049371367323525e-01,-4.313287626038720401e-01,5.148691852980796617e-03,2.339648930479529959e-03,7.961815258263450030e-04,3.345756977796554565e-02
-3.585290398199231787e-01,-4.307996318746389330e-01,-4.402212893380842429e-01,6.173732964654974308e-03,1.913538955456332543e-03,2.848606369375117353e-03,7.837338745594024658e-02
-3.592634495438785658e-01,-4.326899655376844067e-01,-4.438076189430252283e-01,5.942099794774854601e-03,1.277965574312214152e-03,9.780131804606535979e-04,8.028125762939453125e-02
-4.351161281635432809e-01,-3.531684546375268852e-01,-4.358142821968909453e-01,8.032822708858499902e-03,-8.560631157781418976e-03,-8.198212935815744201e-03,8.595454692840576172e-02
-3.793929616660108861e-01,-4.168830628723104725e-01,-4.217131853171243727e-01,8.546045622902297828e-03,8.196282866144610074e-03,9.319761002786359008e-03,4.786580428481101990e-02
-3.543578521102203061e-01,-5.653108697291967522e-01,-5.075362305297114185e-01,1.249456210251691929e-01,1.400123527231044718e-01,6.460884124901639103e-02,3.921974599361419678e-01
-3.652735016379069499e-01,-4.318409947471973376e-01,-4.340458665183234976e-01,3.343941267587484389e-02,2.752453235743202234e-02,1.145534686596299742e-02,1.029753535985946655e-01
-4.215167990733972858e-01,-4.002117043343214609e-01,-4.035699076778357930e-01,-2.376339900570622731e-03,-4.497240139781875749e-03,2.924866703679675217e-03,2.229167520999908447e-02
-4.458964813807261285e-01,-4.512267764075617582e-01,-4.212672593812833433e-01,4.202114211358792817e-02,5.471655556953095023e-02,4.228921865443444755e-02,1.428651809692382812e-01
-4.701465406068122688e-01,-4.569118863990262458e-01,-3.085651796245679201e-01,-1.234533075064891613e-02,-5.504158681929133268e-02,1.657563688421139977e-02,1.857832670211791992e-01
-3.347725645733370947e-01,-4.160765549997301194e-01,-4.422378562324070783e-01,4.469608114200076393e-02,9.012299250653534044e-03,5.995667180691043388e-03,1.255647242069244385e-01
-4.457490458005686773e-01,-3.559797869690021210e-01,-4.339520623897281104e-01,2.835651951499688298e-03,5.045487778656917999e-03,5.101190452202183055e-03,8.554088324308395386e-02
-6.277051797743412598e-01,-3.725027626170256401e-01,-4.037659918648169866e-01,-1.878300562209223035e-02,-6.487889861859419925e-03,2.088610370915400805e-01,4.360971152782440186e-01
-4.195508943429755444e-01,-4.331129044533659767e-01,-3.781874986878304146e-01,5.549034158004820597e-03,4.870219489707627164e-03,4.814339805939151298e-03,5.185456201434135437e-02
-4.167400352509767480e-01,-4.084264321123575181e-01,-4.725392059264857947e-01,1.981258028024100726e-01,9.603146388666203292e-02,5.330178809099477000e-02,3.969854116439819336e-01
-4.347125842673807972e-01,-4.434176172697404938e-01,-3.562504711289957160e-01,1.052401844038282526e-03,-7.326025340057585288e-03,-1.087253104149614978e-03,8.416042476892471313e-02
-3.715474758152896295e-01,-6.037436518955320297e-01,-4.860598478496017116e-01,-9.474483442603118255e-02,1.782885938478136478e-01,-6.355671339076468529e-02,4.181475937366485596e-01
-3.806207228421372157e-01,-4.258311449787469671e-01,-4.374246303909111733e-01,2.102693966870426007e-02,1.790973825349183660e-02,6.294502679187245070e-03,7.148477435111999512e-02
-2.973681036808455413e-01,-5.508751660039183928e-01,-6.269594443445311027e-01,1.727227255877709367e-01,-5.308404093120720063e-02,-3.300954436018946336e-02,4.365370571613311768e-01
-3.902123308563835713e-01,-3.687907495358234145e-01,-4.331434458699318646e-01,3.213115664207993882e-02,5.705284203876268868e-03,4.719019638798781745e-03,8.051899820566177368e-02
-4.313131257185021106e-01,-4.193918015569023106e-01,-3.832240493439315610e-01,-6.128160888784753811e-03,-3.784154166130364750e-03,4.341877804267715857e-03,4.575554654002189636e-02
-4.506273417670789705e-01,-3.348612061055014077e-01,-4.531375137331392633e-01,-6.443519096815025771e-02,-9.766725568576694813e-03,2.575501636909326500e-02,1.686134785413742065e-01
-4.072802393730260984e-01,-3.976641564270564366e-01,-4.247605094445822127e-01,4.463065716002252714e-03,5.861920604751219219e-03,3.634195697366529761e-03,2.772338315844535828e-02
-3.885234276728107283e-01,-4.197712588725026062e-01,-4.302323622636807232e-01,4.309627347747161698e-03,-1.957775541383460771e-03,-4.928461401708054274e-03,3.940602764487266541e-02
-3.411622271198994638e-01,-4.503740544832116610e-01,-4.461851980807567397e-01,-1.998188627869470200e-04,-1.395007024576821238e-03,-3.651395878879591271e-04,1.072084680199623108e-01
-3.546825149777121933e-01,-4.403047531429988837e-01,-4.311721790579865488e-01,-1.936911235037340646e-03,-6.542244844179592560e-03,1.757834436055005908e-03,8.235015720129013062e-02
-4.453204687695364039e-01,-4.536609266228859294e-01,-3.483648482975115757e-01,2.210688684371027446e-03,-1.346958381627347615e-02,4.765954759380342659e-03,1.044303774833679199e-01
-3.751885429837762964e-01,-5.344366770689427115e-01,-5.873665954823320545e-01,1.805229045169960134e-01,-1.183035454868760078e-01,-7.328832527129466867e-02,4.386990070343017578e-01
-3.268345686776789605e-01,-4.890819754807340658e-01,-4.941713692232395649e-01,3.209569052161055647e-02,-7.911920768090181105e-03,-2.412761105871120710e-05,1.745109260082244873e-01
-3.894580195852780369e-01,-4.249376452550811534e-01,-4.392252148724279381e-01,1.477970106109522709e-02,-1.072990911019466864e-02,-6.718664532318415102e-03,5.573140084743499756e-02
-4.545808629461716155e-01,-4.571006949187979562e-01,-3.440291225882544657e-01,-3.072403268194773274e-03,5.215463329116301963e-03,1.031569873770446510e-02,1.137355342507362366e-01
-5.504714236876154798e-01,-3.510600157723702264e-01,-4.927388985484260076e-01,9.931331153455590088e-02,6.830920653550290322e-02,1.675404156249485077e-01,3.992275595664978027e-01
-4.353748177118268448e-01,-4.382358969930886805e-01,-3.492255962179761641e-01,7.931663341056108957e-03,1.000321604256834349e-02,7.078632515914378559e-03,9.118992090225219727e-02
-4.576355054829827074e-01,-4.549782204528539653e-01,-3.450439302637168248e-01,2.284329096970962383e-03,-1.350284738655726027e-02,-1.631507563695285684e-03,1.138216033577919006e-01
-4.888662197862985170e-01,-4.607995834789954115e-01,-3.172582077255590716e-01,1.214765681346796720e-03,5.967773482225714222e-03,-1.702119267406383349e-02,1.624839007854461670e-01
-4.782145786651708086e-01,-4.792253198109081014e-01,-2.676147710618048681e-01,5.362149040034052544e-03,1.911706077765531336e-02,2.071116860627594813e-02,2.168770730495452881e-01
-4.056674635852184907e-01,-3.852072171727366490e-01,-4.387565371628148192e-01,8.962851647781192380e-03,1.183857983641903571e-03,2.328891254790055841e-03,4.951760172843933105e-02
-2.340466304452443747e-01,-6.072853601218819453e-01,-6.115197760475007405e-01,5.206720044824329763e-02,3.942840552883557920e-02,-2.811383807954708110e-03,3.920790851116180420e-01
-3.559387773350064510e-01,-4.396993833628771164e-01,-4.326119623384557800e-01,-6.967260855788894036e-04,4.826481377825742568e-03,-2.977427422112051414e-03,8.105775713920593262e-02
-4.454476055442947446e-01,-4.543424755098541823e-01,-2.952994199929835362e-01,-6.099174669838550687e-03,-2.685236548783366886e-02,5.505661346965950997e-03,1.622492820024490356e-01
-4.987436754470082056e-01,-2.890647402763140139e-01,-4.609309890297886292e-01,4.277825778262537605e-03,-3.296990903451383226e-03,7.774608470946416973e-03,1.942559480667114258e-01
-3.599735276981518850e-01,-4.313836639118568406e-01,-4.400003985370408710e-01,-5.170629028420103447e-03,1.561710900314156351e-03,-2.662717234675965501e-03,7.679694890975952148e-02
-4.509453151764115097e-01,-3.541844331573893445e-01,-4.513853104774790959e-01,-8.283924396510945407e-03,-2.420521954453526327e-03,7.523472087843585503e-03,9.898833930492401123e-02
-3.459853175738718534e-01,-4.453139371463376017e-01,-4.446269654250268322e-01,-2.177231584901257594e-03,-2.080814619381071012e-03,1.335354352617990114e-03,9.915125370025634766e-02
-3.694741612669109054e-01,-4.206092589437086526e-01,-4.321185632768520524e-01,1.078153847906569533e-02,-5.538372519285272508e-03,-8.702927247432365454e-03,6.327527016401290894e-02
-3.745647957174382814e-01,-4.161613154668539205e-01,-4.432829723069096617e-01,2.889443582955820988e-02,-4.584190538286965488e-03,-1.283618837281766921e-02,8.158452063798904419e-02
-4.190945911938813717e-01,-4.333729803719785223e-01,-3.842069053638627052e-01,-6.242482812153182098e-03,3.538495819566318465e-03,-2.466460889332806362e-03,4.573709517717361450e-02
-3.600564657550972547e-01,-4.348638737565778123e-01,-4.500641238930977450e-01,6.100526243216862661e-03,-4.300501860169635149e-03,3.144076103419911946e-03,8.462313562631607056e-02
-3.448336366175477341e-01,-4.558626538258337413e-01,-4.524308623134108975e-01,-3.618230135298224938e-03,-6.301618656489049904e-03,-1.513575546358825446e-03,1.101066321134567261e-01
-4.830329723146852827e-01,-4.645472718390122324e-01,-2.409157305390279280e-01,-2.408146311776496445e-03,1.242597462914840807e-02,1.134073992653917978e-01,3.058612346649169922e-01
-3.813686425083973597e-01,-4.333749927432443694e-01,-4.052687676439712394e-01,-4.893667157769953768e-04,-7.638918020192575660e-03,1.749084820353449593e-03,4.709430783987045288e-02
-3.791985546774281901e-01,-4.390943361453230609e-01,-4.197603290417977751e-01,-1.458161634905467529e-03,-5.078862392859526120e-03,3.530733260790232600e-03,5.407813191413879395e-02
-4.005578961172196473e-01,-3.984062558144661481e-01,-4.312472055204630283e-01,2.819981518586586484e-03,1.363064954689061515e-03,1.232878742025397042e-03,3.234944120049476624e-02
-4.452014483665021616e-01,-3.351683547371089311e-01,-4.503518358503740826e-01,2.309287556185199116e-04,3.781771111848871922e-03,4.569289170150214047e-03,1.131645813584327698e-01
-3.817475113484998794e-01,-5.714427337878023039e-01,-4.846550528782294642e-01,1.080833041020067831e-01,-1.682869569500421159e-01,-6.142738888769468802e-02,3.979706466197967529e-01
-4.188342490005973473e-01,-4.391755081768194402e-01,-3.725711639117275098e-01,-3.124543837718290595e-03,-6.133501861603072279e-03,1.606445998996183485e-03,6.037366390228271484e-02
-4.571872249598655236e-01,-3.495834097960456299e-01,-4.546229104218785233e-01,9.480233566265431483e-03,1.530481716048148278e-03,7.289284529604860875e-03,1.083756387233734131e-01
-3.634040726557056789e-01,-4.316235016633683808e-01,-4.152015572852313929e-01,4.455129739262757294e-03,-1.250355934298532680e-02,-7.018088853656141886e-03,6.692979484796524048e-02
-4.913488516367668368e-01,-3.396441977521580391e-01,-4.675632338178369873e-01,3.297826375480074237e-04,3.611833794604335512e-03,5.169545978773947698e-02,1.674168258905410767e-01
-4.451104543479454390e-01,-2.933108463554446876e-01,-4.382378553707775848e-01,1.422722262751087083e-02,3.439065733066081626e-03,2.242450613337522783e-02,1.555583328008651733e-01
-4.011660651976922676e-01,-4.031599402040746960e-01,-4.324854045057430763e-01,7.198769440138379563e-04,5.424829565734662178e-04,9.535869608410758392e-04,3.045644797384738922e-02
-5.962436966844847364e-01,-5.819895686826692671e-01,-2.821317525627691225e-01,5.898407687278342526e-02,-1.464641114285601953e-01,-9.878628202066144781e-02,4.454894661903381348e-01
-2.417322089938975238e-01,-5.764487079447360163e-01,-4.512004043092368577e-01,2.223292799971859218e-02,-1.569767625889862683e-01,4.234419966244092753e-02,4.081503450870513916e-01
-4.524570394891954672e-01,-4.450342109611533647e-01,-3.478918926056854266e-01,1.223232669491097855e-03,-8.421242932443260415e-03,-2.750272725397667501e-03,1.022386029362678528e-01
-4.494957932059547856e-01,-4.864059530245488094e-01,-2.914130939753394323e-01,-2.660876299679795255e-03,-3.027610021787186315e-02,6.809901876675881344e-03,1.873436719179153442e-01
-4.105576365634580061e-01,-3.967056455871909582e-01,-4.292205971424848387e-01,-2.340815625224690593e-03,-4.786828976229664731e-03,1.663407350263799945e-03,2.986943535506725311e-02
-4.693207845047933091e-01,-1.999341741830238384e-01,-4.980752023669405837e-01,7.262664510647376392e-02,-1.824462229357688356e-02,-4.786518972479412992e-02,3.237865567207336426e-01
-4.271768321967600035e-01,-4.035627623382410656e-01,-4.061819085981294708e-01,6.299809778354908919e-04,-8.173859149369529231e-04,-1.721960807124323133e-03,2.268757298588752747e-02
-4.159007592521835051e-01,-4.045173609407438087e-01,-4.055097382060968147e-01,4.349822231476877313e-03,-4.124751351649306313e-03,-4.889703347784529058e-03,1.728586480021476746e-02
-4.336890186960843385e-01,-4.062179275572694315e-01,-3.832476894962694169e-01,-2.221389906366451339e-03,8.146696766827492926e-04,-8.338914185251683139e-03,4.624626785516738892e-02
-4.007500801036311677e-01,-4.015728857303504373e-01,-4.312519664341416537e-01,7.438358411540449454e-04,5.253595232921769338e-04,-2.634252925542071843e-05,3.014025464653968811e-02
-5.952146979999554111e-01,-3.093425254919054401e-01,-4.667446073958492203e-01,-7.169946953162953385e-02,4.904735573243754893e-02,-2.027149709142731238e-01,4.554348289966583252e-01
-4.189247974273306863e-01,-3.860242184874346782e-01,-4.032367289058671478e-01,-1.404352729399861548e-02,1.512599909502375557e-02,-2.041201571058971070e-02,5.779634788632392883e-02
-4.461566534407169216e-01,-3.488131322843674997e-01,-4.341881084884481323e-01,1.389705798793046225e-03,8.836482807800639201e-04,-5.956398421976587254e-03,9.256629645824432373e-02
-4.482627569496977493e-01,-4.428289035269659113e-01,-3.398084861350709196e-01,2.906247837731002447e-03,6.113127934193253454e-03,-3.051191518178393829e-03,1.066204011440277100e-01
-4.511995030048230326e-01,-2.900018841614385168e-01,-4.275810970343272288e-01,-5.380200547601272226e-02,3.342054814473709862e-02,-8.363387034343376658e-02,2.361226528882980347e-01
-4.307570436437682115e-01,-4.339096870033236630e-01,-3.609545694810589178e-01,-4.377704832864403803e-03,4.982108166472030454e-03,-5.202283894166442532e-03,7.290771603584289551e-02
-4.997969262824938363e-01,-3.988141044695525661e-01,-5.388919281876457523e-01,-1.539541714289819341e-01,7.493657811406835567e-02,-1.181424189761327570e-01,3.814431726932525635e-01
-3.425750637708320778e-01,-4.356160321316198125e-01,-4.382979318823888026e-01,1.277182257768199464e-02,-2.621961914195239385e-03,-3.353488668421537259e-03,9.724742174148559570e-02
-4.383103623835926110e-01,-3.833440132366578434e-01,-4.181578002093241375e-01,2.546439748516611708e-03,-4.977827528495854491e-03,-4.542189895086178215e-03,4.975335672497749329e-02
-4.307370038880921070e-01,-3.660791095016349694e-01,-4.347631109610730626e-01,-4.662665673787053794e-03,5.190307597623150526e-03,-4.470076412078432052e-03,6.828730553388595581e-02
-4.454621523980978326e-01,-3.340700807128201832e-01,-4.447301256358695554e-01,3.870300884721884424e-03,-8.206580756643054846e-04,-1.798678101532367969e-03,1.112827509641647339e-01
-4.374655142383523376e-01,-3.181432105853316816e-01,-4.228562924484513541e-01,-1.556197843185873168e-02,8.705312279612711229e-03,-3.280103496589319156e-02,1.299601197242736816e-01
-4.235778685163343882e-01,-3.522532754426450641e-01,-4.524817806609967574e-01,-4.164322868452510068e-02,1.830736890475667678e-02,-5.121837185325653352e-02,1.485332101583480835e-01
-4.622882060091299539e-01,-5.333782676528111555e-01,-3.239649022831220249e-01,-9.252063636478380371e-02,1.526753612427687035e-01,-2.081662575550053546e-02,3.618425726890563965e-01
-3.739491515044426340e-01,-4.362982819212897767e-01,-4.177071161170383684e-01,-2.938142759772834848e-03,7.018767242368482463e-03,-2.361863707481638014e-03,5.713427066802978516e-02
-4.146267379330716429e-01,-4.032599879037691015e-01,-4.140465523978688056e-01,5.688984008882277087e-03,6.023609302812830447e-03,8.095207136712433138e-03,2.292350679636001587e-02
-4.313084756714253287e-01,-4.296414706164913277e-01,-3.689903199793138633e-01,-4.903014193460654424e-03,-4.568609914173732758e-03,4.863231521677866681e-03,6.315167993307113647e-02
-3.524578186043180184e-01,-4.386348514856426295e-01,-4.393083560359106188e-01,8.835980948543936328e-03,9.193889933702854844e-03,4.656516779292429499e-03,8.965395390987396240e-02
-4.439559791612241457e-01,-3.499437768094529333e-01,-4.410961144265970746e-01,6.511713956752929189e-03,-2.866650080072740206e-03,-1.008207075263823846e-02,9.504954516887664795e-02
-4.195376225740132248e-01,-3.966447728980249665e-01,-4.128815189193095203e-01,-1.619407700640562503e-03,-4.549069860208487977e-03,2.396232053802530883e-03,2.243177220225334167e-02
-4.313196041262443159e-01,-3.495659136650083321e-01,-4.394485818336221761e-01,-6.062566845552726062e-03,-2.737313333325036742e-03,9.799313347138723616e-04,8.689041435718536377e-02
-4.998449001743599518e-01,-3.274370657531793238e-01,-5.995185386791914706e-01,-1.882449871373833294e-01,-4.893852508807841617e-02,6.177174640941634348e-02,4.263619482517242432e-01
-4.489600073837078931e-01,-3.391444495290635297e-01,-4.465462515407607746e-01,9.742675288284017437e-03,1.899317405433235354e-03,-1.848035642733380710e-02,1.145441681146621704e-01
-4.442352803501632974e-01,-3.599695050443572075e-01,-4.333858434109874591e-01,6.409829421724444996e-03,-3.293144301432595483e-03,-5.317705021694317177e-03,8.090006560087203979e-02
-5.821619781506477409e-01,-2.984017629553102346e-01,-5.102938955273584876e-01,-9.473606818323324075e-02,4.264436566899865166e-02,-1.634353507146689699e-01,4.216696619987487793e-01
-4.065883473339271803e-01,-3.798820084537799513e-01,-4.366563837518983027e-01,9.525690254098061888e-03,4.517449921133490434e-03,1.459629136857305267e-03,5.253715440630912781e-02
-4.704206067294750548e-01,-3.994434956048031338e-01,-3.906442074082016602e-01,3.797001300526969825e-02,-1.977520913472799458e-02,-5.549002361488488549e-02,1.430926173925399780e-01
-3.306555390268212102e-01,-4.485214974975049174e-01,-4.145326482714563610e-01,-1.827564118590270514e-02,-4.702266443127448015e-02,5.507111960552464255e-03,1.369958817958831787e-01
-4.384484452804357502e-01,-3.653331866580808440e-01,-4.203238615020324365e-01,-2.767374894418696621e-03,4.667778501909301478e-03,-1.212459701340662735e-02,6.984636932611465454e-02
-3.683293516592983652e-01,-4.186263631676483965e-01,-4.372420050808534242e-01,-6.292941298335684962e-03,-1.596699119517335300e-03,2.995885586244418676e-03,6.297634541988372803e-02
-4.130773767215040748e-01,-4.014696593362776511e-01,-4.207927581907948134e-01,-1.215153009689910399e-03,-4.904278191346570295e-03,1.476654681324549500e-03,1.915597356855869293e-02
-3.630768015246884639e-01,-4.220390237243501486e-01,-4.404648723390068299e-01,-1.345577867436168612e-02,-1.150700798303341777e-03,4.204177911071755604e-04,7.382520288228988647e-02
-3.714064987807028650e-01,-4.307484688689459662e-01,-4.318065176938632455e-01,-3.990366485091632193e-03,3.906186170170371143e-03,-5.409385820429067626e-03,6.137347966432571411e-02
-3.833811892858675630e-01,-4.192310564626250402e-01,-4.295429700548942242e-01,-3.805370840712478560e-03,2.140464486083647200e-03,-5.359141379728950966e-03,4.364146664738655090e-02
-4.202659072360105941e-01,-3.845716746107947226e-01,-4.316287016942189636e-01,-4.756941116677732354e-03,6.033445839857327041e-03,-2.376983736930044378e-03,4.475288465619087219e-02
-4.075418849266078114e-01,-3.185511589959871825e-01,-4.392415782756884379e-01,-5.416024930881675054e-02,3.983977310554422981e-03,-3.376979484195068593e-03,1.436211168766021729e-01
-4.447524605320193336e-01,-4.515007450099258746e-01,-3.312508366308866692e-01,1.464758695369234448e-03,-3.069694646780760875e-03,-3.502309752503523360e-03,1.173269078135490417e-01
-4.545072938254076100e-01,-4.552693367474588970e-01,-3.215909913624255823e-01,4.178267814591929766e-03,6.592818695297952315e-03,-1.721333623007810509e-02,1.372599005699157715e-01
-4.503437107837847120e-01,-4.607096839906433261e-01,-3.481605156292213454e-01,-5.998795204606590693e-03,-2.807102313561101944e-02,-8.846232982086289776e-03,1.196442991495132446e-01
-4.834676329844752596e-01,-5.118493567174795533e-01,-3.216074945789587636e-01,-3.971946366983924656e-03,-5.361133499265966634e-02,4.883688036515579367e-04,2.006705403327941895e-01
-4.684309942935904192e-01,-4.388864141213099646e-01,-2.458540524068640321e-01,-2.615707650738066312e-02,-5.994070511639858906e-02,1.062865298854650392e-01,3.009304702281951904e-01
-3.578217693315717818e-01,-4.376861314647841339e-01,-4.318600938537671130e-01,-2.267721079789671718e-03,-5.942866154426570263e-03,3.308645481874883127e-03,7.811010628938674927e-02
-3.346341159613120397e-01,-4.435272139235678091e-01,-4.431577924260013956e-01,7.205346379321629288e-04,-3.503162206005145871e-03,-1.536966811582950220e-03,1.089177504181861877e-01
-4.455982108747068571e-01,-3.402647234344975402e-01,-4.389507067303784482e-01,1.510934487926002137e-03,7.059909200173401789e-04,-9.853970269075248284e-03,1.036280542612075806e-01
-4.694597360677421616e-01,-4.783363629000529360e-01,-3.265264717407506678e-01,-6.847268800556852685e-03,1.818544471066152468e-02,-3.023416797457744928e-03,1.514519304037094116e-01
-4.393720447094113246e-01,-4.475941703677686623e-01,-2.883908764832315841e-01,4.127975776419616841e-03,-2.157300717676744958e-02,-1.825870670490939429e-02,1.629470735788345337e-01
-4.407610314534025076e-01,-4.782883368938586344e-01,-2.622956850929979433e-01,-1.477315800388443422e-02,-1.095581399813061046e-01,3.278093879722733528e-02,2.825649678707122803e-01
-4.082541016980086868e-01,-4.089562379880250509e-01,-4.146914414169537988e-01,-2.776384231978029464e-04,7.018041738147073015e-04,4.507908025542744601e-04,6.303247064352035522e-03
-4.445254151798394560e-01,-3.370248011840882296e-01,-4.446199204458971543e-01,1.149123024286134460e-03,1.538458525988371708e-03,3.296769577216432812e-03,1.077507212758064270e-01
-4.005547250115887858e-01,-4.040246997245003913e-01,-4.237012516740532031e-01,3.531167718585354401e-03,1.337158124706257657e-03,2.950635990590787412e-03,2.315976470708847046e-02
-4.404100875837114737e-01,-3.784426141720179104e-01,-4.196279542580828581e-01,-1.207468946485061503e-03,2.679979373446811537e-03,-5.799481649821722033e-03,5.577518418431282043e-02
-4.277931434667347488e-01,-3.900642173522951284e-01,-4.115299987385171998e-01,-2.265720825242889362e-03,5.475038721374661174e-03,-6.733506353656121962e-03,3.627284988760948181e-02
-4.493701003074989653e-01,-3.410223708060895476e-01,-4.464722203521485633e-01,-3.000147232825860471e-03,4.259813774137893752e-04,-4.242984942628147405e-03,1.073089241981506348e-01
-4.236904108634875765e-01,-4.299790612159291592e-01,-3.781515481486938945e-01,7.656012947475261676e-03,-7.793020216580489115e-03,-5.135364149633392383e-03,5.326223745942115784e-02
-4.416763562812127120e-01,-3.499642060903609408e-01,-4.317891554355969830e-01,9.700134085689220489e-03,-6.099840682614568639e-03,-3.140791765550594861e-02,1.046679168939590454e-01
-4.350878411142033997e-01,-3.385369374736857395e-01,-4.430297376958866051e-01,1.352974484956351656e-02,-1.715958029481761500e-03,-8.881991614988298239e-04,1.035002917051315308e-01
-5.929911019774397607e-01,-2.210597637211191291e-01,-6.119903099182536499e-01,-6.054930976722891489e-02,1.190913861000451532e-02,-5.711356439608513552e-02,4.086199998855590820e-01
-4.212458891318336396e-01,-3.688559299969386140e-01,-4.335929006468947078e-01,3.610955638489733721e-02,1.901165497628724138e-02,2.437696255812622781e-02,1.016009524464607239e-01
-4.958323047008083018e-01,-1.922151972133822329e-01,-4.302645334519725751e-01,6.555216452702924620e-03,-2.691137826785491849e-02,-1.161978360567640645e-01,3.455175459384918213e-01
-5.700305731315343793e-01,-3.621081213956310885e-01,-4.779835084682890201e-01,1.108419673591592436e-01,-7.225376651090609226e-02,-1.741255499398586537e-01,4.195766150951385498e-01
-4.252029650533317717e-01,-2.793618403934520766e-01,-4.533271995416960354e-01,-8.723684421731110750e-02,-3.003981921688904030e-02,6.785892597771564505e-02,2.559584975242614746e-01
-3.969144779979330018e-01,-4.077143487319084270e-01,-4.274843317296411760e-01,2.936376076121014096e-03,-8.687713865449227593e-04,-3.166656741513475953e-03,2.791445888578891754e-02
-3.408066138005708678e-01,-4.644943363425461103e-01,-4.481924155080056482e-01,6.396503681588440633e-03,-1.823041611137344448e-02,-6.955661238981013933e-03,1.217086315155029297e-01
-4.227428662521446334e-01,-3.668244201614642708e-01,-4.494632098957503930e-01,2.988871697263699098e-02,-4.222277192258297798e-03,2.694002416046337167e-03,8.994593471288681030e-02
-3.846272925747936666e-01,-4.193920106824204352e-01,-4.306429138580893934e-01,3.876632920339394186e-03,-1.999175534513278861e-03,-5.471622320573229191e-03,4.328040778636932373e-02
-4.482363893981105574e-01,-3.422674361864321835e-01,-4.392533930403564879e-01,-2.716598805747829325e-03,2.932407533342041694e-03,-9.794587708064236148e-03,1.034114733338356018e-01
-4.421384756077897937e-01,-3.474544288075263609e-01,-4.462850053255503768e-01,-2.015083631747845855e-03,-2.952850380994522525e-04,-3.619102258601810881e-03,9.709072858095169067e-02
-4.288157594669148587e-01,-3.796808466664918225e-01,-4.183168849091302155e-01,1.576901943079034481e-03,4.872407487646196467e-03,4.979420041664189486e-03,4.649375751614570618e-02
-4.335086775405793125e-01,-3.774317863276742124e-01,-4.196722746060672637e-01,1.373158188429871723e-03,7.377668792587658252e-03,6.468500173345975886e-03,5.342876166105270386e-02
-4.241565151980584703e-01,-3.684376923168403151e-01,-4.563291466264824958e-01,3.018060322074481855e-02,-3.505519218200401233e-03,1.170669457232345568e-03,9.330525249242782593e-02
-4.391999974593048806e-01,-3.772633610705851681e-01,-4.230430368027659482e-01,1.490538875870108665e-02,3.899976745403810167e-03,2.321075952137721665e-02,7.365355640649795532e-02
-4.267826389820390531e-01,-3.778932996634505881e-01,-4.338964418636226394e-01,6.237634641319236145e-02,2.389908833994981371e-02,2.871376728317378418e-02,1.365574151277542114e-01
-3.750609329254367408e-01,-4.349913881223855805e-01,-4.194282514935745443e-01,8.553187725497984515e-05,-4.914089183257848090e-03,-9.638610733350051621e-04,5.455656349658966064e-02
-3.678378619364397473e-01,-4.794563708242485789e-01,-3.901850984651325516e-01,2.179935687116910104e-02,-5.528072904470091031e-02,-1.109970301917591849e-02,1.463791280984878540e-01
-4.195961604164020198e-01,-4.690083116411986053e-01,-4.327125581208822735e-01,-4.941432473852559737e-02,-7.068359424918610467e-02,5.976954264916018583e-02,1.870735734701156616e-01
-3.031714408304151398e-01,-4.083968595490439224e-01,-5.293523022395608679e-01,1.335043466129048617e-01,-9.021952580863058790e-02,-1.903933200911813242e-02,3.426464796066284180e-01
-4.231252250069780785e-01,-3.500306807659240849e-01,-4.358405913874831006e-01,3.682418236779914922e-02,1.331757380544357390e-02,1.722045357509570038e-02,1.091956198215484619e-01
-6.011928943662097069e-01,-4.599798029516289910e-01,-3.927387713633259114e-01,6.401775723121952422e-02,-6.520098984775049566e-02,-2.058562825646419736e-01,4.314354658126831055e-01
-4.385651536908894421e-01,-3.308974032107122598e-01,-4.298245121207994179e-01,2.091339428827453453e-02,7.338349046266138577e-03,2.587598541030271260e-02,1.192057952284812927e-01
-4.301823042735278824e-01,-3.968479759023043618e-01,-4.198722679011046011e-01,4.269816946300636004e-03,1.094466527942273421e-02,1.080102663870888269e-02,4.047016054391860962e-02
-4.627451751537646762e-01,-3.209723444567793571e-01,-4.699362696390309013e-01,-2.586092931375970350e-02,1.590175840977470223e-02,-2.746396779532585958e-02,1.618595570325851440e-01
-4.018754405765980198e-01,-4.008759557343973823e-01,-4.336931797248098075e-01,6.428934757848145214e-03,-5.271919639165214590e-04,1.052680017151513565e-03,3.425376862287521362e-02
-3.684958370170524078e-01,-4.414747713068386537e-01,-3.405464735318827207e-01,8.125614542016225406e-02,-1.172564096776614606e-01,-7.744110569730125460e-02,2.952847182750701904e-01
-4.200604753746589037e-01,-4.406527309348168830e-01,-3.809289855396885693e-01,1.504767353382160727e-03,-5.506904930900095689e-03,6.503269606137032817e-04,5.348046123981475830e-02
-5.125058661448241848e-01,-2.116124702053442663e-01,-5.312731003165772625e-01,-7.811640798964636367e-02,8.121652806393106494e-02,-4.425824915147603955e-02,3.748429715633392334e-01
-4.450402469306912190e-01,-3.350022997950529713e-01,-4.504613762506883834e-01,-2.739294171635812090e-03,-1.270102413110202246e-03,2.535255164923951379e-03,1.130526512861251831e-01
-4.090339234655118172e-01,-3.955781434872541746e-01,-4.365057692689328639e-01,1.786010137245052157e-02,-2.575312955672761573e-05,-1.624424317829323153e-03,4.764749109745025635e-02
-4.332542205956576020e-01,-4.203935267863627701e-01,-3.800678120689651163e-01,4.267766303789381765e-03,-2.397915349904349881e-03,-5.936196103632629742e-03,4.987769201397895813e-02
-4.554392936783999146e-01,-3.841061159816868686e-01,-4.228752149838506114e-01,-7.390167901876341407e-03,-1.142957393962225864e-02,-8.849032488061067681e-02,1.669529974460601807e-01
-4.227489168790219409e-01,-3.853238144546925481e-01,-4.292749466645572887e-01,1.627390764526729858e-02,-1.122352382468531397e-02,-1.467326566727935287e-02,5.920980870723724365e-02
-4.193473437547494687e-01,-4.304283159992643992e-01,-3.854313909158318951e-01,4.879730233003360187e-03,-4.104683709723892099e-03,-3.299918578146643616e-03,4.246823117136955261e-02
-4.137776287998235492e-01,-4.058514662379135163e-01,-4.210803683835560030e-01,1.502014098134360530e-03,-3.484283707779626486e-03,-1.316044710779146632e-03,1.491380296647548676e-02
-4.039269650077773055e-01,-4.041427494692885203e-01,-4.252696308823625260e-01,4.009449060811178249e-04,-1.841889949825331651e-03,-7.018594601195886871e-04,2.151948586106300354e-02
-4.334024240135572192e-01,-3.155011902188681328e-01,-4.510263524874829622e-01,-2.761990610551023906e-02,-3.093114057590472428e-03,6.710628922368642134e-03,1.368998289108276367e-01
-4.627830717193739951e-01,-1.928354076096863157e-01,-4.496631242936169892e-01,-5.509429106215024685e-02,1.254351235826645788e-02,-6.024872621810688916e-02,2.999500930309295654e-01
-5.397760928861433660e-01,-3.050913701440284287e-01,-4.235926350103311200e-01,3.991547746916897232e-02,3.407712560908565669e-02,-1.741455052497767608e-01,3.749033212661743164e-01
-5.051706573820902157e-01,-2.888436162925624995e-01,-5.011313461608819519e-01,1.888663137123786128e-03,-4.112320513135918343e-03,9.351174771413285755e-04,2.144853174686431885e-01
-6.453026902962075706e-01,-2.088323292126146868e-01,-5.886841075399715795e-01,8.592034298138617743e-02,-2.427469644617019640e-02,-1.316953155433308598e-01,4.949195683002471924e-01
-6.176862358014991727e-01,-4.581621486419859557e-01,-3.860572563680585434e-01,4.438809894259536371e-02,-3.659139204893385039e-02,-2.108755070513547714e-01,4.306769669055938721e-01
-5.089660077453407316e-01,-1.539031257956446908e-01,-6.191991405805771231e-01,9.889683745022935513e-03,2.208246656180157946e-02,6.298537765964598578e-02,4.370566010475158691e-01
-4.537993731967354671e-01,-1.901398765538107882e-01,-4.860984838119240536e-01,-7.839987939265692651e-02,-9.636918072939253122e-03,2.344808355540245557e-03,3.127463161945343018e-01
-4.077932456908373582e-01,-4.050383416428185446e-01,-4.210840276952312888e-01,2.262951453835206073e-02,2.919159504246252729e-02,2.311932537189025777e-02,7.692263275384902954e-02
-5.870303189803359745e-01,-2.056482437664706175e-01,-4.890237800419673375e-01,-4.244713580664304792e-02,-1.253479707884521538e-02,4.369725533654937599e-02,3.595617115497589111e-01
-3.799977142872964508e-01,-5.282422476685415536e-01,-5.332662208382129565e-01,-1.492724043614630514e-01,1.340439638779529208e-01,-7.564540824610224701e-02,4.008282124996185303e-01
-3.363867619421492816e-01,-4.385260448927575938e-01,-4.615838482003825072e-01,-3.054020182772513095e-02,-1.023043984032552534e-02,1.999612878856407358e-03,1.282314211130142212e-01
-4.198376916403876447e-01,-3.931345396978859208e-01,-4.204562024838812695e-01,-3.368041108248715550e-03,5.517129756339294103e-03,-2.972805299747797569e-03,2.969540469348430634e-02
-4.292783064381507918e-01,-4.128459204290709783e-01,-3.898365071388362191e-01,-5.741779123747518115e-03,2.025757730918652418e-03,-6.632203952049741703e-03,3.769256547093391418e-02
-4.030171146449099129e-01,-4.123219334556665339e-01,-4.141657388248146665e-01,-1.272205295878484251e-03,1.258369002832323853e-03,-4.188134982971311593e-03,1.301395241171121597e-02
-3.982579510808571532e-01,-4.107062668963897822e-01,-4.285332739711510408e-01,-2.060844720423514291e-03,1.407904755931499007e-03,-3.497542315308405005e-03,2.738731913268566132e-02
-4.202801006858856159e-01,-4.187002734340964927e-01,-3.963199837218076005e-01,-6.065163024261855697e-03,2.961019871061959172e-03,-2.035038646785827018e-03,2.622624486684799194e-02
-4.205088966018352137e-01,-4.018245737408510099e-01,-4.103916089703983361e-01,-1.068099132188833102e-03,3.648413128381749766e-03,-1.237622734345193449e-03,1.761758141219615936e-02
-4.424572860636261096e-01,-3.153708683924649758e-01,-4.518627231185282089e-01,-2.541647683414114192e-02,3.449992030255956410e-03,7.243310774594519802e-03,1.398778706789016724e-01
-4.533999965724165859e-01,-3.363119071814157923e-01,-4.525372573277876564e-01,-5.951960532178804993e-04,-2.897237373292612522e-03,3.011600882053850226e-03,1.168879941105842590e-01
-3.120523213153687525e-01,-3.931684864650524247e-01,-3.346180488023948740e-01,-9.345572397275718479e-02,1.276990309231583187e-01,-8.295716183301415914e-02,3.178479373455047607e-01
-4.070521668060220200e-01,-4.271828426954007440e-01,-3.953994033044029854e-01,-2.742851670271064055e-03,2.240534634995384154e-03,-1.315595350321263667e-03,2.860823459923267365e-02
-4.806026722988167577e-01,-4.596259398683513187e-01,-4.791497758600103407e-01,-1.333945369306476780e-01,1.154133778807863858e-01,-1.327897665181161924e-01,3.829543888568878174e-01
-4.011634686601290301e-01,-4.024788275072591626e-01,-4.277356261243607793e-01,9.792497444814306749e-04,-8.216339781472748729e-04,-1.785993145244426121e-03,2.621696330606937408e-02
-6.249426535509374769e-01,-3.542459018336449050e-01,-4.337407986258441928e-01,3.347332243743664226e-02,2.973034681693194695e-02,2.024497734278845607e-01,4.324904084205627441e-01
-4.298381277363845787e-01,-3.557472847488996059e-01,-3.988036864172941343e-01,-2.681852140992926556e-02,2.530638341200189614e-02,-4.330482902381679877e-02,1.177203655242919922e-01
-3.795800891726709980e-01,-3.783265078807138693e-01,-4.419775384421081865e-01,-5.252774787563153219e-02,2.608752482776863224e-02,-2.833850373171431861e-02,1.292347311973571777e-01
-3.612220106729078783e-01,-4.398113168960192110e-01,-4.437235629257363367e-01,-2.775719360212167142e-02,-2.768045072413195459e-03,1.022401067930128575e-03,9.400293976068496704e-02
-4.063788595251263680e-01,-4.144140614044250492e-01,-4.142898870577906845e-01,-6.004315345984649003e-04,6.699530550814060577e-04,-2.339561138544199101e-03,9.079142473638057709e-03
-4.322650838884835034e-01,-3.822374015648440926e-01,-4.105835170190235139e-01,-4.708259608325545548e-03,7.367929912476884474e-03,-8.891381645643231871e-03,4.852538555860519409e-02
-4.872087564854013508e-01,-3.142200601820044903e-01,-4.596391571646615826e-01,-3.455480432092775112e-02,4.421841665219769057e-06,5.404335446965202391e-03,1.720048487186431885e-01
-4.522423774651761486e-01,-3.448571964330539585e-01,-4.434105779324399310e-01,-4.666486877322936484e-04,-1.828470307383414710e-05,9.238197184610878743e-03,1.044885665178298950e-01
-3.180079506855922333e-01,-3.386155505953308276e-01,-4.569245568244890698e-01,-1.387918557925960084e-01,5.877987099984242902e-02,-6.895464302805950907e-02,3.150852918624877930e-01
-4.562406415723914144e-01,-2.404268602579820446e-01,-4.194297917534853259e-01,4.931353954137626672e-02,2.759433484625197289e-02,8.647515534700279949e-02,2.683281898498535156e-01
-2.763984901773746117e-01,-3.665732241702251981e-01,-4.700692986597966860e-01,-1.554741695686051028e-01,4.365137490823879640e-02,-2.578638012175400729e-02,3.292467892169952393e-01
-3.643851160859350458e-01,-4.373922164249603450e-01,-4.273145620605363626e-01,2.526494196127801505e-04,1.375422710114003466e-02,-5.364281206306046289e-03,7.314307987689971924e-02
-6.301875561777435797e-01,-3.620610901796902925e-01,-4.510700008373589864e-01,-2.989829007207680731e-02,-3.448735947901745459e-03,-2.193323354173316309e-01,4.505398571491241455e-01
-4.179914997081051187e-01,-4.229306704915772874e-01,-3.876191005566856917e-01,-6.689830309424866714e-03,3.329070389714792067e-03,-5.542832110845035548e-03,3.683165833353996277e-02
-2.554571578496447337e-01,-4.713625371025403354e-01,-5.775260457728242924e-01,-1.058364371577640572e-01,4.240582663094068228e-02,-4.988463358274650150e-02,3.567510843276977539e-01
-4.456232250818721874e-01,-3.691069990438751725e-01,-4.343030424346319140e-01,-6.501605125316456575e-03,-3.428451220086651922e-03,5.304998775803525593e-03,7.323391735553741455e-02
-2.780023734149042469e-01,-3.564738395589850950e-01,-5.483211654452245787e-01,-2.161882348790035158e-01,6.818671219824599602e-03,-6.371662698337468567e-02,4.588558375835418701e-01
-3.118310492360155672e-01,-5.178683935837329333e-01,-6.124265913905301284e-01,-1.801550681424604061e-01,1.127841984361573069e-01,-6.369626702697843423e-02,4.675202369689941406e-01
-3.193400870207608877e-01,-3.490820383386402659e-01,-3.976740975804265998e-01,-1.144844256110039010e-01,8.622204877819239499e-02,-7.455133892578189037e-02,2.880754768848419189e-01
-5.838289518971688796e-01,-5.197673403137484938e-01,-3.340921409188433167e-01,-6.806331274488705563e-02,-1.257334576695893491e-01,1.629109621297790689e-01,4.375137984752655029e-01
-6.303531641590292001e-01,-3.249612377806842534e-01,-4.554482801031324857e-01,-2.169939299775090411e-02,-1.514269465895943904e-02,2.002656020574122564e-01,4.391592442989349365e-01
-3.943054358908952284e-01,-4.363759805218883070e-01,-4.080416061960526752e-01,2.218099503663231037e-04,3.216218687428783456e-03,-4.991142426568030092e-04,3.758526220917701721e-02
-4.112937666662929703e-01,-4.038086552669048479e-01,-4.278696434534341453e-01,-1.214347275779666807e-02,5.104212703096886600e-03,-5.849151258135945261e-03,3.283363208174705505e-02
-5.552003064224626527e-01,-1.836559377518056924e-01,-4.860567751396513425e-01,-7.862039348928706595e-02,-2.896236129313889754e-02,-4.928286916622677538e-03,3.718453645706176758e-01
-3.942472875707639379e-01,-4.084027181447925092e-01,-4.315141345557361729e-01,-2.179285726594060082e-03,1.907924582068549254e-03,-3.222356021619593707e-03,3.343628346920013428e-02
-3.735621998444366154e-01,-4.181534113446616074e-01,-4.416789645334986969e-01,-5.944951076377429956e-03,2.445809741687754793e-03,1.171568197788179933e-03,6.098320707678794861e-02
-2.399718286090293806e-01,-6.186269837101232572e-01,-6.181898699780659090e-01,-5.920580690555186237e-02,5.049827459160432380e-02,-8.070982908576012152e-03,4.019652009010314941e-01
-3.776197406404698809e-01,-3.342077529247883261e-01,-4.416071164485048106e-01,-1.165284131836082232e-01,-5.200047133518870962e-02,6.093413200453750428e-02,2.621916532516479492e-01
-3.118143779681802341e-01,-3.919684620278446885e-01,-5.909321073945147385e-01,-1.679877625371188621e-01,9.202542780937476852e-02,-1.497342920051417461e-02,4.155686199665069580e-01
-3.400964636777001893e-01,-4.733958086104999019e-01,-4.454966596187345806e-01,1.421101140125241059e-02,2.263035905886745525e-02,-8.539108845993181873e-03,1.311073899269104004e-01
-4.460588049540747391e-01,-3.204087808921936009e-01,-4.646022089955074708e-01,-2.768448591821859664e-02,-2.169285240441527762e-02,2.431485550305370613e-02,1.547463536262512207e-01
-6.186755029213333312e-01,-5.784638669211075168e-01,-2.260257423618233230e-01,5.359996847573057430e-03,-4.276156065196094064e-02,-9.851710102855905371e-02,4.179598391056060791e-01
-5.772571548244139761e-01,-5.625596286656407985e-01,-2.934663808532708695e-01,3.706873792165876758e-02,-1.061096054877144063e-01,-1.136488418580586107e-01,3.914465308189392090e-01
-5.739389258414939743e-01,-5.855457175448981477e-01,-2.643262361542110250e-01,-2.626753709569773845e-02,1.282631154401119855e-01,-1.490325869944066350e-01,4.665240645408630371e-01
-4.404066273124956910e-01,-4.193946913246404673e-01,-3.797281669095166623e-01,4.357356956828009999e-04,-1.112267068740265766e-03,-5.289838701860720416e-03,5.419071391224861145e-02
-5.039686733367672034e-01,-4.672461953383447719e-01,-3.171543037560344280e-01,-1.779865969008598975e-02,-9.548966928629625331e-03,6.123535629644143163e-02,2.045998424291610718e-01
-2.968625086320693107e-01,-4.798026796154985507e-01,-6.191361118451633727e-01,-2.178047250790489942e-01,-4.887533207297844150e-03,5.942738490810704072e-06,4.698499143123626709e-01
-4.832602069757233609e-01,-4.788006905099517763e-01,-1.419242246408360109e-01,-9.802179127405465792e-03,1.770725773023431454e-02,3.583013291959184776e-02,3.465375006198883057e-01
-4.612496201054484546e-01,-5.916713080758337906e-01,-3.719082094486663714e-01,-1.536471589003059537e-02,-2.024897185214431516e-01,1.998719065831129627e-02,4.019411802291870117e-01
-3.782470114873403011e-01,-4.322298705483026970e-01,-4.013084760726851052e-01,-1.195631526254868973e-02,-2.633704451557393120e-02,1.240608629550582660e-02,7.192058116197586060e-02
-4.571919189951028084e-01,-4.514294218143041215e-01,-3.538996920937874102e-01,-4.351246922265638445e-03,-1.206771752222598852e-02,2.295053911941380420e-02,1.103682070970535278e-01
-4.334501951437700895e-01,-4.450452871156044266e-01,-3.582502181688016485e-01,-3.347805674825061854e-03,-5.947094867728863581e-03,1.366193822237220506e-03,8.250308781862258911e-02
-4.654917907938415089e-01,-4.435102503126400197e-01,-3.258182116625517599e-01,4.393583938154215288e-03,-2.390903913648312340e-02,5.233016623911297682e-02,1.640421599149703979e-01
-4.420611029963721905e-01,-4.508145208479561461e-01,-3.755021146535167942e-01,-6.244032726471294634e-03,-1.247218844529414741e-02,2.661925943587904742e-02,8.831039071083068848e-02
-5.156690249039376228e-01,-5.320271760481148915e-01,-4.189144019842484523e-01,1.191627821751792271e-01,-1.676200141817947020e-01,-1.351383795860379988e-01,4.391897320747375488e-01
-4.780831844246761220e-01,-6.037266513426208236e-01,-3.496319372518371660e-01,7.626813938315479824e-02,-2.133037401438812042e-01,-9.818586475534465952e-02,4.809286892414093018e-01
-3.917655043580470231e-01,-4.077801708735888653e-01,-4.317365744881129230e-01,3.371670886995066160e-03,7.970725826399135440e-04,6.579615706383957867e-04,3.537430986762046814e-02
-4.553355844821833087e-01,-4.564126652670731366e-01,-3.395939128265012541e-01,-3.559435681440371261e-03,-6.267930833867330770e-03,1.143210259407213131e-02,1.186166331171989441e-01
-4.500645493348415793e-01,-4.386505283008330092e-01,-3.365846790890391071e-01,-8.177879290815108851e-03,-6.695505477551038677e-03,1.272146580834916316e-02,1.119523495435714722e-01
-3.330065078616798457e-01,-4.341169225520574715e-01,-4.473486553479008587e-01,2.735448103268088224e-02,1.871209128608150585e-02,1.458976852827644465e-02,1.251801699399948120e-01
-5.585705918664668479e-01,-5.118007712572750778e-01,-3.860028923411862323e-01,7.424230341721640980e-02,-1.164007804886589142e-01,-1.577906512565859787e-01,3.946807682514190674e-01
-2.133827301244340946e-01,-5.935589216928097711e-01,-6.145260029761463461e-01,7.138867453047555156e-02,-5.695764514986042387e-02,-1.330878860499187452e-02,4.224898219108581543e-01
-4.334099138471787516e-01,-4.310677518416849985e-01,-3.725043367911382575e-01,-5.049282146859328940e-03,-4.931781658876732352e-03,3.871264067451372741e-03,6.137375161051750183e-02
-4.447183282734338272e-01,-4.428312333543349966e-01,-3.324221139523895752e-01,-1.204785141944449568e-03,-1.106265797939169539e-03,1.557231712421016344e-03,1.114333346486091614e-01
-5.847466622189153584e-01,-4.820693180218155738e-01,-2.310749681076011697e-01,-8.588529074806555176e-04,8.717327021266269016e-02,-4.976763463658622627e-02,3.599200546741485596e-01
-4.395045536455075008e-01,-4.346737333228164468e-01,-3.461270419711877655e-01,-7.167924402648266288e-03,-7.340117117571073706e-03,1.053031248708335109e-02,9.455177932977676392e-02
-4.489707727845442253e-01,-4.869092149440561457e-01,-3.204051684240269426e-01,2.086252206910586479e-02,-5.653336123650586770e-02,-1.004727947018340187e-02,1.845065355300903320e-01
-4.333565339815252937e-01,-4.442793695815001054e-01,-3.600895577613417720e-01,3.836591057734663819e-04,-4.333902295724564348e-03,-8.590901297473874923e-04,7.966583222150802612e-02
-4.781881940241401452e-01,-4.838875837482467523e-01,-3.290879179977501678e-01,-1.320020849320697326e-02,1.438119686399982715e-02,-9.254335806952302540e-03,1.565671712160110474e-01
-2.356336392366663035e-01,-4.130402649901994128e-01,-4.819463265347807557e-01,-1.220914075466307813e-01,1.327876136695991735e-02,-1.509789666879291252e-03,3.061050474643707275e-01
-4.327668711351548292e-01,-4.331939837398878779e-01,-3.716857811749335050e-01,4.308729204822705529e-03,3.696496918025664671e-03,3.856723842425250921e-03,6.243781745433807373e-02
-4.881473148313999477e-01,-3.107308322826557445e-01,-4.843122911506130834e-01,4.160998977753340919e-03,1.627494869578209298e-03,3.225217327900059550e-02,1.843676120042800903e-01
-5.457435974997006944e-01,-5.956091840048900465e-01,-2.641063271142267688e-01,1.599030886314395730e-02,-1.683983300913921566e-01,-7.721040875855450861e-03,4.264622330665588379e-01
-4.395200327552547526e-01,-3.231054878326371504e-01,-4.463686403125711744e-01,2.549330065887892710e-02,2.119030321667075237e-04,1.991867290878742563e-03,1.278995275497436523e-01
-4.557647979697057039e-01,-2.999642590261870634e-01,-4.558575271243968663e-01,4.343059932762853743e-03,-5.268297457118450641e-03,1.092934345295983566e-02,1.574371904134750366e-01
-4.496449631241274392e-01,-3.351771205375470575e-01,-4.469067048203171355e-01,5.417651186918194355e-04,3.522681443154523657e-03,3.912105145323021768e-03,1.134943366050720215e-01
-4.389144529093479963e-01,-4.488836386351326424e-01,-3.482729470806753547e-01,-6.137465509285881630e-03,-1.319905922698268001e-02,9.361989032369703520e-03,1.005856916308403015e-01
-4.520208832703024870e-01,-4.570555266602900901e-01,-3.073765932032944126e-01,-1.993674726335609680e-04,-1.171543514476377709e-02,-2.923497370123510127e-03,1.487046182155609131e-01
-4.593143723127945943e-01,-4.530644759324518045e-01,-3.512256929659657301e-01,-2.369443824712082203e-03,-6.274452141538777034e-03,9.186594759055219037e-03,1.069336757063865662e-01
-4.538296482480478344e-01,-4.812265240159677160e-01,-3.055063712461886238e-01,1.456883246490183956e-02,-3.238056209345068631e-02,-1.341149952756627963e-03,1.749332100152969360e-01
-2.635617380038879354e-01,-4.508259818798097673e-01,-4.514671557164474658e-01,-9.136278380957545131e-02,5.369770060939620115e-02,-3.219387280027580928e-02,2.683086097240447998e-01
-3.737203611427995509e-01,-4.262910351857582825e-01,-4.499484930440713071e-01,2.418165600458851289e-02,5.216735776886491024e-03,6.081154422148256529e-03,8.070862293243408203e-02
-4.800211939730119060e-01,-4.979605920102986305e-01,-3.275906324038340145e-01,3.429913268946692319e-03,-4.956711529776515468e-02,-1.185418226231623254e-02,1.847131997346878052e-01
-4.450041732825046892e-01,-4.510962082974124265e-01,-3.492467971572362773e-01,-3.717056975957998277e-03,-2.767461140713740886e-02,9.311856911834056477e-03,1.113066896796226501e-01
-4.461290926442092464e-01,-4.417694172048392542e-01,-2.955271934509570708e-01,-1.287655938008171966e-03,-9.151651579050731206e-03,1.961936797361894802e-02,1.531481444835662842e-01
-4.485234261914194942e-01,-4.461603250167621160e-01,-2.997305156009645311e-01,-3.124504812387561472e-03,-1.337558114819577433e-02,1.515537355262183000e-02,1.518168747425079346e-01
-4.051698331785733020e-01,-4.146401451646405945e-01,-4.045648638400586861e-01,-1.491701711878560231e-03,-1.916759846108475685e-03,1.246903707275590686e-03,1.086939685046672821e-02
-4.680748761261568358e-01,-4.417624578811442659e-01,-3.308115874582235882e-01,3.686351545355348591e-03,3.333491352408336078e-03,2.966392122737784506e-02,1.365129053592681885e-01
-5.557433762290564516e-01,-6.102829462825130058e-01,-2.689483141121657983e-01,5.206830190012845527e-02,-1.647877602515020468e-01,-6.742944821116675369e-02,4.517811238765716553e-01
-4.210291043127017963e-01,-4.304731466477568769e-01,-3.640745958523818326e-01,-7.992130095199369288e-03,1.186094919032763990e-02,-7.834982916932605249e-03,6.832800805568695068e-02
-4.463471935383950262e-01,-4.511711801534361022e-01,-3.338440982966096593e-01,2.137999998973412867e-05,-7.701488571088220807e-04,3.817712851459096387e-04,1.150006502866744995e-01
-4.027086741794844715e-01,-3.528924886768208813e-01,-4.278885966473417457e-01,-1.125622756368753197e-01,-7.567952541263983646e-02,8.257165885929691751e-02,2.828732132911682129e-01
-4.525864082264436372e-01,-4.770887083723110433e-01,-3.231036182425118808e-01,1.076662767827719393e-02,1.156731535988161572e-02,-1.844988222818347984e-02,1.493624597787857056e-01
-4.562251122999208541e-01,-4.549340963217695100e-01,-3.512119300819627754e-01,-1.982438771643661290e-03,-8.072938910823293512e-03,7.330033661134071656e-03,1.061242520809173584e-01
-4.460339961015380439e-01,-4.517248853123467800e-01,-3.421202734242399512e-01,-1.227923367982435444e-03,-1.140856918451538336e-03,7.940345790630755005e-03,1.077932491898536682e-01
-4.413988533743135600e-01,-4.315889031327924119e-01,-3.818788195329968493e-01,-8.079902855374779605e-03,1.528951016610909791e-02,-1.871500537366738853e-02,7.073116302490234375e-02
-4.520611497910093646e-01,-4.493527261415387053e-01,-3.437547390640158795e-01,3.491647549089694352e-04,2.217223818633676409e-03,8.861741661834135475e-03,1.081433296203613281e-01
-4.379113915284525427e-01,-4.502709960587312765e-01,-3.173908715324672558e-01,2.530482211680281073e-03,1.813096293690457522e-02,5.264692468738466948e-03,1.313624680042266846e-01
-4.750894552100030088e-01,-4.599866618707945665e-01,-3.136559003317859196e-01,-7.823702346748043560e-03,4.689941591125453696e-03,-3.778931532276076644e-03,1.553809791803359985e-01
-3.524052135768553362e-01,-4.780682922358855391e-01,-4.187724821331993419e-01,-1.379954268901060696e-02,5.050928093378784234e-02,9.428080263496771418e-03,1.426443755626678467e-01
-4.109325968609788826e-01,-4.087143593737513902e-01,-4.138283951035816033e-01,-1.028239633813392225e-04,-1.638361008050101455e-03,6.105774604630816779e-04,5.378903821110725403e-03
-3.490273011591780161e-01,-4.436469525730870056e-01,-3.945561695405239711e-01,-1.051233510399116923e-02,4.961673002985481779e-02,-1.149166121179481283e-02,1.217825636267662048e-01
-4.108880175263976975e-01,-4.418723455828367785e-01,-3.959984385859135481e-01,3.998312869560156587e-05,1.631237207449814236e-02,-2.830549511583056862e-04,4.941252246499061584e-02
-4.214934938179009105e-01,-4.407471447566562173e-01,-3.603193744678583332e-01,3.563855518120702913e-03,1.589455308401958172e-02,3.643654021109278031e-03,7.827287912368774414e-02
-4.096578546114487129e-01,-4.402520149191477827e-01,-3.752303539050943493e-01,-4.342492156231227488e-03,2.643587774324594741e-02,-1.659475823242080508e-03,7.304748892784118652e-02
-4.134374172297394789e-01,-3.356625834130519959e-01,-3.766928949320066389e-01,1.006031301977931419e-01,-7.998948844258362001e-02,-9.938925006694913911e-02,2.893680632114410400e-01
-4.311973683583554817e-01,-3.700190869135407956e-01,-4.157902518423747806e-01,1.148795516471492681e-02,6.884955636263606800e-03,6.159224549590574041e-03,6.074138358235359192e-02
-4.035472413948209547e-01,-4.403513890267598541e-01,-3.913797375193089345e-01,1.695334959247537902e-03,3.823770746519078445e-02,1.273127576905120663e-03,7.968851923942565918e-02
-4.067346360853394960e-01,-4.384819908417549317e-01,-3.606812821358825749e-01,-5.405826078340001881e-03,1.858420766197859189e-02,-3.704820975457950253e-03,7.586726546287536621e-02
-4.068507794898202357e-01,-4.397590082082746266e-01,-3.821707176454178234e-01,1.058871202654158286e-03,7.845640628459323723e-03,9.559335087109671874e-04,5.191340297460556030e-02
-5.683272368580222222e-01,-5.101719380603626508e-01,-3.624939798930946755e-01,7.197405624889430253e-02,1.171112217359557423e-01,1.884230551216612704e-01,4.438183605670928955e-01
-4.442295760411132943e-01,-3.945639563382740134e-01,-4.223858387738780862e-01,-2.385219128168247077e-02,-1.591867923301964333e-02,3.686468870884828525e-02,9.166760742664337158e-02
-4.646219444141707067e-01,-2.191341332087975435e-01,-4.506607626672329836e-01,-8.988886344815080753e-03,-8.488049602307564181e-03,8.365570770003147305e-02,2.801522016525268555e-01
-5.970999504744326503e-01,-5.070351072463952224e-01,-1.793054450977887293e-01,-1.113922950972207754e-02,-3.709707848915955175e-02,3.962456866086595114e-02,3.927422463893890381e-01
-4.350128598040473582e-01,-4.389794209983243767e-01,-3.557301790614872949e-01,9.092963100233483753e-03,3.183325172335177422e-02,1.445584538671025772e-02,1.026205867528915405e-01
-4.112104064416699511e-01,-3.667096280644194239e-01,-4.301507489126826234e-01,4.434654617740605570e-02,1.745802936977183806e-02,2.918140327980659268e-02,1.120302453637123108e-01
-4.992631532024551788e-01,-5.675184295927625522e-01,-1.358365954333847769e-01,-1.061819535386448847e-02,4.120804668303364171e-02,-1.236597906028220895e-02,4.091878831386566162e-01
-5.586569281547981713e-01,-3.077219138544023402e-01,-3.610740658939847747e-01,1.040981963641076091e-01,6.670110986533467345e-02,1.528113434737698451e-01,4.102892279624938965e-01
-6.285880438633441036e-01,-6.120118472592730452e-01,-2.222053037346706783e-01,-4.461867328506279907e-03,-4.196826765497604916e-02,9.823825110262603133e-02,4.392965137958526611e-01
-3.721650347133878545e-01,-3.300927378215123831e-01,-3.315065162277747168e-01,9.054704733199024635e-02,9.059908151148465816e-02,1.203868772775189000e-01,3.072661459445953369e-01
-5.117101088709482548e-01,-5.030674155041768847e-01,-3.980667801351923107e-01,1.089791245452937096e-01,1.274238027473397761e-01,1.564777016448102298e-01,4.120715558528900146e-01
-4.781577520799987768e-01,-2.331005548648970582e-01,-5.582195837974515129e-01,-7.719275926829961831e-02,7.661336076021887931e-03,8.734138182155166963e-02,3.563992977142333984e-01
-4.467005143470553774e-01,-2.591145101010507434e-01,-3.232956816880281359e-01,5.128338579076210241e-02,3.273710361394249757e-02,1.635756779632837055e-01,3.444479107856750488e-01
-4.311422700485025294e-01,-4.179828670140744995e-01,-3.862934089460876019e-01,5.159733662459187881e-03,2.143231818565642568e-03,4.377077304666751947e-03,4.177955538034439087e-02
-4.693568657214975404e-01,-3.296757159931400505e-01,-4.376201812844663919e-01,2.432354376205306257e-02,-1.548033837710474647e-03,2.929985143348774398e-02,1.429774910211563110e-01
-4.503305891820244544e-01,-3.707004185265293517e-01,-4.072681167613436681e-01,-8.459584966278887661e-03,5.378973192814755916e-03,3.593938623396894516e-02,9.456574916839599609e-02
-5.577200566647129154e-01,-6.165838936550421812e-01,-2.564177092327657448e-01,3.677811205471533118e-02,1.544412540285383384e-01,1.145943753197827958e-01,4.764385223388671875e-01
-4.599694721298960287e-01,-2.409581259098339256e-01,-4.040297289782984747e-01,-9.647250509853971118e-03,-3.947247750110843313e-03,1.116630595401976733e-01,2.767230570316314697e-01
-3.963821868838803830e-01,-4.076733062053453649e-01,-4.271567068909482012e-01,2.174581201518129957e-03,2.644734748750970661e-03,2.840545808801672647e-03,2.804385870695114136e-02
-3.450448608897765945e-01,-4.668751842925091822e-01,-4.476035050162798790e-01,-1.168805106594762028e-01,1.603243512736503562e-01,-2.753217435087436035e-02,3.650137782096862793e-01
-2.715671170655510336e-01,-4.777119793031452955e-01,-4.261192693034627221e-01,5.775867643479603436e-02,1.280589110366860406e-01,9.274076809431359633e-03,3.065704107284545898e-01
-3.494270121358894476e-01,-3.824629698692932345e-01,-3.468088052845479385e-01,1.056226072985076148e-01,1.327134867732419066e-01,1.088105814274746286e-01,3.507291972637176514e-01
-4.404786344926973074e-01,-3.619094586810902570e-01,-4.283146132397925299e-01,1.663728436787311610e-02,1.363276058022673889e-02,3.900837578388853533e-02,1.063873842358589172e-01
-5.758983002894713099e-01,-2.624993061711969888e-01,-6.014263495996449160e-01,-1.120950025648919379e-01,-3.180562299328597298e-02,7.466253121535736115e-02,4.053704738616943359e-01
-4.431454424390930402e-01,-5.811670587715792591e-01,-3.802870474040901949e-01,-9.185840635006416177e-02,-2.109876083422742299e-01,1.087704515323280607e-01,4.754273891448974609e-01
-4.124619759039154787e-01,-3.957098652264862126e-01,-4.307097420818492561e-01,3.597438119421206976e-03,-5.545526589823537508e-03,-2.200943541953241309e-03,3.263308852910995483e-02
-4.397116387801800474e-01,-3.862084600218966823e-01,-4.838837307684397682e-01,6.566715809134654469e-02,1.278771471097063864e-02,3.663591859386210875e-02,1.569419801235198975e-01
-5.874405892505367710e-01,-3.693470914869347865e-01,-5.040522756141039284e-01,-8.174530365341120541e-02,-5.534975571619837886e-02,1.610382223484629338e-01,3.786416947841644287e-01
-4.166723535144442048e-01,-4.411194562745320846e-01,-3.969128347344513807e-01,5.634548329455881487e-03,1.318598161261682299e-02,4.978949585878475817e-03,4.650147259235382080e-02
-3.923948635473644697e-01,-4.089566561353809582e-01,-4.257039915951220110e-01,3.670478702675732813e-02,3.060987511103348963e-02,3.103386415013686950e-02,1.028302088379859924e-01
-4.000746496495388160e-01,-4.021788782917695149e-01,-4.336077125125141762e-01,1.043734021311172599e-03,1.382977745988348158e-04,-3.474076316756754060e-04,3.258865699172019958e-02
-4.101146722681788814e-01,-3.955978623125246396e-01,-4.340891529535926274e-01,-1.559883599471625741e-02,2.836399613723450831e-03,-3.823322604167745439e-03,4.394890740513801575e-02
-4.424536075672515500e-01,-4.439558503932088951e-01,-3.546748741796553750e-01,1.129756487948357490e-03,1.857065838620037103e-03,6.156578986799196400e-03,8.925868570804595947e-02
-5.064743161885271183e-01,-4.465369051444734727e-01,-3.254425820961054372e-01,-2.766175560097648874e-03,1.528127255507134158e-02,7.258082981251280652e-02,2.050410807132720947e-01
-4.754422442314298336e-01,-4.728768288020765431e-01,-2.635972732110068439e-01,1.826033283332522935e-03,2.109650294960890848e-02,5.685232968696433964e-03,2.139709293842315674e-01
-4.013728570409262897e-01,-3.991427747455244535e-01,-4.314779546029851587e-01,9.397424994281624840e-04,8.604283646062831493e-05,5.973719355834216857e-04,3.133957833051681519e-02
-4.379757108063818682e-01,-4.079527329846676098e-01,-3.797221652529793601e-01,2.789954877388708433e-03,4.635763383977780554e-04,8.509088206119667930e-03,5.279317870736122131e-02
-4.062834692444186047e-01,-3.763241709931981482e-01,-4.539805011678552660e-01,3.014756453540065259e-02,-7.230656949314150095e-03,-5.225787801871400410e-04,8.652068674564361572e-02
-5.648421072426935696e-01,-3.805435051051622164e-01,-4.999529881458871783e-01,-1.294493655006021537e-01,9.792810480099276016e-02,-1.895589887351799840e-01,4.615805149078369141e-01
-6.360784679334641201e-01,-3.484408818813580777e-01,-5.177146259380989157e-01,-6.010307387466546497e-02,2.920682582204209982e-02,-2.089400722196260718e-01,4.550424218177795410e-01
-4.332663307304339129e-01,-3.811551478873345111e-01,-4.178110554848931679e-01,3.996680407797691299e-03,-4.829732022117279137e-03,-4.630463850039741314e-03,4.828323796391487122e-02
-4.024957148338669244e-01,-4.058608102479990820e-01,-4.155208308804248518e-01,-6.976407212804901746e-03,7.152656321383700326e-03,-6.463191726690432730e-03,2.370564453303813934e-02
-4.073599423477733961e-01,-4.277076543599717673e-01,-3.984835718811632899e-01,-2.990968508388928276e-03,1.504904888603945034e-03,-1.183002020657836825e-03,2.666952461004257202e-02
-4.374728622493819219e-01,-4.351427340837067392e-01,-3.993420313250777287e-01,-2.488901572706416973e-02,2.825456006937764053e-02,-2.749064652208764448e-02,8.883184194564819336e-02
-4.247294120803110640e-01,-4.016821927085749144e-01,-4.000395563615795069e-01,-4.479080277555792453e-03,4.599815237454374026e-03,-8.123385726505744781e-03,2.988913469016551971e-02
-4.360856060778482979e-01,-2.686231379849021716e-01,-5.460860149781003869e-01,-1.075022579132735995e-01,5.686260156219758582e-02,-8.092270553126665322e-02,3.501148819923400879e-01
-4.423428160270180820e-01,-4.352698106697884817e-01,-3.461648951286146469e-01,-4.396650985574982948e-03,4.057524804113860420e-03,-1.193449435764954228e-02,9.567984193563461304e-02
-3.402550575745251216e-01,-3.764571089572310569e-01,-4.385921647523620126e-01,-6.945221390537405226e-02,-1.741449525950862151e-02,1.236430817669680916e-02,1.525123715400695801e-01
-5.314171784414124522e-01,-4.099195520661345626e-01,-2.936775939821746895e-01,-6.967365033917621853e-02,-1.344031292951035073e-01,1.250442079998617395e-01,3.975688815116882324e-01
-4.086673968907234000e-01,-3.921942595711122581e-01,-4.216707122002633645e-01,-6.234015550578710096e-03,-7.322499355878571078e-03,4.965611706914554654e-03,3.171866387128829956e-02
-4.031037503410922485e-01,-3.993441981743092728e-01,-4.269029970332666180e-01,3.643727163149605187e-03,2.982404484046653152e-03,1.240401764998822019e-03,2.722394466400146484e-02
-3.962458017045295544e-01,-4.021060049923703139e-01,-4.329919591531679046e-01,4.431113324234599651e-03,-6.143860697058442012e-05,-7.768175242141673676e-04,3.507146984338760376e-02
-4.095997210882437178e-01,-3.244410349596578147e-01,-3.285087078186266218e-01,8.952340759101666545e-02,9.221304120835127627e-02,1.296311289060343708e-01,3.269371390342712402e-01
-4.032386442003115246e-01,-3.996757421283450018e-01,-4.332312407214803374e-01,1.094959673879630432e-03,1.343144017504304105e-03,4.603577196130340891e-04,3.207422047853469849e-02
-4.198490066217311911e-01,-3.885831186324453235e-01,-4.174676375635448800e-01,-5.951643244054718659e-03,-8.029326858624820373e-03,4.559289886304223813e-03,3.564840555191040039e-02
-3.897465598363969441e-01,-4.927451862668340565e-01,-3.164997661603705104e-01,-2.079881438725357870e-02,-1.388339249470275927e-01,3.317827424935207437e-02,2.931601405143737793e-01
-6.097494744718192639e-01,-2.795376672128396800e-01,-5.291524549232550223e-01,6.515673268761376646e-02,2.386781676959425988e-02,1.483811927228634309e-01,4.116039276123046875e-01
-4.059332133830939049e-01,-3.807851625263606321e-01,-4.341078943677859625e-01,8.097194326704765938e-03,1.143002780937436413e-03,6.257009059304147539e-04,4.833800718188285828e-02
-4.087377229457528349e-01,-3.965036857455164765e-01,-4.337538346828374580e-01,2.299159698437253617e-03,2.525548249036134452e-03,1.713439243861089503e-03,3.354588896036148071e-02
-3.501627895702976168e-01,-4.500617150093939589e-01,-4.446293487380588161e-01,6.722348872479680902e-03,2.222352157769940696e-03,1.609877694605190432e-03,9.810595959424972534e-02
-4.443084362009571131e-01,-4.966623048125746176e-01,-2.450568907040546196e-01,1.289964803689592956e-03,-1.125638643129376060e-01,8.879599101500042918e-03,3.018726408481597900e-01
-4.391590125776295150e-01,-3.597222352128501832e-01,-4.172136345100290744e-01,-4.491157002959473015e-04,-3.031565841186929528e-03,1.393453846766565599e-02,7.522779703140258789e-02
-4.197472875185218055e-01,-4.121341183965521182e-01,-4.005604198469797095e-01,-4.949844904038767576e-03,1.207008916680883627e-03,-1.317609014976584177e-03,1.905531808733940125e-02
-4.322799567159060774e-01,-4.073715755587666854e-01,-3.953938445205256169e-01,-2.630426343232937676e-04,-5.203211940788107694e-04,2.585733582153036496e-03,3.291378542780876160e-02
-6.171669207450684036e-01,-2.057127219284306530e-01,-6.322096734737807644e-01,1.034227587086670869e-01,8.302215489356185724e-03,5.258445037283439316e-02,4.650819301605224609e-01
-4.849838142439893973e-01,-3.955785106009240826e-01,-3.638852864641218821e-01,3.920376310279292953e-02,1.238304149839571933e-01,1.616381289082295392e-01,3.752661645412445068e-01
-2.989606092733920195e-01,-4.442268739765822261e-01,-4.495468664975693640e-01,1.200635905410205213e-02,1.326366014681053512e-03,4.994433419739500481e-03,1.497196555137634277e-01
-3.465767811502586948e-01,-4.700398968341014672e-01,-4.726121224106581975e-01,6.592499922635330911e-02,-2.587722060633337179e-02,-8.864877582131875863e-03,1.756425350904464722e-01
-3.463353990262024173e-01,-4.459337133315915414e-01,-4.510619066318198866e-01,2.321584924109889540e-03,-6.919548995098469095e-03,-1.730465330889897554e-03,1.030809134244918823e-01
-2.972282567338251358e-01,-4.479740556262258311e-01,-4.482892465963471684e-01,-8.632485454329773961e-03,2.524571125433705283e-03,4.824785465461087696e-04,1.517079025506973267e-01
-4.233112849300806335e-01,-4.395410054445120784e-01,-3.702761114097061212e-01,-2.989605273835010003e-03,-6.080864330518636826e-03,1.501095441030276785e-03,6.388570368289947510e-02
-4.128465317976630078e-01,-5.404430455644234632e-01,-4.651974887038006212e-01,-1.386091803135265088e-01,-1.680557064388805977e-01,1.069478762745258993e-01,4.347653687000274658e-01
-3.760256502088046293e-01,-4.177290216089585839e-01,-4.295727670297190270e-01,-9.811853863856372440e-03,-3.544381177477926546e-03,6.414462997861284169e-03,5.313483625650405884e-02
-3.427637602284364093e-01,-4.349415736404653177e-01,-4.426518879687795227e-01,1.220343362612360746e-02,-2.287419489904620080e-03,-3.535167976712315710e-03,9.882751852273941040e-02
-3.101726580093353003e-01,-4.872554356633837513e-01,-4.536337798593219617e-01,1.632563399268479459e-02,-1.933973447604682427e-02,-1.368391953392332668e-02,1.703476309776306152e-01
-3.419680479625208935e-01,-4.508633103194639724e-01,-4.541619617254169516e-01,-7.401295105222181238e-03,3.693967299924816577e-03,-2.982386407938071842e-03,1.116253733634948730e-01
-4.095015961032729690e-01,-4.115088371076534024e-01,-4.081856444210619772e-01,1.570052789451483735e-03,-9.986115466718119282e-04,-2.059709759430674008e-03,5.613934714347124100e-03
-4.131476255444573309e-01,-3.996710309870247779e-01,-4.194631585769884041e-01,-3.308834021112298622e-03,6.645589013992872322e-03,-3.394843920239243133e-03,2.250617742538452148e-02
-3.223130620916279665e-01,-4.608747831839909992e-01,-4.443503398382155356e-01,2.178045618028981445e-02,-5.263213697800314672e-02,5.808032468643631145e-03,1.643701344728469849e-01
-4.385889704346133677e-01,-4.390557525582315934e-01,-3.795866301464753123e-01,3.785877638565919578e-02,-3.429748885657030177e-02,-4.462673829037166334e-02,1.315769255161285400e-01
-3.664707270678755346e-01,-6.437396638129961879e-01,-4.067613925293281918e-01,-2.529676275011873837e-02,-2.371877413292726444e-01,2.393975698448697065e-02,4.896358251571655273e-01
-3.010793356336939341e-01,-5.002177279920009267e-01,-4.605936300522973093e-01,4.980921087157290372e-02,-1.523292891575008245e-01,-6.325515021497442325e-02,3.498494625091552734e-01
-3.094032186976055643e-01,-4.446489390072138059e-01,-4.515270775420181515e-01,3.680734991531363354e-02,-2.422405749504778424e-02,3.613205636338598110e-03,1.585335135459899902e-01
-3.120300027666429998e-01,-4.406991726766085193e-01,-4.446208411895822832e-01,1.894795297171885523e-02,-1.374042886918528002e-02,-1.752722212063753887e-03,1.368518173694610596e-01
-3.978800533788081628e-01,-4.294750102241032819e-01,-4.030321043725886287e-01,-1.382874975338994981e-03,-3.551740674651668143e-03,2.897207235349788003e-03,3.050850890576839447e-02
-4.080142682499994788e-01,-2.608153226261145097e-01,-4.847650243717711027e-01,-1.243476571355045385e-01,-1.260072293469590571e-02,-9.472442359706376852e-03,2.932377457618713379e-01
-5.481654874738572936e-01,-5.996268056134690383e-01,-2.244687651486007851e-01,2.400182027671570947e-02,-1.856982638382415618e-01,-5.665928733826654240e-02,4.887702167034149170e-01
-5.690790803050367330e-01,-6.171588153239238039e-01,-1.466392429337584069e-01,-4.362050687734898673e-03,-1.337914241638004653e-01,4.293938733832163707e-02,5.102614760398864746e-01
-4.138430302939148930e-01,-4.059470000559222691e-01,-4.211607591993996036e-01,-8.758489492864209892e-04,3.858037499059272998e-03,-6.596751564977838909e-04,1.489757280796766281e-02
-4.460476258805102234e-01,-6.167209018284980360e-01,-3.828628183589499745e-01,1.206443207981689435e-02,-2.154153244367062736e-01,-2.079230574910847021e-02,4.299424886703491211e-01
-4.803165215909793728e-01,-2.665595080261292660e-01,-4.080119473788549334e-01,-3.731197241858671965e-02,-5.338869635503782837e-03,1.217912650687241471e-01,2.902168035507202148e-01
-5.716220678066268324e-01,-4.624572351591624275e-01,-4.001198938544361372e-01,-8.874310126352299988e-02,-1.138817745068698706e-01,1.809033591080199399e-01,4.281579256057739258e-01
-3.053682576495294620e-01,-3.486389972238911339e-01,-5.369567556186627399e-01,-1.609465812813855035e-01,-4.292131201153975145e-02,8.519989249334528059e-02,3.879429996013641357e-01
-4.407826811586909033e-01,-4.194972172954198331e-01,-3.791582239070045990e-01,-2.511096800391220303e-03,-1.824449747100456275e-03,4.141508925261845782e-03,5.494814366102218628e-02
-4.080454429200570110e-01,-2.820536323131981327e-01,-4.601898086932506571e-01,-9.548314817247163799e-02,-2.582414569288075598e-02,5.704423096365071610e-02,2.535283565521240234e-01
-4.013753333146975466e-01,-3.507373572762739755e-01,-4.731084924442643391e-01,-4.574165514065900440e-02,-1.527453961922058123e-02,2.038528324244322232e-02,1.398777514696121216e-01
-4.401971246222620704e-01,-3.892960516823372186e-01,-4.622736086138360956e-01,-7.917148419909283974e-02,4.722012900819836517e-03,5.753947231616511268e-03,1.522254794836044312e-01
-4.435528548916111147e-01,-4.541153717649314414e-01,-3.157379513935333337e-01,-9.714321803825134646e-03,-3.962195099574512824e-02,1.380908607650900566e-02,1.528500467538833618e-01
-3.969161380702327380e-01,-4.042467052691778862e-01,-4.423565411602825015e-01,-1.887927743546673892e-02,9.847186139084174693e-04,-1.361755450907567878e-03,5.350903794169425964e-02
-2.452435123071636802e-01,-5.030457323806388770e-01,-4.305384377635405047e-01,-3.958937448131712167e-02,9.799659473907273988e-02,-9.084110117505761473e-03,2.945950925350189209e-01
-3.942149899383078915e-01,-3.924136674444962392e-01,-4.281184601933361589e-01,-1.343981086621941039e-02,-4.376618773817593858e-03,4.918795391219182161e-03,4.342458769679069519e-02
-4.016179223272407506e-01,-3.995277017778660067e-01,-4.334244787627797302e-01,-1.078613985348878413e-03,-2.013395367990569512e-05,1.250213959708505176e-04,3.295522928237915039e-02
-3.990690338979572815e-01,-4.014052070772214376e-01,-4.311055746719464343e-01,-1.110727145166439138e-03,-5.851826437289215765e-04,1.339260858987767575e-04,3.101188503205776215e-02
-3.995602053802325138e-01,-4.031331848206439195e-01,-4.327120912782221884e-01,-1.254978949149384649e-03,-4.598908990984127624e-04,1.292198707789944537e-03,3.168172016739845276e-02
-6.465605428618358408e-01,-5.536894283475282119e-01,-3.113507506600769470e-01,-1.479655477827696540e-02,-2.977258559351254105e-03,2.070579811354624766e-01,4.681471586227416992e-01
-3.832075042039262969e-01,-4.097597851603683727e-01,-4.308804960603581646e-01,7.461066485222688990e-03,-4.042018733932695521e-03,-6.953028979671345769e-03,4.552978277206420898e-02
-4.179909707022062548e-01,-3.943192408296062323e-01,-4.202520579021409297e-01,2.813680950785950666e-03,5.837611997411882615e-03,2.503917967403019272e-03,2.763656154274940491e-02
-3.749668747633621568e-01,-4.405582280138838347e-01,-5.038024889833883080e-01,6.968441819657589242e-02,2.886550251567231509e-02,2.615483804840190371e-02,1.776794046163558960e-01
-4.240045068946422524e-01,-4.056560177387898425e-01,-4.012910261124656430e-01,-3.821935224750178366e-03,1.710013460673331974e-03,-2.964942490984878547e-03,2.268871665000915527e-02
-4.260103963592264398e-01,-4.044653376132460454e-01,-4.014468534879616635e-01,-3.073341800294786871e-03,1.958070297089937409e-03,-2.981237812016542844e-03,2.459341287612915039e-02
-4.272417189165280127e-01,-3.994127363243458184e-01,-4.029927113150306717e-01,-1.575078510844008742e-03,3.264798942418914354e-03,-3.734791276044950679e-03,2.772916853427886963e-02
-4.309880901962677702e-01,-4.046132088027150076e-01,-3.983094325216036125e-01,-3.267665767293783090e-03,1.089739459642254972e-03,-3.119347026658155029e-03,3.108729422092437744e-02
-4.558868503313346365e-01,-4.038878830028857503e-01,-3.750477033208439726e-01,4.933087516582206761e-03,2.650113500317948043e-03,2.798155317664473285e-02,8.647707849740982056e-02
-3.960274728224177920e-01,-4.278955213022666570e-01,-3.994059478155833065e-01,-1.491177636318795395e-03,-4.439500938758471869e-03,2.973879517972756719e-03,3.180646896362304688e-02
-4.339959858062316655e-01,-4.948318254920738291e-01,-4.798024021942902673e-01,1.459674295366010788e-01,1.199154171565845473e-01,1.118183505746011969e-01,3.841629624366760254e-01
-3.831006641285706893e-01,-4.854833725334428696e-01,-3.753885621375325776e-01,-1.629577529407209152e-02,8.624556632480431806e-02,1.057215960343935515e-02,1.864889860153198242e-01
-4.076855274926086126e-01,-6.285017454143456694e-01,-4.327251237640682424e-01,4.655079720144925104e-02,2.079472867348027831e-01,3.074591044726034464e-02,4.276923239231109619e-01
-3.051875885821871415e-01,-5.572837243371249194e-01,-6.296715120500306906e-01,1.623417979810472533e-01,1.174950781875734179e-01,3.858693036122100295e-02,4.604213833808898926e-01
-3.399691458208866646e-01,-4.513965817664734037e-01,-4.618184941098792406e-01,-5.104098845359927167e-02,1.924044989979067921e-02,-2.678364842803480222e-02,1.573664546012878418e-01
-4.044753782227606953e-01,-4.039721943264203419e-01,-4.136433743053187784e-01,6.451495214244864704e-03,4.410869391214206417e-03,5.141365916714601969e-03,1.874705776572227478e-02
-4.153920491107750412e-01,-4.342622910334474340e-01,-3.953554303917961033e-01,5.582396578182045530e-03,1.316349875229745614e-02,3.501050406484209048e-03,4.225804656744003296e-02
-4.036988699638347500e-01,-4.189006059145424232e-01,-4.881758596451807319e-01,-7.766765449992445169e-02,2.117863062933627444e-02,-2.325830418526611196e-02,1.647680252790451050e-01
-4.759650933294510833e-01,-4.606251391486180791e-01,-3.310564735328391794e-01,1.507529566773297379e-02,3.964581771694569712e-02,5.650801564345005884e-02,1.843571662902832031e-01
-3.810645672827636665e-01,-4.252592783902074958e-01,-3.916293750958034781e-01,2.943534192791131057e-02,4.821402839784371536e-02,3.160573583377979806e-02,1.190283223986625671e-01
-3.238978508057089867e-01,-3.827528360709001598e-01,-5.880712156369392041e-01,-1.404814745043987956e-01,4.942856342670042674e-02,-1.612604299122145923e-02,3.535794019699096680e-01
-4.245595585329527411e-01,-3.724073014450820507e-01,-4.577925991873979528e-01,-5.410043090087467144e-02,4.895332045864565773e-02,-4.341985787368493610e-02,1.648732125759124756e-01
-3.194053162344595020e-01,-4.839113414470190278e-01,-4.628797622845824966e-01,3.347765596375684716e-02,-2.572418986150612139e-02,-1.333489003901505363e-02,1.729903370141983032e-01
-3.676808569840415708e-01,-3.331431575982107818e-01,-4.336816283550924966e-01,-1.335555300179673555e-01,7.787632704226928049e-02,-8.139121387343090097e-02,3.152894973754882812e-01
-3.445815522194536351e-01,-4.376712208926030190e-01,-4.429401063147240247e-01,1.267366001451564542e-02,-3.250572140792924378e-03,-4.068586219311007626e-03,9.872765839099884033e-02
-4.076537662833178977e-01,-4.320707082171733049e-01,-3.960278463452021613e-01,-3.793874004181933910e-03,2.314479372206313008e-03,-5.153046074454581491e-04,3.279124945402145386e-02
-3.348740507086589990e-01,-3.128309628905051043e-01,-4.383291461675913325e-01,-1.301273138693984366e-01,4.783754758835401244e-02,-5.918211374980127809e-02,2.857298254966735840e-01
-4.102164035360386096e-01,-4.300237997749530305e-01,-3.953950388290067841e-01,9.191546938324770405e-03,1.320365236046884376e-02,4.238029438114635644e-03,4.166442155838012695e-02
-3.676058129901902394e-01,-4.504314588944864362e-01,-4.294943884536469025e-01,-3.038849341057825795e-03,1.490720264276957675e-02,-2.342685604827645166e-03,7.921593636274337769e-02
-3.743302576065805631e-01,-4.267526421888294674e-01,-4.484613956593757611e-01,-2.320104238723050272e-02,5.489397284721849422e-04,6.967746145866933255e-04,7.729570567607879639e-02
-3.660226531168479513e-01,-4.335344201349748405e-01,-4.324597984874924972e-01,-3.092063301700571573e-03,-6.510024860113814912e-03,8.542576812124690055e-03,6.972226500511169434e-02
-4.208809179633978825e-01,-4.052751690880846969e-01,-4.083995239639380270e-01,-1.137078889235694328e-03,6.486344555277325430e-04,-1.405357670243545000e-03,1.468363776803016663e-02
-3.879109862926166663e-01,-4.095196421064551395e-01,-4.342591140810128092e-01,-2.595962535837404925e-02,2.542673573397842557e-02,-1.660387744079449071e-02,8.001182228326797485e-02
-4.449441557931154145e-01,-2.866039937902473689e-01,-4.488685736372376445e-01,2.230483735598521103e-02,-1.696886585814131460e-03,-2.441978319318630075e-02,1.702895611524581909e-01
-4.387801255367035358e-01,-3.372815929388467415e-01,-4.348940980589488525e-01,4.475163138536084051e-02,-1.461030285130056859e-02,-4.631523527054033640e-02,1.516787409782409668e-01
-3.945306669486583484e-01,-4.277278026407337341e-01,-4.255566452231402397e-01,1.256089156552732226e-02,-1.245655133645930633e-02,-9.946778439198984342e-03,4.764795675873756409e-02
-3.023754743962752678e-01,-4.058442282524962752e-01,-3.381322468523001445e-01,7.962510273259421067e-02,1.278788769222584665e-01,6.048868304852395017e-02,2.955347001552581787e-01
-1.744675341983113470e-01,-5.878762994824916488e-01,-6.675089788766079835e-01,8.683032901415471683e-02,4.862486967777593372e-02,-7.140482067249921856e-03,4.899322688579559326e-01
-4.425724391522850576e-01,-3.338012503754797522e-01,-4.482982704952367947e-01,2.248449465887385895e-02,-2.365311170262989621e-03,-1.153017284641477506e-02,1.200793012976646423e-01
-4.097034210333633797e-01,-3.442741290696209044e-01,-4.030477168497035301e-01,4.964599707553563057e-02,-3.181707872437131157e-02,-5.975209917669094262e-02,1.582147479057312012e-01
-3.645282452563099462e-01,-4.372409086373078568e-01,-4.226464813139432231e-01,-2.044001470036250524e-03,-9.313338563998838082e-03,3.692301881750405593e-03,6.893893331289291382e-02
-3.661756566083477216e-01,-4.357897373477813141e-01,-4.178966070823302847e-01,9.121499473462158294e-03,1.541811111205961850e-02,5.216930935178488299e-03,7.046332210302352905e-02
-4.506931502939512946e-01,-3.526542023917209612e-01,-4.523896739629879038e-01,5.511715373433148484e-03,-7.497145294667727916e-03,-1.172841219020078277e-02,1.022412106394767761e-01
-2.115328109098802978e-01,-4.424491330669139688e-01,-4.563637480481211872e-01,5.179463475181593501e-02,6.024685523180633995e-02,1.576558658128418555e-02,2.764269113540649414e-01
-4.396516619720483576e-01,-3.488343474138607681e-01,-4.491738769463030634e-01,1.100556560824758959e-02,-4.591691343870035920e-03,-9.049063331488209697e-03,9.937562048435211182e-02
-4.015399612141936636e-01,-4.052258809952981600e-01,-4.275513439922839498e-01,1.503305640343678175e-03,-6.939461622555233343e-04,-8.969891269954730030e-04,2.459553629159927368e-02
-4.073150992876635179e-01,-4.110019648216804433e-01,-4.134904656024038228e-01,6.084077876738632450e-04,-1.093690196583818261e-03,-2.474885650997383189e-03,7.213495206087827682e-03
-4.076620908679862709e-01,-3.941419185424776539e-01,-4.318709557422243939e-01,-2.722789084375191061e-03,-3.154964798166728576e-03,2.306972341618229380e-03,3.412097319960594177e-02
-2.810021901920511933e-01,-5.918135948343681285e-01,-4.856861769232042603e-01,4.918981453629793499e-02,-1.772198634978897624e-01,-3.557433561307973835e-02,4.244494140148162842e-01
-3.809759142795318132e-01,-4.338655370858607307e-01,-4.054959605321932226e-01,-1.937615902254484187e-03,1.110653476636566141e-02,-1.108949054295219522e-04,4.983025416731834412e-02
-2.446888246197958527e-01,-4.574608004075233492e-01,-4.901867636768156844e-01,3.545338150280202827e-02,6.336959109101056829e-03,6.106477677671204112e-05,2.391597330570220947e-01
-3.971493077180422437e-01,-4.230044608098592618e-01,-4.106313845767514126e-01,5.660629204600078988e-04,-1.540891508205629017e-03,-3.893361057572168517e-03,2.356338873505592346e-02
-4.427411612128613339e-01,-6.143583706102067055e-01,-3.612554186790182809e-01,-6.775594397123038681e-02,-2.168774068101675390e-01,9.693888556252110156e-02,4.828542470932006836e-01
-3.486666652689795476e-01,-4.727865123676828207e-01,-2.428285400849501396e-01,2.129737404508117229e-02,-1.677064296130547916e-01,-4.641216179473268283e-02,3.632401227951049805e-01
-3.975726723881935487e-01,-4.318391800772007905e-01,-4.161561788421334063e-01,-9.876555827323382081e-03,-1.309709903635238384e-02,9.051387555920191105e-03,4.399741441011428833e-02
-4.142243437301962872e-01,-4.111831675140032449e-01,-4.024322446883015769e-01,5.849171340774519078e-03,-3.521915542237172726e-03,-2.327114046869428396e-03,1.638709753751754761e-02
-4.024113345010684184e-01,-4.159605943192410948e-01,-4.145941298191864743e-01,1.752961748114661295e-02,-2.630358397055582165e-02,-1.818935970235210919e-02,6.447473913431167603e-02
-4.383027933403741416e-01,-4.730596041870301360e-01,-3.357487790146159723e-01,4.409683281813445155e-03,3.209837465777029553e-02,2.570442193999655789e-02,1.429028213024139404e-01
-4.876161000374785726e-01,-5.052213317373919210e-01,-4.630819196629836210e-01,1.446617413339592872e-01,-1.587482236078019415e-01,-1.259081186779636985e-01,4.327660202980041504e-01
-4.803703139616671836e-01,-4.899490744136296705e-01,-2.747504802685447056e-01,-2.391599654325030251e-03,1.000777410613103505e-02,-1.198223989298243322e-02,2.123421728610992432e-01
-4.058119960872436094e-01,-4.126131578788370668e-01,-4.138483928193883443e-01,-8.171535269797765896e-04,4.604544787692811171e-04,-3.290792895573816778e-03,9.555620141327381134e-03
-4.148363061971497290e-01,-2.454439869018025522e-01,-4.133820249626609100e-01,-1.016273879373298522e-01,5.139412293420340255e-02,-1.102100553868651106e-01,3.221750259399414062e-01
-2.948826921236356591e-01,-4.416196393128813957e-01,-3.634998096018286495e-01,5.703164294705784926e-02,-1.167739914742387392e-01,-4.181255450340810864e-02,2.684819698333740234e-01
-5.514498848863269576e-01,-4.788402340487422637e-01,-2.492308325672742408e-01,-2.056335925216464661e-02,7.988130533563224389e-02,7.661915490852982957e-02,3.356897532939910889e-01
-4.078482397636012946e-01,-4.082855439853744217e-01,-4.182733884336599650e-01,-3.798583123632331602e-04,3.196520932611342973e-04,-1.667193804146396363e-03,1.064866222441196442e-02
-3.162760799627946096e-01,-6.037408733381506298e-01,-4.828712482021846331e-01,-1.007683134882816911e-01,-1.728775795522076164e-01,6.713604168628650726e-02,4.428816735744476318e-01
-2.856910688354509786e-01,-3.757477318160978852e-01,-4.854907760630603475e-01,-1.402308711906895544e-01,6.899323568996441718e-03,-3.993255792309392815e-03,2.986997961997985840e-01
-4.580465737780580193e-01,-4.406169208514071345e-01,-3.406384164563746597e-01,8.136987243833705002e-03,3.078514581276283954e-02,2.793659612630160910e-02,1.320047378540039062e-01
-4.292640118223511880e-01,-4.413634995654936444e-01,-3.138909190294850715e-01,3.920781796531838670e-03,3.206561298515926695e-02,5.541320247900562677e-03,1.344475746154785156e-01
-4.172050711739888063e-01,-4.553795219116466564e-01,-2.607500707338917811e-01,3.310657721966166894e-02,9.583764994969468098e-02,4.774244176133435325e-02,2.637968361377716064e-01
-4.276147134790260207e-01,-3.988239141623934336e-01,-4.261422917494317453e-01,-1.247048557832616117e-02,-8.584900645650542922e-03,1.051951070901866424e-02,4.252419248223304749e-02
-1.609378140736420493e-01,-5.723812480764234323e-01,-6.486731813571651184e-01,1.159260139009936491e-01,6.291531005766123896e-02,7.357989457586980135e-03,5.087729692459106445e-01
-4.387064676480103564e-01,-3.857754903229814181e-01,-3.784584661288288854e-01,-1.952252155112228858e-03,-7.549126437248113337e-03,4.186677058991600947e-02,9.318479150533676147e-02
-5.640611544258868904e-01,-4.201836919317288865e-01,-2.758617927786367607e-01,-2.989966108788942589e-02,-5.246918389274855994e-03,1.374962692445341195e-01,3.489619493484497070e-01
-3.971149609062548658e-01,-4.365070170875711142e-01,-3.738866662623346326e-01,2.582538698000056733e-03,2.802794508249461386e-02,7.962481330620307376e-04,7.338191568851470947e-02
-4.318532518397471542e-01,-3.621392123359503112e-01,-4.361677974461079521e-01,4.144082662532740796e-03,6.333738286323771331e-03,7.501778442056029547e-03,7.429768890142440796e-02
-4.234465265031870373e-01,-4.076648694729265165e-01,-3.999969670549988754e-01,-4.691569505829191501e-03,-6.868450921525803485e-03,5.572556935460285833e-03,2.701090835034847260e-02
-3.919636659802874235e-01,-4.125843567664919664e-01,-4.223188995834266102e-01,-4.502932552245890799e-03,-4.043018220346336448e-03,7.516302257158289334e-03,3.162370622158050537e-02
-3.759010836790792620e-01,-4.337959665133009901e-01,-4.192070502002593901e-01,-9.227227469096585533e-03,2.269960371187944650e-02,-6.144451708087874352e-03,6.807741522789001465e-02
-4.021011608470317356e-01,-4.006434988307163159e-01,-4.243634406296582506e-01,-3.510692367900087717e-03,-3.294561333790207817e-03,1.846017052250913375e-03,2.469707280397415161e-02
-3.987940836638219633e-01,-4.024156835292897472e-01,-4.275160215094221394e-01,-2.632908787744519565e-03,-1.348646796384907025e-03,2.740196948443250884e-03,2.797902002930641174e-02
-4.424217335963290809e-01,-3.493258652927057062e-01,-4.503185778010301288e-01,-2.672833928500477699e-02,1.709078483163197545e-03,5.331000014334209836e-03,1.081739291548728943e-01
-5.729952002325693350e-01,-2.795036271441569964e-01,-6.017580221297115228e-01,-1.316828873191343285e-01,-2.667360936852889233e-02,7.103556233294697209e-02,4.058324694633483887e-01
-4.201640803703442506e-01,-4.293084216151825117e-01,-3.747887263841036543e-01,-6.254063451028505152e-03,-9.074851256440748942e-03,3.468080620564779372e-03,5.438704788684844971e-02
-4.222922972125914831e-01,-4.362136248479519529e-01,-3.661011636459347018e-01,-5.399998486883773353e-03,-2.204544266472302505e-02,1.612239524839579122e-02,8.036654442548751831e-02
-4.885333796739663725e-01,-4.867381963413681123e-01,-4.182394250603006514e-01,-1.351632240244547978e-01,-1.588809899388810565e-01,1.460762819312750316e-01,4.465085864067077637e-01
-4.162907811328024899e-01,-4.086193664208595533e-01,-4.056102191772889554e-01,-3.257723096003764963e-03,-1.641245865566943150e-03,1.317205283508721819e-03,1.166680827736854553e-02
-5.939758809666977335e-01,-6.008021219958067372e-01,-3.214934689908838239e-01,-6.348471679445356897e-02,-1.359435704881796214e-01,1.620797079192302648e-01,4.716944694519042969e-01
-4.535780114907401739e-01,-4.065537680979918189e-01,-4.004093041737848413e-01,-2.831176201162450765e-04,2.123280396679496501e-03,2.729086745089853369e-02,6.918173283338546753e-02
-4.206359894788727627e-01,-3.831647054775575434e-01,-4.223826245411895774e-01,-5.503156064984100933e-03,-9.953156101188322807e-03,6.829227327437012614e-03,4.472763836383819580e-02
-4.214285836508532834e-01,-3.997525399450205241e-01,-4.348473842768398878e-01,-3.767306402874293081e-02,2.307227329219154952e-02,-2.774836738762096258e-02,9.542256593704223633e-02
-4.394910551966376144e-01,-4.199389925360203502e-01,-3.746128034231627768e-01,7.053492362575767335e-04,-7.677807286407029204e-04,-5.935000805844554451e-03,5.858242884278297424e-02
-6.177419320652499657e-01,-1.610732815926645412e-01,-6.524764529923956502e-01,8.999804387863689914e-02,-1.927759753357070763e-03,3.838567649778498042e-02,5.043266415596008301e-01
-4.199161042392540732e-01,-3.775307732154653539e-01,-4.194457588975079587e-01,-1.591263991617876059e-02,1.063736732248780209e-02,-1.788770039291663616e-02,6.193390116095542908e-02
-4.352429008318723924e-01,-3.968760721206932574e-01,-4.021930388954120250e-01,-2.358328225938364456e-04,-9.644312761782533041e-04,-4.256875205880189875e-03,3.679142147302627563e-02
-6.201029728241953531e-01,-5.967982450753582802e-01,-1.586674187883247988e-01,-8.710946614565215351e-03,-7.614808501986776619e-03,-1.547416415254188743e-02,4.514777958393096924e-01
-4.346302000840479574e-01,-4.365555959183193280e-01,-3.472928092569985137e-01,7.888123147492806519e-03,-1.028889882250581464e-02,-1.152952945545242421e-02,9.328841418027877808e-02
-4.319902867948317016e-01,-4.281981654177377528e-01,-3.747536936156107279e-01,-6.573594722230885652e-03,2.884785868713689479e-03,-8.497020275281805257e-03,5.869037657976150513e-02
-5.895543501708774281e-01,-4.724735878245684972e-01,-2.341701652626870522e-01,-2.006287038885917057e-02,-4.202274136354373912e-02,-1.057841098062381469e-01,3.721199929714202881e-01
-4.529002303614926284e-01,-4.495643137520639043e-01,-3.516777865100422229e-01,5.988643172007766628e-03,-1.025216774378541126e-02,-1.965555530626037634e-02,1.072444692254066467e-01
-4.863620141756269666e-01,-4.434704139397280809e-01,-3.505855782260001163e-01,-1.329487074136393408e-02,3.483954167305112083e-03,-4.658403200308124797e-02,1.467247456312179565e-01
-4.461402891758527445e-01,-6.191964247728962700e-01,-2.782854904589450173e-01,2.952229174482131138e-02,1.261756592805848287e-01,8.740836567810120195e-02,4.005848467350006104e-01
-5.769833432594539957e-01,-4.209012953118607125e-01,-2.319280475294026034e-01,-4.040068961504021672e-02,1.313808563039264507e-02,-1.283036443965426265e-01,3.799575865268707275e-01
-4.329353568557205434e-01,-4.181531225174018873e-01,-3.804641212011924400e-01,-6.927102448337189508e-03,2.686957206227092061e-03,-6.173042406334573740e-03,4.975977912545204163e-02
-4.468559356762589196e-01,-4.274050294030877772e-01,-3.667079794493973699e-01,2.518698203493891646e-03,-8.852452737436288920e-04,-9.325782022792643983e-03,7.433287054300308228e-02
-5.010012945986044297e-01,-6.043599885888397694e-01,-3.313076107371802359e-01,-2.356751305346698258e-02,1.785835000476451995e-01,-2.361218573452633293e-02,3.950105905532836914e-01
-4.561605552522565721e-01,-4.585243026277239231e-01,-2.698052874885749075e-01,-3.936963078182378895e-02,1.110864752110161530e-01,-6.784031331863966952e-02,3.010843992233276367e-01
-3.908676429764920690e-01,-4.246278686721299267e-01,-4.086131485281241371e-01,-3.930710208558443539e-03,6.461739733293571028e-03,-6.824157124678966770e-03,3.415969386696815491e-02
-4.686481851268642362e-01,-4.142620974986189197e-01,-2.181060180440773655e-01,-1.918713509133902068e-02,2.802457418194759936e-02,-1.156962390181752176e-01,3.093875348567962646e-01
-4.503204508117235605e-01,-4.908945785425477548e-01,-3.569048122099215403e-01,8.925611987854240037e-02,1.679277050339556265e-01,5.967089496514841468e-02,3.651629090309143066e-01
-4.310125007715788215e-01,-4.318537009216127376e-01,-3.712607995525471494e-01,5.368018091135844973e-03,3.978239555396315477e-03,4.044875856023688425e-03,6.167856603860855103e-02
-4.119178437896152123e-01,-3.964720703050495509e-01,-4.199296788608999909e-01,2.424860812835656458e-03,5.142906713352980892e-03,2.150484458291765898e-03,2.318129502236843109e-02
-4.039315713944500730e-01,-3.948867054043212477e-01,-4.137404855972280360e-01,1.351503430929807716e-02,1.120013370057846083e-02,1.109646725629619829e-02,3.950236737728118896e-02
-4.312217262853761390e-01,-4.393529466315111431e-01,-3.683275640591523459e-01,-1.426624779190405375e-02,3.414598107833383134e-02,-1.753534458433559165e-02,9.779614210128784180e-02
-4.186629432027580422e-01,-3.842883187639296594e-01,-4.211655034152437249e-01,5.861532385357459511e-03,9.565197584357107083e-03,6.198339312185262642e-03,4.203227534890174866e-02
-4.432912689302512255e-01,-4.446303513529217266e-01,-3.488976619936763335e-01,9.511752619582701388e-04,9.212667093284099967e-03,-5.343493662321236641e-04,9.641855210065841675e-02
-4.085945837205799958e-01,-4.065229194478892083e-01,-4.207052445570547694e-01,-1.190587365541123091e-03,6.290400646235619082e-04,-6.306991433083291524e-04,1.351599209010601044e-02
-4.142139091513684090e-01,-4.183398354925811358e-01,-4.126069451070291105e-01,1.213849869392871240e-02,1.061393363875034329e-02,1.242288102792371909e-02,3.562605753540992737e-02
-4.273854387260053178e-01,-4.402920728975605047e-01,-3.669941860185649829e-01,-1.553794807007800481e-03,8.639194682239077078e-03,-1.413848696123200200e-03,6.950020790100097656e-02
-4.550868668863466415e-01,-4.136681139663542783e-01,-4.074630681993270942e-01,-1.101514669673088996e-02,-1.050197837123110177e-02,3.436257598263296048e-02,7.904590666294097900e-02
-5.158268614218725068e-01,-4.171552895953477003e-01,-4.930442934007602251e-01,1.373450346046991566e-01,9.736437695382341162e-02,1.612744489776835044e-01,4.136011600494384766e-01
-4.260384010429048574e-01,-5.102747244340160027e-01,-3.761468114101618188e-01,6.005126852461913946e-03,8.286145927381866061e-02,1.480866517806173413e-02,1.874880045652389526e-01
-4.328953316107320148e-01,-4.002657189641604107e-01,-3.955669713535611698e-01,-1.701481872888162489e-03,-1.302753423095674734e-04,2.642900957192961288e-03,3.563395887613296509e-02
-3.612914214019667392e-01,-4.273381111496389884e-01,-4.704214705695133891e-01,-6.435419988615601050e-02,4.342408042495435327e-02,-2.942211369776978960e-02,1.724592000246047974e-01
-4.217112084845454079e-01,-4.365161779914450424e-01,-3.668089897576565783e-01,-3.739296150663178140e-03,1.257523445896543274e-02,-4.643164620774981738e-03,6.802426278591156006e-02
-4.470628928836449800e-01,-4.553965382971171816e-01,-3.518396899267746125e-01,-5.633922198680015340e-04,1.466526410085718275e-02,-4.686720935371781888e-03,1.031626015901565552e-01
-4.342729064978563813e-01,-4.455613476732248612e-01,-3.594173863285676784e-01,-3.791033326918587330e-03,9.195324985027774137e-03,8.200560062613941777e-04,8.291305601596832275e-02
-4.351327362377215846e-01,-3.582842857770272560e-01,-4.318270637379074683e-01,-1.207318626402034689e-02,-7.145264560426768490e-03,5.383700622254033834e-03,7.962398231029510498e-02
-4.329877043502462497e-01,-3.864640634111072837e-01,-4.214367242909086708e-01,7.478641436181520871e-03,7.073123709851386609e-03,1.369911663305773721e-02,5.139411985874176025e-02
-3.476502570069664455e-01,-4.741235744039328237e-01,-4.609342713043850237e-01,-2.488699241881412068e-03,3.741474040797258815e-02,-1.080573434137544614e-02,1.380935311317443848e-01
-4.756580192182333633e-01,-4.590811763461855044e-01,-3.222742722439208563e-01,-1.798016913036293296e-02,1.588971254807917260e-02,-1.719022046792898634e-02,1.545075029134750366e-01
-4.182589500372587699e-01,-5.457071185099175992e-01,-5.180818787211880494e-01,1.659117887186762064e-01,1.675542507073038145e-01,1.002064365160946352e-01,4.587077796459197998e-01
-5.772339251347800015e-01,-5.872781178382033840e-01,-2.763624182909831251e-01,3.417300027556105513e-02,1.263955973781832887e-01,1.377825481422936815e-01,4.494770169258117676e-01
-2.933121456596159415e-01,-4.108443882396919378e-01,-4.561593446870685353e-01,8.513098119212274273e-02,9.550726697781017349e-02,6.327260152778138580e-02,2.868976593017578125e-01
-4.304416801665366110e-01,-4.443445078883604960e-01,-3.080482373433275356e-01,-3.727935377242457254e-03,3.020623158819280701e-02,-1.131403940577156361e-02,1.415557265281677246e-01
-3.711200439992995981e-01,-4.409492573813978411e-01,-4.211589376403858109e-01,2.696936094851661719e-03,2.839379878619047864e-02,1.110696569242905409e-03,7.956115901470184326e-02
-4.085246183755899541e-01,-4.300385951595180889e-01,-4.122669292119725548e-01,1.001926995724566373e-02,1.402029419323124436e-02,1.409840041094973830e-02,4.339933395385742188e-02
-4.360460982924646012e-01,-4.437686521938238871e-01,-3.493107137188327105e-01,-8.312058785154041382e-03,1.658024300773152174e-02,-6.866362237375291284e-03,9.708711504936218262e-02
-2.825401253180462868e-01,-5.559082429171257056e-01,-5.911571011696898914e-01,1.260250079757042618e-01,6.230441950922992883e-02,2.554889332271193317e-02,3.832221031188964844e-01
-4.282230211450121504e-01,-4.458123733038832359e-01,-3.418977394826539506e-01,4.751902923821085291e-03,4.332735957547155514e-02,4.551416630027352306e-03,1.226438507437705994e-01
-4.343548876874977482e-01,-3.419114169260095704e-01,-4.698517785306778327e-01,-7.236984529372060548e-02,1.737001348853601385e-02,-3.927736845298566634e-03,1.724844872951507568e-01
-4.073933441495588559e-01,-3.290760571055952877e-01,-4.451483687255273214e-01,-1.198361321874611002e-01,-6.120914937948727236e-02,7.468725404348360020e-02,2.856085598468780518e-01
-4.137622305897862840e-01,-3.922856041982454300e-01,-4.516281450279495679e-01,-8.050005564632529975e-02,-1.564218354650599371e-02,1.359859206810653393e-02,1.530943512916564941e-01
-5.652928572344089186e-01,-6.145099684168565668e-01,-2.670588889426324664e-01,7.719460793486356519e-03,1.408612288965145343e-01,8.237970488132118768e-03,4.073721468448638916e-01
-4.661422846292678779e-01,-3.620045696385028600e-01,-4.869790194814636042e-01,-5.377346679766322607e-02,-2.301286600915444444e-02,4.716531128394748501e-02,1.743156760931015015e-01
-4.263584622704472138e-01,-5.656884326535273066e-01,-2.999844900306209428e-01,-5.408963587279118357e-02,-1.402583117840167093e-01,1.521391200667450705e-01,4.361468553543090820e-01
-4.125181292601874383e-01,-4.193816803636501445e-01,-4.306155368950119189e-01,-2.088658854219635486e-02,-1.728749844405902403e-02,1.542371933202255595e-02,5.629748478531837463e-02
-4.325004269288558190e-01,-3.813724420903923940e-01,-4.364077387738652947e-01,-4.428325838962998695e-02,-2.211167751357547701e-02,3.266910672984339736e-02,1.156750693917274475e-01
-4.334109992512228393e-01,-4.462798105122575687e-01,-3.585124858825006200e-01,-3.509558614355725876e-03,-8.250571594441133416e-03,-5.330534521858364301e-04,8.355397731065750122e-02
-4.429743498631758536e-01,-4.492905503383017862e-01,-3.457558504225420881e-01,4.511426127505260494e-03,1.065834244234062020e-02,1.389056058847277370e-03,1.025330722332000732e-01
-4.315321456277418921e-01,-2.896099866545821522e-01,-5.895564784186795304e-01,-1.473791511722752356e-01,3.710840925350521180e-02,3.024787883471610067e-02,3.736020624637603760e-01
-4.059348412827917807e-01,-3.172235345725417099e-01,-5.296035224000809061e-01,-1.886448295289829546e-01,-4.408242085044090930e-02,-1.465447921518161535e-02,3.838868439197540283e-01
-6.026089302738300013e-01,-6.365935628647860778e-01,-2.467543523514418302e-01,-1.516058667194623497e-02,-1.195863533803743911e-01,2.665498910021638773e-02,4.308186471462249756e-01
-3.679770353433136632e-01,-3.488851851025867035e-01,-4.984734484192544501e-01,1.210950278330050756e-01,-2.584589687818145479e-02,-1.611507155671319802e-02,2.581866979598999023e-01
-3.386664004816432039e-01,-3.284544298636423165e-01,-4.494008823872397418e-01,-1.361500033564212453e-01,-4.327344489215734225e-02,5.299147452008965559e-02,2.883569896221160889e-01
-3.080296129257657500e-01,-4.384674544777188987e-01,-4.444625950373378154e-01,3.675343647523474089e-02,1.271351645237934341e-02,8.191989932889629476e-04,1.495704650878906250e-01
-2.931030161391613986e-01,-4.831758697850893625e-01,-5.049065087754638359e-01,5.827918870432208936e-02,5.148775740384711405e-03,7.824353894033917248e-03,2.262363731861114502e-01
-4.357681454434071955e-01,-3.983790162256690137e-01,-4.032507260966519680e-01,1.465106889157063606e-04,-1.254423555367944294e-03,5.783778197004634664e-03,3.666978329420089722e-02
-4.062121346079365369e-01,-3.848384302296611326e-01,-4.334321630744481513e-01,6.888669848934375964e-03,-2.335425008480794973e-03,-1.441039112682128680e-03,4.409661889076232910e-02
-4.032435422047955242e-01,-3.968059876610602332e-01,-6.356149181182585428e-01,2.199952920574003157e-01,-1.458153076685333657e-03,-6.267282507337047781e-02,4.609963297843933105e-01
-4.172742030950610248e-01,-4.114609740490111078e-01,-3.994241834116864509e-01,5.891741581898568211e-03,4.356319934651546252e-03,4.780167153078345235e-03,2.186940796673297882e-02
-4.013251594764423169e-01,-4.225292166258258764e-01,-4.109785256680005827e-01,6.717389097180185599e-03,-1.066973501810425037e-02,-4.778202578666724404e-03,2.972376719117164612e-02
-4.051573834248067829e-01,-4.200198046551057440e-01,-4.032662617062708899e-01,3.272355901264321649e-03,-1.331830631050700403e-03,-1.488932380905302845e-03,1.722415722906589508e-02
-3.931535798320173192e-01,-4.265871954566813895e-01,-4.631393233290611033e-01,5.729433456616963433e-02,-4.921182574339917626e-02,-3.085846177380081878e-02,1.537725627422332764e-01
-4.687243558242910613e-01,-3.925791975538817646e-01,-5.810611741412693432e-01,1.650238343421303322e-01,6.456523040862324758e-02,9.051805163680735900e-02,3.817809820175170898e-01
-4.196853962757851053e-01,-4.027401902452439342e-01,-4.053133248224650709e-01,1.457193834167713926e-03,-2.952994978855075139e-03,-2.848257834448612077e-03,1.752219162881374359e-02
-3.544451689006574147e-01,-4.271079090195117889e-01,-6.885992482250348212e-01,2.376768689949023683e-01,5.310059213891626939e-02,-6.780881568822556653e-03,5.203135013580322266e-01
-4.475688062514960319e-01,-3.625815184034035243e-01,-4.225878080201380671e-01,3.273101056281026329e-03,6.072176791852646263e-03,1.193148491477984824e-02,7.933256775140762329e-02
-4.111718476460466398e-01,-4.101730552460364221e-01,-4.094816781909674241e-01,1.036685127400139997e-03,-2.549060066362040123e-04,-2.968383776839159951e-04,2.418584190309047699e-03
-4.209200537657888930e-01,-4.078638235246753174e-01,-3.892786841508484308e-01,5.177038613937708957e-03,-2.742697833664178159e-03,-5.746014473319378292e-03,3.099269047379493713e-02
-4.305553161542361451e-01,-4.068540628902749257e-01,-3.839182725956862274e-01,3.978535182706976342e-03,4.269334594215023169e-03,8.129065666710025284e-03,4.395247250795364380e-02
-4.323668231248924965e-01,-3.592539483000843914e-01,-4.394188639524190809e-01,5.548107766699464372e-03,-2.855373130164796935e-03,-1.601146537323655961e-03,7.768727838993072510e-02
-4.089345928353703141e-01,-4.092903269525191567e-01,-4.099895908217565110e-01,1.504630358883665914e-03,-3.031711912996302993e-03,-1.140296602252099814e-03,6.255451124161481857e-03
-4.843351667890017365e-01,-2.997098950451411725e-01,-4.733166901750168742e-01,7.173055907884885556e-03,-4.217115388006988097e-03,3.793929799426239147e-02,1.915711164474487305e-01
-3.892150010279570305e-01,-5.956861517434303144e-01,-4.023287449011641037e-01,-8.377493642398699258e-02,2.171053314454253202e-01,-9.018792456457069839e-02,4.763981401920318604e-01
-3.488797067816618025e-01,-4.631622327909710179e-01,-4.396732483434627747e-01,1.280484760833568679e-02,4.387078404979605217e-02,2.141153740033105435e-02,1.362682580947875977e-01
-4.227997999208052970e-01,-4.098811287836112149e-01,-3.993906835125249355e-01,4.385825874453695532e-03,-1.938271463617940353e-03,-1.505670433519365990e-03,2.209620736539363861e-02
-4.515306909198135710e-01,-3.264969417600307455e-01,-4.446574572838919992e-01,2.844623858268512367e-03,-3.190025941291847831e-03,1.855148269342551948e-02,1.261291801929473877e-01
-4.077080563648253220e-01,-4.292377605865104750e-01,-3.935834679674203307e-01,4.426622229547213551e-03,3.065115594670603759e-03,1.302928107697883019e-03,3.254524618387222290e-02
-4.192017188035934705e-01,-3.633848789602018847e-01,-4.381969919007874248e-01,1.222508791684693424e-02,2.548403991809927889e-03,1.215704255056081901e-03,7.077337801456451416e-02
-4.707980205060041667e-01,-4.371151021016861371e-01,-3.483312116475364428e-01,-2.603752786834452604e-03,-7.123060635535006201e-03,5.808439375980745112e-02,1.493370682001113892e-01
-4.649996668843831560e-01,-4.303907260778957466e-01,-3.426281000489400097e-01,-1.002578178711595325e-02,-1.505285771644148535e-02,8.744585794305013982e-02,1.893649250268936157e-01
-4.451678862815275362e-01,-3.959986052518466582e-01,-3.904208636908633179e-01,9.111113641045729197e-03,1.715697233732319665e-02,2.755130187019843788e-02,7.830917835235595703e-02
-4.547661359048565388e-01,-4.544106549224065650e-01,-3.363729488202077400e-01,7.151597181886321097e-03,2.307876163149996662e-02,2.847823512575395344e-02,1.347565948963165283e-01
-3.939099962543994859e-01,-4.319786491780742699e-01,-4.073177869114572025e-01,9.599392241037663998e-04,2.918556601163903481e-03,8.452869909524413040e-04,3.389744088053703308e-02
-4.300003485688627114e-01,-3.913848417448185790e-01,-4.256418964575198194e-01,-1.095606350439109512e-02,-9.063539044131478650e-03,1.254598113630038883e-02,4.919963330030441284e-02
-4.267594606780854560e-01,-4.355068962499725194e-01,-3.789642271475591184e-01,3.446232690285331961e-03,2.559187529410144810e-02,1.031810535710379374e-02,7.140615582466125488e-02
-4.722297696434551995e-01,-5.916685241794438221e-01,-3.990293025491541412e-01,1.040636139389721215e-01,1.691326097348328505e-01,1.050192554308796294e-01,4.239802658557891846e-01
-4.032198089251812223e-01,-4.202130519933627850e-01,-4.062469879035657261e-01,1.696865195797945007e-03,2.566598968773032945e-03,3.075743063169702682e-03,1.741474866867065430e-02
-4.841086870487295024e-01,-4.753395720476817354e-01,-3.565854048238613072e-01,2.512505267682879628e-02,-4.103794866308069222e-02,-6.775939675882321211e-02,1.895810365676879883e-01
-5.592469003191675725e-01,-5.590347385761318399e-01,-2.806833965792012719e-01,-5.852597084117588250e-02,-1.499678818527995505e-01,1.578247405229757372e-01,4.795951247215270996e-01
-6.231825292048835951e-01,-5.825884865979026328e-01,-1.868075671560673889e-01,-1.887349391016754363e-02,-5.928677035715806259e-02,1.317564505048251233e-01,4.879030883312225342e-01
-5.408196829248214099e-01,-5.133340715769150187e-01,-3.121309465522159599e-01,2.337579012385063160e-02,-5.954366636029417847e-02,1.733964360290161377e-01,3.863197565078735352e-01
-4.452064795219519144e-01,-4.103645198659625626e-01,-3.849924002769927744e-01,-1.237165611343798467e-02,-1.904710954533020417e-02,4.601304636066078785e-02,1.031546071171760559e-01
-3.850776597140128654e-01,-4.888355099362907130e-01,-4.260771152103389747e-01,-1.009587540304674944e-02,-7.443557264738730195e-02,8.037924641499327727e-03,1.591043621301651001e-01
-4.908639847988922611e-01,-4.497415004079194367e-01,-3.428560188836559108e-01,-3.395945827278008811e-02,-3.080281570656839829e-02,8.632294387856739859e-02,2.148769199848175049e-01
-3.791541411658184701e-01,-4.220343305325186534e-01,-4.164347384509528016e-01,5.802361697892726919e-03,-7.290312019626341532e-03,-6.204128796664990647e-03,4.478701204061508179e-02
-4.363361566721089546e-01,-5.248792783268060314e-01,-3.715199671711031382e-01,-4.118575406835206509e-02,-2.002431406322158769e-01,2.945129314527607581e-02,3.817891180515289307e-01
-1.731601537972178861e-01,-6.138447258254111638e-01,-5.076541714502490477e-01,-4.563810565043308759e-02,6.870032345182036648e-02,1.271033237377912004e-02,4.237630963325500488e-01
-4.369926119689604427e-01,-3.180359488373593058e-01,-4.299388366949566387e-01,-1.163363349014432356e-02,-4.771939835045587580e-03,2.887630573060751688e-02,1.278170943260192871e-01
-3.529649239920008563e-01,-5.290760733403990779e-01,-5.175574683955621591e-01,1.262499931018241095e-01,-1.331895381386789257e-01,-7.551054639370655130e-02,3.837451338768005371e-01
-3.474804378156702844e-01,-4.784390081421387442e-01,-6.124098726039706175e-01,1.821188718287424235e-01,-5.525809581807428900e-02,-6.867577180684661387e-02,4.188726246356964111e-01
-4.434785858334638897e-01,-3.698846732146777172e-01,-4.198703728244551625e-01,-5.984555801558089777e-03,-3.907066257141887482e-03,1.154890660042031704e-02,6.920522451400756836e-02
-1.846366378130039898e-01,-6.245254108228497358e-01,-5.894901372771865766e-01,-1.950954677174083010e-02,-1.065026809205047859e-01,-2.370679008067025015e-03,4.631470143795013428e-01
-4.128366455170491833e-01,-4.939060246800608955e-01,-3.688447631175091335e-01,-2.385418189289417387e-02,-8.726132314980489246e-02,2.430536127878900332e-02,1.959511637687683105e-01
-4.288552057037330889e-01,-3.739138393129478599e-01,-4.190477672523261199e-01,-3.926701984115238409e-03,-7.786005253717612380e-03,1.426576056451995915e-02,5.843427032232284546e-02
-4.048515508952160724e-01,-4.126339485576099309e-01,-4.228057325958993751e-01,8.869256091203592263e-03,-8.048229363186457097e-03,-4.710699159774408597e-03,2.720435522496700287e-02
-2.427919986895992199e-01,-5.046762501334640660e-01,-6.057683743276491839e-01,9.928972118503232025e-02,-4.425784564811693217e-02,-1.661869678538198045e-02,3.762413859367370605e-01
-4.213329204412606388e-01,-3.640183040579654250e-01,-4.383717985748314394e-01,1.069121320731762463e-02,-2.731524689456624536e-03,-1.648170511664453445e-03,7.018051296472549438e-02
-4.359197254293087909e-01,-3.830188778008066230e-01,-4.187603068140339779e-01,-3.962757620180060864e-03,-5.006902749691562876e-03,4.878484322262186326e-03,4.877411201596260071e-02
-4.117725830994518610e-01,-3.981373059727579267e-01,-4.430459730195477897e-01,1.496744716040836892e-02,-2.480300926342332221e-03,-6.850484123459870366e-03,4.921060428023338318e-02
-4.038151808049688096e-01,-4.044467261026153393e-01,-4.201130391699698374e-01,7.631000422681021673e-04,-1.221123055560849931e-03,-2.409013815920185361e-03,1.671396568417549133e-02
-3.300955229061401930e-01,-4.508481001891208040e-01,-6.818392200884425547e-01,2.132689386097874340e-01,4.236278578186820909e-02,6.570215477857159134e-04,4.875109195709228516e-01
-4.096269834554763789e-01,-4.140006220088679467e-01,-4.076730637534711210e-01,2.244725316859564994e-03,-7.904281815476958510e-04,-1.011953968460749210e-03,7.180188782513141632e-03
-1.236086625213662638e-01,-6.002765785621075878e-01,-6.750855724534527980e-01,4.728425394598610026e-02,6.184510367388990765e-02,9.310759255621617672e-03,5.356394648551940918e-01
-4.301008918133452652e-01,-3.987483721334081910e-01,-4.121668063933655035e-01,-8.345295314573838302e-03,9.484635819887668115e-03,-1.236254063458349858e-02,4.098337516188621521e-02
-4.045498354068658431e-01,-4.082228324490448368e-01,-4.212749550008619281e-01,1.190327635399561663e-03,-1.279874650373706568e-03,-6.932447907888445414e-04,1.556906756013631821e-02
-3.424833053274914940e-01,-4.415831833146565688e-01,-4.807762425200982070e-01,-6.689137643542911182e-02,4.552340724366194663e-02,-2.967081504106297909e-02,1.937072277069091797e-01
-4.093584441809944852e-01,-4.104959284955527754e-01,-4.117335800968220383e-01,5.600376346495544722e-04,-4.126216508152917464e-04,-9.382109987897687504e-04,2.885459689423441887e-03
-3.673699245513502021e-01,-4.176694502526372421e-01,-4.280923943704924572e-01,-1.194692626738500310e-02,-4.066412813077887288e-03,7.014385766611055603e-03,6.154955923557281494e-02
-2.334636481244191097e-01,-4.081809587410911710e-01,-4.854659595161468499e-01,-1.333504394152005279e-01,2.436918124861697094e-02,-1.742292195558210049e-02,3.256399929523468018e-01
-2.877956079707773007e-01,-3.495931742944233256e-01,-4.650613729603865765e-01,-1.455063295708937943e-01,-4.172893065258678237e-03,1.399929542843635077e-02,2.973952889442443848e-01
-3.329993462798981341e-01,-4.444314869786483158e-01,-4.525553335731379856e-01,-2.396131659713762047e-02,-4.776322183837873256e-03,9.200142316430676061e-04,1.232144013047218323e-01
-4.875599779834146053e-01,-3.644032399851908077e-01,-5.704151866625317702e-01,-1.788464907116866509e-01,6.611314244685270736e-02,-8.978001177862797444e-02,4.068035781383514404e-01
-4.096304800471313179e-01,-4.344922537485528813e-01,-3.724116445236281825e-01,6.581220541512421314e-03,-1.718893798376625037e-02,-1.082428293841676548e-02,6.554759293794631958e-02
-1.677576115737499651e-01,-6.684797934139370401e-01,-6.553136922506996864e-01,-4.604718348327142136e-02,6.605619175166912993e-02,-3.491051093682394357e-02,5.171179771423339844e-01
-1.724056296939477373e-01,-6.752057187331865773e-01,-7.101877446536677407e-01,-3.686355936849648740e-02,5.598155726591403508e-02,-1.464082522335381428e-02,5.345486402511596680e-01
-4.401304606770836125e-01,-3.636359804626719261e-01,-4.210345689926833224e-01,-2.459810057820289563e-03,-2.832386995687823095e-03,1.563047692043154080e-02,7.436721771955490112e-02
-4.094942817262718915e-01,-4.109390308017035753e-01,-4.101960300349449806e-01,2.933172630719657007e-03,-2.488619326849501531e-03,-2.860809983727387925e-03,8.396950550377368927e-03
-1.838235349479953595e-01,-5.865362262694275852e-01,-6.254723322361201987e-01,-8.491423475057664760e-02,-7.348813838911567864e-02,1.521307470273715844e-02,4.667983651161193848e-01
-3.469421438569652572e-01,-4.440942443205013745e-01,-4.391669177113612377e-01,-3.167503600740568300e-03,-9.106317050547974717e-03,2.764030575303344679e-03,9.636338800191879272e-02
-4.093709904944469180e-01,-4.091959951306316512e-01,-4.103348119619817380e-01,3.151395722038954645e-03,-2.726709072303633470e-03,-2.963445196820968259e-03,8.920368738472461700e-03
-4.049472752028463463e-01,-4.100146763928601557e-01,-4.145854666945751887e-01,1.818675817137037137e-03,-2.182708822216062813e-03,-3.277363305739063558e-03,1.123260613530874252e-02
-2.580257617395161907e-01,-4.807988675515981192e-01,-6.336692342955499990e-01,-2.197443157192974506e-01,-1.708308371898314970e-02,1.621579796396403067e-02,5.035669207572937012e-01
-4.083943394287319339e-01,-4.107693561807158611e-01,-4.145056287966161213e-01,1.193767525464681407e-03,-1.043985516360090631e-03,-3.063301543335168351e-04,6.024999544024467468e-03
-4.057277085627271074e-01,-4.282886894607610961e-01,-4.407780370083076438e-01,-6.402136778337784440e-02,7.014450297247695754e-02,-4.062832084652730213e-02,1.815370321273803711e-01
-4.661877946111662729e-01,-3.496240928479489307e-01,-6.066112770775593521e-01,-2.010237611007364700e-01,4.041514305034159260e-02,-4.362077150020111233e-02,4.260449111461639404e-01
-3.246441875544002764e-01,-5.247502859373990303e-01,-5.423062709232783218e-01,-1.586363432684165797e-01,1.394118598280383314e-01,-7.576581306890739498e-02,4.414618611335754395e-01
-4.095203141717582151e-01,-4.351717309144749191e-01,-3.946100241429557620e-01,1.177014176977795581e-03,1.448579834605411704e-02,3.784680213945096350e-03,4.403889924287796021e-02
-4.370112725148457278e-01,-3.381937425790659812e-01,-4.679666958715557601e-01,-3.560818304825764946e-02,-1.252440604537956824e-02,4.336444988114093735e-02,1.539412736892700195e-01
-2.847166337634294830e-01,-4.547024834593438314e-01,-4.160590549287186968e-01,-5.977147791320164272e-02,1.050496801362278687e-01,-3.095342994589405511e-02,2.655526399612426758e-01
-3.346364448912774181e-01,-4.342069785951668259e-01,-4.349972387317031508e-01,-1.954817081574904136e-02,2.076011100896908018e-02,-5.039162771872987209e-03,1.118441820144653320e-01
-4.405043736627977102e-01,-4.225343420241495229e-01,-3.129106171540015913e-01,-2.339775989513170722e-03,7.278307152819714701e-03,-3.393439031993188137e-02,1.339410245418548584e-01
-4.192175346937662694e-01,-3.878443633069067475e-01,-4.290831497022262186e-01,-4.076979087616176139e-03,5.433375145858197752e-03,-2.042618303492984601e-03,3.926918283104896545e-02
-3.877937000551983093e-01,-4.174408596840049612e-01,-4.312482806734246332e-01,-4.400069175932722759e-03,-1.788465423343709631e-03,4.680353680543534664e-03,4.015401005744934082e-02
-5.114531575182352796e-01,-4.431839583058210796e-01,-3.903046143357464803e-01,-2.171533948818207480e-02,1.424711607573911354e-02,-8.914201761849983863e-02,1.921703517436981201e-01
-3.730031474336829023e-01,-4.179751711699618011e-01,-4.389646023738428271e-01,-5.381072643068203487e-03,1.851378029965052398e-04,1.661829323368479321e-04,5.911032110452651978e-02
-4.085177780856711904e-01,-4.279267041097091218e-01,-3.892746389539641361e-01,-5.326921249934358019e-03,5.538541427265231132e-03,-1.878349180293137268e-03,3.616949915885925293e-02
-6.135860623475904996e-01,-2.590218039158204699e-01,-5.880771866584062479e-01,-4.531717894377886025e-02,-1.446780196960237991e-02,1.012047541851393423e-01,3.934946954250335693e-01
-3.529830683686904780e-01,-4.869731884355077978e-01,-4.694860590865534977e-01,7.307644748342964278e-03,3.414796294321514186e-02,2.224473511327425095e-03,1.399619579315185547e-01
-4.413279137421176057e-01,-3.486648069902750224e-01,-4.375355827191886315e-01,2.251230849467783339e-03,-8.653275671798849175e-04,-9.926497058129254286e-03,9.253367036581039429e-02
-6.231984599867890218e-01,-2.107890957815322097e-01,-6.593554044042383433e-01,-5.192491354006083248e-02,5.881014573606766632e-03,5.409949632979405704e-02,4.508579373359680176e-01
-4.503748746854660534e-01,-3.336541487855821386e-01,-4.459683376514536612e-01,4.623375063654805266e-03,-4.425349578587266502e-04,-2.473473802575224499e-03,1.149429380893707275e-01
-4.471181386522632972e-01,-3.339974891072664542e-01,-4.565288906412602321e-01,-1.601479564645177239e-03,8.276329054383559309e-04,2.530596066204061738e-03,1.182300895452499390e-01
-5.247575239124494528e-01,-3.864384714963906564e-01,-5.293114190283677578e-01,-1.498721541447854411e-01,-8.942810153959106223e-02,1.418630623828598669e-01,4.141682386398315430e-01
-4.280538102462451144e-01,-4.127474037189008405e-01,-3.637709566449725540e-01,9.295831865402049560e-03,-1.052181483615621457e-02,-1.658467235072697693e-02,6.927589327096939087e-02
-3.724215144098027563e-01,-4.452048489245541418e-01,-4.312859017687561414e-01,5.425105946582596539e-03,-9.027935581432116816e-03,-8.015479067162503690e-03,7.073636353015899658e-02
-4.237096508328304090e-01,-3.635863596987428115e-01,-4.454289925199929612e-01,-1.541403476207825474e-02,-5.969759709864580141e-03,5.521956451713205642e-04,7.882248610258102417e-02
-4.551754035300971113e-01,-4.759316187873613990e-01,-3.254069377858794243e-01,1.524697600439570665e-02,-7.467957018425697060e-04,-2.033216783807989536e-02,1.479981541633605957e-01
-4.397650989778570940e-01,-3.502577990641925765e-01,-4.318067349142793998e-01,-2.561857967068880120e-03,-2.658376540617251975e-03,6.685185238296588797e-03,8.681892603635787964e-02
-4.846310732227614437e-01,-4.868974884572691009e-01,-3.292814798973452972e-01,1.077273366430587381e-02,-2.411257248725806948e-02,-5.286159429627568934e-02,1.869924217462539673e-01
-4.108895253832789418e-01,-2.947482667968483461e-01,-4.102970035784564429e-01,1.021024133006141615e-01,6.266582876336541930e-02,9.740035865615907784e-02,2.914387583732604980e-01
-6.154346490428046490e-01,-2.299271992523188035e-01,-6.566122928463381525e-01,7.991873585534706170e-02,9.191273544967385259e-03,8.065686424642010133e-02,4.528983533382415771e-01
-4.063956370222302494e-01,-4.280825989615794636e-01,-3.886683226259977642e-01,1.320484863801112650e-02,2.426035500548263252e-02,1.631684551146937029e-02,6.524224579334259033e-02
-4.448095511063119845e-01,-3.480131468005881468e-01,-4.494283397200923291e-01,-1.808576635450148988e-03,-2.329951542335785900e-03,8.079245795795010274e-03,1.002989560365676880e-01
-3.373740353376952772e-01,-4.498438825028701626e-01,-4.435217706744164490e-01,6.456967309301241825e-03,1.200745184645219538e-02,2.116202316027993892e-03,1.120242699980735779e-01
-2.517388396690320440e-01,-5.509321662935049435e-01,-4.820537813086286927e-01,-1.349291354604850376e-02,1.343306940885559686e-01,3.120382352879870133e-02,3.622904121875762939e-01
-3.727696287678655684e-01,-4.235165354053079811e-01,-4.410835904200530178e-01,-2.349265233046922766e-02,1.589831308053234931e-03,-3.921744580099673604e-03,7.405917346477508545e-02
-2.536030235457434889e-01,-5.208507153002903678e-01,-4.780170525492413724e-01,7.351979762994917920e-03,2.484706006728085170e-02,6.044073930731350998e-03,2.528492212295532227e-01
-6.233316855258144162e-01,-2.825072968304228049e-01,-5.333704606534088732e-01,-5.913265384467816105e-03,-5.106985604412157126e-03,1.492517866719240693e-01,4.007551968097686768e-01
-4.407336586796222200e-01,-3.693372850435903687e-01,-4.171754305329081758e-01,-1.712320064992822353e-03,4.624421769002944743e-03,6.328954847017511168e-03,6.452580541372299194e-02
-4.367753270925727183e-01,-3.746472333408183419e-01,-4.290790855883950816e-01,-1.009953521860866739e-02,-3.783580776341666230e-03,2.694758420548701641e-02,7.725571095943450928e-02
-3.061920799556323569e-01,-4.913361301649958879e-01,-6.141943935665690191e-01,-2.041699188465428416e-01,-5.347106482390993898e-02,3.558013660671697359e-02,4.577666521072387695e-01
-4.009672854450469504e-01,-4.019741075727526480e-01,-4.334927112088641787e-01,-5.638573509869522493e-03,1.077274598364037165e-03,1.242830602098634295e-03,3.361050039529800415e-02
-3.267561189049689729e-01,-4.566490090190505891e-01,-4.523957287142605921e-01,-7.044339035527186384e-03,5.204096874064723446e-03,-6.772583442547436619e-03,1.292497664690017700e-01
-3.972806029390983928e-01,-3.970566089237626550e-01,-4.257911639724505926e-01,-8.911143571009451370e-03,-2.965402598018447057e-03,2.488726625412889144e-03,3.320355340838432312e-02
-4.206323566989847995e-01,-3.790355738797689944e-01,-4.409967305351263356e-01,-4.562456491848396536e-03,1.179527571172529505e-03,3.101042126418274971e-04,5.530825257301330566e-02
-3.972079566270215190e-01,-4.098888680482484781e-01,-4.215286200920241866e-01,-2.692487267710764499e-03,2.430079747739804889e-03,-5.672815580771023609e-03,2.408108860254287720e-02
-4.290211754617303530e-01,-3.901695613535671736e-01,-6.192865963390752349e-01,-1.974831732719209421e-01,-4.673095906427914698e-02,4.216086290998783542e-02,4.171154201030731201e-01
-4.480989644789338255e-01,-3.678904618753509048e-01,-4.228287464163393294e-01,-7.379532538122316951e-03,1.023577090499850142e-03,-1.340544829017336313e-02,7.583360373973846436e-02
-5.117521007672829469e-01,-3.428135865825383544e-01,-5.312703309166570964e-01,-1.624147061867294295e-01,-8.479412580266164345e-02,1.274586201657506024e-01,4.262175559997558594e-01
-4.266293942890814206e-01,-3.971970124845171091e-01,-3.951799182553760725e-01,-8.048796880115081931e-03,-7.758678883916507452e-03,1.118044181594722401e-02,4.098352417349815369e-02
-3.966461798349339984e-01,-4.035897260609255799e-01,-4.315512690419482933e-01,-3.318702645853870582e-03,1.997390378005459762e-03,-3.260064775799706178e-03,3.318293392658233643e-02
-5.522759819302195394e-01,-2.978813209744046731e-01,-6.453549181967139781e-01,-1.617881750041404443e-01,-1.156084014443138977e-02,2.408770130759038675e-02,4.215767681598663330e-01
-3.385677099598454198e-01,-4.878666741580056643e-01,-4.815584536669332838e-01,3.165223262260906389e-02,2.421366136308132633e-02,8.105676622907807827e-03,1.623261123895645142e-01
-3.336634641322936412e-01,-5.530292663587509372e-01,-5.330902617016899381e-01,-1.415651311124720979e-01,1.348290385810015646e-01,-8.206800156930402212e-02,4.230946898460388184e-01
-1.946242659689095267e-01,-5.190795575207540757e-01,-4.465189905719948449e-01,-1.826148796755092119e-02,-1.051014443956201500e-01,8.556179678421486218e-03,3.483570218086242676e-01
-3.160646349519191101e-01,-4.652904619749884674e-01,-4.610984366001770751e-01,-1.101567777078307359e-01,-8.755959561956865034e-02,4.318592800397460379e-02,2.943790555000305176e-01
-3.217953652156090305e-01,-4.229846411948096074e-01,-4.432212137474171865e-01,-5.334116736140856463e-02,-2.016979618818446479e-02,2.259212899348181022e-02,1.548677682876586914e-01
-2.155176042122880220e-01,-5.425150575856487745e-01,-5.356568656159522712e-01,2.488891412071510961e-02,1.006346643887708475e-01,-5.265083160062254686e-02,3.811672329902648926e-01
-3.380519409042688217e-01,-4.506969920593280610e-01,-4.468596731210107698e-01,-8.713127928179652260e-03,-4.562091344498644951e-02,2.823878112577828722e-03,1.369921863079071045e-01
-2.015694706402365588e-01,-5.728774797212887737e-01,-4.966557385734016172e-01,6.049909760301604850e-02,-3.463308264707928331e-03,-2.900316440321833514e-02,3.590509891510009766e-01
-3.201768638243883691e-01,-4.791071704890349503e-01,-4.735530020476361734e-01,-1.222728378653024639e-01,1.158999278673661787e-01,-1.227922077911664661e-01,3.934349417686462402e-01
-3.918691294341207221e-01,-5.013358881901950337e-01,-3.964320267129378683e-01,-1.070347540753499929e-02,9.935500795374394012e-02,-4.012150980724013202e-03,2.037413716316223145e-01
-3.320578496524543843e-01,-4.392310130444323502e-01,-4.312006899101750723e-01,-2.013581923445215832e-02,-2.798969013468438627e-02,2.879152748258325799e-03,1.195049285888671875e-01
-4.100915289907874905e-01,-4.080419251447420792e-01,-4.082689358201084251e-01,2.748752593916478637e-03,1.535864169523296291e-03,1.778277689904804058e-03,6.558772642165422440e-03
-4.191651321785760942e-01,-4.244600804436489128e-01,-3.891102167987133265e-01,6.645440121032411378e-03,2.991597135213500038e-03,4.571588358096034289e-03,3.622853010892868042e-02
-1.844950715770167782e-01,-4.734366108764277992e-01,-4.375861923534378750e-01,-3.159715909327269479e-02,-1.005859241700154810e-01,-3.354061729696581999e-03,3.283219039440155029e-01
-3.666974930743004402e-01,-4.423065089866631272e-01,-4.333656512823698681e-01,-7.101708037812086774e-03,-4.056346942662204108e-03,4.357996519677438500e-03,7.333685457706451416e-02
-3.707079757129201902e-01,-4.208756393224093451e-01,-4.396714092378679606e-01,2.572959697258897158e-02,2.802304285562062531e-03,8.046272645028741720e-04,7.631875574588775635e-02
-5.271519718474273475e-01,-5.326188448170743328e-01,-3.873808211370939891e-01,7.946634278399880569e-02,1.332702360604786362e-01,1.616735621270202761e-01,4.134882986545562744e-01
-3.432599971663741201e-01,-4.348887512079893658e-01,-4.546674842903647429e-01,-3.387675273052162539e-02,-2.580506659487957072e-02,1.350210772363751727e-02,1.287899613380432129e-01
-4.318391451308563611e-01,-3.890200291039190850e-01,-4.065427477256621791e-01,-5.294020812267920002e-04,6.614262920939157925e-04,2.766926671935757750e-03,3.762095049023628235e-02
-4.086102540075437495e-01,-4.031180936485306288e-01,-4.539032616980648305e-01,-3.733643310042636387e-02,1.171464109099469401e-02,-9.391500024538413510e-03,8.478622138500213623e-02
-4.325074628636805807e-01,-4.195225967325837968e-01,-3.913767260347538191e-01,4.862422680542291716e-03,7.219521749529762486e-04,2.837520107207033241e-03,3.772154450416564941e-02
-4.315300516235063277e-01,-4.416999682785588410e-01,-4.059939436651404665e-01,-2.127369995881409070e-02,-2.917276050937019777e-02,2.837968683691314414e-02,8.568722754716873169e-02
-4.136988626822803439e-01,-4.078033765252059295e-01,-4.082358465862817587e-01,2.030794113020649092e-03,-7.758195670925604852e-04,-3.762488740027388682e-04,6.855429615825414658e-03
-5.765128869155641267e-01,-5.662915899563102373e-01,-3.059737817390664194e-01,3.294612087317856652e-02,9.033320202658277898e-02,1.595477084824374336e-01,4.178918898105621338e-01
-4.408435144259951199e-01,-5.575300842320809469e-01,-2.565800814640042393e-01,2.879670990695965341e-02,1.378534079960586911e-01,-5.035816403256426071e-02,3.690204620361328125e-01
-3.715503925951382791e-01,-4.218761747090866154e-01,-4.383899592036075155e-01,-1.195650307633997975e-02,-6.365832696231965397e-03,6.424202735390440767e-03,6.565603613853454590e-02
-3.861216589552280976e-01,-4.400997639749682500e-01,-4.094835546011098559e-01,-3.976946953295450692e-03,-8.423885620048889716e-03,1.374538970345977199e-03,4.964257404208183289e-02
-3.997350643474943399e-01,-4.326469946260448340e-01,-3.953267676748842274e-01,1.566390250570991226e-03,-5.703487771541022183e-03,-9.935637715851163704e-04,3.681881725788116455e-02
-4.481562493400177427e-01,-5.112280135010899285e-01,-5.061867865909810416e-01,-1.593811564955641413e-01,1.508559324987744921e-01,-1.241334593679406240e-01,4.408995807170867920e-01
-4.439632898743247069e-01,-5.653955490506453740e-01,-3.315452293744138856e-01,-1.129268136603160388e-01,2.366990671211782749e-01,-1.238665683415775959e-01,5.416644215583801270e-01
-4.040429936355415808e-01,-4.314070063792963539e-01,-4.003528856900016586e-01,-1.644005367010070804e-03,-1.049987024845405953e-03,3.066355650114229369e-04,2.958175167441368103e-02
-3.927042778508729182e-01,-4.067243557797203812e-01,-4.362058661464375819e-01,-2.137214415905743133e-03,-2.202108225813437594e-04,5.278100851442173364e-05,3.863821923732757568e-02
-4.512821360318858277e-01,-4.975163131933778571e-01,-3.720509725348998264e-01,-1.388106807000381304e-01,2.145275869865427565e-01,-1.651611677866761663e-01,5.383163094520568848e-01
-4.019785605096651837e-01,-4.104465436778566567e-01,-4.204685845194826022e-01,-9.029058235968848807e-04,1.138455314115006164e-03,-3.894998092339156063e-03,1.757445558905601501e-02
-4.130029502087116944e-01,-4.209635275522913833e-01,-3.904763762361916912e-01,-7.307989331805623753e-03,5.413104872222193956e-03,-5.148325227406342491e-03,3.282960504293441772e-02
-4.995134363816144396e-01,-6.306537093583901576e-01,-3.019755910374859464e-01,-3.164548094153023933e-02,1.986099868669328750e-01,-1.711440189376581961e-02,4.520452916622161865e-01
-3.942159408056485348e-01,-4.449493487538018766e-01,-4.132117961961528918e-01,-2.898503520784468800e-04,-1.693593398306434544e-02,4.267432563828516684e-03,5.372484773397445679e-02
-3.996511569174777123e-01,-4.311875515141851412e-01,-4.030187632630463646e-01,-3.579757115347761135e-05,-1.520978479587541858e-03,6.100473684567820753e-04,3.012877702713012695e-02
-4.699544201958922307e-01,-6.397820567380897439e-01,-3.706942327853175456e-01,-2.475619566767237045e-02,2.150853580119716224e-01,-2.826205859739112231e-02,4.456131756305694580e-01
-3.003337742821797773e-01,-4.761073096494657930e-01,-3.502458784807467307e-01,-2.415156137103984316e-02,1.571047760901941870e-01,-2.602969120642302167e-02,3.200665414333343506e-01
-4.026674214958539388e-01,-4.338541555805935368e-01,-4.041599308018577474e-01,-7.783009655610208938e-04,-6.877987841580068124e-03,7.403139415437218250e-05,3.274213522672653198e-02
-5.713768063208659598e-01,-6.052967326020212147e-01,-2.756737565353366559e-01,-3.024937817815289906e-02,1.274114319643012139e-01,-6.049180563239211356e-02,4.013040661811828613e-01
-4.027743354692938094e-01,-4.495295892458976428e-01,-3.880516556949676343e-01,-1.827431598863261258e-02,3.321527050316340490e-02,-1.813803790146293823e-02,9.159559756517410278e-02
-4.423086622542333202e-01,-5.928842011125143863e-01,-4.285610686487328347e-01,-6.803750929354208943e-02,2.104728919627650852e-01,-6.992097212617845448e-02,4.317206144332885742e-01
-4.206054270094535807e-01,-4.334975450297228750e-01,-3.898470365907535373e-01,5.520270315107287350e-03,4.467550175856507128e-03,7.864629870103882758e-03,4.296138510107994080e-02
-5.298152299981545577e-01,-5.957920209589132599e-01,-2.967768457988059216e-01,2.421859886118218896e-02,1.795287290357909238e-01,6.550555975318519963e-02,4.305336177349090576e-01
-4.064896418012465262e-01,-4.329516354354426277e-01,-3.827035378318807135e-01,3.027490583806684721e-03,9.496400292240171626e-03,1.795983689981729215e-03,4.693785309791564941e-02
-4.034644039716300257e-01,-4.073048950309139382e-01,-4.202122284674247865e-01,-1.716503135121602791e-03,1.290690021227357698e-03,-3.613954311278179399e-03,1.685045659542083740e-02
-4.074608122675960065e-01,-4.090367590456758240e-01,-3.926047688091722776e-01,-1.832422640938025787e-02,2.367997004766624752e-02,-2.441124480874871244e-02,6.873048096895217896e-02
-2.330629858156368917e-01,-4.579504543539769101e-01,-4.573149158102908229e-01,-6.463799213181661840e-02,5.871460670104150514e-02,-9.466960535510403341e-03,2.712510824203491211e-01
-4.042765728864778918e-01,-4.057215969929378607e-01,-4.196518216105534771e-01,-8.051470025232704188e-04,2.496324468436241905e-03,-6.042122634206964103e-04,1.542736776173114777e-02
-4.622715540790742761e-01,-4.260581123040367291e-01,-3.646054774915962193e-01,5.473839282327118416e-02,4.771775066284903583e-02,4.714683413051676958e-02,1.726312488317489624e-01
-4.076331331235343858e-01,-4.253840675442921992e-01,-4.161545936806206325e-01,-1.407208259918369536e-02,2.661261279676228886e-02,-1.688553433607823881e-02,6.172985583543777466e-02
-3.632353704503794023e-01,-4.203313850615283398e-01,-4.381680140088399233e-01,-1.300617775269475446e-02,1.944516719064691554e-03,-3.562930753218418803e-03,7.178725302219390869e-02
-2.386269199097877103e-01,-6.264672799778068235e-01,-5.327848759702855652e-01,-2.473874208909506919e-02,1.382097442295703860e-01,-1.316609297684325636e-02,4.272289574146270752e-01
-2.938776780301248226e-01,-5.582059817923558098e-01,-4.952628696399220543e-01,-1.125544534418659315e-01,1.645531248730777718e-01,-6.679327369610572884e-02,4.356791973114013672e-01
-3.334855494885978766e-01,-4.689092624797826514e-01,-4.230221042060813286e-01,-4.008498680217159604e-03,6.046947769568270653e-02,1.365135480503579593e-02,1.606485545635223389e-01
-4.181428983004307764e-01,-4.270427530539098182e-01,-3.669376597408213203e-01,1.139923842838853896e-02,2.063963126315652985e-02,1.300302908181995114e-02,7.302020490169525146e-02
-3.246374064950456884e-01,-4.433355141154457502e-01,-3.828565377434306471e-01,-6.175123376798367057e-03,6.310412055481304239e-02,-9.260301944350511280e-03,1.512820273637771606e-01
-4.145413131993576639e-01,-4.326316828060019493e-01,-3.930153836745488016e-01,3.664098254639432117e-03,8.953776555374538121e-03,4.955380379384689143e-03,3.917261585593223572e-02
-4.537239724547297293e-01,-5.031826630807173517e-01,-3.486119788683941789e-01,3.612679863827645524e-05,6.264577501711102170e-02,6.619267378688185703e-03,1.749237626791000366e-01
-4.449149635000381742e-01,-3.346651288463456941e-01,-4.500239154551193832e-01,-2.759296660384909575e-03,-3.703044972525837918e-05,-4.578494979712375255e-03,1.132701262831687927e-01
-5.930588600226311957e-01,-2.259334123316075194e-01,-6.533694510918373055e-01,-9.163243528644307578e-02,-2.389747270436405266e-02,5.756340707251786371e-02,4.443010687828063965e-01
-4.454901124245578825e-01,-3.368431203415116482e-01,-4.422282157648574907e-01,1.367522831561321459e-03,1.053764845298125769e-03,3.688552916688988929e-03,1.072854697704315186e-01
-4.275320175125967292e-01,-3.747486063652042398e-01,-4.180309913493426288e-01,-6.445823454714293393e-04,-5.067970955587005125e-03,3.802603752775853690e-03,4.996538907289505005e-02
-4.434411934797592991e-01,-4.443505956410538360e-01,-3.121635950316665187e-01,-7.727454254069484121e-03,-2.352330513619837679e-02,3.413593168385446741e-02,1.506286263465881348e-01
-4.167982800516035202e-01,-4.050664948309505853e-01,-4.070485972671868402e-01,1.327357840174380084e-03,2.906660137334067442e-03,2.161984205520247997e-03,1.276573911309242249e-02
-4.062958384143836588e-01,-4.113318416511084208e-01,-4.139820208060626117e-01,6.247229481357954341e-04,-1.223422560936175164e-03,-2.950164049111980453e-03,8.803556673228740692e-03
-4.149321050994078663e-01,-4.107899881576845824e-01,-4.088704140478757187e-01,5.615683352564263811e-04,-9.333556063635880000e-04,-9.979016340820471079e-04,5.944741889834403992e-03
-4.196130021349278594e-01,-4.016559743409194860e-01,-4.094629792784287292e-01,1.415686370834732481e-03,-4.953274313087176542e-03,-2.382680380454583503e-03,1.843535527586936951e-02
-3.239344613731336975e-01,-4.728302994941673276e-01,-4.694159651804354905e-01,2.123039323987830143e-02,3.201295029068290665e-02,5.664043590090509558e-04,1.615576893091201782e-01
-4.279227429058670151e-01,-4.310721296686007009e-01,-3.794466792425294499e-01,2.061693467989874490e-02,-2.616411507397491815e-02,-1.605729241518373193e-02,8.133193850517272949e-02
-4.211093256826212716e-01,-4.121667980377904938e-01,-3.906231734184249516e-01,-6.284860962624309877e-03,5.107011186887687459e-03,-4.394911751058988916e-03,3.148713707923889160e-02
-4.115623973594506047e-01,-4.095085613055072793e-01,-4.082490016943597366e-01,-2.047373602153987164e-03,-8.923597691965378569e-04,1.322023260356943765e-03,5.347806494683027267e-03
-3.555976479334917451e-01,-4.422792623438457915e-01,-4.441683088926541290e-01,2.322191823853978626e-02,-8.796311366972167298e-03,-3.561677701587629970e-04,9.762834757566452026e-02
-4.341564466094015029e-01,-3.984761775068283440e-01,-4.024636312734742316e-01,1.354188746748400188e-03,3.368049673995952278e-04,5.032763544354135546e-03,3.505047783255577087e-02
-4.123125053454584354e-01,-4.039425203328445013e-01,-4.133135308037550470e-01,-4.717309453485155177e-04,-3.294748177771138209e-03,7.001656600515216745e-04,1.068370975553989410e-02
-3.603155810745576337e-01,-4.334026520493232670e-01,-4.408260540667623961e-01,6.744664335707863459e-03,-2.006295959696216004e-04,-1.023943322214599218e-03,7.796870917081832886e-02
-3.634439237822775781e-01,-4.194649534350051168e-01,-4.376030842663072296e-01,1.519368735840898391e-02,8.866116091222242708e-05,-1.206832685685278652e-03,7.197500765323638916e-02
-4.083934298083050085e-01,-4.166307293978698811e-01,-4.166980854750206853e-01,2.221712623357581518e-02,-1.394924353233614224e-02,-1.508372006761823404e-02,5.306142196059226990e-02
-2.712254909737609743e-01,-4.531997272542949706e-01,-4.129184410905203384e-01,7.084137559393524630e-02,-1.119125354217028329e-01,-2.724463277528086855e-02,2.868146002292633057e-01
-2.746494106129222512e-01,-4.410079105561664492e-01,-4.498880473687772441e-01,1.034618576031688664e-01,-7.323558521743081529e-02,-4.560753339421910746e-02,2.892660498619079590e-01
-4.048560275634747185e-01,-4.265967006885923452e-01,-4.173099537070837917e-01,-9.262164544340024258e-03,7.010163539818012150e-03,-8.767877467637824607e-03,3.150266036391258240e-02
-4.801807741395869855e-01,-4.524895690772847701e-01,-2.176474358329540115e-01,1.224088466822622137e-02,-6.097105999616601879e-02,-7.556077827827459292e-02,3.019120991230010986e-01
-4.788283989566121113e-01,-4.865169641572376635e-01,-3.410726180022989884e-01,-7.406356308079406828e-03,-6.367588157183021180e-02,3.950839429485832055e-02,1.926293522119522095e-01
-4.459645903395637601e-01,-4.456388606719214884e-01,-2.903951689474690290e-01,-4.058865470712163734e-03,-1.375243673618174386e-02,1.956140419444402784e-02,1.609845757484436035e-01
-4.040063887846906399e-01,-4.331481445349230075e-01,-3.048279531643996454e-01,2.210907861721184489e-02,-5.903815391028418430e-02,-3.301500913388656644e-02,1.696135401725769043e-01
-4.254403903268984544e-01,-4.383483976589468978e-01,-3.630047256257206145e-01,4.295127751043296277e-03,-1.039652859738339659e-02,-1.086436853894180016e-02,7.486294209957122803e-02
-4.175564135392208498e-01,-4.384754824020490327e-01,-3.579516995686040648e-01,1.584627480112515193e-03,-1.314065722758159596e-02,-1.167902325061874729e-03,7.593984901905059814e-02
-4.529385894479959207e-01,-4.387625157238512763e-01,-3.504279189452499388e-01,5.728659584642727121e-03,-6.739325532482405394e-03,-1.131395164145665259e-02,9.937265515327453613e-02
-4.087717607687021970e-01,-3.842325960609409563e-01,-4.304246427657447693e-01,8.757581586269299126e-03,7.231980226114207919e-03,4.069888943498201246e-03,4.515577480196952820e-02
-4.119064686137039466e-01,-4.198585439903856908e-01,-4.024952499094796021e-01,-4.478996527210604879e-03,1.474213517320809713e-03,-7.553599883795547847e-04,1.717734336853027344e-02
-2.973373096161838758e-01,-4.630825730531342721e-01,-4.959411521512870902e-01,-3.153830545117985995e-02,1.081805620594242148e-03,1.218537283653056344e-02,1.934690922498703003e-01
-3.014557072713282548e-01,-4.668083735214787477e-01,-4.562417973926788939e-01,-2.335708956108534240e-02,-4.158689228671436783e-02,-2.467262524506770170e-04,1.803640723228454590e-01
-1.797313001937472787e-01,-4.636376520862156014e-01,-5.955656530056790965e-01,-1.080319449488457983e-01,-6.785987931007941842e-02,5.257524510154813063e-02,4.388428926467895508e-01
-4.107964215092335114e-01,-4.102543942866146987e-01,-4.113878901385917275e-01,-1.320825152486468086e-04,-3.283830457033405431e-04,5.745728609505642729e-05,1.161881373263895512e-03
-4.057045711186708647e-01,-4.162807104505997779e-01,-4.083083294919760409e-01,4.173136693048241225e-03,-4.059073621462002367e-03,-3.717493699562071999e-03,1.530455145984888077e-02
-4.211669025848933656e-01,-4.022455322869111782e-01,-4.125758501341610374e-01,-1.068787732307199118e-03,4.638896517483523038e-03,-1.238995105103654843e-03,1.848946325480937958e-02
-1.222555154363989538e-01,-4.885834103354655955e-01,-5.002925626449070684e-01,-3.095428510142709221e-03,-1.769575460964485647e-02,5.391293613637848994e-03,3.737351894378662109e-01
-3.375603977002742950e-01,-4.785827651446845632e-01,-4.952397823764114748e-01,7.338935620033978924e-02,1.431043933378952082e-01,9.513233371454501985e-02,3.567335903644561768e-01
-4.355499104453859349e-01,-4.583283477263529471e-01,-3.831033909096721035e-01,-2.222443479141993712e-04,2.745211834340096843e-02,5.318816148128857786e-03,8.252283185720443726e-02
-4.054063710332568293e-01,-4.358901988282906648e-01,-3.815070437173229689e-01,-1.255867550004396548e-03,-8.730441539837568987e-03,-2.888141807612547903e-04,4.962487518787384033e-02
-3.974294016037165922e-01,-4.361583301631132836e-01,-4.125793071307236604e-01,-6.255304566241913326e-03,1.244631725298952878e-02,-6.264486294175715571e-03,4.292505234479904175e-02
-4.077902365827136832e-01,-4.344178908477490664e-01,-3.975097880048464871e-01,-2.416543230280986283e-03,1.527680223399271835e-02,-3.633502472694839693e-03,4.296198114752769470e-02
-4.871211905356442329e-01,-5.072701540320883051e-01,-2.677104274649800830e-01,-6.436072085421501617e-03,-1.272455868251834432e-01,-9.153012260009231460e-02,3.560896515846252441e-01
-3.419314231790258063e-01,-4.311057646581044622e-01,-4.358233799055986624e-01,2.073892568171542897e-02,1.840797203438588464e-02,7.510331224971269343e-03,1.042645350098609924e-01
-3.952280170013418581e-01,-4.311907985784267372e-01,-4.079703967824029331e-01,-1.554340564039625961e-03,2.092076187935579864e-03,-3.683258664984075635e-03,3.253484144806861877e-02
-4.100991770786910906e-01,-4.108673452583211927e-01,-4.109526688838200381e-01,1.348633155437410516e-04,1.364149012880800152e-04,3.279185622399352325e-04,1.046846969984471798e-03
-4.073883337945176097e-01,-4.512850170193415389e-01,-3.777429035675549662e-01,-5.791157226465481686e-03,3.073239634978075160e-02,4.325015626207790245e-03,8.424533903598785400e-02
-3.861313629762057609e-01,-4.129229198972509396e-01,-4.405935566423495042e-01,-1.047275636567345999e-02,-1.523926192388486752e-03,-2.968763522243372376e-03,5.086486786603927612e-02
-3.836966515797329835e-01,-4.028918105086014556e-01,-4.336567745546686670e-01,-8.114711895337222911e-03,-1.738756276699815126e-03,2.873438844456697137e-03,4.622619226574897766e-02
-4.106120340463725871e-01,-4.110168681951737457e-01,-4.113570722812683877e-01,-5.830785468453119290e-05,3.779255828181342326e-04,1.380560324019588906e-04,9.556237491779029369e-04
-3.716013632242493037e-01,-3.795418019786104269e-01,-4.474945744037746032e-01,-5.702430570864066434e-02,-5.906316298712278000e-03,8.966369039452401490e-03,1.237794831395149231e-01
-3.299971071173009585e-01,-4.400167060000300112e-01,-4.663792464493438095e-01,2.523415428248698342e-02,2.154888894774091221e-02,2.126779946262982376e-02,1.426884829998016357e-01
-4.003060138537224422e-01,-3.982385976282651896e-01,-4.301717845781842797e-01,3.454211841553971735e-02,-3.681856741331136773e-02,-3.468682056149557935e-02,1.105160862207412720e-01
-4.089576778357632003e-01,-4.073728286675104560e-01,-4.175735996186514809e-01,1.051817092229578605e-03,-2.293561276268287277e-03,-9.065755884233230467e-04,1.058143004775047302e-02
-4.113171296510912400e-01,-3.930095454635005314e-01,-4.243735080652215053e-01,-5.897899803271371144e-03,-6.592275383581707934e-03,4.347487533032627291e-03,3.218849748373031616e-02
-3.902838834565883763e-01,-4.101406605116334481e-01,-4.379480245643617153e-01,-1.489940480636040530e-02,8.575288730812915964e-04,2.685835725721470030e-03,4.908696189522743225e-02
-4.200796533102362229e-01,-4.091819591928015365e-01,-4.005437911993330879e-01,-3.863622063607916393e-03,1.514984601754089085e-03,-1.114452397511375530e-03,1.851777732372283936e-02
-4.102730058611288588e-01,-4.111104239276309746e-01,-4.115898626140488403e-01,-3.082657664943799607e-04,-2.292161897102328158e-04,3.162503218331581215e-04,1.440613530576229095e-03
-4.132369413944053660e-01,-3.970248689095038364e-01,-4.201345372158222236e-01,-4.947176582181867996e-03,-6.510192976766181541e-03,2.261987796846202763e-03,2.526170387864112854e-02
-4.155781186830205809e-01,-4.060337584603805894e-01,-4.042685685834410125e-01,-2.594348180499848368e-03,1.394197698988530049e-03,-2.213763395402410569e-03,1.232005842030048370e-02
-4.152794322180738962e-01,-4.057106720820512491e-01,-4.212208457140459439e-01,7.458864523866321795e-03,-8.504528668608367370e-03,-6.930265013618348326e-03,2.667741104960441589e-02
-3.556724772684733971e-01,-4.139587438177106393e-01,-4.399131627491434937e-01,-2.775583201650869830e-02,-7.140994034577463623e-03,7.976896154952365856e-03,9.076750278472900391e-02
-3.150799636310838148e-01,-4.658417457443926879e-01,-4.638838369417299101e-01,-4.168484975383983382e-02,-2.409853327074228460e-02,6.969855653017733915e-04,1.714477390050888062e-01
-3.748306992045460917e-01,-4.403190149760876082e-01,-4.184620838455178626e-01,1.194656915152875594e-04,6.829020778271428956e-03,4.135668925922255865e-03,5.938292667269706726e-02
-3.036617093113264665e-01,-3.295882773066576288e-01,-4.047697912363356632e-01,1.465194833174401357e-01,-9.204628789438644432e-02,-8.251842571749307131e-02,3.442716300487518311e-01
-2.021969583912531510e-01,-5.038599343182911250e-01,-4.561152086096826874e-01,3.304428765279393554e-02,-9.127213775955932140e-02,-6.624049520711076597e-03,3.275309205055236816e-01
-3.538628331070362565e-01,-4.642786509913925941e-01,-4.362648786019492353e-01,-2.208683487811932342e-02,-4.059612823388676628e-02,2.911233335034882352e-02,1.372350752353668213e-01
-3.959683256364004977e-01,-4.272535969152253532e-01,-4.080025967103968476e-01,1.417365005588571997e-03,2.371736831044457799e-03,2.737878385758276030e-03,2.815113775432109833e-02
-3.942949327575926977e-01,-3.994036817503585635e-01,-4.319448387424510427e-01,4.938303558941928122e-03,7.840132630351896205e-04,7.860101637588564824e-04,3.644350171089172363e-02
-3.775556551132967509e-01,-4.718534905073603070e-01,-4.048439025295064719e-01,-3.389819750927694497e-02,-5.559409223437741104e-02,1.654375522542866905e-02,1.435408294200897217e-01
-2.793541680575994390e-01,-4.597046342532159491e-01,-3.201045564682770683e-01,-1.915604631617225800e-02,-1.464883735262407782e-01,1.426571382080083113e-02,3.048367798328399658e-01
-3.776291946723009940e-01,-4.705326694606645210e-01,-3.935401506763201440e-01,-5.142038324665022114e-02,-1.245263467798272683e-01,3.665566961580550565e-02,2.566895782947540283e-01
-2.667950892428415099e-01,-4.929902511984358693e-01,-4.568993293088386420e-01,-1.605551584950118274e-03,-2.726880058008628385e-02,-3.668623482304780078e-03,2.158288359642028809e-01
-2.596071884973016886e-01,-4.591492790705421490e-01,-3.523664992450144529e-01,6.241900819033737412e-03,1.471659312029031663e-01,-3.126764457480618251e-03,3.082719445228576660e-01
-3.753872800641573360e-01,-5.014317303458456498e-01,-4.415230916528261607e-01,1.160784351172500228e-02,8.209077489246355275e-02,5.650914091751242825e-03,1.806704401969909668e-01
-4.139747511569493166e-01,-4.099862554962272476e-01,-4.105839624720258874e-01,-7.303589528354297684e-04,1.612354661419087122e-03,1.688660957903220642e-04,4.833868239074945450e-03
-4.089495840548713623e-01,-4.103439094583746782e-01,-4.118213523486197736e-01,-8.283339437541654190e-04,2.026248049607689942e-03,-1.198603766569876494e-03,4.987226333469152451e-03
-3.392132334954458539e-01,-4.479595706822336321e-01,-4.406509221250509145e-01,-8.128838055571183281e-05,1.522015955520822188e-02,-5.383867071167981310e-04,1.085368245840072632e-01
-3.636837356346748207e-01,-4.416471112100941454e-01,-4.184125970767831326e-01,-5.876731369300924098e-04,1.774562701176100529e-02,4.349185392874427639e-03,7.621806859970092773e-02
-4.201770181813357929e-01,-4.174372327565807339e-01,-3.870760609101744909e-01,-8.190559845262387895e-03,-6.020581324974749911e-03,4.736711237145833572e-03,3.727998957037925720e-02
-4.303895329190737251e-01,-4.175631021333015558e-01,-3.774236214223505859e-01,-6.561758585598266927e-03,-2.681926850835110107e-03,4.291466002030059138e-03,4.996538534760475159e-02
-3.736812496537439410e-01,-4.326653539555955219e-01,-4.165879675916517311e-01,4.861700457777208551e-03,9.187234095615486734e-03,8.066294783699159282e-03,5.752057209610939026e-02
-3.331470803423035032e-01,-4.431209392706677019e-01,-4.205774033470897066e-01,-1.702145979566943579e-03,5.413485345714798974e-02,2.931564864613087941e-03,1.376571208238601685e-01
-4.122626621102567501e-01,-4.143365449897050135e-01,-4.113717740098417064e-01,3.220889495309339767e-03,2.856439443746480213e-03,2.508496434249458257e-03,9.023305959999561310e-03
-4.207348537409421052e-01,-4.055153953343848539e-01,-4.045305349917567295e-01,5.481877118623999746e-04,9.346981003017335813e-04,1.889537531161866130e-05,1.584659144282341003e-02
-6.055261250683032781e-01,-2.225408011528575702e-01,-5.943044872791249933e-01,7.840579428873956092e-02,1.640431486858840576e-02,6.797564425417959577e-02,4.190677106380462646e-01
-4.196507414942894365e-01,-4.187020410490672195e-01,-3.958403600015694135e-01,-5.219739297744325872e-03,-2.766659209020234586e-03,1.964368707562922506e-03,2.572006732225418091e-02
-4.317486899444812898e-01,-3.946642924289189280e-01,-4.498143092236723262e-01,-2.649682711077478228e-02,-1.180150060164755418e-02,6.324477328036019579e-03,7.082118839025497437e-02
-4.353057295603591781e-01,-3.652250808064378407e-01,-4.366526304481090914e-01,2.649306228375509359e-02,8.393767632139278317e-03,1.493045258657730093e-02,8.940509706735610962e-02
-4.472031763349254563e-01,-2.432729587500422896e-01,-4.107689152298193425e-01,5.583543453952234670e-02,3.055902477224677061e-02,1.072284219832601165e-01,2.865887284278869629e-01
-4.433934586830084457e-01,-3.274917382044896241e-01,-4.508295694948148413e-01,2.248343744114607995e-02,4.146204952462705616e-03,1.060252422701296257e-02,1.274978071451187134e-01
-4.557200286327542371e-01,-3.487633102999543877e-01,-4.462378548542473844e-01,8.528497339173681663e-03,1.196012676468116535e-03,1.341638914029540455e-02,1.061977595090866089e-01
-4.610763616260783460e-01,-1.566647178342633895e-01,-4.606046054679512891e-01,8.292453301580687483e-03,6.062094263503825173e-03,4.078411383313430838e-02,3.127772808074951172e-01
-3.472262232086089639e-01,-4.292569778547362658e-01,-4.339316645461708255e-01,-1.386922793886961359e-02,-1.128627000040604948e-02,5.208093591464152405e-03,9.041539579629898071e-02
-4.321943611812472663e-01,-3.958510180503359011e-01,-4.019802562525374712e-01,-2.308907527720597814e-04,2.705610351195953832e-04,5.139830080563677003e-03,3.486089780926704407e-02
-3.760720493606730108e-01,-4.014962547126323389e-01,-4.456120325545128158e-01,2.518131754022900903e-02,-1.586839570761207352e-02,-1.297879069282346400e-02,8.292926102876663208e-02
-4.548030923933250036e-01,-3.461711404783580637e-01,-4.588395278028093438e-01,-1.029036974646718554e-02,1.231085717508543283e-03,9.483356508329912529e-04,1.121632680296897888e-01
-4.082854114840397952e-01,-2.816997167838642957e-01,-4.842613605054316150e-01,1.522165351847326042e-01,-3.708689237235559405e-02,-3.374790855671483403e-02,3.293424546718597412e-01
-4.892606410756328295e-01,-2.881991028300028845e-01,-5.111492227176820391e-01,6.623074950573085151e-02,1.504569193281660860e-02,9.021284121196897210e-03,2.436977773904800415e-01
-4.440635997985443728e-01,-3.616602916177453775e-01,-6.723066380318356572e-01,2.353969964609779475e-01,-3.362144745774667265e-02,-5.709614813853158138e-02,5.070497989654541016e-01
-4.049166321011483660e-01,-4.145548798910081434e-01,-4.124858779464989911e-01,-1.611779385407213772e-03,-1.834085107211533977e-03,3.482519347728221543e-03,1.146751735359430313e-02
-4.040382181128113204e-01,-3.999544276265528664e-01,-4.271727759003353109e-01,-2.857965966464226428e-03,-3.200561824166814427e-03,1.554147970607186284e-03,2.662409842014312744e-02
-3.683758088475121983e-01,-4.436663783625438562e-01,-4.244816840350400522e-01,2.417210605908886147e-04,3.376490201435128347e-02,2.026312037740589898e-03,8.958233147859573364e-02
-4.764701734119244914e-01,-1.948755778592656251e-01,-4.588948914712973615e-01,7.815845235844741390e-03,-4.282267901148848442e-03,-5.959809920801201893e-02,2.924882471561431885e-01
-4.513863507155738142e-01,-2.975048654265540216e-01,-4.503179779180324638e-01,-8.303617519547414755e-03,-5.137529771552338132e-04,-8.385218623925248110e-03,1.547088474035263062e-01
-3.336263780171099258e-01,-4.523149642650972635e-01,-4.660789687565938255e-01,4.682359027111774458e-02,5.299438143295310405e-02,4.103448967669333369e-02,1.896420419216156006e-01
-4.714997124649406013e-01,-3.096557045657985507e-01,-4.725831581572775275e-01,6.027641012733649453e-03,-1.626324777457446857e-02,-3.960303550588605004e-02,1.788230538368225098e-01
-4.781726709940918862e-01,-3.497481839085685440e-01,-4.805673818312814483e-01,-3.996485273250355991e-02,1.930540170910780007e-02,-5.180384297479927874e-02,1.754043996334075928e-01
-3.729261349889603783e-01,-4.345698130862334363e-01,-4.349514796091791258e-01,3.808810028195950496e-03,-3.051198382072249464e-03,-3.187742676415378923e-03,6.265421956777572632e-02
-4.321906886476190035e-01,-3.501133141283011563e-01,-4.442586628606267629e-01,-4.433110824930096110e-03,4.406417104586871428e-03,-1.032441877663828680e-02,9.115824848413467407e-02
-5.048076603108360150e-01,-3.639275980117976927e-01,-3.434552036320076551e-01,3.152725531834692924e-03,5.140965387136371689e-02,2.097818989773526654e-01,4.038991034030914307e-01
-5.172564810700204241e-01,-5.524957548577692501e-01,-4.134748728018645680e-01,8.990203039620875414e-02,1.543777781398152638e-01,1.440531133057857127e-01,4.167350828647613525e-01
-4.800180900533876360e-01,-5.293298833388685454e-01,-2.788589046434285512e-01,-2.465677425550081431e-02,1.893183770807464750e-01,2.747176562683128695e-02,4.054978489875793457e-01
-4.078720499921571485e-01,-3.972334576753041024e-01,-4.273206877093169709e-01,2.236411667257218877e-03,2.409421003431283168e-03,1.529207189120461571e-03,2.716194465756416321e-02
-4.849946921496985919e-01,-5.675515194347131587e-01,-3.982302874154799444e-01,7.179001084753977580e-02,1.744561984304704716e-01,9.948842524027499967e-02,3.974504172801971436e-01
-4.093971308288038569e-01,-4.060497211822111652e-01,-4.170868049921078735e-01,1.385091092615728641e-03,2.801447295139871188e-03,9.917349938092674937e-04,1.132815517485141754e-02
-4.016589425691635684e-01,-4.316419218247042888e-01,-4.031661516884524343e-01,4.944767767334507652e-04,4.955025542916573732e-04,1.144460554159790460e-03,2.935063093900680542e-02
-4.051130455444557077e-01,-4.269617967297115735e-01,-4.023492259982511809e-01,7.509226004788387490e-04,1.506429417624223282e-03,8.742817407945871044e-04,2.358358353376388550e-02
-4.198303361884813123e-01,-3.789112998157184720e-01,-4.413365546102624437e-01,-5.786983227178342862e-03,-2.606502425464264205e-03,1.656527319736845376e-03,5.608903616666793823e-02
-4.172612409067659178e-01,-3.605418755584073875e-01,-4.373546458998611719e-01,-6.244315671042013037e-03,-1.131921429953346072e-03,9.672644172197139567e-03,7.184716314077377319e-02
-4.289645794143749358e-01,-3.795933909151465446e-01,-4.485802394367289780e-01,-2.430358701973013569e-02,5.336718349861867619e-03,-6.816761957135136080e-03,7.607612013816833496e-02
-4.020285664103208090e-01,-4.004978222052379411e-01,-4.303517829363423530e-01,-9.930147496255475794e-04,-1.438254813392195099e-03,3.823533624742138284e-04,2.928320132195949554e-02
-4.468031690217146856e-01,-3.459555100643639802e-01,-4.365853316544718310e-01,1.090599085424916181e-02,7.707875935822733858e-03,1.665600407486357570e-02,1.030122935771942139e-01
-3.630077531939741031e-01,-4.325810610772786169e-01,-4.318499350807485371e-01,-5.076009433230571459e-03,-4.443553550278271994e-03,5.554154748501320335e-03,7.084625214338302612e-02
-3.857172208648954603e-01,-4.110812067025446659e-01,-4.408701724069517547e-01,-9.046957330354970378e-03,2.281211644798504523e-03,-2.232450355202405222e-03,5.062002316117286682e-02
-4.119883513532672237e-01,-4.271390034709084405e-01,-3.926318482822007128e-01,-1.947986962504937719e-02,2.418040742799988652e-02,-1.257541487315680037e-02,6.530218571424484253e-02
-4.111849931135961311e-01,-3.832361175552010946e-01,-4.334077423438913446e-01,-7.568601398274150092e-03,-7.616317798551909546e-03,4.477007279318052056e-03,4.798018187284469604e-02
-3.178701018427637082e-01,-4.356619008175395824e-01,-4.673904648217560576e-01,-1.168053306039624067e-01,5.953056368575785490e-02,-4.799607336423560716e-02,2.776544094085693359e-01
-3.741390885665237809e-01,-4.168669518979514765e-01,-4.277574280353815261e-01,-4.585337360403210841e-03,7.937588720074017102e-04,-4.994029348144309044e-03,5.049145221710205078e-02
-3.874453970484734167e-01,-4.112333632985181731e-01,-4.289512390819256726e-01,-1.151541799303003148e-02,9.377556771850413010e-04,-4.788200269704161183e-03,4.207726195454597473e-02
-3.421384116604648806e-01,-4.396622307741194224e-01,-4.532007758189070534e-01,-1.028988505301276640e-02,-3.135625867580170423e-03,1.098476385908924748e-03,1.066080629825592041e-01
-4.025565381164329937e-01,-3.950614472072345174e-01,-4.309584530526053836e-01,-3.388157391243779709e-03,-4.134836016404465700e-03,2.373051430439476316e-03,3.432701155543327332e-02
-3.877550660055957277e-01,-4.187001014784254016e-01,-4.297325489540362864e-01,-4.090125008920367060e-03,-2.140798384295003118e-03,4.769884557234030029e-03,3.940686956048011780e-02
-3.893909375459621569e-01,-4.082111599031618687e-01,-4.283283797108829449e-01,-5.916611268462672671e-03,-2.067000771825098018e-03,4.931730734810698888e-03,3.644607216119766235e-02
-1.794689108211603989e-01,-5.211949631473876687e-01,-6.204944945704049530e-01,-5.998923067075945248e-02,6.132987430125989153e-02,-1.340223158796162092e-02,4.280062615871429443e-01
-2.369273773206366229e-01,-5.682074759608879422e-01,-6.456312382893121260e-01,-1.172973499647912421e-01,4.119128108885310863e-02,-2.287510860137255755e-02,4.351159334182739258e-01
-4.101899457007676664e-01,-3.920457316968158912e-01,-4.283146938510292157e-01,-7.341944829552304874e-03,5.472820926613606793e-03,-2.022107932208233334e-03,3.536117821931838989e-02
-3.497804228913183322e-01,-4.439749992197757344e-01,-4.436604504725121245e-01,-2.962049211812600898e-03,8.682189833823933389e-03,-3.996888703726815192e-03,9.562152624130249023e-02
-3.628343783705719194e-01,-4.223717325238219300e-01,-4.380794186412555469e-01,-1.293102936547820686e-02,-9.616431699697269679e-04,2.335128276933119782e-03,7.243886590003967285e-02
-1.445588577684396303e-01,-5.417985817379390445e-01,-6.670543882818201764e-01,6.267632474596579462e-03,6.695887354712756756e-02,2.128686021032497044e-02,4.880294203758239746e-01
-5.900829363279342932e-01,-3.254323010091449975e-01,-4.993332687642091927e-01,1.098985755941511433e-01,5.827196932663184642e-02,1.589161082781897494e-01,4.200493395328521729e-01
-4.038691447373309873e-01,-4.052059078510245604e-01,-4.243996208931652969e-01,5.631160611297917739e-04,9.136302239125887936e-04,2.038716209925211641e-03,2.029205672442913055e-02
-4.186108085048244054e-01,-3.866433575374900733e-01,-4.318015105247459129e-01,4.178682260995737578e-03,5.105031476549263050e-03,3.054137764068810997e-03,4.214424267411231995e-02
-4.880507008476329123e-01,-3.952890777725936999e-01,-5.144502836899178533e-01,1.454869533712191965e-01,7.558446668671890689e-02,1.195904158293407404e-01,3.678240478038787842e-01
-4.113297936158453738e-01,-4.095529395998352418e-01,-4.117645776908452904e-01,2.376118475681259119e-03,3.019461250197141844e-03,3.057327195671339683e-03,8.743557147681713104e-03
-4.106731062480202810e-01,-4.135523179008491201e-01,-4.076273073468118513e-01,2.556047471045375542e-03,1.082406367792423637e-03,1.497301193455095186e-03,7.495127152651548386e-03
-4.117435911133452420e-01,-4.057636993480656096e-01,-4.139921777334377162e-01,9.509967355642073763e-04,3.341225481984836342e-03,5.567097767789457030e-04,9.560119360685348511e-03
-3.643209502701953428e-01,-4.332288741756726846e-01,-4.453235011394712228e-01,5.821082495972202536e-03,-2.141671644894132392e-03,-2.863315657030070932e-03,7.660292834043502808e-02
-4.004870585140104522e-01,-4.227052454991900299e-01,-4.100829563880837858e-01,1.668040987545434724e-03,1.522906377431889431e-03,3.966560457850437302e-03,2.085740305483341217e-02
-1.211374210463954659e-01,-5.003609386286939076e-01,-5.202829995527253892e-01,1.939964134020216724e-02,7.803828526906225749e-03,-4.639226343540237690e-03,3.913292586803436279e-01
-3.080332596912112031e-01,-6.248819499758668794e-01,-5.001853796242390349e-01,4.839310009623053188e-02,1.610357907226692697e-01,2.521357462410472525e-02,4.039341509342193604e-01
-3.275432692421591518e-01,-4.850232360322431768e-01,-4.747536942177905117e-01,2.835968045822172268e-02,2.749729768923511383e-02,8.823427990416184835e-03,1.679369956254959106e-01
-3.658733755425365719e-01,-4.319561465332970585e-01,-4.403072718543550312e-01,5.215748954312758243e-03,8.737316519499545991e-03,5.006699471589050668e-03,7.331012934446334839e-02
-4.165885171616500737e-01,-4.084689588324657561e-01,-4.070191830929087984e-01,-2.052280641249303733e-03,6.054910547901830179e-04,-9.182560119839950664e-04,9.801307693123817444e-03
-4.125563936806805332e-01,-4.140846442520859649e-01,-4.088377059145312242e-01,-3.448308954841178969e-03,-7.600720692227033986e-05,-5.373460674395515169e-04,7.642207201570272446e-03
-3.921160485408201057e-01,-4.108553241185161631e-01,-4.245482088799164555e-01,3.943485889948436171e-03,3.627156579734548865e-03,6.381469083761745660e-03,3.167872875928878784e-02
-2.641506762333918901e-01,-3.483374758555359829e-01,-4.806733141120718700e-01,1.520194745000986725e-01,7.266998420982716256e-02,4.246997738716858095e-02,3.554219603538513184e-01
-4.034908922887475158e-01,-3.910522035893250758e-01,-4.370412289702204078e-01,2.043584543337433057e-02,1.477562668167106859e-02,1.696930939063363147e-02,6.685334444046020508e-02
-3.475556528959873881e-01,-3.834806690322154488e-01,-4.491700033749466692e-01,7.491871409283959449e-02,6.897247961474538454e-03,6.311244351295427352e-03,1.583232134580612183e-01
-4.097598660524084946e-01,-4.118229454301028380e-01,-4.112388247736534219e-01,1.867788601837084422e-02,2.476534981671843147e-02,1.307978720592117491e-02,5.833689123392105103e-02
-4.055637099740259099e-01,-3.883738491533963444e-01,-4.230548490559880581e-01,7.565330761499375160e-03,5.959408214112157931e-03,3.105508640195235679e-03,3.477470949292182922e-02
-4.216131345514827489e-01,-3.984867917021777117e-01,-4.081180270085879025e-01,-9.362614192472105967e-03,-7.340313672347129580e-03,1.181345081489470344e-02,3.532905876636505127e-02
-4.111000888394962249e-01,-4.256225288535760432e-01,-4.006254908997853303e-01,-5.849417873573893763e-03,-8.976287543964248106e-03,8.597375033526276356e-03,3.223116695880889893e-02
-4.401182509927697994e-01,-4.193722818248376560e-01,-3.705916765000794588e-01,-2.797264768428953541e-04,-3.875419356672312084e-03,2.556665237997497384e-02,7.634261995553970337e-02
-6.288125634529435626e-01,-4.405917759678694146e-01,-3.081589406602700532e-01,-3.396379337952858124e-02,-1.853853021415647825e-02,2.234488611884591636e-01,4.818422496318817139e-01
-4.880075864277911846e-01,-3.709553719586831111e-01,-4.436919558660205598e-01,-8.623906344151482245e-03,-1.740776213718410459e-03,6.918995669412976446e-02,1.583407968282699585e-01
-4.339309307250288628e-01,-3.730051414182959935e-01,-4.330317999966520892e-01,-3.996289465540477787e-03,-2.536707855160367890e-03,4.839096006371074003e-03,6.160719320178031921e-02
-4.356408229916174935e-01,-3.483679515120649550e-01,-4.311481942335622652e-01,1.497089609725047246e-02,4.217514190851794770e-03,3.640312293829651730e-03,8.949946612119674683e-02
-4.012093079196430989e-01,-4.022957816113956198e-01,-4.289517638581867298e-01,-1.490298504308643947e-02,-5.984830046054382541e-03,7.155093980234152919e-03,4.084140434861183167e-02
-4.279338297568939797e-01,-3.973628267802461478e-01,-4.114159970217415863e-01,-2.071421276106042483e-03,-3.188271753552069168e-03,3.130509413433095120e-03,2.784288302063941956e-02
-4.162736168419471361e-01,-3.935897028917761942e-01,-3.847952636591330244e-01,2.671162759475502815e-02,-3.457919593224949295e-02,-4.972007602981103058e-02,1.180480718612670898e-01
-4.122885286584510589e-01,-4.124688508755068872e-01,-4.068350115915120857e-01,3.847973349389591669e-03,-1.329063267966350617e-03,-1.375511855308684823e-03,9.281852282583713531e-03
-4.030462756295893900e-01,-3.884652180552041756e-01,-4.171374407775632065e-01,1.091153068531136583e-02,-1.143947985875640519e-02,-6.983973246415487064e-03,3.889382258057594299e-02
-4.197847046026766948e-01,-4.052136942997709435e-01,-4.134376680148354466e-01,8.626870645368215490e-03,-9.531722672546202174e-03,-8.461350684055752441e-03,2.950813062489032745e-02
-4.199763941730981220e-01,-4.099853262480321336e-01,-4.029534935775723747e-01,5.057044365340566949e-03,-1.682733104791559386e-03,-2.172820328301628724e-03,1.785785332322120667e-02
-4.147093017355124589e-01,-4.562030517798077445e-01,-4.280866187701795611e-01,3.911023732179830237e-02,-6.442831042893040761e-02,-4.143062549782912385e-02,1.534175723791122437e-01
-4.309553999802981927e-01,-4.743010654210269017e-01,-3.338647223096940508e-01,-6.353466663843398109e-03,7.921905493114664298e-02,-1.961794042664813734e-03,1.856704801321029663e-01
-3.958166164040671231e-01,-4.324981164284404933e-01,-4.008176115470509782e-01,-6.863844236553386818e-05,-4.475742558288677009e-03,6.069121476582784325e-04,3.533149138092994690e-02
-4.756139878262928278e-01,-3.130130243162825843e-01,-4.818564379068828729e-01,3.672242074630267111e-02,1.242349037323174947e-03,-1.287546559408792556e-02,1.789989918470382690e-01
-4.007057540060938172e-01,-3.978040144284423207e-01,-4.307701616074009476e-01,3.653800114995456750e-03,-8.456390167561046679e-04,-1.127166075778457052e-03,3.233474120497703552e-02
-3.995163658179886057e-01,-4.051397818588630684e-01,-4.217441485907152399e-01,1.482965291665466236e-02,1.205215869392128013e-02,9.514834226725294580e-03,4.204541072249412537e-02
-2.667600052514749742e-01,-4.782623233043959976e-01,-4.875132797730903356e-01,9.893146640174677042e-02,6.093487557339637151e-02,3.926226563697929328e-02,3.031525611877441406e-01
-4.412775566166249330e-01,-3.696529592053123814e-01,-3.591515352188520138e-01,8.857675693704970821e-03,-1.285538270248718501e-02,-6.095535224381125328e-02,1.336800158023834229e-01
-3.924422439329522394e-01,-4.083900036715011339e-01,-4.357624838250364063e-01,3.397906542666986451e-03,1.611092963846443146e-03,2.267661268641921017e-03,3.870354592800140381e-02
-4.077610189092683024e-01,-3.852897021823953883e-01,-4.393433840497827370e-01,8.780833958800809622e-03,1.352090035499363451e-04,-2.999974639932082889e-03,4.970378801226615906e-02
-4.601186850185846056e-01,-4.006769813265729230e-01,-3.814007266792936446e-01,-4.508208285487987077e-02,-2.806919962135757951e-02,7.765844725519638336e-02,1.777752190828323364e-01
-4.320959715010923574e-01,-4.071203842250531446e-01,-3.977980932715294848e-01,4.882732508766946845e-03,1.626349913023130431e-03,3.970157076423988865e-03,3.271482139825820923e-02
-4.326874139673791975e-01,-3.616980569618215569e-01,-4.463753877660083802e-01,5.129383193740471095e-03,-5.033867349104860717e-04,5.892667040939577987e-04,7.924193143844604492e-02
-4.192802330313767922e-01,-4.109529776147789470e-01,-3.951792419467747841e-01,5.660537017752207897e-03,2.366975179116900460e-03,3.613258987553782074e-03,2.452764846384525299e-02
-4.124727993316458230e-01,-4.192598767992150033e-01,-3.958560533219998012e-01,6.152163121729343175e-03,2.971443768444340973e-03,2.341513883320824399e-03,2.431961521506309509e-02
-3.527866388817774701e-01,-4.363651103668906295e-01,-4.369758283276684585e-01,3.171640034032291444e-02,1.150886823496139778e-02,5.748505132815332624e-03,1.027183756232261658e-01
-4.113639848339339933e-01,-4.285588795718954791e-01,-3.882133952716702585e-01,5.219681341745776963e-03,5.177962332471508153e-03,2.104464648513766460e-03,3.748521953821182251e-02
-4.343528034543932548e-01,-4.347236342945014487e-01,-3.489760191056056615e-01,7.303256208944882387e-03,8.477738299135631483e-03,1.088090734056024710e-02,8.973184973001480103e-02
-5.956487932297612753e-01,-4.428834524667503159e-01,-3.972114415501681872e-01,8.735234978535441619e-02,7.556180628054648407e-02,2.094100007863141932e-01,4.516392350196838379e-01
-3.998257008010479008e-01,-4.150084550510433345e-01,-4.201987842210367918e-01,1.137357478438031679e-03,-2.323497337874050241e-03,-5.106360908588089206e-03,2.084611356258392334e-02
-3.196999853232430078e-01,-4.189072814323586136e-01,-4.401309104862669574e-01,3.346211471245535279e-02,9.905530978803705686e-03,5.590590841573187322e-03,1.270642727613449097e-01
-4.255284537356879837e-01,-3.194779187019302635e-01,-4.264222749223616216e-01,4.188910231768614573e-02,-2.409111797710361200e-02,-3.477567125289338090e-02,1.482416391372680664e-01
-4.726960718880234280e-01,-3.314126201320004572e-01,-4.986301116395029931e-01,1.555768929438448023e-01,-1.037094939902940584e-02,-5.838660270473224750e-02,3.278106153011322021e-01
-4.283091756332345068e-01,-4.105576019559457612e-01,-3.983255795622516748e-01,3.457341398475348264e-03,-1.425249190807132858e-03,-1.976744210826452113e-03,2.712110988795757294e-02
-4.297366353867551614e-01,-4.082513790696639111e-01,-3.982007154110809299e-01,3.760245920182590882e-03,-1.033894790478287256e-03,-2.519471537770724343e-03,2.903862111270427704e-02
-3.917891573483346379e-01,-4.104762367809796642e-01,-4.358937675407430490e-01,1.562931071073323311e-02,-9.739432476986563001e-04,-1.148062913259528806e-03,4.700918123126029968e-02
-4.184656624959955940e-01,-4.299860420799359040e-01,-3.796778631383183056e-01,5.200451201438163924e-03,-4.606995476088954732e-03,-2.590223797075253027e-03,4.742360115051269531e-02
-4.001508023432069905e-01,-4.067205584064517154e-01,-4.229311006196562195e-01,2.380116329456213875e-03,-2.228076954326709512e-03,-3.753161029744624382e-03,2.205876633524894714e-02
-4.040886905743334978e-01,-4.020847177564351171e-01,-4.283790503751340184e-01,6.357656763133071650e-04,-1.607999843706159337e-03,-1.062129604344444044e-03,2.559430897235870361e-02
-4.236521597146139517e-01,-4.109954965985582742e-01,-4.037522248649880185e-01,5.018057612806086504e-03,-5.643061184387343499e-03,-9.724987878476426192e-03,2.755236998200416565e-02
-4.324287744806084022e-01,-3.997474094268689271e-01,-3.952473322458264215e-01,1.282034525555044563e-04,-2.484761488371486308e-04,-5.000838154279777827e-03,3.620291128754615784e-02
-3.384629567187520949e-01,-4.701313223615736225e-01,-4.683842635608820304e-01,1.165725849149795712e-01,-8.328611777118444248e-02,-1.288730233131939462e-01,3.584851324558258057e-01
-4.291077164622301710e-01,-3.963958976008739588e-01,-3.942961402572235929e-01,4.364280233828702824e-03,-4.314479064002910147e-03,-1.153367511837735671e-02,4.068440571427345276e-02
-4.336047303610648385e-01,-4.192921700702724741e-01,-3.863990545338881755e-01,4.322585776020662109e-03,-1.634852929190101388e-03,-4.093479686905671794e-03,4.326584562659263611e-02
-3.938860600551328250e-01,-4.314535706278259664e-01,-4.085573305917467590e-01,4.751816868665980145e-03,-1.463128769705089940e-02,-2.997109130047859605e-03,4.257125779986381531e-02
-2.005466508874516607e-01,-4.094726377808569628e-01,-4.621126564526711333e-01,-1.145668102269270239e-01,-1.882363354713269959e-02,4.148781403116287569e-03,3.129060566425323486e-01
-3.132584973958602581e-01,-6.474712130598404558e-01,-4.798415373004644713e-01,-2.589122050009176959e-02,-1.968347311683334433e-01,1.623940885961265568e-02,4.503419101238250732e-01
-3.808068650070542960e-01,-4.428219360364423762e-01,-4.192340513177182926e-01,-7.941840322298347656e-04,-4.868100950110704726e-03,-5.835991679191280049e-04,5.489500984549522400e-02
-3.429273179075554845e-01,-4.434235193835864841e-01,-3.974372562226872740e-01,5.083200500647529901e-03,-5.308605854044114863e-02,-4.903916960897524227e-03,1.272667646408081055e-01
-2.276404944390827412e-01,-6.025459807623084751e-01,-6.190355981395978535e-01,-8.904099506543590448e-02,-3.605156820147088770e-02,1.082653189452627632e-02,4.183823168277740479e-01
-2.338142399467664778e-01,-5.975733902135971221e-01,-6.251910432619821600e-01,7.937528122321432789e-02,-5.492107693087004000e-02,-1.482475103854368446e-02,4.144143164157867432e-01
-3.393396934300063617e-01,-4.471067896107539519e-01,-4.526993859307542611e-01,2.064284969049321686e-03,-4.971671838633603740e-04,1.950452311251217813e-03,1.107820421457290649e-01
-4.545439432444529082e-01,-4.695866854377383492e-01,-3.743158988952398625e-01,3.695650597982412522e-02,-5.191168964040287354e-02,-6.521858136799742189e-02,1.811405122280120850e-01
-4.197851628992127493e-01,-4.386906291777819544e-01,-3.813923219868541881e-01,-3.350086519779585208e-03,5.752385203694846197e-03,-3.078289857813827461e-03,5.214046686887741089e-02
-4.197869553164177980e-01,-3.917026598963215811e-01,-4.208645245747625330e-01,-3.118131336690294683e-03,-6.105245353679610368e-03,2.902263098403351851e-03,3.140718489885330200e-02
-4.409865512285495726e-01,-4.111615305140040588e-01,-3.878756170921613400e-01,-1.479955026669797693e-03,-3.252417374921599911e-03,7.956825721207528429e-03,4.852326586842536926e-02
-4.206556867262806199e-01,-4.085359334446514445e-01,-4.066026353894925949e-01,-2.260549840197303810e-03,-9.284281499870325818e-04,6.349936960773064007e-04,1.389902830123901367e-02
-4.725939067041028396e-01,-4.504488791532718639e-01,-2.017433004931764029e-01,-3.251600464302520366e-02,-7.653882271163127415e-02,9.326680127195091652e-02,3.386664986610412598e-01
-4.120310336433625764e-01,-4.092998534094778318e-01,-4.109452362164203176e-01,-2.012557660595375164e-03,-1.881392583958344964e-03,1.715245537958897488e-03,6.104840431362390518e-03
-4.140813599935281863e-01,-4.039877911278075828e-01,-4.118410027438817456e-01,-1.169248850493303724e-03,-3.399162567359740629e-03,1.313349126893906954e-03,1.132365409284830093e-02
-4.160392271459765756e-01,-4.067706087435500883e-01,-4.080614658173624676e-01,-3.365657341866483236e-03,-3.878027185609691282e-03,3.513469017264069481e-03,1.384712103754281998e-02
-4.206191574996417382e-01,-4.051718983411937702e-01,-4.051632061033246801e-01,-1.032893503753594617e-03,-8.645363949625073114e-04,-4.079573570609193217e-04,1.564270816743373871e-02
-4.078162577353563467e-01,-4.153276284407329544e-01,-4.145922452061133190e-01,-1.137160097211052700e-03,-9.700361356896097971e-04,2.421995640476220374e-03,8.702771738171577454e-03
-4.505427309811330661e-01,-4.393753857876994129e-01,-3.275021760049517949e-01,-3.657263601664159473e-03,-9.668985614793138006e-03,2.654454986453066642e-02,1.277657449245452881e-01
-4.388664997450378857e-01,-4.318078888854451902e-01,-3.600633486716716125e-01,-6.728374752101908170e-03,-8.744133263239256201e-03,5.411735252658433221e-03,7.846383005380630493e-02
-6.197553824446129234e-01,-3.764829601517779567e-01,-4.410557267118066505e-01,-1.653619610194616285e-02,2.139901788574077174e-02,-2.066562304213258039e-01,4.218492805957794189e-01
-4.348965592000392233e-01,-4.196236116029553598e-01,-3.772646926201681516e-01,-1.140429998400158433e-03,1.425320678497753310e-03,-5.475319035206728351e-03,5.267276614904403687e-02
-4.431169351115575861e-01,-4.299458949291075638e-01,-3.590291321828318338e-01,-6.967923427802272772e-03,-3.870795215436563345e-03,1.397353509114634962e-02,8.314502239227294922e-02
-4.523336693948827314e-01,-3.615089885534146785e-01,-4.430112667425240569e-01,-3.290038945912572566e-03,2.619972114853656459e-03,-1.299294349734443979e-02,8.971533179283142090e-02
-4.315456778737553623e-01,-3.866170451286606857e-01,-4.198234245643917006e-01,-2.535355757642460475e-03,5.947138491164363772e-03,-3.573924223936653100e-03,4.234426468610763550e-02
-4.274282810161429969e-01,-3.964539682161394296e-01,-4.070009566888894148e-01,-1.942233311545078171e-03,3.080460304585212229e-03,-2.245482955273068147e-03,2.826433070003986359e-02
-4.235867607020928349e-01,-4.003035609746685153e-01,-4.024723120207461258e-01,-1.127333287409161902e-03,3.749163836050502935e-03,-3.621906567860017946e-03,2.411744929850101471e-02
-4.343507834879614116e-01,-4.125022436913878821e-01,-3.853102787698003961e-01,-6.594635249569758689e-03,3.000069834156457189e-03,-8.061304890684966792e-03,4.651117324829101562e-02
-4.116116825830672954e-01,-3.979152052255560679e-01,-4.144517998626497945e-01,3.191101238195339328e-03,4.542692335129057402e-03,2.799832272857822636e-03,1.872255466878414154e-02
-4.114544997270233040e-01,-3.974753507611111236e-01,-4.197313802577785635e-01,5.407699691377064292e-03,8.617159162792858290e-03,1.711476819358780013e-03,2.643691562116146088e-02
-4.104651858443169044e-01,-3.934735698267987636e-01,-4.257688861772908062e-01,7.814405351230548080e-03,3.973427490206742248e-03,6.610156405262465791e-03,3.383185714483261108e-02
-4.271595304623768685e-01,-4.039441453502923829e-01,-4.411244426309434141e-01,7.469451612645197636e-02,5.462197966687310641e-02,5.571776008014841380e-02,1.898948997259140015e-01
-6.354626071392662778e-01,-2.169343945887394209e-01,-6.220815171900523355e-01,4.437818875304949673e-02,-9.225590671183288294e-03,-4.232736636370051236e-02,4.257733821868896484e-01
-5.866079293526436089e-01,-2.490842482928434520e-01,-5.988023394068381355e-01,-9.634830731921489866e-02,-2.911806329742435209e-02,6.223599085520356566e-02,4.002491235733032227e-01
-4.434639493527377518e-01,-3.567119031770554227e-01,-4.478367067018216297e-01,2.579399637087388328e-02,-1.952272848494532624e-04,-3.630957220807979301e-03,9.980000555515289307e-02
-4.173744628484500341e-01,-3.664667828512655490e-01,-4.355233553723910633e-01,1.269225262174676454e-02,4.817353735299394202e-03,3.437577180712581004e-03,6.658260524272918701e-02
-4.357086540209116343e-01,-3.379884201674391853e-01,-4.414063331025023240e-01,1.355431916365566584e-02,-2.240807492366389455e-03,-1.674119268110323610e-03,1.035041883587837219e-01
-4.126883053995165085e-01,-3.964952841194959721e-01,-4.358639302991307862e-01,-1.476994610464682327e-02,4.889404400853353955e-03,-4.334461911087363929e-03,4.423960298299789429e-02
-4.454633308905279199e-01,-3.443166918780885544e-01,-4.515864191079416723e-01,-1.234431774107416779e-02,3.395923617969937285e-04,-5.508963798147503352e-03,1.069392487406730652e-01
-4.333268904644576036e-01,-3.793201002878351380e-01,-4.186556404338336868e-01,-4.258620402531420809e-03,6.151546523018618789e-03,-4.973674697807837532e-03,5.081118270754814148e-02
-4.401729428611705353e-01,-3.781363731959431762e-01,-4.183909089587901642e-01,7.279312475789347504e-05,8.340070048907410232e-05,-5.424303820794468961e-03,5.531741306185722351e-02
-4.198052320501143297e-01,-3.823726225158129988e-01,-4.043331290695638680e-01,-1.299272963822894339e-02,1.319117416333695503e-02,-2.159546454180785030e-02,5.906751751899719238e-02
-4.295478979446177847e-01,-3.973526864710381634e-01,-3.952049944919728275e-01,-5.339436800119548229e-03,6.603870673350996888e-03,-1.137531738812697958e-02,4.141068831086158752e-02
-3.991387103806632308e-01,-3.999800182134358173e-01,-4.212902328485905734e-01,-8.976525029260187111e-03,5.425598546764876656e-03,-5.443669919129675086e-03,2.986147254705429077e-02
-4.326263694780042024e-01,-4.030836692831651358e-01,-4.004227732601312595e-01,-1.291161468544975910e-03,5.759703854219830419e-04,-9.181674812087482025e-04,3.109641745686531067e-02
-4.326342220512700010e-01,-3.963583353345503935e-01,-4.001020036705367766e-01,-1.223217376852813463e-04,9.573635025686086115e-04,-3.844464963654316628e-03,3.523186594247817993e-02
-4.313941192827649429e-01,-4.001367325190232083e-01,-4.018446024282188445e-01,-6.768775425200787652e-04,2.685467395832732995e-04,-8.481088141397617698e-04,3.050092048943042755e-02
-3.711538363056858802e-01,-4.040959104312700778e-01,-4.547236807143564818e-01,2.728207381238068746e-02,-2.668590193258108499e-04,-1.692079188305700439e-03,8.693602681159973145e-02
-4.270233042945764113e-01,-3.791433331521498196e-01,-4.303064526579415405e-01,7.336571553728995013e-03,6.818389804021687990e-03,2.993366519553621388e-03,5.280431360006332397e-02
-3.621806088723137917e-01,-2.996734161211758174e-01,-5.885260259303157770e-01,1.576740956897039192e-01,-7.103347835404387467e-02,-4.424641807235280000e-02,4.060560166835784912e-01
-4.439434867881570934e-01,-3.446865089578609043e-01,-4.495457884792961600e-01,8.869006339259306870e-03,2.577450878092903304e-03,4.717277630407044247e-04,1.034213528037071228e-01
-4.368740799539415631e-01,-3.722102103573830534e-01,-4.316628609288017948e-01,9.539025851931419095e-03,-5.340995956655946592e-03,-6.373459857946019505e-03,6.596980988979339600e-02
-4.690418428624508751e-01,-1.220738857579839465e-01,-4.705850991396717808e-01,1.703807488691598537e-02,-1.722847292404148210e-03,1.501098100417238082e-02,3.499719798564910889e-01
-4.069170571851993268e-01,-3.984454455473140921e-01,-4.206769458728404354e-01,1.448804652520135385e-02,-9.775652654886861012e-03,-1.065827281296478739e-02,4.043350368738174438e-02
-4.125955915653775063e-01,-3.925442434947779557e-01,-4.190037902121867552e-01,5.583813014003362676e-03,-8.890571142384336850e-03,-3.789003227873182118e-03,3.074651025235652924e-02
-4.184213609939123057e-01,-3.850082330760172811e-01,-4.347449765072642358e-01,4.263411309762203671e-03,-5.931272388074606758e-03,-4.885632182292881306e-03,4.647578671574592590e-02
-3.654014869000414834e-01,-4.453840330122202373e-01,-4.355316071269693667e-01,1.169511848867055975e-02,-4.887720724614176733e-03,-2.894778131451557733e-03,7.882507145404815674e-02
-4.111422767594882233e-01,-3.973708931385590559e-01,-4.184511243565448013e-01,5.961072490869530338e-03,-7.381341512935702190e-03,-2.236166451355547057e-03,2.507549151778221130e-02
-4.169374753060843819e-01,-4.035078279100453025e-01,-4.123365992184043205e-01,4.279849055579024414e-04,-4.586743992264288861e-03,-1.562592033326278820e-03,1.451635640114545822e-02
-3.655485922704475588e-01,-4.305537189064086445e-01,-4.315010574756575346e-01,4.069281646180102595e-03,4.029108753087140386e-03,4.211974266774786563e-03,6.663142144680023193e-02
-3.632142582466270642e-01,-3.401409145783149679e-01,-4.820111275482643620e-01,1.230034721666653924e-01,-3.722342954860455994e-02,-3.957867397517563640e-02,2.676412463188171387e-01
-3.687342486310821177e-01,-4.351112526286772253e-01,-4.217094899613104131e-01,4.846531218941580420e-03,1.043050908577309796e-02,7.677500999425629358e-03,6.534241139888763428e-02
-3.654845133214159048e-01,-4.545893304811491342e-01,-4.409514977665718316e-01,7.760509630437295581e-02,5.906832667707167389e-02,4.057509708702446150e-02,2.009585350751876831e-01
-4.066214041089462605e-01,-4.239660691477565857e-01,-4.047040204319117818e-01,3.197061829361253892e-03,3.892431599948109437e-03,1.866799321332347382e-03,2.059955522418022156e-02
-6.125082521965352633e-01,-4.858916011234653554e-01,-3.396743826781389863e-01,5.421263600342993150e-02,8.318001862085036557e-02,2.140932984502683656e-01,4.722355306148529053e-01
-4.203427509015047470e-01,-4.052115657247126190e-01,-4.147334971311344431e-01,9.060100627810291352e-03,7.287742810746979799e-03,6.913143113114784966e-03,2.691665478050708771e-02
-4.473938246632425120e-01,-3.890537865139039320e-01,-3.992969657794844252e-01,1.228882471765615700e-02,2.632846246135578383e-03,3.812155552545332116e-02,8.800281584262847900e-02
-4.293000197815868280e-01,-4.048725666503352194e-01,-3.826280171847742384e-01,7.526954012897209972e-03,4.638102110460447930e-03,8.230909085899795752e-03,4.552628844976425171e-02
-3.556858007569572155e-01,-3.976402780363533229e-01,-4.314662170441090350e-01,6.658218926689715711e-02,5.927684189908822426e-02,3.926195205474773686e-02,1.810768395662307739e-01
-4.422171760811802743e-01,-4.045512068006731909e-01,-3.985797122234653322e-01,-4.830402369912766350e-03,1.857406286234762269e-03,2.780861338905979765e-02,6.387183815240859985e-02
-4.168635672849634877e-01,-3.893856530022879459e-01,-4.116124024991442143e-01,6.068131378732775222e-03,7.703168435815852845e-03,5.241465460845510030e-03,3.176824375987052917e-02
-4.444822994526257398e-01,-4.317826485850738139e-01,-3.587183960353854673e-01,2.260456271526552208e-03,1.496724127438683145e-03,7.104758587500388696e-03,8.124677836894989014e-02
-4.088834851759551858e-01,-4.213108298609367086e-01,-3.965063804453973773e-01,5.679564940767474999e-03,3.170877016448323937e-03,3.512835231284269690e-03,2.500803768634796143e-02
-4.125638313832201143e-01,-4.284598039812305692e-01,-3.941555761313916273e-01,5.914423498669786269e-03,9.869477513059908558e-03,5.570159961336264808e-03,3.707295283675193787e-02
-4.211749852794421378e-01,-4.200166447003608194e-01,-3.817948544659968135e-01,9.168663427177311392e-03,7.181469382016277339e-03,6.037836831434238716e-03,4.497556015849113464e-02
-4.069178051584820821e-01,-4.087697775026450375e-01,-4.063311226675048737e-01,-3.147357598367813564e-03,-4.319968643313324037e-03,3.554318819509181323e-03,1.133419759571552277e-02
-5.973963050096078309e-01,-5.620982889054719767e-01,-1.862710017019605369e-01,1.547041955675619064e-02,-7.627338744285083218e-03,1.518338547551288942e-01,4.751959145069122314e-01
-4.161506331069881881e-01,-4.118766384077797160e-01,-4.044151289424837148e-01,-4.513658912431720710e-03,-1.126912988009393796e-03,1.842861778044418497e-03,1.345173455774784088e-02
-4.171188953488054740e-01,-4.050284112995561903e-01,-4.087106493443661837e-01,-1.967078900800329003e-03,-2.890920958582025337e-03,1.473570571472399135e-03,1.258623600006103516e-02
-4.314177527613110019e-01,-4.045332599520483630e-01,-4.062100414971648310e-01,-3.944377650548698891e-03,-3.100476199896145223e-03,5.076092573799409827e-03,2.886730805039405823e-02
-4.074699142953324693e-01,-4.161338066556199422e-01,-4.080687618215938506e-01,-1.457002937565636340e-04,4.025221695377317736e-04,1.760221556823629704e-03,8.948641829192638397e-03
-4.091669187812206343e-01,-4.205383967045783211e-01,-4.068241277169798997e-01,7.069247832229973594e-04,8.275605390254786283e-04,1.070961375905038048e-03,1.297824550420045853e-02
-4.036969377115182112e-01,-4.252029338508428458e-01,-4.040895797062460382e-01,3.121168398509005862e-03,5.951581553075955752e-03,4.416981560009861779e-03,2.546048164367675781e-02
-4.104524624684440237e-01,-4.255836483498571798e-01,-3.982211974625151640e-01,4.877282321466866293e-03,2.139206295962631840e-03,2.765242592439783650e-03,2.591644600033760071e-02
-4.008076423763638485e-01,-4.231822487809552835e-01,-4.045746106768710604e-01,7.901171754174048968e-04,2.480221852436676269e-03,3.610066000952766394e-03,2.213489823043346405e-02
-4.046988439383294445e-01,-4.120692738584594839e-01,-4.149155740542198045e-01,1.134627998374178499e-03,1.277580751189979959e-03,4.199664254481375730e-03,1.204464398324489594e-02
-3.962825883121652293e-01,-4.187296197203913550e-01,-4.112601792546409230e-01,2.694170991305168666e-03,4.751924813178682629e-03,6.004264055580938765e-03,2.428305149078369141e-02
-4.601628978431635542e-01,-4.398991492235633238e-01,-3.486068956429943522e-01,9.288201163397524079e-03,1.309248018259989016e-02,2.172671250273685434e-02,1.130664423108100891e-01
-4.328179093542841582e-01,-4.085640500432632938e-01,-3.879705518389910957e-01,1.920379541978659704e-02,1.278849893283927862e-02,2.469512406801554344e-02,7.027343660593032837e-02
-5.795932211097540865e-01,-6.046107345983039449e-01,-2.323267856172198664e-01,1.017891599528348342e-03,1.080557952472482736e-01,-2.805662676765617244e-02,4.090237021446228027e-01
-6.386526857527552448e-01,-5.739862870914098636e-01,-2.732541760130647868e-01,1.467750546067837954e-02,4.775378808831488159e-02,1.676431161952502413e-01,4.537279009819030762e-01
-4.747594134261697296e-01,-4.271613413760674272e-01,-2.980636807426014223e-01,-4.016876543624821327e-03,1.538891745520391992e-02,7.011382158373707929e-02,2.014529407024383545e-01
-4.368615884592897403e-01,-4.143493344569604830e-01,-3.605510640806376954e-01,-1.111404808588025827e-03,-5.166039408210252801e-04,1.475882151731765755e-02,7.259580492973327637e-02
-5.929508118777281345e-01,-4.644173877170104658e-01,-3.430905693268974099e-01,-1.871984840887219725e-02,-2.418829656624095839e-02,2.153088559636922861e-01,4.344143271446228027e-01
-4.327241529157122568e-01,-4.395077114971560617e-01,-3.648104036356135671e-01,4.430524042309458808e-03,-3.759006072828811190e-03,-7.767235162136038908e-03,7.349326461553573608e-02
-4.440073947234298712e-01,-4.417162914601103774e-01,-3.326995026590896520e-01,2.445292786563736404e-04,-8.160465412379807161e-04,-2.088990504707376357e-03,1.102494746446609497e-01
-5.021423694737365828e-01,-4.587955503676574565e-01,-3.583160009716367389e-01,1.219256552253564045e-02,-7.524952619898719062e-04,7.477100491050220343e-02,1.831675171852111816e-01
-4.128296317166220697e-01,-4.149293859351843583e-01,-3.995011165640968698e-01,6.413586025492317225e-03,4.411859807867254610e-03,3.943415613859327547e-03,2.094020694494247437e-02
-4.221990432584215580e-01,-3.765565609974135253e-01,-4.307937547488692731e-01,8.185692345779007478e-03,7.157188137813109974e-03,4.697964683815286299e-03,5.450040847063064575e-02
-4.041988448832673497e-01,-4.024926226169722177e-01,-4.162141902242330604e-01,5.469279083690232329e-03,5.152076892697385856e-03,5.148564646395422870e-03,2.041260525584220886e-02
-4.206190851243825635e-01,-3.779575527376013433e-01,-4.172966333366737168e-01,1.440605177320848813e-02,8.929824446838919433e-03,3.968588276473542301e-03,5.097432062029838562e-02
-4.444105387658511819e-01,-2.708185493195081062e-01,-4.512290671963294364e-01,4.561152346734685670e-02,2.059560577138554865e-02,4.429288283718444547e-02,2.115742415189743042e-01
-4.022017398293211143e-01,-4.064433579629804782e-01,-4.207935312629627056e-01,4.725628876118955109e-03,1.543776524802751128e-03,3.514219976503220582e-03,1.989925652742385864e-02
-4.120461654828653231e-01,-4.120974386062288830e-01,-4.086768703842451056e-01,2.365853410811497026e-03,1.191828771482428967e-03,8.260575506280298753e-04,5.884538870304822922e-03
-3.904828794761137645e-01,-4.239165171108017494e-01,-4.189420086601919890e-01,2.860532199358744188e-03,3.209797072248117555e-03,7.115512918389350731e-03,3.440328314900398254e-02
-3.831614267192124390e-01,-4.227947048610705694e-01,-4.194059185598647543e-01,4.904229085872793652e-03,6.375514230560666573e-03,9.490729950387593108e-03,4.372973367571830750e-02
-4.055124114231575816e-01,-4.206621123377961013e-01,-4.028692767611788406e-01,3.440327837853721267e-03,1.645876430537458442e-03,1.740716775195872128e-03,1.814571209251880646e-02
-4.085791154915641710e-01,-4.245873327654957619e-01,-4.016017689485649744e-01,9.599854947883724315e-03,1.479059163476065079e-02,8.870087243851411743e-03,3.981749713420867920e-02
-3.825531014363536264e-01,-4.565256820440267704e-01,-4.225728155512619155e-01,7.917919882960562997e-03,6.752613678235500072e-02,1.462507082895494158e-02,1.364633888006210327e-01
-4.328546545439817539e-01,-3.834438447945833772e-01,-4.487324228778923896e-01,-7.141681789726736507e-02,1.088787357675780748e-02,-3.731038870946110780e-02,1.526793539524078369e-01
-3.950268992747416608e-01,-4.298215598816761407e-01,-4.285553680766753248e-01,-2.206646157000872327e-02,1.360609645339020540e-02,-1.585016465052900905e-02,6.275397539138793945e-02
-4.232766547217649000e-01,-4.317848911049422811e-01,-3.828202310526443997e-01,-9.255538144655919841e-03,1.716483845455414256e-02,-8.938333667843896199e-03,5.859945714473724365e-02
-5.908133935239634482e-01,-4.839901808024308916e-01,-3.803035481498892589e-01,-7.474144918158415196e-02,1.176530306508711682e-01,-1.878717197706558650e-01,4.443097710609436035e-01
-4.325687670731906409e-01,-4.313626482704935872e-01,-3.738955853438781785e-01,-4.477416961260197864e-03,4.536232179190101410e-03,-4.194807269436976252e-03,5.956419557332992554e-02
-4.232040661574045237e-01,-4.141122949798274333e-01,-4.022267837928052980e-01,-6.338051305514730629e-03,6.827882641418336375e-03,-9.530917628744495565e-03,2.940873801708221436e-02
-4.409936922609596910e-01,-3.915421833253305284e-01,-4.115034077756032360e-01,-2.380811651384767344e-03,2.513621423799054615e-03,-1.392016902437662705e-02,4.973994940519332886e-02
-4.144362425769085312e-01,-4.197359330167964586e-01,-3.977555312488798012e-01,-5.884612534802407223e-03,3.596406143111701651e-03,-1.969761691315534760e-03,2.343210950493812561e-02
-4.134761342634893366e-01,-3.491976229693845024e-01,-4.790541124080608393e-01,-1.187566844911884939e-01,1.330247540210026114e-01,-1.401350199747781189e-01,4.086038768291473389e-01
-4.028865000251212192e-01,-4.271805556100557455e-01,-3.980484800577168136e-01,3.025126770475119412e-03,4.071648473055702877e-03,1.725985167354236131e-03,2.858791500329971313e-02
-4.067107690233801587e-01,-4.232445388847262402e-01,-4.084119096589208242e-01,3.147630464677376658e-03,3.050312986243025951e-03,3.146982497898019680e-03,1.831610314548015594e-02
-4.006683089021954025e-01,-4.221784169396486375e-01,-4.067008810756212456e-01,1.787224395017603497e-03,1.380430436978035986e-03,3.617114384194564016e-03,2.058798819780349731e-02
-4.027422855557246106e-01,-4.294413292307946994e-01,-3.965356912353276697e-01,1.942915768397768077e-03,3.361227642778593424e-03,2.961696200754670039e-03,3.144207596778869629e-02
-4.034690355143016327e-01,-4.230162388787877537e-01,-4.107627878673399957e-01,5.833235547372476321e-03,1.046369197311240035e-02,4.683946511704234136e-03,2.809063903987407684e-02
-4.031470709773186112e-01,-4.246302920365945810e-01,-4.022160977836038986e-01,3.282575585277335527e-03,3.693927366805100677e-03,2.360002104027530880e-03,2.392416819930076599e-02
-3.974514053479685227e-01,-4.304346610307410170e-01,-4.035264184152642652e-01,2.146825910621687206e-03,3.861222126116118942e-03,3.957330300041176155e-03,3.209302574396133423e-02
-4.187250318299288177e-01,-3.862138086253483205e-01,-2.300558844481088716e-01,-4.650231330881592073e-02,1.040152383026605870e-01,-1.327249015041314095e-01,3.497309982776641846e-01
-5.725765668662392560e-01,-2.245711922000982186e-01,-4.760234659876417251e-01,-4.865181823407992157e-02,3.461221302407936629e-02,-7.704040621426307134e-02,3.540196716785430908e-01
-4.185243060748804478e-01,-4.621886560647052167e-01,-2.172118261815468576e-01,-1.935855161588376228e-02,9.659815581491582037e-02,-4.069205110822365218e-02,2.920768260955810547e-01
-4.307958202325973263e-01,-3.983738564387656611e-01,-3.958941706556955986e-01,-4.600912052724235105e-03,4.679490498793707418e-03,-9.527573271790254483e-03,3.923328965902328491e-02
-4.912045024643958424e-01,-1.672525741435226809e-01,-3.888467401173835158e-01,-2.113096732958859303e-02,2.455226175850434150e-02,-1.341140946084524166e-01,3.733238875865936279e-01
-4.335428801246156150e-01,-3.937756332047605556e-01,-3.945687493422197489e-01,-1.184036762418348362e-03,1.504144637028587714e-04,-1.207124721857323613e-02,4.463117197155952454e-02
-5.155479078888619560e-01,-2.024258952495341379e-01,-5.402466288897428415e-01,4.576400008983565193e-03,-2.459673713549690235e-02,-1.247265359507384735e-01,3.936204910278320312e-01
-3.907615358893809510e-01,-4.330119876277347402e-01,-4.070038406720004609e-01,-5.582951313343970188e-04,4.127391100707629955e-03,-8.481055591931871288e-04,3.764129802584648132e-02
-4.318162813682155932e-01,-4.438559993384805225e-01,-3.560775233552008756e-01,-1.520084691731410104e-03,5.746941438925199340e-03,-1.984190723671875288e-03,8.313249796628952026e-02
-4.073495883688844077e-01,-4.326965093324950384e-01,-3.927263159371690571e-01,-1.067661320115318932e-03,3.729328443258773506e-03,-4.665479171358100498e-04,3.567573055624961853e-02
-3.687402615069052536e-01,-4.523517843167597086e-01,-3.990400505251697760e-01,-3.288766498251619909e-03,3.445474869374666460e-02,-4.755485256674332230e-03,9.506436437368392944e-02
-4.184592171395727922e-01,-4.213382540290515621e-01,-3.874652018715423751e-01,-7.371046143989330897e-03,3.304388200781783243e-03,-4.949257856901990646e-03,3.643336519598960876e-02
-4.141429385010511055e-01,-4.081237963364666710e-01,-4.124529856645682835e-01,-5.504684798414155242e-03,5.014128869690396596e-03,-5.211967893030989077e-03,1.663541048765182495e-02
-3.913042527581244712e-01,-4.372844061675543181e-01,-4.283307646104291821e-01,-2.618509719611576692e-02,2.784574883093785327e-02,-1.677756165828754240e-02,8.372721821069717407e-02
-4.023819004140098965e-01,-4.232320342477604025e-01,-3.997865352043674658e-01,-8.091727225423058639e-03,1.017867107068334137e-02,-6.146759280870138682e-03,3.340912982821464539e-02
-4.267717415512065071e-01,-3.756994994474548433e-01,-4.518495674286654995e-01,2.460273255032080497e-02,-2.393173915974721594e-03,3.610102450140761487e-03,7.993882149457931519e-02
-3.728011686687788817e-01,-4.300771777805265650e-01,-4.214445701648371623e-01,2.984211637008904894e-03,1.133846543956381139e-02,6.831991932163936250e-03,5.842130631208419800e-02
-3.325203793877791747e-01,-4.379906078837213501e-01,-4.340986227094681960e-01,-1.620492422392788567e-02,2.369568722941705827e-02,-5.594934809408962789e-03,1.153030470013618469e-01
-3.399187379428235678e-01,-4.352767584707868953e-01,-4.520614540015445715e-01,-1.064727312928524447e-02,3.148751835566678328e-03,-4.923949427457002467e-03,1.068550720810890198e-01
-4.472442927621146924e-01,-4.230083579920259074e-01,-3.656795211963146941e-01,-6.293385863303125466e-03,-4.809917150656709689e-03,2.887302214833369768e-02,8.917720615863800049e-02
-3.126002491913416614e-01,-4.611605831115891396e-01,-4.815663749479799360e-01,-1.668024343255990194e-02,-1.227321288811506969e-02,-1.350046791557673459e-02,1.653826981782913208e-01
-2.207420138206860338e-01,-6.287791546857567360e-01,-5.816024925166424220e-01,-3.457983175154547006e-02,1.116443130384388860e-01,-1.173042270489074203e-02,4.368793666362762451e-01
-3.290250293876734178e-01,-4.445680542186091211e-01,-4.321178118481401875e-01,-4.487396843684944223e-03,2.323194973194199139e-02,-6.844320407238589730e-04,1.172503605484962463e-01
-3.565969590072419204e-01,-4.394911652275191871e-01,-4.318499806206910208e-01,3.573272534142836465e-04,4.347121028371129028e-03,8.319139738605058976e-04,7.972188293933868408e-02
-2.752095368693383004e-01,-5.602946138298514622e-01,-4.937481598341182942e-01,-2.813219652873494639e-02,1.476041182164856691e-01,3.531611960411121243e-02,3.717625737190246582e-01
-4.423905227434474230e-01,-4.203749573948771801e-01,-3.965774350269110071e-01,1.828999345501445759e-02,2.589658008578480178e-02,3.283403900615640414e-02,8.845685422420501709e-02
-4.241067500378416510e-01,-4.347497301305925932e-01,-3.670299993131002636e-01,5.344771276330337328e-02,1.496429890759624071e-01,1.279394551203079933e-01,3.589332103729248047e-01
-4.112984598549437876e-01,-3.984304313284907084e-01,-4.294739835980152520e-01,1.202805782811761613e-02,7.192301210386358411e-03,3.614912090340920581e-03,3.685419633984565735e-02
-5.074880498965764763e-01,-3.025542415870218216e-01,-4.324059835965868293e-01,1.305129347081744606e-01,3.848181859799842952e-02,1.007125383039716299e-01,3.438325226306915283e-01
-4.003394995327806960e-01,-4.205750840747164432e-01,-4.002908747333585038e-01,5.795188038503525617e-03,5.223660991439489296e-03,3.351076011157041578e-03,2.503531239926815033e-02
-4.370717049560101097e-01,-3.899360627803081791e-01,-4.043358682465126863e-01,-6.077078137727564243e-03,-3.730786628236950567e-03,1.806665171859471453e-02,5.368556454777717590e-02
-4.328337573323590703e-01,-4.403788381099990046e-01,-3.646754361293916280e-01,5.280788943878347678e-03,4.607383696138398280e-03,4.432524085100062600e-03,7.364123314619064331e-02
-4.039217627959186263e-01,-3.319864131466375712e-01,-4.163065878527740238e-01,1.348102673878301960e-01,6.402751831326811138e-02,9.178357096328350340e-02,3.135468959808349609e-01
-4.265384860797932776e-01,-3.743226043196546948e-01,-4.318628582425481088e-01,7.671033752438897492e-03,7.233226935364822641e-03,4.599839168736467171e-03,5.856477096676826477e-02
-4.316567306356430267e-01,-3.674211864136552319e-01,-4.180829903204980602e-01,-8.386910940873609083e-03,-7.878657160965512468e-03,1.204746094275071545e-02,6.535441428422927856e-02
-4.102389793883768898e-01,-4.029782116993704810e-01,-4.187352527820562553e-01,-1.802789287386363792e-03,-4.826623901273436462e-03,1.759500630113876871e-03,1.659883931279182434e-02
-4.225003633136746317e-01,-3.965189145824339900e-01,-4.104637434941790231e-01,-1.221211176328871250e-03,-5.996210304136430531e-03,1.932177214457625469e-03,2.511423267424106598e-02
-4.242852445264152506e-01,-3.790724578598614891e-01,-4.470683682973993212e-01,-2.787910917941524569e-02,-1.102677843823648106e-02,1.328223341502377843e-02,8.257791399955749512e-02
-4.246955706999225866e-01,-4.042194092315348763e-01,-4.036373188781574028e-01,-4.758526176255196104e-03,-4.928490376370909046e-03,5.047136144060774404e-03,2.547062002122402191e-02
-5.466586465132927675e-01,-4.348380805283126871e-01,-4.482797467911440181e-01,-1.143758133877021688e-01,-1.045561760409082358e-01,1.626395306913401562e-01,4.032093584537506104e-01
-4.918320592977763472e-01,-4.106972819520814388e-01,-4.258162102626474876e-01,3.748678581401987397e-02,-4.486014476635424852e-02,-7.891104728332351548e-02,1.857920885086059570e-01
-4.239744068681356448e-01,-4.045031320577352485e-01,-4.056816461597954060e-01,3.788709392911865283e-03,-2.543300937733827295e-03,-5.298177113039866581e-04,2.051542140543460846e-02
-4.473724778023010495e-01,-4.262231304673855803e-01,-3.329662017541020758e-01,-4.934455724888017585e-03,5.974169288535267821e-04,-4.330236907368417709e-02,1.296760439872741699e-01
-4.349856721033634743e-01,-3.744350566186907536e-01,-4.471354508480946954e-01,2.764980378666134428e-02,-1.326240662468173084e-02,-2.581328600142255431e-02,9.679802507162094116e-02
-4.430092123550233296e-01,-3.665460268027015411e-01,-4.218294873611307949e-01,6.930935009439952339e-03,-3.755507142085819615e-03,-2.651982915837754889e-02,8.349885791540145874e-02
-4.254327968257364811e-01,-4.157215869037957923e-01,-4.017469535516379198e-01,6.551031453185037802e-03,-4.766081919326277568e-03,-9.742965422539584183e-03,3.011609800159931183e-02
-3.886022574939566043e-01,-4.228633058609431172e-01,-4.151338415038422491e-01,1.033223671100490584e-02,-9.432633115952571493e-03,-7.237344159221990349e-03,4.138926044106483459e-02
-3.807621996938271858e-01,-3.863351517374802313e-01,-4.241178016448449717e-01,3.085932024988073674e-02,-1.374584306634942139e-02,-1.208726803476232146e-02,7.437197864055633545e-02
-3.589613713783169624e-01,-4.729429307715887765e-01,-4.524045084132088945e-01,1.328516210801139186e-01,-1.512647250595560156e-01,-3.024157065752655291e-02,3.679782450199127197e-01
-2.797795590175694014e-01,-5.470489377940254139e-01,-4.656448996375900373e-01,7.903220724218895654e-03,-1.265707172121891544e-01,-5.077939475178822049e-02,3.350913226604461670e-01
-4.179237393120616151e-01,-4.398268985475760617e-01,-3.762716521175246132e-01,1.938787205987602819e-03,-6.822849418645646549e-03,-1.718629080671491352e-03,5.733017250895500183e-02
-4.016508225895381035e-01,-4.013121683926153538e-01,-4.270215996476265374e-01,-2.318705375119613059e-04,-5.746784439219570443e-04,9.961646043618968029e-04,2.562249079346656799e-02
-2.950064220123363445e-01,-3.536258892471694781e-01,-4.392404519143336961e-01,-1.367202255818985024e-01,-6.388945089489136975e-02,4.153457948242011283e-02,2.988025844097137451e-01
-4.126301347196131841e-01,-4.169728117452650706e-01,-4.048494060758568436e-01,-4.495028064032581192e-03,-1.243976120971857034e-03,8.402803848197197079e-04,1.343742012977600098e-02
-3.807428283787337997e-01,-4.334589940152090981e-01,-4.176776279146888204e-01,-2.578572712008168032e-03,-4.849818757521490512e-03,5.422517108707902017e-03,4.873225837945938110e-02
-3.944526857841373357e-01,-4.101571237339081133e-01,-4.085906814234094298e-01,1.204315305685663140e-02,1.194333685771037032e-02,9.403517089642824539e-03,3.678048402070999146e-02
-4.101914955789959794e-01,-4.114960538593334660e-01,-4.177146533307968812e-01,1.869936468450461792e-03,2.788911016239366009e-03,3.493048883010784617e-03,1.090475171804428101e-02
-4.108681346183632455e-01,-3.976983224986794241e-01,-4.417422539753221855e-01,1.520266716689539985e-02,2.446299688899856301e-03,8.772475698789317490e-04,4.740133509039878845e-02
-3.792237498239994231e-01,-4.166490244409311039e-01,-4.380553334224544515e-01,4.546396890035080823e-02,3.597189078582501559e-02,3.142060391771282768e-02,1.253181099891662598e-01
-4.098155561690997595e-01,-4.156126404441614630e-01,-4.191727826238041965e-01,6.060743298323341237e-03,5.987864444012737028e-03,6.572612758812879097e-03,2.035382948815822601e-02
-3.929930032226164327e-01,-4.085791258643524104e-01,-4.357907793987917944e-01,2.954991270675578000e-03,-4.374055182266645202e-04,-2.591139740377778949e-04,3.787475079298019409e-02
-4.400549859031333555e-01,-3.465767891902353792e-01,-4.521494677110726723e-01,1.204666558737141346e-02,-4.157188894548686023e-03,5.722337346983985031e-03,1.029585748910903931e-01
-4.105909942740642582e-01,-3.991017007780680026e-01,-4.288252193746130980e-01,2.855217399104429364e-03,3.467015446033250205e-03,1.352908262780754944e-03,2.720289863646030426e-02
-4.136402002317702831e-01,-4.084740889067787206e-01,-4.164492831138768003e-01,4.452408067730437291e-03,4.434499823347863579e-03,4.961071428506130809e-03,1.553687732666730881e-02
-4.013111946365851557e-01,-3.993584182847041975e-01,-4.275136582199634550e-01,1.697862432655196461e-03,1.404448935746394414e-03,1.098347031353552085e-03,2.756328508257865906e-02
-4.031626908571706580e-01,-3.987327453874757177e-01,-4.314197726444457537e-01,3.670613042054441180e-03,1.037866813135131846e-03,1.703563389854995027e-03,3.155348822474479675e-02
-4.055393668351163217e-01,-4.013970502060113521e-01,-4.241185835572435781e-01,-2.865756877077066042e-03,3.376296306197953262e-03,-1.612041852906824198e-03,2.249308675527572632e-02
-4.128892413889850288e-01,-4.106215198839709979e-01,-3.984234756480659612e-01,-6.246601293352162937e-03,3.050569807240022160e-03,-4.216498514465394712e-03,1.949131116271018982e-02
-4.143109208559594969e-01,-4.067445639702762517e-01,-4.075067057446098429e-01,-5.245499279377747320e-03,6.121222489443503036e-03,-4.817485000482056058e-03,1.779444701969623566e-02
-4.364074270410440159e-01,-4.005873828396948610e-01,-4.148938228447138776e-01,-8.359489335872789112e-03,6.782222246824678828e-03,-1.308546452239355874e-02,4.285579919815063477e-02
-5.541388615408424645e-01,-5.058603070216948216e-01,-2.690955479684373763e-01,-5.753328466984678619e-02,6.646985615395629987e-02,-8.934289067699802134e-02,3.419801890850067139e-01
-4.556022038208752956e-01,-4.417299102791029664e-01,-3.146101655834249722e-01,-6.304035505498984185e-03,2.221683644838334803e-02,-3.025250028334595248e-02,1.498697400093078613e-01
-4.902895661723792320e-01,-2.608105630864672730e-01,-4.743946745462220282e-01,-3.964780608339354973e-02,4.430662061618103123e-03,-5.105197733698547957e-02,2.487154304981231689e-01
-4.553852611287750873e-01,-4.224669479281834561e-01,-3.541228454122418712e-01,-8.013938090690422150e-03,1.135512408829940020e-02,-4.465402083576994197e-02,1.206885874271392822e-01
-3.089686732497691768e-01,-4.319231021970449946e-01,-3.319077915604636830e-01,6.481644013475092170e-02,1.488025468084664404e-01,6.043326105758282940e-02,3.206402659416198730e-01
-2.765094047639483632e-01,-4.584702550730594961e-01,-3.473442214341826983e-01,-8.689712750798042271e-03,1.331174018860834807e-01,-5.438213882365598023e-03,2.805604040622711182e-01
-4.119627283258780470e-01,-4.314506734870858784e-01,-3.971650403511573502e-01,-8.623849432689560668e-03,1.320731137537145376e-02,-8.356794627203118289e-03,4.293073341250419617e-02
-4.285971527784273039e-01,-4.108587997746089848e-01,-4.312922348812643358e-01,-4.842938544234569320e-02,2.007306353979883620e-02,-4.824177894170594838e-02,1.248860508203506470e-01
-3.784895604632882993e-01,-4.356123579390436817e-01,-4.188573696506642241e-01,-3.840509211254360556e-04,5.607920478537836706e-03,-3.050533713476139084e-03,5.205149203538894653e-02
-3.800799484717920507e-01,-4.347161834138771330e-01,-4.178878452829523638e-01,5.065445442140648763e-03,3.592682299464005930e-03,4.316383041814395721e-03,5.020424351096153259e-02
-3.848433516731568083e-01,-4.353491121722085078e-01,-4.108073478923725541e-01,2.898354938984350031e-03,5.651268752647214608e-03,4.501246346143929905e-03,4.577581211924552917e-02
-3.816369588409956881e-01,-4.358470236874363302e-01,-4.051383015304468871e-01,6.108359249841869253e-03,3.127945902720673244e-02,9.455902231742439878e-03,7.438028603792190552e-02
-3.994779310703039932e-01,-4.200057888675742812e-01,-4.237533358098789504e-01,1.540412437224347210e-02,1.125719205946010965e-02,1.031976373356888708e-02,4.386220499873161316e-02
-4.390756664416067268e-01,-4.260414396709861773e-01,-3.923899220398444632e-01,7.575563415349873854e-03,1.114152170841194167e-02,1.525472437774051150e-02,5.462256819009780884e-02
-3.704647521105963737e-01,-4.445523195187420784e-01,-4.250636458335884105e-01,4.437953785524717011e-03,1.045041552618504455e-02,3.627163129302878822e-03,6.964981555938720703e-02
-3.962995333093619621e-01,-5.224573980039377563e-01,-3.792488654029593231e-01,1.577299796659260567e-01,1.518055097000789444e-01,8.740319238869187490e-02,4.301703572273254395e-01
-3.982350082464441998e-01,-3.996912094487821143e-01,-4.822125948043688437e-01,1.331383936122643163e-01,9.685795035188107804e-02,1.546912335751203793e-01,4.000526070594787598e-01
-3.634914138481027401e-01,-4.328309844819639429e-01,-4.174185255052511034e-01,1.217806910493098548e-02,2.299132981318083649e-02,9.046450037049281329e-03,7.907629758119583130e-02
-3.718668820911827932e-01,-4.664934757367171780e-01,-2.522783444175999978e-01,1.287853254742874452e-02,1.254620984276730855e-01,2.442588911292745135e-02,2.899681329727172852e-01
-4.146303895847790466e-01,-4.035950182777543471e-01,-4.057161509259464838e-01,1.315371220888668325e-03,1.867282986278157074e-03,2.073423996450554033e-03,1.146382279694080353e-02
-4.142845701296682948e-01,-4.078301565142292695e-01,-4.072458576085945525e-01,9.064771004318093956e-04,4.848764067217535231e-04,-9.439974166220199995e-04,7.184426300227642059e-03
-4.201356139509471177e-01,-4.086274685707594889e-01,-4.082456739456344907e-01,1.433524209582349345e-03,1.878202151528270874e-03,5.216264890052152501e-07,1.239858195185661316e-02
-4.194023833306673721e-01,-4.127142405708839612e-01,-4.056714845134359870e-01,4.149971399413700593e-03,2.238806280633286010e-03,1.443520485942455548e-03,1.464204303920269012e-02
-4.144706754056388665e-01,-4.144964548886424516e-01,-4.018522491084782211e-01,7.006600668192755448e-03,8.685028137399068704e-03,5.869741161703172054e-03,2.522853016853332520e-02
-4.070017845242615007e-01,-4.133359952011964045e-01,-4.129788866960732996e-01,9.099554349296601341e-03,7.282250595837807573e-03,5.775313032990538921e-03,2.335700392723083496e-02
-4.441066180272595920e-01,-4.309015232603821133e-01,-3.346430021934664878e-01,-3.201337724898987037e-03,-4.635802739781202941e-03,1.639059756287865322e-02,1.077606305480003357e-01
-4.145747118735042536e-01,-4.083908716100753122e-01,-4.106894237515409385e-01,9.652866894377798565e-04,1.787467042824952834e-03,-3.490214990493697316e-04,6.485001184046268463e-03
-4.048803763770930653e-01,-3.994615225811941062e-01,-4.279292746169862105e-01,3.014011126782808678e-03,-3.003079066117961878e-03,-1.342348164846244012e-03,2.729886956512928009e-02
-4.096701346907719588e-01,-4.008037802169148178e-01,-4.256308430981202706e-01,1.781492197790571436e-03,4.304051910970541767e-03,1.428590909023164665e-03,2.336852811276912689e-02
-4.317022373042471717e-01,-3.619848780736931726e-01,-4.400132791675571142e-01,6.009645448579785387e-03,8.171435059573813444e-04,1.568633369536688842e-03,7.501159608364105225e-02
-3.363180194973177661e-01,-2.932276944860609524e-01,-4.833893499394848470e-01,1.704218447234205069e-01,2.193065338428911576e-02,8.474204462759200689e-04,3.440929055213928223e-01
-4.269592968581624737e-01,-3.694255276279806988e-01,-4.382820867721481939e-01,1.488325421953659404e-02,-1.641490743559235023e-03,-3.081669626474288666e-03,6.921625882387161255e-02
-4.465834264404314191e-01,-3.655820478089205072e-01,-4.259113543726983364e-01,4.502730695496195285e-03,-2.367915767012377173e-03,1.495793333904693080e-02,7.786498218774795532e-02
-4.083827121191058729e-01,-3.940769277027724171e-01,-4.327890683539350469e-01,2.729655520218506395e-03,-1.833510606176654446e-03,-7.337382230813657182e-04,3.440248966217041016e-02
-4.314726660151163573e-01,-3.505053307961334963e-01,-4.764974664809527027e-01,3.692824073240168203e-02,6.325317350192465743e-03,1.498361678482058347e-02,1.308171302080154419e-01
-5.000193830273328421e-01,-4.912931732287709741e-01,-3.796817767954457912e-01,1.006673927401896540e-01,-7.862231324987731251e-02,-1.294204954937919205e-01,3.357117176055908203e-01
-4.459611749145574455e-01,-4.387274950576925403e-01,-3.462650196168262084e-01,-3.462420936481386269e-03,-3.950222966673862246e-03,8.905347414261919128e-03,9.793453663587570190e-02
-4.107804152242536255e-01,-4.348064259153798794e-01,-3.869663778783644092e-01,3.129431784814137949e-03,-4.014878742300118444e-03,-2.145472676592730457e-03,4.252129793167114258e-02
-4.422643385666947813e-01,-4.207883388778694278e-01,-3.455129759242963616e-01,1.709734116843100032e-02,-3.245663146893273954e-02,-4.798904955278894546e-02,1.367125213146209717e-01
-4.266292905256433565e-01,-4.411151686608708600e-01,-3.742989367378293797e-01,1.319244024919143804e-03,-2.647196116625051901e-02,-7.238292174271374578e-03,7.727257907390594482e-02
-2.845572117100289011e-01,-5.241085220762813357e-01,-4.631667194878128502e-01,1.512549906019959312e-01,9.725230952327308664e-02,4.260567007610156082e-02,3.859456181526184082e-01
-4.160337854234582022e-01,-4.303966667376019628e-01,-3.630091666998598310e-01,5.997757667883292336e-03,1.357408451857262076e-02,3.670047568191613617e-03,6.693715602159500122e-02
-4.171049651618610743e-01,-4.375836164952474072e-01,-3.625630191254317070e-01,3.129877963119063328e-03,1.438219631123810113e-02,1.914487947207103857e-03,7.191711664199829102e-02
-3.654598689433861125e-01,-4.380660766549802076e-01,-3.952521526385437411e-01,-5.607406789395440183e-04,3.505792570600033131e-02,-1.344880171018838100e-03,8.769082278013229370e-02
-3.461131062319594554e-01,-4.374814199765024170e-01,-4.477082810287678072e-01,2.420907769386897862e-02,6.045109798501441950e-03,-1.215148200667812324e-03,1.061106324195861816e-01
-4.068477930076702109e-01,-4.353089115603085979e-01,-3.927239180493726223e-01,1.337086997297057571e-03,2.702509608784032808e-03,-4.956305921600238657e-04,3.794089332222938538e-02
-4.251007491344215850e-01,-4.049971105320142595e-01,-4.159751441646218906e-01,5.810673183413519322e-03,6.799555578345591565e-03,8.141863741145066377e-03,2.725506573915481567e-02
-3.540117914809763899e-01,-4.905683775806751190e-01,-4.333866823568761628e-01,2.036591572824649615e-02,5.991005863944409704e-02,-4.907060852206083026e-03,1.618428379297256470e-01
-4.576704258398039404e-01,-4.404115775148326195e-01,-3.230011082408766332e-01,2.411110974803453832e-03,2.810811998571537476e-02,6.849050058578015632e-02,1.804714351892471313e-01
-3.744448730814835535e-01,-4.307583475415615037e-01,-4.316566837273138613e-01,3.119993522171200101e-03,-4.414493507598638705e-03,-4.033214866874869006e-03,5.795748159289360046e-02
-3.454687791377222816e-01,-4.763618914131228510e-01,-4.394960663583958871e-01,1.150735934300311653e-01,-1.088698142457421303e-01,-1.194355444572864355e-01,3.629667460918426514e-01
-2.056743474554099671e-01,-4.626002894295322410e-01,-4.797429718763613349e-01,9.901717614081624597e-02,2.964454209555266416e-03,-4.889924935228294467e-03,3.165762424468994141e-01
-3.664115373511357410e-01,-4.385523707715761055e-01,-4.169064630373155445e-01,2.504847311089816383e-03,-1.468512826629278685e-02,-1.551617766113577669e-03,6.916860491037368774e-02
-3.793243738853097069e-01,-4.189506419087835609e-01,-4.318600897730806576e-01,5.044657166052039440e-03,-3.373059633807555351e-03,-5.915329620697655152e-03,4.963768646121025085e-02
-2.054301316082112749e-01,-6.552055078264829024e-01,-6.436341551156430363e-01,-4.975104897588404629e-02,-7.726412494150247667e-02,2.310425133562168248e-02,4.734590053558349609e-01
-3.619474203310101279e-01,-4.529235339376481151e-01,-4.324685357983517053e-01,-4.850422440459266349e-02,3.911366609125006139e-02,-2.020346614167659732e-02,1.403791308403015137e-01
-3.590381333303601652e-01,-3.679014760818407614e-01,-4.490315596268352749e-01,6.492481331156628455e-02,-8.033893097822687734e-03,-8.188515228593321732e-03,1.428993046283721924e-01
-4.402141067851982337e-01,-3.612621255680250609e-01,-4.230617451915982263e-01,-1.597256561343140180e-03,3.159810672710890340e-03,-1.271105929843481010e-02,7.547003030776977539e-02
-4.017538890220904158e-01,-4.077287541934515036e-01,-4.338913610212413174e-01,1.512464343977491625e-02,1.083423987017931474e-02,1.148203127934062893e-02,4.806679859757423401e-02
-4.144698658147611403e-01,-3.933210732013425193e-01,-4.211241490572666391e-01,8.289480992288499744e-03,6.348294010272840723e-03,5.546258150097876059e-03,3.242858126759529114e-02
-4.876258812664554521e-01,-3.475134940157703634e-01,-4.904680455224139646e-01,4.771491291091519565e-02,7.034581057859959699e-03,3.440067948272657050e-02,1.748330593109130859e-01
-4.352060892137750159e-01,-3.740613111765805354e-01,-5.051070642325032889e-01,7.435329151125739944e-02,6.172485746185334132e-03,1.754959138583746941e-02,1.747066378593444824e-01
-4.188907593774909288e-01,-3.882671433422191232e-01,-4.209919747950747748e-01,3.671381899987267473e-03,7.410021312612277353e-03,4.969170199886508571e-03,3.585816547274589539e-02
-5.393914064696492261e-01,-2.460934736828223335e-01,-4.916441914807820335e-01,3.048358758164472840e-02,-3.853868302927258849e-02,1.189086308439714773e-01,3.520803153514862061e-01
-4.718542279876161150e-01,-4.448849538767484790e-01,-4.266962452509524550e-01,5.232288298674462462e-02,5.208266830079745502e-02,6.951123511754409012e-02,1.799861341714859009e-01
-4.223440048700914939e-01,-3.785850219870711686e-01,-4.197690472472584422e-01,1.864863689191233187e-02,8.426016171127525059e-03,1.735552094018932151e-02,6.299803406000137329e-02
-4.693451857052695075e-01,-2.383904426595509496e-01,-4.828511610272963051e-01,4.135815348903727762e-02,1.330636652382259384e-03,6.733110635380037956e-02,2.745523750782012939e-01
-4.001429891293555863e-01,-4.070963873167144365e-01,-4.337011035253385827e-01,5.239116462921215508e-03,2.327832452680015599e-03,3.071204045191530327e-03,3.268106654286384583e-02
-3.675091169156403659e-01,-4.160261224130064606e-01,-4.339410870817669297e-01,-5.754010824889854714e-03,-2.328934981762106025e-03,9.675346344055208835e-04,6.051803380250930786e-02
-4.108995661202635707e-01,-3.862535178055367946e-01,-4.347730472460293316e-01,-1.687411812617208018e-02,3.383276145140055738e-04,1.105656218829408587e-03,5.122476071119308472e-02
-3.239036188064505217e-01,-4.935636583327041027e-01,-5.984380977225325360e-01,-2.013931226725049484e-01,-5.338636765090085112e-02,3.239751253589222280e-02,4.369815289974212646e-01
-4.050929638494040197e-01,-3.823341747145216907e-01,-4.311929907690735808e-01,-8.190758888675068669e-03,3.130375614784350943e-03,-1.932833800691916969e-03,4.511152580380439758e-02
-4.079439196730523243e-01,-4.332712736914340890e-01,-3.963589666582774118e-01,2.602817939119129141e-03,-1.698794275852995609e-03,-8.141677058073499293e-04,3.316733986139297485e-02
-3.850681458900372944e-01,-4.266798921688346735e-01,-4.066792824966906084e-01,-2.023661585218570601e-03,-6.956926439954777032e-03,4.986021117826911625e-03,3.913265839219093323e-02
-4.142484734757082010e-01,-4.318017375968373761e-01,-3.927637239413774850e-01,-5.367179807975424113e-03,-1.379515305118760547e-02,3.680339983273144683e-03,4.295127838850021362e-02
-4.488073885467335211e-01,-3.059672385873997147e-01,-4.504885029718139200e-01,-1.829371874988229563e-02,-1.775060923661843587e-03,-7.121748327958810944e-03,1.476883739233016968e-01
-2.474847971383808687e-01,-4.474165742118109135e-01,-3.277451721416373420e-01,-6.955851125619366693e-02,-1.662993619189620242e-01,5.539760744429193806e-02,3.702109158039093018e-01
-4.495405314513643558e-01,-3.710971441649701386e-01,-4.252116881205358356e-01,4.042969216747352261e-03,3.800900301801251918e-04,-2.918400551062447570e-02,8.626360446214675903e-02
-4.562898223057516578e-01,-4.693895984518627884e-01,-3.917808380114591316e-01,-3.196454483204223124e-02,-7.200732950373857355e-02,5.277645623909597156e-02,1.793167442083358765e-01
-4.243812985921743830e-01,-3.779288332013856500e-01,-4.403693213685376251e-01,2.727537385359756275e-02,-5.069905489303470555e-03,-5.477735132591010289e-03,7.453253120183944702e-02
-4.065380109616735793e-01,-3.941158936822055647e-01,-4.348158081219973270e-01,1.864944641856362004e-03,7.381852944268673614e-04,3.701086924566963270e-04,3.630003705620765686e-02
-4.171537608172273814e-01,-3.826864160278956595e-01,-4.317535271741428926e-01,5.267854802543043072e-03,6.017806261403566004e-03,3.437590851944274158e-03,4.617044702172279358e-02
-3.825512927586036671e-01,-4.070997322396623930e-01,-4.386317226973530659e-01,8.085891514660898532e-03,1.599126558821932931e-04,-1.583743011137816016e-03,5.074150115251541138e-02
-3.512536680776682241e-01,-4.206692071589737125e-01,-4.351409945982169791e-01,2.305595271339292221e-02,-1.335598750973339584e-02,-5.262895969138965332e-03,9.080467373132705688e-02
-3.860354283894704697e-01,-4.103294820743318971e-01,-4.347374057265329106e-01,8.560858471331554698e-03,2.694060904019713980e-03,6.340929636239003679e-03,4.627284407615661621e-02
-3.850728223588170129e-01,-3.501851600119795238e-01,-4.212928999054549317e-01,5.017521848270097701e-02,2.625998273157274798e-02,3.158551883595963478e-02,1.280899345874786377e-01
-4.395484180636783367e-01,-3.385358127047058963e-01,-4.350346936460753322e-01,-1.484576534487450604e-02,4.295293670493824031e-03,-2.318720724431494809e-02,1.099884361028671265e-01
-3.937809872537370026e-01,-4.128574951080603017e-01,-4.425556667028665569e-01,1.492336415924559387e-02,7.965443925557599749e-04,1.082737428222632550e-03,4.985953122377395630e-02
-4.277847478324288688e-01,-3.886398928929705177e-01,-4.079412734331576140e-01,2.358552861460803604e-03,-5.458265013544860017e-03,-5.709669379549336954e-03,3.678560256958007812e-02
-4.872428802033011985e-01,-3.197149512854567388e-01,-4.687611173649536833e-01,2.278716333975953218e-02,-3.328050183618379114e-03,-3.230838513557657277e-02,1.733016371726989746e-01
-4.381104058135299462e-01,-4.071469174391630363e-01,-3.995917989188694230e-01,3.087598860278156776e-02,3.264618772477707875e-02,7.248732825577852701e-02,1.518890708684921265e-01
-4.329247999030217953e-01,-3.560086113428273524e-01,-4.347880638872437253e-01,6.040687323022580352e-03,-5.707789875514770496e-03,-7.196288563437468026e-03,8.015892654657363892e-02
-4.304697470412472970e-01,-3.652975472381403965e-01,-4.160564814994847094e-01,-8.770491691565475076e-03,9.152135065335902098e-03,-1.297645102651292029e-02,6.710460036993026733e-02
-4.230756007625809945e-01,-3.888340528802158302e-01,-4.206170946299129798e-01,5.671760876514973099e-03,-6.113106045145403136e-03,-4.515468473586433870e-03,3.693412989377975464e-02
-4.234511140115503336e-01,-4.205440531870842102e-01,-3.943845554761144512e-01,8.281334527923747690e-03,1.389348825619679019e-02,1.717431401880735800e-02,4.938134551048278809e-02
-4.184000937436496148e-01,-4.310867439761086883e-01,-3.800914814790690710e-01,-6.554995893063131351e-03,5.780506038932067131e-03,-4.128784498948927240e-03,4.893665388226509094e-02
-3.825047844739415392e-01,-4.385336409826413595e-01,-4.100721499871753939e-01,-1.164242339645846398e-03,1.220584544318125894e-02,-3.986610098239244671e-03,5.341645702719688416e-02
-4.197630369524228966e-01,-4.304857230322605144e-01,-3.752076082958050174e-01,5.924626276801876236e-03,8.429237564206978894e-03,3.312078634270197979e-03,5.412287265062332153e-02
-4.169424216263922789e-01,-4.374455946896470548e-01,-3.609669542789499252e-01,3.282024037872110969e-03,1.415611803982385133e-02,2.828094350743885505e-03,7.320385426282882690e-02
-4.146880045721917929e-01,-4.088122747179833150e-01,-4.110023421641675889e-01,-6.520225197796511094e-04,-1.454156251732358985e-03,-1.667889877142505475e-04,5.844220984727144241e-03
-5.823210705796810771e-01,-2.099769996673631900e-01,-5.297519207641403494e-01,9.487684948642377547e-02,-2.211014781206204621e-02,6.190601084469612297e-02,4.022415876388549805e-01
-3.297810043881616027e-01,-4.501275883542833478e-01,-4.481420061939921373e-01,6.817090920038008060e-03,3.421766387868177377e-03,1.647423850021730377e-03,1.201289743185043335e-01
-4.033513195603286028e-01,-3.986189388331333183e-01,-4.306382442300224489e-01,3.184374648944578862e-03,2.846332312149197144e-03,1.215391127444080590e-03,3.090729564428329468e-02
-3.840947420810499335e-01,-4.062873062512791233e-01,-4.331989133934590064e-01,8.293788049237084750e-03,4.822273600704224394e-03,4.725797241368820227e-03,4.644464701414108276e-02
-4.005385469050284364e-01,-3.813606528250945149e-01,-4.406413452146472065e-01,4.478947775601311437e-02,-1.949490143081953957e-04,1.660662984134028426e-03,9.365785121917724609e-02
-4.054498610147960758e-01,-4.021758512484505665e-01,-4.275309276969680439e-01,1.344574485824492471e-03,-8.751535955963875724e-04,-7.329886015091666498e-04,2.408151514828205109e-02
-3.610057718718808761e-01,-4.438536213427768939e-01,-4.233520175757730652e-01,4.771326877676108219e-03,-2.110385660538696348e-02,-2.988899990023394151e-03,8.376624435186386108e-02
-3.041696402628493168e-01,-4.614441780000749782e-01,-4.700807713980253988e-01,1.793556763873577903e-02,8.573170032225308976e-03,-1.093609191062057048e-02,1.664708107709884644e-01
-3.965077479744539835e-01,-4.116998562231437564e-01,-4.370232029446648458e-01,1.626558417731692116e-02,2.774599958306470625e-03,-1.488166739913023180e-03,4.560958221554756165e-02
-4.140580379563140179e-01,-4.106873023762935282e-01,-4.077090331774606002e-01,2.198198010035329504e-03,-8.553868359783857716e-04,-7.108866719333062877e-04,6.962633691728115082e-03
-3.760645102445767662e-01,-4.757342781428677281e-01,-4.645202096977975037e-01,5.292586911819653628e-02,-5.856113472352809241e-02,-2.012239589427575887e-02,1.698484867811203003e-01
-4.408898384287395777e-01,-3.778053000213248969e-01,-4.171897504431865134e-01,-3.953874239919781650e-04,-1.858128712362396625e-04,4.518465216691879872e-03,5.575003474950790405e-02
-4.074967464332032718e-01,-4.400890117318707606e-01,-3.818630793344525709e-01,1.074999830466839270e-04,8.708873878983733677e-03,3.724608020852567414e-04,5.275209993124008179e-02
-4.483909581294477920e-01,-3.984444971994919316e-01,-4.024375974572197423e-01,-3.249324753945768713e-03,4.465782128011993105e-03,3.219972415527638798e-02,7.425040751695632935e-02
-4.369908595168909282e-01,-3.497672120455693756e-01,-4.386898207909633030e-01,9.736443057283467040e-03,7.728393528533755025e-03,8.272035789386622540e-03,9.180359542369842529e-02
-4.366574796375854439e-01,-3.334083459338648137e-01,-4.357286165271979095e-01,2.675414020385142796e-02,7.171412262494339038e-03,2.033229068457859112e-02,1.187736839056015015e-01
-4.383145500551965390e-01,-3.973532683714282032e-01,-3.996905451005360876e-01,2.453708189144551775e-03,5.478388027146114184e-03,1.854015096018665765e-02,5.221937969326972961e-02
-4.027039698043618499e-01,-4.121935356057782052e-01,-4.141844964825125430e-01,-1.336613568292496345e-03,1.426961074077267135e-03,-3.806383614582167264e-03,1.295542623847723007e-02
-4.096141031882688521e-01,-4.058493860342311521e-01,-4.176061111118334890e-01,-1.264353761471375065e-03,3.547772597127898594e-03,-1.570738133780097369e-03,1.257340144366025925e-02
-4.136182820546616679e-01,-4.077154209087239245e-01,-4.076707283989864372e-01,-6.174536253680906576e-04,1.865785232292354635e-03,-3.646475043338757212e-04,6.862630136311054230e-03
-4.174616470453712536e-01,-4.071093079540342718e-01,-4.081591740127613055e-01,-1.386630904365001964e-03,1.996080070404749641e-03,-4.157538836420994217e-04,1.075380761176347733e-02
-4.199783869495108957e-01,-4.057224166751211558e-01,-4.023510702822006846e-01,-3.847914733712138810e-03,1.487327189054849777e-03,-3.767262709870254547e-03,1.887572742998600006e-02
-4.161227740494550242e-01,-4.123306414305934475e-01,-4.055188771086528088e-01,-4.412325509762710270e-03,2.179668529296435731e-03,-1.798908035075524620e-03,1.299917045980691910e-02
-4.276276501517867756e-01,-3.769438625283406674e-01,-4.411754762316377199e-01,-2.403495477033583752e-02,2.583437689242876374e-03,-1.210727722611918203e-02,7.504574209451675415e-02
-4.233817185504231695e-01,-3.827120036376673307e-01,-4.262345258208216636e-01,-7.376266801623873430e-03,7.753047182498874410e-03,-9.023847800141062553e-03,4.864189401268959045e-02
-4.034891218538182445e-01,-4.228945366401148931e-01,-4.023605545806352435e-01,-5.820801339994135723e-03,7.492313432051708223e-03,-5.593955112130582011e-03,2.763459086418151855e-02
-4.223910708139744785e-01,-3.793242986722166199e-01,-4.398904875265450820e-01,7.723774640053015020e-03,2.908629318152800686e-04,-5.765269042352965051e-04,5.563129484653472900e-02
-4.122665102256666825e-01,-4.231216715998514788e-01,-3.920831415871874337e-01,7.384666272522127060e-03,-4.470755146831073210e-03,-3.657216251473991396e-03,3.174878284335136414e-02
-4.214250264963211312e-01,-4.091768525443197357e-01,-4.034273746569789765e-01,1.955106220537354555e-02,-1.779866342403019219e-02,-2.810291730781674935e-02,6.870172172784805298e-02
-3.790172926858653701e-01,-4.377471593483405754e-01,-4.224194676328927311e-01,1.567939644031757923e-02,-2.311831998905978028e-02,-5.744121787458473898e-03,7.227604836225509644e-02
-4.361027614666478369e-01,-3.230662673972556354e-01,-4.485943203739377605e-01,3.317761193160842503e-02,-3.704638765627111629e-04,-1.566135089003841806e-03,1.328733265399932861e-01
-4.554656004789811585e-01,-3.479215895419133786e-01,-4.581757546681682891e-01,1.310741784193066306e-01,-5.107499462622459158e-02,-1.559604491392907744e-01,3.797404170036315918e-01
-4.377612699649167105e-01,-3.605271436845899347e-01,-4.199223904218882808e-01,1.603096821204840622e-02,-6.979491108010330708e-03,-2.215925001291541019e-02,8.541532605886459351e-02
-4.088383280071279935e-01,-4.137784554766136824e-01,-4.076633478107890562e-01,-7.313335518322258829e-04,6.411917877225749339e-04,-1.862871236824563534e-03,6.696176715195178986e-03
-4.094323575693527562e-01,-4.149318316934895168e-01,-4.104590010789508914e-01,-7.325581464170301000e-04,6.425949952459598848e-04,-4.874300431438709225e-04,5.404968746006488800e-03
-4.109655600253921404e-01,-4.140681053119529276e-01,-4.090815461971686884e-01,-1.500831614513329759e-03,-3.134906386147439674e-04,-4.591794679756162553e-04,5.167725495994091034e-03
-4.065994909470070362e-01,-4.098547693344524734e-01,-4.136283699088577070e-01,-4.962126230411533900e-04,8.278363425686090932e-04,-2.018772965003987584e-03,7.220939733088016510e-03
-4.255231401890807730e-01,-4.076876255421237882e-01,-4.150526277104883421e-01,-4.391277183678862772e-03,6.993033307332420859e-03,-9.271108931077996079e-03,2.652184292674064636e-02
-4.082550689502373320e-01,-4.076077379865520878e-01,-4.135380516267310735e-01,-7.031999919153145888e-04,8.237109758797649768e-04,-2.015332350559982839e-03,6.888573523610830307e-03
-4.144510697688446599e-01,-4.044806336177034223e-01,-4.263180224791344730e-01,-1.073381165911091797e-02,6.959095021752053495e-03,-7.760061490720089952e-03,3.209578990936279297e-02
-4.062639187843555266e-01,-4.184932299616163087e-01,-4.071672352571163445e-01,-3.872530566548642098e-03,3.086145813337220264e-03,-3.433633186740022054e-03,1.575617305934429169e-02
-4.377407858862141232e-01,-3.954050089474948071e-01,-4.153966819534770649e-01,-5.675280348270150994e-03,-7.358536333255377877e-03,1.466889202660702669e-02,4.743650183081626892e-02
-4.045488758894469350e-01,-4.421250604299868381e-01,-2.595520426172656103e-01,-6.245975064168787783e-02,-1.269355240714000466e-01,1.018344863538962475e-01,3.450171053409576416e-01
-3.862318274901089254e-01,-4.512476384976299437e-01,-4.256988350752708428e-01,-6.812494420350082014e-02,-8.416670969337469721e-02,4.254647195992994346e-02,2.093429118394851685e-01
-4.337994206204261460e-01,-5.683026078427867445e-01,-2.581609053224511174e-01,8.454236068688308903e-02,-1.621821262926776142e-01,-6.745249432127070621e-02,4.319314956665039062e-01
-4.297226015359721374e-01,-4.282625903134447132e-01,-3.944686368239925245e-01,-1.046978035192964659e-02,-1.298075428802552243e-02,1.499703900611945064e-02,5.198639258742332458e-02
-5.862672613403188127e-01,-3.863053575151454977e-01,-4.678442591593502398e-01,-9.452430060017388835e-02,-6.162199893657514110e-02,1.781492311882625357e-01,4.046436250209808350e-01
-4.218359215608539770e-01,-4.310210899445567900e-01,-3.803066980353367321e-01,-1.142920892917100376e-02,-4.693527063806017183e-03,1.095860359396328559e-02,5.485196039080619812e-02
-4.025852198862265308e-01,-4.008699146050157536e-01,-4.311053611004071473e-01,-9.237993597787938840e-04,1.417518529056654378e-03,-5.663865411113240371e-04,2.957722358405590057e-02
-3.990144993082040403e-01,-4.099526429941179884e-01,-4.228218886641879060e-01,-1.578478399192804376e-03,1.656744617541004803e-03,-4.446985860291923290e-03,2.238442189991474152e-02
-4.020457723502641190e-01,-4.051352384138277030e-01,-4.274929807662998238e-01,-1.449544959357851066e-03,7.876022848127244968e-04,-8.500059937731807482e-04,2.426559105515480042e-02
-4.050125385812139989e-01,-4.036942600781899260e-01,-4.244147831075094079e-01,-8.362934324529070320e-04,1.979713034520150759e-03,-9.539551544040482866e-04,2.050240337848663330e-02
-4.020857085179181389e-01,-4.220964082048319077e-01,-4.115019401516139541e-01,-8.257293826469915693e-03,-7.385767259800714475e-03,6.560494720879384879e-03,2.824864163994789124e-02
-3.997134454918735980e-01,-4.044034258014415073e-01,-4.277717532730834771e-01,-2.834278923119838787e-03,1.528285064407094128e-03,-3.249840333821271340e-03,2.721143886446952820e-02
-4.072026334959403249e-01,-3.855943770523307945e-01,-4.282202955957112867e-01,-6.907588602529994744e-03,4.818435180107667748e-03,-2.255303352928257534e-03,3.988570347428321838e-02
-4.395848725289477343e-01,-4.195534545606849908e-01,-3.753878486984519314e-01,8.275362523799172304e-04,3.171852605359843811e-04,4.816926483673520526e-03,5.751975998282432556e-02
-4.446878973466314999e-01,-3.416462514598308520e-01,-4.702016353521636938e-01,7.808057379227535677e-02,8.907584270516952230e-02,1.625183396000509650e-01,3.677327632904052734e-01
-4.188041529453313538e-01,-3.241104973186842986e-01,-3.092878700657301083e-01,7.977463019132838284e-02,8.675930500868067607e-02,1.343318853131399426e-01,3.261884152889251709e-01
-4.360536008687373455e-01,-4.330918216108554653e-01,-3.451947669537426266e-01,-7.191884740255539976e-04,2.217678318320343445e-03,-4.832397684417000933e-03,8.989637345075607300e-02
-4.358589453650955070e-01,-4.146875400239946607e-01,-3.630328757471081302e-01,-5.129472886928268180e-03,2.689780398389850745e-03,-1.489790168380408786e-02,7.054442912340164185e-02
-4.050609877236764356e-01,-3.924073742546123622e-01,-4.789382277896839790e-01,7.930868289966926110e-02,2.363361747864090989e-03,2.401176420651406768e-02,1.648296862840652466e-01
-4.159179834731869807e-01,-4.196077252336901653e-01,-2.579549031191525899e-01,4.625211547869197137e-02,-9.819752099166668968e-02,-8.499016491951431884e-02,2.873409390449523926e-01
-4.884227408823370031e-01,-5.336144882469733286e-01,-2.200922788514395878e-01,5.414664232398555543e-02,-3.329336433078447510e-02,-9.925825614392727592e-02,3.575575053691864014e-01
-4.478739070527998911e-01,-4.382570971146100280e-01,-3.435407702700991051e-01,1.793785156057091943e-03,6.665241675133104504e-03,2.353921101995911855e-02,1.085345447063446045e-01
-4.710455145132834698e-01,-4.801981284517212734e-01,-1.737486697548554226e-01,2.945529342954604501e-03,-4.401565624002592297e-02,3.941196772042461494e-02,3.188860416412353516e-01
-4.501504176046148831e-01,-1.830251304526530343e-01,-4.705656528491214963e-01,-7.998098751984766830e-02,-9.164757159609095843e-03,1.904016171375477393e-02,3.126604557037353516e-01
-3.937063792553057162e-01,-4.428665912649194514e-01,-4.130129927323393235e-01,4.795865503993456194e-03,1.664365391203243699e-02,4.069693088802995434e-03,5.282117426395416260e-02
-4.409583876886173370e-01,-4.422590491574853733e-01,-3.668443391229661565e-01,1.372607041223301546e-04,3.395089523043953641e-03,-1.430309051709964009e-02,7.898957282304763794e-02
-4.338508749882675208e-01,-4.409327925510430068e-01,-3.623149019433627993e-01,2.581957725859916186e-04,3.618098199381988497e-03,-3.857481945115372526e-03,7.588328421115875244e-02
-4.094878948918090344e-01,-4.352345546125467868e-01,-2.509406109196105072e-01,6.219664597710902743e-02,1.243203122727425808e-01,1.036373753519275465e-01,3.465201258659362793e-01
-4.836703290527409327e-01,-6.325528492399299374e-01,-3.743226451060885918e-01,5.919925336316294445e-02,1.809330395278236914e-01,6.659569957009739416e-02,4.152490794658660889e-01
-2.928425921235453533e-01,-4.459428878898945570e-01,-3.321201908705066486e-01,4.342581207393168136e-02,1.486825381706238236e-01,5.578348724974572376e-02,3.166722357273101807e-01
-4.389967994773347204e-01,-4.252456712852218379e-01,-3.964845631056234110e-01,1.935768458348945814e-02,2.689701921857426750e-02,3.298953164552086148e-02,8.928173780441284180e-02
-4.203145904409802402e-01,-4.401296749868184310e-01,-3.761956597637930999e-01,-2.806972861287311679e-04,6.395733076142267638e-03,-1.712804177674036353e-03,5.783676728606224060e-02
-4.419118864546395797e-01,-4.354885254235150160e-01,-3.468441676452633238e-01,3.936803893022812820e-03,3.034056172899669227e-03,1.152199759825378415e-02,9.455610811710357666e-02
-4.980981575464321631e-01,-4.979982230753363659e-01,-2.276350120328313464e-01,1.681633737403302395e-02,1.812216493315573244e-03,-3.091425664269100565e-02,2.772157788276672363e-01
-5.238307207479354632e-01,-4.534659850690028193e-01,-2.739043043162482371e-01,7.874059255844816085e-02,-9.275903488465273017e-02,-9.289124644172182255e-02,3.465944528579711914e-01
-4.802307507003409914e-01,-3.912744758174887538e-01,-2.828347704776865701e-01,-3.231212879428432827e-02,3.193453779928992486e-02,-1.471251671081460766e-01,3.169351518154144287e-01
-4.329566211651097452e-01,-4.207348346069456069e-01,-3.251355928798638217e-01,1.275136817328960566e-02,-2.943778062244012741e-02,-3.634551272456142818e-02,1.323159486055374146e-01
-4.683386297613507110e-01,-3.157110788433036275e-01,-4.732758659370733256e-01,-7.864009088005413650e-03,1.173839013883488935e-02,-1.923039284951012437e-02,1.605659574270248413e-01
-4.383692894386992389e-01,-4.355212810770973109e-01,-2.964665924997055835e-01,5.837270114481175496e-05,-1.477268532368787059e-02,-2.110331080438652973e-02,1.474147289991378784e-01
-4.951981674646909748e-01,-4.176706652422459420e-01,-3.823951220459965161e-01,1.901250375298433812e-02,-9.863845640925912595e-02,-1.711147790082888087e-01,3.579155802726745605e-01
-4.372976081358005418e-01,-2.630590321030381595e-01,-6.672504985113548726e-01,1.523252248887026483e-01,-7.480763719878317846e-04,1.832661395477281491e-02,4.403660595417022705e-01
-4.040529764170727733e-01,-4.763154830449947696e-01,-2.546411881300237323e-01,-4.489192983694156175e-02,9.723348022212068009e-02,-7.768147416669171634e-02,3.014212250709533691e-01
-4.283067002593465289e-01,-4.044858108441712896e-01,-4.048121981954372339e-01,-1.500731745630071168e-02,2.230845388303547006e-02,-1.993406853462568323e-02,6.261412054300308228e-02
-4.437730561152365416e-01,-3.842424379601226403e-01,-4.319645469403484705e-01,-1.484562192661524269e-02,1.137531966870870652e-02,-2.258432499876825497e-02,7.456469535827636719e-02
-3.859577374997014143e-01,-4.297663215707601125e-01,-4.197244838161523495e-01,-4.931991290041312301e-03,-3.619291954515988993e-03,8.509382804171815307e-03,4.369910806417465210e-02
-3.854717185974641525e-01,-4.277464631396260542e-01,-4.085388787086610685e-01,-2.239780639530510823e-03,-9.602473716021280720e-03,6.289455637330901815e-03,4.188596084713935852e-02
-3.441602216322421359e-01,-4.377348387037638955e-01,-4.427370783094158324e-01,-1.008453387181386732e-02,-3.116370030576375450e-03,3.103781378094323546e-03,9.804306924343109131e-02
-4.057679371324720563e-01,-4.157463050313990327e-01,-4.096377807128034898e-01,-2.190201971127604674e-03,-2.498195339445114307e-03,2.758313008365742211e-03,1.148336008191108704e-02
-3.943712453242267379e-01,-4.305486859165601476e-01,-4.134365179086515463e-01,-7.614632391996388992e-03,-5.328322160744779386e-03,9.811854183707925670e-03,3.912157192826271057e-02
-4.251679895080909266e-01,-4.383549870538832605e-01,-3.689824384622876208e-01,-3.967860759662850123e-03,-1.150076796983828462e-02,6.593214054023728218e-03,6.816214323043823242e-02
-2.291425424329219807e-01,-4.670752589168048474e-01,-4.895127026132209958e-01,5.544095248664174941e-02,-4.948442336976283107e-02,-1.716955529674409758e-02,2.826758325099945068e-01
-4.006810846598548026e-01,-4.363816489367652318e-01,-3.980390475308789866e-01,1.269094466405115392e-03,-5.409451169878651960e-03,1.245623622733862913e-03,3.838106244802474976e-02
-4.243694073173692738e-01,-4.392156210903223612e-01,-3.686216320583805550e-01,-2.115764347597109095e-03,-1.202854466826947487e-02,4.821516204026630309e-03,6.836004555225372314e-02
-3.515346158918215558e-01,-4.314238968548069764e-01,-4.087939811493327968e-01,2.942376744675384570e-02,-4.076355800968192722e-02,-1.967090708292120599e-02,1.175994649529457092e-01
-4.121206838121812543e-01,-3.979767465954220929e-01,-4.121806971448848667e-01,-5.129488851904243085e-03,-5.743745760448940550e-03,3.411063998641297029e-03,2.034001611173152924e-02
-4.566407921129139735e-01,-3.665426356253562723e-01,-4.252714645926204406e-01,-1.318704438435233106e-01,1.090175210831714203e-01,-7.372839512000277373e-02,3.322753608226776123e-01
-4.176640207545336825e-01,-3.779496132520506757e-01,-4.352019541389644530e-01,-4.416138284190490593e-03,7.968045998812800903e-04,-7.315033666034971181e-04,5.141340941190719604e-02
-3.947938506694519956e-01,-4.492910296775815548e-01,-2.947384742503462163e-01,-2.941241008143340510e-02,1.259057658484994124e-01,-5.122550655811478060e-02,2.765103280544281006e-01
-4.064603652625827235e-01,-3.910934662156846930e-01,-4.509421624018849495e-01,-3.663872775047194441e-02,1.162934640269573834e-02,-1.220436435663017731e-02,8.819338679313659668e-02
-3.985874724684095871e-01,-3.357880589228547930e-01,-3.853772602930244373e-01,-8.304150847588140372e-02,7.448964966692482592e-02,-9.552117303173814078e-02,2.607592046260833740e-01
-4.170068576592061982e-01,-3.733805799574699824e-01,-4.234273898125316404e-01,-3.689572361359929470e-02,2.507151985026253790e-02,-3.122017033398342967e-02,1.054433658719062805e-01
-4.153100765814216055e-01,-3.324156765204292485e-01,-4.375000868374884777e-01,-4.742083634729691438e-02,2.690294198894312150e-02,-3.983426234808253724e-02,1.512650698423385620e-01
-3.899608349579476441e-01,-4.052549108418461721e-01,-4.747120554107995272e-01,-9.148805621545236244e-02,2.489385819200322369e-02,-3.279442207610479276e-02,1.905681341886520386e-01
-4.039508479858075485e-01,-4.029628936082380042e-01,-4.203435004031698674e-01,-6.303875371681146381e-03,-6.084923854959845869e-03,6.977316287157166001e-03,2.573391795158386230e-02
-4.222692317038966858e-01,-4.187295309671387189e-01,-3.890099909454296512e-01,6.882407191633280533e-03,5.068999282191449275e-03,3.247962502723771103e-03,3.538097441196441650e-02
-4.192934285423287610e-01,-4.141046341419113430e-01,-3.943942477613554543e-01,1.174797278915992033e-02,2.358642135315788813e-02,2.192461793255295888e-02,6.358274072408676147e-02
-4.400120534270753891e-01,-3.437383772463084020e-01,-4.660205660883354195e-01,-2.901825626761247653e-02,-8.031362967954071286e-03,1.740960639589762826e-02,1.267989277839660645e-01
-4.810436160891045088e-01,-3.795864664162111324e-01,-3.679316704019425788e-01,1.214900188894268845e-01,1.156896350774671844e-01,1.170469862066677025e-01,3.703290224075317383e-01
-4.399843573631803118e-01,-4.018768109634520136e-01,-4.050661632112138588e-01,-1.765707247303855603e-03,6.918340619438160199e-05,2.274179844550751686e-02,5.386793613433837891e-02
-4.397247742289521200e-01,-4.119810752772449791e-01,-3.878024739972684709e-01,1.182577703954559118e-03,3.011738680418352219e-03,1.107723936606647142e-02,4.924067854881286621e-02
-4.524206148706884090e-01,-4.390353805496015061e-01,-3.309005362964655417e-01,2.740831057073966903e-02,7.297402800768444664e-02,4.271668836221102078e-02,1.924139708280563354e-01
-4.161485070583320067e-01,-4.567637353824565150e-01,-3.896164026146957116e-01,4.501777429444779599e-02,5.170382082635307380e-02,4.874867885038070003e-02,1.570353955030441284e-01
-4.516034061412516620e-01,-4.793964123358343543e-01,-3.291861722222852449e-01,9.082160906836868330e-02,7.617819908911735438e-02,1.718039408358436881e-01,3.871247768402099609e-01
-4.155281993870663659e-01,-4.458569077616126863e-01,-3.791571503922541719e-01,8.929460563720835811e-03,-3.320449189200257167e-02,-1.055469394703426045e-02,8.501056581735610962e-02
-3.822086021566607483e-01,-4.311214007068201459e-01,-3.164076795572863254e-01,-8.166020216963178202e-02,-1.192074002215636336e-01,9.571274832988461989e-02,3.163224756717681885e-01
-4.204562876523075809e-01,-4.395958012520825298e-01,-3.833472511118148351e-01,5.419050370194713334e-03,-4.466369240322824556e-03,-3.119882575621920826e-03,5.129127949476242065e-02
-3.905299106190494585e-01,-4.315919696019657192e-01,-4.058134761022028636e-01,9.969639012113950226e-04,-1.950535112809213129e-03,-1.193462113062001336e-03,3.620461374521255493e-02
-4.929376832359812499e-01,-5.484043687310145021e-01,-2.296635983793435531e-01,4.702063178654614095e-02,-1.223151933867211855e-01,1.800297077349799491e-02,3.734714090824127197e-01
-4.191204815582811882e-01,-4.772508924110464568e-01,-2.309936468188570624e-01,-4.094286941948717742e-03,-1.149716212195196069e-01,2.013424793669288046e-02,3.010458648204803467e-01
-4.525383881007060127e-01,-3.432798651224659436e-01,-4.493894793554149558e-01,-1.123798905745774547e-02,2.426255390778496793e-03,-4.927783367622120062e-03,1.098757535219192505e-01
-4.163832895196479811e-01,-4.937983503047503886e-01,-3.452926670751106930e-01,-1.211758151096392067e-01,-9.126309751247135837e-02,1.278612832338754668e-01,3.669244647026062012e-01
-2.744458506715296564e-01,-5.234266799625403310e-01,-3.226362496024904880e-01,-4.365790935114732124e-02,-1.941701493608059548e-01,4.101735834904102901e-02,4.197460412979125977e-01
-4.231313844915721156e-01,-3.986721012461331703e-01,-4.102822577032453899e-01,1.024964124572073313e-03,4.889032295328584257e-03,2.205569253557583455e-03,2.320623397827148438e-02
-4.313690076223477554e-01,-4.011402658894400175e-01,-4.020508066233163258e-01,1.953019511192770471e-03,2.789567099627227216e-03,6.380226067244730744e-03,3.231085091829299927e-02
-4.373075591091002412e-01,-4.164247151550639625e-01,-3.578161089275572193e-01,-1.354500183116646213e-03,-2.315142823555130409e-03,1.712958779148444563e-02,7.743918895721435547e-02
-4.332719821409666272e-01,-4.016555272449041092e-01,-3.994640312548990435e-01,3.226304526152767166e-02,3.415342589081400704e-02,3.182679806640030529e-02,1.036079525947570801e-01
-4.322381651971155536e-01,-3.959261594630311132e-01,-4.011836495688834714e-01,-7.704678648605117058e-04,1.154385809827857077e-03,-4.650667302191780102e-03,3.501367941498756409e-02
-4.345380323392842303e-01,-4.023158626687690642e-01,-3.957549317732060867e-01,1.774166215742672623e-03,-5.759612699910209108e-04,-4.524178845851254717e-03,3.694000840187072754e-02
-4.325698710111468559e-01,-4.016598935861702691e-01,-4.001742108508304918e-01,5.205629082916276955e-04,-2.841982830518790734e-04,-1.135392669542155918e-03,3.175655752420425415e-02
-4.328183340382189548e-01,-3.961298347678667287e-01,-4.013199099566778227e-01,2.304830173756315279e-04,-6.581950140925414607e-04,-4.563021140443348361e-03,3.530565649271011353e-02
-4.305668565051810059e-01,-4.014589225500054259e-01,-4.028438175478429306e-01,5.992295972988823972e-04,-1.260456519961886124e-03,-8.571545496888873438e-04,2.858191728591918945e-02
-4.407779564410891915e-01,-4.240866478785818017e-01,-3.568992435037301458e-01,-2.585558748300131448e-03,5.012222944529109644e-03,-2.283747506604165076e-02,8.703026175498962402e-02
-4.361861285814416234e-01,-4.087614900327910528e-01,-3.922936943679712352e-01,-2.746417701862152293e-03,7.286151217853186488e-04,-3.156083265614886054e-03,3.910276293754577637e-02
-4.312921122497826443e-01,-4.028168580458697523e-01,-4.001533410431348248e-01,5.633945620303523185e-04,-1.383251008246797289e-04,-1.272025013972729853e-03,2.999404072761535645e-02
-4.326763201758405675e-01,-3.617692390240324074e-01,-4.398946733984699375e-01,-3.955494202888005378e-03,3.276405188239771022e-03,-6.000821793453102633e-03,7.601922750473022461e-02
-4.342047639841606355e-01,-3.807828529011806906e-01,-4.051856040610195553e-01,1.833643560828770395e-04,-2.146297793200585644e-03,-8.696859681083352403e-03,4.885263741016387939e-02
-4.432564178308817104e-01,-4.484774208408936480e-01,-4.183384448777093811e-01,-4.454656544335713897e-02,4.985492046035264191e-02,-5.388598556522551652e-02,1.513244509696960449e-01
-4.247047245361950663e-01,-4.119514705799657284e-01,-4.504035276109309427e-01,-5.668386886633249022e-02,4.634723427616577185e-02,-4.811669159673254148e-02,1.554986983537673950e-01
-4.603650963777913274e-01,-3.746235331265304613e-01,-4.262089928018711338e-01,-1.152396210867425493e-03,-1.031966678783045443e-03,-2.533724328038180693e-02,8.673387020826339722e-02
-4.266734488142189807e-01,-3.887942162857745965e-01,-4.193992856200431385e-01,-5.836095170507264902e-03,6.220534905638449436e-03,-3.482795128386245980e-03,3.829967230558395386e-02
-4.087014719039422372e-01,-3.939698381695410090e-01,-4.333663155932854782e-01,1.447895465020950130e-02,1.419874379010566210e-03,4.235163282332679059e-03,4.333021119236946106e-02
-3.765584561412521625e-01,-4.181464910272431057e-01,-4.387700422783292753e-01,5.136282409629628655e-03,-7.460026684778935406e-04,-4.754212557395586132e-04,5.562445893883705139e-02
-2.857262108103948428e-01,-3.685115095683974551e-01,-4.265355020388593710e-01,1.243087201895990146e-01,-8.209044153017117096e-02,-5.930838196143824181e-02,3.035632967948913574e-01
-4.007179005089176460e-01,-4.211651298192848336e-01,-4.010546060838847127e-01,5.581168773459618468e-03,7.734582988792602747e-03,5.513558403431135721e-03,2.784664183855056763e-02
-4.159637119339157363e-01,-4.784129118714862128e-01,-3.625867997587786662e-01,1.370648375687884002e-01,1.047985273744606594e-01,1.050205624777554025e-01,3.639763891696929932e-01
-4.295108905233450125e-01,-4.024834792013633478e-01,-4.033980675673344285e-01,1.997000183060724382e-02,1.190991445973978678e-02,2.280738183133018682e-02,6.236240640282630920e-02
-3.980317594317114849e-01,-4.093843648169660510e-01,-4.100026611459898218e-01,4.506755870780979750e-03,4.538028746864607860e-03,7.062921830097952831e-03,2.021512947976589203e-02
-4.501603099459963175e-01,-4.285388816175866311e-01,-3.976265538315354453e-01,1.156609977866359870e-02,1.670836208875327300e-02,3.448505599176646813e-02,8.305369317531585693e-02
-4.247397743121012481e-01,-4.078464386799200425e-01,-4.016840258894626703e-01,3.271315446075374455e-03,4.725329100100660734e-03,6.628031594304629320e-03,2.565827220678329468e-02
-4.580430884127369984e-01,-3.445426638994422142e-01,-4.296864559646769721e-01,1.987071101700397732e-02,2.853339477842617433e-02,5.114419788682505325e-02,1.481287926435470581e-01
-3.251442178715117648e-01,-4.031578929553955581e-01,-5.046166191468720585e-01,-1.209360883810339238e-01,-9.245251733344776734e-02,6.570901213525161266e-02,3.267525136470794678e-01
-4.228566695031547029e-01,-4.440039418580475350e-01,-3.535136750304597175e-01,-4.881123878786700065e-02,-5.725024038382171832e-02,5.088953403078962795e-02,1.774026155471801758e-01
-3.152993366800420638e-01,-5.227782940306859860e-01,-4.713606763072208938e-01,-3.601962709599383639e-02,-1.614198114149644758e-01,5.412235842625135601e-02,3.547847270965576172e-01
-4.447557258241082723e-01,-4.117436781591604644e-01,-3.521405537430685739e-01,-8.866891530158290541e-03,-1.232121953826422270e-02,3.809679083864792037e-02,1.079599335789680481e-01
-4.491404029612978133e-01,-3.390636483731747086e-01,-4.456159200793881614e-01,-5.766574152007068396e-03,8.883404925951492908e-04,-8.798698940073056488e-03,1.098896190524101257e-01
-3.780389212790572495e-01,-4.590096286865061326e-01,-4.326777381672953782e-01,8.342379446820260072e-04,-2.534254146812924338e-02,1.490741514894791263e-04,8.394283801317214966e-02
-4.227516249289817174e-01,-4.070194244930425143e-01,-4.082289510612484018e-01,-3.765128596515120250e-03,-2.771151824250913959e-03,2.762004768689652057e-03,1.784345880150794983e-02
-4.160488579584136759e-01,-4.191048434893286379e-01,-4.311200982691370531e-01,-6.484160216677276045e-02,-6.291629249427033166e-02,5.835133241152311301e-02,1.867986619472503662e-01
-3.918781253947719034e-01,-4.178615908728307571e-01,-4.127354188316196271e-01,-5.357833882941091114e-03,-5.666504262157795631e-03,7.534331317182390610e-03,3.034745156764984131e-02
-3.748303353819276706e-01,-4.224847935000029531e-01,-4.477882300142058680e-01,-7.362883940027961649e-02,-1.250598261141663142e-02,1.733804904747292958e-02,1.474844813346862793e-01
-3.010338613114535433e-01,-4.965857970855439563e-01,-5.179445865499644475e-01,-3.979302678823741501e-02,-4.881524447535937061e-03,-5.556518725230118888e-03,2.186048477888107300e-01
-3.832975340454986557e-01,-4.184235406867142792e-01,-4.216710039168574675e-01,-5.341611623150620096e-03,-6.691668714588367220e-03,1.015659294294259801e-02,4.344946146011352539e-02
-4.039429318093008536e-01,-4.135543804332467155e-01,-4.179120603583493243e-01,-8.161583300923914291e-03,-6.378934668571102293e-03,7.830843113653888909e-03,2.567344903945922852e-02
-4.438377949357327212e-01,-3.423963532993850034e-01,-4.429523260603951407e-01,-2.905117075232148665e-03,2.995507777381908529e-03,-3.211027882737279085e-03,1.014125123620033264e-01
-4.046263463155126971e-01,-4.277319201549726890e-01,-4.028921809131542631e-01,8.924444290327109919e-04,-1.225771851230174521e-03,-9.830508017090386352e-04,2.422271296381950378e-02
-3.907946628323090144e-01,-4.358023647690977831e-01,-4.074394835804249215e-01,2.542403659853907563e-03,-1.949496651691461080e-02,-1.149918438977111379e-03,5.212597921490669250e-02
-4.053133616479011603e-01,-4.203682032390943513e-01,-4.053046129346800641e-01,5.910051627432618164e-04,2.367255359115036991e-04,-9.054932631880981044e-04,1.518077030777931213e-02
-4.009638540894724379e-01,-4.278579030832515007e-01,-4.023717707582854519e-01,2.119313782702298213e-03,-1.095724018589970886e-03,-1.009201762545818958e-03,2.659961022436618805e-02
-4.242341529983419401e-01,-4.027958058554930165e-01,-4.136626511015903951e-01,4.416191511901649408e-02,-3.474956690555060235e-02,-7.394980606888632013e-02,1.619378477334976196e-01
-4.325799459949963288e-01,-4.085062690631972582e-01,-3.862542724055968990e-01,-5.181236649734773450e-03,-1.387120648554500402e-03,6.158599346741878110e-03,4.254966229200363159e-02
-4.194037680153771541e-01,-4.122218214480817267e-01,-3.965579642563749618e-01,-5.687177991317832366e-03,-2.281893624130448394e-03,3.933154107388391052e-03,2.384315431118011475e-02
-4.155340110915817231e-01,-4.291932102214046640e-01,-3.926762784565389630e-01,-6.142697877394087853e-03,-8.674670676757144025e-03,1.863062763090396175e-03,3.702200576663017273e-02
-4.277327725929745417e-01,-4.076622900724963250e-01,-3.850562466631674563e-01,-5.943067773744109376e-03,-2.641423027678858719e-03,6.525237663596034597e-03,4.027653485536575317e-02
-4.282837854312038783e-01,-3.905340429773040967e-01,-4.133972039906265716e-01,-1.182037836123539694e-02,-4.494485190214147705e-03,1.394736786315044566e-02,4.634696617722511292e-02
-4.220143033678194766e-01,-4.000956023498026259e-01,-4.093240211485411617e-01,-7.950841897395664448e-04,-4.562461914880141557e-03,1.721314092508461659e-03,2.089381776750087738e-02
-3.336734208799869150e-01,-4.970369589972908342e-01,-4.623003480394051179e-01,-1.662189034702014553e-02,1.723617795899956839e-01,-5.646033764927625015e-02,3.489090204238891602e-01
-4.391987138641402777e-01,-4.272999090210814477e-01,-4.177650501755085788e-01,-4.090979994856561164e-02,4.951537205902391270e-02,-5.520491864863476261e-02,1.478676795959472656e-01
-4.142660385433244441e-01,-4.268371000491010259e-01,-4.043893510882504150e-01,-5.341741545104557523e-03,9.195171665995835117e-03,-6.421332754575577451e-03,2.902925573289394379e-02
-4.136574516617604891e-01,-4.948098649065612031e-01,-3.807599612363134489e-01,-5.324200414441226416e-03,8.202760162774472286e-02,-3.759459367530630647e-03,1.750734001398086548e-01
-4.326280168732649645e-01,-4.392873350292222923e-01,-3.862385227019539125e-01,-1.306903767100142146e-02,2.057360028320871087e-02,-1.334087675596510800e-02,6.943637132644653320e-02
-4.249418572356021828e-01,-4.281114308374404098e-01,-3.818646705202956015e-01,-7.820060200176993243e-03,9.494884433785518232e-03,-8.219110013915120749e-03,5.156361311674118042e-02
-4.266186337110575710e-01,-4.183878470293126983e-01,-3.878011701614345608e-01,-7.902258935762043052e-03,8.845992650650882569e-03,-3.036953265470942326e-03,4.128927364945411682e-02
-4.074706730493378726e-01,-4.333446613593134877e-01,-3.855459828728189930e-01,1.302451165583614354e-03,8.125528048953166091e-03,1.305713255185006819e-03,4.388292133808135986e-02
-3.962299932057601337e-01,-4.361602625821280332e-01,-4.152469640897921699e-01,8.359399779925551222e-03,1.360475868614256963e-02,4.456289952442769181e-03,4.495777562260627747e-02
-3.883621342966639967e-01,-4.293587118305858819e-01,-4.102702032422580469e-01,3.340750424695551613e-02,3.464104703810015617e-02,1.202726115481573058e-02,9.297678619623184204e-02
-3.615608791698230462e-01,-4.381402959312638568e-01,-4.308515047005135323e-01,8.274428478480821275e-03,-4.795547819522445396e-03,-4.513168066978781590e-03,7.546428591012954712e-02
-4.031160978841612508e-01,-4.283580765126813183e-01,-4.000826730320162228e-01,2.542245889874708911e-03,5.287381656199937122e-03,2.182216590229722145e-03,2.899091690778732300e-02
-4.181402771976163169e-01,-4.199509792426929788e-01,-3.874857922050051751e-01,7.973693282578462813e-03,3.988887203324971431e-03,6.673216364106074328e-03,3.702094778418540955e-02
-4.253205217293185569e-01,-4.314611832956162241e-01,-3.745892274410566603e-01,6.987472899478774230e-03,6.685686532368030448e-03,3.287378665042900178e-03,5.688484758138656616e-02
-3.506456389070831126e-01,-4.476641136237174967e-01,-4.345974765350422153e-01,-2.847424891247704853e-03,-5.282088766489742224e-03,2.562662186513016025e-04,9.178146719932556152e-02
-3.526193612427717117e-01,-4.357626959024032409e-01,-4.183370533874650188e-01,-1.814287204598620529e-03,-2.451799606690647712e-02,5.127102163269168719e-04,8.707296103239059448e-02
-3.827591659225348941e-01,-4.391410085864688173e-01,-4.203069037546924847e-01,-2.838881469309867140e-03,-4.582669238608307744e-03,4.063494158647077206e-03,5.107299238443374634e-02
-3.419936197398267264e-01,-4.481983544503964079e-01,-4.264415071133360047e-01,5.712056187059209346e-03,-3.292326722478292056e-02,-7.324306848737224644e-03,1.138102337718009949e-01
-2.710056771095821770e-01,-5.108343879284378275e-01,-4.126782399831676607e-01,8.010862352777000858e-03,-1.311010163689691199e-01,2.437824446833570038e-03,3.088439106941223145e-01
-3.831887919214909677e-01,-4.198442635348039742e-01,-4.306388571691114331e-01,-5.360361405837090615e-03,-4.952295159080750964e-03,6.825835563836595184e-03,4.642606899142265320e-02
-3.797564854825438152e-01,-4.402066299594234455e-01,-4.191493740381981858e-01,-1.139000023584119722e-03,-2.676428394093769564e-02,8.994487429656056621e-04,7.056920975446701050e-02
-1.642053435330124989e-01,-4.688445483387681523e-01,-4.698139220713156705e-01,1.492048148677942339e-02,-1.522969946929822460e-02,-1.453887229474163040e-03,3.073619008064270020e-01
-4.034109945584289370e-01,-4.206362850916111618e-01,-4.131841665576783673e-01,-1.344929193905154436e-03,-1.220173680045255962e-03,5.335741290856451519e-03,1.786569878458976746e-02
-4.751981112752325931e-01,-5.457764342415856174e-01,-1.528546255625576611e-01,-6.156924622713192546e-02,-1.226918177828304202e-01,2.428094986828071081e-02,4.358187019824981689e-01
-3.601583790045810862e-01,-4.414942060551393932e-01,-4.423841237134356064e-01,-1.007720153287517198e-02,-2.281492183404422100e-02,1.055458797434256565e-02,9.428203105926513672e-02
-4.376604903051676265e-01,-3.086955583770928380e-01,-2.896067574483848772e-01,5.532194536921234557e-02,6.266342609870141633e-02,1.492859615547120766e-01,3.275342583656311035e-01
-4.671755142900548274e-01,-4.217804484166340351e-01,-4.228578422429166705e-01,4.605770873718420533e-02,5.449155541738926606e-02,6.434326996796806142e-02,1.723515540361404419e-01
-4.353621727083418214e-01,-4.022918258741968733e-01,-3.693734472732201901e-01,3.026704470424192075e-03,4.117093910175523112e-03,2.294111662471343474e-02,7.016486674547195435e-02
-5.352918146653573572e-01,-4.372133304572093926e-01,-2.623084061973914860e-01,6.326092468705923899e-02,1.142357729122000370e-01,1.156721970834275193e-01,3.855657875537872314e-01
-3.111548363991656352e-01,-4.433442815622321564e-01,-4.537870979040529162e-01,2.040817412484166246e-02,-2.859240393814369355e-02,-7.536076556521208517e-03,1.511157453060150146e-01
-3.944129134826049876e-01,-4.107528593850447440e-01,-4.189569421941179428e-01,-4.659137956415584578e-03,2.606887635404649475e-03,-6.144833903491999684e-03,2.582909911870956421e-02
-3.946380488907330619e-01,-4.057304083416939933e-01,-4.238280040178190045e-01,-3.303068984412482756e-02,3.113724187712440042e-02,-2.857172291930601751e-02,9.634314477443695068e-02
-3.776783823977278853e-01,-4.324607485822222763e-01,-4.017087022261099927e-01,-5.295628032007226437e-04,1.068944723727883669e-02,-5.917594101581230386e-04,5.105693638324737549e-02
-4.051480716684166539e-01,-4.171119352457941520e-01,-4.396983755220134626e-01,-2.815873041648866981e-02,2.269498748024974602e-02,-1.476008943155140626e-02,7.416881620883941650e-02
-3.942862873013265879e-01,-4.354597365851293755e-01,-4.054429740755631784e-01,-1.234127653264410936e-02,-3.826522097669027289e-02,1.291630622692046398e-02,8.191740512847900391e-02
-4.841019337944358902e-01,-4.918074558510471261e-01,-3.240148528327008171e-01,-9.392617792617585087e-03,-5.328129974948662972e-02,4.800156739597606637e-02,2.064330577850341797e-01
-3.739042592202055371e-01,-4.282698600917256293e-01,-3.842291369834812120e-01,-2.934095478216764211e-02,-5.665480461451740529e-02,2.516247459798943292e-02,1.288888305425643921e-01
-4.113136136955959365e-01,-4.086903721728667449e-01,-4.104451377480916041e-01,2.389735709567675052e-03,2.780214288649488462e-03,2.225508335296194629e-03,7.780576590448617935e-03
-3.559231906142250601e-01,-4.329735483384660188e-01,-4.258930232395323756e-01,-3.458316216188431214e-02,6.006989785091473855e-02,-1.664650138108830779e-02,1.438256502151489258e-01
-3.636424335379899175e-01,-4.317367692831288184e-01,-4.386401382411191374e-01,-4.348292429352204093e-03,5.595173234666865961e-03,-4.798636902656204344e-03,7.330960035324096680e-02
-4.118962270239066026e-01,-3.874179649147134752e-01,-4.397722823966115913e-01,-1.672678814217738036e-02,8.376885098345599389e-04,-8.321558652063766267e-05,5.385257303714752197e-02
-4.250040373950374484e-01,-4.007574495835179995e-01,-4.600341285512329903e-01,-1.699767695219657759e-01,-8.058528361371025683e-02,4.713800750932466838e-02,3.398361504077911377e-01
-3.310406848169190619e-01,-4.398647948759091264e-01,-4.361744317494405387e-01,2.713792666886218757e-02,-2.758381040152372773e-02,-6.838173022603980661e-03,1.268344968557357788e-01
-3.475891898140779923e-01,-4.350345888414474671e-01,-4.424645958180096761e-01,-9.417132697335373406e-03,3.924653028703642063e-03,-4.283512805196573216e-03,9.337517619132995605e-02
-4.239829827019254704e-01,-3.776816145790331536e-01,-5.808363050688389873e-01,-2.014941944128876283e-01,-7.990905962632527393e-02,7.966503326643006866e-02,4.404599368572235107e-01
-2.684784067977231681e-01,-4.809677760664611279e-01,-4.328582646404108281e-01,-5.092829461813853931e-02,-1.233357160741079678e-01,2.772827661083666906e-02,3.049036562442779541e-01
-3.387629989776695383e-01,-4.809752969877029161e-01,-4.369344446134479365e-01,-5.827084689932670626e-03,-7.232977744641508333e-02,-3.529955644292917614e-03,1.781426966190338135e-01
-4.171865537242048783e-01,-2.924502280524018949e-01,-3.550456553303342755e-01,7.043156429891316017e-02,-6.414335192696715704e-02,-1.199012498884334949e-01,2.863970398902893066e-01
-4.162440946972776890e-01,-4.111771004934579588e-01,-4.040738218597562659e-01,8.623469877536503458e-03,-6.085389288428414041e-03,-7.051072195137898270e-03,2.440214529633522034e-02
-4.331210334417571195e-01,-4.594484390116987393e-01,-4.038281879647272476e-01,1.345603493538134743e-01,-7.184135971071005378e-02,-1.296922961851281753e-01,3.501223921775817871e-01
-5.390214033832965157e-01,-3.925106011525066330e-01,-3.676451715263588937e-01,2.072263385417137324e-02,-9.788973730345620905e-02,-1.571196633286272015e-01,3.603082001209259033e-01
-4.345341854887567190e-01,-3.852185082589470455e-01,-4.228439817350201912e-01,1.216151482919890919e-02,-7.474058230904726333e-03,-1.943606897515975929e-02,6.112905219197273254e-02
-4.102718318821895194e-01,-3.655528335445949462e-01,-4.288241070652478726e-01,1.633847268386785789e-02,-1.075330669869533490e-02,-9.695762817549309631e-03,6.784818321466445923e-02
-3.779181822803980850e-01,-4.892413299244064429e-01,-4.373359581746669722e-01,2.165388384935701405e-02,-6.661099280365974373e-02,-1.214600016889564454e-02,1.564259082078933716e-01
-4.083719601182694836e-01,-3.998440468630892752e-01,-4.289309693730271600e-01,1.453219332126047189e-02,-9.909722278434578494e-03,-8.839432397699647018e-03,4.281695932149887085e-02
-3.919631184790489664e-01,-5.007785079931541539e-01,-4.414758271988987182e-01,2.798651470111800446e-02,-6.945500313883230803e-02,-2.065140459218765129e-02,1.643341779708862305e-01
-2.822716404133039925e-01,-4.667614949722836970e-01,-3.380270206200198801e-01,4.836268498509765923e-02,-1.418101270452842844e-01,-3.688595515318495582e-02,3.135088086128234863e-01
-4.506563291935994919e-01,-4.449482744194997452e-01,-3.404269203192271664e-01,-2.795290756471315897e-03,2.415468714631668554e-04,-2.287146014165837658e-03,1.076718047261238098e-01
-4.053635839117211703e-01,-4.260444802743981185e-01,-4.024587083908319207e-01,-4.721538310853598888e-03,-6.394041286932579740e-03,5.254883815228997279e-03,2.772335894405841827e-02
-4.200960685133253159e-01,-4.182520064785441027e-01,-3.872383675623147781e-01,-8.354924837802989862e-03,-7.357808432508743633e-03,4.963907874971813794e-03,3.831690177321434021e-02
-3.821777818785326297e-01,-4.415961371749038133e-01,-4.257207076852718153e-01,1.248516166965184943e-02,-2.519021507519174016e-02,-9.984371244189625683e-03,7.422681152820587158e-02
-4.538284485259411749e-01,-3.737969898389214007e-01,-3.961835325407487840e-01,-4.531129804878243975e-03,2.143116458997299835e-03,3.783854222101570158e-02,9.739200025796890259e-02
-3.737127797551950681e-01,-4.467079495662946709e-01,-4.304687974012055274e-01,6.965662018021593835e-03,-2.765932142581759012e-02,-1.792710744917086008e-03,8.280665427446365356e-02
-4.430864442298597661e-01,-4.365685634130225257e-01,-3.393911293198600410e-01,-1.657049601051131024e-03,-1.144963425150307898e-03,1.542801436966879242e-02,1.041420623660087585e-01
-4.603017843457372638e-01,-2.328478577329285981e-01,-4.033758803052203135e-01,-5.139459729458904780e-02,-2.542761744314508271e-02,1.065050368640509532e-01,2.931240499019622803e-01
-4.358455442721965722e-01,-4.340075931275134691e-01,-3.376519457739817209e-01,-8.175234249048108498e-03,-1.904421583392795075e-02,2.045569256321539894e-02,1.095844060182571411e-01
-4.424602274637927657e-01,-4.280612083238078958e-01,-3.873348500107903214e-01,-7.583368441773346257e-03,-6.644818083142329211e-03,1.776937486017756557e-02,6.086561456322669983e-02
-4.052914394752656913e-01,-3.814472729262550210e-01,-4.443569596222893270e-01,2.803197148257492027e-02,-5.684916824500103535e-03,-1.237796186298027908e-02,7.707214355468750000e-02
-3.735608867261094868e-01,-4.248165626663607530e-01,-4.484540684240857500e-01,2.676995169862243784e-02,-1.182629150107441726e-02,-1.084842758756613887e-02,8.555683493614196777e-02
-4.223919511800661719e-01,-3.668114036631365815e-01,-4.401777539317597854e-01,1.082165820632010299e-02,-6.409218636118847214e-03,-2.461048232773650583e-03,6.990569084882736206e-02
-3.670051973234781939e-01,-4.213834716802992153e-01,-4.329667477650141483e-01,9.051096669159600788e-03,4.502749866629510676e-03,6.588886468075478078e-03,6.448161602020263672e-02
-4.059187959263666490e-01,-3.784555507268189678e-01,-4.374558182307137222e-01,8.717627678812327890e-03,-4.212487211124830294e-03,-2.305985974783552033e-03,5.396389216184616089e-02
-3.944377085150375106e-01,-3.797993713449491771e-01,-4.304811546843467784e-01,2.699409702903986935e-02,9.774916794026537042e-03,1.037567940322927859e-02,6.954625993967056274e-02
-3.133865255330338662e-01,-4.436049015610953328e-01,-4.730316526861141346e-01,-3.975168002523787880e-02,3.499005456552010951e-02,1.643450378554881094e-03,1.734251081943511963e-01
-3.691674307174874214e-01,-4.488355949681245294e-01,-4.218705215356914340e-01,-1.810998020279741289e-03,3.222848020294856453e-02,1.336888495728316088e-03,8.976134657859802246e-02
-3.988738551503129282e-01,-4.306783595178896307e-01,-3.945052764710205162e-01,7.084215765647604822e-03,1.205467929789030314e-02,7.131622096636830270e-03,4.368793591856956482e-02
-3.821391102525565353e-01,-4.580904059325681121e-01,-4.301153647211981013e-01,1.190904659698266248e-02,2.883442589088074104e-02,1.096000044838935268e-02,8.778709918260574341e-02
-4.046299571289285191e-01,-4.546134093387484421e-01,-3.791869770595549527e-01,1.248317147321551836e-02,2.676965020549140067e-02,1.124869813176540556e-02,8.610662072896957397e-02
-3.967480717874934948e-01,-4.358902074668186688e-01,-4.000408061429661655e-01,-4.534809833657355710e-03,9.343845276685407153e-03,-5.339768556472258842e-03,4.269917309284210205e-02
-3.952734327697125516e-01,-4.308246577630535645e-01,-4.081349524099551762e-01,2.084150982655141610e-03,2.524268156646978893e-03,3.823516757847049766e-03,3.237391263246536255e-02
-4.476131714422972863e-01,-3.569378660377351409e-01,-4.210920238974626972e-01,4.319572187775809480e-03,5.121632178825493570e-03,5.873223185808698621e-02,1.303980946540832520e-01
-4.001858731789004753e-01,-4.319601926391251623e-01,-4.022980870788488428e-01,-8.552146925983861690e-04,1.787031137483980053e-03,6.067262342870648374e-05,3.096353262662887573e-02
-3.884543063763898352e-01,-4.285734407542586832e-01,-4.096183216432336405e-01,-2.311742255694162768e-03,5.629305797002982087e-03,-5.275589726742727428e-03,3.745629265904426575e-02
-4.043823748887428460e-01,-4.274470924247424919e-01,-3.998037577691370692e-01,-2.812231389173272707e-03,2.386219282800893134e-03,-1.271535322754653585e-03,2.653691545128822327e-02
-3.200523238507748669e-01,-4.809179745489252089e-01,-4.831924902852713366e-01,-3.413873256410540624e-02,3.695915922908844797e-02,-6.965120213581008773e-03,1.843601316213607788e-01
-4.342331892175342878e-01,-4.056354871941791895e-01,-3.824690145593359070e-01,2.570765844294486350e-03,-1.731758362040479319e-03,-7.634727484422504720e-03,4.712443798780441284e-02
-4.364860933134478427e-01,-4.329999041929770698e-01,-3.805983184814861198e-01,4.364137806695207733e-03,-1.073003655114229335e-02,-4.548187184734766089e-03,5.835544317960739136e-02
-4.168685128975149201e-01,-4.374304722686871982e-01,-3.655849060803351702e-01,3.275745266412221756e-03,-1.463978235036876227e-02,-3.829333370718959306e-03,6.947263330221176147e-02
-4.333556369186588042e-01,-3.612329203107734199e-01,-4.322452611034287018e-01,-8.088998297650685371e-03,5.645479640701991583e-03,-6.364099094700478160e-03,7.440599054098129272e-02
-4.269659707512833968e-01,-3.685842619235411011e-01,-4.232200993032212422e-01,3.628211902205005692e-03,-7.006363878355825400e-03,-1.447791822683098910e-02,6.339838355779647827e-02
-4.852492252683063834e-01,-3.409287976506993334e-01,-4.158349419343772002e-01,-2.299684716248536973e-02,-1.404741310879332843e-02,4.969133192756941542e-02,1.587925404310226440e-01
-4.436302367472659269e-01,-4.114088268066517506e-01,-3.972947349920932236e-01,1.099615396037647522e-03,-1.156959200407099275e-03,-1.534875008127483363e-02,4.905709251761436462e-02
-5.076614289502429100e-01,-5.215721734782085006e-01,-2.795023002811952706e-01,-1.206123105792755550e-02,4.356936191701506200e-02,-1.741407195398652630e-01,3.905511796474456787e-01
-4.793170980679467563e-01,-4.594658335280059624e-01,-2.094291760992200990e-01,-3.856537336812714597e-03,3.248642025635288966e-03,-8.153224641546788498e-02,2.964704930782318115e-01
-4.675442548188120107e-01,-4.916984399163365493e-01,-3.422317094144631811e-01,1.086213664358085494e-02,-6.397553032269082118e-02,-4.037262214640123525e-02,1.919267773628234863e-01
-4.349321234735818997e-01,-4.299732823071681365e-01,-3.496801954376495547e-01,5.747363322870131797e-03,-1.601601589371437137e-02,-5.740628580862937834e-03,8.852813392877578735e-02
-4.782093031528990568e-01,-4.795217691913551405e-01,-1.680533091236174892e-01,-1.251237861430126372e-02,1.026161374021441032e-03,-4.230889745639144356e-02,3.200757801532745361e-01
-4.529477899282041697e-01,-5.077742296925454868e-01,-2.742806429418616077e-01,7.697925341443800917e-02,1.499014748073642656e-01,3.403697176068239127e-02,3.652230799198150635e-01
-4.469729270627743611e-01,-4.462940867290237090e-01,-3.498968251376127769e-01,-2.431849605753317548e-03,1.143045475769750678e-02,-8.241295820036422437e-05,9.883349388837814331e-02
-3.941400260528010180e-01,-4.322304179742068042e-01,-3.890811788466318477e-01,3.270657381347496281e-03,1.446205865715943263e-02,3.581506276434733536e-03,4.865377768874168396e-02
-3.951705880570957063e-01,-4.395720695581394888e-01,-3.861415841125157566e-01,4.967534860434720881e-03,1.603609571814408261e-02,6.327776353761123494e-04,5.745097994804382324e-02
-4.323307663132935907e-01,-4.363359586761525466e-01,-3.638003922839936899e-01,5.435535972385460365e-03,6.350460843191300248e-03,6.224827096222019553e-03,7.288893312215805054e-02
-4.487305615456012031e-01,-4.473349573705341364e-01,-3.060262679067926039e-01,2.933675009637081777e-04,8.734671653615706105e-03,2.728425579291026207e-02,1.504318416118621826e-01
-4.334536189217365609e-01,-4.259270212526614086e-01,-3.147902540575623354e-01,1.095805570068929952e-02,-1.842210576695113913e-02,-3.984980407328649055e-02,1.392368227243423462e-01
-4.805019013177929676e-01,-3.622795029800801592e-01,-2.702969452861608279e-01,3.267699820106781394e-02,-4.570064390226175749e-02,-1.259627023958833081e-01,3.006335496902465820e-01
-3.831575575111751397e-01,-3.264941009831504592e-01,-3.232674623334029773e-01,-1.075958434459663299e-01,1.041618656439404628e-01,-1.409290226465954587e-01,3.609246909618377686e-01
-5.375699317086127804e-01,-4.994318208975548901e-01,-3.211300380927441522e-01,-9.005458629697658812e-02,1.604416308782292688e-01,-1.876630312356295516e-01,4.972448050975799561e-01
-4.237058750526546680e-01,-4.121036027620879616e-01,-3.901791556744833023e-01,7.657774069758991990e-03,-4.787063583112336450e-03,-3.790559498329547968e-03,3.402124345302581787e-02
-4.311401379791834354e-01,-4.080671950723268604e-01,-3.955140057701054257e-01,2.988603588690048798e-03,-1.478308573734175846e-03,-1.748646685019144675e-03,3.197040781378746033e-02
-4.286195395279797649e-01,-4.047562050655038046e-01,-3.828204339340740003e-01,3.375541825938856936e-03,-1.875106451872434301e-03,-7.356774441231929418e-03,4.220420122146606445e-02
-3.960202125464365452e-01,-4.554091810572993282e-01,-3.489223465267954905e-01,4.750260389305369785e-02,-1.246260519611138567e-01,-7.101995690058385269e-02,2.775577604770660400e-01
-4.098013109890742411e-01,-4.059342324981103367e-01,-4.175456916422514153e-01,2.225645669084815384e-03,-3.242994964191727239e-03,-1.321196073716305805e-03,1.251103822141885757e-02
-4.308678399635231249e-01,-4.028623784701506616e-01,-4.031818950786033029e-01,2.097424813470635981e-03,-2.435318891251809018e-03,-5.974580256724952229e-03,3.022476658225059509e-02
-4.452480526570788966e-01,-2.217194087708042050e-01,-4.242195756427319386e-01,-7.033494074289692310e-02,-2.736110936004166813e-02,9.106782634066151738e-02,2.960975170135498047e-01
-4.163199798463675938e-01,-4.048791603033745079e-01,-4.051069416269279522e-01,1.425393423999826627e-03,-2.494493701151322303e-03,-2.511336906541172288e-03,1.311569288372993469e-02
-4.235936772842298637e-01,-4.019739419771836131e-01,-4.054888021177426305e-01,1.123556963841701277e-03,-3.283973936081117061e-03,-2.283561599987438996e-03,2.134388498961925507e-02
-4.320646729037433964e-01,-4.053477163624976676e-01,-4.041207465342629424e-01,3.204951559830972099e-03,-3.153932569834927858e-03,-4.968180125477318632e-03,2.971174195408821106e-02
-4.077576373328539727e-01,-4.372514929451517540e-01,-3.921887758484893793e-01,-7.163695034227182375e-04,-2.778707750199720106e-03,1.886718016364898488e-03,4.008547216653823853e-02
-3.906022346799151168e-01,-4.279122742531576984e-01,-3.958307365762497310e-01,6.457065153384597238e-03,-1.621326008999785656e-02,-6.957129378121234241e-03,4.778280109167098999e-02
-4.155079922561248362e-01,-4.396582900807386451e-01,-3.873027657294067505e-01,4.564466476753435004e-03,-7.260348373904938930e-03,-4.035560209445432020e-03,4.826421663165092468e-02
-3.839231699205704063e-01,-4.083075096780002800e-01,-4.299860538358862838e-01,-6.153910205396480489e-03,2.405913239523666067e-03,-4.067722209792785752e-03,4.211636632680892944e-02
-4.039630466136664433e-01,-4.223073860091959841e-01,-4.035654802849278910e-01,5.187261542571416917e-03,-7.511976245727062032e-03,-5.585295036538357946e-03,2.622145973145961761e-02
-4.035645414256078811e-01,-4.294029170861404232e-01,-3.938854313274752772e-01,4.825254913014841857e-03,-5.407257289790532231e-03,-2.961576633718189955e-03,3.457277268171310425e-02
-4.028417047890078262e-01,-4.310984726206905093e-01,-4.019087907913631574e-01,1.032065104902415726e-03,-6.693712925616773432e-04,-5.275418417448633421e-04,2.882795408368110657e-02
-3.950737680143481256e-01,-4.315760250044303747e-01,-4.082568065716926098e-01,1.567343837716209456e-03,-1.710028674422325867e-03,-3.395069621817523378e-03,3.279814496636390686e-02
-4.101634494465530856e-01,-4.263444087716596886e-01,-3.936495586486522535e-01,5.231171198474884702e-03,-5.522946715288561820e-03,-4.262907470794979198e-03,3.209149464964866638e-02
-4.033651151072604191e-01,-4.308397240701460351e-01,-3.985889366766991460e-01,2.391399602956267596e-03,-3.241896080238512636e-03,-1.058656746316771237e-03,3.099899925291538239e-02
-4.022933258979078941e-01,-4.266159516741321878e-01,-4.050996972390535356e-01,7.554986299268161764e-04,-1.166169089464206112e-03,-7.530422665442904279e-04,2.320993132889270782e-02
-4.052324804192897201e-01,-4.235931954263553179e-01,-4.040798964144496352e-01,2.052678592173896345e-03,-4.540813314095635883e-04,-1.978985315847255468e-04,1.931277103722095490e-02
-4.317224066693146622e-01,-4.351719089056310663e-01,-3.478691290756720234e-01,5.879378511068220937e-03,-5.068650468223699461e-03,-1.165890002976848264e-02,8.900049328804016113e-02
-3.514913732450441475e-01,-4.463699408960183912e-01,-3.810941807827559757e-01,5.478246220554938879e-03,-5.838651729414106456e-02,-3.261417042787526088e-03,1.319791525602340698e-01
-3.596928820149938311e-01,-4.875715215681273862e-01,-3.354368912695727678e-01,3.328142970444396276e-02,-1.313510336979960835e-01,-6.017490955585044071e-02,2.932378351688385010e-01
-4.196076019170186799e-01,-4.295142629456042416e-01,-3.753096075052843039e-01,-7.428419716908917989e-03,1.023388635899434053e-02,-3.532751695362152614e-03,5.492250993847846985e-02
-4.440164256056492453e-01,-4.322177383866203093e-01,-3.599103183383146609e-01,-2.355230541054752474e-03,2.411784457252926644e-03,-6.039074457048207618e-03,7.977598160505294800e-02
-4.194687159710407953e-01,-4.291030326192619149e-01,-3.690532999765777644e-01,-9.328828305933636877e-03,1.101045015603455655e-02,-6.737511199011111257e-03,6.229932233691215515e-02
-4.217441819438410011e-01,-4.186223747780770110e-01,-3.863131202550603716e-01,-7.629360258016758961e-03,5.827112369807354621e-03,-3.326985237284661289e-03,3.826474398374557495e-02
-4.411754753983702093e-01,-4.435359234588069355e-01,-3.499727507950691763e-01,3.726525741345730527e-03,1.197135388093723517e-02,3.875984332373582936e-03,9.516017138957977295e-02
-4.421994592673151314e-01,-4.196411682136794163e-01,-3.794928195712966024e-01,-1.210206374269208609e-04,-7.071308083074533471e-04,-4.809844823856501000e-03,5.565422028303146362e-02
-4.269216574966731015e-01,-4.399769418226442408e-01,-3.837303314357171646e-01,-5.500653590902682133e-03,1.969994364784204144e-02,-1.185303506967156327e-02,6.539361178874969482e-02
-4.288447801959089922e-01,-4.101438865930321365e-01,-3.885135099163250505e-01,-5.070429569861449257e-03,2.482853953838739473e-03,-4.432057218520068891e-03,3.710329905152320862e-02
-4.358627090845905161e-01,-3.969421083759490099e-01,-3.809124901672825136e-01,-9.256286106565814187e-03,9.999293599976647601e-03,-2.618137492142079067e-02,7.077451050281524658e-02
-5.813943795722660290e-01,-2.485792543037573243e-01,-4.439461548163189941e-01,4.146508685781895298e-02,4.045194582655647908e-02,9.157965375190880997e-02,3.451676666736602783e-01
-4.036838273935456356e-01,-4.011913495399891949e-01,-4.310971471654163611e-01,5.615025141128581962e-03,2.877634140505143552e-03,2.567416855148585073e-03,3.106818906962871552e-02
-4.121868717641460900e-01,-4.048641253110387139e-01,-4.178071107140124973e-01,1.513955512307101894e-03,4.464053423859980912e-03,1.049740236062560519e-03,1.401180401444435120e-02
-3.419262371495933595e-01,-5.000795814356772118e-01,-3.491301834855905506e-01,-2.853294159386000201e-02,-2.241408145564237064e-01,8.184891438830509125e-02,4.440523386001586914e-01
-3.961462365772832617e-01,-4.430843510872110036e-01,-4.106200770007910616e-01,2.968703028243529531e-03,-1.428252946960158198e-02,-1.667724466919466185e-03,4.878585040569305420e-02
-3.535513253461401995e-01,-4.111720035573309118e-01,-4.232548097023066114e-01,-4.457341771646224776e-02,-3.459852411201182892e-02,2.528211333226945343e-02,1.250258088111877441e-01
-3.818837484067679755e-01,-4.811389412260053122e-01,-3.087335264726875916e-01,-4.307270150178081104e-03,-1.425841101456607474e-01,2.006382882286110447e-02,2.910620272159576416e-01
-3.968430898963603570e-01,-4.302380389493228874e-01,-4.012607264463701195e-01,6.975453430256773517e-04,-4.260986585618725848e-03,-1.945256428859678480e-03,3.247293084859848022e-02
-4.496282691973705337e-01,-4.347699078033711584e-01,-3.576577835229569069e-01,-2.187501488616756112e-03,1.022047238026669875e-03,6.631873022648363154e-03,8.638428896665573120e-02
-3.998041172270467847e-01,-4.227277490885708033e-01,-4.097392795793319276e-01,-2.045095803866854405e-03,1.428286771909766757e-03,-4.147523421414106917e-03,2.160378359258174896e-02
-3.871803967554068304e-01,-4.092049634534821734e-01,-4.285462744920278122e-01,-6.253800459532644906e-03,2.348656167825013616e-03,-4.927742099560087317e-03,3.862484171986579895e-02
-3.905230291473973936e-01,-4.231591442409909365e-01,-4.112529789109271583e-01,4.541009260464816746e-03,4.159369068565793234e-03,6.875885384671616592e-03,3.277039155364036560e-02
-4.135417106869836990e-01,-4.283155196507303364e-01,-4.041493968186888885e-01,6.232996709474659773e-03,9.356680691371164343e-03,6.150144571826469606e-03,3.062527067959308624e-02
-3.894760599022397130e-01,-4.241791971414853868e-01,-4.195509987656059203e-01,5.066832361070134141e-03,3.277801979152810807e-03,6.245358055475970505e-03,3.593575954437255859e-02
-3.975518873082048432e-01,-4.381270423051331075e-01,-4.118129737449763295e-01,-5.214393777100031352e-03,1.200105841383566734e-02,-3.835030191778487745e-03,4.276498779654502869e-02
-3.602246341902430871e-01,-4.389121302140233105e-01,-4.170798766363232324e-01,1.987720973643660165e-03,1.679332029259723857e-02,3.489384424787358389e-03,7.645175606012344360e-02
-3.761521614800117930e-01,-4.412342635446882544e-01,-4.187799280712384831e-01,2.053101513865051957e-03,6.536991489495566285e-03,1.171320046356747434e-03,5.851034447550773621e-02
-3.921488118901854669e-01,-4.359517207542465966e-01,-4.076563695269587173e-01,7.546688224308417507e-04,3.745172919798565609e-03,-1.072252516954904766e-04,3.903492167592048645e-02
-4.040418084596031356e-01,-4.304907256364347012e-01,-4.013716200344061846e-01,2.498755470890529767e-03,7.166504424594212844e-03,2.443318101632361260e-03,3.111295215785503387e-02
-4.532823710488902980e-01,-4.517789976433969068e-01,-3.835594116460396830e-01,3.380549858694942289e-02,1.738912176764494943e-01,8.966764598386592344e-02,3.507456183433532715e-01
-4.286317271618325653e-01,-4.420498222527807775e-01,-3.672673197491530539e-01,8.626901991283755138e-04,1.045373272504131201e-02,-1.847775097623739022e-03,7.147969305515289307e-02
-3.495534783193152140e-01,-4.547774714618161851e-01,-4.038669957119949694e-01,1.493119543148045680e-02,5.175344791923362081e-02,1.822507962804951337e-02,1.341920346021652222e-01
-4.336297962585514698e-01,-4.560041897743992156e-01,-3.872557412233719187e-01,-6.067533055936980696e-02,8.430750405382696211e-02,-7.789052032094997968e-02,2.329319864511489868e-01
-1.947382977157854911e-01,-4.629657764265371900e-01,-4.190947206544936576e-01,3.142766921418348874e-02,9.315100772801357398e-02,1.136874080914009044e-02,3.024655282497406006e-01
-3.890064937131312850e-01,-4.247120423810418210e-01,-4.193681533768892633e-01,-3.875584630864399843e-03,3.049367043721595665e-03,-6.694123281153296565e-03,3.633217886090278625e-02
-4.188694316273934848e-01,-3.948646413808456490e-01,-4.118229745823973609e-01,-2.742073417051979576e-03,-6.991320366874831382e-03,6.041979496838227083e-03,2.711905166506767273e-02
-4.372376088009648498e-01,-4.205205353835215765e-01,-4.474026579888399358e-01,-6.504933127924759917e-02,-4.635264720624093088e-02,6.343476881781034971e-02,1.782262027263641357e-01
-3.963385041757369054e-01,-4.045070936592974897e-01,-4.399245364290073068e-01,-3.576565279248762608e-02,-3.898987259069163283e-03,9.532518648165623412e-05,7.411889731884002686e-02
-4.183252006924138011e-01,-3.971016906933025892e-01,-4.075047890689294516e-01,-1.172021679419893436e-02,-1.096115330269736496e-02,1.503014744679827958e-02,4.228615388274192810e-02
-4.542369455235754638e-01,-4.199939219268172264e-01,-4.480511336321703064e-01,-5.382856479068005850e-02,-5.075965736248010118e-02,7.281083267773266754e-02,1.825526058673858643e-01
-3.519818411097200284e-01,-4.215379343904153142e-01,-5.177321534585959117e-01,1.808674823427871559e-01,-1.055669253666756263e-01,-1.300479022842568333e-02,3.909755945205688477e-01
-3.903353603534270300e-01,-4.092639625660168812e-01,-4.288531321094741777e-01,5.309124301104991769e-03,-2.237840196308343334e-03,-4.325120893886929760e-03,3.561639040708541870e-02
-3.794901784827233726e-01,-4.171283225395451266e-01,-4.322641036254867841e-01,5.856207493113786341e-03,-4.988595658171828852e-03,-6.098586106631231213e-03,5.004524439573287964e-02
-3.510308108698803609e-01,-4.004993238685740087e-01,-4.379192615325072091e-01,4.589394819502119055e-02,1.977876503438875250e-02,1.712872700198883949e-02,1.186214014887809753e-01
-3.449648611759775774e-01,-4.388715037991931522e-01,-4.507404282188242073e-01,1.202667061056892153e-02,-6.509232592695288894e-04,-1.824732555961429913e-04,1.025143563747406006e-01
-3.259749239221583217e-01,-4.448170639775407831e-01,-4.121748344950645349e-01,-1.369256114534713777e-02,-4.001041905032852453e-02,7.870888175181552787e-03,1.298480182886123657e-01
-4.265136873735304590e-01,-3.735444113524493126e-01,-4.149061770125728188e-01,1.227249041602092479e-02,1.081314296971355206e-02,2.114549002089285978e-02,6.685541570186614990e-02
-4.215873671757743857e-01,-3.696506857911150412e-01,-4.360668982915256175e-01,1.061681412845275410e-02,-4.791390330685093429e-03,-5.163820659781463360e-03,6.439030915498733521e-02
-4.028907532236919997e-01,-4.004175556978236128e-01,-4.163499657976214019e-01,-6.967399378994748767e-03,7.220272046888525849e-03,-8.072664761090232732e-03,2.679718472063541412e-02
-4.179267495698108514e-01,-3.600717138716496013e-01,-4.393674675685072528e-01,2.596056985660042185e-02,-1.900731375942914941e-03,-2.939173550113714350e-03,8.429691940546035767e-02
-4.830216644672422066e-01,-4.886134171134404180e-01,-3.275463502901811985e-01,5.920126946378737043e-03,2.038923479891790362e-04,-4.806185147510464578e-02,1.791879236698150635e-01
-5.562829737107557460e-01,-3.543502909454588345e-01,-3.496501813362563604e-01,9.283724869128000268e-02,-4.444790959870887487e-02,-1.538941008799549759e-01,3.802384734153747559e-01
-4.279023894008148754e-01,-4.064090799680783461e-01,-3.932681053246130931e-01,6.896937627064863262e-03,-5.641907158876267002e-03,-7.470736024129990931e-03,3.636925667524337769e-02
-4.648700042623057915e-01,-3.628570135541537844e-01,-4.427197820118734528e-01,1.488914295458125259e-01,-1.542675306375718702e-01,-1.018707017515999430e-01,4.215115308761596680e-01
-4.019331641184907267e-01,-4.217257003060918552e-01,-4.011745651711519645e-01,-5.886608729396915901e-03,6.600605343089722271e-03,-5.862865538165934649e-03,2.729678712785243988e-02
-4.243880839451411591e-01,-4.102121019214852726e-01,-4.005568099002427274e-01,4.988033955241812090e-03,-7.814778087928992301e-04,-2.221072539851274077e-03,2.285452745854854584e-02
-4.128382758294507626e-01,-4.350750669182101293e-01,-3.593634974552442074e-01,1.673425696778857137e-03,-1.482898963128642493e-02,-1.197881403066219756e-03,7.221867144107818604e-02
-4.702237184968189876e-01,-5.683223316210634923e-01,-2.182395719935940892e-01,1.433992852650469232e-02,6.006396575103609137e-02,-7.827363254033004036e-02,3.572938144207000732e-01
-4.290391276740661564e-01,-4.088707385010357798e-01,-3.997613855869722177e-01,-5.355148899229562887e-03,5.954992156073969818e-03,-1.439941168932132830e-02,3.857347741723060608e-02
-4.046887677659414262e-01,-4.117102684407868418e-01,-4.087346216586123515e-01,-1.399832482307747025e-02,1.948826747923705638e-02,-8.841523804899168587e-03,4.471036791801452637e-02
-4.064954561956635737e-01,-4.053761420262593229e-01,-4.249365851480852996e-01,-5.543313178889291634e-03,4.314538902537393486e-03,-3.575974164724692646e-03,2.341715246438980103e-02
-4.216725447117130599e-01,-3.982303260668658695e-01,-4.104847056514925874e-01,-1.745637204878539885e-03,5.356403139981970492e-03,-1.912421105946876792e-03,2.277332916855812073e-02
-3.840654695218397308e-01,-4.289509260035194727e-01,-4.341041813237058178e-01,-4.485922967157744343e-03,6.104963603463813351e-03,-8.058326565810500219e-03,5.137663334608078003e-02
-3.891897372628566609e-01,-4.214255892898095546e-01,-4.335336233612470669e-01,-3.694491291847369890e-03,5.929223404616541619e-03,-6.981700008748574320e-03,4.322863370180130005e-02
-4.615346512544704072e-01,-2.191636921710922170e-01,-4.443836078742118834e-01,-6.014068959269925491e-02,2.116443027079413855e-02,-8.604263087219647665e-02,2.988066971302032471e-01
-4.051613963917298777e-01,-4.014927923820985622e-01,-4.238878076569446707e-01,-2.464579020105952221e-03,4.631973213527254205e-03,-1.638888707644232945e-03,2.287974581122398376e-02
-4.115229349773554812e-01,-3.883351811298803025e-01,-4.280667503939047380e-01,-5.753952102798690245e-03,-5.455721677956867910e-03,2.242564488689678844e-03,3.739905729889869690e-02
-4.188162388098040090e-01,-3.868285953977754210e-01,-4.246699202811999863e-01,-3.306354004199936469e-03,-5.885669376492601475e-03,4.191406390903885601e-03,3.787008300423622131e-02
-3.768370701685582191e-01,-4.184804396926115055e-01,-4.406404683103263276e-01,5.128929334570585599e-03,-1.199173000566108134e-03,-1.015896329844983052e-04,5.684468522667884827e-02
-3.837148072073542360e-01,-4.236073717536950056e-01,-4.484518497169718843e-01,3.486503771512661221e-02,-1.454518070410483303e-02,-1.292978180047850596e-02,8.934602141380310059e-02
-3.963064227639958581e-01,-4.084773147959664397e-01,-4.331101648744037358e-01,2.359179677324968125e-03,-1.002812158478329913e-03,-2.009211982718153711e-03,3.296265378594398499e-02
-3.164458988073152734e-01,-4.965310569543988639e-01,-5.051583411831395143e-01,2.952993853066670712e-02,4.297519046242878962e-03,2.652318843900592499e-03,1.917062848806381226e-01
-3.749726031548084038e-01,-3.992770943984802479e-01,-4.306091674515571399e-01,2.719029590871389207e-02,9.984180469426409688e-03,9.938906495584938494e-03,7.174434512853622437e-02
-3.175862728865695428e-01,-3.395306011437860261e-01,-4.174596026444704622e-01,1.374590817983779578e-01,-1.013156344484324872e-01,-9.239984416513470633e-02,3.483638167381286621e-01
-4.062141979282951620e-01,-4.178839318960094196e-01,-4.095958448113395378e-01,8.095212785280077360e-04,-8.692631607399248445e-04,-2.780466692760033900e-03,1.164393033832311630e-02
-4.066669275854554177e-01,-4.098087154822170342e-01,-4.082055933498119904e-01,4.146569555644808065e-03,-4.222537958312051407e-03,-4.203643076720768590e-03,1.286419853568077087e-02
-4.043043620073432098e-01,-4.234301589792324738e-01,-4.049202166050669960e-01,6.509150741638531842e-04,-4.310303166174653169e-04,-1.577128296310319503e-03,1.907058246433734894e-02
-4.079561741327563662e-01,-4.178054192306467907e-01,-4.084197282898749393e-01,-5.264641293627815203e-05,-4.759890021794825187e-04,-1.696242325898498658e-03,1.009834557771682739e-02
-3.901139704175045075e-01,-4.295717099209308554e-01,-4.135759631291717753e-01,1.016171919734523005e-02,-1.692964068108501058e-02,-1.178340814007612820e-02,5.260976031422615051e-02
-4.246315797716212481e-01,-4.017016426220333947e-01,-4.011604279647648097e-01,5.645235786495550294e-03,-4.834789820523519716e-03,-6.748260731931300140e-03,2.899713255465030670e-02
-4.238329259283371009e-01,-3.949778651755508907e-01,-4.115475133841018929e-01,1.103039073774162576e-02,-1.158795399521320157e-02,-1.402471732664082628e-02,4.457553476095199585e-02
-4.471527073221090443e-01,-4.049329036195210563e-01,-4.266083669257141331e-01,2.282250080710628015e-02,-2.917292922163954721e-02,-6.180420413725740136e-02,1.300471574068069458e-01
-4.313315607177642952e-01,-4.084738123300545865e-01,-3.962401155993914847e-01,3.098972168761091224e-03,-4.901493149174812949e-03,-1.365257596930146040e-02,4.014770314097404480e-02
-4.061672011213414146e-01,-4.183610435507210124e-01,-4.061869244491002062e-01,-3.826601370506787364e-03,1.492376204346600307e-03,-1.972010321086907231e-03,1.451641693711280823e-02
-4.309001871027338115e-01,-4.043368738388233297e-01,-3.977341698753619204e-01,3.149955023380938534e-03,-1.397661363436801399e-03,-3.313203717790990949e-03,3.151434659957885742e-02
-3.793884351358564055e-01,-4.229321257637901343e-01,-4.216265813902144721e-01,-6.418373012501459723e-03,7.433118206232305382e-03,-6.929966410238972210e-03,4.768985882401466370e-02
-4.111719749765727627e-01,-3.944653529840597139e-01,-4.311880137747379216e-01,-1.455585117289183959e-02,-3.514429345939123605e-03,4.934445743660565396e-03,4.195082560181617737e-02
-4.021990395920451711e-01,-3.979449413005652358e-01,-4.271686944478182979e-01,-4.814677011928543936e-03,2.555762375598773055e-03,-1.114060659582958180e-03,2.899425663053989410e-02
-4.005388266468454805e-01,-4.039640398484452555e-01,-4.238444150903674101e-01,-3.079312376838598368e-03,1.569419008057004782e-03,-3.518934902383274912e-03,2.341026253998279572e-02
-4.089216145798660884e-01,-4.107455526806923496e-01,-4.148345562118726515e-01,-7.049338688912959710e-04,8.252520570649602392e-04,-4.712056148362426676e-04,5.630702711641788483e-03
-4.034816920176028665e-01,-4.044082363187357920e-01,-4.267376058756625068e-01,-5.555179223197251846e-03,3.108644845434129639e-03,-3.996615841821166831e-03,2.626096457242965698e-02
-4.049428213125633169e-01,-4.082278837418486517e-01,-4.209475185638481554e-01,-1.362167728289552428e-03,1.115238863281170240e-03,-7.848724998823923592e-04,1.501703634858131409e-02
-4.077527479162282864e-01,-4.067155067578351324e-01,-4.163835929987935169e-01,-7.704266755918576844e-04,1.931571674120880194e-03,-5.333567905116630946e-04,9.916986338794231415e-03
-4.031516970104785380e-01,-4.015270350430161783e-01,-4.262339235093874357e-01,-3.579433493299151014e-03,3.045467721285904754e-03,-2.396773225328948688e-03,2.562078647315502167e-02
-4.057777065569982411e-01,-4.060485472543369223e-01,-4.173768151942541249e-01,-2.314897284030103478e-03,3.844486087532089907e-03,-2.251195260978447292e-03,1.439066603779792786e-02
-4.067604827012972213e-01,-4.137576281769008157e-01,-4.096037928060566324e-01,-8.018196751704083532e-04,6.886133115374469104e-04,-1.932328922662200198e-03,7.190437987446784973e-03
-4.060658244338105627e-01,-4.048484763876668002e-01,-4.247908577670037045e-01,-4.517362740185314543e-03,3.406349316041555261e-03,-3.587004862303321603e-03,2.257283404469490051e-02
-3.913301795858253329e-01,-4.091142841288895604e-01,-4.245108662257302545e-01,-6.037929658327161921e-03,5.980599139056252261e-03,-5.949454122267364489e-03,3.391170874238014221e-02
-3.627435813831720313e-01,-4.204527116662143404e-01,-4.389541364636446730e-01,-1.313718532116302587e-02,1.834262377118628991e-03,-3.799221467471244635e-03,7.288003712892532349e-02
-1.634138533575155983e-01,-5.134394176502923290e-01,-5.130032539935068803e-01,1.192151401867566803e-02,3.017366138618772509e-02,1.375187548310008098e-02,3.550921976566314697e-01
-3.428541368088335317e-01,-4.098395381383703739e-01,-4.238094956044235473e-01,-1.234977155547233030e-01,-9.043083070976166982e-02,8.139395377187319536e-02,3.094853460788726807e-01
-1.657333606061695830e-01,-5.311481277239129550e-01,-5.163531427335532609e-01,-1.065021293405123137e-01,-3.332244829037836475e-02,-2.961865146320553227e-02,4.102823436260223389e-01
-3.669859295329070958e-01,-4.453117560287560006e-01,-4.358307410501738310e-01,-5.585328732885987656e-03,6.184976402889987880e-03,-1.875720379704966679e-03,7.550577074289321899e-02
-3.645428597674826854e-01,-3.195871287359616231e-01,-4.722850608893344182e-01,-1.351309486281850047e-01,2.641399289044565543e-02,-6.400319919893694698e-02,2.960345745086669922e-01
-3.624525353763108915e-01,-4.367725956308868840e-01,-4.698713092652657686e-01,-3.021478401612672990e-02,-5.900095687096029544e-03,3.669040811175934731e-03,1.093732714653015137e-01
-4.151459207788905648e-01,-3.986151706216967683e-01,-4.371464597305915190e-01,-1.263647695527151879e-02,-6.837330838880281182e-03,7.493137717309013811e-03,4.368872940540313721e-02
-3.799249588222386453e-01,-4.031564210693860950e-01,-4.500986842208012373e-01,-2.909615139862507111e-02,9.306525804661933826e-03,-2.277045386908870071e-03,8.154116570949554443e-02
-4.015155057463834498e-01,-4.116336416073587134e-01,-4.347580287976975932e-01,-9.644541082143767013e-03,-7.734342932977543265e-03,5.897624150522254999e-03,3.786749765276908875e-02
-4.157072868826505729e-01,-3.984190250736333039e-01,-4.954658544455421421e-01,-8.013443525868316208e-02,1.489051899828176644e-02,-3.257260455537717980e-02,1.764989793300628662e-01
-4.165133155635130091e-01,-4.107030980970957090e-01,-4.086952453472089131e-01,-2.954673743478946051e-03,3.186471113021286088e-03,-2.087695175554084379e-03,1.091708149760961533e-02
-3.866284972980091883e-01,-4.273919247832074775e-01,-4.894434662731099173e-01,-7.352087472885571184e-02,2.205538595368275803e-02,-1.800048473240698985e-02,1.633671075105667114e-01
-3.502371185039093726e-01,-4.179894506752127037e-01,-3.225038876698856916e-01,-7.876113741876858421e-02,-1.524141999095572075e-01,1.006404758470234584e-01,3.548580408096313477e-01
-4.378307946317467891e-01,-4.215981407933294678e-01,-3.641406675216176114e-01,-7.301635187046232565e-03,-8.597074688271744841e-03,9.850730548177505375e-03,7.190500199794769287e-02
-4.443427708689688393e-01,-4.433216002009945922e-01,-3.405019912850604791e-01,-1.061241172594095949e-01,-1.864585240643008568e-01,1.010139728231220502e-01,4.235288798809051514e-01
-4.037087271227594587e-01,-5.065603889326559806e-01,-3.492094094117842995e-01,3.214934626993516675e-02,-2.280349310987992428e-01,-3.120916397883433460e-02,4.256483912467956543e-01
-4.114231656007149573e-01,-4.115035802111200458e-01,-4.105401502444498418e-01,1.461174628531696504e-03,1.636075140638975148e-03,1.120614221651949211e-03,4.365757573395967484e-03
-3.900250322491951582e-01,-4.391109883215426057e-01,-4.022905302543128281e-01,-3.041425391998764036e-02,-8.792916518529168834e-02,3.887989436491899597e-02,1.801733672618865967e-01
-4.061525018551007671e-01,-4.201600717018194597e-01,-3.890260860136348642e-01,-1.208881518061615673e-02,-1.607381838298731908e-02,1.204053189662072573e-02,4.876340925693511963e-02
-4.305185689867553900e-01,-4.198877869645754601e-01,-3.873508865122627376e-01,-4.561533813930175423e-03,-5.122296023956462822e-03,5.819089961629725014e-03,4.195566847920417786e-02
-5.547647158971529269e-01,-3.643692032645899914e-01,-3.371998173076467542e-01,-1.004482009013836774e-01,-2.938836393582533110e-02,1.486312441150612340e-01,3.758933842182159424e-01
-4.414520986217343457e-01,-4.199657616566915275e-01,-3.799604181271469816e-01,-3.187104685231608066e-03,-3.413792804715163123e-03,2.356937743817983256e-03,5.480655655264854431e-02
-4.295103969338314176e-01,-3.734181995713728996e-01,-4.195908619165354958e-01,-2.621688138023387481e-03,-6.534207957650890221e-03,2.886625061123053535e-03,5.349792912602424622e-02
-4.365481420882370012e-01,-4.250252849683403000e-01,-3.692956302890533782e-01,6.119022724148295150e-03,6.757036053708222884e-03,1.259200461426081101e-02,6.786538660526275635e-02
-4.394174033166241000e-01,-4.178162330667667401e-01,-3.647382498820538888e-01,-3.522524991057383696e-03,-1.467083439921327117e-03,1.263804347966447986e-02,7.037948071956634521e-02
-4.322360535482041022e-01,-3.940882777324822284e-01,-4.260382375644695130e-01,-1.077773125374779581e-02,-8.730097215928302179e-03,1.789207300389358130e-02,5.286524444818496704e-02
-3.896950243117032753e-01,-4.191744134869083149e-01,-4.120852221965670692e-01,-1.329062289542556896e-02,1.582806961813685090e-02,-1.175857829957334746e-02,4.905714839696884155e-02
-4.678100801546467014e-01,-4.596343387682606529e-01,-3.660112178442682662e-01,3.587043071944395756e-02,6.202132423731016725e-02,6.274018818484675131e-02,1.918503642082214355e-01
-4.213247687058563340e-01,-4.180115073153115590e-01,-3.792816150254559870e-01,8.568138359441122148e-03,-1.338486591406498789e-02,-4.391582033090947294e-03,4.954659938812255859e-02
-3.949839289622628646e-01,-3.971008560562654388e-01,-4.235644914775326675e-01,1.110840192859869659e-02,-4.813183627822569498e-03,-4.909886590882254175e-03,3.567685559391975403e-02
-4.346273630218742134e-01,-4.192775255244911570e-01,-3.781835576858752490e-01,-5.182628599130123873e-03,1.856605112570739293e-03,-4.660280569856799920e-03,5.206910893321037292e-02
-4.322650382865450558e-01,-3.950753119910634936e-01,-4.092704488762991533e-01,1.858282012994779677e-03,-2.925617654607291264e-03,-2.594317151951040790e-03,3.336005285382270813e-02
-4.091834466741957610e-01,-4.041469378169406101e-01,-4.107409933238827526e-01,1.114446188191263454e-02,-9.663592562563130123e-03,-9.704425265798552469e-03,3.115953691303730011e-02
-4.519113793255059575e-01,-3.777801280738933842e-01,-2.430431915182489355e-01,2.802747939418907472e-02,-5.671108601970589747e-02,-1.284145926476714106e-01,3.084050714969635010e-01
-4.378353647818721828e-01,-4.229166703485217060e-01,-3.610120701982630353e-01,1.180162115033285639e-03,-1.079568584534798970e-03,-1.362519318304074127e-02,7.445061951875686646e-02
-4.288230918523271429e-01,-4.476049538171912867e-01,-3.838206154674448367e-01,-1.501698959264199246e-02,-5.367486692230744039e-02,6.435324178238210902e-02,1.580086499452590942e-01
-4.546933162552261320e-01,-4.114114998655813427e-01,-2.672902693425701637e-01,-4.370196736486721412e-02,-7.060918373710395324e-02,1.107980804224732163e-01,2.939341366291046143e-01
-4.223330694216642089e-01,-4.294567500493802759e-01,-3.769993809146822139e-01,-6.778796370777023794e-03,-9.561221304908537610e-03,3.825971467855474473e-03,5.371083691716194153e-02
-3.936484534396459956e-01,-4.327184773599156986e-01,-4.082171564520147289e-01,4.819373105072327634e-04,-2.405902798599117952e-03,-2.008934170241431609e-03,3.463644906878471375e-02
-3.989628114076634313e-01,-4.331552460164904694e-01,-4.116133031602051684e-01,-4.179471182742849206e-03,-1.228272073806637235e-02,7.209583923046224835e-03,3.946568444371223450e-02
-4.026990428206603800e-01,-4.298956327632133534e-01,-4.008924649274853147e-01,-1.919462186691538348e-03,-9.149109804422678530e-04,5.150610742178337361e-04,2.839737758040428162e-02
-4.017343708814652969e-01,-4.333702602779299085e-01,-4.004170590462752255e-01,-2.378042439325465680e-04,-8.522923068934440795e-04,-1.355151095904852116e-04,3.235186263918876648e-02
-3.996881350802726773e-01,-4.315027784939706734e-01,-4.015893484833087945e-01,-6.012852725201488224e-04,-8.316838224759160944e-04,2.931472735470129530e-04,3.096316009759902954e-02
-4.050677252099574299e-01,-4.337518787822730593e-01,-3.774400161983990643e-01,-2.376940083165687573e-03,-9.867498491655024573e-03,3.980041027347662030e-04,5.184665694832801819e-02
-4.013286825664398316e-01,-4.323268115170884052e-01,-3.965675082490667802e-01,-1.796319116915846142e-03,-4.640833717311226500e-03,5.344863471344481719e-04,3.473167866468429565e-02
-4.108754032416395141e-01,-4.237279773185329557e-01,-3.936611856460839332e-01,6.052888989148352827e-03,-3.790365048279831055e-03,-2.788520000671633383e-03,2.931050211191177368e-02
-4.214423096756975129e-01,-4.359360484978229699e-01,-3.714177099793715131e-01,-8.304351558652290841e-03,-1.207986934839937361e-02,4.633518070596981051e-03,6.439439207315444946e-02
-4.099171364146022012e-01,-4.117345529028459961e-01,-4.189584073149282273e-01,-3.018225116001639965e-03,-4.018018560202150230e-03,3.951910171076724286e-03,1.382863242179155350e-02
-4.193411594553153043e-01,-4.152726217899585515e-01,-4.135681496952836600e-01,-6.861600920013304072e-03,3.477872343878262579e-03,-7.450119901044162732e-03,1.924674771726131439e-02
-4.030026201105705863e-01,-4.170928128044838479e-01,-4.018147438898190260e-01,-4.961228235794037759e-03,7.101864048998846914e-03,-4.921514418332615173e-03,2.268251962959766388e-02
-4.190911294560666356e-01,-3.660987622109462825e-01,-4.177953322540853276e-01,-1.773555548686758104e-02,1.081102160759006905e-02,-1.863859776943804433e-02,7.125783711671829224e-02
-4.089948573306207424e-01,-4.110928694425645125e-01,-4.128184463076657873e-01,-1.383983658072777999e-03,1.345419750511540977e-03,-2.493419768203432915e-03,6.389653775840997696e-03
-4.245120215499380012e-01,-4.067569482727239616e-01,-4.038207302749208250e-01,-3.628623534967386020e-03,3.701451094670192826e-03,-5.539650990964470334e-03,2.342355437576770782e-02
-4.220572946915012169e-01,-3.740118469884782804e-01,-4.330283313465508321e-01,-2.115048014034748292e-02,7.112967962391181925e-03,-9.025355383539730020e-03,6.851291656494140625e-02
-4.142173380547384820e-01,-4.077185951818729226e-01,-4.115997538111068610e-01,-8.532063664431829971e-04,2.757619137140240786e-03,-1.042740874439092649e-03,7.767470553517341614e-03
-4.323065587124756415e-01,-4.011183879840834465e-01,-4.005930367015499427e-01,-4.496089490219566643e-04,-1.332049389127933949e-03,1.763919856199387291e-03,3.169584274291992188e-02
-4.318429335164050142e-01,-4.024996992334635704e-01,-4.111615907049086527e-01,-9.481733427091463759e-03,1.452780937210017796e-02,-2.061468245425782803e-02,5.347581580281257629e-02
-4.356136250264981968e-01,-4.930920698346843989e-01,-3.697392811553724123e-01,7.787566578126571548e-02,-1.087844620663716982e-01,-1.487056791473399531e-01,3.625820279121398926e-01
-4.873296150000269722e-01,-4.328923624057277597e-01,-3.652518067374472821e-01,1.520351192614656684e-02,-3.228197264668235256e-02,-8.119808420110788405e-02,1.866012513637542725e-01
-3.979961826738432351e-01,-3.354673457170535000e-01,-3.546189538649590633e-01,1.060285601879907835e-01,-9.789091087057397167e-02,-1.238176797258931233e-01,3.339844644069671631e-01
-4.192647688098833370e-01,-4.154609206340418859e-01,-4.059512791152581901e-01,8.388412704873532411e-03,-6.227186712982714541e-03,-8.466363998571370744e-03,2.614466845989227295e-02
-4.168798793359723143e-01,-4.298619689855204817e-01,-3.129363580939961142e-01,4.630429266431129731e-02,-1.181792980718938124e-01,-9.256242074016875210e-02,2.938654422760009766e-01
-5.261360082163439866e-01,-4.721386935902894821e-01,-3.527618659309106897e-01,9.651061860648693647e-02,-1.647680307255421361e-01,-7.858943033491604113e-02,3.892683684825897217e-01
-4.396315623882733892e-01,-3.425297945374509156e-01,-4.472233650881541900e-01,2.598801078894781569e-02,-6.665890487599126710e-03,-2.200203327290953942e-02,1.176234111189842224e-01
-4.091939532421937087e-01,-3.930951673277205960e-01,-4.199662635620517448e-01,1.545363359410814250e-02,-1.076586440641501621e-02,-1.212911698559474873e-02,4.532258957624435425e-02
-4.123670529804207008e-01,-3.903209755572173423e-01,-4.238510930263255649e-01,4.031277334092019451e-03,-7.632764331666855653e-03,-4.962517562466533041e-03,3.418334946036338806e-02
-4.081777584517027324e-01,-3.949417073093666741e-01,-4.305811646468614695e-01,1.911560378220655398e-03,-3.459163422490740651e-03,-1.293890155428978079e-03,3.202374652028083801e-02
-4.017973794372653451e-01,-4.033784456040668265e-01,-4.226643211576384118e-01,6.288957689686867913e-03,-5.899339683527732650e-03,-6.395421752739197455e-03,2.739892154932022095e-02
-3.784278184451774774e-01,-4.382739880579750169e-01,-4.321283035350180768e-01,1.672158135012374175e-02,-1.646418203084822063e-02,-1.116197540742531677e-02,7.264535874128341675e-02
-4.024358220637680450e-01,-4.051147596290187169e-01,-4.323475239039427098e-01,1.701540099588999197e-02,-5.087943625214696140e-03,-4.379411054120619165e-03,4.272617399692535400e-02
-3.690163633090395301e-01,-3.997050104960445105e-01,-4.374870715088031159e-01,2.774956607307494869e-02,1.446685721909391278e-03,2.493282057503490995e-03,7.657545804977416992e-02
-3.909790290362426535e-01,-3.691020263519859124e-01,-4.351056605012477152e-01,3.220397146874717093e-02,6.515331313176054608e-03,4.489156918245286454e-03,8.179373294115066528e-02
-3.823666075600027359e-01,-4.351567294078347303e-01,-4.183540303225943835e-01,3.037350980137661430e-03,-3.858365562417268458e-03,-5.602406668263670841e-03,4.846245422959327698e-02
-3.822497022410557554e-01,-4.062706455306516196e-01,-4.337524545306024049e-01,9.091637073621466197e-03,-1.502767109376074942e-03,-2.697916436195079044e-03,4.763380438089370728e-02
-3.659746573392989588e-01,-4.251288266751950262e-01,-4.381592953023459858e-01,1.250421419169918738e-02,-7.559099151130159932e-04,-1.890968658654573623e-03,7.015214115381240845e-02
-4.362094989120015032e-01,-3.528675992859650057e-01,-4.597675883329087054e-01,4.161254669571651243e-02,-2.495240947858611349e-02,-6.052323046627619552e-02,1.658797711133956909e-01
-4.205332351037315841e-01,-3.403610417849824987e-01,-4.544893199651500737e-01,4.339212129145407493e-02,1.675274335384697695e-04,-1.951734804616587007e-03,1.263450533151626587e-01
-4.474783880475800002e-01,-3.528312507024560229e-01,-4.387574603820308949e-01,7.803410991976117775e-03,-8.315994442260977787e-04,-8.781589058718144297e-03,9.286995232105255127e-02
-5.610545136730531457e-01,-2.329565525729555553e-01,-5.216769171481713263e-01,8.209669190994528520e-03,3.928742081250953533e-02,-8.012423162357779072e-02,3.469460010528564453e-01
-4.191089459930709138e-01,-2.604343144089604212e-01,-5.785215632688616161e-01,1.156386555275486644e-01,1.542695158787002994e-02,5.725572880939965720e-02,3.557390570640563965e-01
-4.257117658088200862e-01,-3.786339556430713404e-01,-4.299902423405354557e-01,-5.579525268497386760e-03,-6.872721362884328528e-03,3.401802556459212253e-03,5.201787874102592468e-02
-4.404835665917696819e-01,-2.569590882034522572e-01,-4.329647317022495834e-01,-1.109955082215247912e-01,-4.228336019249885613e-02,8.247301585906810506e-02,3.083616793155670166e-01
-4.417151043242750763e-01,-3.505023394730301112e-01,-4.374550277935668197e-01,-8.841474794614417876e-03,5.670187338390001927e-03,-5.772116692879305025e-03,9.154377877712249756e-02
-4.188809556378947918e-01,-3.798696917819081031e-01,-4.342977727452222991e-01,-4.550239187309686184e-03,-6.459421538545659369e-03,3.575871151946453247e-03,5.085895583033561707e-02
-4.042455170427947109e-01,-4.033756137388056495e-01,-4.329156670017181296e-01,-4.408576640864570600e-03,-3.922527639788223573e-03,3.910453461438568278e-03,3.159137070178985596e-02
-4.443895232792246519e-01,-3.602141267240107636e-01,-4.216337106053074102e-01,1.473213335389174546e-02,5.129439139762295230e-04,2.616263811383260154e-02,9.161436557769775391e-02
-4.426575889942727104e-01,-2.988969528784429230e-01,-4.340348312103421424e-01,-4.913372081251199397e-03,-8.588992892889865281e-04,2.888314587931403374e-02,1.485907286405563354e-01
-4.998409637966526597e-01,-3.067541943812834848e-01,-4.900036641356813050e-01,-9.583295750414576319e-03,-6.240676134312264992e-03,-1.543265113520390745e-02,1.912764459848403931e-01
-4.386680701096310475e-01,-3.058159192081879030e-01,-4.688054021084715473e-01,-5.420151915965313455e-02,-2.242118036167241313e-02,7.435955151469900160e-03,1.817943453788757324e-01
-3.781905360866124610e-01,-4.297222273160470341e-01,-4.317476402717077555e-01,9.085511657514840425e-03,3.318938603429291354e-03,6.116102456351195545e-03,5.618626251816749573e-02
-4.393964562607032276e-01,-3.570756530237171322e-01,-4.375523714097911965e-01,1.615409524063574423e-02,-7.381409856577778560e-03,-1.334601009685419670e-02,9.004985541105270386e-02
-4.929901533735063790e-01,-2.250921405613728332e-01,-5.636358762879312145e-01,9.768548870858181910e-02,-3.111111077568748037e-03,-1.101416570305023684e-01,4.009189009666442871e-01
-4.440022606788391890e-01,-2.126738504742295421e-01,-4.200207888104141585e-01,9.708019904813573742e-02,-3.820836340557023925e-02,-1.305063988285773136e-01,3.637161552906036377e-01
-4.513594017155446725e-01,-3.376949307358830810e-01,-4.529376838461116050e-01,1.364555384963842856e-02,-5.032962221983292191e-03,-1.878595438698537484e-02,1.216339990496635437e-01
-4.567548921703583065e-01,-3.568399487457407093e-01,-4.359685190842266800e-01,1.639298866608133662e-02,-3.540087006523935827e-03,-3.312111711711177020e-02,1.116826385259628296e-01
-4.852426101822048254e-01,-2.700654870224146187e-01,-4.517611171933688663e-01,9.146386020934545169e-03,-8.479994806423349352e-03,-1.222521254406839543e-02,2.028122842311859131e-01
-4.479268705527853500e-01,-3.485444119292874232e-01,-4.344376575437960408e-01,2.212581460861194615e-03,5.230063806212180422e-03,-4.924144154628593006e-03,9.427475929260253906e-02
-5.588370354390646000e-01,-2.993938514110164872e-01,-6.223188982514598067e-01,1.516918884422710501e-01,-4.191166156641817908e-02,-7.268521142870473795e-02,4.218543767929077148e-01
-4.731047974057784322e-01,-3.261466006823796060e-01,-4.220132125738669804e-01,1.454578762589745985e-02,1.300121265860158543e-03,-6.498600501635806714e-02,1.732284277677536011e-01
-4.502004382802025639e-01,-3.515809045743757966e-01,-4.453302603845938901e-01,9.856291072699899583e-03,5.711524393247557289e-04,4.083026732557047157e-03,9.803911298513412476e-02
-3.044642270004641604e-01,-5.362922507106722136e-01,-5.642931214458910549e-01,1.342049386919930143e-01,-9.407041713544826711e-02,-5.036491178404029628e-02,3.862773180007934570e-01
-4.049907806993550130e-01,-4.210081515421101317e-01,-4.051005820272463587e-01,-9.177780695401850869e-04,1.217280832125163290e-05,-9.555728829173809353e-04,1.612688042223453522e-02
-4.082702197237381148e-01,-4.213015899515226148e-01,-4.056324257390184762e-01,-2.161963591807210695e-03,1.189547492811140386e-05,-9.565649176422211328e-04,1.509689912199974060e-02
-3.964300004823900214e-01,-4.196658840145652825e-01,-4.117264606212194811e-01,-2.398414717344055438e-03,4.287788638999963028e-03,-5.736301975821995330e-03,2.428145892918109894e-02
-4.114195172988550087e-01,-4.139959422017157054e-01,-4.093955009111795440e-01,-1.786648903136272854e-03,-5.640555226755552545e-05,-6.686055711070033360e-04,5.184237845242023468e-03
-4.077849028224829198e-01,-4.147680437889081917e-01,-4.089653143115025147e-01,-7.875545182881706161e-04,-5.435355255243584519e-04,-4.844003926772054869e-04,6.735398899763822556e-03
-4.050307129088871472e-01,-4.244455575667782643e-01,-4.140714149230312890e-01,-7.106374644358030845e-03,8.740548860062161141e-03,-6.673965377425500160e-03,2.823942899703979492e-02
-4.161733274917617798e-01,-3.880286117675119661e-01,-4.184567955671956163e-01,-2.545895611032534742e-02,1.430495257881145808e-02,-2.518605141764098526e-02,7.295881211757659912e-02
-3.642880992030094189e-01,-4.647442790477173125e-01,-3.683546187827472229e-01,3.067047831372036581e-03,6.771799965858596448e-02,2.943411890006078762e-03,1.533325314521789551e-01
-3.625040743197502913e-01,-4.580336764203618016e-01,-4.191378508287216809e-01,9.670210214657266184e-03,-7.098102656803059740e-02,1.290505221548430247e-02,1.510568261146545410e-01
-2.155099124719103421e-01,-4.810882421905002815e-01,-5.958813480751689040e-01,6.744720633725703740e-02,-4.768856993872734595e-02,-4.625047075956551131e-03,3.670558631420135498e-01
-4.104139066519306711e-01,-4.121760548494086684e-01,-4.120215003147407185e-01,1.152095174166033057e-03,-1.710598712780504781e-03,-1.382144650691700038e-03,4.620399326086044312e-03
-3.751195482861608976e-01,-4.296440683596674526e-01,-4.240141256821147731e-01,2.616629655520049790e-03,-7.070531041176451696e-03,-6.092362806679479763e-03,5.458495765924453735e-02
-3.948260792857549162e-01,-4.258160754856128438e-01,-4.188901279046290949e-01,1.851510112559064721e-03,-2.788469062061231605e-03,-5.717183354209688304e-03,3.042010962963104248e-02
-3.984226951304110642e-01,-4.277385584654828099e-01,-4.032957736567025497e-01,1.548085306386089068e-03,-4.664217135482784729e-03,-3.088093044609049181e-03,2.900640666484832764e-02
-4.047302285121416876e-01,-4.228107811512586967e-01,-4.070593678547078098e-01,4.090769871092782284e-03,-6.292784978693207257e-03,-4.248501464094349769e-03,2.265764959156513214e-02
-3.900999196231861310e-01,-4.827240704414503814e-01,-4.113234990185096751e-01,2.391049001168565544e-02,-7.674901784649723613e-02,-1.546547983368634117e-02,1.648264825344085693e-01
-3.064555702458441333e-01,-4.752860727836213939e-01,-4.703363305372547098e-01,-1.669822527748319671e-02,-5.216267153888468761e-02,6.358242434334867611e-03,1.918676048517227173e-01
-4.077567555767087071e-01,-4.290310657415419837e-01,-3.872772683776584679e-01,4.657045954160872990e-03,-4.112215688115843613e-03,-2.783958025627952890e-03,3.803602233529090881e-02
-4.194655603511225350e-01,-4.234071020704596733e-01,-3.886554816157845593e-01,6.189207702665111381e-03,-3.462910983249500949e-03,-4.994507336930601067e-03,3.622106090188026428e-02
-4.118339707178307330e-01,-4.192378801836113555e-01,-3.958591107548472543e-01,6.170230026834738930e-03,-4.401149490990582426e-03,-2.667063571852894797e-03,2.493903972208499908e-02
-3.937941203629787834e-01,-4.232240925321181790e-01,-3.957501365880909949e-01,2.335632394232272160e-02,-2.772675900974797339e-02,-2.011767146123151495e-02,7.726201415061950684e-02
-6.086536955888860456e-01,-6.223292183688986512e-01,-2.117557269050632240e-01,-6.813491580768082576e-03,2.726437460044498981e-02,1.732028813176772486e-02,4.079363942146301270e-01
-4.408811637407038519e-01,-4.430806860193071683e-01,-3.416630274563978720e-01,3.349979602308157233e-04,2.414896705500913475e-03,-2.542415287307337769e-04,1.004257649183273315e-01
-4.367677733891102143e-01,-4.320007192721951883e-01,-3.660960532556694624e-01,-6.946315608339218191e-03,6.455277925569136675e-03,-6.401757056385251610e-03,7.122523337602615356e-02
-4.461265453622841326e-01,-4.550256134196894453e-01,-3.494227280837521876e-01,1.378505671045621552e-03,3.984831777080816671e-03,-6.759750915264140653e-03,1.023807376623153687e-01
-3.937993639162643555e-01,-4.559812166626401875e-01,-4.668360789390280652e-01,4.736184152091316157e-02,-5.414572774323506144e-02,-3.410414517720344874e-02,1.538615524768829346e-01
-3.780939251220830077e-01,-4.187115162639105104e-01,-4.405608369751395914e-01,5.606898026214535667e-03,1.419142867120502111e-03,8.523719758306311321e-04,5.583172664046287537e-02
-4.006020532533879352e-01,-5.669545464176081184e-01,-2.091187484752292380e-01,-2.608954189654826700e-04,-1.592185399210533370e-01,-5.276449243342198198e-02,4.249668717384338379e-01
-4.175913438245308362e-01,-4.319280352652101751e-01,-3.717282643065457082e-01,-5.403847264851211959e-03,-4.035089640727766366e-03,1.269554300340676803e-02,5.988713353872299194e-02
-4.152490589534305054e-01,-4.112700133839365946e-01,-4.090629845922656993e-01,5.369184291792301195e-03,-4.040361723198319932e-03,-4.569413786738649522e-03,1.508582942187786102e-02
-3.673797841454632951e-01,-3.869156990904880078e-01,-3.728588401422649468e-01,8.267992242849217521e-02,-9.888107377372536144e-02,-8.379534666478780092e-02,2.668518722057342529e-01
-2.925633522529844655e-01,-4.401137822833061097e-01,-4.255944307868591014e-01,9.711763464732932338e-02,-9.880084217356716048e-02,-4.358128769691381466e-02,2.883017659187316895e-01
-4.708906680463745276e-01,-3.385387803238804061e-01,-4.544180808015996220e-01,2.539756304437683181e-03,-6.361468189655422774e-03,-2.313305783728033041e-02,1.317359507083892822e-01
-4.242634501213358722e-01,-3.927330187373293535e-01,-4.244452699551439778e-01,1.292788024900430946e-02,-9.450019077497887054e-03,-1.348357750608070345e-02,4.811084643006324768e-02
-4.448169022009358375e-01,-4.114263962656447560e-01,-3.977276198084027659e-01,6.795749011308998893e-04,-5.342580204580051019e-04,-1.534358830138261333e-02,4.968410357832908630e-02
-4.326521708826130963e-01,-3.636782150240266409e-01,-4.369079692917011148e-01,4.528486015143621569e-03,-4.810819961683605178e-03,-4.883871905190186394e-03,7.260556519031524658e-02
-4.361975263602365094e-01,-3.841274905420682950e-01,-4.054957655505669334e-01,5.553727806744875387e-03,-7.935861891252503006e-03,-1.633062705273550380e-02,5.600694939494132996e-02
-4.330836331842859432e-01,-3.957554146262787231e-01,-4.128547382036291125e-01,4.404093413601518035e-03,-3.341907090740310528e-03,-1.440670638253240855e-02,4.197437688708305359e-02
-4.447460240347475002e-01,-3.713782876992977044e-01,-4.264380690619688496e-01,5.760693322610516316e-03,-2.194940684185543549e-03,-1.357240375134989227e-02,7.100304961204528809e-02
-3.901766736463653240e-01,-4.088063660666961807e-01,-4.202152848350028669e-01,4.635242256526875618e-03,-5.563558995822077274e-03,-4.988007069686745121e-03,3.036000952124595642e-02
-4.145458491614141816e-01,-4.145484761355044401e-01,-4.011772747854833732e-01,4.641995643728228163e-03,-1.630803734069643076e-03,-1.465969304813876739e-03,1.605690084397792816e-02
-4.753789701330401463e-01,-4.625216697469675120e-01,-3.921692293578953881e-01,-3.613483907783218707e-02,-5.598853598232551854e-02,6.377108680513082772e-02,1.775975823402404785e-01
-4.345478459994031040e-01,-3.851293879624623218e-01,-4.072678038402027800e-01,-3.271971572013292889e-03,-4.983434461208025024e-03,6.983401877480038475e-03,4.572933539748191833e-02
-4.233505919538917972e-01,-3.994620508999920938e-01,-3.954084772399280578e-01,2.074057124014921233e-02,2.230819566059286801e-02,3.262806675811218138e-02,8.161605894565582275e-02
-3.630933411027769120e-01,-4.230363060632467143e-01,-4.033808329255028080e-01,-3.725753923076059043e-02,-5.221797532503130029e-02,2.549372400098187663e-02,1.307501494884490967e-01
-4.268478411204036926e-01,-4.065339094821663335e-01,-3.966215889629263192e-01,-2.983194986594920554e-03,-1.473550726909960513e-03,2.706220946469667897e-03,2.770291455090045929e-02
-4.113160678047297902e-01,-4.104186758138967939e-01,-4.084321787685483707e-01,-2.331993665699735874e-03,-1.261048355740129051e-03,1.147150669406181087e-03,5.618480499833822250e-03
-3.631994617407832138e-01,-4.195182869802996373e-01,-4.381983310077538496e-01,1.487291679294343305e-02,-7.954529358810888667e-04,8.200394018667568315e-04,7.239004969596862793e-02
-4.176714071531772987e-01,-3.881082228558129232e-01,-4.180742684693770639e-01,5.970217520120801348e-03,7.610286273966306199e-03,3.990763079370967734e-03,3.484985604882240295e-02
-4.304642557712785034e-01,-3.807078668058168081e-01,-4.263548060256671102e-01,2.838109492573419237e-03,4.468188716652693460e-03,9.658002069004033990e-03,5.149761214852333069e-02
-4.313013940813515967e-01,-3.980196074069187739e-01,-4.025473684841904265e-01,1.187973704916291291e-03,3.599073451224143062e-03,5.107012926238856630e-03,3.314852342009544373e-02
-4.378012578304281144e-01,-3.148834812182451648e-01,-4.401910614748772987e-01,-2.293853444129723487e-02,-6.342074755459670143e-03,1.615387272613347247e-02,1.337545365095138550e-01
-4.077359451905925303e-01,-3.827685188068666866e-01,-4.352119299568224520e-01,7.234824720995246955e-03,2.195388991566200182e-03,-2.358023769459261767e-04,4.728594794869422913e-02
-4.688138465276535105e-01,-3.374116128396865699e-01,-4.373589757849382642e-01,9.321048427504398382e-03,2.172411552211227226e-02,6.000828318039992670e-02,1.631016731262207031e-01
-4.065536449318827295e-01,-3.964539932870913552e-01,-4.229660570034657341e-01,1.387746848355211199e-02,8.712636659889860802e-03,1.205586557534244797e-02,4.217397421598434448e-02
-4.264606283455435465e-01,-3.835572981034334195e-01,-4.266036858602422210e-01,7.181486532097835357e-03,4.644432924776857076e-03,8.107539436119772652e-03,4.757608473300933838e-02
-3.954715641802907244e-01,-4.262996467595760453e-01,-4.235047211961960323e-01,9.981397584128161998e-03,1.275242892684542648e-02,8.450381486127575559e-03,4.327822849154472351e-02
-4.384205954053755905e-01,-3.998521693851912473e-01,-3.514173190701773142e-01,1.882646708117118733e-02,3.304959171088792114e-02,6.103072103815658511e-02,1.456567645072937012e-01
-4.203629271681206814e-01,-4.408244205808390936e-01,-3.572530018551284270e-01,-1.024811521544417847e-02,1.620833226710055586e-02,-6.410642137076105924e-03,8.318262547254562378e-02
-4.477442152289625721e-01,-4.328889958132713378e-01,-3.620082631036816156e-01,1.382876656811189914e-04,-9.597460933887488107e-04,-5.320449292728762769e-03,7.990898936986923218e-02
-4.319724177328317927e-01,-4.372358361641917046e-01,-3.639624644990827051e-01,-5.568982620127438214e-03,5.382479551024634684e-03,-7.984521275586353717e-03,7.336370646953582764e-02
-4.701236053518583202e-01,-4.844272262983033706e-01,-3.551576809513897204e-01,1.173473771798382893e-02,4.974248767645930713e-02,2.079741872070255820e-02,1.555629819631576538e-01
-4.878516015671101602e-01,-2.741366261598515153e-01,-4.569910209029766635e-01,5.384545011618807608e-03,1.796618010622161310e-02,-1.330751793601426571e-03,2.027109861373901367e-01
-4.483229792496762345e-01,-3.370836182426681371e-01,-4.589355148246035965e-01,2.888825577878691327e-03,3.537785837828596753e-03,1.145839930433790402e-03,1.171916201710700989e-01
-3.468584774508374213e-01,-4.459847653031739911e-01,-4.403743315851499363e-01,-2.154507781850347435e-03,8.128725633497892872e-03,2.828624901030962584e-03,9.766019880771636963e-02
-4.086965329434363303e-01,-4.226811983771084358e-01,-3.977482752734330940e-01,8.803321315141027226e-03,1.403433523724100483e-02,1.083054713278580258e-02,4.054415225982666016e-02
-3.657800974047700771e-01,-4.439255910875393729e-01,-4.229556759117442666e-01,1.155978903076405884e-02,2.282619262014012190e-02,3.651279728546380672e-03,8.313686400651931763e-02
-3.554087448345775169e-01,-4.504524499459520159e-01,-4.415457280221949943e-01,5.984666601205069700e-03,6.644988879865332612e-03,1.660022909087840092e-03,9.227291494607925415e-02
-3.638878473758970777e-01,-4.448954185969517527e-01,-4.335571276370459026e-01,4.373881381644722371e-03,3.701439525095938463e-03,3.531023297364778088e-03,7.686478644609451294e-02
-4.072922171084977783e-01,-5.226752526953462041e-01,-3.512840035927877191e-01,-3.346976806563783415e-03,1.609924941006053711e-01,7.459493030465000341e-02,3.426297307014465332e-01
-3.934135858574772660e-01,-4.127886083289044605e-01,-4.199175432355015669e-01,4.842655383354706883e-03,2.484296649186492744e-03,7.598701337008416205e-03,2.874763309955596924e-02
-3.878556750171308076e-01,-4.068650230026624737e-01,-4.256044706507438047e-01,5.559716048687882856e-02,-4.349007743155910988e-02,-5.003937529602996842e-02,1.533879339694976807e-01
-4.281422185811807335e-01,-3.800981754311469896e-01,-4.495318169705552758e-01,2.615863220202644182e-02,-8.967117218685141319e-03,-7.309819839207983873e-03,7.904263585805892944e-02
-4.029397563994631670e-01,-4.034410872026287787e-01,-4.183427912973556873e-01,7.205434784524512339e-03,-5.845276322150675871e-03,-6.972353015079135567e-03,2.517698518931865692e-02
-5.004889970311876546e-01,-5.748900055539916121e-01,-2.022667153196045231e-01,-6.433936102151860403e-02,-6.661675569386946161e-02,1.093578189681738699e-01,4.222197532653808594e-01
-5.664198811326544014e-01,-5.059011159332644780e-01,-2.209775919574169523e-01,-3.820885190252173297e-02,-1.218186698614694696e-01,5.890571174542926641e-02,4.017411172389984131e-01
-3.989218317121441260e-01,-5.040427233655728756e-01,-4.344589766446094181e-01,-3.356721565006832997e-02,-9.270482814677477590e-02,9.132373502992480185e-03,1.949118375778198242e-01
-4.536223089761973193e-01,-4.591726480621444728e-01,-3.416506949749932298e-01,3.271507315667184011e-04,-8.796630195917937850e-03,-4.076296878751602820e-03,1.160699799656867981e-01
-4.060349483739252308e-01,-4.392695143303252392e-01,-3.838497229862354310e-01,-2.720274047459812078e-03,-7.292820105043835814e-03,3.304132508834393446e-03,5.048310756683349609e-02
-4.702777417236585489e-01,-4.873777623815899185e-01,-3.211383681820367819e-01,-9.588015936395839767e-02,-8.264905511169780283e-02,1.497574553294246380e-01,3.747515976428985596e-01
-3.580580740336772316e-01,-4.318680728036911609e-01,-4.426053320633971389e-01,-2.573830797486648114e-02,1.859670514901680394e-02,-6.096955498855392147e-03,9.742758423089981079e-02
-3.985506110761152798e-01,-4.650339365592076613e-01,-3.475221100887470049e-01,-1.134278769518923084e-02,-7.680971511965892229e-02,4.159591931300261891e-02,1.835546791553497314e-01
-3.902568744709477011e-01,-4.180231687461858914e-01,-4.229079738378864750e-01,-2.826530239838631435e-03,-3.952959916361616609e-03,7.398074380511352605e-03,3.413943946361541748e-02
-3.775539052517752348e-01,-4.393225054286085118e-01,-4.646074111794017969e-01,-5.663263216140543288e-02,-3.835081400873339985e-02,3.271957476553275651e-02,1.525199413299560547e-01
-3.940042224187933484e-01,-4.089727789378413969e-01,-4.369975909152818971e-01,-3.247589221234262625e-03,-1.523538148137451370e-03,2.255233694772928142e-03,3.850715607404708862e-02
-2.840016442311065759e-01,-4.354855970790528219e-01,-4.497699737314905244e-01,-9.257247671722489135e-02,6.754692136952475390e-02,-4.503690241356512330e-02,2.660770714282989502e-01
-3.602126744432168071e-01,-4.331133093561898018e-01,-4.476199049897243709e-01,-5.972069889063659487e-03,-2.796269220602436373e-04,-1.753855452682380424e-03,8.184707164764404297e-02
-3.665244262592402547e-01,-4.208391694114758663e-01,-4.393206749286251989e-01,-1.207851321282959328e-02,1.671025259742545208e-03,-2.392655400808346190e-03,6.898331642150878906e-02
-3.808152366324886184e-01,-3.997135461469037421e-01,-4.288269994205528013e-01,-2.463474268059679881e-02,1.139517421150451106e-02,-1.142864040292486741e-02,6.600710004568099976e-02
-4.283490489124029965e-01,-4.088998817040011002e-01,-3.886913921646880099e-01,5.224402342180566386e-03,-2.514791304649496330e-03,-5.623423259074743219e-03,3.708659857511520386e-02
-4.209513093784109650e-01,-4.273031883024738242e-01,-3.799502440532561698e-01,1.100220213573233768e-02,-9.704948150496384152e-03,-7.198158980835650186e-03,5.275425314903259277e-02
-4.322672085980625023e-01,-4.246053445230827950e-01,-3.723874797533393011e-01,5.732944772595470473e-03,-2.897770789016459406e-03,-8.428329216785681449e-03,5.934978649020195007e-02
-4.217933884166615299e-01,-4.016800320754403963e-01,-4.011224234569877312e-01,5.714643854823737990e-03,-5.362990094219092368e-03,-7.162338249232863378e-03,2.746319584548473358e-02
-4.145519307622608229e-01,-4.023766720088708393e-01,-4.126809966870279567e-01,4.861774484812497570e-03,-7.167929375541177983e-03,-8.834986236004717039e-03,2.425236813724040985e-02
-4.333898160142756195e-01,-4.184508450056280138e-01,-3.810561193668857149e-01,4.563309660176387283e-03,-3.809365739727543863e-03,-4.322954723975199615e-03,4.839675873517990112e-02
-4.308667707845131867e-01,-3.674477280244582977e-01,-4.205870141303951204e-01,7.157858845390742235e-03,-7.624614493015467037e-03,-1.044979336244339710e-02,6.427612155675888062e-02
-5.048914184387340853e-01,-4.208731989357651915e-01,-2.872860566654218406e-01,6.230910094067356603e-02,-1.723993444094031047e-01,-1.418620718038048067e-01,4.442012608051300049e-01
-4.435101461566379188e-01,-4.185856122294715487e-01,-3.659822922348417995e-01,4.333943882016018379e-02,-5.075676196499674664e-02,-6.282275363070570495e-02,1.729254722595214844e-01
-4.932277673838635912e-01,-5.189345170582995159e-01,-2.572441175501591903e-01,2.010991358620466130e-02,-2.659681348142600363e-03,-1.336192104948268344e-01,3.423627018928527832e-01
-4.309395789734686844e-01,-4.013992776906114557e-01,-3.791899037378424486e-01,9.074983708623824558e-03,-8.937924109492272756e-03,-2.337086788154653719e-02,6.439933925867080688e-02
-4.349357679578901292e-01,-4.258695068293620323e-01,-3.798269181102639225e-01,6.058057653578572711e-03,-9.708029461833397877e-03,-1.909270279056372865e-02,6.407794356346130371e-02
-4.699905908620105599e-01,-1.325695781898649783e-01,-4.680116201010836585e-01,-9.400602742923619415e-03,-1.815197201713870923e-04,-2.280911327327116850e-02,3.391387462615966797e-01
-4.414815540283048567e-01,-4.475611934353301846e-01,-3.507917320116040738e-01,-1.240680440470590118e-02,-3.172231686093616998e-02,2.096074476628455655e-02,1.166693121194839478e-01
-4.184733804799011803e-01,-4.233988078472343264e-01,-3.876744642484587500e-01,-6.639471775995890029e-03,-3.532224720195530857e-03,6.516516537469922710e-03,3.770415857434272766e-02
-3.687067391806880257e-01,-4.343856385462970260e-01,-4.312653417436305703e-01,-3.408817446551218322e-02,-5.494060970098557650e-02,1.765829785766905372e-02,1.326476037502288818e-01
-4.356569900178551280e-01,-4.381794977408734471e-01,-3.464600425570087405e-01,-9.093896884521309246e-03,-1.300155688870920957e-02,8.864589431910485651e-03,9.580406546592712402e-02
-4.448876027666358590e-01,-3.938775673761110152e-01,-4.136137224170446935e-01,-4.280828623342163887e-03,-5.553987152091092137e-03,1.622136727775147502e-02,5.405286699533462524e-02
-3.900791086960038734e-01,-4.149578230410945756e-01,-4.281783049040592815e-01,6.305355325376552078e-02,-3.652699857451050663e-02,-1.848934754216389337e-02,1.344549208879470825e-01
-3.651178174965926670e-01,-4.344570834838007989e-01,-4.417756356999447132e-01,4.876327773955387371e-03,-6.672862389157156043e-03,-4.794833446149697129e-03,7.511888444423675537e-02
-3.430034816038373680e-01,-4.719941102627787100e-01,-4.899458434148444841e-01,6.755643287882953651e-02,-1.859012675158917480e-02,-7.134261837413257909e-03,1.848175823688507080e-01
-3.521956907263882885e-01,-4.210142582033097325e-01,-4.395354933973815714e-01,2.347746229642614854e-02,-8.782074350975461324e-03,-3.292787837307845165e-03,9.094565361738204956e-02
-3.741266373463182360e-01,-4.199800862536548496e-01,-4.299204873553628681e-01,1.039420184733181110e-02,-3.286952809440698599e-03,-6.728009362957654456e-03,5.612023547291755676e-02
-3.771500255037287808e-01,-4.305062673831214770e-01,-4.228440742142779429e-01,3.512378426066940437e-03,-6.811607447171828117e-03,-7.082906344080502729e-03,5.313641950488090515e-02
-3.568094268079428644e-01,-4.309375831108787080e-01,-4.256478498474172700e-01,2.338925850185197622e-02,-3.596015881922220991e-02,-1.985079434885665683e-02,1.087822616100311279e-01
-3.771154963243545377e-01,-4.589220232504986896e-01,-4.622443875855218320e-01,4.505388168282946360e-02,-4.827507461964248431e-02,-3.389495159740524288e-02,1.533060520887374878e-01
-3.841499842172983459e-01,-4.226866883572331646e-01,-4.245388547498372134e-01,1.496276818596191209e-02,-1.615087931098703813e-02,-6.884137725677770721e-03,5.618064105510711670e-02
-4.255770317579901096e-01,-3.736262977915986161e-01,-4.307769436906257465e-01,-9.580527476870472070e-03,6.218194566751635011e-03,-2.528924996764079364e-03,5.836609378457069397e-02
-4.386527019102821057e-01,-3.535099311937240363e-01,-4.340986632599900252e-01,-7.217783370104505387e-03,3.206380054640422389e-03,-2.664566834689798772e-03,8.420640230178833008e-02
-4.413938289656155201e-01,-3.553502470890140263e-01,-4.873186447564472612e-01,-7.532439156780368350e-02,1.080258552837029193e-02,-2.413345931792243437e-02,1.805069893598556519e-01
-4.096262719179497580e-01,-3.880907720686082585e-01,-4.238435387198052351e-01,-5.874862882220427580e-03,7.383826750702175354e-03,-6.157817136272389531e-03,3.678240254521369934e-02
-4.137195618798275576e-01,-4.370615871594611956e-01,-3.978749271535320098e-01,-6.756159643696165243e-03,1.315194788714640732e-02,-7.708841266201916544e-03,4.472007974982261658e-02
-3.925533166124436368e-01,-4.103708580871326950e-01,-4.218868757424945048e-01,-3.693214005332592226e-03,3.164825385644279114e-03,-5.943982203565897210e-03,2.884841710329055786e-02
-4.287067361756697892e-01,-3.689683487749115254e-01,-4.384603035155512085e-01,-2.828043800828117238e-02,4.353981892664641681e-03,-4.253639453967599654e-03,8.220079541206359863e-02
-4.196558144166786519e-01,-3.870605376979803780e-01,-4.252619791917567338e-01,-4.390401420254280533e-03,7.164753258730521650e-03,-6.264028235380389269e-03,4.007689654827117920e-02
-4.088129094441803058e-01,-4.539896911089378317e-01,-4.570708466813515614e-01,-5.527058940383745150e-02,5.213853495250182074e-02,-4.206294161107224094e-02,1.575350761413574219e-01
-3.654803323624863376e-01,-4.272669367159966369e-01,-4.300283798188733186e-01,1.143411629153017611e-02,8.948460946178179304e-03,8.438591452543475410e-03,6.958377361297607422e-02
-4.329296723901543964e-01,-4.221748836002493510e-01,-3.761790680542735910e-01,5.967497276761599308e-03,-3.621448867959484001e-03,-7.696110828372060113e-03,5.522521212697029114e-02
-4.551731343623499071e-01,-3.801255254814085993e-01,-2.311827649741010071e-01,3.299136605474803363e-02,-5.706402977569537821e-02,-1.220168187423777417e-01,3.109540045261383057e-01
-4.396168767195076099e-01,-3.618221932785543049e-01,-4.241977514673423988e-01,6.940193524452238681e-04,-2.238443579612330904e-03,-1.363322432105679161e-02,7.526159286499023438e-02
-4.389785358455416953e-01,-3.818266549922048614e-01,-4.046131776954876580e-01,1.468841817849892654e-03,1.161076608564489202e-03,-8.941199753778685672e-03,5.228405445814132690e-02
-4.421970094877663571e-01,-3.526051316696980908e-01,-4.434120218432506810e-01,-6.018675117312142879e-03,2.408744542095282281e-03,-2.805094981492712355e-03,9.103143215179443359e-02
-4.179763903278578829e-01,-3.810106072102791841e-01,-4.345989722255118592e-01,-5.139253462328815733e-03,4.985505358111735029e-03,-2.668657292822775202e-03,4.931949824094772339e-02
-4.047145603342912068e-01,-3.759225369872296607e-01,-4.479580259440438805e-01,-2.760150552207450356e-02,1.265353072126258402e-02,-1.071551869560535483e-02,8.399033546447753906e-02
-4.491606846979875334e-01,-3.424198573594909867e-01,-4.478859940894751035e-01,-5.250777265396249643e-02,-1.144809908671137397e-02,9.177535678355046300e-03,1.420430392026901245e-01
-4.480088158314533553e-01,-3.250256203877182060e-01,-4.411466207917849602e-01,-2.010852891349984919e-02,2.148920666919790917e-02,-2.612961208119291695e-02,1.377487182617187500e-01
-4.548214196049632507e-01,-2.915782942182232884e-01,-4.833834793930811835e-01,-4.307369020856107226e-04,1.034029808387262536e-02,-3.444365454095530722e-03,1.802320182323455811e-01
-4.257220471069322332e-01,-3.611000741776468903e-01,-4.732277514059228807e-01,-7.995340392652780515e-02,2.316163655316546416e-02,-3.344835193820745733e-02,1.834287494421005249e-01
-4.346881201998125666e-01,-3.668572290940069203e-01,-2.660284234232883072e-01,4.791141332386298496e-02,6.728670293915396672e-02,1.339930492428283992e-01,3.097389340400695801e-01
-4.294219271062801324e-01,-4.172883747307368218e-01,-3.739416422128677975e-01,7.534065682347888641e-03,3.941115657634223363e-03,8.524431962513703137e-03,5.465339496731758118e-02
-4.298544231491588929e-01,-4.009951511898244836e-01,-4.014658618126835665e-01,8.690853744831500416e-03,4.504708813427202828e-03,1.313655804345015277e-02,4.030722379684448242e-02
-4.120714821753604373e-01,-4.236151284729892663e-01,-3.909215855129660189e-01,6.962407282130987293e-03,4.158620714549884564e-03,4.752436810474984508e-03,3.301189839839935303e-02
-4.398159682760819367e-01,-4.282411503066380076e-01,-3.702846626751205017e-01,-2.531699243430388796e-03,-5.375767153347603758e-03,9.563476572138055257e-03,6.740973144769668579e-02
-4.812999327726222298e-01,-5.239575296983456365e-01,-1.690857329409246046e-01,-6.499819760308982175e-02,-7.962564703467055194e-02,1.351101406545158201e-01,4.461781680583953857e-01
-6.069482302720967670e-01,-4.499391744508636215e-01,-2.636597878993945931e-01,7.609474154707734223e-03,-8.044223672822234383e-02,1.117359102556470113e-01,3.816290199756622314e-01
-4.093910200876432204e-01,-3.968027331589039086e-01,-4.325066625320838631e-01,2.106820189910935635e-03,2.645210088516392402e-03,1.566280100283000193e-03,3.202266991138458252e-02
-4.358867220381091867e-01,-4.159849229369136925e-01,-3.575284922768519613e-01,1.519698134032649228e-03,1.666918138287231690e-04,1.720005565403522063e-02,7.662350684404373169e-02
-4.340258341168691802e-01,-4.214740464131055964e-01,-3.567493557527036119e-01,6.992011905761494686e-03,1.544803149966945087e-02,2.289538724625578628e-02,8.714602142572402954e-02
-4.803948267881427148e-01,-4.826870361617107141e-01,-3.275406040710518996e-01,-6.416218987545430075e-02,-4.209150235282765884e-02,1.714087263744333844e-01,3.599004447460174561e-01
-4.493389335173590959e-01,-3.189932278843005120e-01,-3.154903208112936341e-01,-4.482358696181051871e-02,-4.780642401454618384e-02,1.448750259394642748e-01,3.054652214050292969e-01
-5.661811826943192738e-01,-2.689890440255328641e-01,-4.739037730168710327e-01,-8.796656209927580794e-02,-8.163660235567589407e-03,8.369447720555059367e-02,3.374059200286865234e-01
-4.994823999271584269e-01,-3.482500716690651310e-01,-4.189871019789859763e-01,-4.007495613880590613e-02,3.103885365613755221e-02,-8.091462938603191657e-02,2.110141962766647339e-01
-4.679347885351544667e-01,-2.253697628365072259e-01,-3.911437311439037723e-01,-2.544819635512892992e-03,-9.456132358014283923e-03,-1.295417812438237060e-01,3.110285103321075439e-01
-5.918243337528328318e-01,-2.878858678257088521e-01,-4.365788612058553730e-01,-1.042911031492003010e-01,-5.749260407070504869e-04,-1.309382158684804787e-01,3.916120827198028564e-01
-4.476155059554038917e-01,-3.646725735432972959e-01,-4.883481716576679732e-01,-1.920385880873088924e-01,2.636805384025730711e-02,-5.810474837687920613e-02,3.671075105667114258e-01
-4.213712559078748310e-01,-3.648849400012155186e-01,-4.322304658914767339e-01,-1.217955849281154683e-02,-6.779117155240719020e-03,4.859981620444845871e-03,6.764447689056396484e-02
-3.984079557768046564e-01,-3.993000346106375109e-01,-4.298898641708763790e-01,-8.781872861446719108e-03,-4.376270734251777247e-03,4.653300445050021980e-03,3.629877045750617981e-02
-3.722558635536954430e-01,-3.841821687986233247e-01,-4.720136434041146134e-01,-5.983221491834728872e-02,-3.044378382925089915e-02,1.741026487500481681e-02,1.527534425258636475e-01
-4.385619617022241679e-01,-3.494396739385307593e-01,-4.353133410705719575e-01,-1.111150332095847508e-02,-1.175021404577382411e-02,1.098038442855607359e-02,9.386222064495086670e-02
-4.380077438604244033e-01,-3.694656152235255564e-01,-3.948326820938378723e-01,3.553280014519611882e-03,3.472696523537822846e-03,3.610831528389139844e-02,8.711077272891998291e-02
-5.330001625206324256e-01,-4.355071007834818708e-01,-3.143941541807473983e-01,-2.525289976494457175e-02,-1.099048927175816232e-01,1.726934734938616323e-01,4.044754803180694580e-01
-4.306431853088934503e-01,-4.233169547251839360e-01,-3.749129897125864641e-01,-6.677698425236413063e-03,-4.303386754225568475e-03,6.482924448522713046e-03,5.537737160921096802e-02
-4.353124193679350773e-01,-4.099801090026839456e-01,-3.825518572243254978e-01,-1.568330369772091360e-03,8.008660071071940778e-04,7.478000278203344314e-03,4.760168492794036865e-02
-4.952843184208289840e-01,-4.594631137881766136e-01,-2.820491671353000940e-01,-1.570006114591467375e-04,2.227367329415536404e-02,5.999242397954095141e-02,2.267151176929473877e-01
-3.999900573561148698e-01,-4.329440792902883861e-01,-4.019386027570753805e-01,-2.723358774747103653e-04,1.373907642344207071e-03,-2.154800548064072325e-04,3.211816772818565369e-02
-4.032493423588977555e-01,-4.248436543560200618e-01,-4.026192828577158656e-01,-3.296735282141534818e-03,3.331195862746370775e-03,-2.297068419402320365e-03,2.370743639767169952e-02
-3.653126887077223772e-01,-4.374598152987201338e-01,-4.336914395154144453e-01,-4.717995329346013136e-03,6.457880248012100484e-03,-7.263366698891648814e-03,7.278524339199066162e-02
-3.963722244231828173e-01,-4.323663504146894598e-01,-4.002954438362800738e-01,1.242893414004876145e-05,3.832566852976422491e-03,1.362878699894725602e-03,3.491982817649841309e-02
-4.002434977925194426e-01,-4.329634824817651384e-01,-4.019791748630667794e-01,-1.460079843706062945e-04,8.159742786788505217e-04,4.925415337648114157e-04,3.193129971623420715e-02
-4.002143708634723351e-01,-4.310518063254293875e-01,-4.016895828313272743e-01,4.861769680361065714e-04,3.966673942368805698e-04,5.531623482315174478e-05,3.014667890965938568e-02
-3.768584122798936398e-01,-4.311927088632943605e-01,-4.019794978362888349e-01,-8.259445251686942796e-03,2.440533410362002650e-02,-8.590196340460034760e-03,6.656755506992340088e-02
-3.998503935945199594e-01,-4.316088153425340357e-01,-4.023413238712213458e-01,-1.343676371424836662e-04,1.436530469606903592e-03,-5.397451469419760599e-04,3.070526197552680969e-02
-4.030388122323732558e-01,-4.340180690212758208e-01,-4.015429846133546921e-01,-1.248157511996457990e-03,6.763945403618967615e-03,-2.177440585306757159e-03,3.412391990423202515e-02
-3.385416671273717704e-01,-4.854175803016738677e-01,-4.806121847948061632e-01,-3.396879696586478647e-02,2.231963925113420594e-02,-5.534513849612142378e-03,1.610523462295532227e-01
-4.056988040275305019e-01,-4.240599316100456262e-01,-4.024992069239119452e-01,-3.131848976249784148e-03,2.230326166052864524e-03,-1.290125247454232491e-03,2.134147100150585175e-02
-4.181442943313706251e-01,-4.812251325452220341e-01,-4.103083876179654532e-01,2.915660807531797460e-02,8.537574805430279967e-02,4.599560834498193918e-02,1.878804266452789307e-01
-3.348917868926457597e-01,-4.388808190126785025e-01,-4.727729668230588045e-01,-2.257422585901332560e-02,1.933739492005400601e-02,-7.068593426084762710e-03,1.352305263280868530e-01
-4.190115930405383660e-01,-4.255250644117601899e-01,-4.538062976308219754e-01,-6.081801992266789442e-02,4.769823424409265489e-02,-4.349731884012262434e-02,1.569215506315231323e-01
-3.876595093170451256e-01,-4.192701915511731214e-01,-4.255894288221932498e-01,-3.265528934849895593e-03,6.159098547702764222e-03,-6.601650453118701120e-03,3.892895206809043884e-02
-3.760214768692368148e-01,-4.299341541007036804e-01,-4.222122075981116218e-01,-3.309407435250460126e-03,7.465251710770548325e-03,-6.829883074063822050e-03,5.375763028860092163e-02
-3.812524262705232481e-01,-4.411063866517948573e-01,-4.189481385350400378e-01,-3.674555913403043227e-03,-4.440621936451409971e-03,3.252309118306916883e-03,5.365279689431190491e-02
-3.639210866812609413e-01,-4.505509508758609449e-01,-4.215135014779416434e-01,-2.579303502074603918e-03,-1.671554252629988552e-02,2.032092312375079028e-03,8.187167346477508545e-02
-3.776545951823115366e-01,-4.298010028831714679e-01,-4.181137304363146678e-01,4.910566868845426050e-03,-6.196438011255379734e-03,-9.379567412583366889e-03,5.194081366062164307e-02
-3.818795446612918143e-01,-4.412658504653899083e-01,-4.206526495557002532e-01,3.200754444114480100e-03,-5.524908227329155749e-03,-3.417128274895123771e-03,5.371065065264701843e-02
-3.915420118501691249e-01,-4.319692138773198464e-01,-4.082857068735058492e-01,3.888658418641917597e-04,-2.760826938804375463e-03,-2.816592623985186145e-03,3.584590554237365723e-02
-3.914237866810311717e-01,-4.355756577535093155e-01,-4.088941139140100933e-01,-2.616637776496554338e-03,-1.744410659104427691e-02,6.710337038142248287e-03,5.051504075527191162e-02
-3.957213022455806639e-01,-4.351258630316779952e-01,-4.086135912072253462e-01,-3.597885251383740532e-03,-3.021549205316857809e-03,1.973074216849293738e-03,3.590011596679687500e-02
-3.781940814394357808e-01,-4.028937152959695123e-01,-4.294269771970161687e-01,2.384401657670499192e-02,1.178779895995419810e-02,1.130601557622448912e-02,6.689838320016860962e-02
-3.772044280087392121e-01,-4.184180002126015041e-01,-4.395352989436085434e-01,5.859826524699678942e-03,-5.965004063271978248e-04,-7.672618655694334955e-04,5.586290732026100159e-02
-4.421257551711955114e-01,-3.718161134542737889e-01,-4.310409773271433598e-01,-1.939393880565960793e-02,8.491749418607794087e-03,-3.993019727048888190e-02,1.020535007119178772e-01
-4.090983774131087269e-01,-4.270634488742110491e-01,-3.955032195901183600e-01,-1.430949620521082197e-02,-2.330055485746021504e-02,1.956756209587578316e-02,6.437011063098907471e-02
-4.239752005314270655e-01,-4.109756216562651110e-01,-4.002594070914198277e-01,-4.839994776418761122e-03,-7.326255643512354348e-04,2.669281151506572823e-03,2.272431738674640656e-02
-4.207123092032211686e-01,-4.059652596019702187e-01,-3.986518771299318309e-01,-1.040198977777631074e-02,-5.032927842383539199e-03,4.390750735066728527e-03,2.893515489995479584e-02
-4.242822514721974470e-01,-3.961398648576724968e-01,-4.065673854771497120e-01,-1.212695632772450155e-02,-1.053496730695517233e-02,1.364902046951963453e-02,4.404889047145843506e-02
-4.213300998550071341e-01,-4.233105264257726597e-01,-3.780448629226787483e-01,-8.288308057265866835e-03,-9.190193403379176562e-03,5.239361765330571158e-03,5.005074292421340942e-02
-4.187426601870534726e-01,-4.242908272209819920e-01,-3.922244467741105578e-01,-6.231773115642726645e-03,-3.362533788513538766e-03,5.480955718008167707e-03,3.349138423800468445e-02
-3.836561644380294123e-01,-4.466706990706773572e-01,-4.188516652163981058e-01,-5.411261119114195439e-02,-3.905667735049307698e-02,3.734460144478143201e-02,1.433051973581314087e-01
-4.097606079207912755e-01,-3.980159651787747443e-01,-4.204984996186562074e-01,-2.037073865658372597e-03,-4.983444228300026521e-03,1.732960330485807093e-03,2.180170267820358276e-02
-4.118567753705673073e-01,-4.119340361468242784e-01,-4.109825863285978542e-01,8.111950963354355388e-08,-4.746026698854300253e-04,-3.542396874730568425e-04,1.374742365442216396e-03
-4.102508407711851213e-01,-4.103283686721792001e-01,-4.104975080163590362e-01,1.119893610079416950e-03,-4.764527204278494140e-04,-3.562088879977686894e-04,2.207236364483833313e-03
-4.118336440059037762e-01,-4.110786973548229972e-01,-4.116852852710138899e-01,5.577220523838620839e-04,-1.148134837326913234e-07,-4.266067210011728291e-04,1.399676199071109295e-03
-4.099627210732313398e-01,-4.113844139763274121e-01,-4.125223406165249851e-01,4.812602911559974339e-04,-1.593326590372437621e-04,-6.844514806817736646e-04,2.666512038558721542e-03
-4.125514395574286231e-01,-4.110764214039472342e-01,-4.080153193571680048e-01,2.075658909080347649e-03,-5.977864160547715798e-04,-1.215866768650702024e-03,5.873101763427257538e-03
-4.096008728394413545e-01,-4.111581527289488447e-01,-4.076662755622251222e-01,1.187962379123933291e-03,-1.437513687951205623e-03,-3.844785700889710939e-04,4.478511866182088852e-03
-4.370453367451517246e-01,-4.826262387263356435e-01,-3.818413378982677409e-01,2.159729461526428695e-02,6.618570298787485040e-02,3.603559238399850484e-02,1.614868789911270142e-01
-3.374372647781527790e-01,-4.849834868816502720e-01,-2.637992558043560920e-01,1.086593819542340522e-02,1.512343508570964112e-01,1.560417872902272046e-02,3.282645642757415771e-01
-3.723541881384715979e-01,-5.001503818094245046e-01,-3.790671262004716713e-01,1.286866479366296882e-02,1.804021354787914699e-01,8.438684570342086522e-02,3.674426078796386719e-01
-3.395135218360120777e-01,-4.506912797334997056e-01,-2.676809318119040548e-01,2.450905810104013829e-02,1.434336517259808819e-01,3.217559288400155537e-02,3.035360276699066162e-01
-4.206929212009752894e-01,-4.414463731189459672e-01,-3.774251580679076068e-01,8.982886470638915249e-04,5.785219540653432045e-03,-2.939951203186350667e-04,5.747909843921661377e-02
-5.710334269848701405e-01,-6.092144277268803920e-01,-2.561723155598777391e-01,1.526952168654455155e-02,1.039282902895911770e-01,5.960155382195812812e-02,3.954450786113739014e-01
-4.454963824446303566e-01,-4.213869574338494073e-01,-3.581274148723048723e-01,7.585450228691194112e-03,2.362691344463937505e-03,1.367643106641339319e-02,8.281716704368591309e-02
-5.757003994444110928e-01,-4.754953268938013622e-01,-2.649469352404004718e-01,4.074498961264506197e-02,5.482162251499492212e-02,9.259255193308302267e-02,3.393914103507995605e-01
-4.586303477702124431e-01,-3.967129662986396132e-01,-3.352971041867228164e-01,1.288830390319135443e-03,-1.551593996980139313e-02,9.447019829794302270e-02,1.972547918558120728e-01
-5.179939582673256382e-01,-4.230709411762813010e-01,-3.850376761950303206e-01,-1.681108129685000493e-02,-3.224654745381067000e-02,9.209423098846100664e-02,2.085150778293609619e-01
-4.441609921450335174e-01,-4.274420241644557028e-01,-3.518166965291749659e-01,-5.827031220968634760e-03,-9.348402529011794887e-03,2.297770105714739067e-02,9.597425162792205811e-02
-4.487611118336947147e-01,-3.656684802960997183e-01,-4.260720690608369443e-01,1.226175726498191171e-03,5.398147954195993328e-04,-1.310307774756625833e-02,7.780965417623519897e-02
-4.759966170880450820e-01,-3.380550435498969608e-01,-2.680472728157512474e-01,1.074516856760064469e-02,1.773117525444204562e-02,1.597334177828007573e-01,3.337960541248321533e-01
-5.293389286488525691e-01,-4.796124797757900238e-01,-3.305195411313487375e-01,-1.864938843621125053e-02,-3.484372331499659831e-02,1.796211123803438947e-01,3.655026257038116455e-01
-4.426325666702480843e-01,-3.212646653169388133e-01,-2.978704916290117466e-01,-3.887236847612900170e-02,-5.821078707835652261e-02,1.649027247642591010e-01,3.382220566272735596e-01
-4.733699996634821994e-01,-5.031023375994511104e-01,-2.858168347216929472e-01,8.253593477384706112e-02,7.022987073239075895e-02,1.421530123943543500e-01,3.707995116710662842e-01
-4.960354197573929036e-01,-4.106562420848814954e-01,-3.299468905823528253e-01,-1.947751811929011520e-02,-9.573394599384473305e-03,7.994277093664300948e-02,2.031750828027725220e-01
-4.421555348909665395e-01,-3.297777332326128352e-01,-4.058382494264322071e-01,-3.860211517037443027e-04,-9.437905643882820014e-04,-5.341746117861802257e-02,1.357565969228744507e-01
-4.023017966942646906e-01,-4.268401745676803638e-01,-4.017366215468665125e-01,-6.512224600529250293e-04,3.602014077154301998e-04,-1.024437234503820663e-03,2.492247521877288818e-02
-4.016242171177618614e-01,-4.274950778662925388e-01,-4.019869650974540742e-01,-9.184880813198327771e-04,1.066432620465733883e-03,-1.955772395997847513e-03,2.602818235754966736e-02
-4.058353774197306363e-01,-4.280927432419698864e-01,-4.024439698780146735e-01,-2.315976465687133359e-03,6.877088063976308360e-04,-9.669072401429190363e-04,2.454975806176662445e-02
-4.043568466021714713e-01,-4.321884889448594502e-01,-4.051898541521279928e-01,-3.333370615405266673e-03,5.138644406808549892e-03,-3.589582493474385502e-03,3.005522675812244415e-02
-4.080042136350809923e-01,-4.337240621946753527e-01,-3.951339916395746332e-01,-2.421804995986464801e-03,2.083046691664229219e-03,-1.113917366344633741e-03,3.453271463513374329e-02
-4.113010286330819887e-01,-4.288692456202892744e-01,-3.887715098930618063e-01,-5.416027853526707986e-03,3.954240748571469927e-03,-2.335066099841607429e-03,3.692276775836944580e-02
-3.979037769790905177e-01,-4.102000161353931973e-01,-4.110779638699544325e-01,-3.985663514705286604e-03,3.922827793133157499e-03,-6.373171370455435816e-03,1.945348270237445831e-02
-4.135081834525337063e-01,-3.676276491129500945e-01,-4.272177900828894592e-01,2.018576193318395717e-02,-1.102352703848562959e-02,-6.513762945727681261e-03,6.808977574110031128e-02
-5.456484116513379279e-01,-2.551724390305265544e-01,-4.915831400078600755e-01,-2.739502496839849380e-02,5.825674991884179088e-02,-1.123018253352085633e-01,3.490885198116302490e-01
-4.308982528335523199e-01,-2.185150105507654983e-01,-4.488147612989658031e-01,8.338681428120803263e-02,-1.171996736424659076e-02,-4.585642633184840861e-02,2.771522998809814453e-01
-4.234403236410677063e-01,-3.903886374962302064e-01,-4.820335700610078877e-01,7.355697091641284768e-02,-1.850259515019673368e-02,-1.799381296013189552e-02,1.571382880210876465e-01
-4.361547613357910635e-01,-3.876828203479394386e-01,-4.699926775012064906e-01,5.978609712339424259e-02,-2.895432831794178888e-02,-4.964387143847079353e-02,1.605193316936492920e-01
-5.069483710270409338e-01,-3.385568088404307119e-01,-4.581742972814307757e-01,1.392419551061454264e-01,-3.777965204111259634e-02,-7.814526800202481471e-02,3.213851451873779297e-01
-4.484408205866164954e-01,-4.318769727017761628e-01,-4.308969526582206444e-01,5.609892129820896745e-02,-5.222452426639859202e-02,-5.479956889038428702e-02,1.640853434801101685e-01
-4.010370214596906124e-01,-4.060266572682903474e-01,-4.280036690160183843e-01,-4.233264002190357742e-04,9.865944742793028230e-04,-2.437335029991096087e-03,2.527493424713611603e-02
-4.413536970211562882e-01,-3.416632051352943567e-01,-4.480427885021505685e-01,-1.159908614409566226e-02,3.982423483800406547e-03,-4.873715134069042144e-03,1.056987792253494263e-01
-4.049000424169603707e-01,-4.021174349679547677e-01,-4.273769130471462563e-01,-1.941245912513490631e-03,7.462175739130974669e-04,-8.809225881068004750e-04,2.430639415979385376e-02
-3.999648390956187516e-01,-3.976476319811398930e-01,-4.304743804243016392e-01,-4.866830628502979636e-03,1.098722786521589721e-03,-1.102698609194065248e-03,3.294276818633079529e-02
-4.107287605158733146e-01,-4.090168170628434297e-01,-4.120742981465737587e-01,-3.306693636851022852e-04,1.108761700860225316e-03,-5.109133483163152360e-04,3.441494889557361603e-03
-4.035403398800894159e-01,-4.016591092685013464e-01,-4.316644694465068266e-01,-1.310139010850126014e-03,8.227271285736998492e-04,-9.877236082330488089e-04,2.928345091640949249e-02
-3.928151175695508424e-01,-4.069323117119733046e-01,-4.315558116338772399e-01,-2.386433417977468913e-03,2.234386090431986216e-03,-3.748558927204173608e-03,3.503490239381790161e-02
-4.565030363904972188e-01,-4.287199606216827164e-01,-2.917784825289767570e-01,5.839841800743143102e-02,6.888022120337455867e-02,9.405651495666439432e-02,2.726426124572753906e-01
-5.237180630504295609e-01,-5.078233780256640184e-01,-2.911008812438248272e-01,-5.250973419976150136e-03,6.682899791701302217e-02,1.718644037765866828e-01,3.908442258834838867e-01
-4.492139057154836967e-01,-5.908614539139726007e-01,-2.536275987315704805e-01,3.429418374984499231e-03,9.881179096130973671e-02,4.934253300194196140e-02,3.502185046672821045e-01
-4.944150962333641597e-01,-4.601702587510937970e-01,-2.565505125051047997e-01,1.249728269907100266e-02,3.003427976248676523e-02,1.109899546311866048e-01,2.995624542236328125e-01
-4.408215113154443920e-01,-4.201598864116574683e-01,-3.746060083689339293e-01,4.931856271263963202e-04,9.118691416120164317e-03,2.750291823498573693e-02,7.721844315528869629e-02
-4.470486764452829553e-01,-3.803488348617926063e-01,-4.066669349543398648e-01,9.975025058677613327e-03,1.657345698595408257e-02,2.368903348790505139e-02,7.869022339582443237e-02
-4.406335867531649408e-01,-4.005963258782264114e-01,-3.944499037200121516e-01,6.727962031756387759e-04,-7.626732539518712474e-03,-3.692081399454055779e-02,7.843561470508575439e-02
-4.194662685380801670e-01,-4.391509956884680488e-01,-3.785222511556990410e-01,1.025476943680277142e-03,-5.057359123668007245e-03,-7.577280752758270687e-04,5.432753264904022217e-02
-4.020974879155719273e-01,-5.095526416599842623e-01,-4.035381782399971584e-01,1.026349440460929546e-02,-7.454569613903788694e-02,-7.357475548115356527e-03,1.689481437206268311e-01
-3.967169544859640018e-01,-4.506111772699795126e-01,-3.218362149557602025e-01,1.035188992645232064e-02,-5.945854528965494046e-02,-1.123634916067807119e-02,1.544459760189056396e-01
-4.330632827055231893e-01,-4.446813880525822826e-01,-3.580620303753627165e-01,5.306475460390389608e-03,-9.088698318881725802e-03,-1.484723772929820483e-03,8.348917961120605469e-02
-4.138259158514569491e-01,-4.490909638689619121e-01,-3.572023328081445070e-01,3.654205372120242212e-02,-4.487052232062236495e-02,-5.361660027563453640e-02,1.584833264350891113e-01
-4.222879837865970432e-01,-4.492572838041120065e-01,-3.640044485844317612e-01,4.518227809744231049e-02,-5.166163145652932775e-02,-4.025361117867672089e-02,1.571251899003982544e-01
-3.753035729615445404e-01,-4.374118129503787866e-01,-4.051686820511729015e-01,5.583813453916600458e-03,-3.366602221056108624e-02,-6.205156631271678894e-03,8.064577728509902954e-02
-4.345589987840695056e-01,-4.463473823830910181e-01,-3.598920038377157460e-01,-1.896554961765857875e-02,3.347656114312315412e-02,-2.102574689447374301e-02,1.111831441521644592e-01
-5.941658548511049576e-01,-3.396269158542223332e-01,-3.442829082333244695e-01,-9.845744798254126018e-03,2.213151857852887691e-02,-1.643752676013454372e-01,3.826807141304016113e-01
-4.862481454086315935e-01,-4.513546225161060854e-01,-3.356719784170838494e-01,-4.521078712378966136e-02,5.978507987249825212e-02,-1.924984435221445411e-01,3.829600214958190918e-01
-4.339312054293780752e-01,-4.352643255193520688e-01,-3.471793905012982573e-01,-8.041819579191290812e-03,1.253757303620879095e-02,-9.403968485020879758e-03,9.259694069623947144e-02
-4.418436607024445739e-01,-3.994083589792891686e-01,-4.089527700038484426e-01,2.519808327564632220e-03,-3.506176733877198332e-03,-1.669200410184423430e-02,4.877117648720741272e-02
-5.693736686127958135e-01,-5.008353615015914695e-01,-1.666965807219018825e-01,-2.727541019875089762e-02,3.830493308998789842e-02,-3.524911865348825946e-02,3.867928087711334229e-01
-4.921232935738399927e-01,-4.825811923166723472e-01,-3.204115667832615477e-01,-9.778857033809211681e-04,-3.666250676770953319e-03,-4.130550431459589777e-02,1.819315999746322632e-01
-4.485975981410897373e-01,-2.948055414235512539e-01,-3.122728805445994515e-01,-6.765851387742045919e-02,5.512580703339321070e-02,-1.654994976196271783e-01,3.553738892078399658e-01
-4.315640849541324542e-01,-4.026552801043361551e-01,-3.823171511205041284e-01,-5.125628747442089253e-03,2.878784651300820251e-03,-9.175625823479745952e-03,4.683550074696540833e-02
-3.414280368945091793e-01,-3.772775632728171402e-01,-5.523290349402891763e-01,1.822548390139677454e-01,2.390149096960078601e-02,6.718312121955855032e-02,3.912911415100097656e-01
-4.166789824443857260e-01,-2.838831188365955605e-01,-4.340255015002890682e-01,9.783904015059009807e-02,4.520796011911129564e-02,7.685960761066820690e-02,2.698334753513336182e-01
-3.989245395546153761e-01,-3.578086383749178312e-01,-4.514485003580743783e-01,1.073158319095917496e-01,1.183747720604760301e-01,9.105785939180183197e-02,3.287419676780700684e-01
-2.716113931858050723e-01,-3.572458247282454535e-01,-4.295502642725294029e-01,1.379781066091395336e-01,8.735534184362629684e-02,5.967503222295283266e-02,3.308217227458953857e-01
-3.908810869435067059e-01,-4.192371893756301482e-01,-4.255685193061029548e-01,2.939218746729031426e-03,4.123140195537248684e-03,5.829707988414085766e-03,3.467795252799987793e-02
-3.329401037214633763e-01,-4.370112946520579023e-01,-4.929607893924007334e-01,5.863155686321105259e-02,7.487612961207714378e-03,2.349801343765216266e-02,1.786659806966781616e-01
-3.929773585064856856e-01,-4.224333583522457691e-01,-4.144984284197499869e-01,3.446903692650609471e-03,-5.179011649154238901e-03,-8.344503079983616595e-03,3.196701034903526306e-02
-3.945813384821099112e-01,-4.086961377884780755e-01,-4.234112283601553228e-01,1.480803777273079387e-02,-1.078885925406930513e-02,-9.197283938765812156e-03,4.340811446309089661e-02
-3.996540115373961033e-01,-4.314885983249590051e-01,-4.204949281662871408e-01,7.617278714649005668e-03,-2.086763888250233508e-03,-7.952418351658784718e-03,3.407606482505798340e-02
-3.867325739907575555e-01,-4.182883558632115584e-01,-4.214780075699294248e-01,3.535288624727141258e-03,-6.202949358808219384e-03,-6.608439577728122960e-03,3.728983923792839050e-02
-4.024040109347521987e-01,-4.106523964444889763e-01,-4.268341008299151307e-01,1.766337403079249434e-03,-2.010316932003323315e-03,-5.335869284041996549e-03,2.388000860810279846e-02
-3.941791661387075152e-01,-4.216613725824722714e-01,-4.106410059121433642e-01,3.035252458715289280e-03,-3.643783589404974311e-03,-6.558410889187501168e-03,2.775543555617332458e-02
-4.013824632324499708e-01,-4.224524600863279189e-01,-4.084827748532558478e-01,1.693320358673098928e-03,-2.060697623215206227e-03,-3.348601882779855387e-03,1.999341137707233429e-02
-4.044549508379034486e-01,-4.010731075331763207e-01,-4.233136403782873369e-01,3.386825938067632678e-03,-3.339420307620482534e-03,-1.820169725111892792e-03,2.255371771752834320e-02
-3.795323229575141566e-01,-4.399928540290174439e-01,-4.186039900989896312e-01,5.837742534596931324e-04,-4.629008698173021560e-03,-3.330300676794299328e-04,5.371606349945068359e-02
-4.121148170205348737e-01,-4.372685988114602407e-01,-3.933336345063357387e-01,-4.350391074917600229e-03,-1.628181146262169116e-02,6.276130791032742337e-03,4.927578195929527283e-02
-3.533982669781045027e-01,-4.944898241681925377e-01,-4.532940078925067340e-01,-3.283048550552553069e-02,-6.330828775020500010e-02,3.176335906081392130e-02,1.845958083868026733e-01
-4.023050706229598927e-01,-4.051050337655545674e-01,-3.948915035963044828e-01,-2.131616818776519567e-02,-2.293924261784399676e-02,2.425467229891786411e-02,6.921119242906570435e-02
-4.020884441268989251e-01,-3.822428594535712265e-01,-4.301460203806188320e-01,2.218696959705424715e-02,-8.700089790841449011e-03,-7.202506776584381015e-03,5.997817590832710266e-02
-4.088874648062129080e-01,-3.856585162743527695e-01,-4.314453707357116530e-01,6.675509280553458547e-03,-6.501341886716379033e-03,-1.933904523635073631e-03,4.294355958700180054e-02
-4.187836341016112351e-01,-3.841137469623691625e-01,-4.329104324227933120e-01,4.144829341950911211e-03,-5.529905153648788027e-03,-1.629796928052605664e-03,4.519501328468322754e-02
-4.211465856551358522e-01,-3.745030030527248810e-01,-4.300222833342004503e-01,7.444115534915646780e-03,-6.302686749210275469e-03,-2.713015316605562124e-03,5.455175042152404785e-02
-4.382599285079865070e-01,-4.212882088221674426e-01,-3.652116358212655900e-01,2.927216935598472673e-03,1.677299374014931807e-03,1.083681287910150289e-02,6.907092034816741943e-02
-4.439011079972260410e-01,-4.207300190760508984e-01,-3.619160157160606350e-01,-6.542366121237410716e-03,-3.846763352124784631e-04,1.415329264411138016e-02,7.802928984165191650e-02
-4.422646397527348894e-01,-4.165813812063807187e-01,-3.609592876470159029e-01,3.300815813388906055e-03,2.482012970910873854e-03,1.471630597969281022e-02,7.669993489980697632e-02
-4.301438553631078965e-01,-4.222845214169836936e-01,-3.755010814776943984e-01,6.611515170838744293e-03,3.419812718367327802e-03,7.801307708430456171e-03,5.446970835328102112e-02
-4.443031811549140730e-01,-4.169329332320266257e-01,-3.493154063587131097e-01,1.103776789220039210e-02,3.031430253649941911e-02,5.494059555685196911e-02,1.391033530235290527e-01
-5.722975552818240219e-01,-4.283424820652136367e-01,-2.579290943072660158e-01,6.907495410764780130e-02,4.200218876440876131e-02,1.466967395882032843e-01,3.980729281902313232e-01
-4.848142492391882552e-01,-4.565626514597491137e-01,-3.131954135450306653e-01,9.244014076068573366e-03,-4.059221400239046017e-04,3.095508688393042510e-02,1.689206063747406006e-01
-4.313811734170881484e-01,-3.732328281125087410e-01,-4.236155044121059920e-01,-2.745219230094667843e-03,7.052748146209057191e-03,-5.548519251655723190e-03,5.704529210925102234e-02
-4.344084882831221184e-01,-3.642667991971692554e-01,-4.498764397879575494e-01,-6.696575124422306409e-03,-1.599280512004514756e-03,-4.509945831735220206e-03,8.029499650001525879e-02
-4.216319872092093024e-01,-3.457814304914502701e-01,-4.417996500177070462e-01,-2.670246877865610144e-02,-6.301519693647210200e-03,5.193932023723505861e-03,1.001443639397621155e-01
-4.548942954454220922e-01,-2.856495104077382274e-01,-4.554428937632890029e-01,2.390850271164699501e-04,2.118202966766937791e-03,4.287077773756420296e-03,1.697224676609039307e-01
-6.146348023094717616e-01,-2.936214196308424285e-01,-5.261370275345104153e-01,-8.594519890573354415e-02,3.537027419017085839e-02,-1.544684115802756330e-01,4.242250025272369385e-01
-3.675367691404308745e-01,-4.182339911885740169e-01,-4.401099512409979431e-01,7.144535245712982548e-03,6.397064302263216241e-03,7.951210289303657641e-03,6.799545884132385254e-02
-2.200864843678146388e-01,-5.259726483192612712e-01,-6.321467067569687126e-01,1.011735371229750408e-01,2.336243504725448589e-02,4.114022220260533935e-02,4.180187284946441650e-01
-2.306201275704872211e-01,-4.424426985904270082e-01,-6.246822396263143062e-01,1.622249868149457097e-01,-2.563586253891061637e-02,4.393488966812644780e-02,4.509941935539245605e-01
-2.610390909340193910e-01,-5.691232162713397713e-01,-6.196891585096796495e-01,1.413038087304320789e-01,-6.359492816239538382e-02,-7.195436367133078645e-03,4.303950071334838867e-01
-3.232359115572388530e-01,-4.505866750343787142e-01,-4.546980243669129784e-01,8.895923931219666680e-02,1.177426852754595021e-01,1.067922581233131524e-01,3.410333096981048584e-01
-4.768714436763473730e-01,-5.000229470572850055e-01,-3.181072934894241810e-01,-1.111592843966786003e-02,-5.123975156082592047e-02,-4.025443485114783490e-03,1.941996812820434570e-01
-4.052876842064412344e-01,-4.161155483153899381e-01,-4.039375485200905058e-01,3.146122947122399066e-03,-2.124024919204299013e-03,-1.094067605962875580e-03,1.343518774956464767e-02
-4.095603568949397477e-01,-4.143506224511657177e-01,-4.027025827165773286e-01,6.209717526093413639e-03,-3.017117132566015172e-03,-3.562089432336090159e-03,1.684881187975406647e-02
-3.930929799513057654e-01,-4.303283559449890272e-01,-3.926110147063666123e-01,3.732271524451907796e-03,-1.333684891247520835e-02,-3.538070959728641541e-03,4.491781070828437805e-02
-3.972277612635436439e-01,-4.350610635909403223e-01,-3.700925310018572945e-01,4.935670539800873780e-03,-2.921395547514270968e-02,-7.796166580122826720e-03,7.752472907304763794e-02
-2.997352255743482297e-01,-4.399428822656399340e-01,-4.470119951736268304e-01,2.201956171141805294e-02,-1.192834495221031799e-02,-4.977689262628077690e-03,1.505160331726074219e-01
-4.243805490368772193e-01,-4.305817581316806475e-01,-3.774970070067112937e-01,8.232700671862634018e-03,-6.160151309604019500e-03,-4.061246744468754999e-03,5.379509180784225464e-02
-2.863657745953068212e-01,-4.845706738619449117e-01,-4.955218039958511067e-01,-2.621379244278114820e-02,3.614401443163639538e-02,3.584343522723791586e-03,2.181625068187713623e-01
-3.658972569432072386e-01,-5.413365569721912962e-01,-3.590706435188782963e-01,1.096673661196214400e-01,-1.520360136245112459e-01,-3.236155126129947046e-02,3.749542236328125000e-01
-3.634083327757122728e-01,-4.328580696515956783e-01,-4.209644790162759831e-01,8.083755026551432687e-03,-9.591400033640761977e-03,-9.834965142521436693e-03,7.000658661127090454e-02
-3.646889147239208429e-01,-4.402034140471040025e-01,-4.188530102220243689e-01,1.829028366945907591e-03,-1.149324617437049931e-02,-3.461079396966782514e-03,7.062769681215286255e-02
-3.405192117690241105e-01,-4.352598557446525351e-01,-4.428822904952594008e-01,1.404483352947926561e-02,6.599280900163507926e-05,1.718154689424039724e-03,1.017678081989288330e-01
-4.116924726462625750e-01,-4.416847510941846466e-01,-3.933094140479748146e-01,2.553929344900598020e-03,-1.611890322053189523e-02,-4.774212704525982592e-03,5.153860151767730713e-02
-4.376182369036434316e-01,-4.086479702983244477e-01,-3.680808805394508720e-01,-1.825862068323236753e-03,-2.773232129797598491e-03,1.833783924931065012e-02,6.857191026210784912e-02
-4.352439036907808645e-01,-4.016333296785891127e-01,-3.975362017012507576e-01,5.448302209332151359e-04,-6.269957079482447147e-04,3.853738508034129737e-03,3.647996485233306885e-02
-4.397291802295675844e-01,-3.402685169057597658e-01,-4.215610550790405142e-01,-8.489674557467881758e-03,-8.906635976795591880e-03,4.569874466995297452e-02,1.230236738920211792e-01
-4.830361189749968198e-01,-3.623213234569980790e-01,-3.815767539832462529e-01,-1.312263458604035794e-02,-2.075650259284231303e-02,7.475988594310693791e-02,1.766200661659240723e-01
-4.390040583830125409e-01,-4.180198830353342165e-01,-3.751455415147870731e-01,1.720161966505174070e-03,4.586112722109275631e-04,5.753224209381880248e-03,5.733266100287437439e-02
-4.058438783821777807e-01,-4.044727078730109282e-01,-4.073942738604036107e-01,-7.863183084724292837e-03,-6.960797580335322671e-03,6.560251984492489717e-03,2.159554325044155121e-02
-4.347769770999629912e-01,-4.102435626088628551e-01,-3.855577191903818979e-01,-2.316483536163118501e-03,-1.895471983242512284e-03,5.452044283719658518e-03,4.396542161703109741e-02
-4.439896463656129999e-01,-4.058880217228253429e-01,-4.016657298744011895e-01,-1.694521558613688991e-03,-7.018827150572492244e-04,2.445415761950531577e-02,5.860501155257225037e-02
-4.086457754515036012e-01,-4.087541737035464973e-01,-4.144883618263645042e-01,3.034163868237055032e-05,7.111790718090240477e-04,6.462724003467979579e-04,6.023896858096122742e-03
-4.148724875000826540e-01,-4.106755176314519362e-01,-4.083333709371561593e-01,4.101024905858007951e-04,1.220193172328457119e-03,1.199189121485373655e-03,6.497342139482498169e-03
-4.171893528515380756e-01,-4.058097732104417044e-01,-4.073086994452459475e-01,2.390901148010045156e-03,4.052302208869782395e-03,2.735254910897119349e-03,1.426681503653526306e-02
-4.141853807941178744e-01,-4.088123917107258642e-01,-4.079501755351477854e-01,1.298108183881007934e-03,1.153051600979917730e-03,8.721110725679916131e-04,6.750606000423431396e-03
-4.124296871224055194e-01,-4.048512279185841889e-01,-4.163393284714643761e-01,1.241878990383176590e-03,3.480388125574372139e-03,7.591886791358091633e-04,1.204336341470479965e-02
-4.154237704411201659e-01,-4.044238099182493884e-01,-4.122279782011844529e-01,1.394601730001047112e-03,3.763580588416216670e-03,1.359079815703428430e-03,1.224452070891857147e-02
-4.084971853381260121e-01,-4.115758338742577238e-01,-4.115185676226170153e-01,1.248020918495258876e-03,9.776759148640611422e-04,1.679484646781548426e-03,5.030633881688117981e-03
-4.074840252415115049e-01,-4.083474575672166873e-01,-4.134169021331021709e-01,5.186578673643462041e-04,1.944951619149396134e-03,8.196741834364779751e-04,6.707684602588415146e-03
-4.044395010203699625e-01,-4.142257252065731365e-01,-4.093641332384349019e-01,3.264502749870246915e-03,2.775100524550688872e-03,4.100049069594964915e-03,1.331669371575117111e-02
-4.227234911845118570e-01,-3.636542576986898090e-01,-4.393992770653221691e-01,-1.304983276209760630e-02,-3.011238609110845812e-03,1.978257261357077666e-03,7.281565666198730469e-02
-3.605548490572363374e-01,-4.503744600516518259e-01,-4.350096070870747567e-01,-4.233152437922232882e-04,5.637334861330996032e-03,-1.305973431782634156e-03,8.381269872188568115e-02
-4.380647903119373465e-01,-3.425500710159838924e-01,-4.486673531701645956e-01,-1.270569150213382049e-02,1.497799008972689524e-03,4.765891380485996515e-04,1.036334484815597534e-01
-4.343331488005999219e-01,-3.643475494901520229e-01,-4.493615595482505221e-01,-6.727496722530278139e-03,1.597512139425447683e-03,2.031408704387104806e-03,7.957024127244949341e-02
-4.216494956732590449e-01,-3.628423378815184286e-01,-4.440624627182025441e-01,-1.357808180426708748e-02,6.807210695230354359e-03,-5.940310253865497062e-04,7.727763056755065918e-02
-4.009095469350273389e-01,-3.324360548068024390e-01,-4.498414836100288472e-01,-6.380914895549830157e-02,-1.783593822525072667e-04,-9.052935129098722833e-03,1.513085514307022095e-01
-4.201177874583869598e-01,-3.635009778114711154e-01,-4.384553034618826617e-01,-1.094086319656129014e-02,3.323049038904040808e-03,-1.661523817358086848e-03,7.057235389947891235e-02
-4.166419352819201727e-01,-3.879962672376309207e-01,-4.414226038717389278e-01,-1.378736399029299037e-02,1.283711294857957375e-03,-3.497068416155116864e-04,5.215457454323768616e-02
-3.404590396219355775e-01,-4.365607843438290003e-01,-4.515130226139451586e-01,-1.107786445424225885e-01,9.701126569861590054e-02,-1.291588833239681600e-01,3.549526631832122803e-01
-3.110739497659532615e-01,-4.610943528969739802e-01,-3.191059118258248728e-01,-2.580391687327089970e-02,1.409475329201002602e-01,-1.706599501885839101e-02,2.895437180995941162e-01
-2.961211719518024865e-01,-4.359736871900009580e-01,-4.228263238509921695e-01,-7.603527197458402609e-02,9.602863466774162748e-02,-4.135371563224951585e-02,2.608291804790496826e-01
-3.338183218721852974e-01,-4.586955537996793009e-01,-4.375175975349199775e-01,-1.329542353548871132e-02,2.567741766318567403e-02,5.119488318994164580e-03,1.264322251081466675e-01
-3.411748692847531572e-01,-4.445118236625866803e-01,-4.174747709702840703e-01,-1.238799171180533353e-03,4.483624420976439068e-02,-1.913650716193257507e-03,1.210869848728179932e-01
-3.667814550981729482e-01,-4.352370015770469780e-01,-3.897119786199010338e-01,3.946716743322193147e-03,3.401797587049393279e-02,3.326471225228468370e-03,8.481653034687042236e-02
-3.657555161169246394e-01,-4.387940807666390608e-01,-4.239119077642287126e-01,-6.302791505552477131e-04,1.127136055618191413e-02,-2.516359688731396264e-03,6.978865712881088257e-02
-4.314852034314474172e-01,-4.628474692540311408e-01,-3.199812996093482909e-01,-1.907885803621324483e-02,6.737748100286045094e-02,-5.699799997423606740e-02,2.033991813659667969e-01
-3.302788078381953540e-01,-4.491854848559911906e-01,-4.453326632487369929e-01,6.541175630632447939e-03,3.468074357865163961e-03,5.288932204377751363e-04,1.177318915724754333e-01
-3.256364687952980619e-01,-4.765177945104561719e-01,-4.398587658813718493e-01,2.959851095432769127e-02,2.683873680353933422e-02,3.671749261207332216e-04,1.528642177581787109e-01
-3.035052592843092700e-01,-4.923145476440758950e-01,-4.459300706267607106e-01,1.458119206275021928e-03,2.851531615452130089e-02,-1.434631377380692031e-03,1.774670928716659546e-01
-3.289212738814575876e-01,-4.345279589823252131e-01,-4.309916583238249665e-01,2.161672160907075757e-02,2.514130967711290798e-02,8.756475828625622654e-03,1.196660026907920837e-01
-3.028307357487463602e-01,-5.105944445036194601e-01,-4.912940146910632633e-01,9.367696309661735499e-03,-5.630845325142502106e-02,6.307762969700011005e-03,2.223125845193862915e-01
-3.605097145310051654e-01,-4.276016940336099803e-01,-4.513850074287468761e-01,-3.562057172280448658e-02,1.169924587445123933e-02,-6.378436681532097599e-03,1.048894450068473816e-01
-3.361458967098043260e-01,-4.607633148613252128e-01,-4.586189062423485230e-01,-2.275074213586522360e-03,-1.526786393904629429e-03,-4.617528137785502709e-03,1.239086538553237915e-01
-4.099696857002235739e-01,-4.108799120985039965e-01,-3.688794011322918398e-01,-3.446472843831871469e-02,-4.439271385167700007e-02,5.000154743385617356e-02,1.367578059434890747e-01
-3.303164558541945017e-01,-4.371865778150083037e-01,-3.491894868706316157e-01,6.582582864541720868e-02,-1.190315747868522650e-01,-6.520338078234434731e-02,2.793198227882385254e-01
-4.821802912910855832e-01,-4.776245323292809819e-01,-3.327221590009446506e-01,-1.024845609465244514e-02,-1.913052891832639144e-02,6.355026567401206306e-02,1.876340210437774658e-01
-4.348384168748578582e-01,-4.205974432178946065e-01,-3.666009772074984019e-01,8.165315877976711545e-03,6.458839583825153226e-03,1.206076476363508385e-02,6.818313151597976685e-02
-4.370186907540850041e-01,-4.270428303304171780e-01,-3.640410582657751526e-01,-2.837211038924045050e-03,-1.486133968640532439e-02,1.524045371005032512e-02,7.797935605049133301e-02
-3.295799709869715044e-01,-4.213230272669615806e-01,-3.970023899887117347e-01,3.720666590389627715e-02,5.234621988732053588e-02,2.471913575920361983e-02,1.448569148778915405e-01
-4.301662126690947163e-01,-4.217548688722027594e-01,-3.717013365845510120e-01,-8.335027347292117000e-03,-3.645490601052739626e-03,8.264342691896183618e-03,5.873933434486389160e-02
-4.388476657695912775e-01,-4.315536767555970821e-01,-3.590273797938576816e-01,-3.774578643742088936e-03,-8.620951054535083008e-03,3.267983330174157458e-03,7.835825532674789429e-02
-4.182893447999743164e-01,-3.529924859656777825e-01,-4.429333792869451503e-01,2.375469901448116344e-02,-1.760424317071338386e-03,-3.381945335604164601e-03,9.064576029777526855e-02
-4.403932790057419333e-01,-3.267792861486398803e-01,-4.722435229267517576e-01,3.198188861182242604e-02,-2.629496999525201585e-03,-7.160423389715652939e-03,1.441675871610641479e-01
-4.308962125390625730e-01,-3.404446841371908117e-01,-4.500024717830656273e-01,4.129084778406104383e-02,1.525231090756223006e-03,-2.901708822147916391e-04,1.240836530923843384e-01
-3.936686697117782741e-01,-3.733732846308362996e-01,-4.926038413531775850e-01,1.047435983153923722e-01,7.000559158414181894e-03,6.053783874917115400e-03,2.130226045846939087e-01
-3.862769410624158350e-01,-3.879252898666845084e-01,-4.381109837213190694e-01,4.568247946178606578e-02,-3.578157828575338761e-02,-2.747515080883288982e-02,1.223532855510711670e-01
-4.536672529138885412e-01,-3.692283918011974309e-01,-5.220472277885657153e-01,9.637953795789699907e-02,1.566494418683494431e-04,-3.686345815394741904e-02,2.225388288497924805e-01
-4.221157411026391637e-01,-3.727926853904289239e-01,-4.351760585264942138e-01,2.547768305446690765e-02,5.809605731178987820e-03,9.446682731810551042e-03,7.459102571010589600e-02
-4.434181190527088368e-01,-2.903169221128347188e-01,-5.219260655700721507e-01,1.510356179838790169e-01,6.441858270326425440e-02,2.200778335067654287e-02,3.520805239677429199e-01
-4.273519605411441602e-01,-2.499634295176218490e-01,-4.583807947741087574e-01,9.660352311605738262e-02,2.834204340560056087e-02,5.297635971722119280e-02,2.770553231239318848e-01
-4.345244552971947449e-01,-2.487122880128566083e-01,-4.995153215429934956e-01,1.174764064489837445e-01,2.455565483943253358e-03,-4.002040917320325020e-02,3.115303814411163330e-01
-4.455438836377069167e-01,-3.948449145897768853e-01,-4.108291793786615353e-01,5.699633068589216728e-04,1.327219368079627032e-03,1.677403989704854409e-02,5.353373661637306213e-02
-4.339566604785795034e-01,-3.826966261857096541e-01,-4.064468759947402754e-01,-1.039235399818082620e-03,-2.522976468920040075e-03,8.102714103931200895e-03,4.683508351445198059e-02
-4.271895589361506262e-01,-4.011473365019914139e-01,-4.096191078180123069e-01,-6.912280779559598978e-03,-9.232984627913085746e-03,1.306207464765221822e-02,3.795102983713150024e-02
-4.319776735756477026e-01,-3.543691548220110898e-01,-4.988570549311998059e-01,-8.122945130288575233e-02,-6.170927176266725704e-03,-3.841580920570653816e-03,1.887843459844589233e-01
-3.362641073516933754e-01,-4.597634781159841144e-01,-5.051892150657480984e-01,8.154387279752099704e-02,2.640747326374381920e-02,1.278841943191061543e-02,2.132054120302200317e-01
-4.328863839251448353e-01,-3.922912239083566344e-01,-3.919935364943051281e-01,1.234324956354963723e-03,3.925047035854747885e-06,1.523864167009037970e-02,4.859382286667823792e-02
-4.336865905657819598e-01,-3.941278320082809983e-01,-4.079301845043238339e-01,-1.775806257593598144e-03,-3.065422706029480478e-03,2.675522460947035372e-03,3.561632335186004639e-02
-4.347384631476152173e-01,-4.011196047281999633e-01,-4.033344888529936667e-01,1.782836339755348521e-03,2.517357327975977771e-04,7.257198122227121947e-03,3.504850715398788452e-02
-4.374560410067405147e-01,-3.839543089453316682e-01,-4.075226845411425436e-01,2.786063790983603350e-03,1.100711797639182879e-03,9.902946350786371449e-03,4.978032782673835754e-02
-4.350234046568601243e-01,-3.946775531205725662e-01,-4.080824879527172322e-01,1.117771753424579712e-03,2.341094539653468774e-03,2.528169474024784084e-03,3.613878414034843445e-02
-4.318881901781078114e-01,-4.093206801215041879e-01,-3.856024323085808780e-01,-3.366435618354953700e-03,-2.017573203548986630e-03,5.655913580068651358e-03,4.182449355721473694e-02
-4.061024956080773740e-01,-4.084035589766585317e-01,-4.207898847563791844e-01,5.706258384452105915e-05,3.411191382505909591e-04,-2.157776564198680969e-03,1.419663801789283752e-02
-4.013933142839008483e-01,-4.080182016385915933e-01,-4.233138315135556162e-01,-6.876408901078012205e-03,6.429661966432365268e-03,-3.891661157299445423e-03,2.627715654671192169e-02
-4.055649215353498982e-01,-4.055081873906878909e-01,-4.200814372801340846e-01,2.081616669978732215e-04,3.506271361348410869e-04,-9.024910567513521557e-04,1.464576087892055511e-02
-4.103845816961897430e-01,-4.102259742065120784e-01,-4.125540068484271905e-01,-4.069637093804730774e-04,7.946506341326033509e-04,-1.182363764352079320e-03,3.414801321923732758e-03
-4.046665435933592403e-01,-4.042515990546371452e-01,-4.237049443648394642e-01,-5.531614722761753460e-04,2.165663671964162228e-03,-4.208825713398043787e-04,1.964821666479110718e-02
-4.053052575941737956e-01,-4.140669291983362088e-01,-4.152624234651474677e-01,-8.257464912982244443e-03,8.062375792446598022e-03,-8.658544564750592434e-03,2.670476958155632019e-02
-3.919079093462921604e-01,-4.107863382992495427e-01,-4.210526541397111022e-01,-8.724072048946141661e-03,5.204062783521514780e-03,-7.540988093586500733e-03,3.370131924748420715e-02
-4.133213804610062492e-01,-3.972381561400407657e-01,-4.194375133520187870e-01,-1.942174264273133395e-03,6.268740631502340947e-03,-2.033327765862149011e-03,2.315286174416542053e-02
-3.382630170067392750e-01,-4.540021281528249242e-01,-4.421147373037203621e-01,-5.822190211438240705e-03,1.347894362126579419e-02,-2.172231225535896978e-03,1.132338792085647583e-01
-3.300474345949354626e-01,-4.533935856268668796e-01,-4.460022762255049233e-01,-6.421463288056107263e-03,3.572605096155237817e-03,-2.706993044534413903e-03,1.205868721008300781e-01
-3.721937841241083622e-01,-4.270440731026614589e-01,-4.314944037655330522e-01,-4.585433115409254939e-03,2.067352801577394469e-03,-7.376538582010512025e-03,5.925877019762992859e-02
-3.484965785476145661e-01,-4.400017972712330638e-01,-4.427323891683391244e-01,-8.464969021724689027e-03,2.098633355894967065e-03,-1.733042654245734804e-03,9.416854381561279297e-02
-2.854063699217485039e-01,-4.348554934281810835e-01,-4.463945368274694903e-01,-4.002552460900171000e-02,4.868518667555084625e-03,2.107164805540271877e-04,1.704994440078735352e-01
-3.662839109486127342e-01,-4.321481105955680135e-01,-4.168363146243166950e-01,-6.040956185714585307e-03,1.302403239635753322e-02,-6.921082836018066682e-03,6.577312946319580078e-02
-3.341431379063726226e-01,-4.448901649482118748e-01,-4.485290958791648408e-01,-3.927682955285539089e-03,4.748304330877776633e-03,-1.073751885137898916e-03,1.131305620074272156e-01
-3.591530410076959612e-01,-4.346409458381311763e-01,-4.473959480001766242e-01,-5.415951331540627862e-03,9.425108408379082254e-05,-2.864596046617560250e-04,8.313983678817749023e-02
-3.643670310093187203e-01,-4.242616358085122830e-01,-4.464539909999313827e-01,-1.269519097702947324e-02,2.274869573318568240e-04,9.446954408814917494e-04,7.678152620792388916e-02
-1.554120390778035432e-01,-4.765546869876399194e-01,-4.784767123022864443e-01,-2.286730955142084881e-02,6.024306349539370470e-02,-9.010477308124525270e-03,3.412528634071350098e-01
-4.321709021176051713e-01,-4.023351941614497496e-01,-3.969663827704337233e-01,1.641809363252789544e-03,-7.949890207951037721e-04,-4.011197658688346254e-03,3.372577205300331116e-02
-4.412616295872194838e-01,-3.799523371387555359e-01,-4.178206304224821865e-01,-6.463560594391842091e-05,-1.435575894558808454e-03,-5.388585058729645702e-03,5.444689467549324036e-02
-4.380641194172734676e-01,-3.684073519202027969e-01,-4.227837761965198005e-01,3.468498870687385018e-03,-5.266094633647125031e-03,-9.660461347768892204e-03,6.648635119199752808e-02
-4.314665693513025091e-01,-3.966665319662061595e-01,-3.952397740672803361e-01,4.146588127577184590e-03,-3.279864269355554311e-03,-1.127897471851410996e-02,4.157198965549468994e-02
-4.482010444815586192e-01,-3.527326356301927479e-01,-4.326637050370971127e-01,4.702722576217572246e-03,-1.313853681823580043e-03,-4.816315364836879290e-03,8.951769024133682251e-02
-4.558848972802207467e-01,-3.750755754731575631e-01,-4.037561558341027923e-01,-1.246893189740105358e-03,5.274157641610632483e-03,-2.908810019336153727e-02,8.753017336130142212e-02
-3.827136821601597738e-01,-4.345175906629082929e-01,-4.089379087757881170e-01,-5.946327475733752688e-04,-9.295227134679742709e-03,-2.167355086943181970e-03,4.782462120056152344e-02
-4.044724741429343018e-01,-4.280083419067303163e-01,-3.998157495129872618e-01,3.351362910787028786e-03,-3.636071662700599092e-03,-1.524073315563852747e-03,2.766854874789714813e-02
-4.063283435540132604e-01,-4.201191161862209977e-01,-4.043380068293780383e-01,3.850079657152830591e-03,-1.831613003906650125e-03,-1.264731174423418692e-03,1.676089316606521606e-02
-4.132105507207172179e-01,-4.134639876367204869e-01,-4.053997152197771348e-01,6.098391373987216077e-03,-6.677137872313994998e-03,-7.886816708890263816e-03,2.224819548428058624e-02
-4.314598744472213365e-01,-4.015010790314431088e-01,-4.029619457116523362e-01,1.021688536743408163e-03,8.785153759818080388e-04,8.496219810569969819e-04,2.938554435968399048e-02
-4.283130564110010363e-01,-3.901281921706092337e-01,-4.094123434006412543e-01,3.255480173771094568e-03,5.216003732672143747e-03,5.513148204073291085e-03,3.603052347898483276e-02
-4.320464218709946236e-01,-3.958367965344253281e-01,-4.095130499798899093e-01,9.512409733530146228e-04,3.493055915124674941e-03,3.195067186930901967e-03,3.275529295206069946e-02
-4.449706006897315991e-01,-3.764008708179245599e-01,-3.644200828506806156e-01,1.137316250070176133e-03,9.985168517301283402e-04,6.743244415868231145e-02,1.389789283275604248e-01
-4.247992574298008472e-01,-4.062081904809248245e-01,-4.021311579854393581e-01,3.659601042077854829e-03,1.565425299793099913e-03,1.574325649773882386e-03,2.220386452972888947e-02
-4.271585513025100145e-01,-4.055980751558770914e-01,-4.013982946074373115e-01,7.407527144485093716e-04,7.521863181801648982e-04,1.614279703007562251e-03,2.417028695344924927e-02
-4.197702760946901979e-01,-3.973389610466080968e-01,-4.128966683788097836e-01,2.048472602510057437e-03,5.372840591475597054e-03,3.238840268404718364e-03,2.295403182506561279e-02
-4.201859786699215227e-01,-4.041358542789437736e-01,-4.068819118685645386e-01,1.464618052838481200e-03,3.021195830926142085e-03,1.393976975520125079e-03,1.614684052765369415e-02
-4.238342560601912612e-01,-4.141419632415840324e-01,-4.043112882086440929e-01,6.316536480135800241e-03,7.030886219035047992e-03,8.916280677479810485e-03,2.814890071749687195e-02
-2.946959006664786052e-01,-5.968129830197789198e-01,-3.796080151955804061e-01,4.671945192733083924e-02,1.465536240171722571e-01,2.689191264983767718e-02,3.820771276950836182e-01
-4.331606849450282404e-01,-4.002797808354237596e-01,-4.077459552058270709e-01,-6.172451917409027024e-03,3.089360163527238388e-03,-1.491118722773185704e-02,4.124758765101432800e-02
-4.863283011979206982e-01,-3.934506860625944791e-01,-4.247335724270498991e-01,-2.381946561538100110e-02,1.415603128264131434e-02,-7.751444171892449275e-02,1.644023656845092773e-01
-4.340951153813898955e-01,-3.797456874479129274e-01,-4.038209690162024579e-01,-8.571507450670637004e-04,2.002283095613053600e-03,-9.797455613770416488e-03,5.027129873633384705e-02
-4.296279524229527080e-01,-3.810349190140304709e-01,-4.027065655434097224e-01,-3.340991205965872582e-03,3.732836250213016332e-03,-1.000368825302423714e-02,4.640433564782142639e-02
-5.066679574789534346e-01,-3.894202941642825877e-01,-4.302770450070095287e-01,1.006456596607227527e-02,-1.544051404335469724e-02,-8.324080697245486715e-02,1.800892651081085205e-01
-4.537613503906875456e-01,-3.277283940759760927e-01,-4.506349100999217372e-01,-7.991362006837299942e-03,-4.867038601589548756e-03,-2.301988580007101326e-02,1.317286640405654907e-01
-4.107822917798808482e-01,-4.099831338622368926e-01,-4.152193707289479341e-01,7.397976174462467377e-04,-5.143952519599023342e-04,-7.133553207983433370e-04,5.275849252939224243e-03
-4.073543670308567566e-01,-4.090846530389125602e-01,-4.165179086164026434e-01,5.508390453294280528e-04,-4.971428012256909421e-04,-1.457812071023815038e-03,8.895853534340858459e-03
-4.103739499363786014e-01,-4.102231897858872323e-01,-4.122740394084243865e-01,2.903330708564623940e-04,-9.622177581426975129e-04,2.303356320472635084e-04,2.666300628334283829e-03
-4.102424071872518008e-01,-4.113055177230495185e-01,-4.094635317479704550e-01,8.142449869287507382e-04,-1.787544711122290245e-04,-4.018190961308339072e-04,2.265855669975280762e-03
-4.190762059094375602e-01,-3.886895928223998431e-01,-4.247668245153697897e-01,3.008260211773491118e-03,-6.778232047409627793e-03,-5.081931336544267749e-03,3.702848032116889954e-02
-4.059890051665074329e-01,-4.119377294772801901e-01,-4.182830543104050780e-01,1.007458293366513945e-03,-1.207331857082176354e-03,-3.715346018632838775e-03,1.273680943995714188e-02
-4.088777343068825676e-01,-4.137738115167586272e-01,-4.113906434013120950e-01,1.181760209413295314e-03,-1.184677189320991475e-03,-2.356058655277494876e-03,6.560181267559528351e-03
-4.255691050996729952e-01,-4.021121976897493733e-01,-4.036137986021142710e-01,2.743991524060321492e-03,-3.156149964748085259e-03,-3.060049810403718974e-03,2.445040829479694366e-02
-3.558533593841334275e-01,-4.356559117808745385e-01,-5.094260801774135317e-01,5.656789000550177526e-02,-1.520504794542925676e-02,-1.714617704398171613e-02,1.699201762676239014e-01
-3.677997292594552547e-01,-4.379802793586433651e-01,-4.177558546726419797e-01,-6.469236288745399722e-03,-1.328346002681874728e-02,5.413271004924698551e-03,6.824800372123718262e-02
-3.720631980756921031e-01,-4.536483601548809141e-01,-4.314445736695217137e-01,-4.585792582721589725e-03,-2.482180615960245806e-02,8.229826890394708683e-04,8.515358716249465942e-02
-3.694435281886334632e-01,-4.427375332744122871e-01,-4.371223914744093997e-01,-6.833213410563710073e-03,-1.008068878353668950e-02,3.733033529013078753e-03,7.401844859123229980e-02
-3.041248443934922441e-01,-4.805075079587136644e-01,-4.550211535108455996e-01,3.323701977434456029e-02,-8.646527372580162241e-03,-1.019799740936280785e-02,1.763956695795059204e-01
-4.233392939822407386e-01,-4.138976545801987261e-01,-4.032672287458237137e-01,-8.140597008523786995e-03,-1.124497343127029217e-02,8.615996382905808521e-03,3.321718797087669373e-02
-4.254900958141313305e-01,-4.018567560967198915e-01,-4.027246954293314252e-01,-5.326056917038356729e-03,-5.946133917748691426e-03,6.383442530929116232e-03,2.919230982661247253e-02
-4.033223702797477661e-01,-3.984486576359203558e-01,-4.334706484718709452e-01,3.975555112575942032e-03,-2.917521004082928616e-03,-1.051924392658841727e-03,3.399818018078804016e-02
-4.077404019415505898e-01,-3.945764678944231330e-01,-4.335553903393148945e-01,2.549268003256147455e-03,-2.535779349102213441e-03,-5.216154307954761274e-04,3.491608053445816040e-02
-4.087484818257013930e-01,-3.860538308757671677e-01,-4.286210076528940149e-01,1.168619461301282671e-02,-4.195823306431820457e-03,-1.530612835953924561e-03,4.278444871306419373e-02
-4.182628005053974363e-01,-3.593111542710559769e-01,-4.376805985844853253e-01,1.440382018526813190e-02,-3.829404486318094096e-03,-2.992114015965417068e-03,7.543420791625976562e-02
-3.986795290888112131e-01,-3.964908640226901260e-01,-4.262616941355809042e-01,1.008386381002542541e-02,-7.685816621010771281e-03,-1.039976760915687325e-02,4.040628671646118164e-02
-4.219018977239047952e-01,-3.626505211092838077e-01,-4.480640646439189578e-01,1.317949519563914144e-02,-6.071398567928228086e-04,3.004605755030702817e-04,7.916945964097976685e-02
-3.635340091415225072e-01,-4.276971997875645970e-01,-4.388916782156836449e-01,6.723385022208305806e-02,3.492792605030425879e-02,1.924656763762778999e-02,1.526199430227279663e-01
-4.201007596727431292e-01,-3.674516861003223056e-01,-4.496747231742616036e-01,1.627538895314949163e-02,-1.034257668078665104e-03,-1.107217959533722020e-02,7.980751246213912964e-02
-4.197970588606542708e-01,-3.853594821101401502e-01,-4.192697018185026492e-01,6.313323452068884088e-03,-8.268717746850982181e-03,-8.149381875420528415e-03,4.113380983471870422e-02
-4.207614766508777082e-01,-4.087581721115668421e-01,-4.053881515826313064e-01,-2.220930247182465768e-03,8.151557708067401833e-04,-4.803906834208978492e-05,1.458374783396720886e-02
-4.206220678821096515e-01,-4.051516876780579812e-01,-4.048308008783396694e-01,-9.162853818804014058e-04,7.547241000022533513e-04,3.669345894264788919e-04,1.578072831034660339e-02
-4.241521115803313369e-01,-4.040686982483441270e-01,-4.047545821981378134e-01,-1.915845873128446935e-04,1.854424605221085837e-03,-7.109613469274397640e-04,2.004949375987052917e-02
-3.387464678681702535e-01,-4.337266234232262097e-01,-4.443145364206042003e-01,-1.390011942706959568e-02,-8.905253060367891477e-05,-1.714429972256452817e-03,1.035734415054321289e-01
-4.260788892640669512e-01,-3.929054403047285149e-01,-4.117869358312775674e-01,-4.957919572298775945e-03,5.534361286489895837e-03,-7.538259109154501689e-03,3.415744006633758545e-02
-4.189722289602237915e-01,-4.103367359240728263e-01,-3.962468958907128802e-01,-6.378020343920366014e-03,2.851676705290530876e-03,-2.794532656288932666e-03,2.376194298267364502e-02
-4.351518449757861284e-01,-4.071047316644872960e-01,-3.946451298345690084e-01,-7.287577384625987037e-04,5.486225157205207385e-05,-2.095278883997326626e-03,3.614015877246856689e-02
-3.912611444999747889e-01,-4.238324443198717706e-01,-4.126578161989901128e-01,-4.078651960104597365e-03,4.278450417315575807e-03,-7.642420009153370365e-03,3.319384157657623291e-02
-3.966494930688765908e-01,-4.314075995067874758e-01,-4.100199396510237904e-01,3.954340956979817204e-03,1.588921938641785908e-02,3.708415664597715031e-03,4.204441234469413757e-02
-4.098475424002219203e-01,-4.322555614571562677e-01,-3.827557117214911431e-01,5.106555526740138087e-03,7.925585301608559924e-03,4.559374737068423375e-03,4.660686478018760681e-02
-4.070837856418589862e-01,-4.182484458232422209e-01,-4.147076814165757130e-01,7.736608416302092478e-03,8.616893400856827367e-03,7.907254409524017841e-03,2.622111886739730835e-02
-4.205416797404490370e-01,-3.976371904242315125e-01,-3.884235156200590566e-01,5.642199731166717275e-02,5.927514926790385108e-02,8.380378599975663034e-02,2.048919796943664551e-01
-4.269770072138078243e-01,-4.189672463747483588e-01,-3.927169421595811394e-01,5.820406773921205958e-03,2.591739188571853033e-03,2.846807334490328908e-03,3.331049531698226929e-02
-4.182784095352204412e-01,-4.337141832182369594e-01,-3.642034837783275636e-01,7.909508418137634750e-03,1.081477613728923197e-02,6.296265201666020363e-03,6.822416931390762329e-02
-2.889899609038574235e-01,-4.443219636817672957e-01,-3.369419174671398620e-01,6.292208854403061324e-02,1.375657233371355981e-01,5.542359859837425046e-02,3.111990094184875488e-01
-3.786916935642825055e-01,-4.533978352832214176e-01,-3.965889002062303881e-01,1.019591938559248102e-02,3.041056474530030515e-02,9.398109802318600423e-03,8.896930515766143799e-02
-4.063312260889257455e-01,-4.420775162416409887e-01,-3.902102618696742797e-01,2.147077599583394059e-03,2.021168605597523787e-02,1.756474085507847170e-03,5.798766762018203735e-02
-4.018452542865703081e-01,-4.321079020558354911e-01,-3.769053886625847172e-01,7.422231673371129310e-03,2.542085002844862718e-02,8.614152374957859820e-03,6.796403229236602783e-02
-3.763244840812974834e-01,-4.309993998202665821e-01,-3.933673215396732981e-01,9.384634698952339787e-03,2.945249685942690279e-02,8.279816436029211607e-03,7.362212985754013062e-02
-4.232733173660058745e-01,-4.381706486808940038e-01,-3.899316519357431954e-01,1.032164947924019485e-02,1.907876910887271529e-02,1.750892547296513044e-02,6.451041996479034424e-02
-4.059871095930757678e-01,-4.235289991151430788e-01,-2.897202866975056024e-01,4.589161373018665196e-02,9.836949577821473001e-02,7.095961382995560895e-02,2.575244307518005371e-01
-4.122937930068951706e-01,-4.035795359099108026e-01,-4.149659427435307135e-01,2.312703164290227410e-03,-5.429507731447503344e-03,-2.518251043816912768e-03,1.516158599406480789e-02
-4.036163459226898564e-01,-4.216883580916835905e-01,-4.011484129869390403e-01,4.119683088745339922e-03,-3.566453494308487182e-03,-2.497540995764205816e-03,2.202444337308406830e-02
-4.156586053426387095e-01,-4.156575497836302313e-01,-4.073784958105399201e-01,4.655308571162142250e-03,-3.970859127179022716e-03,-5.211241390584120739e-03,1.619695872068405151e-02
-4.036109420879908649e-01,-4.202446486411001714e-01,-4.084779812346143180e-01,1.300444503270995833e-03,-2.067469144968970586e-03,-3.441118725640956132e-03,1.651762798428535461e-02
-4.001891725725967852e-01,-4.212304172534757085e-01,-4.019561718664493855e-01,3.473931856870770499e-03,-3.913602630336649596e-03,-5.972793234922639180e-03,2.445102483034133911e-02
-4.094764744165704795e-01,-4.217923864454812821e-01,-3.953499122420842671e-01,5.251879269448971044e-03,-2.639989885657719609e-03,-3.600278730110096671e-03,2.584113553166389465e-02
-4.129647215753460276e-01,-4.229217555147777863e-01,-3.919797616015865960e-01,7.185919670906083974e-03,-5.146781189453156734e-03,-4.388111508406608574e-03,3.225842490792274475e-02
-4.193281955627105595e-01,-4.112896747925722241e-01,-3.950392504515470860e-01,6.556302202245427833e-03,-2.899856294921978900e-03,-4.560937515537846071e-03,2.599832229316234589e-02
-4.087047347838370093e-01,-4.059712252331850180e-01,-4.206504882169579962e-01,2.959019940646351841e-04,2.242812547486039421e-03,9.408369686646864561e-04,1.417165342718362808e-02
-3.779304311983849862e-01,-4.572593195868425719e-01,-4.612265417196362849e-01,-4.833312195859062327e-02,4.381844156707983412e-02,-3.487067526210763102e-02,1.517888605594635010e-01
-4.253512262651357734e-01,-4.006294855240740138e-01,-4.014207689756102426e-01,7.302424611268677236e-03,6.470176134306288539e-03,1.352128528275518479e-02,3.776598721742630005e-02
-4.007289427824872186e-01,-4.142737612414741366e-01,-4.249994011435253016e-01,8.298606512212813868e-03,5.943428762698317429e-03,6.316281941812448321e-03,2.959794178605079651e-02
-4.145203291701531345e-01,-4.074671365587209104e-01,-4.112564939259236718e-01,1.480771249398706198e-03,2.661006955750046428e-03,2.062869575588775371e-04,8.082590997219085693e-03
-4.051901634914446548e-01,-4.070686089438027011e-01,-4.167426548617162441e-01,1.831102212316727601e-03,1.261164161868515935e-03,3.279388394288122819e-03,1.274289842694997787e-02
-4.050333115240438708e-01,-4.053805500621080471e-01,-4.203578185926690192e-01,-6.037772394129792177e-05,8.618000850969153226e-04,9.031768930035543501e-04,1.530771236866712570e-02
-3.936874203918952486e-01,-4.278518992419125810e-01,-3.907312904472102777e-01,3.875408585684086624e-03,1.492517001350292596e-02,4.335692751194365757e-03,4.524022713303565979e-02
-4.395402894611887823e-01,-4.153114265635369229e-01,-4.220240292745720545e-01,3.061273088526492506e-02,4.321087508616348188e-02,5.494683623066468070e-02,1.339398324489593506e-01
-4.002761611779884765e-01,-4.268774447768645119e-01,-4.048013682355302567e-01,1.463488525993860648e-03,2.022048992577557287e-03,3.308443334927854435e-03,2.567602507770061493e-02
-3.988521448227377864e-01,-4.340934200220901151e-01,-4.108686348186684767e-01,-3.896463219740607404e-03,-1.284711634136768803e-02,4.166746132992475357e-03,3.944166377186775208e-02
-3.345871211611610163e-01,-4.401394221250179428e-01,-4.003239940731455060e-01,1.057264965681119391e-02,-4.683090195767713321e-02,-4.717728138883489804e-03,1.245209202170372009e-01
-4.272514110254379549e-01,-4.837374511330002624e-01,-3.951090784918092069e-01,1.622443409965442646e-02,-8.095334022180782074e-02,-3.375758290665063777e-02,1.729397177696228027e-01
-3.773482431506920420e-01,-5.553748231039644656e-01,-3.665882685009090314e-01,-3.416384450797947669e-02,-1.974810284020321605e-01,-3.242597524925760338e-02,3.967075943946838379e-01
-4.110629752486086308e-01,-4.145947762528160441e-01,-4.065863914567017789e-01,3.366540542926478845e-03,1.493370168471555006e-03,1.745015043114496065e-03,9.907083585858345032e-03
-4.045954711052521802e-01,-4.152998836467133303e-01,-4.065428866796923502e-01,1.174091427034544381e-03,2.039070513629876943e-03,3.241566670769505457e-03,1.206909678876399994e-02
-4.048891984976027980e-01,-4.235890173879113263e-01,-4.042484288942459481e-01,1.803974236691872988e-03,4.920916602623148220e-04,4.696601956418870760e-04,1.931909099221229553e-02
-4.042347572267203093e-01,-4.197326576485552185e-01,-4.067031059778521973e-01,1.707779668515373031e-03,1.437803266010310652e-03,3.015215879111075078e-03,1.581927202641963959e-02
-4.052991736744401829e-01,-4.191005658527119371e-01,-4.019882940132349369e-01,3.236159749808824142e-03,2.580199420098968667e-03,1.641550005841075320e-03,1.751027256250381470e-02
-4.137932824195870163e-01,-4.019221530812188137e-01,-4.013589742819840822e-01,5.894445796371087024e-03,6.855519873429769505e-03,7.200159607165154338e-03,2.342394739389419556e-02
-4.222850918112711627e-01,-4.404276437319631365e-01,-3.526762058572223135e-01,-3.668647226293281129e-03,2.060676972206797186e-02,-3.575220429500834251e-03,8.826138824224472046e-02
-4.349673310714064489e-01,-4.367002924451780510e-01,-3.460416394725537304e-01,-7.079878335970640583e-03,2.242991509873373118e-02,-2.221460791134560048e-02,1.058538183569908142e-01
-4.480462409025976478e-01,-4.387920900566383287e-01,-3.148796514724312989e-01,-1.033390204325591085e-03,9.338391228259404139e-03,-2.363244236856607353e-02,1.361136734485626221e-01
-4.374892935967336638e-01,-4.462032067451480732e-01,-3.514958837549744253e-01,-6.863278377295267511e-03,2.417895429154157463e-02,-1.156369254478178780e-02,1.025498583912849426e-01
-3.331857310977383024e-01,-4.414158498067951575e-01,-4.352062557370778850e-01,-1.540784174162481215e-02,2.354718373910677509e-02,-3.042358868839927736e-03,1.161190569400787354e-01
-4.327300722159834190e-01,-3.611128033332982046e-01,-4.400529797452599756e-01,1.433845170924455924e-02,8.313239346983452432e-03,2.707257796947336662e-02,9.343437105417251587e-02
-4.202471525797811802e-01,-3.632677312227869937e-01,-4.379039169749283089e-01,1.668379890423790646e-02,-3.185866142182856072e-03,-5.341208491768154910e-03,7.426688820123672485e-02
-4.343702840806137333e-01,-3.555802651292691574e-01,-4.489559884067303441e-01,6.000269428584662466e-03,-2.065009214153692746e-04,-1.922147198228110439e-04,8.762457221746444702e-02
-4.266748474048576156e-01,-3.432192890260074014e-01,-4.319134424138045825e-01,9.326282276355266770e-03,1.136719333949222019e-02,1.637780172486011376e-02,9.424827992916107178e-02
-4.506555128722524173e-01,-2.432998381117094655e-01,-4.394467554020317079e-01,5.886153323135560195e-02,2.390388391177027463e-02,8.046150542498071989e-02,2.689390182495117188e-01
-4.325212458021931439e-01,-3.712216881213548647e-01,-4.324383512896095016e-01,3.475603146642707812e-03,7.718944527547584762e-03,6.625804832997721043e-03,6.402539461851119995e-02
-4.210470587812167875e-01,-3.667539996961662330e-01,-4.386877439657637656e-01,1.408452711607682123e-02,3.064024776525748912e-03,3.495564726079536822e-03,6.983294337987899780e-02
-4.003507049154988451e-01,-4.065435162588673101e-01,-4.320332704469632690e-01,-9.299689683563741940e-03,3.454977871052160657e-03,-3.827049735054125976e-03,3.442577272653579712e-02
-4.195570874887198376e-01,-3.672160238542766519e-01,-4.359815229198655273e-01,-1.069887436767362823e-02,6.108416895961941984e-03,-6.583990097044275028e-03,6.674132496118545532e-02
-3.995955227128621945e-01,-3.937900579286229830e-01,-4.262747285900229111e-01,-7.228675481877500086e-03,6.048148567855186203e-03,-4.570279820390460435e-03,3.506468981504440308e-02
-3.351629688776130434e-01,-4.885830481913628343e-01,-6.010395772202972164e-01,-2.043951412464065087e-01,6.100701065302935322e-02,-4.500611921693532802e-02,4.427320063114166260e-01
-4.183872829519167946e-01,-3.788496421720637386e-01,-4.399864566036618130e-01,-2.526632540324098494e-02,-4.342874514218786623e-05,1.234422134416558823e-03,6.930705904960632324e-02
-3.817549553923141881e-01,-4.007678476187606087e-01,-4.375342761612907583e-01,-2.548920238679365166e-02,-3.476611078399186126e-04,-3.393206315358037383e-04,6.604621559381484985e-02
-3.984034775578926268e-01,-3.959008922185666135e-01,-4.309962074471770932e-01,-9.027747655480618597e-03,-5.107268496813283098e-03,5.262815720007122181e-03,3.944565728306770325e-02
-4.046103286245303354e-01,-3.810225977433163158e-01,-4.336971023300777439e-01,-9.744425060473181285e-03,-2.726239284104490894e-03,9.785381465774937830e-04,4.897492751479148865e-02
-4.434631988614580744e-01,-4.219862632986027262e-01,-3.610527111379668863e-01,-1.316920608078673421e-02,2.532980411172493923e-02,-5.792488262197537791e-02,1.341408938169479370e-01
-4.553008312464917329e-01,-4.355919150338689039e-01,-3.704296535385461775e-01,9.583075038947830998e-03,-7.941924600713304999e-03,-2.785355242044987301e-02,9.333289414644241333e-02
-3.531459352801883389e-01,-4.500387497167780970e-01,-4.425655633016528090e-01,-4.563800025718519129e-03,9.422940447400406094e-03,-7.201948561803068105e-05,9.512540698051452637e-02
-3.148034375123512363e-01,-3.927157523137747019e-01,-3.102150459546633710e-01,-8.898320914782220648e-02,1.345130582088577831e-01,-8.516058300072870679e-02,3.259465694427490234e-01
-4.389993237131550874e-01,-4.752055556412722037e-01,-4.141600473835782004e-01,-2.813499283377108792e-02,7.078364389126409750e-02,-3.883256602882917408e-02,1.573430299758911133e-01
-4.179445586232165555e-01,-4.305265564068224693e-01,-4.070831781461722310e-01,-2.062800383309352364e-02,2.665602624286371111e-02,-1.540132086494301437e-02,6.732541322708129883e-02
-5.259397303829888015e-01,-3.481551102822691979e-01,-3.941944579554316208e-01,-1.227415471001137674e-02,9.207119018713148806e-02,-1.582960292886765319e-01,3.558062314987182617e-01
-4.947606326985246605e-01,-4.548454387856941117e-01,-2.789403401682820083e-01,-1.129935968188083839e-02,4.941809308278594104e-02,-1.201103779716887338e-01,3.009087741374969482e-01
-4.503255244640328447e-01,-5.302281254680285549e-01,-2.483961062911642648e-01,-7.327944384910603515e-02,1.116619463922956662e-01,-1.384627063866493146e-01,4.175226390361785889e-01
-3.642927270173978993e-01,-4.439820807975828343e-01,-3.999624099058636251e-01,-1.601415088560657896e-02,-5.621853276230830837e-02,8.066689973890026066e-03,1.233951747417449951e-01
-3.989498619607525498e-01,-3.420002587404821770e-01,-3.557843997166834638e-01,-7.279337991239712147e-02,7.175187636950501602e-02,-1.112124355560474148e-01,2.666355073451995850e-01
-4.300589683341616287e-01,-3.778125369233281683e-01,-3.986334366616262059e-01,-1.030583345055898284e-02,8.634722906012200216e-03,-2.682821119473799421e-02,6.911545991897583008e-02
-5.647559667664002747e-01,-4.146410306837193249e-01,-2.537829557975960770e-01,-7.294838962866204146e-02,7.160386509317587245e-02,-1.543943359743368826e-01,4.188264310359954834e-01
-4.255240471407071290e-01,-4.126214746330264527e-01,-3.963278236005723931e-01,-7.599765958150310474e-03,8.377752857419075438e-03,-1.251333403542919005e-02,3.867518156766891479e-02
-4.815163965976989036e-01,-3.846454488787214854e-01,-4.353580649524356749e-01,-1.765115471181482112e-02,1.798353593777645559e-02,-6.938630742641446747e-02,1.529426723718643188e-01
-3.853592429289907639e-01,-4.888987394315632007e-01,-2.943825225886400609e-01,-2.277696437332453472e-02,-1.358838773682169154e-01,5.541459504005770420e-02,3.075367510318756104e-01
-2.674597365085437106e-01,-4.477173643945015491e-01,-4.271695523387712967e-01,9.274175001033500843e-02,-9.668561688859625414e-02,-2.994634275263213449e-02,2.928291261196136475e-01
-3.930547044942666601e-01,-4.241471946144712568e-01,-4.185984329501348800e-01,1.208676026014410612e-02,-1.289663868951737395e-02,-6.534293003651153210e-03,4.347800463438034058e-02
-4.012308705651381757e-01,-4.290886855717937487e-01,-4.084054374560734946e-01,1.331731335849474333e-02,-1.855970076206707106e-02,-1.352409750690452238e-02,5.236227810382843018e-02
-4.230893298840566752e-01,-4.305910546301452424e-01,-3.839003766834750420e-01,3.815586195920020463e-02,-6.330950378556532421e-02,-3.232953348664247689e-02,1.463335901498794556e-01
-3.990589478705780513e-01,-4.324353401742204728e-01,-3.990389952129584361e-01,-7.751863944401259348e-04,2.864903787839809691e-03,2.461398194397606577e-04,3.378250077366828918e-02
-2.932685146220441741e-01,-5.203285116334319671e-01,-4.525608119679633834e-01,1.224657771499940290e-01,-8.220123903468329329e-02,-6.665280125538278200e-02,3.454763293266296387e-01
-3.626293751020387424e-01,-4.660735948612906299e-01,-3.404093139466935480e-01,2.883403714152231803e-02,-1.381372686949641770e-01,-5.621042803724624753e-02,2.875964641571044922e-01
-3.541525322647203211e-01,-5.844814261456972027e-01,-3.497725573300811130e-01,2.109395418432236449e-02,-1.543830396236690050e-01,-5.827062941438239385e-02,3.702743053436279297e-01
-3.735153254795426925e-01,-4.417282328105522904e-01,-4.321300806502503811e-01,7.187269000847392939e-03,-2.659286728127306307e-02,5.949520072553666009e-04,7.979963719844818115e-02
-4.332766063863954242e-01,-4.017633039751322133e-01,-4.004060425437732662e-01,-3.522130873619819984e-04,-1.167276738533552994e-04,-8.173125780883520874e-04,3.225087746977806091e-02
-4.346129978354443257e-01,-4.028807434493296147e-01,-3.967724290248622609e-01,-1.696916289793981916e-03,-9.659810398837597400e-05,-3.203638478275398858e-03,3.574261441826820374e-02
-4.339108074341724297e-01,-4.062135350708082626e-01,-3.804660072045467079e-01,1.373930502261510363e-03,-5.084684152607884134e-04,-8.179470794263007244e-03,4.848051443696022034e-02
-4.141024157683083073e-01,-4.064329365429292240e-01,-4.063984231972259109e-01,4.400675285013008579e-03,-4.001956830564090684e-03,-6.057664493677322043e-03,1.659269444644451141e-02
-4.347769362810129934e-01,-4.081425845735159319e-01,-3.976520310266800640e-01,2.295114880829883866e-03,-1.553900937204967048e-03,-2.261172058435889035e-03,3.372291103005409241e-02
-4.355877591592710596e-01,-3.940178724204584371e-01,-4.072095264654317925e-01,-2.840663753144673782e-05,-5.505155261777516622e-04,-2.258465326918295685e-03,3.701233863830566406e-02
-4.312840170541956120e-01,-4.036642861521591574e-01,-4.009649331019925489e-01,-1.824158407152134476e-03,1.949546210575470173e-03,-5.541806008819968876e-03,3.095498494803905487e-02
-4.481437988413836671e-01,-3.677619041152108692e-01,-3.610091630780671301e-01,-8.858330370965620398e-03,1.349802914989671129e-02,-6.209087489122289832e-02,1.392748206853866577e-01
-4.303884059091579450e-01,-4.016289394080106989e-01,-4.031956187200347874e-01,4.294051216008772619e-04,-6.960976874935941852e-04,-8.810035353445061328e-04,2.808629348874092102e-02
-4.314331609578085369e-01,-3.998621541754949216e-01,-4.030916966706066251e-01,1.337634911620920225e-04,-1.518443315915015085e-04,-1.410041789103110661e-03,3.018751367926597595e-02
-2.865026300325473896e-01,-4.472900440354742879e-01,-3.886321735516047315e-01,-5.711837739959371718e-02,-1.002648898730671978e-01,3.849863529516807381e-02,2.534856796264648438e-01
-3.669868749006227615e-01,-4.314089925900899125e-01,-4.182918121538281575e-01,-3.370310289177219122e-03,-1.427288345360302503e-02,6.750353896149239620e-03,6.526222079992294312e-02
-4.051532110489901028e-01,-4.147693212652107664e-01,-4.247134236928014617e-01,-8.187867325623597245e-03,-6.790199080132188446e-03,7.599013333779416381e-03,2.827821113169193268e-02
-3.506428938407726292e-01,-4.396267579386753943e-01,-4.388314217654085136e-01,-8.343964660451747700e-03,-1.082091434115196003e-02,3.683905372409716685e-03,9.191758930683135986e-02
-3.481912926408224918e-01,-4.475628188288180986e-01,-4.206752195531516247e-01,-5.021334268838712270e-03,-2.865199810905352112e-02,5.531482363189422005e-03,1.027425229549407959e-01
-3.630145178497238834e-01,-4.425765058341777358e-01,-4.346539886721884627e-01,4.268984261746907975e-04,-1.149162972588150394e-02,-3.709063992727044089e-03,7.874348014593124390e-02
-3.417344387109306769e-01,-4.377346826892578036e-01,-4.436725456373753484e-01,1.284334374919438547e-02,-4.977427204120222007e-03,-5.038377736910772120e-03,1.023067757487297058e-01
-3.660453174003255872e-01,-4.216669648103428258e-01,-4.383208563118773937e-01,1.397511091554472229e-02,-1.489498573717067901e-03,-2.929363908582477850e-03,7.011239230632781982e-02
-3.635665072167448830e-01,-4.218925560011113629e-01,-4.395627167779371236e-01,1.036856261054114325e-02,1.520691047129933866e-03,3.703269246764016691e-03,7.152199000120162964e-02
-3.301896982498790933e-01,-4.403859758413113390e-01,-4.422765103788385277e-01,3.117346956105659234e-02,-3.098197118092098183e-03,-4.851383146793291842e-03,1.239753365516662598e-01
-2.257855267036096292e-01,-3.887910427501540811e-01,-4.716264516914978611e-01,1.354131046131764049e-01,-4.234908553864795422e-02,-1.357062453308418432e-02,3.284479975700378418e-01
-4.307062669608998084e-01,-4.015876020778333944e-01,-3.988972920945405010e-01,2.843188075788782333e-03,-7.922916036279142350e-04,-2.177707746428226600e-03,3.120631724596023560e-02
-4.320068413403571617e-01,-4.006732877639426760e-01,-3.967017683745241996e-01,5.208666323015167382e-04,-3.233698758586827271e-04,-4.214957957422075727e-03,3.429915010929107666e-02
-4.328440905536260486e-01,-3.804544823120812880e-01,-4.034868759184251363e-01,2.489537312484440667e-04,-8.237590441690646444e-04,-8.323128686280715366e-03,4.773415252566337585e-02
-4.299551074215244295e-01,-3.957896602959330434e-01,-4.013476033591614756e-01,5.501248162291024618e-04,-1.883294761021111346e-03,-4.415910145841864948e-03,3.283790498971939087e-02
-4.336089050357344599e-01,-4.015220318996833293e-01,-4.013312084790321976e-01,1.019021218112834055e-04,8.934668368635287653e-04,-5.817773530089775935e-03,3.375932946801185608e-02
-4.362263481189921910e-01,-4.021472474659909535e-01,-4.031113226593629473e-01,-7.249734392561345980e-05,-9.663775429187282384e-04,-6.152055210943543906e-03,3.529618307948112488e-02
-4.323845936680281166e-01,-4.006373979350932868e-01,-3.963157646678707180e-01,-7.367820049598749663e-05,-5.949129703906280535e-04,-3.896590533642791971e-03,3.479064628481864929e-02
-4.364432634863359972e-01,-4.000680755330480731e-01,-3.721590872849953047e-01,7.458927474136615131e-03,8.231076048799820452e-03,2.898435438227400449e-02,7.750933617353439331e-02
-4.329640360285579859e-01,-4.084190806391265749e-01,-4.033150509512152260e-01,4.958117938792103684e-03,2.929817213963431099e-03,6.606110206805048020e-03,3.137206658720970154e-02
-4.533195891135261557e-01,-4.089104147794968558e-01,-4.157746191603075570e-01,1.556454055900812448e-02,1.479357074220485728e-02,3.293992572245398043e-02,7.970500737428665161e-02
-4.331074706078958947e-01,-4.006932748763272212e-01,-4.029255201220259264e-01,3.259273075822156636e-04,1.460256663180694659e-03,8.635487875489906550e-04,3.150014951825141907e-02
-4.313226015133592162e-01,-4.001485262005374244e-01,-4.010177527347874027e-01,3.528268900767131660e-04,1.770753493663901009e-04,8.318459195625949086e-04,3.079000860452651978e-02
-4.358882132549516397e-01,-4.079049458358853797e-01,-3.953070567924252821e-01,7.821041479556639948e-06,-3.591756586230511602e-04,2.453371072263872601e-03,3.623181581497192383e-02
-4.345769624213115523e-01,-4.077920084613167462e-01,-3.818979193024570895e-01,2.216184839254726428e-03,9.721735909372196264e-04,7.837843936347380427e-03,4.778467118740081787e-02
-4.416539354490953140e-01,-4.139517593151205710e-01,-4.549403845769535715e-01,-5.891224117749381539e-02,-4.539134373292993269e-02,5.066784567234332293e-02,1.600211709737777710e-01
-4.987529590867807450e-01,-3.345838926979118333e-01,-4.427861283446539176e-01,-4.573225208082191962e-02,-6.535880585589601104e-03,1.769734440966053701e-01,3.482197821140289307e-01
-4.025732114442912568e-01,-4.130003610194841746e-01,-4.001144175549644633e-01,6.141742769473031681e-03,7.164123066981132985e-03,6.484292252616968150e-03,2.310161106288433075e-02
-4.165689362959644759e-01,-4.165531155778272598e-01,-4.051797316897122192e-01,8.227252800370069702e-03,7.083614293030149854e-03,7.664102032782241225e-03,2.567772008478641510e-02
-4.280571287132217684e-01,-4.153829990327773669e-01,-4.058310580121999300e-01,6.336393045690435002e-03,5.890662437000556036e-03,9.382840315344462279e-03,2.935299091041088104e-02
-4.106214033176828759e-01,-3.961266858227665555e-01,-4.193858422868728120e-01,3.535959267719549198e-03,6.279375523338273993e-03,2.259282573892210273e-03,2.418809756636619568e-02
-4.094038026787530371e-01,-4.115526122104780637e-01,-4.124151855475735040e-01,2.264659752450931887e-03,1.660849801246597549e-03,1.899397288885859396e-03,6.457504816353321075e-03
-4.112326439412631873e-01,-4.113841377725805937e-01,-4.091156389168056351e-01,1.335647920453444069e-03,7.041507054659344343e-04,7.520614262123407516e-04,3.655340522527694702e-03
-4.057445172005124112e-01,-4.033704410948557029e-01,-4.197927623542162534e-01,2.723551540605035834e-03,3.217327418479859133e-03,1.384813682698152930e-03,1.718723215162754059e-02
-4.123749528891836880e-01,-4.173650314947535689e-01,-4.043598371781369494e-01,4.780765122922293192e-03,1.513520404840036464e-03,1.472146405137975166e-03,1.452859397977590561e-02
-4.373766598029873442e-01,-3.726538514564370352e-01,-4.003292735024758797e-01,-4.229214813647169842e-03,7.160198611279806717e-03,-2.792461210181640396e-02,7.556822150945663452e-02
-4.311799199034133667e-01,-3.654558222592660388e-01,-4.204516745564373381e-01,-8.645476970362060698e-03,7.377178654273888400e-03,-1.734598365285522359e-02,7.085053622722625732e-02
-4.628706321725872819e-01,-4.331190472206475905e-01,-4.315035984359880672e-01,-5.780452635561746100e-02,5.487518090831065148e-02,-7.667427617854086219e-02,1.939861029386520386e-01
-4.454211028275714135e-01,-3.382250528728460992e-01,-4.542177113009515099e-01,1.875808782776585380e-03,-8.210631195346206144e-04,-2.625998611250103532e-03,1.120026856660842896e-01
-4.190458398571235143e-01,-3.973659058094544116e-01,-4.110382412987579892e-01,-2.399858710851255402e-03,6.199894978922497815e-03,-2.995720025338366281e-03,2.280469425022602081e-02
-3.912831944946759122e-01,-4.127677692438507240e-01,-4.420670095972806801e-01,-1.646826172939759927e-02,1.101509930558518778e-03,-2.346151562582570252e-03,5.275678634643554688e-02
-3.570560960410784634e-01,-4.456685789126227371e-01,-4.329223016445027383e-01,-3.980668684288124026e-04,4.259537609069869932e-03,6.281084160421150902e-04,8.331416547298431396e-02
-4.476512425132233575e-01,-3.472847893647483808e-01,-4.447711943389743849e-01,7.620826085812546988e-03,-1.848209855120575874e-03,-2.738087077261336377e-03,9.999814629554748535e-02
-4.444453619458324511e-01,-3.453011398769641471e-01,-4.438272836739992067e-01,-2.656037699197497624e-03,3.696008633911030631e-03,-6.607803288786468464e-03,9.980888664722442627e-02
-4.486141261079935605e-01,-3.469488712796879315e-01,-4.437618927915162881e-01,-1.107279501489573728e-02,-7.192031599382317855e-04,1.593631060204134080e-03,1.012079864740371704e-01
-4.388030388466656606e-01,-3.403837973097739167e-01,-4.529734121604185315e-01,-2.101817910173729709e-02,2.974190519826590447e-03,-1.393427452266929323e-02,1.149613186717033386e-01
-4.372532919153080400e-01,-3.410459485667242663e-01,-4.449606533922579321e-01,-1.301857160612831556e-02,1.481044115967906222e-03,-3.333600773076326844e-03,1.029812097549438477e-01
-5.424081940446116024e-01,-2.624563243453087447e-01,-4.731825323252449866e-01,-1.145411378575623973e-01,-3.980692224600571733e-03,-1.249725492284154971e-01,3.873581886291503906e-01
-4.534003620280552260e-01,-1.889499969508383614e-01,-4.670057636038160709e-01,-5.956991357073156829e-02,-8.642636341044533307e-03,3.882243250110930383e-02,2.985103130340576172e-01
-4.733064549236595253e-01,-3.592069673875353808e-01,-4.488656981111407984e-01,-1.237677057035645178e-01,-4.546951875393927950e-02,1.618260228103191589e-01,3.762288093566894531e-01
-4.294171290543009611e-01,-4.112786061397850079e-01,-3.988570533549394281e-01,-1.017190003862003533e-02,-7.117510637663596040e-03,1.471952569281032193e-02,4.267296940088272095e-02
-3.975780288650485605e-01,-2.221138530645824782e-01,-4.656051140391191390e-01,-1.278054535570826156e-01,2.013799896607680606e-02,-3.398406307024839923e-02,3.178611993789672852e-01
-4.290652607098575100e-01,-3.971882304639313133e-01,-4.267071020103966328e-01,-1.388344837252468780e-02,-7.444192095658398386e-03,1.407364840850842611e-02,4.780414327979087830e-02
-3.935388210160715716e-01,-3.299887350209216308e-01,-3.199505370333526333e-01,-8.604052919728660820e-02,-8.770367060669315151e-02,1.325798900914453293e-01,3.206155002117156982e-01
-4.497506041205784344e-01,-4.210899708280345655e-01,-3.546369572124114522e-01,7.295735668608773622e-03,1.877359475299630182e-02,3.480760534682933449e-02,1.095160022377967834e-01
-4.508753004358496130e-01,-4.243583167476926432e-01,-3.425684382298744834e-01,-4.342969924141472371e-02,-5.995783331583880160e-02,9.242821356456945581e-02,2.272305488586425781e-01
-4.320356658945682660e-01,-3.581851971334494289e-01,-4.341768781049817338e-01,-5.333025404998149518e-03,-6.898246205863378666e-03,9.549236951870456597e-03,7.821924984455108643e-02
-4.398289142562870624e-01,-4.237708984707097004e-01,-3.576847718419148836e-01,-8.058979761628924611e-04,1.621300127861272132e-03,-2.285782278319795080e-02,8.522747457027435303e-02
-4.359135619401063311e-01,-4.235779922384754759e-01,-3.817932886590008623e-01,3.403956168806290643e-03,-8.395385296277917131e-03,-8.727691620597406025e-03,5.374282971024513245e-02
-4.481480180211617204e-01,-4.666833419436394736e-01,-3.080930613227442216e-01,1.227879477980945572e-02,-1.643382439697400194e-02,-4.570379292459608028e-02,1.734472364187240601e-01
-3.480481066068024099e-01,-4.328042447769495649e-01,-4.363575245017858872e-01,-1.008152241685903588e-02,7.860796261276560906e-03,-7.195158489800257753e-03,9.023851156234741211e-02
-4.232591405730305456e-01,-5.202313696932671094e-01,-3.492151245140338034e-01,-6.805308126864417773e-02,1.986188045543099134e-01,-1.577229162426885614e-02,3.937697112560272217e-01
-4.473877708536385667e-01,-4.379090811427060470e-01,-3.146317145680319061e-01,-1.635474384671898815e-05,9.181623653913605423e-03,-2.389850307281630656e-02,1.357276141643524170e-01
-4.561979555392213226e-01,-4.061424021223566938e-01,-4.045796096339225878e-01,4.036916284044448494e-02,-3.277286360349236649e-02,-6.646926799566008071e-02,1.547640413045883179e-01
-4.655698807173305753e-01,-3.805604837519854233e-01,-2.467179361243994618e-01,2.723138632869144191e-03,-6.114571496124502660e-03,-1.312201810696972393e-01,2.971681654453277588e-01
-4.934251353979831611e-01,-5.109394542652844207e-01,-2.415547832134831430e-01,-2.029070615093006048e-03,-9.202379867963551840e-02,-1.210768349178091563e-01,3.708814680576324463e-01
-5.249781594719272748e-01,-4.260875778137961922e-01,-2.689328601766455829e-01,8.033734982387191748e-02,-5.011486872079955884e-02,-1.456440515352731002e-01,3.749018609523773193e-01
-4.445916422982986727e-01,-3.901954001988252596e-01,-3.839892917591544719e-01,-1.836740931913074387e-02,2.675116931920221500e-02,-6.195902379011507949e-02,1.342042386531829834e-01
-4.317632587794993371e-01,-3.787734403910095193e-01,-3.646564915272157426e-01,-4.067342615102712000e-02,3.695735801253051400e-02,-6.986824025996321574e-02,1.657120883464813232e-01
-2.483388083704216875e-01,-4.625729148244637767e-01,-5.729040652221870644e-01,-1.350729140485291413e-01,2.715762176419375326e-02,-8.677542575981396500e-02,4.015501439571380615e-01
-4.177014899365735223e-01,-4.146332437439899654e-01,-4.059069635440036294e-01,-5.946605179393592636e-03,5.308941469245931355e-03,-5.924117980925370022e-03,2.020551636815071106e-02
-3.535777954850896077e-01,-3.880488376701308750e-01,-4.225391983014908925e-01,-5.674925404626613573e-02,4.083625752988784274e-02,-3.036603847344258866e-02,1.449043750762939453e-01
-4.063054660871457946e-01,-3.873367932675750858e-01,-4.280841055951256635e-01,6.919393225771910960e-03,4.819872966458407446e-03,2.741386824318198072e-03,3.851109743118286133e-02
-3.713408882722395998e-01,-3.292512094207126205e-01,-5.836214493458717900e-01,-1.544862308549088126e-01,3.611312999534976170e-02,-3.921571499787532278e-02,3.686373233795166016e-01
-3.912007973203568412e-01,-4.128242014688699446e-01,-4.271923512609061002e-01,-1.772306965461135919e-02,1.401010612053873658e-02,-1.627453674959488533e-02,5.753656476736068726e-02
-4.061416221201613053e-01,-4.024334102044359041e-01,-4.243225035742674844e-01,2.294856793724168054e-03,3.284980763390075824e-03,1.409913135806109465e-03,2.158355340361595154e-02
-3.621893237178501757e-01,-4.220327478507157615e-01,-4.423651304682179042e-01,1.201817777201241895e-02,1.193918565839999398e-03,5.434754711857774090e-03,7.574692368507385254e-02
-3.175830522484386909e-01,-3.736897644329945090e-01,-4.585054110898981738e-01,-1.236950752393365105e-01,4.973686474061155688e-02,-3.498519513172892309e-02,2.685050368309020996e-01
-4.631986476777426587e-01,-4.764612338096319566e-01,-3.482487006979278488e-01,-2.096467121708337975e-02,6.584670284559338005e-02,-2.636724257471947941e-02,1.769901961088180542e-01
-4.390432889800225946e-01,-4.300227971283923090e-01,-3.817149758764962764e-01,-8.372300608277283632e-03,1.514209147191524461e-02,-1.871870868581279601e-02,6.928261369466781616e-02
-4.985863347646252719e-01,-4.533478597766324447e-01,-3.452556292670530547e-01,-4.235853839188706560e-02,1.497179907471876403e-01,-1.606322104819759566e-01,4.106795191764831543e-01
-4.099345861585460549e-01,-2.425574822479191761e-01,-4.110658338743633511e-01,-9.885319811348795838e-02,4.959353505380623139e-02,-1.111108610201757274e-01,3.192757666110992432e-01
-4.731194263298448832e-01,-3.505407378421073750e-01,-4.411366939169144019e-01,-1.767660051844222868e-01,5.973362774184201585e-02,-9.409112319700251026e-02,3.783258199691772461e-01
-4.003067730051242390e-01,-4.331674447503028880e-01,-4.024969186447613922e-01,-3.935696493647901557e-04,1.226559553402077098e-03,6.203903275653157613e-04,3.191838786005973816e-02
-4.048133502327200817e-01,-4.318071114267501009e-01,-4.046476377352412612e-01,3.601294195641019553e-03,5.992302963470500995e-03,3.991062384640434169e-03,3.045620769262313843e-02
-3.815005128047279648e-01,-4.279999860665468780e-01,-4.040586560969693375e-01,2.490506730029135203e-03,8.824590972817736301e-03,4.124867572890921277e-03,4.387938976287841797e-02
-3.811647135957003663e-01,-4.345218091746511080e-01,-4.057500675982340654e-01,1.456213028965355760e-03,9.199601135558496678e-03,1.703631158690879603e-03,4.907731711864471436e-02
-3.966980150515674319e-01,-4.297309008763672278e-01,-3.989719685853258535e-01,1.809262996996694036e-03,4.164643700764145487e-03,2.206129429993354540e-03,3.313127160072326660e-02
-3.799871305193659454e-01,-4.405933701609295317e-01,-4.064749701216446298e-01,2.683635119183573462e-04,8.981303594047616162e-03,1.986285569673087309e-03,5.498579144477844238e-02
-4.059110305041457312e-01,-3.837982154293369530e-01,-4.313015508083445915e-01,7.742988521671107481e-03,1.632296185906317344e-03,8.195955258907869747e-04,4.341636598110198975e-02
-3.480743591864950970e-01,-4.405680618191749609e-01,-4.466151913163567411e-01,-7.891384276428060549e-03,9.433764983070049275e-04,-1.148520981790717831e-03,9.666655957698822021e-02
-3.185722521649986261e-01,-4.150428049953547305e-01,-4.465555232206548375e-01,-5.514938275164447956e-02,-6.658921019094613848e-03,1.202850791608782314e-03,1.503376066684722900e-01
-3.146961889706554327e-01,-4.697470606420507955e-01,-4.407885193162457416e-01,-3.316638451493585105e-02,3.607769946400758709e-02,2.626575224067198306e-03,1.661771535873413086e-01
-3.794478229784707946e-01,-4.469860930286345124e-01,-4.273807802290284230e-01,-6.514690665896685079e-03,2.215954434987865360e-02,-1.781258505483122347e-03,7.233018428087234497e-02
-3.413103981975660339e-01,-4.381707565294581386e-01,-4.484937101334960929e-01,-1.322638136272536770e-02,4.586766989590995887e-03,-2.751508643663008041e-04,1.052450984716415405e-01
-3.491499680209384504e-01,-4.391236699153830969e-01,-4.355050407667470092e-01,-7.422034095519313042e-03,3.901368989082730325e-03,-4.996190409103691207e-03,8.982531726360321045e-02
-3.829128476138919379e-01,-4.025140120733263771e-01,-3.803390538534153209e-01,-5.241491968275637653e-02,6.021859654329249356e-02,-5.293226089197599488e-02,1.672350466251373291e-01
-3.927912667795243062e-01,-4.246809098940693139e-01,-4.233583231296770277e-01,-1.185288557374456798e-02,1.166798505285610021e-02,-8.108828791053705395e-03,4.476247727870941162e-02
-4.054682588735870064e-01,-4.041416142321673788e-01,-4.244827154292656890e-01,7.729417304178818563e-04,2.074346323911901123e-03,8.589884154536333921e-04,2.013577893376350403e-02
-3.432042534386180455e-01,-4.468359120501964599e-01,-4.398877914061474770e-01,4.288729074464036738e-04,-1.063974768652467540e-02,-2.502954417310999284e-04,1.020201146602630615e-01
-3.376032783716828023e-01,-4.461937664416512073e-01,-4.530458605713069131e-01,-3.757790184088522206e-03,-4.813612470089902867e-03,2.533103345106784061e-04,1.126720234751701355e-01
-3.333182405147932514e-01,-4.531732343776858629e-01,-4.530355147263044890e-01,-4.679161447376946510e-03,-3.385717901308357269e-03,-2.553931907623068561e-04,1.202039942145347595e-01
-2.967085820741581781e-01,-4.490558992329658494e-01,-4.471150709826804404e-01,-1.596191841870432801e-03,-7.119566931897790621e-03,1.001452821711110511e-03,1.519227027893066406e-01
-3.453185701206988867e-01,-4.541677893725622472e-01,-4.596604688418250428e-01,9.241260148245715456e-03,-1.806251480640940713e-03,-1.219580634958665347e-03,1.129010543227195740e-01
-2.106044292743223800e-01,-4.707000047391508568e-01,-4.979437398798781111e-01,-7.488157499509071058e-02,-5.613878895434168403e-02,1.522092914392422086e-02,3.200771510601043701e-01
-3.439214878668129804e-01,-4.533432917306420284e-01,-4.401487013116703317e-01,-1.987587895106206898e-03,-8.248436214722570936e-03,1.954929082793302811e-03,1.045508459210395813e-01
-2.992107083398588552e-01,-4.597997040246281641e-01,-4.552754249631872918e-01,1.335119417442116006e-02,-3.054359236553495088e-03,4.549102373939643319e-03,1.603358238935470581e-01
-4.145029059696712093e-01,-4.067622149433375300e-01,-4.132568283792707464e-01,-7.393274565611412767e-03,7.211092048810805767e-03,-9.135668162332737097e-03,2.494369447231292725e-02
-4.117168675148504264e-01,-4.106892330186253659e-01,-4.096367993932253926e-01,-1.411870352335082516e-03,1.076570587821246757e-03,-2.837369541408678590e-04,3.597753820940852165e-03
-4.063103684526800374e-01,-4.062660115932812954e-01,-4.137410606900961962e-01,-4.709096949721355667e-03,4.952046836228914117e-03,-4.806648331209617195e-03,1.627739146351814270e-02
-4.106827725161297238e-01,-4.092471256080161268e-01,-4.138916154078043363e-01,3.471088314736858532e-04,1.661634247751326123e-03,-4.790570795314728425e-04,5.128113087266683578e-03
-4.094173068464500020e-01,-4.134836915551541869e-01,-4.067962932531057896e-01,-2.661339890142834855e-03,1.025379959426190495e-03,-1.621901540876252885e-03,8.146001957356929779e-03
-4.053509197912756878e-01,-4.195517851229795259e-01,-4.035334171055416363e-01,-3.011938886328154562e-03,2.718924920412803866e-03,-1.269480619291921044e-03,1.688211224973201752e-02
-4.250435383158152614e-01,-3.923769652654842122e-01,-4.248654353324811117e-01,1.267076830020863465e-02,-9.985250478664638510e-03,-1.396643404252454444e-02,4.926726594567298889e-02
-4.445057928420805826e-01,-3.633617608997761206e-01,-4.283714464403520772e-01,1.425938834351433114e-02,-1.261375013580924229e-02,-3.425177451111042354e-02,1.007091253995895386e-01
-4.010755234114242174e-01,-4.187349441988981735e-01,-4.105397654389486561e-01,8.071671017423089761e-03,-1.003885945891992530e-02,-1.025739721755114520e-02,3.236863017082214355e-02
-5.146736895011491120e-01,-4.440876425788793935e-01,-3.718192410462200503e-01,1.642109011383816519e-03,-1.715078981518536327e-02,-6.303896805276129611e-02,1.676857918500900269e-01
-4.786298927956681437e-01,-2.363905618065572645e-01,-4.089922357886508486e-01,-1.164787297348966050e-02,3.378414389150321499e-03,-1.211790728783864457e-01,3.019183278083801270e-01
-4.370118466787192291e-01,-3.732035545431631740e-01,-3.947079090201294216e-01,2.647806385912812935e-03,-3.538576580023566377e-03,-3.053044664979122011e-02,7.756739854812622070e-02
-4.541563776962495580e-01,-4.098414565120022113e-01,-4.013697994566994276e-01,8.761804532781922519e-03,-1.316417795887679133e-02,-3.254115063126178375e-02,7.961140573024749756e-02
-4.566160031887323556e-01,-4.246654901724291609e-01,-3.574264226268940026e-01,5.080446759494351705e-03,1.717110498970453921e-03,-2.606193490913536262e-02,9.906665235757827759e-02
-4.412340422940007056e-01,-3.695519726430139262e-01,-4.233141965868432166e-01,1.821688312347826116e-03,-5.108923653392903608e-03,-9.833850971190207998e-03,6.747800856828689575e-02
-4.397903884592572754e-01,-3.826027123453235590e-01,-4.059475393972483137e-01,-6.745879995224765427e-04,-9.540465161680108464e-04,-8.438049006508997751e-03,5.194297432899475098e-02
-5.565591883708569387e-01,-2.865385058697110243e-01,-4.030729548322390388e-01,7.120732236482842092e-02,-1.804244921705837335e-02,-1.183943353113940528e-01,3.365478217601776123e-01
-4.414303071880152363e-01,-3.726690972674214786e-01,-4.214605226623951983e-01,3.387371102392361649e-03,-5.415645360093698096e-03,-2.571894924152485010e-02,7.655425369739532471e-02
-4.208628157051588214e-01,-4.351888754183979025e-01,-3.544819746286800854e-01,3.616092657993984823e-03,1.578616539379328401e-02,-5.021486171577992617e-04,7.968828082084655762e-02
-4.375737054929744740e-01,-4.358015305576208864e-01,-3.459150696246782730e-01,5.003187872504014436e-03,1.761410493162524071e-02,1.912210244045111154e-02,1.017095893621444702e-01
-4.421974821048167414e-01,-4.423354532015880691e-01,-3.472148872494034144e-01,6.658209303711691215e-04,1.001165374676779877e-03,-4.756361104334782750e-03,9.543072432279586792e-02
-5.298183089591381734e-01,-5.427753526138769935e-01,-2.259713403107283802e-01,4.026953267854913726e-02,-6.087661667141033676e-03,1.466394402067158209e-01,4.073245525360107422e-01
-4.459430376259308493e-01,-4.254909187566740525e-01,-3.723631214128751976e-01,6.932075969873942442e-04,4.359561408247779844e-03,2.399579266317549212e-02,7.818747311830520630e-02
-4.251643614029692042e-01,-4.223713813130290928e-01,-3.809856520221995280e-01,6.804453695796942002e-03,8.359910643769369321e-03,7.435297885371333973e-03,4.848284274339675903e-02
-5.031025582515200600e-01,-4.666714996374047852e-01,-2.738206281586654245e-01,4.499044591164624851e-03,3.498267092586588353e-03,9.504194697336644515e-02,2.697050273418426514e-01
-4.327578675183018087e-01,-4.642581523475451943e-01,-3.738219698676433778e-01,3.230223084630082231e-02,4.181477614379226770e-02,5.043759112353031482e-02,1.494315415620803833e-01
-4.646433078211654744e-01,-4.594091937928956870e-01,-2.160725592322697008e-01,-2.559554007525246047e-02,5.812759760643479434e-02,-4.800481272524248499e-02,2.820088565349578857e-01
-3.788005771205444905e-01,-3.977814154333417784e-01,-4.571365656829298740e-01,3.726764241429642022e-02,3.917657097791070117e-03,-1.136048587567078591e-02,9.802945703268051147e-02
-3.538269453248594765e-01,-4.441270041865295060e-01,-4.368961105059497307e-01,9.769305719431454343e-03,-3.074666266741465925e-02,-2.523729257345706106e-03,1.034163162112236023e-01
-3.405135669389414144e-01,-4.306518502305968221e-01,-3.763137545933655237e-01,9.837671606119637036e-02,-1.157464981046207320e-01,-7.835303523461781272e-02,3.063051998615264893e-01
-3.913229113455113928e-01,-4.424424810862731539e-01,-3.924328295687343204e-01,4.923300761036610712e-03,-1.906211003688733016e-02,-1.012118610544316191e-02,6.346517056226730347e-02
-3.699030705752328618e-01,-4.223618962586591086e-01,-4.366264181139595246e-01,1.261645021602200538e-02,-7.485590023397255786e-03,-6.869922753837317750e-03,6.701432168483734131e-02
-3.608114075320227876e-01,-4.391530970353526575e-01,-4.159249034705252424e-01,7.095994006928297128e-04,-1.325653896384507494e-02,-1.405744761954376984e-03,7.342942059040069580e-02
-4.031042793399862711e-01,-4.010523185822711945e-01,-4.309819324220268699e-01,9.940265482296390537e-04,1.470018991973563857e-03,5.885860475660273892e-04,2.913870848715305328e-02
-4.410625904428471245e-01,-3.903817102184924948e-01,-3.973953961314915517e-01,1.158459437582754457e-02,-9.706303223663552415e-03,-3.502708619817185287e-02,8.141387999057769775e-02
-3.784869852574371807e-01,-4.665304192315445353e-01,-4.762813923534137683e-01,6.262750648388550057e-02,-5.076719840638209413e-02,-2.439140696113617154e-02,1.731721609830856323e-01
-3.877434574425409619e-01,-4.289581954411820219e-01,-4.124117393418974542e-01,1.112313595106968235e-03,-1.059141823151307261e-02,-5.684019330861993409e-03,4.156503826379776001e-02
-3.871478728443082939e-01,-4.402610846884456586e-01,-4.092274945071963654e-01,3.072749895993392381e-03,-8.084691736873806517e-03,-3.625566894664040106e-03,4.898621886968612671e-02
-3.809762365130396344e-01,-4.259851823282825856e-01,-4.230425232727359486e-01,6.702022741232610201e-03,-6.094848211604676422e-03,-9.624881374002714277e-03,4.925572499632835388e-02
-4.201016981029349617e-01,-4.615033724756800182e-01,-3.778730721480582089e-01,2.831427359661101324e-03,-3.000397402712572104e-02,6.331239559121940377e-03,8.994837850332260132e-02
-4.177955888125324257e-01,-4.086973067646466062e-01,-4.110703213047363080e-01,3.791457602975273258e-03,-3.774736495764101103e-03,-1.248313861127657272e-03,1.254455279558897018e-02
-4.117646301728037361e-01,-4.091394637929460232e-01,-4.119355199982059901e-01,7.164910266153325319e-04,-1.305820117055558893e-03,-4.494850255789761763e-04,3.825049381703138351e-03
-4.148555331152829484e-01,-4.107149281036840960e-01,-4.093842337722379265e-01,5.448268843370571331e-04,-9.413290841969133025e-04,-6.522276639597909169e-04,5.408349912613630295e-03
-4.146644788114736135e-01,-4.124118997572442380e-01,-4.040712025011297670e-01,3.793574030624783169e-03,-1.463839855804324524e-03,-1.324166785578526810e-03,1.217751111835241318e-02
-4.154216162046359684e-01,-4.100820650764117614e-01,-4.113737787982527649e-01,2.878834347284918525e-03,-2.661106098098698323e-03,-3.006529221353338409e-03,9.823814965784549713e-03
-4.102534962639508009e-01,-4.136422364945308572e-01,-4.091258035004358695e-01,2.943068965478777728e-03,-1.826229502079199790e-03,-1.204408864152541102e-03,7.544456049799919128e-03
-4.094571282233323006e-01,-4.151887221776595083e-01,-4.110157652086892655e-01,8.078743999288748312e-04,-3.864150563051896563e-04,-4.477177678268991039e-04,5.417963489890098572e-03
-4.097644415776981464e-01,-4.119487938275151473e-01,-4.120565141399761266e-01,1.909225017987792317e-03,-1.705121501758913262e-03,-1.724915276628286509e-03,5.796726327389478683e-03
-4.194392086385894669e-01,-3.823223018073296231e-01,-4.331779051940714553e-01,-4.238214047045201632e-03,-4.448704265247665351e-03,2.613711093655468262e-03,4.701180011034011841e-02
-4.370783476483355856e-01,-4.097221011931284629e-01,-3.774095032030986285e-01,-6.368787406334828517e-03,-6.915224504402847812e-03,2.046307360328458377e-02,6.479025632143020630e-02
-3.991724340682462069e-01,-3.713427993028824980e-01,-4.526662484906975870e-01,-5.543518297715135934e-02,-8.287328403969033627e-03,2.483662840306073184e-03,1.207000985741615295e-01
-4.205875108684341557e-01,-3.639852827105682920e-01,-4.162952077194724265e-01,-1.615158733454573683e-02,-1.035889566213277560e-02,1.746814142170271394e-02,7.070524245500564575e-02
-4.319655212852353543e-01,-2.656022334899715842e-01,-5.028332224560702057e-01,-2.171664880875081027e-01,1.512359919635630941e-02,4.141845386920554525e-03,4.320998191833496094e-01
-2.605755179129765065e-01,-3.766060870236976887e-01,-4.219608030276229549e-01,-1.192532603517685169e-01,-7.646269255452492475e-02,5.465706010732197112e-02,2.999141812324523926e-01
-4.278951163478385000e-01,-4.058969988021333686e-01,-4.019170225331900603e-01,-2.201758748101183272e-03,8.176497520798239188e-04,-5.659255543057533158e-04,2.459307014942169189e-02
-4.267072893929860222e-01,-4.027533319470492090e-01,-4.012772500950065324e-01,-6.954815693823800755e-04,8.761718726160824984e-04,-2.760286148463571439e-04,2.480547502636909485e-02
-4.310906515853942245e-01,-4.012677278912826773e-01,-4.023140361749710792e-01,-9.007604061095743700e-04,1.295172899141080417e-03,-8.359847462328243509e-04,2.947644330561161041e-02
-4.214275620023952285e-01,-3.949271738911988572e-01,-4.112340839328965103e-01,-3.085162315129841726e-03,6.845815952428111091e-03,-2.919317164867453723e-03,2.703264541923999786e-02
-4.285513651076272579e-01,-3.899313034540399237e-01,-4.084582244782243854e-01,-2.463976793063407146e-03,5.591561562074386267e-03,-6.293278677604800635e-03,3.674331679940223694e-02
-4.025964668594520512e-01,-4.018648404613393565e-01,-4.267874924840562856e-01,4.486963174834217153e-04,6.782364303144754886e-04,8.877810829705427929e-04,2.465336211025714874e-02
-4.309374014114764062e-01,-3.974455552749952547e-01,-4.029941529270384404e-01,-1.493797936431806497e-03,3.095646275509811220e-03,-4.456323923525983000e-03,3.258339688181877136e-02
-4.354097816653501596e-01,-3.936924658445237202e-01,-4.086801189699559300e-01,5.902880069860802599e-06,-6.079104180240801257e-05,-2.641971771868455339e-03,3.688726946711540222e-02
-4.100617248810738968e-01,-3.938560994486008382e-01,-4.190475109885499760e-01,-4.528212845139621689e-03,5.944994141982700223e-03,-2.800177935279808510e-03,2.607782371342182159e-02
-4.145191925311546566e-01,-3.914115682139900354e-01,-4.393112562118502429e-01,-2.815874386140845148e-02,5.055805441646112931e-03,-1.675212068431082557e-02,7.084365189075469971e-02
-4.052502279387117379e-01,-4.023819902920756642e-01,-4.198890375362671623e-01,-3.366720304034086231e-03,3.455962518772250774e-03,-1.524950071064905656e-03,1.847487501800060272e-02
-4.035295265510304152e-01,-4.094173343871061466e-01,-4.137993631971562669e-01,-1.505760888179203880e-03,1.838296135160012420e-03,-3.025178563127638599e-03,1.113840471953153610e-02
-4.097140879878877762e-01,-4.082384976356998596e-01,-4.183709935649582712e-01,-2.330332240211675267e-03,2.725247882150919239e-03,-3.227090568324326569e-03,1.263756491243839264e-02
-4.157123279478220357e-01,-4.472513479608805631e-01,-3.736222026205112678e-01,-1.994357365161308904e-02,7.374171098844231609e-02,-7.032764922936687521e-03,1.474751085042953491e-01
-4.098132804515010608e-01,-4.099054511365025077e-01,-4.099036376872640663e-01,-2.298803263594661594e-03,2.705242858273885186e-03,-2.168799836154792441e-03,7.206102833151817322e-03
-4.275457875177618439e-01,-4.031031876382317747e-01,-3.987603659718487181e-01,-3.302030495082776060e-03,1.573453646564139949e-03,-3.149835592852082665e-03,2.814875729382038116e-02
-4.069944463198918450e-01,-4.117634110494865496e-01,-4.099346308764708069e-01,-5.153169322263339257e-04,1.312275897088529229e-03,-1.455227727520862473e-03,5.448118317872285843e-03
-4.095324360716508516e-01,-4.105302507060509254e-01,-4.148836548628026533e-01,-2.097476891600637966e-03,2.955022144402499797e-03,-2.809371857700434724e-03,9.346874430775642395e-03
-4.657812522593810511e-01,-3.693136773368695946e-01,-4.323088400724047764e-01,-2.582440383439807766e-03,1.483164086706088847e-02,6.772714957277409242e-02,1.470994055271148682e-01
-4.330764819507050278e-01,-3.660133586913201786e-01,-4.173261936413619200e-01,7.300082324720562343e-03,6.817544413464105002e-03,1.331285795324226202e-02,6.723301112651824951e-02
-4.511606256683978744e-01,-3.825047571789333412e-01,-4.029475242052369399e-01,-1.159455152949090233e-02,-3.112052491716266363e-03,3.361043971306554301e-02,8.688705414533615112e-02
-4.402021574734644171e-01,-3.824726431824876371e-01,-4.083068887431204885e-01,-5.463544006589135787e-04,-8.333446553027514837e-05,8.546684421218012431e-03,5.223753675818443298e-02
-4.395642981288029882e-01,-3.815475276122684001e-01,-4.202775259102919936e-01,3.289481988652262837e-03,3.238854892180701491e-03,5.029500853449457923e-03,5.252417922019958496e-02
-4.431496364573246360e-01,-3.444313222346477299e-01,-4.411591752317682857e-01,-2.250808803976434014e-03,-2.484391776263117010e-03,9.232130498444127836e-03,9.920778125524520874e-02
-4.367013316922824795e-01,-4.429680871202460457e-01,-3.649122360500606788e-01,-2.615274851937430221e-03,-2.424188220577168720e-02,1.587886252815003119e-02,9.045867621898651123e-02
-3.955668203528060478e-01,-4.202787753658306369e-01,-4.162010749697427903e-01,-8.155265483138480695e-03,-1.342993820398958628e-02,5.493255323822493832e-03,3.684674575924873352e-02
-3.943318423162393560e-01,-4.409433009068248754e-01,-4.099795553763421196e-01,1.602049198495632395e-03,-1.394388242723908211e-02,-2.008502310120266823e-03,4.786662384867668152e-02
-4.180898302727701910e-01,-4.381339393691685014e-01,-3.686682654007297777e-01,-5.110004133201826761e-03,-4.069663372863388875e-03,-8.679860849443625319e-05,6.295168399810791016e-02
-4.212219947540488674e-01,-4.392990976578934337e-01,-3.906825251700847268e-01,-6.941827798660611844e-03,-1.161539347150147665e-02,3.491584659980496736e-03,4.896323755383491516e-02
-3.685245457507094202e-01,-4.427259683128234036e-01,-4.261487156227980466e-01,-5.074616970857198997e-03,-1.152413748963707248e-02,1.123445330782192044e-03,7.092291116714477539e-02
-4.460774001853274329e-01,-4.949270225961615588e-01,-3.396000552885853896e-01,1.522577719831988766e-02,-7.959048667154983159e-02,-1.995908254140200261e-02,1.995484679937362671e-01
-3.882198263123001758e-01,-4.224021827895098613e-01,-4.187592732113742389e-01,-5.591502018490360215e-03,3.606958159628813592e-03,-6.857443176811730580e-03,3.648396581411361694e-02
-3.681712495384908967e-01,-4.400430345837110790e-01,-4.271582135799348312e-01,7.825633869517484298e-04,1.331184506588132567e-02,-4.820983111285433165e-03,7.077214121818542480e-02
-3.754931704680075089e-01,-4.390157478066835095e-01,-4.183328310136178452e-01,-8.467751712889110298e-04,6.693117958036261597e-03,-2.502106327357065101e-03,5.748386681079864502e-02
-3.996509453640462728e-01,-4.271574125365313335e-01,-4.100296042680812159e-01,-1.458706895721747143e-03,2.023170255189647541e-03,-4.952445952146498562e-03,2.590531483292579651e-02
-3.701076930977740820e-01,-4.202115234098260932e-01,-4.587174927384837231e-01,-7.160588193225922438e-02,2.061178136552278915e-03,-1.815738653112295570e-02,1.493533551692962646e-01
-4.225328503073171316e-01,-4.260046656449040237e-01,-3.876918437768032133e-01,-9.137763662519764879e-03,1.374593192800825821e-02,-1.491205240676138008e-02,5.321059003472328186e-02
-3.472372202490289217e-01,-3.804459291334571502e-01,-5.866998085206218683e-01,2.308307031909032359e-01,4.750746702221232687e-02,-5.115364263153079905e-02,4.743019044399261475e-01
-3.905234759846659132e-01,-4.074390326334763612e-01,-4.977500583777322851e-01,1.118558883915636570e-01,5.236355133634014274e-04,1.444102478546139059e-02,2.193890362977981567e-01
-4.991690877672342319e-01,-3.822580094001364892e-01,-5.310991130441174990e-01,1.835244493799480792e-01,-1.049404963868275781e-01,-1.284196000191155096e-01,4.494181573390960693e-01
-4.135927008751197897e-01,-2.786465984942206320e-01,-6.081334044240420678e-01,1.847121211995733092e-01,-4.804540920464654696e-02,1.030946850670875353e-02,4.380738437175750732e-01
-3.376048636054113095e-01,-3.089081833483584560e-01,-4.889260225380285263e-01,1.714862759575437046e-01,1.748909402459671719e-02,1.569940988086367811e-02,3.434292674064636230e-01
-2.130501956139293773e-01,-3.793023816487865463e-01,-4.839645056782854726e-01,1.536694724799489986e-01,-2.369747849016433372e-02,-1.387416811071650810e-02,3.593040108680725098e-01
-4.005372748464940957e-01,-3.447323979547792794e-01,-4.973080337973168064e-01,8.050961805247922043e-02,-4.338616957570233176e-03,-2.556115997997078157e-02,1.983457356691360474e-01
-3.695739596451749209e-01,-4.399378265470418325e-01,-4.255442589804609432e-01,-5.665379395578446636e-03,-2.468795346551920858e-02,7.904252606005440773e-03,7.910542190074920654e-02
-3.468822278183972263e-01,-4.271647540151828348e-01,-4.230131141117649540e-01,-2.677062916888204441e-02,-3.533982097264549982e-02,1.210562356905420071e-02,1.116492822766304016e-01
-4.131688648187660240e-01,-4.291878195893306658e-01,-3.877278844289823723e-01,5.557442302564021691e-03,6.987958063190937569e-03,1.917211648097168859e-03,3.951665014028549194e-02
-4.077143447891610761e-01,-4.347463840549773417e-01,-3.934665017008800447e-01,1.082052117555098048e-03,2.839506638865355037e-03,2.102657225260007334e-04,3.669760003685951233e-02
-4.103400733358142927e-01,-4.298377391885387921e-01,-3.975816591652000520e-01,4.603120568437581335e-03,3.365882026830372287e-03,3.110339944296418562e-03,3.030299767851829529e-02
-4.311979765826876587e-01,-3.349897269059549654e-01,-4.793668583310241038e-01,7.953665912103650981e-02,-8.709680458311368917e-03,-1.187816955601138889e-02,1.893135011196136475e-01
-4.498470382290178926e-01,-2.866074589720353782e-01,-4.466726705400205777e-01,9.362355804742320681e-03,-4.783894138130235021e-03,-8.511459566239880370e-03,1.633646488189697266e-01
-4.640610334344043575e-01,-3.053229735636672770e-01,-4.971862005424604325e-01,2.875845519967362273e-03,8.552984855171166106e-03,1.119999905762059447e-02,1.793707460165023804e-01
-4.248270383956447294e-01,-2.563255122012723652e-01,-4.638860722860567165e-01,1.087271016592685630e-01,-2.559532072170132844e-02,-2.998814510487327403e-02,2.768173813819885254e-01
-4.463708356634711327e-01,-3.483875222798757942e-01,-4.388624348544364895e-01,1.206683223611398730e-02,-1.358345578245168063e-03,-2.237876623388465602e-02,1.042410507798194885e-01
-4.609805537050679081e-01,-3.452974776107248789e-01,-4.713416122059437829e-01,1.732703950011811947e-02,-4.297375832491861017e-03,-3.106457660387375308e-02,1.361603140830993652e-01
-4.036967175834479948e-01,-4.338869552610437053e-01,-3.698984328972420021e-01,-8.490526367802973817e-03,-2.917298544403088348e-02,8.734655311005881662e-03,7.792619615793228149e-02
-5.737359288561115767e-01,-1.691297671684718062e-01,-4.950974795288576313e-01,7.036239910332091341e-02,1.143194813667727794e-02,4.612165891878905466e-03,3.916389048099517822e-01
-4.307093067389825558e-01,-2.505406379871194522e-01,-4.383420423259513088e-01,6.464899400541254670e-02,-4.234851286000183845e-02,-7.837072709920876734e-02,2.650259733200073242e-01
-3.620645514614559968e-01,-3.799433556076201590e-01,-3.059685340236312223e-01,-9.604533774689967551e-02,-1.189315587170649419e-01,1.123015590944534403e-01,3.352797925472259521e-01
-2.660544025314353633e-01,-5.029899488383418049e-01,-4.487712549341498214e-01,-7.625663866997978158e-02,-1.824794706312939108e-01,9.289885906186151621e-03,4.047618806362152100e-01
-3.990041206958482856e-01,-4.179239935586219756e-01,-4.176806098110193988e-01,-2.720006481182062757e-02,-1.306660957857602723e-02,1.854317455847156321e-02,6.416153907775878906e-02
-3.819471967253575406e-01,-4.015562968640239427e-01,-4.293308743043017794e-01,-2.170980733055926509e-02,-9.080669125920570392e-03,1.009965057461947001e-02,6.056327372789382935e-02
-3.876667511356492457e-01,-4.391277204940703949e-01,-4.751169277457993889e-01,-6.887614880765517700e-02,-3.490758889096819140e-02,3.270672947485070425e-02,1.639880388975143433e-01
-4.038230760668816699e-01,-4.234034492006021888e-01,-4.271800828239505909e-01,-9.193500634955744516e-03,-7.258332794244888760e-03,6.583532937860905702e-03,3.183146566152572632e-02
-3.425178353990476765e-01,-4.986157180712967874e-01,-4.915213799553791452e-01,-3.797423088865013729e-02,-3.509459699996445026e-02,-3.642703760412673323e-04,1.770053207874298096e-01
-4.133181213910775420e-01,-4.117888522534636220e-01,-4.108790421462125142e-01,1.911336556285923383e-03,-2.006054228309778371e-03,-2.328673747696715160e-03,6.622560787945985794e-03
-4.206870708463068542e-01,-4.054476574182039328e-01,-4.059278162696742798e-01,2.118843718657190643e-03,-7.666010861550180168e-04,-1.289188227016851204e-03,1.566430553793907166e-02
-4.210203685647361804e-01,-4.059286669958167559e-01,-4.086580595878501754e-01,8.312532074535453411e-04,-8.019459741911251017e-04,-1.377714141156812303e-03,1.427285745739936829e-02
-4.187912685369724608e-01,-4.079809779745311449e-01,-4.086300450570577447e-01,7.690679541169654623e-04,-1.818951255902223965e-03,-3.584552453765097835e-04,1.106131449341773987e-02
-4.206066032450941905e-01,-4.072744968336506899e-01,-4.035846977130948532e-01,2.999940530106270497e-03,-1.627474808846694548e-03,-1.523615391923122944e-03,1.680659502744674683e-02
-4.146257042361931044e-01,-4.125104411882862809e-01,-4.037546653018727616e-01,4.321753439421011089e-03,-1.309131888447663799e-03,-1.277834321086316000e-03,1.287367194890975952e-02
-4.302392339558923640e-01,-4.026274773662010253e-01,-4.013118070611543797e-01,1.234786700036649178e-03,1.128746047169251114e-04,-5.630755560138275481e-04,2.839069440960884094e-02
-4.253573688174052680e-01,-4.041614429173598366e-01,-4.033404425981884089e-01,4.041581776186162905e-03,-3.230121798436026790e-03,-5.125221451096584682e-03,2.502900548279285431e-02
-4.218920797207675322e-01,-3.902898902959040517e-01,-4.098922311427052878e-01,4.810266561167002297e-03,-6.925481714563844551e-03,-5.647376371332282589e-03,3.274835273623466492e-02
-4.191110874813374632e-01,-3.958289137597429952e-01,-4.108470848739265713e-01,2.548186526802135796e-03,-6.281269325527981222e-03,-4.095631478630357321e-03,2.461939863860607147e-02
-4.173226908613268393e-01,-4.074662619634479288e-01,-4.080458553275215228e-01,9.422130690777848466e-04,-1.892772282358959161e-03,-4.086684493383076081e-04,1.028029620647430420e-02
-4.229619366051608487e-01,-4.038294204303064516e-01,-4.000424189317008938e-01,3.572058527418146834e-03,-1.035622786831850474e-03,-3.010275630823261439e-03,2.283705398440361023e-02
-4.161678492866416890e-01,-4.124745295232161157e-01,-4.017295191117155606e-01,4.587703331118747271e-03,-7.733528158391148218e-03,-4.898006365209798055e-03,2.198443748056888580e-02
-3.660119638197957270e-01,-4.274217652450975624e-01,-3.905942970109048118e-01,3.527085895368205909e-02,-5.286743730035931010e-02,-2.514726171780441721e-02,1.299230903387069702e-01
-4.134673926084683204e-01,-3.975742415320168144e-01,-4.103201155653899979e-01,3.430387129874308376e-03,-7.412943257336414293e-03,-5.176119278521473105e-03,2.220387198030948639e-02
-4.210135645399430415e-01,-4.084300330759502717e-01,-4.057008199416992089e-01,8.484799731730197818e-04,-7.735243661859980170e-04,-1.148437710131661356e-03,1.442388724535703659e-02
-4.576220969029242691e-01,-4.540108140479785503e-01,-3.403275688226110596e-01,-1.288754414663776000e-03,-6.964878291842135395e-03,-2.615705485838242320e-04,1.161816716194152832e-01
-4.410369513355494320e-01,-4.398212919215440109e-01,-3.567454752683749675e-01,-1.146465526713539435e-02,-3.307868494674141846e-02,1.521037705889403610e-02,1.066538393497467041e-01
-4.365723820606887129e-01,-4.368445704750342218e-01,-3.382383817051263231e-01,-9.227791058901521626e-03,-1.740217958885669630e-02,2.244633647414832206e-02,1.112290099263191223e-01
-4.560141806202724912e-01,-4.457128850520943320e-01,-3.386957047525869235e-01,-1.519189238105481078e-03,-7.041042595266470625e-03,1.304350327655235970e-03,1.132341176271438599e-01
-4.404944618254523769e-01,-4.439122095455638184e-01,-3.359546342982653311e-01,-6.080016939793856171e-03,-2.027290299584571381e-02,1.217794525112415698e-03,1.124538481235504150e-01
-4.440761242281678900e-01,-4.359759704409321146e-01,-3.235976584126029065e-01,-5.371071165937136259e-04,-4.561462194735262272e-03,3.145116046669445276e-02,1.289790421724319458e-01
-3.419222857347088973e-01,-4.427678854811326614e-01,-4.607177266276121230e-01,-2.299077463230243118e-02,-1.738748682615922497e-02,8.819347438754357449e-03,1.225897148251533508e-01
-3.980282265098152306e-01,-4.343895105054736971e-01,-4.004957197926883872e-01,-1.467574997147593147e-03,4.796119978087159605e-03,2.037654862467647501e-03,3.642027080059051514e-02
-4.137794708914830366e-01,-4.109352066772409273e-01,-4.095266155083070458e-01,-1.365770465347726590e-03,8.476767068710346943e-04,9.037162189015424737e-05,4.675096832215785980e-03
-4.143691737290570720e-01,-4.096104225553858780e-01,-4.076921378229800830e-01,-5.673952871052070652e-04,7.408508659288168610e-04,6.963623743679204104e-04,6.286598742008209229e-03
-4.167818030565041965e-01,-4.076706881146649475e-01,-4.077645413751517234e-01,-5.601527088812740607e-04,2.033540803413196561e-03,-5.067758311247765306e-04,9.812428615987300873e-03
-4.070055775341098192e-01,-4.102576100517945079e-01,-4.115141094604199967e-01,-1.214755010734088403e-03,6.127402598902211787e-04,-1.480869575980501033e-03,5.326617043465375900e-03
-4.049450434751217243e-01,-4.328997508786948112e-01,-4.009829042544971744e-01,-4.499431028240337069e-03,7.949397773337425754e-03,-2.469108777159887032e-03,3.430054709315299988e-02
-4.116530217874300734e-01,-4.099451122082015675e-01,-4.103591649344665582e-01,-9.468671701518124525e-04,1.492563769286044508e-03,-2.927944367080303361e-04,3.465736284852027893e-03
-4.959831406307869672e-01,-4.221158932880573200e-01,-3.189241489222330861e-01,-1.480746876793572267e-02,2.959317681112884346e-02,-6.633074768430541335e-02,2.005286812782287598e-01
-4.644338682633564752e-01,-4.387386532191795419e-01,-3.205889380005033651e-01,2.842133628874646267e-02,-1.939725022353655862e-02,-4.321687828256796926e-02,1.637395918369293213e-01
-4.494151845563899572e-01,-4.249834487870610134e-01,-3.637507712261468518e-01,2.160644925835642285e-03,1.700002232540137256e-03,-1.385262825768131083e-02,8.025417476892471313e-02
-4.514259088167589251e-01,-4.297612497750077365e-01,-3.892709799080019684e-01,1.633242642092988875e-02,-1.361080542900651967e-02,-2.870511186505813120e-02,8.254685997962951660e-02
-4.441169066643883556e-01,-4.383638916290628629e-01,-3.639862990661786313e-01,8.500371528624418166e-03,-2.295278066625426258e-02,-1.596242912890753415e-02,9.249149262905120850e-02
-5.265142213711877517e-01,-3.484218238342289276e-01,-3.540862618086605962e-01,-3.259735787920585437e-02,-5.391899426815463525e-02,-1.777224517397955061e-01,3.706825375556945801e-01
-4.691129501385897238e-01,-4.322164541401710691e-01,-2.263401966448913838e-01,1.712032781784876556e-02,-4.475940925185074859e-02,-1.038484575454206027e-01,3.009743094444274902e-01
-3.993190734988926183e-01,-4.321634593743035602e-01,-4.105570792952434322e-01,-5.986708709674113185e-03,-1.376938277040069825e-02,4.577806807323744551e-03,3.968777880072593689e-02
-4.070003803206107551e-01,-4.308212694284532240e-01,-3.936626739752958626e-01,-8.519260784823200639e-04,-2.838098398190169042e-03,1.104245515522338152e-03,3.306123241782188416e-02
-3.930206751647219998e-01,-4.289978841481754124e-01,-3.939551648853562571e-01,4.122398850576669202e-03,-1.396046398272482968e-02,-4.531108168520422280e-03,4.425914213061332703e-02
-3.713650014198732752e-01,-4.420764128540772830e-01,-4.254839726163479052e-01,-5.906916127797063633e-03,-8.229354640267486087e-03,5.067216879788390832e-03,6.698514521121978760e-02
-3.849925755800777671e-01,-4.029143397284316586e-01,-4.358080288521508083e-01,-7.293568371945727095e-03,-5.313213649153475772e-04,1.895108824387767852e-03,4.651781544089317322e-02
-3.791007263482701339e-01,-4.178473837534044666e-01,-4.414496654589875613e-01,-9.481451637075352656e-03,-4.627534996596990684e-03,1.308069183718311046e-04,5.750537291169166565e-02
-4.025932791107209585e-01,-4.037893403787431446e-01,-4.312576966575139004e-01,-5.710459675382407313e-03,-2.648837348777527932e-03,2.521655133942129340e-03,3.044254146516323090e-02
-3.994381690947010899e-01,-4.016700742525657342e-01,-4.323576787507510399e-01,-1.116840190837620032e-03,-6.528948766483640088e-05,4.668736345256290074e-04,3.193134814500808716e-02
-4.122939171014275983e-01,-3.963065306439392255e-01,-4.420987673281812080e-01,-1.573631222078193670e-02,6.049807017008419340e-04,-9.908417189160338093e-04,4.865557700395584106e-02
-4.069086957333826193e-01,-3.817563816175980618e-01,-4.344537197947928586e-01,-7.831823990810081459e-03,2.413119652597429249e-03,-1.257962348470144940e-03,4.785830900073051453e-02
-4.339150172389907856e-01,-3.811967932532698833e-01,-4.060297337422295594e-01,5.296535292108749300e-04,2.172366219548188451e-03,8.911884500202447296e-03,4.837356507778167725e-02
-4.390395290340030066e-01,-3.746800945822186257e-01,-4.255386517992621465e-01,4.705750179887579522e-03,7.086761962064687913e-03,2.695862600951396543e-02,7.650426775217056274e-02
-4.380711867012374028e-01,-3.595145555414128169e-01,-4.151989623250582628e-01,-2.648416815028264829e-04,-1.616646149050717310e-03,1.370273763588084753e-02,7.395176589488983154e-02
-4.360251234463191072e-01,-3.646316001605194868e-01,-4.158862473928515158e-01,4.967892859667684055e-03,5.030233688096626826e-03,1.477838842964801155e-02,6.978521496057510376e-02
-2.972999825865279555e-01,-4.329398138296739473e-01,-4.470622686487496500e-01,4.731823454474655410e-02,-9.714807891848855834e-03,-5.416017591852102450e-03,1.661365479230880737e-01
-3.631757407292855455e-01,-4.223807238172572198e-01,-4.448204217598442645e-01,1.517152091418066777e-02,-1.192007190419194004e-03,-4.556585909742571355e-03,7.806655764579772949e-02
-3.999675224669403950e-01,-4.120913451769229741e-01,-4.650571718157789358e-01,5.656439131139699011e-02,-2.632681352149534443e-02,-4.820315508916452746e-02,1.491410136222839355e-01
-2.784910489748870788e-01,-3.219358301088588448e-01,-4.793300285421374096e-01,1.825672314160129706e-01,-6.795099002257399753e-03,-3.664667606046004538e-03,3.656084537506103516e-01
-4.435937402027984588e-01,-3.581315404679655257e-01,-5.485243999734591425e-01,2.003138748969625904e-01,-1.768556017250602977e-02,-9.278530259564381211e-02,4.176415503025054932e-01
-5.204598007103008461e-01,-2.722519923869965996e-01,-5.211450255701212120e-01,1.650344149713638686e-01,-1.458873752189708377e-04,-3.854628437612551278e-02,3.846352100372314453e-01
-4.057960967411378683e-01,-4.035452191346373119e-01,-4.274818692673457154e-01,2.921649688041689022e-02,-1.020626746287207898e-02,-1.467711582009908686e-02,6.359024345874786377e-02
-3.255929195025669687e-01,-3.360652713162229355e-01,-5.064294940856716165e-01,1.600153130439479210e-01,-5.085351335873745243e-02,-7.482557498787734129e-02,3.637132048606872559e-01
-3.994186277815076069e-01,-4.047588561066854385e-01,-4.470696336247645952e-01,-3.944232874202716066e-02,-1.778319042627249380e-02,1.039399431820546039e-02,8.935654163360595703e-02
-2.903571454977523780e-01,-4.061634010141374485e-01,-4.488034337585627420e-01,-1.359204036521195480e-01,-7.870323609277657395e-02,6.651711273332172603e-02,3.277903199195861816e-01
-3.159368979164292601e-01,-4.792323058747525177e-01,-4.634763779642847581e-01,-4.059943547968057967e-03,-2.053416680154508331e-02,-3.670441621349371242e-03,1.602984368801116943e-01
-3.384469030272875822e-01,-4.530777063638301572e-01,-4.453593727084650400e-01,-3.328905666986604027e-03,-3.040862636480540660e-03,-3.567099002025281643e-04,1.112492755055427551e-01
-3.376724748830689515e-01,-4.451349743086697730e-01,-4.236814667739214890e-01,9.260017066179085810e-04,-2.756989836264252258e-02,2.693390111911945790e-03,1.095793247222900391e-01
-3.277510409439864381e-01,-4.212495113185521500e-01,-4.438747154305033860e-01,-3.728973310832522925e-02,2.934594766795701679e-02,-1.166546761214986433e-02,1.361347138881683350e-01
-3.485659444107198635e-01,-4.378576878741592959e-01,-4.443483349915014480e-01,-1.150439384885297740e-02,-7.122021152710029598e-03,3.703542367629317818e-03,9.583880752325057983e-02
-3.640664923905218564e-01,-4.350948765114796002e-01,-4.463825499462079072e-01,-4.747608816704905477e-03,-5.738268454110406758e-03,3.931343723183573259e-03,7.865720987319946289e-02
-3.764748270758153659e-01,-4.491214356506442185e-01,-4.430635181657558430e-01,1.895773611360987432e-02,-1.745491562193551838e-02,-6.885438727655374992e-03,8.371724933385848999e-02
-3.606601559023699943e-01,-4.404755488753606674e-01,-4.556600476189071047e-01,2.982985318782844369e-02,-5.271071095861215583e-02,-2.382284259621951159e-02,1.432491689920425415e-01
-3.798682885769855688e-01,-4.273363170004287892e-01,-4.311642654110127704e-01,7.063339368869523544e-03,-3.003671489197305786e-03,-7.400479311230992972e-03,5.282624065876007080e-02
-3.516665400212269921e-01,-4.533835747165111396e-01,-4.439754601706278336e-01,7.164753427759897215e-03,-1.021537173408014823e-02,-2.237764287578346278e-03,9.979973733425140381e-02
-3.521587208293233129e-01,-4.388567377867984010e-01,-4.393297289194889044e-01,1.076522624146152365e-02,-1.228875052330132694e-02,-7.218609045460070567e-03,9.227574616670608521e-02
-3.531467476676670714e-01,-4.658705863512257461e-01,-4.385601083662564736e-01,-1.484764820512022437e-03,-3.620293699441852475e-02,-4.280406187142685517e-03,1.198645979166030884e-01
-3.507390653079978105e-01,-4.270350265144731150e-01,-4.348118434534735677e-01,4.532751979032027811e-02,-2.492404990089002598e-02,-2.164831600318998725e-02,1.261277794837951660e-01
-4.679732575586848520e-01,-3.941180850889590692e-01,-4.590136723443836164e-01,5.753111920624657399e-02,3.859148742008031152e-02,5.469205177285420966e-02,1.680601388216018677e-01
-5.062131690482599700e-01,-2.867252376130439706e-01,-4.415328117630159532e-01,-2.908271508994587223e-02,-6.052234669681448576e-02,1.635441725906016386e-01,3.632193803787231445e-01
-4.680225319277498408e-01,-2.224413171490765562e-01,-4.445884194427955349e-01,-4.703598100981483399e-03,1.386664088712755583e-04,7.850299471735555645e-02,2.714017331600189209e-01
-4.419810337166603098e-01,-3.574881841002355287e-01,-4.201021871409276187e-01,6.581443168205154855e-03,1.561617827787733928e-03,1.732734309445225357e-02,8.250510692596435547e-02
-4.418341772006183499e-01,-3.252094328534995693e-01,-4.022112175218731656e-01,-7.056558176640251139e-03,-4.291138440451281247e-03,5.606248684459152337e-02,1.420701444149017334e-01
-5.636939564230279975e-01,-2.516053158969268067e-01,-4.800830430317044595e-01,-3.729434265216849398e-02,3.301936020576921177e-02,9.739574023188693475e-02,3.379309475421905518e-01
-4.606889478721664655e-01,-3.663719075928972280e-01,-4.252391302286662178e-01,6.441778202442096507e-03,4.993093416782546506e-03,3.128342729575270265e-02,9.972017258405685425e-02
-4.133710709213000434e-01,-5.458035662398479371e-01,-2.452404940806731659e-01,-2.776690179058035127e-02,-1.479239751140158377e-01,-1.272013831662625882e-02,3.694795370101928711e-01
-3.909241040175571724e-01,-4.409432810977522155e-01,-3.937666658978923873e-01,-2.491784472155162116e-04,-1.695686813390594877e-02,2.068823037432068745e-03,5.695127695798873901e-02
-3.927074125140898042e-01,-4.489274633193041097e-01,-3.426304783903739160e-01,2.754276057139670372e-02,-7.069947627263792334e-02,-5.030503100712854780e-02,1.826104223728179932e-01
-4.322011654709181916e-01,-4.741797270253239605e-01,-2.978566892404275745e-01,4.806812656553265117e-02,-1.303693416595615440e-01,-5.686978108963904738e-02,3.050784766674041748e-01
-4.967690160280849310e-01,-5.110451942665403813e-01,-3.551300699154610885e-01,1.196618285057277943e-02,-1.828728842507030272e-01,-8.579166406718638505e-02,3.809529244899749756e-01
-4.017466577773944336e-01,-4.004121876985650696e-01,-4.327371497340706252e-01,1.238269951169431154e-03,-3.631375366915822107e-04,-2.422415679016525706e-04,3.176033496856689453e-02
-4.018163932568744046e-01,-4.022312749490404848e-01,-4.307962151658502048e-01,5.955220939828507337e-03,-2.370444461911364389e-03,-2.157655535470466655e-03,3.106760978698730469e-02
-4.121252581691332018e-01,-3.988325680236758930e-01,-4.345318746642999885e-01,1.170026979691306257e-02,-5.957973008829165786e-03,-4.908390462458682782e-03,3.957340493798255920e-02
-3.999716064477752964e-01,-4.148429569109506332e-01,-4.349213797155214722e-01,1.347643506835834171e-02,-7.215159502093983213e-03,-6.069604046685379665e-03,4.164651408791542053e-02
-3.813862222999712115e-01,-4.050442127196536846e-01,-4.337953871691196950e-01,7.929661720813066528e-03,-1.341105036553956031e-03,-2.123675301432786065e-03,4.768741875886917114e-02
-3.793949120249362483e-01,-4.060596970319035326e-01,-4.342620137465592611e-01,9.682233266298995167e-03,6.236350111595695671e-04,1.285305983188599586e-03,5.045542493462562561e-02
-4.025948894336654482e-01,-4.003596999987176219e-01,-4.315505065661003892e-01,1.342686848549925040e-03,-4.813631721080580085e-04,-1.108448305452340257e-04,3.023715503513813019e-02
-4.072283778395383025e-01,-4.058860175636544998e-01,-4.200767629789085023e-01,1.114883513140017129e-03,-3.357443521173090247e-03,-1.373774674373726698e-03,1.507773343473672867e-02
-3.961679216255444835e-01,-4.020640770065839753e-01,-4.321277171345753176e-01,4.538587416465955648e-03,-2.576641615295942843e-04,-8.253375992798952284e-04,3.434946760535240173e-02
-4.326782864120147787e-01,-3.623106419362791542e-01,-4.375722252005461166e-01,-5.093416352842329922e-03,4.243540273831148367e-03,-6.631203176180960022e-03,7.472416758537292480e-02
-4.118160744779876814e-01,-3.982537503626657482e-01,-4.101737683753694519e-01,-3.046543052774638039e-03,5.543905356569905560e-03,-3.469400780580070287e-03,1.790305785834789276e-02
-4.242438578081721423e-01,-3.703351614473244791e-01,-4.464340202159509108e-01,-1.827830347227858698e-02,1.122732328955488960e-02,-1.114816302399832329e-02,7.967487722635269165e-02
-4.185705820206257477e-01,-3.812456924180995244e-01,-4.339268010754391280e-01,-4.380132699223646120e-03,4.742799122514494009e-03,-3.594376737594560337e-03,4.864080250263214111e-02
-4.775611488200954824e-01,-3.347292584115248992e-01,-4.337767237925935770e-01,-5.320841888894218413e-03,1.737776195834582482e-02,-4.619554346363450442e-02,1.531574130058288574e-01
-4.449407665477094209e-01,-3.919383428783779766e-01,-5.011199790916233132e-01,-7.377286049590246753e-02,2.144509783800885999e-02,-3.549831252589931430e-02,1.744430214166641235e-01
-4.185353644601933487e-01,-3.902804604786714315e-01,-4.222792466938975475e-01,-3.205059095729970511e-03,7.559863946582053192e-03,-4.590010849726345113e-03,3.440371528267860413e-02
-4.885881707958666387e-01,-2.058534642602095344e-01,-5.734826189397473906e-01,-1.063966986030134981e-01,-4.161240809935928819e-02,-2.547522030488270223e-02,3.901936709880828857e-01
-5.014269980666787863e-01,-3.477053625331672504e-01,-4.492949801032924406e-01,-2.917379346863971032e-02,2.439580307685659810e-02,-6.698991918667901446e-02,1.900947540998458862e-01
-4.114819133922774097e-01,-4.108077021346022706e-01,-4.111527100645755439e-01,5.697001464503594591e-04,1.263502239597724814e-07,4.594585573971171144e-04,1.395694911479949951e-03
-4.114718583545405872e-01,-4.116782299626756680e-01,-4.102154408999087454e-01,1.234042400081078869e-07,5.750947823065539078e-04,4.446503715329928408e-04,1.861667726188898087e-03
-4.097712878893282618e-01,-4.103329168949387817e-01,-4.097228799567359525e-01,2.615833587219136298e-04,1.095176770804743172e-03,2.212545511573692485e-04,2.072518458589911461e-03
-4.103247517570595693e-01,-4.116162010801863724e-01,-4.089163948944351534e-01,1.779494022150004658e-03,7.509444308655412962e-04,9.158675576956987630e-04,4.379283171147108078e-03
-4.088988105197299827e-01,-4.112948378416875217e-01,-4.100810379906607017e-01,1.171660336971261157e-03,5.586296099362715682e-04,1.194318391732183786e-03,3.693198319524526596e-03
-4.101428870708389018e-01,-4.123171220251004021e-01,-4.118345559676281353e-01,2.072817561283631788e-03,2.014425811447931227e-03,1.368858022746940323e-03,5.881812889128923416e-03
-4.074172857393054126e-01,-4.200650601766445780e-01,-4.029992047208703076e-01,-1.559169309684435003e-03,-6.024762437926855932e-04,5.815232352788135984e-04,1.564483903348445892e-02
-3.317574249397957642e-01,-4.410078744832174880e-01,-3.964089420347612358e-01,-8.791087001677511809e-03,-5.084428368150957500e-02,5.009874264375070545e-03,1.308237016201019287e-01
-4.037239131609397513e-01,-4.225401824774580595e-01,-4.007102148131956310e-01,-3.974105870779447158e-03,-3.685618270704402785e-03,3.948923881990860571e-03,2.355323359370231628e-02
-4.115516858186099025e-01,-4.228363531336863379e-01,-3.904505121763114928e-01,-7.144510672886948167e-03,-4.538783976539638443e-03,5.931596016517655216e-03,3.363344073295593262e-02
-4.123280818513773149e-01,-4.194503246167839428e-01,-3.966535779486536351e-01,-6.018790857512960370e-03,-3.161302379176098888e-03,2.469367533108000109e-03,2.376986294984817505e-02
-4.153849277097135251e-01,-4.118458509615951502e-01,-3.980835527827923381e-01,-6.126284078126618959e-03,-2.467849895490150172e-03,4.293323588907087089e-03,2.089963108301162720e-02
-4.246454529577735615e-01,-3.992210306439988310e-01,-3.813962532463583410e-01,-1.450841842578137753e-02,-1.553818266847326220e-02,2.533643783036921768e-02,6.854853779077529907e-02
-4.049081241174340429e-01,-4.225329998042593460e-01,-4.048085358860933347e-01,-3.877464418253871812e-03,-5.513342634157895536e-03,3.888346084039841048e-03,2.222732827067375183e-02
-3.731535694884645649e-01,-4.179004906612213688e-01,-4.405051190004785622e-01,-6.553400793774333613e-03,3.091762539069984033e-03,-2.596885385416702191e-03,6.084811687469482422e-02
-3.299518355824097582e-01,-4.465275133873527480e-01,-4.729972156905645764e-01,-6.891298896682576669e-02,2.386348377106985164e-02,-7.820579714686991257e-03,1.830714046955108643e-01
-3.597991767790090778e-01,-4.241337566220813038e-01,-4.569889201836435100e-01,-2.512200808527728993e-02,9.422560049754374195e-04,-9.935703991023107050e-04,9.607858210802078247e-02
-4.247673351965918220e-01,-3.730623567587580958e-01,-4.399827199720870996e-01,-2.766093803231262430e-02,-2.957412670699832453e-03,3.904642507445555463e-03,7.783947885036468506e-02
-3.590671247759992801e-01,-4.307951828983725417e-01,-4.144805335792005052e-01,-2.317112658567805489e-02,3.855275357305334993e-02,-1.746693573271056177e-02,1.059518456459045410e-01
-3.827637018018247850e-01,-4.206061018992624523e-01,-4.216717393518297774e-01,-1.491429129294614790e-02,1.384936325621300736e-02,-7.929891018042659057e-03,5.389695242047309875e-02
-3.988952997001025680e-01,-4.290294125679005033e-01,-3.946616592636512655e-01,-9.045494885684873809e-03,1.121819199676712779e-02,-8.319040480836967233e-03,4.340727254748344421e-02
-5.302716567000063108e-01,-3.497217490131903084e-01,-3.492616069985613469e-01,-1.210952312697244904e-01,9.579496960478017797e-02,-1.493424804093102520e-01,4.136584103107452393e-01
-4.757291141896426989e-01,-2.426801301640905684e-01,-3.870481421106492514e-01,6.582320414575879713e-03,-9.756941709804376611e-03,-1.346710747123322505e-01,3.103765547275543213e-01
-3.713653606958307596e-01,-4.795254968366294834e-01,-3.978038306820507186e-01,8.632181149591956065e-03,8.142211348221853329e-02,-1.021561478098149088e-02,1.730991601943969727e-01
-2.957297368559549389e-01,-4.750092516453685576e-01,-3.398930972475510681e-01,-1.706802583051537925e-02,1.618857579932097834e-01,-7.024770653699106623e-03,3.252951800823211670e-01
-4.795533561390354915e-01,-4.747485315416142271e-01,-3.376270613172485113e-01,-1.512803030673870973e-02,2.710721332802061220e-02,-3.508033686777513316e-02,1.614530682563781738e-01
-3.140645134046320397e-01,-4.468290271014780934e-01,-3.468173451741063396e-01,-6.448804214646859656e-02,1.329935982667267980e-01,-5.404906660854173761e-02,2.977459728717803955e-01
-3.505735008974946720e-01,-4.885931246365659009e-01,-4.694615424524269942e-01,2.370363034926386073e-02,4.710852464897498371e-02,7.506092091084959686e-03,1.590193361043930054e-01
-3.526538405476891125e-01,-4.579337624923127681e-01,-4.870949033827885466e-01,-6.595517280475363120e-02,-1.460615864843875511e-02,7.950074529229335385e-03,1.699535250663757324e-01
-3.480193336000005910e-01,-4.485055921247256272e-01,-4.433853182385488756e-01,-7.143946480758848723e-04,-5.964163144579661367e-03,2.850630169473834536e-03,9.870061278343200684e-02
-3.144711326968746001e-01,-4.392482876912226497e-01,-4.226605505041713950e-01,-2.105058179528119730e-02,-4.290619757030655901e-02,1.177586427866042333e-02,1.450618505477905273e-01
-3.542255159639479123e-01,-4.154745850830601217e-01,-4.479963733306324136e-01,-4.354483516784722619e-02,-3.146320000548125106e-02,2.232284471620998162e-02,1.302084028720855713e-01
-2.554179981334228078e-01,-3.920331578009791929e-01,-4.332488927975306492e-01,-1.145009144961328246e-01,-7.260091704395074674e-02,4.488014226438097332e-02,2.952623665332794189e-01
-1.822692432634809290e-01,-5.049077733962512582e-01,-5.498509331378444998e-01,-3.388646090973880531e-02,-7.378252618413295993e-02,-3.508663769854866721e-02,3.795860707759857178e-01
-2.673706384818469450e-01,-5.438750268895488071e-01,-4.619588832286670721e-01,-1.287705196806748498e-01,-7.459162283197007248e-02,4.666499106435378907e-02,3.653558492660522461e-01
-4.506086677626842674e-01,-4.328646777557292324e-01,-3.197047660365399668e-01,3.036672646438075621e-03,-1.828475179511294480e-03,3.975173140248171311e-02,1.410893946886062622e-01
-4.980061971310725255e-01,-4.826157297208496511e-01,-3.406913888509707222e-01,-1.374985740349666218e-02,-4.092926610488392680e-02,6.037753845294505095e-02,1.977189928293228149e-01
-4.487095214206194282e-01,-4.346000050640191903e-01,-3.574851607030895551e-01,2.753609999685381095e-03,2.123975109672085818e-03,6.684871171361063576e-03,8.604751527309417725e-02
-4.406733564932406866e-01,-4.283020916108764009e-01,-3.693673584490992923e-01,-2.760519905338452984e-03,-1.974044261083707924e-03,1.075892935747910575e-02,6.882778555154800415e-02
-4.385467813517821556e-01,-4.208821050254382690e-01,-3.649856248221947652e-01,5.633963011999840870e-03,2.098331388512016983e-03,1.262775630407325135e-02,7.078605145215988159e-02
-4.055052023119499749e-01,-4.232384203898698627e-01,-4.040758181617544187e-01,2.346549728981788853e-03,8.555139444742547927e-04,7.238424683252882037e-04,1.903008669614791870e-02
-4.082788222125351418e-01,-4.208445035048645755e-01,-4.050219450692223999e-01,1.102290951302107094e-03,1.077523492683583970e-03,7.921960964755240782e-04,1.477969903498888016e-02
-4.062265586503281400e-01,-4.210215142915853526e-01,-4.084759226159869749e-01,1.050179762321014516e-03,4.188630834377661950e-04,2.108095852320666236e-03,1.441659778356552124e-02
-3.855780277070687823e-01,-4.304357465423671592e-01,-4.103108949810039263e-01,1.883777754948094815e-03,7.464829115702173619e-03,2.430841689349896601e-03,4.135230928659439087e-02
-4.052997314227383407e-01,-4.158464969073116801e-01,-4.044784332438241536e-01,3.946873749054408825e-03,2.419090828581085730e-03,1.693460863729115504e-03,1.390912290662527084e-02
-4.002240915954184408e-01,-4.224853545325596982e-01,-4.034893960563749604e-01,1.683641396906380419e-03,3.438879185073383856e-03,1.998973638851155379e-03,2.212477289140224457e-02
-3.972341197534742241e-01,-4.201639988549541460e-01,-4.144766464665813888e-01,2.339262100015542661e-03,6.521679584030602370e-03,6.527597886468862291e-03,2.644914016127586365e-02
-3.962510852255553551e-01,-4.007638837295630085e-01,-4.296068371805845665e-01,-3.554502965988871541e-03,-8.524659499726445523e-04,1.867505335867412214e-03,3.214016184210777283e-02
-3.951440054462032059e-01,-4.076974363844624860e-01,-4.307007790384556056e-01,-2.147359868223581731e-03,-1.366592440526999668e-03,2.783546254968453492e-03,3.190914914011955261e-02
-4.168477362857590518e-01,-2.758983091552547062e-01,-4.608548732762044464e-01,-1.090995360094533656e-01,4.071642382047364894e-02,-5.000572839860509267e-02,2.760244011878967285e-01
-4.011469150891058821e-01,-4.056619120520326138e-01,-4.232862650818430827e-01,-2.699165838899956343e-03,-2.390664674645276953e-03,4.214163542315111158e-03,2.242446877062320709e-02
-4.142066216077945340e-01,-4.075617270450909713e-01,-4.145831647373056650e-01,-6.825552945860385162e-03,-5.345870649032513459e-03,7.630121002515350900e-03,2.114129252731800079e-02
-4.001917996970904556e-01,-4.021339213848676986e-01,-4.303220330303496044e-01,-7.589493033243741634e-04,-6.626677554136476810e-04,1.235834877911065784e-03,2.933791838586330414e-02
-4.080542032319114387e-01,-3.991929494509176002e-01,-4.337814853948329108e-01,-1.240434191618807261e-02,-2.590142524217760919e-03,6.203464864839500909e-03,3.956727683544158936e-02
-3.696665432430104592e-01,-4.241020658303562008e-01,-4.454601318750656125e-01,-1.248362601512817069e-02,-6.018504682157480717e-03,2.835374112155622343e-03,7.198846340179443359e-02
-4.059575271433379928e-01,-3.818050192702311940e-01,-4.374045795112756485e-01,-2.164480143488440450e-02,-1.432513609129512991e-02,1.933420746841242946e-02,7.398879528045654297e-02
-4.085057018903013870e-01,-3.833911277986705168e-01,-4.344849433834493957e-01,-6.911785504495555725e-03,-1.941533204868695637e-03,1.340645773157946637e-03,4.602324962615966797e-02
-4.073299669441352022e-01,-3.843719588706403512e-01,-4.291309593350732809e-01,-6.936012252644511294e-03,-3.536866420558696430e-03,2.933561913201023375e-03,4.135856777429580688e-02
-3.779394497746358939e-01,-4.092699281083583829e-01,-4.400204766057856931e-01,-8.679874182434422353e-03,1.729704401589877332e-03,-4.519784487963115008e-03,5.645268782973289490e-02
-4.073507545466454327e-01,-3.830805116673123289e-01,-4.332218945861248671e-01,-7.692632598844358245e-03,4.883768795762834236e-03,-2.659579249650416248e-03,4.643880948424339294e-02
-3.717586450791495745e-01,-4.224388652792523402e-01,-4.514657767529543508e-01,-2.217452795689308503e-02,2.066897043012543012e-02,-6.628907919279854351e-03,8.815164119005203247e-02
-4.252109254510250680e-01,-3.702779237630435261e-01,-4.338579022625742021e-01,-8.593748944493977832e-03,5.819462655505459880e-03,-4.128684009243968958e-03,6.278298795223236084e-02
-4.918297866980650968e-01,-3.209014160265056814e-01,-4.987743520053118940e-01,-2.857710343332822353e-02,7.761582793078945124e-04,2.311723608627423590e-04,1.813937127590179443e-01
-4.054728387202328199e-01,-4.240008469859178342e-01,-4.017010112364278740e-01,3.159108907791316825e-03,1.886859065010514829e-03,9.454586295075856394e-04,2.169563435018062592e-02
-4.980079001904035296e-01,-2.142745984479785815e-01,-5.541017493419305717e-01,-3.829229680055623586e-02,1.106010244334151328e-02,7.881690459967774509e-02,3.506693542003631592e-01
-4.155454652257947745e-01,-4.251298510097628047e-01,-4.038581561596676361e-01,6.874147091018308064e-03,8.495762973718429256e-03,7.573497659942167101e-03,2.950997464358806610e-02
-4.064318551929749779e-01,-4.250489781067854356e-01,-4.058001036636759151e-01,2.968691217762089475e-03,3.691562954020873814e-03,3.321502074197617282e-03,2.142842113971710205e-02
-2.731251196864709074e-01,-2.473690014156402772e-01,-4.673202557110670563e-01,-1.867047694747940578e-01,9.521622603876093646e-03,4.711602743661177407e-03,3.850862681865692139e-01
-4.188425389724602099e-01,-3.887950987366078914e-01,-4.227328618775434976e-01,-3.616662837187291802e-03,-7.509423965731678967e-03,4.842742305228062150e-03,3.624429553747177124e-02
-4.322359030636734323e-01,-4.005183287270489001e-01,-4.012082642501723084e-01,-4.468135913034412180e-06,-2.161639305980582861e-04,6.300718539720792004e-04,3.139949962496757507e-02
-4.336549786579212418e-01,-3.536383251721085252e-01,-4.494132524332880574e-01,-5.341309072391704424e-03,1.445978502381032281e-03,-2.857007077437334272e-03,8.960056304931640625e-02
-4.450912124144427162e-01,-3.445633176564540934e-01,-4.446441990312820502e-01,-8.532235176671948765e-03,-3.022277450140911821e-03,2.585547258718832488e-03,1.016217246651649475e-01
-4.583565966503827527e-01,-4.018900137984724452e-01,-4.262545417978716444e-01,-5.760871096815126102e-02,-4.065826833698253651e-02,6.882792804756251992e-02,1.775774508714675903e-01
-4.208994744469967686e-01,-3.811448844139568859e-01,-4.412387914354748419e-01,-5.499376234822690203e-03,-7.193794761433747534e-04,6.320153356457825292e-04,5.381613969802856445e-02
-3.577768550474120790e-01,-4.212806822486682146e-01,-4.409572231517618901e-01,-2.439037034653123576e-02,-3.780272091433012523e-03,-1.730527725249419915e-03,8.663696795701980591e-02
-3.509713084442725450e-01,-4.516255002501922133e-01,-5.065787745907777140e-01,-6.960124273113563187e-02,1.527651425771285511e-03,-1.699580724776445471e-03,1.822939217090606689e-01
-3.607851415855474753e-01,-4.617692234539114149e-01,-4.955464682705155721e-01,-6.380312925562395265e-02,-2.469906520486146034e-02,1.291375370109016860e-02,1.711508035659790039e-01
-3.342626262503741730e-01,-4.445149261101891680e-01,-4.818608537750792009e-01,-4.202604697181787363e-02,-3.452494143834659857e-02,1.543173608494174650e-03,1.629398316144943237e-01
-2.712563794073936663e-01,-5.498534226150810778e-01,-6.017610295599931103e-01,-1.732575761097119027e-01,7.221337657531519405e-02,-3.451184013335693856e-02,4.517123997211456299e-01
-2.380321124191786542e-01,-4.316812202741339699e-01,-5.673661386709707433e-01,-1.179255215548474928e-01,-6.548859210595725511e-02,3.013015118484849500e-03,3.698627054691314697e-01
-4.152391668973496874e-01,-3.346964910003586979e-01,-4.711998839562968611e-01,-6.019473177397489244e-02,9.415953214169912183e-03,1.322438642129774092e-02,1.605826914310455322e-01
-2.757852357298946622e-01,-4.555787131642258792e-01,-5.288210433038051939e-01,-1.740669039103921178e-01,5.764353431592739857e-02,2.295781408018898045e-02,3.915430903434753418e-01
-4.122104388173736811e-01,-4.105058560157099912e-01,-4.097118384664584778e-01,1.163749337801274096e-03,-2.769500360747312925e-04,-3.939066948718798907e-04,3.106133313849568367e-03
-4.094372578186178391e-01,-4.074282320687980241e-01,-4.139617989269087084e-01,9.332070844429203463e-04,-2.192872616571595219e-03,-1.025259315811902390e-03,7.334148976951837540e-03
-4.350379757141985548e-01,-3.997530193946832733e-01,-3.875542740562925581e-01,8.722076562221431351e-03,-5.616699378046098069e-03,-2.096863624840993728e-02,5.887432768940925598e-02
-4.064353250128754924e-01,-4.076079078390350552e-01,-4.176870083449509830e-01,1.098323053360165252e-03,-1.454509918207295017e-03,-3.214976760695347456e-03,1.248021516948938370e-02
-4.345480241014468836e-01,-3.660107222195045362e-01,-4.232949405893987049e-01,7.173515852085227996e-03,-8.094793135428166378e-03,-1.107749975543042414e-02,6.907840073108673096e-02
-4.121619613787424474e-01,-4.077554346884019187e-01,-4.100040506762919201e-01,6.942120100838639063e-04,-2.205550942037838059e-03,-1.454684332045185109e-03,6.078868173062801361e-03
-4.097673414507564393e-01,-4.096140325764520695e-01,-4.122317496097067102e-01,1.169999467745486783e-03,-1.613714002066579363e-03,-2.134044027995315139e-03,5.661799572408199310e-03
-4.344394771468172434e-01,-3.830507303460197743e-01,-4.268430409370115308e-01,-7.407146521954000723e-03,6.116012878886824093e-03,-1.028926274799726349e-02,5.387540161609649658e-02
-4.343836930706112542e-01,-3.833433504105554501e-01,-4.090009007444094791e-01,-1.384821478778851690e-03,2.389824721808347062e-03,-7.454334452879763165e-03,4.629734903573989868e-02
-4.205689882392374401e-01,-3.831115489849918343e-01,-4.413805859764840522e-01,5.831939200167703119e-03,-1.654817599879581389e-03,-3.243948878866921483e-03,5.251238867640495300e-02
-4.277734061232645879e-01,-4.047806292533946415e-01,-4.041540888800537745e-01,1.280447870896479420e-02,-1.304464997146947448e-02,-2.961501646088431430e-02,6.462945789098739624e-02
-4.485420548614494352e-01,-3.431058814322843764e-01,-4.389747215935403402e-01,2.764922592557920219e-03,-3.468942934932761017e-03,-1.027194639388828018e-02,1.028355509042739868e-01
-4.404602336977955224e-01,-3.797850609344356476e-01,-4.176673605181085436e-01,-2.042441175057700794e-04,6.802003365245945943e-04,-5.744654296843554157e-03,5.402357503771781921e-02
-4.351720762759918593e-01,-3.864027334717513029e-01,-4.203381153005044113e-01,-5.138895479723428611e-03,3.512721740346767731e-03,-8.490115357080073311e-03,4.698447883129119873e-02
-4.299550556137396451e-01,-3.882539575596517523e-01,-4.189877726615915954e-01,-2.233190285958357169e-03,6.143118562122968328e-03,-4.929197016667296628e-03,4.003724828362464905e-02
-4.515718124176666404e-01,-3.996281897794984328e-01,-3.835442845855873140e-01,-2.665987546447347312e-03,1.028561631249830938e-02,-2.621183500356358276e-02,7.869036495685577393e-02
-4.395256563154768537e-01,-3.637291902649032460e-01,-4.236796009484971037e-01,-3.215722303021335956e-04,3.235123016057731438e-03,-1.370622515743076704e-02,7.341945916414260864e-02
-4.383123577936431925e-01,-4.302134050972906132e-01,-4.625499655159004964e-01,-7.804965939207517134e-02,5.141157820098131437e-02,-5.511031018172331264e-02,1.901722699403762817e-01
-4.689120773095820649e-01,-3.676266064260309552e-01,-4.740505225792709387e-01,-4.879778079974816940e-02,2.520602768766145099e-02,-6.208297032839859425e-02,1.772517561912536621e-01
-4.399083058818926695e-01,-3.694091930910122223e-01,-4.212480313785735841e-01,-1.827707022918399760e-02,9.810641000875745810e-03,-1.864124579615045185e-02,7.960016280412673950e-02
-4.155906031627122355e-01,-4.018018197784757883e-01,-4.161385180140881324e-01,-8.573189163438193691e-03,1.076201705082866639e-02,-8.259381863778636826e-03,3.115445002913475037e-02
-4.378717771248822332e-01,-3.716269288713808794e-01,-4.444194466779759489e-01,-2.448294325471517263e-02,9.226076133553265390e-03,-1.605255620301422603e-02,8.770211040973663330e-02
-4.157236262797455728e-01,-4.239090361560082232e-01,-4.032372226942280702e-01,-6.957597222487661368e-03,8.268014484025193803e-03,-8.142024026435684680e-03,2.956856228411197662e-02
-3.789086555423987202e-01,-4.046449513219941285e-01,-4.454833999444461901e-01,2.504536795127286497e-02,8.678168036941604283e-03,8.518518541987266796e-03,7.554206997156143188e-02
-3.633310350410756673e-01,-3.122294607775663589e-01,-4.325199701870657831e-01,-1.283708935837965803e-01,7.914458574819194236e-02,-7.609783570504834171e-02,3.107018470764160156e-01
-4.574774313752426047e-01,-2.973772762703679740e-01,-3.108597995871081321e-01,-6.473796219998867452e-02,5.796594511425355589e-02,-1.673997072829575827e-01,3.610767722129821777e-01
-3.539037539717961867e-01,-4.432663363426451730e-01,-4.398543655174439460e-01,6.989276766774080857e-03,-7.614467171208050104e-03,-4.432833977166110787e-03,8.984347432851791382e-02
-3.626366254562519154e-01,-4.247588933979507542e-01,-4.386546906262785983e-01,1.438681719271070469e-02,-1.887443443496859179e-03,-3.915845448231454820e-03,7.478728890419006348e-02
-3.660259585218178513e-01,-4.192259200943824204e-01,-4.400045164496745875e-01,1.203717866113268066e-02,3.052835348654678749e-03,4.237093963205354821e-03,6.988494843244552612e-02
-3.673649404202210533e-01,-4.396377808198264070e-01,-4.533305428141179982e-01,1.441356126221124238e-02,1.616182916820688240e-03,1.411242666711763323e-03,8.389000594615936279e-02
-3.200456760412896395e-01,-4.379671951457418388e-01,-4.490202858185532442e-01,2.604254068191007299e-02,4.240767649095512903e-03,-3.111918354588894681e-03,1.320935189723968506e-01
-3.702672294959662436e-01,-4.266778247388243184e-01,-4.410123471008225993e-01,1.141597724985399763e-02,-5.527632127684385839e-03,-3.387323742191385850e-03,6.865356862545013428e-02
-3.676983579784240952e-01,-4.262805021873932732e-01,-4.420269246277518382e-01,3.575200143845094769e-02,-1.896984263404764837e-02,-2.277771870843553134e-02,1.052279993891716003e-01
-3.369440580828887422e-01,-4.326398476514685676e-01,-4.326092937118135029e-01,2.061048727508784512e-02,-2.247840521552151027e-02,-6.669813940078541184e-03,1.099019274115562439e-01
-1.905844981273512595e-01,-4.318269448993903303e-01,-4.636571411790507136e-01,1.064774796145634694e-01,-9.032375530790039131e-03,1.081268381550961645e-03,3.180416524410247803e-01
-2.879427637817310037e-01,-5.010741085201996237e-01,-4.899434026213489446e-01,1.625215327936697929e-01,-3.860076709288813579e-02,-7.786599029505557323e-02,3.808880448341369629e-01
-3.259098390033161041e-01,-4.790136101657124779e-01,-4.565956597341453982e-01,2.092846522785937746e-02,-5.321127778337740588e-02,-6.454322235398535050e-03,1.744831055402755737e-01
-2.771201927790714059e-01,-5.422764991968745951e-01,-4.758281964390700947e-01,1.106201358262741546e-01,7.388893253198108857e-02,1.162642872462085926e-02,3.325639069080352783e-01
-3.554495170293925366e-01,-4.295275472245922987e-01,-4.370779292456138942e-01,-3.513030632194777403e-02,1.675905909222310738e-02,-1.359760167554365309e-02,1.058469563722610474e-01
-3.244027190548476325e-01,-4.349300774417675930e-01,-4.449929720507103115e-01,-2.764608255569603323e-02,5.446432398099608149e-03,1.449654256754985852e-03,1.257696151733398438e-01
-3.628852755753903536e-01,-4.230126977192529281e-01,-4.467935056844106190e-01,-1.384389048220697506e-02,1.686675012223178742e-03,-1.806333658697120313e-03,7.876544445753097534e-02
-3.699370209758746086e-01,-4.218218493833170712e-01,-4.380480351778821557e-01,-1.075582702032387011e-02,5.951840938480412214e-03,-4.516398530425696015e-03,6.566389650106430054e-02
-3.828555604926970335e-01,-4.205551523482832232e-01,-4.241675427115519370e-01,-1.567632490122655015e-02,1.317298378418756653e-02,-8.637052463747497966e-03,5.524594336748123169e-02
-3.801860131156239442e-01,-4.182579999351871414e-01,-4.333084292676681049e-01,-3.785791257525670216e-03,3.168051631068413958e-03,-4.636621407299557421e-03,4.885276407003402710e-02
-3.778521434902405440e-01,-4.211664355826380546e-01,-4.393955936593040845e-01,-2.261223842213936491e-02,1.085668464027706934e-02,-4.719770230488909077e-03,7.037318497896194458e-02
-3.787211706405901324e-01,-4.389577964271476063e-01,-4.077739945415922440e-01,1.775851761144949534e-03,1.047834527575279909e-02,5.980335936011584898e-03,5.629045143723487854e-02
-3.814568005172690457e-01,-4.347553141042646008e-01,-4.191791746256004481e-01,-3.182414524504458258e-03,4.308883738781440001e-03,-6.024321738365078296e-03,4.947850853204727173e-02
-4.026759165898308734e-01,-4.293925701575858067e-01,-3.979498651384097974e-01,2.761687457945760822e-03,3.165922753225074160e-03,2.002800711502228555e-03,3.045263513922691345e-02
-4.036023693302831505e-01,-3.839442642874275058e-01,-4.305723023192515320e-01,8.813448783487325133e-03,-3.868328251794543853e-03,-2.756076510225228919e-03,4.409882798790931702e-02
-4.041545670223950504e-01,-4.334382888823877233e-01,-3.805977072530562499e-01,-1.530707597091128134e-03,9.127922789839867240e-03,-1.069298459954827474e-03,4.860772565007209778e-02
-3.805518020229794462e-01,-4.450330885059537445e-01,-4.311801327492723601e-01,-6.837302856552657758e-03,2.318857083678092790e-02,-9.635646313161075512e-04,7.219865173101425171e-02
-3.963515855838887769e-01,-4.321989209460305736e-01,-4.008602111509689259e-01,-7.366629801759248157e-04,4.692503082835013800e-03,-1.235073657220398489e-03,3.487119078636169434e-02
-3.974973703813933779e-01,-4.309404551997673694e-01,-4.041247638626018213e-01,-1.636772709614538234e-03,3.688181539386605270e-03,-3.516800862306390402e-03,3.204169869422912598e-02
-4.025950542473425431e-01,-4.307019207732482036e-01,-3.807169581787543389e-01,-3.009385179640177137e-03,9.221640657964665089e-03,-1.344349422221400529e-03,4.659698158502578735e-02
-4.234385092601733458e-01,-3.653156802060288921e-01,-4.380508555127474168e-01,-1.286101138783084762e-02,6.634055323081475882e-04,-2.761639613310135945e-03,7.043799757957458496e-02
-4.187716492047466321e-01,-3.810845734564907161e-01,-4.397085443091839352e-01,-6.305394166220536223e-03,1.275297225465672063e-03,-2.260286804381603232e-03,5.279393494129180908e-02
-3.984064454974246550e-01,-3.759040037153179026e-01,-5.014713851229999353e-01,-1.007707950773244765e-01,4.388996228276654567e-03,6.188978553269640533e-03,2.099640816450119019e-01
-4.283675283584283955e-01,-3.743014879758601587e-01,-4.526542690489341880e-01,-6.737494678759195499e-02,1.083211074690960257e-02,-3.324029605574142093e-02,1.486975997686386108e-01
-3.350870836518535234e-01,-3.722748929506536353e-01,-4.419866202803205413e-01,-7.279374126980132920e-02,-1.128138637500059743e-02,7.343471214818922919e-03,1.589825749397277832e-01
-4.091460174778651648e-01,-3.815781156139329555e-01,-4.344060791225294316e-01,-6.557274339450751451e-03,1.339701408118637626e-03,-4.465500606291128807e-04,4.721655324101448059e-02
-4.092949476222915717e-01,-3.829389040454539983e-01,-4.398849445827786586e-01,-6.298451781450401833e-03,-1.223099165764557307e-03,-1.901381338529455609e-04,5.059869587421417236e-02
-3.798025933936710619e-01,-4.069015246457456936e-01,-4.381920167803617927e-01,-7.982178282764380850e-03,-2.131008191146849425e-03,7.442523548746728763e-04,5.261004343628883362e-02
-4.357715312256846829e-01,-3.936270713486484940e-01,-4.286267195288642751e-01,-1.998040489219147023e-02,-1.794447206741871595e-02,2.515259969270829121e-02,7.475099712610244751e-02
-4.280424888577866738e-01,-3.760903385392824205e-01,-4.515235591181259167e-01,-2.672675239930015836e-02,-5.930391663747029696e-03,6.880515961909522762e-03,8.282976597547531128e-02
-4.649439404122127084e-01,-3.317488934020899061e-01,-4.316352721280046767e-01,4.385793165437866514e-02,1.713539423218082489e-02,4.476474403363361193e-02,1.645506173372268677e-01
-4.162553704915503694e-01,-3.726274048317524956e-01,-4.377031367887695978e-01,2.590569256423645716e-02,5.957319053790518897e-03,5.574496393947653977e-03,7.424376904964447021e-02
-4.016598562899287295e-01,-4.049335871877015602e-01,-4.651473778333366504e-01,7.924837912106591498e-02,4.568581101911747822e-02,4.694708764372331616e-02,1.885421127080917358e-01
-4.208756961763732707e-01,-3.678478701768272963e-01,-4.317630727509527699e-01,2.350901881819551092e-02,6.033708902238306242e-03,1.030059120671515671e-02,7.478880137205123901e-02
-4.207714946497828623e-01,-3.302998506048865912e-01,-4.544420281139455176e-01,7.715044320802447175e-02,1.618390862381487985e-03,-1.595061944473762094e-02,1.760475784540176392e-01
-4.244690135215791749e-01,-3.697267324547726108e-01,-4.361755784603804642e-01,1.137295916806018749e-02,6.575279622330966120e-03,7.293617316238026720e-03,6.672279536724090576e-02
-3.040217490847063053e-01,-3.648017580220094258e-01,-5.478745378391350895e-01,1.484203656255553838e-01,3.519621372491091305e-02,7.688982936858129724e-02,3.686126470565795898e-01
-4.315908535973371762e-01,-3.717061108502636158e-01,-4.245974643404006321e-01,6.311979426283900220e-03,8.715756446590762485e-03,1.364628104532545662e-02,6.420569866895675659e-02
-4.500266507558969287e-01,-4.270455711229956264e-01,-3.765421930576283160e-01,6.510817346987029727e-03,1.170532646176003153e-02,2.428593595943857875e-02,8.091340959072113037e-02
-4.180561461550550417e-01,-4.568027570033479368e-01,-3.696826096155687025e-01,8.971376237604865994e-03,8.002254997028521166e-02,1.645209829774437610e-02,1.611828356981277466e-01
-4.233482396816796722e-01,-4.582036702830100672e-01,-3.836196862449293143e-01,-1.399341335702397604e-02,4.583544228751135902e-02,-1.746960607758457629e-02,1.094700247049331665e-01
-4.358768192714650436e-01,-4.839223870665362304e-01,-2.152928936396143744e-01,5.146009630702522326e-03,1.062094534348133196e-01,-9.515647278685514243e-03,3.094449043273925781e-01
-4.690809324834693261e-01,-4.443150375821521836e-01,-3.604985438223701766e-01,2.781620813118308722e-02,4.642632123533804722e-02,5.578308799458529116e-02,1.668443530797958374e-01
-4.306670888838598499e-01,-4.431662292842162287e-01,-3.134749003408073276e-01,5.105376048973849293e-03,3.068982997338880192e-02,7.181859270388462994e-03,1.356966048479080200e-01
-4.200750288382000819e-01,-3.625228589440429583e-01,-4.380732954672915680e-01,1.216051539862126295e-02,3.098229864240055042e-03,1.386958420657452215e-03,7.176511734724044800e-02
-4.457067534040151102e-01,-4.338481753752173042e-01,-3.378848042397369911e-01,1.525085975892796286e-03,1.854529615952367179e-03,1.426673778454632530e-02,1.054300665855407715e-01
-4.903580067699451206e-01,-3.159440406041185700e-01,-4.753455952135204332e-01,6.239911980059371921e-02,-1.789555380225682849e-02,-6.693857994553981117e-02,2.326182574033737183e-01
-4.483816978087443728e-01,-3.503059151488314704e-01,-4.398676419710567109e-01,6.619189420035262797e-03,-8.143461971179124593e-04,-9.755769479092405577e-03,9.630826115608215332e-02
-3.873657329741030386e-01,-2.669190683956898513e-01,-4.727900617853907916e-01,1.375562458149147127e-01,-2.573276465050545678e-02,-4.579730178620464165e-02,3.116691410541534424e-01
-4.583398144489813086e-01,-3.367387202986983907e-01,-4.580198134666818022e-01,1.287869027916916522e-06,-5.688509393687088802e-04,-3.374700598073220297e-03,1.215859875082969666e-01
-4.485251221696275881e-01,-2.839022571245122251e-01,-4.480851963421879081e-01,-2.852660710795539532e-03,9.893127846831370475e-04,5.127126849642766812e-03,1.647260487079620361e-01
-4.325742167883001588e-01,-2.866461501025475700e-01,-4.630898729506779388e-01,8.604693900331192302e-02,-4.980162979437524791e-03,1.136199754802486202e-02,2.221558392047882080e-01
-4.483352661105824422e-01,-3.417025645527952959e-01,-4.540380899806572002e-01,3.668422178523247576e-04,-6.240637195001389435e-03,-8.612667183713219182e-03,1.111347675323486328e-01
-4.578328541480635172e-01,-3.421437485088968389e-01,-4.480576307320162655e-01,-3.112102150229965024e-03,-5.111504064687125669e-03,-5.164768737768457574e-03,1.119647249579429626e-01
-4.274455553406027453e-01,-3.739694569658131851e-01,-4.558313849383606176e-01,-2.817541713395102163e-02,-5.223663129643043397e-04,6.838695996880336412e-04,8.698963373899459839e-02
-4.978997423698350300e-01,-2.734536361779376645e-01,-4.862719865473244529e-01,-5.975435409762124700e-03,7.154349103454644108e-03,2.614612138426211131e-03,2.195054292678833008e-01
-4.295440962397668039e-01,-3.812158473415667714e-01,-4.625451246460612342e-01,2.724386968207213183e-02,3.165502247814364891e-04,-1.904855913886130620e-03,8.519061654806137085e-02
-4.852145098162449766e-01,-4.501681305948326828e-01,-3.032379745619012690e-01,2.598911920060449025e-03,7.893328957600820328e-05,1.903738184889357948e-02,1.705099344253540039e-01
-4.077569281612861696e-01,-3.965207054985616653e-01,-4.332607490802371508e-01,1.337521657849777799e-02,-3.195283675370629798e-03,-5.476727852929983396e-03,4.147971421480178833e-02
-4.340100671315600955e-01,-4.434264000674810191e-01,-3.626714184581705802e-01,-6.484551863079903410e-04,3.523237813216010400e-03,-3.081445021196784709e-03,7.691947370767593384e-02
-4.495507180856549434e-01,-4.459172729830349069e-01,-3.349798633045628637e-01,-1.134227375394382051e-03,2.215824359632049753e-03,1.509876688703520918e-03,1.129106879234313965e-01
-4.516336825894070595e-01,-3.384310680046576092e-01,-4.460347536527219381e-01,-1.215841929114254069e-04,-5.642766087054511184e-04,2.795550411882568795e-03,1.106201186776161194e-01
-4.460965143348789574e-01,-3.422379953885721915e-01,-4.518212155566262989e-01,-9.874124946586355922e-03,-1.003244013509976048e-03,2.896612034076553443e-03,1.083263978362083435e-01
-4.318134760662560301e-01,-3.301635910427109244e-01,-4.444113468513187226e-01,-2.048708722002176574e-02,5.165471925496786451e-03,-1.091613369151977174e-02,1.160546094179153442e-01
-4.188312342239568498e-01,-3.842073401618837925e-01,-4.410887980002093922e-01,5.374898362497885357e-03,3.083668899667312349e-03,2.940377291785018117e-03,5.104889720678329468e-02
-4.583392761231222523e-01,-3.382287193565470251e-01,-4.604500030250913145e-01,4.980412890855000696e-04,1.142450380155498376e-03,1.443344563056182675e-03,1.212247163057327271e-01
-4.522950083403703969e-01,-3.023964530785929195e-01,-4.538529343518716286e-01,-8.131987426246909539e-03,8.057652022656718298e-04,-2.722769411755201867e-03,1.514203101396560669e-01
-4.114943926996089685e-01,-3.314478497326596163e-01,-4.384288417861194609e-01,-4.921752747011766405e-02,1.569249228266664936e-02,-2.120713003006996500e-02,1.365430653095245361e-01
-4.225146748230026450e-01,-3.623896503959059268e-01,-4.494053341099744081e-01,-1.095761962430418651e-02,8.634968070370687386e-04,-3.466509648240860184e-04,7.948417216539382935e-02
-4.944985007489088868e-01,-3.209225809342514113e-01,-4.932604822573951608e-01,-3.442709268215615737e-02,3.291537532437850081e-03,-3.819930479275433603e-03,1.831589341163635254e-01
-5.077987514080140041e-01,-1.551759851274106816e-01,-4.890806019678592964e-01,2.165845619006151468e-02,-1.340444767966996256e-02,1.967076795382576015e-02,3.481377065181732178e-01
-4.085686887266386513e-01,-4.159059242750879903e-01,-4.074915973587063811e-01,1.309435823099149455e-03,4.056768764270478485e-04,5.761267486131269391e-04,8.338547311723232269e-03
-4.058699426425054768e-01,-4.200879559349256498e-01,-4.073865329022093307e-01,2.461181438607729782e-03,2.757224725583155150e-03,4.181380072011303337e-03,1.662287488579750061e-02
-4.099064996921595871e-01,-4.114438139137275297e-01,-4.103737262491701232e-01,2.569018471405303851e-04,2.902733737651771919e-04,9.655826099146774507e-04,2.260792534798383713e-03
-4.112902882348539735e-01,-4.146772503669990395e-01,-4.098768760215958928e-01,4.061178246684870371e-04,7.289565203528523916e-04,8.252736122628179846e-04,4.731656983494758606e-03
-4.944658480870245398e-01,-3.788002704084413308e-01,-4.320387278510883222e-01,-2.854273358048680861e-02,-1.372719792056071274e-02,7.397608890708369522e-02,1.717025339603424072e-01
-4.567180537038582067e-01,-2.706561493609868085e-01,-3.120108581864120545e-01,-1.431515621187837844e-02,-1.919569521778186766e-02,1.600189145352505782e-01,3.273729681968688965e-01
-5.011136465993619726e-01,-3.895155286280066464e-01,-4.336636297161620135e-01,2.514600387591324569e-03,-3.243864687131928996e-03,8.101914187521694344e-02,1.709362268447875977e-01
-4.657637448712005912e-01,-3.824744836591384423e-01,-2.573919160093101621e-01,1.109258094517951744e-02,1.878502755557447806e-02,1.377986414797559844e-01,3.023143112659454346e-01
-4.512757093516034934e-01,-4.333556498865886453e-01,-3.504692034658891675e-01,6.186223854595591584e-03,-1.281808364486121919e-02,5.973915031320483487e-02,1.413882523775100708e-01
-2.017249775401881162e-01,-5.768091772387455851e-01,-4.939035529781979905e-01,-7.479018164640698074e-02,6.370508050500421540e-04,3.698701704650601135e-02,3.706088960170745850e-01
-4.531367553762331579e-01,-5.048235514186696360e-01,-3.536086423589814842e-01,4.889060377923986137e-03,-9.500778076637066138e-02,-2.507882608605783645e-02,2.162397950887680054e-01
-3.040445915710249247e-01,-4.911211945845214699e-01,-4.929791978080847459e-01,-6.412476344506556382e-03,-1.578102339257338171e-02,-7.441468947762617647e-04,1.903177350759506226e-01
-3.437682762945107329e-01,-4.502086742352259807e-01,-4.112887623870511988e-01,1.143862154982661083e-02,4.764181501043208283e-02,7.977418677911943604e-03,1.268634647130966187e-01
-4.969346579703240452e-01,-5.003052721793919133e-01,-3.599187219845624286e-01,1.551376478890243750e-02,-8.273458992873730655e-02,-3.595067935783550356e-02,2.106679379940032959e-01
-3.224243394371441584e-01,-4.760843896872072878e-01,-4.546503919318314324e-01,-2.166828170488539762e-02,-4.394372217864621344e-02,-1.137895273373434532e-02,1.684262901544570923e-01
-2.651816227135113668e-01,-5.297309385321953279e-01,-4.153857320863043046e-01,-2.054248516962089641e-02,1.043488664286813944e-01,2.225582993566123293e-03,2.945473194122314453e-01
-3.477526765747700477e-01,-4.537935264174796646e-01,-4.555530708088173508e-01,5.699907295468755082e-03,1.602992403121493784e-03,4.175166624243317748e-03,1.076652854681015015e-01
-4.788142504865315896e-01,-2.208686646278175125e-01,-5.816409368980759442e-01,7.242115497849486994e-02,3.516479434790306668e-02,5.325502631750605315e-02,3.627470135688781738e-01
-4.637384231113349520e-01,-1.935669678237857405e-01,-4.801905103394680796e-01,7.574948835470235453e-02,2.449209685463445141e-02,1.707073842234520591e-02,3.124035000801086426e-01
-4.166519422296689479e-01,-3.703475598196363516e-01,-4.344063591500113009e-01,2.504636865473381518e-02,8.902449680561648482e-03,1.488746419921021039e-02,7.788488268852233887e-02
-3.933929966740803974e-01,-2.699181836183339178e-01,-4.494924980570980111e-01,1.117782770441653611e-01,3.744174473630532129e-02,5.876485257465830642e-02,2.781524360179901123e-01
-4.245302163622950431e-01,-4.378092717975936021e-01,-3.695012534743586929e-01,5.213334877460882623e-03,-9.860799945411870271e-03,-5.350026887811293146e-03,6.628999859094619751e-02
-4.213760673285691372e-01,-3.682924242501608991e-01,-4.391939134488343499e-01,1.070692455923114191e-02,7.368200363282670536e-03,5.196507360412421644e-03,6.832994520664215088e-02
-4.488985672721054199e-01,-3.580609648286972035e-01,-4.352762200695013961e-01,-1.545435430078312541e-03,2.885340377503050648e-03,5.374605316660162682e-03,8.554774522781372070e-02
-4.318473235523718756e-01,-3.665239344389091825e-01,-4.407541510650045957e-01,4.692149325185206513e-03,5.214947132455119080e-03,5.438119725326187072e-03,7.186554372310638428e-02
-4.404108896827643727e-01,-3.499017527210116496e-01,-4.434403985597334397e-01,8.214980911256691831e-03,4.182951937985847704e-03,3.900706592234814887e-03,9.367964416742324829e-02
-3.753055368250926560e-01,-3.896906573364913307e-01,-4.096634981765783223e-01,-4.732415583589421465e-02,-3.959943308442181314e-02,3.604603043887917579e-02,1.273349076509475708e-01
-4.008568630596498483e-01,-4.101579019323213782e-01,-4.246780045508993240e-01,-6.617038558175512321e-03,-7.534462585571749527e-03,4.838821552155883610e-03,2.836013585329055786e-02
-4.064226128390656112e-01,-3.850561980210849278e-01,-3.682550219299635663e-01,-3.638336515378509661e-02,-4.243040486263774391e-02,4.918294705782155080e-02,1.331425458192825317e-01
-4.165234803466564273e-01,-4.143467358722396909e-01,-4.174140798466091651e-01,-1.166232416198879074e-01,-6.626837006993979706e-02,1.561559571791710788e-01,3.565655052661895752e-01
-3.179499398582160685e-01,-3.694161728495151675e-01,-4.340035709207540893e-01,-1.167307398084539150e-01,-6.482922029968946065e-02,5.411267724487228009e-02,2.691014707088470459e-01
-3.239467010904521493e-01,-5.120424413537222330e-01,-4.358947021798184607e-01,-1.138613751598366169e-01,-1.109744931133677115e-01,1.154173371802587056e-01,3.777011632919311523e-01
-4.090248050708589767e-01,-4.841625416216732702e-01,-3.009734417111641358e-01,-2.463984730062233203e-02,-1.206995864532397350e-01,5.271824674696180130e-02,2.816091179847717285e-01
-4.271497730765665413e-01,-4.490578558491682415e-01,-3.610770454126565054e-01,7.107128577772793034e-03,-1.842075849536129600e-02,-2.389945402112180275e-02,9.579224884510040283e-02
-4.167401976467061120e-01,-3.975781169189806508e-01,-2.203559683356198229e-01,5.729585361682782568e-02,-9.546496504241541725e-02,-1.263039917995527062e-01,3.467247188091278076e-01
-4.372851916805780004e-01,-4.372286021684191337e-01,-3.570422119778465797e-01,5.441816185059168004e-03,-2.577187261897420992e-02,-1.675479899107907081e-02,9.673663228750228882e-02
-4.181027518016851574e-01,-4.447913350607270999e-01,-3.548713998721760299e-01,1.795557534393887184e-02,-6.687242811311459867e-02,-5.211800412697822210e-02,1.700878292322158813e-01
-3.692168449794319685e-01,-4.222250677677479302e-01,-4.433249199185865796e-01,-1.257975086709925937e-02,-5.944277949887727050e-03,4.399080421230772142e-03,7.079795747995376587e-02
-3.518708923372452779e-01,-4.390366516341193681e-01,-4.457018483680303400e-01,-2.899042624296196621e-02,-6.229871110893263862e-03,2.297694110901942442e-03,1.042922735214233398e-01
-3.368087193554415437e-01,-4.449937607396531880e-01,-4.517896157286225289e-01,-2.312251151791690912e-02,8.694542818358555816e-03,3.755260361563748841e-03,1.198267042636871338e-01
-4.708320482008722663e-01,-4.524113528595912759e-01,-3.186371721770091536e-01,-2.052173477650032565e-02,4.154880327624848463e-02,-2.558747961234026161e-02,1.706035137176513672e-01
-4.773652105786153066e-01,-4.939406025843922632e-01,-3.218085035666543026e-01,-7.812937407015305841e-03,4.390179357454185305e-02,-1.640855415557514185e-02,1.839130073785781860e-01
-4.071847174313028561e-01,-4.339835634032895850e-01,-3.813821451816054586e-01,8.108524143650814534e-04,7.779008750859905084e-03,7.571152511544493877e-04,4.754640907049179077e-02
-4.073193872004906013e-01,-4.850567452138218050e-01,-4.084325038325800072e-01,-2.000761517897718320e-02,7.862354904347812479e-02,-3.533146108793015078e-02,1.716060638427734375e-01
-4.265613314026208691e-01,-4.235168515999991889e-01,-3.816684820207524309e-01,-8.772884029813096327e-03,7.509457281387878907e-03,-6.335515841247968752e-03,4.907590150833129883e-02
-4.012403480142058276e-01,-5.343450623808364552e-01,-3.427355600921871970e-01,3.501667440286843069e-02,1.604153985526076409e-01,-2.684424959881702086e-02,3.346140682697296143e-01
-4.364690244756660453e-01,-5.600227678616200855e-01,-2.598196816701516254e-01,-4.674432972809429432e-02,1.234689987915780912e-01,4.462490997116660453e-03,3.473396301269531250e-01
-3.169908831177379316e-01,-4.778985181385522751e-01,-3.357685882842115777e-01,-3.048509039973967133e-02,1.382332830587333083e-01,-3.451090653917663481e-02,2.948029041290283203e-01
-4.358018938547796872e-01,-4.521476323165771749e-01,-2.382225806942554480e-01,-4.293777548604936489e-02,1.053706905135792793e-01,-5.784577924132341953e-02,3.023452460765838623e-01
-4.138368282856667024e-01,-4.121193185618522437e-01,-4.000005034099147760e-01,8.750184906604244195e-03,8.415834678098896987e-03,8.163682305801486794e-03,2.850864455103874207e-02
-4.077142233326931930e-01,-4.033895133676673184e-01,-4.173130683497723870e-01,5.944473663942812652e-03,6.021964040692688244e-03,5.756590876422872441e-03,2.160024642944335938e-02
-4.093403669954971957e-01,-4.077692887897639840e-01,-4.136115004237654325e-01,6.497477644732374243e-04,2.193717801006581786e-03,9.709340798590328095e-04,6.778864189982414246e-03
-4.027147553193647367e-01,-4.148977794896839821e-01,-4.216373045189497626e-01,7.275300692876254804e-03,5.711173327637624440e-03,7.339951187167352738e-03,2.634809724986553192e-02
-4.095792520658012581e-01,-4.109082225784310149e-01,-4.117434029325484079e-01,4.982342214643591810e-04,5.354459011551280113e-04,1.079286014949696259e-03,2.944997977465391159e-03
-4.094002733615155210e-01,-4.086368300371643336e-01,-4.112333914364639242e-01,1.174678317085417999e-03,1.961577891412063894e-03,1.134757014547240709e-03,4.988851491361856461e-03
-4.055908244050781541e-01,-4.106590999242694662e-01,-4.167489230038680104e-01,1.713726698861236944e-03,1.898779826402980731e-03,3.549068652599897140e-03,1.229034550487995148e-02
-3.846417112953564588e-01,-4.182300946842428813e-01,-4.184985246590004482e-01,4.339277592574370540e-03,6.366376606801440671e-03,8.252627128070236934e-03,3.898288682103157043e-02
-3.673975981653777589e-01,-4.399311504852645438e-01,-4.385584246146992382e-01,1.114542549799585683e-02,9.158082571737519856e-03,1.225446470788160887e-03,7.610657066106796265e-02
-4.125644994422656975e-01,-4.016897500554323930e-01,-4.341861409487143275e-01,1.241677791019207486e-02,6.711113837251407414e-03,6.355861342552658090e-03,3.923929855227470398e-02
-2.910939833460407522e-01,-2.601780937513162306e-01,-4.639240681846035219e-01,1.757514961654439434e-01,-8.485589932299936883e-03,-4.247451634059339932e-03,3.593120276927947998e-01
-2.861477205531751666e-01,-4.315434672191733600e-01,-5.235274974137213988e-01,1.978484415547011599e-01,5.888871673277503577e-03,-5.204857043542485823e-02,4.106559157371520996e-01
-4.229807298398206017e-01,-4.000495641251072265e-01,-4.110272052853828351e-01,-7.990348641624088477e-03,7.621099977996253529e-03,-1.157438162034826919e-02,3.409246727824211121e-02
-4.230578682525193424e-01,-4.075739368076102820e-01,-4.088440143002197158e-01,-4.390239429284838353e-03,4.182390545452690199e-03,-4.162174546809421782e-03,1.959516108036041260e-02
-4.215333317885123776e-01,-4.001286875149356326e-01,-4.075095788776353367e-01,-2.344270135624980291e-03,4.193652643621648135e-03,-3.321668704560814481e-03,2.137752063572406769e-02
-4.149417405093470124e-01,-4.054783308155883725e-01,-4.055625371743615259e-01,-3.476486472257316572e-03,1.732490651253084388e-03,-3.290826443869645200e-03,1.290416158735752106e-02
-4.192804209435659346e-01,-4.132389157997989892e-01,-3.964133870076466670e-01,-5.921338502871343473e-03,2.046624963280971408e-03,-2.803607050445741395e-03,2.371883578598499298e-02
-4.161863409238940048e-01,-4.133117296762019999e-01,-3.988159131897298093e-01,-6.041495196035737147e-03,2.944109841633584315e-03,-3.508884014944434887e-03,2.079666033387184143e-02
-4.260611874137467669e-01,-4.048191195710080792e-01,-4.037709832458883374e-01,-3.354409287619224914e-03,3.450019398796875646e-03,-5.755185050318021786e-03,2.536570839583873749e-02
-4.311818621438973098e-01,-4.070821802646105159e-01,-3.824898174219750757e-01,-9.657994318010638263e-03,4.898710088511613533e-03,-8.807190196922037168e-03,4.860832914710044861e-02
-4.143649856715127533e-01,-3.996187846769614360e-01,-4.188543770261862198e-01,-3.147379249636868530e-03,-6.048267894113863209e-03,2.565496207541611944e-03,2.151777036488056183e-02
-4.053994731256266304e-01,-4.205471019155617163e-01,-4.051404906276980245e-01,-7.300231451389130408e-04,6.771201334154042721e-06,8.348173087719319187e-04,1.539903879165649414e-02
-4.090314150210767052e-01,-3.850349301683710368e-01,-4.318827262913915166e-01,-7.082632486450882343e-03,-5.151240018416982855e-03,2.717044640242595108e-03,4.357302561402320862e-02
-4.427922654615459308e-01,-3.618768754561119128e-01,-4.233940031886267996e-01,-7.502536845281995194e-03,-3.739509941934288182e-03,2.320893579727401762e-02,8.473933488130569458e-02
-3.512549157787048237e-01,-4.308083383554123791e-01,-4.541987783239613830e-01,-3.740353351414669320e-02,2.007225922833576551e-02,-1.531742807780471505e-02,1.218453124165534973e-01
-4.066254139813297863e-01,-4.022569618005070180e-01,-4.208114979631912833e-01,-4.173465743792344890e-03,-3.897673088502871201e-03,2.650350906770236256e-03,2.003001980483531952e-02
-4.012311166049334910e-01,-4.101177183625002165e-01,-4.248152685283934082e-01,-5.666553240911530696e-03,-5.406953634151914073e-03,5.482142339199514575e-03,2.645368687808513641e-02
-3.976624145281584255e-01,-4.028437984734597466e-01,-4.301425205646647876e-01,-3.652702522966370154e-03,-1.059420305005171446e-03,2.924464630860987031e-03,3.134586662054061890e-02
-4.092147925346436566e-01,-3.896858383386103131e-01,-4.285265917951633363e-01,-7.218737240247438507e-03,-5.097686907544184479e-03,2.054376832538047301e-03,3.712702542543411255e-02
-4.514366006799190867e-01,-4.388801234938737306e-01,-3.393574331704252156e-01,-6.987509267216685232e-04,8.480643717731981002e-03,2.731475274072061796e-02,1.173354238271713257e-01
-4.522280639219310450e-01,-4.617153371818382146e-01,-3.134398622733705064e-01,-4.208564445577068006e-03,-9.080035678665186738e-03,4.176909016001992964e-02,1.618744730949401855e-01
-4.450796006597281251e-01,-4.394396645713875005e-01,-3.401180333292518343e-01,-3.251202402491337479e-03,-7.871160562517752956e-04,1.590077222120075962e-02,1.060605347156524658e-01
-4.468236386981392361e-01,-4.322502672653538713e-01,-3.592918980534770546e-01,-1.704343390032422682e-03,-7.173330548340685309e-05,6.882647135899154327e-03,8.215472102165222168e-02
-4.535148630135444336e-01,-4.411548137911667777e-01,-3.489247964680315395e-01,-5.665264009208493060e-03,-8.125250833440407494e-03,1.110557547845229462e-02,1.022910550236701965e-01
-4.377398944876406128e-01,-4.473398694447385804e-01,-3.508056259655436548e-01,1.042991329096173113e-02,-1.328402854779695691e-02,-2.707779020949579746e-03,9.675761312246322632e-02
-4.175844338202332473e-01,-4.364836992343177346e-01,-3.792719930023357167e-01,7.750445837807357248e-03,-3.514204667884424788e-02,-1.300409359203777426e-02,8.331578969955444336e-02
-4.893564412861177715e-01,-4.912173604199915333e-01,-3.379954812018128862e-01,1.188126497112551236e-02,-3.469184588901742111e-02,-3.801645931663697603e-02,1.776656806468963623e-01
-4.242376459961477164e-01,-4.389061942111904813e-01,-3.655703282181502756e-01,3.757941345614757185e-03,-1.027733411069946604e-02,-1.443165520070212099e-03,6.987896561622619629e-02
