sxx,syy,szz,sxy,sxz,syz,smises
-3.980377194338025060e-02,1.503776656951431034e-01,-4.618332793891440358e-01,3.552697693171501941e-02,8.355406699876147258e-02,1.975453607241839035e-02,5.660752058029174805e-01
-6.618282649350215596e-03,1.753945247078098069e-01,-5.955515639436181896e-01,4.871161152540795687e-03,-2.636779143634263370e-02,-2.692465335137469214e-03,6.995306611061096191e-01
-1.107115490060724128e-02,1.493363943388875681e-01,-5.051473243960836745e-01,3.425346520034141737e-03,5.248683692838847920e-02,-1.001850744318468628e-02,5.980771780014038086e-01
-1.748220568890411497e-02,2.068460976019982356e-01,-5.844936946035055314e-01,1.955593451551817380e-02,3.529099421660872316e-02,9.561857153790605246e-02,7.289268374443054199e-01
-2.440637191944286521e-02,1.208071700291450945e-01,-4.204532134908169905e-01,1.470970924281582784e-02,1.522726070394122277e-01,-3.863388815009310279e-02,5.569013953208923340e-01
-3.041931743841472247e-02,1.672514444103649911e-01,-4.456324668354936791e-01,1.860139924851160823e-02,1.362930323476514438e-01,-8.698751993581628483e-02,6.107512712478637695e-01
8.393179930398886324e-02,7.255558979566203992e-02,-4.534303831920514782e-01,-7.885048281646168597e-03,9.518297427733588348e-03,-8.615640381810045750e-04,5.321981906890869141e-01
7.185180400338031514e-02,7.264852865628096401e-02,-4.378142392567790364e-01,-4.965635740867606340e-03,-3.142774928632604495e-03,1.080975212649487247e-02,5.105098485946655273e-01
8.035666123018420093e-02,7.184511824382744383e-02,-4.546500157643430517e-01,-4.505174983353478100e-04,-4.101573501192548252e-03,5.320863718750226332e-03,5.309302210807800293e-01
6.899689620686502711e-02,6.928223404054908996e-02,-4.197928897576910234e-01,1.522456559773287558e-03,2.253568320254220343e-03,2.508122650103982582e-02,4.908812344074249268e-01
6.477749127383766736e-02,7.125515487565992068e-02,-4.227006188240135520e-01,5.222620699396607336e-03,-2.454405400843632807e-03,2.759398332123045791e-02,4.931721389293670654e-01
6.457487599642300347e-02,7.420637921302536411e-02,-4.233081481029949411e-01,5.324776624219044975e-04,-2.942032883042390318e-03,4.915962853049788209e-03,4.928701519966125488e-01
6.793137203555701942e-02,6.703886319402668770e-02,-4.263560089688213650e-01,4.831202436009588179e-04,1.409338018803023805e-03,7.415583334060998379e-03,4.940154850482940674e-01
7.140305990552625603e-02,6.102075373569829098e-02,-4.460643783608083113e-01,8.173799030096960336e-03,-4.695752783460347898e-03,9.387094982137623306e-03,5.128730535507202148e-01
8.203847127687030616e-02,5.593074438754963573e-02,-4.192552051859715911e-01,-4.971648898769534010e-03,1.663275369655691296e-02,-1.777275411646232761e-03,4.896967411041259766e-01
6.276879885904310119e-02,6.449967319941685151e-02,-4.244672094783943361e-01,1.013026763000480536e-02,-2.012763607799181870e-02,1.493706640166021261e-02,4.903446137905120850e-01
7.576871915296878868e-02,5.913062712789660114e-02,-4.431269090280444134e-01,7.116597497543107956e-03,-1.470917109032136155e-02,2.849394201993954781e-02,5.139384865760803223e-01
5.763571241350215479e-02,7.526015678292918842e-02,-4.345049803935379651e-01,7.298244809711192799e-03,-2.891430302333343125e-02,8.320303912854735626e-03,5.040460228919982910e-01
6.926908756074409701e-02,6.219204415252671536e-02,-4.434373619734806038e-01,8.705735870985043673e-03,-4.672178317910878100e-03,7.014641655690280996e-03,5.096371173858642578e-01
8.775684675656286737e-02,5.777968428402194268e-02,-4.628930330994605047e-01,2.475411263085156022e-02,5.108679884897221989e-03,1.204175699044112563e-02,5.384780168533325195e-01
6.999073650114340239e-02,7.123242345912675355e-02,-4.458882021745790847e-01,1.042084818761831533e-03,1.367306319574350480e-03,-2.234958280256950022e-03,5.165240168571472168e-01
6.713682590799652239e-02,7.021483295394675972e-02,-4.477567793893119097e-01,1.121321428919344783e-02,-1.744562630481110224e-02,1.062308393569660545e-02,5.180140733718872070e-01
4.908084356342581889e-02,7.771627448661239113e-02,-4.435766174946053630e-01,1.857679891001184913e-02,1.273015632360532164e-03,-9.085792323005300111e-03,5.088483095169067383e-01
7.279426253785331591e-02,6.680441143477736099e-02,-4.469681813824233352e-01,3.251660579977595431e-03,-6.426980122395791958e-03,4.848407445126707953e-03,5.170122981071472168e-01
7.018514267493058956e-02,7.351260349788135695e-02,-4.270145640796076947e-01,-2.883375838057272104e-03,-1.222365308732060139e-02,2.941075144821788181e-02,5.019374489784240723e-01
6.844915686438976521e-02,5.882321028839518351e-02,-4.482861438897179918e-01,1.655480803038293300e-02,1.127173652396804525e-02,-4.870830640366486004e-03,5.132333636283874512e-01
6.961241154845609902e-02,6.414329329539139590e-02,-4.309989279499302217e-01,2.651908990380614888e-03,-3.923462850826085757e-03,-1.671610728753739235e-03,4.979752898216247559e-01
7.142299779893876432e-02,6.064729096314017132e-02,-4.204468910512776936e-01,2.152386156545957243e-03,-1.201633314605820603e-02,5.623834523498365615e-03,4.871281385421752930e-01
8.070836846041343215e-02,6.718077254902984907e-02,-4.532761067271689481e-01,2.215454756821105299e-04,-9.445339853901326896e-03,7.695639438701192339e-03,5.277730226516723633e-01
7.122330719891992179e-02,5.961934879815486421e-02,-3.984217628219223206e-01,7.869044425856935171e-04,-2.879311684864640369e-02,-2.924094525678409568e-03,4.666540920734405518e-01
4.323126310070099509e-02,5.077791780461041182e-02,-3.390093563825863354e-01,-8.287831377691718890e-03,-7.009171925411601667e-02,8.106690127862125998e-04,4.049642682075500488e-01
6.563259338114663111e-02,8.216869048388936170e-02,-4.428138528530926599e-01,2.439420290279219368e-03,-5.176780440942566064e-02,-4.510078096536583678e-04,5.246495604515075684e-01
3.846497560500791724e-02,7.968177547443447417e-02,-4.461515701377743448e-01,4.833412650316683788e-03,1.975498370118582061e-03,1.752549977061601874e-04,5.065651535987854004e-01
4.864116533695653222e-02,9.355143357117498559e-02,-4.550112258351033945e-01,1.702081895976778267e-03,6.756160590643316144e-03,1.983623424638741601e-03,5.276923775672912598e-01
5.981991163964817115e-02,8.574931978822847300e-02,-4.476664542018726767e-01,-1.002609544039665974e-03,-2.937167943759489558e-02,-3.218933824137841515e-03,5.234460234642028809e-01
4.719439584809928534e-02,5.527681244268883853e-02,-3.262507085937489948e-01,-1.690240096674799214e-03,-9.095724632357307660e-02,1.421147453920107266e-02,4.098524749279022217e-01
2.872825006987356211e-02,1.065953376745380765e-01,-4.434322331839917752e-01,-1.987088485643821734e-03,-8.290927614238951388e-03,3.395739367000466524e-03,5.157685875892639160e-01
5.193555466901833562e-02,6.921967480020030372e-02,-3.905497604049036897e-01,-9.972321340876984328e-04,-6.033101053921323398e-02,8.805853209854188485e-03,4.635677635669708252e-01
5.706382807248291944e-02,7.576825943836462685e-02,-4.097040355584558591e-01,-8.697891387540698013e-04,-5.602895632646535761e-05,-1.010934277725250748e-02,4.767196178436279297e-01
5.942633370297348283e-02,8.251669672767672492e-02,-4.216691861608116154e-01,-2.301284139005352163e-03,-1.967422846114438633e-04,-6.406442159195780729e-03,4.931874573230743408e-01
5.496448224392708193e-02,7.352405430511468887e-02,-3.887623699016348189e-01,-5.047472619733484912e-03,3.717606183681150620e-03,-1.844087332774435942e-02,4.545453190803527832e-01
3.865714591609992201e-02,9.697352299927139430e-02,-4.905036830312692886e-01,-4.582258319572585920e-02,1.259873929727269460e-03,-7.093334611846984286e-03,5.663263797760009766e-01
3.877340917856297864e-03,3.551156464925528389e-03,-1.674521134389218846e-01,5.800596730861379974e-04,-3.730389994068345622e-02,-1.554435650193683460e-02,1.849287301301956177e-01
6.665980305184368571e-02,9.460913803286485901e-02,-5.396927791774643879e-01,-6.857491849003347073e-02,3.841327751989034259e-03,1.156167559893536527e-02,6.324117183685302734e-01
8.176375562355492344e-02,7.004125157461929541e-02,-4.408378218294626838e-01,-1.434727232174723682e-03,-1.677195631326966214e-03,8.279791426295026726e-04,5.168561935424804688e-01
5.006485879764280278e-02,1.660886813542606921e-01,-6.865864393285372458e-01,-7.092877882520273736e-02,3.999977791087255818e-02,1.690960088372318870e-02,8.138403892517089844e-01
3.555620564455599930e-02,9.098135124717676714e-02,-5.034715352975285274e-01,-8.138623715503379152e-02,5.977548359797868471e-02,5.835666230650121689e-02,6.035772562026977539e-01
1.060318753261585423e-01,4.331371413899282041e-02,-4.686523120804756970e-01,-7.251045497604587109e-03,1.535345518130650606e-03,1.810973753786611004e-02,5.470841526985168457e-01
7.639665383317173486e-02,5.929440933352722598e-02,-4.264884033278035780e-01,2.557485264632124665e-04,5.526491370750301682e-03,5.102404642279155696e-03,4.947275221347808838e-01
7.973079302104427168e-02,7.145347546063321453e-02,-4.381035125984582002e-01,2.398339924095336910e-03,-1.527111926107149048e-02,3.876328364094851209e-02,5.188056230545043945e-01
9.156655596667476193e-02,3.706911976587726198e-02,-4.518167751660141507e-01,2.276671969297586542e-02,4.480176501148140124e-03,6.135264304006023996e-03,5.199524164199829102e-01
9.279632651841832058e-02,5.407896609527138021e-02,-4.650195631416517705e-01,1.019712819023621195e-02,-9.206475735095192225e-05,-5.895295578553897981e-04,5.397902131080627441e-01
8.469349966930789231e-02,5.745408417642849930e-02,-4.429829459966310723e-01,7.660224832988098836e-03,-6.215550525712230066e-03,1.488184106969850200e-02,5.155261158943176270e-01
7.754903746974992074e-02,6.264151372054888034e-02,-4.274422932764015970e-01,-3.645666780724898456e-03,2.566349292446852646e-03,7.089665562469518213e-03,4.979164004325866699e-01
5.665579605528853202e-02,6.052643360596177136e-02,-3.695234038038746616e-01,-5.801147699453558862e-03,-1.897742060762227026e-02,4.294694536105665879e-03,4.295695424079895020e-01
5.473090142299985583e-02,6.372122837078231239e-02,-3.788308012667644942e-01,-4.776899827984009729e-03,-1.330232995914862153e-02,2.038074954079301115e-02,4.402270615100860596e-01
5.939451808563322999e-02,7.047638084109725254e-02,-4.034070587442588618e-01,-7.822098557172009470e-03,-1.482822157734647699e-02,5.443390833629943582e-02,4.787161350250244141e-01
3.946724352995478746e-02,3.599628268190076252e-02,-2.668639103190953987e-01,1.223236104207992437e-03,-2.284521258675787161e-02,9.411066503119255855e-02,3.477473258972167969e-01
1.020033926610905417e-01,1.965124160021486377e-02,-4.590308141217278592e-01,1.775021301633581891e-02,-4.105304603822089058e-04,-1.392166514727876704e-02,5.261806249618530273e-01
6.107861509348483375e-02,6.391343827436377079e-02,-3.899835053930967854e-01,-8.569845756398046174e-03,-2.037942397477504608e-02,3.304913179904696990e-02,4.576972424983978271e-01
3.985294987955469159e-02,4.319811661393860303e-02,-2.881230437459958438e-01,4.641033066992155016e-05,-4.921473378835503759e-02,6.088449468141382548e-02,3.564598560333251953e-01
7.373132095686998899e-02,7.281202891660784604e-02,-4.442714788335564990e-01,3.800282124805019063e-03,-2.674236690347388604e-02,-2.680746390096183131e-03,5.196747779846191406e-01
8.123722512340139645e-02,6.124142283685715671e-02,-4.564589622810938940e-01,3.292169076654031384e-03,5.418980637594959793e-03,-2.034923637325338971e-02,5.292714238166809082e-01
7.278456543894645803e-02,6.820415086401007687e-02,-4.238630959572372014e-01,7.125570350324130289e-03,-9.996342492375201449e-03,5.620876593530739441e-04,4.948313534259796143e-01
4.822573369587751513e-02,5.842714237967450153e-02,-3.697514667425708668e-01,-6.137296672278035308e-04,-4.472179949051659914e-02,-1.557346767093330600e-02,4.310473501682281494e-01
7.993334715128078138e-02,6.101004157362646674e-02,-4.369295443497471232e-01,3.895063762495088377e-04,6.197564822901418906e-03,2.642155205212378104e-03,5.078003406524658203e-01
6.906959366898873798e-02,7.366017244317971113e-02,-4.383860680485429095e-01,-5.421243654727388693e-03,-2.177773294116103903e-02,-9.218018690757065828e-03,5.114955902099609375e-01
7.413923883343806476e-02,6.941742590340896357e-02,-4.299509914204191485e-01,4.060971208091689738e-03,-1.049670096375545508e-02,-1.153754820299155749e-02,5.025220513343811035e-01
5.714314688944624465e-02,6.686099333961914581e-02,-3.998442333626208711e-01,-9.009748057936958765e-03,-3.871575973785939401e-02,-4.688306777242187001e-02,4.740328788757324219e-01
4.685007609354396862e-02,9.195747551604019354e-02,-5.282212681505806806e-01,5.165748842142960096e-02,7.366896740873879988e-03,-9.172104607149481883e-04,6.056835055351257324e-01
6.335800289837187349e-02,7.065655558934180736e-02,-4.755514986721776083e-01,5.075285486942134050e-02,1.362381733728768550e-02,2.314815977301017038e-03,5.501912832260131836e-01
7.016200844337372455e-02,7.861779141856894970e-02,-4.400857729678055996e-01,1.284752570474796208e-03,1.569581001508193975e-03,7.205875168935333645e-04,5.145412683486938477e-01
7.587828754398290299e-02,5.355836609747860466e-02,-4.611164832012983328e-01,3.735193159984698252e-02,1.916856786061063719e-04,-8.019685381846605905e-06,5.301523208618164062e-01
6.549180385192265863e-02,5.247446178613512924e-02,-4.453683279394905492e-01,3.958283775407066274e-02,-4.979693860769116888e-03,-3.268949217951000723e-03,5.092193484306335449e-01
4.047203902639107120e-02,6.036551158397823746e-02,-4.402867719967596960e-01,3.101380893819123685e-02,3.136925716119944095e-04,9.841174961379623755e-04,4.939408004283905029e-01
4.082358346031289553e-02,6.157939972651718663e-02,-4.430334466135618099e-01,3.089654822450966370e-02,-1.590646719725951827e-04,4.954911859431027424e-04,4.974493682384490967e-01
3.466387644049448435e-02,8.211239973300191175e-02,-4.451323354513602171e-01,3.732365198827818087e-02,3.875914616652916716e-04,1.084656331615319437e-03,5.093176960945129395e-01
4.846946597904436271e-02,7.181282100551567016e-02,-4.646442110496354916e-01,2.350644694794100029e-02,-5.899948704147757808e-03,9.636981409105412066e-03,5.271139144897460938e-01
5.266230236306454482e-02,6.132438016351612897e-02,-3.599393135558914825e-01,8.273417867499112399e-03,-2.334289447451492333e-02,-4.821682903701189626e-02,4.274385571479797363e-01
5.775188307556852751e-02,6.782666486877503287e-02,-3.866951630316096122e-01,5.060293823686582045e-03,-1.511870580113836363e-02,-1.678713342847355100e-02,4.513539075851440430e-01
5.830138487511840606e-02,6.486523202997901416e-02,-3.901693267265508025e-01,7.718045841367697502e-03,-7.919904531538155684e-03,-2.668733948194583483e-02,4.545506238937377930e-01
6.939927425592162802e-02,5.395414975133983049e-02,-3.906161083287192914e-01,-4.779675784359310731e-03,-3.308320905866693473e-02,-7.193490401863097961e-02,4.728886187076568604e-01
6.163857904086106343e-02,6.726786672657286692e-02,-4.031368877800778905e-01,7.169660759777530395e-03,-1.120426037410168600e-02,-2.251768178306003815e-02,4.698044657707214355e-01
7.009168823378383872e-02,8.049482855805853432e-02,-4.405223282559587727e-01,3.421450007159782675e-03,4.692885827605621993e-03,-1.929019266374662478e-02,5.170729160308837891e-01
8.136682875154360728e-02,6.704875577001428999e-02,-4.363483160253623372e-01,-1.678013078356310923e-03,-2.846532535478782117e-03,1.117514295637567819e-03,5.107424259185791016e-01
7.169448363392549872e-02,7.368190319945214228e-02,-4.270968248963969982e-01,1.997796154476341041e-03,-3.761367472670057444e-03,-1.937294943652069848e-02,5.009674429893493652e-01
4.610241184950217286e-02,2.204964629434355561e-02,-2.764780566910949311e-01,9.743822291047850390e-04,7.128476965447433367e-02,6.147609675371606356e-04,3.348526358604431152e-01
2.476881304580745569e-02,2.961668044438492409e-02,-2.355092433099467697e-01,-3.975382105540867239e-03,6.697381432163036774e-02,-6.245893480579710333e-02,3.069807887077331543e-01
5.407374144706839081e-02,4.210021214880049767e-02,-3.218747471089731804e-01,-1.099899051454140096e-02,4.261175413737362111e-02,-2.429946462568866386e-02,3.802115321159362793e-01
7.355339305325384047e-02,7.720410825198764648e-02,-4.486465091223632573e-01,1.048217040760032444e-03,-1.141105240345915159e-03,3.472468818560120441e-04,5.240420103073120117e-01
5.747290402016480559e-02,4.136485752267006488e-02,-3.201156187808401610e-01,-9.223215927804413045e-03,3.369508496686735022e-02,-2.607117791903179951e-02,3.774264752864837646e-01
5.669134210352971825e-02,3.930417536451220883e-02,-3.209910299261268807e-01,-1.048540582568227575e-02,4.581859368023703111e-02,-3.643987592301101835e-02,3.833939433097839355e-01
2.338460440735076751e-02,1.817207251292488057e-02,-2.177975397115463896e-01,-6.433106722274014103e-03,6.584849280977750352e-02,-4.846990932004412861e-02,2.777031660079956055e-01
3.767704464444239509e-02,3.190238391548334829e-02,-2.796480903492619685e-01,-2.063886563877326361e-04,-7.504527695355639461e-02,2.823710450357428889e-02,3.437784910202026367e-01
4.763402326536672615e-02,5.199448788618157846e-02,-3.370755868541446820e-01,-3.235237981287295960e-04,-6.946100319221655550e-02,1.809731412685514768e-02,4.063931107521057129e-01
7.805818222876773071e-02,7.861401878792989573e-02,-4.453221271277091331e-01,-4.213351975967242515e-03,-2.902738667193066266e-02,1.753039588309450447e-02,5.269925594329833984e-01
7.118232012831413047e-02,4.813602414016807107e-02,-3.737822409294380699e-01,-8.640667905216919964e-03,-4.784135727684466627e-02,2.082491437952934885e-02,4.434649944305419922e-01
8.328673417548909663e-02,6.324815728209934318e-02,-4.266240865514446812e-01,-3.676256578879742894e-03,-3.823195865792968634e-02,-5.881233754885108883e-03,5.046999454498291016e-01
6.663836715688337131e-02,7.242185267844020169e-02,-4.287268129494118396e-01,4.355862540860953522e-03,1.637134633713964492e-03,-4.711346101078654931e-03,4.984140694141387939e-01
7.263197530964080051e-02,7.281523392696748198e-02,-4.363277114126141165e-01,4.380416417589073387e-03,-2.347606237240241252e-03,-3.916127331612011438e-03,5.091692805290222168e-01
7.274810899996794755e-02,7.159094536715418511e-02,-4.329042030892764070e-01,4.557910138424401368e-03,-8.459660652915361456e-03,-9.491647330637557889e-03,5.056162476539611816e-01
7.084360780275097969e-02,6.785973909492334921e-02,-4.253322234364090293e-01,6.509840516350517275e-03,-1.485597926968525856e-02,2.603174911958009308e-03,4.955082237720489502e-01
8.641715180785639050e-02,4.923824070787324869e-02,-4.474912887058338784e-01,1.522367303639118180e-02,5.116849200600160318e-03,-2.504236471000866743e-02,5.188887715339660645e-01
6.990023921820767705e-02,5.951878035272459289e-02,-4.025977569368587861e-01,4.045567996827001932e-03,-4.498919056974800407e-02,-2.200383737768062467e-02,4.754267632961273193e-01
4.952981641782677746e-02,5.248353111457754183e-02,-3.425602605976839077e-01,-4.276442999142817183e-03,-4.069920957125615357e-02,2.585514512910553828e-02,4.024066030979156494e-01
5.938577970237282622e-02,6.463721693237678423e-02,-3.917349688814170672e-01,-3.942236121515224102e-03,-1.066582583612176068e-02,7.095682932851336833e-03,4.543627202510833740e-01
5.981790555496568906e-02,7.079912696519974347e-02,-3.934115402078390833e-01,-8.819751693621842928e-03,-1.674073979166443987e-02,2.231085337375373137e-02,4.616080224514007568e-01
5.346585566122449840e-02,6.555865649843869991e-02,-3.811550845495979556e-01,-5.063891044919053772e-03,-2.110539599999133181e-02,1.962917825727573257e-02,4.436964392662048340e-01
6.192801207560635901e-02,5.663195130631387686e-02,-3.692506963001092601e-01,4.734654412415272538e-03,5.112022745921462191e-02,2.057743660025761895e-02,4.391320347785949707e-01
6.633409492475736413e-02,6.400393488595587654e-02,-4.028357862917649190e-01,-1.125021377321296090e-02,-1.657281261111713880e-02,6.328282256208996037e-03,4.694213271141052246e-01
6.132346699320845307e-02,6.173663571647347581e-02,-3.807033446026486523e-01,-1.338012306524069550e-02,-2.390707033327170786e-02,2.371289924544770292e-02,4.466644525527954102e-01
6.061849853851003500e-02,6.768232661310277787e-02,-3.928014466831141749e-01,-8.025104704679590639e-03,-1.691898525253973315e-02,2.701500487813657952e-02,4.605256021022796631e-01
6.198631280557923007e-02,6.724713477220212177e-02,-4.419246271173499219e-01,-4.789324089142617735e-04,-1.703413291848627055e-04,2.888512218955061744e-03,5.065873265266418457e-01
4.651568184682339235e-02,5.000333059770786792e-02,-4.613935638286056351e-01,6.218733568452694538e-02,-6.029037333384108625e-03,7.910131439790395874e-03,5.212042927742004395e-01
5.826084526149499787e-02,4.230634758752996327e-02,-4.436860811270298410e-01,3.296786249633926885e-02,2.051810109597414309e-03,6.942172142666140112e-04,4.974652528762817383e-01
6.144146343365819440e-02,5.394687608845802340e-02,-4.448574321190931768e-01,1.521318915855022005e-02,1.441234350406580926e-03,-3.233389926984703983e-03,5.033211112022399902e-01
6.709390141099474958e-02,4.606500473314117938e-02,-4.468027993228169681e-01,2.408146918880767207e-02,3.334394322391943943e-03,-4.180469288960543886e-03,5.055204033851623535e-01
6.096786106635446179e-02,4.068175914116864411e-02,-4.428073568448616659e-01,3.384681148675534185e-02,-9.107976353151963668e-04,1.181690263407507392e-03,4.974181950092315674e-01
5.589609162335737458e-02,5.647335454655877385e-02,-4.427488798832474592e-01,1.488243541643390414e-02,-5.677463945404811509e-03,4.556736887771567664e-03,4.997583925724029541e-01
4.051981794294909345e-02,4.118682269872217527e-02,-3.223217068519915185e-01,9.490255195978685929e-03,1.185378277452753606e-02,2.433874780344304559e-02,3.665587007999420166e-01
8.895806356382437996e-02,4.135303775181106700e-02,-4.482163474313952678e-01,-1.426639859436717051e-03,2.323312916973097400e-03,-4.874065018429173460e-03,5.151154994964599609e-01
4.305762641074095676e-02,5.505220646916522687e-02,-3.132325443031490075e-01,-1.313750730545300283e-03,2.710565970799751548e-02,-2.951185669740213902e-02,3.690288364887237549e-01
5.858338748943775487e-02,6.345270416139742187e-02,-3.856280877082873260e-01,-5.246773348220151213e-03,3.591218664486872832e-03,-2.937137865212151311e-02,4.496886134147644043e-01
6.857062683231457401e-02,7.719183493709713684e-02,-4.381077203066160997e-01,-4.648990306398656860e-03,2.970398385302186386e-03,-2.935249464186417967e-02,5.136550068855285645e-01
4.765802056083909277e-02,6.190432153552727357e-02,-3.668504715850472997e-01,-7.128528027320602239e-04,5.789419612948988950e-03,-3.334934956420484292e-02,4.258686006069183350e-01
5.829488668643661997e-02,6.695666310255563025e-02,-3.863651978783684271e-01,-3.662842737092478554e-03,6.987808984957684724e-03,-2.314529178239713506e-02,4.510465860366821289e-01
6.144903991212025129e-02,6.385925924306168344e-02,-3.876379696946731790e-01,5.480224577697377468e-03,3.258833260187223024e-02,-6.850255659309032255e-03,4.540751278400421143e-01
1.016594357354697054e-03,3.121197219424595715e-02,-1.854482362420215857e-01,-1.762937267350949549e-02,1.112281297188882911e-01,3.171821626142515976e-02,2.870137393474578857e-01
5.745533872572552991e-02,6.100392142409494234e-02,-3.825307260009924160e-01,-2.139037099188924318e-04,2.498994998249604981e-03,-1.666631968395709470e-02,4.427344799041748047e-01
7.601386087466052710e-02,7.395783127710156557e-02,-4.443799092517012328e-01,3.930509986429120244e-03,8.811793675228270922e-03,-8.107203601774337935e-04,5.196394920349121094e-01
7.026257356768617068e-02,8.012680742908812048e-02,-4.510219268465666675e-01,3.827767174816491293e-03,9.022318039746670890e-03,2.649253469271744144e-03,5.265796184539794922e-01
1.806238886963801304e-01,4.300423560268498702e-02,-6.877979643183533831e-01,-9.133532629176679962e-02,-9.144062604141066364e-02,-3.914264443365674667e-02,8.416001200675964355e-01
7.319203730702078525e-02,7.373808958515684631e-02,-4.468145392059739152e-01,-1.841670349445956225e-03,2.841841652122001263e-03,7.783090890403839305e-04,5.203146338462829590e-01
7.510644099305574528e-02,7.274127553240078425e-02,-4.473804523752966111e-01,-1.183585171788653851e-03,-1.832288542739662299e-03,-2.552940818507585564e-03,5.213407874107360840e-01
7.264300554582139857e-02,7.443145343473830944e-02,-4.417597038599097581e-01,-2.559683184770597791e-03,-2.940247095150689736e-04,6.357869883459838639e-03,5.154362320899963379e-01
7.411143843386286401e-02,-4.740186361323484032e-02,-2.323206758037154041e-01,7.154533364058674946e-03,2.274727582028342014e-03,1.133173878224028319e-01,3.318465352058410645e-01
7.264882954756110567e-02,7.452397706136298927e-02,-4.324856243011555024e-01,-8.117108571957661403e-03,-2.258150747043697303e-03,4.144810047333152662e-03,5.063359141349792480e-01
7.023761700430264376e-02,7.189333894677477077e-02,-4.301340526027274125e-01,-3.638776949821442667e-03,-2.664765745827643063e-03,1.137055667715316295e-03,5.012663006782531738e-01
8.628454745579652863e-02,6.569547270614178869e-02,-4.373569747846171585e-01,-7.230045414843813863e-04,3.091242817647415608e-03,-5.566232429135262215e-04,5.136868953704833984e-01
7.445583995898891194e-02,7.507627330857319370e-02,-4.473040261483735569e-01,-5.085206775644572977e-03,4.931504587956279468e-05,9.139318360497989324e-04,5.221470594406127930e-01
7.635868751087465656e-02,7.043332691973758219e-02,-4.442990373540014470e-01,-4.930965234464435541e-03,-1.407413939785119670e-03,1.613519292770181036e-03,5.178042054176330566e-01
7.298753773041294357e-02,7.527288406345050698e-02,-4.453197952556032790e-01,-6.575593892492537576e-03,3.628468439567321380e-04,2.198120191171582926e-03,5.195929408073425293e-01
7.296662538686438104e-02,7.113618296625190407e-02,-4.337282557341225475e-01,-4.150697990898889918e-03,-2.512370925574504508e-03,3.567294155646042429e-03,5.058897137641906738e-01
7.507357232803915648e-02,7.352303824471220772e-02,-4.430228254168904756e-01,-4.767508322051285108e-03,1.566368111922648507e-03,-5.563984787242277344e-04,5.173968076705932617e-01
7.310836185572050505e-02,7.494630632377521917e-02,-4.439497598363648101e-01,-3.477347085900277875e-04,4.848454368335076503e-04,5.182996953424286613e-04,5.179813504219055176e-01
7.531011944493287702e-02,7.615018357055239329e-02,-4.450537331185795975e-01,-3.230075958348148889e-03,1.874336902998915109e-03,-1.606179479482078721e-03,5.208320021629333496e-01
7.368208541501708453e-02,7.313924990824521855e-02,-4.465550844921367668e-01,-2.112639411167226925e-03,1.981281306080059403e-03,-6.950180876747553060e-04,5.199915766716003418e-01
6.044269241100902468e-02,7.977847252891501206e-02,-4.247377390896467930e-01,1.445463827183654385e-03,-5.435999798386392107e-03,3.494425155326880139e-02,4.989123046398162842e-01
8.738248231016967904e-02,5.345944973094568509e-02,-4.743232663737301791e-01,2.855248341694456571e-02,2.348560188810933005e-03,-8.332837547604729847e-03,5.479780435562133789e-01
7.252119950719346231e-02,5.751499634561177410e-02,-4.468920682295547953e-01,1.241382660365891212e-02,-5.454302088446299178e-03,8.649020051496158351e-04,5.126155614852905273e-01
6.327290151404549312e-02,7.289648160444028857e-02,-4.421830720860787101e-01,1.369332909282497748e-02,-2.291367293688435433e-03,8.636957397913690507e-03,5.111210346221923828e-01
6.473301757054403249e-02,6.971010385217066285e-02,-4.687063581532243672e-01,3.001739440364181027e-02,-7.599766214371377407e-03,1.046808942349987219e-02,5.389271378517150879e-01
6.231189664870998013e-02,5.356229631015829717e-02,-4.514929860266471140e-01,3.660814026427593182e-02,1.557475526713731316e-02,-2.029063273168485795e-02,5.153248906135559082e-01
7.190169979133387290e-02,7.475648930425879413e-02,-4.520896664916484453e-01,-7.465092576471817759e-03,5.425304507363380192e-03,7.441454554469613576e-03,5.258256196975708008e-01
7.649350775289409654e-02,5.559524350900024725e-02,-4.499854665415682353e-01,-1.629432941855420147e-02,1.018330156188448394e-04,7.495127868463075408e-04,5.171195268630981445e-01
7.575032903170392240e-02,6.378487215140260513e-02,-4.573533247173351413e-01,-2.164784045706058188e-02,4.226123217496998742e-03,3.578968732157961942e-03,5.286414027214050293e-01
2.691222773983908967e-02,7.955491998325381342e-02,-4.587372853911844128e-01,-4.983459262757335140e-02,8.400654624995583519e-03,6.380236227875486776e-03,5.215140581130981445e-01
7.686079851585209122e-02,6.006904024601616987e-02,-4.587688186523639633e-01,-2.287112942573066993e-02,2.484121153192857430e-03,-3.000090451676103599e-03,5.289628505706787109e-01
3.927723871934413191e-02,8.411560435061871122e-02,-4.620319167800464588e-01,-6.256198878032069588e-02,-1.946622495046124602e-04,1.118690277159395396e-02,5.365787744522094727e-01
5.469441029611130101e-02,7.936321196462226002e-02,-4.556381122217327828e-01,-2.927301407439168723e-02,5.185725805349945990e-03,6.866795791709777788e-03,5.257660746574401855e-01
8.276489280485013755e-02,1.658030812205193993e-02,-4.113633225228416346e-01,5.080725040565739481e-02,-1.928812752096631042e-02,3.171142096414428929e-02,4.771964848041534424e-01
4.472229405736105612e-02,5.642540872603676871e-02,-4.611063153936255099e-01,-5.449272786365674803e-02,2.224376614633010851e-03,-4.353553516051539632e-04,5.204258561134338379e-01
5.134695244036249773e-02,5.373854469921057753e-02,-3.425797447614939983e-01,7.492524697939238060e-03,-2.637229319501825653e-03,4.169857324343539950e-02,4.019100368022918701e-01
5.929005810287074629e-02,5.978554577939682035e-02,-3.440068244788072049e-01,-3.900279281964186794e-03,6.535276384340479167e-03,3.581927346517876226e-02,4.084988236427307129e-01
5.032646889610109531e-02,6.429236957330791702e-02,-3.624669983879728052e-01,-1.666707330293566713e-03,-4.472490411859113843e-05,3.803296137255759990e-02,4.250957369804382324e-01
4.081864209490597417e-02,4.484021490927328490e-02,-3.024658117618824749e-01,5.126488399285775242e-04,-5.202326781286641458e-03,5.565984809200454769e-02,3.586320877075195312e-01
3.607054469823466059e-02,4.736678475023448076e-02,-3.037473364524229114e-01,1.305764421942296697e-03,-1.141834746438276469e-04,5.288470060931519529e-02,3.575443923473358154e-01
4.652817382217955267e-02,6.266200519408829384e-02,-3.446715205061167131e-01,2.437271790749729553e-03,-6.821884947091003126e-03,4.600836500728168466e-02,4.075742959976196289e-01
4.371950672027258289e-02,4.115806772015641324e-02,-3.048124385320640783e-01,1.347113996500509323e-04,-9.444947813202517889e-03,4.918516598998758094e-02,3.579295277595520020e-01
4.334962658417754189e-02,6.381942160437051315e-02,-3.321375477206826021e-01,8.154904915135052573e-05,-6.915630068495044356e-04,3.331015972163861583e-02,3.904176354408264160e-01
7.480109783631044840e-02,7.178409175945876797e-02,-4.346920178446822547e-01,4.707637454080997388e-03,-1.068830760770627178e-02,-1.189611136838237063e-02,5.088112950325012207e-01
7.276241349145465276e-02,7.023382308545306207e-02,-4.451978659050283005e-01,-2.411001841819010623e-03,-2.434904776138898178e-02,-3.073449146231223283e-02,5.211616158485412598e-01
7.257674906295930040e-02,6.876360342351459098e-02,-4.291944021215650662e-01,5.090616183375598625e-03,-8.889652593674342382e-04,-3.067525061325347344e-03,4.999838471412658691e-01
7.050513352031417824e-02,7.347458693821623532e-02,-4.464898584267908976e-01,9.985234798254223089e-04,-3.420456937975673798e-04,-1.727629496822165496e-03,5.184979438781738281e-01
7.452508818843023297e-02,6.913449417142120135e-02,-4.372022305549331245e-01,4.258378597639209985e-03,-1.913421847456394341e-03,-7.495309283189244103e-03,5.092831254005432129e-01
6.624712737744029023e-02,7.322741663152190772e-02,-4.308361118841403936e-01,-6.761244003152703380e-03,-1.465822921296934707e-02,-9.923767690053158716e-03,5.016846060752868652e-01
7.921452411859411513e-02,6.707149014886018557e-02,-4.343353682675401006e-01,-6.964436348268485729e-04,-1.198696312063918940e-03,-8.306285352387406205e-04,5.075950622558593750e-01
8.116547781984820298e-02,6.879918570713272619e-02,-4.401390863503096829e-01,-2.300689594723444829e-03,1.230419206827088616e-03,-8.885767122796739068e-04,5.152548551559448242e-01
7.706691592912226496e-02,6.783509293432685161e-02,-4.339844677364989023e-01,-1.167284858711058247e-04,-1.395965349289954652e-02,-5.234417812616062003e-03,5.071564316749572754e-01
7.571888838026807900e-02,7.926060080612395975e-02,-4.508162637018803820e-01,-1.624958953279006645e-03,1.458773178355485950e-02,-2.161010111106567017e-02,5.302489399909973145e-01
5.852762958281920724e-02,6.155461449521676398e-02,-3.913863619194269949e-01,-3.242085537565933193e-03,2.032114328258001132e-02,-1.374484469772189153e-02,4.534653127193450928e-01
6.830714243022753540e-02,6.242631840727411174e-02,-3.965686195885790299e-01,-1.144885451258434959e-02,3.012698733230744635e-02,-1.418249589850345202e-02,4.659718573093414307e-01
7.016245913857555028e-02,6.237536865435636124e-02,-4.016337740766836584e-01,-8.175219475136224698e-03,2.421537379072206259e-02,-1.785095497683743954e-02,4.710562825202941895e-01
7.367081026114635778e-02,6.440459115233007625e-02,-4.246720391350163881e-01,-5.041064673955049369e-03,1.259279036990614518e-02,5.476763896058731498e-03,4.944245815277099609e-01
6.417876511350356639e-02,8.777034304595507375e-02,-4.605400616582332463e-01,-3.335479091956740534e-03,6.314037516076722797e-03,1.028977488077809652e-03,5.370488762855529785e-01
5.746537861808836967e-02,9.237263103182119517e-02,-4.579381401176778055e-01,1.662539584287407290e-03,2.023987534107396860e-02,7.060635467274561060e-03,5.350115895271301270e-01
4.040223568832074230e-02,6.664313958600143195e-02,-3.341761534297819636e-01,-4.820853404316795265e-03,6.487547380627141369e-02,6.275856706118732031e-02,4.187349379062652588e-01
1.614822100970225716e-02,1.002905567292976807e-01,-4.060042308747991990e-01,-1.876712041269994191e-02,5.739968488217209175e-02,-1.935523702155966461e-02,4.825745224952697754e-01
4.128656021171692170e-02,8.849417307075937988e-02,-4.368564115848810325e-01,-1.494059704326794425e-03,1.796241904163984465e-02,6.958943849475910173e-03,5.045207142829895020e-01
7.558735824230358724e-02,5.917275316608214264e-02,-4.199673507190169186e-01,6.523244612942281223e-03,3.150862013809633405e-02,-5.494132667756546334e-04,4.907305836677551270e-01
4.684883678229673221e-02,6.789531881891169851e-02,-3.654773821104051468e-01,-6.084495228005775379e-03,9.155360577478686979e-02,-3.006607518524632202e-04,4.520966708660125732e-01
7.922211958547947797e-02,6.894118027437606822e-02,-4.191441875286171515e-01,-5.608991842620675294e-03,2.646130508134329415e-02,7.058979266107638477e-03,4.956767857074737549e-01
7.716626388342640031e-03,1.645588135072670322e-02,-1.847460096654783834e-01,-4.873343379332429649e-03,-2.482840753668698330e-02,6.657954955802364294e-02,2.324205785989761353e-01
7.786383299504115452e-02,6.909045569314370416e-02,-4.485192153099886725e-01,2.812323562081698713e-03,5.113725422584977816e-03,3.083885918712899604e-02,5.248744487762451172e-01
7.181739245783896886e-02,7.044245459588158176e-02,-4.231842374880266378e-01,5.660656809427782633e-03,1.481897564188489850e-04,1.438315254119572513e-02,4.950401186943054199e-01
6.272611981363432343e-02,6.238717026952761424e-02,-3.950248365406009432e-01,9.314779425006901661e-03,1.598168348035305594e-02,1.533524504452785445e-02,4.594703018665313721e-01
6.754534130144884685e-02,7.059078635383894684e-02,-4.182311382047789183e-01,8.117835369270694212e-03,1.012102718330231375e-02,2.269451097059244429e-02,4.894053339958190918e-01
6.207371011875595368e-02,6.454469972652493448e-02,-3.932033115857873629e-01,5.446706219864792115e-03,1.723790472333593463e-02,1.075576651646937068e-02,4.579691588878631592e-01
1.166514449017821697e-01,4.084420999605259395e-02,-4.795635727420152206e-01,1.990878376803780284e-02,-3.537513516734192703e-02,7.379230859712219981e-02,5.807760953903198242e-01
7.539373690201153777e-02,7.201630385739868356e-02,-4.208912286700743910e-01,-5.583739041876437104e-03,-4.382595883223974406e-03,3.028867923731927425e-02,4.975312650203704834e-01
8.786769001235855692e-02,2.855531973097746867e-02,-4.582402387651241527e-01,-2.868603326912119028e-02,-1.017851337270647780e-03,-1.050703622533972125e-03,5.213788747787475586e-01
6.983415288649597041e-02,7.699660371030611627e-02,-4.399665088636680599e-01,6.580588658293935267e-04,-1.496706017311584015e-03,1.622253756739855390e-02,5.141954421997070312e-01
8.062948496798938436e-02,4.254259662361808969e-02,-4.345106908667197287e-01,-9.548315880440421885e-03,8.080335787464744575e-04,1.929592487301993314e-02,4.985904097557067871e-01
8.245627751057890698e-02,4.289620605192087655e-02,-4.344814589730838783e-01,3.042406778471266286e-04,-5.059829805815610265e-04,1.751018626138335643e-02,4.992598593235015869e-01
6.627711161197749612e-02,6.708680417615556224e-02,-4.084999420421899230e-01,-2.374539757764927467e-04,2.126206346494885577e-03,2.759148395313647251e-02,4.775938987731933594e-01
6.073474739280279588e-02,5.003124708796496956e-02,-3.630014099036388275e-01,-3.281056278121012408e-03,9.211100291336867668e-03,7.757035034340288571e-02,4.398519694805145264e-01
6.973257669358284838e-02,7.491812383539142584e-02,-4.245301511924600146e-01,-5.152562250654315300e-04,8.964511575530074647e-03,2.543189935605442986e-02,4.990669190883636475e-01
6.581906710055368537e-02,7.157871442496047121e-02,-4.263666122693376415e-01,-9.246853518547625168e-04,1.217152794272158278e-02,2.899235040006754166e-02,4.980797171592712402e-01
8.786459779487476585e-02,4.031788877154848794e-02,-4.569073976580771967e-01,-1.969749590536418529e-02,9.362560808007244035e-04,3.961699416937132338e-03,5.237831473350524902e-01
8.313276796498980659e-02,6.012985672906018264e-02,-4.422133204194612088e-01,2.574651286220356727e-03,-1.165197968205311041e-03,1.775865509548006649e-02,5.151730179786682129e-01
6.062621162694686872e-02,7.707385399439362073e-02,-4.205524377717755335e-01,2.257835265028095961e-03,3.342117119574126993e-03,2.334328765881131529e-02,4.913259744644165039e-01
6.738417558461803902e-02,8.469396314519936353e-02,-4.262880452455465874e-01,6.294846419468104123e-03,8.182494545318136359e-03,3.615671570325897088e-02,5.067533254623413086e-01
8.398853791377319800e-02,6.814960068312544972e-02,-4.555152916480286196e-01,-2.314534770291185040e-03,-1.576202928381179730e-02,5.919654196613272773e-02,5.422583818435668945e-01
6.713657779087151001e-02,4.395167507432337639e-02,-3.481462532010574651e-01,1.613810690580131952e-03,1.146709537062223609e-02,6.425857077114002780e-02,4.197128415107727051e-01
1.051139947302668354e-01,6.649721112952844404e-02,-4.709495399107820335e-01,2.954329262593768241e-03,2.642777297441942577e-02,6.409353386208227477e-02,5.705612301826477051e-01
8.807492328814200966e-02,6.306770815669424102e-02,-4.360934297059512743e-01,4.141743976536532007e-03,1.567673382998641118e-02,7.338791654391393915e-02,5.284088850021362305e-01
7.177765549251230448e-02,6.588303931960615145e-02,-4.189482022604542610e-01,4.488546213314454150e-03,-2.022105501886811360e-02,-1.098428209017458627e-02,4.894926548004150391e-01
6.767231104514692674e-02,7.622405851979385805e-02,-4.236985516756726078e-01,5.217696789808975999e-03,-3.514152287367139360e-02,-2.311259861808695470e-02,5.011083483695983887e-01
5.608273238682259798e-02,5.487510436699458150e-02,-4.387862005777887764e-01,-1.342759034405217877e-02,-9.335673243524039320e-04,-1.051843149351659517e-03,4.948191046714782715e-01
6.944740629063864135e-02,6.735774062364691117e-02,-4.386346830861517776e-01,-4.681313241038645954e-03,3.256939714810829379e-03,4.926761859034069777e-04,5.071374177932739258e-01
7.211160505649746866e-02,7.269368135901616013e-02,-4.431794562306174412e-01,1.039852387192567685e-03,1.596589608868959412e-03,3.818993915752423671e-03,5.156353116035461426e-01
7.431631445391365109e-02,7.420176116967236446e-02,-4.419621495025343183e-01,4.864046886651127860e-03,-1.463585539036471486e-04,1.561093300457321292e-03,5.162971019744873047e-01
1.061853131040874088e-01,6.046531821480252700e-03,-4.636542762981771260e-01,-6.499996620842397876e-02,-7.174028398688287074e-03,1.039886736632770255e-03,5.389940142631530762e-01
7.384497366075687408e-02,6.935582405281878748e-02,-4.268891832732102376e-01,7.694138372463684566e-03,-3.419629156134289076e-03,-6.978348680702649298e-03,4.988644719123840332e-01
8.571957597206794621e-02,6.373602262973637744e-02,-4.332035612828923909e-01,-2.128927598484015894e-03,1.018731992014790992e-03,-1.077136869263555771e-04,5.083044767379760742e-01
5.224443254555022342e-02,5.506698489635947213e-02,-3.710403384485898015e-01,-3.827920646599333385e-03,-1.000757484716127549e-01,-4.602878903314269743e-02,4.656372964382171631e-01
5.954405936649526110e-02,6.808499011961177683e-02,-3.872132237632887053e-01,6.302648682561641860e-03,-9.342741416312867753e-03,-3.240673523728986732e-02,4.549861252307891846e-01
5.730815241851650033e-02,5.263918076673740343e-02,-3.525574580897503085e-01,8.601178528003563736e-03,-3.759845829932536437e-02,-4.712749466520767261e-02,4.209796190261840820e-01
5.174505466771550655e-02,6.670345519897269426e-02,-3.726039560877012491e-01,2.156138169943452258e-03,-1.130133277527273737e-02,-2.607363203097272722e-02,4.348333477973937988e-01
4.323149188017728906e-02,4.812904848593108076e-02,-3.209162262963101142e-01,6.172518940301480878e-03,-9.455995506992618052e-03,-4.070182117155798918e-02,3.738494813442230225e-01
3.984535562647256723e-02,5.094628100317463715e-02,-3.229075698253994209e-01,1.001622247778643712e-02,-4.111346178898211273e-02,-3.419210895873386197e-02,3.802880942821502686e-01
4.676705598108518713e-02,1.120252573110598893e-01,-5.100992220186966186e-01,-1.615050133171559536e-03,1.974720394990313668e-02,-3.796719592481494036e-03,5.932282209396362305e-01
1.060433862548987305e-02,1.092442914658876274e-01,-4.506188657999971037e-01,-2.921914257393186474e-03,1.216150327269336848e-02,1.452311192229327474e-03,5.180997848510742188e-01
-5.007892626676641035e-03,1.186931815657068512e-01,-4.686748197855958309e-01,3.435538487143997149e-03,-1.257876045039046237e-02,1.225237480847329299e-03,5.368050336837768555e-01
-9.621744797431108775e-03,1.216023336271061517e-01,-4.477380507183291170e-01,8.046476320508599150e-03,8.503765315166486594e-03,1.725939474086583044e-03,5.167950987815856934e-01
-2.626260063555567459e-02,1.094882510071736592e-01,-4.022984756571428844e-01,-2.472934635295741951e-02,2.890985294734162506e-02,8.479251746873325488e-03,4.641509652137756348e-01
-6.804500389082396294e-03,1.201181926273574008e-01,-4.718050532309198686e-01,-5.290694771224135201e-03,-1.553349273486984324e-02,-2.272256278909368966e-03,5.405343174934387207e-01
7.232857882397028537e-02,7.131311717184465881e-02,-4.409424664236622493e-01,1.101125000652744459e-03,-7.233113751436613670e-03,-8.664414002292081945e-03,5.131401419639587402e-01
7.457038306241756120e-02,8.228394378203277015e-02,-4.671669300621489329e-01,-9.306515320714105893e-03,-1.366829711387509971e-02,-5.297976350923620271e-03,5.464631915092468262e-01
6.890331899228918644e-02,7.559040505526123943e-02,-4.468568975971142776e-01,-5.763150044148220540e-03,-1.502159449506400984e-02,1.720215808364165464e-04,5.198835730552673340e-01
7.071101434951621023e-02,6.114613399333126975e-02,-3.656511943238912599e-01,-4.116667681808293053e-03,-4.782425150412168702e-02,6.943628530289054634e-02,4.557479918003082275e-01
6.954478005097075588e-02,6.495513213919545947e-02,-3.918549089606767621e-01,4.843336174315992365e-03,-1.066128821574373851e-02,5.340361627362680969e-02,4.687859714031219482e-01
3.879465325339213899e-02,4.764522320836500624e-02,-3.025397510925179057e-01,-8.286190823493721699e-03,-4.525379898527151501e-02,5.942041804619043605e-02,3.695274889469146729e-01
8.484443431839391869e-02,6.432226380284533640e-02,-4.346280203449307544e-01,2.643946819415634187e-03,2.674564578231082430e-05,9.845516899421736644e-04,5.095448493957519531e-01
2.358060789728710915e-02,-1.604576083579284385e-02,-1.454923765605954933e-01,3.796645221579891122e-02,-6.231989493196313235e-02,1.095182992101703667e-01,2.746171951293945312e-01
1.201151343299401986e-01,-9.413801780437311417e-03,-4.623690238217879611e-01,-2.523543223195939128e-02,-3.016960888549684197e-04,9.525043302357576441e-04,5.315359234809875488e-01
6.950052538842010907e-02,6.581300118321381509e-02,-4.149448074011329868e-01,-7.844154027685203839e-03,-4.828233132564550834e-02,9.748153869204558009e-03,4.902832806110382080e-01
7.443067102748368580e-02,6.662964266162021976e-02,-4.240186351314602087e-01,-3.205857955730761349e-03,-4.268049221900006612e-04,-3.752798937416191877e-03,4.946693778038024902e-01
5.895151565745132549e-02,7.675714923313989302e-02,-4.305933910286848798e-01,9.421076305811695861e-03,-6.009452113372088823e-03,7.450717347037093437e-03,4.992284774780273438e-01
6.500126462026750707e-02,7.715900790917334939e-02,-4.433867984449901822e-01,9.122351615043686451e-04,-7.676372819106692079e-03,-6.105634693127141160e-03,5.148574709892272949e-01
7.091930702402315934e-02,6.530035455471658312e-02,-4.070071337953198309e-01,-8.227542548316471235e-03,-3.421565673725437962e-02,2.672037618184476895e-02,4.812659919261932373e-01
7.258564496407818312e-02,7.456116023526210279e-02,-4.444892665691329570e-01,2.552592193197851175e-03,-3.398836995416457726e-03,-9.841468588963231835e-04,5.181205868721008301e-01
6.434184257645778060e-02,7.349333732437626776e-02,-4.357141823908328715e-01,3.371104956206679359e-04,-1.993835088068001467e-03,7.325591561990528553e-04,5.047077536582946777e-01
7.209147878780644558e-02,6.546164710771573692e-02,-4.211013637237158158e-01,-4.845194887669055164e-03,-1.410557487567036528e-02,2.129650526861049005e-04,4.905923008918762207e-01
7.540837620788709561e-02,7.323295931328685504e-02,-4.553855579645889606e-01,1.134029049222703544e-03,-5.323234613121331522e-04,-4.155162961754012806e-03,5.297629237174987793e-01
5.765074728907915169e-02,6.112180333557717948e-02,-4.376445160440115001e-01,1.347173332599217602e-03,-1.603385307395602060e-04,4.276650331993386020e-04,4.970459938049316406e-01
6.668468822864795365e-02,6.697971396278118439e-02,-4.074434278609922466e-01,5.335374754049397941e-03,-4.790215670959748276e-03,-1.759058023590179265e-02,4.754155576229095459e-01
7.382381968129106409e-02,7.369543001873854471e-02,-4.390168690977136468e-01,6.574737583302748753e-03,-7.698759212870248669e-03,-1.689208838530659521e-02,5.139097571372985840e-01
6.702079366676541583e-02,6.986469511998785742e-02,-4.410691459631231326e-01,-5.674411720494737521e-03,-1.084514066680225325e-03,2.872468110760217821e-03,5.096403956413269043e-01
6.157576100208231318e-02,5.587676079452080780e-02,-4.387609482549512663e-01,4.434249434475706630e-03,2.794271687881892154e-04,6.538062639802427701e-04,4.975724816322326660e-01
6.835353701497717815e-02,5.654699328605994335e-02,-4.471690420026095403e-01,1.307672135555645182e-02,5.544244120923763446e-03,-6.658701198805205314e-03,5.104455351829528809e-01
6.740475907096976638e-02,4.226695912455580295e-02,-4.390581373206504656e-01,9.140427709877795015e-03,-5.474095172987049601e-04,5.769815287736157787e-04,4.946289062500000000e-01
6.745899560193396871e-02,4.570282383379944968e-02,-4.398977939131394344e-01,9.390362808778262432e-03,1.862606532517631927e-03,-2.138899075201024323e-03,4.971265196800231934e-01
6.998140822566625840e-02,6.255408163462536364e-02,-4.412113249352273003e-01,1.376689116654695316e-02,-4.118538222328494737e-03,8.232226979412825621e-03,5.083297491073608398e-01
5.687516415751775467e-02,8.054185361951235467e-02,-4.631904951964584405e-01,3.915339203881755548e-02,1.690032525929023935e-02,-7.285271984928422956e-03,5.375422835350036621e-01
6.485647743632144691e-02,5.939552275809326098e-02,-4.465670860849552115e-01,1.569676478527230398e-02,4.316207924252979562e-03,-5.822313475332230141e-03,5.095956921577453613e-01
7.164200777251861219e-02,7.459455957636015877e-02,-4.402791033138431787e-01,-6.238091594266156545e-03,1.880798399011864019e-02,-1.314087733190184328e-02,5.150528550148010254e-01
6.646346032408984028e-02,5.918694564807916447e-02,-4.058927182392113586e-01,5.731001054791908314e-03,2.823601873077198447e-03,-1.960813034647008318e-02,4.701192378997802734e-01
7.185222445162509075e-02,6.960698080473545768e-02,-4.397738474558155475e-01,-5.867516198621655502e-04,-1.353085837956868572e-03,-2.443997268323138284e-03,5.105310678482055664e-01
6.755258074386819023e-02,6.822105990599552916e-02,-4.361294494883809492e-01,6.866341020077324983e-03,5.231520351391345629e-03,-1.814857445975882107e-03,5.042481422424316406e-01
7.231398867395094632e-02,7.561502703835301653e-02,-4.452232342880838578e-01,2.936170836428178988e-03,1.893173756253594417e-03,4.398059850827335839e-03,5.192867517471313477e-01
7.279162345988174354e-02,7.193576889897712601e-02,-4.443139220576094450e-01,8.577454039333119642e-04,-2.070066148546921905e-03,-3.082064235143368996e-03,5.167202949523925781e-01
6.880154009118577552e-02,7.031093869265372942e-02,-4.274774588777998097e-01,4.145404988377991533e-03,1.018914832258768381e-04,5.350492678377807149e-03,4.971736967563629150e-01
5.512237580491066713e-02,5.643077009926927845e-02,-4.381364062930629966e-01,-1.281032517151888678e-02,1.378089665777954128e-03,1.699302251085421309e-03,4.944269359111785889e-01
7.328964488962227963e-02,7.380444386195114670e-02,-4.460081769348368530e-01,2.131862394718053808e-03,-7.158523582365034800e-05,8.089933074175644249e-04,5.195704102516174316e-01
7.135291073893579306e-02,6.758794319473204748e-02,-4.441588736119148617e-01,-2.174280050519229214e-03,-3.309648239093522862e-03,-2.997236408932925193e-03,5.137116909027099609e-01
7.344574742000467560e-02,7.236038967438712666e-02,-4.435843248334132571e-01,2.011427175091356438e-03,1.616457818806498479e-03,9.638845571972266477e-04,5.165103077888488770e-01
1.096911425902032111e-01,2.476473886306182481e-02,-4.722942552174307362e-01,-3.497085681077920921e-02,3.183462851798131345e-03,8.725606281402948153e-03,5.481069684028625488e-01
1.149027758980248337e-01,2.235686379266987878e-02,-4.921557745775887449e-01,-3.997144430027804729e-02,-1.419682177419544786e-03,1.334370712999051814e-02,5.711719393730163574e-01
1.364233957517546059e-01,-1.816505688488274928e-02,-4.730691398132195191e-01,-3.084673920126909663e-02,1.697047605334971740e-03,1.131162050146389264e-02,5.517293810844421387e-01
1.123624281520803347e-01,1.611822170113891284e-02,-4.734930833572147391e-01,-2.327186485423422477e-02,2.500800058734825235e-03,8.539861150081012875e-03,5.458632707595825195e-01
2.541445084292388856e-02,1.967981090461505544e-02,-2.216610084609738629e-01,6.750258775679056009e-04,-4.118533827514439527e-02,1.879116985664586637e-04,2.544650137424468994e-01
5.032493227038073447e-02,4.567937031659854985e-02,-3.335178131901643250e-01,-2.046747473952015024e-03,-4.759116168454401163e-02,-2.419671134549358608e-03,3.903825879096984863e-01
4.282153141794728390e-02,4.521872927407498410e-02,-2.932236466503372885e-01,-5.848575263723225504e-03,-6.629568639420442555e-02,5.932545216403953270e-02,3.709233999252319336e-01
4.562880468616177521e-02,4.034233754729231458e-02,-3.069335766355797412e-01,-1.288487774151286531e-03,-5.234746617329340962e-02,1.200833834754704921e-03,3.615168631076812744e-01
5.332262536887655280e-02,3.954560348277055826e-02,-3.272384771884025989e-01,4.528147800923454890e-03,-7.232596440240918190e-02,1.580316277808085576e-02,3.953194022178649902e-01
2.950294015600211928e-02,2.138212311480212902e-02,-2.132908312530647776e-01,1.642735182683438457e-03,-5.360948791403084140e-02,-2.931484441216638051e-02,2.612492740154266357e-01
7.409214357035195930e-02,7.091933484645165930e-02,-4.450476031654846398e-01,-6.147190288487817261e-03,7.803154916383499284e-02,-3.261765158226321432e-02,5.379971265792846680e-01
6.730503733921272547e-02,6.249429016843421891e-02,-3.994366690169121603e-01,-2.261153455971080025e-03,2.077378402121797529e-02,-1.017313566259688169e-03,4.657667577266693115e-01
6.581260448991896328e-02,5.106462726134136654e-02,-3.832846039380226610e-01,-6.387497245318512692e-03,2.244883243748050858e-02,-1.142922156112193346e-02,4.441944062709808350e-01
6.194632917327030919e-02,5.872722685637266071e-02,-3.829305795075202967e-01,-2.920870284690175404e-03,2.220452695622338046e-02,-7.440873654791630397e-03,4.451567530632019043e-01
4.791971542152032026e-02,4.616708662979274180e-02,-3.255471174132858470e-01,-8.119562613683292858e-04,3.257367389111588685e-02,-2.289478323726824166e-02,3.789243102073669434e-01
8.248748552425747005e-02,6.567548248021440327e-02,-4.368666802334473243e-01,-3.697216244040050018e-03,6.745492132885515160e-04,-1.089715481068145820e-03,5.112004876136779785e-01
4.237948359985471702e-02,3.640641677600010839e-02,-2.857881415434606609e-01,-5.576374765554651183e-03,4.702946978449863008e-02,-4.572521917293354693e-02,3.446309566497802734e-01
7.488215006126083817e-02,6.053637953237894775e-02,-4.119429948828942645e-01,-6.506174209971034251e-04,8.950144983244871094e-03,3.324601552355537989e-03,4.800993502140045166e-01
8.118977284736567102e-02,6.570818777230671981e-02,-4.389798093242577859e-01,-3.813045312555598415e-04,1.071891173511404886e-02,4.735325271049014260e-03,5.130062699317932129e-01
6.127959762591170256e-02,4.667352919093750718e-02,-3.629837537950133530e-01,6.346076235662171175e-03,2.776700182452364329e-02,7.356715562825806576e-03,4.202524423599243164e-01
2.081731669722055034e-01,-1.632362752013978568e-02,-5.306423324959373966e-01,-2.966016132577783265e-02,-1.552209008090540618e-02,-1.333799324418067367e-01,6.979384422302246094e-01
5.961846835510647979e-02,4.936371674053233183e-02,-3.534270760082818263e-01,6.141088383177557668e-03,3.291622571118112128e-02,5.562844094006444938e-03,4.122287034988403320e-01
7.188882999118009764e-02,6.773302816116566483e-02,-4.250306324009489045e-01,5.745080729961370494e-03,5.896700609353489921e-03,3.975555192160012269e-03,4.951079487800598145e-01
7.978776376642082724e-02,6.860907053967382763e-02,-4.384994371989481832e-01,2.940475147334298961e-03,1.710604643076356693e-02,3.731063965109915771e-04,5.136701464653015137e-01
4.440947781231144309e-02,5.254667152195011126e-02,-3.331763882028191404e-01,-1.012356889807069366e-02,-3.158046588263902638e-02,3.194802578462087317e-02,3.899631500244140625e-01
3.629533983457813862e-02,4.222297308550325423e-02,-2.974079605894104361e-01,-5.711109521002900348e-03,-2.591895944421375095e-02,1.750256332149581831e-02,3.411793410778045654e-01
7.933135114115602571e-02,7.770150342093781748e-02,-4.602835241828165391e-01,-6.472999827511618587e-04,-1.178989929114182024e-02,1.704908723864622527e-02,5.399978160858154297e-01
6.453339466612922903e-02,6.783423596782847675e-02,-4.094793721129568187e-01,-1.154020924153992440e-02,-1.496703118921213424e-02,6.740190529383916114e-03,4.769397079944610596e-01
6.621649323551007105e-02,6.668939236425475148e-02,-4.095674565247299226e-01,-1.014665613513836273e-02,-1.209636822801306126e-02,1.198974059049230136e-02,4.772574603557586670e-01
8.723408794819489942e-02,3.161527938373726032e-02,-4.534869141349250343e-01,-2.110874569952316676e-02,9.994711506285239300e-03,1.474662031418085342e-02,5.173849463462829590e-01
6.794187945205976131e-02,7.077577994543060580e-02,-4.174705820914492160e-01,-5.983945801837598985e-03,-2.409618124286342158e-02,2.518992197529712138e-02,4.906748235225677490e-01
9.936098308156404713e-02,2.483761418825142231e-02,-4.683298383826851596e-01,3.098543464155373989e-02,1.006723746766074058e-03,7.387277922738898564e-03,5.371847152709960938e-01
8.931697526894863404e-02,2.817589666122075065e-02,-4.672208204895819672e-01,3.790567664476463677e-02,-8.164768741255242282e-03,6.351539435719779497e-03,5.329885482788085938e-01
6.899135312689769206e-02,6.060811322104703303e-02,-4.582487491379076960e-01,1.476136700343043395e-02,-6.649230336509889296e-03,3.813784704170702835e-03,5.238915681838989258e-01
7.276134374183265696e-02,4.245014058474955165e-02,-4.625531774317096501e-01,7.562652817020552865e-02,1.824828434396697559e-03,1.129432145640515972e-02,5.374059677124023438e-01
8.804796074827250796e-02,4.270640229234515250e-02,-4.655411017549681008e-01,2.099012082646763491e-02,3.001425674393960654e-03,-3.480692038744217977e-03,5.336677432060241699e-01
6.657925854901106111e-02,6.706271895026555407e-02,-4.665611736242677443e-01,3.160854904666544896e-02,-2.689298256434211661e-03,4.873645974304834094e-03,5.362713336944580078e-01
6.986250808002547608e-02,5.051075858122908158e-02,-4.659545505749930761e-01,2.530994200372057440e-02,-3.992590024886513711e-03,-2.561193949513279004e-03,5.282941460609436035e-01
8.814860742474522892e-02,6.681050988265582746e-02,-4.403836601419360286e-01,-9.195477266027318741e-03,-1.755877023883937234e-03,-2.373768919937529684e-02,5.200741887092590332e-01
6.775642048629187952e-02,5.754910759135153930e-02,-3.790394089916285236e-01,2.949913719555635316e-03,4.587697790523438332e-03,4.225359119522543484e-03,4.419422149658203125e-01
5.853716979811277032e-02,6.210804422140203673e-02,-4.403508876489584667e-01,3.321848864591361167e-02,6.252381866666698040e-02,-3.106767493738793809e-02,5.182829499244689941e-01
7.457777739497600811e-02,5.994971054632233787e-02,-4.138680568678198002e-01,5.770133896666734125e-03,1.668875895814937380e-02,-1.869244867107616725e-02,4.833548963069915771e-01
7.820583617478685245e-02,5.448402756054787632e-02,-4.421443897034217918e-01,3.715942644219624551e-03,-5.326469737227917511e-04,-8.097089249696041643e-03,5.091388821601867676e-01
7.936458253624809056e-02,6.818185025713605074e-02,-4.565822746360549966e-01,-1.822454807402485409e-03,-5.217452976363553402e-03,-6.252799859333887759e-03,5.306407809257507324e-01
8.346768444651983532e-02,6.199891895042872192e-02,-4.464049235890402145e-01,5.641195838915855076e-03,6.520787959373659619e-03,-4.065088047335409238e-02,5.244336724281311035e-01
7.248020697047902194e-02,6.246060334345815424e-02,-4.244458157762200368e-01,5.036579437291218223e-03,8.505937576134376191e-03,-3.319428265110760737e-03,4.923241436481475830e-01
8.309028189194908598e-02,6.423393582090319853e-02,-4.455877111063238361e-01,2.336549316319748004e-03,2.410714782511679585e-03,6.614041201362843257e-03,5.196653604507446289e-01
6.421620503477426523e-02,5.451984087112515809e-02,-4.459743812967623677e-01,1.814390710126784906e-02,5.045621850705924241e-03,-2.470475594718087899e-03,5.064817070960998535e-01
8.268832187676183887e-02,2.940022745423304107e-02,-4.527300549962371412e-01,3.886423323622838211e-02,-4.395918682140221440e-03,1.493149661490246471e-02,5.159836411476135254e-01
5.800351397410821730e-02,6.706097545340999888e-02,-4.469062264026623099e-01,1.545034824767933107e-02,2.344289627674629121e-03,-1.993624053621892780e-03,5.102289915084838867e-01
6.716666103374524521e-02,6.776335194033966669e-02,-4.684263353218539039e-01,3.422051667468248987e-02,1.837432307973019870e-03,-2.715902263297461598e-03,5.391893982887268066e-01
6.653438463270444636e-02,9.930843928188851089e-02,-5.080484601337335038e-01,3.323224100155929700e-02,-2.504795747689022873e-03,-2.711899936431657080e-04,5.944604277610778809e-01
3.558850916572459111e-02,1.056898348527325893e-01,-4.841911796551387481e-01,2.374853298700922363e-02,-1.301705751366308630e-02,5.546724840125994219e-03,5.601919293403625488e-01
3.585466954219773683e-02,8.239317304465443303e-02,-4.589788140188745258e-01,6.760119623334530370e-02,-9.653989881127205894e-03,1.014851039373551068e-02,5.332477688789367676e-01
7.580163309352980217e-02,5.032170624862231101e-02,-3.952353369665868033e-01,1.814594824505441888e-03,-1.078290384826233184e-02,-1.653912404612788807e-03,4.592275619506835938e-01
7.199391394944065770e-02,9.574054096924650148e-02,-5.147643553834873043e-01,5.108354971305688330e-02,-1.771327655004651530e-02,6.371087294078999104e-03,6.063615679740905762e-01
4.507936894281616702e-02,7.024676949471325704e-02,-4.607083701870816617e-01,2.971529709711673295e-02,-5.441133860127031138e-03,1.665839294203315044e-03,5.214692354202270508e-01
6.279935406095035755e-02,7.909079190782569713e-02,-4.210477556879907990e-01,-4.590180998406518179e-03,3.543894799571227928e-03,-2.584388617547709807e-02,4.943284392356872559e-01
5.157035609673421561e-02,5.057605502599579750e-02,-3.544199121260369068e-01,4.018663433353764775e-03,3.572819849397283493e-03,-4.878167071474637934e-02,4.143079817295074463e-01
2.360216073221770017e-02,4.403855315565761985e-02,-2.884388213133637358e-01,1.843601616658321462e-03,7.189128810958513027e-02,-8.782173702783314939e-02,3.779119551181793213e-01
4.353705599004295546e-02,5.871688983398481998e-02,-3.033651650986926018e-01,9.124826222793272490e-03,-3.174944001445776515e-02,1.580753589522513811e-02,3.603623211383819580e-01
4.670265800296127812e-02,6.166845966645417842e-02,-3.582354229827121594e-01,-3.724223230026237237e-03,-3.756517807412569545e-03,-1.062378968704722482e-01,4.518876671791076660e-01
5.787561735705992749e-02,7.769245203205973893e-02,-4.148129665404501343e-01,-9.104703775886372526e-04,1.426067191623383267e-02,-2.748431263831039098e-02,4.858735799789428711e-01
5.796396332647388294e-02,6.171468612460723202e-02,-4.456919066004845775e-01,1.844663607721633986e-02,1.965396468682745288e-03,-4.288480649193593744e-03,5.066161751747131348e-01
6.086016795803214641e-02,5.766525007089656762e-02,-4.392793369928058023e-01,-3.923442947495124102e-03,1.655175829867929632e-03,1.278528023125790692e-03,4.986091852188110352e-01
6.027317110865737515e-02,4.184949328078632624e-02,-4.413577578212343200e-01,3.057917508414417090e-02,5.138630116525388881e-04,4.732111124288384488e-04,4.955177605152130127e-01
6.842798258385293653e-02,5.387165482672648387e-02,-4.466027654532965796e-01,1.615382025875294197e-02,-2.653044926543237769e-03,3.668132217207516893e-03,5.087395310401916504e-01
8.188213968387683672e-02,5.310530254162015851e-02,-4.152253066135259685e-01,-4.743051473465551351e-03,5.133920005814270439e-04,9.758387409734886522e-04,4.834354817867279053e-01
6.625390288691146434e-02,4.011903258362059521e-02,-4.442863646372371966e-01,2.942845531359505190e-02,-2.090496319140612222e-04,1.500643387500180236e-03,5.005961060523986816e-01
5.792906334799799439e-02,5.572687495247699574e-02,-4.573151184686091719e-01,3.071780622808949895e-02,3.630932885994327293e-03,4.172037065161919556e-04,5.169309377670288086e-01
5.706448557052226644e-02,5.916676835741610518e-02,-3.700490886728824980e-01,1.203475065988330803e-02,4.225662029881683407e-02,1.883815206890382399e-02,4.361012876033782959e-01
7.487564461424611739e-02,4.738459541941672515e-02,-3.820406924509159863e-01,1.847225896896804737e-03,-1.818253773783463229e-02,-2.574036890070549848e-03,4.449596703052520752e-01
5.054305728202168613e-02,5.385402838916736323e-02,-3.419736964260798873e-01,7.178763312992331169e-03,6.437863393735260287e-02,2.637006203472924346e-02,4.123767018318176270e-01
4.674135474956087055e-02,6.147881502598326331e-02,-3.599054617530021427e-01,6.262660190680330655e-03,-4.522466717407386261e-03,3.431715824040832558e-02,4.186690747737884521e-01
3.233966272457890201e-02,3.971293364194145026e-02,-2.928061171837172405e-01,8.350332496740612426e-03,2.471338215552904005e-02,8.364215058784778625e-03,3.322993516921997070e-01
7.562431904239064195e-02,4.844211963716002489e-02,-3.873857963275178506e-01,4.084834820457754548e-03,-2.062628763592733519e-02,4.772886057466352262e-04,4.515071213245391846e-01
8.407134554089212841e-02,6.466929640284405090e-02,-4.485447031031195020e-01,-6.491763622660397639e-04,3.574271768543195622e-03,-9.578064449514041290e-03,5.234856605529785156e-01
3.551687179068180322e-02,3.079989071233535380e-02,-2.577716200513412437e-01,2.891962648607349778e-03,5.514897719746121585e-02,4.104765033749963737e-02,3.144216835498809814e-01
4.932480706153405392e-02,5.956599223413897026e-02,-3.537922530405139820e-01,8.070983159998565068e-03,-2.043386431299214559e-02,2.258784529653826839e-02,4.119651913642883301e-01
7.744112943841655050e-02,6.132496728210426462e-02,-4.171951954824369424e-01,3.163192076734387508e-03,3.865135494753336315e-02,5.004371641692768012e-03,4.914672970771789551e-01
7.619346214921027260e-02,7.476431308663167297e-02,-4.461450348682898248e-01,-2.269553918714405007e-03,-2.010953934658543652e-04,-1.957264911956143206e-03,5.216513276100158691e-01
6.342104516167143546e-02,7.696001159952164938e-02,-4.466725512855220237e-01,2.572903568458279229e-03,9.923632723253172569e-03,-1.799570356680520308e-03,5.173102617263793945e-01
8.195718932214621222e-02,7.294703004278907388e-02,-4.260112148464812454e-01,-6.528511649089597038e-03,3.597763510719297064e-02,9.551785834829882443e-03,5.077607035636901855e-01
4.107324734548722933e-02,6.488857964710198489e-02,-3.522566155334862503e-01,-2.633087767658897922e-03,6.690990106075779542e-02,-9.066845031109329548e-04,4.220152795314788818e-01
6.106290199490294057e-02,9.451548978243462518e-02,-4.834515531619904549e-01,-8.849367575187483057e-03,-2.136249129067093171e-03,-5.254289117442437380e-03,5.622828006744384766e-01
6.810592249695715528e-02,7.578088520663900374e-02,-4.436977135337513145e-01,-9.865162993111871621e-04,1.102999709861919413e-02,1.640785618003347268e-02,5.168225169181823730e-01
9.337640452938465729e-02,4.288940940713009686e-02,-1.902093754078573173e-01,-1.696157303296120730e-02,-2.685506681827851128e-02,-6.163046168526498114e-02,2.882256805896759033e-01
7.743650338753571560e-02,7.689360876544473755e-02,-4.423449143772326675e-01,6.202786020278702392e-03,1.269004760214199196e-02,8.413992391190526499e-03,5.202900767326354980e-01
5.389282391805116923e-02,8.299642706265172865e-02,-4.384628573528513984e-01,-1.463596200761045543e-03,1.057643095690059820e-02,1.063298683026990543e-02,5.082043409347534180e-01
6.468834367875209157e-02,9.334201074881104399e-02,-4.677286634042483460e-01,2.412677556303525171e-03,7.734390113048288107e-02,2.441403641566762366e-03,5.634946227073669434e-01
5.299396981601195433e-02,5.800629605002644018e-02,-3.653717156208114436e-01,-5.246923461414783243e-04,4.595858974715628237e-02,2.217498652995035513e-02,4.300750494003295898e-01
5.419824295668423941e-02,6.768652779686162857e-02,-4.452916592635549620e-01,-1.826581429337798337e-02,-1.707064305936890729e-03,-2.983084751875449050e-03,5.073910951614379883e-01
5.544424345763132589e-02,5.781275605752383973e-02,-4.442288837879901919e-01,-1.428268785481049893e-02,-2.784092651602177327e-03,1.520841483523308296e-04,5.014954209327697754e-01
5.946181262772845533e-02,6.262665002483328025e-02,-4.424790298628817897e-01,-3.195447636281040921e-02,-7.333395809493761233e-04,-1.437674750097289733e-03,5.065711140632629395e-01
3.873284251902625597e-02,6.791118583410007958e-02,-3.786707876957125518e-01,1.465745523348964928e-03,3.760241693330520357e-02,-6.188903461902857048e-03,4.377436339855194092e-01
6.416527691469656181e-02,6.114505642066125901e-02,-3.882495791004878516e-01,-7.212819927560306862e-03,3.269265974755442700e-02,-3.008068293854999214e-02,4.576013386249542236e-01
6.201293698926738096e-02,6.040274341928963953e-02,-3.901187989698901015e-01,-3.869891656750691460e-03,1.032762101140063775e-02,-2.061276120647138541e-02,4.531415402889251709e-01
7.081356142283934396e-02,5.321183246574770487e-02,-3.818603711429173764e-01,-1.374611163603416814e-02,4.420313192082687970e-02,-2.039376428981796996e-02,4.526941478252410889e-01
6.404077342716532617e-02,7.021063659371812316e-02,-4.256291590103339351e-01,-1.465379401039105731e-03,1.015786473893429305e-02,-5.117091623013000608e-04,4.931051433086395264e-01
7.961185427390196634e-02,6.258611193345817170e-02,-4.152888708273247964e-01,-4.669490300454845998e-03,1.531682625447187626e-02,-5.383901983214477681e-03,4.874902367591857910e-01
7.234452628702739418e-02,6.346164067812318232e-02,-4.101417649667113974e-01,-1.852102529166224729e-03,9.885805530224195392e-03,-7.107872349751789484e-03,4.785823822021484375e-01
7.813283580112664883e-02,6.932854703581600719e-02,-4.391162194969952526e-01,-2.668735125814665748e-03,1.511545636752347800e-02,-5.208585470137055105e-03,5.136713981628417969e-01
5.523955936145186207e-02,6.883794339718443678e-02,-3.857467156429928989e-01,-2.960368639562932676e-03,5.602267473325733826e-03,-5.872537224694106966e-02,4.594746530055999756e-01
4.830239388567250658e-02,7.483365319792859016e-02,-3.844828944283949501e-01,-4.654749573780346712e-03,8.692197205071431655e-04,-1.280009621536347744e-02,4.472674131393432617e-01
3.775794113822066034e-02,5.302968807530231143e-02,-3.209722812641375156e-01,-3.890016561747465865e-03,1.426180185162393040e-02,-2.427099694836706845e-02,3.698944151401519775e-01
7.044187639966412173e-02,7.143026755327855359e-02,-4.395303560085654926e-01,1.783914664305763769e-03,3.990773939555522336e-03,2.120941105079816695e-03,5.105364918708801270e-01
6.663210802309654790e-02,8.375697476225871241e-02,-4.402493161225548013e-01,-1.390016875988858269e-03,1.654510198545109051e-03,3.183648428693472074e-03,5.157002210617065430e-01
3.967916761512627066e-02,5.671793460382304475e-02,-3.334832013600540490e-01,-7.249006932372454096e-03,1.126125184774445266e-02,-3.140893186442578894e-02,3.865182399749755859e-01
4.309368667384626261e-02,5.595909007228527798e-02,-3.341674120932247583e-01,-6.834492668666059326e-03,7.069152675408709417e-03,-3.075377169641354408e-02,3.879078626632690430e-01
3.970727115561888121e-02,5.589842537115446985e-02,-3.375918465273415325e-01,9.163718833087529034e-03,1.426224678913606304e-02,2.305836919996764531e-02,3.888224661350250244e-01
3.961460682686199219e-02,5.698696985444542951e-02,-3.314283531898589152e-01,7.083245349705018581e-03,7.961258599099777303e-03,3.240517840256062349e-02,3.845926523208618164e-01
1.119058913795396570e-01,6.157519588483817419e-03,-4.976128149270216405e-01,-7.286527537471944316e-02,5.208836785035336758e-02,6.204023100302551857e-02,5.948569178581237793e-01
5.540301746282660922e-02,7.845879530804825142e-02,-3.962061674229383490e-01,1.071598319996821570e-02,2.169861323780716139e-02,3.156925826718278566e-02,4.686592221260070801e-01
5.410599866297127747e-02,7.048560963831712600e-02,-3.883814735635721660e-01,4.350218325777289140e-03,-2.754615694882465993e-03,1.623697819196617126e-02,4.518646597862243652e-01
5.999444169680709371e-02,7.608251864359574790e-02,-4.078872560543062020e-01,8.213236272351898473e-03,-4.041783065789323823e-03,9.128212564176587523e-03,4.766558408737182617e-01
5.902233267249579196e-02,8.196960436728698007e-02,-4.206441333224136270e-01,6.345098149691882558e-03,1.359729798497929512e-03,1.165281816245120809e-04,4.916705191135406494e-01
7.340664547110434257e-02,6.992873689795531256e-02,-4.306140639550369853e-01,-3.444801563061259883e-03,-1.160541930714802626e-02,4.809998781047921529e-02,5.095846652984619141e-01
6.208053208678754320e-02,7.911202541250053621e-02,-4.209294116985844436e-01,-6.145459430771072710e-04,-1.147486849022603082e-02,3.718942175872355649e-02,4.963470101356506348e-01
6.270524365255289445e-02,6.934018479127099233e-02,-4.149934872819354137e-01,1.670425025558280440e-03,-2.332748687517352017e-03,1.083147425776939329e-02,4.814418554306030273e-01
7.209804977115280566e-02,6.673740077008458171e-02,-4.341154947962269084e-01,-8.259956321903611995e-04,-4.703466592791036641e-03,6.103134649139958443e-03,5.037334561347961426e-01
6.403775780676793095e-02,7.217129598167520976e-02,-4.134383438940005817e-01,-7.238780651324388735e-03,-1.358260206271463995e-02,1.785021311638203961e-02,4.833215177059173584e-01
5.600233919315192321e-02,6.363506029696494593e-02,-3.759451231075554567e-01,-1.460039125270626986e-02,-1.486629847312328188e-02,2.712290865718034599e-02,4.398218989372253418e-01
6.881888676584568820e-02,5.645697601780094721e-02,-4.493734398429006238e-01,-2.935793161791908079e-02,-7.129623059749131938e-04,6.392147259481344330e-04,5.146442055702209473e-01
1.287682997071673552e-02,9.072989875043863117e-02,-4.674843532743414576e-01,-6.853223679225119158e-02,6.682095627283392639e-03,-1.054143128466217489e-03,5.370594263076782227e-01
2.462729255583487320e-02,1.239382047922412133e-01,-5.479572764377798055e-01,-8.308938415580788273e-02,9.373146655747696329e-03,1.849717734089888557e-03,6.446433067321777344e-01
8.262755136232352582e-02,6.805796394587301790e-02,-4.365625297729422427e-01,3.938965254513686169e-03,6.778611993586580340e-04,6.470925272328681942e-04,5.121088027954101562e-01
3.813194938370800813e-02,6.313522559116485633e-02,-4.404884884440042336e-01,-3.381660245510076379e-02,-3.841821455184234960e-03,-5.457786686196013266e-03,4.952111542224884033e-01
1.530514158891860266e-02,9.627823126029605438e-02,-4.505393934458349348e-01,-4.303032166769066996e-02,2.400099738357601995e-04,7.656594339108546005e-03,5.167393088340759277e-01
3.370414456652873203e-02,1.084124234875573356e-01,-4.960938172915473343e-01,-3.406477514090850561e-02,-6.734290967346108145e-03,-1.219750027646237644e-03,5.739941000938415527e-01
7.348400818230693687e-02,7.644368760860895118e-02,-4.435067847479821634e-01,8.611205451045098654e-04,3.145452694199545041e-03,1.082340473531484895e-02,5.188465118408203125e-01
1.859712823227555045e-01,9.803078411932231173e-02,-7.405143877772805139e-01,-1.133692454583748455e-01,-6.941420580648584304e-02,-1.253624512973063321e-01,9.406346678733825684e-01
7.407916825319599274e-02,6.764321511371756968e-02,-4.367448943344257595e-01,-7.457986704873663560e-04,4.271567412506021948e-03,-1.247120555565147271e-03,5.076968073844909668e-01
8.325600452337944546e-02,6.619124845378906996e-02,-4.611594317696224854e-01,-6.997631689433654947e-03,5.296690808279371984e-03,1.403429780174421902e-02,5.368528962135314941e-01
7.002767938087195443e-02,8.134769429109886540e-02,-4.349143259535517281e-01,7.943651901791521155e-03,1.294358105664285274e-03,3.984722000632007037e-03,5.109329819679260254e-01
7.860185248769027688e-02,6.765238250153202126e-02,-4.384025301159014121e-01,-8.113302630036933402e-04,-5.444339681364958675e-03,-1.367053826178873163e-03,5.117118358612060547e-01
6.753382848749114875e-02,6.151590066071335738e-02,-4.206363039847831886e-01,4.119301611879007223e-03,8.538522453237377963e-03,1.257513596951372915e-02,4.859552979469299316e-01
7.370860223972452996e-02,5.892052539437170333e-02,-4.275759924845449200e-01,-2.201660212881889015e-03,-2.874906994127503993e-05,7.922812356392106362e-03,4.942618310451507568e-01
8.310077820363886980e-02,3.794970046832657484e-02,-4.329525603249532728e-01,-2.686749261491114260e-02,-1.705340599723696986e-03,-3.146484685162712763e-02,5.001937150955200195e-01
5.867867203010351806e-02,7.226150168532874396e-02,-4.164490666867288193e-01,-1.413198776845035190e-03,-1.028619280268542636e-02,-6.912406438590906060e-03,4.825465679168701172e-01
7.794408106979194839e-02,6.010422112490537705e-02,-4.240875628910660278e-01,-1.236533664090431247e-03,-1.063591719010163923e-02,-1.695493196505953523e-02,4.945747852325439453e-01
6.937383500038235562e-02,6.076365962659974196e-02,-4.232099846730292270e-01,1.978242742448495760e-04,-2.667095612113746378e-03,-7.281225030116147100e-03,4.885204434394836426e-01
6.625010240905696013e-02,5.006054591944003596e-02,-4.378097086229121304e-01,3.169562198352454153e-03,-1.277704576089611511e-03,3.502362971862854808e-04,4.961988329887390137e-01
8.358234325347030369e-02,6.361152698965683028e-02,-4.298096826704975726e-01,-2.197604498745884573e-03,-2.736936305912956655e-02,-4.803986383617950967e-02,5.127402544021606445e-01
7.771774478548224008e-02,5.059392862399214597e-02,-3.994534952896861557e-01,-6.499590128577118105e-03,-3.407138822653556220e-02,-6.340733678989367295e-02,4.807870388031005859e-01
6.389468340702497695e-02,6.066486968079412567e-02,-4.185710510688722130e-01,-1.655212968692858569e-02,-4.968321747060242162e-03,-6.736365644208941635e-03,4.819309711456298828e-01
3.329262599702442760e-02,4.287305703048971406e-02,-2.849216738486733957e-01,-5.002296975299833776e-03,-3.649303854698199290e-02,6.236477472153337254e-02,3.466109335422515869e-01
3.800484355643050927e-02,4.210148085347018010e-02,-2.679071016704238639e-01,3.164504005347488352e-03,-5.073920521876868622e-02,5.117573652296843190e-02,3.323588669300079346e-01
3.472547099408314353e-02,2.439426751318202191e-02,-2.511226899512482014e-01,-3.045550238333628174e-03,-3.966625698536015154e-02,2.480108696415420783e-02,2.923287451267242432e-01
7.717860413778721007e-02,6.202217917353058940e-02,-4.166090436370305516e-01,1.072818519720379962e-02,-5.196982356143441291e-03,7.180928802437437078e-04,4.868262112140655518e-01
4.844061467652807651e-02,3.862921016512232963e-02,-3.119426827339354391e-01,-1.110397799226644708e-02,-2.028031183088647993e-02,6.839272263371617457e-03,3.580231964588165283e-01
3.327052803711115503e-02,3.164789095482881121e-02,-2.619808862455498266e-01,-5.975124969946725428e-03,-5.048615316213543591e-02,2.985828835352891814e-02,3.116490840911865234e-01
5.393328195954072424e-02,5.467457955589744012e-02,-3.519702901142898188e-01,-1.098483525621574836e-02,-2.219020256189084550e-02,4.169786599696658630e-02,4.148668646812438965e-01
3.945703649754546405e-02,3.213727872159512222e-02,-2.959663465272138194e-01,-5.692364873906714459e-03,-3.430197286206884688e-02,2.906199915888054222e-02,3.409810662269592285e-01
3.809607919916163654e-02,3.042888554621021868e-02,-2.807794143971523160e-01,-7.763790242607971487e-03,-3.735236503878566761e-02,3.837610765934783980e-02,3.287553787231445312e-01
4.673853990324874919e-02,5.468710763771036931e-02,-3.436784570576076336e-01,-9.527519718196384227e-03,-2.636129528589892246e-02,3.328963811828374031e-02,4.015887677669525146e-01
6.504722897661860403e-02,6.312766411900355701e-02,-3.787929775957530332e-01,-8.583804815527071655e-04,6.567166660905741915e-02,-4.597009744195987291e-02,4.641401767730712891e-01
8.470968619061530758e-02,4.165201014814173819e-02,-4.452637406160347977e-01,-2.461314142613497003e-03,3.255813534994662917e-03,-5.495915808009986699e-03,5.099480152130126953e-01
8.515737322844749158e-02,4.269811145214738590e-02,-4.457186653477020477e-01,2.145426660663757833e-03,-2.490686614953274269e-03,-7.047720964672159367e-03,5.111486911773681641e-01
6.309208040424188479e-02,7.178560559711152922e-02,-4.124950950485288259e-01,1.328946783320035258e-03,1.347574137890772059e-02,-2.237241446529773803e-02,4.821254312992095947e-01
6.888960252328030220e-02,8.640094571004597324e-02,-4.542589924841611282e-01,8.798561374819491515e-04,2.128983447192924275e-02,-2.027228831310007306e-02,5.345532298088073730e-01
7.136324800503474064e-02,6.474972553875818493e-02,-4.054869101467494796e-01,3.172666090716275405e-03,5.408410396127730918e-02,-3.436258839361244766e-02,4.864401221275329590e-01
7.492234232083125334e-02,7.478990512245567435e-02,-4.531033904507521526e-01,-2.991125708674031210e-03,-1.042286606386394997e-03,-1.058396120583001213e-02,5.283061861991882324e-01
6.212852982304933880e-02,6.596287061011926744e-02,-4.122615628480571504e-01,2.813677625487739399e-03,1.667068529939218571e-02,-9.864846198449045422e-03,4.775238931179046631e-01
7.853053140519580810e-02,7.316852461578002287e-02,-4.432333338165210246e-01,5.244025922685809082e-03,3.129237761217364133e-02,-7.841711981607980830e-02,5.393852591514587402e-01
6.903185594967525818e-02,7.451613630927028664e-02,-4.269227089392806374e-01,3.824585158534391655e-02,3.602831880674822046e-02,-4.831638935715497352e-02,5.138158798217773438e-01
5.571608218588541828e-02,5.336659259718554149e-02,-4.380451949629380337e-01,-1.540281908051151574e-02,1.622435283409048921e-04,8.981491107491692985e-05,4.933127462863922119e-01
6.435802742169602353e-02,4.168562842952117098e-02,-4.434057912042693728e-01,-3.015254732786232933e-02,-4.986552336725543714e-04,1.142437445273866876e-03,4.995579123497009277e-01
7.324748020754567879e-02,4.692059757676858567e-02,-4.670893020140099994e-01,-4.242165099255400251e-02,1.993949785176799949e-03,-3.520503129703331756e-03,5.328034162521362305e-01
5.525033501277312742e-02,6.599055614771434652e-02,-4.478763569905895303e-01,-1.898080985390239797e-02,7.047215789945257547e-03,7.754155370346030307e-03,5.099663734436035156e-01
6.704591010456928402e-02,7.665215075878384354e-02,-4.332379797028091950e-01,2.287451595236152709e-03,-5.855815579170382118e-03,6.000612645953124109e-03,5.053797364234924316e-01
6.538537896198484689e-02,7.517706847373353818e-02,-4.172142339469402383e-01,9.624128383653503954e-03,1.375172333539394394e-02,1.982125129400086295e-04,4.884352982044219971e-01
4.728502245847768237e-02,6.407042240664587163e-02,-3.690551027397655504e-01,6.657579104363441774e-03,1.993332430052935714e-02,-1.453069923205450105e-04,4.265376031398773193e-01
6.213962317740892582e-02,7.978117902266326777e-02,-4.094567325254075407e-01,6.221329119693513182e-03,2.789767603091688683e-02,3.411417924972484639e-02,4.868021309375762939e-01
4.178801986936173107e-02,5.440835160914514468e-02,-3.396409568705033299e-01,9.125221156920753501e-03,8.974061829535535939e-03,1.870112202401180701e-02,3.898739516735076904e-01
5.970278873110301809e-02,5.717787588717143654e-02,-3.672256445673816039e-01,1.209185854849107247e-02,1.477468389545191774e-02,2.036102951420186435e-02,4.284081459045410156e-01
7.283735811137526106e-02,7.761081298515121185e-02,-4.443545855336383243e-01,-6.661884874450378505e-04,4.247938537983355224e-05,-4.759009473790399951e-03,5.196617841720581055e-01
7.861754967207765232e-02,6.049693959890772854e-02,-4.150127458533758307e-01,1.377741845410206285e-03,1.241080781750197176e-02,2.758525873985468151e-03,4.853297472000122070e-01
5.145188924344451520e-02,5.360744535462289018e-02,-3.419239335369639865e-01,6.523415864847463899e-03,5.787292494949309446e-02,3.385411229290096607e-02,4.113525450229644775e-01
5.890861689301293835e-02,6.008561314031196643e-02,-3.763033969565101611e-01,7.549951904970814490e-03,1.016527807329116288e-02,2.383728010343551598e-02,4.383021593093872070e-01
7.681762154951521371e-02,5.224088399131598948e-02,-3.957931215203615571e-01,-1.136301273476286906e-03,-1.152202368830090341e-02,-1.492867777173454867e-03,4.612575471401214600e-01
6.541986664989676847e-02,6.271098659566887168e-02,-3.949965063422459788e-01,4.534729902573267357e-03,2.919308015195792513e-02,5.739833467715756490e-03,4.620179533958435059e-01
7.414197011856529795e-02,6.723417247462276647e-02,-4.253179495587172121e-01,8.134533013106928084e-03,6.337536291791776022e-03,3.815871209034235427e-03,4.964075386524200439e-01
6.017613260895551819e-02,5.910615856681331048e-02,-3.781282559401011323e-01,6.482712026392584148e-03,1.168632658137400658e-02,2.559497227469167621e-02,4.406177401542663574e-01
7.107660271221774573e-02,7.222035032930523846e-02,-4.283046142910194032e-01,5.446310916075959227e-03,2.585874687060156149e-02,9.543414205955336183e-03,5.023169517517089844e-01
6.632708099101203292e-02,8.474400249499577931e-02,-4.597084552444917205e-01,-5.809397281619029310e-03,-4.751914169161242790e-02,5.433724451663919652e-02,5.499759912490844727e-01
5.700970061116317211e-02,7.238702091236670633e-02,-4.241130412065838295e-01,6.380066691047261290e-03,-1.134075933097065947e-02,2.745888107236259951e-03,4.895350039005279541e-01
6.050398209681911998e-02,8.304688017504113784e-02,-4.510145664293251921e-01,8.792181559341367969e-03,-1.814403817658756177e-02,-6.871843227329116344e-03,5.244536995887756348e-01
2.433278395809340688e-02,9.120991770661360243e-02,-4.512244383980540396e-01,1.293216481466393300e-02,1.078624400904814977e-02,4.008003925550740650e-03,5.131569504737854004e-01
6.562662425525356280e-02,8.277117319244231552e-02,-4.603642705474166319e-01,9.744355024018361636e-03,-5.523086640136909593e-03,7.239930286836730039e-03,5.352680087089538574e-01
5.441780213192265458e-02,9.756221832489456181e-02,-4.597978846451837853e-01,1.280842156652119840e-02,-4.111327193815259018e-02,8.946517450452563455e-03,5.424646735191345215e-01
3.037639340178660552e-02,7.901512948798691816e-02,-4.028133265224329573e-01,3.799065928585983187e-03,-2.091033392228076881e-02,6.706215490153323924e-03,4.610626995563507080e-01
5.552484941833829568e-02,9.176021098195502601e-02,-4.657717718501144244e-01,-2.238332493907368992e-02,1.773398161000216662e-03,9.208186047814185269e-04,5.417264699935913086e-01
6.461772855883191058e-02,6.808715601570664022e-02,-4.723849673030502405e-01,-3.408145972925504669e-02,-8.548040865294845997e-03,-1.142995846002223086e-02,5.425336956977844238e-01
5.742145031116049902e-02,6.709854333551612537e-02,-5.028077945119717729e-01,-7.346437932305951990e-02,-6.762489531383558466e-04,-1.354802696854114086e-02,5.797541737556457520e-01
9.940415220581547140e-03,1.018671552084518539e-01,-4.560101715025928759e-01,-4.408577518887588087e-02,3.521560530204711267e-03,-5.726606639503040337e-03,5.237938761711120605e-01
-5.286515827653417293e-02,3.876701339722668505e-02,-1.311866794077516385e-01,4.042774964645796942e-02,1.012002060895722949e-01,-5.506988313884264574e-02,2.577464282512664795e-01
2.972469552069759852e-03,-1.284662335698434979e-02,-4.117762550457895743e-02,7.510560848025634633e-04,-1.499320371594207611e-03,-7.556335701639103550e-03,4.099744930863380432e-02
1.485388147151434080e-02,1.340854741984266740e-02,-2.039413651039211628e-01,-6.931135063247836165e-04,3.387082583000044361e-02,-1.995204827183981997e-04,2.258328497409820557e-01
3.563964217651534316e-02,4.160866531164399140e-02,-2.970669606620379710e-01,-5.123216069559000801e-03,2.645260917787744040e-02,-7.353431505778129131e-03,3.391982018947601318e-01
4.025443941854384144e-02,3.233584846049593342e-02,-2.640041977373015492e-01,-7.047934631577277079e-03,5.647167136900732576e-02,-5.489517969213827259e-02,3.301262259483337402e-01
3.853008451594747141e-02,5.752768062014876338e-02,-2.842867778480255292e-01,1.330524203334401342e-02,5.747882296613403968e-02,-2.336149544307220341e-02,3.504057526588439941e-01
9.617735640530455932e-02,5.716323611536949789e-02,-4.649056695228951930e-01,3.569473391500873477e-03,3.168913096998485831e-05,1.880347548503656999e-02,5.436405539512634277e-01
8.086636338243216593e-02,6.024452383729486660e-02,-4.466304746141067095e-01,1.454868987887248527e-02,-2.528917535869329436e-02,7.256579248236304236e-02,5.349310636520385742e-01
8.388189383264577081e-02,5.789632798833047045e-02,-4.497244383521821764e-01,1.618350902655004732e-03,3.214255129428546937e-03,2.565262314497925716e-02,5.230276584625244141e-01
6.261505939244951802e-02,6.206038704832070318e-02,-4.416972314679994405e-01,-4.906269569083663434e-03,-6.444868597428745445e-04,-2.195703875447228403e-03,5.041223764419555664e-01
9.478604987824532091e-02,3.834410290970810542e-02,-4.434003454701672120e-01,6.622464205388070915e-03,8.207957296740378897e-03,1.406533155998610646e-02,5.132067799568176270e-01
7.506734720801916394e-02,6.931381603788308587e-02,-4.327408506730938131e-01,2.965885114919120363e-03,-8.325855109715191854e-03,2.881447572227431586e-02,5.076472759246826172e-01
8.884040194140230273e-02,3.987663129065183165e-02,-3.526160758854564037e-01,2.520299489044269640e-03,-6.945954885863638018e-02,4.939577732259241294e-02,4.443857073783874512e-01
4.754762116735922195e-03,1.547676470583313479e-01,-5.251253134718338877e-01,-4.212790039359349224e-03,-2.399087164078792488e-03,8.487482870187357904e-04,6.187392473220825195e-01
1.920663443120382285e-02,1.123178511573862670e-01,-4.631237730583835921e-01,3.557350587705611529e-03,7.081744186158404723e-03,8.576805486554491854e-04,5.351759791374206543e-01
-2.173939980721560639e-02,1.186381480436621283e-01,-4.543664673560784406e-01,-9.372033864219165081e-03,9.261168469791913882e-03,1.175180298000974653e-03,5.178108811378479004e-01
7.973138272737323451e-03,1.307299493067782814e-01,-5.191764574043908897e-01,-1.284433539292780327e-02,-1.811372333551930546e-03,-2.292156331625852268e-03,5.984877943992614746e-01
4.937507879823233026e-02,4.654189536414465866e-02,-3.288166271015547926e-01,3.369979183275310670e-03,-5.050083362559718014e-02,5.091755058487095614e-02,3.967724442481994629e-01
7.333420853637367953e-02,6.362058620500335437e-02,-4.113279249086366773e-01,-6.253724365398709989e-03,-3.581548128264919889e-02,1.799050775822042675e-02,4.849953353404998779e-01
6.049456850324314017e-02,5.827891563949122444e-02,-3.719221686271210747e-01,-1.059112100525637368e-02,-8.481666829505957531e-03,4.113286484658829067e-02,4.377889037132263184e-01
2.756693635104917606e-02,4.415686848091196492e-02,-2.462309414136523988e-01,1.302824315685041645e-03,-4.762273726649838418e-02,1.413119057073148124e-02,2.952807545661926270e-01
4.294755570197440753e-02,5.881260384158656929e-02,-3.139545776202728455e-01,1.086821808815936763e-02,-8.288113942630422060e-02,2.217803626782300502e-03,3.927722871303558350e-01
8.163974332846118953e-02,7.564358985446392736e-02,-4.347382844744958619e-01,-6.114606588969111189e-03,-4.590336926623035663e-02,7.195788060307105501e-03,5.197834372520446777e-01
6.469174288668413930e-02,5.352401476765775157e-02,-3.753046819411450796e-01,-5.815086581354609978e-03,-2.426770012281089656e-02,-6.368862281154853179e-03,4.368039667606353760e-01
1.294470843115324565e-01,-1.497343859293608082e-02,-4.607264866726705210e-01,-3.761674331932805121e-02,-3.425373139836799391e-02,-1.404124547583461280e-01,5.923182964324951172e-01
7.187859337347335398e-02,-3.547147907907451103e-02,-2.686020654417085596e-01,-2.122428248432924047e-02,8.125640427297530638e-03,-9.139192441441096326e-02,3.427935838699340820e-01
1.180535317319789390e-01,-3.043288282915390663e-05,-4.473297944614187394e-01,2.144855378719876665e-02,-1.794994731675738850e-02,-2.724544229544504509e-02,5.209732055664062500e-01
1.114045419941374626e-01,-3.504490291405747138e-02,-3.371336791170966296e-01,2.409970479628586321e-02,2.796749416974342664e-02,-1.857864292695090777e-02,4.025794565677642822e-01
9.513206586077649352e-02,3.650236671703457891e-02,-4.440543353106894964e-01,-1.149171081052770271e-02,-1.787426956366283204e-03,-5.411660176969210201e-02,5.212855935096740723e-01
1.028288732153613827e-01,5.647163704330332434e-02,-4.469245620204142511e-01,1.113511803013078269e-02,-7.168177740708835816e-03,-6.328228203944165353e-02,5.398452281951904297e-01
9.547280289988208102e-02,5.998818557881327451e-02,-4.515090213817753440e-01,-2.550025504441050597e-03,-7.431204021978691935e-04,-4.028760749516702849e-02,5.347235202789306641e-01
7.043900027459709667e-02,6.478450613328448626e-02,-4.450248767611786338e-01,-5.271817198280801323e-03,8.981389081118177492e-03,7.564921415630382166e-03,5.131445527076721191e-01
6.364959417786988927e-02,7.902656997826562613e-02,-4.400317610458504003e-01,-1.228421373370496786e-03,7.893954747325692550e-04,1.422215805196676633e-02,5.121422410011291504e-01
7.211440270618013626e-02,6.852117151802727957e-02,-4.502453243546962192e-01,-2.545155692272064226e-03,-4.031674853829297044e-03,-5.242387636155198226e-03,5.207170844078063965e-01
7.331899549486053935e-02,6.784499780226269094e-02,-4.459884549308594792e-01,-1.241740437496405280e-02,9.101927849868109155e-03,8.487392325111683955e-03,5.174888372421264648e-01
7.330962678746241745e-02,6.731190234257697358e-02,-4.504163579748724500e-01,-9.552781357121461082e-04,-4.381165120552360862e-03,-4.696110984787135387e-03,5.208744406700134277e-01
7.718907548096787252e-02,6.746339893505140517e-02,-4.339718653170216989e-01,-2.469420446642865870e-03,2.708105006743563928e-02,-9.794691450048355688e-03,5.088368654251098633e-01
7.143219823915136768e-02,8.104566304513891040e-02,-4.477142556368767234e-01,-2.008334326458234217e-03,1.322780551927450580e-02,-1.359664430376108374e-02,5.250598788261413574e-01
7.897805427260123912e-02,7.771773080290059199e-02,-4.464700040329251385e-01,1.569496593897412671e-03,2.602498924570102040e-02,-9.702079042248800550e-03,5.270262956619262695e-01
6.988587211245464448e-02,7.821939223835702726e-02,-4.383350320278328605e-01,-4.771167961426188431e-03,2.112490649314312675e-03,-1.450388632956486207e-02,5.131334662437438965e-01
7.027228740466123780e-02,5.447558135717134320e-02,-4.230755617763652943e-01,6.186159133199678820e-03,1.769130747734919476e-02,-7.447356691211139135e-03,4.868968129158020020e-01
5.473040850943153290e-02,6.714838490061911247e-02,-3.648945241745416568e-01,6.732285780111570139e-03,3.008486962446961510e-02,-3.062287292697569302e-02,4.325675964355468750e-01
7.169932355269567625e-02,5.833312882313376746e-02,-4.064022773478655481e-01,1.942399354156022773e-02,1.944943222182694527e-03,-2.249943075979797535e-02,4.743746221065521240e-01
3.546216819585853997e-02,8.064584990703058121e-02,-4.566774538337370903e-01,-4.205532088685310504e-02,-2.145412659376349021e-02,-1.033940110327235228e-02,5.229600071907043457e-01
2.992297288072029438e-02,1.165966302767039442e-01,-4.957723049774754864e-01,-2.060571847930443845e-02,6.342043680253140825e-04,-4.692491200402410835e-03,5.751285552978515625e-01
1.956253193509208121e-02,1.095902515099704266e-01,-4.809516618483143935e-01,-2.793964693324642312e-02,1.149487538620096866e-02,4.227961465554332630e-03,5.535987019538879395e-01
4.091462222578232111e-02,1.019203739108194007e-01,-5.254062189211581302e-01,-4.468103979209758769e-02,6.531191477884543128e-03,-9.381014255556579390e-03,6.044592261314392090e-01
1.518299194861924550e-02,8.935364625119807114e-02,-4.635424610327590900e-01,-4.909602992110317921e-02,-1.455999666853505410e-02,-7.397698201001320049e-03,5.274638533592224121e-01
6.811794492713085791e-02,5.294301961644651278e-02,-4.411257554080342813e-01,-1.440283218776478719e-02,-1.100940508893214148e-03,-2.051997591854255558e-03,5.024642348289489746e-01
3.009822004636436565e-02,8.510483615349154207e-02,-4.628914026382073277e-01,-3.200946964468440181e-02,-2.406389265208475504e-03,-5.385637253701826450e-03,5.256999135017395020e-01
3.441654138105096350e-02,6.608203714207783186e-02,-4.410575379492509551e-01,3.041467694640687808e-02,1.770258142423495554e-03,-3.329362498035636810e-03,4.949265122413635254e-01
7.674575012493189963e-04,1.925649215083281574e-01,-5.417028636595164759e-01,-1.832193949258092980e-02,1.163276239981637511e-01,1.891665109184389321e-02,6.912175416946411133e-01
6.312622322347424819e-02,7.468841545307303154e-02,-4.457769152477505381e-01,1.367206222842201006e-03,2.757325618435626634e-03,2.973067621091971501e-03,5.148350000381469727e-01
4.744311444104065689e-02,6.695620518493491935e-02,-4.434024101095477843e-01,2.012226992260227748e-02,2.747893007359288910e-03,-3.166867123028519523e-03,5.021508336067199707e-01
5.795660511375377855e-02,7.025480334340011845e-02,-4.489176853701289382e-01,2.507088517429680724e-02,-2.597737067904275221e-03,-5.729479362332140849e-04,5.149886608123779297e-01
6.181048830178464959e-02,5.952329944547890550e-02,-4.409598912287084338e-01,6.598779985994531611e-03,5.696493286917117408e-04,2.355531524667950751e-04,5.017620325088500977e-01
5.895823017876805627e-02,5.527810695894577742e-02,-4.396531718328219873e-01,1.206579086063448887e-02,-5.639834661208330095e-04,1.606665334991317848e-03,4.972296953201293945e-01
6.610761708455581420e-02,5.206487492065506317e-02,-4.406170665540317666e-01,2.251410445867066921e-03,1.403344749334122692e-03,-6.852750957597960896e-04,4.998738169670104980e-01
5.802243881045338059e-02,5.997804703187048503e-02,-4.462220655836652838e-01,1.205042064570338058e-02,6.373956766033559568e-03,-6.392346372144220093e-03,5.058977603912353516e-01
5.783123297880032876e-02,6.609348708043452647e-02,-4.467587800211664795e-01,1.629614389540684841e-02,5.585903751076299814e-03,-8.735496394726979114e-03,5.098702311515808105e-01
7.884754618801428916e-02,6.924217396917048406e-02,-4.362159400451927627e-01,-1.396392620729206306e-03,-1.908113912144304930e-04,2.314985218296933787e-03,5.103501677513122559e-01
4.013785203567488136e-02,5.445256719569369075e-02,-2.895636970956868561e-01,-3.010970595277571559e-03,5.718364314322681163e-02,9.218922438437299541e-03,3.517380654811859131e-01
2.987438447311509260e-02,4.409810732812313727e-02,-2.707608245863578622e-01,-8.656728617952419956e-04,1.388689950718481787e-02,-6.115903605849269675e-02,3.265915811061859131e-01
4.535865905191711900e-02,5.454634323008425434e-02,-3.311147276526371641e-01,-7.951764652347479909e-03,1.984814607497966191e-02,-6.898545532799882363e-02,4.011534154415130615e-01
4.433150917696340731e-02,6.629020066105120734e-02,-3.660327150558719822e-01,2.802924301820237029e-04,-1.697743598860848319e-03,-5.203039956219516343e-02,4.313031435012817383e-01
3.005991548991389373e-02,3.571564560948722877e-02,-2.887995554364804485e-01,-8.755710205356558029e-03,6.016508668783207905e-03,-2.925576818575717844e-02,3.262100815773010254e-01
1.955252870750005811e-02,2.607002865880810039e-02,-2.355491893736478548e-01,-7.448379130534634948e-03,5.354637207462795145e-02,-6.883312944324909699e-02,2.996065318584442139e-01
1.495270347433377833e-02,1.509425407640069272e-01,-5.055855801616568890e-01,1.519169663884700414e-02,-1.699261178154874014e-02,4.124242688095668130e-02,6.057249307632446289e-01
2.699700157018702917e-02,1.044426744677915964e-01,-4.599701097122809723e-01,1.264470852015857003e-02,-3.637757200937592663e-03,8.183422585397174404e-03,5.306303501129150391e-01
4.752302750969711331e-02,1.063199362169096884e-01,-4.859781719521272803e-01,3.083845802980722701e-04,-2.196693291822255159e-02,-2.716140251981264200e-02,5.684276223182678223e-01
1.546986863445533322e-02,1.098639058282031011e-01,-4.353906063124272641e-01,-1.000589989986544470e-02,1.313528469853280853e-02,-1.319619121553865064e-02,5.060477256774902344e-01
1.278132544370080836e-02,1.052829051925989190e-01,-4.552695350918526396e-01,1.020106836876932561e-03,-1.210032739581702946e-02,1.065130685845393568e-03,5.209312438964843750e-01
8.182269429095118118e-02,6.870287298402091847e-02,-4.371698923433224304e-01,-1.257376684732624487e-03,4.658347580892127551e-04,-1.246046245571436019e-03,5.125684142112731934e-01
4.596976595371379815e-02,1.217921893366363251e-01,-5.037197559229176225e-01,1.296686072173084889e-02,-2.532554458137407233e-02,4.552761844225303167e-03,5.933609008789062500e-01
7.487629970739612117e-02,7.474129823415595619e-02,-4.482528979469598274e-01,2.267889780908010711e-04,-1.423112944968063899e-03,-5.978980440611150271e-04,5.230686664581298828e-01
1.252440545317591858e-01,2.750265711221125398e-02,-5.234680022339524008e-01,5.536485487537771977e-02,1.334643605377969916e-02,-1.165411097043457869e-02,6.140947341918945312e-01
8.126118724614400657e-02,5.041154265387751132e-02,-4.692242877321771144e-01,3.538721507714955722e-02,3.663419782285947182e-03,-2.004390783878065747e-03,5.392705798149108887e-01
1.147295596535459206e-01,2.276276870140411801e-03,-4.644949699822010780e-01,3.400685669448716419e-02,-3.603295585466499782e-03,1.207186660913816580e-02,5.356833338737487793e-01
8.883081360563319095e-02,3.572382344121988185e-02,-4.629899944799588662e-01,2.420846551462366505e-02,1.039871262790800777e-02,-1.427779958246152940e-02,5.298255681991577148e-01
5.966960610430402379e-02,7.044802404265082529e-02,-4.458515692755241067e-01,-7.640687725142154829e-03,6.440162781762798737e-03,7.068075894085260741e-03,5.114352107048034668e-01
6.676306617532415388e-02,7.028876934748676253e-02,-4.415054042449589877e-01,-5.818449019590657065e-03,1.100738748894124425e-03,-1.106727579833024101e-03,5.101471543312072754e-01
7.101358695351148165e-02,7.295204822998310745e-02,-4.428525418060182961e-01,5.872376417843269648e-04,-9.172186449723432680e-03,5.311447204130264298e-03,5.151662826538085938e-01
7.160264076705721847e-02,6.897313255386300357e-02,-4.419101056126334415e-01,-4.157686482357501011e-03,2.422208330087535343e-03,-1.145907811549778162e-03,5.122746825218200684e-01
5.804957700388488351e-02,7.474414065197831913e-02,-4.491117372390142637e-01,-7.909818078356814844e-03,4.287748701715482459e-04,-1.984073138634425814e-03,5.159052014350891113e-01
6.013696450602568078e-02,7.139775437265633018e-02,-4.418564650624736689e-01,-7.415869417454899054e-03,-5.670898641201195176e-03,-3.733974521535528453e-03,5.080161094665527344e-01
7.641866384830295345e-02,6.521119632065944249e-02,-4.180998468107710586e-01,7.032235547650148716e-03,-7.148441446970090450e-03,-7.745697715846542805e-03,4.895033240318298340e-01
7.381193776167949139e-02,7.083165993885204292e-02,-4.389053945052998618e-01,2.720000552651735768e-03,-8.468415421322745759e-03,-9.644641691999644023e-03,5.117384791374206543e-01
6.588257793646934424e-02,7.092906591994135868e-02,-4.200413942427920211e-01,-3.333936801355649390e-03,-1.363901711469027792e-02,-3.818484460782144672e-03,4.891164898872375488e-01
3.648174639364301641e-03,6.741953588481203186e-04,-1.244703700655632184e-01,-1.913103760034457011e-04,1.127018689462939011e-01,-7.653628505141797309e-03,2.330732941627502441e-01
6.683887350995465493e-02,6.275603499789478290e-02,-4.012269189163317762e-01,8.321160899242995360e-03,-1.588708361488701953e-02,-2.140445400297359864e-03,4.670865833759307861e-01
6.967797068998976551e-02,6.176605263793591427e-02,-4.030746629642841805e-01,6.039906908051433793e-03,-3.062725109730763534e-02,-1.977101872460327453e-02,4.731949567794799805e-01
6.472116449450054931e-02,7.651196398229120899e-02,-4.339746346978714531e-01,-2.095090062666161729e-03,-2.312860937980955670e-02,-1.118319950464416457e-02,5.066652894020080566e-01
9.052928999730205928e-02,3.068159273275131160e-02,-4.510005937748418625e-01,2.516223652065432276e-02,-4.098921120914744524e-03,8.689042496476146338e-04,5.161193013191223145e-01
1.829831373023620145e-02,1.595371993074853889e-02,-2.368308427501033542e-01,6.973408252216562690e-04,2.155401050932123294e-02,3.196408810345681157e-03,2.567567825317382812e-01
7.270037423594372106e-02,5.503907560937121302e-02,-5.081662918459286526e-01,5.834258315477393320e-02,-8.090340372865668581e-03,1.642250173819372050e-02,5.819588899612426758e-01
6.559130771661003667e-02,5.326147768748140665e-02,-3.833810503611511100e-01,-5.065656878529849541e-03,-3.262764399484212319e-02,1.685344621817991273e-02,4.475659132003784180e-01
4.485075879894394324e-02,2.872036751647472075e-02,-2.929819479086261946e-01,-4.020023975268346289e-03,-5.372786939837925768e-02,5.582396658374100783e-03,3.431381285190582275e-01
7.115637442997160833e-02,5.879029211176436953e-02,-3.981017661997683366e-01,-2.241559345881487687e-03,-3.337439334972983063e-02,3.007789822801695996e-03,4.668372273445129395e-01
7.052822890367227426e-02,6.801142242162649953e-02,-4.052218695956009142e-01,-1.930891399480419782e-03,-3.210644047117311439e-02,1.953551656622853731e-03,4.777679741382598877e-01
4.774757711904409341e-02,3.991732915197127030e-02,-3.002884460596043636e-01,1.567885539245138758e-03,-6.720604028227598892e-02,-9.239947083699720856e-03,3.637013137340545654e-01
2.585863228689511129e-02,2.244426326717259557e-02,-2.292475969271727809e-01,4.379835146323758990e-03,-5.472461892385984544e-02,-1.542327131103423277e-03,2.706822156906127930e-01
4.294794577519357726e-02,6.134638940712436317e-02,-3.245437022654252823e-01,2.628513360424755002e-03,-8.126192123279980806e-02,-1.838624168448697860e-02,4.037267267704010010e-01
4.703091326970954000e-02,8.594627667261925397e-02,-4.656978002774698755e-01,-2.440424496484798478e-02,-3.594604482159642015e-03,-9.687273775502314860e-03,5.352243781089782715e-01
6.698307045798734816e-02,6.802682269938417625e-02,-4.650678717015991892e-01,-2.473078580331143639e-02,-4.285991844972743964e-03,-1.659335718284817322e-03,5.343527197837829590e-01
5.808115146340633861e-02,5.813924764232306086e-02,-4.589949577343234166e-01,-6.515350006194847721e-02,-2.585572867939174915e-02,-1.734433860516533098e-03,5.311753749847412109e-01
6.613854247045330981e-02,7.255202620236567146e-02,-4.641611937255987752e-01,-2.971286630815302143e-02,-3.583662107019406403e-03,-2.027710769197933055e-03,5.360592007637023926e-01
6.158470266586965614e-02,6.594714599291506829e-02,-4.446008054698925016e-01,-1.729066405629285305e-02,6.276938132787454779e-03,3.783470214145727775e-03,5.094203352928161621e-01
6.171607488246086404e-02,6.320775948660325994e-02,-4.377341432135565258e-01,-2.097371489077588802e-02,1.184342321639015108e-02,1.686497161448484482e-03,5.019429922103881836e-01
7.175980981593826913e-02,4.106175986239810061e-02,-4.588244036417518656e-01,2.491818184088892552e-02,-2.443156281420235786e-03,-3.710193281833218740e-03,5.177798867225646973e-01
5.157921609322146939e-02,6.907847557996313337e-02,-4.431000241645774995e-01,1.521365427469384066e-02,-1.739696543727162681e-03,2.801416192609772031e-03,5.043781399726867676e-01
5.680209096386384937e-02,5.705966847445889667e-02,-4.459857161432484451e-01,1.282264903006300610e-02,2.530993543933924422e-03,3.626275499744660569e-03,5.034650564193725586e-01
7.610193973460649408e-02,7.465134308787782502e-02,-4.490200236325490035e-01,6.570805213871474225e-04,8.254980725001471651e-05,-3.261014689926834752e-04,5.243997573852539062e-01
5.494071567671812706e-02,5.671387942007058425e-02,-4.391874702297240418e-01,1.470775957164505501e-02,-1.543562270097602980e-03,4.998810553827245364e-04,4.956801831722259521e-01
5.614417381621175651e-02,6.526574431555853817e-02,-3.876412447707936471e-01,9.906868933616129816e-03,-1.385946761467378181e-03,-1.490014321424164420e-03,4.487578272819519043e-01
8.662058395797664345e-02,7.219656341876085071e-02,-4.965886282158155640e-01,-2.259875745406087974e-02,3.406193181498005235e-02,1.621148365022951135e-02,5.811454057693481445e-01
4.219674546828833250e-02,9.922698851466246750e-02,-4.605708506452365070e-01,-3.775453181019097770e-02,-1.255016270651153039e-03,4.682376807258039307e-03,5.376312732696533203e-01
5.473703432652091139e-02,6.202939607175894654e-02,-4.515612193858190015e-01,-4.093109164419743429e-02,8.674136924172380593e-04,5.973930197861313830e-03,5.149937868118286133e-01
9.083340774273920837e-02,5.094817153044015057e-02,-4.845679424813351677e-01,-4.129175206363994849e-02,1.369579072080785026e-02,-1.036507434264072845e-02,5.618964433670043945e-01
7.869328352480806088e-02,4.797194264644472073e-02,-3.983472988965294781e-01,-5.319011211169319018e-04,1.118876430901211833e-02,-9.216362279413325672e-04,4.628554284572601318e-01
5.878005478866746292e-02,8.342570564081941420e-02,-4.487231751609914721e-01,-1.353069481629672055e-02,1.025952591399274111e-02,2.302780702391370171e-02,5.226189494132995605e-01
5.814406302814945082e-02,6.757096444752605513e-02,-4.468840591926786510e-01,-1.795079101384442280e-02,7.313527890535952155e-06,1.563162055874107092e-03,5.107613205909729004e-01
7.368358376341641036e-02,8.299904219677739503e-02,-4.587764302091798529e-01,-5.171691621286153562e-03,6.544982292532057142e-03,1.529142619790592982e-02,5.380249023437500000e-01
8.272415211617742403e-02,7.044885184100813103e-02,-4.450492913935748529e-01,-1.713352032832668893e-03,-4.003428921850468204e-03,-1.735893503227464761e-03,5.218073129653930664e-01
7.158923177011489170e-02,7.366701514974074994e-02,-4.410462494757244056e-01,4.726492856704193370e-03,-5.333663311809868496e-03,4.815062734234020641e-04,5.138264894485473633e-01
7.559330473664643835e-02,7.097312775318287414e-02,-4.413348993577077550e-01,2.412472872304551649e-03,6.681570162402172830e-03,1.167762703394164929e-02,5.151779651641845703e-01
7.641461516928316211e-02,7.222843313561413958e-02,-4.422321629599543225e-01,4.470972898647059685e-03,1.339094282620212264e-03,-1.593980701730808060e-03,5.166370272636413574e-01
7.006660896611086042e-02,7.359292655218657719e-02,-4.336373645158149714e-01,2.570695365049200515e-03,1.203377900128545057e-02,1.370663931544369857e-02,5.064821839332580566e-01
6.678787997731672199e-02,7.919440222375379035e-02,-4.266484969252700155e-01,4.706965692640390810e-03,1.192113719905595753e-02,-6.198618178737949277e-04,5.002490878105163574e-01
1.660221420519408797e-02,1.766786271393498420e-01,-5.503841946734115975e-01,7.695980507145917804e-02,-1.419728766292605582e-01,8.079458257246488473e-02,7.319015264511108398e-01
7.153970887824165348e-02,6.756525858895201520e-02,-4.366303363276631821e-01,-3.788195177985924887e-03,1.336037780902907257e-02,-2.430159275364018683e-04,5.067658424377441406e-01
5.962601954809262916e-02,4.583418419721604908e-02,-3.510007450616294822e-01,4.737583326311473574e-03,3.248322092859819155e-02,5.715932147407096035e-04,4.078909754753112793e-01
5.610170571170805531e-02,4.153738965779199543e-02,-3.463451048728606874e-01,9.429390247449815146e-03,1.532006424871534475e-02,1.181263409514317873e-02,3.971191942691802979e-01
5.818200879919591118e-02,4.914708694001840295e-02,-3.497073573206836983e-01,6.490103411378421450e-03,4.277574558128623833e-02,5.221741125349144141e-02,4.201972782611846924e-01
6.486725236674095729e-02,7.824778072092394843e-02,-4.282791768104535213e-01,6.992971395337408812e-04,-2.398330258214656854e-02,-3.615615203150733536e-02,5.055886507034301758e-01
6.846062836360169990e-02,5.823285552583054581e-02,-4.234697454475974676e-01,-1.514173182007719611e-03,4.988283886759006976e-03,-8.782284865738202925e-03,4.872182905673980713e-01
5.046170863512935978e-02,6.141450076327906182e-02,-3.498138826070243956e-01,9.356617430274236178e-04,-1.668955665223721338e-03,-4.479522641116444326e-02,4.132256805896759033e-01
2.469870609874652567e-02,2.409943512605078331e-02,-2.614358123194429062e-01,-4.008094542821206193e-04,2.391159632133436908e-02,4.507206807442815447e-03,2.889265716075897217e-01
7.285404484394411573e-02,7.285802865654544824e-02,-4.439241476339427783e-01,1.517949939647657851e-03,1.869727164039971178e-04,2.404082050540239188e-03,5.168037414550781250e-01
8.197867934379143851e-02,6.237379706833212634e-02,-4.415618496379972724e-01,3.653461915451802246e-03,1.539427020463578558e-02,5.786716684508932951e-03,5.148461461067199707e-01
7.792222598334763717e-02,4.181942267472057995e-02,-4.042666395277634273e-01,-1.441811989602162850e-02,2.026329074286385007e-02,5.126631960758874090e-02,4.755431711673736572e-01
4.051385865717427315e-02,2.881804528107244356e-02,-2.992608767254204549e-01,7.940269945759298367e-04,-1.384481173642548163e-04,6.629863070450140242e-03,3.342806100845336914e-01
6.723060550491052889e-02,7.538803979373565056e-02,-4.145067129644777193e-01,-2.025180316262553161e-03,1.454089468771837049e-02,-9.895620883687435664e-04,4.865354001522064209e-01
1.254327779328969772e-01,8.290991095739927430e-03,-4.721422777652784508e-01,-7.009589722234622899e-03,-3.829885450635084690e-03,-5.290527476959203714e-05,5.486424565315246582e-01
1.070537049719816891e-01,1.980894316443398973e-02,-4.538957869763671771e-01,-1.915615299434618099e-02,-4.464043781277270313e-03,-6.984720900009170307e-03,5.240640044212341309e-01
1.113291323675256461e-01,9.686494469269196772e-03,-4.826954817501660777e-01,-4.726246599484191374e-02,-6.938995160882464354e-03,-2.336468617308928852e-02,5.579441189765930176e-01
1.190573770889995497e-01,4.167821867122314949e-02,-5.354551520891636107e-01,-3.501400042108805677e-02,1.058053234323039042e-02,-1.626440801714331905e-02,6.233264803886413574e-01
8.795780322674340290e-02,3.178379495900313101e-02,-4.496981622141373314e-01,-2.784757926286011986e-02,-8.182300711551506942e-03,-6.299832132761399965e-03,5.144643187522888184e-01
7.785841908021257085e-02,7.615890930011931514e-02,-4.437453421494717554e-01,-2.739498799543397135e-03,-1.499752276731226852e-02,2.068331530530031874e-03,5.214374661445617676e-01
7.596205029386585150e-02,5.710003984162892454e-02,-4.086513415153931184e-01,-3.347531111505843565e-03,-1.859984623394827369e-02,8.463940027534786609e-03,4.768139421939849854e-01
7.634775938117463467e-02,6.372359665950363961e-02,-4.217809762465326018e-01,-3.847334799838934664e-03,-4.123907400991175254e-02,-5.737198853519959348e-03,4.972406625747680664e-01
3.294400798758256865e-02,2.399713654421392617e-02,-2.686693442826037503e-01,-7.562665584884553649e-03,2.955915726587209427e-02,-1.134281588585860784e-02,3.025408387184143066e-01
3.582154891885226677e-02,2.459657098053653901e-02,-2.606606018989493512e-01,-5.615632788333353199e-03,-2.530051475561983718e-02,2.333632929738282610e-02,2.972345352172851562e-01
2.359469965962672500e-02,1.538416015620391875e-02,-1.885291154064162589e-01,-1.337132709446769985e-03,-4.868530259923005421e-02,4.252821058473327948e-02,2.363564223051071167e-01
3.017468158583401505e-02,2.398573596481928805e-02,-2.394444247074481447e-01,-2.540766736573454865e-03,-4.010918405454574898e-02,8.269131844890441341e-02,3.105209767818450928e-01
8.203206565885337587e-02,5.044068925173855744e-02,-4.479829992692850871e-01,4.276994611412789429e-03,-2.652023316713163605e-04,-6.704900058951332280e-03,5.151310563087463379e-01
7.680195332819245158e-02,7.396732249721538199e-02,-4.487459112092419544e-01,-3.588418277822959419e-03,2.077088253545728187e-03,6.544521803916067372e-04,5.241867303848266602e-01
6.883057501515016385e-02,6.645419730410687120e-02,-4.459177180132675167e-01,5.933200688889120680e-03,4.688165907140199110e-03,-1.178756227233444288e-03,5.137352943420410156e-01
7.184346866263713327e-02,7.662556098116510284e-02,-4.415981732463327702e-01,-3.923415983322432569e-03,-1.892732668029723387e-03,6.988800152094175669e-03,5.160464644432067871e-01
7.286952043222766351e-02,7.772293842205862946e-02,-4.470032570502820435e-01,-3.885019789017010554e-03,-2.616101504666492640e-03,7.360092937176806148e-03,5.225349068641662598e-01
7.247681868357222501e-02,6.721463311006956043e-02,-4.386746851216266618e-01,3.782016405838477865e-04,-1.705465847208343386e-03,-1.096886736279862641e-03,5.085533857345581055e-01
7.386340447320294267e-02,7.386921873454460608e-02,-4.475841459135103673e-01,-1.210435772478585812e-03,9.747768838114004818e-04,5.452887569692324143e-04,5.214582681655883789e-01
7.119741851616095962e-02,7.328849830580647096e-02,-4.363276112409978369e-01,-6.542148122515453745e-03,-3.029952325117426376e-02,1.434208326775370662e-02,5.120028853416442871e-01
7.239150754130671550e-02,7.470923412126401209e-02,-4.550156539345608375e-01,1.909034067847856231e-03,-1.273931673394852531e-03,-1.506562886626227867e-03,5.285912156105041504e-01
1.016980903179680318e-01,4.390577375522272674e-02,-4.812255027139114016e-01,1.416461741404474728e-02,-1.787231491966896971e-02,8.103268363945460850e-02,5.750742554664611816e-01
9.030161906737635413e-02,5.577195986077751466e-02,-4.559199248513737257e-01,-7.945471760050231910e-03,-1.106284848657736707e-02,9.357715869797247205e-03,5.305739045143127441e-01
6.648355024758056953e-02,6.344641616522614380e-02,-4.058733575518733705e-01,5.731221429568437997e-03,1.528254190662165293e-02,6.544164873073569054e-03,4.718298017978668213e-01
6.286219001279552687e-02,5.785387052473645042e-02,-3.838957380630503846e-01,1.668172745443435596e-03,-4.802205041732510865e-02,-3.326424217412071727e-02,4.556604623794555664e-01
6.446986208374691496e-02,6.827685091249413585e-02,-3.989168065905955851e-01,8.779978532091810631e-03,-1.964314052704432129e-02,1.277412447995172982e-03,4.667970836162567139e-01
4.582961240793334556e-02,3.602350758326826330e-02,-3.026619841973030578e-01,6.940566475186057613e-03,-2.042070528529761966e-02,-1.294231703086882838e-02,3.464437127113342285e-01
7.261481500294325597e-02,6.163822395846596525e-02,-4.190598438988308305e-01,2.310399590755347291e-03,-6.635829289230283159e-03,-8.374188500811671721e-04,4.864337146282196045e-01
7.019211987917997608e-02,5.783038685690511382e-02,-3.900958325020502659e-01,6.631052498617185861e-03,-1.288155735014799748e-02,1.250302619366113963e-02,4.554410576820373535e-01
5.855571291810834911e-02,5.897666075413499076e-02,-3.645303098344914727e-01,8.466941836036566763e-03,-2.864054568615707549e-02,-3.955940616574871171e-02,4.319152832031250000e-01
7.086299428209841267e-02,6.772807943649145068e-02,-4.178765303676368337e-01,7.354115286667971957e-03,-2.949532363578511937e-02,-2.851089964202070323e-02,4.924985170364379883e-01
6.327360310700058665e-02,5.336551421497118253e-02,-3.727729652895506174e-01,6.199495625508281635e-03,-2.679673232504009225e-02,-2.341996901165969980e-02,4.356941282749176025e-01
4.696966045662628875e-02,3.564322747972419048e-02,-3.048382249261920585e-01,6.942054518836473370e-03,-5.990964319754054496e-03,-2.795291725206637198e-02,3.500124216079711914e-01
8.240245977349305861e-02,5.451995073270904379e-02,-4.215283436300248932e-01,2.669950429283123408e-04,-4.189172210654607161e-03,-9.522496028312680411e-03,4.909152090549468994e-01
4.057936073260251519e-02,6.320786178378470788e-02,-3.485647115369006066e-01,2.520705099800105934e-03,-6.798573735857048718e-04,-4.496027898089415692e-02,4.084551930427551270e-01
6.350512386565937417e-02,8.233578478065883832e-02,-4.328686736008512392e-01,-4.609844138747780720e-03,1.637695831907626546e-03,-2.932831013972801975e-03,5.061483979225158691e-01
4.687277632255146265e-02,7.232526129564129103e-02,-3.774705565895372650e-01,-2.702224842742877685e-03,2.311652507965995199e-03,-1.720872075192831849e-02,4.386821687221527100e-01
7.690543374547645361e-02,7.556100594010867200e-02,-4.489504363547964783e-01,-5.549179955794293758e-04,3.058582542153451701e-04,-3.016013476891414493e-04,5.251863598823547363e-01
5.708359064137241701e-02,6.537002699097987923e-02,-3.832460364686195997e-01,-4.604361880493654940e-03,5.674960305642347096e-03,-2.785660312108315800e-02,4.473206996917724609e-01
7.418024472273099246e-02,6.012974653544106429e-02,-4.196672393778562160e-01,2.177646363209708607e-04,-1.864357866345139967e-04,-1.393320266181396691e-02,4.875721335411071777e-01
6.676922821901157268e-02,8.066340424413143140e-02,-4.365133258174683228e-01,1.106110545813821650e-03,4.879616651536808044e-04,-1.402373110616466148e-02,5.109534859657287598e-01
5.334632947621112398e-02,7.982934805770020015e-02,-4.120421123823690412e-01,-2.628689823003468352e-03,1.656939073505380019e-03,-1.512635545878338213e-02,4.799250364303588867e-01
6.081977358306983605e-02,8.034882355643110929e-02,-4.202052372303406447e-01,-5.218801186939622978e-03,9.999922180066512546e-04,-1.672229081007385251e-02,4.920203387737274170e-01
5.366901361470485798e-03,8.661140594726973729e-03,-1.759170719863837329e-01,2.021071927300131365e-03,2.203835846588971317e-02,-2.985206771849421153e-02,1.939450502395629883e-01
4.471232672214567327e-03,6.325957167622159316e-03,-1.771698481492206823e-01,1.272303698734701411e-03,1.874035526640889515e-02,-5.049092483011534231e-03,1.856576353311538696e-01
1.259570095235089393e-02,2.086073054710563257e-03,-1.719198429871347522e-01,-1.249029691663700297e-03,-3.771077506970704762e-02,-1.763646492384981709e-02,1.934460401535034180e-01
1.670502408795021543e-02,2.176522420678524139e-02,-2.565888043694004583e-01,2.257437160096054628e-03,6.023233821720937620e-04,-2.321188054328159056e-02,2.788024246692657471e-01
6.994070496113710678e-02,7.167099962933529134e-02,-4.366602819278767034e-01,-3.208050142933289821e-03,-2.731848728387479067e-03,1.409435728084430534e-03,5.075266957283020020e-01
6.110328336667730786e-02,6.262166031762103624e-02,-4.403927532824871705e-01,4.348998391033781280e-04,-4.382285588944528866e-04,-4.861316424079727356e-04,5.022587776184082031e-01
7.193509971758491051e-02,7.048495105843843866e-02,-4.467160117051178769e-01,1.565555011498656786e-03,2.871184124727865338e-03,-5.838089202928652480e-03,5.180572271347045898e-01
7.079609684905907585e-02,7.600000554428990029e-02,-4.377021238138479320e-01,-4.098408854184938492e-03,9.197941685262158926e-03,-1.249534154975565428e-02,5.118752717971801758e-01
6.963362613550652669e-02,7.542813316003826873e-02,-4.332403616621466336e-01,-4.262406086009769453e-03,6.803690332491196292e-03,-1.051502763801667219e-02,5.063149333000183105e-01
6.964126188454314303e-02,7.518885482605522363e-02,-4.268870220741332044e-01,-4.772817159301323379e-03,2.501206408058775574e-02,-2.268725361825599945e-02,5.028070807456970215e-01
6.587148390324404357e-02,6.640013311258785578e-02,-4.096737893465637326e-01,-3.727047908597022965e-03,6.074090123706754780e-03,-1.683934405788166735e-02,4.768626987934112549e-01
7.316823149649223645e-02,7.414676668553482619e-02,-4.405694426866300639e-01,-3.916809029904391726e-03,-9.664994148845702251e-05,4.904258051681483627e-04,5.142731070518493652e-01
7.387075145157945277e-02,7.702968460672154905e-02,-4.415087335997654461e-01,-7.455448497528780263e-03,1.103654816513783372e-03,-4.798187106143846949e-03,5.171977281570434570e-01
6.297271252940464525e-02,6.423463094241493865e-02,-3.907337901734728725e-01,7.916372291879740508e-03,-2.410357793180394406e-02,-1.788106989486776960e-02,4.575083255767822266e-01
7.764047772841300987e-02,6.258497294056511451e-02,-4.275842702821411323e-01,-5.326013348257044831e-03,3.425051869268207465e-03,-2.644287803478640331e-03,4.980096220970153809e-01
8.808693082554283627e-02,5.810287579081352405e-02,-4.530216770479433275e-01,-2.162011108141328932e-03,-8.285338653975094078e-04,-2.233489587677761276e-02,5.281908512115478516e-01
6.639518861817911288e-02,7.746044236730290078e-02,-4.244738013747593741e-01,7.204515099301350006e-03,-8.174934321144827765e-03,-7.563450171104370463e-03,4.970253705978393555e-01
6.747565201997843265e-02,7.539506551861402395e-02,-4.256379724440338408e-01,4.832621672538671941e-03,-9.039298823955335682e-03,-9.960043758919276402e-03,4.977366030216217041e-01
6.957514917281640288e-02,7.853222988128871762e-02,-4.387655656680538585e-01,5.094668005186332380e-03,-6.133096765955879659e-03,-1.026149393141025101e-02,5.133715867996215820e-01
6.814317270296452178e-02,8.014199648059949777e-02,-4.401091230380940189e-01,2.320618968440910784e-03,9.448145563060390871e-04,-8.858943744280988603e-03,5.146037936210632324e-01
6.796231150619289063e-02,7.220436132537338958e-02,-4.454518932396950848e-01,7.094140685656887251e-04,-4.510107577337868013e-04,2.761601772878786824e-03,5.155725479125976562e-01
6.215040899454879475e-02,7.548567528517005631e-02,-4.166342188921496881e-01,1.571182496309513846e-03,-4.228132489981054759e-03,-1.187426054718173155e-02,4.860877394676208496e-01
7.027137733183408397e-02,5.653836547700086257e-02,-3.917679524210528896e-01,-3.548386267387893672e-03,-9.186881785592303923e-03,-4.259277769011027975e-02,4.615811407566070557e-01
5.388418397036498497e-02,6.121079268727408484e-02,-3.670718254947708536e-01,2.112657358594639215e-03,-2.828861022935157468e-03,-3.589095205586987497e-02,4.292361736297607422e-01
7.475043269201317453e-02,6.339837598739539448e-02,-5.109308502440130795e-01,4.635164049120347324e-02,8.386065017869448815e-03,-4.757676221451835781e-03,5.858558416366577148e-01
3.643957618954818400e-02,7.537785897604695751e-02,-4.569716856029297780e-01,2.888208710160793807e-02,-2.574014129179893356e-04,8.234419442256824678e-03,5.166136026382446289e-01
3.163604208960205111e-02,1.071673631077321720e-01,-5.290639274123145608e-01,5.173104117739781016e-02,6.661729487253038179e-03,9.557485088337609042e-03,6.089953184127807617e-01
2.477235433972374556e-02,8.828619074138177591e-02,-4.514101204763557029e-01,2.771708742952611049e-02,4.060522099861941202e-03,-5.606450648486481329e-03,5.132995247840881348e-01
3.303432462725830465e-02,9.109255577529951076e-02,-4.644147233172282729e-01,2.382943540470091118e-02,-3.719801038870505349e-03,-7.667134532246202986e-04,5.305225253105163574e-01
1.805876839052367178e-02,8.487396394861773663e-02,-4.570758035608867287e-01,5.413741310484956881e-02,-6.344158638575039930e-05,1.796803487738168675e-03,5.203514099121093750e-01
4.566673858384254214e-02,8.664535130524311790e-02,-4.621933383316593758e-01,2.039650765392487033e-02,-3.896185392435725335e-03,4.219280356529774186e-03,5.308102369308471680e-01
5.340992074244893528e-02,6.901166274576156501e-02,-4.457729169767895572e-01,1.445744843687616493e-02,-5.147692855685477922e-03,5.079952922035860415e-03,5.079360008239746094e-01
6.523303618552561689e-02,6.221704762696042557e-02,-4.502643795634290180e-01,3.000945356288871324e-02,4.144932556238335383e-03,-2.154522356479731011e-03,5.166808366775512695e-01
4.875535465558786252e-02,6.430089297883617716e-02,-4.480185537490539160e-01,2.335263543700718397e-02,3.530242010047804878e-03,-2.593052307401708459e-03,5.064012408256530762e-01
4.552297239794428352e-02,8.555480449570773693e-02,-4.111082426144067603e-01,-2.064584496763761240e-02,-1.838642096526164199e-02,-1.711163179243637908e-02,4.812127947807312012e-01
9.003622390194782055e-02,4.392128673967726771e-02,-4.513427680998267633e-01,-2.794035965235753573e-03,-1.146826615392419410e-03,-6.801665170700074876e-03,5.200175642967224121e-01
5.888677091692504084e-02,8.667576306659086072e-02,-4.665931936788402790e-01,-1.536676004512347107e-02,-5.560375576217840149e-02,1.041441520514263357e-03,5.490819215774536133e-01
5.664030283232288077e-02,5.425989964217528549e-02,-4.070322950365365955e-01,-2.683429158150780341e-02,-1.527169170740501174e-02,-2.279953373424355514e-02,4.672403931617736816e-01
4.409008812868933647e-02,8.857283784178621167e-02,-5.198179762709096430e-01,7.663706463363824384e-02,1.142476212194120516e-01,-1.484318852571166747e-01,6.840530037879943848e-01
7.291142138201958667e-02,7.488777842834981602e-02,-4.368759043906758621e-01,5.299417576774210700e-03,-1.304918630856962227e-04,-1.303590345714651221e-03,5.108658671379089355e-01
-5.436193714192544268e-03,1.067318525656384687e-01,-4.354522189555415923e-01,4.612098440227558466e-02,1.434910478699853442e-01,-2.339223679725055405e-02,5.617130994796752930e-01
-3.452819226285915033e-02,1.433228033424030490e-01,-4.722019898731436571e-01,4.146140056467490648e-02,7.454205422504754652e-02,1.341481992671763115e-02,5.686796903610229492e-01
7.143602187954184446e-02,7.967625891789423265e-02,-4.450367833335989731e-01,1.422953258808379263e-03,-1.484883585978500307e-03,1.487320735473858123e-03,5.206604003906250000e-01
-1.888834090428943846e-02,1.506872803188443188e-01,-4.260737227498789248e-01,5.311380406253569941e-02,1.286606494633729114e-01,-6.908796501260761058e-02,5.796963572502136230e-01
-5.703739540098548555e-03,1.473137250945391052e-01,-5.061098345939103460e-01,2.888494688919746034e-02,1.725902814175667710e-01,-1.726285101543031247e-02,6.656956672668457031e-01
1.783514404847547086e-02,1.259313667253086910e-01,-5.056541769619014026e-01,8.013627891608628151e-02,4.591206016884242375e-02,-5.596105271366928757e-02,6.142452359199523926e-01
6.533231237601905272e-02,7.217660293480404610e-02,-4.174848695147123645e-01,7.452433822765095264e-03,-1.070407655301067185e-02,-6.056495158527218543e-03,4.869129359722137451e-01
5.991308245280468903e-02,5.780782714412047163e-02,-3.788746578062769377e-01,5.717057050879481399e-03,-2.652232177869571356e-02,-3.094221852367091269e-02,4.435041844844818115e-01
5.799119717449335853e-02,5.712222173907666178e-02,-3.711804223321659157e-01,1.077066079731910965e-02,-3.353626733111443603e-02,-2.616308696095492187e-02,4.354212582111358643e-01
6.585585852268896478e-02,6.314340940047272199e-02,-3.908512023506737765e-01,1.230978097556039742e-02,-2.246360800088340742e-02,-1.777904860955915184e-02,4.585483968257904053e-01
6.271230070221500696e-02,5.560429571448080588e-02,-3.716116834145846703e-01,5.117613406868577047e-03,-3.431935589050629648e-02,-2.621779418994113486e-02,4.373497664928436279e-01
7.701159892535702767e-02,7.356790141285540763e-02,-4.363533790354411912e-01,1.115374616301918493e-03,-2.867490826093383252e-02,-1.463677094744605424e-02,5.146850943565368652e-01
7.004879205850764179e-02,6.384600363975118098e-02,-4.007134359509748056e-01,-1.105084325486150286e-02,-3.568898789490599494e-02,-4.696879133351697377e-02,4.791045784950256348e-01
9.548989490805681601e-02,3.501135433474730774e-02,-4.523218899611571309e-01,1.684475894726228384e-02,9.437610360451506239e-03,-3.716464641977021421e-02,5.252491235733032227e-01
1.143974825899978509e-01,3.424816975825717424e-02,-4.648349442996294045e-01,2.240944587296345158e-02,-4.205542583130983001e-04,-3.674986283420961924e-02,5.486964583396911621e-01
7.416680923444221585e-02,5.588847995094395338e-02,-4.233512950186584800e-01,2.899594180079166552e-03,3.362641529961298784e-03,-1.117396772866421917e-02,4.890789985656738281e-01
1.094993799422075975e-01,3.341373003984443590e-02,-4.623302032090179092e-01,3.852414585537494544e-03,-1.567223418430786080e-02,-7.000339215328151010e-02,5.520442724227905273e-01
6.991548520881654682e-02,4.725929348076257641e-02,-3.702893403092324398e-01,-2.498107706922621848e-03,1.285735591184630940e-02,-5.763139740521681931e-02,4.413604140281677246e-01
7.146979519027327199e-02,6.567801772919132364e-02,-4.334353477004403987e-01,5.896122936687040383e-04,-7.696154876383873647e-03,-4.205575906183013635e-02,5.074675083160400391e-01
5.937992260548310974e-02,5.841735358915378651e-02,-3.680882137084542371e-01,2.032816904643784325e-02,-2.380674371421991065e-02,3.632903306175590263e-02,4.349917769432067871e-01
5.198657986526428187e-02,6.468679494740123270e-02,-3.606064956126582843e-01,-1.081066120829844279e-03,-2.003919851146431647e-02,8.846145709246654165e-03,4.208055734634399414e-01
4.841917162149089737e-02,7.326301871216001071e-02,-3.819561299736997095e-01,-2.725495865298084575e-03,-6.152683053216523312e-02,2.327589139344618877e-02,4.577516019344329834e-01
4.974030665098083670e-02,4.163305040889556108e-02,-3.199704490236279786e-01,-3.044885360773624296e-03,-8.801978639434714091e-02,1.667457769478141935e-02,3.973145186901092529e-01
6.426544454509436344e-02,6.222398404948656370e-02,-3.889479309116826711e-01,-7.375506233658093297e-03,-3.279467971360783274e-02,2.372710282270448084e-02,4.577771425247192383e-01
5.446083068144769168e-02,5.310844779043555342e-02,-3.450226086074472676e-01,-9.647035731025375635e-03,-3.108136977199330714e-02,3.249848668288820436e-02,4.066871106624603271e-01
7.260694298120351498e-02,7.793484078372409085e-02,-4.449625714113236152e-01,1.868814663627590706e-03,-1.384214198072104059e-04,1.411729875250220792e-04,5.202640891075134277e-01
1.048361596278207797e-01,1.570384457678394852e-02,-4.561853431625477184e-01,2.475862115414585556e-03,4.056099588910917070e-03,-9.100074635082604224e-03,5.224947333335876465e-01
9.653332574743433980e-02,3.940022407661744608e-02,-4.459270253759055058e-01,-2.336987068189236381e-03,2.445735978091261725e-03,9.234570348388310493e-03,5.165511965751647949e-01
8.878445784891172976e-02,4.628357083975559449e-02,-4.490921580900102961e-01,-1.192141757846290791e-03,1.883732622879496837e-03,-6.967104440025166483e-03,5.180906057357788086e-01
6.887245870383967850e-02,8.186896473966079335e-02,-4.401517754190957255e-01,1.866766652130391960e-03,1.112477744748854771e-03,1.062672997816045467e-03,5.156623721122741699e-01
7.726527338598201955e-02,6.754070221241748051e-02,-4.424975276209275887e-01,3.136996683210549301e-03,6.517493812099558678e-03,-4.406350526391206515e-03,5.151782631874084473e-01
7.072374939846784447e-02,7.337150889103233320e-02,-4.350467704422091852e-01,2.334003104205431903e-03,2.054405774005554561e-03,5.134163122659820416e-03,5.072061419486999512e-01
7.241967703661900124e-02,7.950314431818739092e-02,-4.422873206341162988e-01,6.499497108558108596e-03,1.719209121188802021e-03,2.786589716583895860e-03,5.184382796287536621e-01
6.967876103923584252e-02,7.570073529115856070e-02,-4.336093852173991126e-01,6.199196717262028984e-03,8.225418409664369342e-05,2.983381343346729313e-03,5.064662098884582520e-01
5.100451167247309348e-02,2.761155903806845890e-02,-2.850282245560403771e-01,1.872887645693731718e-04,1.793395853732175985e-02,1.224893515611328032e-01,3.893331885337829590e-01
5.059919103980259347e-02,6.405754786442027782e-02,-3.701186000143763533e-01,7.631946841119306713e-03,8.809201305214212421e-03,-2.403779555902167599e-03,4.281023740768432617e-01
7.195528510337312333e-02,6.259211229609365490e-02,-4.219565370718087460e-01,-2.003297132495486554e-04,1.389214766105360517e-03,1.079769404038540166e-02,4.896607697010040283e-01
7.389147028940123985e-02,6.846002070802850725e-02,-4.437015761060083552e-01,3.588293630137179518e-04,-3.253935138206202893e-03,-2.079229842583007418e-03,5.149426460266113281e-01
7.639328131176059689e-02,3.936134219676665214e-02,-3.861834571006905747e-01,9.212799382603675119e-03,5.753774480780280949e-04,3.525563874139053810e-02,4.496698677539825439e-01
6.634089149640456928e-02,6.871578971768649291e-02,-3.828787419458009045e-01,1.004640103463997486e-02,-6.879922890520781369e-03,6.352436871599899393e-02,4.641353189945220947e-01
5.119263740471782786e-02,6.351967304054781382e-02,-3.700454642090932333e-01,-3.486400163990053050e-03,7.103516351088122807e-03,6.596480507219185108e-02,4.427505135536193848e-01
6.956105944871540658e-02,5.832576264839106628e-02,-3.820764824137156124e-01,8.228405964039712042e-03,-2.401805285307858089e-04,3.299063933647707059e-02,4.499965012073516846e-01
6.276188720250958086e-02,4.707416644981066156e-02,-3.618151789699767251e-01,-7.619152765272328709e-03,1.464931942920452050e-03,1.121897833603973174e-02,4.176234304904937744e-01
8.200767521607543742e-02,7.199885072927336704e-02,-4.502522030482378201e-01,-3.496101753410229759e-03,-1.519827416462301564e-03,-1.628342352110844458e-03,5.273755788803100586e-01
7.462220718390571994e-02,6.996681320176353913e-02,-4.226530362857376932e-01,-1.105545905896787237e-02,-4.111128661429256509e-02,1.855588240012158788e-02,5.014572739601135254e-01
6.500476178724876042e-02,6.533981780852682331e-02,-4.086288249601974232e-01,-3.171974707091888661e-03,-1.008769102318965091e-02,6.424879361444525011e-03,4.742856621742248535e-01
5.414621785830067702e-02,7.389792802817496398e-02,-4.307004046713748258e-01,-4.982758330737339751e-04,-3.840006119483175499e-03,2.350641807441010856e-03,4.950802922248840332e-01
7.883926387652523404e-02,6.988583305702375514e-02,-4.401831054400822119e-01,-3.458816017477336392e-03,-1.056363633090008289e-02,5.708455627138392732e-03,5.150589942932128906e-01
7.500129993545098794e-02,6.791997836780680475e-02,-4.257184458763087487e-01,-3.429809017167335938e-03,-1.176123177068376206e-02,9.702646635368294969e-03,4.979531466960906982e-01
6.344317958559322901e-02,8.894396488076294904e-02,-4.291236711192671360e-01,5.022913982781580453e-03,-7.051817012761518733e-02,2.443062246249480193e-02,5.221282839775085449e-01
3.894967979821609139e-02,1.044819641750102945e-01,-5.057207791544513498e-01,3.537019430435101724e-02,-1.017129017575773599e-02,9.793404008477966938e-03,5.839564800262451172e-01
2.788039696107338927e-02,7.839502996806951840e-02,-4.615857333392565098e-01,5.236622805237119149e-02,3.085501367079379088e-03,-3.872482871867579009e-03,5.245514512062072754e-01
2.104215325782635149e-02,1.081690841916955470e-01,-4.692159833309647587e-01,5.835507522197844188e-02,-1.061294499592953938e-02,-8.689621669001709736e-03,5.490347743034362793e-01
7.891984314291483615e-02,6.860882909446636146e-02,-4.327027747553298664e-01,-8.314233391238530155e-03,1.102887840076792643e-02,-2.325117234257418394e-03,5.071263909339904785e-01
7.373684611098804687e-02,7.167049661280011641e-02,-4.316312086950584992e-01,-7.558209817755144611e-03,3.525128048322149436e-03,3.416207062746829965e-04,5.045452117919921875e-01
4.870268414836750881e-02,3.067369195099152457e-02,-3.062329669304961199e-01,-2.748180072226498027e-03,-2.125407971311035413e-02,1.599816920377604423e-02,3.493578732013702393e-01
5.158215596842319339e-02,3.578320474176899246e-02,-3.354820273865998237e-01,-4.915586471821498105e-03,-2.836490204345918850e-02,-1.567293217759381909e-03,3.826834857463836670e-01
1.790574362957852994e-02,1.597358431950680890e-02,-2.379489185533526230e-01,-1.282011113553753207e-03,-2.782207493097852216e-02,5.269953078727972889e-03,2.595793604850769043e-01
2.047441980123289318e-02,2.091063781503746388e-02,-2.506265534166511877e-01,1.983989124157012167e-03,-2.718286812210741338e-02,1.600075579458294650e-02,2.767865359783172607e-01
2.870231831710629011e-02,2.775198102459212890e-02,-2.631611495461524952e-01,-9.548020772777096599e-03,-3.173472951825390825e-02,1.255096850025034377e-02,2.977837622165679932e-01
3.573659297447599748e-02,3.084756050835979480e-02,-2.779418439017283804e-01,-6.106674925261889979e-03,-3.374992864849118285e-02,1.353429440512789010e-02,3.177468478679656982e-01
3.948472748797839105e-02,3.363949430182584799e-02,-3.007007835605732815e-01,-8.820728313048517566e-03,1.583058444209992663e-04,1.651847283099673255e-02,3.388568460941314697e-01
3.226888319710331798e-02,2.258355635587867838e-02,-2.518934645801899075e-01,-4.671137990561266377e-03,-4.179423388467767148e-02,6.183763112089159242e-03,2.889814674854278564e-01
9.355321275724487462e-02,2.114273189737581049e-02,-4.683400633341230912e-01,-3.933923932320661232e-02,-9.128927140882895849e-03,-1.241545056481059214e-02,5.344488024711608887e-01
4.762577030121695199e-02,5.493890221787489647e-02,-4.625018031743932667e-01,-5.311757236077785382e-02,-1.361162685271854501e-02,-1.142637780612194669e-02,5.229017138481140137e-01
6.987517311989335789e-02,7.252719686314942904e-02,-5.335685884290322090e-01,-5.235939859419085074e-02,-2.636552901219607527e-03,1.255610495353390657e-02,6.119396090507507324e-01
9.078599369362663762e-02,4.284841561104205110e-02,-4.765312190114449620e-01,-6.314262052526189994e-02,-3.383459269637622245e-03,-2.953058625215402612e-03,5.558529496192932129e-01
9.054496164800776570e-02,7.665364651493980497e-02,-5.362491452271007653e-01,-7.084565156896360794e-02,5.127261474408531701e-03,7.473518163896374078e-03,6.321871280670166016e-01
6.964070520040685497e-02,7.276159090176387290e-02,-4.397427463339725895e-01,9.975641555379544697e-05,3.307389286359559318e-03,-4.167355591894505822e-03,5.110341906547546387e-01
4.010461636905483795e-02,8.924301520305363833e-02,-3.824529688822705387e-01,1.790551140476501213e-02,-4.274080708459507272e-02,4.894179990253009170e-03,4.563412070274353027e-01
6.327591916763877777e-02,7.958517453446251055e-02,-4.246522894329270992e-01,-3.534612705407864409e-03,-5.441149075176406752e-02,1.117905059851089823e-02,5.055609941482543945e-01
5.960871807083539808e-02,8.025864713257924166e-02,-4.549232601095325457e-01,5.035744225540378025e-03,-1.873403174804477364e-02,2.688943172938947513e-03,5.262559056282043457e-01
4.507853129280520177e-02,9.513050336065756452e-02,-4.629090049905427162e-01,7.868816194482548820e-03,-7.363329669054667626e-02,1.197181136923567910e-02,5.503304600715637207e-01
1.292857911847716812e-02,1.159113404050408913e-01,-4.308060890656049136e-01,2.815410222438261695e-02,-2.845314999211264254e-02,-1.396225793475318507e-02,5.085218548774719238e-01
1.431866386082891740e-03,1.355097103737528119e-01,-5.048045362552981974e-01,5.360171012700822024e-02,-7.532465220466526019e-04,-2.125287193758179302e-02,5.933830142021179199e-01
1.895988913561277855e-02,7.927938978234352896e-02,-4.532368362191104838e-01,5.386962550949049577e-02,-2.380219120729040305e-03,-2.479271969318223249e-03,5.136458873748779297e-01
6.454325191936685635e-02,6.781008716022951521e-02,-4.027440381032407757e-01,3.777788235865172685e-03,3.744906805978055232e-03,2.269405476382800255e-02,4.706639945507049561e-01
7.156355070788708583e-02,7.179358888302533881e-02,-4.348008814909263275e-01,3.552692524951176585e-04,1.874436292232196585e-02,1.361469844141725491e-02,5.080668926239013672e-01
7.080037652351470201e-02,7.873749044003827691e-02,-4.375213789233843298e-01,4.678136305332546846e-03,1.826952460682898516e-02,1.942754760742670256e-02,5.144782662391662598e-01
3.667083712397024853e-02,4.547081836425859169e-02,-3.193873395627553902e-01,-1.014079907421963720e-03,3.078974467810936116e-02,5.292338837905956328e-02,3.758163452148437500e-01
5.212224101805193466e-02,5.521126568688636271e-02,-3.500435349962514042e-01,1.186339727217302145e-02,3.783533676728000061e-02,3.803412864110339991e-02,4.147839248180389404e-01
5.826119300319054783e-02,5.543098331204893148e-02,-3.550083932498691031e-01,8.454608414693096444e-03,4.069082163019917264e-02,3.384674356571035214e-02,4.221949875354766846e-01
5.569472554651525020e-02,4.364052168085005845e-02,-3.431990926306219269e-01,-1.012368706873484347e-02,-1.689566355339666356e-02,7.395976421700336395e-03,3.946912586688995361e-01
7.268898742482532427e-02,7.072018751568123762e-02,-4.350248381265590658e-01,2.770466217358506702e-03,-1.086661982842247222e-02,-4.281208022321978356e-03,5.071586370468139648e-01
7.353240170408431586e-02,7.187303486566329336e-02,-4.445020150561883598e-01,-1.062438274133499505e-03,-2.138529089834514951e-03,3.459465689630231502e-04,5.172235965728759766e-01
5.565920183416608880e-02,7.758512623878333070e-02,-4.443190679132382748e-01,-1.926958584942311051e-03,2.584144607929949461e-03,2.491206815111642828e-03,5.113426446914672852e-01
6.598229982391862203e-02,7.663222861184088019e-02,-4.419607557973050382e-01,1.835192172449626007e-03,-1.549113778377406969e-05,6.527078481836381084e-03,5.134851932525634766e-01
5.743111562012107041e-02,7.502519521520761847e-02,-4.445513799916255837e-01,-1.346636952180875176e-03,3.876695821971566647e-03,3.798538760846380431e-03,5.110985040664672852e-01
4.731792548702928869e-02,5.946213274760273060e-02,-3.579191077393104603e-01,5.576151518041449692e-03,6.428664555142202253e-02,-2.766724592526611376e-02,4.290382862091064453e-01
5.684342701548925070e-02,4.420311700554610534e-02,-3.429152068282940724e-01,-1.174455793755409955e-02,-1.079615751989948524e-02,4.525801832804317998e-03,3.946372866630554199e-01
7.684436529450161535e-02,6.905205155154947594e-02,-4.429543853490811589e-01,-1.898732190331736680e-03,5.518543386998012168e-02,8.441383280436740022e-03,5.249398946762084961e-01
7.610311369325134523e-02,7.827156973620930103e-02,-4.535679126626694369e-01,9.405364714093349164e-04,3.221227885541588093e-02,-1.677815425422607074e-02,5.344761013984680176e-01
4.325212876844877763e-02,7.862986660951559736e-02,-4.067201718674187672e-01,2.847936368011556689e-03,3.207339128184640009e-02,-4.079076127699912332e-03,4.720233082771301270e-01
7.527586784376139040e-02,7.636479621520664285e-02,-4.485055468878186291e-01,-1.183505863954864524e-03,-8.866434073457629163e-04,3.722652021631640720e-05,5.243330001831054688e-01
7.228061601467325459e-02,7.695334636412046181e-02,-4.288107099167952074e-01,2.244284956738039957e-03,5.039664280115879053e-02,-7.050216236507274477e-03,5.111159682273864746e-01
5.775168332571317675e-02,5.890025385822925119e-02,-3.690619889258219821e-01,-1.110436423729103256e-02,-1.882685125392885225e-02,1.326951663375827012e-02,4.296777546405792236e-01
7.048507960216940371e-02,7.273574530777252023e-02,-4.315876760865779982e-01,-4.070145733999261384e-03,5.043670304804018061e-03,-1.786209080806098548e-03,5.033365488052368164e-01
7.211252603280129958e-02,7.200246242952768050e-02,-4.400515051827081914e-01,-1.318877576406150224e-03,-2.144412814625868010e-04,1.235150791237551136e-03,5.121186971664428711e-01
7.653494665013282905e-02,7.712315106087208605e-02,-4.473354534873482113e-01,-3.378925776174978093e-03,3.356318455612737487e-04,1.697562978559110432e-04,5.241978168487548828e-01
7.269861343361885830e-02,7.076096697730455132e-02,-4.398086776487501459e-01,-1.098888721911306680e-03,-8.416418163905396580e-04,-7.670664623353992716e-05,5.115468502044677734e-01
6.972744675331593589e-02,7.620027642246224309e-02,-4.339698237634280198e-01,-7.316152794883200305e-03,3.411346001053725246e-03,-4.069413968385803861e-03,5.072064399719238281e-01
7.701875046618583687e-02,7.605495267659423408e-02,-4.473899923771278986e-01,-3.869355935965814938e-03,2.595719295011987733e-04,-2.975779629925563979e-04,5.239708423614501953e-01
7.285023809289484231e-02,4.732322502817862264e-02,-4.186034990312275106e-01,2.833751640271293948e-02,3.555918077193494231e-02,-3.319350197463922375e-02,4.890203475952148438e-01
7.081002574648972980e-02,7.009320919062547728e-02,-4.210205449513385045e-01,-1.014471339718787772e-02,2.051915007198588589e-02,-5.840488696246995404e-03,4.931728541851043701e-01
5.839781641617775021e-02,7.704373543755013709e-02,-4.686305770165173912e-01,3.218477543978701116e-02,-8.126994040586992115e-04,-1.871165454448010627e-03,5.394937992095947266e-01
6.731804409178709925e-02,6.785459022716658350e-02,-4.368873583899002822e-01,5.142065309336061457e-03,2.718971750068920751e-03,4.011469408869936318e-03,5.046223402023315430e-01
6.778158006895332321e-02,7.641012089924115180e-02,-4.479898240947828292e-01,3.573785723273829179e-03,-6.916603918776209311e-04,-3.128702398369024446e-02,5.229926705360412598e-01
7.615863914411116764e-02,5.623305717055124275e-02,-4.448325184493421292e-01,1.851660836996386894e-02,5.806457730353379448e-03,5.526283897741598831e-03,5.125125646591186523e-01
4.304065351576341625e-02,7.565449665194243223e-02,-4.449586937024911371e-01,1.191449347399900667e-02,3.667106112216420456e-03,-1.931309213905844403e-03,5.055689215660095215e-01
7.932404294234879361e-02,7.083389432393916163e-02,-4.416275855090666114e-01,-5.469793663285279052e-04,1.816669249051520649e-03,-9.358872545684249807e-04,5.167718529701232910e-01
6.854143325259387520e-02,4.221132914881689513e-02,-4.419693294989482935e-01,2.183058305449909337e-02,-1.606441222568868944e-04,-6.056212450049171594e-04,4.993031322956085205e-01
7.654298637265816163e-02,6.104631125200032926e-02,-4.317896590105232413e-01,3.625172286172338720e-02,-5.898742725786124824e-02,4.106286310056722622e-02,5.198118090629577637e-01
8.425193344094583647e-02,6.238185293846751356e-02,-4.432476148453344256e-01,-4.842089794637319429e-03,-9.762605319851683922e-03,2.248510292676605959e-02,5.187201499938964844e-01
4.204606621830446478e-02,4.287085996164055612e-02,-3.051493850664677709e-01,-6.806928852507974220e-03,1.626604526783216034e-04,4.983056953574805520e-02,3.583574593067169189e-01
6.897771785160253244e-02,7.793502240814775828e-02,-4.234452267566208850e-01,-7.129576806178105491e-03,-2.027421034563864355e-02,2.053101618704538875e-02,4.996214210987091064e-01
7.278129769937652371e-02,7.179267277654111101e-02,-4.228319182509691632e-01,-6.903220012266885267e-03,-1.854830425050689804e-02,2.260897924729705910e-02,4.978474080562591553e-01
6.841139383319433387e-02,7.985380311145418020e-02,-4.395872028403493004e-01,-7.929187355040383245e-03,-1.074362668088253703e-03,1.681020310413606361e-02,5.148262381553649902e-01
7.558752281032216080e-02,5.068477502721213668e-02,-3.981588573027936562e-01,2.295376503086010017e-02,-2.733071802710526632e-02,3.549436651140612520e-02,4.699566662311553955e-01
5.376127493241764088e-02,7.037834405853105046e-02,-3.863431554068894602e-01,-1.539808353180747384e-03,-8.486983693346142679e-03,5.997432175536116655e-02,4.607550799846649170e-01
6.058932986545331745e-02,5.117962160043718067e-02,-3.809595411018451006e-01,1.147246796609248387e-02,-1.360262955437238630e-02,3.826755087087330143e-02,4.429923892021179199e-01
5.574124026883411909e-02,5.340840895134629784e-02,-3.485301892506624255e-01,-1.126758408172502668e-02,-3.145793386104728251e-02,2.682224429761444207e-02,4.098849892616271973e-01
4.086270353891471863e-02,9.140305385817046324e-02,-4.377032755294593680e-01,2.311777955026510668e-03,7.351573107561284667e-04,9.266419185690367294e-03,5.060058236122131348e-01
1.145562052095401573e-02,1.171869953647323714e-01,-4.541944413332389408e-01,1.852044257479825567e-02,-1.576529854265180247e-02,-3.187917715513376160e-03,5.282499790191650391e-01
3.997290166349384832e-02,9.716265019058556440e-02,-4.606427615780624429e-01,5.440150563926824008e-03,3.226704185200480329e-03,-4.706844762312265137e-04,5.316365957260131836e-01
1.319236481679214590e-02,1.152670185084932741e-01,-4.655678240288511072e-01,4.186969503902937192e-03,-1.452811051949546607e-02,1.633550203989508334e-03,5.377672910690307617e-01
3.309999603525071166e-03,1.144259675958473055e-01,-4.607928797391415143e-01,-3.628637493532348331e-03,1.155014229525577605e-04,1.821981260387494630e-03,5.285423398017883301e-01
4.612208435961850927e-02,1.000563229981464575e-01,-4.686843533895442837e-01,1.183887580526877007e-03,-3.682776275582370310e-03,2.353102743013119492e-03,5.438398122787475586e-01
5.815957010395866877e-02,3.185017619304518488e-02,-2.990050898654804667e-01,-4.444183224001966269e-03,-1.148010383635582610e-01,-2.107065904836676745e-02,3.997386693954467773e-01
-1.063659051094704988e-02,3.253251636219096909e-02,-1.461645797998030738e-01,1.024159359125837235e-02,-8.763842475668230658e-02,-7.820728817786745321e-03,2.227592319250106812e-01
4.077157350025897853e-02,4.955842419282383005e-02,-3.194541884844190882e-01,-1.976525648613757565e-04,-6.520790996154898767e-02,1.889918961091290386e-02,3.831878602504730225e-01
8.984655847462663658e-04,2.355025837903585439e-01,-6.370806627183480675e-01,1.240892112700132596e-02,9.109914214912284702e-02,-8.034858186255194185e-03,7.982993125915527344e-01
7.871451991862554731e-02,6.906177285635048402e-02,-4.542496733815862275e-01,-7.074150691288749737e-03,-6.492672356027232548e-03,-1.548592348879615846e-02,5.291460156440734863e-01
8.709648998969016231e-02,7.176227296501899722e-02,-4.599683546570623727e-01,-2.857800832273149237e-04,-1.327950491119521230e-02,-2.116678536661787194e-02,5.412943959236145020e-01
6.911036122488681266e-02,6.071963227285212539e-02,-3.966515429090000655e-01,-1.184147192766562672e-03,-3.460979741481323702e-02,-6.798919102641697021e-02,4.801684916019439697e-01
6.433318084864900199e-02,4.919827905778217936e-02,-3.691506877394907793e-01,-1.213426688560067732e-02,-2.398264799751287715e-02,-4.580515707406936088e-02,4.359336495399475098e-01
7.353044538278774578e-02,7.401580915927460924e-02,-4.832446324432820850e-01,-5.314558599436074171e-02,-2.184740792047964314e-02,-3.306106418495708549e-02,5.687295794486999512e-01
8.026533311544500893e-02,6.918911434727262333e-02,-4.590296537502464025e-01,-1.151018718104153751e-02,-2.086447416860552975e-02,-1.752044495386727990e-02,5.362954139709472656e-01
7.664205571765192460e-02,3.493587429730954375e-02,-4.250771095393706678e-01,-2.460307407179682451e-02,-1.626822730341975429e-02,-2.195741098487345028e-02,4.864082932472229004e-01
6.859402185250079720e-03,1.080351536772971854e-01,-4.634022824925881356e-01,-1.285589859195015658e-02,5.727048401688221088e-03,4.011682492193890601e-03,5.287761092185974121e-01
7.903683033470423891e-02,6.900783341537072846e-02,-4.433038751349910322e-01,1.769616910843142994e-03,-1.285361148787406670e-02,-2.164025482517514462e-02,5.192415714263916016e-01
6.934899837640881581e-02,7.184349850267052195e-02,-4.217635643539300871e-01,8.675904773923508520e-03,-2.953523819480220400e-02,-1.601602927786111019e-02,4.960193634033203125e-01
3.097165526236836386e-02,7.883468567407908578e-02,-4.421619552750523652e-01,-3.076158863266415661e-02,-7.135811353558120865e-03,2.461499489482638688e-03,5.017983913421630859e-01
7.644357293781162133e-02,6.231539760082643875e-02,-4.336664447882349060e-01,1.304737252456929372e-04,-1.067913013699467971e-02,-1.207668921962054727e-02,5.039688944816589355e-01
7.208855974137867717e-02,7.356999039409625740e-02,-4.354197369527656458e-01,3.811752086426490813e-03,-6.494755799070246229e-03,-5.442300634841265236e-03,5.085053443908691406e-01
6.295177778284061221e-03,1.357347100278202268e-01,-5.429026198503634770e-01,-3.451524717360844596e-02,-1.170422094907427792e-03,-1.758429151772863269e-02,6.276673674583435059e-01
6.715331762479440081e-02,7.463025136078188515e-02,-4.318386900908371406e-01,4.292812903344810430e-03,3.048075948377217386e-03,-6.578457258154986331e-03,5.029839277267456055e-01
4.434813653360966668e-02,8.959435478128127683e-02,-4.663101729048494404e-01,3.021415819337082420e-02,-8.325635491399040883e-03,5.252842992560241217e-03,5.375443100929260254e-01
5.012233680157948679e-02,7.192735377725092971e-02,-4.654257621893204688e-01,4.223495026555276755e-02,1.468386590759197981e-02,-1.019772832586890964e-02,5.327448248863220215e-01
7.538706846268306005e-02,7.664419191286073185e-02,-4.486081423291470860e-01,-5.255642651659698681e-04,-3.268100664713927584e-04,1.490744236186408332e-04,5.246260762214660645e-01
5.787014493966707862e-02,5.753005623844692495e-02,-4.434561095407956732e-01,1.222265328310031055e-02,3.203135158233768719e-04,-1.895858818914360200e-03,5.016142725944519043e-01
5.649195637321710595e-02,5.514322910833155400e-02,-4.389741896633079232e-01,1.420213088508136268e-02,-8.265747014757057060e-04,1.011952859761479665e-03,4.954094290733337402e-01
5.332625243866445652e-02,6.774272558055713378e-02,-4.472324479510374484e-01,1.718646957640829545e-02,5.512212024814521806e-03,-5.985473360496869170e-03,5.089871287345886230e-01
6.698714237526612325e-02,3.719813765637286496e-02,-4.418686281599365495e-01,2.773165516840317424e-02,1.389328836430397821e-03,2.078174910222450867e-04,4.969671368598937988e-01
5.491293550674519741e-02,6.097344099242876792e-02,-4.395549733583896668e-01,1.970198132165972005e-02,-9.331512225156012247e-04,3.162123713563825080e-04,4.986976981163024902e-01
5.809900685313276747e-02,4.738110245530419151e-02,-4.438969264931501568e-01,3.108585415909403266e-02,-1.850557883862078215e-03,-6.652792442901222679e-04,4.996449053287506104e-01
5.521693211451164651e-02,5.860267292067927736e-02,-3.720725688479157856e-01,-9.977819830031856366e-03,1.061474938450808134e-02,-7.296000901124363031e-03,4.299196004867553711e-01
6.506327265181330310e-02,7.324889917039553722e-02,-4.196459071000817054e-01,-5.018579529004432715e-03,-2.401781673598325090e-03,-9.042160198582421815e-03,4.891991317272186279e-01
1.685209735575021739e-02,1.100074812548406111e-01,-4.583761433051367074e-01,2.808189183596411075e-03,2.779141680545250959e-03,-1.820734451093191297e-03,5.280593037605285645e-01
5.874314109739947609e-02,8.993507578844919803e-02,-4.584848947888556792e-01,8.125853650969438666e-03,-1.842162307202236532e-02,3.192719965623986265e-03,5.346754789352416992e-01
4.450629075549433766e-02,8.287556039371732353e-02,-4.418077356090056029e-01,2.463382568389889588e-04,-1.244731226796955484e-02,1.777226739695020969e-03,5.070577263832092285e-01
1.908225807566771293e-02,9.684143058447358676e-02,-4.502800270130986049e-01,1.118280669710289103e-02,1.119592612504239672e-02,-4.025908933217293290e-03,5.134632587432861328e-01
7.106559925422212265e-02,6.446647493752016844e-02,-4.322180254229323060e-01,-2.591110595415002768e-04,2.503435727128246538e-03,-9.558793408220009336e-03,5.003097653388977051e-01
6.487870547660634646e-02,7.471331217105309230e-02,-4.253397789432667442e-01,-1.815110342920785939e-03,1.464563969821625457e-03,-3.530702320420975055e-03,4.952632784843444824e-01
7.360835724461634033e-02,7.674706076478199357e-02,-4.473977366645530696e-01,-5.027836784244456639e-03,3.720074519438612212e-03,-5.834420114674499815e-03,5.227924585342407227e-01
6.832346249514187342e-02,5.836587482838218044e-02,-4.411661379441408903e-01,1.187610944558384167e-02,7.944323227437100066e-03,-6.939922982713956495e-03,5.053340196609497070e-01
7.205240800450549155e-02,7.845424613543905412e-02,-4.480582466587964552e-01,-3.939219522601860105e-03,-1.478880029512647876e-03,-8.311915838286351374e-03,5.235896706581115723e-01
6.423298346018069260e-02,8.265928995024945936e-02,-4.574694995291717636e-01,2.368805905501181891e-02,-4.860062522953283864e-02,4.096882972689156258e-03,5.393939614295959473e-01
5.712051259119446667e-02,7.466834566507199455e-02,-4.325500209892928494e-01,1.938680791432899342e-02,-1.811162287513189834e-02,2.870219545242576678e-02,5.032503604888916016e-01
3.840011316606439795e-02,9.129322325456912246e-02,-4.634297690133990510e-01,2.373587540160668544e-02,-1.318644268159526595e-03,4.528841042821435230e-03,5.319127440452575684e-01
2.128480682056979600e-02,9.882122189320763361e-02,-4.635588537779684049e-01,3.287952369614673825e-02,-1.305461003366372667e-03,7.086492027407316442e-04,5.309690237045288086e-01
9.151748124892500336e-03,1.099723674962597986e-01,-4.817727885648637187e-01,-2.950289865244411225e-02,-1.113565786992237565e-02,-7.246215427501264718e-03,5.511876344680786133e-01
7.260166022863559498e-02,6.351737734658394197e-02,-4.467760220764390167e-01,1.278374787009656580e-02,-8.496131774174364021e-03,-1.537969931674656836e-03,5.155884623527526855e-01
8.046024444015884014e-02,4.654860904135854627e-02,-4.476061318701164971e-01,1.527447752831163214e-02,1.161544414990907381e-02,-4.638333183292274551e-05,5.130313634872436523e-01
4.954762112427546494e-02,7.058867341814289986e-02,-4.574982918659353803e-01,2.425355899308753380e-02,1.390761620514776101e-02,-6.544015366147806767e-03,5.202696323394775391e-01
7.749833344912770983e-02,7.350480643662132829e-02,-4.484776969786913869e-01,1.129082975292720718e-03,-1.340226024761611082e-04,-7.883083269335822455e-04,5.239961743354797363e-01
5.843862633552177055e-02,6.654825580393167184e-02,-4.444887754135968816e-01,1.220314948267386089e-02,8.578267821094838486e-04,-3.552047882909358596e-04,5.074737668037414551e-01
6.880224746749119547e-02,6.950069013752324665e-02,-4.307590298215605018e-01,-1.886174917682107398e-03,-5.331730945320294936e-03,3.304000666649820062e-02,5.032710433006286621e-01
6.163687330860642688e-02,7.364544557774585498e-02,-4.034042349350825396e-01,-1.076386116961600310e-02,-3.762567444151154739e-03,9.284280349851856476e-03,4.718480408191680908e-01
-1.224820695631859135e-02,1.316023485044016117e-01,-5.190072944559219748e-01,-5.518811199360182385e-02,-7.959795375135493567e-02,-5.691089856755489340e-02,6.231023669242858887e-01
7.487335642608244912e-02,7.105126834855421403e-02,-4.376978380574166327e-01,-4.652956712451952227e-03,-1.368390308284802431e-02,-4.631504437823546100e-05,5.112841129302978516e-01
7.060349358621659244e-02,7.136853252669572711e-02,-4.201742362454407020e-01,-7.864341574533988480e-03,-2.555766657685804369e-02,1.838756026971076138e-02,4.943665266036987305e-01
6.344399343939699509e-02,4.880900765625634241e-02,-3.556147476523282003e-01,1.801646370521160084e-02,-9.098239930397709896e-02,8.289225612659374687e-02,4.648785293102264404e-01
7.621253198617916613e-02,6.505950983146074895e-02,-4.378428931224970788e-01,9.224368225987982168e-05,-1.347853202385524123e-03,-6.611611839472187116e-05,5.085760354995727539e-01
7.788358367134357030e-02,6.816946411109958692e-02,-4.390847794036558671e-01,-2.918046781655719846e-03,-1.405944848208825516e-02,2.399231193754772576e-03,5.128006935119628906e-01
4.240080101226742504e-02,6.055505994821766547e-02,-3.231970847961017634e-01,1.457683062329286072e-02,9.109034349608895187e-02,-4.630256354871773589e-03,4.077041447162628174e-01
5.935355667438102500e-02,7.846919809406963098e-02,-4.298550653545746281e-01,9.392490214158579626e-03,4.094661279624550038e-02,-5.046899733760499412e-02,5.118377804756164551e-01
6.149268582801797889e-02,7.700350574175393592e-02,-4.396365152421530809e-01,1.587756244600803390e-02,6.925407175840061005e-03,-2.030208537735990124e-02,5.111562013626098633e-01
-1.204588668639486326e-02,1.795109735070520296e-01,-5.395404274027648661e-01,2.169959296524315902e-03,-1.604015647507099074e-01,-1.494548962618039503e-02,7.027516961097717285e-01
2.987042141105653026e-02,1.132907828507146719e-01,-5.105177912860944245e-01,5.048770414582411103e-02,-5.463425097130427538e-02,4.278045507665840380e-02,6.051033139228820801e-01
5.935344539764197958e-02,2.109591779792334698e-01,-7.351471444082419149e-01,9.481346962922501675e-02,-3.407356210931690443e-02,3.005856734474416161e-02,8.987929224967956543e-01
-5.281221197834556902e-03,1.533183891720305558e-01,-4.924191337146827663e-01,9.686621534980528747e-02,-7.067357159283434165e-02,4.581677833993949567e-02,6.238173246383666992e-01
-3.029406985315052231e-02,1.025520991022139672e-01,-2.923911485383653419e-01,2.775909850712413376e-02,-7.334852320065021747e-02,7.823308124351588400e-02,3.974601030349731445e-01
5.820737898783789888e-03,9.255262561258817411e-02,-4.158208147235434304e-01,5.297406324156864188e-02,-5.852763967238823473e-02,4.707651524520310021e-02,4.972098171710968018e-01
-8.767636973490908203e-03,1.133636240214108692e-01,-4.300362711415338102e-01,3.700608478676801344e-02,-4.461295041464118788e-02,1.439317746423969145e-03,5.039036273956298828e-01
1.283294944620383404e-02,1.066825669979944435e-01,-4.681564104363019063e-01,7.995750941890196473e-02,-1.432733046193856441e-01,9.261044863770911961e-02,6.259317994117736816e-01
6.840566871601488907e-02,6.407562403904529247e-02,-4.329637295759760085e-01,-9.958139579008058045e-03,-1.640191417836395216e-02,-1.653789705026713353e-02,5.011428594589233398e-01
6.723823725939184759e-02,7.241865311823056373e-02,-4.267641882354494265e-01,4.990190499184138720e-03,-4.570110268257774992e-04,-5.703189777307004354e-03,4.967869520187377930e-01
5.400676440623772279e-02,6.173667070938890222e-02,-3.861584346193587813e-01,-4.634805874800670359e-04,-3.471826803121918353e-02,-6.856275151429247483e-02,4.636020362377166748e-01
6.142453890322074894e-02,6.666214144877630199e-02,-3.932857784381957322e-01,1.076372726195375454e-02,-5.500366506993533550e-03,-1.300671669209804877e-02,4.583845138549804688e-01
5.920546793720235512e-02,7.457544987944231263e-02,-4.128001539535853803e-01,2.753525730132204852e-03,-1.865452691816157395e-03,-1.139469564989412619e-02,4.803154766559600830e-01
5.853136326757157892e-02,8.011485446416924394e-02,-4.154148692746267302e-01,4.558924954804011685e-03,-1.383491952034465733e-03,-1.481639152457551491e-02,4.858466386795043945e-01
7.666175626978824487e-02,7.563844952921169873e-02,-4.486477274472945864e-01,-1.945713213396700440e-03,9.196730401754825987e-05,-6.547920614875220660e-04,5.248106718063354492e-01
6.443120993541653907e-02,6.377133157431397192e-02,-4.270336877769688733e-01,-5.994283601544393714e-03,-9.912506313921043422e-03,-1.605094969356101950e-02,4.923305213451385498e-01
7.405221259007388479e-02,6.653783206695859653e-02,-4.421998034461006033e-01,6.036052283578721353e-03,-1.345226824289284546e-04,4.717747968259939674e-03,5.127079486846923828e-01
7.190815041463888280e-02,7.656502839686973871e-02,-4.317868354731399516e-01,-1.532287917190290746e-03,7.696599127615366936e-05,-2.061558587211426499e-02,5.073046684265136719e-01
6.538563956323267812e-02,8.517394738768188645e-02,-4.354903649671439392e-01,1.142926157604008024e-03,-1.090944971925844869e-03,-1.591985426625134117e-04,5.110649466514587402e-01
6.189095035552555357e-02,1.030556035168721796e-01,-4.740906040045999581e-01,-6.072266681724183823e-03,7.035000662698175089e-02,-2.242443437779130001e-03,5.709705352783203125e-01
5.091573899974541351e-02,6.226116449551075127e-02,-4.495284858125064842e-01,2.422072867636836449e-02,1.002583909023820399e-02,-8.224459901529510703e-03,5.084440112113952637e-01
4.512988580472898636e-02,8.715565239756473126e-02,-4.605984274777740195e-01,2.089927303922296808e-02,-3.769842455139978468e-03,8.330362112467281158e-03,5.294733643531799316e-01
4.362337265967716760e-02,5.604974482211966258e-02,-4.554412163892035958e-01,5.789359575488590981e-02,1.112017054762197952e-05,1.242763298457397116e-04,5.152441263198852539e-01
7.960977601687241334e-02,6.987781043902147049e-02,-4.440700547920939933e-01,-1.969921037406656243e-03,-2.883435833673325633e-04,-3.465217420975542657e-03,5.189284682273864746e-01
6.214651469115931026e-02,8.510928438991138822e-02,-4.615303366238785454e-01,1.292870249698443649e-02,1.404938010576806465e-02,-8.561512829709965952e-03,5.367525815963745117e-01
3.447492814116895343e-02,6.699737684723289233e-02,-4.433642500859660829e-01,3.153195243626100153e-02,7.440026829279357832e-04,-3.662897276036489375e-04,4.979089796543121338e-01
7.507186402822332849e-02,6.462092874618913241e-02,-4.614193038616042353e-01,2.391285763969908107e-02,-5.402824911935272603e-03,8.040061755029439400e-03,5.332186818122863770e-01
6.836362569244774923e-02,6.775565219978615938e-02,-4.200676845665568537e-01,-3.103819979312959568e-03,2.933495771758614420e-03,-5.221685575881299460e-03,4.882674217224121094e-01
5.766953952244283088e-02,8.571961807800576594e-02,-5.077572216485806145e-01,4.279583902871791912e-02,1.251171939591908845e-02,1.031494061116396870e-03,5.850827097892761230e-01
7.724387131878196477e-02,7.363900496044728516e-02,-4.481866282014264069e-01,-8.642710457814728030e-04,-3.900263822662101369e-04,-9.382269426729108802e-04,5.236424803733825684e-01
7.521255007158766936e-02,6.914060595040300017e-02,-4.316109589628321364e-01,2.338762113189977229e-03,-1.532633667588578427e-02,5.395663751986291140e-04,5.045309662818908691e-01
6.962113530380639737e-02,8.979324424006757122e-02,-5.015523213038675099e-01,8.852488810178044815e-03,-4.884552202802473764e-02,5.809280956032396304e-02,5.963932275772094727e-01
5.896381135682002284e-02,8.167913523730607750e-02,-4.323469051628815452e-01,1.844760891184892134e-04,-5.040352368134018608e-03,1.851368427210736559e-03,5.031392574310302734e-01
4.123080411793078603e-02,6.288768848249443044e-02,-3.737791795841560183e-01,1.430880767410496260e-02,-4.968440381779996862e-02,2.834174378037068731e-02,4.383146464824676514e-01
3.743406060186504902e-02,7.047356929295181538e-02,-3.682116811108134269e-01,4.097833192752825364e-03,-4.848727476624504346e-02,8.217175621419462936e-03,4.316809177398681641e-01
6.230525217262630755e-02,4.576166256474667460e-02,-3.588417781480112700e-01,-5.418248584215497668e-03,-3.966142236985072123e-02,1.035350614718995310e-02,4.192850589752197266e-01
6.832503546757964785e-02,6.316274627520201967e-02,-3.843423508742921935e-01,-2.483628188926677565e-03,-6.505428129806396786e-02,1.932476872474067631e-02,4.652232229709625244e-01
4.290965349620559643e-02,6.268006066406744958e-02,-3.555329789054638145e-01,6.730614343684696314e-05,-1.727907447107456321e-02,-1.521119343643730039e-03,4.097895026206970215e-01
9.228071600566742361e-02,-1.415272702980577280e-02,-3.920874015916522848e-01,4.091357032354279999e-02,9.637393583602393149e-03,-3.800524028651671316e-03,4.469130933284759521e-01
1.370752277701322019e-01,1.715333831560456046e-02,-5.345400647023632601e-01,6.770458798466976597e-03,-3.491410116050647303e-03,5.517315667657013076e-03,6.206225752830505371e-01
1.383673955708743519e-01,2.043150337451238308e-02,-5.374704713076668972e-01,1.527144535624348765e-02,2.230286275439564286e-02,1.105746710513857804e-02,6.273108124732971191e-01
9.706836704526347614e-02,3.772005460730934456e-02,-4.634290099834273979e-01,1.615282018421679289e-02,-6.085882207696798052e-03,1.194550713085974596e-02,5.345436334609985352e-01
1.136171343257826316e-01,2.111168417847406054e-02,-5.037237372406855318e-01,3.150123303840848127e-02,-2.927889244329030458e-02,1.818885582033659670e-03,5.814793705940246582e-01
1.240053792320969239e-01,-1.165506688702758198e-02,-4.587300535605333685e-01,3.318575713667917121e-02,-3.474655575421293184e-03,-2.139328944700941409e-03,5.313040614128112793e-01
1.231409071777652686e-01,1.825311954814584636e-02,-4.801792413351974043e-01,1.810775812281279276e-02,1.933175484317374571e-02,-2.524468941229170149e-02,5.619007349014282227e-01
1.060723133531911444e-01,2.012173131489636280e-02,-4.621886445757407702e-01,9.344303783996196072e-03,-4.726468704744825160e-03,7.897448800222169399e-03,5.310195088386535645e-01
9.495517238304360119e-02,4.538280943463715578e-03,-4.199919014357620384e-01,3.087593989235385555e-02,-1.823239189987811704e-02,-1.001004355799672146e-02,4.805659353733062744e-01
6.350986493507992936e-02,7.889344772889264612e-02,-4.234940899395003289e-01,2.422779567006031008e-03,1.431840541778789345e-03,3.683248816056490516e-02,4.989940226078033447e-01
4.607688134795256962e-02,7.395430115455511877e-02,-4.452112394821872710e-01,4.540041491612960278e-03,-5.756185259661327630e-03,3.456397832015196698e-03,5.059981346130371094e-01
5.389188014660867276e-02,7.344911843353299497e-02,-4.461203094574100469e-01,1.087466296963055835e-02,-2.820057978596135061e-03,3.993962931432812162e-03,5.104900002479553223e-01
5.346172659344408662e-02,8.106049147361218954e-02,-4.572991698996122789e-01,1.017564577530294737e-02,-3.936454772139114620e-03,9.560979939388031604e-03,5.257053375244140625e-01
3.890344881896626306e-02,8.262858579966639305e-02,-4.454693453386930901e-01,5.003465996700593062e-03,-2.370839443460692232e-03,1.903288868695611046e-03,5.077509284019470215e-01
5.366101977122025857e-02,7.919950501336783799e-02,-4.461854912222072977e-01,3.081546655065407411e-03,-4.515431052833814886e-03,2.243957827986124524e-03,5.131947398185729980e-01
7.532372214159188673e-02,6.785850398176088150e-02,-4.585038183609003171e-01,1.362371920590221136e-02,-7.166338352618346376e-03,1.974521043800802830e-02,5.319049954414367676e-01
8.379862011946176414e-02,6.842581414399959150e-02,-4.622293388184348650e-01,-1.033896864945897838e-02,-6.464414445744934810e-03,-2.182922423901876782e-02,5.402448177337646484e-01
6.865788645952283775e-02,4.985256605707100164e-02,-4.484313575161247289e-01,-1.911286784892702803e-02,-5.626048376674878601e-04,1.943975319160984501e-04,5.090264081954956055e-01
6.895471300530575665e-02,5.735561172451064671e-02,-4.555605392244301277e-01,-4.608105251209782677e-02,3.196603731827203990e-03,2.142002764621180055e-02,5.262550711631774902e-01
7.607406698111279786e-02,7.803490688453967872e-02,-4.607254509486048977e-01,-7.518714877466581292e-03,6.098311636692722772e-04,1.710502039675165960e-03,5.379494428634643555e-01
8.171402325938587063e-02,5.209436805645278890e-02,-4.567789670563667803e-01,-9.022703995538812818e-03,1.457655111097396394e-04,1.007405314908678927e-02,5.248340964317321777e-01
7.906665776730784079e-02,4.201230816560022618e-02,-4.822218530446659157e-01,-5.651194435072980082e-02,-2.626892555696283202e-02,-2.778347526367180506e-02,5.564048886299133301e-01
4.453301371001480713e-02,3.745486472645204179e-02,-3.012637854368838131e-01,6.573101161435338652e-03,-3.726878231351170301e-02,-2.263858490744413351e-02,3.507305979728698730e-01
3.000426382947755932e-02,2.667623512766996441e-02,-2.426154901320690949e-01,3.735900090073678015e-03,-5.184919013246880315e-02,-2.547410723538958907e-02,2.889273166656494141e-01
5.469720784372661404e-02,3.767978147248489396e-02,-3.063945049602109783e-01,1.142238737776481682e-02,-4.889605779129226754e-02,-2.482533396039196538e-02,3.659846186637878418e-01
6.730531842625817052e-02,4.898431279897985657e-02,-3.791378152657104428e-01,1.026778061814741239e-02,-3.874662793375181769e-02,-3.860909769975678224e-02,4.480625092983245850e-01
4.423583764580149569e-02,3.344316213420046868e-02,-3.027834350766781535e-01,1.278320247911293554e-02,-2.157180188234609705e-02,-3.618444449557082273e-03,3.445564210414886475e-01
6.747988459642517700e-02,7.480366792945236654e-02,-4.414554862154097536e-01,-1.561811601454017151e-04,2.860634945035246159e-03,8.397179564242055264e-03,5.128667950630187988e-01
3.554084748407257410e-02,9.281293953576633116e-02,-4.157111624132726613e-01,-2.359361849674272010e-02,-1.982356875340399865e-02,3.475591297937430900e-03,4.854253232479095459e-01
4.899324996637521856e-02,3.488708779371486879e-02,-2.951442208105798937e-01,2.216827484202784412e-03,-5.999634170356267504e-02,-2.911062869461767191e-03,3.530070483684539795e-01
4.762707682004102550e-02,3.855317522306515865e-02,-3.092319536289717119e-01,-1.749798732769598526e-04,-4.145489552693015084e-02,-3.246481708847954572e-03,3.596940934658050537e-01
1.547924736907485554e-02,2.338030968429570533e-02,-1.983369464262367821e-01,5.709005430164509551e-03,2.795664541258172098e-02,4.276524150592692086e-02,2.353683561086654663e-01
3.625907823363788696e-02,4.374386647718740695e-02,-3.051199330913196839e-01,9.232617728762949547e-03,3.731160598339342688e-02,5.439564638197112723e-02,3.639500737190246582e-01
4.522853380865426987e-02,5.068274327252031419e-02,-3.354255435230654725e-01,-2.276132325031150587e-03,5.949856164369878714e-02,2.784235734931029410e-02,3.999560177326202393e-01
4.308892214132836740e-02,6.549794513711548749e-02,-3.839753145280220270e-01,3.396475363819131434e-03,4.207248749154290923e-02,-1.099341967753346416e-02,4.451556801795959473e-01
7.703937839212815497e-02,7.389252753540254126e-02,-4.481856109966251833e-01,-4.502662516825130593e-03,4.548469799632749201e-03,-2.357305563911067658e-03,5.237919092178344727e-01
7.430098437251952959e-02,7.396928023205576186e-02,-4.424165673997365600e-01,-4.014422343499702769e-03,5.354376478847066266e-03,-5.494469227397225271e-03,5.167694687843322754e-01
6.735007922494321009e-02,7.079419491714128432e-02,-4.437216178682007461e-01,7.634926022270950921e-03,-2.931616028349106218e-03,3.682245903579880412e-03,5.130376815795898438e-01
4.006361009511344440e-02,8.551106302948491278e-02,-4.547737047311418146e-01,1.524916067380889875e-02,-3.820876225946091657e-03,3.443805992260161927e-03,5.198033452033996582e-01
5.434799767820261418e-02,1.161926078404105500e-01,-5.220154383408575072e-01,3.584480568511193288e-02,1.248555420143756742e-02,-7.311850929152024364e-03,6.133083701133728027e-01
4.908508569317629466e-02,1.301733457932134352e-01,-5.245551847003371293e-01,-1.207140712968765225e-02,2.986735572315419099e-02,-7.750260034532057904e-03,6.208441853523254395e-01
4.233945088696694503e-02,1.314001227060768717e-01,-5.225933670509748108e-01,-1.025842981738204736e-03,6.221630222190760277e-03,1.923057331249522148e-02,6.153234243392944336e-01
7.647613108237077961e-02,6.204162520381570345e-02,-4.182935391178085882e-01,4.135165527555104310e-03,2.976081876199520443e-02,1.566377391761426471e-02,4.912312030792236328e-01
7.574370825078197145e-02,7.079504625789176386e-02,-4.206894608682226200e-01,3.408100134553999731e-03,3.716254928464948759e-02,5.548034998307045836e-04,4.981893599033355713e-01
5.688561356760810095e-02,8.423376590205938763e-02,-4.434876324428830285e-01,-5.587634038162212283e-04,3.033355029908879272e-02,-1.029852291392496268e-02,5.175761580467224121e-01
5.269116971101839297e-02,8.421117084699639155e-02,-4.033709434009066785e-01,1.616244448766123928e-02,4.315618795087788201e-02,7.011749465196130161e-03,4.794577956199645996e-01
5.043428351317522096e-02,9.783180817867251355e-02,-5.018510357748268147e-01,-1.977980354455903186e-02,4.396133198530176311e-02,3.436084045154385452e-02,5.864776968955993652e-01
4.844335972222207909e-02,6.958824233404853343e-02,-4.002004089907503226e-01,-9.713765726094156228e-03,-3.371143421492101694e-02,-8.461547287978359727e-03,4.638125896453857422e-01
3.830644653988130033e-02,9.239704759079375718e-02,-3.823456391233531204e-01,3.891284683255676492e-04,-3.369369903239110425e-02,-6.068448064891798777e-02,4.659199118614196777e-01
6.215890824507008805e-02,4.737446647925319665e-02,-3.675096909144460189e-01,2.332741942710670098e-03,-5.806148329247015627e-02,-3.769505547070946955e-02,4.391739368438720703e-01
7.690262935024605451e-02,6.582224910016504227e-02,-4.427644355752354266e-01,-4.627556600243981806e-03,-9.677009865109588438e-03,-2.856536468075293600e-02,5.169251561164855957e-01
4.328499679360148233e-02,6.401261280862222125e-02,-3.461648332312404208e-01,-1.251283836277291509e-04,-7.379633560281351201e-02,1.264203492127886170e-03,4.201377332210540771e-01
5.148902564546994909e-02,4.802896579010539069e-02,-3.157441645633734528e-01,6.306383515896964512e-03,-7.018224697991155836e-02,-2.052052280484914851e-02,3.869893550872802734e-01
6.906810475770597257e-02,7.195809202370209712e-02,-4.464541742237215227e-01,2.357684256230393755e-03,-3.291545112982631385e-03,4.763181480552049554e-03,5.170866847038269043e-01
6.444371308633980999e-02,6.583474180985637858e-02,-4.441373024629378108e-01,3.038982658823365622e-03,-7.509121022884410190e-04,-7.701040957811801585e-04,5.093085765838623047e-01
6.746299248701870255e-02,6.871493243299012232e-02,-4.359673815642104988e-01,5.949635504831631352e-03,5.071306858821400532e-03,1.208374095056300980e-05,5.042393803596496582e-01
7.219428386829357391e-02,6.639058237464826040e-02,-4.459963879672461107e-01,3.940112128473981408e-03,-4.064348061984813729e-03,3.784415198968835506e-03,5.154482722282409668e-01
5.974100134756596403e-02,7.159236846652641817e-02,-4.452716626426890256e-01,1.002547722470310647e-02,4.755440057611698933e-03,-3.220390852171821014e-03,5.114331245422363281e-01
5.736643077790654077e-02,6.797369719269791277e-02,-3.842739491686655295e-01,-6.770441164831848130e-03,6.710526607430308821e-03,-3.284859442964536969e-02,4.509468376636505127e-01
6.415497437220513133e-02,5.729158935215117321e-02,-3.652998213421336793e-01,8.248878765986365769e-03,2.734686175553670273e-02,-3.482683296785123866e-02,4.331482648849487305e-01
5.188556520060166877e-02,4.874557425221967555e-02,-3.250375077955794945e-01,-6.512631262929623882e-03,5.460096813890587958e-02,-5.139535811527745635e-02,3.973572850227355957e-01
3.634795490437547905e-02,4.456523821546888586e-02,-2.987588043456806952e-01,-1.213948933026923020e-02,3.012168703174986084e-02,-5.813835286161036370e-02,3.583601415157318115e-01
4.706811568636926069e-02,3.272899184786466631e-02,-2.672833953527528617e-01,-7.848862174517474977e-03,5.756702782587702627e-02,-6.577723689242782369e-03,3.236841857433319092e-01
7.191350005651778177e-02,5.059266140000165390e-02,-3.762109866857231144e-01,-4.931923984853433564e-03,6.044662999123114056e-02,-1.063974725688283940e-02,4.506547749042510986e-01
6.412480775999865323e-02,6.045406929419377962e-02,-3.906096073841348604e-01,-8.042097802246493850e-04,1.688624651631259049e-02,-1.478576575827973867e-02,4.545776844024658203e-01
6.591332470975611035e-02,5.858732149128415001e-02,-3.700846446595341122e-01,-5.018947714666948182e-03,5.298195222844989671e-02,-2.453836223683805891e-03,4.421184062957763672e-01
4.766499856022179960e-02,5.571649562193922711e-02,-3.477019015124638845e-01,4.358602050417139696e-03,6.300056653575904220e-02,-3.980837372889713816e-02,4.198588132858276367e-01
6.079425086878295637e-02,5.780584866536669919e-02,-3.659321223905826481e-01,-9.275102491607647298e-03,4.265683356207058963e-02,-4.605931059019399004e-02,4.392156302928924561e-01
7.021879232814809413e-02,7.016074583369277806e-02,-4.077788684243032757e-01,-4.218924163677712641e-03,7.245050980970349497e-02,-3.049433470076706038e-02,4.970355629920959473e-01
7.188504707967297014e-02,7.169993208654956707e-02,-4.454339112471150108e-01,-3.657365357164891508e-04,-1.796120437484573966e-03,-5.605661188297189320e-04,5.172370672225952148e-01
5.594582536824227459e-02,8.155204997364196018e-02,-4.154231417191639464e-01,1.793076342875712589e-02,6.427591371176534507e-02,-3.649106636034465945e-02,5.022627711296081543e-01
5.592883074344112693e-02,5.675862193929687161e-02,-3.603161913379417935e-01,6.282576448645647328e-03,6.139980121131706492e-02,-3.767895153849274564e-02,4.350785315036773682e-01
7.625967571199962491e-02,2.410178310836505466e-02,-4.543341410301857675e-01,4.534623074326479125e-02,-2.672035432576669919e-03,3.857479649889901038e-03,5.126504302024841309e-01
8.576529031993174179e-02,3.727551497763728627e-02,-4.591833355355560697e-01,1.199765550292815341e-02,-3.596184897160962807e-03,-2.088071879454361703e-03,5.228570699691772461e-01
1.255659218234493890e-01,2.103770956985559493e-02,-5.135593629822658990e-01,4.883770028388120799e-02,-5.791523192455842739e-04,-4.171010055446830456e-03,5.998409986495971680e-01
9.476789315024203297e-02,3.160440123503119314e-02,-4.575103010747445520e-01,5.653306099108628725e-03,1.688074333996637116e-03,-4.298513297759170952e-03,5.237144827842712402e-01
1.048916851124155059e-01,2.184231001120978677e-02,-4.576587792573633684e-01,1.023667610886216418e-02,9.839101217550194275e-04,-3.223298015243246644e-03,5.262976288795471191e-01
1.050548946766883540e-01,-5.485253536046785783e-03,-4.511447299546230694e-01,2.827068200732301556e-02,3.514580585032139708e-03,-3.295628101672367239e-03,5.124081373214721680e-01
1.277396691776044313e-01,7.608904000198674078e-03,-5.053941357375730803e-01,2.894270409634071978e-02,-5.792722211663455141e-03,1.019142478250032770e-02,5.849412679672241211e-01
5.142454625802447832e-02,6.976692744640938804e-02,-3.802474026509998772e-01,-4.371424474076806947e-03,-1.973416436251656733e-02,2.144443802974397087e-02,4.440723359584808350e-01
5.183298998678742553e-02,7.008523519140516522e-02,-3.739097162258688822e-01,2.247678083949802537e-04,2.248601217742425204e-02,1.912332967952352566e-02,4.381493628025054932e-01
6.314106498509253207e-02,7.142703224889818125e-02,-4.129052528623771146e-01,-8.406704511000853697e-03,-1.630512877283958259e-02,1.550936056888307241e-02,4.820419847965240479e-01
5.913114285546211546e-02,6.790027421112176942e-02,-4.487415541488486426e-01,1.438865250843732874e-02,-1.707095516208654651e-03,-5.609198711160860587e-04,5.129287838935852051e-01
6.089184306074507669e-02,6.167240807761328880e-02,-4.014189920407489898e-01,-4.146653166322177529e-03,2.650023739655571128e-02,2.773962644326833163e-02,4.675036072731018066e-01
6.845650038325387654e-02,7.686503220853221907e-02,-4.341864698676419776e-01,1.107645471105705211e-03,-1.577544764263385819e-03,5.878473142424110211e-04,5.069115757942199707e-01
7.298484945749600383e-02,7.386393391918694151e-02,-4.493580244751638753e-01,-2.778896145018197421e-03,9.268996632350933818e-04,-9.958012460064575438e-04,5.228104591369628906e-01
7.298345553677701436e-02,6.262171173735983642e-02,-4.230904203386417484e-01,1.010278878494594052e-04,1.618478310107101257e-03,1.663093731446177448e-02,4.918273389339447021e-01
6.178402756740514201e-02,5.139462991521309698e-02,-3.654428060442529991e-01,-5.215885005589324976e-03,2.357040948472523961e-02,3.494372043219942658e-02,4.284898936748504639e-01
6.498499245335012664e-02,7.412472873013603580e-02,-4.188819547219230777e-01,-2.634649707691678455e-03,-2.651763290355454701e-05,1.316335190868869395e-02,4.890539944171905518e-01
6.322168520934215441e-02,6.539922348417553932e-02,-4.433871287243968951e-01,-7.394905652645136079e-03,-1.552488234064479909e-03,-2.655553082733531130e-03,5.078905820846557617e-01
7.318046189931651235e-02,7.269707425176227811e-02,-4.447392442806542001e-01,-1.749662868992790405e-03,-5.712007265404558422e-04,-2.200437476029450524e-04,5.176881551742553711e-01
6.318651136304812010e-02,6.957042617412434460e-02,-4.448355253561347977e-01,-9.533676174103356341e-03,7.858466649915190824e-03,8.764575919912840490e-03,5.119166970252990723e-01
6.536237817724493970e-02,4.132838477541186939e-02,-4.425841696410960369e-01,-2.697729831439830278e-02,2.352075648812220442e-03,3.629659625022923098e-03,4.986168742179870605e-01
6.768310389360696067e-02,6.258256048291893636e-02,-4.430163219230393024e-01,-8.719678202903303338e-03,-1.273085317600222135e-03,-1.169976278123834382e-03,5.084015727043151855e-01
8.451691060879165662e-02,3.116008923834731603e-02,-4.801999686457815719e-01,-6.466650857217640103e-02,1.250158039084309225e-02,1.821910062867625885e-02,5.528386235237121582e-01
1.036255624059839175e-01,2.635709162644359060e-02,-5.495536550093653716e-01,-1.033172743374778935e-01,1.436356061342534442e-02,2.067529118251666340e-02,6.450333595275878906e-01
4.072336544319735130e-02,8.367901183907644480e-02,-4.697721854746779724e-01,-2.807206387775513373e-02,-3.685520571724643611e-03,-2.704314901330775404e-03,5.355430841445922852e-01
5.229111869911912125e-02,6.396644518050298434e-02,-4.412594456734232340e-01,-1.047454906771879378e-02,-7.165272099834003351e-03,-6.936986578193906836e-03,5.001183748245239258e-01
6.951709359173324776e-02,6.598587911829956187e-02,-4.373062592801594262e-01,3.457607728423225078e-03,6.553640587332459910e-04,-5.161789239868003242e-04,5.051046013832092285e-01
4.241711709516435280e-02,6.269378433377714721e-02,-4.464381197189158934e-01,-3.197136956072125363e-02,-9.687054873795824823e-04,4.425789681348464913e-04,5.023672580718994141e-01
3.991399064026707189e-02,1.010151100117229472e-01,-4.731652857377847132e-01,-3.691771186115429954e-02,-1.874497046059828403e-03,-6.192596057538002872e-03,5.500434041023254395e-01
8.233478608183519842e-02,6.745048717290236251e-02,-4.405808956616920624e-01,-1.562707978324663453e-03,-1.860792524309722159e-03,-1.462804517822425187e-03,5.156580805778503418e-01
4.810519595197004783e-02,3.116126597581497792e-02,-3.148026167226237737e-01,-4.076426229967565137e-03,3.633083568371328620e-02,-7.440650639929278012e-03,3.605770766735076904e-01
7.145751426209667745e-02,6.836020830775393908e-02,-4.328640592481324267e-01,-5.839728642553264695e-04,-8.869340075066838025e-03,4.064830511050258714e-03,5.030649900436401367e-01
6.139956031870716369e-02,5.832732998530501534e-02,-3.928998646912899018e-01,-1.492800051858403365e-02,7.001820591521959632e-03,-3.000138358266150190e-02,4.566372334957122803e-01
6.751014553909936988e-02,5.074090157700336667e-02,-3.596559371591769860e-01,-5.949746699673881881e-03,1.017934272785535194e-01,-1.445229853978790766e-02,4.554199576377868652e-01
2.953968751681700089e-02,2.445617494098453748e-02,-2.446700971427401006e-01,2.453734843730229730e-03,2.907804876386706899e-02,-2.433302678622576917e-02,2.795600891113281250e-01
3.697095233159902739e-02,9.492471231573340607e-02,-4.033695209156423211e-01,5.651642631376394867e-03,3.034954353639840799e-02,-2.790511064898727744e-03,4.750370681285858154e-01
7.628351782030390327e-02,6.768799675832254392e-02,-4.291249719670394147e-01,-3.470872434489066967e-03,2.339422836653913887e-02,1.182218167013886732e-03,5.028415322303771973e-01
7.222535900658502706e-02,6.017906654001786704e-02,-3.860860403502237581e-01,-7.932151807783602293e-03,4.574129549093163688e-02,-2.143083357538234229e-02,4.609955549240112305e-01
1.403312825725082924e-01,8.715309206270671627e-03,-3.367996948342218411e-01,-1.793732363916640191e-02,6.019785839071077095e-03,9.888333058587224500e-02,4.610708951950073242e-01
4.478443529711260973e-02,3.773465882191774645e-02,-3.064282920137577637e-01,-1.011062225120665063e-02,-4.119546048913293179e-02,8.453790319744108883e-02,3.843981623649597168e-01
4.431711470181429191e-02,6.176686145196264022e-02,-3.584675426620839711e-01,-4.006389368504214080e-03,-2.876607530010763872e-02,5.452073155846556135e-02,4.254604578018188477e-01
5.869086529370409755e-02,4.757623973827182495e-02,-3.560180843008854401e-01,4.891087072611609993e-03,-9.147602701218110824e-03,4.202032878895504281e-02,4.160740673542022705e-01
6.908775152616533632e-02,6.051066808146954301e-02,-4.012244059043653110e-01,-1.345312608116985571e-03,-2.418692117010446882e-02,9.673778642460378885e-02,4.970595836639404297e-01
2.880754289031906001e-02,4.672009433008089685e-02,-2.816238188245134832e-01,-1.693144295266611667e-03,-2.621632199287185841e-02,5.942899147604442656e-02,3.389911651611328125e-01
6.571152318293324579e-02,5.191032086343769225e-02,-5.052131757841739068e-01,1.114175568629029167e-01,1.031629477419446390e-02,-1.666372150937200231e-02,5.972101688385009766e-01
1.075682619502322246e-01,1.450396029562981970e-01,-7.731127503525772049e-01,9.615805840555305406e-02,-4.963820888988237923e-02,3.661904425398465612e-02,9.214972853660583496e-01
1.211177022312556750e-01,6.801388872595764967e-02,-5.326820351652080676e-01,4.060400159967309658e-02,2.488007454533128562e-02,-3.669680041358311384e-02,6.374934911727905273e-01
7.933330364606111518e-02,6.694446811518875440e-02,-5.073448998736294069e-01,7.100251828541825905e-02,1.494241560037492178e-03,4.053749156388800068e-03,5.935121178627014160e-01
4.425944810971876864e-02,7.864695860217918444e-02,-4.564034594175661597e-01,2.558701878644058236e-02,1.353519261743751922e-02,-1.058220214279444703e-02,5.214518308639526367e-01
6.768827371078109389e-02,8.514407149717134748e-02,-4.632510756262344653e-01,-1.242558351453970688e-03,-3.757632641692227032e-03,-7.563408175286027426e-04,5.399240255355834961e-01
5.354461962798087726e-02,6.944935717245603879e-02,-5.032976096191390525e-01,5.635486887060962846e-02,3.051558703717634300e-03,6.260403752091395560e-03,5.734595060348510742e-01
5.828812023240975693e-02,6.049107738975689763e-02,-3.759879381241040264e-01,9.493962042407433355e-03,9.491518734946448321e-03,2.877502173701470406e-02,4.388415515422821045e-01
2.411892293517914343e-02,2.512560855316192665e-02,-2.465401490733670209e-01,9.079561059792701921e-03,3.698501364720577222e-02,5.454402812800625971e-02,2.946285009384155273e-01
1.350287743859399092e-02,1.071036245510287310e-02,-1.993358124743904447e-01,2.359401656636163965e-03,1.778838009739374532e-02,2.083224412934638059e-02,2.167525738477706909e-01
6.044540471388495928e-02,6.811333854421014466e-02,-4.018118098436875840e-01,7.898451037481935000e-03,5.190195248426211772e-03,2.313389029002792599e-02,4.681437611579895020e-01
7.242632151480934977e-02,7.244750319467424537e-02,-4.435670804880835760e-01,-5.480642364624541477e-03,6.727331349768084744e-03,1.049651418758976162e-02,5.165428519248962402e-01
5.438740800158145539e-02,4.802533312693030298e-02,-3.588603491369518061e-01,-4.407855468284625072e-03,2.818259075899702537e-02,4.511955100029807486e-02,4.203967750072479248e-01
5.068676060005000705e-02,2.810313823220274287e-02,-2.651597187590337690e-01,6.835040238480772148e-03,6.114713103976045228e-02,3.297955617267746969e-02,3.282622098922729492e-01
-5.486509861574770386e-03,1.715982832748678133e-01,-5.434443577166181427e-01,-8.278728735541461548e-02,-3.101509701628315380e-02,-1.058180551848836165e-01,6.877944469451904297e-01
1.159880856977386909e-01,4.170655965375286156e-02,-5.122790831257229005e-01,1.930396128065851868e-02,2.076659772902404721e-02,-1.326943876478128836e-02,5.970834493637084961e-01
2.723318001047309034e-02,1.286025177649267048e-01,-5.630762252449453831e-01,-1.368625084237936329e-01,-6.661580071526907940e-03,-4.405768969544616304e-02,6.933473944664001465e-01
1.586535127860388972e-03,1.238392053990482466e-01,-5.073827925382202730e-01,-7.375364948887978833e-02,1.932426242831755334e-02,2.082392176286609192e-02,5.957838296890258789e-01
-1.731271033310816110e-02,1.529955808165074371e-01,-5.691903161028017966e-01,-9.426157679787655619e-02,5.363020195437804422e-02,3.332162700206101752e-02,6.827726364135742188e-01
1.963503991188675357e-02,1.450806852625492471e-01,-5.604100683811608086e-01,-6.941742560560471009e-02,-1.349233789901513499e-02,-1.098952989351284840e-02,6.635645031929016113e-01
2.113478171704083475e-03,1.254935676569369774e-01,-4.836588068097804061e-01,-7.154606380199271531e-02,2.551877758064130704e-03,1.579497003212738948e-02,5.720633864402770996e-01
1.090999915425044375e-01,-2.911017616119740414e-03,-4.624250561540567128e-01,3.696356623970654953e-02,9.695706984571261225e-04,-3.735907309413284607e-03,5.285015106201171875e-01
7.670347036665967067e-02,4.120958814962627503e-02,-3.989648598157654602e-01,-9.969994213433199318e-03,1.010865787963549992e-03,4.942344384581022487e-02,4.671896398067474365e-01
3.897257943030846272e-02,2.933639744468319321e-02,-2.719912375721338926e-01,8.256559193111955366e-04,3.238862464954177234e-02,1.232965683235230092e-01,3.775580525398254395e-01
6.132289640497146088e-02,6.684468125735068544e-02,-3.878818417866410351e-01,6.455017423937980600e-03,2.276473253847947562e-02,4.825337231122278636e-02,4.614766240119934082e-01
1.234585428389889383e-03,1.165088347725460050e-01,-4.603884677162721206e-01,3.816776778651045574e-03,-7.866419191101882077e-03,4.656689127993223105e-03,5.290478467941284180e-01
-3.310223737932166399e-02,1.306435129342262691e-01,-4.652286152903808980e-01,-1.845940464810413590e-03,-1.767237128320694323e-02,1.077854966589089202e-03,5.340930223464965820e-01
-3.520615827872139447e-02,1.343562372276175809e-01,-4.660591786704327277e-01,-7.726573597887164508e-04,-1.630646381407326387e-02,-8.948916551499740742e-04,5.368837118148803711e-01
-1.563523070491043554e-02,1.913017264190770006e-01,-5.701911197417148802e-01,1.499106117226116234e-03,1.048976794506177417e-02,-4.258218162803364785e-03,6.822788715362548828e-01
-3.653057894069455802e-02,1.399407452258938922e-01,-4.536112595496448741e-01,1.648867697179850350e-02,-2.421351545065845295e-02,-1.498421825437405708e-02,5.309889912605285645e-01
-3.880927184455537637e-02,1.447965149077905522e-01,-4.751406309279797568e-01,-1.729383165266193661e-03,-1.087043035330694554e-04,-3.168937105061482226e-03,5.515870451927185059e-01
-1.463020887217243715e-02,1.799210018835177283e-01,-5.625115776606470774e-01,-1.791375721274862318e-04,1.164164003321965617e-02,-9.539074855446326440e-03,6.673041582107543945e-01
6.408273942918843447e-02,1.177972079922812720e-01,-5.050831946067653178e-01,1.629045904420707916e-02,-5.205297517945419589e-02,1.376722505587790919e-02,6.057233810424804688e-01
-1.602780864075704914e-02,1.656321055907131190e-01,-5.600283607860603308e-01,1.240033321340318004e-02,1.002284057560674443e-02,-8.235187372928914895e-03,6.547718048095703125e-01
2.132973312251378317e-01,3.913885599019575889e-02,-7.286972872265887746e-01,-5.954222174960603631e-02,-9.261750206689926476e-03,5.247790725932639788e-02,8.790811300277709961e-01
1.581257229516352392e-01,-1.573795538669006677e-02,-5.493067324896636627e-01,-3.097682754972425762e-02,1.928001971729817465e-02,3.672024221513117692e-02,6.447724103927612305e-01
1.402116452334793428e-01,-1.590744686550055187e-02,-4.822948911615448919e-01,-2.292714583110104162e-02,-1.070930094259598536e-02,-1.620522058140906954e-02,5.633926391601562500e-01
1.463363929419213560e-01,-3.666952062454742478e-02,-4.958617392153625847e-01,-3.235656145145410223e-02,-2.035882652908045914e-03,2.643130266532891376e-02,5.776094198226928711e-01
1.466535481532504348e-01,-2.665861743552044860e-03,-5.735680953290848150e-01,-5.470295899087736224e-02,4.121964876890538143e-02,9.889510064883187679e-02,6.905704736709594727e-01
1.513331208812977446e-01,-1.652657722909023352e-02,-4.664615438194869013e-01,-8.480868182465382127e-03,-1.673866609479544507e-02,-1.621266667356708116e-02,5.549677014350891113e-01
2.572365622175809552e-01,1.690763086219235212e-02,-7.999630298026109143e-01,-1.426835073529253775e-02,6.801282517188534694e-03,8.303108223976284064e-02,9.709713459014892578e-01
2.364157488102572313e-01,-3.759858128079947293e-02,-6.093176545379002107e-01,-3.627454360161683905e-02,2.447924639467338216e-03,-3.594716149511648778e-02,7.526273131370544434e-01
3.683093047506902362e-02,4.634195299173869687e-02,-2.861964276399092677e-01,5.763401527276350647e-04,1.975651240065987024e-02,7.836024534525379281e-02,3.565142154693603516e-01
3.763426091738437951e-02,4.282262582978178800e-02,-3.044477234006373045e-01,5.292401471180237585e-03,2.313909145957362967e-02,8.952774603363883310e-02,3.802075386047363281e-01
2.661986423635996635e-02,4.688533747264680973e-02,-2.850589959005717100e-01,9.094793098500825873e-03,1.685658988973337893e-02,8.201415725850752514e-02,3.537658452987670898e-01
2.648931292975896523e-02,3.522442660098662470e-02,-2.827352636441319289e-01,-4.026039807567766485e-03,-1.430742856217930188e-02,3.681516502193048906e-02,3.211324512958526611e-01
2.241519341250426678e-02,2.959439556478933586e-02,-2.331610124001544659e-01,2.412007510745336081e-03,-1.679444331099118684e-02,5.568424179490457510e-02,2.781571149826049805e-01
2.905802126026392485e-02,3.814744010673488950e-02,-2.657218145036198687e-01,3.929518171632511271e-04,-2.363107867173382462e-02,9.413061281674005298e-02,3.433869779109954834e-01
7.269174550172285976e-02,7.509755140829410536e-02,-4.474690056640633351e-01,7.376851686185366365e-04,2.958351161253131847e-04,-1.866503877167284813e-03,5.213796496391296387e-01
8.397961282459009968e-02,4.342520189966664335e-02,-4.645441697515076407e-01,-2.134898486883013424e-02,-1.599317923307572381e-03,1.253907065304004243e-03,5.307142734527587891e-01
5.018933109414958071e-02,6.585418807217852111e-02,-4.378398825467865185e-01,-3.071622848403177553e-03,-2.036911811579533423e-04,1.865797552137245631e-03,4.960863590240478516e-01
5.670871625367432389e-02,5.689543801244814625e-02,-4.443466510089779109e-01,-1.321959714268440902e-02,-3.898121673124890080e-03,-1.501124248087820634e-03,5.017237067222595215e-01
7.317308486159779246e-02,6.876053593366407424e-02,-4.462732150937511744e-01,3.034923245117839138e-04,2.568399504560406766e-03,2.368293387723902077e-03,5.172898173332214355e-01
5.763983129665326000e-02,5.208466368903930110e-02,-4.447085674412552536e-01,-2.920771707504845466e-02,1.169895583498375708e-03,9.039413846001769122e-04,5.021553039550781250e-01
6.511080967927801444e-02,7.025792355556603752e-02,-4.689576902467708641e-01,-3.413379660995646131e-02,2.815913756168468736e-03,5.618003876047899907e-03,5.400170087814331055e-01
6.336718227686397031e-02,4.376526402564154261e-02,-4.457965689609562077e-01,-2.833771002624304453e-02,-1.461237201099724325e-03,-1.256721034071795438e-03,5.020673274993896484e-01
5.909293456978151338e-02,4.596258003218542387e-02,-4.437306647443363117e-01,-2.867478252412888201e-02,8.036656531304997271e-04,1.626043378345374320e-03,4.988770782947540283e-01
6.161500950658124753e-02,9.986697230447888485e-02,-4.546871752040365644e-01,-3.481602099907591535e-02,3.034518254026631265e-02,1.784677285075181655e-02,5.432634949684143066e-01
5.724948887725386792e-02,7.103092811120947925e-02,-4.450027686571477736e-01,-1.453058690013142237e-02,-3.478306577005642504e-03,-2.308333063762073398e-03,5.099555850028991699e-01
7.104756122057792611e-02,5.656590194121813298e-02,-4.227200542327045341e-01,-2.170966395635470086e-02,3.085696665963667817e-02,1.862376675446845292e-02,4.921143352985382080e-01
5.480370039719739683e-02,6.255196973137996941e-02,-4.013965339210806560e-01,2.313755440983481741e-03,2.431567123324714780e-02,3.779762620518747375e-03,4.621105194091796875e-01
8.490735095059470661e-02,7.392993768133612753e-02,-4.722609607475337090e-01,-1.098123853793546781e-02,-7.628756438878028746e-04,2.720009575742475625e-03,5.521109104156494141e-01
6.970316042975044368e-02,3.940603681738033548e-02,-4.452860084766771531e-01,-2.833438696983758831e-02,-3.152351554558441120e-03,-1.574772980676393931e-03,5.029660463333129883e-01
1.117396053323147509e-01,9.348381442108311123e-03,-4.782718613885200143e-01,-6.238122940424857543e-02,2.640946517160687023e-03,1.638248045858330462e-02,5.573920011520385742e-01
7.346776666858917393e-02,3.907815461265942703e-02,-4.674523567959809611e-01,-2.795508728098552303e-02,4.132284900711991060e-03,-1.437719682188579040e-02,5.274381637573242188e-01
7.999003923989803089e-02,3.628812524598865052e-02,-4.618740223212995932e-01,-3.179525967417175941e-02,-1.014143018498065221e-02,-4.831981999363861580e-03,5.246497988700866699e-01
6.776276006317838441e-02,4.359138907032944488e-02,-4.499357819417552085e-01,-2.393839009151738431e-02,7.383416256117146872e-03,2.807981484089033374e-03,5.079260468482971191e-01
9.718307146775098659e-02,2.058770568806234103e-02,-4.644094280494399651e-01,-3.855529352583209751e-02,-4.674276583263394826e-03,2.165307942226753213e-03,5.317675471305847168e-01
8.810139963947785646e-02,3.361205132786068694e-02,-4.488189210047007771e-01,-2.808146793504949501e-02,-1.190924566041091405e-02,-3.890282508160154695e-02,5.189678072929382324e-01
1.475696873638849826e-01,-2.372869824378166792e-02,-4.912570798275743833e-01,-5.408922747551359045e-02,-9.214157206761306590e-03,3.718729244941038417e-03,5.805910229682922363e-01
9.925780937719599906e-02,4.852135607082491697e-02,-4.802819134202678253e-01,-9.414507556075729644e-03,5.291062332235797055e-03,9.324584769543847827e-04,5.562276244163513184e-01
1.468443968881422701e-01,1.456210678298264227e-03,-5.207306498992585464e-01,-1.212010069828392544e-02,9.744282317791763334e-03,-4.744925098822724840e-02,6.141794919967651367e-01
1.401135369912291373e-01,-1.750235039426062400e-03,-4.920615679086517424e-01,-4.581572492428420684e-02,9.436823171534256417e-04,-1.355822549207264319e-02,5.804647803306579590e-01
1.221422330778358656e-01,4.411472247235345701e-02,-4.852289429643783514e-01,-2.246626919367112132e-02,8.438725050770670005e-03,-1.933997768575602613e-02,5.748445987701416016e-01
1.004827926603919230e-01,4.711892530612568630e-02,-4.449161425718370366e-01,-1.705693132345879187e-02,-1.354600400635619026e-02,-4.186009920313531196e-02,5.271462798118591309e-01
7.716289932850858846e-02,7.180007942987759462e-02,-4.389189542382595510e-01,-3.395793761162859553e-03,-3.255138305423179671e-03,1.275223060641702839e-03,5.134908556938171387e-01
1.335540805912646123e-01,5.921065652197562978e-03,-4.895580622412364358e-01,-1.407043144006862520e-02,1.630254294306445612e-02,-1.929202982328274626e-02,5.723085403442382812e-01
7.131224813228179138e-02,6.855426339976919414e-02,-4.472073126170681423e-01,-3.076231687320236333e-03,-5.543203430237878329e-03,-3.495195701128171132e-03,5.172980427742004395e-01
5.176558185630428244e-02,8.344021876068041799e-02,-4.647300427819693880e-01,-2.823284629450598798e-02,2.585266269724930885e-03,-5.997592259746938742e-03,5.353971123695373535e-01
7.848368337401892547e-02,5.837474931026501168e-02,-4.324409790576890233e-01,-9.051817399282379925e-03,-4.791359759978325306e-03,2.465998915514175036e-02,5.033023357391357422e-01
6.366243212408950747e-02,6.765284527538234505e-02,-4.306144097854415764e-01,-5.793562120347796329e-03,-1.365743525056322847e-03,2.437092113424423577e-03,4.964091181755065918e-01
6.053935341284918947e-02,7.414062736595811165e-02,-4.454512765033052379e-01,5.634013461223290678e-03,-8.765355790205592648e-03,1.591389703565346736e-03,5.132513642311096191e-01
5.691078133468666089e-02,8.423450098774604156e-02,-4.557998943868833419e-01,4.975991913814546523e-03,7.177950080549376846e-03,-1.567015074890269711e-03,5.271282792091369629e-01
5.496467639573399122e-02,7.907887077229588946e-02,-4.425880614293621340e-01,4.463855407263372412e-03,5.453109841132396628e-03,4.540313788231718913e-05,5.101835727691650391e-01
5.749738737390716614e-02,8.150373436652558201e-02,-4.533628061106669827e-01,1.153612379028746450e-02,4.445385470479549031e-03,-5.054755740001728483e-03,5.237876772880554199e-01
6.095687706958399787e-02,7.988431040347804268e-02,-4.507033142843274165e-01,6.177582760783205569e-03,-1.782648064140335969e-02,-2.080974772306998927e-03,5.224171280860900879e-01
5.085488337677732118e-03,3.682342284882858530e-03,-1.765586729723671311e-01,6.573241853046161987e-04,1.916780100324037492e-02,-7.008262356369709262e-03,1.843706965446472168e-01
1.118551627899845580e-02,1.791295186167947417e-02,-1.864735228938863287e-01,-6.590606374325078468e-03,2.183424025209823593e-02,-2.720342723500196458e-02,2.102966606616973877e-01
1.802216308000859080e-02,2.199762471044575118e-02,-2.529578111900925297e-01,-4.644183196557793557e-04,-3.356862743087610929e-03,-2.038311303320949203e-02,2.753254175186157227e-01
8.812744126494048702e-03,1.476392981307787788e-02,-2.110100458351609476e-01,2.645700097787848527e-03,-4.464665048195456780e-03,-2.519139820362270576e-02,2.272670269012451172e-01
2.284282983434721137e-03,1.619823650648721802e-03,-1.346132340580349362e-01,2.403782692009716164e-03,4.060584103523288968e-02,1.295680867274497019e-03,1.536856591701507568e-01
7.117917444760715751e-03,1.663709173709664035e-03,-1.415981347587830230e-01,-1.937072379277464439e-03,1.772536495312795890e-02,4.891378719953599907e-02,1.716583371162414551e-01
1.519376177470312117e-02,2.024610184087539955e-03,-1.402074849139878232e-01,-4.411878129956295878e-03,2.912626297702829159e-02,2.744290339129121410e-03,1.578051894903182983e-01
1.130716381477339660e-02,1.145898471687487041e-02,-2.015768973902082317e-01,4.990590205902897640e-03,2.141128862855947931e-02,-1.818746628317947575e-03,2.163606733083724976e-01
9.320384784856403093e-03,1.328703623167871994e-02,-2.036143888660064127e-01,3.169924895723555403e-03,4.959662480420745818e-03,2.845954097892570717e-03,2.152436524629592896e-01
1.074878145147732666e-02,1.148299792650478435e-02,-2.205524605785667558e-01,1.022544130388440510e-03,8.855971735962805264e-03,-3.464916849287577941e-03,2.322607785463333130e-01
2.497697583219670586e-02,2.461437990263647471e-02,-5.464087706743880890e-02,-3.561047154656695607e-02,-7.307877333287182697e-02,6.841903321185891992e-03,1.621003895998001099e-01
3.603798463970155075e-02,3.545929826714896982e-02,-2.684647339352809192e-01,-2.667137340133372836e-03,-4.370408641083726314e-02,-7.329606113023235531e-03,3.137812614440917969e-01
3.451803705748311690e-02,2.350317943175507518e-02,-2.646163251205893019e-01,-5.424387073222717952e-03,-3.247246711669661556e-02,2.153782629789115916e-02,3.015809357166290283e-01
2.496837633707735260e-02,2.710125417401644532e-02,-2.266005992734135555e-01,1.895970562172919621e-02,-4.859452087029765555e-02,4.262935200174489646e-03,2.684125006198883057e-01
2.473197443242779181e-02,1.923660031562532402e-02,-2.416569876840310716e-01,7.823254744268016113e-04,-2.984301066429594085e-02,-1.235849003704562153e-02,2.695574462413787842e-01
2.358287160702578211e-02,1.654505248645130044e-02,-2.379530190890492558e-01,2.708795492484086884e-03,-3.581959578145577777e-02,1.364960498066130354e-03,2.654932141304016113e-01
6.961621149888760907e-02,7.609874518738993232e-02,-4.348079512062767438e-01,9.393083588567947839e-03,-3.099361775532414893e-03,-3.375350741761125230e-03,5.080190896987915039e-01
6.991658450435866978e-02,7.317492118324595007e-02,-4.327390118283148124e-01,2.243770541597694176e-03,-2.670868072364409023e-03,-5.234374429750239706e-03,5.044103264808654785e-01
7.074127920850636908e-02,7.700178570784813048e-02,-4.422719511262054315e-01,3.179010979414365057e-03,1.977037021891725477e-03,-3.729980177343408549e-03,5.162531137466430664e-01
1.982603233329257586e-01,1.197299976347127037e-03,-5.848480296040032833e-01,9.270399111720181717e-02,-5.188407224359452979e-02,3.758728553399640071e-02,7.320294976234436035e-01
1.563053364512844157e-01,8.542788274444934604e-03,-5.414761155533267534e-01,3.564409559681017831e-02,9.232005202747221731e-04,-1.129659054244384246e-03,6.398786306381225586e-01
5.924777856175200696e-02,6.651126337819029954e-02,-3.947617109214249242e-01,-1.241671291564460690e-02,-9.024622626124495506e-03,-4.686324256234148875e-03,4.585278630256652832e-01
1.079436147268058865e-01,1.409427949952202219e-02,-4.787195776376882983e-01,3.447132961871089002e-02,1.197198449767548738e-02,-1.669552989376183946e-02,5.502312779426574707e-01
8.954868762194953535e-02,2.459110654828425280e-02,-4.700344993363350099e-01,4.433992457883683541e-02,1.217869211621330815e-03,4.948233944417775552e-03,5.357047915458679199e-01
1.084354405506504915e-01,1.919927009561106512e-02,-4.738886657365480315e-01,3.647900081966624214e-02,7.129779203721373255e-03,-6.210352942742726479e-03,5.471383929252624512e-01
9.441586580830113595e-02,2.250318046843749475e-02,-4.776223660959085238e-01,4.233896353618270270e-02,9.404105011196282893e-03,-1.228776609679170344e-02,5.453057885169982910e-01
1.072071159507618221e-01,9.545443070193698754e-03,-5.248058005329621079e-01,8.959980208389148326e-02,-3.362700488124618914e-02,4.616019336044976246e-02,6.173521280288696289e-01
1.127693502537779890e-01,4.351442783897133126e-02,-5.264256105205608050e-01,6.961404661834860730e-02,6.806529043780475303e-03,4.333254504002099963e-04,6.194973587989807129e-01
7.713227976391245910e-02,6.734265565511832197e-02,-4.266040093535031774e-01,-6.979241266821692088e-03,3.825682564028370729e-04,2.097288431440480234e-03,4.990735948085784912e-01
2.383526631852675437e-02,1.028680961670627725e-01,-4.606863275390647994e-01,2.505517810443170373e-02,-1.296549552743220637e-05,-2.384278262204495621e-03,5.302836894989013672e-01
3.776716183944703320e-02,1.015038549886945196e-01,-4.877593044278349388e-01,4.245760361674019712e-02,1.332428155286360895e-03,2.253476742343174868e-02,5.662794709205627441e-01
7.270046280439387831e-02,6.943819599842168677e-02,-4.249102543594231451e-01,-6.800602319030010084e-03,-5.793765734191929674e-03,2.213463215869449201e-03,4.962437748908996582e-01
4.570275895385164655e-02,8.010100434057648711e-02,-4.474301638668083392e-01,-2.047917849396115736e-02,4.068015360550010983e-04,1.491663181008138659e-03,5.124369263648986816e-01
7.164627470268550291e-02,6.813619979170071339e-02,-4.316157933507792643e-01,2.797384205652447310e-03,8.291444848913692191e-04,3.449256267720513663e-03,5.015772581100463867e-01
7.532260021770115221e-02,6.699432114202771849e-02,-4.270777644485346247e-01,7.620049476688442458e-03,-3.205665061944346257e-03,9.497502146441022617e-04,4.984968304634094238e-01
6.633803855405789873e-02,7.493372437850431833e-02,-4.440984675510681878e-01,-1.935877116476408222e-05,3.542177597121778324e-03,2.291291190501401533e-03,5.148400068283081055e-01
6.946499687692969660e-02,7.260539499360191273e-02,-4.375496706586947115e-01,1.338213908448165207e-03,-6.663466182750585332e-03,-6.434200799968213362e-03,5.088503956794738770e-01
7.583129378895608896e-02,7.186953035141518953e-02,-4.459712757490204571e-01,1.995338140685265667e-03,-2.577814964453155680e-03,4.813980745845643423e-04,5.198643207550048828e-01
7.424738688105536610e-02,7.033777227790591335e-02,-4.394929238255002590e-01,2.770165333953181295e-03,-2.333670272624813278e-03,2.744359372624278690e-03,5.118572115898132324e-01
3.714548577299750520e-02,3.530257756576288264e-02,-2.840065811664728157e-01,6.061125827018240021e-03,6.541793113549186633e-02,9.264596114266360205e-03,3.402299582958221436e-01
6.507060727182528703e-02,7.612387650469290556e-02,-4.459639180998158370e-01,-4.045841469908852985e-05,4.256121529611855969e-03,-2.406931958652481357e-03,5.167192816734313965e-01
6.399065341780224569e-02,4.582530096786574525e-02,-3.572284244468793557e-01,4.834357910080728724e-03,4.239369186002225898e-02,5.255801962006745147e-03,4.191044569015502930e-01
3.649475562052059696e-02,2.673204047172553222e-02,-2.679362371362151718e-01,-3.896188479378153574e-03,4.413601375103279323e-02,2.261541158405230498e-02,3.118097782135009766e-01
7.386701825236519081e-02,7.248184606280885789e-02,-4.309624364762448812e-01,-6.883543596170920570e-03,-4.034010795956421633e-03,5.159546917319689924e-03,5.044068098068237305e-01
2.973467444444066743e-02,5.169833318543973211e-02,-2.860701855850953379e-01,7.656919021163650571e-03,6.153518201685700961e-02,4.975322634414512148e-03,3.446175158023834229e-01
4.362892923930133948e-02,3.517532909868809066e-02,-3.113770961935723447e-01,-3.273930777638899003e-03,3.449966614723641578e-02,-2.124587465107938538e-03,3.559719622135162354e-01
7.361846175618139143e-02,6.006004178221843737e-02,-4.106860865555742035e-01,-4.808621955537454619e-03,2.548694000407205479e-02,-1.176987513992985542e-03,4.797818362712860107e-01
6.969342863341776440e-02,7.637216134633265097e-02,-4.428715307260464029e-01,-1.638111290938698734e-03,4.006281127685334086e-03,-1.337568822036490010e-03,5.159963965415954590e-01
8.354102596788515189e-02,5.932837612726576948e-02,-4.621954703251205943e-01,1.666302339939292748e-02,-7.385443619047607662e-03,3.922677163621096988e-03,5.350173711776733398e-01
3.898691090505546075e-02,8.816157521637685290e-02,-4.495813828144190616e-01,2.177231836236098381e-02,5.919631878646153950e-04,-6.484991866287250113e-03,5.164219737052917480e-01
2.302003943677899400e-02,8.922371200511583500e-02,-4.487619231289408650e-01,2.528485825541654242e-02,1.196280439441355569e-03,4.707870059610254733e-04,5.100174546241760254e-01
7.004716881651648630e-02,9.341860895588857683e-02,-5.358611591724984358e-01,7.138167677802600974e-02,1.047706905344328310e-02,-4.237830996591903342e-03,6.304770112037658691e-01
7.609005607234495261e-02,6.714318793884432868e-02,-4.388097581588066287e-01,1.538700786054758498e-04,-1.718428622241014499e-03,-4.770875045862989536e-05,5.104939341545104980e-01
4.317528308309703799e-02,8.016062283840494351e-02,-4.455904683561139890e-01,1.450354689934810551e-02,3.936266405486715282e-03,1.410791386305758430e-03,5.089406371116638184e-01
5.145105181182776932e-02,8.783008307314454921e-02,-4.640318582165011141e-01,3.583854939361225816e-02,3.012904959431351656e-02,-1.131893130117939128e-02,5.410727262496948242e-01
5.132946790607703647e-02,7.303279168943674349e-02,-4.496437175755246263e-01,2.830483861435727222e-02,1.919741250342731076e-02,-1.739667094685459423e-02,5.164639353752136230e-01
5.875280191202661428e-02,5.549641523766560280e-02,-4.379173057111458434e-01,4.404044847812295382e-03,9.504010244655076598e-04,-4.798270958756850483e-04,4.951121509075164795e-01
7.669439957151941156e-03,4.691000870086087238e-03,-1.964686354027760651e-01,-7.965259636581453273e-04,-6.775780485939437254e-04,4.833505547628003801e-04,2.026750892400741577e-01
5.782784256865652894e-03,1.508115877515777692e-01,-5.253068322553184899e-01,-1.119100751273269115e-03,-2.777698451856778876e-03,4.054328941761781678e-03,6.165947318077087402e-01
-1.254190633068641425e-03,2.289625493234021536e-01,-6.724743243685524785e-01,-5.497651734293474216e-03,2.941025177789808459e-02,-8.913354415623486737e-02,8.273948431015014648e-01
4.287467961886681778e-02,2.092410598289005663e-01,-7.577787150493686674e-01,5.569083417343670406e-02,3.676053482681530121e-02,8.256352013824620490e-04,9.029318094253540039e-01
-5.917207409912136895e-02,1.684809013273076972e-01,-5.214954942558831519e-01,4.923813031670326926e-03,1.453322980392913501e-02,2.818347032960516821e-03,6.095476150512695312e-01
-1.950213391094531012e-02,1.463295841089226612e-01,-5.033404039952544817e-01,5.751548802129408111e-02,-2.290903548245896981e-03,-6.554217454120906013e-03,5.932150483131408691e-01
7.238049676740140881e-02,6.733015707470860201e-02,-4.393550836652349023e-01,7.391742048216853227e-04,1.550405225527258903e-03,1.331512533570747238e-03,5.092431306838989258e-01
9.437442242911806001e-03,1.312041215746926892e-01,-4.838921973928183573e-01,-1.662573392644172560e-02,-3.020268259972028711e-03,-7.147263016676165060e-06,5.649150013923645020e-01
-2.028154669804560495e-02,1.365681367715154138e-01,-4.597195188005698263e-01,-3.961345405756772076e-02,-6.979084203077644266e-02,1.082352243336637092e-02,5.534479618072509766e-01
-1.493111839745903113e-02,1.418363246955050005e-01,-4.526704312192516011e-01,4.533702268168089862e-03,-4.604941081975340300e-02,-4.368385270503714196e-02,5.449432730674743652e-01
2.212718935915941598e-02,1.231524643937086938e-01,-4.804119799206447716e-01,3.226435331256574841e-03,-5.691158144255773627e-02,-1.642696678310597708e-02,5.692788958549499512e-01
-3.414822800537695158e-02,1.639670645963828277e-01,-5.264148641282707652e-01,2.662594221287550161e-02,-1.166464731950892647e-01,-1.995282699974495338e-02,6.505705118179321289e-01
-6.452762754095064945e-03,1.989424430992728920e-01,-6.127189963389720884e-01,-3.563249213858148134e-02,-8.487013308406864132e-02,3.854961000277615929e-02,7.510966658592224121e-01
7.307156865010960844e-02,6.459115611959487246e-02,-4.182584116977618449e-01,-2.278032819149677056e-03,1.044354608069606415e-02,-1.182788301965235957e-04,4.874968826770782471e-01
5.586403649856086506e-02,7.533281582010642463e-02,-4.181458597610677730e-01,2.895366425973128644e-03,2.432471022296533655e-02,-9.985371360598387785e-03,4.862017631530761719e-01
7.545788441523995638e-02,6.038933095546228369e-02,-4.176764387223062536e-01,-2.023424043139224193e-03,9.550337342746522892e-03,-5.362867249771414112e-05,4.860695600509643555e-01
6.293845819345697534e-02,5.517067184164800575e-02,-3.869493929451127134e-01,-1.072676722969960125e-02,5.533319414912826056e-02,4.030737808916589476e-02,4.619191586971282959e-01
7.563604088347705701e-02,6.574160839288450964e-02,-4.398011454868100967e-01,1.406773625174799567e-03,-3.514733747902253069e-03,1.234711556620300026e-04,5.106040239334106445e-01
7.360081616015171080e-02,7.107071536150588731e-02,-4.363997283092071466e-01,3.300666419058303526e-03,9.575123189914208979e-03,5.005419320591262405e-03,5.091164112091064453e-01
6.534973765879034668e-02,6.004579498319664865e-02,-4.493270646597544715e-01,-1.844786393156497284e-02,-4.700911402880991264e-04,-2.049739495891825507e-03,5.130543708801269531e-01
7.248371454210680853e-02,6.296670789280173208e-02,-4.435520182167858594e-01,-8.894491715115320288e-03,9.956210675737965209e-04,2.506623158917643292e-03,5.115969777107238770e-01
7.000388556261760709e-02,8.003190398014872753e-02,-4.493232848738338281e-01,-3.112878902062936846e-03,1.108876214843530295e-03,2.202980523351921738e-02,5.258305668830871582e-01
7.004085823220201901e-02,5.591742473219862841e-02,-4.337200951635880597e-01,-1.281886279627475131e-02,6.952866762852178599e-04,1.851551310742652421e-03,4.973574578762054443e-01
6.588028890892830280e-02,7.458987951890488910e-02,-4.444788055382889458e-01,-3.134641827099079840e-03,4.507993508680236891e-03,1.326885711299210591e-03,5.148621201515197754e-01
8.094344224966629198e-02,6.578043900945287903e-02,-4.322066741305262139e-01,-6.343608630425899130e-04,-1.831441719191058979e-03,-1.284717603802862417e-03,5.057551860809326172e-01
8.228607145590732808e-02,6.289534382865069606e-02,-4.316487641712939416e-01,2.299086253034765345e-05,6.516363329463183357e-04,-6.028994464207374285e-05,5.045202970504760742e-01
8.467847144639845114e-02,5.990590983586085994e-02,-4.279536832216306874e-01,2.256264552758469218e-03,-7.410865223357592825e-03,1.803707552404396845e-03,5.008952021598815918e-01
7.813452019276381777e-02,5.976425693779091608e-02,-4.085511744905995224e-01,-1.245413136617616861e-03,-1.203620217563752294e-02,5.235282093651586442e-03,4.783109724521636963e-01
7.045432934544085257e-02,6.963507222381346007e-02,-4.385446689887576577e-01,-8.853042913231773528e-06,5.264594250521288654e-03,-2.406942658390854445e-03,5.086886882781982422e-01
7.118613182634736525e-02,5.981662334743381715e-02,-3.986924568735050745e-01,7.781502638360852714e-04,-2.007027731632650067e-02,2.285708699492555035e-03,4.656165838241577148e-01
3.237010097313074153e-02,3.323250756956425134e-02,-2.544698241848649123e-01,3.451719651521164070e-03,-7.660503923319067487e-02,3.066678141030899397e-03,3.165346980094909668e-01
1.872822782240177175e-02,7.048520763458576699e-03,-1.874638923966100712e-01,-8.557727259461194932e-03,-5.990111180534665736e-02,4.686203175780030705e-02,2.404488027095794678e-01
7.290679209813832884e-02,6.961301074115613940e-02,-4.233418897572328587e-01,-8.435786524131261635e-03,3.055897656527472705e-03,1.725497824845299150e-03,4.948631227016448975e-01
7.925281577307149994e-02,5.538700039536076369e-02,-4.471734742552535002e-01,2.258633508070243337e-03,-3.897317831626146388e-03,4.955970202518171150e-03,5.150390267372131348e-01
3.496993478963575375e-02,3.710076405517222231e-02,-2.425933401060397787e-01,2.373673560824520693e-03,-6.288434427352955491e-02,2.431994640031116470e-02,3.021456003189086914e-01
-3.588037166166809996e-03,9.192670332161334557e-02,-7.744828763090773338e-02,9.165654464368873725e-03,-1.289784733105261115e-02,5.595356397810753203e-03,1.499271839857101440e-01
1.917755845836098538e-02,1.639528098596151895e-02,-1.894290969087089882e-01,-1.788954193663073143e-03,-6.075716789692230113e-02,4.062881287475361702e-02,2.428581416606903076e-01
2.967823275156551699e-02,2.161587470321663096e-02,-2.439300192117317412e-01,-5.902684246864940004e-03,-7.389004254431533192e-02,1.734428329505873986e-02,3.001778721809387207e-01
2.513031534751654361e-02,7.945093012062386106e-03,-1.876142299969611460e-01,2.006491306925798149e-03,-4.558836183274532494e-02,3.885203468821164102e-02,2.295101881027221680e-01
-3.349613279478413919e-03,1.002368121448544286e-02,-1.330875566632575002e-01,2.962683531114998145e-03,-1.992422501303551391e-02,-2.762019081696942199e-02,1.491699814796447754e-01
-3.438996754081130591e-04,3.791185358562584873e-03,-1.408957911957874343e-01,-7.191438006204690057e-06,-2.583120572797269893e-02,4.018184792651890297e-02,1.649200469255447388e-01
3.666424908433657537e-02,8.235032567992947583e-02,-4.204237530489399188e-01,-4.734196453500057362e-03,-2.599672743979873635e-02,1.369760000447811795e-04,4.837292730808258057e-01
7.249568564579508823e-02,6.684124058297297166e-02,-4.174547291303010166e-01,8.930236633929009363e-03,-4.521103653030269370e-02,-5.189022994345985490e-03,4.937257468700408936e-01
6.195631804417089938e-02,5.881728150254145193e-02,-3.656975830534466843e-01,-4.931678172790865053e-03,-7.604978015897932708e-02,2.558071639061329505e-02,4.482656419277191162e-01
7.697035709534777448e-02,7.360763954370980189e-02,-4.486707706851591482e-01,2.745302717763966997e-03,-3.526092039597713765e-03,4.135027219211624867e-03,5.240739583969116211e-01
7.721383602001363755e-02,7.274578304664064410e-02,-4.357056337362456011e-01,3.593605214189760262e-03,-2.323511821827225956e-03,-1.813230092082246392e-02,5.117185711860656738e-01
7.240639884807073545e-02,7.779955847271100011e-02,-4.475291834526660684e-01,3.927836743259857828e-03,-1.394565071635085057e-02,-7.897287146593941209e-03,5.234338641166687012e-01
7.582957225257683231e-02,7.748847719383097910e-02,-4.389678261250148372e-01,-2.042584333618146630e-03,6.396076123362798814e-03,-2.686916069634372878e-02,5.178554058074951172e-01
5.893293685429509821e-02,6.048648061150371791e-02,-4.023398171907111576e-01,1.374543140921156460e-03,1.257465142770382988e-02,-8.183105159133695350e-03,4.627877473831176758e-01
5.920457881121540811e-02,5.765984770525695025e-02,-3.756714117956330146e-01,-1.138603916388990396e-02,1.912103854286886437e-02,-1.660920417334279392e-02,4.367620646953582764e-01
3.516065926713404788e-02,5.119877567343275593e-02,-2.926253240495822472e-01,1.594322840804928906e-02,6.997601262860028704e-02,-9.081805443104112863e-02,3.913491964340209961e-01
3.000599763070148362e-02,3.029212280176218908e-02,-2.839396027237361397e-01,-8.272813923692192567e-03,8.911466496581728694e-03,-1.492531785987145920e-02,3.158537745475769043e-01
3.049044429707563342e-02,3.170377768713547595e-02,-2.814683509965825170e-01,-3.200752138002210204e-03,6.436158823350041774e-03,-2.470369051716780895e-02,3.157278895378112793e-01
5.123464072569833272e-02,5.731765753672848906e-02,-3.447803527658190315e-01,-2.196191506773991376e-03,4.070960141927507103e-02,-5.064232241228460579e-02,4.146734476089477539e-01
7.916302886767842550e-02,6.809191466559588735e-02,-4.534398068365424472e-01,-1.775696650717229451e-03,-5.703173092880273534e-03,-4.286742592786071601e-03,5.273082852363586426e-01
6.623044224670407432e-02,8.055292442901038075e-02,-4.392081492770190110e-01,-1.687427028218662240e-03,-5.948235756741105176e-03,5.681837988387413926e-03,5.129561424255371094e-01
7.553922999742851419e-02,7.183828620898707884e-02,-4.360571039054005893e-01,7.216065923755753120e-03,-2.152068128801980576e-02,-9.239565177167945176e-03,5.115201473236083984e-01
7.873890249656856355e-02,7.612926291162430692e-02,-4.431372481703105271e-01,1.893181365173002642e-04,-2.171885428089470257e-02,-1.401116123895655447e-04,5.219337940216064453e-01
6.286998986892697316e-02,4.798528164650536776e-02,-3.703742435582599857e-01,-9.773995052550376109e-03,-3.648450562488515098e-02,-1.255405922337396452e-02,4.315392971038818359e-01
6.484747863613973817e-02,6.729939964657660756e-02,-4.092530306967169795e-01,-7.727279688647337164e-03,-1.411616045648620907e-02,7.206598143642953258e-03,4.763113558292388916e-01
7.706996729574849825e-02,6.595415105164276204e-02,-4.404993206445145248e-01,7.603380776885793405e-03,-2.324098522012642276e-02,-5.509057857317809122e-03,5.139389634132385254e-01
7.279566595760578185e-02,7.464019343777933413e-02,-4.450505480906988831e-01,-3.661465527286993614e-03,1.091735217433949245e-03,2.450452572506835441e-03,5.188304781913757324e-01
6.556865007682274871e-02,6.697229112739228052e-02,-4.097540005163107790e-01,-8.086054463211027332e-03,-1.257272371129050312e-02,1.333555072198017860e-02,4.772888720035552979e-01
4.952837892631309358e-02,2.674039786704601185e-01,-8.301959337286176632e-01,7.726538981219589763e-02,3.884746402566020829e-02,-3.653941937222334596e-02,1.019557595252990723e+00
8.757694315456998613e-02,6.596167958327123215e-02,-4.619972316148881486e-01,9.385080106536617707e-04,-2.208147450477697935e-04,-9.676064339516631668e-03,5.393546819686889648e-01
6.695491453621668643e-02,5.708734983173779920e-02,-4.437084362574962859e-01,1.346443796911236251e-02,-3.258478490922118477e-03,1.536593086689416873e-03,5.063775777816772461e-01
6.828044130384799959e-02,7.136035248184649515e-02,-4.415607433217200173e-01,2.564994702436133259e-03,-2.008942507303323750e-04,1.512216099265296541e-03,5.114142298698425293e-01
6.541540749939167565e-02,5.943983096191207682e-02,-4.439573851510482672e-01,1.280848131876771018e-02,-2.367130967312068394e-03,3.075122842612177960e-03,5.069417357444763184e-01
6.288026586017450570e-02,6.936955540075692705e-02,-4.425520177678357592e-01,1.027848192021263256e-02,-1.102976042789908856e-03,-3.020303554817658186e-03,5.090498328208923340e-01
7.447687430123531294e-02,7.914710880169986695e-02,-4.269943923194484681e-01,-7.329862383259463585e-03,-3.934892560495408670e-02,2.304794391909176232e-02,5.101343393325805664e-01
6.852396757138670691e-02,7.172717306145945382e-02,-4.395519519398229380e-01,9.367797478319534778e-04,8.098156932625857635e-04,-9.197392883599696213e-04,5.096920728683471680e-01
6.475676548984782288e-02,6.445177057469056447e-02,-4.482067711621050554e-01,2.278763167892924879e-02,3.921241646319252247e-03,1.167192356588011562e-03,5.143765807151794434e-01
6.940079138762578204e-02,7.003405170384935374e-02,-4.415169466543826804e-01,1.879585844087010380e-03,5.830743449221129608e-05,1.628657058251904320e-03,5.112528204917907715e-01
6.651573854145143017e-02,8.078484244677552883e-02,-4.656369259401963445e-01,1.573961866563600848e-02,8.920431501702491550e-03,1.419122165452887051e-04,5.403382182121276855e-01
8.317379207799241447e-02,5.306043805043822448e-02,-4.466166216218754870e-01,1.214410408107231571e-03,3.690860118463685276e-03,2.291748963520227542e-02,5.169640779495239258e-01
7.720477175937032199e-02,3.775770522062374401e-02,-4.390185421884072459e-01,2.619225768069524674e-02,-8.976331947436343509e-03,3.567793835407552690e-03,5.000171065330505371e-01
6.207205416461070158e-02,3.739655869669136767e-02,-3.428184725968235758e-01,-7.564017983252993918e-03,3.076799892419321281e-02,5.913202501814424084e-02,4.099460840225219727e-01
5.464066218209398529e-02,4.290880308153605105e-02,-3.413074242830784755e-01,-9.964803421810500966e-03,4.263126912370181903e-02,5.177691889450311558e-02,4.075046479701995850e-01
7.808157725670966665e-02,5.393191604838129538e-02,-4.430524457680722339e-01,-2.996691576278820348e-03,3.016279442454638214e-03,8.860733875758346244e-04,5.095441937446594238e-01
7.150228451868481661e-02,6.356347592213276720e-02,-4.240330271874858115e-01,2.647279259663037161e-04,-2.889079731285917798e-03,1.492047698351072621e-02,4.923184216022491455e-01
4.673451075274376310e-02,6.541128408481278189e-02,-3.602566564337606470e-01,3.968772227314321631e-03,-3.662370058519161167e-03,3.258060671196711527e-02,4.205518960952758789e-01
6.245359568420458252e-02,5.055733903590588219e-02,-3.109147032470236938e-01,-1.722135734710172547e-03,-6.120293700663044512e-02,2.044231579754772835e-02,3.841922581195831299e-01
7.676589073912615246e-02,6.448568212759564489e-02,-4.214742120575742379e-01,5.078757655792324674e-03,2.908195582484788405e-02,4.768605490896075938e-03,4.949327111244201660e-01
6.909281244275680689e-02,6.705217588388628913e-02,-3.841777648947963253e-01,-4.882313032248700342e-03,5.134958337071496987e-02,1.708553064987704956e-02,4.619426429271697998e-01
6.651897420884983481e-02,5.214013101062206501e-02,-3.696263267932783370e-01,4.165367161440700766e-03,2.754042883070432005e-02,1.509771332419377991e-02,4.326309263706207275e-01
6.831447821266542486e-02,7.308526260707293165e-02,-4.457126523781334004e-01,-1.638713034003094911e-04,7.861676131339044842e-04,-1.299020340536365071e-03,5.164358019828796387e-01
4.321139230534178088e-02,4.156843838032391047e-02,-3.010051075979318647e-01,-4.601127086575180179e-03,5.214687853472928930e-02,3.748667859522228363e-02,3.610530793666839600e-01
5.027853446561730832e-02,4.159327010961735849e-02,-3.208112727612517090e-01,7.431663760966123258e-03,5.507600199045638301e-02,1.400929530001393183e-02,3.800192475318908691e-01
2.870397765434823389e-02,7.420784483232525930e-02,-4.490560815149793328e-01,-4.605845722705305401e-02,-7.902500599957517496e-03,-6.139226656752740097e-03,5.086548924446105957e-01
6.513826148406298699e-02,8.726693177461725126e-02,-5.183262329287442460e-01,-2.866474270269577657e-02,-4.151668320107561316e-02,-1.642000970562532700e-03,6.012285351753234863e-01
6.991919968788215534e-02,9.166106162253567780e-02,-4.564350742054243959e-01,-1.322444208912852692e-02,-6.539873870829986113e-02,-1.618865473566198643e-02,5.505518317222595215e-01
5.040946404813248516e-02,8.676949656340859907e-02,-4.477672652624472560e-01,-1.572165000003089216e-02,-3.240794263431364362e-03,-1.048752153219042506e-02,5.183809399604797363e-01
8.479395270487025127e-02,7.308424554558051733e-02,-4.825525977644669062e-01,-2.050536893070310090e-02,-6.203778760442946183e-02,-5.972048372855237597e-02,5.821364521980285645e-01
5.007197133215962603e-02,8.048931051047830687e-02,-4.467066721608210500e-01,-6.396339323973041988e-03,1.972294384222039038e-03,-1.150395954109866437e-03,5.127995014190673828e-01
5.485218085286933110e-02,8.326850709530225769e-02,-4.512344913038149885e-01,-1.623378683384139529e-02,4.552004873366730618e-03,-1.957837362283798913e-03,5.217054486274719238e-01
7.692962659219171329e-02,7.230147420621174659e-02,-4.464028727229866766e-01,1.721842923893691923e-03,-3.020916401413015033e-04,-5.184852956216132961e-04,5.210434198379516602e-01
6.925320483620367451e-02,7.242472120044721184e-02,-4.416596123763958937e-01,-9.100531325104493593e-05,3.489205031683547276e-03,3.384714108228707719e-03,5.125750899314880371e-01
5.847125675382480736e-02,8.330589545491201564e-02,-4.205087599763707717e-01,1.973768439642695823e-03,9.456237241264485102e-04,7.543955247631586869e-03,4.920558929443359375e-01
8.030967616131864939e-02,7.184866985569499098e-02,-4.440118553770122101e-01,4.037025836536884543e-03,-4.833605687936329146e-04,1.993779278377755954e-03,5.202018022537231445e-01
6.861475330087488111e-02,7.331117494873448659e-02,-4.417517080743880165e-01,4.461880912504420215e-04,3.222067026318070886e-03,3.902825752937556444e-03,5.128062963485717773e-01
1.021414409228112719e-01,2.284091739311416847e-02,-4.773966455672814524e-01,-3.998648102272091276e-02,8.840953645607663386e-04,8.551529249419981618e-03,5.488294363021850586e-01
1.158823587565114832e-01,4.790990647800663638e-02,-5.381294944716318307e-01,-7.187530933465147154e-02,-5.951213799307260473e-03,-1.402622741225295795e-02,6.356819868087768555e-01
8.361462108124964598e-02,6.623330588501705196e-02,-4.508636469694692894e-01,-4.735480816815938482e-04,1.160148490264717230e-03,-4.165272537731561781e-03,5.260570049285888672e-01
8.969172605655692521e-02,2.864848183359300360e-02,-4.728144486726515994e-01,-5.031209404910773342e-02,-1.197193359284675143e-02,-2.935068155411484775e-02,5.444359779357910156e-01
1.090919142974764722e-01,9.957189466355570451e-03,-4.647949878919547251e-01,-2.410952468944853669e-02,-2.334165367422927611e-03,-1.401663551484774728e-02,5.335084795951843262e-01
7.090312649464597383e-02,7.241014876410883927e-02,-4.464010878448495534e-01,-2.087248347890087279e-03,-1.782348570830979292e-05,-1.667854602527190115e-03,5.180800557136535645e-01
3.495926254481471207e-02,2.870795802321675361e-02,-2.491921769889103855e-01,-7.833375992036149468e-03,-5.736140561101775448e-02,4.056409844495760531e-02,3.065880239009857178e-01
6.992549587115431953e-02,7.279788763767261472e-02,-4.471300375570325114e-01,1.177190470859440681e-03,5.010336642803649501e-03,-3.376521352123718588e-03,5.186073184013366699e-01
6.175584763170124947e-02,7.084026923011216281e-02,-4.256219260132377835e-01,9.023711466289687649e-03,2.846953338847143383e-02,-7.421910776567397505e-03,4.948618412017822266e-01
7.443216436916427758e-02,6.683276262015777625e-02,-4.513280539936226354e-01,9.279461511058843814e-03,1.752492034192518200e-02,-3.078243274127365897e-02,5.258406996726989746e-01
7.229716335255342852e-02,7.349581849268518874e-02,-4.461399904625076296e-01,-1.139512092386904627e-03,2.874398832303969031e-03,9.240080274920142332e-04,5.190676450729370117e-01
8.208863722560585940e-02,6.158843566438171324e-02,-4.423040331797740143e-01,-2.159680357292117527e-03,-1.367289368586066013e-02,-2.457894322343033566e-02,5.167639851570129395e-01
4.040924493729031175e-02,4.960696530059510723e-02,-3.035671964578195992e-01,-3.464989658636008496e-03,1.161873721510487019e-02,-5.745172643035722365e-02,3.631959557533264160e-01
4.113939049491879829e-02,5.116587584738718775e-02,-2.985528382240643097e-01,-3.075836375906664064e-04,-9.121534697823533919e-04,-7.515143524950192166e-02,3.685691952705383301e-01
4.431780163314205656e-02,6.128062263337819005e-02,-3.613697168655735092e-01,-1.329379128341329642e-03,-1.546755451353794102e-03,-3.481857042045132661e-02,4.188092350959777832e-01
7.429939641929278471e-02,7.207648913507919142e-02,-4.233056637142275647e-01,-1.188497766654688249e-03,-3.510010204631238209e-03,-3.049070705966364439e-02,4.993394315242767334e-01
6.885513656525665827e-02,5.891739663480255462e-02,-3.726505111634408340e-01,1.923286527754137446e-03,3.421346441383951113e-03,-1.004845282188049221e-01,4.700809121131896973e-01
5.030024744857586327e-02,5.246583018599823567e-02,-3.483205577967443123e-01,1.785128261604121153e-03,-6.497232734588585627e-03,-5.227763887335978854e-02,4.100018739700317383e-01
4.696055789752127951e-02,6.001118985340841983e-02,-3.354258285433417974e-01,8.287956641062663860e-03,-2.951228438845841795e-02,-7.886767305272394946e-02,4.157636165618896484e-01
7.333420235297402612e-02,7.294700537440937382e-02,-4.561640737830283121e-01,-9.397495160565049604e-03,-2.670327867402467331e-02,-2.140463802673174543e-02,5.328622460365295410e-01
7.818835837154378132e-02,7.398449658125763606e-02,-4.627716243559479858e-01,-2.545511764627968881e-02,-1.877944214108703477e-02,-3.025487865987468248e-03,5.416738986968994141e-01
7.855576848401274459e-02,6.743729268881340499e-02,-4.427144459167820512e-01,-1.029167643640689980e-02,-2.563900067529003429e-02,-2.886468447744600443e-02,5.204227566719055176e-01
6.424715205552139485e-02,7.559610539211281122e-02,-4.266259277693727481e-01,-6.817554867600991025e-03,4.428109870834500382e-03,-1.503193348856917549e-02,4.975260794162750244e-01
7.611241612984928628e-02,7.632848848740605985e-02,-4.577962584530462231e-01,-6.709992527971289644e-03,-2.829416401048865520e-02,-2.849952913851711359e-02,5.386532545089721680e-01
6.930132097696384275e-02,7.190194665883228864e-02,-4.446205617798797971e-01,-1.841227902489440786e-03,3.333179011669811301e-03,4.096626647587349977e-03,5.153181552886962891e-01
6.134519301280796921e-02,7.127226819949591952e-02,-4.052798020407218926e-01,-9.213775646294438543e-03,-5.783012768720904861e-02,3.945951080026046526e-02,4.872663319110870361e-01
5.607553659309943983e-02,6.059932293639985756e-02,-3.655568937610027547e-01,-7.750873781235347384e-03,1.825407347346046788e-02,-2.833272899554557453e-02,4.281236231327056885e-01
4.611073741873319976e-02,7.810160164345525402e-02,-4.541174817103209582e-01,-1.942813119879417336e-02,5.282379157927040610e-03,5.902193086655808420e-03,5.182422399520874023e-01
7.168403571654530237e-02,6.050871752396513870e-02,-4.489409074106676667e-01,9.313184354377692514e-03,6.231064201770250381e-03,-3.583935044808735180e-03,5.155310630798339844e-01
3.258628002426219861e-02,7.762989008650128531e-02,-4.411985551321184751e-01,-2.279865379238714407e-02,5.988946694755076586e-03,5.062412883279658257e-03,4.995856285095214844e-01
6.048994732486379089e-02,7.230530790729267077e-02,-4.671040486369876232e-01,-2.930440438169554240e-02,-3.090291741624670314e-03,-5.897885947312427567e-03,5.361324548721313477e-01
3.842765683858306858e-02,7.087180412870303092e-02,-4.442537488544657798e-01,-2.445620775984919115e-02,-2.662943914405817205e-03,-1.718890992581100039e-03,5.015162825584411621e-01
7.089199829581913082e-02,5.332195689317817400e-02,-4.458649033956929020e-01,-1.365951586572092952e-02,-2.461940199302844329e-03,-1.811087728494505675e-03,5.087776780128479004e-01
5.459597206769795097e-02,6.647070820480455167e-02,-4.481581248628556113e-01,-3.247629502202455803e-02,2.620142130781422368e-03,1.105782131103771751e-03,5.119190812110900879e-01
4.836109855994868978e-02,7.945511297655677430e-02,-4.456255164650814171e-01,-1.200069756873148319e-02,2.891175198571477138e-03,7.700794005283777277e-03,5.108665823936462402e-01
5.096281894142515312e-02,7.054839039789578825e-02,-4.482012945803245940e-01,-9.886349297286578172e-03,4.346612167847162082e-03,-1.391735563206133270e-03,5.095885992050170898e-01
5.713099736665691597e-02,7.568859420775342350e-02,-4.283281898143330158e-01,1.378513474657732871e-02,1.734423420575860811e-02,9.686402588124790936e-05,4.964841902256011963e-01
7.064468115269376125e-02,7.651845430018774930e-02,-4.365338682478410171e-01,-4.203700268140381745e-03,2.073960447538831034e-02,-3.396450862752372658e-03,5.114896297454833984e-01
-2.253670130952654255e-03,2.377871794347508061e-03,-6.778368323561194397e-02,2.357984989145694207e-03,-6.557313818579482700e-02,5.430850141491060101e-02,1.624301970005035400e-01
8.140018508852422952e-02,6.462508570546854347e-02,-4.301538295229897502e-01,-9.082691691148113075e-04,1.086385577026062130e-02,-3.376892562552078533e-03,5.037641525268554688e-01
2.741479428113019479e-02,9.700363094106451145e-02,-4.788533956250618506e-01,-3.584630467709434831e-02,7.136962644809985087e-03,4.245180351706849715e-03,5.481262803077697754e-01
3.841339272846666653e-02,8.434504420318875151e-02,-4.636569281744601367e-01,-2.771628441811664623e-02,-9.603608538759911273e-03,-8.370412304650761900e-03,5.291849374771118164e-01
6.034713746820366542e-02,6.475924623714190975e-02,-4.477179168973813850e-01,-1.626059491418537992e-02,4.752521930885463333e-03,3.117273940838988146e-03,5.111568570137023926e-01
5.632306070196294034e-02,5.761231325393201264e-02,-4.461078234147721200e-01,-3.322346237023765525e-02,-9.494585983538526494e-03,-5.662235075937141829e-03,5.067191123962402344e-01
5.990168263240144841e-02,6.928794265166685062e-02,-4.638703768022234275e-01,-3.137961284180776356e-02,4.981685386955887924e-03,5.213720429259272038e-03,5.314617156982421875e-01
3.686147405086284690e-02,8.602066847208525435e-02,-4.626996837195027079e-01,-2.428204228963429592e-02,4.779019234796827616e-03,3.538383658974454411e-03,5.276466012001037598e-01
6.928263696585640341e-02,7.143304668876637731e-02,-4.414957421227683754e-01,-7.063097440805268107e-03,-3.837666519393529482e-03,-3.053263167677153049e-03,5.120735764503479004e-01
5.533460812928470141e-02,6.813058228973550845e-02,-4.252856059523864030e-01,7.430121983989904783e-03,1.480875688754316327e-02,-4.715241343425868696e-03,4.880571067333221436e-01
7.939877195493622031e-02,6.783337712631154481e-02,-4.374892119868410423e-01,1.067323012401092319e-03,2.427628062695576239e-02,-6.798595421936814640e-03,5.130682587623596191e-01
8.368088943757784337e-02,6.585649483173355856e-02,-4.338803334527295275e-01,-1.186708491584755401e-03,1.556465571520407754e-03,2.815273162553786051e-03,5.089178681373596191e-01
5.659058615499237832e-02,7.971813980408509748e-02,-4.311912240939943519e-01,-1.127955087159436933e-03,1.467013209353776326e-02,1.550709922929283720e-03,5.004037022590637207e-01
8.597679496188567749e-02,6.424597645038740423e-02,-4.352982244730601025e-01,6.605523278872601090e-04,1.436079469926865478e-03,2.493580857235894481e-04,5.107639431953430176e-01
7.980779577988900142e-02,7.081792640986120380e-02,-4.457429719690239045e-01,-3.175686202037449751e-03,-3.583397186644494449e-03,-2.829788924753776774e-03,5.212030410766601562e-01
5.388318646302139858e-02,4.478948696877113611e-02,-3.425266165790434303e-01,-7.941961060964017674e-03,-2.101521804490458570e-02,2.025279136123650167e-02,3.954279422760009766e-01
7.390475066034524199e-02,5.055564590167102579e-02,-3.904153180429181802e-01,-4.887784177629862260e-03,-1.421692790205452729e-02,1.007267764417987300e-02,4.541797637939453125e-01
7.465218975899076681e-02,6.164013901844242471e-02,-4.160026213588328137e-01,-1.105756715691055304e-03,-1.017770212728721403e-02,-9.845725688362736219e-04,4.846074283123016357e-01
7.374905262540931705e-02,6.010598753438048392e-02,-4.134237017521327218e-01,-4.391738507644971264e-03,-1.238713077051565789e-02,1.111526689636037563e-03,4.810392856597900391e-01
7.930829414972107028e-02,6.797106562087951165e-02,-4.404722506736118426e-01,-2.360563475789783858e-03,-1.409055823100037637e-02,-1.832965483020582501e-03,5.148105621337890625e-01
3.194302620890876465e-02,3.621076083882422691e-02,-2.765365150678119610e-01,1.528623179211483982e-03,8.436904024836819338e-02,-2.543863672296974715e-02,3.461172282695770264e-01
6.288823224940451317e-02,4.155660808212652269e-02,-3.547224981174136871e-01,-3.160126060980917011e-04,4.240878418104879893e-02,4.102568468428996994e-03,4.139948785305023193e-01
4.044953145747051670e-02,3.113674919852352230e-02,-2.767390819742430730e-01,3.203335428941316357e-03,7.975634557403005198e-02,-1.628327666631536330e-02,3.430027365684509277e-01
4.761664716007787956e-02,4.043235248058368869e-02,-2.877572508831081066e-01,1.597581783369256270e-02,6.435103927935767465e-02,8.251397224149676843e-03,3.514412343502044678e-01
6.348162535739099166e-02,5.107558690580779603e-02,-3.676526092334673756e-01,-3.647839360989602086e-04,3.854813213371619668e-02,-1.332511505814375739e-02,4.308978021144866943e-01
7.790196338707347512e-02,3.425402855044165640e-02,-4.293349062141070815e-01,-2.038675662264578109e-02,-6.490558767695054666e-03,-2.916275030298931883e-02,4.908963143825531006e-01
8.239446348255760610e-02,4.090457721853524298e-02,-4.355361302685354374e-01,-1.923457856957486514e-02,-6.813457634342012272e-03,-3.035811243528257694e-02,5.024924278259277344e-01
1.185410939800991548e-01,4.154984284571114350e-02,-5.232876323923133510e-01,-7.893394644158873786e-04,-1.188427575115310990e-02,-3.203476578379627765e-02,6.098859310150146484e-01
1.100437669208299829e-01,1.966023469310557159e-02,-4.535898251639657319e-01,-1.579950010204127925e-02,6.137921681918089879e-03,-1.222804561422134381e-02,5.255656838417053223e-01
1.328937079455735915e-01,3.259436700221024497e-02,-5.215606965771784065e-01,-1.569846613288470097e-02,2.550464759051445946e-03,-2.931980909040370065e-02,6.132429838180541992e-01
1.194044039363474918e-01,8.282856985459399746e-03,-4.531803987058594663e-01,-2.024765583817886988e-02,1.600648730483796370e-02,-4.769721276426046319e-03,5.278651714324951172e-01
7.671831456602073995e-02,7.253148449540028353e-02,-4.423149380273066478e-01,3.276069631512850528e-04,1.386832698460196099e-03,1.920594303276492582e-02,5.180276632308959961e-01
5.100230738089100990e-02,6.235521257135961948e-02,-3.637153967203625160e-01,-6.595039711882128355e-03,-1.355804456527790955e-02,5.704213504020079484e-02,4.327485263347625732e-01
8.251523324649623348e-02,6.388912949582620238e-02,-4.507099413527775322e-01,-7.050302581260037976e-03,1.223275640816087403e-02,6.760597477004255673e-02,5.376372933387756348e-01
7.262516392420673150e-02,7.529105620948900457e-02,-4.449771200058418863e-01,-6.564784552910152282e-03,-3.228156604451808739e-03,3.712218186109125101e-02,5.230619907379150391e-01
6.842206358540328659e-02,7.419161013473610233e-02,-4.272851417122516815e-01,-3.238193278331958497e-03,-2.589958871507238442e-02,3.217187071081036021e-02,5.037537217140197754e-01
7.088822353918369790e-02,5.010920076427716197e-02,-3.576136281342562895e-01,9.959419002568100851e-03,-4.905715048150274815e-02,7.716584696633892182e-02,4.477977752685546875e-01
6.053695332327427292e-02,7.774971044398812370e-02,-4.178799682204339394e-01,-6.374630503783213983e-03,2.117134560414734700e-03,1.121380426371403234e-02,4.877771139144897461e-01
8.475477679024229216e-02,6.062683069803223579e-02,-4.301012711536743582e-01,-1.934552914168866881e-03,6.318289931399684528e-04,-4.450617728631818862e-04,5.032390356063842773e-01
6.451664761901199086e-02,7.122293143462121723e-02,-4.155288934826744662e-01,-3.138065465428011881e-03,-6.136819867296011005e-03,1.205026108908360989e-02,4.840311706066131592e-01
1.036438352743253299e-01,5.979949915856658249e-02,-5.357051483248579382e-01,4.841387237300402019e-02,-3.134616968499111950e-02,1.888843488191719461e-02,6.274610757827758789e-01
1.195727361040190839e-01,3.890406397861212451e-02,-4.999370021490833760e-01,3.032755244249421556e-02,7.904187985305075395e-03,2.987774234613724267e-02,5.881747007369995117e-01
7.236815096241358547e-02,7.521998160103868236e-02,-4.497822392546142467e-01,1.721850025727904212e-03,-2.977461309687825554e-03,2.728475324870752649e-04,5.236162543296813965e-01
8.315908658005047305e-02,5.468703352446185884e-02,-4.602692356456178358e-01,1.948418747997111150e-02,4.528842102409383862e-03,-6.473437680561159799e-03,5.310165882110595703e-01
9.215469824897187801e-02,4.342872866752447991e-02,-4.703124502979089683e-01,2.069665955891993731e-02,-2.355477395416309423e-03,1.060865000489298257e-02,5.412726402282714844e-01
8.355458166619525451e-02,3.951659223383169328e-02,-4.463194404579354235e-01,2.198252590379135007e-02,3.769056150901095234e-03,4.231190630361210403e-03,5.108006000518798828e-01
9.358417659027787328e-02,2.813812467449949839e-02,-4.718837615158064658e-01,3.078420777775419531e-02,2.379367079099359728e-03,-2.738782848404392681e-03,5.384348034858703613e-01
1.039408938416609141e-01,1.455193904278997974e-02,-4.647961178820226302e-01,2.772761576059844246e-02,1.017924359509852876e-02,-1.209945083866161356e-02,5.326066613197326660e-01
9.652083527910335081e-02,3.333417104614094795e-02,-4.499854338995274428e-01,1.498620691758114146e-02,1.369584328830993547e-03,1.147553387943262178e-02,5.188488960266113281e-01
7.406676930033012640e-02,7.232439762248837889e-02,-4.379527821017182854e-01,-4.630971967256676015e-03,-1.703468872807300475e-03,2.587806798510390409e-03,5.112416744232177734e-01
7.402386713606698421e-02,7.230374643151687986e-02,-4.446351030428253304e-01,-1.376640420888553332e-03,-4.687492284460126162e-04,-6.017310277936589649e-04,5.178081989288330078e-01
7.043181422228272925e-02,7.146827678263140138e-02,-4.325375340877660180e-01,-5.585863845240527682e-03,-2.835153087752889569e-03,4.296320932792510941e-03,5.036602616310119629e-01
7.029358407855565427e-02,7.653646271952505020e-02,-4.453958450735241992e-01,-8.533895147194996318e-04,6.747806433362642936e-04,-8.928580346791089315e-05,5.188424587249755859e-01
6.677429048107869081e-02,7.274465838380159144e-02,-4.248282391584131124e-01,-8.102042239374683541e-03,2.640690095811199043e-03,2.884369426383729014e-03,4.948601424694061279e-01
7.686674387255859608e-02,7.001306436447299331e-02,-4.353371185212531191e-01,9.150343617078428304e-03,-3.565469525898849138e-03,6.872819552316135165e-04,5.090972781181335449e-01
7.598698555082950001e-02,7.299900824753413620e-02,-4.454242498508415582e-01,-3.434275465631405483e-03,3.801459114006719518e-03,3.302664168471091538e-03,5.200308561325073242e-01
7.924517479697315570e-02,7.025838986268373443e-02,-4.404262010454392806e-01,-1.923512994079062174e-03,-3.054861771157600962e-04,-1.345995663851368629e-03,5.152530670166015625e-01
6.919023377071870096e-02,7.392766074260959108e-02,-4.423385138498496794e-01,-3.441925546113915350e-04,-8.929614888843942890e-04,-7.237931567755572990e-04,5.139180421829223633e-01
7.663183997537686976e-02,7.092456555608547819e-02,-4.401893091496187349e-01,-1.120794118739783891e-03,-2.395512650193637027e-03,-6.190830970721376359e-05,5.140116810798645020e-01
6.729483310332567969e-02,7.488585498748417946e-02,-4.429298947813052334e-01,-1.148305967180009548e-03,-2.357671721613684591e-03,2.317208357641258910e-03,5.140979886054992676e-01
6.496633174365457064e-02,4.884006925116049502e-02,-3.849295329669917831e-01,4.336339475936670969e-03,-5.305689282467523915e-02,-4.655202762614224499e-02,4.587090611457824707e-01
4.156432081747080121e-02,2.972134978207308098e-02,-2.844804727504126607e-01,1.004864561971181500e-02,-2.208209002798499840e-02,-3.987732104257702206e-03,3.231061995029449463e-01
3.530339289345177378e-02,2.300426091689539154e-02,-2.320456743649693954e-01,-3.390468070962691233e-03,-2.343249894432764338e-02,-4.997662188258329002e-02,2.784121930599212646e-01
3.948685185330298719e-02,2.259994974936677115e-02,-2.319512111535429744e-01,8.414621821533864107e-04,-2.565527818865216345e-02,-5.268526245894170068e-02,2.822834551334381104e-01
2.861993172249113759e-02,2.331424274111226769e-02,-2.410049703980446656e-01,5.658826606990761954e-03,-3.515354946292141569e-02,-4.259447452171495618e-02,2.837982475757598877e-01
5.702515520548742667e-02,7.860237810089595878e-02,-4.513538847549854460e-01,1.472855303998426776e-02,-2.216138082215318196e-03,-1.603705430896320986e-03,5.201513767242431641e-01
5.639431268694247712e-02,6.310634860320346595e-02,-4.454020640899917227e-01,-3.965417922765220732e-02,2.525700317218739204e-03,2.083185358492846829e-04,5.098522901535034180e-01
1.241170292398076080e-01,1.532658323240548848e-02,-5.264147178966200880e-01,-7.320495727517795093e-02,-3.135336853173127485e-03,1.332827496603681931e-02,6.171665787696838379e-01
5.787852999318390812e-02,6.527841852504490117e-02,-5.322237926073001280e-01,-1.029846387281653786e-01,-2.109566328703188151e-03,9.250339130269598711e-03,6.202659010887145996e-01
1.984516303288466621e-02,1.548710456312306638e-01,-5.677472693162551876e-01,-1.071335477868678721e-01,-1.061029501913260259e-01,5.092985666479083601e-02,7.202950119972229004e-01
1.341045570457665703e-01,4.358544856372945087e-02,-5.431608591623062754e-01,-1.073050030728577575e-01,-1.089871901431888404e-02,5.602473744436865626e-03,6.637547016143798828e-01
7.804459260029686374e-02,5.335413741802533250e-02,-4.692720695199704140e-01,-7.246256435257714124e-02,-4.754479200193560988e-04,-1.089261134666924188e-02,5.502369999885559082e-01
1.161452115159136989e-01,5.452171549478751489e-02,-5.225195991154598651e-01,-4.830274107971186531e-02,-4.980984530825052249e-03,6.441329689692246001e-03,6.160615086555480957e-01
4.933412483628030198e-02,9.273820135453145208e-02,-4.610129681737427099e-01,1.180916216094744266e-02,-8.449837468750873160e-03,-1.470477839217851877e-03,5.339740514755249023e-01
7.754764745410522297e-02,7.421932912236214874e-02,-4.401624989060965443e-01,-4.892155263871812232e-04,-1.393681995104870119e-02,2.216392969357608260e-03,5.166332721710205078e-01
5.330709841345024347e-02,8.075569316469868864e-02,-4.481909658775029559e-01,3.445936636077008043e-03,6.802443455056243586e-03,-2.799023862465623968e-03,5.159623026847839355e-01
6.812392016483004298e-02,7.951807869916874272e-02,-4.521293279385832919e-01,1.034066674261702396e-03,-1.482026688440737754e-02,2.759282941900741051e-03,5.266935229301452637e-01
6.749203397544734084e-02,7.589375963024910798e-02,-4.373433961043851070e-01,7.326210746662795929e-04,2.215375810315107444e-03,1.384332144727422591e-03,5.091099739074707031e-01
7.561713529683311563e-02,7.407287682954066810e-02,-4.481256893797677665e-01,-1.015753598043918522e-03,5.463153943671429083e-04,7.432050156068982982e-04,5.229778289794921875e-01
6.635844288726705509e-02,7.603014514934591794e-02,-4.391924802057472488e-01,6.432844505369322407e-04,3.085793260920115678e-03,1.361482454222898240e-03,5.104901194572448730e-01
6.209763970146775502e-02,7.868079392775689795e-02,-4.461090465316752685e-01,-7.503912665902848873e-04,-5.773236645476798913e-03,-7.483188489909774416e-04,5.167979001998901367e-01
6.915636313107495492e-02,7.757441949454504937e-02,-4.404505136819201194e-01,-1.488036289862015339e-03,5.873812285462543968e-04,1.787472068024234875e-02,5.148068666458129883e-01
7.789728437329043742e-02,6.047075467411283656e-02,-4.344428078201721388e-01,1.622832761774523937e-03,-9.914545636601559964e-03,2.337309897019609894e-02,5.057761073112487793e-01
6.757478527414859104e-02,6.711703290586193416e-02,-4.102105989347443749e-01,-8.854179802625228649e-03,-9.238047003533329110e-03,1.517372543131682502e-02,4.787925481796264648e-01
6.863605285992074867e-02,7.903951035966280680e-02,-4.393757707400713919e-01,-4.160205423508336192e-03,-5.537610887137673320e-03,5.448070201026317290e-03,5.135195255279541016e-01
7.694016798073810559e-02,5.865716084872837910e-02,-4.286213872105023581e-01,1.469789059855098300e-03,-1.145656888789566875e-02,2.131597541325244358e-02,4.984444975852966309e-01
6.772531268746898037e-02,6.215477985632172908e-02,-4.131685779521519497e-01,1.129437236084216692e-03,4.495514212507575706e-03,1.662252347968386917e-02,4.790662825107574463e-01
7.919061739306673675e-02,6.832190014780673004e-02,-4.322600380564485811e-01,-6.135251972970125894e-03,1.477087597410491494e-03,-1.843161144846598752e-03,5.062319040298461914e-01
7.209408825523147546e-02,7.007769042164616047e-02,-4.212107359983992549e-01,3.887666389874581095e-03,4.924533744178231226e-03,1.362358464323721631e-02,4.929847121238708496e-01
6.410336030570634724e-02,7.740200760199564267e-02,-4.250465446858086027e-01,3.731570328950236000e-03,2.793635167264486158e-03,3.945034374212730288e-03,4.960457682609558105e-01
6.494602634226989690e-02,7.510543483802464837e-02,-4.210729614765363893e-01,8.252818014553041370e-03,-4.008575862885045758e-04,7.882862381457743026e-03,4.915755987167358398e-01
5.348861382748570925e-02,4.393896401496029391e-02,-3.293436808900953583e-01,-3.579623567861549976e-03,4.231374967179651891e-02,5.397375238025828997e-02,3.964153826236724854e-01
7.716471110882192064e-02,7.806160573418310933e-02,-4.486311105503543728e-01,4.755789653250710319e-03,7.012196282329323169e-03,2.314363104720823516e-02,5.279733538627624512e-01
4.863715531448217777e-02,4.741023424739554404e-02,-3.381988568907812742e-01,2.636948363324768778e-03,2.511706947027396095e-02,4.404847450025404371e-02,3.961101472377777100e-01
8.029682004601249035e-02,7.290401325260964516e-02,-4.488984597284413902e-01,4.122403853922120692e-03,1.395367334673832012e-02,1.626094191785226739e-02,5.268950462341308594e-01
3.871102547178881248e-02,1.001594690643324292e-01,-4.697812944116910860e-01,-2.606241556949457500e-02,1.348900322533892748e-02,4.524579209111100758e-03,5.442714691162109375e-01
5.287000736270972001e-02,8.684862607154558711e-02,-4.455881066649550748e-01,-8.057297427827543948e-03,-1.496803251871518629e-02,-8.538709448529590434e-03,5.173370242118835449e-01
6.614125888177227464e-02,6.553547305170903670e-02,-4.219030066092568920e-01,-1.245691346284210493e-02,3.266158371953711836e-02,1.735180671092425089e-02,4.924033284187316895e-01
5.293464482402499005e-02,7.791030412671989813e-02,-4.297158286769381941e-01,-1.736371496525650465e-03,8.585080597952288520e-03,-1.247874257687632202e-02,4.963135123252868652e-01
6.555257635624239798e-02,8.263897801973568713e-02,-4.360190362461484059e-01,-9.468684849254104322e-03,3.187666055183669550e-02,3.598735325727852458e-02,5.173380970954895020e-01
9.614786417677406716e-03,4.629795417591234252e-02,-2.732701216805232813e-01,4.926934107963019255e-02,3.306868520188512711e-02,-6.179720078072234446e-02,3.372926712036132812e-01
4.610481281598294290e-02,6.940781529495151925e-02,-3.615530237100226252e-01,1.253411689598431375e-03,8.204480749364030656e-02,-5.141525492255905050e-02,4.520585536956787109e-01
6.836198937270338005e-02,5.468310771437737139e-02,-3.835181176798062586e-01,-2.364846132003711222e-03,3.170064792920834068e-02,-1.090574217971829012e-02,4.489876329898834229e-01
7.308756108762157200e-02,8.500943817267794800e-02,-4.506699231250714255e-01,8.069097832821454930e-04,3.176313709915815076e-02,-1.079928980046046885e-02,5.329978466033935547e-01
-4.405245209995295452e-02,1.196965846692282232e-01,-2.731036557645052376e-01,5.604931017841896512e-02,-1.056496851511340984e-01,1.700932200031176483e-02,4.007034003734588623e-01
4.359432472878042863e-02,6.832360974876047766e-02,-3.338528939578416788e-01,1.215855774858197631e-02,1.084121817944924265e-01,-3.725405116864112520e-02,4.384958744049072266e-01
7.398786483594799179e-02,7.057508689223063181e-02,-4.448048615160326569e-01,-1.937140494665031114e-03,-5.402491815890499843e-03,4.867536866455938679e-03,5.172590613365173340e-01
7.960263896439898068e-02,7.419353240131493221e-02,-4.535915155044011882e-01,-1.076638913190559616e-03,9.908671248396495185e-03,-6.089952967226122151e-03,5.308958888053894043e-01
6.683827928423161091e-02,7.401676645795207676e-02,-4.481749235843611179e-01,3.351339395514997543e-03,3.121362976611857603e-04,1.344268940640843237e-03,5.186777114868164062e-01
6.504596755679761810e-02,6.917544074217985006e-02,-4.452048582323455683e-01,8.339002768005180158e-03,-2.088595037918609173e-03,2.209137879560999027e-03,5.125586390495300293e-01
6.774144360001882470e-02,7.551373607948491662e-02,-4.503444094575128065e-01,2.910497097624430846e-03,3.952058470126680254e-03,-4.937560246005611407e-03,5.221546292304992676e-01
7.364140625586870770e-02,7.898053079652572750e-02,-4.460001839416490310e-01,-9.830003992467532120e-04,9.429530284348091500e-04,-9.105770891931353871e-04,5.223393440246582031e-01
1.671411864147842596e-02,1.026894807627144190e-01,-4.569190735629786171e-01,1.929455080895829330e-02,-1.763803632033102706e-03,7.512328959088222444e-03,5.231982469558715820e-01
6.289399432551454061e-02,8.964533626776377551e-02,-4.628085129204831949e-01,7.024975620531052900e-03,1.256138881197606423e-02,-8.685087091853973401e-03,5.403607487678527832e-01
3.657198337211658989e-02,1.077979797117677996e-01,-4.637474040122362418e-01,3.335539352968525280e-03,2.874251891005369722e-02,-2.242921856163592950e-02,5.431844592094421387e-01
4.177466791798309376e-02,8.607984038534433058e-02,-4.546929848516546024e-01,2.094596058132511263e-02,-3.649337980090855155e-03,1.606615728816935878e-03,5.213473439216613770e-01
5.963149221548405543e-02,5.876781257678770354e-02,-3.706594462043312221e-01,-9.939380932502043728e-03,9.551168686219000531e-03,-3.387308922889992191e-02,4.345015585422515869e-01
7.685773762530992426e-02,6.480725569449391488e-02,-4.452808344524992190e-01,9.006682866700942147e-03,1.320888457927898822e-02,8.935235830184845920e-03,5.171926021575927734e-01
3.773721539891031207e-02,3.427933469399438438e-02,-2.474462121909806189e-01,1.847627954750023088e-02,4.215013501071244312e-02,-9.192020071488155031e-02,3.347497582435607910e-01
7.026345644593567918e-02,6.897013028629925269e-02,-4.184320739686936408e-01,-1.075258458071649825e-02,1.842131418161793363e-02,-1.521499719197854858e-02,4.901553988456726074e-01
6.030212871382392703e-02,9.096260052484694825e-02,-4.593793042688220640e-01,2.733013318209414288e-04,1.803598183068268190e-02,2.252595120164768792e-03,5.365946888923645020e-01
7.339099423069792016e-02,7.658632504788562279e-02,-4.413998630101754750e-01,-7.404114920042198511e-03,2.843035327091377254e-03,3.380142878294352220e-03,5.166118144989013672e-01
7.801771702438151102e-02,7.156565945831624975e-02,-4.483961952122256789e-01,-2.976233072587914849e-03,-5.165313220478674749e-03,2.569544185342797094e-04,5.233197808265686035e-01
7.194114118372976763e-02,7.638087114000541300e-02,-4.441666246830989762e-01,-4.061452848506914154e-03,2.690688497491550233e-03,3.722263984054936456e-03,5.184506773948669434e-01
7.643728241195016371e-02,6.842263761376929376e-02,-4.458301906421993643e-01,-2.441597255900048759e-03,-9.569048369235493012e-04,-8.131021096138680128e-04,5.183284282684326172e-01
4.174075715330982650e-02,8.014160265190858889e-02,-4.455490943841520779e-01,1.150904930494850952e-02,4.061241751002083594e-03,2.481428883132691474e-03,5.080390572547912598e-01
3.231577857319314906e-02,8.540607778581635334e-02,-4.464993091518448254e-01,1.045532444671445557e-02,-1.060149521728788631e-02,5.881443167191085716e-03,5.082044601440429688e-01
4.076997903510323762e-02,9.740969842933067113e-02,-4.599462437191730868e-01,9.045150847773141684e-03,-1.798453770500901133e-03,6.250713316664812183e-03,5.316554903984069824e-01
1.952666401039651611e-02,1.012081688377311495e-01,-4.623851966617729681e-01,-2.501808505637821006e-03,-1.527558674553818746e-02,-3.895638533162698548e-04,5.281983017921447754e-01
4.706760017173891586e-02,8.564079508059899148e-02,-4.488193306265778615e-01,6.005726916125422345e-03,-1.722226516857197761e-03,7.645441687377088407e-04,5.163705348968505859e-01
4.413950527505516863e-02,9.238643593229320383e-02,-4.536223228994541445e-01,-2.456932692004665155e-03,9.221897594101103116e-03,-8.271305597471105640e-04,5.238180756568908691e-01
2.757862612496608801e-02,1.017018737761909153e-01,-4.636411122665215490e-01,-1.184334165816933009e-02,4.090650349555219334e-03,2.839894666733989124e-03,5.326322317123413086e-01
1.415575106981539766e-02,1.136987712631571112e-01,-4.633093216358052380e-01,-8.233175531803376204e-03,-6.317500911406524235e-03,-6.258291164632949662e-03,5.346499681472778320e-01
4.067895741663538067e-02,9.088869058062748474e-02,-4.476542911774243350e-01,-6.189738863640217685e-03,-1.161408492462230949e-02,3.739013902066224901e-04,5.157804489135742188e-01
4.763675019033905556e-02,9.025705014756674194e-02,-4.501211051122956941e-01,-2.168134598264585822e-03,4.571517370462496385e-03,1.684972671271071139e-03,5.204606652259826660e-01
2.113115198847304033e-02,1.011333501378541555e-01,-4.525408255614928876e-01,-5.767096196118212149e-03,8.158201125153006356e-03,4.876653589698557237e-03,5.186820626258850098e-01
3.026192561068929976e-02,9.952628109746344820e-02,-4.500360668391746866e-01,2.195624913640498079e-03,-6.538525619332564293e-03,-5.545980634110964742e-04,5.185507535934448242e-01
1.352365998531893099e-02,1.053415486302876625e-01,-4.534240438357565739e-01,-3.209439616102914691e-04,1.090827830212895769e-02,-1.637929546977511181e-04,5.193285942077636719e-01
7.786480384521057840e-02,6.497497166967666771e-02,-4.236704749758476440e-01,-6.769197317876602879e-03,1.155569702095976797e-03,6.691214822698151807e-03,4.954945743083953857e-01
8.138797394366031890e-02,7.024849006901354165e-02,-4.398193938385135948e-01,-5.889348510558509511e-03,-4.610406187142577529e-03,4.860694250031484705e-03,5.159592032432556152e-01
7.385509234793305455e-02,5.614678258374322661e-02,-4.050586283607711668e-01,-1.792578902436958027e-03,-1.201081431768855068e-02,6.763774630951407615e-03,4.709255099296569824e-01
8.481200370733946170e-02,5.986533228090079595e-02,-4.280369108611464801e-01,-5.659779392866800922e-03,-7.724330605884031919e-03,-9.104985785705207936e-05,5.011163353919982910e-01
7.791184124682670742e-02,6.861888301645219235e-02,-4.344051220436820904e-01,-9.522436196126631003e-03,-8.319530310068670720e-03,3.856214971262962913e-04,5.082068443298339844e-01
7.367841736921248996e-02,5.958757822537566473e-02,-4.053849614593946216e-01,-8.918745743451004376e-03,-1.389486558346283637e-02,-3.866019135281382069e-03,4.730882942676544189e-01
6.100131560093596805e-02,6.451105050114741557e-02,-4.412001347226698900e-01,6.265986021886446730e-04,9.779595199861778471e-04,1.675788946901537969e-03,5.039778351783752441e-01
7.497016939824840964e-02,6.357509701379088218e-02,-4.395357656024858617e-01,-1.686538905026463940e-03,4.164464346389230333e-03,-1.188299766834321602e-03,5.089677572250366211e-01
7.516413694533138901e-02,6.432211934938755760e-02,-4.131176824346113885e-01,1.019953168113976218e-02,1.559338398244086016e-02,9.478743745955515651e-03,4.843075573444366455e-01
4.781518096868772605e-02,5.260407409359155184e-02,-3.408061880329561477e-01,3.401751525804492561e-03,-1.921921738354070638e-02,-3.761296267136364502e-02,3.978663384914398193e-01
5.837769841055681641e-02,4.887503792540087710e-02,-3.574660231583240977e-01,1.196859444864495185e-02,-3.011022518131294817e-02,-3.663647138238459999e-02,4.198106527328491211e-01
7.329022775209109719e-02,7.375817501987549929e-02,-4.506451184378993946e-01,-4.182160234783614296e-03,-4.100801677667619666e-04,1.903943733011743706e-03,5.242303609848022461e-01
1.081009653908864832e-01,4.015550805827716729e-02,-4.765652630863148609e-01,-1.619666364549436979e-02,-1.488718305089239231e-03,4.421889704567176331e-03,5.545971989631652832e-01
6.628842761910114234e-02,5.428936251293348114e-02,-4.458887477825775880e-01,-1.843694488362009401e-02,1.511659310510397175e-03,2.265806001820410125e-03,5.073123574256896973e-01
7.372575209479351188e-02,7.820115489840442913e-02,-4.475372610197220213e-01,2.628557945401109944e-03,2.217132850662242437e-04,-6.621482925336379284e-03,5.236606001853942871e-01
5.581992296645371665e-02,4.931504727995320025e-02,-3.558793848884277966e-01,2.020783285611143197e-03,-5.121363169812296473e-03,-6.603766286753379178e-02,4.243046343326568604e-01
4.835161660846801213e-02,4.744460458088992083e-02,-3.363051106330183782e-01,7.292206108528426559e-03,-1.486729939299757594e-02,-3.556652697293478244e-02,3.901670277118682861e-01
6.282395776276691879e-02,7.742178439510855048e-02,-4.210537592719062472e-01,8.324678711782117907e-03,-7.928366037367488503e-03,-1.401181680651842135e-02,4.923411309719085693e-01
7.388320108786489149e-02,6.858903616130154757e-02,-4.203492037431048600e-01,9.475708482286146137e-03,-2.582789639800614143e-02,-2.661781582784136790e-02,4.960577487945556641e-01
1.024614975593927391e-01,3.797266122382253473e-02,-4.748482051171811213e-01,-4.346879071435354180e-02,-2.477541091995954375e-02,2.384772656470178151e-02,5.562656521797180176e-01
7.505482024649978712e-02,3.962690097311702409e-02,-3.961374498671843547e-01,-1.030943933833699915e-02,-1.466165954935109463e-02,-4.320780810239028408e-02,4.616799950599670410e-01
8.256379324515208951e-02,6.748035433023669150e-02,-4.324590168388430800e-01,-2.343667671548386316e-02,-3.591806925354410190e-03,-5.064722095035684157e-02,5.168071389198303223e-01
5.950478945776332962e-02,6.450919980511557461e-02,-4.411905099264279984e-01,-1.428282086705862791e-02,-8.842501279310610888e-04,2.393756377789296730e-03,5.038432478904724121e-01
7.826954487922022086e-02,7.115111668276510870e-02,-4.406140192638668407e-01,-1.985486656698468889e-03,-7.110703821186163676e-03,1.728417204383945202e-03,5.155285000801086426e-01
9.360922928064926984e-02,2.767829672429261700e-02,-4.638434366532900865e-01,-3.297970127041864596e-02,-6.621914664066649338e-04,5.432299860390152162e-03,5.307540297508239746e-01
6.591262372336195718e-02,8.237968068319981296e-02,-4.349703388293104656e-01,1.543748786185545219e-03,1.238349660141118769e-03,-8.158174795698123951e-04,5.093296766281127930e-01
6.602241587542478918e-02,5.753750525592637999e-02,-4.412244370696461471e-01,-1.156583330432538539e-02,2.869758275014725000e-03,-1.056719801163010083e-03,5.034846663475036621e-01
7.019947648443397581e-02,6.256017421780943333e-02,-4.472016239512347502e-01,6.763436434127191935e-03,5.459551922447404906e-03,-4.506870333312575083e-03,5.139039158821105957e-01
5.775294185085880216e-02,6.962929013194921191e-02,-4.446622720664455963e-01,1.068349299467299257e-02,4.085541074784901187e-03,-6.010604722299596123e-03,5.089496970176696777e-01
7.142424896212662411e-02,6.581167781836577690e-02,-4.034098438711706258e-01,1.213765787499776136e-02,-4.337103236432875847e-02,6.479692388099818345e-02,4.914416670799255371e-01
6.597047519968807228e-02,3.902489162806080381e-02,-4.415873526265341464e-01,2.684575137640789200e-02,-1.880164930214948179e-03,3.417440719508148695e-03,4.968624413013458252e-01
3.053317057084195540e-02,7.319775811154535794e-02,-4.435870635948667151e-01,2.913328460653347857e-02,-1.817684889461030620e-03,2.584367359400829584e-03,4.994142651557922363e-01
5.402339855520843503e-02,6.778582695957088844e-02,-4.405547617239744529e-01,1.394773656048152108e-02,-3.964852144000414856e-05,-1.433540714080724530e-03,5.021885633468627930e-01
6.767216607216400281e-02,7.889598118294441353e-02,-4.352439289922410692e-01,-3.919721219895768403e-03,-9.714635806366241685e-04,-1.110227360097320974e-03,5.086725950241088867e-01
7.044334958916825817e-02,8.014042150482417193e-02,-4.426401818374873787e-01,-3.555845074515850274e-03,1.781034292707631269e-03,-3.724997027235591243e-04,5.180463194847106934e-01
7.194683033471960254e-02,7.712331973547659203e-02,-4.441740111539608793e-01,-1.792512087551849029e-03,1.033973557283247207e-03,-4.186154584937365995e-03,5.187914967536926270e-01
6.316249030902770789e-02,7.265946455595984066e-02,-4.163856024364591679e-01,-6.854287993123417411e-03,1.878714802011950420e-03,-3.003690363841540062e-03,4.845507442951202393e-01
6.143861446761392231e-02,7.895882102731968666e-02,-4.154229236480836418e-01,-4.352378739673771514e-03,4.381243232645902486e-03,-1.572038663984637319e-02,4.867385327816009521e-01
6.933898321003426068e-02,4.028971963986563432e-02,-3.539831718311933773e-01,8.876118530832406359e-03,1.025617354214200354e-02,-4.473970320366018466e-02,4.174986779689788818e-01
5.814380422843551388e-02,7.606120907570976253e-02,-4.156941242443535911e-01,-9.536382467953293668e-03,8.062472282306483093e-03,-1.063917071969696683e-02,4.838809669017791748e-01
6.624557706892483799e-02,8.174910285827302614e-02,-4.348539372432244643e-01,-4.431655174113411678e-03,1.629359054152469113e-03,-5.228283772111203334e-03,5.091745853424072266e-01
6.679634097876382959e-02,8.077391030630806656e-02,-4.345016714267720404e-01,-1.794509231719215118e-03,7.695724988464224458e-04,-3.010536615107192683e-04,5.084424614906311035e-01
4.878068308893560023e-02,5.206750982695917962e-02,-3.764222706732717194e-01,1.530485437092303849e-02,-3.064821944321057673e-02,2.721311443040588807e-02,4.335299730300903320e-01
7.873930633341585938e-02,7.131537686674313536e-02,-4.450430768958125172e-01,-2.197263265167234171e-03,-5.068564754161290938e-03,7.188686903907633326e-04,5.201996564865112305e-01
7.613746000559185045e-02,7.438002417725519955e-02,-4.470376459903575572e-01,-1.792669215057724873e-03,-2.157708201369761946e-03,1.740777038902218028e-03,5.223299264907836914e-01
5.560003045179467973e-02,6.778416993070415786e-02,-3.832369842757997191e-01,-3.790207799479604345e-03,5.050444890637723581e-03,-1.923671219826162196e-02,4.464336335659027100e-01
7.364501736888454109e-02,6.327345012673818436e-02,-3.934578562259254397e-01,-8.745214127430699091e-03,2.874880307195143035e-04,-3.228784221858292669e-02,4.656235277652740479e-01
5.091194443749466614e-02,8.018183862970568176e-02,-4.065718482042800508e-01,2.000265380756000716e-03,-2.103752012987147348e-03,-1.097114880984019492e-02,4.732071757316589355e-01
5.916967136725675980e-02,7.481867869693559214e-02,-4.105235327951609059e-01,-9.116650332532416981e-03,9.901198626720985815e-03,-1.271900868659413264e-02,4.787855446338653564e-01
4.798111020493778245e-02,6.655014456563546066e-02,-3.725656433409141322e-01,-3.208596108477897212e-04,4.676144060512013069e-03,-5.734491026658332380e-02,4.415254890918731689e-01
6.703896925461538814e-02,7.574814380393982138e-02,-4.264711743949359812e-01,-3.408005081602986930e-03,5.797710387455852314e-03,-1.016083051485668944e-02,4.983689188957214355e-01
5.575313047082502971e-02,7.927982949871609231e-02,-4.083476784945122007e-01,-4.890882426553807508e-04,-1.798007883374768204e-03,-9.690443911367016550e-03,4.766066968441009521e-01
6.170138995544147131e-02,7.498171860779787035e-02,-4.114740711692930764e-01,-5.328998512291694897e-04,-1.513334206414646018e-05,-1.466796655123663723e-02,4.806262552738189697e-01
7.264125810987218101e-02,6.988916516790991129e-02,-4.474027354593863581e-01,1.076315239243433872e-03,3.375053148165144470e-03,-2.198681400951067559e-03,5.187236666679382324e-01
7.073485570643808784e-02,5.914988185907055218e-02,-4.437920080937136080e-01,5.588447443485362875e-03,3.906057232098221824e-03,8.373511219846222322e-04,5.089724063873291016e-01
6.410515223486831782e-02,6.139525592703085066e-02,-4.424327289362668947e-01,1.219770384947483320e-02,-1.265533836315401372e-03,-4.025235485873079021e-03,5.056827664375305176e-01
6.622434093274076616e-02,4.426912764829293856e-02,-4.425976088458317137e-01,2.468724792786112024e-02,4.823868745794614903e-04,2.206183992724864568e-03,5.000541806221008301e-01
6.861204810973350887e-02,7.220374021907072226e-02,-4.474980739579970668e-01,-4.985834649156535353e-04,2.603316350837837564e-03,-3.107491452570254695e-03,5.179636478424072266e-01
7.354062301392669254e-02,7.102890034819095422e-02,-4.514941658071822683e-01,7.860849772113067107e-04,4.783283049553550652e-03,-5.203090552556462883e-03,5.239282250404357910e-01
7.429011349482508852e-02,7.319800429026274147e-02,-4.417569365434163009e-01,-4.953408693370666728e-03,1.048360994300412511e-04,6.147169487673950772e-03,5.156832337379455566e-01
7.373871070522297622e-02,7.400987942194414693e-02,-4.403361053239513434e-01,-4.786095297403650944e-03,-4.223459837256558346e-05,9.060517592143813069e-04,5.142796635627746582e-01
7.687434055412745160e-02,5.486315219301798884e-02,-4.565419616472456976e-01,3.417466681950080687e-02,-7.542275307035343958e-04,1.917173607412064190e-02,5.271474123001098633e-01
7.620430288850157940e-02,7.179565857386138727e-02,-4.454146248286395826e-01,-3.264000822246320918e-03,-5.604148954455709548e-03,-9.393192754989485070e-04,5.195526480674743652e-01
7.042131057596276444e-02,7.197326951886945379e-02,-4.315792481700219119e-01,-4.467840450165840201e-03,-2.080319102687556120e-03,3.789146983692851314e-03,5.028936266899108887e-01
6.653381727442064797e-02,7.161201399659414268e-02,-4.378453787082877691e-01,1.948985301538347977e-03,-2.037014758305004478e-03,3.845548515502747976e-03,5.070046186447143555e-01
6.337702006902562468e-02,6.444974268309555665e-02,-4.021799162100718195e-01,-7.887002896581242137e-03,-1.289215028947522830e-02,6.429336135192634770e-03,4.669615328311920166e-01
7.522036833102935249e-02,6.845966631510622125e-02,-4.279514156599978913e-01,-1.056390891139857499e-02,-6.006839797162173873e-03,6.374241856251658227e-03,5.003905296325683594e-01
6.645655401473113399e-02,5.371698105622818575e-02,-3.799352304657830914e-01,-8.516948229809515047e-03,6.296289124707797613e-02,-5.178008074959704332e-02,4.624880552291870117e-01
6.010603187773211342e-02,6.059614561149831435e-02,-3.711354266134532232e-01,-1.038801097606153329e-02,4.670195037922244413e-02,-4.665431367790671968e-02,4.467411041259765625e-01
6.629562910470004899e-02,6.735347709484251766e-02,-4.090787441973409710e-01,-8.605770589784485572e-03,2.596112771160613043e-03,-1.380868474213984252e-02,4.767590761184692383e-01
6.246388775867930954e-02,6.809710183712272547e-02,-4.290150850811236816e-01,5.187500166170298278e-03,1.344303337618893597e-02,-4.568752628391486992e-03,4.950125515460968018e-01
5.056993893514372118e-02,5.755104350524484214e-02,-3.306842594569067151e-01,-6.245247008274921324e-03,4.255459412107153588e-02,-2.614321143895071212e-02,3.945442438125610352e-01
3.389471181886956341e-02,4.759275152816107302e-02,-2.917384383838065309e-01,6.111194442229829493e-03,8.211188646591292828e-02,-4.266074244570836060e-02,3.694374859333038330e-01
5.678296194340257119e-02,6.150795392643290671e-02,-3.765153083575312198e-01,-1.103016806796553242e-02,2.367507632010418250e-02,-1.849536397038905114e-02,4.391922056674957275e-01
5.576499882117513796e-02,4.250565707505277180e-02,-3.203273654512581170e-01,-9.289306479548861337e-03,4.639172894275376408e-02,-3.428739593195508778e-02,3.832451701164245605e-01
6.219835815554761171e-02,4.546488439626614197e-02,-3.563217909931908345e-01,-6.658285496862363650e-03,3.257034150941744838e-02,-1.417958722931227968e-02,4.151559770107269287e-01
4.909825136521769884e-02,6.654064408855639434e-02,-4.414546170983681406e-01,-8.640690808842674611e-03,-2.919587907377242317e-03,-3.404600629473819671e-03,4.997870624065399170e-01
5.474525878974781379e-02,6.954447342968123058e-02,-4.489531168028121355e-01,-1.360385995301004528e-02,1.508007498754408444e-03,3.742774724708429479e-03,5.118490457534790039e-01
6.222813129132895305e-02,6.277422644789976136e-02,-4.465544445663905404e-01,-9.017943952401219140e-03,-5.517602288112926669e-03,-5.159420271188263317e-03,5.094634294509887695e-01
7.842561630920832916e-02,5.871540788182927351e-02,-4.590267692671877731e-01,-1.230598708869313530e-02,4.998235915500102121e-03,-5.926058083420409142e-03,5.284740924835205078e-01
5.854670060323186043e-02,6.394852036784318128e-02,-4.935391688764239615e-01,-5.843897385829814606e-02,-6.100434373070373270e-03,-1.743865273415876049e-02,5.648712515830993652e-01
6.807357962141477592e-02,4.656714235061801266e-02,-4.426316046964112738e-01,-2.020251796942371461e-02,3.609985793424291996e-03,2.903667545778286247e-03,5.015851855278015137e-01
1.290098037971443845e-01,1.021178169406491976e-02,-4.906336418622874174e-01,-1.160082350375546065e-02,-4.687315015486977210e-03,1.504468453178350656e-03,5.700306892395019531e-01
1.746690967102320635e-01,-1.108239847200527539e-02,-5.427879508599133818e-01,-7.099107227650372845e-03,-7.694450276760505386e-03,2.264234096456460912e-02,6.464103460311889648e-01
1.785481999366387296e-01,-4.121395517530800079e-02,-5.246397319248827795e-01,-8.543349740030296152e-03,-3.023921438451573820e-03,5.411921457221229026e-02,6.302917003631591797e-01
1.622704343721610987e-01,-2.908298865011851864e-02,-4.853849765768357694e-01,-6.321508425140411058e-02,-4.983650364728583332e-02,1.081405222114272119e-01,6.218240857124328613e-01
9.030579866022619973e-02,4.149624296358470077e-02,-4.597411572735994323e-01,3.226688243948110102e-02,2.041354349678674036e-03,-9.331614892848975537e-03,5.305503606796264648e-01
1.176983974500562802e-01,7.544259394600447144e-03,-4.561419435212322182e-01,1.729485518423995449e-02,1.130915383536611370e-02,-1.536475722846287681e-02,5.293439626693725586e-01
1.019555270274941916e-01,7.292000460902114956e-03,-4.450880028648216968e-01,1.144892101227090904e-02,-1.739213523813760900e-04,-2.124216993493865252e-02,5.081139206886291504e-01
1.296598433991437149e-01,2.377406055219932757e-02,-4.941877236436114096e-01,3.128338286217098585e-02,1.106346935049324319e-02,-2.559641689174092013e-03,5.810884833335876465e-01
1.116318748233424418e-01,3.750135202708229643e-02,-4.632342555956810437e-01,1.922861426551400119e-02,1.043681959250788646e-02,4.050145562409106920e-03,5.429884791374206543e-01
9.812784335209429054e-02,4.092005029601508692e-02,-4.649235645361541325e-01,1.343802392674834853e-02,2.591702058274415223e-03,1.595193470360021506e-03,5.372692346572875977e-01
5.020983066837672593e-02,5.775332861009954688e-02,-3.526685891060959421e-01,-6.050914960203254700e-03,2.965552056107156192e-02,-2.472127167519654750e-02,4.122968018054962158e-01
4.424271487094977306e-02,6.893639931330805548e-02,-3.650856052951635400e-01,-2.177929382689112493e-03,2.494560738053849315e-04,-5.442058452528693996e-02,4.326274394989013672e-01
7.806901139123120781e-02,6.583705085288452108e-02,-4.064690741528998452e-01,-2.522077340666140435e-03,-6.627559689088006155e-03,-7.325529894796016517e-02,4.952270090579986572e-01
7.355221156628130585e-02,4.751449339632435320e-02,-3.459209126833892589e-01,-1.988798241995211585e-03,1.392655169286581909e-02,-7.028829622814072864e-02,4.255920350551605225e-01
6.039657303194909121e-02,8.041228926397731014e-02,-4.315456450648999520e-01,1.270091654811144862e-03,-7.002124029250822446e-03,4.542620560410722853e-03,5.024621486663818359e-01
6.278397639837687838e-02,6.987633742032944850e-02,-4.446166315882044695e-01,2.573280681989675942e-03,-3.270334811309586528e-03,3.120799060099116711e-03,5.110630989074707031e-01
6.071501757789529719e-02,7.290099503754246535e-02,-4.187925057884009372e-01,8.198385617895829862e-04,-1.289660961111157612e-02,2.419809017424074966e-03,4.862486720085144043e-01
7.367286205262357779e-02,6.274786148373356909e-02,-4.147378683941621014e-01,1.059529346938108477e-03,-1.077814183724729730e-02,1.728481063056035031e-03,4.834142625331878662e-01
6.312724693445564972e-02,6.785442588011775245e-02,-4.244644263829769892e-01,-2.622301004942283187e-03,-5.425244116733040495e-02,-5.978140773280367533e-03,4.990298151969909668e-01
6.140063259958300490e-02,7.370023845813150620e-02,-4.201636830576857551e-01,4.609694996826314644e-04,-4.915899163317453968e-02,5.090433611257489180e-03,4.952844679355621338e-01
7.502703178908812220e-02,5.931838960328505994e-02,-4.152276583345866912e-01,-9.468761726366930597e-04,-1.029616485247923131e-02,-8.377629542916222114e-04,4.829265177249908447e-01
9.221421261148318727e-02,3.206360785859072027e-02,-4.576741223059127561e-01,2.510619697768910752e-02,-6.424490937825453295e-04,-2.500007755521508040e-03,5.242424011230468750e-01
8.097486145433407945e-02,4.103751998102536658e-02,-4.451721379874326034e-01,1.383779209374713312e-02,-3.577095150541452322e-03,-2.472912854426267439e-03,5.079802274703979492e-01
8.012568069814712812e-02,3.961678352657876934e-02,-4.437528846450781717e-01,1.584065050279648279e-02,-2.365659709197720940e-03,-6.790947099762516259e-03,5.057429075241088867e-01
6.359551807194888107e-02,8.389337249663700313e-02,-4.334669549816125289e-01,2.757319666727678538e-03,5.243738412304471339e-04,-2.886894365297329804e-03,5.075638294219970703e-01
1.306939131749099842e-02,9.383023643487600762e-03,-1.490141605192880081e-01,-5.751199728065311406e-03,5.806558676184778167e-03,5.102425588052289518e-02,1.835700720548629761e-01
1.999189440139534368e-02,1.651432777933949103e-02,-1.759389123810735922e-01,-1.246784666200598289e-03,-3.504533176617031370e-02,-1.383945962088834608e-02,2.048984915018081665e-01
-1.078493093454865187e-03,6.751712045097009451e-03,-5.189375044767500361e-02,4.046154943765255176e-05,-8.502597249754453856e-03,-1.660892593255519764e-03,5.715382099151611328e-02
6.605249280328779823e-04,6.659730532515033274e-02,-7.957855848092310058e-02,-3.400311933220445670e-02,6.951120967066449358e-03,2.278291170059290605e-02,1.457650512456893921e-01
-7.353503843076352603e-03,9.835269053771501790e-03,-6.861592748309067180e-02,2.701121237948477232e-03,3.222062173686623260e-02,-8.294396820089255939e-03,9.189313650131225586e-02
5.571093407120329688e-03,6.178830203612043631e-03,-3.736744037785515865e-02,8.955565141988123048e-03,4.490104825700810647e-03,3.000995168527832019e-02,6.980732828378677368e-02
7.582904766486792125e-02,7.562463781992415091e-02,-4.464756055035846161e-01,-3.670026953469900967e-03,-5.775944084710422140e-04,5.859001787674707543e-04,5.222430825233459473e-01
9.753763767323463119e-02,7.093517647213880284e-02,-1.400427579248807453e-01,-2.932793016734317002e-03,-5.363884271394130879e-04,-1.076232775391422610e-03,2.255261689424514771e-01
8.369460867514583180e-02,7.054854538093341398e-02,-4.679420845630716252e-01,1.715318249345756593e-02,-1.229398039489006458e-02,5.219723722070692198e-03,5.464813709259033203e-01
7.745781142351890192e-02,6.024525966935939669e-02,-4.619807610048670687e-01,1.900819134736645571e-02,1.672942973850180797e-03,4.642023961567655690e-03,5.321297645568847656e-01
6.279210829425405094e-02,5.863042414426525295e-02,-4.419225044472896990e-01,1.637344705324889418e-02,-7.383418600999001533e-03,2.985299182454725225e-03,5.036350488662719727e-01
6.800181962072335273e-02,6.429641738603206202e-02,-4.644344510966410544e-01,3.233729483704893271e-02,-4.654159681423151139e-03,4.209707612398186014e-03,5.336520075798034668e-01
6.343120458655440719e-02,7.261753648318325371e-02,-4.658511612111347899e-01,5.243455119669351849e-02,-6.439035233233508966e-03,-9.069615509921696503e-03,5.419461727142333984e-01
5.593596658957816770e-02,6.840281474337964185e-02,-4.410858283344915587e-01,1.400490806142472289e-02,-9.080050165337709769e-03,7.119056614873582080e-03,5.043512582778930664e-01
4.567249767177813946e-02,7.367235769864949324e-02,-4.455448673759550005e-01,1.686019199623680839e-02,1.384995966376290815e-03,2.572000705354313219e-03,5.066664814949035645e-01
6.945208845574912804e-02,4.706665803694337624e-02,-4.663238517600279964e-01,-2.811353833474040248e-02,3.071814828238780912e-03,4.548942318443711767e-03,5.272806286811828613e-01
7.005093859032779369e-02,5.049422547420157059e-02,-4.605485993128638489e-01,-2.163047911823754582e-02,-4.630134287272070007e-03,-3.835259804174444200e-03,5.225453376770019531e-01
2.237101981269665196e-02,1.049869038377906072e-01,-4.542090567597283912e-01,-1.935769732185571926e-02,-2.980307005562149447e-03,-2.000666864035142989e-02,5.250511169433593750e-01
4.459527519180359056e-02,7.379485885387365718e-02,-4.582571833120642757e-01,-4.373775715911423084e-02,1.120160065001049414e-02,1.217797697575177633e-02,5.243630409240722656e-01
5.370389040839623762e-02,6.918636203211142588e-02,-4.456372523478585035e-01,-1.552477271618930843e-02,-3.695083613837439693e-03,-2.220741032299755786e-03,5.080267190933227539e-01
8.702785470648483068e-03,1.632529630554922506e-01,-5.558815025865178061e-01,4.660191501845924872e-02,8.578272966152558198e-04,5.887805117060307056e-03,6.606959700584411621e-01
7.300033744284126214e-02,7.087534346908030969e-02,-4.463435232752276383e-01,-8.269678920239675619e-04,9.870411568191907962e-04,-3.284529919298033538e-03,5.183206796646118164e-01
7.215770075200095279e-02,7.457342055903637412e-02,-4.470072483649597528e-01,-2.104919364812309285e-04,-9.029165464934918710e-04,-4.701157821920109851e-04,5.203801393508911133e-01
-4.933860418380715818e-02,1.454842308931720840e-01,-4.697669851798220164e-01,4.774167009014908952e-02,9.610178362481583414e-02,7.920671192024674595e-03,5.756367444992065430e-01
7.503632184731459653e-02,7.198781440907203732e-02,-4.428292936532503554e-01,-8.961428931158624614e-04,2.073086377153763975e-03,1.774834709108700018e-03,5.163720846176147461e-01
3.049486873164630740e-02,8.831867731118678289e-02,-4.429241050281462200e-01,3.834890009093286541e-03,-4.249909043564936012e-03,-2.032449640766226945e-03,5.049303770065307617e-01
7.055107567698926108e-02,7.149336347183685159e-02,-4.319658792250191670e-01,-3.369405545744358355e-03,-4.905649576835729130e-03,7.306663482696092648e-04,5.030959844589233398e-01
-5.069873511745298655e-02,1.956813187353376171e-01,-5.625158637887941460e-01,4.581191769313700674e-02,2.316818272403454830e-03,4.814818462429664228e-03,6.746430993080139160e-01
2.107987853978304793e-01,-3.118772716339640594e-02,-5.419500560220591456e-01,-4.156876756136743817e-02,-7.340821064960204034e-02,1.267526858337099660e-01,7.159484028816223145e-01
8.198450630213596768e-02,6.984054084866009315e-02,-4.413511003235710550e-01,-1.254525990907229141e-03,1.356130347130659599e-03,-1.399400675178518643e-03,5.173860788345336914e-01
7.076366631113947814e-02,7.279891814820244056e-02,-4.426423789733098246e-01,2.961956581335300608e-04,-2.413135575259833972e-03,8.109135318411429772e-04,5.144458413124084473e-01
-2.659576019936031599e-02,1.591426295486664810e-01,-5.376195251721730406e-01,7.600437862866844807e-02,-2.234513711583378109e-02,8.041651999851195248e-03,6.399864554405212402e-01
1.070822966831598555e-02,5.565759238911713314e-03,-2.083813361257493002e-01,-1.455820612263405154e-03,-6.016440072753372623e-04,7.766889321452007501e-04,2.165854871273040771e-01
7.697048372973219754e-02,7.376582801736430994e-02,-4.456790938706942651e-01,-4.121082252585083795e-03,1.289593388219168954e-03,-4.140947642732426708e-04,5.211088061332702637e-01
-4.937457032685999003e-04,2.298559169340911312e-01,-6.166377533449798332e-01,-1.452972432188864849e-02,-9.788933921883664901e-02,-1.319376251557156411e-02,7.775123715400695801e-01
7.189108340917066409e-02,8.046629105619870770e-02,-4.447071398822577959e-01,-1.516245319005987691e-03,3.753516323845706038e-03,-1.379942440999768448e-02,5.215339064598083496e-01
7.893716724836075116e-02,6.032687800046057647e-02,-4.343276730719469736e-01,3.358869046097580184e-03,7.042909355815221012e-03,-6.059607994088033953e-03,5.045076012611389160e-01
4.773088927358271061e-02,6.299365706933782172e-02,-3.589653970985094422e-01,-6.157162000762078646e-03,1.935834233501724719e-02,-4.989530672526801963e-02,4.249102473258972168e-01
4.862481776118296461e-02,6.809855049915430891e-02,-3.807088663491343117e-01,-1.801253723548250016e-03,4.232988705382010534e-04,-2.724434852544664262e-02,4.419325888156890869e-01
5.648129965710049771e-02,6.716220438396602876e-02,-3.832447826679647451e-01,-3.941732402279493445e-03,4.904421889817755890e-03,-2.896496123381100615e-02,4.481132328510284424e-01
7.059800268753188557e-02,7.252926195932224429e-02,-4.289564312360278908e-01,-4.516143796003176808e-03,7.652840711524542573e-03,-2.754852058826228085e-03,5.007821917533874512e-01
7.029529812390264421e-02,7.383122833168023758e-02,-4.343450565442172340e-01,-3.059337429187103906e-03,-3.196969829245448810e-04,-2.606652195231525925e-03,5.064657330513000488e-01
6.761553076175771948e-02,5.900657784881946366e-02,-3.686854522885086305e-01,4.659152471736778718e-03,3.064526528771305269e-02,-7.919720061140660128e-02,4.564818441867828369e-01
7.459950460833555952e-02,7.390812046404099389e-02,-4.442979206701087036e-01,-5.049226796464095876e-05,-6.753202995478268969e-05,1.645075447018091129e-03,5.185599327087402344e-01
2.855942529022439946e-02,3.015594054478050456e-02,-2.315526761299449288e-01,-1.367345702290704602e-03,2.019131733383240646e-02,-6.478574670284530101e-02,2.861754298210144043e-01
5.252215745572860750e-02,6.936521418068197775e-02,-4.438220244423399796e-01,-1.747628908017304777e-02,2.181121321344971307e-03,7.222536165589913196e-04,5.058984756469726562e-01
2.577186742001202902e-02,3.398891619590715951e-02,-2.784206295882531990e-01,6.817820266185430078e-03,1.201365802972655192e-03,-1.005518580278936397e-03,3.086210787296295166e-01
3.382050280553883237e-03,2.497581154630068023e-01,-6.823272525205699157e-01,-1.266704929957124248e-02,-1.361224432152280117e-01,-7.483089870763851709e-03,8.695275187492370605e-01
7.664494174960251316e-02,6.977134121128258926e-02,-4.622199333038141122e-01,-8.379198846663478070e-03,-1.524386402941373640e-02,-2.012170476111622280e-02,5.374393463134765625e-01
4.833626687192194016e-02,8.229421583236329329e-02,-4.508000878906316955e-01,-9.376901226447933307e-03,-1.271293722918218766e-02,1.307231719791154259e-03,5.176810622215270996e-01
7.036157455071045952e-02,6.281566935374782723e-02,-4.479122977317616661e-01,-7.593772911485923566e-03,6.403321593129481307e-03,5.847441644562289924e-03,5.149295926094055176e-01
3.458736122276738489e-02,2.700580244507116978e-02,-2.878319273985846527e-01,3.328187453171018752e-03,8.978258407578351211e-06,4.033516416607198186e-04,3.187490403652191162e-01
7.563418470143973282e-02,7.214924706227007767e-02,-4.453506265199318470e-01,-8.959820550532321837e-04,2.076146622047012925e-03,1.741646602431681703e-04,5.192659497261047363e-01
7.782448255721877151e-02,6.797764229603178721e-02,-4.318293595757861647e-01,-5.798204569195317994e-03,4.080352818157315098e-03,-3.079319099497801991e-03,5.049799680709838867e-01
8.448791002686159568e-02,4.492632258069367834e-02,-4.498931940524620865e-01,-2.169972304068174332e-03,-5.043493532753192277e-04,-6.723616892237688214e-03,5.158854722976684570e-01
7.484538952728983507e-02,8.278771568390597135e-02,-4.654154437915966058e-01,-1.071428273502583392e-02,-1.172556304395314976e-02,-8.382469132410717838e-03,5.451636910438537598e-01
7.822640988403584128e-02,4.051305077404129817e-02,-4.408216720139793710e-01,5.193105050651603515e-03,-1.585608394048454905e-04,1.051328741157859939e-03,5.013406872749328613e-01
4.829524206224056204e-02,8.457210796415828846e-02,-4.576034540098276593e-01,-1.436946017926567579e-02,-7.375342682723375239e-03,5.022824271432200886e-03,5.257948637008666992e-01
2.952604017140916803e-02,1.270534675823965509e-01,-5.318032052082766192e-01,-5.692457838624821742e-02,-1.242383472987377419e-01,-6.479267588928921962e-02,6.693041920661926270e-01
2.161508610178144996e-02,9.254283419792633247e-02,-4.425264800117244546e-01,-5.733232664387894091e-03,-1.755777318121656654e-03,1.094018797998758423e-03,5.034779906272888184e-01
-1.230763209463747732e-03,8.425526810740233130e-02,-3.727905426788143961e-01,-5.077330265384729507e-02,-1.092438066717542205e-01,-7.151584578837809347e-02,4.858061969280242920e-01
6.447065051521783108e-02,8.491388354819334738e-02,-4.351936742886462484e-01,-4.685317948162271611e-04,-1.466945873582135005e-04,-1.677102691267239607e-03,5.102021694183349609e-01
6.438143359860698522e-02,9.587810197024909664e-02,-4.559267924693998220e-01,-1.815792906627269540e-02,-6.271724239907930376e-02,-1.755721955450157898e-02,5.493768453598022461e-01
7.820946019211358347e-02,6.729755628775752063e-02,-4.271304785580307684e-01,-7.704967349574006960e-03,-8.360245814504037656e-04,-1.067180605099690444e-03,5.001568794250488281e-01
7.706848660755155622e-02,7.332429839505347213e-02,-4.452322483759486027e-01,-1.564591570846926745e-03,-9.697024741350699847e-04,4.627907028390120664e-04,5.204491019248962402e-01
7.857583632979647792e-02,6.957083401174898873e-02,-4.428400918755477922e-01,4.352346258975897143e-03,1.052637740507975615e-02,7.240550325874191458e-03,5.175005793571472168e-01
7.554312362718137996e-02,6.338385634013396497e-02,-4.156608778012657601e-01,7.948175942373616673e-03,1.191771227811731261e-02,8.698392078595955368e-03,4.861060976982116699e-01
3.303922181374972789e-02,4.111473220713049437e-02,-2.869638548172999681e-01,1.425640891867133685e-03,6.972721437475656869e-02,1.114103379610196544e-02,3.464325070381164551e-01
3.908447770179448999e-02,5.188274594868869105e-02,-3.388185901834249725e-01,4.657599176068414303e-03,5.252652246356678822e-02,1.304089682616595830e-02,3.958072960376739502e-01
7.087949963887837934e-02,7.207977763186371178e-02,-4.310873786813173014e-01,-3.631874511427990448e-03,2.717680249172275356e-03,-1.241077799124966276e-04,5.026295185089111328e-01
6.763953462814942252e-02,8.090995446626927934e-02,-4.271868082164754776e-01,-3.260186604124299618e-03,3.757216252792958816e-02,3.587867431628449788e-02,5.096317529678344727e-01
4.935862618377118149e-02,6.684523497800448633e-02,-3.631255852120076066e-01,-9.375735065828085663e-03,4.520303664204680660e-02,3.365023015437095671e-02,4.329580068588256836e-01
6.013770100837118049e-02,6.624612996085404992e-02,-4.116269322217907534e-01,3.369247238722956894e-03,1.245336778929566519e-02,6.440970044564908910e-03,4.755046665668487549e-01
6.561265989220949058e-02,5.723814602444327049e-02,-3.801768354301783281e-01,5.552277703261968185e-03,3.504671248419012619e-02,6.672696136063115298e-03,4.460672736167907715e-01
6.792638351701058008e-02,8.451081048829603426e-02,-4.557666398420391340e-01,-4.731451544877283283e-03,1.990894243049272372e-02,-6.287375415009193889e-04,5.333591699600219727e-01
7.438877139306648845e-02,7.142151441848149096e-02,-4.334723643908382495e-01,-7.304725782691081845e-03,1.381895643043870928e-03,-1.470639166750913355e-03,5.065541267395019531e-01
7.900614596265426171e-02,7.039472483307476769e-02,-4.414133565638595491e-01,-2.889773591503880159e-03,1.584306955706017098e-03,5.696438544879168326e-04,5.162001848220825195e-01
8.439191907626972244e-02,4.210052076586937031e-02,-4.525520248389885980e-01,-1.875756850948953960e-02,-1.993091134373525114e-03,2.739185151435178083e-03,5.181497931480407715e-01
7.812510822621235307e-02,6.808544065284785618e-02,-4.347512416693926074e-01,3.795617023729635706e-03,1.001406196510383094e-03,-5.282098788755337348e-04,5.079772472381591797e-01
7.712089482162085008e-02,7.508741657654943724e-02,-4.560328727500980728e-01,-6.058326005586702270e-03,-1.318606696857601624e-04,2.771234095985989580e-03,5.322650671005249023e-01
7.426588325291730297e-02,6.822122680527564764e-02,-4.272896790129696032e-01,-2.242838690859403575e-03,4.806770235813216316e-03,-2.617903579741968391e-03,4.986659884452819824e-01
6.130070745854260261e-02,6.849622987907347249e-02,-4.424021598275189593e-01,-6.556511536969606910e-03,-5.049428146577666790e-04,-2.564499183438859187e-03,5.074861645698547363e-01
7.114566738028507697e-02,7.041463579938767037e-02,-4.433963206774673704e-01,-4.352066871155985161e-04,1.739481626786918778e-03,8.240325678746296314e-04,5.141882300376892090e-01
6.875261048833822275e-02,7.074041976004344368e-02,-4.488594570741938350e-01,7.101448472295830705e-03,-3.319104226272101121e-03,2.285091621634323985e-04,5.187866687774658203e-01
7.687028319448749314e-02,5.536878614129575604e-02,-4.808725196457134810e-01,-6.587274677085566688e-02,-2.948345726251409143e-02,-1.934355971381267539e-02,5.624011158943176270e-01
4.433937149506986253e-02,5.185241112781180384e-02,-4.418143365138125778e-01,-3.905238007533406303e-02,5.456964566518398511e-04,-3.938152184937376930e-04,4.946018457412719727e-01
7.661892863839298018e-02,5.274652108478194990e-02,-4.440708734078744335e-01,3.169700569925309325e-03,1.850225572065091742e-03,2.027730291632807904e-03,5.092253088951110840e-01
6.652052048784171112e-02,6.048726006584320691e-02,-4.429919390961259418e-01,-1.143944255428955975e-02,-5.738468245940590851e-03,-7.441462201889600774e-03,5.071713924407958984e-01
5.314063510857955364e-02,6.802636926479976864e-02,-4.420355888219114071e-01,-1.489501914461492313e-02,-7.072188935361710047e-03,-7.683015124790937636e-03,5.037706494331359863e-01
6.808612782462061808e-02,5.516174058573464212e-02,-4.482634399695667460e-01,-1.383068594871629878e-02,6.943256865759382668e-03,5.868933127282044068e-03,5.108152627944946289e-01
7.375638800603689926e-02,6.829011053791736452e-02,-4.223106183144855752e-01,-2.114467635579671875e-03,2.898471669364603015e-02,-1.025779080504136791e-02,4.962359666824340820e-01
9.163254620060265476e-02,2.088965000202258615e-02,-4.421244607599131293e-01,-5.594235545791736812e-03,-1.013034373859702858e-03,2.818856689668055530e-03,5.022572875022888184e-01
6.274136496707463651e-02,8.336961637624723531e-02,-4.539998824266119892e-01,2.906344561420131246e-03,2.716903516358857781e-02,-8.005502789303762384e-03,5.296589136123657227e-01
4.025510737613033352e-02,7.346005646589340299e-02,-4.026240416350885809e-01,1.338650789048016071e-02,3.288293589137056272e-02,-1.045841072761881721e-02,4.648224115371704102e-01
5.269723921611835227e-02,5.552046758625245326e-02,-3.697886066995231258e-01,-5.546575534805108388e-04,-3.296874437437396360e-02,-2.001462277549455934e-03,4.277485013008117676e-01
5.085740247821415871e-02,6.304082899335342050e-02,-3.732516671553331999e-01,-8.189846765442513818e-03,9.605308143723926759e-03,-2.771756016862635119e-02,4.335514307022094727e-01
7.938209764105230715e-02,6.424416645134806148e-02,-4.280528899080751071e-01,-4.704485899373162319e-03,-8.744164360208288994e-03,-6.049758279695053491e-04,5.003346800804138184e-01
4.842481584804364525e-02,8.585925980292039017e-02,-4.520603191148292455e-01,1.162443960408183000e-02,-3.856597943731368897e-03,-6.265722884620223906e-03,5.207589268684387207e-01
8.633932474644898103e-02,6.172325675585865756e-02,-4.307502221879070392e-01,4.783462583726525276e-04,-1.348564572812371333e-03,9.309883446351185097e-04,5.052401423454284668e-01
4.746015284963542302e-02,9.858946018078668105e-02,-4.572031236228418227e-01,-2.186359407378538912e-04,-4.068190697543938583e-03,1.694933549320086150e-02,5.329295992851257324e-01
6.445564903295131209e-02,6.549881326256298819e-02,-4.428984722164740484e-01,2.868495306784824960e-03,1.058950499082661392e-03,-2.677538608956286145e-03,5.079252719879150391e-01
5.901866006553690980e-02,7.921871234616167934e-02,-4.213716847762055684e-01,-8.391253532220544972e-03,7.936235947023453398e-05,-2.114331383292829877e-03,4.910310506820678711e-01
4.347831119292222546e-02,1.067648589844154561e-01,-4.744671056705751511e-01,3.017845271618708764e-03,-2.847577258462919477e-03,-1.520430832349683016e-03,5.523678064346313477e-01
6.380086440463877961e-02,7.858990872611887335e-02,-4.336645406888203769e-01,-8.084669761934208925e-04,8.675366097878280461e-03,3.608265736840125630e-03,5.052864551544189453e-01
6.465538188533559438e-02,6.130133212146487987e-02,-4.418679197181162865e-01,-1.480233679653841089e-03,7.322704103634558159e-04,-1.075192014197048906e-03,5.048661828041076660e-01
5.913560768958994740e-02,8.760041641490073916e-02,-4.746391361278942123e-01,1.062098788586435770e-02,-2.813146247244529847e-03,-9.346978793014132370e-03,5.491300225257873535e-01
4.042738545397217553e-02,7.827117882500053692e-02,-4.444291804782232735e-01,4.787442966047585936e-03,-5.808749980334363804e-05,3.248590545932744742e-03,5.049428343772888184e-01
6.823361064044594637e-02,6.513251060623012623e-02,-4.620094665615556151e-01,2.965297298656081187e-02,9.694795441529577631e-03,-8.968484990185559072e-03,5.316805243492126465e-01
7.149396709643016101e-02,5.514121913852509937e-02,-4.637220063650115409e-01,6.081330307931366586e-02,1.657978970300035340e-02,-1.379220637492010147e-03,5.384203195571899414e-01
6.141827382323683526e-02,7.785810810207594024e-02,-4.456456408376586187e-01,-1.584743728063519631e-03,-7.497440136948950624e-03,-2.036126065878163249e-03,5.156633853912353516e-01
6.329019704353663900e-02,7.411173861461059498e-02,-4.137575728270408426e-01,1.312501930660125776e-03,-2.356043998931075384e-03,7.107046799228187647e-03,4.827291369438171387e-01
6.703434174139555335e-02,8.139813663638656438e-02,-4.352391229521438420e-01,-3.523437051987793334e-03,9.998375180278764023e-04,-4.850762334771481152e-03,5.097159147262573242e-01
8.530083799375437481e-02,6.347476575486860062e-02,-4.357544129645793962e-01,7.127240827181317981e-04,-2.965843953351291265e-03,1.006944001019717148e-03,5.105226039886474609e-01
4.717917006509672606e-02,7.420429130277667040e-02,-3.813898529474844534e-01,-2.754129033276955969e-03,-5.144237252737589826e-04,-1.450338079045526696e-02,4.434393942356109619e-01
7.871673373696005949e-02,8.757024420943410048e-02,-1.146165598676397723e-01,-5.825169280652521021e-03,-6.143374906600639236e-03,5.598548535272557247e-03,1.986878961324691772e-01
6.931774169234081184e-02,6.617470057465510425e-02,-4.448924568205900876e-01,1.654980273416157676e-03,-4.409640042800744655e-04,-9.925765900793428152e-04,5.126573443412780762e-01
5.248821181138102476e-02,8.305987009954596267e-02,-4.470718587584251447e-01,4.120029559887390669e-02,-1.628899089063493358e-02,1.953120160429402258e-02,5.223026275634765625e-01
3.050396959354456650e-02,6.084216403081096902e-02,-4.586722098341812770e-01,6.686014100335228860e-02,-9.441340603913163723e-03,8.299693292573788461e-03,5.185936689376831055e-01
4.688652706794571579e-02,8.091998430957489385e-02,-4.579567318548483645e-01,2.402213194054271181e-02,6.772525942668809924e-03,-1.241010894903828155e-02,5.249165296554565430e-01
4.454919397649942381e-02,6.161114073399936997e-02,-3.588101065427913849e-01,6.260898933444004368e-03,4.115638645681414173e-03,2.727853683625764206e-02,4.150574505329132080e-01
7.124672550058927523e-02,7.747560423172669686e-02,-4.426059891356183829e-01,-3.664397670304803969e-04,-6.428974805522682471e-04,1.283624719441379654e-03,5.170016884803771973e-01
1.724794196575885064e-02,2.029545969181410781e-02,-1.894120720823951332e-01,7.829887380630446217e-03,1.952385355728857713e-02,3.278869042586654570e-02,2.188611626625061035e-01
1.627263081723435978e-02,2.499245229668861645e-02,-2.279864953423419160e-01,3.789956784816972402e-03,5.146133118077387061e-03,5.374940792678625096e-02,2.658157050609588623e-01
1.156096264275407459e-01,6.794983186949934972e-02,-4.778850132786252036e-01,-8.536816489991893436e-03,-2.789585622283039315e-02,-5.620162039661923820e-02,5.815930962562561035e-01
1.070842114344234819e-01,1.213540279566520386e-02,-4.535769073837446208e-01,-2.407027910552587274e-02,1.063267561436748686e-02,-6.413860933139658820e-03,5.218455195426940918e-01
1.270618894118423770e-01,4.296162328126326702e-02,-5.106020007977039032e-01,-2.389339043713310448e-02,-1.128989635536437009e-03,-1.039640875745836621e-02,6.017484068870544434e-01
5.764737200452091370e-02,6.161336090373525920e-02,-4.382920749131784532e-01,-1.107312925120279914e-03,-5.423713483003989678e-05,9.507458142304585748e-04,4.979407191276550293e-01
1.034198894831078186e-01,4.154112700160855765e-02,-4.375307676266262380e-01,-2.039812013711646624e-02,-3.332096371224340520e-02,5.581713496360335078e-03,5.173546075820922852e-01
7.445754904151252740e-02,7.564594182927342203e-02,-4.467552258498748707e-01,1.373769365243290852e-03,5.513958669421393762e-04,6.127145818159139036e-04,5.218153595924377441e-01
1.494696311509023379e-01,-3.900954032823732154e-02,-4.035259541351441381e-01,-4.361631280549927575e-02,-8.879281554285747835e-02,-3.894096365891095562e-02,5.205854177474975586e-01
1.147788940039393413e-01,-6.151154118824540828e-02,-3.414064134410901286e-01,-6.546691332074156683e-03,3.290979105991617693e-02,-7.181717043802102185e-02,4.214417040348052979e-01
1.286875586577375663e-01,-1.988786177397544597e-02,-5.263255664636445896e-01,-6.616198738127362922e-02,-3.591429945049384731e-02,-6.781161956412493086e-02,6.201572418212890625e-01
1.056225542988204202e-01,1.499427996041988176e-02,-4.549083074723477838e-01,-5.881071866833202308e-03,-3.210102088925173157e-04,-7.313327764339096031e-03,5.214143395423889160e-01
1.223233217701679143e-01,8.513306117670330075e-03,-4.647556701434311655e-01,-1.874323742687719705e-03,-1.707168505164127770e-02,-2.383462332983810744e-02,5.416531562805175781e-01
1.336693108441829869e-01,-1.086894179781318359e-02,-4.835685765028783778e-01,-1.214727181256218666e-04,-6.586926166051398869e-04,2.621415951286235752e-02,5.610011816024780273e-01
7.526241079046908089e-02,7.489331513353769676e-02,-4.441524072675118173e-01,-3.577736542463105449e-03,-1.617476301627795727e-03,-2.296162647554814324e-04,5.192750692367553711e-01
7.408703474482392082e-02,7.124998390361633738e-02,-4.476807167394056264e-01,1.373804904686377632e-03,-2.465304829415220183e-05,-9.517411069769680628e-04,5.203630924224853516e-01
5.532783499902046986e-02,5.837549599446062443e-02,-3.599928564129389885e-01,-6.044500173929739928e-03,-3.016790952560187422e-02,5.343824364931192700e-02,4.303175210952758789e-01
7.927456360820150927e-02,7.658880208308338489e-02,-4.566594900685661540e-01,-7.732839016478553797e-04,-9.691225259192070077e-03,1.736674601250424305e-02,5.357065200805664062e-01
7.497340395420171166e-02,6.852539974217514152e-02,-4.299031091850843977e-01,-7.237997865109374249e-03,-1.389077430956218908e-03,-1.026130209983834455e-03,5.018491148948669434e-01
7.299400461362298698e-02,7.488675158165417067e-02,-4.469171861532654222e-01,1.370803568534928419e-03,-2.557067798830481837e-05,2.053506850952551126e-03,5.208777189254760742e-01
7.715761257261830042e-02,6.580246203272724359e-02,-4.230822528788507619e-01,-5.756775627215443211e-03,-7.548569790457914166e-03,9.381874998572450539e-03,4.951999485492706299e-01
7.394815085913589159e-02,7.290380369289503615e-02,-4.424231846644852695e-01,1.350765916860014425e-03,-5.942443275114091608e-03,1.120594963768004352e-03,5.159615874290466309e-01
7.304742422143115088e-02,4.641775115636131988e-02,-3.785095226839151339e-01,-2.760314033608394103e-03,-1.814341498247257212e-02,-1.001407855166743573e-03,4.400016069412231445e-01
6.978155248764636442e-02,7.815239277445912291e-02,-4.425686410874439258e-01,1.086327920800320319e-03,1.770312643405982803e-03,-6.703794778808749161e-03,5.167294740676879883e-01
6.430122801481735761e-02,7.601306867701643211e-02,-4.186786655474691310e-01,-8.725561862552303621e-03,4.669142410536421088e-03,1.218521713352021044e-02,4.896964132785797119e-01
7.134663001327909426e-02,6.107005470255416624e-02,-4.219188381555926681e-01,2.068823154297586876e-03,-7.847659303387569726e-04,1.215822030720430796e-02,4.886772930622100830e-01
5.447490987625933090e-02,6.461482791779982193e-02,-3.689182591151506374e-01,-1.057934099441803361e-02,-5.244329333577424195e-03,3.230309376631591844e-02,4.326736629009246826e-01
6.496569078225736260e-02,7.241297993603124095e-02,-4.153007918269033816e-01,-4.057715618125610525e-03,-1.134819969143592566e-02,9.370771959184155675e-03,4.847548007965087891e-01
7.250998247695636389e-02,7.388392991824604961e-02,-4.450993249209243552e-01,1.636106514442329466e-03,-1.149967854683575327e-04,2.557167709882268800e-03,5.183243751525878906e-01
8.043414033707607658e-02,7.111661302297897502e-02,-4.453500349217256460e-01,1.409745485520664263e-03,-6.106167965647219757e-04,-7.662082205004306246e-04,5.211963653564453125e-01
3.711852491579219204e-02,4.920287452663757444e-02,-3.084968533898052034e-01,3.401733333681984488e-03,2.309468396970066131e-02,6.536356662793918471e-02,3.717856407165527344e-01
7.689263834418280652e-02,7.413431513591844935e-02,-4.466081701079571142e-01,5.041140860430000413e-04,1.517848467095933099e-05,7.289431982661284670e-04,5.221293568611145020e-01
2.822981102127934683e-02,3.037966530990514336e-02,-2.471831484843840521e-01,1.521555960446945455e-03,1.451495650565419113e-02,5.636252162143889216e-02,2.943097352981567383e-01
5.470171184564481814e-02,5.642177371457376966e-02,-3.532150834762846081e-01,-1.264588911492860873e-02,3.352388998542599891e-02,8.310512916565371277e-02,4.378029406070709229e-01
5.225689467643082620e-02,4.828295249060438055e-02,-3.275828608620349747e-01,-9.477211009192954699e-03,6.648225533858406755e-02,6.826385126234278677e-02,4.126664102077484131e-01
7.671244632225415749e-02,7.601816904464961389e-02,-4.480831298968319665e-01,6.349226661527457294e-03,-9.622567118316226881e-03,3.707592149794716740e-02,5.287429690361022949e-01
7.283688148158024012e-02,3.515045600440500073e-02,-3.340987311527133796e-01,5.191884683136442288e-03,-3.713062232942776486e-02,5.036629687561171992e-02,4.043613672256469727e-01
8.022434375870629575e-02,7.631378921045897656e-02,-4.568590066315477149e-01,-2.037466127984248129e-03,1.349832498178207829e-02,4.082229630034783091e-02,5.403072834014892578e-01
7.275625755005193929e-02,7.532953206584103167e-02,-4.406521430427448038e-01,5.056177718634455136e-03,-3.265328798747692729e-04,1.319787571853244662e-02,5.152819752693176270e-01
7.933428634603989504e-02,7.028266945108932462e-02,-4.412127321351255738e-01,1.074506479370472599e-03,-1.801116146182342611e-04,1.288125081675370017e-03,5.160890221595764160e-01
-4.432899895877011331e-02,1.666574559737167283e-01,-5.286677770565753054e-01,-4.974786372280602664e-02,-9.009272298855232688e-03,-1.795530134443764974e-03,6.236713528633117676e-01
1.843690344714227214e-02,2.383145618341679650e-02,-2.672502184197071418e-01,2.234259752365738011e-03,-2.395980578477627937e-02,-1.755285271972322034e-04,2.914183735847473145e-01
6.040338831327796143e-02,8.401534927806425523e-02,-4.476269760589289826e-01,4.643589039210438115e-04,-7.912509648669964826e-03,8.515280997403112213e-04,5.204215645790100098e-01
7.023182614106873722e-02,7.463823909164515880e-02,-4.373127443878478959e-01,2.858815044408136684e-03,4.045481189238645664e-03,9.745111903053394961e-03,5.101135969161987305e-01
7.766809542996530591e-02,5.227837944688032423e-02,-4.363133118361914864e-01,1.457623444567412996e-02,-3.262886072186773918e-03,-3.895820207179433690e-03,5.024803876876831055e-01
5.594401531429785135e-02,5.041550614608630854e-02,-3.711391472949131520e-01,1.187893946688984605e-02,-3.347117832035069462e-02,4.815209414722752129e-02,4.368176162242889404e-01
7.619939865369360077e-02,6.275835455539643948e-02,-4.428030038576045713e-01,2.518145948198006502e-03,-1.796690944580335049e-03,2.086337359180925194e-02,5.137146711349487305e-01
1.206671400197140143e-01,3.088119312574183484e-02,-5.029351932499277478e-01,3.258034117146966363e-02,9.340515201008233251e-03,-1.042121242617651163e-02,5.871308445930480957e-01
8.606508770166262923e-02,6.268429390559016046e-02,-4.343760135029170466e-01,4.554892121300672036e-04,-1.954629776147477713e-03,-8.444805509058095697e-05,5.091654062271118164e-01
3.285111495876251453e-02,2.077376681471634901e-02,-2.671538308227732750e-01,3.880121765948220044e-03,-1.633150663293487376e-02,1.021654259689777102e-04,2.955857217311859131e-01
1.041780122601496661e-01,2.079668240360010856e-02,-4.567542725065946163e-01,1.312502577283809757e-02,-5.548073834852347563e-03,1.850733858178680788e-02,5.257973670959472656e-01
9.842444242181921932e-02,4.063348870924304856e-02,-4.544198544803463857e-01,2.195027457223045278e-02,-8.665335026338637572e-03,6.976760038342709469e-03,5.280567407608032227e-01
5.083301557774644319e-02,2.870111633991459521e-02,-3.091988451916255487e-01,-3.976219939317248570e-03,-2.582224734114306822e-02,6.315670943323346311e-03,3.525791168212890625e-01
7.555146305130880369e-02,7.276611792090445507e-02,-4.725951996809781841e-01,1.966284868029987906e-02,-4.352193119800633466e-04,4.212741429599401594e-02,5.526575446128845215e-01
9.536194879464468532e-02,5.655982877220125382e-02,-4.585915480801535660e-01,1.794918379365684560e-02,-9.215126907282973276e-03,-1.520396551818968024e-02,5.373920798301696777e-01
7.713540820006564713e-02,7.164945301273326073e-02,-4.448884860840744970e-01,-1.021247325303909544e-03,-3.148444615289934696e-03,-1.555638385240602035e-03,5.193412899971008301e-01
6.077909395876379683e-02,8.012210635801553238e-02,-4.167265329118080008e-01,-4.617632539822931134e-03,3.123653586063516400e-04,-4.400938706521272331e-04,4.875315427780151367e-01
6.099003451726237035e-02,5.066570417420787620e-02,-3.546146372183938134e-01,2.262952389204269874e-03,4.172906781808105592e-02,-8.192797656061012084e-04,4.168744683265686035e-01
4.768290601126079498e-02,3.032473276903417669e-02,-3.062362266269206823e-01,6.791566386084482709e-03,-2.627953624783075162e-02,-7.995040449047554482e-03,3.490252792835235596e-01
6.813645728556913528e-02,4.908641871370517107e-02,-3.792117321341714198e-01,-2.660595679938542509e-03,2.246195660473703989e-02,-2.388843573293132020e-03,4.399014413356781006e-01
8.626735702408369622e-02,6.146920560770469111e-02,-4.306342562856824152e-01,9.969940195403610445e-04,6.914037280787754857e-04,6.559879827528519898e-04,5.049650669097900391e-01
6.021116885829894128e-02,9.286082046517826760e-02,-4.272879379010067202e-01,1.089379479934274829e-02,9.296083168080959691e-02,-5.118437731315360339e-02,5.373814105987548828e-01
6.501919255649724061e-02,4.650916543575553397e-02,-3.688048454235853257e-01,6.357044661443822520e-03,-1.611492056105405003e-03,1.537193559016298595e-03,4.250316917896270752e-01
6.349621090320337058e-02,3.965220874787309113e-02,-3.422095741223117882e-01,4.756481505416197079e-04,2.898787578068841644e-02,1.480791747191993399e-02,3.983358740806579590e-01
5.776373432349241055e-02,6.373084043338103633e-02,-4.080153903287416783e-01,4.524386182110812574e-03,1.775205336921626548e-02,5.270661448477299837e-03,4.699524641036987305e-01
4.812775013763892495e-02,6.953519182599884885e-02,-4.412087402614668918e-01,8.740698210113671124e-03,-4.077431172425731963e-03,2.655329142996267280e-03,5.006836652755737305e-01
6.371189326424728239e-02,6.664095222633920068e-02,-4.460319020711097648e-01,6.195913438052928941e-03,-3.746109124972504638e-03,4.734844494632102843e-03,5.114341974258422852e-01
6.732008462907845825e-02,7.409586679683141663e-02,-4.444135353076865136e-01,8.932893885685076838e-04,-4.666437280568453728e-03,5.004946438743884674e-03,5.152935981750488281e-01
7.221601592886883747e-02,6.408145870119730247e-02,-4.467786600806958330e-01,3.461418185890407194e-03,-4.975796850720187216e-03,4.702620250869170293e-03,5.151469707489013672e-01
6.882539025521594578e-02,5.588136853612996058e-02,-4.368992919666892516e-01,9.920612663623616656e-03,5.461711141488989965e-03,-3.857182596743806511e-03,4.998082220554351807e-01
5.969206302239246642e-02,5.749424155018009741e-02,-3.827154768329057988e-01,1.023222889985188257e-03,1.665952302272782903e-02,-3.031577073895707145e-02,4.453648328781127930e-01
-3.693760947824348273e-02,2.079771727289029815e-01,-5.952723968912541075e-01,-4.691686885294631820e-02,-2.096690063723386389e-03,4.951658810109805381e-02,7.227986454963684082e-01
7.659801856418346766e-02,7.414958754015252285e-02,-4.481124080313778624e-01,-6.024291170272866531e-04,-8.062885887395473234e-05,-1.166712815063605346e-04,5.234916210174560547e-01
-1.144379165814893295e-02,1.990902965808754033e-01,-6.158176001695034874e-01,-6.127335933893805764e-02,1.317791537904144106e-01,1.829982940789580403e-02,7.753700613975524902e-01
7.727963800457302024e-02,7.221097416301108796e-02,-4.388171298928913444e-01,-1.417653503535868439e-03,-6.891021366380767517e-03,2.202280234641282568e-03,5.137398838996887207e-01
6.834837103322338736e-02,7.423676265990619694e-02,-4.465136401817362266e-01,-7.351028185802915057e-04,-3.459927801886756010e-03,-3.656872719368353328e-03,5.179063081741333008e-01
3.171267112483319717e-02,2.627365301198249514e-01,-8.541613418298604765e-01,-8.588687046072140951e-02,8.109819363144483984e-02,6.470421183987687397e-02,1.047484159469604492e+00
-1.968028406883054471e-02,2.482985842307160462e-01,-6.724645982080412754e-01,-2.494608835352045417e-02,1.166189660399256645e-01,-2.236880969016013382e-02,8.467823863029479980e-01
2.144589958001416607e-02,3.317911991192280807e-02,-2.388905628763095257e-01,-4.691965268762809081e-03,-5.561638875446305724e-02,-3.887839684245151389e-02,2.912859618663787842e-01
6.232324517303555744e-02,1.274674953271187627e-04,-3.164426872185912565e-01,-5.011662709733173682e-02,2.716676750035149773e-02,9.117593711404646528e-02,3.980735838413238525e-01
1.038789730116173315e-01,4.122758022395503485e-02,-5.255053841526322600e-01,-5.700224897778834177e-02,6.428295501813530155e-02,1.169886304787598752e-01,6.510159373283386230e-01
8.336109655753598524e-02,3.634536081833494858e-02,-4.224908775046284926e-01,-7.962428771196726832e-03,1.316944144348748506e-02,1.803367020114536937e-02,4.857981503009796143e-01
7.271484069926081872e-02,7.911163707042873083e-02,-4.450606927805288437e-01,-2.129699042411335383e-03,-1.962776418452077791e-04,1.042113367800971430e-03,5.210196971893310547e-01
1.066673517291652773e-01,4.632523724555809297e-02,-4.585698892346254385e-01,-1.801660450001413977e-02,1.043694163206796387e-02,4.245137244228932433e-02,5.438140034675598145e-01
4.249233217932124607e-02,1.055985155687258481e-01,-4.649594419017466507e-01,-7.858649164471308637e-03,-2.828446208356835342e-02,2.681051253596290068e-02,5.461270809173583984e-01
1.448283959266614684e-01,-3.518491493299834294e-02,-4.205705885435139235e-01,-2.015576945015731813e-02,-3.805689394675938753e-02,1.558648853257907363e-01,5.733644366264343262e-01
4.589816809433905354e-02,7.294939173040979052e-02,-4.449958832043224288e-01,1.723693139938341917e-02,4.099305682000730332e-03,-2.357197437148553579e-03,5.059114694595336914e-01
3.887358751274966329e-02,3.570736570986246528e-02,-3.037557429283520571e-01,-9.372358667843590230e-03,-2.981434771929707475e-04,2.605284367684142233e-02,3.444126546382904053e-01
4.927797867379901664e-03,1.190719175818588660e-01,-5.031000160121028575e-01,-5.103752276037867852e-02,9.644512410735371979e-03,1.755334184841185474e-02,5.814872384071350098e-01
7.530331076205010188e-02,7.600371535217215202e-02,-4.458312549708815520e-01,-2.012611049482404373e-03,9.230010180326463478e-04,-8.599672129518655611e-04,5.215013623237609863e-01
5.500705525211121993e-02,6.365323516885745825e-02,-4.836495801071127310e-01,-5.249259243726103752e-02,-7.355176278845841110e-03,-1.977550243467906740e-02,5.518015623092651367e-01
7.909674875084535262e-02,6.893401445867877730e-02,-4.346423830155230483e-01,-4.237122731528590591e-03,-1.337051856650130514e-03,-8.868262283786924318e-04,5.087944269180297852e-01
6.710422603063381786e-02,5.644945423142533336e-02,-3.892654863040700963e-01,-8.506528613701559369e-03,5.726837540267308568e-04,-1.055421940484192197e-04,4.513783454895019531e-01
-1.313628639730676784e-02,1.408997781893049916e-01,-4.864295983288404734e-01,-5.749058683746308129e-02,1.241470602440533991e-02,-1.474606367974131901e-03,5.753453969955444336e-01
3.101152153465455696e-02,8.674199250345759893e-02,-4.502527939398510703e-01,-2.859717789663194371e-02,-4.997565226301619624e-03,1.692288645626886063e-03,5.138863921165466309e-01
7.239578521298867253e-02,7.560591728287979763e-02,-4.448740819356161169e-01,-1.038074975486673150e-03,2.360767281944156984e-03,1.158366356382551591e-03,5.189054608345031738e-01
6.907296363298962016e-02,8.314997971200605020e-02,-5.467028154711963683e-01,-6.390660144532692155e-02,-4.114856013006349539e-03,1.916810821990029903e-02,6.336019635200500488e-01
3.529477917711526525e-02,1.079618462407384016e-01,-4.918828650254360446e-01,-5.422021281166297668e-02,-1.215683495356634572e-02,1.034990522987397875e-02,5.754037499427795410e-01
6.311455378019273366e-02,4.563619419818915057e-02,-3.619173043953585744e-01,-7.618771154327278264e-03,1.462143590057336925e-03,-2.683308321923811527e-03,4.168103337287902832e-01
8.959313896375181718e-02,6.331271680181008166e-02,-4.634622829743466621e-01,5.716212769584626957e-03,-4.381413099625199384e-03,1.447259503356186292e-02,5.411195755004882812e-01
2.412355889900615058e-02,-1.765702830879033181e-02,-1.248829309195289422e-01,-2.709783527829039487e-02,3.189928171677564039e-02,9.027842186405840574e-02,2.177822887897491455e-01
1.052049327548904289e-01,-9.702367536647327206e-03,-4.054465504939104847e-01,-1.925705670633163016e-02,1.086309926944974136e-02,5.992316840185970411e-02,4.770009815692901611e-01
7.524715050903219016e-02,-2.086952291760688083e-03,-2.475284254984407573e-01,3.473263432284197025e-03,1.137543875140754022e-02,9.005731662724773823e-02,3.315998017787933350e-01
6.937714736270761406e-02,7.959996631097571163e-02,-4.337033713886166986e-01,-6.443643699571118683e-03,1.650698142246522209e-03,-1.034839045914560203e-03,5.084027647972106934e-01
1.087690722458666270e-01,-5.130665909881343412e-03,-3.951468013148891623e-01,-3.874405530636328143e-02,-1.419996876715469772e-02,1.509789567891324513e-01,5.319780111312866211e-01
3.266240136923204140e-02,4.819792077701459676e-02,-2.914905036685669359e-01,1.374785078664369185e-03,1.366565005123788340e-02,8.090367250522031983e-02,3.613232374191284180e-01
7.700123842627343285e-02,7.263816747297863197e-02,-4.445956930229676973e-01,-9.845214366406883702e-04,-5.096160881503243416e-04,1.770975269826114134e-04,5.194327831268310547e-01
6.379802425680258793e-02,6.468522935624901327e-02,-4.062204349947168280e-01,6.665397582596049517e-03,5.342135254301516069e-03,1.335865825837717798e-02,4.712636172771453857e-01
5.374670821630930795e-02,7.837993635066173304e-02,-4.097280950871749483e-01,2.617365637821689097e-03,4.081650777946497187e-03,1.188257035746956118e-02,4.767878949642181396e-01
7.972900716160694068e-02,4.967032739090088134e-02,-4.042368608337244540e-01,-1.156644569559639978e-02,4.767837012927726714e-02,3.745238078408566484e-02,4.816722869873046875e-01
5.044414500231864107e-02,6.240777796388674581e-02,-3.640862653361702228e-01,6.945689937689014659e-03,1.429888909142353233e-02,5.218976428859404409e-02,4.311232864856719971e-01
7.566937536803569619e-02,3.692553289441544151e-02,-3.589163571502035910e-01,1.349597394851460462e-03,4.727298526760122938e-03,1.099523693734942437e-01,4.581150412559509277e-01
6.573713998080604748e-02,6.598756399240832127e-02,-4.098862696553786100e-01,2.740708412264780160e-03,1.783012572824389103e-02,1.202977527116111042e-02,4.772287011146545410e-01
5.722068132715768529e-02,5.236953807574024067e-02,-4.379684768260801442e-01,1.415724134067247730e-02,-1.417236842372901368e-06,-8.081482452187571533e-04,4.933931827545166016e-01
5.185894955312722598e-02,6.516765360283044428e-02,-4.381645788796602048e-01,3.189840341626613840e-02,-1.749001489714520005e-02,2.132926048517940626e-02,5.021521449089050293e-01
7.411946836023378116e-02,2.929827676432203432e-02,-4.322686723031213818e-01,3.339702710155376814e-02,-1.268877936684672039e-02,1.205356952445919491e-02,4.899040162563323975e-01
7.873406834900931184e-02,4.812549023119222502e-02,-4.962816920662948550e-01,4.965373733574095227e-02,1.634720005836174739e-03,-2.870662838013641333e-02,5.690837502479553223e-01
7.541642056102074165e-02,5.066506709089668714e-02,-5.171304482872821628e-01,6.288148632218056033e-02,2.155148508799033941e-02,-2.061922673022449290e-02,5.929495692253112793e-01
7.221802631901649838e-02,5.544975001947682891e-02,-4.467944114226985453e-01,1.076199804327095284e-02,-4.780323158618622961e-03,5.406357916544762485e-03,5.113275051116943359e-01
6.721916811385916790e-02,7.355177833270132304e-02,-4.703109650837338229e-01,4.025418416843780378e-02,-2.795060150082054329e-02,1.813348320253387741e-02,5.482463836669921875e-01
6.855730923757671902e-02,5.014914883666177214e-02,-4.431922202361565089e-01,3.604401057015593768e-02,-1.789154949646438661e-02,1.343848426400235004e-02,5.081394314765930176e-01
5.135446350830877305e-02,6.942813558138474783e-02,-4.487083249423171050e-01,1.785666100127245026e-02,-5.024708051194619850e-03,3.855947339044405592e-03,5.103962421417236328e-01
7.024032397602752997e-02,4.882255403267787841e-02,-4.600907166987152630e-01,2.259831918561285360e-02,8.784469265753037243e-03,-1.123386753878933240e-02,5.220089554786682129e-01
-1.015201399244229641e-02,1.408731806665063369e-01,-4.753675425671698429e-01,2.639635484166527818e-04,-1.553716208048118788e-02,-3.156263232874389774e-03,5.569987893104553223e-01
5.185883987295294983e-02,1.327794435787897354e-01,-5.404374978998254253e-01,5.741326624221684480e-03,8.528306911620502431e-03,1.603538036473384915e-03,6.368805766105651855e-01
-1.659237896997188544e-02,1.339216047431874834e-01,-4.930663773124983607e-01,1.719383100134195402e-02,5.017504612269038655e-02,-1.243528901176148456e-02,5.747184753417968750e-01
-3.729908268089994483e-02,1.469378209994965656e-01,-3.318822631219539021e-01,-1.762975962191392840e-02,1.080260481822881147e-01,3.254509914891538097e-02,4.627250134944915771e-01
7.615261953804383643e-02,7.659176847931312149e-02,-4.489862385006929690e-01,-3.370866396425118675e-04,4.260827675469237418e-04,-4.993370076479844389e-04,5.253601074218750000e-01
1.435480666760591273e-02,1.375704490719483197e-01,-5.481540138922933458e-01,-3.861235309724588699e-02,1.359832192136798956e-01,6.509421785064412047e-02,6.881620287895202637e-01
-3.285798688647982579e-02,8.404079155722318784e-02,-3.021346295337447030e-01,-3.526488580433386616e-02,1.177721743639101731e-01,4.295567581717805311e-02,4.105247855186462402e-01
-9.692272712442467908e-03,1.457189326257990469e-01,-5.090240111647047483e-01,-6.827019166235592795e-02,1.821993418248104776e-02,2.215921281447792018e-02,6.062491536140441895e-01
3.997373780102730922e-02,1.033659952451973230e-01,-4.225446420610824982e-01,-4.802212393864764735e-03,7.509521230895221944e-02,-5.113131458151576499e-03,5.141277909278869629e-01
1.102208493465207939e-02,1.045451552463294020e-01,-4.554174786942283282e-01,-1.942397004132934493e-02,3.334962701272204278e-03,2.109855968988126986e-04,5.206732749938964844e-01
-1.172597214222537154e-02,1.445516842123715229e-01,-4.922534906141845523e-01,-4.815283728107330741e-02,-1.045315003996311921e-02,-4.388540519521815127e-03,5.811770558357238770e-01
-7.112081880491796793e-03,1.239669542892436471e-01,-4.818949626668678210e-01,-3.558510639309705320e-02,-3.204461221766863582e-03,2.458400757805647135e-03,5.555919408798217773e-01
7.888629402960425918e-02,6.979068593936535447e-02,-4.356163743397526988e-01,7.433159697789903930e-03,-6.274282656683168513e-04,8.730326987511801123e-04,5.101815462112426758e-01
1.938813988744361727e-02,1.050300231931152184e-01,-4.810431122537833781e-01,-3.757570498284966420e-02,-1.748246138196199798e-02,5.131407057738077062e-04,5.529713630676269531e-01
4.781804399543632123e-02,9.574899862873267886e-02,-4.597377700455727578e-01,-8.329301741271975118e-03,1.038738612719420501e-02,9.732713053676789183e-03,5.339044332504272461e-01
4.576989991084517984e-02,8.699943669620502362e-02,-4.450092115791131064e-01,-1.067035819286448438e-02,1.043393597893196509e-02,5.195123866035699159e-03,5.133690237998962402e-01
5.369242379391664377e-02,8.064735847071091701e-02,-4.527285716608026589e-01,-1.460278513330806952e-02,1.947450228175199097e-02,1.504246247389442494e-02,5.227768421173095703e-01
3.952997305421619700e-02,3.624654327794324393e-02,-2.963569101733538602e-01,9.219329474507338001e-03,-3.274830095603546709e-02,-3.342435887698399360e-02,3.443135619163513184e-01
3.951049790373770132e-02,9.249917091253798129e-02,-4.619061385793746810e-01,-2.895073898071007235e-02,5.201999839104770595e-02,3.565976094977860167e-02,5.433630347251892090e-01
3.123993348962561534e-02,1.034610427446049918e-01,-4.545066300184728014e-01,-3.153011577160674817e-02,8.643623297391331631e-03,-1.140759512591671757e-02,5.290026068687438965e-01
6.710645652602206801e-02,7.436796304319628903e-02,-4.472116574584575344e-01,-3.408701180190091781e-04,-3.436438320315102560e-03,2.712031062290922150e-03,5.180428624153137207e-01
5.368268536833506466e-02,8.546364571371836694e-02,-4.730754093080472567e-01,-2.703529098680280268e-02,1.104172298222154923e-03,-1.555832985062647472e-02,5.460289120674133301e-01
7.051475030115619824e-02,6.136983897711478786e-02,-4.475711401908442633e-01,-4.718845601751284376e-03,4.478911626296154178e-03,6.303770771960207769e-03,5.138141512870788574e-01
7.346492145820177067e-02,7.205145559481052064e-02,-4.422578846608981595e-01,1.399767954585875085e-03,-9.281701085946960327e-04,2.288441457034993184e-03,5.150409936904907227e-01
2.055057341834704010e-02,1.104377634255259977e-01,-4.504118831992152683e-01,-2.099587792271738820e-02,7.440546997737383650e-02,-1.280258558545046069e-02,5.391117930412292480e-01
1.929343603285094133e-02,1.109030028717473415e-01,-4.510825430760317944e-01,-3.186279659313449170e-02,-5.158297117292487410e-02,-2.711313240255208007e-02,5.347619056701660156e-01
4.538009598737505201e-02,5.224226982187629709e-02,-3.381451725501982697e-01,6.649478965966435645e-03,-2.159896475570624932e-02,-3.005181481345044897e-02,3.924437165260314941e-01
-1.975670221081064770e-02,1.019237603842214346e-01,-3.884416851239910207e-01,-4.011559441435016971e-02,-1.248794784056255110e-02,-2.373465754871173852e-02,4.500912725925445557e-01
-2.053969982451755993e-02,1.747811600155871337e-01,-5.113799308275457367e-01,2.690608931750357573e-03,-6.572944304479678979e-02,4.320177969983775984e-02,6.273178458213806152e-01
1.652109443305105341e-02,1.311405246528070667e-01,-5.194057289227408392e-01,-1.344373793962242228e-02,-4.981648354245457599e-02,2.643898626406666549e-03,6.081044673919677734e-01
5.603683127424388677e-03,1.261280397722183699e-01,-4.762109948132341453e-01,-2.902160376497929517e-02,-2.572696598907426441e-02,-2.665944077569985110e-02,5.580201148986816406e-01
7.271683457996269695e-02,7.251870133533469542e-02,-4.421548926659567003e-01,1.861642083155683886e-03,1.035657579476359849e-03,-3.204927363677577412e-03,5.148158669471740723e-01
1.127108862883845763e-01,4.719854273820373036e-02,-5.353184138279163395e-01,-3.826410979458214068e-02,6.732831906146063451e-03,-1.507900109211833019e-02,6.220855712890625000e-01
6.865802991347189077e-03,1.160079642372280895e-01,-4.289039328905663306e-01,8.571654275951088101e-03,-4.560090063746943118e-02,2.038440144724644465e-02,5.070241093635559082e-01
8.302416332703740909e-02,6.463667947209852938e-02,-4.343287850235375003e-01,3.020832747047680756e-04,-5.963844914726776602e-05,3.220934817473792059e-04,5.084092617034912109e-01
1.953778779974818525e-02,1.033811750457484802e-01,-4.615987104668692331e-01,-1.863635111003617353e-02,-5.622165773347009192e-04,-4.728282289042195011e-03,5.291239023208618164e-01
1.156235943536754740e-01,-1.132878534993769781e-02,-4.084749837576441278e-01,5.877501068934148920e-02,-7.160514237904373053e-03,-1.343648608651049348e-01,5.375311374664306641e-01
1.728710515214696986e-01,-1.665387354270224385e-02,-5.073006458386977169e-01,4.147353771314643556e-02,4.970235181442809319e-02,-7.035518248375217942e-02,6.301304697990417480e-01
1.388895303233909362e-01,-3.012693296947949184e-03,-4.157190605704313979e-01,4.401711658034924285e-02,9.713742219812858923e-04,-1.579785397931300905e-01,5.742070674896240234e-01
1.582752410110948027e-01,-2.449966788523617878e-02,-3.728353379553053792e-01,3.643686356375760993e-02,7.413298013963182109e-02,-1.350947765175782855e-01,5.418793559074401855e-01
1.090823220898165524e-01,-2.480127772353929450e-04,-4.152236580198153115e-01,4.839022088543749878e-02,1.229215718352810911e-03,-1.141078388977793678e-01,5.249938368797302246e-01
7.242863974293997642e-02,5.407978246123953947e-02,-3.917580730822250445e-01,-4.896409081711121380e-03,-2.326914239390567504e-02,1.177411910824698558e-02,4.576033949851989746e-01
7.944994639380562051e-02,5.046861151929749045e-02,-3.996859257305768187e-01,2.496789572291326000e-03,1.641023944945679618e-04,9.718085387000112516e-04,4.653457999229431152e-01
7.010227683779904351e-02,-9.479678876760197492e-03,-3.129957148357653818e-01,3.090099183672542077e-02,4.089320777609256087e-04,-6.489850652692175093e-02,3.716318607330322266e-01
5.227238388655863766e-02,3.098083530666781438e-02,-3.193250128044318736e-01,-3.547902426835187334e-03,-2.263468377454495861e-02,-4.049796705070299167e-04,3.635949790477752686e-01
6.750590217552016048e-02,7.817805587034334924e-02,-4.231230548660998014e-01,-1.343888976100664906e-02,9.984721991442900221e-03,-2.794534990616471225e-03,4.969215691089630127e-01
5.481930626185602118e-02,6.908704026212308946e-02,-3.840667446778702199e-01,5.355199851364926197e-03,4.603965129250736643e-03,4.009466190785764689e-02,4.517287015914916992e-01
6.657181796463731982e-02,6.679679828169651779e-02,-4.142868713705583072e-01,2.653478773097257132e-03,1.884792407576461534e-02,1.284923622042944552e-02,4.826131761074066162e-01
7.335252703603040159e-02,7.769698914160250158e-02,-4.481249374576481426e-01,3.448450655577176352e-03,5.721361522531833669e-04,7.402843215458316433e-04,5.236997604370117188e-01
6.928786059059807712e-02,6.843947970055744290e-02,-4.458709429205330310e-01,1.530175142581155154e-03,-5.812138739825602803e-04,-4.208206682375334982e-03,5.147945284843444824e-01
6.938296367487278848e-02,7.431692101819789564e-02,-4.335705399726648701e-01,2.640967454436454320e-03,1.636374429422827656e-04,2.915123382406787592e-03,5.054845213890075684e-01
7.866999629122833904e-02,7.517984942759087241e-02,-4.303115247032797686e-01,5.030195423060376987e-03,-1.359506801204535243e-04,-4.061332870969901893e-02,5.121740102767944336e-01
7.817438577814975198e-02,4.528935563542260678e-02,-3.667676731782014143e-01,-6.424114512734228205e-03,8.381165912470792817e-03,-6.140931743811933741e-02,4.427987933158874512e-01
7.360491189684478797e-02,6.434844192965644138e-02,-4.165487466086715829e-01,-2.008541299334025421e-03,2.651676051927724653e-03,-2.179266213673504773e-02,4.870904982089996338e-01
8.882808701126779227e-02,6.214435663729661607e-02,-4.513165895277218564e-01,-1.963660815070627629e-03,8.639655213935936232e-03,-2.545322652268959540e-02,5.293716192245483398e-01
7.531378678818187455e-03,8.167426596501389802e-02,-3.687884014983858760e-01,2.624636329080710928e-02,-6.167534287053964143e-02,1.693681952921648540e-02,4.351481497287750244e-01
6.637861027243291412e-02,6.185281935328273972e-02,-4.410716744588182303e-01,-1.533912928705858649e-04,2.717550681769756536e-03,1.475637985243647375e-04,5.052246451377868652e-01
9.285106233934314890e-02,4.845386566865175770e-02,-4.512194574434174599e-01,-1.619181025351082263e-03,-2.924055663465818366e-03,-1.300715152511061103e-02,5.238031148910522461e-01
7.408769988131533313e-02,6.145631905503604053e-02,-4.244381145438417824e-01,-2.450042188621023246e-03,-4.239740381413904455e-03,-7.842512992763296317e-03,4.925920367240905762e-01
6.983828104838193940e-02,7.375935199208163984e-02,-4.461880671764736905e-01,1.969559477642650325e-04,2.049058107447238042e-03,-2.396739947145161507e-03,5.180269479751586914e-01
2.044555219495641785e-02,1.962992291477312357e-01,-6.152032934605191627e-01,7.403291652858209893e-02,-1.303857947402641271e-01,5.632657484880896487e-02,7.897576689720153809e-01
8.273609086527328182e-02,7.096081623328162613e-02,-4.518331537206994875e-01,-1.557902808094850048e-03,1.686289781010794769e-03,-2.287270578000844684e-02,5.302768349647521973e-01
9.888365837479218268e-02,3.052854462799697854e-02,-4.417190539956983297e-01,-4.962561853745927135e-03,-9.020984187269360730e-03,-4.869353346105277647e-02,5.171092152595520020e-01
1.322801500313034451e-01,1.251115289406749820e-02,-4.760489650284896457e-01,-2.947021236981537534e-02,-3.084027192015723669e-03,-4.524530287266688433e-03,5.605759620666503906e-01
6.857192595843383809e-02,5.046864118882332662e-02,-4.663509427156069531e-01,2.548560909258652807e-02,2.679161688813473923e-03,-6.566629668446581766e-04,5.279751420021057129e-01
1.054264623219473562e-01,1.355641044049765709e-02,-5.224358051547522974e-01,5.561847948306755662e-02,-2.731950784380055355e-02,1.453133119673514183e-02,5.975970029830932617e-01
7.223187144594186981e-02,8.053993640478099292e-02,-4.454803101198159254e-01,-5.938453489433654850e-04,-9.423438861212725230e-05,3.035686056967280833e-03,5.219433307647705078e-01
5.891411599298077006e-02,6.733036964761829335e-02,-4.486507849301281659e-01,1.257146044198002161e-02,-1.469437839085469813e-03,1.234952344213049221e-03,5.122987031936645508e-01
5.139506825049719452e-02,8.986339495255774024e-02,-5.056111207861425649e-01,6.969925657125192187e-02,1.856499368789705541e-03,1.213419326551767050e-03,5.897046327590942383e-01
1.009679211185590120e-01,1.774574000343767666e-02,-5.290453422467906730e-01,1.023607909386437531e-01,-3.916862263749582018e-02,6.218968861129590270e-02,6.317040324211120605e-01
6.538679445787440314e-02,4.595906160158333420e-02,-4.466704119355539016e-01,2.458915153287723199e-02,-2.643685337636984562e-03,1.583208725566315374e-03,5.044544339179992676e-01
1.118885780057223278e-01,6.573063802078327189e-02,-4.557547606189172318e-01,8.057823900937064951e-03,2.901848499577934851e-02,-7.213136235360680104e-02,5.625638365745544434e-01
5.043810218355618269e-02,6.716930931099276969e-02,-4.400943304667500056e-01,-2.806177387215954590e-03,-7.914970621759210428e-04,1.227394149407349914e-03,4.991384744644165039e-01
4.018418711676156885e-02,5.441192979410017228e-02,-3.062538375179593153e-01,-5.291425545851851341e-03,2.299311065524037301e-02,-4.969199088818342797e-02,3.663723468780517578e-01
4.391704187916084523e-02,6.154852835312274451e-02,-3.528890810135333900e-01,5.800974710682936519e-03,-2.067366940251883032e-03,-8.340319969440092773e-04,4.060518741607666016e-01
6.989344938957664510e-02,6.938325042829826539e-02,-4.232913956728055482e-01,-3.664020608702087470e-03,7.657429156287099900e-03,-2.665020710163235225e-04,4.931493997573852539e-01
5.900073549367818027e-02,5.528824416268629527e-02,-3.636495976200145863e-01,-8.798904962351177667e-03,1.422244540104935541e-02,5.848170931945511838e-03,4.219238162040710449e-01
7.686911230611404022e-02,6.967222515433979524e-02,-4.368262749077458373e-01,-4.266462948814994834e-03,-1.491126202356934417e-02,6.179773725940828667e-03,5.109539628028869629e-01
7.321990448041221233e-02,6.734490750093824474e-02,-4.448660598671653199e-01,9.145086297107325041e-03,-2.228326655482568922e-03,6.425490859490868949e-03,5.155516266822814941e-01
1.011905607351455405e-01,3.188823836622181607e-02,-4.453745668363690013e-01,4.811789453489501503e-03,-3.928271926335162763e-03,-5.728234866424970761e-02,5.249929428100585938e-01
-2.077287305830956277e-02,1.269270680713034949e-01,-4.548805342659487660e-01,-1.412265477505618774e-02,8.963495168902867530e-03,2.162185016034732198e-03,5.246292352676391602e-01
6.299242975683061463e-02,7.696146699191319662e-02,-4.476987882729785984e-01,9.845982340979615775e-05,-8.396529615308304106e-03,7.494747992256370339e-04,5.180228948593139648e-01
6.786770955414478390e-02,6.815397771366188406e-02,-4.448946034373378322e-01,7.547705212391126210e-05,-9.040232428543617301e-04,1.325849161870480165e-03,5.129130482673645020e-01
9.401455224534030486e-02,5.237260139741417575e-02,-4.624107035161921231e-01,5.553973785321665579e-03,3.314272593569518241e-03,-1.261074815527789272e-02,5.373779535293579102e-01
5.295789825333502288e-02,6.314349029604449104e-02,-3.747297901568751866e-01,-9.307424566482477152e-03,1.030225371268522067e-02,-2.378978590908817706e-02,4.354915618896484375e-01
2.621847070096069987e-02,1.005254905039763835e-01,-4.478912493185210897e-01,-1.910680712756637669e-03,-7.601442213444800818e-03,2.872333973330351998e-03,5.155000090599060059e-01
8.163119871908575131e-02,7.288349883424752318e-02,-4.715414223953132700e-01,5.636609050353487763e-03,2.210409485199749460e-02,-4.576339819595040548e-02,5.559509396553039551e-01
6.610148882722174934e-02,7.757416681474349485e-02,-4.310137019961904348e-01,-7.449471764607527510e-03,-1.398662474113474344e-03,-8.334575134194574172e-03,5.033280253410339355e-01
7.283427772846792769e-02,6.618174271605103964e-02,-4.452162458339024020e-01,1.287152387542230339e-02,1.101036870731062021e-03,-1.661621952663595164e-02,5.160457491874694824e-01
7.495154011941362882e-02,6.586272419941543999e-02,-4.460744415918556638e-01,-5.106224355656022130e-04,2.174324565463542792e-03,-4.804163544793276647e-03,5.166230797767639160e-01
6.705220581790780066e-02,7.346092266383505431e-02,-4.461146121553120625e-01,-3.280999993821620314e-04,-3.451986621529497343e-03,2.839846983436775194e-03,5.164593458175659180e-01
5.850569535505717456e-02,7.900496160466408124e-02,-4.078899299767425046e-01,8.942556402114084594e-04,1.470161521588225946e-02,4.836710069779803604e-03,4.777309596538543701e-01
6.472419566543990976e-02,3.764473572369830823e-02,-3.609162675192025826e-01,-5.812333522064363350e-03,-2.014551415978012348e-04,1.601974729770902278e-03,4.128997027873992920e-01
6.083066894115732315e-02,8.012338600813234679e-02,-4.224590302635073402e-01,3.019070411225477715e-03,-6.888693135721223743e-03,1.117067216994679230e-02,4.937703609466552734e-01
2.663813443545386128e-02,4.734491461917186839e-02,-2.891275840691895915e-01,5.218406283609580351e-03,2.744293195033584414e-03,5.883803391077824935e-02,3.422941565513610840e-01
5.192268746282868719e-02,7.640483447327406363e-02,-4.445867843329656122e-01,-2.352232892296875384e-03,-4.301977746776554021e-03,4.565617925296531349e-03,5.093243718147277832e-01
6.200188282900159775e-02,8.061978331697197686e-02,-4.473568311318427138e-01,-1.515373523552424051e-03,-8.662662839084730310e-03,3.489763186582580876e-03,5.191769003868103027e-01
5.810703072916442724e-02,8.049821138694795986e-02,-4.114537388598822343e-01,3.456272171070740723e-03,-8.037656174116959359e-03,-2.082733116661666679e-03,4.813993871212005615e-01
6.585822499284529896e-02,7.294009638521711802e-02,-4.242128721886374576e-01,1.446347575220662289e-03,6.243033616737497489e-04,2.437987898738828985e-03,4.936757385730743408e-01
7.310708249556363558e-02,7.724454237705957738e-02,-4.467970539313034228e-01,1.157458785505804163e-03,5.528923429736834483e-03,1.286781886581406763e-02,5.225523710250854492e-01
6.011390008231123905e-02,8.612173903430037081e-02,-4.485332918794073254e-01,-3.566464760083461541e-03,-7.629771322553155662e-03,1.695830896974524337e-03,5.223491191864013672e-01
8.057997497161487055e-02,7.129117646873317504e-02,-4.401264055297663957e-01,-1.235973993389746350e-03,7.367628952742124758e-04,1.037745926975749619e-02,5.164435505867004395e-01
6.090405354555036843e-02,7.777579108696971999e-02,-4.115140782209388282e-01,2.039763388433522753e-03,2.166817790564057387e-04,1.243279233565242232e-02,4.815707802772521973e-01
5.328681512698155154e-02,7.137734279190330322e-02,-3.808880792324720321e-01,2.372758471770898374e-03,9.914616854383504277e-03,2.113640557789953425e-02,4.453555643558502197e-01
7.366502610280054042e-02,7.431564144914093450e-02,-4.476142816590695239e-01,-1.541006487207804195e-03,1.732471489839425228e-04,1.159067744519355191e-03,5.216156840324401855e-01
6.329309928693105380e-02,7.625435303714730995e-02,-4.461232102109838893e-01,-4.810738619974525227e-04,-9.519487344835552561e-03,-2.501164978545175176e-03,5.163012146949768066e-01
6.259525614436542429e-02,8.442943847734771246e-02,-4.385346955202060193e-01,4.048982547125989928e-03,-1.218231392949279887e-02,1.553837476233633358e-02,5.135839581489562988e-01
7.004983015159085835e-02,7.097917428828812159e-02,-4.622226462563501226e-01,1.750388698593028161e-02,2.019425532866162692e-03,-1.170895704848647773e-02,5.339964628219604492e-01
6.965348288973158275e-02,6.966509836317461013e-02,-4.444357631288433086e-01,1.873634904323386897e-03,1.104295189063836781e-03,-2.335283188081865738e-04,5.141090154647827148e-01
-2.413989650657641373e-02,1.398668183422598910e-01,-4.577688917934038537e-01,-2.657625356598684657e-04,9.794383112783773895e-03,1.097030140682901667e-03,5.351093411445617676e-01
2.318503560180429357e-03,1.159632795883324963e-01,-4.558610688555960744e-01,3.287660002980936219e-03,-1.472602983277895025e-03,-9.823993662582256091e-05,5.243589878082275391e-01
-4.620248741415144966e-04,1.357259358356091572e-01,-4.947171602738653085e-01,8.560068734813928992e-03,-1.048504429346588072e-02,4.206519083467252784e-04,5.750626325607299805e-01
7.065083791452500539e-03,1.113836676663883529e-01,-4.555259414601564028e-01,-5.616420518310258000e-03,-4.226087012655200571e-03,1.199822884880425409e-04,5.227599143981933594e-01
1.045908755220001374e-02,1.173570361158888242e-01,-4.614268246229954462e-01,4.401356200532234413e-03,3.963677649646490768e-03,-2.680605154054968835e-03,5.335484147071838379e-01
7.138592575269434026e-02,4.366005537369599399e-02,-4.449468883967613864e-01,7.013007740729269510e-03,2.576528360160237484e-04,5.808465181941410141e-04,5.031911134719848633e-01
6.857618030621903671e-02,7.324610426027519661e-02,-4.464450187476318721e-01,-4.543674725470234384e-04,-3.452393980077440427e-03,-4.293418405603996804e-03,5.174605846405029297e-01
4.300106507648362997e-02,9.497579263550393058e-02,-4.560118613518400754e-01,1.039599685811502401e-05,-1.002216704093004777e-02,-1.448960872230447812e-03,5.272181630134582520e-01
1.437334867925688098e-02,1.099162689502848900e-01,-4.579777419690529427e-01,4.780524746708814110e-03,3.083085969680193512e-03,-1.851161076543262436e-03,5.267648100852966309e-01
1.731831855521556718e-02,1.105709481065034472e-01,-4.610422995776168320e-01,3.853138840132453065e-03,1.373063932220241210e-03,-6.658780851193009951e-04,5.312107205390930176e-01
6.671189407214561662e-02,7.396981179469808154e-02,-4.465288089375943348e-01,2.872096312376208431e-04,3.650651146805097141e-03,2.288157360983551509e-03,5.169619917869567871e-01
1.610378964654712863e-03,1.108044514693613813e-01,-4.465254303391874569e-01,3.524885612942700239e-03,8.223513939411416715e-04,-2.324888848013824036e-04,5.115879774093627930e-01
-5.914843796064522818e-03,1.498480537989100858e-01,-5.312144611099290925e-01,-1.927076677432948762e-02,-3.708078374995876542e-04,2.533805446222264952e-03,6.189973354339599609e-01
7.631363739788399325e-02,5.748763796695013917e-02,-4.103429687186666008e-01,8.396140798423727594e-04,1.207298441315608588e-02,1.682175123170966211e-03,4.779907464981079102e-01
7.913138411656187032e-02,7.542362547696795927e-02,-4.403510386749449057e-01,3.831761483884160539e-03,1.649785942777248077e-02,6.606296260689021585e-04,5.184703469276428223e-01
6.370570471101111298e-02,8.860403271915101575e-02,-4.587968711391965937e-01,3.270915934266536637e-03,1.540777760361321767e-02,6.539484102444777409e-03,5.362004041671752930e-01
4.420965331104220741e-02,6.254623984331311726e-02,-4.404131401592134010e-01,-2.672135283639335418e-02,8.915331998166906903e-05,1.158427208310854311e-03,4.962136149406433105e-01
7.224943258729629725e-02,7.107985558670096293e-02,-4.460418172915193713e-01,1.321230429070146064e-04,1.995146590008034775e-03,1.263666768787011143e-03,5.177236795425415039e-01
6.038694918462114702e-02,9.147162908631581435e-02,-4.548205795981701827e-01,-1.965557457060680257e-03,2.829478556106248752e-02,-8.894150990740831361e-03,5.339202284812927246e-01
7.799483723189160056e-02,6.987710253101017677e-02,-4.437817984063021082e-01,-3.276504401275821127e-03,1.050342764473745361e-02,-7.522666665675589205e-03,5.182799100875854492e-01
4.538404905474269224e-02,6.828054599010577319e-02,-3.594934609341036702e-01,-6.629488999783673606e-03,4.319061095154438923e-02,-3.052599793723513588e-02,4.269004166126251221e-01
5.409638422772694577e-02,7.174819326659409580e-02,-4.554598721126212890e-01,2.906129521430923790e-02,1.684372793147949398e-03,-9.971834581608903132e-04,5.210555791854858398e-01
6.591378539307995998e-02,6.719182295198625199e-02,-4.142057359593284138e-01,-4.211243785667661936e-03,-1.307040816671913887e-02,1.228616788555335522e-02,4.818179607391357422e-01
7.133424852077493994e-02,7.489350753260981541e-02,-4.502868987128085809e-01,1.245567288750577426e-03,1.710221121490066972e-03,-6.835008959248270281e-03,5.235565304756164551e-01
6.210898792672145396e-02,4.892227409767313517e-02,-3.662619066432301618e-01,-8.353190650535453551e-03,-1.404465113897471239e-03,2.272425794900646487e-02,4.240178465843200684e-01
6.136341637366674040e-02,6.638434856217953484e-02,-4.408663355185233890e-01,-2.249115115199651783e-03,6.800577073300984076e-05,8.151067115697988637e-04,5.047759413719177246e-01
7.092351495973431286e-02,6.867676774631151226e-02,-4.197005538300925265e-01,-3.663862371957462595e-03,-2.203891329813054134e-02,2.063813270435739533e-02,4.923311173915863037e-01
1.250377630032786791e-01,-2.241437217792380254e-03,-2.912819904985632924e-01,-3.776253158854357694e-02,-5.534062223397353750e-03,9.418063615933346122e-02,4.092837274074554443e-01
8.165778851808208616e-02,6.345408834587382141e-02,-4.612705065710770991e-01,1.983699228230883030e-02,-4.099487493626738366e-02,9.099898335194330987e-03,5.400832295417785645e-01
5.788740809912940044e-02,7.058710114384408874e-02,-4.446085867941100278e-01,-1.096820549840340879e-03,-1.706639594516009368e-03,4.255250395976942560e-03,5.090301632881164551e-01
1.807226752829475813e-02,1.413032704743193146e-02,-2.408953406718238599e-01,1.576637385987267196e-03,2.769244996654389210e-05,-6.890804125155792353e-03,2.573107779026031494e-01
6.538678487473431611e-02,7.783047891722627565e-02,-4.465948098662919641e-01,4.282351931921910947e-04,8.597350709802798266e-03,4.298750738068425441e-03,5.185833573341369629e-01
2.799032141800064655e-02,9.444568472332137699e-02,-4.490099383131546662e-01,-3.515661541270117922e-03,-8.016354492870221907e-03,-2.133876695489719897e-03,5.137006044387817383e-01
1.207549823637826814e-02,1.082944332343400984e-02,-2.024559395003185935e-01,-4.541318463341213621e-04,-1.579838023604022024e-03,1.930757731813387279e-02,2.165281176567077637e-01
2.416911520565115379e-02,1.719558246272348545e-02,-2.579341232533645112e-01,2.896054271053689379e-03,2.211660510485639539e-02,-9.630710007968920345e-05,2.813471853733062744e-01
7.809130263413538442e-02,3.480902159038651300e-02,-4.388895542945560058e-01,-6.592056652720236151e-03,-3.240229143946028560e-03,1.369906925295718463e-03,4.969244897365570068e-01
2.154399815558868947e-02,2.089478746346479232e-02,-2.609405678528597949e-01,5.183329926322490476e-03,-1.464987118606620462e-03,2.436615979856399106e-02,2.854517996311187744e-01
1.716578872767425545e-02,1.762770990525928949e-02,-2.416066251171752610e-01,1.418729828188226090e-04,8.225341731700199291e-03,1.597484476168275699e-02,2.608668804168701172e-01
6.658484088293251113e-02,6.524724706504092531e-02,-4.026312945131264032e-01,5.145550320959976949e-03,-1.747776233870933227e-02,-2.725436137836133917e-03,4.696339964866638184e-01
4.567651897846747300e-02,8.837581436727526274e-02,-4.477547509040997187e-01,-3.231475802073939529e-03,-7.595147045816804353e-03,4.368853993506038522e-03,5.163607597351074219e-01
2.399720659628353236e-01,-1.528179761825168570e-02,-6.337647552627252434e-01,-4.062585822476120351e-02,-1.475608922489052115e-02,-1.408153261415875379e-01,8.189244866371154785e-01
6.485232522554665313e-02,6.437127088806265940e-02,-4.022973703284161706e-01,-1.069461325449580155e-02,-4.202446199577410807e-02,-4.719370610981553187e-03,4.729824960231781006e-01
5.616784880742159425e-02,8.454488672251558867e-02,-4.480502493369047934e-01,-6.586143252381070068e-03,-8.682829964649675658e-03,-1.939331328557721207e-04,5.193320512771606445e-01
5.834628405260497419e-02,8.563290165133163878e-02,-4.297317970398625286e-01,1.589542244344358760e-03,-3.908150072007128767e-04,3.238630283307109264e-03,5.023168921470642090e-01
4.244665553459123220e-02,7.701877030173737149e-02,-4.413781349011857147e-01,5.366320711333107812e-03,-1.004252435443307679e-03,-1.071646624890689668e-04,5.020935535430908203e-01
5.807288312854874679e-02,9.118444061643166121e-02,-4.548199745153847506e-01,-3.384053881606448148e-03,-1.847878511071592358e-02,-5.121826748921642046e-04,5.312228202819824219e-01
2.344184919736633232e-02,1.141642090262944553e-01,-4.950862164437137558e-01,-2.391279582574378296e-02,-9.982651877779264576e-03,5.926499245097374691e-03,5.711950659751892090e-01
3.336241135081016718e-02,9.975448030802860910e-02,-4.504894286406508908e-01,-6.640807309226666282e-04,-8.105180989891724169e-03,1.259507107588577791e-03,5.204302072525024414e-01
7.656402654137842156e-02,7.764640796864127892e-02,-4.376135000721966817e-01,-1.454597502524622519e-04,-2.952746538980929175e-02,-9.750318170514095037e-03,5.175298452377319336e-01
5.483570948570465342e-03,1.091820169606041724e-01,-4.490709124935685637e-01,3.101708071193097320e-03,-3.227418676161344490e-03,-6.108027369880140436e-04,5.143646001815795898e-01
9.523798850927389648e-02,2.288670509876493397e-02,-4.139209388946035184e-01,3.192223198922185257e-02,1.483806458405262374e-02,3.062423348987892285e-02,4.839115142822265625e-01
6.057479003058188760e-02,7.550670670324241551e-02,-4.308382957147668946e-01,-1.456874582488874338e-03,-7.923044814852788290e-03,1.599533056829653818e-03,4.992493391036987305e-01
4.177540824901601613e-02,1.069307864339353320e-01,-4.549130929259250777e-01,-1.120145420797394840e-02,2.918572852239702232e-04,-1.979931518964866272e-02,5.337221622467041016e-01
6.199387886027041272e-02,6.301918721687690961e-02,-3.911729587917168738e-01,-1.243459540718188858e-02,5.446199448825610190e-02,3.540416804628934017e-02,4.679192304611206055e-01
-5.900999099722487040e-02,1.558188458934381404e-01,-4.899060656071271280e-01,-2.909663454145346856e-02,5.740362026950965486e-03,8.171127994399135118e-04,5.718675255775451660e-01
7.129488248089393965e-02,8.022547561049064857e-02,-4.450204571748558879e-01,-1.493386616950070868e-03,-9.698857223625595003e-04,6.505074049759206750e-04,5.208483934402465820e-01
6.878843858632788244e-02,6.831278937245036098e-02,-4.451342426887995862e-01,-1.283340659793594761e-03,1.191550090103648705e-03,1.535470373673786509e-03,5.137008428573608398e-01
5.150182242732567750e-02,6.703448347135923524e-02,-4.383454479943748594e-01,3.122981232443090317e-03,-9.405621171391513905e-06,2.735787148042090572e-04,4.978249967098236084e-01
6.705539917139305417e-02,6.584476215629303519e-02,-4.130490505120584799e-01,-2.151236028207451773e-02,5.521713096763362222e-02,2.041167104227624429e-02,4.916355907917022705e-01
3.171000714203528470e-02,7.213913020271156551e-02,-3.909479601778837465e-01,-2.809727107616300651e-02,2.862564905792433501e-02,3.051858034593284141e-02,4.527502357959747314e-01
5.941819221033917131e-02,6.982640529254233175e-02,-4.416933224472404107e-01,2.005722990848426892e-03,-1.102560840424108386e-03,-9.775920596365571952e-04,5.064141750335693359e-01
7.119453755113375193e-02,6.857226559559467804e-02,-4.241907915759038916e-01,3.312676960122430854e-03,6.113975550165957722e-03,1.050079240873318239e-03,4.942295253276824951e-01
7.363198790334507526e-02,7.311688641317784509e-02,-4.465888373028245040e-01,1.997059198213747746e-03,1.456531983431048893e-02,5.298051419301960142e-03,5.206674933433532715e-01
7.162699371755690270e-02,7.783688121624499079e-02,-4.440041502493161096e-01,-4.774920617664918116e-04,1.246943527198040788e-03,-2.108531256963351933e-03,5.187819600105285645e-01
6.239856268853083421e-02,6.749953541846770433e-02,-4.457950503162709799e-01,-2.323102851769453733e-02,-1.343290801243634397e-03,9.759760463207289502e-03,5.126297473907470703e-01
7.407595621709298084e-02,7.572606184915212091e-02,-4.481210656554162064e-01,-2.802388985485674677e-03,-4.440336683549608757e-04,5.242799863097283124e-03,5.231259465217590332e-01
7.904830661960191018e-02,7.297538060253180858e-02,-4.431612086616848467e-01,4.373847197492933617e-03,9.004671181452292327e-04,-1.340005615223595825e-03,5.192624926567077637e-01
6.721887903396345232e-02,6.370248254878360661e-02,-4.079042618243740592e-01,2.426155017914958297e-03,2.324959815486568951e-02,1.027239152747072386e-02,4.754361212253570557e-01
6.274461454200480626e-02,7.564755704676132120e-02,-4.377799273735498709e-01,-1.888699858256823877e-03,6.575499957809775343e-03,-2.541470008650040420e-03,5.072566866874694824e-01
7.056096282937338038e-02,7.657584961805510848e-02,-4.365023540577607220e-01,5.399321336184745301e-03,1.482440889182374925e-02,7.439285202804175705e-03,5.109912753105163574e-01
7.333291668509664407e-02,7.325626387796596584e-02,-4.439922742866992400e-01,1.650190359132381115e-03,1.524604998085082180e-03,4.585526183476583786e-04,5.173020958900451660e-01
6.939197086858653329e-02,7.315157609221722979e-02,-4.448561981935575393e-01,9.405237914438717775e-04,-4.230279569643665555e-03,-2.840822786748246637e-03,5.162162780761718750e-01
7.258951033476487846e-02,6.730819923076367117e-02,-4.244633994453230197e-01,3.814639833141013521e-03,3.221180531678173847e-03,3.094396353848762049e-03,4.945380687713623047e-01
4.108535588088854662e-02,3.524404092511837505e-02,-2.427552229940494188e-01,-7.167126642838477987e-03,7.719080819678458827e-02,1.494223493632794442e-02,3.124752342700958252e-01
2.715538872412470717e-02,2.290184323800723010e-02,-2.195214804284181531e-01,2.051763059947222384e-03,4.163452077225706510e-02,3.300872019656948819e-02,2.613426446914672852e-01
-3.905590966209061821e-02,3.039231862135717555e-02,-1.319809361596036568e-01,-1.269538823090903337e-02,8.243507191432979109e-02,6.082035535968604092e-03,2.022194564342498779e-01
-5.501499520203408100e-04,9.515796813373011281e-03,-3.701172821309067773e-02,6.321711897550154682e-03,7.464615434246675910e-03,-5.228777745979706904e-02,1.014242544770240784e-01
2.430914553838946224e-02,2.381487961114710228e-02,-2.155705624810439480e-01,-1.047930304859234080e-02,5.447733248652551763e-02,-4.452747099502626232e-02,2.694528400897979736e-01
1.995575409864756844e-02,2.565906453208084692e-02,-2.107478752716086257e-01,-2.278662091732260118e-04,1.980259031415551943e-02,-2.552054763904088031e-02,2.402143776416778564e-01
7.902601624245161882e-02,4.484021966588611074e-02,-4.523627899511449280e-01,-2.062013150512422358e-02,2.925243359970746901e-03,4.156765489445412784e-03,5.164589881896972656e-01
8.330306207988452671e-02,4.662035351366494718e-02,-4.580105487978217149e-01,-5.019268872119203584e-02,-6.566964614418364064e-03,-6.643396171230892509e-03,5.313463211059570312e-01
8.475211326574161319e-02,2.161156970203378935e-02,-4.484207907258744852e-01,-3.992849052915854041e-02,-7.390267445859568726e-03,-8.789015426886167756e-03,5.096799731254577637e-01
3.224802788533806530e-03,1.229762105756269097e-01,-4.800544869079531596e-01,3.446223542160094591e-03,2.107968501754881128e-03,3.303953521601955302e-03,5.530409812927246094e-01
3.255954457911380828e-03,2.238481847988244566e-01,-6.914169390972325635e-01,-2.032508666224456736e-02,-3.062560085555107725e-02,7.276959832470751566e-03,8.298691511154174805e-01
3.615801505989868492e-02,7.873008599545311403e-02,-4.390690209527688959e-01,-5.675256509989505538e-03,1.262533448434633972e-03,-3.321316070331310592e-04,4.979821741580963135e-01
-4.832430776275997708e-02,2.121670221898152575e-01,-5.034892512955717603e-01,2.154162419987153826e-03,-9.727598538732584732e-02,-1.817613332025298789e-03,6.496222615242004395e-01
-4.352695776760281965e-02,1.368760950338823723e-01,-4.507307482288755440e-01,-4.190629750285344152e-02,-6.981153753798939599e-02,-1.416599522317693594e-02,5.406591892242431641e-01
-3.198438954328329531e-02,1.251043444363317270e-01,-4.072878365145770063e-01,-2.769313676623828390e-03,-1.508513285080078925e-01,-3.070100130398553673e-02,5.436952710151672363e-01
3.740472882608494865e-02,7.722161475452610224e-02,-4.396721153783385572e-01,-5.923805685471048715e-03,-2.056228188994996525e-03,2.682976436527276243e-03,4.983201324939727783e-01
5.186032708382648515e-02,6.734313715158665725e-02,-4.382606363007552908e-01,-3.507169400344341097e-03,2.106329775751827351e-04,-1.391551753096936198e-04,4.980801343917846680e-01
4.794307433360256443e-02,1.075899165043799621e-01,-4.369556492549463433e-01,8.608944208061793807e-03,-3.111070801045437428e-02,2.127794625084870536e-02,5.216238498687744141e-01
4.373343234424809101e-02,7.100914619072656864e-02,-4.586487111006712358e-01,-3.762508192590648809e-02,-1.882735144878183850e-03,-4.770289075234657519e-03,5.207306742668151855e-01
2.179773515241445470e-02,1.363921880118298402e-01,-5.090701891937838841e-01,-3.204599951315327544e-02,-1.147154105724302320e-01,-1.824464977591237422e-02,6.319378614425659180e-01
3.245408008533373634e-03,1.118176310044662891e-01,-4.178495695642336916e-01,-3.551543398923030781e-02,-1.119268273140209408e-01,-6.862931158652260666e-03,5.256770253181457520e-01
6.034067420350847089e-02,6.645178777688506844e-02,-4.430557806524480502e-01,-2.747576862968727999e-03,3.702076773364117862e-04,-4.877017530552674694e-03,5.065728425979614258e-01
2.349921309232611000e-02,9.403872782861247281e-02,-4.448434107406605276e-01,-5.576749292763019325e-03,-2.754181751001113804e-03,3.397465923178708078e-03,5.074524283409118652e-01
1.306865032753163347e-01,-1.062224694231260480e-02,-3.736892841191718495e-01,-6.818508933990098664e-02,-7.042275716242331340e-02,-1.150627411985482573e-01,5.211855769157409668e-01
1.144179826263122812e-01,-3.118069542882762057e-02,-3.809140741204716796e-01,-3.695319638593663747e-02,-5.005860668634436877e-02,-1.392823455878025862e-01,5.140486955642700195e-01
7.420453997738343799e-02,6.611512125816632057e-02,-4.463404186598523005e-01,-5.753174837294038578e-04,2.870544129877714099e-03,-4.781220532155859397e-03,5.166389942169189453e-01
2.367133079212518920e-01,5.926199748456231764e-02,-7.832125650790116023e-01,-1.032188164264617181e-01,-2.385119596915439427e-02,3.950922716791207927e-03,9.614917635917663574e-01
1.074264783724586669e-01,2.073298393748218560e-02,-4.603208638406712239e-01,-3.591062654397868953e-02,-8.370019600213480723e-03,-3.157385058429169455e-03,5.336118340492248535e-01
5.134616666791977369e-02,8.178248691049985752e-02,-4.446993986504471086e-01,-9.871866435443318530e-03,-2.378501824853052494e-03,-8.472711282575654673e-03,5.124549269676208496e-01
1.058368067510798149e-01,2.911068170453973147e-02,-4.845728547203372871e-01,-7.238673801570438826e-02,-6.778059200140035961e-03,-1.790367181023251597e-02,5.709549784660339355e-01
1.096636737078388879e-01,2.671476220332502649e-02,-4.342047741408027184e-01,-9.016257486084750319e-03,-2.244202260477945118e-02,-1.581799968103474174e-02,5.099662542343139648e-01
1.143246519715737930e-01,2.821542540072854988e-02,-4.597795689535300601e-01,-3.827941321258854224e-03,-1.269960324750818610e-02,-1.786395067482182686e-03,5.367608070373535156e-01
2.009818072111017040e-01,-4.189480828998265460e-02,-4.796803793765511137e-01,-4.166095076489855636e-02,-2.668507868433814614e-02,-1.093421001825118227e-01,6.326004862785339355e-01
3.354969468880664163e-02,8.109099566699523587e-02,-4.061090979536246537e-01,1.510746017921847260e-03,-2.494784462641403550e-02,-3.278378378018976559e-03,4.672988951206207275e-01
6.679946699655603393e-02,5.234317460676785050e-02,-3.681400597027786326e-01,-2.962672839207269176e-03,-4.862729426173582198e-02,-8.670057017493725329e-03,4.363936781883239746e-01
-3.705876466882501719e-04,1.121743045506300163e-01,-4.490082734937412279e-01,-2.628332287805911632e-03,-4.574684506333221747e-03,7.082656800169405669e-04,5.143141150474548340e-01
6.713295981795278089e-02,6.913788974389512010e-02,-4.285023171889612570e-01,-3.121170827335473935e-03,-1.028579079953663607e-02,1.871113483186406237e-03,4.970001876354217529e-01
7.449239569074794787e-02,6.388263649365558128e-02,-4.218053611215423770e-01,6.679076447425763910e-03,-1.176678652976571350e-02,-1.698846395589408620e-03,4.916464984416961670e-01
2.461533228699791520e-02,2.036042840047796454e-01,-7.215014370475382188e-01,1.054688814420563781e-01,-1.768795916217175135e-02,1.183537970171139042e-01,8.936478495597839355e-01
5.401175807163549614e-02,4.074325822626503890e-02,-3.302031434239455776e-01,-8.630003045389269406e-03,2.698567802261425327e-02,-1.975255106066382133e-02,3.824627995491027832e-01
7.570802283776756347e-02,7.464515595331647213e-02,-4.473108798500493588e-01,3.235846978757337886e-03,-1.266929329557324110e-03,-6.574230298761139226e-04,5.225241780281066895e-01
8.310779687710531660e-03,1.063483324974462962e-01,-4.490162820051965542e-01,3.996155294594793371e-03,2.896113799701372470e-03,-9.802728105483720419e-04,5.134886503219604492e-01
6.065839918779211692e-02,6.923030410243966037e-02,-4.088916050081375375e-01,4.146631601906870064e-04,-7.562382924015748076e-02,-1.149080568879976352e-02,4.920662045478820801e-01
7.340434244051846635e-02,6.250387940754409399e-02,-4.131055444132839538e-01,-5.751763338930267764e-04,-1.722263354381449799e-02,2.152588640514458730e-03,4.820915460586547852e-01
3.690223346891960410e-02,9.045947373634899424e-02,-4.453183514095028772e-01,5.010807096040283300e-03,6.820793791460323836e-03,7.882897993033198894e-03,5.115005373954772949e-01
7.233014789466168937e-02,5.473985717055504518e-02,-4.032026770589894338e-01,-2.995899797764266324e-03,-2.462312062195574913e-02,-5.348155179934641242e-03,4.690498411655426025e-01
5.349874068161203367e-02,7.723875473620592236e-02,-4.311106629008658597e-01,-1.605119264266247417e-02,-2.195594813372617193e-02,-1.837362594063668766e-02,5.001463294029235840e-01
6.396266137961836851e-02,4.469821399335613399e-02,-3.570070220458717025e-01,1.775576793862035634e-03,-3.915922501643064740e-02,-1.811229244487121484e-02,4.184146225452423096e-01
3.226387475304259844e-02,7.895447977890288072e-02,-4.399833624883938699e-01,5.061687422376591645e-03,6.840519786432975853e-05,2.696486560202700743e-03,4.973385930061340332e-01
6.113014736001651239e-02,5.924760564218659042e-02,-4.393057555451748142e-01,7.078340629904660355e-03,9.306076457152616041e-04,-1.189719039985531268e-03,4.996545910835266113e-01
8.290212591473733461e-02,9.411933697277100053e-02,-4.767993235839991240e-01,1.023680267001665922e-01,-1.258694789869084785e-01,9.244594030521005590e-02,6.513643860816955566e-01
6.187858504174598151e-02,6.071124668654218071e-02,-4.398952236452010056e-01,-6.153504834969588007e-04,4.118407004566218099e-04,-4.093171136547951272e-04,5.011932849884033203e-01
6.811443613299161814e-02,5.731705918154461621e-02,-4.141180132306401251e-01,1.417205174037200824e-03,-7.896334573124106845e-03,1.814900515061933575e-02,4.781622290611267090e-01
4.246129755303232334e-02,6.760480296156526347e-02,-3.778563369092856061e-01,-5.826608890550527033e-03,2.590812896593065046e-03,-1.191859593895805121e-03,4.335823059082031250e-01
7.169582052665751659e-02,5.849776653722690845e-02,-4.012528975634024331e-01,-6.053070279276404758e-04,-3.140520441440808330e-02,-6.128488269419542743e-03,4.697715640068054199e-01
6.173944028995445588e-02,6.202266154291224964e-02,-4.413410333809858477e-01,1.363869639065954211e-03,-2.709794691398170665e-03,-1.604663176085742383e-04,5.032496452331542969e-01
5.773716422566127493e-02,5.918021937682824141e-02,-4.370432160551172562e-01,9.965997225673470239e-04,4.372453763626220086e-04,4.378035029048575818e-06,4.955070614814758301e-01
5.669465076460714070e-02,7.638481977581312865e-02,-4.080627620551000034e-01,-6.341668579616958554e-03,4.833990206422730286e-03,5.958524190707096581e-03,4.752216041088104248e-01
5.947526802203637053e-02,8.358330001173749912e-02,-4.227438097313172549e-01,-1.579187475760624165e-03,9.140829953725814307e-04,4.352515082832109604e-03,4.947813749313354492e-01
6.282961142194665172e-02,6.316117612052743469e-02,-4.157833625844850611e-01,4.016231698172922568e-03,-5.351440946486123867e-02,1.093604318293800969e-02,4.880857765674591064e-01
7.673124924865812324e-02,6.026125908796453601e-02,-4.144920904741049572e-01,-8.489394853400979157e-03,2.077487389158179463e-03,-1.383837750679212325e-03,4.834419190883636475e-01
3.371781800753650971e-02,8.238644277384743475e-02,-4.474131243406776481e-01,-1.279043891989191731e-02,-5.289439269442630480e-03,-3.430305023963854585e-03,5.078204870223999023e-01
5.847394149244306005e-02,6.164551135634135925e-02,-3.748133600553370526e-01,-5.122513400726082071e-03,-3.336162524079568092e-03,1.752582504670265398e-02,4.360684752464294434e-01
5.936600277176845575e-02,7.749007658789702768e-02,-4.364901342011507368e-01,5.553069359175066312e-03,-5.429843436370167600e-03,3.632095014954112282e-03,5.053803324699401855e-01
6.055535552468674365e-02,6.482168915694691558e-02,-4.411817830354901604e-01,3.557886104405345493e-04,1.094644589721249566e-03,1.849212743162521790e-03,5.038979649543762207e-01
6.805573126467653888e-02,8.160943861431105284e-02,-4.586338719708623057e-01,7.638803401693734481e-04,8.914656726377308965e-03,-2.962938348111707459e-03,5.338452458381652832e-01
7.208996652640714542e-02,6.784143405909284774e-02,-4.410357392896923079e-01,-4.228652304015046489e-05,2.743132515859436887e-03,-1.318753800617632503e-04,5.110368132591247559e-01
8.406954601421584572e-02,6.959032428444977825e-02,-4.374219014029713248e-01,4.943688038449389408e-03,-2.532023097914764403e-02,4.000361147491636460e-02,5.209699869155883789e-01
7.763846435173080152e-02,7.359243770700293896e-02,-4.431925766430481195e-01,-4.618578712118770122e-03,-9.929616700508972493e-04,1.078937712856948899e-03,5.188877582550048828e-01
7.155913360630861142e-02,8.215312778163177954e-02,-5.050930623700138344e-01,4.490626391953912722e-02,-1.059516394911839098e-02,1.368230668376504977e-02,5.879601836204528809e-01
7.952867256988960243e-02,7.468791198939031539e-02,-4.485180849227020095e-01,-5.806547888943378553e-03,-2.767005000109243676e-03,1.030271759794299663e-03,5.257641673088073730e-01
5.812210389939589938e-02,5.919395254629497560e-02,-4.379966531548535880e-01,-1.692120086639245773e-03,3.217710447926952212e-05,-1.420290517717009071e-03,4.966703057289123535e-01
7.122193839105997459e-02,5.772252072584246885e-02,-4.466567717941026250e-01,9.500979213479789076e-03,2.915154023009541850e-03,-1.715034965119290955e-03,5.115609765052795410e-01
7.923874803688071844e-02,8.487117218050607703e-02,-4.785949615138402891e-01,6.724819688889934616e-03,-9.043486611862572647e-03,1.092421267305469269e-02,5.613298416137695312e-01
6.062745112921638646e-02,7.082004847072714826e-02,-4.353523254332228309e-01,6.541674356994651648e-03,-5.452017130307598020e-03,3.362339947457734877e-03,5.014046430587768555e-01
1.135493327679224784e-01,6.794285255716109306e-02,-5.100955532508748558e-01,-1.635047167376475416e-02,2.537560733690421080e-02,6.040156895101988360e-02,6.133917570114135742e-01
7.190862961937288800e-02,6.832970728289611273e-02,-4.253520544304932871e-01,-1.353601346592629880e-02,5.685889382574885187e-02,5.999894261416975627e-02,5.162842273712158203e-01
6.019279771568736281e-02,5.869501407211108468e-02,-3.687410398255464017e-01,-2.144639091118955097e-03,1.511649763642215934e-02,5.863500978630615396e-02,4.408600032329559326e-01
5.677767374763989516e-02,7.650712710745979916e-02,-4.023505469145876035e-01,7.483814347073522791e-03,1.402215023967333710e-04,6.038368879163541134e-04,4.694842994213104248e-01
6.553393744900812279e-02,6.855520878894857950e-02,-4.125672981108377546e-01,2.591700243151214608e-03,2.076894985399276201e-03,1.212776214298483257e-02,4.801132380962371826e-01
5.743550463762836511e-02,7.018530088716409820e-02,-4.408609839174824629e-01,-8.422351862799368205e-03,8.742722336010335521e-03,9.952649250997706171e-03,5.055239200592041016e-01
5.726594554332831155e-02,4.951064716389941278e-02,-3.516100416192831091e-01,8.679234038837019619e-03,2.676613382174763620e-02,6.165198218795661655e-02,4.217190146446228027e-01
2.653891274168564129e-02,3.524186905530554692e-02,-2.791003943371916929e-01,-1.285909469305772856e-03,-3.452065260661771936e-03,-1.503491330344464757e-04,3.101481497287750244e-01
6.724006736079143898e-02,7.366419382339658983e-02,-4.459272657806796492e-01,-2.819170345232945062e-04,3.211073620808922984e-03,-2.555403016440266611e-03,5.164585113525390625e-01
7.295216568152337877e-02,7.525113032306385286e-02,-4.483897618926916961e-01,-7.807623928184758300e-04,1.906450718570720250e-04,6.111546959065694952e-04,5.224981307983398438e-01
6.104530391676121770e-02,8.384545744592492023e-02,-4.326216455657858617e-01,1.724813314402428091e-03,2.749175275334817415e-03,-9.872861726326215021e-04,5.054870247840881348e-01
7.934012412677363124e-02,7.017650586985971217e-02,-4.401678995306791964e-01,1.455396888069102491e-03,1.557954608510316421e-03,1.221096903589868367e-03,5.150049328804016113e-01
2.747310564990826376e-02,8.716613236257420017e-02,-4.530351726989257921e-01,-1.132616688186174544e-02,-4.267317127922141268e-03,8.101379552091509794e-04,5.133964419364929199e-01
9.146557444127609293e-02,6.580893337631582574e-02,-4.814285901160913483e-01,-1.026886080494565819e-02,9.432358596305485954e-03,7.283584741989991562e-02,5.750355720520019531e-01
8.531784865455901978e-02,5.111107190059177574e-02,-4.539979405152193004e-01,-8.581569966992814644e-03,-4.582707358898074662e-04,-1.094269961179733172e-02,5.236068964004516602e-01
5.617488672755563406e-02,6.375384247769363966e-02,-4.270921494330019996e-01,-2.998458154869176884e-02,-1.416786782625087393e-02,-2.393321759059267861e-02,4.922244846820831299e-01
1.270310232999311006e-01,-2.691710754841659947e-02,-4.560122433277182252e-01,2.307012328318598648e-03,3.691509605438213822e-03,-2.290461875373026816e-03,5.234057903289794922e-01
4.821975428370769978e-02,4.761654741967348559e-02,-3.099834336158346915e-01,-2.245526138644879030e-02,-7.823214886293235193e-02,-4.876622614848880044e-02,3.938296139240264893e-01
4.543367797307933109e-02,5.163957327733262326e-02,-3.239893824826791668e-01,1.075760073612299847e-02,-4.599192101624352547e-02,-6.878391932102456696e-02,3.996137380599975586e-01
5.326874111811752410e-02,5.921062555298350905e-02,-3.641575512591300190e-01,1.129276429155782503e-02,-2.579994524229186140e-02,-4.064122617659878672e-02,4.290628433227539062e-01
4.583673153363362895e-02,6.984599975944705275e-02,-4.259402249725044998e-01,-3.094240868719066312e-02,-2.157430701213130381e-02,-1.925659413169018147e-02,4.897530674934387207e-01
9.126701235008963242e-02,6.518388974106084643e-02,-4.590295636275820712e-01,-1.068277593592125937e-04,-1.090089725719492779e-03,-7.479918966371601995e-03,5.378890633583068848e-01
8.597590282688796770e-02,4.738122941967498614e-02,-4.481642885528051568e-01,3.938535765837374372e-03,3.747569233785417314e-03,-8.511354338436524520e-04,5.160146951675415039e-01
9.492205936778269626e-02,4.961572022241275692e-02,-4.648667999879012025e-01,5.308904120595417907e-03,4.733023175695978322e-04,-1.598425900290516288e-03,5.386530756950378418e-01
1.015748307447306431e-01,1.394969851532643079e-02,-4.563799889265795495e-01,1.812836051325094830e-02,7.777522833165613362e-04,-6.645726324413262116e-03,5.207889080047607422e-01
8.606148755237510994e-02,3.622290607338310431e-02,-4.511645877450056186e-01,9.800740488972874837e-03,-4.946430156116897112e-03,8.294200771621497437e-03,5.146737694740295410e-01
8.765440504525590093e-02,3.932394417103646234e-02,-4.575151100978797625e-01,1.737620225947528185e-02,-2.767072971976784843e-03,-2.279511470346653134e-04,5.235706567764282227e-01
4.583350476126241135e-02,6.554058340706869767e-02,-3.671729177898075958e-01,-1.522370855525213926e-03,7.026123626555186535e-05,-4.478118233974765568e-04,4.232131838798522949e-01
9.490682333200617382e-02,2.366059149564148090e-02,-4.518521427444802674e-01,-6.597006213422580700e-03,8.985302890386850537e-04,4.039221473136509963e-03,5.150231122970581055e-01
4.703617221943692805e-03,9.889432320493404815e-02,-4.452468791207643828e-01,1.395528565400395993e-02,7.607424763024278527e-04,-2.588925688264050520e-03,5.042961239814758301e-01
4.290621620771012390e-02,8.478011443302566064e-02,-4.456503310936792972e-01,-2.311680986016713575e-03,-4.428373602564894020e-03,2.391867034642445374e-03,5.108724832534790039e-01
4.718496546387759838e-02,6.583667514762139850e-02,-3.737389977550379938e-01,-8.319762691249628361e-03,2.031297040664028618e-03,1.591876539533059387e-03,4.308171868324279785e-01
3.567778827803386177e-02,9.350452787863799964e-02,-4.525224048383605369e-01,1.859039363016657797e-03,6.845847721866564310e-03,-1.447371577677124049e-03,5.196841955184936523e-01
5.662790756522070867e-02,6.807141651983844577e-02,-3.842547594661390176e-01,9.237225047529385325e-04,-2.378136516338249032e-02,-4.356716139801439236e-02,4.549145400524139404e-01
6.731622018084607029e-02,7.575049649694923226e-02,-4.262987737542558442e-01,2.092644396994370378e-03,-6.950435753348969611e-03,-1.339175681802712466e-02,4.985842704772949219e-01
6.467639573075634196e-02,7.664683079622180983e-02,-4.465406892205958655e-01,-2.220026208096849158e-04,-4.258158200663502910e-03,2.985913231803446425e-03,5.173847675323486328e-01
1.290551768864262039e-02,1.152893973549478923e-01,-2.815392408152033732e-01,6.238550978775926625e-02,-9.051686700401359587e-02,6.259825522345040250e-02,4.187337458133697510e-01
7.506952775367217723e-02,7.980601888477054096e-02,-4.426882050992844708e-01,-5.584030376490199286e-05,1.298587898868744763e-03,-1.213662453191675233e-02,5.205716490745544434e-01
4.841901154897354509e-02,6.157717509839921721e-02,-3.533111414830272801e-01,-1.322552371191067309e-03,2.479861680711113042e-02,-2.878175507456515875e-02,4.137409925460815430e-01
2.490800931682160546e-02,9.468194335380697435e-02,-4.515052950160645673e-01,-3.007035356800122784e-03,-7.634900419212332402e-03,-3.853540364885487193e-03,5.150978565216064453e-01
6.488741102103942615e-02,7.845323080827998341e-02,-4.293174843641598404e-01,9.199804403581428921e-04,6.219845531865491640e-03,-4.077662510140971780e-02,5.061952471733093262e-01
7.272310583287408536e-02,4.065226038359137650e-02,-3.724034189297039110e-01,3.319391598638495207e-03,-7.816362327161742885e-04,-5.309487084823209108e-02,4.397529661655426025e-01
9.502050767711647805e-02,2.530256928916932435e-02,-4.489168014573466370e-01,1.173400593358389882e-04,-3.403107920138002083e-03,-8.281879306672457197e-03,5.128808617591857910e-01
4.823591689547124250e-02,6.930626614296794830e-02,-3.811093871230784580e-01,-4.955978994217249967e-03,8.125204043371166379e-05,-3.306471136453051352e-02,4.440510571002960205e-01
6.605932785925572315e-02,5.716415160933913109e-02,-4.403801185943667096e-01,2.169578565132427531e-03,2.320570861074738953e-03,1.077074384174142065e-03,5.020845532417297363e-01
2.328951938480067207e-02,9.853886550142651468e-02,-4.530710026489422337e-01,-9.354427328546374362e-03,2.093898446386645990e-02,-4.679382673415123303e-03,5.196837186813354492e-01
1.008105207386607860e-01,1.629315756864913034e-02,-4.737159408134828942e-01,3.338484829987516805e-02,3.915397251710719256e-03,-1.668333325786137272e-02,5.411940813064575195e-01
6.968827733881621800e-02,6.133268471151648304e-02,-4.423342565162939333e-01,1.133847526739382690e-03,-3.018047390769858359e-04,-1.278316403096709701e-03,5.079051852226257324e-01
8.351020220565702479e-02,4.713451638540436250e-02,-4.397139998981067777e-01,1.453202666097309567e-02,1.153042351651709270e-02,-3.427369027307477362e-02,5.105003118515014648e-01
6.462618995095131824e-02,6.773078190244419261e-02,-4.129861282773998887e-01,-3.613083857240722424e-03,1.626788558330547960e-02,-1.388191947492786044e-02,4.806424677371978760e-01
7.460060522588557452e-02,5.058710832538632074e-02,-4.149934459510241647e-01,8.414721780398174908e-03,-1.455584682146564930e-03,-2.215492372164373433e-02,4.798056185245513916e-01
-3.544563102546501032e-02,1.375651372053336707e-01,-3.225579619388834196e-01,2.442725225020203617e-02,9.112021886953583505e-02,-1.014644058775676823e-02,4.347957670688629150e-01
1.142330450240691964e-01,5.774953990944839410e-02,-5.144412673105307476e-01,4.043699068065291502e-02,3.550477387376409287e-05,5.139689596225578694e-03,6.065449118614196777e-01
7.078767806437907817e-02,6.308318232322401853e-02,-4.421791634565157558e-01,5.937688130743140266e-03,5.731961637043268658e-03,-8.483612004116262637e-03,5.095708370208740234e-01
7.963992698939842407e-02,6.812793409598613681e-02,-4.573276495688683441e-01,3.068273044195874225e-03,5.894779910281420718e-04,-2.300291946670944207e-02,5.328243970870971680e-01
7.449083168584424985e-02,7.783618487661578267e-02,-4.475038017539534896e-01,-3.884959626751787951e-03,2.391578557362000843e-03,-1.020336993103812366e-02,5.240330100059509277e-01
6.159120675149173940e-02,7.445417860212011352e-02,-4.122713465610394756e-01,-2.162335959967830092e-03,4.402708778855729012e-03,-8.180175433459242057e-03,4.807071685791015625e-01
7.880725837555965785e-02,6.956734811759049397e-02,-4.466870207879485299e-01,-3.004426463918063398e-03,2.468138006501204712e-02,-1.916613973467236678e-03,5.227233767509460449e-01
3.844203694264361482e-02,2.318852361692397279e-01,-7.321908251731820139e-01,6.946094382036906156e-02,-1.740131708859815954e-02,2.574041223625827754e-02,8.931626677513122559e-01
7.006041547654534574e-02,6.169015423150792099e-02,-4.440982924456626235e-01,1.294808810584466676e-03,-4.058277456309515238e-03,-1.236932062302067417e-03,5.100829601287841797e-01
7.928202660960098624e-02,6.600299273067217198e-02,-4.281274758624055710e-01,-5.485232552262357848e-03,1.172960318897994791e-02,-1.440952122815743154e-03,5.014100670814514160e-01
5.704937724737285665e-02,7.417897753854807430e-02,-4.237279861676719328e-01,6.538397081576028964e-04,1.075497557066757044e-02,5.524021713120039851e-04,4.899234771728515625e-01
6.437684978184948781e-02,5.715136732134945552e-02,-3.754707053865428135e-01,-3.341917038300233449e-03,2.910780011597093389e-02,-1.947254877202886023e-02,4.405142664909362793e-01
5.916800670847771615e-02,5.862499133292248255e-02,-4.379274975268543368e-01,-7.779541253041836676e-03,5.223665162076246253e-04,-7.642891903675511230e-05,4.970077574253082275e-01
3.791979447282886606e-02,8.896211989461563774e-02,-4.568268276035620246e-01,2.112348979616416808e-02,1.084496035093199078e-03,3.313992980170249198e-03,5.234574079513549805e-01
6.757041668963373326e-02,6.436373709283085831e-02,-4.010746688695380202e-01,-4.739670342751444929e-03,2.568776699192031401e-02,-1.679071674716726276e-02,4.701366424560546875e-01
7.820715146539880536e-02,6.826432076854271891e-02,-4.289161334475616871e-01,-7.116394972369814720e-03,9.484598164562390091e-03,-4.409765283627968720e-03,5.027034878730773926e-01
2.390480576992927708e-01,5.648697210348002651e-02,-7.884553932048293801e-01,-1.086091263976612931e-01,-2.153612993416370233e-02,2.867038118960289067e-02,9.699252247810363770e-01
6.459468946585769644e-02,7.436027635529873780e-02,-4.370626255997861476e-01,3.413123691805542651e-04,1.731323949132585350e-03,3.425903744404942310e-03,5.066546797752380371e-01
7.783035534245061338e-02,7.080212663103399584e-02,-4.408377145235508610e-01,-3.350539734336326699e-04,-1.799829257644342461e-03,9.101400571903440779e-04,5.152021050453186035e-01
6.638932877027237112e-02,7.462113864924199702e-02,-4.460314872246717854e-01,3.360541558770930443e-03,3.432391124544817949e-03,-5.449406407152765884e-03,5.167391300201416016e-01
5.095922158227350618e-02,6.770712183115423777e-02,-4.382462333161868950e-01,3.179194373198588122e-03,4.832955816997089229e-04,-8.261282185653470570e-05,4.978219270706176758e-01
6.903089670490297758e-02,6.738860167757779185e-02,-4.151025130031251176e-01,-5.638588465420351498e-03,1.128227180188840460e-02,-1.644478096736420522e-02,4.846455454826354980e-01
6.714158412160589617e-02,5.102113035783692463e-02,-4.396345825508620186e-01,-2.638201582638740814e-03,-1.273935591380773039e-03,6.499174665698967228e-04,4.989383816719055176e-01
6.917655564535479806e-02,6.794026155180762916e-02,-4.506315835062987829e-01,1.982927956487757701e-03,-7.651824002752934811e-04,4.326277863866213381e-04,5.192046761512756348e-01
7.422163686016977624e-02,7.565524743065360491e-02,-4.470741316171779611e-01,-3.203953832741560440e-03,1.043974664131681754e-03,-5.321702135330490940e-03,5.221280455589294434e-01
4.936512811115736921e-02,8.774173981098562503e-02,-4.521958226326782682e-01,-1.657770760600292635e-03,6.207279848835431206e-03,-2.461126381627684861e-03,5.219448208808898926e-01
6.552061061784367202e-02,5.092969131851890485e-02,-4.376965955339535141e-01,-3.020948149142860251e-03,-1.483628412969082181e-03,1.599312200340479589e-04,4.961170256137847900e-01
7.673408891129127052e-02,7.480937197349379897e-02,-4.513638806159137040e-01,-3.602094383656666461e-03,3.201853840183514722e-04,-2.116881034747294596e-03,5.271881818771362305e-01
8.403552379271578276e-02,6.424911533783284057e-02,-4.467319437681439576e-01,-2.482159062707668760e-03,-2.190442586894675130e-03,8.517412117109757902e-03,5.213963389396667480e-01
9.539052934067759892e-03,1.820729132349981072e-02,-1.936341494853663081e-01,2.416808561547574823e-03,1.194113191198219875e-02,1.237758064555359409e-02,2.098107486963272095e-01
6.958827602914094412e-02,6.496756607349818413e-02,-4.419073374899426532e-01,-5.691958235189937404e-03,7.758874542668395269e-03,9.616180187361419995e-03,5.097458958625793457e-01
4.926228230318230317e-02,8.368715191018999411e-02,-4.478561497709876438e-01,-3.013432514860816223e-03,7.674003553548813979e-03,-2.311089676127149172e-03,5.154075622558593750e-01
7.433052037160836623e-02,6.521875426530457376e-02,-4.454173052543398126e-01,1.430241977516187200e-03,-2.345431818180535293e-03,-8.159941071271104669e-04,5.152762532234191895e-01
5.858408045206681125e-02,6.986316930703662109e-02,-4.432953676885278971e-01,-3.909938546320038642e-03,1.015169912642748928e-03,9.936329264647405807e-04,5.076641440391540527e-01
7.498514838232242519e-02,7.430011928721391712e-02,-4.479064762279840739e-01,7.489471013050700426e-04,3.260286157479979621e-04,-8.560974605591476763e-04,5.225534439086914062e-01
8.922723737287996393e-02,5.202838396286715850e-02,-4.689111425874760708e-01,-3.198009521737561062e-02,-2.479401971487743203e-02,-1.929737154473032748e-02,5.460491776466369629e-01
7.060100756289053314e-02,6.582889122596444209e-02,-4.497676495176040623e-01,-8.511386178797306079e-03,-2.687689892700919746e-03,-2.621691018344150196e-03,5.182496309280395508e-01
7.916800283387220860e-02,6.845934035500908510e-02,-4.561094833339928711e-01,-5.302576314322389114e-03,-6.177226388814353181e-03,-5.586615553024605781e-03,5.302801132202148438e-01
6.731044245883441302e-02,6.875307161512628218e-02,-4.371514254099779784e-01,-4.028643430443797947e-03,4.067566765236817379e-03,3.524977368173137261e-03,5.053189396858215332e-01
5.286394540806324538e-02,7.256785379404848135e-02,-3.834145506852369434e-01,1.165712335439990409e-03,-1.387845565339541204e-02,-6.277938070407859672e-02,4.601404368877410889e-01
7.967500009255790161e-02,7.171629279268532109e-02,-4.448204255110697058e-01,-2.295810888523458493e-03,-7.910466857516047049e-07,8.932640165708086947e-04,5.205792188644409180e-01
6.848056628936333157e-02,6.683640921737649121e-02,-4.442033057836912158e-01,2.644322737181523456e-03,-3.416107692827737713e-03,-1.507275309445487658e-03,5.119251012802124023e-01
6.610070958230726546e-02,7.341696228803401558e-02,-4.401722156877038161e-01,6.631981476707804858e-04,2.555215777514874753e-04,-9.630696692463243651e-04,5.099745988845825195e-01
8.315074421122614634e-02,6.670964653500560670e-02,-4.357681055184592922e-01,1.438275147960421836e-03,2.238506674670209806e-03,1.663847056844292710e-03,5.109256505966186523e-01
4.583419129550020399e-02,6.334387787432338435e-02,-3.625446654615305797e-01,-1.232467149025148236e-03,-3.137093837010802768e-03,-1.021438027003272828e-03,4.174537956714630127e-01
7.683506190697905747e-02,5.839577558917957711e-02,-4.443831657191733564e-01,-1.155940629931000261e-04,1.370293794962158460e-03,6.804774198100819581e-04,5.122544765472412109e-01
6.445264143717821526e-02,8.572570575931071080e-02,-4.374206670289779719e-01,-1.672050818438626345e-03,5.777772336277061781e-04,2.219827728300705939e-03,5.128644108772277832e-01
7.123333850866042649e-02,6.848306554415964365e-02,-4.359202560871984211e-01,6.005516669452457251e-04,3.124039405875807685e-03,1.584157742708956502e-03,5.058215260505676270e-01
7.421170544654273615e-02,7.083285839081104873e-02,-4.420922764206203226e-01,-1.203580200190869408e-03,3.079433942029244364e-02,-1.720494347960148732e-02,5.182412266731262207e-01
4.518143841201474609e-02,7.909891556165135618e-02,-4.491587054678474744e-01,-3.821779846031498305e-03,-4.150250375206564896e-03,-5.006588627482480222e-03,5.123085379600524902e-01
8.140013031163784163e-02,6.423630697828630609e-02,-4.300688213024777551e-01,-3.677892629932850662e-04,3.574787306085886514e-03,6.754927109907187498e-04,5.031465291976928711e-01
6.833822935884611982e-02,7.438393114946065254e-02,-4.292576669724261218e-01,-3.474782062020134732e-03,2.775567365182552760e-04,-6.320575024333248242e-03,5.008022189140319824e-01
6.035232506690396681e-02,7.233286975215361125e-02,-4.377213221972977575e-01,9.171876814777896875e-03,6.501185364091074601e-03,5.629270046803057977e-04,5.045475363731384277e-01
7.446145528285944004e-02,7.212131126845380824e-02,-4.385482098531591766e-01,-6.224338284448148462e-03,6.432703802190790909e-03,-1.379621101510629215e-02,5.126355886459350586e-01
7.380804706203750176e-02,7.065123269477643908e-02,-4.472773952475314618e-01,-4.242843722227204522e-04,1.439976432467195990e-04,-1.786536379494686137e-03,5.195240378379821777e-01
6.587005708925833258e-02,7.648588115560148171e-02,-4.465029759214814153e-01,2.475747177637885343e-04,1.082496898577488438e-02,-3.540862966189271474e-03,5.181384086608886719e-01
6.104851356056251177e-02,5.841275598054068707e-02,-4.407125474407001531e-01,-8.341794705138728255e-03,2.031393140943990843e-04,-1.279745454365562637e-03,5.006619691848754883e-01
5.801180384758755637e-02,6.457715593009111243e-02,-4.569770382343372739e-01,-2.498696786285610483e-02,-4.308150217573571313e-03,-4.468701341967651515e-03,5.202175974845886230e-01
7.590386892776318506e-02,7.220743200580589938e-02,-4.362034456552663642e-01,-5.949224674191161584e-03,-8.489963929447395460e-04,-1.620464468083216347e-03,5.103830099105834961e-01
4.898845014611211135e-02,6.238110051544293322e-02,-3.628351193035582734e-01,-7.742122787234063247e-03,3.463441972673803309e-04,-7.433106314784068474e-04,4.188976883888244629e-01
7.003254800026800786e-02,5.423994050261876643e-02,-4.491260711861561616e-01,-1.461774561227960345e-02,2.427442801424475535e-03,1.761199423418819722e-03,5.120978951454162598e-01
7.390893527752320780e-02,6.736172133943901796e-02,-4.588275036756957470e-01,-1.294560771171351585e-02,-7.470334167255993692e-04,3.891557700625762617e-03,5.300121903419494629e-01
6.206816278559695865e-02,7.081746872525973568e-02,-4.471191158396652932e-01,-9.929798864955780707e-03,6.389208888919794931e-03,6.108748012717584580e-03,5.141337513923645020e-01
8.369133026010847076e-02,6.711107450254696905e-02,-4.400964899697970556e-01,-1.401679954562882590e-03,1.117362071786680115e-03,-6.952227180833931005e-04,5.157083868980407715e-01
8.025538535434967313e-02,6.935834235885146581e-02,-4.406381175616350121e-01,-2.371098627483786588e-03,-7.245351544764667973e-03,1.875213476915613261e-03,5.157106518745422363e-01
7.447843928143088599e-02,5.321174978027001790e-02,-4.886222195518633016e-01,-4.664389553061223243e-02,-6.946449900527787262e-03,1.053159752716708794e-02,5.590740442276000977e-01
7.482071159103675928e-02,4.946473326221700884e-02,-4.459259800164949161e-01,-1.599842246867151999e-02,-3.182751550475697300e-03,-3.249397536221533111e-03,5.093583464622497559e-01
1.257626587554566688e-01,-1.647118028886486452e-02,-4.686333123539427326e-01,1.442489413809165677e-02,-1.694148638340479572e-03,1.171007849686361846e-02,5.385518074035644531e-01
5.656353427009949697e-02,7.613289280586726937e-02,-4.450195388690516562e-01,2.100832482072029824e-03,-3.987640489126068402e-03,4.634162280464003414e-03,5.117710232734680176e-01
1.198825128897434977e-01,-7.675547270739740968e-04,-4.685618959914657489e-01,9.686964173465412338e-04,-3.461616599792835449e-03,-6.196568204369104493e-03,5.384991765022277832e-01
6.290996236881099546e-02,8.069212304406198077e-02,-4.242366447414901987e-01,-2.484462363293260707e-03,-1.737266347915795680e-03,3.851969379966872428e-03,4.963493049144744873e-01
1.223514440379369628e-01,-1.113648972161374040e-03,-4.701288086416360312e-01,1.211902850233798458e-03,1.028904978450495946e-03,-7.127803513119307724e-03,5.415587425231933594e-01
1.125670087490441562e-01,1.012490627179937763e-02,-4.586541604927371063e-01,6.624871870878012992e-03,-3.842942510483032814e-03,-2.601975170639153276e-03,5.276998877525329590e-01
1.125834689182538817e-01,4.431516316678152378e-03,-4.575173562949663708e-01,1.081257740336167422e-02,3.331988586708333529e-03,-8.352719696727498380e-03,5.250215530395507812e-01
6.737098309904415716e-02,6.798129483834688958e-02,-4.440947316340023709e-01,3.496492025255978540e-04,-4.490473540520470647e-04,-6.419436433832487665e-04,5.117732882499694824e-01
1.147544926368648799e-01,5.404067394185391171e-03,-4.526524606709301790e-01,-3.107073174269575459e-03,-8.674071846637898889e-03,8.733722162687397594e-03,5.218673348426818848e-01
2.633568079993733879e-02,2.183818622278366206e-02,-2.666303926838112237e-01,-1.224539062436788344e-03,2.398794343265754983e-02,-5.063724314170874562e-03,2.938356995582580566e-01
4.385894215136934560e-02,3.151823144347938588e-02,-3.162355990611873113e-01,-7.961382808324615062e-03,-7.925794869653990642e-04,-2.439035824665327506e-02,3.568658828735351562e-01
7.618051614570217622e-02,7.653900996224535791e-02,-4.462082600069227079e-01,1.107443788113061630e-03,-2.233373482634287699e-02,6.214781489868223194e-03,5.241119861602783203e-01
6.470101976887068784e-02,5.575248398387058768e-02,-3.753336836797293019e-01,1.214903037739775964e-03,-3.783188094771629956e-02,-4.646254670643871869e-03,4.406085610389709473e-01
5.349504295041773716e-02,7.904117595066373347e-02,-3.970043572054155478e-01,-7.367746063734994383e-03,-5.508567121262184646e-02,-7.794312975829333426e-03,4.738768041133880615e-01
6.720262856126890672e-02,7.434951158055944087e-02,-4.464472069352496408e-01,-1.760349277074796457e-04,3.139077749724087166e-03,-2.435744471333592918e-03,5.173061490058898926e-01
6.538454666732729237e-02,5.180199988757011598e-02,-3.675962224592474459e-01,1.692492395090789380e-03,-4.281221865622686362e-02,-9.060310839322465934e-03,4.330466091632843018e-01
6.752697704437701787e-02,7.166661153805978235e-02,-4.451523275782595657e-01,-1.785714497572828737e-03,2.543468355755632970e-04,9.671150370756658333e-04,5.147737860679626465e-01
3.237682585740547792e-02,3.899121115427481299e-02,-2.445874863087977580e-01,2.448509936623043635e-03,-6.056098363520352745e-02,1.246551165254699070e-02,3.001199364662170410e-01
6.654020774303434638e-02,7.173369426495956880e-02,-4.444901569250421791e-01,7.243435353099438468e-04,-7.790976750170093817e-04,-2.655614091753318636e-03,5.136706829071044922e-01
6.222397628380893497e-02,6.682746296694400123e-02,-4.185484177364391933e-01,-3.052991667324115362e-03,-1.360366573695473771e-02,5.938557020403829791e-04,4.836948513984680176e-01
5.991094334437058189e-02,8.341433381217752685e-02,-4.573377379708382651e-01,6.940459904166883243e-03,-1.572497659370926046e-02,5.624094765806868929e-03,5.303177833557128906e-01
7.203852617860620478e-02,6.245918937408778682e-02,-4.317566098015739873e-01,-1.526399063315410972e-03,-7.162799189746313138e-04,5.150494178913386963e-03,4.991627037525177002e-01
7.576360916548699476e-02,7.459069053327813115e-02,-4.464194810041648975e-01,4.127154630406113661e-03,3.341582836259840081e-03,3.668132659240015171e-03,5.217173695564270020e-01
1.030719656590284306e-02,1.105744319989676594e-02,-2.067119687064089273e-01,-2.231440857406534993e-03,6.724901598243819209e-03,-1.431793796275454729e-02,2.191490828990936279e-01
6.057491995287733744e-02,7.073775379982935596e-02,-4.441211221458576386e-01,-7.685396835779434097e-03,-1.340898773387788579e-03,-3.110096994644421641e-03,5.100609064102172852e-01
2.628608151563718853e-02,9.424385691285422362e-02,-4.694779817494050267e-01,-4.385936152635968449e-02,-6.018597762216412045e-03,-4.088020246121247016e-03,5.385360121726989746e-01
3.695318410759088068e-02,5.035685329817063405e-02,-3.136669976768440837e-01,9.498101702207851008e-03,4.327544158827196195e-03,1.128114552153075718e-02,3.585001826286315918e-01
6.796726257314986142e-02,7.047300230911038299e-02,-4.448800714126115441e-01,-1.449743397094019641e-03,-3.077160836411590387e-03,-7.421259041055712794e-04,5.141401290893554688e-01
6.882787096385012404e-02,6.382504545539974261e-02,-4.059580379452040200e-01,1.091730640927252027e-02,1.423268230465203447e-02,5.283213252551188441e-03,4.734135866165161133e-01
6.851361936541727760e-02,5.471379929808614651e-02,-3.938336761736402902e-01,-1.037784063632063436e-02,1.410813898751150670e-03,-8.570693826478742320e-04,4.559675753116607666e-01
6.782520588736676292e-02,8.318640879410371669e-02,-4.353619338185208409e-01,7.204669541060146690e-03,4.132021584427923201e-03,7.979508531280102984e-03,5.114301443099975586e-01
6.301085124233191115e-02,6.338019245278403435e-02,-3.913712643872613306e-01,5.503637082755786190e-03,1.394094700531412281e-02,2.350758566746706871e-02,4.571245014667510986e-01
6.875112384220732897e-02,7.335981668852628590e-02,-4.437920415803802698e-01,-1.745801391044952446e-03,1.157682858557864932e-03,-2.394642377851346777e-03,5.148924589157104492e-01
7.488927460111369228e-02,7.539410566228452182e-02,-4.433428125692662203e-01,2.893421964907967516e-03,-1.179927782343112054e-03,1.389409650470455147e-03,5.185185074806213379e-01
1.000288637867184360e-01,3.276905990523856782e-02,-5.005069805040933684e-01,-3.694897815170367084e-02,-1.024999506079990463e-02,-7.028667583559573655e-03,5.738765597343444824e-01
6.537644430888359115e-02,7.896365901024862688e-02,-4.472844091726122517e-01,3.708848884380601353e-04,7.134658170234709461e-03,2.974704010834536717e-03,5.197606086730957031e-01
5.269412608688001098e-02,5.588694396584631408e-02,-4.385623918854841818e-01,-1.553824644356797263e-02,5.048463511989941324e-04,6.112885702966464746e-04,4.935968518257141113e-01
1.030857886381058575e-01,5.448703311493077739e-02,-5.004248832327256036e-01,-6.492800054178063385e-02,1.484247885049656303e-02,6.245462215536244470e-03,5.921840667724609375e-01
7.541126351549329310e-02,4.989369443986588215e-02,-4.389623986346051221e-01,-9.008862437508894858e-03,3.382538732182555508e-03,5.979299766364744653e-03,5.024847388267517090e-01
5.149332315671470428e-02,8.038525580441588381e-02,-4.486493625022412446e-01,-2.202881491902498184e-02,1.074128298884008750e-02,-7.075128075844398443e-03,5.170876383781433105e-01
7.500105147837402009e-02,6.364864694702987435e-02,-4.508676405588700198e-01,-1.139683738114300252e-02,6.189230131447864304e-03,3.005453721595806489e-03,5.207960605621337891e-01
6.333521549036749687e-02,5.335060309541500567e-02,-4.549781050804150850e-01,-4.033698659386668328e-02,-1.346854612099526380e-02,-1.472841293131658610e-02,5.192778110504150391e-01
7.329976840720692222e-02,7.180785008491219479e-02,-4.542758449930829334e-01,-3.931746798621917061e-02,-2.312118777867256531e-02,-4.025489205191262049e-02,5.372651815414428711e-01
6.870578280716194142e-02,7.066323609541508288e-02,-4.429959560964262244e-01,2.130449974307431146e-03,-8.176877894825563620e-04,-4.644648153997327504e-04,5.126991271972656250e-01
3.847717103609429867e-02,9.899100018662865264e-02,-4.536419915641157208e-01,3.424535186179779853e-04,1.150779041484075414e-02,3.271737449257549170e-04,5.253771543502807617e-01
5.762107392328713606e-02,7.956632609923824928e-02,-4.127907497200981046e-01,-3.907732305504466042e-03,2.425311489584101865e-03,-1.457840016707204374e-02,4.824865162372589111e-01
7.465618016228536824e-02,7.105188268271095398e-02,-4.354970348741645236e-01,-3.175558652710947991e-03,-5.847083429663466579e-03,3.626560911937359421e-03,5.085300803184509277e-01
6.353228390526305391e-02,6.879318015309021650e-02,-4.435098224016491009e-01,1.436862636195438032e-03,3.303834584667784090e-03,-2.437341877119266961e-03,5.097485780715942383e-01
5.885039956909932091e-02,7.853263573319801960e-02,-4.504720329075893592e-01,9.200000854628525779e-03,-1.469229648511183317e-02,-2.658131927112908788e-03,5.203307271003723145e-01
5.742516495868391080e-02,6.986652108768870439e-02,-4.440037001024945140e-01,1.258582225158225024e-03,-1.895836369075778322e-03,-2.502538267551364208e-03,5.077976584434509277e-01
4.142009929230497378e-02,7.524359265090613258e-02,-3.876807268755348423e-01,7.447305421197631878e-03,-3.454167142267822177e-02,1.820188168998180742e-02,4.522443115711212158e-01
1.777996317983424057e-02,2.208803412975625380e-02,-2.440419459844121453e-01,4.916393816519354538e-03,1.531459229280585435e-02,1.836800070094520704e-02,2.673677206039428711e-01
6.607450469684200689e-02,7.291086112585820622e-02,-4.438034378465795515e-01,-1.528419525747165900e-03,-1.799184677696641973e-04,-4.214301685109738196e-03,5.133890509605407715e-01
-1.270534352965198982e-02,1.420558169947271354e-01,-3.516437947408910247e-01,-4.182415300869776059e-02,-1.379800376394570705e-01,-5.112802599162127870e-02,5.113611817359924316e-01
-4.341000163537500622e-03,1.359824230091039032e-01,-4.677008755092306735e-01,-3.393056497313275827e-02,9.061922594122282654e-03,2.968752880798140002e-03,5.505814552307128906e-01
2.445041582560225635e-02,2.820062810952941867e-02,-2.684305304180252261e-01,1.200985849460817993e-03,-6.394035967800602849e-03,2.197721630451617697e-02,2.974351346492767334e-01
2.537788631632190151e-02,2.123952873148327036e-02,-2.648499430889587614e-01,4.360406560779137367e-03,1.394125949512736197e-02,-9.521599887071243665e-04,2.892941236495971680e-01
1.521942722568664363e-02,1.228514248500779671e-02,-2.318668535038855560e-01,-2.923164003299909622e-03,-1.371281147984721935e-03,2.223618958591364882e-04,2.456962466239929199e-01
1.693701647111900410e-02,1.546518052467181492e-02,-2.287173098376366065e-01,1.426583088049267136e-04,9.566790602807732913e-03,2.388700126725703046e-02,2.489438652992248535e-01
8.931945638246827079e-03,5.686684151689699873e-03,-2.027194926349339399e-01,-7.564870338846077080e-04,1.376990123226421239e-02,4.705901485293490904e-04,2.114029526710510254e-01
7.449613103218646892e-02,7.532268486766252602e-02,-4.436984613081427220e-01,-4.827745191139156192e-03,1.861626740320064489e-04,-4.573616778860364082e-04,5.186764597892761230e-01
6.575511982391393784e-02,5.500161622973698261e-02,-3.882380951258105339e-01,-1.021494157890814880e-02,-3.722786184302264920e-04,1.169164446483853892e-03,4.490668177604675293e-01
6.994169787973159025e-02,6.237990643100393973e-02,-4.436045011560481033e-01,-1.493121971540470067e-03,-2.862054735841538470e-03,-2.914059992347586576e-03,5.098630189895629883e-01
-4.085362821318166970e-02,2.379206566909227716e-01,-6.124805312512351385e-01,-4.092589564129205798e-02,-4.092375416111999203e-02,-4.167641202911811366e-02,7.609777450561523438e-01
2.580311230996171212e-02,3.077287775737591602e-02,-2.764634290670799910e-01,4.094930019023715860e-03,-4.829087547284777529e-03,-2.929963149634064526e-02,3.091724812984466553e-01
1.560404225723713290e-01,-4.633664307535811933e-03,-5.342323555544561398e-01,-2.303267546836347893e-02,1.866676085649366171e-02,1.388411280251031568e-02,6.281710863113403320e-01
8.527338276354373692e-02,4.792727946761132785e-02,-4.504857532838984491e-01,1.962648533047769983e-03,5.917098217769245537e-04,2.633997602682321918e-03,5.181288123130798340e-01
6.434767767832463847e-02,6.719901448103013375e-02,-4.068187222917190038e-01,1.113623698164037390e-02,-4.396423198499663752e-03,-1.575175019303272708e-02,4.738393723964691162e-01
5.344231519193953783e-02,6.175865948228098645e-02,-3.788374980879541942e-01,7.445504003238803681e-03,-1.110495661485838732e-02,-1.408335739272835452e-02,4.377913475036621094e-01
4.157437803480906746e-02,5.133586502870088331e-02,-3.080886072815512966e-01,-4.518335701228715778e-03,2.642744568870116200e-04,-4.779228851275350159e-02,3.642615675926208496e-01
8.966255579483703442e-02,4.214468476425428656e-02,-4.541844235353240666e-01,-1.491071324931270842e-02,-2.895968583677776750e-03,-2.110067382720669585e-03,5.223892331123352051e-01
7.304132976747096384e-02,3.279250964212233888e-02,-3.753561851223625734e-01,3.592794033412538210e-03,-1.970597254573781040e-03,-2.655061710181748358e-02,4.322013556957244873e-01
8.009750347172217566e-02,7.493497278470945266e-02,-4.481991351706648974e-01,3.229511462482181905e-03,3.557995985186866109e-04,-6.570305818311327145e-04,5.257657170295715332e-01
5.214936580100737462e-02,8.256093290528765394e-02,-4.120347661617254076e-01,2.429022820161345388e-03,-1.365612858307353131e-03,6.739876300795393481e-04,4.801385104656219482e-01
6.961572448692046611e-02,8.083719941554642907e-02,-4.408394265333968609e-01,3.637481689443631226e-03,1.155946533135148368e-03,2.471323325765643723e-03,5.162174701690673828e-01
6.461839849125569635e-02,5.552568532553664449e-02,-3.798531160957492325e-01,-5.507182309906296161e-03,-4.530989455079188072e-02,-3.701185164520420096e-02,4.516145884990692139e-01
5.269795626746157091e-02,4.067943902479197182e-02,-3.292579796848256191e-01,-5.788897778609229487e-03,-2.516682640612264224e-02,1.119679188554811335e-02,3.792373836040496826e-01
4.162688575539279234e-02,3.931812967947308224e-02,-3.095866177457144430e-01,9.162197630589757891e-03,-2.743429487904701022e-02,-2.908113038002039727e-02,3.572006225585937500e-01
6.488231059279378488e-02,8.422913969294743008e-02,-4.362751086533843137e-01,2.045071277522057286e-03,1.122916681428987300e-03,2.365958953031083341e-03,5.111379623413085938e-01
3.653804318143884233e-02,3.713599201866342459e-02,-2.917846496799662570e-01,6.734454646323661652e-04,7.250399389465075894e-02,1.854898767953450447e-02,3.532654941082000732e-01
7.122801864683536710e-02,6.461570931288268538e-02,-4.162029678033820623e-01,6.753022444756234463e-03,2.411604964458573686e-03,-5.381671940086243979e-06,4.843179881572723389e-01
7.434910759127971724e-02,6.821374012971223588e-02,-4.235844307252703556e-01,7.295458212663511258e-03,3.411433721934768737e-02,2.570195165739487531e-02,5.005529522895812988e-01
3.479307257771277473e-02,1.167286533619268096e-01,-4.989141077192890128e-01,-3.448041246716057606e-02,7.491706751817352183e-02,3.576125981890412170e-02,5.996060371398925781e-01
4.459235869782726680e-02,4.839612111475641298e-02,-3.250996440215442318e-01,1.295577922294275687e-03,4.040455061881959020e-02,2.689683454353522518e-02,3.810063004493713379e-01
6.017056171864459957e-02,8.180300786350516717e-02,-4.203452355011437769e-01,-4.698491565793263755e-03,-1.238879960433126226e-04,-8.025016544086676154e-04,4.917584061622619629e-01
7.847939993811736681e-02,7.021840671510423681e-02,-4.375189718473559974e-01,4.514258260001841397e-03,9.538793826268989265e-03,3.137072210376528995e-03,5.122728943824768066e-01
7.748755102380061599e-02,7.481066127338789618e-02,-4.486666728925082781e-01,8.732939839521617481e-04,5.425858313910490466e-04,-8.352476459941040286e-04,5.248259305953979492e-01
7.261395677581544694e-02,7.169603345962993757e-02,-4.359535298391716829e-01,5.956843197232626792e-03,9.877686949844147885e-03,2.053812628419640889e-03,5.085142254829406738e-01
5.533299159225779640e-02,5.396588914434208295e-02,-4.387556385334479558e-01,-1.522238301846032954e-02,-1.884739517674262474e-03,-1.602647410974047341e-03,4.941290318965911865e-01
8.243784543442070345e-02,6.640164105310386589e-02,-4.405352645377714760e-01,3.497589849550404692e-04,6.667506821494348368e-03,-2.660989391649553389e-03,5.152926445007324219e-01
4.741314947312677552e-02,8.599902648066160005e-02,-4.898789743654926032e-01,-7.102571296371386345e-02,-1.610449610468940931e-02,-3.430532291416986054e-03,5.717087388038635254e-01
7.999291640079975174e-02,7.159926149507511717e-02,-4.434136872810768293e-01,-2.097213287909151279e-04,4.643860544320026207e-03,8.506083209596286511e-04,5.193251967430114746e-01
7.169005283259854977e-02,6.605930427528772242e-02,-4.528351278290266846e-01,-5.647433890822001548e-03,2.303601610810787701e-04,3.196590400665208498e-03,5.218538045883178711e-01
9.376813087768903765e-02,4.216543264925562418e-02,-4.820173334154956302e-01,-2.868146516991959549e-02,1.501225330339551502e-02,2.153638586820112721e-02,5.558912754058837891e-01
8.773677829919809823e-02,6.428941686253442089e-02,-4.364524725792927051e-01,-3.902807627321540308e-04,3.597784182246174887e-03,6.511259331217820025e-04,5.129072666168212891e-01
6.316328392547793102e-02,6.611450174547156555e-02,-4.428913693632208770e-01,-1.247079873780611563e-03,-3.692152828760031716e-03,-2.444092046824808927e-03,5.075992345809936523e-01
8.340498011248753674e-02,5.424198907528945957e-02,-4.594568916141956727e-01,-9.200177108420637406e-03,-8.831396864699711177e-03,1.193663756866201846e-03,5.293488502502441406e-01
1.050032734563332015e-01,4.524803983580666378e-02,-5.250603421526024439e-01,-2.996158261027707242e-02,8.136469829660498629e-03,-6.243783284426494655e-03,6.049048900604248047e-01
7.122081732461837955e-02,7.632979991578306422e-02,-4.436047565842819451e-01,-4.927679289788347962e-04,-4.570132079294135789e-04,-1.674790602977393279e-03,5.174084305763244629e-01
9.226669023964881311e-02,8.874043008012033606e-03,-4.518182430007556816e-01,-4.210769430513372491e-02,7.099396334499321910e-04,5.115702276090873871e-03,5.128442645072937012e-01
9.586905946961110647e-02,6.195275456119675450e-02,-5.014813172522947227e-01,-1.548296823262960975e-02,1.740050636493359251e-03,4.845919252828067431e-02,5.877848267555236816e-01
9.426080192564403881e-02,4.706974137914451961e-02,-4.436580198012063381e-01,-1.235480831684858394e-02,9.308807916802610063e-03,3.839827176323439006e-02,5.209029316902160645e-01
9.288285691796802079e-02,2.565912295863070902e-02,-4.230664556234866036e-01,-5.023069981727751841e-03,1.273640468402412185e-02,1.277021957262397880e-02,4.869191646575927734e-01
6.958483582630592412e-02,7.195016372572368701e-02,-4.357416055857726844e-01,3.109071165519184873e-03,2.095782916466316231e-02,1.230494329963067492e-02,5.082879066467285156e-01
8.832125060707868291e-02,5.035215674828255605e-02,-4.488983201213149754e-01,-1.044788299869172168e-02,1.268172521925353853e-02,1.497996425400534466e-02,5.207033157348632812e-01
6.759202489256641022e-02,4.469020249374225373e-02,-3.915582788125973046e-01,-1.002022029993499506e-02,2.763018346356813093e-02,3.569548426564402022e-02,4.552385210990905762e-01
8.370659555392270801e-02,5.327366838320685138e-02,-4.221221785541688920e-01,-2.568155255545585824e-02,2.493078964244671916e-02,2.020011795441887040e-02,4.964498579502105713e-01
7.412039531306485740e-02,7.076336209823710921e-02,-4.477822372749432622e-01,-1.420786620817576437e-03,1.747555420681290612e-04,-9.881203736580423252e-04,5.202409625053405762e-01
5.360158562381134306e-02,8.228010488990464277e-02,-4.466530233994168153e-01,-3.692391324275933091e-03,-6.420940816935126298e-03,-3.474710922333284612e-03,5.153877139091491699e-01
7.457186245945804370e-02,6.580620881446533343e-02,-4.401176369822999979e-01,-2.191366901256759907e-03,-5.047439591229671042e-03,-6.071723428607731995e-04,5.104532241821289062e-01
6.448606350751465155e-02,8.363585346904883755e-02,-4.355833416954719151e-01,-1.792177742814326374e-02,1.681938807352462498e-02,6.424299818201646695e-02,5.236468911170959473e-01
8.519010195896686843e-02,6.508555958218503745e-02,-4.351206788367462663e-01,-1.036499308419678005e-03,-1.555904809133467574e-03,8.665774778906072890e-04,5.105679631233215332e-01
6.046992263185521632e-02,6.277434445643625960e-02,-4.240613093779631027e-01,-2.608340413038542915e-02,2.223263649589123439e-02,1.252308682569421017e-02,4.897823631763458252e-01
7.459205318649633765e-02,7.359482123085558936e-02,-4.454105394184620925e-01,-9.394419440529704068e-04,8.180581253868668846e-04,2.706775171393017640e-03,5.195303559303283691e-01
3.914049714994576046e-02,4.806422460285189602e-02,-3.273219207873844794e-01,8.849515480520304608e-03,1.535397652282376180e-02,5.421878267875946539e-02,3.839345574378967285e-01
-4.324691834735985840e-02,1.724934184148039229e-01,-4.970661618251726033e-01,-5.477506534444488706e-02,5.156657345157421996e-03,3.224197347642085085e-03,5.995955467224121094e-01
1.231963915305857027e-01,-1.643089796081362297e-02,-4.600157348839623017e-01,4.836205536684975298e-02,4.780645036387957958e-02,-1.891189171452415108e-01,6.319578886032104492e-01
4.739119728290602795e-02,5.814220291102800697e-02,-3.540889506912774931e-01,8.063570434771204221e-03,-6.907823274063201822e-04,2.608301863524810707e-02,4.097019433975219727e-01
4.898810798583203008e-02,6.065893119367263275e-02,-3.660957269460032304e-01,-2.226824197003439247e-03,7.094402307054191448e-02,4.362858114401398785e-02,4.450837671756744385e-01
6.928363541151183469e-02,7.988545040143504861e-02,-4.412835655339208407e-01,-1.512302273220279174e-03,8.839307963585541893e-04,-4.728733655313783861e-03,5.160237550735473633e-01
1.118872062278534196e-01,1.428207765900801895e-03,-4.521276709720345455e-01,1.003956419766145747e-02,-2.141511604873663332e-03,4.117528321085053150e-03,5.180544853210449219e-01
7.175239552165629808e-02,8.404554308720904587e-02,-4.445483309586635845e-01,-3.293340606037126368e-03,2.104345088989420173e-02,9.485524452904093087e-03,5.241139531135559082e-01
2.872409614640303310e-03,1.411546463481191394e-01,-5.167853058746469941e-01,1.053523345604439991e-02,1.022008886418920154e-02,4.946904515143520087e-03,6.014526486396789551e-01
9.246070265571723623e-02,2.671083162672233113e-02,-4.632916540540711892e-01,3.396333217372966146e-02,-1.496334889192025425e-02,8.281221285611591737e-03,5.300764441490173340e-01
2.450622494708371013e-04,1.123226012742598590e-01,-4.861572768697521307e-01,4.920983959294199239e-02,5.239163124087222942e-03,-5.640614852295451620e-03,5.577687621116638184e-01
-1.673913165543199078e-02,1.490065793575823805e-01,-4.900654883851424670e-01,5.316954261233811097e-02,1.040298910981394750e-02,-5.436076345271779672e-04,5.820376873016357422e-01
5.498410329419012310e-02,7.579877724724920496e-02,-4.387154977690186919e-01,-1.023926869485193396e-02,1.794981011664327150e-02,-4.900267352089760810e-03,5.057685971260070801e-01
-2.536593827572221349e-02,1.319664953317623568e-01,-4.619277945831521404e-01,2.522143561872302459e-02,-1.400015475310461763e-02,1.349409636195129242e-02,5.357870459556579590e-01
2.784384297880387882e-03,1.069961547477744634e-01,-4.524161079631528470e-01,2.276328529331550499e-02,1.253257354155303677e-02,-2.278426960832571554e-03,5.172485709190368652e-01
1.343552650642837465e-01,-1.137303498482179764e-02,-4.666347465671775163e-01,4.228154839525695430e-02,-3.445774268271179115e-03,-7.062220322084080890e-04,5.479459762573242188e-01
6.223564760559194275e-02,7.972277730751467506e-02,-4.460117433664121389e-01,-3.800193918558229800e-03,5.237784636107686159e-03,-1.789214510016194333e-03,5.173434615135192871e-01
8.080710536652035980e-02,6.627679502820021940e-02,-4.453811008284871420e-01,-2.398857430297579585e-05,7.395678260212146249e-03,-3.018873063838039411e-02,5.218598246574401855e-01
7.756682939592632331e-02,4.332410423803462196e-02,-4.571705180119457479e-01,4.090725912629549627e-02,5.225852974225178192e-04,-6.657692158055844231e-03,5.234116315841674805e-01
1.002887911351657280e-01,5.937457818465663451e-03,-4.640382623757958735e-01,4.484207550533688552e-02,-5.266556245168642667e-05,3.945120763600758890e-03,5.293404459953308105e-01
6.231347039028034551e-02,5.175489904598670754e-02,-4.581099216327568779e-01,4.467649156145989120e-02,8.003396024999156685e-03,-5.820251740424895251e-03,5.212857127189636230e-01
5.827624037078257824e-02,8.472887955410565719e-02,-4.400925037615946445e-01,5.625336273603463548e-03,6.873661489276802761e-03,-6.358534741602448609e-03,5.124571323394775391e-01
6.966880028927685542e-02,7.923416775563016379e-02,-4.437828203351931733e-01,-1.066633120464276132e-03,-2.004409228393954322e-03,-3.885324839375414556e-03,5.183591246604919434e-01
6.300423695764290066e-02,6.937627275903568425e-02,-4.434172770501167427e-01,7.962189295011696220e-04,2.587091959658922771e-03,-3.396744912725447457e-03,5.096929073333740234e-01
3.764042436997848406e-02,5.210260975952030194e-02,-3.356811845169059838e-01,5.358096411673487526e-03,-1.145806318232315147e-03,-1.723096253407798220e-02,3.820445239543914795e-01
5.781513323687331729e-02,6.095828559601604302e-02,-3.757532628900030480e-01,-6.385213366145774117e-03,2.483288233794629304e-02,-1.514012046469776634e-02,4.381942451000213623e-01
3.980187498410603375e-02,9.673418099956154759e-02,-4.563819193607297486e-01,8.807051534970420162e-03,-3.629404259313490522e-03,3.126652629291053458e-03,5.272476077079772949e-01
8.277697820601981338e-02,6.966596274090189334e-02,-4.409411589916598095e-01,-3.367518659456123289e-03,2.318015023464769554e-04,-1.263221747166426304e-03,5.173249244689941406e-01
6.711211311418044390e-02,5.397352165866148299e-02,-4.415291472830127906e-01,3.784703285360321683e-03,-4.382560439071990976e-04,-5.038463890913056839e-04,5.022450089454650879e-01
6.125091856900016785e-02,5.948880771207507023e-02,-4.412858490339617856e-01,7.394030892774768396e-03,1.648374627952613766e-04,-2.900891566211110393e-04,5.018218159675598145e-01
6.809951758038060299e-02,6.810625928918459526e-02,-4.147975892436659429e-01,8.385465624609176813e-03,-1.740992788032708983e-03,-1.485925390598704342e-03,4.831351041793823242e-01
6.857836118277205184e-02,8.448538184898504722e-02,-4.744895634080085745e-01,1.273320353025352014e-02,1.722962932036301367e-02,-1.495781873471692218e-02,5.530484318733215332e-01
4.951761113372643575e-02,6.807233709157964330e-02,-4.551606662605829356e-01,3.600657108864793732e-02,3.642481013358678243e-04,-7.248403018192177633e-04,5.179768204689025879e-01
4.305071875641128254e-02,8.658774315550432643e-02,-4.479020737151796494e-01,1.716896804745277755e-02,1.519535394004577038e-03,6.207162904756859285e-04,5.149729251861572266e-01
8.637983972575322134e-02,6.302533059104289959e-02,-4.357119852021078543e-01,6.859972518387551840e-04,1.446011343147616309e-03,-8.584791288601268788e-04,5.108247995376586914e-01
8.876838183429408558e-02,7.655816122316452810e-02,-4.962994004170719342e-01,4.048602975868993009e-02,3.240802621453382076e-02,-4.353077378293895155e-02,5.908151865005493164e-01
8.019953726281281448e-02,6.077289711107186632e-02,-4.283561888445910348e-01,-7.985833491704827369e-03,9.331506224777073519e-03,-5.689183989635189335e-03,4.996763467788696289e-01
6.717353696512562422e-02,7.280400009137436013e-02,-4.456157353025357870e-01,-1.190241645406745277e-03,3.467521387962657436e-04,4.038439645692198932e-03,5.156794786453247070e-01
6.710884893164750786e-02,5.632455302089642291e-02,-3.857180101942838113e-01,-2.520790858055068587e-03,1.970577709261063515e-02,-2.312548286185874685e-03,4.488709270954132080e-01
3.982993386750413589e-02,9.112857051691206078e-02,-4.513449263588625859e-01,-1.476387492787386863e-03,1.183664169264867817e-02,-3.564274627072025036e-03,5.191780924797058105e-01
6.027319625989352447e-02,7.590229641684417827e-02,-4.286477263325687015e-01,3.472792385700663835e-03,4.169689364713910842e-03,-9.101879788759125942e-03,4.972586929798126221e-01
7.975550581248871951e-02,7.119028799081078551e-02,-4.713538494853146132e-01,1.551087418553759659e-02,8.192230376532405947e-03,-1.451400864771698607e-02,5.482969880104064941e-01
8.543210642285078982e-02,7.026502108556148540e-02,-4.722640791800428728e-01,1.210207238763722284e-02,2.088818594073661890e-03,-8.852811770479711642e-03,5.508938431739807129e-01
5.983192426617747750e-02,9.118985880688709744e-02,-4.628471108825517599e-01,1.864018839416366549e-03,1.547912338989106476e-02,-3.275360311691571154e-03,5.397483110427856445e-01
1.276142865744067656e-01,1.104248994091827640e-02,-5.190824095301460606e-01,6.997148552919502107e-02,-8.860130340987882810e-03,2.507269328941585940e-02,6.109242439270019531e-01
8.116664283285987547e-02,7.111148301757658219e-02,-4.453333713611216105e-01,-1.414012229349225240e-03,1.038346250501440441e-04,-1.275541275138638696e-03,5.215556025505065918e-01
9.185672682539711142e-02,4.622487794782048631e-02,-4.593926396196328366e-01,1.463171275102164229e-02,-2.160084340799649227e-02,1.081822485359480203e-02,5.321623086929321289e-01
9.309281833708063503e-02,4.598744689576278466e-02,-5.238125848277751517e-01,5.114703056549707583e-02,7.460777266872773046e-03,2.498855714719947201e-03,6.014693975448608398e-01
5.513384089284034673e-02,8.351901748942347492e-02,-4.599492788103323737e-01,3.101945181441786992e-02,-1.627117285315653455e-03,6.919023643430041726e-03,5.327056050300598145e-01
4.961877591819430222e-02,6.672507125859544752e-02,-3.631479157950575631e-01,-3.252657968635702299e-04,2.188970433019970727e-03,2.095308307422579994e-02,4.231567978858947754e-01
6.520249238646491641e-02,6.988793379877922263e-02,-4.085868555799918034e-01,-2.581121982998285658e-03,-5.137836915482022621e-02,5.664633751351343810e-02,4.942507743835449219e-01
7.612982514864810590e-02,5.295011367605967356e-02,-4.483972571177078925e-01,1.757258210025098438e-02,4.194775760614177090e-03,-6.183042308078337719e-03,5.143942236900329590e-01
6.018450946692749381e-02,6.935771296729975610e-02,-4.425730063455727281e-01,4.601451136291565165e-03,-6.484957749701128666e-05,-3.492644148880109673e-03,5.075049400329589844e-01
1.548604160878438996e-01,6.474714436236927995e-03,-5.604106782123408070e-01,9.523232951746622710e-02,-9.005927034894641026e-02,4.617379939590481042e-02,6.967285871505737305e-01
5.848019500564868856e-02,-1.347812633955586259e-03,-3.532145688231092540e-01,6.101689784545773210e-02,-8.631599622087549051e-02,1.344736142032564585e-01,4.860155284404754639e-01
1.112533128365481294e-01,-7.122109162442200048e-03,-4.234988364525330007e-01,5.680775617195134297e-02,-5.091206353198976520e-02,4.593883370625546220e-02,5.103525519371032715e-01
1.313623449162050760e-01,3.649801415808229255e-02,-5.181556352842555668e-01,1.050314945183851434e-01,4.097509580736090340e-02,6.354296432349057500e-02,6.476894617080688477e-01
9.320870638879311110e-02,4.258938482741259079e-02,-4.773827638644876914e-01,8.603345727795147502e-02,-1.210872341124370755e-01,1.161200502977850213e-01,6.371006369590759277e-01
2.946133923148527844e-02,2.501866273121594597e-02,-2.391795496852879011e-01,-3.108134070328196635e-03,-4.719349788318356886e-02,2.626264374011203634e-02,2.824429571628570557e-01
7.509291295174613801e-02,7.273504728526630769e-02,-4.453564381571369357e-01,-1.101803736269342093e-03,2.081655860602699311e-03,1.811828423689773072e-04,5.192905664443969727e-01
7.615527818029110829e-02,7.477457342442744848e-02,-4.493588653785975384e-01,-6.983699795669887295e-04,-1.573999368618558093e-05,-6.626378182033049050e-04,5.248277783393859863e-01
3.378233142082784357e-02,4.919518139807360635e-02,-3.045704794333864429e-01,-7.250274149980057148e-03,-1.884701891919994543e-02,5.016616186449507353e-02,3.587595522403717041e-01
4.782261277501023700e-02,9.198916278348570619e-02,-4.541709572293567976e-01,-9.735888059267849143e-03,5.494871675029694598e-03,5.518363403127157611e-03,5.259143114089965820e-01
3.719613916025618638e-02,3.321406629097946317e-02,-2.930103402288519732e-01,-1.873932401256568365e-03,-4.349556815932995729e-02,5.794907035773820721e-03,3.369334340095520020e-01
7.641493037610430639e-02,7.569771699466745773e-02,-4.486186816119355769e-01,-4.618393146384835828e-04,-5.419245329158078883e-04,3.382468260332868563e-04,5.246771574020385742e-01
7.113605302976558353e-02,6.969099881699267196e-02,-4.466299286450960415e-01,1.445913469966303346e-03,-1.051937869808704847e-03,-3.850009020836416516e-04,5.170546770095825195e-01
2.690544221552471083e-02,2.596404659003770377e-02,-2.623181359698707471e-01,-6.915082511220043207e-03,-2.074772080262770463e-02,1.719231219274554648e-02,2.927464246749877930e-01
5.573034151765421385e-02,3.199973811159548265e-02,-3.271601707527279079e-01,-5.656986921464348533e-03,-2.300452585496079103e-02,8.523908151951640685e-03,3.741438984870910645e-01
6.871834374111432386e-02,4.865167657658259204e-02,-3.811982981096395107e-01,1.524123088144087356e-03,-3.644416511174262963e-02,-1.394390863770067967e-03,4.447433650493621826e-01
4.030737136225304162e-02,4.974581857993846945e-02,-2.932562714056943243e-01,-4.050044985756681183e-03,-7.317434560642838148e-02,3.659746036314000597e-03,3.614622354507446289e-01
6.453983668358115322e-02,6.082660790388388916e-02,-4.410885510959531297e-01,8.048778174971477333e-04,6.195738368269589633e-04,3.316922874209606432e-04,5.037854313850402832e-01
5.657448504804726830e-02,7.859783046889379232e-02,-4.519668218406358573e-01,-8.826850095402983057e-03,3.590376895556634217e-03,2.882013483548181206e-03,5.201888084411621094e-01
7.686994014430878486e-02,7.555624080794687281e-02,-4.557877005867501663e-01,-1.464721801604282293e-03,5.837410530216770137e-03,4.752578708221956265e-03,5.321677923202514648e-01
9.174332904878190753e-02,8.911888992156424827e-02,-5.117726483157842843e-01,-3.316352238389123214e-02,-5.549647631291594607e-02,-4.920526362188051839e-02,6.184310913085937500e-01
6.132055490492108185e-02,6.615753760091822033e-02,-4.406149418132413453e-01,1.914290287173095982e-03,6.311151253296113988e-05,9.082545831575055155e-04,5.043847560882568359e-01
6.157573351537329320e-02,7.207725161859429575e-02,-4.084981261519500251e-01,7.820599590482764374e-03,-5.524533663882003932e-03,-9.922759209043665804e-03,4.760111570358276367e-01
6.276264817989218869e-02,6.067863899019068641e-02,-4.408980283122805321e-01,1.535390797708066244e-03,1.121648037764521164e-05,-3.066645614108623116e-03,5.026569962501525879e-01
1.367587236326026634e-01,3.640210742473676264e-02,-5.403792483922078560e-01,1.140369819658309802e-01,1.184436675226881314e-01,-1.689051243343558661e-01,7.532057166099548340e-01
6.153641458323513835e-02,5.830360318684077447e-02,-4.390967226799216139e-01,1.290642042842369674e-03,8.209707107770593563e-04,3.712958168090449906e-04,4.990320205688476562e-01
7.753270222925440214e-02,7.469157241577487061e-02,-4.445734095356687066e-01,-5.140035777419632405e-03,1.601958760913795845e-03,-1.318269261644465160e-03,5.207798480987548828e-01
7.338192162973808386e-02,7.669486856470345004e-02,-4.460612046564073618e-01,1.723259123518039101e-03,-1.668794972415169747e-02,2.029498326681785324e-04,5.219171643257141113e-01
6.176126887755886696e-02,6.146140002304203986e-02,-4.408528911848015319e-01,3.391874031806562569e-07,-8.813467780270830545e-04,-3.562921882886196912e-04,5.024669766426086426e-01
1.704037558601467772e-02,9.003344740594346196e-02,-4.413725473697433510e-01,-2.799687936838950175e-02,-3.462426186757631714e-03,1.723869989600713927e-03,5.013259649276733398e-01
7.479118880799648372e-02,7.488060858958703325e-02,-4.481141296967710574e-01,3.709430180571057127e-05,6.498709991748227244e-04,-8.999124511071520663e-04,5.229535698890686035e-01
5.120362825818636221e-02,6.908055782102595632e-02,-3.958535878908140959e-01,-3.866165404021920486e-03,-4.844926276508042251e-02,4.567601403908763983e-04,4.639603495597839355e-01
7.266698750562258780e-02,7.607129757808736570e-02,-4.422099947276027510e-01,-2.566104326322057524e-03,-9.452859594919027866e-05,-3.837064218065428076e-04,5.166071057319641113e-01
7.994044715301276693e-02,6.092021982200165886e-02,-4.149928242323983607e-01,-5.497371300264277880e-03,2.520492994987369017e-03,-1.205588361158440452e-03,4.858199656009674072e-01
6.806728218006780073e-02,6.996896812592034998e-02,-4.458884250626800050e-01,-1.766699535057484911e-04,7.103871367524981740e-05,-7.183138428511935073e-04,5.149108171463012695e-01
7.396221074722350575e-02,6.727218574460644418e-02,-4.437321527559692225e-01,-2.426602064805285955e-04,1.534379897873557616e-03,5.295753421956167972e-04,5.143898129463195801e-01
5.896769778048913113e-02,5.852858796154028487e-02,-4.374652580331270246e-01,5.220189867969929299e-04,1.652243405852072832e-04,7.850402208800775529e-04,4.962163269519805908e-01
6.663009670598366019e-02,6.182156930562593411e-02,-4.415128167084855781e-01,-1.733469010745590684e-03,8.386237179018494418e-04,7.541530469715174156e-05,5.057668089866638184e-01
7.092724543713330165e-02,7.274830647986224585e-02,-4.425116395867563779e-01,1.478403428856776142e-03,8.318006750941767937e-04,4.308153213519538317e-03,5.144143700599670410e-01
6.643578911084177530e-02,6.487883436816882510e-02,-4.437303844877095726e-01,1.615738797005426147e-04,-1.944362602238972493e-03,-1.596317845419697882e-03,5.094081759452819824e-01
7.333596547074333616e-02,7.619410751311095353e-02,-4.450257500618639561e-01,2.467662940681162817e-05,6.806393124961415122e-04,8.267877670863208654e-05,5.197980403900146484e-01
6.961239909310137919e-02,7.138748418435825194e-02,-4.455219992909233984e-01,-1.764164155220483091e-03,-3.353840667513075489e-03,2.783575474825533431e-04,5.160661935806274414e-01
5.573877604713467493e-02,6.744391917958825200e-02,-3.889323969842395368e-01,-6.692719603008503125e-03,-2.871722227187855497e-02,-3.812583546298612541e-02,4.583050906658172607e-01
7.593470869639359910e-02,5.072989369395347614e-02,-4.406059576283107293e-01,-1.324841914466194995e-02,-5.948339641775948761e-03,-1.077525675351163198e-02,5.053822994232177734e-01
7.565276429314074513e-02,6.827327570741784091e-02,-4.411534269640687289e-01,6.501197569711848452e-04,3.296203366780594331e-04,-2.258342212318184290e-03,5.131726861000061035e-01
7.581347756360024004e-02,6.401479253357850174e-02,-4.144089191524971127e-01,1.088014465307055555e-02,-4.386350743041889100e-03,-3.020537470257306841e-03,4.848849773406982422e-01
6.990375367431675424e-02,7.918622147765577712e-02,-4.442029344597144824e-01,1.227334893152008145e-03,-2.253868913463960739e-03,3.666360594381489792e-03,5.188680887222290039e-01
7.270088148700329378e-02,6.763770538336791316e-02,-4.445883801711699723e-01,-2.006674639069990895e-03,-6.304553922586057313e-04,2.848295425782789922e-03,5.148128867149353027e-01
7.568562529837916109e-02,7.038126539289593642e-02,-4.483130269533695533e-01,-1.599214896774643103e-03,-3.799428002480946965e-03,-3.945513550400060916e-03,5.214603543281555176e-01
7.580330780296032356e-02,7.067240720269141185e-02,-4.416580797646597056e-01,9.357046856928500321e-04,-6.153970342438430620e-04,1.941534989742071688e-03,5.149297714233398438e-01
6.749770810679148192e-02,8.357297322378140492e-02,-4.405456775002193348e-01,-1.376239759449637530e-03,-1.025908129751713568e-03,1.983541180178055759e-03,5.162887573242187500e-01
8.003864405598665188e-02,5.734928529823968280e-02,-4.452476200624293501e-01,7.757769802871115157e-04,1.783317576647277755e-04,-2.205956532202786938e-02,5.157362222671508789e-01
8.245607726112566538e-02,6.195719097975763145e-02,-4.436868721776445756e-01,-7.651133437694655759e-04,-3.235103417671016113e-02,-4.775940264781927680e-02,5.257810354232788086e-01
6.851379131824678059e-02,6.539321216605581411e-02,-4.446308320089897848e-01,1.487540663405200381e-04,8.100378327930694464e-05,-2.997444126047418746e-03,5.116178989410400391e-01
6.812129278033260404e-02,7.283134530485402269e-02,-4.455703166122249037e-01,4.475925339256569624e-04,-7.426635701166891699e-04,-9.774170225657406817e-04,5.160677433013916016e-01
6.362084980525631317e-02,5.201394074741400031e-02,-3.443065921371050719e-01,-5.998062453372115209e-03,-2.054400402464582123e-02,-3.492080299095882273e-02,4.084571301937103271e-01
3.382767654612071906e-02,4.967285037169549833e-02,-3.273290787288110071e-01,1.152524119972159027e-02,-8.514848692631899960e-03,-3.420395587030795187e-02,3.748781085014343262e-01
3.855339883401530388e-02,2.813177122556548282e-02,-2.929498936316091706e-01,-1.401215655357772099e-03,-8.506264711635171073e-04,8.099715967171452471e-04,3.264326453208923340e-01
3.594179615571134467e-02,5.307923454480772962e-02,-3.278363870306078565e-01,7.003168151573155656e-03,-1.130461813506009570e-02,-2.925342310943819871e-02,3.767761886119842529e-01
5.943747575150989948e-02,7.937671950315811076e-02,-4.307688566251838824e-01,1.285053825194888959e-03,-8.894306386335816897e-03,4.960210823990085852e-03,5.007896423339843750e-01
6.732858138463282405e-02,5.318295181435431229e-02,-4.414118977345187211e-01,2.602733322785166521e-03,1.087543262273725150e-03,8.124967142538603833e-04,5.018429756164550781e-01
8.117363194157392603e-02,5.300308819774227076e-02,-4.491471248643610914e-01,3.953603829681920367e-03,4.637299467478049435e-03,-5.229462885900881992e-03,5.169987678527832031e-01
8.155636750043096517e-02,7.442888789645160652e-02,-4.461526692470766386e-01,-7.646629451636596450e-03,-3.214977768428965016e-02,-5.088519431258655551e-02,5.346125364303588867e-01
1.372817392067900433e-01,4.174717008860959200e-02,-5.316642961012532087e-01,-4.962320620033312812e-02,-1.325406494663709800e-02,-5.305274519245025897e-03,6.330142021179199219e-01
6.413383454014015550e-02,8.706787641044749781e-02,-4.359939416023736469e-01,-2.445532073687377967e-04,2.276947949886083829e-04,1.449490379931408710e-03,5.119866728782653809e-01
9.527217578448124446e-02,2.256492255054842744e-02,-4.485627627984750121e-01,5.191511074629544947e-03,-2.936820308965853478e-03,-2.621310184582671156e-03,5.114971995353698730e-01
6.541598057164529911e-02,8.284350376735810650e-02,-4.356181099374332732e-01,-1.035280963545092206e-03,8.852371592854158932e-04,6.837215394617274407e-04,5.099780559539794922e-01
-1.458597002974672263e-02,1.444259965268276380e-01,-5.248079617447543033e-01,7.261255689311608974e-02,8.089844115134849079e-02,-5.355399484027362211e-02,6.409354209899902344e-01
3.963474842560965605e-02,5.768691075120882528e-02,-3.401978105028499733e-01,3.789686929363950824e-03,-4.746379172917463557e-03,-2.811330649191284142e-02,3.923483192920684814e-01
5.233162837124558098e-02,6.621855980228885663e-02,-3.785005207420323869e-01,9.917008317255799482e-03,-3.361720602638752775e-02,-4.352606782994944412e-02,4.485098421573638916e-01
5.797905922317664329e-02,6.720796556201960592e-02,-3.899111895676082851e-01,1.194886781920661938e-02,-7.265128339515650006e-03,-1.460683610845361219e-02,4.539285600185394287e-01
4.853964605623348194e-02,4.774311426718447215e-02,-3.414611487075366880e-01,6.191553397527405772e-03,-1.981234411820589555e-02,-2.593375153960653101e-02,3.938284814357757568e-01
7.184236642799773920e-02,7.605024174366351031e-02,-4.460897604844007436e-01,-7.479229931878334479e-04,1.159226146115083537e-03,1.568589276764173002e-03,5.200614333152770996e-01
6.166561000902862077e-02,5.033084236259466326e-02,-3.373948700931854727e-01,1.380855707061170740e-03,-4.603150185318504589e-02,-5.966434612125808001e-02,4.146039187908172607e-01
8.537169611603956376e-02,-5.331887658829097959e-02,-2.655540261285962433e-01,2.262516298112933477e-02,-2.470023387638362392e-02,1.187774939810203462e-01,3.733686208724975586e-01
2.384048173216735123e-02,2.458137163083477794e-02,-2.376782261505739069e-01,-2.806150768890099036e-03,-1.607306001300949638e-02,-6.940620708653813531e-02,2.895455956459045410e-01
6.178656264630426331e-03,4.335916205492150455e-02,-1.307597243161694456e-01,-5.041931820572592010e-03,2.701414595584672104e-02,3.374029620356835957e-02,1.758030951023101807e-01
3.606739985773359941e-03,4.967675810976981271e-04,-3.851304306800602817e-02,8.662340875375457161e-03,-1.248056629171377489e-02,1.844946386053984699e-02,5.801988393068313599e-02
6.930142237625086521e-02,6.374307421999020340e-02,-4.444018317559327858e-01,2.303878118468163320e-03,3.486600545466567169e-03,-2.950727843370618778e-03,5.110235810279846191e-01
7.013983384965702395e-02,6.220150735359517014e-02,-4.444282170360525641e-01,1.234472954560489810e-03,3.907799278896105857e-03,-2.433475339030187652e-03,5.107119083404541016e-01
7.478499440396491060e-02,6.632057523836351609e-02,-4.461050718225517686e-01,-4.721384699123193276e-04,-1.977909419221227528e-03,2.626214243525235980e-03,5.167418718338012695e-01
7.359569852967554060e-02,6.981449407992196265e-02,-4.331337591037845436e-01,-2.955748413264905165e-03,-4.506834153730292745e-03,-6.286308079381605239e-04,5.049369335174560547e-01
7.432915163291373140e-02,6.862796664502768262e-02,-4.394280288898929077e-01,5.502489841001265104e-04,9.794834291499820034e-04,-2.863205780835961171e-03,5.109581947326660156e-01
6.076087208905819881e-02,6.595787501814218134e-02,-4.431777337567862074e-01,3.320078918122583780e-03,-5.770111844321878332e-04,-4.669348427353061173e-03,5.066552758216857910e-01
7.990144248011002426e-02,4.469182116619789709e-03,-8.917148648863890137e-02,-1.801256002862449551e-02,2.664785188567416266e-02,6.312620981819917591e-03,1.573065668344497681e-01
8.452910529040147392e-02,3.735603151888627904e-02,-4.317204843178101270e-01,3.103705072039085206e-03,-4.047560804232548139e-03,6.126620429132894306e-03,4.945467710494995117e-01
6.232531754841871829e-02,6.681413475309203043e-02,-4.428343189683050518e-01,-2.722608488847627368e-03,1.082985674024636953e-03,-1.402099703695197999e-03,5.074501037597656250e-01
6.414039874785942841e-02,8.599824332816882744e-02,-4.347012049647769327e-01,6.792206070650303167e-04,8.204154542139613761e-04,1.940916683212322216e-03,5.101362466812133789e-01
5.874627339903276679e-02,7.781472086381874265e-02,-4.161640703827899079e-01,-7.977778672258503678e-03,-4.950201844253263430e-04,-1.323966933549908373e-03,4.849290251731872559e-01
6.258844004799912764e-02,8.710709730904206416e-02,-4.346447858065433656e-01,-3.633291441209457722e-04,8.700214389679612205e-05,1.547567375280049350e-03,5.099422931671142578e-01
7.373963386239515416e-02,6.570415229158629855e-02,-4.457880014167889815e-01,5.706352621094466695e-04,2.803129882001295908e-03,4.831637758479450859e-03,5.156486034393310547e-01
4.241286360781462705e-02,6.434922331054868105e-02,-3.571734046259376627e-01,-4.098269806676371405e-03,3.863179717293427785e-04,3.846315406710665991e-02,4.164191782474517822e-01
6.991520453866678642e-02,6.985052215691125999e-02,-4.241420989651709106e-01,-4.801840178562161512e-03,-9.318030330176849119e-03,1.456478819144904797e-02,4.950017333030700684e-01
6.734383708223479204e-02,3.898356006214521996e-02,-3.185068450531242101e-01,9.443458049721211583e-03,-3.457903824333768278e-02,1.066268552783341678e-01,4.203626513481140137e-01
6.690288791223578113e-02,8.306294501182054368e-02,-4.359690954523879336e-01,1.360625277696067168e-03,1.456578796129659849e-03,2.425477500888945440e-03,5.111725330352783203e-01
3.057978629839061546e-02,1.500267906875409063e-02,-2.207491163062483830e-01,4.494316817871986218e-03,-3.360945031752383266e-02,6.671722443499822353e-02,2.762188017368316650e-01
4.196776471016475107e-02,6.397478627792646533e-02,-3.638522215627368883e-01,-6.918399459112956409e-03,-1.055475846796286379e-02,2.368552167719633478e-02,4.198403060436248779e-01
3.545536196027207487e-02,4.515471078677280037e-02,-3.082308571947038334e-01,-1.138989676155426067e-02,-1.927560050435135966e-02,2.940729812227736370e-02,3.544658422470092773e-01
7.036188748754024225e-02,7.865176038113266821e-02,-4.399296242584190275e-01,1.423228421563057372e-03,1.231116504185019020e-03,1.241069551841268454e-03,5.145013332366943359e-01
7.529590048484757769e-02,7.793002828448059027e-02,-4.819016152384222873e-01,1.952022225301554628e-02,6.942698202033247522e-03,-1.293576201395484938e-02,5.601191520690917969e-01
6.364628644950098835e-02,7.020099558292969277e-02,-4.460439910205803438e-01,8.154130858611571483e-03,-2.951960015133989548e-03,4.670485269879859173e-03,5.132826566696166992e-01
8.330508784959442248e-02,6.263805524302187844e-02,-4.464561474027101684e-01,1.012253189235526188e-03,1.887496106432314576e-03,1.256209008447790529e-02,5.202044844627380371e-01
7.675869680877175916e-02,4.901290031248950463e-02,-4.433139385290527090e-01,2.895619445161292261e-03,4.472393368011240260e-03,2.720946791721689639e-03,5.068756341934204102e-01
5.041360497500776972e-02,6.966012474671517962e-02,-4.404184042149418277e-01,1.499520456377668315e-02,-1.815630398754776963e-03,2.706279958798344775e-03,5.014376640319824219e-01
7.356031207540161820e-02,4.760399005942922424e-02,-4.443680743136428357e-01,1.701569879520289236e-02,2.338238771722717709e-03,-2.598414982311109036e-03,5.063450336456298828e-01
6.868830241006124160e-02,6.086450337848972603e-02,-4.478970742372175295e-01,1.168916083479623787e-02,-7.752240261886927594e-03,6.407688140041522575e-03,5.134134292602539062e-01
1.352525151220282384e-02,9.604014454100420761e-02,-4.665717218723052784e-01,5.035849075442049017e-02,-7.159651389488729846e-03,1.800661992701394994e-04,5.335529446601867676e-01
5.583793981531154360e-02,7.336960469603051593e-02,-4.642364004381820397e-01,3.581671878882383003e-02,2.099807293488264916e-03,8.443077225428492066e-04,5.326972007751464844e-01
6.102678697693905696e-02,7.752430797815751395e-02,-4.489016351000058025e-01,-1.838701685968219170e-03,-2.209163813393571346e-03,-5.794299724563594821e-04,5.183990001678466797e-01
6.970915953606596216e-02,7.249092873536952530e-02,-4.347265471770333511e-01,-2.707043189131374313e-03,-1.027862416072078053e-02,7.712391571816449090e-03,5.063434839248657227e-01
5.966214659344865057e-02,8.774435642608985342e-02,-4.322241765734949337e-01,4.678802525983206777e-04,-1.176599209118512181e-03,-3.812691064057952516e-05,5.065163969993591309e-01
5.695882481485206594e-02,7.026964419122727623e-02,-4.306996761721514910e-01,8.452803881133837821e-03,-7.504619240549534852e-03,2.483231535998053473e-03,4.948544502258300781e-01
3.948267244862155301e-02,8.219966442090501091e-02,-4.447423101463938155e-01,6.798901534884856449e-03,2.382147229676010239e-03,-3.261955460508813784e-03,5.071201324462890625e-01
7.704523264014925821e-02,7.304838107393579749e-02,-4.461068110039506096e-01,-1.956319838998522766e-03,6.387681707614935485e-04,8.042554713742729785e-04,5.211791396141052246e-01
7.362917155981490991e-02,7.490632917120293444e-02,-4.455628544207675401e-01,-6.468666916689963390e-04,-6.241523215707017042e-04,5.549470921856673820e-04,5.198349952697753906e-01
6.551512748341489778e-02,6.877799914373805557e-02,-4.444579316619588494e-01,-1.406102532568455701e-03,-7.861141234417961480e-04,1.047341519656084494e-04,5.116199254989624023e-01
6.401549113050641893e-02,8.585007452372661607e-02,-4.337574267968618558e-01,3.524715703717005121e-03,-1.045986192832447327e-03,-4.634561485098992592e-04,5.090820193290710449e-01
8.535149577878137217e-02,4.523033736854564779e-02,-4.602464240873117562e-01,4.677225383530018987e-02,-3.492824872046102619e-02,2.825487765829830245e-02,5.385301113128662109e-01
7.011997081278889543e-02,8.301833442678199781e-02,-4.436760444024199779e-01,3.208004700698662698e-03,-1.600545378846931132e-03,2.883175821615119880e-04,5.204023718833923340e-01
6.654200931702533572e-02,6.252855514436139739e-02,-4.158932079118606295e-01,2.138845287627220981e-03,-2.940490748696884468e-02,1.993150033877455832e-02,4.843790531158447266e-01
5.435604127879434255e-02,6.970564406891283094e-02,-4.098331447407843608e-01,9.152267091479005315e-03,-2.226382995643113108e-02,1.668774322701006493e-02,4.747695326805114746e-01
6.900541688144198882e-02,7.158598081659406365e-02,-4.250108389438397860e-01,7.351340170418753373e-03,5.743747572110780193e-03,8.556682160566391263e-03,4.957966506481170654e-01
5.378615982579249000e-02,7.309044220205790365e-02,-3.894274475525971169e-01,-6.025290396915650507e-03,-2.228843887284332956e-02,3.075197034169161597e-02,4.580427408218383789e-01
3.751906890356669633e-02,3.990577929871695628e-02,-3.085553929642503856e-01,4.459286428806354813e-03,6.874023535477825908e-02,1.971809396081698751e-02,3.687830567359924316e-01
4.950948003360819416e-02,4.649253789214155552e-02,-3.186076646440623161e-01,-5.178095707954040623e-03,-3.717340373817436955e-02,4.462592854466734121e-02,3.802751600742340088e-01
6.396720927917032284e-02,6.160160221092653154e-02,-3.845787799967286258e-01,-8.822353825516923709e-03,-2.945969080589747741e-02,2.993276715351097725e-02,4.535008966922760010e-01
7.420831006272082808e-02,6.516401848588251888e-02,-4.212709875942423077e-01,-2.920017187884912935e-03,5.865097988358480884e-04,1.113003993379329095e-03,4.910505115985870361e-01
4.866744154417015911e-02,5.736093339359391030e-02,-3.530243102224451812e-01,-2.027872381584427692e-03,-5.414419933614061931e-02,5.196148157313685428e-02,4.264165163040161133e-01
7.441867806083701797e-02,7.742369690640843460e-02,-4.478590655990673519e-01,6.782898578916060585e-04,-8.952052877535278657e-04,9.573435578293055734e-04,5.237929821014404297e-01
7.287652909938377443e-02,7.705078825488032024e-02,-4.448831011482105025e-01,9.437391345644681549e-04,6.419225792667781648e-05,2.531445663003617616e-04,5.198621153831481934e-01
6.578138689207299605e-02,7.861442618485070533e-02,-4.460895199928067156e-01,-8.662432299421265851e-04,2.889757680135099458e-03,2.121484138730839620e-03,5.184459090232849121e-01
6.117988337469135174e-02,4.621524880250407752e-02,-3.557754437960223282e-01,-8.863189604545200842e-03,-2.263515341343960013e-02,6.045502550283508338e-03,4.119690060615539551e-01
7.564812774404586215e-02,5.431472705394652101e-02,-4.471216315606927894e-01,-3.274496787823175624e-03,-4.570729829190607607e-03,1.809877978381023867e-03,5.125383138656616211e-01
7.473664041388167201e-02,7.315580358739903755e-02,-4.482276114712969717e-01,-9.217790372614996161e-04,6.835541955813730997e-04,4.449646904038127371e-04,5.221799612045288086e-01
7.139013008493660939e-02,7.462075986766500413e-02,-4.262918779975140571e-01,-7.398232776259779792e-03,-2.677632569285357325e-02,1.355130693260898737e-02,5.021669864654541016e-01
7.019499155209030228e-02,7.042737633892140470e-02,-4.471472102264180126e-01,1.697336635094080001e-03,3.389921827599361604e-03,-2.183974473283482702e-03,5.175139307975769043e-01
7.111431010416305321e-02,7.522452660091458188e-02,-4.458416436643028447e-01,-3.318673211041604315e-05,-2.048222215478714449e-03,1.200823658149579275e-03,5.190395712852478027e-01
6.241838101992350230e-02,8.411754654756062322e-02,-4.540049840949142990e-01,1.000823827208371675e-04,-1.659518039341172091e-02,1.049127583115001122e-03,5.283932685852050781e-01
7.421681964775039830e-02,7.472346123890905023e-02,-4.477034421550658561e-01,1.487178028367038885e-04,-7.070162937825866722e-04,-1.202907401130085116e-03,5.221794247627258301e-01
8.405774060041912299e-02,4.325424676398922919e-02,-4.372042950259579230e-01,-4.519580844726923431e-03,-4.451329852144795445e-04,2.436680135835506827e-02,5.039373040199279785e-01
7.703413220386690075e-02,6.514663837921480516e-02,-4.488568853951085957e-01,-3.125328824480683512e-03,-2.327491452170764481e-03,5.369632118285417970e-03,5.201761126518249512e-01
7.368906031928063038e-02,6.656062287633801589e-02,-4.459828211942046816e-01,-7.733496135766335100e-04,-2.650814539468260896e-03,2.628961527347226622e-03,5.161868333816528320e-01
7.185007443522797854e-02,6.745128621516069400e-02,-4.454323637929414326e-01,-1.401852836704932208e-03,2.895576305759275937e-03,1.057887518453996833e-04,5.151273012161254883e-01
7.208649057708954588e-02,7.464277206292782574e-02,-4.419748317260722703e-01,2.712686000771256933e-03,-1.041861162667615968e-03,-1.900374905546370829e-04,5.153688788414001465e-01
7.089914864086294122e-02,5.606352191608240942e-02,-4.433321400243115384e-01,-3.817674352373948664e-03,-1.735754593210955127e-03,2.671867231025911154e-03,5.070494413375854492e-01
6.456753041183929676e-02,6.640840397622765900e-02,-4.432409136797406113e-01,-2.200499774354957618e-03,-3.032525325073892608e-03,-1.734434459222618024e-03,5.087816119194030762e-01
6.306768831223066862e-02,6.425233883121669876e-02,-4.425852038041542258e-01,-2.263392750444486422e-03,1.043313673531020376e-03,-1.665033457924858630e-03,5.062728524208068848e-01
6.362608720254631089e-02,6.424464979068159054e-02,-4.426962540459313256e-01,-2.223651918536176907e-03,-2.598452740705722245e-03,-2.368318918304593290e-03,5.066831111907958984e-01
7.521475653846412812e-02,7.609152919459405418e-02,-4.480987017677930395e-01,6.015918354302900043e-04,5.012565012454755863e-05,-9.749402454654705272e-04,5.237561464309692383e-01
5.975402150474964924e-02,7.208262925899500129e-02,-4.484189313443362468e-01,-8.797161459686260801e-03,-4.557358856585641896e-03,-4.818538748745763121e-03,5.148018598556518555e-01
7.073354200068562858e-02,7.453352261109000287e-02,-4.479598615943896633e-01,-1.769656464737258319e-03,-9.562068012148531703e-04,1.082242324397674247e-04,5.206154584884643555e-01
6.358567475309037653e-02,6.658026350031820417e-02,-4.429765071278783939e-01,-1.005956075163633959e-04,4.288876755945365609e-04,-2.337213719739440667e-03,5.080828070640563965e-01
8.153394829935986521e-02,5.778518111081271114e-02,-4.169104509858863050e-01,-1.948144122986402490e-03,5.572125704915533752e-03,1.612353181113743297e-05,4.871118068695068359e-01
7.074741647066279393e-02,7.284037418471545067e-02,-4.466491583049123637e-01,-2.826165319099290451e-04,6.740548114944268799e-04,3.658788424286550829e-04,5.184481739997863770e-01
8.475924846299670579e-02,5.981565335232580383e-02,-4.319613062817561078e-01,2.596618958481089826e-03,6.171731970501657082e-03,-1.037168290494456385e-03,5.048476457595825195e-01
1.737354895913307273e-01,-4.675493237591019091e-02,-5.289134757841756906e-01,-4.094031700758025863e-04,1.328613354201238321e-02,6.599723300236658152e-02,6.332465410232543945e-01
8.261728936235437915e-02,5.944595772311742077e-02,-4.187328431124858752e-01,7.800950486027017153e-05,5.230178549074935949e-03,8.930839751674797804e-04,4.902615547180175781e-01
6.076531660311043637e-02,8.182111238952594068e-02,-4.250996458653198418e-01,1.078346503177392973e-03,6.823649592739294487e-03,9.377226593675134017e-03,4.971371591091156006e-01
8.598615712893833973e-02,6.288165220250410692e-02,-4.337966575022669247e-01,1.839484857870133175e-03,-9.965308145529461724e-04,-8.026077523963938811e-04,5.086390972137451172e-01
6.835776456454370487e-02,8.031412884260596963e-02,-4.408136503358967562e-01,-5.945105464199581342e-04,4.312280229041302241e-04,3.031899864480234585e-03,5.152819752693176270e-01
8.194641702405622286e-02,6.399369728242373934e-02,-4.303500735819471568e-01,-4.965267419515368395e-04,1.890894598398331706e-03,-9.559541277730748514e-04,5.035743117332458496e-01
6.599473230708929883e-02,8.110799933354137514e-02,-4.377038023601921291e-01,3.677891378632385509e-04,-8.593509621886065040e-04,4.830107219989086993e-03,5.114936828613281250e-01
2.068677311164254795e-02,9.595525083153103041e-02,-4.459384770938899512e-01,5.393209036887329499e-03,3.635142877307079474e-03,3.560713586255024633e-03,5.086173415184020996e-01
8.176016288174434155e-02,6.406538308223128086e-02,-4.328609355086924793e-01,-1.177714699919210758e-03,1.119618209893530033e-03,-2.648917116941291484e-04,5.060138106346130371e-01
8.021458181032725676e-02,6.616532956030640733e-02,-4.328970864851396372e-01,-8.777537609960665062e-04,1.410299882942370100e-03,1.593903291817923154e-04,5.062415003776550293e-01
8.336047732218401785e-02,6.282799341612060884e-02,-4.337437182201993036e-01,-4.017433847500984263e-03,3.370654890523643379e-03,-1.611293545130509496e-03,5.072388052940368652e-01
7.820654927839920667e-02,6.726526915718841759e-02,-4.329109181988032851e-01,-1.834810576157361924e-03,8.206961352791496351e-04,-5.242822781289531155e-05,5.057476162910461426e-01
8.223143765269408378e-02,6.659692136363074000e-02,-4.336281356742522908e-01,-3.914074087010659987e-03,3.357055789881765746e-03,-4.256565307948541202e-05,5.083011984825134277e-01
7.314195198446754587e-02,7.279821572228270532e-02,-4.427731090264541702e-01,1.652277658670876694e-03,-2.190457641669519423e-03,-2.607644240765569915e-03,5.157849192619323730e-01
7.315401755448436294e-02,6.630369578468991998e-02,-4.451837018459398609e-01,-4.042705253601820920e-04,-9.162281395596733307e-04,5.871371846586919286e-04,5.149506330490112305e-01
6.857967953016025353e-02,6.561693644322671992e-02,-4.440900641599843102e-01,6.736501599954286112e-04,6.869803573930732647e-04,1.035375807973174965e-03,5.112006664276123047e-01
6.158789305953585314e-02,6.873788419704471297e-02,-4.436215687661747564e-01,-6.541094972635212723e-03,-1.357244233713936730e-03,-3.174159991535615948e-03,5.089833736419677734e-01
5.905153596235859781e-02,6.908222174763092860e-02,-4.433234887798143675e-01,-3.933085625630090496e-03,-2.325700594912698954e-03,-3.118191369052396907e-03,5.075551867485046387e-01
7.051481014808672065e-02,8.011936508559103221e-02,-4.381471937099447045e-01,1.962085432087440177e-03,3.077642292191082752e-03,8.996734107306123343e-03,5.138069391250610352e-01
6.271657904979055509e-02,6.980745552314682190e-02,-4.439246996782624244e-01,-4.778744219227861910e-04,-2.664462203658055084e-03,-3.460117164333285228e-03,5.102804303169250488e-01
7.187810217213261299e-02,8.057005990121557382e-02,-4.412967515505806793e-01,3.249808672918382229e-04,7.156980548029422042e-04,4.851678781893582759e-03,5.176455974578857422e-01
7.221124965339167923e-02,7.386904063661889341e-02,-4.461880745443281282e-01,2.339163594295756276e-03,-1.096196046430350903e-03,-6.908459578433114381e-04,5.192508697509765625e-01
6.887518245422000196e-02,7.468882777008364893e-02,-4.458490014147851177e-01,-9.363715660790788726e-05,2.831664380799138112e-03,-7.789079401417578616e-04,5.176805257797241211e-01
6.310927381209874287e-02,7.032476448126095958e-02,-4.440476478684533546e-01,-1.324393492606980261e-03,-2.766442411455448738e-03,-3.254817409830399778e-03,5.108616352081298828e-01
7.647804860217455314e-02,6.450186964925241906e-02,-4.460756078635667587e-01,-5.772951264573338839e-04,-3.206842076915925564e-03,6.945409652260009503e-03,5.168405175209045410e-01
1.015397774473162373e-01,2.657196771291889248e-02,-4.497800657064118801e-01,2.026864254857881509e-03,3.051488500930495638e-03,9.177958201424023243e-03,5.182040929794311523e-01
7.175684881347832444e-02,7.649168000962172642e-02,-4.440909677094897479e-01,1.019019244851492511e-03,-6.965053009928487415e-04,2.115826863522354655e-03,5.182487964630126953e-01
7.430204589268127324e-02,7.367321943379909199e-02,-4.477367803195348994e-01,2.054786312302513563e-03,5.230678767787999518e-04,-1.248717192073558547e-03,5.217421054840087891e-01
7.148962889359800066e-02,7.091903654586192984e-02,-4.462277688548810239e-01,-6.179254606400743331e-04,-1.424612887446143278e-03,-1.608940463135246192e-03,5.174468159675598145e-01
7.220651127446381379e-02,7.821561590032208300e-02,-4.426071185790288465e-01,2.039220806911291699e-03,3.983873968371077091e-04,4.161074871274843788e-03,5.179069638252258301e-01
5.265541831587078336e-02,6.531353002785078576e-02,-4.411722485080397105e-01,3.853700910931847148e-03,8.314555778610759800e-04,-2.860510193587116959e-03,5.003479719161987305e-01
7.537061396222372034e-02,7.641967125973789243e-02,-4.475448011340897314e-01,-1.100712956100469630e-03,-7.855531275970638067e-05,2.263977960058296992e-04,5.234443545341491699e-01
7.376764505097424540e-02,7.698739324567693831e-02,-4.449367100282085041e-01,-3.372986097852518315e-03,1.394206787034132141e-03,-1.039025168171481576e-03,5.203632116317749023e-01
7.230167591853717268e-02,7.854688479189131378e-02,-4.429784787411739644e-01,-1.985715251820362615e-03,-1.842726312037096617e-04,1.011747157356734103e-04,5.184425115585327148e-01
5.780098924535118088e-02,7.365084222810244774e-02,-4.109074698113715507e-01,-1.354352300433354916e-03,3.030983030687035059e-03,1.192268753111341839e-02,4.773125946521759033e-01
7.065440986560930781e-02,7.007773135076009186e-02,-4.457655073410182744e-01,-6.039073082417346439e-04,-1.959051256018381256e-03,-1.960155206207645461e-03,5.161551833152770996e-01
8.469684401027582910e-02,6.516009248878379401e-02,-4.368336911834013736e-01,6.660344101723128084e-04,1.281788399117965958e-03,6.999537144568291052e-04,5.120493173599243164e-01
7.668307739405832990e-02,7.580199264958370486e-02,-4.441937993092073267e-01,5.749400554967016783e-03,-4.192225910224521893e-04,-6.176210719229320752e-04,5.205337405204772949e-01
7.503503605799330400e-02,7.615681011309496928e-02,-4.449173480642673040e-01,-2.685413309191327699e-03,2.646148786839484486e-04,-1.274255195785104725e-04,5.205352306365966797e-01
9.086558033020039615e-02,3.335932440821362532e-02,-4.473473989433205400e-01,-6.650120165745841347e-03,-2.769650702884947531e-03,-9.565719365738849234e-03,5.123082399368286133e-01
1.007538647237316287e-01,1.875814564297026421e-02,-4.530172194000756103e-01,-1.082564929144345760e-02,9.169679572736897646e-04,6.602965734979098118e-03,5.181348919868469238e-01
7.993000083116189036e-02,5.258442942542398968e-02,-4.480417208310163435e-01,-1.653792848185075843e-03,2.240551308730570103e-03,7.228901942459994845e-03,5.150187015533447266e-01
8.308111875737836383e-02,5.137376809082727647e-02,-4.484937555177438417e-01,-1.668599717173609338e-03,4.877952972270164188e-03,5.972467186577117872e-03,5.166324973106384277e-01
8.148979464843522647e-02,4.344910684255626210e-02,-4.503958124839660959e-01,-1.890155281252789768e-02,3.197886680044073615e-03,8.974711108287584428e-04,5.149961113929748535e-01
8.196441357679154494e-02,3.885987261629575418e-02,-4.446962635207713510e-01,-5.612065964986775665e-03,1.229355465919935346e-03,5.534556565869871379e-05,5.065836906433105469e-01
6.017910569513298946e-02,6.036308743468613014e-02,-4.407143666095376111e-01,-6.621987759856328218e-03,2.753108735231195574e-03,2.233246272769442379e-03,5.011543631553649902e-01
6.132142758043446218e-02,5.983332730455845350e-02,-4.396477952947211443e-01,-4.283472665644473109e-04,1.826034609774262150e-03,1.353187613556022448e-03,5.002428889274597168e-01
7.124952970913414618e-02,7.101525603792835373e-02,-4.465517176216036721e-01,-2.941821755904230982e-04,1.997601164615341648e-03,-1.354904999094462418e-03,5.177012681961059570e-01
7.821401519225523735e-02,7.215354712048843711e-02,-4.427139002739622353e-01,1.458837866418088687e-03,8.560703289426978945e-07,-9.884938516618731966e-04,5.179332494735717773e-01
5.957357260507145646e-02,5.767847784244181653e-02,-4.378515836952319717e-01,-7.342423038174531510e-04,2.066611962524806756e-04,-8.108530664315332043e-05,4.964821040630340576e-01
6.141926349156898168e-02,5.549613279149995249e-02,-4.382002127918299683e-01,-4.145437586142579865e-03,5.480854857878366283e-04,-3.979665496760183296e-04,4.967376887798309326e-01
7.027090667281149505e-02,7.131901960923470174e-02,-4.467471985974391657e-01,-9.859516249917060055e-05,-4.025179616373473568e-04,6.881247065182352195e-04,5.175448060035705566e-01
7.040045397099201074e-02,5.772333614298619242e-02,-4.445589453048682249e-01,-4.186804035655335154e-03,1.882910138233641773e-03,2.130835937825847123e-03,5.088148117065429688e-01
7.833907556587621501e-02,5.846968970514285213e-02,-4.452590345780383374e-01,3.794774421094316424e-03,-2.723231038269483938e-03,8.567054565688568199e-03,5.142293572425842285e-01
4.049388435404724373e-02,6.519598280669783308e-02,-3.487180194870416750e-01,-2.670367273984450025e-03,-2.893185936429522407e-03,1.083913937065169274e-02,4.026281237602233887e-01
7.047545480772110515e-02,6.296398175430595323e-02,-4.452930648461528862e-01,-1.399499044652546646e-03,3.253734060445252849e-03,3.673125622158959509e-03,5.121303796768188477e-01
7.086947188585307478e-02,7.180351054741399008e-02,-4.460036252261138090e-01,-1.279214392159497022e-03,9.596884496035123970e-04,1.986819109632206436e-03,5.173596143722534180e-01
6.702667939356388160e-02,7.210255792076661341e-02,-4.460393048657712023e-01,-3.461631115276376722e-03,2.146428681032030387e-03,-1.455729441883263711e-03,5.156770944595336914e-01
7.597619630820778847e-02,6.378412374777867044e-02,-4.438604673293929381e-01,2.075770731140512068e-03,-1.386220856689153067e-03,1.232192961068222237e-02,5.143103003501892090e-01
7.807359417552703351e-02,4.958486392662986297e-02,-4.468422261312421373e-01,2.912014698134012067e-03,2.954620601290551887e-03,2.651772534245817881e-03,5.113382339477539062e-01
6.693848340879782199e-02,8.114143259864539659e-02,-4.327895752394367856e-01,-2.877161839698083676e-03,-1.268128416279490356e-03,4.598161596663169308e-03,5.070705413818359375e-01
8.737304531793391171e-02,4.670888642025466941e-02,-4.477238985933780779e-01,2.427130600168481318e-03,3.936120160181949719e-03,3.090190396162398496e-03,5.160579681396484375e-01
6.853860325837929368e-02,3.378747909570245511e-02,-4.551528176770924250e-01,-1.014952177395904431e-01,6.266465075435120879e-02,4.310495168922861414e-02,5.527386665344238281e-01
3.768144573477297254e-02,8.068462476291701768e-02,-4.440534457668137147e-01,3.514043502576185210e-03,2.786465218624490162e-03,3.619803553707423224e-03,5.047113895416259766e-01
7.443586120774511872e-02,6.642176949473041492e-02,-4.454490937484740787e-01,1.177115961641826128e-03,2.913210381255183952e-03,-6.709463023285709010e-03,5.160841345787048340e-01
3.955552150257565791e-02,8.680498777377876340e-02,-4.522341791859353366e-01,5.691755857255375792e-03,7.678862031619748327e-03,5.868911100860508189e-04,5.173021554946899414e-01
1.702093653163816445e-02,9.433585227295843145e-02,-4.504029996035793793e-01,3.490454988613528320e-02,8.007423900765565927e-03,-8.898495122826139206e-03,5.144768953323364258e-01
6.807582173234374978e-02,8.225464168148532984e-02,-4.371763018848324189e-01,-2.747892114050892905e-03,3.581901628998777142e-06,1.382110506938290370e-03,5.125163793563842773e-01
2.121243070458456170e-02,9.498618037333811381e-02,-4.470739974236587755e-01,5.358991763608483318e-03,3.603854366814591807e-03,2.096567861911333673e-03,5.093331933021545410e-01
6.351513027136634904e-02,8.059036758556345492e-02,-4.275992588622632429e-01,-3.640198205258552214e-03,9.070679903702283256e-04,5.890129250996793686e-03,5.000171065330505371e-01
6.867395506147025430e-02,8.171099555015223781e-02,-4.402463803982421542e-01,-2.686783193750181143e-03,-1.515493798756085931e-03,1.440334448700267191e-03,5.155962109565734863e-01
1.512735401949072411e-01,5.800717115804121526e-02,-6.024160493112278303e-01,-9.035079833709654118e-02,-8.467328553167113858e-02,-1.179308148081063268e-01,7.708269953727722168e-01
2.461033881649003774e-02,1.884812539925406760e-02,-2.130137066292447368e-01,-8.026527704311937211e-04,5.264731400735246647e-02,-2.177946838502652083e-02,2.546945810317993164e-01
2.239318789205388405e-02,9.823059670863779069e-02,-4.516677020072322191e-01,-5.243126099574176024e-03,-7.208115539169012570e-03,-4.038520830405163339e-03,5.164531469345092773e-01
6.660403275839038573e-02,7.478541080221776105e-02,-4.468987474260692760e-01,3.003807536398191646e-04,3.645854598371824334e-03,2.593357493162771164e-03,5.177002549171447754e-01
6.918520090719981752e-02,6.736972490166975858e-02,-4.455047173948751271e-01,-2.267259373377784621e-03,-3.870731087748160819e-03,2.884578838011363265e-04,5.138435959815979004e-01
2.989495491240616587e-02,2.740004053877106993e-02,-2.656790885033872840e-01,-8.898137572368970336e-03,-2.178920735256838909e-02,2.653138158866794744e-02,3.006765544414520264e-01
2.775686760935669462e-02,2.021132957658848539e-02,-2.460021414226337133e-01,-3.639198577759824096e-03,3.484695507359759220e-02,-9.912376232320982417e-03,2.773313820362091064e-01
1.094894954449847635e-01,4.933348855704433600e-02,-4.673067817744760433e-01,-1.410599255504611793e-02,-4.016798099431336672e-05,4.201622489896175011e-02,5.545340180397033691e-01
5.540153811296899544e-02,4.646666361535908840e-02,-3.397887603269293955e-01,-1.051974094732578691e-02,2.486203473222192706e-02,-7.742428715893107799e-03,3.938152194023132324e-01
4.434381783455726422e-02,5.751845253487872234e-02,-4.609116772868790957e-01,5.939466938269540031e-02,-2.869615382457812221e-03,1.590228852819362392e-03,5.222343206405639648e-01
5.864638491021856304e-02,6.719899386485478354e-02,-4.443806438778789558e-01,1.543369576168610036e-02,-1.389203766199780584e-03,-8.837226405567735104e-04,5.080691576004028320e-01
6.684177799601331849e-02,6.710270102482404631e-02,-4.101182657235657447e-01,-4.594325798413923315e-03,-9.318334672777980193e-03,1.540834057398832863e-02,4.781751334667205811e-01
7.058633726190227664e-02,6.982043169493487578e-02,-4.462222063617343748e-01,1.500038284319205094e-03,-3.884964528816099282e-04,-1.288632905899547980e-04,5.164330601692199707e-01
6.979636540377548437e-02,6.797390540276118664e-02,-4.452229784079604347e-01,-8.687356613527724963e-04,7.601577357757747459e-04,1.174592562178163524e-03,5.141184329986572266e-01
7.346272231688638632e-02,6.081858685080776539e-02,-4.434423492410498047e-01,8.064612684008422576e-05,2.088493349633179476e-06,-1.608894246843935519e-04,5.107005238533020020e-01
6.942423507565392837e-02,6.736058669263078613e-02,-4.742155168442319102e-01,-2.372377184799124086e-02,1.613535152184004907e-03,-1.325642489080876806e-02,5.446558594703674316e-01
1.007267898408650275e-01,2.047566340723386280e-02,-4.721151209428426920e-01,-3.086613630840399219e-02,-1.302877309353446707e-02,-2.309964740344149989e-02,5.418348908424377441e-01
7.693681468424409808e-02,6.519170495104295582e-02,-4.533832191168207237e-01,-1.849869947336229767e-02,9.921955181840177995e-04,6.456745356621658265e-03,5.256455540657043457e-01
5.857700196525120195e-02,8.529651938906099296e-02,-4.466229357422827895e-01,-7.137524177623674033e-05,7.700186553695965302e-03,-3.438641551894973825e-03,5.192812085151672363e-01
6.585437708415511904e-02,6.792407588008519959e-02,-4.444242494738541716e-01,-2.754513873766703622e-04,-2.515818619622040269e-03,6.343704954044569180e-04,5.113365650177001953e-01
7.369611212436696923e-02,4.640334786956509805e-02,-4.424715270720272486e-01,-3.757029995426255237e-02,8.965234327614533469e-03,5.043195970163183613e-03,5.075808167457580566e-01
6.946090122352102658e-02,7.866521982201432617e-02,-4.968457782330958916e-01,-4.889709746813520469e-02,5.329688757719200365e-02,4.899422084960416285e-02,5.906743407249450684e-01
8.320872047965385820e-02,3.586196325460760947e-02,-4.432137440761559910e-01,5.924501666366380030e-03,6.027697125842961098e-04,1.070726000687572321e-03,5.045272707939147949e-01
6.636122212353259830e-02,6.614077365357057259e-02,-4.439703477604928783e-01,-5.870230490861962558e-04,-2.096499069183784501e-03,-1.498548369625271950e-03,5.102419257164001465e-01
8.351562228262549015e-02,4.195987371768986063e-02,-4.362695999322740992e-01,-1.688662065717399380e-02,-2.262207802404598515e-03,-5.597360823256604390e-03,5.012667179107666016e-01
6.260562836205063597e-02,5.054311191425622796e-02,-3.677711269691629759e-01,9.726176561919014363e-03,1.268771215531308268e-04,-1.649417588217993655e-03,4.248178899288177490e-01
6.596197318590280023e-02,7.210654651018477690e-02,-4.451505814789570858e-01,4.034101679273600048e-03,-3.546350114647461860e-03,-3.389829625919168511e-03,5.143300294876098633e-01
6.553377742007918116e-02,6.656356561345966316e-02,-4.435158910548104294e-01,1.933655655516381571e-04,1.857854160736450771e-03,-2.509556349805121527e-03,5.095941424369812012e-01
1.076651521525771593e-01,4.084887721494953605e-02,-4.691083164415015272e-01,-1.326274535024082879e-02,-4.962659014612575380e-03,7.420733799241790475e-03,5.471389293670654297e-01
9.214874257183505724e-02,5.010618635692706824e-02,-4.626748397767022070e-01,9.193887527380404517e-04,-1.795533196771814319e-03,2.807227561817601260e-04,5.350542068481445312e-01
7.660189584190249534e-02,4.802920671551277887e-02,-4.443578735529784551e-01,1.052998140821682742e-02,-4.565622239581746018e-03,4.907674602283609161e-03,5.077378153800964355e-01
6.773368942505778034e-02,5.248877640027146962e-02,-4.392362220527241679e-01,-2.621948768541795122e-03,-4.149709468411425656e-04,4.610344652702402812e-04,4.995437562465667725e-01
6.314189357379076939e-02,6.006911134756176551e-02,-4.403774608301463389e-01,3.865389081796141366e-03,1.764694571285631243e-03,7.553018113909537720e-04,5.020456910133361816e-01
5.697659343220343175e-02,6.354879531124654757e-02,-4.620024601181151325e-01,3.541834169058826615e-02,-2.188976141482559465e-02,1.493885858208358897e-02,5.278860330581665039e-01
1.004135295388192961e-01,2.055394164634963272e-02,-4.503923741031194417e-01,6.009034804311328380e-03,-4.756436999439593756e-03,6.165820104944279637e-03,5.158176422119140625e-01
7.194926624984213093e-02,7.284290384225353132e-02,-4.492792976765941360e-01,-1.401673360228721129e-04,1.642736592426564512e-03,-2.382658651281745719e-03,5.217000842094421387e-01
7.188718697173201999e-02,7.273264019748820752e-02,-4.306462716263924073e-01,-8.483512684557076300e-03,-7.609015131004733489e-05,1.555677392411822972e-03,5.031785368919372559e-01
6.542269102383099777e-02,5.301604374002444331e-02,-4.389003569109896086e-01,2.352409817610322511e-03,1.494294946992261045e-03,1.181486435877016593e-03,4.982631802558898926e-01
6.092276759123924079e-02,5.692620502491485546e-02,-4.389571602728463140e-01,4.919660671599418618e-03,1.018714803359312224e-03,-1.036566792912749831e-03,4.979729652404785156e-01
9.410260416003543571e-02,2.515422507616757453e-02,-4.367669723380984692e-01,4.273800120764466477e-03,2.702713278411324627e-03,-6.370401276517208798e-03,5.001721978187561035e-01
6.646226161795157350e-02,6.255988912643908884e-02,-3.970573981663795826e-01,5.831214821935922464e-03,-1.364472532403038750e-02,-5.818223308838936167e-03,4.624056518077850342e-01
9.359590610084611573e-02,4.665165462807993602e-02,-4.563740611419573323e-01,2.158227426307445917e-03,-9.705600425793949569e-04,7.702934828360788640e-03,5.282495617866516113e-01
9.486370568701105177e-02,1.914359664207726519e-02,-4.436808346440758721e-01,6.664396488458330589e-03,2.488460049832112025e-03,4.770055029169095566e-03,5.051783919334411621e-01
9.279637069222129719e-02,2.393951758203319291e-02,-4.323263308086410794e-01,4.971456746766617259e-03,-5.582711557672185958e-03,-2.179374183367777974e-03,4.944883286952972412e-01
6.690692795213945554e-02,5.047917291033302001e-02,-4.373251434773336443e-01,4.201593860687805743e-03,-1.773829564280940958e-05,-3.550939908744747800e-05,4.962755441665649414e-01
9.625880642957015954e-02,3.919952733835591063e-02,-4.379741220314876116e-01,1.981377279547487380e-02,-1.256780739541661727e-03,-1.101781907568949101e-02,5.096315145492553711e-01
1.914634871792683657e-01,7.000410115885979945e-03,-5.843577818706648941e-01,-5.316636432523223765e-02,-4.249021354009918650e-02,-1.212416858372364487e-01,7.421655654907226562e-01
7.300660764662211810e-02,7.511735252359413861e-02,-4.476376712712534234e-01,-7.208137284519138595e-04,2.579159806095504288e-04,2.087914476124081743e-03,5.217170715332031250e-01
8.013299750277380618e-02,6.983277113233291034e-02,-4.399914808842999014e-01,-1.412588224583461198e-03,1.044830757443545097e-04,1.464449667763478239e-03,5.150637030601501465e-01
7.485514682254407193e-02,7.021909833535189271e-02,-4.462398945469129297e-01,8.429492275714950238e-04,1.121514102696217520e-03,1.711242035058458278e-03,5.188066959381103516e-01
1.148687888026714288e-01,-5.166455207743558820e-03,-4.620555230415512860e-01,3.523484583607758291e-02,-1.100505191383282545e-02,8.925428462017038350e-03,5.313432812690734863e-01
8.418669527641903239e-02,4.599750765163998500e-02,-4.471415508940767558e-01,-1.876778599776572111e-03,-2.018343906733690001e-03,2.630161585404757005e-03,5.133426189422607422e-01
7.654196893521975076e-02,7.441937012687618869e-02,-4.459756978254633131e-01,3.922600621520349121e-03,-1.785596855853326006e-04,-5.055909628721620913e-04,5.215047001838684082e-01
1.005137131975599452e-01,3.229527019086597672e-02,-4.512073383389055281e-01,1.845350210707068597e-04,3.506516500699384184e-03,1.249289245568521028e-02,5.214571356773376465e-01
7.529110639395747429e-02,7.350065069952066432e-02,-4.449737700879817792e-01,2.643171722882006031e-04,8.977516749623526048e-07,5.566239064555669790e-04,5.193730592727661133e-01
5.743754592365801770e-02,7.573427376884944717e-02,-4.448090054453560649e-01,-1.724163039614724172e-03,3.619146938622036600e-03,4.232253507857207733e-03,5.117399692535400391e-01
7.173531274588307305e-02,7.100643378895199476e-02,-4.463014392885888415e-01,-4.863615260680482144e-04,8.339499741057703917e-04,7.357876249351286103e-04,5.176769495010375977e-01
7.660856468803045605e-02,7.512742315174986141e-02,-4.480797601516052775e-01,1.301440123712383498e-03,1.984249297829615024e-04,2.469501375533667670e-04,5.239544510841369629e-01
7.926253982338590798e-02,7.593250080594465823e-02,-4.581103527902881112e-01,-2.460968684746289194e-03,2.349962314032125535e-03,-3.181857864230777828e-03,5.357763767242431641e-01
7.263824568694252082e-02,5.718183296704637542e-02,-4.179192093985300560e-01,3.111609588712052621e-03,2.062955799357022411e-03,2.269099740507705618e-02,4.846542179584503174e-01
7.811667791300272445e-02,3.815917264236803885e-02,-4.408149926825376541e-01,5.711053051501754907e-03,2.198347393082381550e-03,2.245107586195872317e-03,5.002788305282592773e-01
6.767785051244129546e-02,4.664098696660379240e-02,-3.530413786335254156e-01,-4.333708978554096829e-04,2.648856471539542869e-03,6.841305344368367458e-02,4.273865520954132080e-01
8.775517195896823108e-02,4.646582920837480368e-02,-4.524588064614195049e-01,-1.186998059068839753e-03,-3.181903291827537644e-03,1.415794357833120940e-03,5.208373069763183594e-01
8.213609075891201150e-02,6.238972122671287979e-02,-4.462704233027872669e-01,-2.280251695111530901e-03,-6.119124754773483388e-03,1.176077166548602192e-02,5.193381905555725098e-01
1.121401723119531957e-01,-6.714480827795812901e-03,-4.467829169714382931e-01,1.385481468678553471e-03,-3.106879866946751041e-05,-3.162943384252110690e-03,5.100260972976684570e-01
7.962202427705225571e-02,3.770087293428839303e-02,-4.448699714831351737e-01,5.091679113867673967e-03,-4.931782001858297593e-04,-2.702937998795223052e-03,5.049379467964172363e-01
1.071118085936254294e-01,6.562098010361522293e-02,-4.649121584235128557e-01,8.048658317915111104e-03,-1.147680619782923996e-02,6.566039033896556298e-02,5.645551681518554688e-01
7.206844369239251424e-02,6.956071646383191198e-02,-4.919155399605683043e-01,-8.179521233374217881e-02,2.376392648552368148e-02,4.729685548172272991e-02,5.874916315078735352e-01
7.647060946151185146e-02,6.690229018871557409e-02,-4.393089740397967957e-01,3.072544723289056113e-04,-4.392257349218511853e-03,2.097661938734443274e-03,5.111324191093444824e-01
7.643969708947542796e-02,5.324799858850001733e-02,-4.437059215769476594e-01,-2.857859089959821630e-03,-1.684512182839873872e-03,2.654567723518762301e-03,5.089994072914123535e-01
7.188828653804871238e-02,7.793857508816859347e-02,-4.413044819506437011e-01,3.385528449977883575e-03,-1.327829644323503177e-03,-1.865277097005774761e-03,5.162930488586425781e-01
7.478218756312440818e-02,7.591952771920981724e-02,-4.453270001183554649e-01,2.937112352334747285e-03,7.200831422258963674e-04,-4.562480081753327791e-04,5.207057595252990723e-01
7.211304404556476144e-02,7.887726560091587458e-02,-4.441316752681352398e-01,2.190134945654486839e-03,-2.588399073092597529e-04,7.040401347858565905e-04,5.196753144264221191e-01
4.216178862728389709e-02,1.334702930384731312e-01,-5.252525455921228659e-01,1.591228457892895215e-02,7.603410429310115785e-03,-2.481531366457207823e-03,6.189163923263549805e-01
3.875822183548001398e-02,5.011755859522940004e-02,-3.142024002953613948e-01,9.012387600813302063e-03,4.251110070914743133e-02,-2.595138483898330739e-02,3.693308830261230469e-01
1.862685924741097621e-02,9.872306003450542766e-02,-4.537977290744491521e-01,1.767024903322700347e-02,1.475565414018858990e-02,4.975332967113598251e-03,5.187523365020751953e-01
-1.814034451724488850e-02,1.303851544444410981e-01,-4.612928322858691477e-01,1.501962960998787233e-02,1.365426949052287418e-02,-2.499249350782373896e-03,5.343390703201293945e-01
-7.431482061597549649e-04,1.666126446708644515e-01,-5.452565389642411997e-01,1.702205075630753000e-03,-1.524957690557190992e-02,7.503454920689643995e-03,6.453723907470703125e-01
6.150790023663357808e-02,6.308175139629754180e-02,-4.414371896031429321e-01,-2.407600254899732589e-03,-2.644428383295143337e-03,1.901497634559839840e-05,5.037719607353210449e-01
-2.222128235609482916e-02,8.680715816371886717e-02,-3.264170780847743814e-01,-3.580390545810848563e-02,1.163649581755773210e-01,1.280056901054172323e-02,4.272563755512237549e-01
7.002134593736936141e-02,7.525729051765203681e-02,-4.444318768056330637e-01,1.102167679658833804e-03,-2.425984381204650264e-03,-9.157760613627273808e-04,5.171141028404235840e-01
8.296836760944611977e-02,6.784185792820673910e-02,-4.405826327835536405e-01,1.541229395582703176e-03,6.826794458711144984e-04,5.346824926539422464e-04,5.161631107330322266e-01
4.411576472183095787e-02,1.101679236045991772e-01,-4.991092953932924070e-01,2.878206552298503713e-03,1.645847498118811411e-02,6.646511605138339523e-03,5.799202919006347656e-01
-4.631030152760273744e-02,1.637275517355546994e-01,-4.486137304444781093e-01,-1.397435288324966329e-02,5.910480780805416057e-02,-3.773790445849647263e-02,5.529930591583251953e-01
-3.586479051458951739e-02,1.853132232134235835e-01,-5.533179596452251214e-01,4.012185580527808521e-02,9.432241764674738349e-02,2.640640518875658760e-02,6.817170381546020508e-01
7.367693083165421930e-02,5.080275727799762886e-02,-4.421217505880212228e-01,7.363379603060323658e-03,-4.466990621641528728e-03,4.967322857290402006e-04,5.049715638160705566e-01
8.987382045420336252e-02,8.886816857168952644e-03,-4.222982240472585858e-01,6.687369083480551590e-02,7.208730828789283729e-02,-1.009338473745290815e-01,5.356946587562561035e-01
1.621888134928544667e-01,2.500879902221589401e-02,-5.983007334990151360e-01,6.198234039319082400e-02,-4.865258859267577313e-02,-1.141450926428807522e-01,7.419924139976501465e-01
8.160343869475411571e-02,5.309743282728587865e-02,-4.104817989530859523e-01,8.902086924551038619e-04,-2.023234603955103867e-03,8.913298440026568839e-04,4.784873425960540771e-01
6.212256048994210800e-02,5.711112995127523573e-02,-4.380118516618340951e-01,-2.383333843294805146e-03,5.787361447232638057e-04,-5.324807789866359362e-04,4.976665973663330078e-01
7.460270095067048080e-02,6.089172205590179243e-02,-4.040520940776670122e-01,3.529289862677387549e-03,5.605821751345647572e-03,-8.264955035247637319e-03,4.723051488399505615e-01
5.787687019045559267e-02,7.124304764808767065e-02,-4.424665435875596575e-01,5.731831761087970156e-03,-1.687002039154106119e-03,-2.985755658398442196e-03,5.072905421257019043e-01
9.226466166933816604e-02,3.799993756786973487e-02,-4.659765580800895868e-01,2.352152849044034794e-02,-7.749737159399694431e-03,6.214241515904161094e-03,5.350148677825927734e-01
8.110610247423200025e-02,4.650861104363765430e-02,-4.456726813858241099e-01,5.430130290593585679e-03,1.320026010515190466e-03,-5.337600368731287327e-03,5.105357766151428223e-01
1.187284412162100122e-01,5.148166829040307091e-02,-5.033564471021259035e-01,1.552994639346772648e-02,9.664171875959425700e-03,-1.168717525637829983e-02,5.925301909446716309e-01
7.266374034613451438e-02,6.509905930715115252e-02,-4.585970865387627438e-01,1.471405773868928249e-02,-1.360256942710562876e-02,-3.316182343051826947e-03,5.286908745765686035e-01
1.020803606767864968e-01,2.658914609908150095e-02,-5.031505821452688654e-01,3.999558200985903894e-02,-6.251470301265928294e-03,5.973657605856971635e-03,5.756188035011291504e-01
6.593330396669602744e-02,6.551896304791501868e-02,-4.436628401403097666e-01,-7.283179674761057999e-06,2.223547006708201466e-03,2.532466575671143711e-03,5.094225406646728516e-01
4.969214558083578925e-02,6.509990101053128586e-02,-4.374603434015880143e-01,3.209458814009067719e-03,1.241179548448663461e-03,1.022424657021921753e-03,4.950752854347229004e-01
7.083950513520720360e-02,7.077590418375764858e-02,-4.460984993019617151e-01,-4.859090069569334957e-05,9.430049958834302998e-04,1.468293320447581736e-03,5.169150233268737793e-01
6.910678342362847060e-02,6.937850391208280620e-02,-4.459692398431379656e-01,1.685233704033606110e-04,3.213473660529802840e-03,2.426169831114831192e-03,5.152592062950134277e-01
8.003950745081220286e-02,6.799973425908223401e-02,-4.400983011042704507e-01,-1.120641289043716607e-03,5.453082508028114089e-03,6.445986434470598724e-04,5.143152475357055664e-01
3.702474462550611745e-02,4.581167882916094281e-02,-2.999242114377057566e-01,8.901311457216433409e-03,-3.239073009135958608e-02,-4.676759721064686903e-02,3.556956052780151367e-01
7.630293849025251984e-02,7.431104932935728158e-02,-4.451224664676418641e-01,-1.167563632810637375e-03,-1.041240898879712551e-03,1.595192630306177528e-03,5.204467177391052246e-01
6.819049083198194805e-02,6.901813961600145042e-02,-4.450544373261765552e-01,-8.865621845182021770e-04,-1.015218911618114570e-03,1.549230716556706080e-03,5.136715769767761230e-01
1.675374088776771658e-02,-4.365686070546305475e-03,-1.185186303716921075e-01,-2.379836338583751418e-02,3.696546477102876510e-02,5.897511762145034309e-02,1.792216151952743530e-01
1.143808260216414019e-02,1.193230966342642696e-02,-1.595713482011495432e-01,-3.580981937695736778e-02,4.244723683729278996e-02,6.562686469461215255e-02,2.269404679536819458e-01
2.063981140066811770e-02,3.093177825629908617e-02,-2.018412856859513882e-01,1.084898853978872799e-03,3.746008847893636529e-02,1.139013206226127672e-02,2.376889586448669434e-01
8.276078514537338338e-02,2.524518043526075006e-02,-4.457047080665067496e-01,5.609116986227952531e-03,-2.680506212639716633e-03,1.011872431261353830e-02,5.026051402091979980e-01
3.564677413708010334e-02,1.622712151140746212e-02,-1.821638251474644032e-01,-2.402892143576819926e-03,3.740495047922640093e-02,2.815102603534666570e-02,2.240110039710998535e-01
9.397337671508290691e-02,3.565654832440645627e-02,-4.560550406130044476e-01,-1.311207318441903746e-02,7.883607598935523514e-03,6.441247109036950247e-03,5.241019725799560547e-01
6.098871954107587534e-02,8.643214181179101341e-02,-4.294791347835456019e-01,8.915376253182515781e-04,-4.180741001892270274e-04,-4.527950328189113568e-04,5.036752820014953613e-01
6.540831982384112675e-02,6.614201383839785064e-02,-4.423989248532582685e-01,4.750737668394362529e-04,-2.259991128945594042e-03,1.868270743462927506e-03,5.082005262374877930e-01
7.484241024116497498e-02,7.709793284477300945e-02,-4.479019455291838314e-01,1.337687369167756424e-03,-1.393288614139829554e-04,-3.277356561239356788e-04,5.238812565803527832e-01
7.737911589814419622e-02,7.503236388716036376e-02,-4.486193315515559776e-01,1.382720788733820269e-03,-3.671975703876309951e-04,-1.955453446171749512e-04,5.248349905014038086e-01
7.366756942209884418e-02,6.991135542616808141e-02,-4.466422503446449976e-01,4.648299705566757631e-04,-1.379814601774177838e-03,-2.021601185612248322e-04,5.184481739997863770e-01
7.521017557299011780e-02,7.509009655722362342e-02,-4.481983306155288282e-01,1.772868485713631026e-04,-1.711977183159317300e-03,-1.054490107371102619e-03,5.233601331710815430e-01
7.619315249321820249e-02,7.604044390986489099e-02,-4.497329125500253988e-01,-7.992231352957540125e-05,3.978100046323680716e-04,-5.710527578865554154e-09,5.258501768112182617e-01
6.601720155880227980e-02,7.591470760544011265e-02,-4.468447799694292843e-01,6.447552070906011805e-04,7.129209662768940491e-03,1.190326632537473152e-03,5.180341601371765137e-01
5.985123442724132881e-02,8.477532809205046149e-02,-4.264737429740222407e-01,3.866283783829870918e-05,5.016532340094163531e-04,4.664721444792278675e-03,4.993199706077575684e-01
2.059489478940532137e-02,1.156137648456974365e-02,-2.297526647316868453e-01,-9.940136367568729384e-03,-4.757928316421337900e-02,1.874223494680466676e-03,2.599852085113525391e-01
7.626300114144113351e-02,7.445215233399515853e-02,-4.484622530659624906e-01,4.400822603451755993e-04,1.488306211026007199e-05,-2.252424242605187074e-04,5.238229036331176758e-01
1.109463184982228123e-01,2.501458709024961813e-04,-4.513873095225215959e-01,-2.913955115110844225e-03,-8.219988537002756186e-04,3.722081730361606611e-03,5.160364508628845215e-01
1.662117120317366248e-02,9.534966796317537185e-02,-4.439214379392844023e-01,5.810667311562572879e-03,-7.792975196764912414e-05,-2.133306575279837671e-04,5.046354532241821289e-01
6.418600149429862234e-02,6.290031021562175750e-02,-4.417014659018095868e-01,3.565282603905719182e-03,2.680104277265964521e-03,-2.052775224534768989e-03,5.053173899650573730e-01
6.097093544599888060e-02,6.051929085101859229e-02,-4.396089772660342621e-01,3.425965127716655394e-04,1.729922062865315874e-03,-1.506016615512461741e-03,5.003703832626342773e-01
6.541420028373259865e-02,6.328118721450670670e-02,-4.425922140049521336e-01,2.199702074041655180e-03,2.611766012758937744e-03,-2.942634367350027962e-03,5.070033669471740723e-01
1.036394162327258783e-01,6.896497243223076445e-02,-4.680482375723387656e-01,-1.645489981080152861e-02,-7.748927597187509585e-03,-5.903450092375218256e-02,5.653793215751647949e-01
6.477227040966318516e-02,6.335914681236073931e-02,-4.424292051398727166e-01,4.184039596312917088e-03,1.639143862140083740e-03,-3.028163949801918053e-03,5.065833330154418945e-01
6.050286080047534432e-02,6.372183713653051251e-02,-4.410449824146537301e-01,3.973489093535659440e-03,-3.953527673796500231e-04,-2.214289465293941758e-03,5.032271742820739746e-01
6.506771477656808633e-02,8.209728283201755961e-02,-4.261674842114217543e-01,8.494904179552826336e-04,-6.039099076941808857e-03,-1.607137811830394725e-02,5.008532404899597168e-01
9.472893860221331952e-02,2.100275398743078892e-02,-4.455844445727891734e-01,-4.866728052166911268e-03,-1.240600834057438472e-03,1.977747770438948501e-03,5.075689554214477539e-01
6.234926579841565397e-02,5.910601466599457732e-02,-4.412331044166683536e-01,-9.889154353660495680e-03,-7.379094129142883991e-04,-1.094542507049477408e-04,5.022624135017395020e-01
6.526327430122846884e-02,5.149114177336763798e-02,-4.381846526753550020e-01,-3.141576306563799610e-03,1.375386618996250884e-03,2.775452223423301957e-05,4.967406094074249268e-01
7.111268150551366962e-02,6.420395406157619611e-02,-4.647599642105523232e-01,-5.477354900729361487e-02,-4.754820724604225460e-03,3.418376186711335508e-03,5.409328341484069824e-01
1.010224877347411787e-01,2.396537432294942871e-02,-4.537128059745160202e-01,-1.877084811347038210e-02,2.137142000409058499e-03,-2.520471279691174991e-03,5.215482115745544434e-01
7.921835926904671754e-02,5.281496863866111391e-02,-4.476915631289252184e-01,-4.392101679457692184e-03,2.118959811848387248e-03,4.905712415891888209e-03,5.143564343452453613e-01
7.640585482056508337e-02,6.534884976192006922e-02,-4.465196363337640140e-01,-2.320648797282861284e-04,7.250043370827297974e-04,-5.896337860982777887e-03,5.175880193710327148e-01
8.258775581970026480e-02,4.773314747683907178e-02,-4.457308353127997780e-01,-2.042955011256339989e-04,2.025158054786106851e-04,6.619164960941115172e-03,5.119108557701110840e-01
3.357541788806781002e-02,9.875587375680772162e-02,-4.500081073839985457e-01,-2.452836386300101187e-03,6.911878751073511316e-03,-2.952684720234586939e-03,5.194316506385803223e-01
7.221624965337444801e-02,7.203187715034595207e-02,-4.397675826484347961e-01,-1.653900937681395452e-03,-7.623007603165949102e-05,1.322305215276066903e-03,5.119048357009887695e-01
7.849921386651942390e-02,3.624752469285974499e-02,-4.404167941812292542e-01,-4.371650957000127943e-03,-1.197077676818769382e-03,-7.727372180991225409e-04,4.991967380046844482e-01
7.679191865577442155e-02,7.370889656322146544e-02,-4.481341827152990342e-01,-3.026897032935367722e-03,1.013083351187334547e-03,4.359770663397251529e-04,5.234211683273315430e-01
7.114582080250614338e-02,7.149016193193685753e-02,-4.466125919241575870e-01,-2.921443433753037700e-06,1.483003476087276472e-03,-1.858517066026286503e-03,5.179470181465148926e-01
7.475841785830103503e-02,7.455707698950353457e-02,-4.479300602391586561e-01,-2.205636321927696600e-04,1.120966167165684006e-03,-5.250606271453509954e-04,5.225923657417297363e-01
7.444662138249852346e-02,7.375359872854628240e-02,-4.478228925674107574e-01,-2.225349401683400681e-03,-6.773254965862118187e-04,-7.099588208645088612e-04,5.219403505325317383e-01
7.216866345583575204e-02,7.705682388908485780e-02,-4.407936571337746634e-01,-4.857005438835189717e-03,9.096342045293816160e-05,1.576708958419084346e-03,5.154997110366821289e-01
7.189204734514800799e-02,6.899591129802110090e-02,-4.212403241093855555e-01,-8.013942399346531131e-03,-5.707285517581034764e-03,-7.920658855509472417e-04,4.919878244400024414e-01
7.797682298876312812e-02,7.183734799160934603e-02,-4.409366336348426452e-01,-3.679556191074150918e-03,-2.192768508572015551e-03,-1.076545327210676455e-03,5.159278512001037598e-01
7.029216127692808347e-02,6.554294130315849176e-02,-4.442260805401780921e-01,5.274094925655686654e-03,-3.028493570564659478e-03,2.379869353311099296e-03,5.122850537300109863e-01
7.587276853688965095e-02,7.182810724150356929e-02,-4.402863176791990685e-01,-1.002924706012912935e-03,-1.269056486305591676e-03,-7.094203735025861671e-04,5.141577720642089844e-01
4.337995996268009802e-02,7.182697311695543374e-02,-4.405527856958685318e-01,1.066464492254065588e-02,-3.716657564548700703e-04,2.131577114672598625e-03,4.991210401058197021e-01
7.922805371660548990e-02,7.049154633991736030e-02,-4.417222959845529262e-01,-5.536780784852667059e-03,-1.915725652928728512e-03,6.663294613109686012e-04,5.167384147644042969e-01
6.796572469640591030e-02,8.348102472830740139e-02,-4.360596295480931861e-01,4.512641105615614739e-03,1.742324369290621693e-03,-1.125541871264563185e-03,5.120316147804260254e-01
6.753992887098111964e-02,7.927572386035289242e-02,-4.382953202476905785e-01,4.330643668797047596e-03,3.358120538662263260e-03,-6.881174554235103442e-04,5.118934512138366699e-01
2.195226839814834463e-01,-1.004025316928014444e-02,-5.601849327553961588e-01,5.122303538547277879e-03,-1.089219190722789249e-02,1.247904400790209450e-01,7.271889448165893555e-01
3.804164011484739705e-02,1.746992617950395010e-02,-2.782628661222337207e-01,-5.400703780916170024e-03,-1.793730357057275564e-03,3.162988467968549260e-04,3.066957294940948486e-01
6.825143818210457902e-02,8.275370620268723831e-02,-4.387389875805527972e-01,2.867557721711908730e-03,2.849605974856116684e-04,5.162210072445663593e-04,5.144199132919311523e-01
6.245770107178291730e-02,8.121735142228592164e-02,-4.254358029800469621e-01,3.453166787415901280e-03,1.845676021448180938e-04,-4.345459032446813766e-03,4.976316094398498535e-01
6.148777337810210075e-02,3.492139396667985618e-02,-3.496393236815684702e-01,-7.165365487518826236e-04,8.751312410004403282e-04,-1.372422097035994786e-03,3.985204994678497314e-01
7.650616811875557421e-02,7.352066050083178039e-02,-4.456786000555755800e-01,-4.138897575783110315e-03,-4.579023682526477709e-04,1.211398500432417326e-03,5.207526087760925293e-01
1.060022909429702564e-01,1.386420778646604846e-02,-2.652655829316328817e-01,1.615200918022057994e-02,1.135657893817319970e-02,-8.353480381154002044e-02,3.663674592971801758e-01
5.969359413000538406e-02,6.998772000997041665e-02,-4.428478745230391977e-01,1.478566058865943538e-03,8.626389041762481859e-04,4.257992770312240584e-03,5.078290104866027832e-01
7.686461096752877920e-02,7.509611665815887904e-02,-4.482689481477455384e-01,-1.505675272152334895e-03,-3.119861331219733557e-05,-2.033797260689089947e-04,5.242581367492675781e-01
7.871566904258461839e-02,7.332733623400575218e-02,-4.459368739578212226e-01,-3.054184323591337905e-03,-3.859432673159318965e-04,1.235431008048117453e-03,5.220108628273010254e-01
1.085099216791678423e-01,6.357203795802152113e-03,-4.484342633150747437e-01,-2.112016881633987583e-03,1.411183945347457966e-03,-3.143847951476188163e-03,5.135928988456726074e-01
2.277488670008444294e-02,2.706683820832052334e-02,-2.597987673039874323e-01,3.408421912854222788e-03,-5.844518096353646351e-03,-3.427335452762762802e-02,2.911020517349243164e-01
7.593456143590068819e-02,7.318364488803591472e-02,-4.457185253077868836e-01,-6.740137699735525810e-04,1.211848713908442740e-03,-3.239180410970253303e-04,5.202889442443847656e-01
7.544391312517639836e-02,7.321549096578361393e-02,-4.447510606154188029e-01,5.039659508017212000e-05,-6.233622641795316839e-04,7.104280029308165413e-04,5.190869569778442383e-01
6.364513899017371079e-02,8.472531734469360143e-02,-4.332092587583297738e-01,-2.098213631906979681e-03,9.885406015609353881e-04,9.597911725285098025e-05,5.077387094497680664e-01
8.164062447668449241e-02,6.916883978204863004e-02,-4.403100676811784187e-01,-2.274046713525748522e-03,-1.817389458489560971e-03,8.194831612323760566e-04,5.158544778823852539e-01
8.253776625389847021e-02,6.354001011342141902e-02,-4.359577605306322323e-01,-4.785971515744316153e-03,-3.257233196256652426e-03,1.515953259335543497e-03,5.093679428100585938e-01
3.514867632074396286e-02,2.690203899368807938e-02,-2.791958998058207131e-01,-6.234298555352181873e-04,-2.107207657376004590e-03,2.814858294718113139e-03,3.103650808334350586e-01
8.408961924424521173e-02,6.461065271880037097e-02,-4.357303021343742477e-01,-1.893131371915545390e-03,-2.124116346831044031e-03,6.295477167753496268e-04,5.103842616081237793e-01
4.652703049620199316e-02,3.123957027779013240e-02,-3.088333310911610119e-01,-4.709703232535199409e-03,-2.890968746581177098e-02,1.430721971628934677e-02,3.525196015834808350e-01
7.350687249833834369e-02,7.510407458798970537e-02,-4.464077745575517620e-01,4.009929001970625209e-05,1.041613897058453172e-03,2.041704141313324412e-03,5.207301974296569824e-01
8.070495475873079583e-02,6.415278141767030706e-02,-4.289346700753661756e-01,-4.760793218243074797e-03,-5.965858188429856886e-03,-3.067049595665345034e-04,5.017428994178771973e-01
5.520927614753215473e-02,6.780605355655627831e-02,-4.413142878474842767e-01,1.299749865983333696e-02,-8.150470601703330761e-04,3.268670000369776254e-03,5.034776926040649414e-01
6.821891187164269565e-02,7.550131956138039779e-02,-4.404315974703814640e-01,2.580231613972101237e-04,-1.065435973081694236e-05,-3.262699163640840632e-05,5.123307108879089355e-01
9.626836848888653542e-02,4.234267585764625585e-02,-4.511526642098216411e-01,-2.172253688318599458e-03,3.294559879377532887e-03,-6.714329280547583212e-03,5.227233171463012695e-01
7.865100079147077650e-02,7.127483794141048490e-02,-4.448198619488497596e-01,-3.573403890978420552e-03,1.070035034927442966e-02,1.732528365376684147e-04,5.201892256736755371e-01
5.624667862341523050e-02,8.213980627217151720e-02,-4.506959773112922396e-01,1.317408516999849996e-03,-3.895624236467566323e-03,4.477851802316970380e-03,5.204791426658630371e-01
5.702924412438492574e-02,8.046412113383782927e-02,-4.512921323251735672e-01,1.001738690467491840e-03,-4.453281865728364770e-03,2.897638924889651101e-03,5.205189585685729980e-01
6.185527311339686363e-02,7.386460211846604396e-02,-4.503702167564052616e-01,9.596132905820606296e-03,-2.648567325783971090e-03,8.020773336607528448e-03,5.188072323799133301e-01
1.045218540430174203e-01,7.148344486353028215e-03,-4.476949390483291880e-01,-2.117543854499365739e-03,-8.757331895948192949e-04,-3.147370892165036321e-03,5.105870962142944336e-01
8.206284176619332849e-02,5.868932854156877488e-02,-4.194895318754278124e-01,-3.209399369507901856e-04,-1.839271270854421839e-02,-6.995226267466805436e-04,4.913193583488464355e-01
9.537511990725311417e-02,2.014143303985962974e-02,-4.485234080033519977e-01,-6.363395981831491965e-03,-9.296904230195566100e-04,-5.717722959148482595e-03,5.106744170188903809e-01
8.926034821446768297e-02,4.326840873041959412e-02,-4.480286790017231624e-01,-5.437752371454871760e-03,4.073146256819745736e-03,-8.037145563215082958e-03,5.161550641059875488e-01
4.179297549451169158e-02,9.923871430600300636e-02,-4.596630487864343251e-01,3.446182196136146278e-03,-2.601128494824241771e-03,1.472724399617028439e-02,5.331709384918212891e-01
7.984926918839788113e-02,5.539084049252385178e-02,-4.075411379965465097e-01,3.986057379502843528e-03,1.824421125680399450e-02,1.149573478405639193e-03,4.767357707023620605e-01
4.724551478147379080e-02,9.112280448667375854e-02,-4.536072111133226392e-01,-1.162961495779549041e-03,6.636371029896910752e-03,1.081165442177919314e-03,5.243037343025207520e-01
7.848159647462049637e-02,7.083246995908151766e-02,-4.411810742678806685e-01,1.110650495405510804e-03,-5.123347795218380612e-04,1.016735512813308692e-03,5.158879756927490234e-01
2.321312900225892817e-02,4.629699153397322242e-02,-2.586274713629838073e-01,1.578311635331761109e-02,5.982118972981117361e-02,-9.526702095959152516e-02,3.538126945495605469e-01
5.246195943175308019e-02,2.906821911588483576e-02,-3.118650275226482749e-01,-3.972936373481675211e-04,3.099304382776767175e-02,5.986721195587591665e-03,3.574187457561492920e-01
8.163258645869592156e-02,6.660459447580649450e-02,-4.415865371659840055e-01,1.440229350210515220e-03,1.451021031594744090e-02,6.783673774138309492e-03,5.166208148002624512e-01
7.760718927358176145e-02,5.836425045541915324e-02,-4.063709357718571225e-01,4.574002315263798329e-03,1.366552192476241587e-02,-2.152268896368864787e-02,4.767647683620452881e-01
-3.573003195439308777e-03,6.378475959672219586e-02,-3.562073313219841220e-01,-6.009135890730465945e-02,-1.288183300929544028e-01,-7.543999664680831052e-02,4.799267351627349854e-01
7.605441254166347975e-02,5.040632597552704985e-02,-3.895747399425276702e-01,-4.971646512236578379e-03,1.654959992021303242e-02,-4.744428032524521457e-03,4.544108211994171143e-01
7.155681362899801723e-02,5.402006034602510609e-02,-4.455076453390084956e-01,-1.178238949346541511e-02,-3.202979199755893146e-03,-1.480274261684400234e-03,5.089689493179321289e-01
7.918367316037777659e-02,6.001203984702435656e-02,-4.608942409004043173e-01,-1.271700996601018291e-02,-1.065948713893592401e-02,-2.296997805239957020e-03,5.315443277359008789e-01
8.583586914366103660e-02,6.185965948351065946e-02,-4.303986636850508640e-01,-1.368944938380952888e-04,1.066733808474206466e-03,2.461139950248159461e-05,5.046771764755249023e-01
5.944580634084936643e-02,5.825042390140255932e-02,-4.376382714870049595e-01,-6.737253168128458326e-04,-4.720322878444876486e-05,-8.804225385304007825e-05,4.964888691902160645e-01
5.921871107319212624e-02,6.103392472745272634e-02,-4.401085355039147107e-01,7.244426820058656388e-03,1.492137383794997778e-04,-2.940833258390389540e-05,5.003947615623474121e-01
6.544548963474189351e-02,6.270376780514891335e-02,-4.435643887799733953e-01,2.906833089646568974e-03,-4.074777193712322138e-03,-6.946796618871670581e-04,5.077199935913085938e-01
6.092793829904716296e-02,6.363778505023476306e-02,-4.407313554559552093e-01,9.216659359459819859e-03,-4.904305409241817813e-03,6.273755830486029555e-03,5.034618973731994629e-01
5.771283404856578092e-02,5.956468919992738420e-02,-4.379088694424295158e-01,8.422228155267243860e-04,3.640861694450601527e-05,2.972538089488301107e-05,4.965523779392242432e-01
5.992039110129829260e-02,6.143837810559052426e-02,-4.395532178489792163e-01,4.695543596780305884e-04,-1.399442544581003429e-03,1.733546738917247790e-03,5.002498626708984375e-01
6.814352367066120464e-02,7.298152199047755473e-02,-4.465937015362156370e-01,-2.945451902797057895e-04,9.765465544846034258e-04,3.398608005008209570e-03,5.172097086906433105e-01
6.069991333616717166e-02,5.461825301939060573e-02,-4.376697360647273660e-01,5.890522843762915906e-03,-1.618595723581116265e-03,1.792465297887271955e-04,4.954698979854583740e-01
2.590532553223974521e-02,4.501436892006147050e-02,-2.907310651885861574e-01,5.041818502271768442e-03,-3.891774499695845220e-03,-1.984465591107430898e-02,3.285993039608001709e-01
7.501121746384195599e-02,7.543070988164643498e-02,-4.479894459656899031e-01,-1.408868741006680031e-03,1.136722662959614530e-05,-5.140461559810644270e-04,5.232169628143310547e-01
7.478494765881368855e-02,7.550345572175551356e-02,-4.479482445970029425e-01,-8.384313318258371488e-04,3.972187347236670152e-04,-4.837003141829600240e-04,5.230959653854370117e-01
7.601178208951048232e-02,7.533788775049068964e-02,-4.486704992104855183e-01,-1.093401591356737805e-03,-7.073877913036450815e-04,1.456131573093230689e-04,5.243505835533142090e-01
7.169819288558199055e-02,8.044217523911348366e-02,-4.410246474233551206e-01,-1.457267272401491275e-03,1.490156562358873520e-03,-5.315777388767048764e-03,5.172448158264160156e-01
7.622456412892295030e-02,7.496559813307412945e-02,-4.474060434800805064e-01,-1.012484783569219185e-03,2.946310446571936384e-04,2.265294257259370598e-04,5.230056047439575195e-01
2.429285730926566966e-02,1.334001216684546076e-01,-5.622851524195446871e-01,1.268255981526771048e-01,2.866187070448598592e-02,-9.567009211570240423e-02,7.058010101318359375e-01
7.460252430601041485e-02,7.500068398682085968e-02,-4.460575656204657236e-01,-1.363294126355360123e-03,-4.963691975571079109e-04,3.279960706408672827e-04,5.208656787872314453e-01
8.537055652116506965e-02,6.424556043016599327e-02,-4.361450021796934307e-01,-2.267159567874440975e-03,2.232263624325064692e-03,-7.173427001680625706e-04,5.113117098808288574e-01
8.491058827481795523e-02,6.316192394811553923e-02,-4.340459298423419154e-01,-3.384149539269971701e-04,-2.044578992526518459e-03,-2.480987366679182950e-06,5.084438323974609375e-01
8.387075672216931510e-02,6.025479196155630879e-02,-4.262459791114574514e-01,2.507879468646560545e-03,-6.100002359830121630e-03,-1.592569304443473529e-03,4.988667368888854980e-01
8.298207357079678825e-02,6.584609364455915048e-02,-4.360462713222135744e-01,-1.334427613606985327e-03,6.096000480230520787e-04,1.177832341809911072e-03,5.106863975524902344e-01
8.386935997217329075e-02,6.432016658592440428e-02,-4.356792363472415386e-01,1.217048832770736572e-03,-1.568346047051162855e-03,-4.510540807324030710e-04,5.100672245025634766e-01
7.400185364750422323e-02,7.664667397001140303e-02,-4.483772001031383070e-01,-8.715484707608803488e-04,-3.499470298740325305e-04,-1.785779617503330675e-04,5.237091183662414551e-01
8.048409791921118384e-02,6.187562967233847799e-02,-4.464085610567847251e-01,4.417114605220821789e-04,-6.796469979567862233e-04,-7.527757109394028930e-03,5.180052518844604492e-01
8.328149652549729498e-02,5.980348275421648596e-02,-4.232387508095337147e-01,1.551919068351308682e-03,-7.093763237886513764e-03,1.667437207574362775e-04,4.953586161136627197e-01
-6.528468273612014067e-03,1.508413149104836926e-02,-1.020138860113378593e-01,-6.022502303182556208e-03,1.074210756696330760e-01,4.269526069294816290e-02,2.276918739080429077e-01
2.298958471763698497e-02,1.113184803479969065e-02,-1.965445455340971703e-01,-2.946914719049290726e-03,7.423399614658720419e-03,3.830397320190863548e-03,2.144016176462173462e-01
5.387098190751232751e-02,3.228768290070860303e-02,-3.266780238345871612e-01,-4.815687881143488822e-03,2.142636093461893973e-02,4.846777956891438403e-04,3.721792995929718018e-01
4.351871717227845382e-02,2.962922039790306938e-02,-3.086873520419375350e-01,-4.340854209334890461e-03,3.087267431673031137e-02,1.337939629301757027e-02,3.504325747489929199e-01
5.569285630222745032e-02,4.344789096282122842e-02,-3.436373834815021344e-01,-1.274935586253519125e-02,3.740406291312205894e-02,-9.486542923895885078e-05,3.992613852024078369e-01
6.306773222743380924e-02,8.859291543916558709e-02,-4.376096911100993414e-01,-8.373723615150009507e-04,1.190506930627098199e-03,2.935562162680831547e-03,5.139470100402832031e-01
1.556989855033216186e-01,3.646557618636372955e-03,-5.200248610614079947e-01,3.482986488156490472e-03,1.907275861664757283e-03,6.605063939607954586e-05,6.140232086181640625e-01
6.866832569673261832e-02,7.915144296057330386e-02,-4.313636891255359096e-01,-6.417593817467011699e-03,-1.279506461897898534e-03,1.002152267061769911e-03,5.054851770401000977e-01
5.503088945129835929e-02,3.643411011529092136e-02,-3.322135029135007689e-01,-6.907632694353798772e-03,2.151670204938455760e-02,-3.403128403285637905e-04,3.803090453147888184e-01
-3.329994529820765048e-02,1.450358180089047488e-01,-4.904983913600734491e-01,4.803042332401753246e-03,1.017735102629288221e-02,8.182971304166298740e-03,5.682866573333740234e-01
2.896955227513491049e-02,1.996764262397043854e-02,-2.507410870815060533e-01,-7.032631185839651085e-04,4.082397180076166587e-02,-7.438505124337223447e-03,2.845495045185089111e-01
-1.640204376050773127e-03,8.469887399885044077e-03,-1.317334391759584222e-01,5.244059532769467999e-03,5.116779880350943305e-03,-3.358245019143288324e-02,1.479395329952239990e-01
6.582367587665138853e-02,5.952271387671595471e-02,-4.417848983785582218e-01,-7.709796656320369894e-04,1.575374126886405941e-03,-1.801608051675636542e-03,5.045064091682434082e-01
8.332019243228780403e-03,6.147237655154819125e-03,-1.900643944430581156e-01,-2.599914635718309310e-04,9.780148667523294245e-03,8.301684779876315149e-04,1.980446428060531616e-01
4.286880298163753267e-02,8.982469253569960732e-02,-4.515725902686006377e-01,-6.082399020397422085e-03,9.785120463761322329e-03,1.923963394956442873e-03,5.199071168899536133e-01
9.666123737544912720e-03,1.279910897588146246e-02,-2.163154939737234606e-01,5.909341175016191022e-04,1.026761224671048078e-02,-9.072140049994537395e-03,2.288006395101547241e-01
1.588962028679601068e-02,1.036594531717623113e-02,-2.203122603613482111e-01,-1.650110445442537661e-03,1.360738252377861716e-02,-7.300323673044000795e-03,2.350333482027053833e-01
1.080184327944385125e-01,3.726279721666156397e-03,-4.514683792602885992e-01,3.411902443683224352e-03,-1.991745762216539511e-03,2.475329231195929226e-03,5.153809189796447754e-01
8.746577171733882494e-02,6.151885351942812385e-02,-4.310389458397548834e-01,1.680756502087974813e-04,1.273203848341167592e-03,-3.531401868406769330e-04,5.060356855392456055e-01
8.608629331656489359e-02,6.451645970592848056e-02,-4.336748074265168729e-01,-1.333111363155166200e-03,-3.035284249623087897e-03,-2.398215965117500494e-04,5.093513727188110352e-01
8.476124468540999213e-02,6.474487849772916914e-02,-4.364896484904565166e-01,-1.668743257929768565e-03,-1.872132536610797123e-03,4.005668612960073746e-04,5.115554332733154297e-01
8.430191342970727586e-02,5.917235915818297443e-02,-4.221636045913637614e-01,-1.426319437207415998e-03,-5.930086098619044566e-03,-8.787343184595061002e-04,4.944951832294464111e-01
7.427352137353693262e-02,6.908416902224245870e-02,-4.315888541043023108e-01,-4.392010035470543181e-03,-4.965870613958688409e-03,-1.831409649368205084e-04,5.034188628196716309e-01
7.141560935884089245e-02,6.922104301149079042e-02,-4.432710486322170018e-01,6.746960153062416454e-04,7.773334066096010842e-04,1.451382951750336504e-03,5.136021375656127930e-01
7.837453566861440901e-02,7.282428282958566812e-02,-4.453316820153405686e-01,-2.133688728704235312e-03,-9.767125823761718326e-04,1.574403069336371269e-04,5.209692120552062988e-01
7.788382438191940316e-02,7.057770438088287190e-02,-4.405327800545948413e-01,-3.584331217715761822e-04,-7.210804794920200106e-04,7.991073611396496161e-05,5.148043632507324219e-01
6.268846823517887357e-02,8.478739646517308159e-02,-4.334053058262883340e-01,4.782648949224802513e-04,-4.588162126064135055e-05,-1.983249830855092054e-03,5.075165033340454102e-01
7.972147065782997366e-02,7.009076215464313253e-02,-4.404129481087052933e-01,-2.033393381976026856e-03,2.224968166511272075e-04,-3.605586663806126637e-04,5.153990983963012695e-01
5.099344070022948650e-02,7.381286403860495837e-02,-3.829780004755285461e-01,-4.326327685635289683e-04,-8.880050031276762656e-04,-1.349067914569526856e-02,4.464345872402191162e-01
3.653766740915730116e-02,5.233864610046767840e-02,-3.186494846674572390e-01,-1.195489763976822876e-03,-1.222188720630714960e-03,-2.669786732330169804e-02,3.662881255149841309e-01
6.522408677021082624e-02,6.866255895962566913e-02,-4.439646249252844901e-01,1.526910921565460474e-03,-1.107933712424647886e-03,-6.455516102603481277e-05,5.109270811080932617e-01
8.056069009901339895e-02,5.862317519868681659e-02,-4.157364618053031036e-01,3.600136648458802588e-03,5.096010811251282507e-04,1.198442100560127366e-03,4.857453703880310059e-01
6.874860502034799148e-02,7.838780137877168763e-02,-4.356878846261129090e-01,1.336379641526320950e-03,-1.285618920810653295e-03,1.322644155473759941e-03,5.093398094177246094e-01
6.356735703843166552e-02,8.448978704384571548e-02,-4.320795253474750686e-01,2.175903678836093973e-03,-7.905882449610377284e-04,9.909016176332401029e-04,5.064511299133300781e-01
6.832607310649171928e-02,8.150010717185579567e-02,-4.375360810052135729e-01,2.625152250902193507e-03,-4.097777106076440205e-04,7.628654696612014721e-04,5.125985145568847656e-01
6.697691271610714536e-02,8.008732712249963526e-02,-4.349082108518686485e-01,8.929384634324309070e-04,2.056536192299244755e-04,-4.386804374459618810e-04,5.085701346397399902e-01
5.963934013246818822e-02,8.649181204696415604e-02,-4.284026442611409968e-01,5.802879980441419828e-04,2.669991051379226967e-04,-6.091284684494855956e-04,5.020094513893127441e-01
6.537770957256042181e-02,8.421287031705346204e-02,-4.329390899531826431e-01,2.441324559365791892e-03,-1.181461098793083492e-03,-5.468745529876617092e-03,5.081063508987426758e-01
6.211392137713589445e-02,8.322297925678984187e-02,-4.249489826068188481e-01,2.731325471815423261e-03,-9.735228703952512018e-04,-7.397182952788917618e-03,4.981432259082794189e-01
7.028295359537845011e-02,8.197743869492851720e-02,-4.414523732488148111e-01,-1.213584674338229977e-03,-1.252039335487314074e-03,1.475709956446092644e-03,5.176967382431030273e-01
7.314007110068970752e-02,6.813266438883666676e-02,-4.455394381760334754e-01,3.066794893136229002e-04,-2.885665696300005433e-03,-2.626850977020759887e-03,5.162385702133178711e-01
7.375627078648511192e-02,6.795183495860115941e-02,-4.454274636359683015e-01,1.381026063800501219e-04,-2.384776545953789465e-03,-2.667013381907762989e-03,5.163432359695434570e-01
6.127525032376868186e-02,8.563319305480893151e-02,-4.291708030034400156e-01,3.076189717188707951e-04,-7.238464287760383239e-04,9.441138018825757537e-04,5.030719637870788574e-01
6.456731620042846509e-02,8.207885675003548376e-02,-4.321903025757648509e-01,7.380950307524395760e-04,-2.102503630677060566e-06,-3.052458859692584563e-04,5.057427287101745605e-01
5.933893824296515573e-02,5.877483044757753072e-02,-4.404600249953999902e-01,-9.839401899742901067e-03,1.172253029832473785e-03,-5.705393269882565741e-04,4.998129010200500488e-01
6.567747385874178612e-02,5.673064039272576742e-02,-4.410698956774852242e-01,-3.300097254332709507e-03,2.740171017980410142e-03,2.129979773108971967e-03,5.024021863937377930e-01
7.770273151305762127e-02,6.248741625725082183e-02,-4.461253032343246994e-01,-1.410762582501025526e-04,-3.170057393863313488e-03,-8.378290385418681388e-03,5.166216492652893066e-01
5.381859971358138317e-02,5.700997743462715706e-02,-3.521255111806687044e-01,-6.961286908848347832e-03,4.959672767832690871e-02,-5.615938836416340535e-02,4.278818070888519287e-01
5.560046421044201326e-02,7.292382423004206693e-02,-4.434310859483611700e-01,-1.031115614939881291e-02,1.205966965906955270e-03,2.398040621224464385e-03,5.082499980926513672e-01
5.515627247070525874e-02,6.665239523759211582e-02,-4.458646361054453555e-01,-1.810089190292103051e-02,-1.468319431243470669e-03,3.128012350105655623e-04,5.078421235084533691e-01
6.455512448229280831e-02,6.369896191585963652e-02,-4.434055586994858911e-01,-4.308392834568269825e-03,2.771502089855412080e-03,4.507053272268163324e-03,5.076707005500793457e-01
5.309209227476083259e-02,-1.017986518577128352e-02,-2.361571737330029619e-01,2.587169392596179451e-02,-2.700943270300707952e-02,7.886101261343071711e-02,3.036788702011108398e-01
2.981992415336190416e-02,-7.172049544824338208e-03,-2.336274454434642822e-01,5.039526093321013145e-02,-1.472245739564875464e-02,7.845760645109933762e-02,2.962491810321807861e-01
8.873071383090824771e-02,2.041595135219610724e-02,-4.211923154689610205e-01,-9.989490043825189312e-04,-2.630294341069400622e-03,1.820683266081197724e-02,4.804907441139221191e-01
9.311716123728960848e-02,6.925240423208858798e-02,-4.317134853399512417e-01,1.882176469901311383e-03,-3.689100840650202245e-02,6.132571865436603487e-02,5.280793309211730957e-01
3.624386007689858746e-02,7.994469948508770019e-02,-4.454898297176567712e-01,2.208233151842979580e-03,-5.051294173889872997e-04,3.057393538416549998e-04,5.050197839736938477e-01
7.920715239533329677e-02,6.407337602344365113e-02,-4.481928932358228423e-01,-1.027177087581851922e-03,1.742904509254095038e-03,-7.080828284352189313e-03,5.201547741889953613e-01
7.186746647879729832e-02,7.750819249136531308e-02,-4.458192649879951230e-01,1.059847783734193909e-03,5.216649009842121761e-04,-1.756408306377337664e-03,5.205429196357727051e-01
7.447343439084971872e-02,6.597040301056564249e-02,-4.458366640000784864e-01,-7.375635681260871894e-04,3.148796789435451618e-03,-3.906071085719309798e-03,5.161858797073364258e-01
8.209555236950327739e-03,1.197150966169079345e-01,-4.920151515960162203e-01,-2.694661022404994111e-02,-1.201759860027941038e-02,-3.717544066339813344e-04,5.666110515594482422e-01
7.260299809967726836e-02,7.663887535841343301e-02,-4.461711231445919523e-01,-7.621857401517813033e-04,-1.244366410252703559e-03,-1.009868284262674517e-03,5.208128690719604492e-01
5.929995668685794641e-02,8.418827096401879095e-02,-4.228595962445876877e-01,-2.064643001015679523e-04,1.500519787217186908e-03,3.687764124121687380e-03,4.951212704181671143e-01
7.301418972655943085e-02,7.342756378809769946e-02,-4.433720511077230975e-01,3.404349222630080152e-04,1.143501447038104560e-03,1.541422325595380059e-03,5.166040658950805664e-01
7.238624662065615278e-02,8.014219590549367944e-02,-4.450163498106028404e-01,2.954592870035561633e-03,-7.058869866512655416e-04,-1.164700156884445822e-03,5.213543176651000977e-01
7.518338739375571289e-02,6.633577264655965422e-02,-4.479666490597865591e-01,-7.374428235735946751e-04,2.182218227180735253e-03,-3.917229214922776995e-03,5.188425183296203613e-01
7.084923662572872871e-02,5.848066366066750899e-02,-4.426105835292218904e-01,-2.956069865658191801e-03,2.196340140676908675e-03,-1.399644405457482711e-03,5.074344873428344727e-01
9.551576632671848754e-02,4.222093468088622403e-02,-4.598594546676799122e-01,-3.483482194598715859e-02,6.598446572383677780e-03,8.977851435978453226e-03,5.345055460929870605e-01
7.815723797128340533e-02,6.966055636118395622e-02,-4.362297875239660172e-01,-4.297733079889741285e-03,2.556312602466581218e-03,7.466217021539096063e-04,5.102669000625610352e-01
7.914650309196707978e-02,3.616923707325189752e-02,-4.407457670309475328e-01,-5.411956547666319298e-03,3.309598852684565284e-03,-1.383377258609083942e-04,4.999122619628906250e-01
7.473264915654109775e-02,7.615689784092555259e-02,-4.477359688144539884e-01,1.478439518918906988e-03,-1.379223796684339923e-04,2.483046637356443810e-04,5.231887102127075195e-01
7.329581425948372697e-02,7.584013488948776471e-02,-4.453642101734999748e-01,5.402220033964384369e-04,-7.815709760597648994e-04,-1.609922820926084014e-03,5.199469327926635742e-01
7.345411861339468107e-02,7.583340658755707842e-02,-4.455524257794509224e-01,6.989294493199082548e-04,1.069194912478345577e-03,1.815181058010653919e-03,5.202144980430603027e-01
7.157477099089309958e-02,7.943712907310038207e-02,-4.439564358536540745e-01,2.454277834877555044e-03,3.545419532312956475e-04,7.092031774868565305e-04,5.195262432098388672e-01
6.672840277816208254e-02,8.148413334440343658e-02,-4.403183262072204451e-01,3.629405646851687601e-05,-1.415890272270156234e-03,-5.379085289628786695e-03,5.146734714508056641e-01
7.578123901333758128e-02,6.224898407105783349e-02,-4.435701903162204696e-01,-5.859774206908977684e-03,2.415473241933981541e-03,-9.674065429129366511e-03,5.131103992462158203e-01
7.671487550219269203e-02,6.452767760378624873e-02,-4.475571334755664710e-01,-1.256934553149190864e-03,4.711202491737075484e-04,-7.051683112001703481e-03,5.184350013732910156e-01
6.687921926263698524e-02,8.103521266614160945e-02,-4.401202107297712551e-01,-2.308624995711020585e-03,4.249333659255975434e-03,-1.046032629799934464e-02,5.146108269691467285e-01
6.615955385635391428e-02,7.871544392106047394e-02,-4.324488395766983850e-01,5.470411605631312138e-03,-1.167411656835222467e-02,-1.470174745794273000e-02,5.061378479003906250e-01
-5.057464317794219122e-03,2.167867395909160999e-01,-6.712379851538077258e-01,-5.902969839952101894e-02,-7.609893567120779544e-03,1.707421240728211956e-02,8.076518177986145020e-01
1.686996151125081944e-01,-3.781947502279275897e-02,-5.527350196469333898e-01,-6.738760532580403972e-02,-9.230831407305961633e-03,-1.801200570708019755e-02,6.549658179283142090e-01
1.628066405144961704e-01,-4.298397712577205210e-02,-5.077656412687585608e-01,-1.802064683374057438e-02,-3.827634556685601160e-04,-4.587044852061554490e-02,6.010876893997192383e-01
9.680309960945210346e-04,1.546427877546415197e-01,-5.414288210528006573e-01,-5.415852127098390312e-02,-5.026685286058603375e-03,-4.868060859066401791e-03,6.403977870941162109e-01
1.297847406039951412e-01,-4.936288121947080693e-02,-4.126159714490119090e-01,-6.640883004393402511e-02,-2.291235693363254805e-02,-1.194762426574082492e-01,5.354919433593750000e-01
6.765636374794209429e-02,6.851077930540952488e-02,-4.452930906104852760e-01,-2.264286530842061183e-03,1.204374053083818834e-03,-1.996452921275964059e-03,5.134080648422241211e-01
4.246421621556245585e-02,6.761700291228528448e-02,-4.462182525405526401e-01,-2.575662792175800048e-02,1.694006282893764257e-03,2.266438907586382310e-03,5.037352442741394043e-01
5.740707053384092040e-02,7.179370442542423736e-02,-4.451078731735415572e-01,-4.858683895190758252e-03,2.900647877464149638e-03,-1.900883754683562897e-04,5.099548101425170898e-01
5.599866171138140336e-02,6.701115696659440402e-02,-4.425624909048984645e-01,-1.319868623150418285e-03,-1.408812308773662409e-03,-3.233586386459064935e-03,5.041998028755187988e-01
5.961727146525536147e-02,5.808469351043085704e-02,-4.381430777828189682e-01,-5.763020604046050367e-04,-2.006706134005596361e-04,3.631335821895464305e-04,4.969973564147949219e-01
7.206790480005545452e-02,6.695208930810842007e-02,-4.439221095519073068e-01,4.319238837803061719e-04,3.614429073147082741e-03,-1.722451777521078614e-04,5.134900212287902832e-01
8.746122298069683443e-02,4.361988434883096177e-02,-4.472714294452390105e-01,3.216732264954715969e-04,-7.026596878439991291e-03,-7.336345408326365967e-03,5.145168304443359375e-01
1.002032535207137420e-01,3.155376633183124002e-02,-4.510612277076644361e-01,-4.172964880127374120e-03,-5.131890663459512218e-03,1.146171307478541582e-02,5.208517909049987793e-01
1.129302249230337007e-01,4.203322940586320944e-02,-5.136650318152548023e-01,5.515620922511456706e-03,8.989845529457717033e-03,2.071187546426362172e-02,5.956886410713195801e-01
7.123802469218748490e-02,7.822580611066662359e-02,-4.413222345097458366e-01,-1.685372512076944735e-03,7.292939343687507726e-04,-4.574288405779730268e-03,5.161602497100830078e-01
7.183011830030244793e-02,7.386747958901970779e-02,-4.297856786687007102e-01,-7.828819993385921147e-03,4.010488055429355971e-03,-4.051996912959235538e-03,5.029174089431762695e-01
7.483675978950324326e-02,7.295277749721770788e-02,-4.384066447158798674e-01,-4.389283907904622042e-03,1.533914549197230815e-03,-2.876614408344179644e-03,5.123915076255798340e-01
1.356121425344233300e-01,3.934917310000771162e-02,-5.134008784375925227e-01,1.616933741912840103e-02,-5.616750505326333076e-03,1.190617564299096924e-02,6.077111363410949707e-01
1.357866562981717706e-01,2.990203144294184545e-03,-4.836748394059528500e-01,4.509304128793345350e-03,-1.010963651307905317e-02,2.007593974652237614e-02,5.662878155708312988e-01
7.308163803144784865e-02,7.237874404179917009e-02,-4.469603278562117588e-01,3.028693205915021741e-04,-7.435030824425132787e-04,-7.671113147983169792e-04,5.196944475173950195e-01
1.068366822951483108e-01,1.365755436465093675e-02,-4.565432137853329131e-01,-2.462842016033041348e-04,-5.378967072384161288e-03,-9.874503148219632501e-03,5.234152078628540039e-01
7.831152066635735376e-02,8.133463878862726149e-02,-4.374081258180398946e-01,9.798529672396650778e-03,6.476966498785416415e-02,-4.618421193235051903e-02,5.355439186096191406e-01
7.212188098156552263e-02,7.961140306755604135e-02,-4.407683324897399557e-01,-2.642966429250802069e-03,9.832469661326568525e-04,-6.532922217829573858e-03,5.168226361274719238e-01
6.426452185387460103e-02,8.109979205561859694e-02,-4.456413318788787215e-01,4.440313534205790483e-04,5.093552813825307814e-03,-1.015720891226962186e-02,5.189024209976196289e-01
5.986159199274429521e-02,7.184425519986503694e-02,-4.102525048314768497e-01,2.375309302074062393e-02,1.835548813594015463e-02,-2.392543978120038536e-02,4.808375537395477295e-01
6.442798175463296251e-02,3.769005001043482239e-02,-3.606930774631529890e-01,-5.745190415964242930e-03,1.027313394874319625e-03,-2.884572117034269606e-03,4.125568270683288574e-01
6.718324677772102849e-02,8.092148641025084799e-02,-4.411512393944325150e-01,-1.247455693482107204e-03,-2.644991597839530233e-03,-6.327320552109797977e-03,5.154823660850524902e-01
7.533387089642021306e-02,6.735438931639384230e-02,-4.291043566771037820e-01,-4.367211606068070913e-03,5.493796195372082670e-03,-1.195749268159171375e-03,5.006480813026428223e-01
6.634890483259270333e-02,4.886376632713831936e-02,-3.736451372893834777e-01,-8.127497678489815566e-03,-1.508651315307416854e-03,-2.989721248193008551e-03,4.317857623100280762e-01
7.076175998693867708e-02,5.046617572201020363e-02,-3.843323259043596729e-01,-8.967479927442775778e-03,1.146623739760807038e-02,-9.355929029383531007e-03,4.463008046150207520e-01
7.206061981984362985e-02,7.945856701955730794e-02,-4.437497149306244837e-01,-7.355705511618380724e-05,2.828857986978937106e-04,-3.345791586631426898e-03,5.195813775062561035e-01
1.136618006565365269e-03,1.129536469560418754e-01,-4.533309085144887618e-01,-4.382753607340794492e-03,-2.840725519301776601e-03,-4.243343035297349360e-03,5.196121931076049805e-01
1.764861160377216576e-02,3.867761271926301037e-02,-2.783221034819155504e-01,-5.272656508731621630e-03,-1.329099558924067871e-03,-6.092122944543632707e-04,3.071720600128173828e-01
7.195803956721644190e-02,6.235997832507803040e-02,-4.053990843972774538e-01,-7.572319702923073145e-03,1.061455885842479789e-02,-2.630750741291931327e-03,4.731923937797546387e-01
7.134191424982505580e-02,7.701183403348751955e-02,-4.433469689292831029e-01,1.068039685663349243e-03,1.839256871125300417e-03,-2.420679836064633557e-03,5.175772309303283691e-01
6.667642802985768169e-02,8.260687945216649286e-02,-4.350886692484810525e-01,-1.336145644463395147e-03,1.609105218766399524e-03,-2.488732212778948984e-03,5.099480748176574707e-01
8.222506558052750103e-02,6.167249951058842439e-02,-4.214026955025368393e-01,3.486342072515592402e-03,-9.972803021037411966e-03,-1.460958997165810042e-03,4.940179288387298584e-01
8.388885971759796334e-02,6.812707562098316294e-02,-4.382853611858184006e-01,3.590928215713582589e-03,-8.028323974170151200e-03,-1.809181431014816378e-04,5.146999955177307129e-01
7.178091298962871458e-02,5.675058085305462185e-02,-3.949731037566766578e-01,8.922931093217846901e-03,-9.638932147058010963e-03,-3.613144393780365945e-03,4.600287973880767822e-01
8.535743921417388025e-02,6.444645796153714024e-02,-4.357166852043433680e-01,3.643680577334810870e-03,-1.008766483790415371e-02,-5.810736066551084027e-04,5.112782716751098633e-01
5.550920455556007660e-02,6.047101508237620604e-02,-4.382298792421939204e-01,3.602367661652327094e-03,-3.922447512684390947e-04,1.028023566549568659e-04,4.962783157825469971e-01
6.223628788107968268e-02,5.519342496735640813e-02,-4.405938634353059880e-01,4.277367204424046936e-03,1.619970221741990962e-04,-1.117414298385510912e-03,4.994047582149505615e-01
6.861626287161831650e-02,7.654619199767753734e-02,-4.314574428815772245e-01,5.136509887004253073e-03,-2.966796534936798693e-03,-1.703945697893809695e-03,5.041987895965576172e-01
5.533368177417261058e-02,6.042265897051621315e-02,-4.379545964742304620e-01,4.312619464188626080e-03,-4.519162571834435559e-04,-6.156437640698975491e-04,4.959103763103485107e-01
6.850880633510628148e-02,7.950892847451668244e-02,-4.404941744874734111e-01,8.259834453929501379e-04,6.977110637876238663e-05,-4.140958533163165665e-03,5.146431922912597656e-01
7.154063396126114638e-02,7.266691859829327305e-02,-4.474340537604131751e-01,6.131180758703606197e-04,-6.863094625879452354e-04,-4.217928227235232495e-04,5.195416808128356934e-01
5.932946268735747597e-02,5.803585302935881929e-02,-4.383904197620841492e-01,5.885057235584302028e-04,2.274656652651567564e-04,-1.998054284197336105e-04,4.970756471157073975e-01
6.811724471773636380e-02,9.641772751920490991e-02,-4.611478026609659997e-01,2.280491162751834520e-03,5.544382301301256644e-02,-2.499644583916556684e-03,5.524104237556457520e-01
6.571862196849659332e-02,8.199007888606602013e-02,-4.353402175056236278e-01,1.316024063212986551e-03,9.677659117587101862e-04,-6.069325909402001167e-04,5.093984603881835938e-01
7.548418603713155650e-02,7.488491135063835014e-02,-4.457785138126507674e-01,1.517908050335952091e-03,-1.026144703134229327e-03,-2.015516405912510058e-04,5.209730863571166992e-01
5.677849555042885354e-04,1.679950452263792027e-01,-4.995921798692768423e-01,-5.862511758638423720e-02,4.309249939380056793e-02,2.051392081019480160e-02,6.156917810440063477e-01
6.414379152922158878e-03,1.124144626823106730e-01,-4.500148340483893228e-01,-8.393104979480800476e-03,-3.927971704724457329e-03,3.107698919037361342e-05,5.178830027580261230e-01
-1.311730951220622943e-02,8.546310697783637833e-02,-3.313200210429992909e-01,-5.842761515777450398e-02,9.673463604198397070e-02,7.832459003379914353e-02,4.461591243743896484e-01
6.390173910836480231e-02,7.701429863097716821e-02,-4.374846588953809068e-01,-4.515540320634040330e-03,-9.589623913093382832e-04,6.438885288451138070e-03,5.082548856735229492e-01
5.905453994478704338e-02,9.403548038862633018e-02,-4.275673242020044396e-01,3.927782380217913899e-03,7.874680369613458464e-02,-1.110990257672505969e-02,5.235138535499572754e-01
3.793222671853244132e-02,9.254278295208481775e-02,-4.450217622657614558e-01,-7.606753894200983176e-03,-5.589043528140887063e-03,-9.149759986441892076e-03,5.129519701004028320e-01
7.798697834561857389e-02,5.637724449570175045e-02,-3.795549391197055034e-01,-6.258093899833893324e-03,-9.731974504627097927e-03,-1.153075027917812023e-01,4.901156127452850342e-01
3.773994973563221667e-02,5.883683669487707601e-02,-3.438472353906606993e-01,2.529723110616387792e-03,6.890471769721417256e-03,-2.716287843744131028e-02,3.955745995044708252e-01
4.706467675180492360e-02,7.465184471302355185e-02,-3.855901694666345469e-01,2.894202660475073303e-03,-5.442410079360383672e-03,-1.632038177647957347e-02,4.481071829795837402e-01
4.451374279669065293e-02,6.630586268036903208e-02,-3.726773397991457459e-01,7.467496477993194187e-03,-9.290142513891536460e-03,2.005032209968447918e-03,4.290140271186828613e-01
5.009037467625318540e-02,7.283124003117133483e-02,-3.781292595577319671e-01,-2.136631271377825107e-04,2.533465980425716677e-03,-1.717643800003657364e-02,4.410575628280639648e-01
3.810632953774700793e-02,5.190686490334797676e-02,-3.188219718033336592e-01,-3.731033514814527732e-03,4.886587152034347313e-03,-2.598472092144272702e-02,3.669510781764984131e-01
3.641613321632022893e-02,5.286708010692225956e-02,-3.231364372326369083e-01,5.395446963857450373e-03,-5.405115770663626931e-03,-3.294556554076372157e-02,3.726860284805297852e-01
3.762728535992503065e-02,5.482205135160486686e-02,-3.324737164362427388e-01,-4.452987275061367177e-03,7.474162153704416722e-03,-2.789801305569931597e-02,3.823561072349548340e-01
6.650256163165607637e-02,6.664750060371246732e-02,-4.099325352052172744e-01,-9.047473791726465958e-03,1.314680110192152813e-02,-6.392132511219192001e-03,4.774370491504669189e-01
6.806656883647618783e-02,4.946745360629446753e-02,-3.220378314608561277e-01,-3.779051474895996944e-03,7.159635714246829347e-03,-4.184188456662323030e-02,3.882275521755218506e-01
7.356350606716760554e-02,7.301762040065684634e-02,-4.381350658943426457e-01,-5.034614723750083926e-03,1.489227200385587549e-02,-3.131297206050965686e-03,5.121788978576660156e-01
3.495122775328711462e-02,3.399391451957846366e-02,-2.860468725120478561e-01,-8.353587621244376246e-03,1.697256846939664693e-02,-2.717643789784195824e-02,3.256111741065979004e-01
3.134327272533408981e-02,3.042315571248221939e-02,-2.669569267505927934e-01,-7.963786588824621482e-03,1.921402053241244925e-02,-3.058701443716423107e-02,3.046537041664123535e-01
3.048686480273445076e-02,5.271999053204168284e-02,-3.162520944336066897e-01,-4.250284662404712685e-03,8.199111830313064644e-05,-2.746371694632978103e-02,3.615913391113281250e-01
3.391453366678795489e-02,4.877567499182494659e-02,-3.035912425805675774e-01,-4.055847946094186945e-05,5.075444854530092656e-03,-3.870608828053784950e-02,3.517363965511322021e-01
6.913162085938029389e-02,6.745645572971631365e-02,-4.142907924223842020e-01,-9.636842768444328633e-03,-1.762085807265771848e-03,1.548602400613974120e-03,4.828926920890808105e-01
2.704827335869827709e-02,3.073039269332494827e-02,-2.650773937338960495e-01,-9.053969416702068937e-03,1.199940524050466598e-02,-3.191995714037208082e-02,3.002684414386749268e-01
7.436597683179096974e-02,7.703827718251549106e-02,-4.470887145640676796e-01,-1.419418264348002454e-03,-3.572125617480564181e-04,-1.306000565211633659e-03,5.228070020675659180e-01
6.206301489680637884e-02,8.237037016388579214e-02,-4.250536537310296570e-01,2.589792376186603184e-03,1.987305419809369533e-03,4.731491367667756479e-03,4.976808428764343262e-01
6.438701806022598118e-02,8.473651485065353262e-02,-4.336155432082379191e-01,-4.077466210450331717e-04,7.800987558954926944e-04,-3.184331841917170842e-03,5.085150003433227539e-01
5.830539725428740550e-02,6.921777186763578005e-02,-4.015963983771725365e-01,9.639478846749581845e-03,-1.095925199487409265e-04,1.122166869862091390e-03,4.657573699951171875e-01
6.172578845387424740e-02,8.713877374113893071e-02,-4.318234891501304129e-01,-1.268201496110628052e-04,4.936851461567134686e-04,-6.371273325688963859e-04,5.067359209060668945e-01
6.289393190529085631e-02,8.544141053093309846e-02,-4.349685516022272491e-01,-7.470545386261772227e-04,-1.145642597435387287e-03,-3.443466600856372965e-03,5.095509290695190430e-01
6.270828764167704628e-02,8.603106361764556453e-02,-4.332060483867880007e-01,2.121442928570330295e-03,-9.619665208248132614e-04,-1.174665611106372187e-03,5.079975128173828125e-01
6.397803646815924949e-02,8.097078501433013775e-02,-4.291467399486352807e-01,-2.703627576036984827e-04,-1.394802561115619029e-04,2.258184240372498701e-03,5.018525123596191406e-01
6.604192815242493353e-02,8.408765296306999759e-02,-4.355868364929493808e-01,2.830584613681045355e-03,1.859756392099793992e-03,3.722734347995966357e-03,5.109650492668151855e-01
6.474251044425805013e-02,8.483024472209715894e-02,-4.355779942181249864e-01,7.887674371509401268e-04,-1.150920586386245840e-04,-2.318654927105498996e-03,5.106784105300903320e-01
6.621349769156928411e-02,8.385068210337301431e-02,-4.358240200565026146e-01,5.713205747633356112e-03,1.598260739256114008e-03,5.186883987329801021e-03,5.112666487693786621e-01
6.329367321652651368e-02,8.254841114763022958e-02,-4.276066444447901849e-01,4.389758053035128921e-03,-6.390232613329562082e-04,5.772037018189539979e-03,5.009641051292419434e-01
6.816538036788483135e-02,8.221859196284600491e-02,-4.385991350607949535e-01,2.584631380226509560e-03,6.770744939274906532e-04,-3.041327604239881357e-04,5.139563679695129395e-01
7.613249728026288965e-02,7.458651204349744934e-02,-4.452547693136917895e-01,4.382103263945275398e-03,2.394582146849942063e-03,1.839688396434795929e-03,5.206975936889648438e-01
6.766780683227172077e-02,8.275894939247530058e-02,-4.402945587527575255e-01,1.468545649103847849e-03,-1.051714126541169504e-03,-1.276228874829568507e-03,5.156878232955932617e-01
7.957365238997055057e-02,7.113693025337231024e-02,-4.404503974707658642e-01,4.024258449171058162e-03,-3.034914968673769770e-03,-7.656112035371199099e-04,5.159329771995544434e-01
7.111888383442360739e-02,7.963055760071527378e-02,-4.450298718319873337e-01,1.280007082338619753e-03,-1.122582254671033401e-03,-4.898713274237221610e-06,5.204651355743408203e-01
7.592859798738810229e-02,7.476001534967108286e-02,-4.447369511511028439e-01,3.294699624484213364e-03,-9.444629681179438551e-04,5.667069206066018472e-04,5.201170444488525391e-01
7.949851998152804300e-02,7.197867614527816982e-02,-4.435161419202455768e-01,2.342976890527090957e-03,6.499326327078128835e-04,-1.629740362406750814e-05,5.193126797676086426e-01
2.121367757953704913e-01,7.973272487287991206e-03,-7.011932791536177323e-01,1.447274692180930758e-02,3.369127093806077722e-02,-4.275707687713954652e-02,8.360047936439514160e-01
7.736636259842494256e-02,6.257016306813906192e-02,-4.202142961552308154e-01,6.120230357246518767e-03,2.808959268458922172e-04,1.073119664812327567e-03,4.904683530330657959e-01
7.148254939682227582e-02,7.111455973512237350e-02,-4.471909683104994260e-01,-6.344697253014928290e-05,-1.101831667209075263e-03,1.898317216857838387e-03,5.185035467147827148e-01
7.367107805032355183e-02,6.897487148737024842e-02,-4.468019634583513811e-01,6.712562944392707742e-04,-4.007416359236881426e-04,-4.017492694092890588e-04,5.181431174278259277e-01
7.611009514900235473e-02,7.569743663371447662e-02,-4.495342997529344076e-01,1.564487046202296802e-04,-4.413769375021203657e-04,-1.240171869778532199e-08,5.254387855529785156e-01
7.192428056101740630e-02,7.526388587834564881e-02,-4.473543626863787370e-01,1.609928609926049498e-04,3.144479847737659712e-05,8.453753296837122856e-04,5.209586024284362793e-01
7.337479568661631202e-02,7.332766282347291664e-02,-4.468686333315725068e-01,-1.728391527607612242e-03,-1.552679596930131578e-03,2.361649805635513983e-03,5.202515125274658203e-01
7.228137561105615894e-02,7.458986609728601724e-02,-4.477266410739375035e-01,-4.811196243080085146e-04,3.393920522121124877e-05,-5.669807174296282067e-04,5.211676955223083496e-01
8.068467973956597317e-02,7.022517384628776393e-02,-4.437155542246092321e-01,4.111192810843605425e-03,-6.339867090188683676e-04,1.226977243490943309e-03,5.193038582801818848e-01
8.236462629248136880e-02,6.827094433847380461e-02,-4.372725890622168321e-01,2.779907620093482502e-03,1.052191937311136756e-03,-9.250811102192256887e-04,5.127640366554260254e-01
7.872385369004525346e-02,6.827582077299304553e-02,-4.340494578501678524e-01,4.087570480013809522e-03,-1.711794179841559385e-03,-1.323009985896217953e-03,5.076931118965148926e-01
7.500858878056129719e-02,7.347504195521573078e-02,-4.397636321583454078e-01,4.364170387409621425e-03,-2.048314941235942349e-03,-1.936291105617608983e-03,5.140859484672546387e-01
7.623071578176243701e-02,7.276048203944604498e-02,-4.433091995732096335e-01,1.373519016919480269e-03,1.303876752513441787e-03,1.720411424378432601e-03,5.178324580192565918e-01
8.153811683382933273e-02,6.940496068709459121e-02,-4.409948483456612167e-01,2.667856488958490584e-03,-1.967643407352045581e-03,-1.018447623762849114e-03,5.166081786155700684e-01
3.555944553489515103e-02,8.901308514240710568e-02,-4.538935290920504406e-01,2.247271632874170075e-02,2.714015405857050835e-03,4.877172452239650173e-03,5.198010206222534180e-01
1.043570242761568678e-01,4.586356404834762701e-02,-4.754707021561838109e-01,2.586787478880688690e-02,-1.296880248096047954e-02,4.705836904475035887e-02,5.611248016357421875e-01
5.194118305426095872e-02,8.225896483556538463e-02,-4.455270195268576927e-01,5.771085880462408294e-03,-1.872244150638729910e-03,-5.559966402423749659e-04,5.134075284004211426e-01
7.495439366506997936e-02,5.755207164208597792e-02,-4.431906122997162911e-01,5.425868034267938671e-03,1.676677499884834596e-04,4.508094383611674740e-05,5.097534656524658203e-01
3.477591881725519696e-02,8.248046692608979047e-02,-4.453174996894444515e-01,9.948303276759657213e-03,4.388433553402966425e-04,-2.700609797638902493e-03,5.059520006179809570e-01
4.510331696648062216e-02,7.742239705059433819e-02,-4.454731183689883967e-01,4.210511952443619747e-03,3.673315353866541452e-03,-5.299747809493142274e-03,5.076836347579956055e-01
4.700118940573222437e-02,7.272896824485894363e-02,-4.447257892342867946e-01,6.309452065231029028e-03,4.450482386155063183e-03,-4.811332257029255280e-03,5.053282976150512695e-01
5.903465893389495123e-02,8.279020452766894245e-02,-4.208969211623057594e-01,-1.914274605907617579e-03,1.149392648070912042e-04,4.303266731691765372e-03,4.923070967197418213e-01
4.770747217136278584e-02,6.531428552697046697e-02,-4.406843155423739722e-01,8.716181859206147131e-03,2.319317539732029462e-03,-2.637755587112722462e-03,4.976951777935028076e-01
5.830249582535967923e-02,6.898805922570810933e-02,-4.425023296747610524e-01,4.884097537628706749e-03,2.165790684962410045e-03,-2.592325382595012020e-03,5.063366889953613281e-01
9.120297996032442067e-02,7.262924371309931182e-02,-4.327780518539823817e-01,4.614274251483061612e-03,2.086841358957685147e-02,-5.621009450015632819e-02,5.253740549087524414e-01
1.017103135002917769e-01,2.417474324724405710e-02,-4.555293509862078927e-01,-1.720913676743447002e-03,3.582458854047257564e-04,1.367882727600521669e-03,5.228162407875061035e-01
1.999774166641618556e-02,9.650061590885922191e-02,-4.505956643784047033e-01,-6.460042835295491670e-03,-1.575582295803138128e-03,-3.220731907476806922e-03,5.132994651794433594e-01
8.341981958783781237e-02,5.909776262077376385e-02,-4.531416682497161896e-01,-1.511968519592998004e-04,-3.656944517524119559e-03,-2.087748741185267709e-02,5.261058211326599121e-01
1.086895077832313317e-01,4.061424967708926470e-02,-4.436067577867615075e-01,1.640200139299168719e-02,4.581752717800886832e-02,-3.579213886371940961e-02,5.319922566413879395e-01
8.071135834574771906e-02,6.373853572554680214e-02,-4.318966133380581773e-01,-3.095393109534605881e-03,-1.777959812655089669e-03,-4.376889703627354078e-02,5.100392103195190430e-01
4.381106004330881376e-02,3.592409121588149845e-02,-3.091221873862598502e-01,9.823300335064344413e-03,-1.696463452652198847e-02,-3.265420978567160071e-02,3.552355468273162842e-01
3.629558138587156424e-02,6.101504120584619328e-02,-3.077223410355218736e-01,1.455973386271308678e-02,-3.248117054437229395e-02,-5.833523694159651468e-02,3.761294484138488770e-01
5.478547631809441154e-02,5.556723336433908034e-02,-3.615007414571353994e-01,5.262375819976433666e-03,-3.163781458417478515e-02,-1.210898797806996864e-02,4.208872616291046143e-01
4.462611770997265692e-02,5.280716115094094554e-02,-3.379974518906910808e-01,9.833913227932348025e-03,-8.107542736185519364e-03,-1.991607597134156804e-02,3.889411985874176025e-01
7.682626083157187424e-02,7.382672638037651724e-02,-4.485798521457941002e-01,-9.042711231067213258e-04,-2.708974764787057529e-04,1.017878124227310135e-03,5.239183306694030762e-01
6.355997523662354487e-02,8.048160782670618629e-02,-4.301839082206060927e-01,-1.501597303070417852e-03,5.227689130052761790e-05,-5.904848287844353472e-04,5.024262666702270508e-01
6.063310756250514522e-02,6.351446771776406153e-02,-4.412093502848675186e-01,1.289883380955327745e-03,3.000441795896519222e-03,2.057665778981082681e-04,5.033212304115295410e-01
6.317683771571747098e-02,8.460277216228484498e-02,-4.323031751966066594e-01,-2.378493432177720447e-03,-1.425285383419251845e-04,1.012272730693602454e-03,5.065528154373168945e-01
6.410606076832187084e-02,8.355466268726294277e-02,-4.349723795966087825e-01,-2.108124833528893325e-03,1.185342580573646757e-04,-1.497357725457629024e-03,5.091012120246887207e-01
7.376740263985168133e-02,7.831704054292312756e-02,-4.461281556479432808e-01,-7.659177928344505087e-04,8.608502231728090356e-04,-1.272780725369414322e-03,5.221937298774719238e-01
7.417325100548932681e-02,7.584922168681185184e-02,-4.485311285849308272e-01,-3.748354594353199868e-04,4.410098561370405664e-04,3.957940455255391614e-04,5.235458016395568848e-01
6.293361529951410627e-02,8.505446661156731980e-02,-4.338145360082779067e-01,-3.214803182260059494e-04,4.124825317017908710e-04,-1.960775722256572363e-03,5.081819891929626465e-01
8.326036504232675606e-02,6.123334444577308022e-02,-4.313087315118549481e-01,2.262726669370753764e-03,5.818671089762560318e-03,1.810402957679412353e-03,5.040425658226013184e-01
8.121410829093195227e-02,6.444780256988558165e-02,-4.315253493787782890e-01,2.382957527178639935e-03,6.345620430237965647e-03,1.223694711390789372e-03,5.047062635421752930e-01
8.106319285505683703e-02,6.446319663348018536e-02,-4.304756547600352978e-01,6.110871829271623083e-04,1.360023805603526514e-03,6.160764942202235717e-04,5.034518837928771973e-01
8.484799499065875938e-02,6.424011120167999467e-02,-4.344818539922308820e-01,1.525955024342730152e-03,-9.134408038912077881e-04,8.333985289270364524e-04,5.093500614166259766e-01
6.770336017898936909e-02,6.909544352489221941e-02,-4.435844304521551762e-01,-2.212038725735281271e-03,3.596610498303447635e-03,1.626438222805786857e-03,5.120452046394348145e-01
7.344750063934152307e-02,6.893743268382157563e-02,-4.459129926437687685e-01,3.290374778723876171e-04,1.260457369540290496e-03,3.798766617332499217e-04,5.171255469322204590e-01
7.233782471718688822e-02,7.724552511242435693e-02,-4.436925708145862957e-01,-4.278485527234530614e-03,-1.261437602949342599e-03,4.043636485683321444e-03,5.186065435409545898e-01
6.512221614735008712e-02,6.577541160893868311e-02,-4.425706045885439144e-01,-1.095525934357176372e-05,1.742763456227886237e-03,1.659439340490174216e-03,5.080368518829345703e-01
6.494228425751252809e-02,8.102679272168883395e-02,-4.332393604192092962e-01,1.344661589777690911e-03,-4.839500287246895375e-04,-2.710622009472432484e-04,5.064218044281005859e-01
7.067733481871510404e-02,6.952274082884130069e-02,-4.456066098243141038e-01,-4.259890539070786608e-04,1.699550543852862460e-03,3.754492181652771066e-04,5.157169699668884277e-01
6.792818446871798366e-02,6.961296842848943567e-02,-4.449188460948658719e-01,9.470756095497458778e-04,-9.053822849470458166e-04,1.431518079496307003e-03,5.137025117874145508e-01
7.682033480625730104e-02,7.514605991479897384e-02,-4.482106217292219363e-01,-1.091706887230600850e-03,-1.265979328461544831e-05,2.521448397174661784e-04,5.241994261741638184e-01
7.090768514891726548e-02,8.256673855666823991e-02,-4.436506434742992222e-01,-1.185987937153008083e-03,9.696898141408542664e-04,-2.181987958551365701e-03,5.205062627792358398e-01
7.555983679218078453e-02,7.691089052327015896e-02,-4.486495286103155955e-01,-1.364101017274155139e-03,2.138191139539428467e-04,4.418759036784327505e-04,5.248922109603881836e-01
7.621780812724279763e-02,7.594144831593510614e-02,-4.486099410974627166e-01,-7.797822120064027990e-04,1.044597418130543401e-03,-1.232335834532430395e-04,5.246945023536682129e-01
7.656952153959312168e-02,7.581300306262545030e-02,-4.496192619665125290e-01,-2.649992292515501724e-04,-3.741700867090022868e-04,1.781002061894838043e-08,5.258115530014038086e-01
7.606098436903305227e-02,7.445979372508990113e-02,-4.460596980321534510e-01,-1.903884231742183387e-03,-1.268481535168366125e-03,3.912876319267586246e-04,5.213374495506286621e-01
7.551923980234304112e-02,7.621169319164364242e-02,-4.472488216962444141e-01,-1.782493762140489619e-03,-4.844205340409447674e-04,7.543868697933701515e-04,5.231260657310485840e-01
4.118714075475565783e-02,7.412639805728674092e-02,-4.578991846675370958e-01,2.905771370095536904e-02,-3.552586048467252285e-03,1.077446887570999252e-03,5.188314318656921387e-01
7.353720600328439438e-02,7.559047719863096204e-02,-4.367722242303359037e-01,-8.376635249689613066e-03,1.135021841168501119e-03,-1.353184217122399384e-03,5.115541219711303711e-01
8.403354694064399388e-02,3.180883205313780882e-02,-4.446436811590538940e-01,6.662045956265218172e-03,2.150521663457450727e-03,-5.995649178299706193e-03,5.048483610153198242e-01
7.471867841502094487e-02,7.560588731451395317e-02,-4.460492393193706828e-01,-8.338812968415629072e-04,3.143069698480610010e-04,-1.823354404055477348e-03,5.212239623069763184e-01
6.482106871045029139e-02,6.961679461536568470e-02,-4.441152960031253261e-01,-9.030168933370314940e-04,8.320755412526819337e-04,2.645401904746337227e-03,5.113760232925415039e-01
1.671386710081920746e-02,1.589386336126233368e-02,-2.307971187689833725e-01,3.971832089366268519e-03,1.886299628861039116e-04,-5.210147810721564793e-04,2.471996098756790161e-01
6.421897749947344525e-02,6.289788623859746131e-02,-4.418435975252367753e-01,-5.305280759673525366e-03,1.202576329415068696e-03,2.967010636709390033e-03,5.055172443389892578e-01
6.094241723667492838e-02,6.470556774686908597e-02,-4.413189718014449148e-01,-6.155098029847881234e-04,-9.665964126234197120e-04,1.530667890563494789e-03,5.041643977165222168e-01
6.063464633698398276e-02,6.154262914882574487e-02,-4.397436480295526806e-01,-2.751102745527254033e-04,9.047698488847020441e-04,1.477240667295917631e-03,5.008420944213867188e-01
1.136418298536165938e-01,1.517407324479344566e-02,-4.599482038680756113e-01,5.109475502579315445e-03,8.020684408918288266e-03,1.675300841065589103e-02,5.322918295860290527e-01
8.035246677995416809e-02,7.128544237570233477e-02,-4.452599765572223811e-01,1.453433815729724288e-03,1.790728901937856977e-03,-1.460280211867634979e-03,5.211595296859741211e-01
7.360747571734513328e-02,7.537716508929331871e-02,-4.411192989824455069e-01,3.477450956159510928e-03,-1.735069617788206333e-03,-1.643705141994023173e-03,5.156657099723815918e-01
7.056695570415161267e-02,7.891416928125510877e-02,-4.415760527288121184e-01,5.407207805524717921e-03,-7.450154210894903385e-04,-5.812102407862102795e-04,5.164547562599182129e-01
6.210132259527745280e-02,8.676976548005124745e-02,-4.319113895416147875e-01,1.755836506763353651e-04,1.354001080060571259e-04,4.335102093202430657e-04,5.067980885505676270e-01
7.906800897151403107e-02,7.134286444208035038e-02,-4.407337897713452524e-01,1.828439720454391303e-03,3.740563980755956617e-03,1.630557031362471574e-03,5.160407423973083496e-01
6.906291116034798949e-02,8.214014456122659125e-02,-4.410451327383593245e-01,4.287605772657372867e-03,9.280066344035240626e-04,-3.161693059941210558e-03,5.168556571006774902e-01
8.095021236252208929e-02,7.088263494388219454e-02,-4.389978924407066940e-01,1.827388985501482606e-03,7.197287402111744205e-03,1.429970845237431721e-03,5.151546597480773926e-01
6.897017029359089890e-02,6.549259063195431163e-02,-4.447881365642065155e-01,-6.113799652645618594e-04,3.014871874683961350e-04,-3.031006581845456516e-03,5.120566487312316895e-01
1.596795304549536443e-02,9.810659455552192543e-02,-4.819998099308239192e-01,-5.891247175743964670e-02,5.508860087820116819e-04,7.117163966892233948e-03,5.533407330513000488e-01
8.433447777611041696e-02,6.657722813274516427e-02,-4.403481859028004486e-01,1.766916875677859971e-03,3.508235620201854022e-03,-1.512141594531434116e-03,5.160847306251525879e-01
7.047089595385636063e-02,7.791385656336810572e-02,-4.387224200478200831e-01,4.288246684240161824e-03,6.696383376098793581e-04,-8.459913819469944704e-04,5.130124688148498535e-01
5.271527261329647662e-02,7.665253864222937308e-02,-4.433981607821460558e-01,-3.099990181617723849e-03,7.413787262277411402e-04,-1.564700167727310154e-03,5.085420012474060059e-01
6.150476151307213146e-02,8.563859875504842289e-02,-4.475293732823233950e-01,1.165082872397744766e-03,9.896262204721719899e-03,3.566735951432424296e-03,5.218421220779418945e-01
8.154002876703686509e-02,6.639883967692369882e-02,-4.345676841249169198e-01,-7.008762515403505226e-04,9.597131609429081483e-04,6.037565570722786034e-04,5.087113976478576660e-01
8.486860237644014426e-02,6.420118404427521686e-02,-4.348250530303916506e-01,-2.062780625719406579e-03,-6.360104247459156569e-03,-6.258211750713153386e-04,5.098070502281188965e-01
8.041998369151598380e-02,6.950316371085421552e-02,-4.442948413670378960e-01,1.224641230960461314e-03,2.961846239032386949e-03,-2.028215996132644999e-03,5.193840265274047852e-01
8.484178382731438761e-02,6.102827053311915551e-02,-4.317665616969862397e-01,-1.159796726076821761e-03,-5.906402804511528409e-03,-6.283637849168185541e-04,5.052314996719360352e-01
8.218479884964843829e-02,6.502060717840765780e-02,-4.335978552771775907e-01,-6.894626110299242015e-04,-1.199533189169795506e-05,-2.651593048694618360e-05,5.074197649955749512e-01
7.052154768431179166e-02,8.068001348515582705e-02,-4.427830692153284509e-01,-1.979167033959383041e-03,-3.029193729837758816e-04,6.279092166123618991e-04,5.184712409973144531e-01
6.901495268504717617e-02,8.002011035107148285e-02,-4.386738658958967418e-01,-1.881924206981329308e-03,4.884867456273824264e-04,2.311219164252790721e-04,5.132911205291748047e-01
6.822089541868101015e-02,8.152212273808445708e-02,-4.369521896366181934e-01,-3.043439348120115847e-03,-6.337687807865515638e-04,-1.634665979390093104e-04,5.119817256927490234e-01
7.776418751406563579e-02,7.225199879194726948e-02,-4.468806255109327163e-01,1.192696647022175238e-03,2.024282961794160885e-03,-1.545617862583974949e-03,5.219332575798034668e-01
7.730886474132558916e-02,7.125602695265051412e-02,-4.441146051537503969e-01,1.051317105601171651e-03,2.775191216590288008e-03,-3.590571215850084743e-04,5.184494256973266602e-01
6.120411902864950071e-02,8.551702144151274165e-02,-4.284783590151797217e-01,1.037637325719674430e-03,-1.459929487219780743e-04,-4.153787046115726945e-04,5.022842288017272949e-01
6.441268405505659600e-02,7.957403861944001289e-02,-4.467246441876492891e-01,9.073349332991047581e-04,4.150777930104806134e-03,-5.441995115691982288e-04,5.189371705055236816e-01
7.069487580463895693e-02,7.835580359549404461e-02,-4.377983478677851537e-01,-4.619282808022488925e-03,6.570416630624412429e-04,3.973176603458833389e-03,5.124765634536743164e-01
6.270705593616160423e-02,5.809167547856142200e-02,-4.403127607991514925e-01,-6.114588377217797591e-03,-5.674660602169312451e-04,-3.635720481445437933e-04,5.008414387702941895e-01
5.845114850322286060e-02,5.946259593680716660e-02,-4.381572837599048142e-01,-6.887061580774639629e-04,-3.156328625173017107e-04,1.420133135588681848e-04,4.971167147159576416e-01
6.170659464690558815e-02,5.897819835609721673e-02,-4.408876717773447251e-01,-6.651755207757337890e-03,-2.477153286534881926e-03,-2.603660809035761824e-03,5.014066696166992188e-01
5.492875755645340585e-02,5.955537378995442999e-02,-4.378093409182069462e-01,-5.633989344753429634e-03,1.552918396567948525e-05,-1.256081660870784567e-03,4.951685667037963867e-01
8.221497369730174087e-02,6.579570567974762918e-02,-4.336499301388893057e-01,-2.298782774614249128e-04,1.841725292259197044e-04,6.864671687658385020e-04,5.078560113906860352e-01
8.147540806647732281e-02,6.430786396117360582e-02,-4.329340948865278427e-01,-1.180175579570771687e-03,-3.548779069993988422e-04,-3.598095406045726061e-04,5.060490965843200684e-01
6.803764349595003980e-02,7.023605766402366002e-02,-4.360731215114591053e-01,-1.001436254630059738e-03,-1.606406645274453338e-03,-1.134108413945216420e-03,5.052280426025390625e-01
4.786931092754478922e-02,9.603621014713864534e-02,-4.215193635217683310e-01,-5.810533625270651766e-03,-7.529279738805948197e-02,-1.788539323096683883e-02,5.131497979164123535e-01
7.410329876055751774e-02,6.361242386988069653e-02,-4.154269889801665561e-01,2.544736600767376952e-04,-1.013099535087452589e-02,9.457394561892541436e-04,4.846907854080200195e-01
7.679501398537263990e-02,7.066502390953363633e-02,-4.361313333936856496e-01,6.086990699550107534e-03,-3.619527372748891636e-03,-7.181196443373037870e-03,5.101881623268127441e-01
6.432333211618165847e-02,8.717600585414050918e-02,-4.532021914487724401e-01,-3.653091238787774947e-03,-6.653124852544124723e-02,1.274270563394126234e-02,5.422067046165466309e-01
8.581988842769715242e-02,3.410187885348851811e-03,-1.503865604240047504e-01,-2.457119950359208660e-03,3.135770314342371801e-02,1.892339067771359185e-02,2.171668857336044312e-01
4.540550891623576502e-02,8.621032000549530561e-02,-4.450298247556360720e-01,-9.699605698624806801e-05,3.948141114970457263e-03,-8.621459950087058876e-04,5.121064186096191406e-01
6.920224781794614977e-02,7.008921138053947342e-02,-4.367784705278406343e-01,2.989664813167827728e-04,1.681846828010952633e-03,-1.712747392660095118e-03,5.064421296119689941e-01
6.433390892080029233e-02,8.397344544932233701e-02,-4.477126294955744434e-01,2.393251319543539951e-03,1.069108320928818801e-02,7.876753167840054365e-04,5.224898457527160645e-01
7.644947901054008343e-02,7.566952071586727224e-02,-4.489126201655633808e-01,9.426129418264146079e-04,-1.131331343783432888e-03,-1.378727307055996624e-04,5.249788165092468262e-01
4.602510053961184067e-02,8.346549304342726350e-02,-4.450477561912375979e-01,8.911213831234035890e-04,4.879529096596703364e-03,-2.794230181135538404e-03,5.109183192253112793e-01
7.120961919370394355e-02,7.230974703041398444e-02,-4.319315191089456718e-01,-5.296294425375842191e-03,6.589378661518829200e-03,-7.636986105290587135e-03,5.040785074234008789e-01
7.292063962501901808e-02,7.120537752608999127e-02,-4.425824683406262561e-01,-6.118485987802572707e-04,4.570017224969404328e-04,-1.153688043836391701e-03,5.146532058715820312e-01
7.244215683749580248e-02,7.066672115026012557e-02,-4.264266200309905219e-01,-7.393405810498132613e-03,7.048660536647495534e-03,-2.713364673518897999e-03,4.983198046684265137e-01
7.218235473416981240e-02,7.501057336431532496e-02,-4.459050412143331088e-01,-3.223831549623696301e-03,-1.303997846018237119e-03,-1.042697291168061431e-03,5.195453166961669922e-01
7.353058032666576205e-02,7.065869019584919419e-02,-4.451163455095496491e-01,8.029820666437504587e-04,7.421601194015937106e-04,-8.970365030040043425e-05,5.172204375267028809e-01
7.231754936345219376e-02,7.733429016520013133e-02,-4.459615510572601527e-01,-1.502010067703239519e-03,-2.825123303267280017e-04,1.172645181504608156e-03,5.208162665367126465e-01
7.477653518711763203e-02,7.958632632345594149e-02,-4.469757711393088639e-01,3.015525117930029260e-03,-1.096007206882907694e-03,1.963468125517173104e-04,5.242033004760742188e-01
7.657730712672924933e-02,7.623595684039680132e-02,-4.421198530372872360e-01,6.405896564812493116e-03,-1.431289899873971431e-03,-1.159329730092436119e-03,5.186550617218017578e-01
6.338898061274680917e-02,8.759180266124108605e-02,-4.339430555007343093e-01,-9.772015907266067610e-04,-1.492593054114429692e-03,3.376511446196903219e-03,5.099073648452758789e-01
7.759573982422274252e-02,4.259682927838381872e-02,-4.413493348738156685e-01,-4.647983787507983799e-03,-3.074514635190814422e-04,-8.529240571128893092e-04,5.024277567863464355e-01
5.911564697431426207e-02,6.109564093886205027e-02,-4.402152026640394622e-01,-6.349230898694480790e-03,3.646582825478180052e-04,4.783427510493715477e-04,5.004457235336303711e-01
5.969580469548668722e-02,5.501667004900426261e-02,-4.377361659732368904e-01,-3.773511663900959608e-03,-3.245984405509602395e-04,-1.657819121930894125e-05,4.951524436473846436e-01
5.709963091154648951e-02,6.446636008321229849e-02,-4.409223532845137350e-01,-3.399776899272234122e-03,2.501043677241668664e-03,3.093241679602886166e-03,5.018277764320373535e-01
5.936598981539256692e-02,6.020689167744525117e-02,-4.394962698586409866e-01,-6.792523411714997128e-03,1.771042140397582464e-03,1.389709893134982027e-03,4.994370639324188232e-01
6.556513404607233753e-02,8.316677686551074422e-02,-4.362284683992500578e-01,1.044041590975010141e-03,-9.262375875564774321e-04,1.322122263683587345e-03,5.108327865600585938e-01
6.998545298955297089e-02,7.899924156953913590e-02,-4.399812158837721476e-01,1.222437555037224777e-03,-1.231990653864247984e-03,8.279358037354799926e-04,5.145435333251953125e-01
6.003223920917016843e-02,5.493091095750621267e-02,-4.379314318817009721e-01,-4.636759876475097207e-03,1.240135550523781141e-03,9.718364688905826488e-05,4.955024719238281250e-01
8.496336624968403584e-02,6.513186516602453846e-02,-4.336325327613940184e-01,-1.045827488968818276e-04,7.436694182853413604e-03,6.884408264013539393e-04,5.091344118118286133e-01
8.095484555233048440e-02,6.261274624958901303e-02,-4.254327659293756780e-01,-3.538195424703294290e-03,6.055179963301447234e-03,-1.247379855885322967e-03,4.976232051849365234e-01
7.405766586278808572e-02,6.574176056956393399e-02,-4.429225210591915540e-01,-9.382957478614012393e-05,-3.696966198233422613e-03,3.325664222295262804e-03,5.129451155662536621e-01
8.514213501685344299e-02,6.219592356478259587e-02,-4.308588235149086176e-01,-1.769456641127494878e-04,8.217013202583344639e-03,-2.858651389956992292e-04,5.051199197769165039e-01
8.396102525892060187e-02,6.427523830795012216e-02,-4.352477403761176866e-01,-1.420953932447625379e-03,1.886970308115463015e-03,-9.426964102105914352e-04,5.096701383590698242e-01
6.887375098229678305e-02,7.506062158531426332e-02,-4.299152045472642847e-01,5.762173289721816624e-03,-1.069801496018058873e-03,-3.782825386151377552e-04,5.020140409469604492e-01
8.443427585630428056e-02,6.272373758100227570e-02,-4.482883754716273095e-01,-3.145554759185352663e-03,-6.499128004608926588e-04,7.549459704852054878e-03,5.223993062973022461e-01
8.235136544390275759e-02,5.845498930487483258e-02,-4.201780937916489433e-01,-2.330403947061318679e-03,9.505271710708838168e-03,2.911561826423914880e-04,4.913103580474853516e-01
7.517016085089708866e-02,7.671626973072848132e-02,-4.488818666804030300e-01,1.219357754182617739e-03,6.026817482644162775e-06,6.277766178030903983e-04,5.248321890830993652e-01
7.048565138045326250e-02,8.031254774092899673e-02,-4.435523353455267381e-01,3.334144587095669646e-03,7.465905884287733644e-04,9.978566182791920400e-04,5.190578103065490723e-01
6.841031370831926472e-02,7.926239384257871556e-02,-4.379135208685628333e-01,4.078250070836056049e-03,-7.624890389814208309e-04,4.508591073252009329e-04,5.118871927261352539e-01
7.197698293769538846e-02,7.687599793783383983e-02,-4.443614590227588645e-01,9.503200201193080700e-04,1.836783803200250107e-04,-2.943443936714059523e-04,5.188082456588745117e-01
6.682067263996341322e-02,8.383619417424967302e-02,-4.401201164062382154e-01,-1.504947067432842265e-03,-1.682770503959718890e-03,-3.348955874235396996e-03,5.157065987586975098e-01
7.464333374623724482e-02,7.475532851975350002e-02,-4.459924137707524938e-01,1.952846064886648407e-03,-1.271135622441259619e-03,4.729961580638858420e-05,5.207074284553527832e-01
6.950623201085301406e-02,7.857887225870349712e-02,-4.368949521317586071e-01,3.911903290982005413e-03,-9.276248846762714158e-04,2.146581304858097370e-03,5.110588669776916504e-01
9.933841935366560794e-03,1.428960658491754132e-01,-4.990824351926781977e-01,-5.952082059059626840e-02,3.011985834092537409e-02,5.401517690662043653e-02,6.054413318634033203e-01
5.122215261008702947e-02,6.542913407779740731e-02,-3.742672120743147923e-01,-1.046011038438314153e-02,1.051522028469571539e-02,-3.239408437031928573e-02,4.371453225612640381e-01
4.294961916308416561e-02,5.340045565631632019e-02,-3.301129544813830030e-01,-8.073827817696596632e-03,9.621252760173002946e-03,-2.775931944289023595e-02,3.820585310459136963e-01
7.711127398349762463e-02,7.691706157339836536e-02,-4.493955502252894307e-01,1.349999340697730175e-03,-3.829923758165999759e-04,-3.193021021950379003e-04,5.264156460762023926e-01
6.383634749522207330e-02,7.853160091564334588e-02,-4.254801750245834624e-01,-6.117412016343310409e-03,4.425093527589547306e-03,8.345984942650033636e-04,4.970013499259948730e-01
5.976025417264815842e-02,8.057056365312456614e-02,-4.151380389054961650e-01,-5.794713513456618316e-03,4.531988800037424362e-04,2.074733722131582008e-03,4.857555925846099854e-01
-8.585768258070364256e-03,1.926531427707942612e-01,-6.053471550980902283e-01,-7.628178296321812268e-02,-1.055229750140048404e-02,7.648883600237786629e-02,7.430042028427124023e-01
7.344883217362782601e-02,7.499297997466020105e-02,-4.483749833559274589e-01,6.973349915709984616e-04,-3.122264928594611715e-04,7.369600734184294762e-04,5.226008296012878418e-01
7.700012759224458825e-02,7.308346460894316055e-02,-4.450586025016858294e-01,8.485235432756819355e-04,6.157254520126078084e-04,4.251526227530700707e-04,5.201151371002197266e-01
7.647601726376213049e-02,7.582919666826773430e-02,-4.491741841038531247e-01,2.618137102556748814e-09,-2.019943319603719151e-04,-6.533509947078430823e-05,5.253272056579589844e-01
7.504492260167056061e-02,7.225367973341598193e-02,-4.392559087754780434e-01,-4.032952479358664112e-03,-9.858152817667476496e-04,2.022398122099674025e-03,5.129732489585876465e-01
7.032183432655944588e-02,7.089635566969290648e-02,-4.463601582305906090e-01,1.300040271559239208e-03,-4.633787301133671381e-04,-9.338894557909796414e-04,5.169775485992431641e-01
7.112662990669446628e-02,6.955545525584772015e-02,-4.462762128182118926e-01,7.354245824458654482e-04,1.318908438030036651e-03,8.101151162798277854e-05,5.166257023811340332e-01
7.431587431317754344e-02,7.046618566481702151e-02,-4.473773897145119638e-01,-4.459286276797122463e-05,-2.309463463217503786e-04,-1.687975098340449912e-03,5.197874903678894043e-01
7.510466857229070037e-02,7.650621870382526279e-02,-4.483050024389870214e-01,-6.423974659268392746e-04,6.376295487379841052e-04,-6.789534732399442373e-04,5.241155028343200684e-01
3.870005421890046482e-03,1.095598928296840080e-01,-4.477745731528231521e-01,-1.897482219956312527e-03,4.303592315350534929e-03,-1.043126525657209506e-03,5.127934217453002930e-01
4.035191711038896289e-02,1.722600867324257656e-01,-6.751440009470769388e-01,-1.226931346032238690e-01,1.068014561571385135e-01,1.408051710961878700e-02,8.388618230819702148e-01
7.043043777193980226e-02,7.239309459074647068e-02,-4.460937995613812879e-01,1.587963040633314817e-04,2.425842264244116708e-03,-1.645781565882444876e-03,5.175333619117736816e-01
7.730596504842335293e-02,7.015556199301298257e-02,-4.363550500828886625e-01,-4.101079283032574470e-03,-2.072049861849406364e-03,-6.338130950927342491e-04,5.101866722106933594e-01
1.446907258233817717e-02,9.521638154160069756e-02,-2.251736315859928506e-01,3.489424017987494825e-02,-9.108360841902889138e-02,4.548311608116944321e-02,3.435795307159423828e-01
7.357462578652002039e-02,7.980535857603146543e-02,-4.421061586190582204e-01,5.206838217382867874e-03,8.765871647901250828e-04,3.418949176659480133e-03,5.189386010169982910e-01
7.446648154385324125e-02,7.464559643741891515e-02,-4.478264358142715618e-01,1.344268160953136857e-04,7.334604162580142918e-04,-1.152517078011593751e-03,5.223879218101501465e-01
7.372397813315340054e-02,7.718638899717844559e-02,-4.449406116958279922e-01,-3.408759593035204198e-03,2.988537030436318274e-03,-6.545682806580749172e-04,5.204648971557617188e-01
7.354295579845757103e-02,7.638214440939941619e-02,-4.426101412132371071e-01,-3.360532898056386476e-03,1.061570658022775200e-04,3.392878021658305571e-03,5.176446437835693359e-01
5.426990628495398372e-02,8.230950208097143062e-02,-4.166319098118922426e-01,-4.075743597656105756e-03,-1.627034054197820353e-03,-1.736087636620022956e-04,4.855888187885284424e-01
7.511906048938848945e-02,7.486005845839299733e-02,-4.479249704336484283e-01,-1.117672218616017543e-03,2.003192427645755024e-05,-4.633473055174044735e-04,5.229187607765197754e-01
7.844743545727081435e-02,6.922264743021183664e-02,-4.337120624834397420e-01,-5.853602307401450933e-03,1.498589822878868385e-03,-1.514467653727161840e-03,5.077246427536010742e-01
6.761726967321116111e-02,6.635881602882820474e-02,-4.420757120491669578e-01,5.481931414127231422e-03,4.314630120262544569e-03,-4.163110848303949903e-03,5.092593431472778320e-01
7.351268661615548150e-02,7.365860433881263325e-02,-4.475660426064396180e-01,1.398443909232161594e-04,-1.990503493501339424e-03,5.046505411165737916e-04,5.211638808250427246e-01
7.424266548142394173e-02,7.324563001756956293e-02,-4.437558801366465744e-01,1.071149347548360127e-04,4.909854681263782538e-04,-1.026992452259681754e-03,5.175045132637023926e-01
3.889197058172934318e-02,4.082049034523942133e-02,-3.158994062203134279e-01,9.095772451054749339e-03,1.813268959703673994e-02,4.191157161494214094e-04,3.574912250041961670e-01
7.852107909248587370e-02,7.235793640165896767e-02,-4.435972588950783391e-01,-2.384427875734966475e-03,3.084828265634319082e-04,-1.023616832243364047e-04,5.190809369087219238e-01
8.643605518037097979e-02,6.082428596318906200e-02,-4.285905630115213749e-01,-1.462098709752439492e-04,1.185230536628800648e-04,-2.902768245196075481e-04,5.027106404304504395e-01
1.863472070836116185e-02,5.887287103856318760e-02,-9.036211691417553316e-02,3.820896640416605872e-02,-2.949423396893180276e-03,4.743981450050200645e-03,1.495280563831329346e-01
7.589160771012676276e-02,7.412816011375869540e-02,-4.451812373947142687e-01,-1.211025000325340788e-03,6.711978305570601979e-04,-1.490102390558147548e-03,5.202053189277648926e-01
7.115904653730018015e-02,8.114894694098104266e-02,-4.450953049227457381e-01,1.511876496567311897e-03,6.057670071677946806e-04,6.822180418762885216e-05,5.213287472724914551e-01
8.010748019087923777e-02,6.742440284796213934e-02,-4.381517863292889725e-01,-6.939897677255736511e-04,1.427708495162372318e-02,-6.401959303095131060e-04,5.126349329948425293e-01
6.636324341845872832e-02,7.509962686892693307e-02,-4.234924843766755265e-01,-5.857561163718632245e-03,-1.058950070316368869e-02,1.809853566699777538e-02,4.957182109355926514e-01
2.592435087129757454e-02,1.453279201735137582e-01,-5.056805880479124937e-01,-3.809416110667441721e-03,7.678989486104437732e-03,-1.263229452001521434e-04,6.004639863967895508e-01
6.948790568914656185e-02,6.865310826520670817e-02,-4.460020976049806629e-01,-1.569984993500748213e-03,5.802357829540231385e-04,-4.549616497169672868e-03,5.151415467262268066e-01
4.837280520748565849e-02,9.817170315115839041e-02,-4.657128094961410780e-01,-8.349653527754755111e-04,-9.510417692063653089e-03,2.425450258921168795e-03,5.409768223762512207e-01
6.252172268951433631e-02,6.806716831763498510e-02,-4.117089209928007087e-01,1.828518776963036991e-04,2.862814853701083420e-02,1.119165050721270503e-02,4.799894392490386963e-01
7.693711012617279743e-02,6.627809587552399573e-02,-4.479643657311000449e-01,-9.348780279550340019e-04,-9.171906340694330455e-04,-9.600462276004749149e-03,5.199248790740966797e-01
6.633810134384540702e-02,7.720036227466511858e-02,-4.375128398257165929e-01,-6.689941222255334176e-04,5.649539403798504479e-03,-4.641886909027017304e-03,5.095276832580566406e-01
5.053932632111385326e-02,8.600833940813287781e-02,-4.562417723609090148e-01,1.598496561529649633e-03,-5.095824490504520347e-03,7.550848395082984318e-03,5.256584286689758301e-01
3.240481092378967587e-02,4.050561342076920701e-02,-3.081512350989176197e-01,5.914248739312864822e-03,-6.875183866549860502e-04,1.067209023359923757e-03,3.448370397090911865e-01
7.214235360066306724e-02,6.972995008894006252e-02,-4.453192998845449946e-01,-7.678681140862929312e-04,-2.228949605965320436e-04,2.631352073721984243e-03,5.162816643714904785e-01
8.474869996769185398e-02,6.558577083311800671e-02,-4.358944915226216632e-01,1.699779818058183914e-03,-9.835398057690011159e-03,2.884504807129690423e-04,5.116235017776489258e-01
8.223361007258586652e-02,6.554407333019521276e-02,-4.366314117742096657e-01,6.494970144934650302e-03,-4.676089029538765124e-03,-4.076602809868275223e-03,5.109617114067077637e-01
8.474928388946181834e-02,6.468103192563001702e-02,-4.365462081216416879e-01,2.240712480017847258e-03,-2.433468450605838062e-03,-8.148842028968771283e-04,5.115907192230224609e-01
8.591302039108919542e-02,6.246249792740277140e-02,-4.343280186124292008e-01,1.646886287517511773e-04,-2.053406791611310164e-03,-1.830759810495094704e-04,5.089337825775146484e-01
1.525995081276684817e-02,9.886954061028574436e-03,-2.296971930046435850e-01,-1.372163213333471576e-03,3.386084870542970210e-04,-1.508630486633880119e-04,2.423278391361236572e-01
8.208258626882361519e-02,6.585396481752633924e-02,-4.343629898940248313e-01,5.181756501273963129e-04,-2.079517972715236502e-04,1.685976580627862142e-04,5.085265040397644043e-01
8.782544446239207159e-02,5.958809807726439534e-02,-4.305927504227969882e-01,7.464663197851634019e-04,6.912717914230426903e-04,6.563923835008542281e-04,5.048964619636535645e-01
3.023012306308919817e-02,9.390135103463859156e-02,-4.535690842154927460e-01,-4.104940422965575389e-03,6.901476589661582721e-03,5.265570440596408115e-03,5.188413858413696289e-01
7.796136505300413355e-02,7.272570553289756101e-02,-4.471193689599741172e-01,1.075020741783055435e-03,2.720853456140295097e-04,1.575162004098090750e-03,5.224932432174682617e-01
7.313793790480213608e-02,7.608221560367103842e-02,-4.479856820844935750e-01,-1.588791514358894007e-03,1.286216186923999465e-03,-9.691756558212201011e-04,5.226166844367980957e-01
7.431761804816142125e-02,7.446800518213281261e-02,-4.477551618427862423e-01,-1.124558008611671980e-04,9.610313318658483817e-04,-9.346588896280304173e-04,5.221531987190246582e-01
6.969648830683006224e-02,7.737732528812771293e-02,-4.303196422846407021e-01,8.193912216114583938e-03,-1.114247632313312888e-03,-4.641145076224129713e-04,5.041046142578125000e-01
7.612235663069175096e-02,7.204426266282179525e-02,-4.383019302174704923e-01,5.636833831860533529e-03,-4.803778925516773005e-04,4.138578620210102421e-03,5.125412344932556152e-01
7.325449735484346192e-02,8.011707418035243777e-02,-4.431340506231629672e-01,5.886708084065823791e-03,2.919271673797520250e-04,1.328898373566186680e-03,5.199591517448425293e-01
8.346113387533590777e-02,7.010929069365237631e-02,-4.432933873231292288e-01,3.684465562590873676e-03,5.921511667585430258e-04,-1.391716354184369207e-03,5.202528834342956543e-01
6.911874128986708610e-02,7.906006283439753757e-02,-4.347978969946657002e-01,5.061666247615502143e-03,-7.122671843660838579e-04,3.545532617805573737e-03,5.090741515159606934e-01
7.300442118130751057e-02,7.558293963099860235e-02,-4.467285734403111386e-01,2.699620504019564163e-03,-2.642963923400683300e-04,1.449490937349275782e-03,5.210542678833007812e-01
5.381424500867743044e-02,7.643716160197233656e-02,-4.475051632636020682e-01,-3.413212825156443711e-03,-3.077356902773635420e-04,-4.524116056992066350e-03,5.130993127822875977e-01
6.852914658734968190e-02,7.397911140949950393e-02,-4.320543201910832520e-01,4.388169989413958673e-03,1.933281006801382176e-03,4.079208831259057214e-03,5.034486651420593262e-01
7.514381327951025202e-02,7.193031184202386408e-02,-4.405722234364322643e-01,1.034871426814239041e-03,-5.811632974942121995e-04,-1.114078896299881870e-03,5.141245722770690918e-01
7.657904166593604289e-02,7.372388966293019763e-02,-4.449137263568714862e-01,1.021838747112408571e-03,4.087329159292894202e-04,-1.592970277102434508e-03,5.200818777084350586e-01
5.785540048629495002e-02,6.684179618002580869e-02,-4.428867717926636138e-01,9.308084770099518332e-03,4.479321527633065361e-03,-7.292140516672766110e-03,5.057696700096130371e-01
7.384379763327389434e-02,6.750891871410882872e-02,-4.419834868698065966e-01,3.029499370483889177e-04,6.766902263082329779e-04,1.100740506293986344e-03,5.126943588256835938e-01
7.760257053515573489e-02,7.303945444347653693e-02,-4.449558061563615441e-01,2.356946510039762115e-03,1.037952614087032498e-03,3.333379199326486227e-05,5.203109383583068848e-01
6.117902395897267809e-02,7.367909255497737120e-02,-4.214322444049281580e-01,7.545586060367580035e-04,-1.286339482578910745e-02,-2.879908839373673032e-03,4.895156323909759521e-01
8.141457855517458819e-02,9.262679036115251119e-02,-4.855474304572787170e-01,2.644022767557445419e-02,-6.966506545611617085e-02,4.064311745022790301e-02,5.912199616432189941e-01
7.451155221992233901e-02,7.251960638499663214e-02,-4.439599338964126396e-01,-1.145776383095235211e-04,1.129211244941328695e-03,1.732875637445274286e-04,5.174822211265563965e-01
3.825072903209633668e-02,7.879463813038342646e-02,-4.491611897098428119e-01,-2.415766093241329335e-02,9.838559256150394491e-03,7.296907212872242449e-04,5.108997225761413574e-01
7.557713482577727016e-02,6.829606172861085733e-02,-4.315638952936402539e-01,-2.301554297354690276e-03,-3.465379145590696385e-03,-3.111751250936768600e-04,5.035918354988098145e-01
6.471564473136326434e-02,6.389139550421327196e-02,-4.428173158426672029e-01,-3.670126135841860447e-03,-2.867419835247125761e-03,-1.691737185745612266e-03,5.071939826011657715e-01
6.371918326086256634e-02,8.042779503308564171e-02,-4.465578445177519340e-01,1.896064552907058935e-03,-7.516903248906719147e-03,-2.427587135555016144e-03,5.190238952636718750e-01
3.512541208730202147e-02,9.000890741381711857e-02,-4.494504220922791449e-01,1.052010422137153933e-03,-1.038548386587737939e-02,1.216345081941884454e-03,5.145410299301147461e-01
6.973684636785945634e-02,9.471437649631270217e-02,-5.051982711217876121e-01,5.060296683713029486e-02,-7.699675663066648038e-03,2.032659517783077727e-02,5.955116152763366699e-01
2.385437487795755152e-02,9.674379464030208320e-02,-4.487530458181742676e-01,2.640787707989261657e-02,7.520053359059839654e-03,-5.760491657507589569e-03,5.152475833892822266e-01
8.122992418324118113e-02,6.843468091534216091e-02,-4.369833081683007214e-01,-2.467482712583084995e-03,1.620914544755879720e-04,6.557075200824165340e-04,5.119547247886657715e-01
7.003215783620214685e-02,7.107597061701620422e-02,-4.460796525833548576e-01,1.438218712711465425e-04,-1.675427228097548394e-03,1.147166288417867958e-03,5.166465640068054199e-01
7.450781485391475001e-02,7.467256852801992806e-02,-4.481849331990108154e-01,6.153469282927452578e-05,-4.739676145436127184e-04,5.329103080140255725e-04,5.227766036987304688e-01
4.990723812113848079e-02,6.236663110111692609e-02,-3.618222581527427151e-01,7.036969441393931511e-04,4.153471881992263672e-03,3.035839641541262374e-02,4.214551448822021484e-01
4.466422106756437471e-02,6.278455383198922046e-02,-3.610643602549076792e-01,6.082347129359952538e-03,-2.059755055880755671e-03,-2.390216670400190324e-05,4.152344763278961182e-01
7.245580629484849045e-02,7.341797857817730644e-02,-4.470584503009521482e-01,-2.822596079026994676e-06,-6.946096754927772766e-04,-1.295913324499894720e-03,5.200022459030151367e-01
4.638638402505079750e-02,7.028909196801325088e-02,-4.449349840271886736e-01,1.936575990984899451e-02,3.826421961157376768e-03,-2.305757988298496718e-03,5.048731565475463867e-01
2.434224552526206842e-02,8.506878565755926491e-02,-4.437716834482053341e-01,1.483255430088259788e-02,-2.200290822384336122e-03,2.980193109756999401e-03,5.019426941871643066e-01
1.279787707738916369e-02,9.632252466607779673e-02,-4.478066286311971345e-01,3.808418152759004277e-02,6.807512017144998684e-04,-2.513233946547011044e-03,5.118361711502075195e-01
7.011248556326737935e-02,7.881840372459864019e-02,-4.405292127699684812e-01,1.030536323948488342e-03,1.287800706595899815e-03,6.402425666540846171e-04,5.150589346885681152e-01
8.976391264672931025e-02,2.552366551329787736e-02,-4.411858512222879836e-01,-1.964697354171511534e-02,-6.676727812321643467e-03,-9.161036249688123481e-03,5.034576654434204102e-01
1.209529054648363078e-01,4.690316866006356833e-03,-2.984694362297330428e-01,3.779478847608199604e-02,-3.901135049798581250e-02,1.081820739295818457e-01,4.296859800815582275e-01
1.079572014170760152e-01,3.343193083587436831e-03,-4.172904345700834683e-01,4.268696636197960581e-02,-9.973890999285973946e-02,1.149909046856580908e-01,5.539491772651672363e-01
4.942332414371852778e-02,4.704446544813281617e-02,-3.479852770536569495e-01,-9.112245757912166774e-03,-2.045656596049860590e-04,-1.663217078737075287e-06,3.965389132499694824e-01
6.463009080357823288e-02,7.711064685332888469e-02,-4.459497751560517753e-01,4.102638936477535740e-04,-8.229478867588001581e-03,3.265263417680290114e-03,5.171610713005065918e-01
4.790879120728282203e-02,7.083218073772708234e-02,-1.912250650652161099e-01,3.974147781104462457e-02,4.328722588927973874e-02,-2.110119929735927713e-02,2.736558616161346436e-01
6.263573128507660126e-02,9.402729849944657659e-02,-5.149262435667498750e-01,4.244024287670195711e-02,-5.223939767607891672e-03,-5.199630197534050972e-03,5.985485315322875977e-01
7.497311405989456889e-02,7.477014491054229106e-02,-4.528904897753547321e-01,3.199680612868948185e-03,-1.121655280861463908e-03,-4.370081602461945835e-04,5.277953743934631348e-01
1.073076726709300266e-01,-6.458339839269522376e-04,-4.442693350620033899e-01,-2.569786319533779763e-03,1.588087652749966888e-03,2.735643441831156573e-03,5.063559412956237793e-01
1.889173751084469166e-02,1.985830552104557445e-02,-2.248674923729766795e-01,4.402067198121899054e-03,-5.139656882460379161e-02,-3.511696898785088283e-02,2.670911252498626709e-01
-3.754641331368435697e-03,1.384781090562468564e-01,-5.473641989427886489e-01,-9.468824536405834325e-02,1.229025954118936372e-02,1.875203442713821098e-02,6.492043137550354004e-01
1.842056162282872112e-02,3.125107152969711088e-02,-2.388907664631728933e-01,9.772966370978327169e-03,-3.959113623699873213e-02,-6.578841892834570715e-02,2.960547804832458496e-01
1.705775365694466028e-02,2.277401645145922526e-02,-2.347629102561466785e-01,2.486185000476255017e-03,1.090477705105375415e-02,2.413919527408711629e-02,2.588613331317901611e-01
5.528232331596527604e-02,7.838799068699409123e-02,-4.100883182765165946e-01,1.730567270273856376e-03,-4.501876165544933805e-03,1.708162739987905548e-02,4.783320426940917969e-01
7.668543680248599004e-02,6.827190588755394085e-02,-4.311057564435373246e-01,5.688419364814028059e-03,5.370179368217763670e-03,8.798837708755308674e-04,5.038216710090637207e-01
4.737868023946559259e-03,7.352004132868239505e-03,-1.964281660799931384e-01,-9.880265460152359847e-04,-6.392519872035550910e-04,4.492201629930366144e-04,2.024975121021270752e-01
1.594351160901824604e-02,2.321488265138971219e-02,-2.533191154799929734e-01,3.223996048358271620e-03,-2.079820126234206701e-03,-2.151032168844458151e-02,2.755818963050842285e-01
6.932353440316366133e-02,6.991335849122046198e-02,-4.151907911690785324e-01,1.071559346324621811e-02,-1.573669915916674949e-03,-1.271796831280168349e-03,4.851773083209991455e-01
4.595181724903196763e-04,5.113610683967464987e-02,-2.918257845567415742e-01,-3.950377225324128161e-02,7.196268319354451326e-02,5.910120384633680418e-02,3.653863966464996338e-01
1.493486783693026565e-02,3.012884946745911230e-02,-2.456500510682098071e-01,4.284400413960825528e-03,-2.304171715908017934e-02,-4.619529628568543045e-02,2.830980718135833740e-01
6.721645963252551037e-02,5.297024077647441431e-02,-3.895660315331089252e-01,8.128281244508549913e-03,-2.867404259070813134e-05,-1.206076412269005329e-03,4.500537216663360596e-01
4.866434605974301331e-02,4.755356141138358805e-02,-3.483830195450467460e-01,8.555323900533155085e-03,7.236865227868464426e-04,-9.457112612051504037e-04,3.967753052711486816e-01
2.780471798332577460e-02,4.125705196245818551e-02,-3.076083971889437274e-01,3.070516702768398293e-03,-2.541360056540046403e-03,1.007586076823777793e-03,3.424116075038909912e-01
2.176957962555473025e-02,3.030621720888508619e-02,-2.572482429623631495e-01,7.717965096763675439e-03,1.566456980124097953e-02,-2.668298874817226626e-04,2.849925458431243896e-01
4.155135015920045916e-02,4.927666826165005842e-02,-3.292518834872252831e-01,6.695354695171129578e-03,-1.966055926659385569e-02,-3.278206107974809824e-02,3.807064294815063477e-01
4.957156792930411671e-02,8.145812918478795295e-02,-4.395324338017596588e-01,-2.687047906341386624e-03,-2.128617764584791495e-03,-4.524415324930484809e-03,5.058972239494323730e-01
8.364255814884888340e-02,7.305375707185765566e-02,-4.451733133677203691e-01,-2.383968531100677090e-03,1.500950381670595850e-02,9.179769988218589158e-04,5.242654681205749512e-01
6.441748876805070134e-02,4.018339439253801326e-02,-3.487908337652317892e-01,3.631817144878774634e-03,2.503900553417497121e-02,2.360577457910527192e-03,4.040443301200866699e-01
6.521639896501349454e-02,4.990833746391737380e-02,-3.791235600311644305e-01,-7.551600807079702007e-03,2.379438759707872691e-02,-1.940925210146164821e-03,4.390344619750976562e-01
7.891485519313187758e-02,6.991682771549811992e-02,-4.326854075672522670e-01,8.323784592226051923e-03,-5.141936962934186761e-04,-1.628159292113427097e-03,5.073746442794799805e-01
5.168353848878004531e-02,7.588644240372860450e-02,-4.383173031526458874e-01,-4.877166996420236739e-03,-3.270075429561845187e-03,-3.580667006708105476e-03,5.026807785034179688e-01
7.577463906401216143e-02,6.015428291000762817e-02,-4.104726392186724415e-01,6.045787508707915585e-03,2.518281818609004728e-04,-1.093578215620838673e-03,4.787468016147613525e-01
7.975736420037080054e-02,5.722470288433134655e-02,-4.106098446863667983e-01,3.580598761364222476e-03,-2.082502220161898225e-03,-5.294040665244601233e-04,4.795526564121246338e-01
9.265349511668127813e-02,3.340069251263066974e-02,-4.512014760511611211e-01,-1.928914133532825311e-03,3.072020101940793006e-03,7.736218148619946645e-03,5.169944167137145996e-01
6.844985966466787808e-02,7.245630010741394011e-02,-4.410937685288977006e-01,9.636179005021838339e-04,-3.135195386430734976e-03,-1.970610979234301528e-03,5.116015672683715820e-01
7.846045971392834328e-02,7.334570323231590083e-02,-4.490973390155070799e-01,2.423212663848314970e-03,5.741454434625843130e-03,4.404138581029673309e-04,5.251306295394897461e-01
6.824450127291334378e-02,7.571265613700989272e-02,-4.414430731382941731e-01,2.745883601348409424e-05,8.572736100470963651e-04,3.913236024014148801e-03,5.135092735290527344e-01
7.587602456350542313e-02,7.250612411839654770e-02,-4.462778925293711119e-01,8.648527244651330048e-04,-1.686586367794943274e-03,-1.111322533456285096e-03,5.204910635948181152e-01
6.747485019650081850e-02,7.628904995308760650e-02,-4.322600156759834333e-01,-5.083189875573404688e-03,-1.964565025536987603e-03,3.226168456378182385e-03,5.043190717697143555e-01
7.479386153771172552e-02,7.681817149001446410e-02,-4.487363982361550208e-01,-6.747370929745884378e-04,7.690606581890751950e-04,1.518057876230526244e-03,5.245549082756042480e-01
7.573185122852160722e-02,5.258974972066232656e-02,-3.938874606187677818e-01,-1.504222745034912174e-03,-2.302773692358600632e-02,1.348955146389975782e-02,4.608181715011596680e-01
7.241309903189233066e-02,7.150032559274233090e-02,-4.282716678586631631e-01,-9.264566140779412554e-03,6.159085498305408779e-04,5.469850616899523711e-03,5.005770921707153320e-01
6.764737631644540672e-02,8.237617032847799337e-02,-4.371361139504015836e-01,-2.826799645952775709e-03,2.473895707929819844e-05,1.375975150632647616e-03,5.123356580734252930e-01
8.491403391269475298e-02,6.489246571989318313e-02,-4.348896106444238296e-01,-1.068825920109262462e-03,1.784041160513304136e-03,-8.200342323135377401e-04,5.101023316383361816e-01
6.800101363325339321e-02,8.176904023190242898e-02,-4.376555630036034761e-01,-3.035268493773598652e-03,-1.192154437057290706e-03,-3.590560415396945484e-04,5.127107501029968262e-01
6.799434506885210228e-02,7.434977383224813940e-02,-4.466690279298599631e-01,-3.951568794693305874e-03,-3.437421497622090635e-03,1.117253293428137166e-03,5.179533958435058594e-01
7.225539052704443854e-02,7.943694740582218916e-02,-4.459791169354447304e-01,-1.622700062812454380e-03,1.394674811753298521e-03,1.505261424147962988e-03,5.218819975852966309e-01
7.213063982419123943e-02,7.903267931758312104e-02,-4.436638780999432874e-01,-2.175049523684113948e-03,-1.599475313004955880e-03,6.965057006533422433e-04,5.193023681640625000e-01
5.775263810743194726e-02,5.994355279784774337e-02,-4.390319294265417893e-01,-4.741974268523596950e-03,1.146023981007168431e-03,1.269751907063538599e-03,4.979601800441741943e-01
6.567552927409445185e-02,6.607329239081355388e-02,-4.424412331787946906e-01,1.500883300009064197e-04,2.356097989801448842e-03,-2.304295430800888493e-03,5.083478689193725586e-01
4.490000814944800078e-02,4.564859178916769178e-02,-3.362405455004683907e-01,-9.032169298753571843e-03,5.712281734905557025e-04,-3.792839201614505687e-04,3.818378448486328125e-01
6.555483245579396545e-02,6.553661875605798492e-02,-4.423121510970148274e-01,-3.457527360502227849e-04,2.657686862441011218e-03,-2.006605369669955518e-03,5.078909993171691895e-01
6.462157781034205684e-02,6.337822431045869731e-02,-4.415755398911149765e-01,1.996353580726300571e-03,2.098825016386872671e-03,-8.547442013253619270e-04,5.056036710739135742e-01
8.247734640216805579e-02,6.233110354109905327e-02,-4.232302843085367638e-01,-5.314585593236102745e-03,1.440582828502075686e-03,-5.895016307731174195e-04,4.960342347621917725e-01
5.645852577423846053e-02,6.516043094648632517e-02,-4.418990552265156246e-01,2.348065604892612436e-03,2.912299487288931565e-03,-2.204331229624168983e-03,5.028212666511535645e-01
1.207297519747253106e-02,9.492012817088051058e-03,-9.087469691549097950e-02,-1.609624113967459205e-02,4.841788227338494205e-02,9.391024830318531191e-02,2.112030386924743652e-01
6.478774015365013073e-02,4.945369587884992923e-02,-3.580200540265966458e-01,-8.979568267379009830e-03,2.053192753767108317e-02,6.123483661647935450e-02,4.304345548152923584e-01
6.035812867708528762e-02,5.091246342886057707e-02,-3.395356545193363718e-01,7.878520131144020958e-03,3.290869539290050202e-03,4.783240319727464357e-02,4.041157066822052002e-01
7.452238007709813261e-02,7.632823662908866380e-02,-4.470354030221211361e-01,-1.364940107766705098e-03,-4.637044542364903853e-04,-2.793503824720172603e-04,5.224692225456237793e-01
6.603252426095848615e-02,5.839445467820988944e-02,-3.939927886913574540e-01,-9.456021838574031613e-03,1.501754775808030557e-03,-1.023704811408296519e-03,4.565589725971221924e-01
8.574350152790549684e-02,6.109622832253336355e-02,-4.484452456303101298e-01,-2.451058484322270539e-03,7.868788560458863822e-04,-7.965133080554973391e-03,5.225026607513427734e-01
4.176432881174749201e-02,3.190574662259861027e-02,-3.075587642385212428e-01,5.074716666290932099e-03,6.193277597895259197e-04,-1.052439049897897403e-04,3.446134328842163086e-01
5.556378096833122782e-02,4.732256306808621527e-02,-3.329416460057383897e-01,4.169543999480046850e-03,-3.903958446829346868e-02,9.777065170631796254e-02,4.255635738372802734e-01
4.985514296054606442e-02,2.847201081670791556e-02,-2.638541006275996748e-01,-7.265030688907751603e-03,4.719944344593173663e-02,1.136492873730230030e-01,3.711506724357604980e-01
6.641189567498920199e-02,4.860646471497528931e-02,-3.718466591097388529e-01,7.376856030798495042e-03,1.985273396934624131e-03,8.886703485198901810e-04,4.298391044139862061e-01
7.306234841284595105e-02,7.344773814110286403e-02,-4.475426162854606038e-01,-3.503248877550440665e-04,-1.247494236069429880e-03,6.242123306196274528e-04,5.208037495613098145e-01
4.781100760821518914e-02,4.615837305116204936e-02,-3.480744423483709826e-01,6.869866799994290077e-03,2.346869204519333777e-04,-1.622387117422491743e-03,3.952510654926300049e-01
2.534759876143743984e-02,1.753010516554441567e-02,-1.912152971858146200e-01,6.851417322843884709e-03,-1.508985241420836981e-02,5.677903361312471031e-02,2.361421883106231689e-01
2.011346628028470168e-03,5.880492855426841525e-03,-6.136309480167321390e-02,-4.214790406776491340e-03,-1.254486667716056200e-02,9.199018790815560731e-02,1.737483590841293335e-01
1.441238894003418758e-02,5.123064337619133435e-02,-1.279864459744028404e-01,-3.383539613229805121e-03,3.390377311344907468e-02,5.124566324201920708e-02,1.955427974462509155e-01
6.711008586633465667e-02,8.284850986755470936e-02,-4.377741153368500671e-01,2.798567551322144690e-03,5.927793759677656659e-05,-1.047021329310389697e-03,5.129606723785400391e-01
4.259564811921970340e-02,3.601584298211375768e-02,-2.606782011641702312e-01,-1.082756247385844445e-02,6.601913888265148467e-02,9.590120559430885538e-02,3.619962036609649658e-01
7.396420340978263064e-02,4.620367593427424091e-02,-3.786061636750616133e-01,1.056572619721833292e-03,1.707909951148186070e-02,1.011945292728815135e-03,4.403504431247711182e-01
1.664440737700532968e-02,1.462346313358202365e-02,-2.331791158949481912e-01,-1.658182852958389481e-03,-7.632947010840292375e-04,9.826746847897941013e-04,2.488451153039932251e-01
4.544695864335998592e-02,-2.306255920948906482e-02,-1.737515840092286323e-01,-6.725358599799891035e-03,-1.254773892606888576e-02,1.175601777018900479e-01,2.824775874614715576e-01
-8.624535914676382392e-03,1.504609780993924895e-02,-7.351785144799335980e-02,-4.301347980248012605e-03,-1.190132657472481592e-01,3.327287550486079937e-02,2.284222841262817383e-01
5.935878486175596991e-02,6.004785083740604712e-02,-3.789490233740291925e-01,-1.190274771708551074e-02,9.443810368840205305e-03,-9.719801650884960648e-03,4.397638440132141113e-01
9.449108949733520113e-02,1.885879955970445887e-02,-4.425863133733834998e-01,-6.353822022929903057e-03,2.576988446004970911e-03,-5.749131464248503562e-03,5.037779211997985840e-01
3.411498577361476991e-02,1.007672264509143767e-01,-4.534144249427152218e-01,3.531431791518823381e-03,6.808022235920385169e-03,2.980853305010621682e-03,5.242379903793334961e-01
4.926428092933946012e-02,4.076796642476346322e-02,-3.233771044740499367e-01,6.722525577396672170e-03,-1.358983234958205041e-02,-3.091736238250181873e-02,3.732626140117645264e-01
7.209285581116559039e-02,6.249114664666288732e-02,-4.089690724543155742e-01,5.787990052027431427e-04,2.401232215216724669e-02,-7.354640168855887568e-03,4.783166348934173584e-01
1.083424127945462057e-02,9.932414060327673933e-03,-1.453641604978992419e-01,3.120516618679655078e-03,3.987314610932918453e-04,-4.315338120393395066e-02,1.728416085243225098e-01
5.386789179475445777e-02,6.033556928229474869e-02,-3.741915837497434283e-01,-9.096774559244557093e-03,9.833685601370748333e-03,-2.339540138042233569e-02,4.338498413562774658e-01
1.771612313949333384e-02,2.213851218618745342e-02,-2.622839430558403517e-01,-2.321275479890610571e-03,5.327359171982869396e-04,4.311000520796298002e-02,2.919765412807464600e-01
7.039309726448955695e-02,7.931917503663066249e-02,-4.399969136892487587e-01,-1.564356216009256742e-03,1.293059464299485409e-03,-1.570890282333554672e-03,5.149302482604980469e-01
3.821237290409496001e-02,2.693324569083835329e-02,-2.869583928696819997e-01,-1.542163038253370347e-03,7.978803282548621459e-04,-1.591704514071498903e-03,3.197064995765686035e-01
6.964054054372892377e-03,-8.484753748504342968e-03,-7.262045200343481000e-02,5.501247455044417419e-04,1.263975011420937974e-02,-7.354377406481471535e-02,1.484895050525665283e-01
8.589089455490786507e-02,6.349806400557123087e-02,-4.340171647241344854e-01,2.753131212110512122e-03,-5.336854470892017036e-04,-7.966370525122678592e-04,5.091062188148498535e-01
1.210574130009470228e-02,1.227948106857794652e-01,-4.855723223194499116e-01,1.398416184380259566e-02,-1.172529057739147944e-02,4.486207162619333666e-03,5.622121691703796387e-01
7.665768504933007099e-02,6.399080557412684112e-02,-4.457310660421734405e-01,-4.341986150602789724e-04,2.944315989934710460e-03,8.140959821450835868e-03,5.163902044296264648e-01
1.394863227708442732e-02,1.076141095146368187e-01,-4.491518631441512865e-01,6.240728850501935446e-03,5.767314516446555607e-03,2.438886744403342705e-03,5.165716409683227539e-01
1.892267951698722861e-02,1.041687323076077309e-01,-4.537324888217227903e-01,3.449464725378658249e-04,-7.476440050732135502e-03,-1.294584627422391268e-03,5.207061171531677246e-01
7.580759300763870168e-02,6.920102991865118014e-02,-4.321938573317165022e-01,5.359653339869876847e-03,-5.163954736947439167e-04,-1.631016386920457369e-03,5.048246383666992188e-01
7.971947797545048120e-02,5.739582397983594708e-02,-4.106262311399219156e-01,6.957552284661511904e-03,-8.040376126414786311e-04,-4.892017511457174379e-04,4.797278642654418945e-01
1.868583258449327267e-02,1.123293176875763688e-01,-4.625702179007897819e-01,-6.200079118437626727e-03,2.826193596158766298e-03,5.034717814685283829e-03,5.344701409339904785e-01
-1.192716743981379890e-02,1.197183030909870216e-01,-4.576128547640646582e-01,1.907783428591980010e-02,1.766508255176151335e-04,-3.259209242599910971e-03,5.251310467720031738e-01
-2.287159179579373314e-02,1.903538976421288997e-01,-5.321529748341146115e-01,-9.228608909998747487e-04,7.896859156979801897e-02,-3.858780823668744864e-02,6.607587337493896484e-01
5.114263129458271329e-03,1.100981225887414094e-01,-4.533443771934839717e-01,-2.099929626721710281e-04,1.636123435225746246e-03,-5.845264501741371512e-04,5.189854502677917480e-01
-6.674286761143274904e-03,1.203632520407298956e-01,-4.550909938855349224e-01,3.665386015210387281e-03,-4.282072790550588148e-03,-1.633994986985667398e-03,5.237224102020263672e-01
7.087040901970217965e-02,7.249695909725356602e-02,-4.462252450806997728e-01,-8.099423512797979119e-04,2.928156832000037776e-03,-3.650667755498042183e-04,5.179379582405090332e-01
7.169797903905475445e-02,7.662651503553311039e-02,-4.449116253559010636e-01,-1.138718878980087869e-03,3.458059253445958971e-04,-3.431076271659206170e-05,5.190955400466918945e-01
8.421843422166033766e-02,6.237352903138992932e-02,-4.302336462630370617e-01,5.728563086974455950e-04,2.181341865397846115e-05,8.658320487566263136e-04,5.038881301879882812e-01
5.138381363751631792e-02,7.015169518860803199e-02,-4.455558354309150926e-01,-1.529376272290903366e-02,8.246150783315429715e-04,8.283543750833650878e-04,5.072805285453796387e-01
7.607489361048078158e-02,7.254747631575453326e-02,-4.456569081758742223e-01,-3.239472251618181337e-03,-5.521587354781456493e-03,-2.065997786247011046e-03,5.201075673103332520e-01
7.222479788869595740e-02,7.733491796936567408e-02,-4.587983395086694394e-01,-4.549487516727312693e-04,1.254371056576903754e-03,1.839171639685792522e-03,5.336110591888427734e-01
7.954269220567791732e-02,7.231787496808542159e-02,-4.448823805198274806e-01,-2.820640427906005460e-03,-1.195347571003938170e-06,-3.677549125465225349e-04,5.208735466003417969e-01
7.983132391478361956e-02,7.405589410925517146e-02,-4.477135028547459816e-01,-1.126891112866335509e-03,1.818470546911023829e-03,-9.575747907695536694e-04,5.246966481208801270e-01
8.274606246066254500e-02,5.106986423311377088e-02,-4.133313549846703849e-01,-4.816119795495271000e-03,1.090581950011357531e-03,4.164034689976357892e-04,4.810987412929534912e-01
1.247568759352755963e-02,4.916527977921733572e-03,-1.739908506256963860e-01,3.343721500873835482e-03,2.808267552782137827e-02,2.249004977789790388e-02,1.932207047939300537e-01
7.294419174532804084e-02,7.863301384057269638e-02,-4.420244602436499415e-01,-4.696191565247975763e-03,-2.009827641413218600e-03,2.439883363432004439e-03,5.179293155670166016e-01
7.602500609345549942e-02,7.540752568075897999e-02,-4.459510368634530542e-01,-3.267825030256413937e-03,-4.842606762179545990e-04,-2.054087941101529835e-04,5.216990709304809570e-01
7.650854013459634784e-02,7.567869960447440314e-02,-4.474948356203943822e-01,-2.458221873576419986e-03,8.814369621058624083e-04,-6.753274441628643460e-04,5.236098170280456543e-01
9.667805592213543631e-03,1.507450340156446522e-02,-2.284850071140351879e-01,-2.840259057326839816e-04,-1.621195440092660636e-03,1.202887601578764374e-03,2.409275472164154053e-01
6.672041780012274992e-02,5.580918198814838194e-02,-4.456831878927425827e-01,-1.735745204660213772e-02,-1.317444384159335282e-03,-3.241425304684134728e-04,5.079320073127746582e-01
5.409826839491196915e-02,6.892982712795134304e-02,-4.464867633699225458e-01,-1.487301181829742136e-02,-1.313475342131064944e-03,5.652210106778593956e-04,5.088217258453369141e-01
6.016264041903296445e-02,4.143216892796908191e-02,-3.503452652012441493e-01,-2.952006428058189663e-03,2.974617814330990590e-04,-3.651059705094076560e-04,4.015038907527923584e-01
8.292468492750018627e-02,6.711545629766768606e-02,-4.377349079836794221e-01,3.186932851202379374e-03,-4.604159383287445215e-03,-5.669414526628975678e-04,5.130303502082824707e-01
6.112511822175073495e-02,8.081480678864150224e-02,-4.715345542061157857e-01,-1.364672393656093247e-02,2.986969688434070944e-03,-1.507841534454446020e-02,5.439388155937194824e-01
3.369808436709292865e-02,8.822826529441094023e-02,-4.498926751747074348e-01,-1.586846006838833062e-02,-6.089174075070552788e-04,-1.711204279774997464e-03,5.137792825698852539e-01
6.657325593956850418e-02,6.145695977519041731e-02,-4.029335471849176398e-01,1.271121261870674507e-02,-2.060245038649441765e-02,1.339386563471469109e-04,4.688484072685241699e-01
9.395363119560573573e-02,2.208141494491552836e-02,-4.453698406724150849e-01,5.360288608651542740e-03,-1.647934635049916286e-03,-3.338809076844451249e-03,5.073468685150146484e-01
1.380873975569843481e-02,1.679492492136051840e-02,-2.293506435179708258e-01,3.911559606839025427e-03,-1.451760807174009562e-03,1.293418035640910967e-03,2.447831034660339355e-01
6.161743918017387189e-02,6.555978620360766729e-02,-4.893965070304185927e-01,-4.548075078972836638e-02,1.374338605352251087e-02,8.185457701531841448e-03,5.592650175094604492e-01
8.210349668919630917e-02,6.873316635739690206e-02,-4.403379061547949558e-01,1.904780734092275263e-03,1.161129956520001337e-03,9.230961944658636455e-04,5.159031748771667480e-01
4.101045711008588501e-02,7.086540331495211342e-02,-4.434191195244618910e-01,-9.190187364562375782e-03,-2.882303572472726463e-03,-4.077466792988994749e-04,5.003046393394470215e-01
4.384246222706103535e-02,6.884351779008138217e-02,-4.479959488748767038e-01,-2.518871394542680775e-02,6.068287266159552197e-03,6.904345379584275570e-03,5.069353580474853516e-01
1.336647938002832880e-01,2.045274593638746197e-02,-5.045925549557928047e-01,-2.180194378311274550e-02,-8.000592779467345650e-03,-4.810002137697014235e-03,5.912854075431823730e-01
8.171148295532670858e-02,5.932276787570137100e-02,-4.211655164920252714e-01,2.285694706367207354e-03,4.603534309491823934e-03,6.069061843519606104e-04,4.921464323997497559e-01
6.958760921439069436e-02,8.290998418694506267e-02,-4.404313201991735260e-01,3.960508609299122178e-03,-1.367917461157471329e-03,-3.325893660074827817e-04,5.168601870536804199e-01
1.130767594946960886e-01,9.794001975447205743e-03,-4.645492155742651508e-01,-1.008880570196021842e-02,8.993883649167353812e-04,1.069470900256692253e-02,5.341452956199645996e-01
3.640949200842628908e-02,3.911075418517159785e-02,-3.079743088021282826e-01,6.820371404410439584e-03,-8.536119833401630908e-04,1.046177137602783845e-04,3.459472954273223877e-01
2.236127064935437003e-01,3.471374093476978229e-02,-7.681303805647108351e-01,-7.308845674616175347e-02,-3.161610199184745201e-02,2.179077278627866363e-02,9.232263565063476562e-01
1.085559023507646492e-01,1.931539740163495944e-02,-4.562066134263702000e-01,-7.101797153967352727e-03,-1.295008418981032864e-03,-9.007980154280482987e-03,5.262324810028076172e-01
4.630457719760516788e-02,7.467616668853022110e-02,-3.824871778713221926e-01,2.447394437579622148e-03,-1.641455693592875351e-04,-1.419441503267148547e-02,4.443594515323638916e-01
1.099952760215926195e-01,2.315187914094671284e-03,-4.477797532131998492e-01,2.625880708416088519e-03,1.978376493990088424e-03,1.511730084495942553e-03,5.125290155410766602e-01
6.424747336179337243e-02,3.859778124770890662e-02,-3.591534490891480913e-01,2.205640264294845155e-03,8.705527600642314111e-04,-2.491170779881653630e-03,4.112196862697601318e-01
7.294280178702283735e-02,7.956924882437871327e-02,-4.451232041806996720e-01,2.776839972228345270e-03,-7.099298937398912162e-04,1.179679211355495476e-06,5.214344263076782227e-01
9.732631310330130958e-02,2.581341726273581050e-02,-4.530535108650439735e-01,-1.305102668750219089e-02,-3.348557254238724093e-03,1.294523848047871711e-02,5.193458795547485352e-01
1.008937169050555527e-01,1.612069309820382546e-02,-4.471487037501946649e-01,8.442897864817451581e-03,-1.120840077596000706e-03,5.662005633189603516e-03,5.112646222114562988e-01
8.884849724098850543e-02,5.009251812630396983e-02,-4.604754742472176865e-01,-4.309717557307858951e-03,2.968102213424932481e-03,-3.533955394138183978e-03,5.311204195022583008e-01
1.090060117020346386e-01,8.259251078531218426e-03,-4.629126583133483241e-01,-7.669000923025961688e-03,2.724126183533539061e-04,-7.961602885390935830e-03,5.291396379470825195e-01
5.463821146892608449e-02,4.512059273074064958e-02,-4.206038191881278365e-01,-6.593373921773014457e-02,-1.066523258417706975e-02,-1.925512669882981087e-02,4.857136011123657227e-01
8.764273346628975725e-02,6.093067022829237733e-02,-4.335059915961098076e-01,6.822993918306107441e-04,9.662514055467453849e-05,-9.732928898854677820e-04,5.083235502243041992e-01
7.987125062351349558e-02,7.134554969278195102e-02,-4.404998879999177941e-01,-1.986301571600260893e-05,9.176164787355648236e-03,1.374663534244500995e-03,5.164112448692321777e-01
8.476029275497243276e-02,5.978247488520951891e-02,-4.282414410508555980e-01,-2.255817942143222617e-03,1.185414647438442272e-04,-2.905718492833075190e-04,5.009955763816833496e-01
1.148915356840486957e-01,7.949850910175304541e-03,-4.636836706939411745e-01,-1.161035878127506839e-02,-4.106204605267114874e-04,-7.442727091858691336e-03,5.337443947792053223e-01
3.318044832675916267e-02,9.322675138660863059e-03,-2.204433151160023752e-01,3.869829579079937798e-02,1.089439839638838559e-01,-1.128816205115771021e-01,3.703635334968566895e-01
1.013974998126977445e-01,-1.596664704202735430e-02,-3.785189664156359268e-01,4.285768257814898813e-02,1.044251133531868235e-02,-4.246524807323844714e-02,4.461126923561096191e-01
9.899657150661481109e-02,4.657186906139321181e-02,-4.652021673128459156e-01,-1.689955061823867136e-03,-4.427487603860405171e-03,4.960604301665701068e-04,5.399617552757263184e-01
8.151594948582277511e-02,5.202129814586653467e-02,-4.104992954431207486e-01,8.218151064214068886e-04,-1.389725631742452479e-03,8.039646933737512125e-04,4.779611527919769287e-01
7.081353522888608754e-02,7.004915717440748923e-02,-4.374611506759816248e-01,3.728807633880946754e-04,-1.413357066916389815e-03,7.373871140053191208e-05,5.078992247581481934e-01
7.177605161694519675e-02,5.707404317717218456e-02,-4.223519814998579203e-01,1.583439620715765533e-03,2.018679963112158388e-03,-1.249825203565040586e-02,4.874447286128997803e-01
6.157495570300092202e-02,6.127546427045790778e-02,-4.399433722279695314e-01,1.390208134894496346e-06,-1.700328985487318785e-03,-1.918651814750114114e-03,5.013883113861083984e-01
3.761692068074717898e-02,-3.256186707198220620e-02,-1.372028171779219596e-01,3.810712023003705665e-03,9.339033351458927990e-03,-8.374514662563334322e-02,2.111002951860427856e-01
6.366258205954786198e-02,5.864595388332349835e-02,-3.566805161504601474e-01,3.774724604883814179e-03,-7.555398733678567180e-03,-6.999257827663589449e-02,4.353339672088623047e-01
8.019090073777790373e-02,7.149529813670893463e-02,-4.454859798865659637e-01,1.654138799112902895e-03,-2.333602915612018654e-03,1.549124223834966434e-03,5.214139223098754883e-01
7.381163828439032959e-02,7.620145669166727975e-02,-4.449376297050028350e-01,1.221851917264019658e-03,1.547275938588299395e-03,9.191299158266642627e-04,5.199619531631469727e-01
4.461634366877714752e-02,-1.535996518088662138e-02,-1.977588855548812752e-01,2.389612357106696630e-02,5.257457415873144357e-02,-1.406637089610602021e-01,3.423014879226684570e-01
8.303490672961330588e-02,6.099001249444371830e-02,-4.233663339153607708e-01,5.388668721124364536e-04,-6.581500407442958389e-03,-1.901836773910950309e-04,4.958785772323608398e-01
5.719342348124070718e-02,6.815506733965437380e-02,-3.875331374442068100e-01,-2.953318638741402567e-03,2.374800601879387130e-02,-4.619996268457585153e-02,4.592365324497222900e-01
5.505133926993752147e-02,6.792793139344477371e-02,-4.479321945575528430e-01,-1.788788552940029364e-02,-2.722065557545487284e-03,-3.012831199312042993e-04,5.105069875717163086e-01
6.617604686646669232e-02,8.103257590242346486e-02,-4.330788207845210347e-01,8.141372568043767424e-04,-1.118449277681783476e-03,1.071205705016904652e-03,5.068555474281311035e-01
7.277143206022379518e-02,6.722174238562564352e-02,-4.221105298658347493e-01,2.864477192462755624e-03,-1.119646342179565074e-02,-1.472695488998227321e-03,4.925441145896911621e-01
7.039315285184413740e-02,7.083383032182255512e-02,-4.334201544522742755e-01,-7.166194124947556287e-04,-1.582693393971051779e-03,-2.449548723441696916e-03,5.040606260299682617e-01
7.415616973920388655e-02,7.622852124081958003e-02,-4.451772874905934319e-01,4.618669511626477889e-03,-4.563714420275807176e-03,-5.328941684434261236e-03,5.205760598182678223e-01
7.627411931531685729e-02,6.994561362281656591e-02,-4.353728110571253862e-01,5.633843028419864910e-03,1.131226396373105278e-03,1.507925879898914384e-03,5.086163282394409180e-01
3.473220183063992217e-02,1.427553025645150742e-02,-2.261903708348694531e-01,1.069862568150561043e-02,-5.580187180241386741e-02,-3.898763992582473387e-02,2.782202363014221191e-01
5.740976454085075509e-02,5.830847009355616395e-02,-3.695255851758674770e-01,1.284230526107674533e-02,-2.234513171392626604e-02,-1.019811198123335774e-02,4.300732314586639404e-01
3.848180134202702773e-02,4.240005111404540616e-02,-3.087180550815680213e-01,1.076553184154641421e-02,4.009597740992271365e-05,1.323169508105930935e-03,3.496805131435394287e-01
7.151954858068870768e-02,7.280521627194050382e-02,-4.262530362966197583e-01,7.270906151549901691e-03,-7.535766584289716602e-03,-7.404324286107405451e-03,4.989114105701446533e-01
7.393929500548127032e-02,6.761960314395104588e-02,-4.282661664281440239e-01,4.262192143371206117e-03,-5.868972726020965647e-03,-1.097418511846076389e-04,4.992337524890899658e-01
-1.485035779556508756e-03,-3.079260781316841417e-03,-5.417742615012834106e-02,-6.846497455743841970e-04,-1.727354332450255561e-02,-2.711128065357692324e-02,7.613555341958999634e-02
1.285565242921751783e-02,2.041416704465773280e-02,-2.172961791128329712e-01,7.830365417980452054e-04,-1.489690649567639719e-02,-3.817645524930772527e-02,2.445537149906158447e-01
1.013675757980821157e-01,2.405504452678275396e-02,-4.501610466530704957e-01,1.516279392964165916e-03,1.714553577489435240e-04,-8.383416841371534381e-03,5.174348354339599609e-01
-6.385396395451649332e-02,1.608289103064073911e-01,-4.927526889729552106e-01,-2.617759047697450214e-02,1.077739574323462700e-02,5.996162868673395345e-04,5.772417783737182617e-01
-1.794320096212805027e-02,1.176415364538861696e-01,-4.226767257059657612e-01,-2.620376669239647682e-02,3.365219344816310076e-02,-8.861079094838937922e-03,4.927078485488891602e-01
6.334145870332585915e-02,4.495593325798188933e-02,-3.615277699616969431e-01,-1.069956082262294361e-03,1.147089972192567343e-03,-8.197556127858262329e-04,4.159925878047943115e-01
1.795492866770345697e-02,1.213701917196812752e-01,-5.259019214568270151e-01,-4.088900504211388787e-02,1.379762317897787749e-01,6.526279741838167392e-02,6.615314483642578125e-01
-5.587108233566812077e-03,1.085902146157327608e-01,-4.542544561120530622e-01,-1.164977294962274076e-02,1.137580177495075770e-02,3.452572683454361679e-04,5.161029100418090820e-01
-1.619524434157509907e-02,1.809612348888088307e-01,-6.224504409099362867e-01,-3.664767105100946720e-02,1.194358355199956756e-01,3.972746984408591364e-02,7.599354386329650879e-01
1.581934001089535524e-02,9.600089751183502051e-02,-4.475453165665425059e-01,-4.767147113195535635e-03,3.548511293728265521e-03,1.650918829070926195e-04,5.083258748054504395e-01
-8.167023562142994297e-03,1.180676414838542354e-01,-4.488199260717044559e-01,-7.039401407895684928e-03,7.827409178229247783e-03,-1.043004698696936398e-02,5.161343216896057129e-01
8.999798957476540240e-02,4.275457192054571420e-02,-4.506477642256441762e-01,1.065996295239498475e-03,-2.503469948731460500e-03,-5.958531363320577166e-03,5.187644362449645996e-01
7.443165268660678624e-02,1.150028631718442440e-01,-5.199427414641223377e-01,1.658060871260787911e-02,4.069215775261741247e-02,-2.331413601941890665e-02,6.216626167297363281e-01
3.857616733732360803e-03,1.347860666666270690e-01,-5.120479052952455756e-01,-8.801672610520571566e-03,2.196081599227664351e-03,-1.633917284473121803e-02,5.932075977325439453e-01
4.416392511381553310e-03,1.553742318921901289e-01,-5.073969126951402009e-01,8.270580245551951634e-03,1.165268966703780253e-02,1.747968546636869801e-03,6.021835803985595703e-01
1.558863860827726378e-02,1.879419754010837329e-02,-2.413060142280248899e-01,-2.434605565751550484e-03,9.697721140941497481e-03,-1.499193603015240919e-02,2.603897452354431152e-01
-2.217002423732357397e-02,1.560505730747054343e-01,-4.953571328857618861e-01,-3.353802425575779650e-02,1.468938648167874422e-02,-1.701001629518951452e-02,5.872734189033508301e-01
-4.500767882131828657e-05,1.447354059085743661e-01,-5.058755164817128058e-01,3.195770456022609812e-02,-3.228291500719881243e-03,-5.361578629499780951e-03,5.943413376808166504e-01
8.481982326617532042e-02,6.335422229756368373e-02,-4.319594590136623946e-01,-2.562856684544219128e-03,-1.902527204927410918e-04,-3.707789989733787294e-04,5.064077973365783691e-01
-8.421314558983705734e-03,2.615215300339100435e-01,-6.877213969565113549e-01,1.476458854041726512e-02,1.359733703007253713e-01,-1.681226314627786572e-02,8.801466822624206543e-01
2.163943368733795003e-03,1.157503148946376903e-01,-4.535523964254067897e-01,3.644119992075865386e-03,9.127814246471018661e-04,-1.748732601258066142e-03,5.219137072563171387e-01
9.630565254349354731e-03,1.037873433875914075e-01,-4.466208505811542495e-01,4.268169346250075963e-03,1.139465510770937967e-02,-4.957356501968579986e-03,5.103997588157653809e-01
1.806934381230003439e-02,1.529028503754989443e-02,-2.332420629139503598e-01,7.513194412830802478e-04,-1.709110155183313565e-02,-1.734885515411858231e-02,2.534712851047515869e-01
2.850711088951551897e-02,3.304986469384275927e-02,-2.677774977116677002e-01,6.791236467769723104e-03,3.212417429909426164e-02,1.159116974527120598e-02,3.046120107173919678e-01
1.476277800160007148e-02,2.045208797351798224e-02,-2.093464939791637724e-01,-5.736488709070672494e-03,1.865160977470180573e-02,1.112941553373212808e-02,2.303178757429122925e-01
3.412328269628125965e-02,3.424318343631264916e-02,-2.551218337849185946e-01,7.325590557577591616e-03,5.615647845370191904e-02,4.781197493323754988e-02,3.165075480937957764e-01
8.096831074388888272e-02,5.245961341472762940e-02,-4.104850418237509513e-01,-4.414144548066789922e-03,-6.867378598819023168e-04,-1.564456478823326568e-03,4.779075980186462402e-01
-1.268735521530788002e-02,1.008664922311428291e-01,-4.121595424540628883e-01,5.109671978741753273e-02,5.384214313591027812e-02,-8.021921119121991350e-03,4.843105673789978027e-01
-9.043601249482634274e-03,9.478446396340384217e-02,-2.908421920698484042e-01,-2.007943010890901256e-02,1.250756156234127392e-01,-2.001032855576934805e-02,4.108428359031677246e-01
2.262825805891217623e-01,2.714150771981144183e-02,-6.887706234332099386e-01,8.574051501992636937e-02,1.322684319334470164e-02,-8.390209064822352902e-02,8.593326807022094727e-01
7.645367729486665653e-02,7.637680226318488419e-02,-4.486837523344858747e-01,1.052929968543410595e-03,3.568052574704409872e-04,2.142358956634065985e-04,5.251026749610900879e-01
6.203327447529791150e-02,5.670454768583874094e-02,-4.372989320302356764e-01,2.358769675331611089e-03,2.901787715867356785e-04,-1.396909322452689764e-04,4.967063963413238525e-01
4.350872337287994829e-02,3.827159338275891443e-02,-3.005694456050969632e-01,3.916802723885728747e-03,-9.017194096165933800e-03,3.784970452796255352e-02,3.481421768665313721e-01
7.916713380396889210e-02,7.034988433446420775e-02,-4.403127369524924006e-01,1.662957107295332405e-03,-1.828689177869019956e-03,-1.162427388895608156e-03,5.151495933532714844e-01
2.309048457728077319e-02,1.816030505767671221e-02,-2.528946454789514076e-01,2.564891319202949795e-03,1.335802418671296066e-02,5.501270862653549233e-03,2.747312784194946289e-01
2.759926969875090008e-02,1.978582201524248241e-02,-2.609841935208072616e-01,3.036584548713215973e-04,2.717369368114519457e-02,1.172994182072776030e-03,2.886282503604888916e-01
1.230721181838462241e-02,1.194925229801313549e-02,-2.023306074692722833e-01,-8.928594999521251069e-05,1.798241170330084487e-02,1.243352318973097240e-02,2.177764773368835449e-01
7.644964116662583686e-02,7.455380393292188046e-02,-4.476424613857812873e-01,-1.053061412405750276e-03,-1.093851619548798698e-04,1.175482169202324750e-04,5.231500267982482910e-01
7.640169459525406048e-02,7.471517081938758298e-02,-4.482175667410787101e-01,-1.048827637752420758e-03,2.992009421943295092e-04,7.743801359435887384e-05,5.237814784049987793e-01
8.124707468729652771e-02,6.597043985709727387e-02,-4.343781106546306670e-01,1.128138959701884035e-03,-7.652055485817856051e-04,1.197189787556186911e-03,5.081688165664672852e-01
7.820158296736545722e-02,7.144472100963619732e-02,-4.394122944269189257e-01,-3.581354172393805095e-03,3.792330300396972494e-03,-5.720116662048608993e-04,5.143490433692932129e-01
7.862951225762659924e-02,7.289822173767676605e-02,-4.452380682607995355e-01,-2.001421859722441864e-03,9.049731240710580035e-04,-4.762178706026012117e-04,5.210401415824890137e-01
5.972046108895764926e-02,7.993416614271867116e-02,-4.161945594955265837e-01,6.297372408451143433e-03,8.900749373934216391e-03,1.413541535327398832e-02,4.873189628124237061e-01
7.041929491618439951e-02,6.718864289209577900e-02,-4.325807111531590476e-01,1.577219260401389617e-03,-1.735286116693843120e-03,9.316683278916777560e-04,5.014115571975708008e-01
4.006609864203877769e-02,7.767516687104661366e-02,-4.430396174592488023e-01,-5.596512284687688889e-03,-7.489811627013740923e-04,2.018239607989658416e-03,5.030731558799743652e-01
6.329420581893172026e-02,5.214133656308722609e-02,-3.719012115377098859e-01,9.773699673300257837e-03,-1.680723227814756061e-04,5.967642156312126002e-04,4.300622045993804932e-01
6.663759939939561949e-02,7.960702192171290048e-02,-4.332280069944967060e-01,6.347984344069986570e-04,-1.004306243961781660e-04,-2.093649686394437434e-04,5.064762234687805176e-01
7.673991987779668622e-02,7.692159468904138930e-02,-4.533937201704326680e-01,6.284312848841734980e-03,-1.852739263351054280e-02,-8.883109894132030712e-03,5.315289497375488281e-01
6.675953261752426426e-02,7.970221507336641698e-02,-4.333914200715611176e-01,4.373992977271928470e-03,-5.931484188748112948e-04,1.324426873591836315e-03,5.068091154098510742e-01
8.805345920512563929e-02,4.841943344188498477e-02,-4.501401238500741253e-01,-2.028532149968677225e-03,-3.967295183672663907e-03,6.471392868610181467e-03,5.196899175643920898e-01
1.062650293489940390e-02,7.677957638122775985e-03,-2.044950842476625508e-01,-3.154506791342069627e-03,1.449179022883859656e-02,-9.432638428167917921e-04,2.152074724435806274e-01
6.691069159284696033e-02,6.888531921739354802e-02,-4.405232103324406845e-01,-5.875521507736389260e-03,-1.213942082105530507e-02,-2.701998297002943666e-02,5.111075639724731445e-01
7.310242992346360769e-02,7.000014949207136739e-02,-4.440124963235136946e-01,1.881122948876145075e-04,-1.215854769385801316e-03,-6.881756718844346619e-04,5.155765414237976074e-01
6.440189490385972437e-02,8.488816436663115805e-02,-4.344809791746176986e-01,3.098025774622895686e-03,8.285096654461670878e-04,3.267174519049923453e-04,5.094656348228454590e-01
4.186435585225387057e-02,6.748795774280996751e-02,-4.386041259670792614e-01,9.137350507989978887e-03,-4.604707417699277494e-04,8.471940813477316177e-04,4.940355420112609863e-01
3.411936202663999607e-02,3.955401287341966943e-02,-3.077156784967552960e-01,6.091698654682974057e-03,-5.919936916666118654e-04,2.454262994618941159e-04,3.447477817535400391e-01
5.571208125516710630e-02,6.655888898635051176e-02,-4.406249805482647108e-01,1.892655100208513394e-03,2.101289616704459309e-03,-2.451783405509860847e-03,5.018902420997619629e-01
5.923806682050555827e-02,6.055874128062777029e-02,-4.402802189724256965e-01,3.033035418514093938e-03,1.742321387788656455e-03,-3.180042536735647792e-03,5.002469420433044434e-01
5.524881575647302978e-02,6.187269261808747700e-02,-4.396874914261377776e-01,4.365320607709021784e-03,-2.181519176507618074e-04,-1.499014645262989102e-04,4.983388483524322510e-01
4.232366447186758363e-02,3.580419784610867906e-02,-2.487966766218529524e-01,-1.230378484479200361e-02,2.800192059788968180e-02,4.789497217814502744e-02,3.042759597301483154e-01
2.872753376069482611e-02,3.718136291718347752e-02,-2.930491106472584151e-01,-3.616549535959014301e-03,3.484769183286449143e-04,-1.019484874996785286e-03,3.261512517929077148e-01
6.028744339807057262e-02,5.901785564967651498e-02,-4.393223552339091120e-01,6.537255884124470312e-03,-4.680951335769827776e-04,-2.517648380957003399e-04,4.991055130958557129e-01
7.233571614033623698e-02,5.961366518671962211e-02,-4.451955387451004276e-01,2.283874368596813201e-03,-4.389682281910509479e-03,5.431907692091492330e-03,5.114473104476928711e-01
5.982002278888826075e-02,5.810701521639030642e-02,-4.391094273365091505e-01,4.554753136846488061e-03,1.180342658193209594e-03,-1.253593398600156466e-03,4.981465637683868408e-01
6.127545476397003310e-02,5.465625503349999526e-02,-4.388629121876848060e-01,4.131708355248762260e-03,-5.450689157662308654e-04,-6.213916500628404718e-04,4.969154298305511475e-01
5.938471362139885468e-02,6.040279810253815218e-02,-4.402788594867118044e-01,6.881393243385863084e-03,1.778589908946338026e-03,-3.183768864977999831e-03,5.003552436828613281e-01
6.050559620927298266e-02,5.540480027732827550e-02,-4.377618014769347754e-01,4.581631627798551931e-03,9.863257466971800803e-05,5.930179980742407040e-04,4.958012998104095459e-01
7.038927757759219639e-02,7.978224229854141702e-02,-4.593667521209259808e-01,-4.420402663979970757e-04,2.566619677700914676e-02,-6.718721268332241391e-03,5.364866256713867188e-01
1.824666977314376437e-02,9.687485720111882470e-02,-4.521959581104996739e-01,-3.265197993731354387e-02,2.427127120798092293e-03,3.782960076770531047e-03,5.174434781074523926e-01
1.130623891605289644e-02,1.021085768283986894e-01,-4.478361368675997101e-01,-1.813516282687133163e-02,-3.348205369366788822e-03,-7.484987826923666931e-03,5.117971897125244141e-01
6.773861268400013791e-02,6.459028702219232754e-02,-4.329869928576052795e-01,-4.519761268308959863e-03,5.601326975315867353e-03,4.772825939159648992e-03,4.993829727172851562e-01
6.156827763176850321e-02,7.505456907512902953e-02,-4.691335207340692759e-01,-1.116001380047381558e-02,-6.933675954781591717e-03,9.393839185125277703e-04,5.380557775497436523e-01
7.335786971096427966e-02,7.181325138841471167e-02,-4.456197852242511637e-01,-6.727054781092923954e-04,1.197741589509178015e-03,4.171970388143472004e-04,5.182130336761474609e-01
5.299869388331057696e-02,6.386622453132859145e-02,-3.797137370247570809e-01,-1.030354164311574755e-02,-8.661096800285573343e-04,5.708216411597662318e-04,4.386141598224639893e-01
7.169639221151324904e-02,8.750921216725138230e-02,-4.654212235504499584e-01,-2.339438981027121625e-02,6.024498728207165234e-03,2.631070629208501210e-02,5.486950278282165527e-01
7.247465924822138472e-02,6.354617323130556938e-02,-4.052823609707709718e-01,-7.843194867512299356e-03,1.228276550736452644e-02,-5.751412977868271617e-03,4.741331338882446289e-01
7.676959697437410468e-02,7.460377078293931041e-02,-4.467982199752467687e-01,-4.518045604924379732e-03,-4.172249852766865205e-04,-1.282529888662436958e-03,5.225520730018615723e-01
1.058213368643435293e-01,6.439358923394580825e-02,-5.036050669316862738e-01,-2.942334145284204033e-02,2.489296955126035077e-02,4.754546515494170733e-02,5.992558002471923828e-01
8.182439042727998602e-02,6.552587152495023548e-02,-4.347453824867854033e-01,-3.314659664181977827e-03,-9.680684956833265128e-04,9.181785895895179040e-04,5.086540579795837402e-01
7.502021914204745623e-02,7.999273610968560266e-02,-4.428623279079421104e-01,-1.511756410028156561e-03,-3.380193724065321675e-03,-1.551558242383833594e-02,5.211195349693298340e-01
6.134179411449169894e-02,8.040970631645757982e-02,-4.171624408930705297e-01,3.377695843134543956e-03,-3.663241701961941505e-03,-1.072966429608841234e-02,4.887472093105316162e-01
7.857184584236354130e-02,6.239120694542146794e-02,-4.238066430463128254e-01,-7.980750510183936761e-03,-9.736344426526494754e-04,7.277139358770643796e-04,4.946843981742858887e-01
2.810820371812272622e-02,9.261454365950419487e-02,-4.555170187078536603e-01,3.131588956428749126e-02,-6.699053126245851399e-03,3.658479287923322408e-03,5.218890309333801270e-01
7.477696151322382745e-02,7.441781977800257519e-02,-4.442346442274224816e-01,-2.066960132050610528e-03,-7.154154368279485492e-04,2.041485142387841102e-03,5.188580155372619629e-01
7.508598192363549750e-02,7.011651360241688558e-02,-4.308869278283920523e-01,-7.485366209201106333e-03,-1.930990609594632201e-03,1.963726815151386768e-03,5.036960244178771973e-01
6.817066875808136528e-02,6.840588855576740235e-02,-4.315683671886658135e-01,1.088499638032312681e-03,-1.081407865705059446e-03,-1.803535671338017286e-03,4.998735189437866211e-01
5.918854693714600823e-02,5.739545704536502813e-02,-4.372140229860067562e-01,1.734807788023239213e-03,-1.618424201570232762e-03,-1.834071684940384518e-04,4.955255985260009766e-01
6.451722795513550879e-02,8.492957476654061644e-02,-4.327859870686719401e-01,-5.208000782239523545e-04,-9.696365811826970858e-04,-6.240377349675189922e-03,5.079357624053955078e-01
7.638951908501101506e-02,7.254572056821639858e-02,-4.383658641784827226e-01,5.753500195983089933e-03,1.192174410589463959e-03,-8.770258894395093754e-04,5.129474997520446777e-01
6.449536558617388615e-02,6.442060948730285452e-02,-4.422777305731354081e-01,-4.074654676680154221e-03,2.286081997314105732e-04,9.351332661195078250e-04,5.067875981330871582e-01
7.524826687712482531e-02,7.616418046621706295e-02,-4.481500733626427313e-01,1.945965752128569082e-03,7.258194453756132859e-04,-2.754046656807218976e-04,5.238694548606872559e-01
7.099939465083315859e-02,7.263712621537243841e-02,-4.469018870030152524e-01,5.223601515469054836e-04,-7.328494640055983108e-04,-2.311495693402912399e-04,5.187245607376098633e-01
6.694115906430228580e-02,8.159836559674435441e-02,-4.393835013070770956e-01,-6.594397433819675818e-04,-1.260149640881291083e-03,-1.735354514302583917e-02,5.146943926811218262e-01
7.915570775176666851e-02,6.939299174712171281e-02,-4.448906416973724132e-01,-1.446708911812041518e-02,-1.635961588670923478e-02,-3.074852171919888882e-02,5.233268737792968750e-01
5.811816035090056065e-02,5.943191600188021950e-02,-4.383934680534313788e-01,7.116308025809454842e-04,7.532506697039369594e-05,-4.458036779587543899e-04,4.971719384193420410e-01
9.053294714273979471e-02,3.694609274858373649e-02,-4.311729917245330501e-01,-3.853753077193171686e-03,-7.018188444351939649e-03,1.824918097285099447e-02,4.982805252075195312e-01
1.860457699706370982e-01,-3.492961680633170640e-02,-5.941084081127088190e-01,-6.164058543505022969e-02,-1.411486440128213900e-02,-4.516649357461732101e-02,7.093604207038879395e-01
7.529071747164647888e-02,7.171759360075782852e-02,-4.473482460061383170e-01,6.120983638952045983e-04,1.938275587086223974e-03,-4.217010147184311383e-04,5.208740234375000000e-01
1.679627997752913826e-01,-5.134653981510582665e-02,-5.015585062592313736e-01,2.530477773338756647e-02,-1.251945478165211387e-03,-1.220907055096106392e-02,5.932081937789916992e-01
1.209208880738180947e-01,4.718480914760431189e-02,-5.029746215594963488e-01,-6.189384013331302239e-03,-5.026011431060024848e-03,2.604687177272668741e-02,5.923723578453063965e-01
6.706441364254647763e-02,6.727515677804496441e-02,-4.118967706708613896e-01,8.551133225858180073e-03,2.078746356730619242e-03,2.092001344531126301e-03,4.793227016925811768e-01
7.444305910786006009e-02,7.903123014070298491e-02,-4.470095892803922499e-01,2.647789572847149709e-03,8.541333164878493582e-04,3.582473108920788594e-04,5.237843394279479980e-01
1.980714222210844255e-01,-7.728439250386520687e-03,-6.306614842102519214e-01,-2.613095133213415300e-03,3.521489920345850094e-02,6.878569101832471278e-02,7.592982649803161621e-01
1.284603711618502175e-01,4.617513166577325023e-02,-5.082115523262564771e-01,-8.547615620901593755e-03,3.530640988417931957e-03,2.784991498614928021e-02,6.019275188446044922e-01
1.571959508443367404e-01,-3.243484765832710393e-02,-4.960067591514769614e-01,3.100617517779939020e-02,-2.594104207672334392e-02,1.055024471083655380e-01,6.140533685684204102e-01
5.589237151233403256e-02,6.647390636661007490e-02,-3.901265993106116658e-01,9.809353083734709960e-03,1.054927145836888997e-03,9.023998077286909166e-04,4.517287909984588623e-01
7.023515416396278188e-02,8.212405669681474563e-02,-4.418752531509840265e-01,3.473463848203040341e-03,1.215303352500368347e-03,-9.058826107929646794e-05,5.181964039802551270e-01
1.504995470472768049e-01,1.700516241885455249e-03,-5.031795258940978677e-01,2.266613356494990780e-02,5.709271183390605790e-03,-1.824375119105976079e-02,5.956578254699707031e-01
5.972841166826792225e-02,8.403916774449154969e-02,-4.258191720705885586e-01,-2.175927211822033681e-03,2.772721923958802390e-03,-7.834925482220058551e-03,4.983702600002288818e-01
5.843680814232973808e-02,8.097590716884789375e-02,-4.175354549970033968e-01,-4.119520405309295454e-03,1.785884477386977774e-03,5.385028515766076803e-04,4.876955449581146240e-01
6.485548031938864755e-02,8.162384500812197574e-02,-4.344903102883143076e-01,1.437242727089360975e-03,8.208264187444718005e-04,3.657036252117600137e-04,5.079460740089416504e-01
5.699854787552546820e-02,7.515217424823861236e-02,-4.094764337334835247e-01,1.677529943993600822e-03,-1.177037607144365951e-03,-1.348776100400467075e-02,4.763979911804199219e-01
6.190839811801324144e-02,8.536209410371628503e-02,-4.314823484083590288e-01,-4.965988157903794813e-04,3.423219432690153370e-04,-6.788713044586606148e-03,5.056636333465576172e-01
6.559044047937065414e-02,8.132578860488476336e-02,-4.341763203664550375e-01,1.252414797125709061e-03,9.043981543442628987e-04,-2.679642081342322184e-04,5.078245997428894043e-01
7.354540889540051030e-02,6.732440611519394102e-02,-4.356243103773264069e-01,-5.078877389784682049e-04,5.381639093443720771e-04,2.061234644875810457e-05,5.060895085334777832e-01
6.825629321640161451e-02,8.011042190697351129e-02,-4.405396493557801052e-01,1.487250600291047846e-03,2.307573655757686588e-04,-4.061155782895075478e-03,5.148800015449523926e-01
4.662679116011830827e-02,6.504052049159159132e-02,-3.686267247569548489e-01,4.645604032432965394e-03,3.283582105781124587e-04,-5.401467672050924533e-04,4.248374402523040771e-01
5.830042996222117857e-02,7.844339250446358269e-02,-4.200756156020828413e-01,8.949137668796939074e-03,-6.276703169025588461e-03,-6.471550223786858361e-03,4.892539083957672119e-01
5.752914667006467364e-02,6.011708851896049866e-02,-4.384270358398317802e-01,4.658891383014309578e-03,-1.007022469087812643e-03,1.288053151191936299e-03,4.973287284374237061e-01
6.512964390236394840e-02,8.226098188751976292e-02,-4.326955300005569383e-01,-3.154581455686877064e-04,-1.108419254196703427e-03,4.992456224242901091e-04,5.066127777099609375e-01
8.201400221004234714e-02,6.765708654602145544e-02,-4.368370253116288238e-01,-4.920259588589214438e-03,4.856242453795902095e-03,-1.768703878669597093e-03,5.119728446006774902e-01
7.932027743595110314e-02,6.872538451698523287e-02,-4.381026721895915355e-01,-3.675059641737964469e-03,1.221589257573869273e-03,5.265593830853667169e-04,5.122524499893188477e-01
6.001129464376811495e-02,8.436982917028471030e-02,-4.283080087331523345e-01,-1.717442868353085197e-03,-4.416423349978906582e-04,6.371028952701297994e-04,5.009535551071166992e-01
6.220701767220276901e-02,8.091620644900254788e-02,-4.209709408935590202e-01,-4.798865777583301816e-03,-6.084682001140465655e-04,1.943512409439592523e-04,4.928703308105468750e-01
6.880799933744610741e-02,7.471785954318432843e-02,-4.432645000007731095e-01,-1.287180248980387270e-03,2.702642721583315127e-03,7.382778237313532754e-04,5.150805711746215820e-01
7.501669377124692284e-02,7.826318540283788705e-02,-4.460273286416072680e-01,-4.588832404394917880e-03,-1.162830767806021784e-03,5.114422710795242522e-04,5.227398872375488281e-01
7.188938510488485090e-02,6.969428026405322107e-02,-4.285689656675507608e-01,-4.000029411414437672e-03,6.064100801424955264e-03,1.560191667405189868e-04,4.995229840278625488e-01
6.852377822653854533e-02,8.156745151120309290e-02,-4.400461768356455083e-01,-2.479263974924147702e-03,9.499486152800090634e-04,-1.316767815339005233e-03,5.152412056922912598e-01
5.744729110636392910e-02,6.134211301299138941e-02,-4.380240954360672401e-01,1.202271292792273048e-03,3.672283279965019628e-04,8.252920769078073105e-04,4.974370598793029785e-01
6.789678491877770838e-02,6.871266162205696970e-02,-4.142935263747800079e-01,-9.620165546034262910e-03,-1.725472860701915802e-03,1.510041166727178231e-03,4.829026758670806885e-01
7.691661067731689339e-02,7.253831996257439907e-02,-4.431868176404583082e-01,-3.717084474099385458e-03,-6.956300464804404064e-04,1.359633137399016058e-03,5.179749131202697754e-01
7.901511697418031610e-02,7.239489514282970717e-02,-4.436776103910499702e-01,-2.392057124129861288e-03,-4.243522442291342229e-04,-1.061029821160281599e-04,5.194313526153564453e-01
-1.081038298353902138e-02,1.367018770629476188e-01,-5.296894025019972529e-01,-7.509903696575070953e-02,3.224973685497344034e-02,-7.549561778780215435e-03,6.226933598518371582e-01
3.988302146467578857e-02,6.492783148626202205e-02,-4.432410980446840898e-01,-3.041604246433379788e-02,-7.699783259442152415e-04,6.800128645450922212e-04,4.989132881164550781e-01
2.680983353355495535e-02,1.024073568205148832e-01,-4.874138270003790518e-01,-6.729880726910998645e-02,-7.477235103555809805e-04,-2.095547995229817689e-02,5.691409707069396973e-01
5.645681726571624703e-02,5.566665846316157240e-02,-4.395997185970544896e-01,-1.338634735752761498e-02,-1.592376679220349617e-03,-1.695271696920092096e-03,4.962202608585357666e-01
7.899051654047994919e-02,6.819846062313758561e-02,-4.311427357456065201e-01,-5.937780631119207383e-03,-2.070822037542899285e-03,2.007677354908663468e-03,5.049532055854797363e-01
3.922017255198398389e-02,8.542508793652220378e-02,-4.661903383635935261e-01,-6.354762565007297803e-02,-1.131100006680504227e-02,-8.710213696644826531e-03,5.418980121612548828e-01
7.125512282445281564e-02,6.272293466792480676e-02,-4.263034915730650187e-01,-1.620839324917165442e-03,-3.655989899971138959e-03,-9.281922215317837954e-03,4.936583340167999268e-01
6.016407945055274320e-02,6.088574220227840894e-02,-4.388984374817926915e-01,4.517491311825048419e-04,-1.233982156335644521e-03,1.710830957556112733e-03,4.994377195835113525e-01
6.080592287602271107e-02,7.630289049760774489e-02,-4.654803822448053685e-01,-3.323711143172087407e-02,-5.651582956211128120e-03,-1.941881465648848375e-03,5.373960733413696289e-01
3.085189363004389729e-02,3.334918301236752813e-02,-2.778245267022714238e-01,-4.011679885357314788e-04,-2.060052525674350640e-02,3.254186385396458381e-02,3.170311748981475830e-01
7.521907881607894919e-02,7.494950055603441519e-02,-4.469025685112567037e-01,-1.891230345600984283e-03,3.804531051802708492e-04,-4.784143114315164030e-04,5.219982862472534180e-01
7.612314709988288186e-02,7.648156839539185792e-02,-4.486819292141279170e-01,-1.861071910143061343e-03,-1.820864633607919875e-04,-2.810203230565260727e-04,5.249946117401123047e-01
7.915799437595347210e-02,7.469228700185961967e-02,-4.476200129504593894e-01,2.806701974439539029e-03,-3.429883495850266878e-04,4.335800252209022769e-04,5.245828032493591309e-01
5.053802715357458286e-02,8.018326003472592278e-02,-4.472844828347272705e-01,-9.463086989790673795e-03,3.915321844039532529e-04,2.953397252215948180e-03,5.135751366615295410e-01
6.722670044731299255e-02,6.170350189109019556e-02,-3.976884744278378903e-01,1.173917275303647430e-02,1.638354898043490335e-03,-1.148316268662738678e-02,4.630614221096038818e-01
6.766628654582740321e-02,7.287594965619523246e-02,-4.453171382950915080e-01,-6.758540580857201911e-04,-4.653898546943665768e-04,5.506647695271219001e-04,5.156108140945434570e-01
7.011523061506702570e-02,6.254668437358862354e-02,-4.451877871656300112e-01,-6.144248357410669794e-04,3.374268916443733113e-03,3.613550286794192223e-03,5.116335153579711914e-01
7.248346684296427811e-02,7.235012913973115634e-02,-4.420219112897061930e-01,1.465886173273851008e-03,-2.058874399932629148e-03,7.879593844567738935e-05,5.144573450088500977e-01
7.625826089650228345e-02,7.380028959885684414e-02,-4.482716256900116103e-01,4.533209169011867068e-04,-2.704832294469542938e-04,4.418797990427065147e-04,5.233066082000732422e-01
7.646786818713052769e-02,7.521311198194158276e-02,-4.484813800396688643e-01,1.591317637062059868e-03,-1.732164994120093766e-04,6.359292635216382428e-04,5.243315100669860840e-01
7.225266397933777229e-02,7.340794285035617817e-02,-4.422043921718133430e-01,1.478089445368503283e-03,-1.986495846613203602e-03,-3.923914223411395096e-04,5.150539875030517578e-01
7.602362736477064065e-02,7.575329039988079605e-02,-4.487795682786497875e-01,6.119302372395676219e-04,9.145441117755630797e-04,-9.963019904705061776e-05,5.246715545654296875e-01
6.964817058016770090e-02,6.937272495096696856e-02,-4.452559636834134693e-01,-4.937972629856579110e-04,-3.017005480526874922e-03,-8.670832232433467067e-04,5.147958993911743164e-01
9.815703563278724286e-02,8.116602944128697983e-02,-4.982001669639367636e-01,-2.890218907434723150e-02,-2.584057913905719525e-02,-5.609866288520305028e-02,5.997902154922485352e-01
-5.344579646713668031e-02,2.465645440222761220e-01,-5.855812626958627476e-01,2.616785275587953791e-02,-1.385583277898498437e-02,4.252598050187025164e-02,7.354428172111511230e-01
7.136716671915524501e-02,6.912961295317610055e-02,-4.436642427582065951e-01,-2.015636182009131194e-03,2.214776419804911651e-03,1.556497664409229893e-03,5.139495134353637695e-01
6.886158819443963242e-02,6.900977059889543130e-02,-4.462441473745071829e-01,-1.947319793830407531e-03,-9.885530556306627891e-05,3.844831232446665158e-03,5.152339339256286621e-01
7.465257364543623209e-02,7.482045199971848470e-02,-4.437425562296624659e-01,3.411860783527148611e-03,9.590958939114443017e-04,9.220748829380482443e-04,5.185179114341735840e-01
2.225010338882535410e-02,1.417648419466839282e-01,-5.404686966586830232e-01,6.052028147229067401e-02,1.357330584312140508e-02,-1.357500189878235383e-02,6.405334472656250000e-01
7.413573962391012406e-02,7.146346494163491325e-02,-4.453337035951641654e-01,1.415650678128262596e-03,2.475667347190078308e-03,2.016124916861972030e-04,5.181621313095092773e-01
7.531921730062027254e-02,7.479534109170477008e-02,-4.464415831506285404e-01,5.939694851983639591e-03,3.882784981093387322e-03,3.580158200412737572e-03,5.216807126998901367e-01
7.021861328131223656e-02,7.673409551164417364e-02,-4.365612917968323958e-01,5.597790290268420468e-03,1.329295181141080303e-03,1.170734628946310278e-03,5.101702213287353516e-01
7.251282063201319739e-02,7.537135553714474634e-02,-4.480775257990638472e-01,-1.131587843773848622e-03,-1.991129729998024876e-04,-3.736786489944514508e-04,5.220296978950500488e-01
7.679857886940996692e-02,7.290463371217215105e-02,-4.468381603748713404e-01,2.218046101080084400e-03,1.662410521128601442e-03,-7.487259859534034457e-04,5.217243432998657227e-01
-2.638683458342137161e-02,8.101260014910191543e-02,-2.216601650134775725e-01,-3.475396580291938153e-02,-1.140983576284038403e-01,-9.880999951958971406e-02,3.776342570781707764e-01
1.523387262696376809e-02,2.567961076208420679e-02,-2.449591639783319785e-01,1.991580901717420523e-03,-1.938010448603717968e-03,-3.006339220626992603e-02,2.706695795059204102e-01
3.687344864281028034e-02,4.398926721115611893e-02,-3.223308386354553634e-01,-7.969801612375882957e-03,1.555120266998638243e-02,1.054823641390732715e-03,3.640793859958648682e-01
5.184642772473044281e-02,7.125616338148982321e-02,-3.866154444411389335e-01,8.585565897946735928e-03,-7.186034481144721285e-03,-1.025352804821390122e-02,4.492520987987518311e-01
7.515319370289344492e-02,7.490268094555435630e-02,-4.469733005212746524e-01,4.672159550075427647e-04,-5.817407368737970846e-04,-1.126681590159120828e-03,5.220065116882324219e-01
7.586517245174900781e-02,7.479311728168183682e-02,-4.483599251213464254e-01,2.902850612394615708e-03,-1.916260554286077031e-03,-4.112158943626567273e-04,5.237250328063964844e-01
5.798757427136719267e-02,8.068943299438077754e-02,-4.152953674274959539e-01,3.294549461754311785e-03,3.869865227234580221e-04,3.958035548168187538e-04,4.850670099258422852e-01
7.569666157753626723e-02,7.376899491708943657e-02,-4.465042588253194111e-01,3.961636852544012316e-04,-1.330515513896623385e-03,-1.440701107051631030e-04,5.212453603744506836e-01
5.351266959364966991e-02,8.285781724046129004e-02,-4.149959366067429989e-01,1.515663075251305397e-03,1.672093672686874666e-03,1.058876803994073083e-05,4.838648438453674316e-01
4.833969851900196679e-02,6.333633437394234345e-02,-3.606868808405983007e-01,-2.052715544527382481e-03,5.236488191955790406e-02,1.646261775910731404e-02,4.274501204490661621e-01
6.406149121650300815e-02,5.928985388858520889e-02,-4.076443246480793703e-01,1.528515962766120988e-03,-2.639256229058574172e-03,-1.550298277420913973e-02,4.701353609561920166e-01
7.077289075638593108e-02,7.800459860321484751e-02,-4.433962305851535946e-01,2.070668180516005690e-03,1.842402674685807422e-04,-3.249751427155216955e-03,5.178659558296203613e-01
7.156806197372497791e-02,7.660224556490702330e-02,-4.461456615014891547e-01,-3.777492600617742523e-03,-1.999082791585645238e-03,-1.619155224634331175e-02,5.210570096969604492e-01
5.665659203728853899e-02,8.122263284868233568e-02,-4.114487331261529324e-01,-1.008650585377295940e-03,-1.060341981700902228e-04,4.509955393484977085e-04,4.808630645275115967e-01
2.672302214352349770e-02,3.296411937220677935e-02,-2.741709014740036365e-01,-4.781312855561665152e-03,6.271967402348882503e-02,1.553968423779368904e-02,3.241115808486938477e-01
5.602765275277649115e-02,4.139927996078582306e-02,-3.347845069933148010e-01,6.220253102489020983e-03,2.943692341175436003e-02,6.859621309290341376e-03,3.874119520187377930e-01
6.093872611477582635e-02,7.831543502665039291e-02,-4.204709009706921741e-01,-7.799491186503493614e-03,-2.508941796144553013e-05,1.119784548329840921e-03,4.905188679695129395e-01
7.349536467283609986e-02,5.027713732189970086e-02,-3.900300809876645070e-01,7.294310174269534597e-03,1.316312796587509361e-02,6.730251838919678112e-03,4.532637298107147217e-01
5.389691643069668969e-02,3.945408860558588526e-02,-3.348643357798763431e-01,9.495807795769636156e-03,2.350591867834854118e-02,1.364504746745378964e-02,3.849879801273345947e-01
5.541754759626965621e-02,4.428762060712340687e-02,-3.461732891136513057e-01,7.951229825182126384e-03,8.366582875865703761e-03,1.978369877563438545e-02,3.981246650218963623e-01
5.405386814409601781e-02,5.616368880663241692e-02,-3.708550683658327074e-01,-1.069467155285323129e-02,-8.312355863718744534e-03,-1.064742886805891409e-01,4.647679924964904785e-01
-4.137132646060254215e-02,1.708922254526157869e-01,-4.491874499367674578e-01,2.197661536277588368e-02,1.388169855345598169e-01,-9.499536567180916213e-02,6.198919415473937988e-01
7.791013436214719312e-02,7.464390236369158882e-02,-4.448238075660874702e-01,-2.584051707402580927e-03,1.033948515495585439e-02,-1.128166389421883737e-03,5.214390158653259277e-01
7.562282203812642489e-02,7.580161925217232533e-02,-4.482575754795413148e-01,-8.310192847445841465e-04,-1.287536562920057451e-04,7.851932095213706329e-04,5.239735841751098633e-01
7.080276755560063751e-02,7.346238355179210422e-02,-4.468042517953892401e-01,1.176216768534937623e-04,-1.354366088324190703e-03,-4.837010789528469823e-04,5.189479589462280273e-01
7.142488190947526849e-02,7.772342915691074494e-02,-4.410527177749175576e-01,-3.645037258955507488e-03,-1.216481810530586601e-03,8.014974149638375706e-04,5.157005190849304199e-01
7.489568345020558571e-02,7.279120725010823634e-02,-4.481493156680473877e-01,7.826015573199906778e-04,5.376717549155368573e-04,-6.262840034606555455e-04,5.219996571540832520e-01
7.331031175935120991e-02,7.813577898901397090e-02,-4.445244648929816411e-01,-1.025310015113956724e-03,-2.121720021085678242e-04,1.312704540405793940e-03,5.202724337577819824e-01
7.588578228527359526e-02,7.474313959408154795e-02,-4.460488509406213553e-01,-1.058418477714785687e-03,-7.699119411622563870e-04,-1.592772244161979808e-03,5.213764905929565430e-01
7.473725199699943200e-02,7.886804489524681938e-02,-4.488108122372622688e-01,-1.077355951229836978e-03,-8.012552151145207720e-04,1.217344263142376790e-03,5.256350040435791016e-01
5.516472339300595995e-02,6.088519694605468158e-02,-4.376381048026206089e-01,4.760253692635997048e-03,6.071925376102191426e-04,3.131327973283272057e-04,4.957577884197235107e-01
7.564572435845465237e-02,7.653067643882691118e-02,-4.495197908390970443e-01,-1.174371021354957470e-04,1.347300523099185618e-08,-6.387390466503919213e-04,5.256097316741943359e-01
7.466567512204178025e-02,7.477449512294648271e-02,-4.466340965220285675e-01,-2.907528890963171665e-03,-2.471294725297287689e-03,9.604262550544889320e-04,5.213987231254577637e-01
3.821002847767583643e-02,4.536480546162297012e-02,-3.043756139766528035e-01,-2.212209847763862720e-03,2.299047694312603748e-03,1.043807910272183948e-01,3.906197845935821533e-01
2.780869165282030819e-02,1.980874111120956016e-02,-2.548956195663042990e-01,-3.782931966468638094e-04,4.940829782471707317e-04,2.596581914450363585e-02,2.823967635631561279e-01
4.711496254223326852e-02,3.741151036274299735e-02,-3.067584178570311182e-01,7.078403471361849331e-03,5.909634667955226267e-02,1.604426922873224137e-02,3.650841414928436279e-01
2.885808957200072800e-02,3.175080345457990949e-02,-2.756834862691917021e-01,9.541295318245804694e-03,1.952451630765782500e-02,9.842869007634274039e-03,3.087754249572753906e-01
2.517305538869725468e-02,2.318207262190669082e-02,-2.687010229484159685e-01,2.842770448974499611e-03,2.086230518501433831e-02,8.561362290822192161e-03,2.955176532268524170e-01
5.548751006059585156e-02,3.221822018669152909e-02,-3.230428594405047038e-01,4.015580230512585079e-03,2.472194299872775350e-02,1.325131502285160738e-03,3.700077533721923828e-01
7.502403892084610892e-02,6.631925393624005238e-02,-4.475466472582489974e-01,3.156538649433126057e-04,-2.837976332122291341e-03,-4.241855337078022717e-03,5.183488130569458008e-01
7.871707605219829817e-02,7.395552081784506626e-02,-4.471158858748143783e-01,-1.029691806474380229e-03,-9.591317484038310980e-04,8.753491226922160712e-04,5.234763026237487793e-01
5.712221728994076875e-02,8.039344050108257478e-02,-4.146551399930252790e-01,1.523493000084898781e-03,-1.086565113483427085e-04,6.801487813973499871e-03,4.839835166931152344e-01
6.793381286271577002e-02,8.079225461179534440e-02,-4.379025009321164674e-01,4.133558495853763498e-04,-6.124227532555034893e-04,-1.731538449013138000e-03,5.123969316482543945e-01
6.230161053580077213e-02,7.496420592155089713e-02,-4.129046576422335524e-01,1.382055928313920181e-03,-3.969081769505114314e-03,5.065257240646346693e-03,4.817973077297210693e-01
6.579760320311078825e-02,7.863553602100847861e-02,-4.285308824123224003e-01,7.193869956989585104e-03,1.880182478644054720e-03,-9.737387064789881919e-04,5.010392665863037109e-01
7.383515044915309189e-02,6.871540939489562128e-02,-4.264998760333466032e-01,-7.099466133017923522e-03,2.295824122513455672e-03,1.384302555128149844e-03,4.979684054851531982e-01
6.174917890890974093e-02,7.141039325975190311e-02,-4.046159992976652853e-01,7.954456199043561521e-03,3.365082504522876744e-03,1.249853032098078957e-02,4.720041453838348389e-01
6.260114649626727368e-02,8.078673400716682163e-02,-4.282768211201749553e-01,5.547894984939160442e-04,6.923290886315134696e-04,1.637528059283556436e-03,5.002291798591613770e-01
7.584284082424860851e-02,7.568301598320836820e-02,-4.485867589424305524e-01,-8.424525415550217916e-04,-9.911219769625214879e-04,1.980015030591144969e-04,5.243546366691589355e-01
7.872685487277786276e-02,6.931193855367559498e-02,-4.373262027079629632e-01,4.640559860019548462e-03,9.709988836207807117e-03,3.809574208995122890e-03,5.117927193641662598e-01
6.853601030950187689e-02,6.635603877812570883e-02,-4.448159454022926340e-01,7.007896192227262106e-04,-1.531847562938703491e-03,-9.265550784179791633e-04,5.122762918472290039e-01
-3.577584432818604887e-02,1.228948237536681698e-01,-4.251550917475073743e-01,1.635733680887567834e-02,1.577979328539793613e-01,-2.033427763952486145e-02,5.615330338478088379e-01
8.184199613797468742e-02,7.616498575221319900e-02,-4.462050108816763561e-01,-4.139357047913818505e-03,1.972462197711008849e-02,1.266796652183768300e-03,5.263948440551757812e-01
7.680586700705208103e-02,7.532439417163366846e-02,-4.490134659422347907e-01,-7.920245655479070130e-04,-6.546336694386873777e-04,6.445105774881438329e-04,5.250843763351440430e-01
-7.264263496398984388e-03,1.235224663354930197e-01,-4.568429649483097266e-01,9.747976421449665307e-03,1.884851472443489773e-02,2.648755644258325541e-03,5.285801887512207031e-01
6.600839881415634935e-02,3.402839970894953880e-02,-3.473416611512440966e-01,-1.046914117579928730e-04,2.908924021790960934e-02,5.351621618264948768e-03,4.016049802303314209e-01
7.264030330051687856e-02,5.414631475246875492e-02,-3.875487315029936264e-01,-5.106479308372131355e-03,1.438030921283764245e-02,-5.651243001082475710e-04,4.520008862018585205e-01
8.501858494658021126e-02,6.361233420941977967e-02,-4.337805729928993492e-01,-1.982570212751743211e-03,4.847782013762980471e-03,-6.703137963126723411e-04,5.085163712501525879e-01
6.710708811366264404e-02,7.957437611804377142e-02,-4.347278973207410191e-01,-4.896626692384085889e-04,-1.506747351961439823e-04,5.276860776164927439e-04,5.081849098205566406e-01
8.187078974993544644e-02,5.716469795629358641e-02,-4.184281430087911091e-01,2.370349496161675441e-03,5.721262452093619014e-03,2.818461358402991716e-04,4.885327816009521484e-01
6.990065285747157353e-02,7.937233599230023029e-02,-4.397798545914166080e-01,-1.560729329930192824e-03,-1.575211636479375904e-03,8.149794991632126808e-04,5.144979953765869141e-01
7.117655438441769511e-02,8.043001137493477337e-02,-4.452138438032601786e-01,-1.600780291000046106e-03,1.230210122260393460e-03,-1.566332354588973505e-04,5.210905671119689941e-01
7.402954535319755669e-02,4.654097428578563012e-02,-3.787710797319952527e-01,-2.703755589783022727e-03,1.803227625522748484e-02,-4.239268300040698750e-05,4.408339858055114746e-01
8.008680896982398045e-02,6.420092847516897794e-02,-4.262916824403714666e-01,-5.418376487663057427e-04,4.745175101639687791e-04,-4.774241764203586945e-03,4.986954927444458008e-01
8.090359864710036653e-02,6.074670026858058902e-02,-4.229121924723606152e-01,-3.948113051004038289e-03,4.768686500116225621e-03,-1.655165792456722530e-03,4.941705167293548584e-01
6.330874794434418473e-02,8.143007574220448297e-02,-4.327694641981529866e-01,-3.588820908506335644e-03,-1.310107427826733050e-03,-1.647730156796467114e-03,5.054339766502380371e-01
4.883523713715962056e-02,7.006051125582590799e-02,-3.748075031820197744e-01,1.083379020477022621e-03,-1.108077828055817988e-03,1.786145691065829308e-02,4.357521235942840576e-01
7.402274038677164603e-02,7.918555421101342029e-02,-4.475285132877207528e-01,-1.047618604208537096e-03,-1.372124768835687562e-03,1.858566569320379983e-03,5.241701602935791016e-01
8.149725765555210222e-02,7.029722714415975737e-02,-4.413084111473419835e-01,-1.186883286908458918e-03,-1.381458683021159284e-03,1.373037123692025935e-03,5.173116922378540039e-01
6.042870825403251489e-02,7.793119360874659063e-02,-4.176200637718385789e-01,-1.772533479377478433e-03,-1.238009347849248413e-04,1.082422492627260237e-02,4.874063730239868164e-01
7.491750598357163615e-02,7.079783193777894335e-02,-4.323634986735415131e-01,-7.348130668139340321e-03,-3.720715832127519974e-03,-7.954331732195437559e-04,5.054370164871215820e-01
6.995208665833654860e-02,7.387070253055036395e-02,-4.445496335927312526e-01,-1.349715411219413151e-03,1.750630243618780512e-03,-1.762736322617261455e-03,5.164954066276550293e-01
4.269398907827445799e-02,8.053848334811591902e-02,-4.451117965478705862e-01,9.411737271353474293e-03,6.997579668101683162e-05,3.712342622752931240e-03,5.080891251564025879e-01
6.840621086399259476e-02,7.340682665028575027e-02,-4.464046879582332927e-01,-1.148224848350843773e-03,-2.588008320736358194e-03,-1.734037340462750562e-03,5.173612833023071289e-01
5.597664655543066470e-02,6.171192834182018250e-02,-3.716612743085302428e-01,-6.657867035214167992e-03,1.328261915883999786e-03,-2.893862624397565766e-02,4.336015582084655762e-01
6.108032720614414712e-02,6.857091878444038224e-02,-4.425498235791711088e-01,7.320092029489813634e-03,1.384912060115017752e-04,-2.931325411608385213e-03,5.076007246971130371e-01
6.840744137876966779e-02,6.866980615199555493e-02,-4.450538066683226157e-01,-1.698169803074407996e-03,-8.356904623365784624e-04,-1.160694338868509734e-03,5.136069059371948242e-01
7.428193912002242771e-02,6.895339743807959998e-02,-4.460289443812293642e-01,7.044364214729645097e-04,2.621993821226165609e-03,-2.601756958674506306e-03,5.177081823348999023e-01
7.322845064254690506e-02,7.413923811034825451e-02,-4.437482626408609243e-01,-3.668564137363051515e-03,-2.884778644403477362e-03,4.135574955583032342e-03,5.175454020500183105e-01
7.560867634000173476e-02,7.620245748869147739e-02,-4.485832369056860780e-01,8.134036969474098093e-04,1.323427689528511829e-04,1.029431052455340992e-03,5.244940519332885742e-01
5.677349334718648222e-02,9.131159153568280118e-02,-4.061333704937425404e-01,1.337754981860493977e-02,-5.658780101184696792e-02,1.531577949135751529e-02,4.922506511211395264e-01
6.035915647447576138e-02,8.094393059575727412e-02,-4.519297996520286742e-01,-2.565848088799607771e-03,-1.970077717747584917e-02,-1.187196997386187050e-03,5.240204334259033203e-01
3.124811359149928802e-02,7.169953319536861991e-02,-4.059613981924674042e-01,2.114360330093102008e-02,-4.433094920672528937e-03,5.149628842184217174e-03,4.603844881057739258e-01
6.438818729909284722e-02,6.307923212567939641e-02,-3.915343521125068671e-01,-6.145874075536385261e-03,-3.732690399143983456e-02,2.353633135908132085e-02,4.617633223533630371e-01
5.527209275626440710e-02,4.296237378055696443e-02,-3.335114061401757701e-01,-9.555173720062676290e-03,-4.551478508339603518e-02,2.250798921169840788e-02,3.930990099906921387e-01
7.731487369807188426e-02,8.617043914318653353e-02,-4.689311973474517559e-01,1.916911919388219337e-02,-3.413196807622323470e-02,4.958923841544105038e-02,5.614936351776123047e-01
6.064785874258254994e-02,8.491457194333335012e-02,-4.304159795973561686e-01,-2.160127940830404002e-03,1.687225667314768427e-03,-5.955094834571387878e-03,5.037638545036315918e-01
6.521350031207015507e-02,8.122750014976734545e-02,-4.268617960858105964e-01,-4.254798885144875538e-03,4.775749731759730207e-03,-1.442179109828119199e-02,5.010203123092651367e-01
6.444112860005363208e-02,8.455564808862545134e-02,-4.333450321071682376e-01,-1.065157617088430871e-03,-8.177219843199296954e-04,1.673888242223157225e-03,5.081557035446166992e-01
1.131865683025606584e-01,3.121125762190224417e-02,-4.443632241176432296e-01,-2.100999057819693747e-02,-1.479925417451993103e-02,-2.259394806461972882e-02,5.247753858566284180e-01
6.689580318492091560e-02,7.353556405953298736e-02,-4.252136891246774963e-01,-1.769939314762501107e-03,-4.782695932395325555e-04,-4.650812925210012598e-03,4.955383837223052979e-01
6.007638864652095623e-02,8.517508572468010519e-02,-4.318469695407765041e-01,1.612407366444906700e-03,-1.113272243712209704e-03,-5.328666933687139888e-03,5.050365328788757324e-01
8.502077902703855661e-02,6.015911163026965713e-02,-4.231285578514816237e-01,5.354470315771923971e-05,-5.294801660621268648e-03,-1.075155913036499652e-03,4.962741136550903320e-01
7.606782395255301532e-02,6.914121134997366913e-02,-4.400283854045775600e-01,-1.440355513652719684e-03,2.985964614188335413e-03,-4.097603924889295368e-03,5.127492547035217285e-01
6.331062204461188059e-02,8.342156576220444153e-02,-4.314032510269426579e-01,-3.467731985531215602e-03,7.020988367543543485e-04,-3.828990092006754643e-03,5.051504373550415039e-01
6.718115614061709318e-02,8.371384228890488277e-02,-4.364644769645464328e-01,-3.157019103069760683e-03,1.036398630236832564e-03,-3.202122153247344890e-03,5.121745467185974121e-01
6.205649276615005094e-02,8.605181622904414795e-02,-4.310820349242105998e-01,-2.968413492385598915e-04,-1.128906662461319791e-04,1.101959328777860417e-03,5.055673718452453613e-01
6.321997837634743544e-02,6.076204030254742094e-02,-4.404173256585211527e-01,7.139840435611406700e-04,-3.098867909936587500e-04,-5.442062602854772944e-04,5.024155378341674805e-01
7.520162632823282345e-02,7.451386907369536572e-02,-4.408111416042466146e-01,-2.649700806992004529e-03,4.127218333361621500e-03,-1.498270485732747410e-02,5.163916945457458496e-01
7.295789913192093912e-02,7.596226139254136367e-02,-4.398151450347027036e-01,3.843873391000299233e-03,-2.034684898245983382e-03,-1.941308766367146922e-03,5.143479704856872559e-01
8.308894107812525576e-02,5.336313649297941275e-02,-4.491999490854133859e-01,1.113130581331990077e-03,-4.505563343030075454e-03,6.190900906799486243e-03,5.182393193244934082e-01
5.992296615904088575e-02,5.839910007648171919e-02,-3.683433872263950914e-01,1.126800871455714385e-02,2.037433780609947467e-02,1.496059840717422346e-02,4.301854074001312256e-01
5.443821111524027589e-02,5.475172794208407745e-02,-3.728830320206937832e-01,-1.227110843858887287e-03,5.153098902125511499e-03,4.748452124828269477e-02,4.354147911071777344e-01
6.565280333116052525e-02,7.132466039434054439e-02,-4.113872654402991325e-01,1.096415305402988205e-02,6.207120004870120798e-03,5.790118334660866208e-03,4.805017113685607910e-01
3.861724551861082932e-02,3.072242595269443488e-02,-2.997811704015287404e-01,7.363093085387699757e-03,2.199847957225031445e-03,-2.189662902986479036e-04,3.347857892513275146e-01
6.325775233767047534e-02,4.639051923742007477e-02,-3.633696731625408738e-01,7.095741721891148449e-03,-8.496348362162989406e-04,4.919815243737652583e-03,4.187186062335968018e-01
6.210972319855323498e-02,8.470018332363307700e-02,-4.297955870715305937e-01,6.328335791830278900e-04,7.667846339286760009e-04,2.568347368175052849e-04,5.035838484764099121e-01
8.163367669587975883e-02,6.653141411736687716e-02,-4.321326875703967452e-01,-3.957294719923312026e-03,5.526708972628128179e-03,-1.627603452920008608e-03,5.065288543701171875e-01
6.643608223399616319e-02,6.739614624731807280e-02,-4.593212450376233380e-01,-2.527349485029429382e-02,8.031433309750366997e-03,4.421459603198133782e-03,5.282942652702331543e-01
6.544828670624835976e-02,5.241401989963842545e-02,-3.796419368725339472e-01,-6.838242796076971289e-03,3.287836221158135092e-02,-6.578716225689286781e-03,4.427040219306945801e-01
7.073154513023754975e-02,7.958533086069394247e-02,-4.390331681986086587e-01,2.072834758805197890e-03,-2.163062211988046359e-03,-6.204793736637078706e-03,5.143872499465942383e-01
6.209284200786352459e-02,5.651074141765558001e-02,-3.771041812615970046e-01,-2.228405218397494243e-03,2.410627386137078818e-02,-4.245367929916510005e-03,4.385040998458862305e-01
5.370702792876272391e-02,-2.624147377405802728e-02,-2.623223694671745765e-01,-4.709356547787134362e-02,6.695273927466847963e-02,9.319227586792731832e-02,3.565895259380340576e-01
1.860416888845925487e-02,1.040630930462635717e-01,-4.614384796375760045e-01,1.818463018050892055e-02,2.096166654024934559e-02,-1.167225260871345392e-02,5.305535197257995605e-01
8.044790365396009557e-02,6.754160024916291971e-02,-4.400792975614543634e-01,-1.401773879409613094e-03,7.315689932207194469e-03,-3.081511004410460164e-03,5.143850445747375488e-01
7.998377691029576186e-02,6.958399975221635225e-02,-4.413188642762289060e-01,-5.863863439751667780e-03,2.191467732928070126e-03,2.625855785556350077e-04,5.162953734397888184e-01
7.339961042122733481e-02,6.918346306610603791e-02,-4.317264422223577314e-01,-3.002419712056538827e-03,-4.575627026046150125e-03,1.269511891089294226e-03,5.031253099441528320e-01
7.293458254053780676e-02,7.369640220654205542e-02,-4.431094787574639260e-01,2.766303150821320289e-04,-2.419036533801087810e-03,2.090013791231906757e-03,5.164552927017211914e-01
4.841020372666507421e-02,4.772766376039319636e-02,-3.359573466311212564e-01,7.468065511295718731e-03,-5.678942981090403380e-02,-9.320460286813073147e-02,4.282292127609252930e-01
7.727946124681842055e-02,7.250847201574844858e-02,-4.462933573483659488e-01,-1.114561824223484843e-03,-2.961994888974291227e-03,-1.916958316746255383e-03,5.212430953979492188e-01
6.572261723323999383e-02,5.170067269026365486e-02,-4.392342751822402858e-01,-1.855836929202137140e-03,8.648439419792895060e-04,3.306173541431101375e-04,4.981069266796112061e-01
7.087655369298598296e-02,5.382273073377813466e-02,-4.426478190804843393e-01,-3.900837938396190495e-03,2.123154805889083258e-03,-2.246735522306974285e-03,5.052869319915771484e-01
6.586054668271984491e-02,5.599772338074765488e-02,-3.874663518653553851e-01,9.317004661832233373e-03,-1.672363600594751240e-04,5.593665946070692542e-04,4.487682282924652100e-01
5.860201987273283564e-02,6.227258468641316824e-02,-4.396071751553385365e-01,-2.726839110005770117e-03,1.332891899496070403e-03,4.966305737742182083e-04,5.000829696655273438e-01
6.430067299163499950e-02,4.168943192082674720e-02,-4.375982658073824805e-01,-1.089330482874281691e-02,6.049611929091563110e-04,7.043164839654819447e-05,4.913474917411804199e-01
5.488190961013941771e-02,5.939546940733167468e-02,-4.468850263059702677e-01,-1.407273750049544206e-02,7.896415018395974358e-03,5.345246688971014466e-03,5.048980712890625000e-01
6.615114262576590742e-02,7.072352602766476815e-02,-4.428940987381689842e-01,-4.632423995363605003e-03,-6.987538532347713389e-03,-4.808052080391388150e-03,5.116207003593444824e-01
5.373786651289924610e-02,9.689393804108373254e-02,-5.448208501180953345e-01,-9.836784387162872401e-02,6.113149080200804344e-03,1.393270119776737932e-02,6.447399258613586426e-01
7.429646382393093051e-02,7.782750552249911857e-02,-4.477803211616664947e-01,1.087888920570374450e-03,9.583952896961729900e-04,-1.286494944151348472e-03,5.238620042800903320e-01
7.078101589886334755e-02,7.912410478570588990e-02,-4.419422064657299032e-01,1.259863049835281473e-03,1.444158495024197488e-03,-2.824602351938131041e-04,5.169561505317687988e-01
7.843679022786084754e-02,6.870068946267235410e-02,-4.384148308206783917e-01,3.405580581637124814e-03,-7.127634466462153939e-04,1.275200842935774554e-03,5.120932459831237793e-01
7.149669182410969825e-02,7.879511836106201095e-02,-4.428888667812867497e-01,1.529021811511518340e-03,-9.481208146682862771e-04,-1.639110462689502426e-04,5.180827975273132324e-01
7.762960937601623423e-02,6.781417790508403876e-02,-4.344805219951256015e-01,3.166268744991375741e-03,-5.449826714240650627e-04,-1.456863352937438200e-04,5.073042511940002441e-01
6.099752947141873216e-02,5.883757358932129033e-02,-4.395727698895360303e-01,-6.892252547413957667e-03,1.821012641220384732e-04,1.098685117562133600e-04,4.996365904808044434e-01
5.942402883632208477e-02,6.069860772957225148e-02,-4.406548836436958161e-01,-3.788019258300676963e-03,2.219348881058873322e-03,2.210749282609285500e-03,5.007898211479187012e-01
6.664050773853008591e-02,6.342277746887309275e-02,-4.436537152019651709e-01,-1.032580191188477983e-03,2.913910113127349526e-03,4.506042674046605023e-03,5.087810158729553223e-01
7.652967528068380099e-02,7.246338674074440100e-02,-4.461871086993236535e-01,-2.034681304191209537e-03,-2.100426032612379666e-03,-4.249587591512573388e-04,5.207207202911376953e-01
7.884954139635980130e-02,7.259874803400545584e-02,-4.453376455470566264e-01,2.236410683165479356e-03,-1.018636573227065271e-03,-1.190955406307389044e-04,5.211073160171508789e-01
6.506107468262808946e-02,6.944273106258916362e-02,-4.440720714787542711e-01,-1.325898729107753674e-05,1.800882097616763591e-03,1.325745846595047022e-03,5.113527178764343262e-01
6.865505863982043766e-02,6.566343529085355568e-02,-4.084501211627915018e-01,1.033228475372120238e-02,1.385011085762622926e-03,1.773908068484712081e-03,4.759689569473266602e-01
7.214893231251937045e-02,7.797433650580412601e-02,-4.466913175017852566e-01,1.357672822918559773e-03,2.356162120985925024e-03,-4.351389139074025511e-03,5.218530297279357910e-01
6.970350516840728705e-02,7.371708752929173603e-02,-4.469892230955994084e-01,9.496025422696054326e-04,-2.090199494108100188e-04,9.493764374004707001e-04,5.187165141105651855e-01
6.459687859099541574e-02,6.152293848711265500e-02,-4.415825407815510140e-01,-3.522735153937045331e-03,2.713621913730741072e-03,9.779731256491131126e-04,5.047110915184020996e-01
6.098387409270075721e-02,6.289386413943751086e-02,-4.411857611723828398e-01,-4.580926188067243124e-03,-4.740602519675536988e-04,2.234710989382980486e-03,5.032054781913757324e-01
7.458992561592608928e-02,7.272232132277209327e-02,-4.476030529882588649e-01,1.217492712508587861e-04,-9.183417345425326289e-04,1.043212343241371265e-03,5.212672948837280273e-01
7.624779871042630663e-02,7.273307154328778612e-02,-4.380029030962067638e-01,6.184592498558524366e-03,5.268476456715482292e-04,-1.016136477076174088e-03,5.126181244850158691e-01
7.406815214956025129e-02,7.589638705212622960e-02,-4.475014978948229083e-01,9.215229353029532006e-05,1.544799067055804994e-04,-9.521412481496972053e-05,5.224862694740295410e-01
7.396527739913164035e-02,7.510437172684261697e-02,-4.477196579750660765e-01,1.732682933196803344e-04,-8.508991176778760287e-04,1.138603360501776795e-05,5.222575664520263672e-01
5.582083550216898615e-02,7.751163218216297612e-02,-4.442140525879315072e-01,-4.768833258728074655e-03,-1.004848663003342357e-02,2.484668739802688500e-03,5.116065144538879395e-01
6.572738623838741967e-02,5.633129170882344994e-02,-4.470761650379506680e-01,-1.506488850955796724e-02,4.642857409555472235e-03,4.560622773938084913e-03,5.089649558067321777e-01
6.079747160728615762e-02,7.839315524755022246e-02,-4.007300020573126842e-01,-1.345216886125736363e-03,-1.063605872091240023e-01,-4.636872272884674795e-02,5.116946697235107422e-01
7.191628495849428093e-02,7.736150656785495405e-02,-4.415128522434703107e-01,9.791161372849502623e-04,-4.027366832347325175e-04,-6.646678733491825052e-03,5.163049101829528809e-01
5.268723965140281740e-02,4.346431567466753354e-02,-3.041152487799052562e-01,-2.405724929456182562e-02,-2.405671213780111173e-02,-6.295360135972474791e-02,3.734490871429443359e-01
7.025764330795480905e-02,7.410401575201597257e-02,-4.470481281056062350e-01,-7.813102288860842518e-04,1.679487935075821801e-03,-1.698415464404338113e-04,5.192496180534362793e-01
7.417303081200574133e-02,7.206662028481292115e-02,-4.450729936178303148e-01,1.259563845607834841e-03,-1.562581821282558623e-03,3.876165954414847710e-04,5.182081460952758789e-01
7.003089587759461776e-02,7.994206852187921153e-02,-4.349776682736392619e-01,9.162714784547982758e-03,1.196527027828818207e-03,-3.218925264942658826e-04,5.102877616882324219e-01
6.397429811478361206e-02,6.816899295055781072e-02,-4.081781137622487177e-01,6.877729014664185625e-03,-6.754079301160883196e-03,-1.696598237216833879e-02,4.754664301872253418e-01
5.433555848930057830e-02,3.319849977483874115e-02,-2.940133747748520099e-01,-2.015405926024653807e-02,-1.926989826754175669e-02,-5.673983731125856883e-02,3.555579483509063721e-01
7.285655822487055455e-02,7.740808265025386770e-02,-4.447194320593232941e-01,1.302073150557463361e-03,-1.280348886633551572e-04,-6.123685497299312429e-04,5.198727250099182129e-01
7.560251485028449125e-02,5.216887542061693361e-02,-4.436108329829907548e-01,2.794026653111567234e-03,-3.696577827727418660e-03,-3.499744005878463026e-03,5.080016851425170898e-01
-7.597687062160699001e-03,6.226859277442234331e-02,-3.461192773486787000e-01,-5.994151006776289592e-02,-1.303217223637631039e-01,-7.507350415305936997e-02,4.709222018718719482e-01
7.308833935840930440e-02,6.557520502895361481e-02,-4.461890336570271676e-01,-6.320893015286420738e-04,-3.712998808737259793e-03,-1.174193388617283344e-03,5.156071186065673828e-01
8.086044406565859322e-02,5.654206273077228007e-02,-4.108321146592823769e-01,-1.825072571100607409e-03,-9.151981995544177916e-04,4.097372148690030263e-05,4.800086319446563721e-01
7.257442427731064516e-02,7.518085127945919877e-02,-4.459399934278711064e-01,-2.297022812900571635e-03,-1.210037060856923846e-03,-1.823296626000763887e-03,5.198515653610229492e-01
8.691955714238619457e-02,6.145325333157700132e-02,-4.311348097493251097e-01,2.737712887017096385e-04,-3.042412225407449089e-04,9.949327998198470926e-04,5.058056712150573730e-01
8.208530040902661806e-02,6.769808976467708850e-02,-4.379005631241083552e-01,-2.745646839187154686e-03,-5.338737725818054180e-04,-4.895933254199759865e-04,5.129671692848205566e-01
7.970617241170049883e-02,6.042652456353556079e-02,-4.207487493225477437e-01,-5.021009595855318100e-03,1.489469765695483269e-02,-2.148871885032129295e-03,4.918671250343322754e-01
8.166702799356834186e-02,6.832776201542928307e-02,-4.399929928662418277e-01,-2.581960631601464169e-03,1.157983926231188985e-03,-6.416101125975486128e-04,5.151444673538208008e-01
5.341473834957460864e-02,7.302181881709149391e-02,-4.143680775270175420e-01,2.639694679707307867e-02,5.359302337987535692e-02,-1.609283090068515734e-02,4.897560775279998779e-01
6.989647150156405586e-02,5.227156045325068168e-02,-3.829394686837482298e-01,-7.724109911829257769e-03,1.015005406637174874e-02,-7.416893190435147609e-03,4.450201392173767090e-01
6.992374094499334558e-02,7.472495748936702764e-02,-4.416506485169192642e-01,-4.128432699718699236e-04,4.407834802317577190e-03,7.966101396767838157e-05,5.140490531921386719e-01
6.897274890266602565e-02,7.476726629112273592e-02,-4.324006719996342785e-01,7.391156471233622724e-03,-3.060448771592956529e-02,7.393249629567725384e-03,5.073971748352050781e-01
7.975127947658358640e-02,6.959843808007190602e-02,-4.449592835881891473e-01,-1.368098436112957263e-03,-6.105169202246953260e-03,-2.264618510787578393e-03,5.198363065719604492e-01
8.055080331395553239e-02,5.206166512082791020e-02,-4.118086610655447566e-01,-5.017743561117859498e-03,-1.370865119412837708e-02,-2.588443639759633891e-03,4.794392585754394531e-01
5.647622752782269218e-02,8.018873227408751525e-02,-4.123894317659113073e-01,-2.272668146537740208e-04,9.413381479383007211e-04,-1.552785921410406583e-02,4.819143414497375488e-01
6.628335007963717662e-02,8.094863039709251917e-02,-4.386390808415011056e-01,6.708961730004562272e-04,1.277874437827656966e-03,-5.535374494805069337e-03,5.125082731246948242e-01
8.322978965863056522e-02,6.723646737906882609e-02,-4.376975218617418228e-01,-3.466151664691916739e-03,-7.014735950999978660e-03,6.778313465474080073e-04,5.132979154586791992e-01
7.673915676401446562e-02,7.210789803305345247e-02,-4.410368477343228344e-01,-6.816952389605784521e-03,1.647340892733267260e-04,-5.928801962477381685e-03,5.157135128974914551e-01
4.022739551951437509e-02,6.536060611501498530e-02,-3.621579705711415187e-01,-5.765817869496609599e-03,-9.082390175279785559e-04,5.518728156991448575e-04,4.156464934349060059e-01
8.116692772997302630e-02,6.820889641080368770e-02,-4.371267326856995705e-01,-2.277997896676688984e-03,-3.869892256504904766e-03,1.672093880324673982e-03,5.120049118995666504e-01
7.207122518145828161e-02,8.011853218809636412e-02,-4.409790543656257333e-01,6.666291534102897513e-04,-1.080318155125310851e-03,-5.532567190803388234e-03,5.172143578529357910e-01
6.815212274790199976e-02,4.745243123738038249e-02,-3.736728023868211568e-01,-5.041177644569760398e-03,-2.718127533471705048e-02,-9.861520135241986368e-03,4.348293542861938477e-01
8.197515989943079950e-02,6.248929952821752343e-02,-4.280886351294135306e-01,-3.659564639153511934e-03,-6.916673150615701253e-03,-1.366857363868850600e-03,5.007944107055664062e-01
6.026303586182663041e-02,5.469666381481433359e-02,-4.375819332353417246e-01,4.976017306764822859e-03,-1.046532241352842552e-04,1.756237625345218219e-04,4.951604008674621582e-01
6.738635659588490534e-02,8.100566205142889498e-02,-4.414047309365436988e-01,8.942850429608521952e-04,1.718242501903152969e-03,-5.475489884650559455e-03,5.158337354660034180e-01
1.026270655011645161e-01,1.383081055094662615e-01,-7.410205176955571016e-01,-1.153708483120696737e-01,-1.069137380934108844e-01,-3.467138349852316032e-02,9.060606360435485840e-01
7.764742832708501630e-02,6.571080619060482020e-02,-4.489937904477904196e-01,1.223965957803675600e-03,1.483357401254222158e-03,-1.049863869481344053e-02,5.211035609245300293e-01
7.011959472225995360e-02,7.208454041614267838e-02,-4.388578858122993420e-01,-2.610364944574808128e-03,2.468578058327511142e-03,-7.944107637230545839e-04,5.100026130676269531e-01
7.337187900429259502e-02,6.853580612380547055e-02,-4.424788409542421141e-01,-5.216607456462935867e-04,2.115622799100499041e-03,1.460196987665697468e-03,5.134698748588562012e-01
1.478817784940073543e-01,2.130599581366665052e-01,-8.978634191162807587e-01,-1.325492555311180709e-01,4.456362598038350609e-02,5.689426841839864343e-03,1.106685876846313477e+00
7.072233316878318021e-02,7.630264605902126185e-02,-4.395454809024817444e-01,1.130602524821890456e-03,2.880211942055110061e-04,-1.148756073860898209e-03,5.130885839462280273e-01
7.095940095801545056e-02,6.977528272033195478e-02,-4.458249919715089327e-01,3.145044354093993544e-04,1.272696460960825960e-03,-1.983561017274241937e-03,5.162097811698913574e-01
5.842781776425584606e-02,7.090036175547781427e-02,-4.435420472738170750e-01,-4.334576599339167412e-03,1.434285881898889840e-03,2.357092911875830789e-03,5.083988308906555176e-01
7.619757608614458055e-02,6.514353003563269628e-02,-4.464742589013249718e-01,1.886201893976832938e-04,3.544993117021828181e-03,-7.243519120887800117e-03,5.174220800399780273e-01
5.801634047456280530e-02,5.901255889705955826e-02,-4.371906686110080820e-01,-6.492060377398774576e-04,-1.949087642111110982e-04,-9.037115096558345111e-05,4.957072734832763672e-01
6.131929044073544666e-02,8.516045898311092044e-02,-4.317476854442258150e-01,1.768360633572144472e-03,-8.764643011655020178e-04,-5.917984555336350087e-03,5.055249929428100586e-01
5.306985624555526915e-02,7.199992042851360852e-02,-3.846499361951416507e-01,4.417414305811296141e-03,-1.765261422028142424e-03,-1.487522081626568501e-02,4.483020603656768799e-01
5.310955198841027514e-02,7.050781932934732654e-02,-3.847992790233252247e-01,6.856292271049337431e-03,8.018359514244858361e-04,-1.614214933417861333e-02,4.478954672813415527e-01
6.692625331743531913e-02,8.026063003467159840e-02,-4.328509770340054352e-01,2.119399465192871312e-03,1.738850136589946069e-03,3.596692349452317418e-04,5.065987110137939453e-01
-6.811850402033137186e-04,1.209863738839096481e-01,-4.627668023605814862e-01,-2.118452974069660270e-03,2.791343707296362053e-03,8.536780625979201956e-04,5.334659814834594727e-01
6.707260090049751988e-02,7.247911928323935715e-02,-4.459907371718007107e-01,1.353075403415267578e-03,-1.082259310323294534e-03,3.538617366248060503e-03,5.158330202102661133e-01
5.203910482655876857e-02,4.050680956132539368e-02,-3.335811850641346443e-01,7.991170261436737407e-03,-2.208162617840288625e-02,-1.607167715266021382e-02,3.831686079502105713e-01
6.939864487838168228e-02,7.920225640670514045e-02,-4.395459839417653614e-01,1.427810042671371921e-03,4.635832249671190943e-04,-4.621415944832834612e-04,5.139237642288208008e-01
7.932353968173547210e-02,6.442910808908697273e-02,-4.466976959511838041e-01,6.245754356186091535e-04,1.540868305392972771e-03,-7.250122652665462811e-03,5.188943743705749512e-01
5.837635694487114391e-04,1.573218721705579859e-02,-1.484953875182798422e-01,-3.485810372857978123e-02,5.578326130985436504e-02,5.236120463968418209e-02,2.142849713563919067e-01
6.362664072421961303e-02,7.192623048272575592e-02,-4.115865049115207674e-01,7.568133183970714856e-03,-1.155770260162647042e-03,-4.359918624695256414e-03,4.796596169471740723e-01
7.326479993051709938e-02,7.281544836572353963e-02,-4.466805237224783509e-01,-3.942848742782042570e-05,-1.198833043300326926e-03,8.819573841622112102e-04,5.197271704673767090e-01
7.008765745494141552e-02,7.775698416418985737e-02,-4.425499165743267960e-01,1.442378527357292403e-03,-1.400149414665317112e-03,-5.148284107955813926e-03,5.166036486625671387e-01
7.187632888933997988e-02,6.754313590110802568e-02,-4.458855599850957141e-01,-7.779722911952541460e-04,1.180510469154719480e-03,-4.268550698420974128e-03,5.156677961349487305e-01
8.066959783806409989e-02,5.789169380709244250e-02,-4.149981312657097798e-01,-6.359917602191671182e-03,2.146742013087189413e-03,-2.422081060818710718e-03,4.848379492759704590e-01
7.466039270023328012e-02,6.813858529882027559e-02,-4.425331002034456618e-01,-2.387936538535099661e-04,2.486376456962849715e-04,5.067284826876632944e-04,5.139647126197814941e-01
8.738216978622428965e-02,4.947113844639150493e-02,-4.579634078105102035e-01,-1.236853304568639317e-02,-5.182189727329457318e-03,-2.246406887671316497e-03,5.279385447502136230e-01
6.682616035847646629e-02,5.461808795760716984e-02,-4.405802890749728196e-01,2.049966947648760099e-03,-1.830924959717201810e-03,2.364819964676115240e-03,5.014532208442687988e-01
2.337205129665526071e-02,8.058856833434147049e-02,-4.413505611508663495e-01,-1.664048344432799906e-02,2.561763056876035019e-03,2.435910074754701459e-03,4.966878890991210938e-01
1.976224127081188664e-02,9.657292597604608120e-02,-4.506294629621094283e-01,-6.683368371404638242e-03,3.829891445932482544e-03,4.781936374308325306e-03,5.133672952651977539e-01
2.377617516709987222e-02,1.089437083315913657e-01,-4.569485052235851552e-01,-5.564902119256344426e-02,-7.645399304729997951e-03,-9.495853328386486686e-03,5.376133918762207031e-01
6.840765037971333062e-02,6.571001441328977455e-02,-4.447127572970847043e-01,6.531796079720026457e-04,3.454097198926489912e-04,2.787844738309238658e-03,5.118013024330139160e-01
5.427702076365273354e-02,5.837662301502397066e-02,-4.393744428429038340e-01,1.506642392990933596e-02,-2.027243375939934318e-03,2.063454753629458908e-03,4.964256584644317627e-01
4.254251494461414040e-02,9.439730230495066432e-02,-4.571105866189030809e-01,-7.770026958036961584e-03,-9.200501504402262831e-03,8.736070378367286364e-04,5.279099345207214355e-01
9.427385526979187302e-02,2.041308616474965532e-02,-4.481197929689744730e-01,6.423950950900102902e-03,-1.007719023172368774e-03,4.130935810448367780e-03,5.096692442893981934e-01
8.351357008862914100e-03,1.215242518296306418e-01,-4.578231278941003457e-01,-2.255430793495650024e-02,-1.105853459797661274e-02,1.169215513047839813e-02,5.340300798416137695e-01
2.294770692077127694e-02,9.904266572631909016e-02,-4.529710275421493515e-01,-6.706861411959219935e-03,6.265435032284404071e-03,3.585358036710422323e-03,5.184547901153564453e-01
3.734138693918737095e-02,8.449595103507495653e-02,-4.476138058887835780e-01,-6.732896553437813306e-03,3.389696805859484380e-03,2.332322538514315126e-03,5.103525519371032715e-01
5.122987395683581413e-02,8.512263743159426133e-02,-4.464224604802530250e-01,8.383550409720863170e-03,7.050062735850768508e-03,-1.144652438990185908e-03,5.157880187034606934e-01
5.870142835966035699e-02,6.320479341194501499e-02,-4.396694758535081848e-01,5.891622339504697797e-03,1.168068800598153281e-03,-1.090318621201708622e-03,5.007494091987609863e-01
7.698666935341882955e-02,6.590790878638067007e-02,-4.492905127072929217e-01,4.329063330199033662e-04,-1.845551856792457528e-04,-5.424152514952324498e-03,5.209115743637084961e-01
6.280909877863466440e-02,6.143475795622449498e-02,-4.404119436897743767e-01,-8.827940972924103527e-04,-3.410260207853054132e-04,6.258128047161392151e-04,5.025390982627868652e-01
8.074017795326707270e-02,4.786060556344379213e-02,-4.422307530008516840e-01,1.351299013688339774e-03,3.083071397522673795e-03,2.578590836407870877e-03,5.073840022087097168e-01
5.786126325079368748e-02,6.611742134218351330e-02,-4.410111143815492185e-01,1.842592989705811330e-03,-4.641492062945463504e-04,-2.345394284064143513e-03,5.030784606933593750e-01
7.128438970185740908e-02,7.355491121870930127e-02,-4.469214089132826917e-01,-5.263182286439051444e-04,1.714244145156533462e-04,-8.629184456870537308e-04,5.193478465080261230e-01
1.073786211968871529e-01,3.886320156755433686e-02,-2.165218077935694707e-01,-5.855863280507621685e-03,1.766831206596630038e-02,-7.935794167249672626e-02,3.276371657848358154e-01
4.716319073132879680e-02,6.862945163641076540e-02,-4.406117341411631694e-01,5.904802797377523178e-03,-1.909380887613580527e-03,-3.778630075674046401e-04,4.989707767963409424e-01
4.739106344466750831e-02,7.081740839047892533e-02,-4.434145892924137300e-01,6.261309925559496725e-03,6.070517272581492201e-03,-5.436660396312047693e-03,5.032430887222290039e-01
6.551041831140372307e-02,5.690813158221155743e-02,-4.410905121551479402e-01,3.101408291323669558e-03,2.638481246932555379e-03,-2.727972632419700758e-03,5.024267435073852539e-01
5.873936344496069606e-02,7.012090409045826367e-02,-4.432846216692686858e-01,3.883153916129125117e-03,1.743958490087104893e-03,-1.382789943687213379e-03,5.078696012496948242e-01
6.166820583146404022e-02,6.732863823560672478e-02,-4.417025467215064394e-01,1.004890767131700973e-04,-2.388391353944902375e-04,-2.548877663295760938e-03,5.062441825866699219e-01
7.257055890494043537e-02,-1.420370393053684011e-02,-2.885032801753428799e-01,-2.027763367719292650e-03,2.310169019304163240e-02,-1.370536983925699781e-01,4.056312739849090576e-01
7.592354532929498911e-02,6.612886804424547571e-02,-4.464601008155083539e-01,1.779151937778329032e-03,2.228496249204805178e-03,-1.234465936473705394e-02,5.180208683013916016e-01
5.833561346428900451e-02,8.317131770488514486e-02,-4.202772743870114569e-01,-1.694372725307878406e-03,-4.509011962002911736e-04,-9.035472921882326675e-03,4.917600452899932861e-01
9.301937024070888738e-02,3.976659722599734659e-02,-4.467388153436956943e-01,8.346677559002301308e-03,1.868883375479101589e-04,-4.297976187316483732e-03,5.154567360877990723e-01
5.384170226370796342e-02,6.624640418496144378e-02,-3.791979084031811831e-01,-8.536819724311995108e-03,-9.235291642167572446e-04,1.810295586488598965e-03,4.396361410617828369e-01
6.381267239140631098e-02,8.115239074615027137e-02,-4.312315427727687611e-01,-1.172009147510120336e-03,6.839829350415344055e-04,2.056942601608317876e-04,5.039434432983398438e-01
8.482106482283902071e-02,6.478361313364583429e-02,-4.498047002342321909e-01,3.347118796887620616e-04,-1.610649430422685146e-03,-1.270704363524933350e-02,5.253629088401794434e-01
1.079270776736197812e-01,1.183994649851120851e-02,-4.505892447891725605e-01,3.288038000641929290e-03,-1.713204654137725829e-03,-2.931193855623134750e-03,5.172755718231201172e-01
7.526072311067810716e-02,6.869676970413857164e-02,-4.401041103199186399e-01,1.187442263298549988e-03,-6.942112087093836766e-04,2.121538408800290564e-03,5.121331214904785156e-01
6.172886508732863819e-02,7.209291405263751340e-02,-4.054755799072150557e-01,-7.602166233496677333e-03,3.762926315990813581e-03,-1.132496000200912054e-02,4.731069207191467285e-01
3.706018437753746952e-02,7.786507698528247201e-02,-4.417741567578493678e-01,-6.077194268886243304e-03,5.821681128857123747e-04,-2.801304488044513343e-03,5.006211400032043457e-01
5.744622479470937182e-02,6.115489934920143034e-02,-4.372788452231334833e-01,-2.097474020359838161e-03,-1.270296797665550767e-04,4.270219864642108031e-04,4.966036677360534668e-01
6.355808032534127072e-02,8.212752878953896718e-02,-4.276717761602678025e-01,-4.577814335530637491e-03,-4.943621358964632798e-04,-7.107059367823225643e-03,5.009876489639282227e-01
8.384730776299964550e-02,2.741477635599057217e-02,-4.429227040993930498e-01,1.488700454963394829e-02,-2.770076025251647566e-04,-7.922053487036496500e-04,5.016087293624877930e-01
1.088750200883533970e-01,-6.356821639090098897e-04,-4.449004954191504435e-01,-4.009422069626370107e-03,1.565875577282099503e-03,-1.759251419475251063e-03,5.080161690711975098e-01
6.723820508367031601e-02,4.788403308130814717e-02,-4.400439956541677411e-01,-6.725950589918811354e-03,2.446616976435358765e-03,1.666225598167405276e-03,4.980499744415283203e-01
6.549813939414500519e-02,7.909809452810598329e-02,-4.280623775809945242e-01,-7.315072591189766132e-03,2.000487255328268956e-03,6.267070340126273519e-04,5.006725788116455078e-01
4.396954719321094496e-02,9.219992092093759473e-02,-4.453832414482634117e-01,6.334021545969946345e-04,4.643952670286231703e-03,3.170204642930912753e-03,5.152572393417358398e-01
6.495690003049764405e-02,6.964615231687498742e-02,-4.026087757659559396e-01,-1.985629225022160667e-03,-4.805288748456746500e-02,-5.335078280491650088e-02,4.861174523830413818e-01
3.634033164832548013e-02,1.143804473849499848e-01,-4.807533451105648892e-01,-5.648237567053460573e-04,-2.010243863548110896e-02,-6.805109103268178888e-03,5.614110827445983887e-01
7.021209718437770864e-02,6.885434212113875074e-02,-4.452790563175996197e-01,-4.637764577369914848e-04,1.691698534027856059e-04,2.320527619259887472e-03,5.148299932479858398e-01
5.059528070026614310e-02,2.708322481269726523e-01,-8.624579543779712365e-01,-1.010879121396658642e-01,-9.508236763809349568e-02,-2.394255267560879696e-02,1.068997979164123535e+00
6.836263951232984803e-02,7.019173070397616288e-02,-4.457840887348404335e-01,-1.462408195500985303e-03,4.216359921985505556e-03,-1.242308062131604676e-03,5.151262283325195312e-01
2.168488027708867505e-02,1.050887362094004296e-01,-4.627522177005331527e-01,-1.549799772535189954e-02,-1.107906279149705950e-02,3.961655240938960314e-03,5.321421623229980469e-01
4.680781974575792814e-02,3.312481040310698288e-02,-3.034663177831275482e-01,1.011070082241231384e-02,-2.031720405087834511e-02,-3.258593610711793803e-03,3.459238111972808838e-01
6.062224131690580053e-02,5.950548795328181040e-02,-4.400904265539110072e-01,-3.186695019729217197e-03,-2.469904908445379882e-03,-2.137227457370700131e-03,5.002176761627197266e-01
6.033661754726568627e-02,6.130488558616090100e-02,-4.397156651686500717e-01,-7.908183256299383679e-04,1.758809184463925755e-03,1.421115967223346042e-03,5.005543231964111328e-01
2.022307419028673836e-02,1.002897625490351552e-01,-4.488731583166830630e-01,-1.525900379121667913e-02,-1.522514623951319417e-02,3.465199267051355392e-03,5.152192711830139160e-01
2.610175656369265185e-02,9.251921969488766107e-02,-4.492889330927819502e-01,-7.315507360345951601e-03,3.052743664168768283e-03,3.881302814517052975e-04,5.120261907577514648e-01
4.348101640150237035e-02,8.997267600152275557e-02,-4.506611566122165624e-01,-4.493228112890919421e-04,-8.921416665210391700e-03,-3.119307230556605907e-03,5.192109346389770508e-01
8.045315709205363985e-02,6.693471590756461254e-02,-4.356179256183714266e-01,-9.431784740261679560e-04,-7.703954877512490026e-04,-2.979300492274284100e-04,5.094510316848754883e-01
7.442805582294512168e-02,7.271987339153093699e-02,-4.348967476835584600e-01,-6.262965538426137554e-03,9.127949044825160946e-04,-1.596238280429826374e-04,5.085911154747009277e-01
7.598810471738912109e-02,6.827191682924713123e-02,-4.292460248456533289e-01,-5.229121308511269252e-03,-3.183067069264321203e-03,2.981091094703833266e-03,5.015592575073242188e-01
6.664359465499658519e-02,6.216874954701526179e-02,-4.418372408052266831e-01,3.050916091545689737e-04,-2.622220751192837294e-03,-1.819320029023600122e-04,5.062789916992187500e-01
8.172973297528782211e-02,5.909709478360017365e-02,-4.170597738978454316e-01,-5.376528717550681409e-03,1.375036648795924157e-03,1.361441446941342569e-03,4.879674613475799561e-01
7.923490153053960872e-02,6.879387334344724825e-02,-4.371396223907075829e-01,-1.385696479357475001e-03,9.394579776035248122e-04,8.891417366201886507e-04,5.112445354461669922e-01
7.234818179534915905e-02,5.646995483619982048e-02,-3.970058733534586604e-01,-5.815373033494244254e-03,-5.730192811593194831e-03,1.804432824984644095e-03,4.618469178676605225e-01
6.273757799004694991e-02,6.116247127840956921e-02,-4.412218668462520865e-01,1.418927755281263695e-03,-6.732770679236033550e-06,2.949354475237935761e-03,5.032056570053100586e-01
7.313447611985093855e-02,6.405878367774914262e-02,-4.131925841178765713e-01,-8.066818343318009343e-03,-1.027919872386932366e-02,1.271107915872735257e-02,4.828866720199584961e-01
7.308660635092351088e-02,7.136039265573856927e-02,-4.352622235134792072e-01,-3.685168023630709319e-03,-4.821296825477999412e-03,4.175912495163890299e-03,5.076482892036437988e-01
6.560512102899845877e-02,5.148122605059696211e-02,-3.665883957027528117e-01,-6.784194568642200503e-04,-4.442605637455734197e-02,5.636244438449121083e-03,4.323241412639617920e-01
8.168114007293200696e-02,6.820231402354975936e-02,-4.371406112739096850e-01,-3.537872665013092402e-03,-3.885498523106789039e-03,9.496264333906183873e-04,5.122988820075988770e-01
4.712488291493927006e-02,8.312250291641781752e-02,-4.448949497126862274e-01,-1.069458144506783837e-03,5.498175263702631890e-03,8.111317351100950663e-04,5.110645294189453125e-01
7.843739926164455811e-02,7.061997175757395162e-02,-4.436504278374061583e-01,-2.067263414125815844e-03,-3.531803675192836563e-03,-4.774023777128163538e-04,5.182724595069885254e-01
6.756115211037413970e-02,7.266888371001989366e-02,-4.411513382995379540e-01,-4.221372242007681401e-04,2.232763477182556078e-03,-2.160930753446100357e-03,5.113143324851989746e-01
7.244331928658886977e-02,7.963933386471835907e-02,-4.437195724876554781e-01,-3.729767344401670529e-03,-1.271836569464900946e-03,-1.569832662203622404e-03,5.198501944541931152e-01
6.897007660294723896e-02,7.032576934148968006e-02,-4.380097334334271397e-01,-4.275859824014345816e-05,1.902618704388377071e-03,-2.469481776218326093e-03,5.076877474784851074e-01
6.851530386604948175e-02,6.390585449706273624e-02,-4.431851810494941701e-01,-2.547734163877868156e-03,-1.185966622722100768e-03,-1.091317193239860596e-03,5.094381570816040039e-01
7.069966951385620035e-02,5.641916952019965237e-02,-4.435228270713623688e-01,1.115270763220489215e-03,-3.636741618534052728e-03,-8.255887073032511627e-04,5.072778463363647461e-01
7.184847401454599880e-02,7.276607593239312055e-02,-4.508814064291485901e-01,-1.372245752079018655e-03,-4.266540868720943361e-03,-5.447233426288905327e-03,5.233319401741027832e-01
9.372713217639225269e-02,2.682743615529281644e-02,-4.468562806907646623e-01,2.487253355777814361e-03,2.982699935618000290e-03,-7.190978222421440420e-03,5.106285214424133301e-01
6.967199381926156287e-02,7.412344256162872735e-02,-4.458941550097876294e-01,3.670129288631709518e-04,-1.640737732762762111e-03,-2.662111127975266226e-03,5.178349614143371582e-01
9.413512045423322316e-02,2.315297507293981316e-02,-4.502374348200348098e-01,4.968754468893200882e-03,7.512885229418534696e-04,-2.298198216192291927e-03,5.126702785491943359e-01
6.766110467609079415e-02,7.205278353258229296e-02,-4.450525784918792915e-01,-8.805842232263233959e-05,-3.106100179951680387e-03,-2.270047524509551540e-03,5.149667263031005859e-01
1.996352192783887314e-02,1.004018531643675050e-01,-4.691494183093743997e-01,3.942206345420237040e-02,4.905894745666560669e-03,-3.323991414756475356e-03,5.383427143096923828e-01
1.820661331405544203e-01,1.218447036528064742e-01,-7.984694172004114243e-01,1.146110740152758156e-01,1.999375009647294879e-02,-3.113870239406604096e-02,9.744447469711303711e-01
9.740215716969408133e-02,1.338946501093962738e-02,-4.464832131365786827e-01,4.606574689499576790e-03,5.464392940921016005e-04,-2.321283611844342058e-03,5.072049498558044434e-01
1.124730274661941143e-01,1.469188567451984451e-02,-4.611235893455971069e-01,-4.609854045707139497e-03,-1.906204050621222376e-03,-5.833572042359258872e-03,5.316615700721740723e-01
9.615682400020428289e-02,3.714676349246412435e-02,-4.507138154337899660e-01,1.123245054668274741e-02,-6.876860847645223374e-03,-1.126939324940734975e-02,5.207496285438537598e-01
8.962505789210045704e-02,3.577448885852871352e-02,-4.455819731542779438e-01,3.804183945436945789e-03,-4.099489345937853448e-03,-3.925751151335763259e-03,5.105539560317993164e-01
9.382488746982778349e-02,5.809067045133822771e-02,-4.600519422578611128e-01,8.170781539561615663e-04,1.856053102963356677e-03,-2.215198610303045074e-02,5.382829904556274414e-01
1.025782473171778786e-01,1.205323769739034823e-02,-4.462166546595361383e-01,1.224668396833805337e-03,-3.266415353568713313e-03,-1.834195133867218145e-03,5.096445679664611816e-01
9.149273532965143674e-02,2.009693896140407610e-02,-4.266383250331697852e-01,-3.530620136229682855e-03,4.313307662342997020e-03,-1.373061886812957516e-02,4.870560169219970703e-01
1.354314456125004229e-01,3.149699431293201402e-02,-5.329623241936890521e-01,-4.762031130895236393e-03,-1.257123173575585770e-02,-2.080021958742560642e-02,6.244385838508605957e-01
1.112628911376145613e-01,1.365943038930358955e-02,-4.567674090598840553e-01,-2.133308821250897575e-03,-2.760729750257115075e-03,9.163119892740399786e-03,5.263378620147705078e-01
3.804238372677953839e-02,8.003356967298191904e-02,-4.449189545240199162e-01,-6.151480269690571059e-03,-1.483141116404828154e-03,1.014623234395372990e-03,5.053892135620117188e-01
1.015028085267617730e-01,2.331306861983403755e-02,-4.574563860812971283e-01,8.228004692010361040e-03,-5.765555815959970062e-03,5.858609605967395051e-03,5.246427059173583984e-01
3.896285206083463515e-02,6.445121771689038548e-02,-3.605207359333178485e-01,3.040484579377903708e-03,-3.574281637149777716e-03,1.139770966590629929e-04,4.128983914852142334e-01
6.353615356153130556e-02,8.633573248446044235e-02,-4.340183659955460516e-01,3.389518907626709252e-03,-1.166489983823648787e-03,-9.544489321808981123e-04,5.093777179718017578e-01
9.473220056414749513e-02,1.991358427751124816e-02,-4.458282321933026981e-01,-5.901528853417300872e-03,1.491467568046727287e-03,-1.617413549534232626e-03,5.074233412742614746e-01
7.526904030109055066e-02,3.893127888056163721e-02,-4.427870132888767074e-01,-1.087004578861418963e-02,3.485772670040250543e-03,4.638923665425985672e-03,5.013312101364135742e-01
5.455974649898123752e-02,6.143167209747130153e-02,-4.396380750997984088e-01,-3.818831664042447727e-03,7.292407635371561669e-04,3.469285054275406230e-04,4.977152943611145020e-01
5.814931749330051747e-02,5.960033522067481604e-02,-4.383951893104985342e-01,-1.714674321681305090e-03,9.663705151232273097e-05,1.556598560073356799e-03,4.972878098487854004e-01
5.744663751762660309e-02,6.185918717172328440e-02,-4.378640389435923264e-01,-2.319755251690880978e-03,2.727871945330029085e-04,-3.686939968114551170e-04,4.975484907627105713e-01
6.653197833943802486e-02,5.928629693430689795e-02,-4.428110668585862331e-01,-3.023023455823357474e-03,4.481947615684161654e-03,1.048901413694006086e-04,5.058458447456359863e-01
6.087941526019544081e-02,5.640496584758347698e-02,-4.460970485452887546e-01,-1.214670997033655969e-02,4.538371222252552545e-03,4.347856634222535370e-03,5.053096413612365723e-01
7.730951456571832914e-02,5.037676630572476832e-02,-4.430587830719094344e-01,-2.642156201474262726e-03,1.796706053063910164e-03,-2.107547543877550614e-03,5.074815750122070312e-01
1.188152506039463208e-01,-4.820198067001943421e-03,-4.564283001081717583e-01,2.012027423952568797e-03,3.721213672764708651e-03,4.843050873098351215e-03,5.245897769927978516e-01
6.895271710510658680e-02,7.394890361440623061e-02,-4.412165892392722610e-01,-6.731245999921786497e-04,-3.679884893912588068e-03,-9.840099769210638916e-04,5.127294063568115234e-01
6.769985087245833366e-02,4.319884559327022422e-02,-4.389736271528785205e-01,-7.318378027627209931e-03,-1.712327780003088194e-03,-5.562409502296648649e-04,4.950501918792724609e-01
9.752951085341310389e-02,3.837965652592187360e-02,-4.525493347116628096e-01,3.331074043662748604e-04,-2.652146277809270571e-03,1.064815373611552145e-02,5.233640670776367188e-01
7.648678228305938465e-02,5.118990966701392198e-02,-4.454530362440624613e-01,-3.018176865932905260e-03,4.007822106854529859e-03,-1.492033307293098333e-03,5.098429918289184570e-01
1.146244492039710794e-01,-6.155126224666920831e-03,-4.619743911054466912e-01,-2.295218895090279584e-02,8.280914168610516287e-06,2.595990166931166757e-04,5.281980633735656738e-01
6.952517621967335693e-02,4.274192731463488659e-02,-4.403108594300770839e-01,-8.199937984064532143e-03,2.138714820343947179e-03,4.747989509735244993e-04,4.972033500671386719e-01
7.034662638023483905e-02,5.806030058336511535e-02,-4.417296598656250128e-01,-1.751596876770971593e-03,1.101321386334293056e-03,-3.090480632476996390e-04,5.060579776763916016e-01
8.663830615454382045e-02,3.386459187792681402e-02,-4.510844848210064928e-01,-1.611813170459768310e-02,9.279972782957857883e-04,4.429009846499462784e-03,5.141926407814025879e-01
5.525658451096265855e-02,6.029696723591757013e-02,-4.379543775318763266e-01,5.365360170560878363e-03,1.617351583409941951e-05,-1.429184745152869973e-03,4.958436489105224609e-01
6.008249180715510840e-02,5.502952607188141276e-02,-4.375493439858298972e-01,-4.352070255241276449e-03,5.255426628291186763e-04,6.350480572462767655e-05,4.951829314231872559e-01
6.137007503486052729e-02,6.096599368083643888e-02,-4.398148521416806456e-01,-3.784246858334948480e-04,1.096773470022400013e-03,1.208093003779607631e-03,5.009914040565490723e-01
7.386221475865667463e-02,6.274493360803315434e-02,-4.130680236300612318e-01,-8.486728811150244436e-04,1.186308424393791097e-02,-1.615156888551719206e-04,4.819084405899047852e-01
6.361348263987895435e-02,4.465088408644835027e-02,-3.617134808861942608e-01,-1.352467352293491463e-03,-2.978361193878646110e-04,-3.611510612867851479e-04,4.161771833896636963e-01
8.117357344434447675e-02,6.770935886954973504e-02,-4.403416963011827501e-01,4.203186571521990138e-04,5.065607929552305537e-03,-6.192556115175906675e-04,5.149915814399719238e-01
4.599071967271745054e-02,8.019822462373185634e-02,-4.395320028291984649e-01,1.109752750783727379e-03,-2.988357592169870076e-03,-1.164748298749832770e-03,5.035330653190612793e-01
7.258696472461370619e-02,7.788483059258341501e-02,-4.432650706193199674e-01,-3.533754579584489838e-03,7.725781314515675147e-04,-8.870531628050165986e-04,5.185613632202148438e-01
6.803081916700040588e-02,7.329747897748342678e-02,-4.366916850497247760e-01,7.290309202365944773e-04,-3.702661487305505079e-04,1.573813115710788685e-03,5.073856115341186523e-01
5.294779062881097009e-02,5.394121669901627558e-02,-3.163684711863524179e-01,3.720176481933509978e-03,-8.339401445510087607e-02,6.864756300565145325e-03,3.972517549991607666e-01
5.938441641580127772e-02,5.791209828236743018e-02,-4.379581985577133962e-01,1.613489277611378399e-03,1.271454690602774606e-03,5.062933794825853556e-05,4.966208338737487793e-01
5.922866030468221243e-02,5.771277663772594879e-02,-4.371602155880046636e-01,8.648366300678821030e-04,4.931735603979066303e-05,-2.067272974341198696e-04,4.956350624561309814e-01
7.810507078827447214e-02,6.969205684032891979e-02,-4.408221800355809905e-01,2.094885569889954995e-03,5.201328482852278848e-03,-2.005403451583816948e-04,5.148640275001525879e-01
6.810745247444738304e-02,7.502239753673853317e-02,-4.414340848807869477e-01,-4.824732164445471542e-04,-2.341709032161906363e-03,-6.606706967306267804e-05,5.130506753921508789e-01
8.089818914063323652e-02,6.755655863277701401e-02,-4.356706867804053251e-01,1.940073295482793673e-03,-3.405315214933391085e-04,-3.624436746397000065e-04,5.100407600402832031e-01
8.322353288486428191e-02,2.371549146776835704e-02,-4.414970958205453599e-01,1.207155690310985838e-02,8.813178495452762004e-04,5.400137719115378305e-04,4.980845451354980469e-01
1.815935170329175952e-01,1.067337244889838277e-01,-7.785902607942312148e-01,1.141428959244072117e-01,2.629212637076438000e-02,-3.034956979583714604e-02,9.484727978706359863e-01
6.634530459176782302e-02,7.178805886182343388e-02,-4.204546136758520181e-01,-2.166110388373348843e-03,2.961863619928358296e-02,-8.123992028831494502e-03,4.924400150775909424e-01
8.045713923430247716e-02,5.889096373031593723e-02,-4.189598777866580526e-01,2.268390037099955389e-03,6.057285454742217766e-03,1.275302424511063314e-03,4.891240298748016357e-01
6.952210587456070234e-02,6.574957406793360826e-02,-4.085446374435352523e-01,8.613948598232999340e-03,3.955287097745078390e-02,2.741754683235186896e-02,4.836626648902893066e-01
9.164319515441318731e-02,1.626176527214151513e-02,-4.440178073586776297e-01,-1.368699779322929064e-02,-5.571844248931413519e-04,-3.148580756423455772e-03,5.028209090232849121e-01
9.417496811211922836e-02,2.173340956730709927e-02,-4.446705343399561805e-01,4.936367652824178061e-03,-3.139552273982101644e-03,-2.202915184783066187e-03,5.066405534744262695e-01
1.610483611202988274e-02,2.752686934532144747e-02,-3.180493895723139897e-01,-7.659760821231043071e-02,1.185819323775158668e-01,8.648718491405565922e-02,4.447841346263885498e-01
1.270670210995436533e-01,1.002744227712382141e-02,-5.104476209123560704e-01,-7.163945330230342759e-03,6.682288890442643868e-03,-3.452568713222852349e-03,5.880751609802246094e-01
2.544449133401302521e-02,5.555891677078492186e-02,-4.556388473748147483e-01,8.960448411042108707e-02,8.253253791887851798e-02,-6.065700452545397248e-02,5.499047040939331055e-01
6.471562752770138038e-02,7.593090706762747888e-02,-4.461144712763259190e-01,3.264955084043317602e-04,-7.519111260025204690e-03,3.487211910963550188e-04,5.166938900947570801e-01
9.794387967142487161e-02,-1.528146628608506585e-03,-4.845855375122440911e-01,6.405834805415851207e-02,5.986599252567300494e-02,-4.776687633551224277e-02,5.667425394058227539e-01
1.432962697705598143e-01,-1.418239187982367477e-02,-4.875069772500919552e-01,-2.443063934145169383e-02,1.128808069336021888e-02,1.330014400197340914e-02,5.710321664810180664e-01
1.454257222297266061e-01,6.041052975940458536e-02,-6.700551401744034852e-01,6.504466966161218111e-02,1.111916442874005539e-01,-3.818906125074426894e-02,8.105965256690979004e-01
1.123062787110236660e-01,8.020582780696838832e-03,-4.571447621832543384e-01,-9.033990478481548209e-03,4.900154198878272672e-03,2.473962055706738217e-02,5.271787047386169434e-01
1.282765023808545291e-01,3.542723115378212939e-02,-5.259398049222936411e-01,-3.002292622824623280e-02,2.225050716846167613e-03,-5.401434463719062377e-03,6.153722405433654785e-01
7.305818031499225484e-02,7.395103175855438637e-02,-4.337349191255885916e-01,7.184306193730921608e-03,4.761375103751658289e-03,6.805335650121278022e-03,5.075966119766235352e-01
7.913808792438314921e-02,3.581723887930821082e-02,-4.438532749429052737e-01,-4.370592423412647358e-03,2.141842147316332014e-03,2.528001748312965402e-04,5.028036236763000488e-01
7.471962191958941846e-02,7.397788635074609154e-02,-4.426924971523626406e-01,5.813215814151127640e-03,2.932048614382112709e-04,1.563068424339626673e-04,5.171399712562561035e-01
6.480172271576406517e-02,7.311445312032682775e-02,-4.199034189583873422e-01,4.571293816910040192e-03,8.833523290811980642e-04,6.963116258187775076e-03,4.891297221183776855e-01
1.039843899934944638e-01,9.094233067643689439e-03,-4.508209801332445088e-01,9.457619729698265795e-03,-1.356424678182371326e-03,3.920727406223819059e-03,5.142835378646850586e-01
6.621207572703946553e-02,8.393341821616800980e-02,-4.360067341304229016e-01,5.658328546092911138e-03,3.255636173853458225e-03,4.545025210787826710e-03,5.114954710006713867e-01
7.202696641580533243e-02,7.690898538923413019e-02,-4.437097847870578593e-01,1.389820340365345011e-03,-8.004967149755864812e-04,-2.851154631371592761e-04,5.182026624679565430e-01
6.883586872360011877e-02,7.250814747883815858e-02,-4.220715141717081842e-01,7.759168071489854282e-03,-1.387608737110685884e-03,4.261942210518366962e-03,4.929981529712677002e-01
2.420448266668998039e-01,-2.276495607652861963e-03,-6.557502745286539758e-01,-3.236044357084382622e-02,1.135825357249399536e-02,8.920040014473139267e-02,8.208393454551696777e-01
6.199001141657686786e-02,5.484166397475759291e-02,-4.391507480410806741e-01,-3.852134471081413575e-03,1.932568105814761210e-04,6.671624786538482262e-04,4.976512789726257324e-01
6.938135275956008874e-02,7.337942047822440528e-02,-4.323696149395224175e-01,2.278380954419064602e-03,-5.335289265861257709e-04,2.346366933108372157e-03,5.037946105003356934e-01
7.058986513144810404e-02,7.925582513414805574e-02,-4.429485251693188186e-01,9.373172756687361135e-04,1.686195493597025591e-03,5.236474919246403683e-04,5.179373025894165039e-01
7.119317578603540086e-02,7.862658669184033333e-02,-4.404787067017806867e-01,3.591103955037732928e-03,7.459180340040915715e-04,-1.628166341771129311e-03,5.154756307601928711e-01
2.735443306645680972e-02,3.970325305530027216e-02,-2.647476316672421337e-01,1.320584814791393724e-03,4.679786172475770833e-02,-8.879860503899035529e-02,3.454188108444213867e-01
4.050606397729103469e-02,6.941145265880876991e-02,-4.421163171278930104e-01,-8.399817048731056043e-03,2.699545535779385511e-03,6.370578725091004604e-04,4.979407787322998047e-01
7.539772166147959420e-02,8.867575810841032968e-02,-4.671406158664559993e-01,1.004168932095023808e-02,-4.823868319654080888e-02,-1.369755055441070589e-02,5.563939809799194336e-01
6.589701223101743222e-02,5.300591586632391605e-02,-4.411729839464516578e-01,-3.531244794981766404e-03,2.551180370706685515e-03,7.564020383568262730e-04,5.008074641227722168e-01
6.357871427047015467e-02,6.969250799270146346e-02,-4.439085657328796786e-01,-2.215172636561666287e-03,1.609164535965520179e-03,1.300134836625443067e-03,5.105985999107360840e-01
6.387365882013382179e-02,6.511628201388466874e-02,-4.161467238343337094e-01,-3.966959092276888324e-03,-1.595796622824355998e-02,-1.152189638619599728e-02,4.818994104862213135e-01
5.260299909531948592e-02,6.569005567390046041e-02,-4.395540214659945932e-01,-4.114833679755096861e-03,-2.004864003140234845e-04,-2.172588835792514661e-03,4.988945424556732178e-01
5.573862927258568800e-02,6.029092093743770864e-02,-4.378145905776322788e-01,-4.494633284031098602e-03,4.245918149605685263e-04,-5.714604840527698522e-04,4.959076941013336182e-01
7.637096445777286080e-02,7.267703659614171974e-02,-4.463800929951193819e-01,1.757467205773423228e-04,-4.628173556026807895e-04,-5.074609057407338756e-04,5.209153890609741211e-01
7.501854394877333077e-02,6.440910046683706591e-02,-3.780775787757035267e-01,-5.817632842956134247e-03,7.716882241661757180e-02,4.334449157288006865e-02,4.735022783279418945e-01
1.067973425748613980e-01,1.321414155823090464e-02,-4.547547802206234335e-01,-4.989681403378281883e-04,-2.103881587684197833e-05,-9.663489708437665235e-03,5.213709473609924316e-01
7.038090833236002042e-02,5.941691848713767654e-02,-4.419824225829901976e-01,2.171431812706295632e-03,8.177547485988765361e-04,5.854011881478316665e-04,5.069872140884399414e-01
7.302325062797107580e-02,7.383180322121307704e-02,-4.464904446642526392e-01,1.937724293405804904e-03,-7.031224900435338902e-04,-2.116051657325380194e-03,5.199435949325561523e-01
6.533949827717405734e-02,6.906836204165556214e-02,-4.451922717095551651e-01,6.110469740195734016e-04,2.910846565202788137e-03,6.129428467059676007e-04,5.124333500862121582e-01
7.089871772415007323e-02,7.660446390165490116e-02,-4.417268514567083137e-01,3.050761290097980284e-03,-8.114745460582699615e-04,2.572602571879103865e-04,5.155313014984130859e-01
7.290489275733547103e-02,7.611419947528441643e-02,-4.424936684030487677e-01,1.485025908019427287e-03,-1.049913106038067407e-03,-6.338612378156735071e-04,5.170214176177978516e-01
6.997722797152333696e-02,5.138634062118044299e-02,-3.494081823800634368e-01,-1.349297935811810678e-02,7.093948248180141636e-02,8.961580253749677760e-02,4.562558233737945557e-01
8.017754191520740092e-02,6.824155162352546489e-02,-4.406389520002356730e-01,-1.493477234121925405e-03,-4.001712503530614924e-03,-9.886043727872888005e-04,5.150082707405090332e-01
6.221709494067748092e-02,6.444946033733911506e-02,-3.940045072428443595e-01,1.075658237379979558e-02,1.213830861370427186e-02,1.086130641864072564e-02,4.585898220539093018e-01
4.856373680880654575e-02,7.307937418748627900e-02,-4.414360842833565113e-01,1.199205021616172630e-02,-2.331237166300642854e-03,-1.830028362977613931e-03,5.031613111495971680e-01
7.334539089615499385e-02,6.888700714201709263e-02,-4.432001410021878529e-01,-5.328242927521820811e-04,-2.597088516924351415e-03,-1.394388722378387888e-03,5.143570303916931152e-01
6.736677291763226716e-02,7.731459940344106996e-02,-4.331156977030520827e-01,2.031981723450062421e-03,-5.037398451030566634e-04,3.580034285162806947e-04,5.055431723594665527e-01
6.892505234907428391e-02,7.030843301228414943e-02,-4.295698583518025582e-01,-1.696428233301072383e-02,3.427083393499471414e-02,9.672904845714888275e-03,5.038414597511291504e-01
8.536335642793271838e-02,2.745409763432504757e-02,-4.442287500764549590e-01,9.805926068561145875e-03,-1.677450521809434889e-03,-1.664526498340178524e-03,5.034463405609130859e-01
7.344082977861110528e-02,7.772788842635691697e-02,-4.479437258717730019e-01,1.180373217714627112e-03,8.930919352785925743e-04,-1.671951512877033945e-04,5.235475897789001465e-01
9.654653863867387886e-02,1.266651486439000773e-02,-4.446252339794544706e-01,6.526897077497295294e-03,2.205539680139975874e-03,9.861877713462799486e-04,5.046330690383911133e-01
7.294771427950863529e-02,6.884395474424898076e-02,-4.431861713449967155e-01,-2.177671138721316716e-04,-1.428608775031794216e-03,-2.006374035399187926e-03,5.141121149063110352e-01
6.307582628236216293e-02,8.582944030243880307e-02,-4.321607319183605744e-01,-2.476676022056722038e-03,-2.231567949335240032e-03,2.969812240994597168e-03,5.070554018020629883e-01
1.091903897019971814e-01,6.266663235457908820e-03,-4.498018261337509149e-01,1.318067521973086305e-03,1.042087172701249839e-04,4.477491033185964503e-03,5.153614282608032227e-01
8.107438022261870270e-02,5.507373139731752687e-02,-4.492233543183396516e-01,2.588998465627395489e-03,-4.092668825639957271e-03,6.032313626576545074e-03,5.179606080055236816e-01
6.814552923666397644e-02,6.642586415151019441e-02,-4.290181570426689350e-01,7.723145439740097904e-04,-1.127693251650776531e-03,7.071542137694637048e-04,4.963132441043853760e-01
6.026594626273568123e-02,8.442664229654270325e-02,-4.232491435331574570e-01,2.673686703867243016e-04,8.042281514441337485e-04,3.382254600972849946e-03,4.960736930370330811e-01
6.316492249860236607e-02,8.353904696256753137e-02,-4.293816669753341975e-01,1.178525790664201791e-03,-2.389646835256641877e-05,2.278958656374538254e-03,5.030628442764282227e-01
7.669640935315125141e-02,5.367071617988983245e-02,-4.477732464319846839e-01,3.376070508367026539e-03,4.329597030758055957e-03,1.076144490079588255e-03,5.134357213973999023e-01
7.512218264167475068e-02,7.657371714676078356e-02,-4.444041320807138873e-01,-1.748631473787666166e-04,3.098035996884102462e-03,1.654584699070206846e-02,5.210700631141662598e-01
7.108388663001735663e-02,7.627833259136529431e-02,-4.419707913186943227e-01,2.771314279181155173e-03,-2.484739459881248232e-03,1.198464671030894692e-03,5.157160162925720215e-01
7.292726163966811725e-02,6.631460821873452760e-02,-4.343395988603699909e-01,8.876152492114119420e-04,2.026946113854081934e-03,2.463724782032723336e-03,5.040256977081298828e-01
7.597051204624791221e-02,6.909547405321878055e-02,-4.422693609437334805e-01,1.194328748593767196e-03,9.466501314540035072e-03,9.467442327250765940e-03,5.153629183769226074e-01
6.113404446222325817e-02,8.492298641988646479e-02,-4.315503066285815148e-01,-2.011931563102843656e-03,-1.753187381971197081e-05,2.013950870816685011e-04,5.050113797187805176e-01
9.303806137650216801e-02,2.998543674977241502e-02,-4.494247169585693924e-01,5.691929895742631196e-03,5.279577557507051516e-03,-3.791167733248931426e-03,5.140639543533325195e-01
3.549136908648600763e-02,8.167852765650546187e-02,-4.451069309521442641e-01,-2.319560738575988934e-02,-2.967719812116412486e-03,1.649161116879618080e-03,5.069064497947692871e-01
7.905764123349093286e-02,5.641831317250281530e-02,-4.159381031891204450e-01,7.567371235991144848e-03,1.118536890985965572e-02,1.180336037968599677e-02,4.850691258907318115e-01
3.897479091635577819e-02,1.155314699684347191e-01,-5.335866365909540665e-01,-6.229258897182726740e-02,2.762880835292765014e-02,-8.586040759050027338e-03,6.258380413055419922e-01
9.822324856701361573e-02,2.170794746023513300e-02,-4.536917387164668414e-01,3.833259300366686703e-03,-1.931846801978592994e-03,-9.073151916701223396e-03,5.182055830955505371e-01
5.754251413215880073e-02,7.874874858969044267e-02,-4.122406700316879613e-01,3.645594269847977562e-03,1.003593104011157595e-04,-1.762084818524255452e-04,4.807788133621215820e-01
1.038287582374162188e-01,6.308043065262489146e-03,-4.447499782274059732e-01,2.549142674657180283e-03,3.607435797756908475e-04,5.597223591122108856e-03,5.070157647132873535e-01
2.638865861614916319e-01,2.199465438771658343e-02,-7.698940688911504182e-01,4.252582859323094516e-02,9.572485057973648820e-03,-4.201401093065889464e-02,9.424153566360473633e-01
8.410379823777250352e-02,4.728465561846961762e-02,-4.417900954971161198e-01,-1.686424047476573623e-03,-4.177700843231216959e-03,5.961366786149214364e-03,5.086497664451599121e-01
6.257379782960270642e-02,8.183544897192776557e-02,-4.257176003777790041e-01,6.088768626688540082e-03,1.565093153607422828e-04,7.067998120786449234e-03,4.984636008739471436e-01
6.949400574751221638e-02,6.974517356827533709e-02,-4.248916033057204000e-01,1.150737609148861501e-02,4.950515244046798345e-03,8.945709788926173994e-03,4.952294826507568359e-01
3.971334569177267793e-02,1.131407051043240575e-01,-5.296641713988324840e-01,-4.875820604191509477e-02,1.005362121889296278e-03,3.598872672097407077e-02,6.183938384056091309e-01
4.660413647351374644e-02,-1.557324737139043069e-03,-3.253301528383781283e-01,-8.205096520170027108e-02,-1.140768488365351968e-01,-1.302047660085468850e-01,4.825341999530792236e-01
2.094561068302815965e-01,4.003107537940431282e-02,-7.673552390289101188e-01,6.306710663285138019e-02,-1.375326944546579125e-02,-2.935082750149611147e-02,9.123887419700622559e-01
-8.396734380139631027e-03,1.240527286261877693e-01,-4.833484251137442067e-01,-2.644634299934297411e-02,1.684389724465727711e-02,-7.023075300300470405e-03,5.559913516044616699e-01
7.643008523739752702e-02,5.717655016544034852e-02,-4.461076469261517907e-01,-2.049716837468205932e-03,-4.635437052297570852e-03,-5.791810582793559606e-03,5.133550167083740234e-01
6.311144045448266460e-02,6.287298600229290768e-02,-4.424329641059146501e-01,-5.887668142519847034e-03,-2.810324819944010587e-03,-8.475143320265607089e-04,5.055536627769470215e-01
7.243019098655334442e-02,6.927169336999150495e-02,-4.453019774178357815e-01,-1.299318243407633286e-03,3.607787812514207278e-04,-2.373422835241932507e-04,5.161656141281127930e-01
3.991513012643430058e-02,6.253737889160368435e-02,-3.533182168292389180e-01,-5.121487265605851637e-04,-2.930875047459543560e-03,-2.033334874995196880e-03,4.050666689872741699e-01
6.279467166767410680e-02,6.076383697560219788e-02,-4.409676469923560216e-01,-1.163584243735313242e-03,1.872592080143178515e-04,-3.132999333001974113e-03,5.027834177017211914e-01
7.954249884916803071e-02,3.583532012711926340e-02,-4.443364133577004105e-01,-6.530401156138209914e-03,-4.874786353484354944e-04,2.464354676917196538e-03,5.035961270332336426e-01
6.105917896760978958e-02,6.505108627514877284e-02,-4.413176449696629700e-01,-1.082763259052548117e-03,9.110509494058231100e-04,-1.562959744872407077e-03,5.043978691101074219e-01
6.841756490731959461e-02,7.020460695981950439e-02,-4.453438508882483493e-01,1.442657997441272122e-03,9.495317490741769133e-04,-1.626065297088800715e-03,5.146736502647399902e-01
5.908459728756570994e-02,7.015369169292234863e-02,-4.417466741267505603e-01,-1.498255516509839442e-03,8.423164416333338159e-04,-1.420026181659233026e-03,5.064712762832641602e-01
5.552732575640126345e-02,7.608757646792110862e-02,-4.428057595415018644e-01,1.707530861445659669e-03,-1.647095171109175336e-03,-2.713091609654765847e-03,5.089630484580993652e-01
7.012976947264271121e-02,7.272045127631568406e-02,-4.423463807049388685e-01,1.079955207275566350e-03,-2.600715728034936128e-03,-2.747358743080069248e-04,5.137997865676879883e-01
5.500476797158868059e-02,6.736053173691936014e-02,-4.413833069518269259e-01,-1.680861420080730258e-03,-2.168487564006101997e-03,-3.809888325228712441e-03,5.027456283569335938e-01
6.998517992171518487e-02,5.824408319751178675e-02,-4.438447130350108294e-01,-7.461213801916289192e-04,-3.436070917452065544e-03,1.333542447255292324e-03,5.081028342247009277e-01
5.968044447345755010e-02,7.014494535248202989e-02,-4.433204303523066159e-01,-2.510671847127053311e-03,8.504597836526544023e-04,-1.755340604913850980e-03,5.083437561988830566e-01
6.008793962889272255e-02,7.056132909867302017e-02,-4.453198510985015290e-01,-1.733250828558062853e-03,1.302364124080542364e-03,-3.632651301042016164e-03,5.107775926589965820e-01
6.801048246192636926e-02,7.200196363815938860e-02,-4.462414807587215537e-01,-9.538186749718529267e-05,3.009962671717195896e-03,-2.111572478600622169e-03,5.162985920906066895e-01
5.711937695805732740e-02,6.533935957757350255e-02,-4.413951728711017486e-01,-3.324552344233092267e-03,-2.515464644134744483e-03,-3.120905165174599899e-03,5.027558803558349609e-01
7.445580459329928513e-02,7.606438951895458378e-02,-4.459265101239157092e-01,-1.990465589760045777e-03,7.986584952256413610e-04,-5.945296020684128109e-04,5.212027430534362793e-01
7.496449665736465429e-02,7.623255756915400805e-02,-4.486824229504440265e-01,-1.364813393064752498e-03,-5.082254172239638809e-04,8.795853237622532289e-04,5.242903828620910645e-01
8.315097205837357341e-02,4.834570031552540281e-02,-4.479127455692405446e-01,2.831198019644031675e-03,2.587908607709703181e-03,7.530831649145336426e-03,5.147528648376464844e-01
7.230904535488927309e-02,7.236345019553858116e-02,-4.461862672641820349e-01,1.326044693069125492e-03,4.562201583076157881e-04,1.236578888554651194e-03,5.185326337814331055e-01
7.216740223801576537e-02,7.588899578266161683e-02,-4.366343116990777373e-01,-4.350562354480865326e-03,9.967384237870981298e-04,-6.780105050622278751e-04,5.107325315475463867e-01
6.598595892167197219e-02,6.210745583564494798e-02,-4.409420884312449385e-01,2.148083977122331248e-03,-8.751760379253174793e-04,8.817943100740368754e-05,5.050159692764282227e-01
7.385424401742035627e-02,7.092837526784381841e-02,-4.432291580266011222e-01,4.945319595562735083e-04,-2.034201021969331107e-03,-7.559948129810334719e-04,5.156410932540893555e-01
5.089689484718534773e-02,7.049589985397691771e-02,-4.412420498488291432e-01,-2.445172180983834053e-03,-9.108889591687470292e-04,-2.544226248939160644e-03,5.022650361061096191e-01
7.086162698537187832e-02,4.908348057915534746e-02,-4.452369995645115153e-01,-5.142862453151828342e-03,-1.871302063164270073e-03,-3.920372552202176439e-03,5.056959390640258789e-01
7.370380700673617724e-02,5.822496912394425905e-02,-4.458552805734298241e-01,-2.177295214819640907e-03,-4.908665992317626063e-03,-5.978349159005236051e-03,5.121843218803405762e-01
5.685563516328520639e-02,6.687258277246435623e-02,-4.425767517873446244e-01,-1.213494516821124643e-02,-5.262907568809242591e-03,-5.097411535984991242e-03,5.051125288009643555e-01
8.462838982134443522e-02,8.570459275043695868e-02,-4.830631714206406468e-01,-2.104884968581505894e-02,2.958636279275626835e-02,1.529956821849274944e-02,5.723139643669128418e-01
7.711136122668885151e-02,8.390458160030722645e-02,-4.825975045203043101e-01,-8.859798464817582320e-03,2.216424481919617578e-02,1.755105929274811127e-02,5.654695034027099609e-01
2.115930965017884247e-02,1.010880640319774260e-01,-4.594501745875378407e-01,5.009565645420135417e-03,-1.171666138073998095e-02,5.782190090464455791e-03,5.257147550582885742e-01
6.564822309576295867e-02,8.389568457798693424e-02,-4.704794458479209518e-01,1.819499680247464377e-02,2.993544011277215686e-02,-8.985527532197770326e-03,5.490652322769165039e-01
5.865901496944755933e-02,1.066892723368958462e-01,-4.719276452677558242e-01,1.465119743876524411e-02,3.294247709503460991e-02,-1.707498629940067819e-02,5.604351758956909180e-01
6.486967452140299240e-02,8.164649526458034323e-02,-4.341172607675949924e-01,-3.177887896490560506e-03,1.172964453627624044e-03,-4.392544496990530398e-04,5.076178312301635742e-01
4.775285410882315618e-02,9.190431471898488636e-02,-4.521878841448300768e-01,3.010024629265240208e-03,-5.413414845461328624e-03,5.470532930854185572e-03,5.236106514930725098e-01
7.117176918425957566e-02,3.240713492432276133e-02,-4.191426858173943337e-01,6.177428925215375233e-02,-4.953493047524838017e-02,1.872372760324557406e-02,4.927120506763458252e-01
1.125332140460846286e-01,7.748913826767150903e-03,-4.830738447505068534e-01,-5.694742266418360843e-02,-7.031809205363582886e-03,-3.082243579563270081e-02,5.621784925460815430e-01
2.589773907257356123e-01,1.027740779948688177e-02,-7.499676899689549092e-01,1.968924834170799817e-02,1.419370275472937306e-03,-3.034040339520967244e-02,9.125940203666687012e-01
7.673098452995524843e-02,4.387999180353635564e-02,-4.696459311317327523e-01,-4.548533314274559591e-02,2.589352814325472998e-03,1.058023437239034208e-03,5.365520715713500977e-01
1.487160968453403731e-01,1.744696631821140986e-03,-5.168601017554380617e-01,1.057264742936684342e-02,-3.312997844952759487e-03,1.177820420344621085e-03,6.059241294860839844e-01
7.834092041886450697e-02,6.599274135906424421e-02,-4.465055321391493415e-01,-7.338553971350298853e-04,1.282222137403080846e-03,7.823556962807828863e-03,5.189658403396606445e-01
7.487612293442133526e-02,6.852903645123878396e-02,-4.470201982869068669e-01,-1.920580891395551630e-04,1.901687166459325702e-03,2.207348453020036450e-03,5.187765359878540039e-01
5.922304586270712989e-02,7.284112140654855350e-02,-4.187811395459328234e-01,1.465030820150471993e-02,-3.964993788825811952e-03,2.103489867235201413e-02,4.870332777500152588e-01
8.093184516470236511e-02,4.382586757294165691e-02,-4.458897251519925442e-01,-1.472299881400259899e-02,5.041863252414428278e-04,-4.618160583722072041e-03,5.099849104881286621e-01
8.573239953204231378e-02,4.885477259961781837e-02,-4.495984651675007382e-01,-1.863401983589476132e-03,-2.740882064050837157e-03,6.494468259324633584e-03,5.180317163467407227e-01
7.414247240795787675e-02,6.802871183905107033e-02,-4.408768843969177453e-01,-8.291385655030301342e-04,-3.141416552364904857e-04,-2.424302740684516032e-03,5.120093822479248047e-01
7.526446609770282015e-02,5.192641832844530070e-02,-4.437013901190889897e-01,-3.171276412256071077e-03,-3.800767766570309434e-03,3.220974791911698255e-03,5.078023076057434082e-01
7.270782855140278667e-02,7.157353732117666123e-02,-4.319362743875885813e-01,-7.218379174255570505e-03,-1.873549176499075125e-02,3.034804947940638199e-03,5.053034424781799316e-01
8.583372463627939042e-02,2.979923882650514777e-02,-4.445032283336809442e-01,6.813140465949465291e-03,4.920828773180185162e-03,-1.024821949011374932e-02,5.051801204681396484e-01
8.633257261720259090e-02,3.579102505319889382e-02,-4.478558555343379322e-01,1.540459901423148203e-02,6.263511753402600107e-03,9.892215062444658161e-03,5.118947029113769531e-01
8.619934183771635339e-02,5.888806953156849877e-02,-4.987710182527324010e-01,4.249315280673219425e-02,1.092103079496135193e-02,-2.609825180454130016e-03,5.768493413925170898e-01
7.465629915983829079e-02,7.462428385991304314e-02,-4.416667655473721088e-01,3.653228361178763664e-03,-1.434491820329196910e-03,-1.162155305326533373e-03,5.163557529449462891e-01
7.163178450891102833e-02,4.635886226265936716e-02,-3.978548268769046548e-01,1.064131576296331247e-02,-2.178829513487191838e-02,5.446168828925539857e-02,4.688850939273834229e-01
6.706768766668277926e-02,6.171233035691278679e-02,-4.415913233734495846e-01,-2.444883263371683420e-04,-2.534754640656558360e-03,2.018707781076229746e-04,5.060219168663024902e-01
7.731509618045104282e-02,5.613763048022948898e-02,-4.440229691175824889e-01,1.180698088830873724e-02,6.406961870531050970e-03,3.709055272403136237e-03,5.116481781005859375e-01
7.119595883863732988e-02,6.510831605230155139e-02,-4.451654884893928021e-01,4.323775911144978230e-03,-4.870194896309564328e-03,2.062404084410015756e-03,5.134810209274291992e-01
4.166780402037928432e-02,5.878646628002034968e-02,-4.509204634064835626e-01,-5.032510605873599663e-02,-9.907881048494006013e-03,-1.282602327361484149e-02,5.096612572669982910e-01
7.733905304615051879e-02,4.530874659859368547e-02,-4.452027911471833632e-01,-3.272355591578559805e-03,-3.959835681976639314e-03,-3.835982486254229523e-03,5.074071884155273438e-01
7.304356622136856658e-02,6.582333791268810130e-02,-4.455806794953120487e-01,1.043568563275977220e-03,-3.922756440632804015e-03,6.828525697190550954e-04,5.151014328002929688e-01
7.047011068876971041e-02,7.118358794860146777e-02,-4.461211452939405353e-01,-2.399669980302434157e-05,-1.695615600108408205e-03,-1.328106914146572797e-03,5.169618129730224609e-01
6.654504761187518547e-02,5.385213606708710854e-02,-4.439820069745601394e-01,1.616999247234205545e-02,-4.905217982586261398e-03,4.353987081720474273e-03,5.052052736282348633e-01
6.845037037467430197e-02,4.928173417730632999e-02,-4.413807447363763403e-01,1.125302279007606501e-02,-6.630714778506962897e-04,4.285125299390553887e-03,5.009577870368957520e-01
6.701758429287571484e-02,6.125678863513200900e-02,-4.419592172361362370e-01,-7.869106324964925039e-04,-3.494339567415921059e-04,-1.316476013425816249e-03,5.061283111572265625e-01
7.134439096281086634e-02,6.757464211908703611e-02,-4.451964679363211719e-01,1.544321150444578862e-03,-1.216383908318067813e-03,5.271777399702460860e-04,5.146784186363220215e-01
7.548794327314359287e-02,7.426281112984386978e-02,-4.456747817491035768e-01,-4.616972507239624872e-03,7.035999325150095029e-04,-7.000815381666823005e-04,5.206155180931091309e-01
1.101083927955114339e-01,3.721135790749202643e-02,-5.046759724523667279e-01,-5.546584864199564924e-02,-2.874459719675593315e-04,-5.477183515081711709e-03,5.897266268730163574e-01
1.306667801553965669e-01,1.744685345913046803e-02,-5.536115069087814700e-01,-5.723323441448396887e-02,-6.362438181846161167e-03,-6.509740119929835131e-03,6.431617736816406250e-01
7.896348255331067656e-02,7.376021853436753872e-02,-4.467119189531210677e-01,-9.736379865652685685e-04,1.732240820640575584e-03,-1.249660121207122991e-03,5.231089591979980469e-01
6.786047959453897493e-02,6.651898855199439575e-02,-4.445871273713341010e-01,-1.819262812152967149e-03,-5.035136787435563971e-04,9.896831524942981042e-04,5.117914676666259766e-01
1.116120316908301990e-01,3.581303551235917593e-02,-4.765161490594169158e-01,6.556369578555928251e-03,-3.814029520815904323e-03,4.021954613335401024e-03,5.543301105499267578e-01
1.126083951767910263e-01,2.435297198043687161e-02,-5.014339365159428130e-01,-2.725983964673513865e-02,-1.647831754345788560e-02,-7.397945026165095653e-03,5.777997374534606934e-01
5.171210701679138100e-02,6.619814252512257191e-02,-4.397992614466226247e-01,2.192505841946850321e-03,1.494517724230988063e-04,5.802665582692382012e-04,4.989276826381683350e-01
1.211564039206520227e-01,-1.908827378586196166e-02,-4.881361406695801652e-01,-6.216445782084369098e-02,-5.501475089219617400e-03,4.749483055367028327e-03,5.632119178771972656e-01
6.416780846270198069e-02,8.393672354363906907e-02,-4.335470804327922201e-01,-5.033082666576170483e-04,-1.069393650995496088e-03,-2.029899106126542281e-04,5.078922510147094727e-01
7.411392627083374096e-02,7.299419805161744268e-02,-4.322514141673851062e-01,-7.073294865372300663e-03,-1.399217481145686841e-04,8.957941268983514145e-04,5.059571862220764160e-01
7.042104455243547445e-02,8.034435573053536062e-02,-4.369843460262228807e-01,-7.099693847981940545e-03,2.103848657765420866e-03,-3.243914215097165425e-03,5.126304030418395996e-01
7.448269818192271297e-02,6.192490585201898545e-02,-4.451841194834920135e-01,-1.110379852952113984e-03,1.420998892642728103e-03,-1.577079794164530039e-03,5.135198831558227539e-01
6.862494213909117735e-02,7.788987050298415427e-02,-4.372126081634965522e-01,-2.713170204522092396e-03,-3.334538187952071939e-04,1.254155538590301031e-02,5.110169053077697754e-01
4.306188692231377457e-02,6.968142471706148533e-02,-3.721571505380288358e-01,-2.213780369139103227e-03,-6.432527558480947635e-03,1.635791320735171736e-02,4.302440881729125977e-01
1.106255148387299825e-01,-4.062900613267331207e-02,-1.914634376299333696e-01,1.886373835510024230e-02,-7.035045005165679877e-02,7.965348312724510049e-02,3.215469717979431152e-01
6.769250754837519146e-02,8.168613168958627213e-02,-4.370789652068513553e-01,-1.616332430385031705e-03,2.564025695944864612e-04,6.671985841301129091e-04,5.119209289550781250e-01
8.673203772830215263e-02,6.763913649731809197e-02,-4.605689269612259218e-01,1.608596421149032212e-03,6.198579420379258381e-03,1.714916205962114387e-02,5.389421582221984863e-01
6.445953001431251050e-02,8.203631417922715996e-02,-4.309188870137963812e-01,-2.329590867516564967e-03,-1.989711435819252992e-03,4.010518165323532017e-03,5.044723153114318848e-01
6.736830152735368005e-02,7.971061266679702051e-02,-4.364618578675302785e-01,-2.658269302334898324e-04,1.615858119204274020e-03,-4.614227194548815495e-05,5.101212263107299805e-01
7.646160564726572906e-02,6.599189744635908239e-02,-4.462605613121136683e-01,-3.272940274507292989e-04,2.697771085006914118e-03,8.457841420891485523e-03,5.177954435348510742e-01
7.157589090989721625e-02,7.734146580354323008e-02,-4.380035211225234981e-01,-6.849757186449722190e-05,-2.860300459273360310e-03,6.913367304551224640e-03,5.126503705978393555e-01
7.579632737986985447e-02,6.657437883217165453e-02,-4.463239779530072115e-01,-3.665542623573976485e-05,2.913295130841731754e-03,7.808993387126712815e-03,5.177722573280334473e-01
6.497880675342110335e-02,8.473036439733530600e-02,-4.345274353365895514e-01,-6.918458547566308861e-04,9.469069513983586041e-04,-1.345911161382797516e-03,5.096785426139831543e-01
7.189177301834448475e-02,6.070069178586490199e-02,-4.242670836336624451e-01,-4.613744206297002402e-03,-6.233605362517239887e-03,-1.347528140707107518e-02,4.913974702358245850e-01
6.231333498415772554e-02,8.406343468143759323e-02,-4.312953938251187225e-01,-3.347337388009134079e-03,-3.619229408557803648e-04,6.000980557355178879e-03,5.049759745597839355e-01
5.992933821491158719e-02,5.558188804502114944e-02,-3.755704046882530345e-01,2.191390668237522699e-03,-4.185696911557306582e-02,-8.097242199082354056e-03,4.396052062511444092e-01
6.719727074393241906e-02,5.493734290887805627e-02,-4.411360617256713246e-01,1.610095850827364915e-03,3.216227432534311641e-03,-2.233671614586960757e-03,5.023691058158874512e-01
7.254407254966185881e-02,6.883612757585588771e-02,-4.461483587163316278e-01,1.703956442731011101e-03,2.199130514444348598e-04,-2.338075020143889275e-04,5.168571472167968750e-01
7.000542959008995703e-02,5.748789490063602181e-02,-4.437629725784806856e-01,5.331472372709166775e-03,-1.345442910061853646e-03,1.259461140181221796e-03,5.077193975448608398e-01
7.341035880169635708e-02,7.487964201221491978e-02,-4.477171015960937361e-01,-4.580737117433803006e-04,-5.638370877407703537e-04,-2.347684229666628219e-03,5.218809843063354492e-01
6.788326620745147033e-02,6.929416548121800079e-02,-4.445504713653654627e-01,-6.595911679060055674e-04,-2.125141530164105421e-03,-3.226717496497285599e-03,5.131855607032775879e-01
1.067978663946970996e-01,2.936805824973916929e-02,-2.080046446409438421e-01,-1.519280541136502558e-02,2.422438359510442618e-02,7.097516884961962980e-02,3.135063648223876953e-01
6.019010786937262214e-02,8.700707481351332984e-02,-4.336220431497417871e-01,-2.689377936452798726e-03,1.978362454044244479e-03,3.825766197255569059e-03,5.078281760215759277e-01
6.746449631385412204e-02,8.381695827216606443e-02,-4.406603388980742664e-01,1.055710515133491921e-03,7.730872492082057137e-04,1.367324290379889245e-03,5.165056586265563965e-01
7.387582947210660778e-02,6.072869307937286965e-02,-4.043888295250244735e-01,8.606886877108017517e-03,1.203717473875041619e-02,2.007062039402600102e-03,4.725368916988372803e-01
6.339774121181057653e-02,8.486470532927073429e-02,-4.329591879905923535e-01,-2.299656638363196687e-03,5.582997067496084376e-04,-2.152275160269378324e-04,5.074477791786193848e-01
6.436729866987256354e-02,8.213574671714771180e-02,-4.321391993647698548e-01,-2.003810653880821200e-04,2.748195371897601625e-04,5.710714933991032933e-04,5.056262612342834473e-01
6.561308749364258563e-02,7.647039125015125949e-02,-4.215327508175377158e-01,1.927559274083430561e-03,7.028998722940884084e-03,2.336743749652949592e-02,4.944851100444793701e-01
7.841325131266962956e-02,7.250756677265363104e-02,-4.424471328307348905e-01,5.759675097864902504e-03,2.112268560236718606e-03,1.205401830194931072e-03,5.180459618568420410e-01
7.223426024474688401e-02,7.709889620188201120e-02,-4.468271028416225255e-01,1.112051377303954975e-03,-9.232853596172071412e-04,1.775858560843529121e-03,5.215258002281188965e-01
6.797758630283806669e-02,6.677022473175292516e-02,-4.443598165641863829e-01,-4.579575861299106047e-04,-1.287076208702521906e-03,4.917733734095573262e-04,5.117409825325012207e-01
5.871039803487435038e-02,7.939058045309430045e-02,-4.144485696170429612e-01,2.626239906021656401e-03,6.182738704844763407e-03,-1.815703819993745105e-03,4.839807450771331787e-01
6.337131156545819377e-02,6.475638156940269341e-02,-4.427323213669586144e-01,-4.199899029891145975e-03,-3.681653679028709571e-03,-1.718032648800479250e-03,5.068986415863037109e-01
7.764586372013884685e-02,3.517737049433070085e-02,-4.590250223797316398e-01,-7.194938605734962911e-02,-1.857451444029070697e-02,-4.793777763870910730e-02,5.389683246612548828e-01
8.181329025898839702e-02,4.426239674891838116e-02,-5.162940660788710723e-01,-8.449506050851236794e-02,-4.877388331443104769e-02,-7.801241031068589793e-02,6.192703247070312500e-01
7.476129657633204251e-02,7.510434780032315683e-02,-4.483777125362002347e-01,3.427576464896799031e-05,-9.974970237528230262e-04,-9.435724774101915098e-04,5.233160257339477539e-01
7.530033065660540759e-02,7.155006257738077968e-02,-4.464704469954905997e-01,-1.754350335998515421e-05,6.441624012338220901e-04,-1.768955828040917090e-03,5.199159979820251465e-01
1.214919727201499988e-01,-7.953725066535508037e-03,-4.744296919712955862e-01,-5.264720301967396043e-02,4.401375288231385496e-04,-2.020447072429259333e-02,5.516155958175659180e-01
1.985424940534082361e-01,3.902541911891641013e-02,-7.521527358187961587e-01,-6.027933606144425527e-02,1.145471968733888651e-01,4.074667738383417476e-02,9.126115441322326660e-01
5.757429865599542063e-02,7.044297297551066483e-02,-4.441061762787384404e-01,6.879892350020165061e-04,-1.194452939891385134e-03,-3.202066787447316928e-03,5.082728862762451172e-01
6.998495766505777316e-02,7.399000896354124279e-02,-4.460964070129731507e-01,5.290504353679133633e-04,1.485965034943586768e-03,7.242524104848268923e-04,5.181041955947875977e-01
1.162804616451117434e-01,2.340639732626495495e-02,-4.977306674006697906e-01,-2.242235143868155298e-02,3.493607648310533866e-03,-6.207662977928470049e-03,5.746912956237792969e-01
6.801153076532984176e-02,5.177059237771752809e-02,-4.465877500892450058e-01,-1.435585423589913479e-02,-9.060123448106446485e-04,-5.814095165207824011e-03,5.073862075805664062e-01
7.318314494180516716e-02,7.644954904449521860e-02,-4.457122633108505649e-01,-6.743590335917256729e-04,-1.765794783675289159e-04,1.516277669783447140e-03,5.205443501472473145e-01
6.272130384217536325e-02,6.214975009474013601e-02,-4.672084829387125882e-01,-3.791314915477496383e-02,1.574472147345483408e-02,9.800012362525594919e-03,5.346653461456298828e-01
7.475884498715970605e-02,7.312575958035091861e-02,-4.366132986225504942e-01,-4.485833444128344179e-03,1.948738457736092725e-03,-1.732567895395750778e-03,5.106366276741027832e-01
7.470178051106174388e-02,7.335360592068040919e-02,-4.481854989646337217e-01,5.283415059095047071e-04,-3.288643934377543819e-04,7.242777703989257019e-04,5.222170948982238770e-01
4.078994208654815323e-02,6.722186826752249433e-02,-4.376300280462925851e-01,-9.184708787983606945e-03,-1.183702906111612843e-03,-5.053754985281601244e-04,4.924306273460388184e-01
5.467932193588592726e-02,6.121930624732410675e-02,-4.387574860416764699e-01,-4.099847868758547953e-03,-9.015981827541685520e-04,7.376296226462579931e-05,4.967923164367675781e-01
5.109832067711850279e-02,6.590139366962818879e-02,-4.389129530221400621e-01,-2.083021636893497581e-03,-8.008470716148964521e-04,-1.262549200620052218e-04,4.975930452346801758e-01
7.687070168742596299e-02,2.930537489411860763e-02,-4.649973021688165176e-01,-6.805662816723426212e-02,1.975988631548169366e-03,1.601463185148159843e-03,5.329388380050659180e-01
6.268166169315531056e-02,6.409265690080032107e-02,-4.419911496326413003e-01,-3.253983784618710504e-03,-1.532435037694125559e-03,-3.080171108358885704e-03,5.054463148117065430e-01
8.041646055877163524e-02,3.467494015751074188e-02,-4.446232663776210070e-01,1.101387963396297832e-02,-2.625399185477926252e-04,-3.329159990775218099e-05,5.040903091430664062e-01
7.280289551331309283e-02,7.325270108211479059e-02,-4.461909822148520943e-01,1.175626875473238537e-03,-1.866475704433759623e-03,-2.634118674293680750e-03,5.192530155181884766e-01
5.301035789139491028e-02,7.155780314440857159e-02,-3.889503773388636731e-01,-7.939948330696080386e-03,4.825879538828271430e-04,1.446332037779848000e-02,4.524244964122772217e-01
1.153274764997045121e-01,-2.334484753371671162e-02,-4.143706233559010244e-01,-7.920319209455790876e-02,-8.447147036874222414e-02,-6.798222979451380710e-02,5.295715928077697754e-01
7.064894376571609347e-02,7.833992389720118021e-02,-4.400670017758755437e-01,-1.626462561373211765e-03,-1.501490621512477841e-03,1.422914404699441009e-03,5.146247148513793945e-01
5.594331483824685480e-02,6.973789479343991959e-02,-4.428979942321707441e-01,-3.620361653431093847e-03,1.663546125336023366e-03,-3.578854989815177974e-03,5.059646964073181152e-01
6.076748825968628087e-02,8.344136145499794766e-02,-4.243886860945375039e-01,-3.195794486653667950e-03,-8.815281691669807915e-04,3.216117994691466454e-03,4.969456493854522705e-01
5.091605337511631579e-02,8.443995713488836041e-02,-4.496102958087483947e-01,2.233591928187487422e-03,4.802600575460562633e-03,-2.872839153447475941e-03,5.182074904441833496e-01
6.482864500083904136e-02,8.872473478882900166e-02,-4.581570695761125189e-01,2.767551159179200675e-03,-1.015041973870323307e-02,2.399598839364200722e-03,5.356600880622863770e-01
7.156848139049293289e-02,7.587462478377449138e-02,-4.387043485167728685e-01,-1.588994695217172282e-03,-1.092642379841701501e-03,6.255117420249650326e-03,5.125648975372314453e-01
6.679849565195805638e-02,8.299059949521297996e-02,-4.373692977413207172e-01,-1.395054012986625186e-03,-4.003227420443485952e-04,3.205254943425633017e-03,5.124920010566711426e-01
8.709576301484828198e-02,2.738322321603772758e-02,-4.509898792541800483e-01,-1.005853331586207405e-02,2.136362416574331177e-03,-1.559891762557592961e-04,5.111639499664306641e-01
7.322857763294096656e-02,7.444702626403926216e-02,-4.444514656947626263e-01,-1.054302656560116621e-03,-1.036958519085418029e-03,-5.278368117002196856e-04,5.182974934577941895e-01
7.046379402232885725e-02,7.557999142628407663e-02,-4.348655549654582564e-01,-3.593055902044669375e-03,-4.968415327197097872e-03,1.536717418631239861e-03,5.080247521400451660e-01
8.217366449735047373e-02,6.512464405566689707e-02,-4.331745437580548641e-01,-4.660887835905011068e-04,2.573728968245907341e-04,5.423186817006857762e-04,5.070404410362243652e-01
8.198409628009969974e-02,6.622542634665204431e-02,-4.337490220463468549e-01,-7.750723599682241417e-05,6.610625617477884977e-04,7.331647126860760776e-04,5.080400109291076660e-01
8.241742628720655217e-02,6.388432672043659055e-02,-4.325762279483680861e-01,3.282591969920136028e-03,-4.696270332601996077e-03,5.193686747516673870e-04,5.060798525810241699e-01
6.088974497995125468e-02,7.277122477140132717e-02,-4.038780965545578083e-01,-9.765872267382300423e-03,-2.790320563255751715e-03,1.079341084702074155e-02,4.715203344821929932e-01
6.522248113360376576e-02,6.555806887401263716e-02,-4.100633386810686454e-01,-3.803841693749852350e-03,-1.472508273321287454e-02,1.448378042680431750e-02,4.768432080745697021e-01
7.118851128376563198e-02,7.807925484284991557e-02,-4.422159171012496337e-01,5.426563736558092862e-04,-9.762914793728528356e-04,-1.575106266014224916e-03,5.168950557708740234e-01
7.254655795984180089e-02,7.894055712549805093e-02,-4.454006532256841178e-01,3.170738750054602099e-05,8.645147232869845964e-04,3.494165874226658978e-03,5.212109088897705078e-01
8.071222205443448483e-02,6.202587398803119378e-02,-4.192649743768956383e-01,-5.773247990449073249e-04,-1.844084558540378532e-02,7.919689765370495653e-04,4.919417798519134521e-01
7.233819245443934287e-02,6.838068258051058224e-02,-4.460343570623638842e-01,-2.731433167495406992e-03,1.237998138678544045e-03,1.025807063933111300e-03,5.164343714714050293e-01
5.894305786685499760e-02,7.303477584978634862e-02,-4.021813189763678298e-01,6.482655107567573266e-03,-4.422134349070580149e-04,1.830233150822941713e-03,4.684751927852630615e-01
7.566106998942295769e-02,7.407968091084377038e-02,-4.481587760340504101e-01,6.975613695628024233e-04,-8.194959795147738158e-04,2.373169513708069795e-04,5.230344533920288086e-01
2.750480172108923926e-02,1.020629350006747593e-01,-4.547821890381735233e-01,-3.940894843381641255e-02,-2.194453270459030200e-02,1.664129224995117892e-03,5.293678045272827148e-01
7.898930078181531922e-02,6.840126749698605124e-02,-4.395750997450149078e-01,-7.083913563820919699e-04,-1.479622744869668084e-02,-1.769005493769132496e-03,5.140022039413452148e-01
5.744156806325398379e-02,7.782365168860180815e-02,-4.083822499748896440e-01,5.379455359540679348e-03,-4.340353448691968916e-03,-1.049942873655691734e-03,4.764959216117858887e-01
6.845501293002828613e-02,7.842312538333198746e-02,-4.393727470650678479e-01,7.789683873196792587e-04,-4.332571597300258529e-04,4.776787621756193626e-03,5.129535198211669922e-01
7.226091964926309452e-02,7.664952042846190361e-02,-4.450787761323540814e-01,1.111844801407143408e-03,-2.126691201321372765e-03,1.774584989687545949e-03,5.195736289024353027e-01
7.432403014173336042e-02,7.259930916379161991e-02,-4.465174405030135629e-01,1.394391091793333167e-03,-2.157953507182081270e-03,-4.466173578496497707e-04,5.200008749961853027e-01
7.616726589857431007e-02,5.819629431550935039e-02,-4.102679040376453479e-01,6.375886535412806852e-03,-7.307841269755624772e-03,1.711927345038924755e-03,4.780077040195465088e-01
7.189861901860322702e-02,4.978741987076687470e-02,-3.720770604459359143e-01,-1.712166465147887213e-04,-1.962343015043857899e-02,5.832909506507901647e-04,4.346755445003509521e-01
1.018429144226160876e-01,1.066506670332914020e-01,-5.827948406928956659e-01,1.045379455279257241e-01,-9.377062156190471565e-02,7.364206371151085784e-02,7.399164438247680664e-01
7.503126620272843050e-02,7.341811774639567245e-02,-4.477966673139618381e-01,9.108110340458443546e-04,-2.057302348079127156e-03,4.823732516212161974e-05,5.220378041267395020e-01
7.434037024156453510e-02,7.688557306159721216e-02,-4.465734826268112911e-01,5.622655268162037772e-04,-1.098879474740766318e-03,1.916308948028193576e-04,5.221955776214599609e-01
1.062810975245508383e-01,-1.509743712744980246e-02,-2.037315903173425036e-01,-4.766472805411795660e-02,2.884205048139428657e-02,7.942886427535450489e-02,3.185120522975921631e-01
2.562253262390582487e-01,1.414648375553709259e-02,-7.434629442247998599e-01,-3.840318765725216077e-02,-3.367270583323712235e-02,-5.539069680850054744e-02,9.126914739608764648e-01
8.485535325481854962e-02,6.282579560787970863e-02,-4.326273645888403241e-01,5.465015897261066161e-04,-4.945405105105138942e-03,-5.346376481633179642e-04,5.069012641906738281e-01
8.444333708034174046e-02,6.562475809204648680e-02,-4.337084987956821847e-01,4.798892605004924329e-04,-4.936642593447404699e-03,7.164326284900213388e-04,5.090775489807128906e-01
7.455427991181964864e-02,7.778423687065619263e-02,-4.445879198801632182e-01,-5.050585132205764362e-03,1.492485408185406258e-03,-1.200139019964957879e-03,5.208487510681152344e-01
7.002654463287202868e-02,8.229156749739635623e-02,-4.417669438162431517e-01,-1.447813352517696509e-03,1.511245733545610575e-03,-1.708990806659958740e-03,5.180560350418090820e-01
7.152488362490191931e-02,5.196978643585439817e-02,-3.912142471219414164e-01,-7.251423098482284724e-03,-2.367253952425214109e-02,1.158850572786804603e-02,4.557442069053649902e-01
7.548145634662262182e-02,7.021304471741887654e-02,-4.320272540540934791e-01,-7.553892358118749484e-03,2.541599191405462081e-03,-2.192554592986987409e-03,5.050981044769287109e-01
8.085518408969852300e-02,6.805740583539521271e-02,-4.400256833869337636e-01,-7.605107722489228440e-04,-4.109471767035297214e-03,-6.381832754618854643e-04,5.146534442901611328e-01
9.060502811502291198e-02,3.660237575783076291e-02,-3.816724521173006646e-01,-3.576384706449147605e-03,-7.159857074145831342e-03,1.020111036343929189e-01,4.815278053283691406e-01
7.552375365200938995e-02,7.107930654783303770e-02,-4.458791097211108889e-01,-1.621303037055509910e-04,-1.211926016660814977e-03,-1.315783160463536395e-03,5.192041993141174316e-01
7.740620037128517761e-02,7.479922785359585657e-02,-4.483007173637856835e-01,-1.034825313389872280e-03,-4.010942088888801030e-04,-8.522786366993688337e-04,5.244138836860656738e-01
4.694005954604132946e-02,9.073706438238846039e-02,-4.519581186011072949e-01,4.678329722062231355e-03,-1.023646756280354765e-02,3.719908297917660662e-03,5.225794911384582520e-01
8.587285512617420791e-02,6.446883075188397649e-02,-4.345786003202935510e-01,-7.829891293084469735e-04,-2.999333183385973368e-03,9.625356625398776012e-04,5.101173520088195801e-01
8.156591547348196469e-02,6.737496868718492737e-02,-4.374589441730949990e-01,9.878716680910538082e-04,-3.438371808641046935e-05,-6.041437600603297977e-04,5.120807886123657227e-01
8.747103473666112405e-02,6.177205701095661583e-02,-4.313068968832084460e-01,1.277430190421899778e-05,1.123079325825265123e-03,-3.723552423761559787e-04,5.064218640327453613e-01
7.254901376611400110e-02,5.494686728563333289e-02,-3.932147625921096901e-01,6.152167910512271534e-03,-9.836261222887754049e-03,-2.188064249589680502e-03,4.576739668846130371e-01
7.876411030123461887e-02,6.759477435081476249e-02,-4.402253504747413726e-01,-2.822089657133357559e-03,-7.378137851788943956e-03,-1.898805705546810149e-03,5.136886835098266602e-01
6.802470958229780984e-02,7.613033330520282971e-02,-4.379491663664484280e-01,6.007630036458645696e-04,1.912318752944384666e-03,1.567295270220976037e-03,5.100940465927124023e-01
7.115544213191332679e-02,7.308338348641862936e-02,-4.447278007329626970e-01,-2.379473972714458464e-04,1.523893852029875378e-03,-2.511772952811858282e-03,5.168751478195190430e-01
6.666171221360978061e-02,7.865164155714546301e-02,-4.384300532621598356e-01,-1.912237784240264100e-03,7.786981600326282936e-04,7.225186976199550644e-03,5.113578438758850098e-01
3.389370151853095259e-02,2.201817134638923978e-02,-2.247356415680553665e-01,-9.404864820070595391e-03,-2.340393296774144830e-02,5.982884773906628484e-02,2.767776548862457275e-01
8.600566096015827000e-02,6.450112635087790203e-02,-4.366841181231932989e-01,6.510824021205772723e-04,-2.646360124201659319e-03,-3.864310282482101002e-04,5.122983455657958984e-01
6.826233705028392218e-02,7.054552909861339094e-02,-4.371671259108280694e-01,1.247150220441341434e-03,2.056937990870923941e-03,-1.428869996213704557e-03,5.065981149673461914e-01
-1.297158707701506763e-02,9.682518794432118381e-02,-2.993452577892080635e-01,2.888320276606435449e-02,-1.070301941235946713e-01,5.846785953516912132e-02,4.154908955097198486e-01
6.820977311579604074e-02,8.952184898537060564e-02,-4.587415688657467405e-01,1.366789643855329320e-02,1.040727460279702588e-01,-3.404689986153298931e-02,5.708710551261901855e-01
8.005970624255451251e-02,6.385363244091923907e-02,-4.279583578797798715e-01,-2.128576069306958689e-03,-1.188882229035165446e-03,5.373781326186695493e-04,5.001307129859924316e-01
6.663320633453448383e-02,7.450260180862519621e-02,-4.380648871522656029e-01,2.337034630427052995e-03,-4.139099824690331032e-03,-8.769543619516477484e-03,5.089717507362365723e-01
1.005148427306070125e-01,-8.550398053814509125e-03,-2.169913479234121256e-01,-4.029397749237511456e-02,-3.661578535344748534e-04,-1.118259198419648548e-01,3.470775783061981201e-01
8.620833491462973064e-02,6.327500970956875803e-02,-4.321571757382314249e-01,2.634487376116925392e-03,1.515409233923983596e-03,-3.524725771406626764e-04,5.073154568672180176e-01
5.887446557244915835e-02,5.792096380389133436e-02,-3.733696844463432196e-01,-1.182475190763741107e-02,1.875223489779845321e-02,-2.370573541329611469e-02,4.354125261306762695e-01
5.310685642748366742e-02,7.967579790039402976e-02,-4.073025441602365904e-01,-2.714977766949978281e-03,-3.759869313516708139e-03,-9.253780009595390099e-03,4.745911359786987305e-01
8.195397683603819483e-02,6.472289665751654320e-02,-4.341134748426968559e-01,1.815434435301166525e-03,-1.632675794952886020e-05,-1.313288184720118182e-04,5.076810717582702637e-01
7.034243486251912092e-02,7.950834045918411808e-02,-4.410105048059455579e-01,1.296315618293930518e-03,-5.278382609692966118e-04,-1.816160502076581305e-03,5.160122513771057129e-01
4.091043350027656622e-02,5.148693184951627644e-02,-3.254704553271586254e-01,-1.257200044809332964e-02,2.651237917799994029e-02,-6.610101451066646705e-02,3.923171758651733398e-01
4.968668449651836294e-02,4.109860248250729597e-02,-3.384209505962212372e-01,-5.666736160202493107e-03,-2.231761467832918400e-02,1.111803628099967793e-02,3.864318728446960449e-01
5.025957408166936702e-02,5.695260599585666439e-02,-3.612611337344251439e-01,-1.059363151775720609e-02,-7.122905895764063307e-04,-1.858393886373988294e-02,4.165605604648590088e-01
5.841884342025299715e-02,7.443558658980958809e-02,-4.110847286713525950e-01,-3.199133549679548244e-03,2.630775882686970085e-03,-1.316211304711201353e-02,4.783108234405517578e-01
7.050472354647560613e-02,7.746677668147791684e-02,-4.396679568770668900e-01,3.915504905881843920e-04,4.150623369197286661e-04,-1.275351143102284234e-03,5.136947631835937500e-01
7.139634855963553073e-02,7.829494007225784591e-02,-4.399491782161292774e-01,3.397477128293036226e-03,-1.498435788369490351e-03,-2.443658072259757667e-03,5.148870348930358887e-01
6.647701194563621074e-02,7.343571084569316954e-02,-4.486946171795305749e-01,-4.070385651152379561e-03,4.787136637818493329e-03,5.745726839607582723e-03,5.188956260681152344e-01
4.064275510501211275e-02,5.161038428391617749e-02,-3.285805444067171344e-01,-1.041822896897513957e-02,1.712964814961245516e-02,-1.731933815734666010e-02,3.776260316371917725e-01
5.436705338726280368e-02,7.706828513004809755e-02,-4.523251959048988358e-01,1.171318526480842268e-02,-6.956930515898540959e-03,5.000574055484553401e-03,5.190247893333435059e-01
5.593815178117528264e-02,6.621112843877538512e-02,-4.406651438179436386e-01,3.029569411229296461e-03,-2.811047756264774006e-03,2.685133060707593604e-03,5.018912553787231445e-01
8.305112835423450468e-02,6.995953875927191090e-02,-4.416474536864272160e-01,3.721009979435843142e-03,2.440075017978910236e-04,1.343214860346137124e-03,5.183222889900207520e-01
7.661232857675451258e-02,7.553185851287722019e-02,-4.486256417212073355e-01,1.070682934333949720e-03,-6.624395383400170055e-04,2.384516502603091785e-04,5.247032642364501953e-01
6.310402844684562251e-02,7.042017863650501530e-02,-4.445016427096132872e-01,1.431104494340616068e-03,-2.583303887776000618e-03,3.204084864160355525e-03,5.113586783409118652e-01
7.623083482790454779e-02,7.003359996751801209e-02,-4.353057041400196225e-01,5.559528165485920319e-03,2.117123935955805478e-04,9.810385181558930242e-04,5.085604190826416016e-01
6.636415495030922873e-02,4.301217640925236729e-02,-3.045025346053543691e-01,8.513191859463398181e-02,1.804168035750495364e-02,-7.864983219230969880e-02,4.131624102592468262e-01
7.500280280484880602e-02,7.671958656521352116e-02,-4.477282976654544666e-01,1.469303537604375008e-03,-7.504549552711338510e-05,-3.257936419842692418e-04,5.235981345176696777e-01
5.271209558452397137e-02,4.511345194956940807e-02,-3.282441457818672248e-01,-1.360791667027666518e-02,5.662301437486946809e-02,-3.357505986282930538e-02,3.947740197181701660e-01
7.659453941716137804e-02,7.399831486504848677e-02,-4.466087176522874902e-01,3.511860686522802477e-03,-2.959647694785905061e-04,1.373461065153420285e-03,5.219510793685913086e-01
7.134181375740372699e-02,7.490641046271628856e-02,-4.461898958764117795e-01,-8.709043858917456227e-05,2.211276346985367822e-03,-1.258817865931116707e-03,5.193418860435485840e-01
7.978925539261394473e-02,7.438690280863158311e-02,-4.470122835040928888e-01,2.967149002120781070e-03,2.789127577997592384e-05,7.320242586209231355e-04,5.241479873657226562e-01
7.157085362281845331e-02,6.790399232589869327e-02,-4.188552179107379869e-01,7.704885451422741061e-03,-5.982570638115937249e-03,1.746901875450792294e-03,4.889043569564819336e-01
7.175201146906234895e-02,7.772812882769797316e-02,-4.397073096565213279e-01,-1.421695880026303729e-03,-3.774353835836972157e-04,5.534847086587665714e-03,5.145690441131591797e-01
7.140342972286428669e-02,7.576651016512331305e-02,-4.334721395686777501e-01,-7.853836074126837805e-03,1.923637761921683040e-03,-1.812882552154180702e-03,5.072742700576782227e-01
7.732258409197675930e-02,6.534522674071721604e-02,-4.226503441668847394e-01,9.369533224937514129e-03,-9.205675598874807353e-03,-4.247576950886574644e-03,4.946713745594024658e-01
8.161690808183522106e-02,6.732125302683142354e-02,-4.345611240409087972e-01,5.094414494781235314e-03,-5.001188351310736739e-03,-2.540188853657157630e-03,5.093498826026916504e-01
7.222596968327082978e-02,7.579025506108705290e-02,-4.371328315516414542e-01,7.331528886258703928e-03,-4.675693039095925145e-03,-4.668877997078430334e-03,5.114360451698303223e-01
7.137787554712340943e-02,6.604191697768233005e-02,-4.171507868271182029e-01,3.757162758880005365e-03,-7.249252763918077533e-03,-8.666036021899381839e-03,4.863201081752777100e-01
1.192548278860204869e-01,1.997995961844162283e-02,-5.372753883090827243e-01,8.164504524983681732e-02,2.138375129939677766e-02,-2.873328952796129834e-02,6.321050524711608887e-01
7.322635310424416288e-02,7.689826137742861167e-02,-4.345746570096901684e-01,8.504210710876375021e-03,-4.781436036969352078e-03,-1.123673100533787057e-02,5.102982521057128906e-01
7.373232450248221048e-02,7.757965797795468577e-02,-4.449963151313637844e-01,-1.472047171370499371e-03,1.541083896655174538e-03,-3.909664750884896231e-04,5.206764936447143555e-01
-1.662213215467284178e-02,8.639583989066584868e-02,-2.766893733516342380e-01,2.946411000411500170e-02,9.382161735957925131e-02,-2.808822956038121987e-02,3.693480789661407471e-01
6.286089096985247870e-02,8.661507209515240113e-02,-4.359081774574564139e-01,6.806308458173250271e-04,-8.611247444559035026e-04,1.943065436391510498e-03,5.110749602317810059e-01
6.821407835705742273e-02,7.845005169079108387e-02,-4.339359612369084740e-01,-4.321572838921439348e-03,-1.234023861821636299e-03,2.301116729620281045e-03,5.074208378791809082e-01
5.524441047469878796e-02,5.727122520982104448e-02,-1.442266963234425936e-01,5.167144284214141015e-02,-4.458035316413835186e-02,1.588523290451953826e-02,2.343633472919464111e-01
6.701395597992657049e-02,8.206205097307822660e-02,-4.424318708118320509e-01,5.624345418684264337e-04,-2.197416015250367588e-03,7.697115131363148691e-03,5.173208713531494141e-01
5.399535752224260410e-02,8.214266627804289733e-02,-4.182592198137021766e-01,-4.642848958715621414e-03,-1.069942597545874485e-03,-3.536493094853299839e-04,4.870090782642364502e-01
7.444859141720611140e-02,7.307496312747202571e-02,-4.385974216499813894e-01,3.373677033266576399e-03,9.953202466599551880e-05,-2.077476038296953258e-03,5.124065876007080078e-01
6.237108658911580394e-02,6.924578588048727057e-02,-4.269928758689351400e-01,-1.066053783909024031e-03,6.750205817364314693e-03,-7.268548806227002369e-03,4.931401312351226807e-01
6.876144172304407554e-02,7.389449427105676538e-02,-4.414816462960360344e-01,5.142970160636308255e-04,-2.806305922005869480e-03,6.665772275743172583e-04,5.128539800643920898e-01
7.967623523449526846e-02,7.000206622598453832e-02,-4.420058314978190239e-01,-1.223823203019460369e-03,1.657145056137659088e-04,-7.261236538028634788e-04,5.169188380241394043e-01
6.953938333471562649e-02,7.590361686694521715e-02,-4.326041617732169775e-01,-7.310653330155278407e-03,8.007899588963430723e-03,-4.640862259334162590e-03,5.057684779167175293e-01
3.938599287028268781e-02,9.069694469062483666e-02,-4.460587646391224736e-01,8.581391790812827394e-03,-2.793171137040595235e-04,4.549812387612722601e-03,5.133042931556701660e-01
8.440458205712128570e-02,6.153114879041712837e-02,-4.281107320750169865e-01,-3.577236673763105335e-03,-3.058073545470702589e-03,2.209590484881704224e-03,5.015508532524108887e-01
7.350788568435098758e-02,7.089295693101210771e-02,-4.405937086725600360e-01,1.577793013568127602e-03,-1.591582430098847228e-02,1.705095559051381419e-04,5.135469436645507812e-01
4.629992847254027488e-02,2.433436937672095457e-02,-2.933050225206213502e-01,3.462203017518928651e-03,-6.663391802406692932e-02,1.225102462603901710e-01,4.083342552185058594e-01
5.887883679421759830e-02,8.214728768372059342e-02,-4.188946485497815342e-01,-8.602004000069934410e-04,5.861272397510108000e-04,1.002125904850999153e-05,4.898256957530975342e-01
7.575554615137389258e-02,6.912594831118093475e-02,-4.306870275885966159e-01,-8.747306341318483724e-03,4.961114829109598660e-03,-6.801972747621569566e-03,5.035997629165649414e-01
6.826294252870768187e-02,7.262499940218980488e-02,-4.412813334101620688e-01,-9.996029228070914176e-04,-2.573337836701785741e-03,1.110264042668863147e-03,5.117651820182800293e-01
6.672024397421891240e-02,5.402388517586567684e-02,-3.888933139309087017e-01,-1.066078040207249847e-02,4.107845976379439915e-04,-5.595862843784113819e-04,4.497807025909423828e-01
8.085451722494454985e-02,6.393772753067325509e-02,-4.277292187485984276e-01,-4.628547475071184865e-03,7.168900033442369285e-03,4.966734500292161424e-04,5.005588531494140625e-01
7.773807711210353744e-02,7.213285569045999046e-02,-4.460640524867713896e-01,-3.347749948334552070e-03,-3.109843686226624400e-04,-8.651405402254336427e-04,5.210568308830261230e-01
7.793289256147264976e-02,6.850050845955987788e-02,-4.387921485298359459e-01,-2.001847730636193649e-03,1.246631514529445567e-02,-1.066633778626752257e-03,5.125440955162048340e-01
8.019595416000130372e-02,6.987366789356930230e-02,-4.419992163756824577e-01,-3.171934988869464997e-03,1.344466610662713862e-03,-7.802417385895371723e-04,5.171474814414978027e-01
7.539443043399488009e-02,6.135816186854037291e-02,-4.133272877609850404e-01,6.003778853731445327e-03,6.840506975843384501e-04,1.693707012867200819e-03,4.819795191287994385e-01
7.596931118405800265e-02,5.493464569041994761e-02,-3.998149257824629155e-01,3.251381448343133689e-03,2.914582341946679719e-04,7.831517108181933109e-04,4.656596779823303223e-01
7.779387040025945166e-02,7.473664022200549040e-02,-4.485704986102512781e-01,-2.928855475527695953e-03,5.679476221167159382e-03,2.945197606423783786e-04,5.249593853950500488e-01
7.740282172579299180e-02,7.092047429989914442e-02,-4.434300694705646251e-01,-3.311679816061014435e-03,5.888537739163188234e-03,1.283531128379036866e-03,5.177592039108276367e-01
6.974668902707159557e-02,6.520234774256419841e-02,-4.055507114550704340e-01,-8.859170124617883266e-03,5.817825399072202794e-03,-1.209594988908598359e-02,4.738610386848449707e-01
4.998691247000947024e-02,6.740406775492874258e-02,-4.408603529867110571e-01,3.642825773501264484e-03,4.842566566685762523e-04,2.787647051669073185e-04,4.998242855072021484e-01
1.896970592949499823e-02,1.413612899679997370e-02,-2.437061682299041243e-01,-2.891739407427381704e-03,-3.129640696467086286e-02,-1.025006758281314439e-03,2.659303545951843262e-01
5.922278052067389553e-02,5.351488962562747642e-02,-3.579160241628019379e-01,7.442409141573130479e-03,-4.862314707431229788e-02,-2.493826731359347071e-02,4.251834154129028320e-01
4.751625949194052123e-02,3.675164787780618725e-02,-3.258727668516910869e-01,8.661563731951546843e-03,-3.239674722851369759e-02,-1.084655229423866357e-02,3.731521368026733398e-01
7.363258246819254227e-02,7.278736229178539574e-02,-4.450978973662204075e-01,1.658639306789021651e-03,-1.781693839729823646e-03,8.915566166446303774e-04,5.183278322219848633e-01
6.618419617369097896e-02,5.141157069351265374e-02,-4.402635874099609103e-01,4.207255659056568890e-03,-2.536542433671474736e-03,-3.314136995929172408e-05,4.992979466915130615e-01
3.277691629230536363e-02,1.977870001103849973e-02,-2.623413977589527102e-01,1.881390187402581012e-03,-1.953984911288531023e-02,1.434931256808251064e-03,2.908435463905334473e-01
6.688160828220351961e-02,8.371624696153706635e-02,-4.363759513464520179e-01,1.846877323911410955e-03,-1.763958636854046210e-03,-3.312415780161289715e-03,5.119338035583496094e-01
1.578773254175847018e-02,2.746430769240867931e-02,-2.578696581751946937e-01,2.483415395752314593e-04,7.585798706536573538e-04,-1.911178851528158931e-02,2.816341221332550049e-01
7.453456343183262334e-02,7.459715486465146039e-02,-4.427329734145076801e-01,3.655683837509283128e-03,7.973239036565987238e-04,7.484148098371641057e-04,5.173410773277282715e-01
5.210430756645714756e-02,3.856488158446591541e-02,-3.337929340697454172e-01,-2.992609742684636254e-03,-4.924635758542102171e-02,2.585408356992832321e-02,3.913859426975250244e-01
7.471813597071791380e-02,6.498244019991694653e-02,-4.180825954116376697e-01,-4.495526909479821004e-03,-8.081628356493800180e-03,7.178524792208520501e-03,4.884268045425415039e-01
6.200138214241338042e-02,4.965594979994522595e-02,-3.580140700618116845e-01,3.621999655509172862e-03,-3.322929148647538189e-02,-1.091613345819705296e-02,4.184370040893554688e-01
6.096346895577245406e-02,6.317953040196361281e-02,-3.920332327881671519e-01,5.716987527706688657e-04,2.181127008545862347e-02,-8.380766097664979486e-02,4.782406687736511230e-01
7.666307389292589813e-02,7.640969165220562465e-02,-4.432386798161004893e-01,6.728351905622844548e-03,-1.922830221321150378e-05,1.148465498144597935e-05,5.199057459831237793e-01
2.629257693523720518e-02,1.956150151412796023e-01,-6.964324315990125802e-01,-4.640290744443881232e-02,4.548420524511525426e-02,1.905912260502577379e-02,8.289336562156677246e-01
7.429838657848025774e-02,7.454195232333457599e-02,-4.476326880020143895e-01,7.432667348023287062e-04,1.161130504599404379e-03,-9.445457606251511651e-04,5.220609307289123535e-01
7.658395537411163967e-02,7.385814802779983035e-02,-4.452098929194494015e-01,1.436464473528654149e-03,7.538439409958559148e-04,1.665608924310005984e-03,5.204519033432006836e-01
6.906978857503176528e-02,8.232394880693805206e-02,-4.412089346492717445e-01,2.173324273379817397e-03,-2.669761605180922940e-04,-1.509449472084502296e-03,5.170537233352661133e-01
5.228051000913883084e-02,6.068246686269854195e-02,-3.716960243012235043e-01,8.789825502403803698e-03,1.490994060479151027e-03,1.191430410329469671e-03,4.285226166248321533e-01
-6.468156747662706652e-02,1.730299518535837189e-01,-5.187728010203703777e-01,1.196182103113773874e-03,1.420095908313944062e-02,7.560391285217795201e-03,6.094498634338378906e-01
4.403118077151901844e-02,9.223746298772825258e-02,-4.516852840614376530e-01,9.483189469668331512e-03,9.683299662730938950e-03,7.097158285990045994e-03,5.221661925315856934e-01
8.639061381587537225e-02,5.674892274742363019e-02,-4.462721642721069193e-01,1.518468001164464173e-03,2.116608802252784895e-03,8.593939911159793540e-03,5.187110900878906250e-01
8.737049938718291497e-02,5.220033816322436349e-02,-4.520194212848221427e-01,-1.071917394501680594e-03,-1.228451017553023250e-03,-6.064582845544080718e-04,5.227016806602478027e-01
6.970685960646280654e-02,6.715518071238629760e-02,-4.139899999935413577e-01,-9.856475902517260537e-03,2.146597560148236477e-03,-2.066808997447263079e-03,4.827556312084197998e-01
4.601301551272973800e-02,9.048602215472484334e-02,-4.489160844078574075e-01,4.488273309395554404e-03,-4.018927214151699241e-03,6.775262401770576655e-03,5.188354849815368652e-01
6.820205147761196351e-02,6.916495303311576137e-02,-4.140555665356285275e-01,-9.465006792717870279e-03,2.110872388951347874e-03,-2.008717593303324146e-03,4.830444455146789551e-01
6.613777131228626427e-02,7.989280091991152188e-02,-4.449044347991815695e-01,4.946438005390121559e-03,1.582314150595080793e-02,1.395917754077418207e-02,5.194149017333984375e-01
5.758194560305232579e-02,7.935651108335692316e-02,-4.536167222187447723e-01,4.986262318188742701e-03,6.954781545953490907e-03,-3.693944016565643609e-03,5.226757526397705078e-01
7.867378987416001612e-02,6.985225001982373061e-02,-4.381202911601139172e-01,-3.127181316122667684e-03,-3.746762355825373775e-03,6.235600584640716912e-04,5.125111341476440430e-01
6.899970076573505584e-02,8.198370436545579509e-02,-4.405344771703559870e-01,-2.600728625486854653e-03,-1.082018560211216738e-03,1.956570195915392774e-03,5.161828398704528809e-01
6.190567701456112237e-02,8.336362766277691239e-02,-4.301315193089514377e-01,1.612567310819575019e-03,6.904441290680305224e-03,1.000062220043485862e-02,5.035573244094848633e-01
4.265695143450851101e-02,9.080287544871840089e-02,-4.502201171592398188e-01,5.675273523825583163e-04,-7.440942473684869843e-03,3.026315182354024583e-03,5.188163518905639648e-01
3.029657065575218355e-02,5.103302059269146373e-02,-3.151912997197461874e-01,8.070614974378191239e-03,-7.043603912394937050e-02,3.641890729692914830e-02,3.821180164813995361e-01
2.175254316375002661e-02,9.991734506741334343e-02,-4.555682870041841137e-01,4.404310119269022432e-03,-8.114211759450708564e-03,6.925480055355504386e-03,5.212045907974243164e-01
1.728302842345202928e-02,1.034724651812173601e-01,-4.517620817531991517e-01,4.723713925290283456e-04,-6.419962079631262065e-03,3.176864442477730834e-04,5.176710486412048340e-01
8.143498754004346862e-02,1.334284374911238191e-01,-6.005623039614789160e-01,-1.259228629900766561e-01,1.407249829927771090e-01,1.313113376733846260e-01,8.136284947395324707e-01
5.799840992819296770e-02,6.025178586771859357e-02,-4.385124525160997710e-01,6.830540531813205848e-03,-9.242961560587762684e-04,1.285452062917292115e-03,4.977895319461822510e-01
2.045664269768637800e-02,1.052835578534381533e-01,-4.595414312831917480e-01,-2.735734150314847457e-03,-7.611654110587890223e-03,-3.774320568617428595e-03,5.277779102325439453e-01
5.721592079038426149e-03,1.060596152587667262e-01,-4.469804196924186401e-01,3.850285083980217911e-03,-3.652501114730513556e-03,-1.352817793803571785e-03,5.104116201400756836e-01
6.561446503523832297e-02,5.453857753954832743e-02,-4.404627474318650315e-01,1.496063199950532080e-02,-4.088198466420196350e-06,1.819406070544133660e-03,5.013112425804138184e-01
6.573403190878188140e-02,7.895698457101721357e-02,-4.275772210334082279e-01,-7.260199279298213196e-03,-3.454339265790065585e-03,-5.947632173971599502e-04,5.002487897872924805e-01
5.555580051328665170e-02,6.170323620458093017e-02,-4.397309558108297156e-01,3.770599457110437522e-03,-1.431907180299411039e-04,-8.426173006526494098e-04,4.984338879585266113e-01
3.055985266331731620e-02,4.920771394288628309e-02,-2.941004926117087859e-01,5.539930048070110594e-03,8.372783977370799879e-02,-5.255913602811387170e-02,3.757882714271545410e-01
4.679650825805495296e-02,4.713127107248707426e-02,-3.435525968261803342e-01,-8.702093203387554349e-03,-1.329535302550296355e-04,6.439463866570444430e-06,3.908074200153350830e-01
4.692944206634508397e-02,4.914295899328838257e-02,-4.594792210920660147e-01,6.190253529058695192e-02,-8.199541217032342913e-03,7.445893878766766255e-03,5.190755128860473633e-01
6.684144007408410193e-02,5.337546660932973586e-02,-3.782279195571324193e-01,-8.472698854114711978e-03,-3.617878198677034612e-02,2.967531728972365446e-02,4.461599588394165039e-01
7.994089662367742655e-02,3.384179400763093204e-02,-4.655644978632700881e-01,5.067889842785008869e-02,-6.262748805540957996e-04,1.578680534138401231e-02,5.319848060607910156e-01
6.013085754669272864e-02,5.843654180402871323e-02,-4.411335791141908214e-01,5.437835034175906267e-03,9.119977594965139687e-04,2.909451282916889316e-04,5.005108118057250977e-01
7.531708222560454247e-02,6.990079945501581626e-02,-4.329986555547203353e-01,6.199810380123154351e-03,-7.638174887700953288e-04,-1.144586051328377917e-03,5.057489871978759766e-01
6.712673658920367825e-02,5.294324427808372313e-02,-4.405354679352403435e-01,4.869926382635811173e-03,-5.474861952597450711e-03,1.772328288473860999e-03,5.008913874626159668e-01
4.073266898204290498e-02,3.032766784724545694e-02,-2.990711744803229433e-01,5.408432449490358472e-03,7.099695221113134580e-04,5.962121947359577635e-04,3.348575532436370850e-01
5.765032646215650924e-02,6.147644985091044179e-02,-4.399078631282233864e-01,6.641260641379608670e-03,1.133664203554529291e-03,-6.537570325305933809e-04,4.996198117733001709e-01
6.729112502756204317e-02,7.996839478652886801e-02,-4.343408132630223184e-01,5.993768790884632103e-03,-1.485481266130830131e-03,-5.766156331390232676e-03,5.082998871803283691e-01
5.607927633309120474e-02,5.485569038447030144e-02,-3.563732102501216414e-01,3.305351155766620731e-03,-3.514226951143521738e-02,-2.265913607198103558e-02,4.182007908821105957e-01
5.118001817762135586e-02,3.827637269748568327e-02,-3.257923034169389331e-01,7.514693827944828389e-03,-1.779365151015030802e-02,-1.410620157995110327e-02,3.729966878890991211e-01
7.145494663699672455e-02,7.951179593253651645e-02,-4.439663281680326090e-01,3.816849000060814831e-03,-9.015909410660626067e-04,-4.237973494850107636e-04,5.195415019989013672e-01
6.024774863911006029e-02,8.408025060565610387e-02,-4.263362542831211632e-01,1.778716517959354291e-03,-2.452730043976984135e-03,-6.963825009340578534e-03,4.991007149219512939e-01
6.505195305764263636e-02,8.194711110867677895e-02,-4.329408948272497337e-01,-1.534953156158366545e-04,-3.886839909396758207e-04,2.196823437263100982e-04,5.066524147987365723e-01
-2.788251678752148854e-02,1.526247203454255685e-01,-5.061967812632570674e-01,-4.160488537560075306e-02,8.269468318039568944e-02,3.026993868273430630e-02,6.133217215538024902e-01
6.681083509789817465e-02,6.595243827408397985e-02,-4.082472046912439256e-01,9.139705048156457692e-03,1.500769233830776244e-03,1.781683118705170961e-03,4.749104976654052734e-01
1.048528134372567200e-02,1.239169817495514025e-01,-5.023804178207498250e-01,-3.369145333091120437e-02,-9.132362829554235839e-03,-1.030874482814707338e-02,5.814185738563537598e-01
-6.383778254608889202e-03,4.079193766782869546e-02,-1.907074693582093972e-01,2.766690500544609702e-02,-1.055258299647268277e-01,9.367892000941566155e-02,3.269970417022705078e-01
7.015180665462955600e-02,7.579931157330985214e-02,-4.344613083358875305e-01,6.042512050281246931e-03,1.448726162428876996e-03,1.006665983601595909e-03,5.075775384902954102e-01
4.058144971460342365e-02,4.628916979997693693e-02,-3.167008367917434342e-01,-9.609292374699405365e-04,4.510907133562681165e-02,-7.600885015231542696e-02,3.913588821887969971e-01
1.337055067174752754e-02,1.085499511007076978e-01,-4.999711736679014473e-01,-7.611947995686416113e-02,8.022340116151940870e-02,3.357433264755535496e-02,6.012570261955261230e-01
2.137210322355678760e-02,9.544624728193543128e-02,-5.033724590064199145e-01,-8.475528560337879103e-02,-1.464998837844591964e-02,-1.430662249123958001e-02,5.852538943290710449e-01
1.962964757002044758e-02,1.064971798372594258e-01,-4.877421613740836603e-01,-5.680176842870915399e-02,-1.620356816009860951e-02,2.741847242200269336e-03,5.652749538421630859e-01
2.468438102770809106e-02,8.487320849858662197e-02,-4.462564789659645981e-01,1.996856967174453004e-02,5.715267203499360162e-03,-7.514180050561602292e-03,5.051900148391723633e-01
6.463919739423645838e-02,8.474317477182896630e-02,-4.339923855158776544e-01,3.091827515487615059e-04,-1.346262038458323528e-03,-2.893376295742286584e-03,5.090117454528808594e-01
-1.058505897982971178e-02,1.135624708611385758e-01,-4.568968877794687966e-01,3.559991094880106399e-02,1.810293491725250452e-04,-8.859955169649420901e-04,5.232779979705810547e-01
4.551999281448476653e-03,9.887996861561476614e-02,-4.445250608672221548e-01,1.417594225404431030e-02,2.944677577089560420e-04,-2.984896176968150974e-03,5.035457611083984375e-01
2.200469572942531649e-02,9.457535385214138612e-02,-4.468507824562942266e-01,4.432040676804189019e-03,6.907421847091767785e-03,-2.473126638348877634e-03,5.092519521713256836e-01
6.750637450404070594e-02,7.865111203715552390e-02,-4.339586228406691060e-01,1.878451174266406647e-04,-8.541990226088136775e-05,-1.484457203571381547e-03,5.071358680725097656e-01
4.486423113865947720e-02,7.823204498885569236e-02,-4.455905984624299321e-01,4.633025167381991764e-03,1.049990466241018487e-02,-3.617492781775694458e-03,5.083887577056884766e-01
2.660455881259152222e-02,7.333670193732724774e-02,-4.421298753184898511e-01,2.601642514218747981e-02,-2.720969917663478791e-03,6.627595031870120923e-04,4.958375990390777588e-01
3.823035344279507308e-02,9.116237481792868746e-02,-4.525610961216076644e-01,2.819345657468607779e-03,2.580011090246393368e-03,-4.425683239699158660e-03,5.193834900856018066e-01
6.285785470197371994e-02,7.199298703764425711e-02,-4.148756764705346933e-01,1.189739533980526884e-02,-8.425226927311027514e-03,-2.112765480159158396e-02,4.844106435775756836e-01
7.941708413542779288e-02,3.728103646090571294e-02,-1.800530609827211970e-01,2.620182082495641288e-02,1.415415742308324260e-02,-9.189256646685824148e-02,2.935311198234558105e-01
7.389257765073736772e-02,7.691683668813972807e-02,-4.444599783485534417e-01,3.893973131667896430e-03,-6.508626491420823083e-04,-1.732727150380280589e-03,5.199249386787414551e-01
6.736800241757259777e-02,7.266445484771574814e-02,-4.464378263046242523e-01,5.849147170383554124e-04,3.144435273513521405e-03,1.020314701181434993e-03,5.165071487426757812e-01
6.995585012119306945e-02,7.056710744726826801e-02,-4.456832918371517183e-01,-3.426983603513340630e-03,-1.669625208776597241e-03,-5.034670072940049821e-04,5.159880518913269043e-01
7.238106847015643441e-02,7.687709773295289817e-02,-4.462203697292793647e-01,1.080139283249937103e-03,-1.708105147339732772e-03,1.550453162398600891e-03,5.208826661109924316e-01
6.908218975125191008e-02,7.186785379703683474e-02,-4.444694879983406843e-01,1.349645872655422978e-03,-7.438525654466150196e-04,-4.664462594729308523e-04,5.149577260017395020e-01
7.904357740323858517e-02,6.340182389750129155e-02,-4.442269355303670730e-01,1.952526752467771470e-04,-1.819966927890535793e-04,7.423297189752749679e-03,5.157880783081054688e-01
6.978157675649093727e-02,7.407750007968169625e-02,-4.464850166722102998e-01,8.504622590917870501e-04,-1.864244861254870083e-03,2.322376020203805770e-03,5.184556841850280762e-01
6.932772114565510790e-02,6.262350513498765592e-02,-4.436611890765296273e-01,1.963813758938293737e-03,-2.962468387605666099e-03,2.746098879346551939e-03,5.097292661666870117e-01
5.271539414239340138e-02,6.546301173527269146e-02,-3.789427474565517651e-01,-7.599447305040573156e-03,-1.705693586766901006e-04,-3.906764046931402844e-04,4.383693337440490723e-01
3.097160445969547593e-02,1.838621713470391106e-02,-2.224054977949544709e-01,-1.173000026085920314e-03,-2.270617650121500852e-02,6.312735956967840956e-02,2.732682228088378906e-01
7.281957813446321426e-02,7.154189285657414077e-02,-4.426608080292486203e-01,-1.505813105436565997e-05,2.095068685683930539e-04,-1.164522874329602725e-03,5.148468017578125000e-01
4.237625811393107289e-02,-2.251080365690150478e-02,-1.648371907944027048e-01,-1.635501865669310162e-02,4.518946863204904504e-03,8.992239514886650464e-02,2.425368130207061768e-01
6.068703477203110652e-02,7.496504567183137624e-02,-4.133214477559009059e-01,9.057275347052589839e-03,9.940107117801296605e-03,1.228681373755222128e-02,4.823393225669860840e-01
6.058827587966428285e-02,8.055071768377150554e-02,-4.209734775331351875e-01,6.705264620702294093e-03,-1.427582704071935892e-03,2.576832296357391545e-05,4.919902086257934570e-01
6.102728739025098381e-02,7.135034004982265810e-02,-4.481665970074221739e-01,5.270533455749261235e-03,-4.001932806303881880e-03,2.047883846907109888e-03,5.145729780197143555e-01
-1.321798181475815348e-02,2.210349656315543365e-01,-5.682997415487368587e-01,-1.057023565638705136e-02,-1.556120058725379007e-01,-1.041728700145709390e-02,7.525461912155151367e-01
7.515937864180560757e-02,6.501181183460744140e-02,-4.098886968211966630e-01,-9.137652881470852487e-03,4.147215500548991074e-02,5.421505405861402199e-02,4.946520626544952393e-01
9.917639318333881793e-02,-8.058584453330408515e-04,-4.234358875090292740e-01,-4.557230743269716916e-02,3.071129523621623190e-03,2.435669390611178847e-02,4.887807667255401611e-01
8.179142362657326748e-02,6.496910093738300640e-02,-4.326328553423176571e-01,-5.933193168721196103e-04,-2.931218947620407465e-04,6.886705816167122077e-04,5.062255263328552246e-01
3.222923042609052158e-02,9.557534746375404011e-02,-4.484639387667414545e-01,6.529667969811658998e-04,-6.281365630267772560e-03,-6.162154206960301580e-05,5.154108405113220215e-01
1.012491372001412537e-01,3.906781835635392275e-02,-4.624825098217541508e-01,-3.188635485368055095e-04,1.313317156315030321e-02,-5.721957703996138032e-03,5.359312295913696289e-01
1.033732477455001630e-01,6.665045450840978436e-02,-4.931351528063411260e-01,4.315492886178625039e-03,-1.736246612874999332e-02,7.472626422628540765e-02,5.941192507743835449e-01
6.543571297362224537e-02,5.388333723036331513e-02,-3.540231687675830519e-01,-5.646564567563366714e-03,3.015734196233729042e-02,8.261997162150495899e-02,4.410620033740997314e-01
7.835168621299379299e-02,6.648797213085849700e-02,-4.280017467361381667e-01,7.103027103613787294e-03,1.264693893379971673e-03,-1.522115403019942822e-03,5.006899237632751465e-01
6.815010070787227980e-02,7.200174892125241199e-02,-4.209304302392196662e-01,7.680824934729459791e-03,1.581041179997266701e-03,-5.218312889167306748e-03,4.912886619567871094e-01
6.423224770311680709e-02,6.670279133374382163e-02,-3.992121476197358354e-01,1.159130177520171882e-02,-7.359790290524223337e-03,1.702070158032733789e-03,4.653020799160003662e-01
5.956763539922826922e-02,5.858780819731709832e-02,-3.726338883928196344e-01,1.046653743580883145e-02,-1.305618822358112219e-02,-1.610181747492511403e-02,4.335821568965911865e-01
5.316491870243947315e-02,5.264748169105351594e-02,-3.489862698364273319e-01,-3.098396974502111607e-03,4.163980319351164028e-02,-3.615723663187440928e-02,4.131225049495697021e-01
6.464203401428034179e-02,4.560079935369895643e-02,-3.619118827376064940e-01,5.948447268630751260e-03,3.980232928886854454e-02,8.306200028646187547e-03,4.233845770359039307e-01
6.226003172981170453e-02,5.003927371098321197e-02,-3.631606066260520960e-01,-6.998875577271084988e-03,-2.050612034822473645e-02,-4.021607605747982289e-02,4.268413782119750977e-01
4.917086848995205761e-02,5.031741184539492706e-02,-3.547001085329507530e-01,1.104233429584349120e-02,1.131788735662575453e-03,1.162025787424425429e-04,4.049022197723388672e-01
6.877244221325329310e-02,7.718215377795023535e-02,-4.398742190687957576e-01,4.971979573030459523e-03,4.321641170350633970e-03,-5.637268926830810850e-03,5.131230354309082031e-01
6.108148605027163836e-02,4.399993512985367339e-02,-3.517231514944883508e-01,5.385852794946880892e-03,8.776037646106737327e-04,-1.212595437611851826e-03,4.046502709388732910e-01
4.984177222286687026e-02,4.571046009863705128e-02,-3.541609891882267491e-01,8.085375057243590624e-03,1.251756481755594754e-03,2.124789665935896028e-03,4.022195935249328613e-01
3.446393285526677674e-02,8.334326123697716193e-02,-4.337072412381306474e-01,-1.661493624124127030e-02,4.248802230101544029e-03,3.617652678546511794e-03,4.953573644161224365e-01
5.104735318461794957e-02,6.620064553781795924e-02,-3.788218267034319520e-01,-1.070447696182483949e-02,-1.687913015892694366e-03,1.640238049791409303e-03,4.380541443824768066e-01
6.378272861832373630e-02,8.562518662634704958e-02,-4.351132310331508601e-01,2.411563067366413911e-03,1.238634450852168709e-03,-8.151281804270050753e-04,5.101915597915649414e-01
6.195577736293012006e-02,7.831001749115440447e-02,-4.205503302313588487e-01,5.783806342055085488e-03,1.359168580575852592e-03,1.168352395940951897e-04,4.909954965114593506e-01
6.254365309681764185e-02,7.423159635249912403e-02,-4.141879973717388363e-01,1.957110686031763701e-03,9.519077013905752230e-05,-1.195975461959120772e-02,4.831379950046539307e-01
7.266834550217496358e-02,5.534986816686199296e-02,-3.946320832862616479e-01,8.507733540241787032e-03,-1.100440031985977507e-02,-5.650865282647059762e-04,4.595194160938262939e-01
6.746093736539532371e-02,7.775486618093238600e-02,-4.318842561225407772e-01,4.683025415674608831e-04,-3.376965042600606204e-03,5.089394869287520128e-04,5.046062469482421875e-01
7.488084161281838291e-02,5.671258471327308981e-02,-4.243933016615001330e-01,2.842754518112348261e-05,-1.489126340697717122e-03,-1.187009863721957825e-02,4.908799827098846436e-01
7.292766696347768862e-02,7.617864048959607781e-02,-4.465570258419027661e-01,2.153300692419235583e-03,7.350172040019752788e-04,-2.731725485326537157e-03,5.211541652679443359e-01
7.212075344727167381e-02,6.899746259745584420e-02,-4.202850726887290000e-01,7.839489831145072737e-03,-2.321233874447744053e-02,-2.289803943254846083e-02,4.942763447761535645e-01
6.602568954097609577e-02,7.736667103698754988e-02,-4.256460514569474496e-01,7.863933671821690327e-03,-6.633936916684780166e-03,-1.609852399043210439e-02,4.985386729240417480e-01
4.872699272270711313e-02,7.336287340674452206e-02,-3.851089776316501401e-01,3.272576181830395489e-03,-3.570863113608172858e-04,2.272937755285357742e-02,4.484315812587738037e-01
7.377982155366449857e-02,7.116424571213081363e-02,-4.428511020737879167e-01,-2.249866567315130742e-04,2.540367220043377589e-03,3.516188059067810925e-03,5.153830051422119141e-01
5.193406661742275277e-02,8.054578074201565463e-02,-4.056304182298774430e-01,2.477280537033691062e-03,-6.919165266951597020e-04,-2.416919815835967805e-03,4.725600183010101318e-01
2.452209346409897628e-03,1.133251861108141578e-01,-4.709475401331709166e-01,2.984651882913425675e-02,-6.865013027088749317e-03,8.674978007461543392e-03,5.403026938438415527e-01
6.224067387301895904e-02,8.087945096553736390e-02,-4.219365655316184571e-01,-3.718464635090810988e-03,-2.593617218561734567e-03,7.564750424280583183e-03,4.939967691898345947e-01
4.975312486956631752e-02,-2.585763355640438577e-03,-2.843410133006364360e-01,-4.314120226124251722e-02,-2.365488797460185005e-02,-9.957350590534701229e-02,3.658947050571441650e-01
7.482519828359066039e-02,6.686668010392221584e-02,-4.324532689900044691e-01,-1.669566891390532066e-03,-2.676377169073020958e-03,6.277544689545167846e-03,5.034934878349304199e-01
7.212990945164524104e-02,7.534310316966805199e-02,-4.337311941837476703e-01,-1.259161951250366198e-03,-1.291984419086952829e-02,-7.791271566832439280e-03,5.081523656845092773e-01
6.505509761819658343e-02,6.379570510780127601e-02,-4.019354344386574796e-01,1.277215078225481942e-02,-1.716691426516186308e-02,-5.092329177132674453e-03,4.679155051708221436e-01
5.553706664572358176e-02,7.801734121069756056e-02,-4.057707388272984717e-01,3.302002843164903410e-03,-1.038920648999272977e-03,-2.216906233073257567e-03,4.730024039745330811e-01
6.012794369703075570e-02,8.256840159288009184e-02,-4.109621694735938746e-01,-1.346422207904006754e-02,-5.350911758355805098e-02,-1.422183091881354389e-02,4.926877915859222412e-01
4.917949062064780330e-02,7.195326577746458119e-02,-4.409781028406316028e-01,-7.723272350294584782e-03,4.253993031967608540e-04,5.969132467404480828e-03,5.022172927856445312e-01
4.331647067013971730e-02,6.136684180124221677e-02,-3.527836731899205991e-01,-2.453830351018632724e-03,7.389393708517051195e-04,-1.414913699521469243e-03,4.054585099220275879e-01
5.110866665287466803e-02,6.460351617058174289e-02,-4.403706172082115788e-01,-7.613813427597903791e-03,-5.358411483390974157e-04,4.546161758850965524e-04,4.985396862030029297e-01
6.396643673853341650e-03,1.477421527107830590e-02,-2.167311384192297241e-01,-5.097553529784923289e-04,-5.437097668399872019e-04,-4.490626334452285260e-04,2.274373173713684082e-01
6.485406250521180693e-02,6.027489169686106596e-02,-4.425460675604081517e-01,-4.180229473376955406e-03,1.757076123187962862e-03,6.619965047828316185e-04,5.051884651184082031e-01
7.297644244749415532e-02,5.765457193953932302e-02,-4.013310605278612164e-01,9.234070250415107525e-03,-1.152627156826432214e-02,5.026050679134506233e-04,4.675363302230834961e-01
5.345964332473121527e-02,6.762619663141128390e-02,-3.661737956554727003e-01,2.509936556005585694e-04,8.993552007704319617e-02,-1.988377100732465711e-03,4.544391334056854248e-01
3.079952621450811334e-02,4.089052143710866782e-02,-3.004700326514325726e-01,-1.054616014222528077e-03,-3.319363935618188373e-04,8.846757372313615933e-04,3.364375233650207520e-01
6.441485530125232173e-02,6.425567100977594426e-02,-4.422621325301608897e-01,-3.048987939296664718e-03,1.712984033128642919e-04,1.342773818317886990e-03,5.066303610801696777e-01
6.939198931142234739e-02,7.847411049115232684e-02,-4.377129277891057546e-01,1.660931195622787539e-03,-2.171362898486088621e-04,-9.710149120003646293e-04,5.117174386978149414e-01
6.808848919844479042e-02,6.769215326733357685e-02,-4.442824999447045897e-01,-3.942652438589135978e-03,-2.547093890674917340e-03,1.266538042955388374e-03,5.122421383857727051e-01
4.269234759691487024e-02,6.198283075236207806e-02,-3.525720180936190440e-01,5.893012144714581020e-03,2.136010925167916488e-03,2.951866764307179867e-04,4.053998291492462158e-01
1.114384758684214827e-01,2.307971667881308919e-02,-3.567274467807539651e-01,5.277219282119025023e-02,3.883507286834318034e-02,-1.137383532991434049e-01,4.871431887149810791e-01
6.950048693595911597e-02,6.553794285460751157e-02,-4.137435167379393541e-01,-8.332661996985240779e-03,2.980829340645855044e-02,-1.220680639142173026e-03,4.842560887336730957e-01
5.459700480971180214e-02,6.808750998042473190e-02,-4.410955850491714569e-01,-2.015174495143995902e-03,2.265119550737004946e-03,3.396420848599494748e-03,5.026355385780334473e-01
-1.334983568284653366e-03,1.097381184295592171e-01,-4.611660390202885207e-01,-2.991120725024024735e-02,1.566689641424168136e-03,6.642464703946424423e-03,5.269539356231689453e-01
-2.917165478650679544e-02,2.053036824406789806e-01,-5.968368666946981538e-01,-9.133412424836243049e-02,9.385459596811691896e-02,-8.544667741906590563e-02,7.639902830123901367e-01
4.919647975025059905e-03,1.294726528828625267e-01,-4.987491835584558775e-01,-3.410016376507499225e-02,1.631418584478093459e-02,3.064112848736526284e-02,5.822651982307434082e-01
4.534032860304079704e-02,8.932658304092491730e-02,-4.492645322504960625e-01,6.962305729363735219e-04,-9.475961430586914841e-03,-2.048226092812562103e-03,5.182740688323974609e-01
5.279195538661227149e-03,2.019959831817709495e-02,-1.033714419567098863e-01,2.488046211676586683e-02,-1.810540260614137628e-02,6.277208375351842062e-02,1.682564169168472290e-01
-2.658457670954075813e-02,1.766594000983814361e-01,-5.539376015326200609e-01,-8.122978240991428345e-02,-2.156843254096878215e-02,4.014630699868059708e-04,6.691648364067077637e-01
7.570900842770728056e-02,5.692451341683310573e-02,-4.005531043373624644e-01,-2.018156335130748789e-03,4.347524312585320655e-02,-7.107833090130266651e-02,4.889488816261291504e-01
7.916836391252474181e-02,6.743058685799810381e-02,-4.352195466959692949e-01,5.208593775534500194e-04,-1.360408013117268573e-03,-1.532271400704727626e-03,5.086337924003601074e-01
-8.895365640738284174e-03,1.638527440827640680e-01,-5.497602637417612348e-01,-7.092823630998590367e-02,-5.729800140225864424e-02,-8.064168049521536208e-02,6.784253716468811035e-01
8.689543386334078190e-02,-3.837160240772301278e-02,-2.814286128243688179e-01,-2.490021519831025695e-02,-1.987039054039854702e-02,-1.009286468626003214e-01,3.725854456424713135e-01
5.816615941883698793e-02,-6.838083705230327269e-03,-3.152332110907956064e-01,-5.509486169407318279e-02,-7.149346388854846412e-02,-1.295530434598474445e-01,4.406499266624450684e-01
1.866792590388481610e-02,3.349240159393884753e-02,-2.773319044294758617e-01,1.277157642523166518e-03,1.730898773637114902e-04,-1.271121201585334853e-03,3.036997616291046143e-01
8.137387323873462863e-02,6.103748836683814405e-02,-4.221300337905412592e-01,-1.202036889789616630e-03,-1.658741014628466182e-02,1.955536552598549291e-03,4.945012927055358887e-01
8.439118618989080445e-02,6.569827766824787307e-02,-4.345077379715088783e-01,-1.511255347352723601e-03,-5.752880997081319565e-03,6.265199184337381022e-04,5.099148154258728027e-01
6.034017514085507350e-02,8.613778679312741882e-02,-4.297528282853462223e-01,3.752073011652307891e-04,3.322085840810330118e-04,5.709945795530796961e-04,5.034894347190856934e-01
6.758864979344519908e-02,8.292834773879392829e-02,-4.399367468384733915e-01,-1.076270974616645682e-03,1.040782754373930589e-03,-1.024819866586109025e-03,5.153760910034179688e-01
5.199791969011030579e-02,8.350132995894890553e-02,-4.131407144070153858e-01,1.203581513938213826e-03,1.081693190959487696e-03,6.115964116513657222e-04,4.816729724407196045e-01
4.822735251171211823e-02,5.686272136298303748e-02,-3.513983531852588049e-01,7.580627194500361501e-03,1.093562404816839431e-02,-1.684606178662950162e-04,4.046695530414581299e-01
8.259082178443588607e-02,6.923593625085161518e-02,-4.416681194905385244e-01,-3.977315176164757625e-03,-4.258900417927545361e-03,-1.296327612132161262e-03,5.178139209747314453e-01
6.963115831502350583e-02,7.118212033697357555e-02,-4.306312261209483960e-01,-4.580492642063355851e-03,1.711513299449180089e-03,-3.637259703269265197e-03,5.011508464813232422e-01
8.223377329539111047e-02,6.572267637300033272e-02,-4.356365319902136268e-01,-1.251008624576081894e-03,-5.569446139285316819e-04,-1.004800172616536870e-03,5.098237991333007812e-01
6.821010577354810756e-02,7.414821923629380529e-02,-4.377927671157887390e-01,-7.684494696571773399e-04,1.099657182189174532e-03,6.503155720245515836e-04,5.090044736862182617e-01
6.405512429699963817e-02,7.161844814766199496e-02,-4.139764841847052290e-01,-1.731889803444713015e-03,1.568484084959339674e-03,1.435021608074565393e-02,4.825153946876525879e-01
5.767358866155891661e-02,8.097866081952606598e-02,-4.171624433523521414e-01,-4.690416843282664387e-03,2.133857393633615141e-03,-4.059500251243723917e-04,4.869893491268157959e-01
5.892977060676038437e-02,8.173132032064336916e-03,-2.494770031758559992e-01,-1.843248857763970378e-02,4.018087773412309612e-04,8.781045813337401418e-02,3.258666396141052246e-01
5.966001716683774769e-02,7.616390605029593752e-02,-4.100360719724035485e-01,-6.795817806650774826e-03,2.153593338970623359e-03,5.848835660012140572e-03,4.784283638000488281e-01
6.669848854393212179e-02,8.416848576555299721e-02,-4.401686683758209151e-01,1.687838856836920524e-03,-1.512334906055235557e-03,3.592357858773972522e-03,5.158765316009521484e-01
6.215737931529913274e-02,7.666257183326605218e-02,-4.234408607101864397e-01,2.617530519616072682e-03,-2.375084009457698389e-02,2.355659007301631747e-02,4.964245557785034180e-01
7.225538978488932340e-02,7.304643146727463066e-02,-4.297432094596943530e-01,7.094408807306381431e-03,4.750510510664822383e-03,7.201744964460087689e-03,5.027669668197631836e-01
5.466709230199412461e-02,7.116403868719931025e-02,-3.885735665492409119e-01,1.321832785262845589e-02,1.728708892323593121e-02,4.803087658492988243e-02,4.608558714389801025e-01
6.177284755579684483e-02,7.035118660403910651e-02,-4.030973677713897696e-01,-6.684858386368645530e-03,-4.064016722798793196e-03,1.116659744304109893e-02,4.698120951652526855e-01
6.756461905358018827e-02,8.225891209399580073e-02,-4.386973927262247663e-01,-1.236798625354002196e-03,-5.814406790229983274e-04,1.371452293952682942e-03,5.137777328491210938e-01
6.039978453313396556e-02,7.839205037353091932e-02,-4.471202594339977465e-01,-1.705491787372232036e-03,7.966353282972168937e-03,1.640475485352325784e-03,5.169515609741210938e-01
6.685164874801219348e-02,6.024374907873719653e-02,-4.433599539077971996e-01,-3.293714733917641607e-03,-4.492984537032868909e-03,1.904951078074281574e-04,5.070318579673767090e-01
7.096606915242184566e-02,6.866335639014042869e-02,-4.388885301972615394e-01,-1.373625985368108786e-03,-3.249409694493466077e-04,-3.458240801164844981e-03,5.087482929229736328e-01
1.683238627106505014e-02,1.303213880316439477e-02,-2.307877702208356863e-01,3.741892732585429954e-03,-5.476180799693036814e-04,-6.480602931827784009e-04,2.458319216966629028e-01
6.842209942414309576e-02,8.099080336059016894e-02,-4.409054070609011999e-01,-1.174055573576199578e-03,-6.987641816873676722e-04,4.161160762973936320e-03,5.157825350761413574e-01
6.963802548334724341e-02,7.317118774278427717e-02,-4.317022472080330187e-01,-3.279660810176362844e-03,1.803603883337957174e-04,2.863691640886052367e-03,5.031727552413940430e-01
7.288254773481903093e-02,6.960876712588787152e-02,-4.419838920920758363e-01,-5.647756835285664290e-04,2.398574160669186394e-03,-1.332490347655027572e-03,5.132603049278259277e-01
7.120719232084790629e-02,6.663117815207397765e-02,-4.445795796863236116e-01,-2.793425884257834911e-03,1.059586588037598380e-03,4.653026651843080374e-04,5.135407447814941406e-01
6.991026995995841542e-02,6.890746523064689155e-02,-4.160879996987151275e-01,1.082376422888453593e-02,-1.596228152549135316e-03,-1.506465114825799494e-03,4.858743548393249512e-01
1.605754102890344370e-02,6.771033916792154606e-02,-4.342598032433783173e-01,-8.293838869560138383e-02,5.337486440038175656e-02,3.559720958062930624e-02,5.115645527839660645e-01
6.602823591095938194e-02,8.158655194329422766e-02,-4.345768533314076643e-01,-4.181348447772523583e-03,3.536235900891761784e-03,-6.213964099298654141e-03,5.087650418281555176e-01
6.184278401040022022e-02,8.013333077074344390e-02,-4.239414906421692386e-01,-4.684704829221704794e-03,1.921362393530041263e-03,-5.701668427947859455e-03,4.953590631484985352e-01
6.857511397522889074e-02,7.957692147662942528e-02,-4.404588823668728614e-01,-2.169726918780172896e-03,2.990007406459217125e-04,-4.849639122183958470e-03,5.147056579589843750e-01
1.793314623178166034e-02,1.635571735893812106e-02,-2.424249227349741798e-01,-1.354429749094176484e-04,3.847873401542348986e-04,-3.696679281636346213e-03,2.596528530120849609e-01
4.026913177992168247e-02,6.248000731814998265e-02,-3.206633534691475385e-01,-2.601507986251097582e-03,4.192313793922886750e-02,6.800771941055522296e-02,3.974296152591705322e-01
6.175755398022866882e-02,8.265256436736315160e-02,-4.243025230268274717e-01,-2.717250929146962542e-03,1.101364575914334527e-03,-6.414444939494274092e-03,4.969873726367950439e-01
4.008976661129481922e-02,7.149466927214179202e-02,-4.459210050205693054e-01,-7.962545535527498775e-02,-6.550712474324527079e-02,5.405818282436166203e-03,5.333270430564880371e-01
-9.872263116368466124e-03,-5.466180521763253433e-03,-3.362684696630174191e-02,-3.009313141590049586e-03,-5.286940926701859389e-02,-9.798788733245147875e-03,9.689736366271972656e-02
6.419405022615204404e-02,8.128909072204273945e-02,-4.305435219751025389e-01,-2.210624991718211250e-04,-5.147305675680889083e-04,-8.061620147570092241e-04,5.035056471824645996e-01
7.460910869043343996e-02,7.480468840974682787e-02,-4.460118871603745982e-01,9.157238066756117397e-04,-1.297966703987667864e-03,-6.846033678697372674e-04,5.207274556159973145e-01
7.029917665512661062e-02,6.204595556801695277e-02,-3.583396538492456540e-01,8.093736374004367740e-02,8.218183643322371501e-02,-1.214577673056645435e-01,5.142293572425842285e-01
6.540551398776925374e-02,8.221311908484163489e-02,-4.349676808031928132e-01,-1.076193135760744905e-03,-8.288445559690426354e-04,-1.023337030183490070e-03,5.089936852455139160e-01
5.624816490089509791e-02,8.162819264938364627e-02,-4.126954070076197523e-01,3.816752143843460442e-04,-1.729014449256769228e-03,1.151264282846389472e-03,4.821487367153167725e-01
6.967454559249225410e-02,6.738450333910334100e-02,-4.337964697153012250e-01,1.100905416713975722e-03,6.356071166084534176e-04,1.042647518084951141e-04,5.023347735404968262e-01
6.246576462650613171e-02,8.500842273402037241e-02,-4.334048256378333908e-01,5.349485356230468261e-04,-4.925164771073476874e-04,-2.328060598250978122e-03,5.075350999832153320e-01
9.248695988958159642e-03,-2.555444416554318587e-02,-6.914530203427124433e-02,-8.025946636239567056e-03,-2.130158571077693519e-02,-3.519869075970099431e-02,9.949816018342971802e-02
1.759861894922637449e-02,2.838116776447066614e-02,-2.541381989323672208e-01,-6.011108493485502711e-03,1.023016808642218580e-03,-2.324020584563421966e-03,2.775156199932098389e-01
2.368485623757377034e-02,2.114399136349488784e-02,-2.363779223086893977e-01,-3.719519070266985063e-03,1.193849429531552118e-03,-2.567309877375028096e-02,2.626812160015106201e-01
-9.913222763792382819e-03,1.574982842577901665e-02,-1.488421317329629012e-01,-1.837542252438434734e-02,-7.402152806543417507e-02,-3.735280967450838735e-02,2.125121206045150757e-01
6.307243925298655629e-02,8.439257765051269566e-02,-4.313818653837041550e-01,-1.707095940188698650e-03,2.967964217928664716e-04,6.286592464153264569e-04,5.054618120193481445e-01
5.430395780360047775e-02,8.120030480316398069e-02,-4.123692837685029033e-01,-4.660507750888739573e-03,1.348215125315418679e-04,1.409520820193971378e-03,4.807601273059844971e-01
4.383661446134679007e-02,6.252818373316762490e-02,-3.542889106345309957e-01,-1.530592578966535411e-03,4.259565960889236114e-03,1.031390196363560262e-03,4.078719913959503174e-01
6.132189519640046660e-02,8.548403431055059953e-02,-4.286198756907569352e-01,1.647517547565332684e-04,-2.118327195695254796e-04,8.453459124043367131e-04,5.024610757827758789e-01
7.733536078314631745e-02,6.401655903657843538e-02,-4.462972290160606703e-01,-6.453280128071564245e-03,-8.968046885893672356e-04,1.223904473460409384e-02,5.176591873168945312e-01
9.640808913232412625e-02,6.435875543803301624e-02,-4.802461916174133871e-01,-1.074332423307710060e-01,4.249649173007804398e-02,4.683371945445992390e-02,6.014147400856018066e-01
5.738635143558099005e-02,8.214007240585838310e-02,-4.128908176047646483e-01,-1.556597721404871446e-03,2.944513557328884488e-04,1.486249790506234073e-03,4.831445217132568359e-01
6.025301893722018187e-02,8.503949167005175891e-02,-4.311840125000277468e-01,-1.989244303206181338e-03,-1.110762315329876307e-03,-5.556757697141642867e-03,5.043945908546447754e-01
8.188674336604997994e-02,5.627266192629840069e-02,-4.566077293976215645e-01,-1.901506454363639798e-02,9.075792706843560306e-03,4.198067275384072261e-02,5.324079990386962891e-01
6.038898959129765376e-02,7.734852249812310121e-02,-4.173503174472895094e-01,-8.349192632312775128e-03,-1.406985399735086965e-03,2.303442927192617552e-03,4.866782128810882568e-01
6.131920326303441637e-02,7.599913076386183297e-02,-4.291235177574195259e-01,7.700256485001714512e-04,-1.230323262727994228e-02,2.003124064629673365e-03,4.984146356582641602e-01
7.380798236354502162e-02,7.860467529438441847e-02,-4.412122489220597354e-01,2.427198900183999593e-03,3.206905829317559416e-03,1.800261695101640011e-02,5.184207558631896973e-01
7.259347500088092486e-02,7.480721174803764417e-02,-4.418833415572326895e-01,2.026428471683740067e-03,-6.241785467643057870e-04,-4.954527500907250593e-04,5.156010389328002930e-01
7.360842949189269624e-02,7.296065718816566181e-02,-4.456681517998463127e-01,9.115572202644055787e-04,-8.091639041260572296e-04,-1.347215356400424712e-03,5.189625620841979980e-01
3.872824557104045939e-02,5.547598099830047813e-02,-4.360889080629076764e-01,-7.384496280748037433e-02,3.613478428341457965e-02,4.152390253627727401e-02,5.090510845184326172e-01
5.494981834817125321e-02,6.131818028884189475e-02,-4.379089387626712848e-01,4.717397502761616970e-03,5.546224270651930544e-04,6.436727112072324563e-05,4.961418211460113525e-01
7.119148578276232597e-02,4.663510180801727634e-02,-4.435778578731978672e-01,1.629729023045120573e-02,8.037089273077004450e-04,1.255548320924594185e-03,5.037391185760498047e-01
6.069238829123071999e-02,6.328870114850104756e-02,-4.569508098736034252e-01,3.028270922949942434e-02,-6.229953995147350905e-04,-7.047506814330169525e-03,5.217341184616088867e-01
7.092435484476505847e-02,8.009484039117703569e-02,-4.434046392887620591e-01,1.553590867978340336e-03,-1.566599134454790083e-03,-2.910761481596317287e-04,5.189893245697021484e-01
6.925401873193492985e-02,4.635103167096202292e-02,-4.429108742047689340e-01,8.748381669579039302e-03,5.357134977435445809e-05,-3.173832286612427930e-04,5.013354420661926270e-01
3.651574707195172353e-02,2.332967245375949794e-02,-2.984276705402866270e-01,3.706895451357960429e-04,1.192703851156218025e-03,-2.452150551051988491e-03,3.285834789276123047e-01
6.850916286159802748e-02,4.307416213006348693e-02,-4.382994351478841644e-01,6.833477111642602408e-03,1.474027011122321313e-03,-1.106111182139170182e-03,4.947337508201599121e-01
7.839313634862613012e-02,6.986587139864136597e-02,-4.407608330701864863e-01,2.122037231871905152e-03,6.429556470651000819e-05,1.339520141425539542e-03,5.149616599082946777e-01
3.168180819062764442e-02,2.695060565818728493e-02,-2.819195352633812046e-01,-4.209261170651462311e-03,1.509705846854379405e-02,-9.810589883866192244e-04,3.124488294124603271e-01
5.926194123439582073e-02,5.870524640711713427e-02,-4.380049352634602933e-01,7.457132715476362181e-03,-7.568869249997318841e-05,2.664421538956242524e-04,4.971567988395690918e-01
7.783684561082004905e-02,7.030275237271463307e-02,-4.333746371995213509e-01,8.465627059206268235e-03,-1.155138630477082236e-05,-8.705262580383637270e-04,5.077003836631774902e-01
4.630412176430429017e-02,6.837721123867085415e-02,-4.393586770413756559e-01,1.833716956946356003e-02,-2.417367670597244311e-04,1.198703291905615096e-03,4.980852305889129639e-01
1.508526444537282574e-01,-2.830263905614358033e-02,-4.018546162771343688e-01,-1.482931503738463101e-02,7.988113960469601926e-02,9.253940995199738673e-02,5.329679846763610840e-01
6.831211158927666394e-02,6.825582361637924644e-02,-4.157961508843703857e-01,9.093546857355055968e-03,-2.016327755017305670e-03,-1.747305909194899268e-03,4.843583405017852783e-01
6.213534800851966411e-02,6.481718192890759123e-02,-4.413505653109009996e-01,3.770481893061245621e-03,-2.649948551841703470e-03,2.646645839672033713e-03,5.049160718917846680e-01
6.707078390553386504e-02,7.221392758928019129e-02,-4.445999144947039849e-01,-4.533701133260336339e-05,7.036917026209490479e-04,-3.141897165072204869e-03,5.142918229103088379e-01
1.779293030316190793e-01,9.628726028308209894e-02,-7.437396082351356297e-01,-1.116847663065659579e-01,3.202166087343749634e-02,5.333559806859446140e-02,9.110009670257568359e-01
7.825387033646172275e-02,5.933313163125525369e-02,-4.134355133419294615e-01,6.645199738212216253e-03,5.121205604369088180e-04,1.793781384358919626e-03,4.826554059982299805e-01
6.820561319419887747e-02,5.441220833120852252e-02,-4.442030846857795701e-01,1.395569429489107102e-02,3.281324685562084058e-03,-2.155378287848776393e-03,5.062761902809143066e-01
4.827441350261821307e-02,6.671284029076138267e-02,-4.395963748206113686e-01,7.638317592056215188e-03,8.337190829453882063e-04,-1.177986417617647285e-03,4.975286126136779785e-01
8.250146371521804856e-02,6.852855722336068101e-02,-4.630938478652975032e-01,-3.510112098676163722e-02,-4.649893806147032370e-04,3.760330672824432896e-02,5.460630655288696289e-01
1.917501058770336442e-02,1.971710900711388936e-02,-2.531087006870099132e-01,-2.903295657295937911e-03,8.889523615714755959e-04,-2.108216428843987661e-03,2.726303637027740479e-01
6.377476500744455601e-02,4.853229515254708915e-02,-3.676586104043758629e-01,9.092141118876318276e-03,-1.281578134272120888e-04,-1.054750840233361752e-03,4.243139922618865967e-01
6.035148465065220957e-02,6.015015773713142111e-02,-4.404383698381565404e-01,7.764297366743872983e-03,-2.847909916395305590e-03,1.694676741200051850e-03,5.009026527404785156e-01
6.262288295843593255e-02,5.798992142719916476e-02,-4.394482522756598120e-01,3.528709504997338750e-03,-1.133775111690750459e-03,1.434187423219968798e-03,4.998181760311126709e-01
6.206206832331315204e-02,5.968475994929234307e-02,-4.395992613115877745e-01,6.867016201372670367e-03,-1.157694153437659841e-03,1.048924879848447695e-03,5.006255507469177246e-01
5.703857153779040567e-02,6.160736925557189214e-02,-4.373996561302744834e-01,2.153580408873798525e-03,-2.006281558989389177e-04,-4.609969700563747749e-04,4.967531561851501465e-01
4.482631115425156354e-02,7.012913988841035229e-02,-4.396610135203264380e-01,6.602363443573639606e-03,1.217744982335064192e-03,8.781802788456648723e-04,4.977596104145050049e-01
5.137002110254176857e-02,7.654809523244709979e-02,-4.465303830593192469e-01,2.969905460607808953e-03,1.464767498599674851e-03,4.779545051250562449e-03,5.110541582107543945e-01
7.044402550404416097e-02,7.391810310479149382e-02,-4.433559880971064127e-01,1.676934181974401735e-04,-2.033141131750805172e-03,-2.199525673108334179e-03,5.155720114707946777e-01
6.719025813456247498e-02,4.261007952687989597e-02,-3.710677043610403070e-01,-5.998316366562904227e-03,-9.826797439867582425e-04,4.656815822137260852e-04,4.266301095485687256e-01
8.438853839846799376e-02,6.014928491556637002e-02,-4.290954096381463523e-01,-2.039095504532946555e-03,-7.404191848536568771e-04,4.284989345581950758e-04,5.018181800842285156e-01
5.770941672862769933e-02,5.960443738594958796e-02,-4.380574807441776630e-01,1.742522085756521497e-03,-5.101813499702628524e-05,1.374447742641685339e-03,4.967319965362548828e-01
3.933440607723365234e-02,4.013807895943651005e-02,-3.130118693766114069e-01,-8.268736409605412577e-03,4.129178189403993307e-04,-1.924837813955825906e-03,3.530558943748474121e-01
7.134183654554013265e-02,7.104041262013480185e-02,-4.431852513278974337e-01,-1.628512120770250933e-03,3.570320802966900960e-03,1.336407825315224758e-03,5.144265294075012207e-01
1.022198648537611387e-01,1.556860708640303570e-02,-4.526063282280087252e-01,-9.852250519956525648e-03,3.897988683021411799e-03,-1.070075048349061579e-02,5.176334977149963379e-01
6.758636837832926458e-02,7.311847355391268288e-02,-4.455922676427320761e-01,2.001795055407448818e-04,8.666631036443408782e-04,1.263442486672623028e-03,5.159738659858703613e-01
1.043311227688516474e-01,-6.097905891550264856e-03,-4.166100755105018316e-01,2.615115815976818553e-02,1.593189918935481245e-02,-4.449777376065902623e-02,4.845622181892395020e-01
6.489962362315884747e-02,8.084278364832875319e-02,-4.329268181144174665e-01,-3.598546722890588745e-03,-8.176002898667580161e-04,1.676810887790957435e-03,5.060351490974426270e-01
9.994202990556019794e-03,1.347679317735924753e-01,-4.636493949063796305e-01,1.084132273199265584e-01,8.497039550180000844e-02,-2.173859859687474888e-02,5.977816581726074219e-01
1.628019761696637424e-01,7.286740741154207335e-04,-5.759993057946006800e-01,5.320965860142784498e-02,2.188633320765728113e-02,-7.507199156557593789e-02,6.922379732131958008e-01
7.356410995710885303e-02,7.509076564661112951e-02,-4.458786897569785301e-01,-3.450153998958457559e-05,-1.082217973642101956e-03,1.208629882043044199e-03,5.202153921127319336e-01
7.018906360900853403e-02,6.884869662726159079e-02,-4.175805343113903612e-01,-1.016109975938537212e-02,-1.995260319763466576e-03,2.669551504687518381e-03,4.874528348445892334e-01
5.771485639079995678e-02,8.051638413822417850e-02,-4.134960717257161744e-01,3.308509417278603440e-03,1.078907121040618110e-03,6.108945311175595014e-04,4.830542802810668945e-01
6.120384837409587053e-02,8.090932646435150533e-02,-4.179166342739950579e-01,-4.960111097628841330e-03,-1.256462952475566807e-03,2.657172443607411401e-03,4.893728196620941162e-01
1.161653866837557281e-01,4.457387371583804159e-02,-5.185478661276086143e-01,1.160132403148317892e-01,3.715388325740664327e-02,-1.056678326392742756e-01,6.637482047080993652e-01
7.293496981054231609e-02,7.660664092491670241e-02,-4.458745369740365616e-01,-8.205021901937286852e-04,3.115407139661446304e-04,-1.744218891411956907e-04,5.206573605537414551e-01
7.022776141740871836e-02,7.507236184683949154e-02,-4.316684820991090743e-01,-7.362967339831749322e-03,-1.453603623932061542e-03,2.191740787513375872e-03,5.045177936553955078e-01
8.290915440226939714e-02,6.585653113271935921e-02,-4.581628878928262205e-01,-1.170102132574472843e-04,-2.519946449590697258e-04,-2.451814701325741308e-02,5.344405770301818848e-01
7.073934863052119826e-02,7.427710539353307717e-02,-4.478343583775105663e-01,-1.542273088651160019e-03,9.447031377675374746e-04,9.953642641911513702e-05,5.203610658645629883e-01
1.203172861491977053e-01,2.850139272169327498e-02,-4.606999046344311122e-01,-2.257254715374439752e-02,1.442521962533680141e-03,-3.738721798005700120e-02,5.462533831596374512e-01
1.578131325671432994e-01,8.921474446191762775e-03,-5.344795011295504494e-01,1.911954895025770075e-03,8.519185556307569754e-03,-8.810554763118110108e-04,6.313416361808776855e-01
7.283527265890829550e-02,7.328635133604252672e-02,-4.472487897026395376e-01,-2.294587721865116027e-04,1.274822918475911537e-03,-2.653321947168286662e-04,5.203148126602172852e-01
7.006851735234712053e-02,7.874844955232102039e-02,-4.331443512466325307e-01,7.991642059792837538e-03,-1.197908549564814362e-03,-5.353706929647613841e-04,5.078022480010986328e-01
7.546606910710251803e-02,7.460223879456745477e-02,-4.438837388464071387e-01,3.863686803480042772e-03,-1.000678279982831261e-03,-1.193585132221623235e-03,5.189685821533203125e-01
6.936841947049776635e-02,7.466331927646038813e-02,-4.325278614171464420e-01,4.279245183300728859e-03,-1.148617427324213555e-03,-3.986409051435610331e-04,5.046234130859375000e-01
4.920882794745343181e-02,8.365617281386986126e-02,-2.954552462258791534e-01,5.842468817807205950e-02,7.401034052954599818e-02,-4.098520965309271347e-02,4.044317007064819336e-01
7.091809016481775974e-02,6.858608470541166513e-02,-4.452514213583488867e-01,1.906821735896601039e-04,-2.516086340561462121e-03,-3.391080787197026190e-03,5.150595307350158691e-01
6.831415516398309240e-02,7.290058987985287287e-02,-4.459843355003166310e-01,-3.253622124016933292e-03,2.596075180166568502e-03,-1.503716477373577510e-03,5.166638493537902832e-01
6.147332814068379170e-02,8.051738957399401375e-02,-4.536231690916204262e-01,1.412517344954552405e-03,1.961778012160778767e-02,-2.325332863794489762e-03,5.259975194931030273e-01
6.513715941823461364e-02,1.052628080731782267e-01,-4.851662128605319646e-01,2.473198846385493005e-02,2.533912751943702413e-02,-1.578430509356769720e-02,5.753553509712219238e-01
3.694138809817784641e-02,8.161144037407647156e-02,-4.360347120217768491e-01,5.231567654833786662e-02,4.951463310357198666e-02,-3.810625200420710706e-02,5.164802074432373047e-01
3.978589983783251127e-02,8.257376230762575320e-02,-4.555729302469871400e-01,8.283165207679657471e-02,3.685830161923276532e-02,-8.956818146551238230e-03,5.415773391723632812e-01
7.958595527093903499e-02,7.126061160043969944e-02,-4.426101757777720636e-01,4.632840284515864042e-03,1.709903546868687084e-03,1.040150074396344005e-03,5.181573629379272461e-01
2.064857430292703355e-02,6.891375827335283200e-02,-3.191147988089191867e-01,3.053096191522281649e-02,9.740720899517313347e-02,-9.641514775878834431e-02,4.396771192550659180e-01
8.422860246751731617e-02,6.382070248490329112e-02,-4.308804642784851424e-01,-2.843084033186739010e-03,3.402444747287870167e-03,-2.103429977856583497e-04,5.052728652954101562e-01
7.935645163579566064e-02,7.012662959663343298e-02,-4.404142908582723837e-01,1.730752122175626719e-03,4.491118906531541645e-05,-1.527503095676056638e-03,5.152333378791809082e-01
1.214610176329247726e-02,5.412308841194529707e-02,-3.090358724989397121e-01,4.698651923456560742e-02,8.174657057975882879e-02,-6.439782886314264487e-02,3.968804776668548584e-01
2.533629497128769836e-02,9.466211376076572037e-02,-4.498764145090679012e-01,4.119336156747884121e-03,-4.724795829486892751e-03,6.914747312605320703e-03,5.136526226997375488e-01
8.134645362349829378e-02,7.000011109831530409e-02,-4.443072697953733274e-01,1.829406317262469335e-03,1.232044848941401746e-02,7.153264691238676431e-04,5.205221176147460938e-01
2.270083260158602123e-02,2.902245936350525413e-02,-2.618113892545528287e-01,4.227596229163434888e-03,4.909640044552940818e-04,2.349224468228892915e-02,2.906815111637115479e-01
6.549013709310202991e-02,5.350599854206442019e-02,-4.410218430557290015e-01,-3.315872581306353838e-03,-3.195841199018036472e-03,-1.400037177989928900e-05,5.006910562515258789e-01
7.739691477240975837e-02,7.122755888534917923e-02,-4.399325535584114322e-01,-5.957614240839633792e-03,-3.320330264327613860e-04,-1.783930067229438574e-03,5.143856406211853027e-01
1.166421138076789987e-01,5.329063536729261585e-02,-4.907407697790805434e-01,-1.802869282605330109e-02,2.239415899234720522e-02,4.532169338614491783e-02,5.857393145561218262e-01
6.710208905279846370e-02,5.338215586761285714e-02,-3.812218597053067537e-01,-7.507560353384628779e-03,-2.081918886360058576e-03,-3.865999494045537291e-04,4.418304860591888428e-01
7.629255463208500787e-02,7.333326452406008222e-02,-4.432216440300386084e-01,-1.419311695935139301e-03,-3.473086229078529595e-04,1.370542283477001839e-03,5.180525183677673340e-01
7.277110138868689293e-02,7.504103435490100393e-02,-4.394302773225747250e-01,-4.330087541032517223e-03,2.274126403401821508e-03,-1.539967089461088652e-03,5.134169459342956543e-01
7.255412409625572323e-02,7.596430774206963665e-02,-4.375076286192823294e-01,-5.853565524636308165e-03,9.106352402002984786e-04,6.669875457269430893e-04,5.118795037269592285e-01
6.949174330524698906e-02,7.142226928444792011e-02,-4.455166367305463115e-01,-1.774119710477774486e-03,-1.036376781688162806e-04,-3.119551194164043272e-04,5.159857869148254395e-01
7.093941507462322993e-02,7.337286139597770651e-02,-4.467855891362825793e-01,7.577303247793398941e-04,1.154041691306480558e-03,7.286865180521363275e-04,5.189530253410339355e-01
6.758817891105567410e-02,4.734516328127152951e-02,-3.717550553122453416e-01,-2.100749705218676704e-03,-1.031400486134612408e-03,2.909876452408380115e-04,4.295990169048309326e-01
7.384131098811314020e-02,7.028267403768456711e-02,-4.461472044903715961e-01,2.495071682748283112e-04,2.447955617740995866e-03,1.035786670578665424e-03,5.182390213012695312e-01
6.759897937244829791e-02,7.074033377569874381e-02,-4.458206829480525490e-01,4.042893779007339849e-04,-2.990238962720158898e-03,1.634680601185824114e-03,5.150318145751953125e-01
7.295931463051202881e-02,7.274961679303154627e-02,-4.463552024698091980e-01,1.034740416060364685e-03,2.446343905118169345e-03,1.033978291148080972e-03,5.192331671714782715e-01
7.128612963858060869e-02,6.829785459296119909e-02,-4.454404614573672649e-01,-1.559298499386138539e-03,-1.095010194674966679e-03,-3.405181974609595790e-04,5.152498483657836914e-01
6.530392004988899712e-02,6.975895567886619686e-02,-4.453308249263759899e-01,-5.224505742296528012e-04,2.943546449206910394e-03,-4.194072420197702774e-04,5.129034519195556641e-01
6.770119515946174116e-02,8.125738217859579393e-02,-4.373097651255941631e-01,-2.251827672124440821e-03,2.363309594012254385e-04,3.198267823681266069e-04,5.119389891624450684e-01
6.068012728774649367e-02,5.873974656291447438e-02,-4.399918238333423992e-01,-6.733751591887535137e-03,-2.483048348437175232e-03,-2.602528377136617728e-03,4.998795092105865479e-01
7.531210652526365568e-02,7.630338255884766552e-02,-4.485980151129705940e-01,-9.129223913463388376e-04,-4.135393987367599585e-04,-3.795927641225723390e-04,5.244097709655761719e-01
7.159027029340364612e-02,6.303515905611520309e-02,-4.111121401818491616e-01,7.915812123544396436e-03,-1.628080849497883344e-03,-1.440397443793001641e-04,4.786869883537292480e-01
6.641085034974208989e-03,1.046281238227198263e-01,-4.594395417266445292e-01,-4.356101657508084507e-02,9.310151678151842858e-03,-4.428533525997677828e-03,5.277442932128906250e-01
8.484749447894673891e-02,1.011122111356971554e-01,-5.170377099235679008e-01,-3.036276479067627487e-02,3.406627202773952062e-02,2.281801280310542107e-02,6.165460348129272461e-01
7.400024031417945514e-02,9.268483091806786756e-02,-4.796816319776228688e-01,-2.618823403694271051e-02,1.439362887126036279e-02,2.478528480059723205e-02,5.672565102577209473e-01
7.401848477527403491e-02,7.700273752782244019e-02,-4.425197749242396617e-01,6.062777229712506925e-03,5.679083302624885789e-04,1.427247907211342051e-03,5.181500911712646484e-01
5.087948210502676871e-02,7.875392356641763847e-02,-4.473796943411822991e-01,-4.106451349477339974e-03,6.598752576608532885e-03,2.981602136831783181e-03,5.129676461219787598e-01
8.282440225144868662e-02,6.821997240300847754e-02,-4.410080573900048706e-01,1.503124020532534653e-03,-2.067129425169054058e-03,-7.993093340827047517e-04,5.167058706283569336e-01
7.448601337534799249e-02,7.675632652196529015e-02,-4.473439574928666507e-01,1.479992014538920701e-03,-1.374223336309191967e-04,-4.273382498183992372e-04,5.229756832122802734e-01
4.197826026823334167e-02,7.802752884835986724e-02,-4.420458943894862158e-01,-3.672017270297467210e-03,-5.511045050195921211e-03,-4.833977409018167144e-03,5.032189488410949707e-01
7.999222819712184518e-02,5.207596792589855306e-02,-4.448180426921090058e-01,-4.440497609287285402e-03,-1.131788391128715461e-03,-4.258975276066721480e-03,5.115386843681335449e-01
-1.511438838774697285e-02,1.198522962580824691e-01,-2.929860570870921332e-01,-4.940468054719863999e-02,-1.537044309626536265e-01,-4.571024416936922408e-02,4.662595689296722412e-01
8.279028658148984698e-02,7.002341973250109097e-02,-4.407660173640881585e-01,4.410563231422289475e-03,-7.545951878613377272e-05,-9.615274655493985089e-04,5.173501372337341309e-01
3.278952862756107089e-02,8.540516841598619346e-02,-4.533072911108928515e-01,-2.131953451534642982e-02,3.698577342857974851e-03,6.125314295852892508e-04,5.157911777496337891e-01
7.822050867521240791e-02,7.237197654772459243e-02,-4.426992016908878336e-01,2.668111839547701678e-03,-8.416491526493371589e-04,-4.125381865526961964e-04,5.180433392524719238e-01
6.178759392490368318e-02,6.461887963457163542e-02,-4.828429364866540507e-01,-4.327944805705139647e-02,2.344037584652335082e-02,2.205555427497197032e-02,5.539850592613220215e-01
7.402574186579588544e-02,6.992648628928316290e-02,-4.432844275527277889e-01,-1.868542084768708925e-03,-5.546130290275069850e-04,1.307618803512710553e-03,5.152888298034667969e-01
7.324190772036356933e-02,6.774861982600433041e-02,-4.419600939950763530e-01,5.877255604692673387e-04,-1.964566300048935406e-03,1.729616912251134885e-03,5.124984979629516602e-01
6.500365747286246387e-02,6.043510044364330813e-02,-4.472548244533491313e-01,7.980079834016936408e-03,-6.659566698792616229e-03,6.607909649858023649e-03,5.104355216026306152e-01
7.277047346427642505e-02,7.599989835825618489e-02,-4.428630182784691893e-01,-1.242021456041317393e-03,-1.280385786518149424e-03,5.834879093585538905e-04,5.172659754753112793e-01
7.256329446191239763e-02,6.801771908988921145e-02,-4.419355607641329842e-01,6.020820566716708145e-04,-2.178830378843183476e-03,1.676335665535883500e-03,5.122643709182739258e-01
7.148384894964557312e-02,7.268602324513953605e-02,-4.435239798930112887e-01,-7.570513026616154011e-04,-3.051805692846066426e-03,1.066949297264498369e-03,5.156420469284057617e-01
8.060219770927101735e-02,5.350047997767631847e-02,-4.104031946087839944e-01,-4.369850183340590749e-03,-1.202690959112262016e-03,-9.239316234121335621e-04,4.780982136726379395e-01
4.373741863089519732e-02,-3.047214697181554327e-02,-1.720512915563218170e-01,1.116196080064104680e-02,2.582526232538146990e-02,-7.430622940851611125e-02,2.345145791769027710e-01
6.432269579701341278e-02,6.555324255024005953e-02,-4.059221966365613166e-01,-5.908935499859866748e-03,1.293952901770482021e-02,-4.755867074079996905e-03,4.715774953365325928e-01
5.739577255795672017e-02,7.144525701382775651e-02,-3.989026881618675247e-01,7.800091502575257768e-03,-4.037178840372769736e-04,1.011584102713948552e-02,4.640112519264221191e-01
4.018924191171910354e-02,4.074462832477751539e-02,-3.678678409980533637e-01,3.820120992146100458e-02,1.183407598962426394e-01,-9.451827516524782813e-02,4.898267388343811035e-01
6.405937114455342862e-02,7.233930742118616086e-02,-4.448747432032957860e-01,4.750645744913148047e-03,1.435419948638671367e-03,1.610952911855225789e-03,5.132037401199340820e-01
6.468494122056905882e-02,7.719147372087054038e-02,-4.252875377919362876e-01,-5.934764603646679008e-03,5.693935030078763060e-03,-2.179275550265893577e-02,4.979809224605560303e-01
7.262892987962543678e-02,6.943201140432517238e-02,-4.255635233558826558e-01,8.164799996633271065e-03,9.104894833445382248e-04,-2.857551142761806991e-04,4.968057870864868164e-01
4.844234331023147822e-02,5.624191147302820548e-02,-4.643815842282553730e-01,-5.906372718965917368e-02,-1.235821861834540333e-02,-8.108261841524973257e-03,5.274182558059692383e-01
8.066530809726665807e-02,5.826895864247061407e-02,-4.132968761107467803e-01,3.426480789585246989e-03,-3.247840346246539354e-03,-1.097297119380591683e-03,4.832264184951782227e-01
4.838323905417379889e-02,1.226499438692632560e-02,-3.234328182428151122e-01,4.146826786603406007e-02,5.363822934830666384e-02,-4.181529021301891996e-02,3.809959888458251953e-01
5.089823162278367397e-02,5.181248972385818496e-02,-3.398091184458446046e-01,-6.263926314955975752e-03,1.257326351792012985e-02,-5.682803179489249318e-02,4.040922224521636963e-01
9.550084516550597091e-02,4.208307457597143530e-02,-4.495953758127284594e-01,-8.748665663158143070e-04,-1.462035355729503780e-03,-6.718228873785589590e-03,5.205858349800109863e-01
8.239016329723317100e-02,6.410206185977765370e-02,-4.328189653102803569e-01,-3.545606269054468566e-03,4.467468015081089636e-03,-4.746691863680311879e-04,5.064098834991455078e-01
2.389774199905964069e-02,1.000336861061622840e-01,-4.535349145405779270e-01,-7.377344839630671502e-03,1.028893870931768539e-02,2.726234942298232187e-03,5.201841592788696289e-01
6.913317366807755771e-02,7.943505920601337533e-02,-4.385791438650488705e-01,-4.366006400043620159e-03,4.320800369795542895e-04,1.093331079907820282e-03,5.130006074905395508e-01
6.795065237694061788e-02,7.682425421489963435e-02,-4.383671914265955261e-01,-2.228658842131427966e-04,-8.375928906467939054e-04,1.687938044686078387e-02,5.116506218910217285e-01
8.407403617171108068e-02,5.324931095594895303e-02,-4.505030092849444667e-01,-2.284379028194798936e-03,-7.897997996242332470e-04,1.145634296540191900e-03,5.198711752891540527e-01
6.416457518592824649e-02,8.348314952006130607e-02,-4.335804302555009149e-01,-3.495964786735714612e-03,-3.176424920832817615e-04,6.295193812515738861e-03,5.078335404396057129e-01
6.751381502812289770e-02,8.160368233489817547e-02,-4.386850147229451324e-01,-6.547577337013699020e-04,5.493734330533875561e-04,2.499634375255769311e-04,5.133911371231079102e-01
7.542866734346304058e-02,7.592240743040201689e-02,-4.486712724490568016e-01,-6.149241903410848902e-04,-2.273574230005139820e-04,-8.695207629217533698e-04,5.243504047393798828e-01
7.629985263356398040e-02,7.562518376943908049e-02,-4.483454640483875431e-01,-3.961037963381386319e-04,5.884493649479293018e-04,-6.488491767667049596e-04,5.243109464645385742e-01
8.081317594744194532e-02,6.788216419272793956e-02,-4.382007951497979281e-01,-3.140596554592553903e-04,-1.167029082277525704e-03,4.845548000479340395e-04,5.126757621765136719e-01
7.268783097357747747e-02,6.906150804243621488e-02,-4.266105715888311445e-01,-6.316595775727686449e-03,5.564156946327700887e-03,-2.259331387295723543e-03,4.977241456508636475e-01
7.328044214570728077e-02,7.796182119004388400e-02,-4.442484331780068851e-01,-1.942851411505668729e-03,-7.738148336986676659e-05,-8.547035712201424544e-05,5.198963284492492676e-01
7.368600092027274839e-02,7.817224480466483660e-02,-4.459999032120005036e-01,-2.415046779402808905e-03,3.663655180773694770e-04,9.730674971053195673e-04,5.219633579254150391e-01
7.362534859490388328e-02,7.540459450806050179e-02,-4.430252765928559544e-01,-1.797454788538057312e-03,1.659627057799523088e-03,-1.035870191655847376e-03,5.175629854202270508e-01
7.379608242817700670e-02,7.633052803695980493e-02,-4.480085489631577822e-01,-8.664724140568936649e-04,2.432289169807516811e-03,-2.214440272863005548e-04,5.230957269668579102e-01
5.733460644220483848e-02,6.065599631865434271e-02,-4.390736586240162609e-01,4.742123997040685254e-03,-1.119788479084540302e-03,1.071677752703483789e-03,4.981522262096405029e-01
7.439641650710504539e-02,7.620504428040619782e-02,-4.492380783124472199e-01,-8.433437166611328691e-04,4.383768127085074036e-04,1.984261111548221094e-04,5.245438218116760254e-01
7.519278665913312065e-02,7.611430908788430205e-02,-4.459609916873510382e-01,-3.284374255379708327e-03,-5.083879464583731644e-04,-5.497705779619567121e-04,5.216478109359741211e-01
7.554777796288913994e-02,7.569659107910911566e-02,-4.492674546665111901e-01,-5.409842417127042372e-05,-5.185854754015641031e-09,5.337692671811278267e-04,5.248904824256896973e-01
7.428841639213432102e-02,7.696965413633868880e-02,-4.431970650433660897e-01,-4.598394352808154659e-03,-1.818849321932330173e-03,1.912679816365637662e-03,5.189125537872314453e-01
7.302420030226516867e-02,6.976872073000356389e-02,-4.464693131779235435e-01,-7.882659240305495748e-04,2.207294956380538673e-04,-1.679264722518959132e-03,5.178835391998291016e-01
7.914891407752353003e-02,6.730928671316163681e-02,-4.373510484382557295e-01,4.109960302939619746e-03,1.051888789663993524e-02,9.472240011126587325e-03,5.113208293914794922e-01
7.419798879604974640e-02,7.385540300626558530e-02,-4.471345220327028191e-01,-3.009176439986523902e-03,-3.167309549417202368e-03,-6.605891476181123415e-04,5.212174654006958008e-01
5.438243070592413408e-02,7.872893802337704861e-02,-4.487563561071291063e-01,4.596954714051974984e-03,6.524417642529255733e-03,-1.228653764910734051e-03,5.159328579902648926e-01
7.448885932851406766e-02,7.060215495831179133e-02,-4.477976796295348172e-01,-1.798824591011685854e-03,-4.215776118938908816e-04,6.324552335342147275e-04,5.203650593757629395e-01
1.161603829884171046e-01,-4.924630579348915349e-03,-4.520880970463410642e-01,2.166076608084345836e-02,3.248753231695036044e-03,8.636616272009939917e-04,5.198105573654174805e-01
4.723617428433776744e-02,5.467197203715729037e-02,-4.419915162855083124e-01,3.237551029530072455e-02,8.513062588829966616e-04,-2.298885384638340353e-03,4.961848258972167969e-01
8.388343314903770609e-02,6.502184617911130338e-02,-4.367116343058556338e-01,1.596332757912919710e-03,1.246030853233792181e-03,7.534620353966684425e-04,5.114389061927795410e-01
7.818720406433629644e-02,7.400474785693719748e-02,-4.441566958982814395e-01,2.588027333841649326e-03,-8.849999298288314725e-04,-1.281099584590240969e-03,5.202915668487548828e-01
7.582493384851513030e-02,7.362891417909214753e-02,-4.438041595405955997e-01,4.486739029880982676e-04,4.626685348990146850e-04,-7.894889098530006406e-04,5.185375809669494629e-01
7.621777558196271563e-02,7.654667951000238002e-02,-4.482008246979939936e-01,1.101979024486822835e-03,-4.042178935818061068e-04,-6.167094951344628427e-04,5.245881676673889160e-01
1.416795228562683917e-01,-2.175505064078019080e-02,-4.639820245540651200e-01,3.308610073325305573e-02,-9.430281572039306975e-03,5.882264257075763350e-03,5.460818409919738770e-01
5.985586768620626552e-02,5.790566397173699253e-02,-4.388920876161093720e-01,-1.666841713151795065e-03,-1.591543590785157941e-03,-2.396528991254006269e-04,4.977918863296508789e-01
7.590028773502804915e-02,7.335107871202473095e-02,-4.464395257320640242e-01,3.259660891419397769e-04,-1.574243900218826042e-03,-1.264836627204206625e-03,5.210819244384765625e-01
1.121663494900892455e-01,6.920170795394850471e-03,-4.596970155403010128e-01,1.986298521530199118e-02,-2.726382016158958570e-03,5.485633143258566427e-04,5.283226966857910156e-01
8.680214355764639955e-02,6.145130579851862396e-02,-4.323315971786474976e-01,1.402407115315979468e-03,-4.183741675945000754e-04,-3.172489204345848419e-04,5.069406032562255859e-01
1.468670199209207716e-01,-3.066676619494630718e-02,-5.070656037319802856e-01,6.239645858771157572e-02,-8.496829114731136931e-03,4.430338886067744920e-05,5.957747101783752441e-01
1.249590892342240522e-01,-1.269288520483119465e-02,-5.098366505330316212e-01,7.376037828858846013e-02,3.945014124485203555e-03,-1.258502553741238511e-02,5.927701592445373535e-01
8.556740135829038474e-02,6.435559739255156120e-02,-4.374548497597224306e-01,2.228875050667661426e-03,-2.065564806915776532e-04,-1.089962136231090303e-03,5.127636790275573730e-01
1.161427858469321617e-01,4.583610150586614473e-03,-4.878916340530874418e-01,8.238572564740269388e-02,5.467054215847502729e-02,-5.057863913585668864e-02,5.889998674392700195e-01
7.016168942103989670e-02,8.872100226607596007e-02,-5.124591970766851912e-01,-4.884499331398682587e-02,1.093404036658928141e-03,-1.462421570576785896e-03,5.981405377388000488e-01
8.339607351445893491e-02,6.704787949149909609e-02,-4.402017922431804564e-01,-1.394600033736468226e-03,3.124316403082764027e-03,1.564985973082932882e-03,5.156593322753906250e-01
8.463711172438506680e-02,6.278633242477010823e-02,-4.322252679525859231e-01,7.576123219663673681e-04,-3.608983007350079816e-04,-3.440417361664173303e-04,5.062931776046752930e-01
-1.039661752144867973e-02,4.369838206450520762e-03,-4.229138136296820005e-02,-4.187491180707937112e-03,-5.494999860827279314e-02,-2.040257676122185504e-02,1.098462790250778198e-01
2.164037133464644103e-02,9.984838021235389882e-02,-5.238307752308333232e-01,-8.916409500593268367e-02,-4.597376419226038846e-02,-4.388046022439048843e-02,6.182907223701477051e-01
4.328270168074796476e-02,2.100307294641362565e-01,-7.654865821758528588e-01,-6.650431111065811807e-02,-6.685758194329259607e-02,-2.585050170270093012e-02,9.194869995117187500e-01
7.313362320828292740e-02,7.099681949752634225e-02,-4.469860346308210941e-01,7.504514140735631588e-04,8.451356687195982556e-04,5.988681848474520283e-04,5.190593004226684570e-01
4.784439281705418767e-02,8.306250548011398505e-02,-5.222396969195465255e-01,-9.408289370850993205e-02,-1.021861157750803134e-01,-3.075583211828337993e-02,6.379905939102172852e-01
6.168025142811872641e-02,9.745432026681336013e-02,-5.207158819936816840e-01,-5.455648430044683639e-02,-1.059482352855450026e-02,-2.644053767487743439e-03,6.087583303451538086e-01
6.759750705600645060e-02,6.944620257469757973e-02,-4.449736080098078417e-01,8.556416938409921232e-04,-1.436632769402090186e-03,3.157429830742326284e-03,5.135352611541748047e-01
8.611969937401328656e-02,6.130616065957658622e-02,-4.294667899298008074e-01,2.036213618250556153e-04,-1.134758221045376264e-03,1.258896607245887976e-04,5.036423802375793457e-01
7.990027333990276648e-02,6.964480495439406837e-02,-4.443504784497661619e-01,-9.424175498311182161e-04,3.264386695722069128e-03,1.751294786526461610e-03,5.192412137985229492e-01
7.016256746915783271e-02,7.076217179402660706e-02,-4.466123120865222451e-01,4.165835694644323076e-04,-9.163404256838209548e-04,8.455198292313102453e-06,5.170778632164001465e-01
6.777554207365993344e-02,7.033337507236486763e-02,-4.452467479217365742e-01,-1.231497239536364502e-03,9.611490585083634196e-04,1.452806823979523780e-03,5.143192410469055176e-01
7.813038703456273715e-02,7.124999162383863216e-02,-4.427210433279367696e-01,-5.111008405964163762e-04,-1.396958040166448303e-03,5.830187365153530806e-04,5.174529552459716797e-01
6.503543519010271390e-02,6.623791691460562125e-02,-4.434925175789137253e-01,1.854876492373777207e-04,-2.250175662338596821e-03,2.093705050097100472e-03,5.091581940650939941e-01
6.798193814096653576e-02,7.049691304907690359e-02,-4.457749022665877248e-01,1.713345680234829634e-03,-2.830219771176314351e-03,1.140373773126216123e-03,5.150545835494995117e-01
7.942985035538868699e-02,7.142932981550076388e-02,-4.431319307648636241e-01,4.654383922320041306e-03,-8.168378333216728959e-04,3.376550493021494587e-04,5.186727046966552734e-01
7.846638240937983677e-02,6.007787222633995117e-02,-4.201865560824236123e-01,-8.472635634394659263e-03,-2.005116331337389313e-03,-2.625610317134132767e-04,4.899500310420989990e-01
7.894833619953928183e-02,7.147181097542767980e-02,-4.426025663621531714e-01,2.387848442787187265e-03,1.036650879777049027e-03,-2.019349744159558636e-05,5.178727507591247559e-01
7.272319527215240220e-02,7.266327197970853802e-02,-4.467539833083776224e-01,5.955458974602127580e-04,1.602473142221206908e-03,2.350103057434048490e-03,5.194715857505798340e-01
7.586146359870929445e-02,7.413511808368994371e-02,-4.479924277912180619e-01,-1.524620199512409817e-04,2.399249665004023636e-04,1.148372286220237495e-04,5.229931473731994629e-01
7.881380059597645205e-02,7.315613857340613757e-02,-4.456517628816757948e-01,3.288291147613179102e-03,-1.950836277272696186e-03,6.987886196682774028e-04,5.217031836509704590e-01
6.966145176803625882e-02,7.161262097705117791e-02,-4.413123282523499502e-01,-1.264713092256450301e-03,3.614919501341771774e-03,1.207871622033179423e-03,5.119994282722473145e-01
7.034612344875262879e-02,7.239250232756261338e-02,-4.460191665014647810e-01,-2.878423593470620754e-05,2.602787081308258806e-03,1.842868218653339251e-03,5.174210071563720703e-01
5.811873199198647200e-02,5.956528562482338307e-02,-4.389241469529732709e-01,-4.427053282050106599e-03,-1.255090094014943555e-03,-1.699129243962388663e-03,4.978402256965637207e-01
6.061073809846043159e-02,5.480117299711495527e-02,-4.375496950697172482e-01,-5.296554867576321740e-03,-1.107776900328330321e-03,-3.016167247093718930e-05,4.953698813915252686e-01
6.034249699706220604e-02,6.098305380921303920e-02,-4.394346995785800569e-01,-3.250520715650885898e-04,-1.336920817648295980e-03,-1.882637702566022659e-03,5.001140832901000977e-01
5.947380656104950258e-02,5.999741845005787666e-02,-4.392601222769538238e-01,-6.549906900237927043e-03,-2.215538625115356746e-04,9.866656422887996067e-05,4.991250634193420410e-01
7.745626427771157285e-02,7.336935393395288552e-02,-4.480354396899780545e-01,9.885190284831602611e-04,5.059980477001563412e-04,7.626619216589099800e-04,5.234653949737548828e-01
8.147697388328928314e-02,6.880257995976493679e-02,-4.405152852613997139e-01,2.979413348124149066e-03,1.027420196731563574e-03,-1.523043771732908067e-04,5.158008337020874023e-01
7.410902775300048928e-02,7.496187347892083186e-02,-4.477226919859519927e-01,7.813394632479465484e-04,-1.268883048405034485e-03,7.673888637205327368e-04,5.222667455673217773e-01
-1.009414484810596674e-02,2.476092797665359335e-02,-1.333878748235419187e-01,-2.993951984678801248e-02,4.724280814071599860e-02,4.200233738075180578e-02,1.881249397993087769e-01
4.440649384015718515e-02,1.336492908326118723e-02,-1.251642815079189175e-01,-2.004321076094373738e-02,7.894955017013813303e-02,4.700105704319207378e-02,2.258000671863555908e-01
7.504812953461248437e-02,6.084685988277924173e-02,-4.129013660893737780e-01,5.296368394603710034e-03,-3.395405763383677012e-04,-2.148639696101394773e-03,4.811083376407623291e-01
2.050525482549291068e-02,7.835978780582508740e-03,-1.877434055374855859e-01,-5.446099952410487534e-03,2.768339576640729133e-02,1.722864648229105455e-02,2.101623713970184326e-01
7.415020550876363914e-02,7.200267002179475129e-02,-4.424157575337034354e-01,9.221309367620923302e-04,2.413703827611690667e-03,-1.994744464372163670e-03,5.155265331268310547e-01
1.323950239123321271e-02,1.162171274256823539e-02,-2.004257598327235657e-01,1.850607713925880426e-03,4.536874505639559504e-03,2.923705033525545588e-02,2.189662903547286987e-01
5.293558940018142089e-02,6.756659827182451283e-02,-4.421379068749509700e-01,-1.649791697015581815e-02,-3.177669946264302311e-03,-3.322499785628231332e-03,5.034235119819641113e-01
8.032784747410193216e-02,7.202462493000449939e-02,-4.414079363011828017e-01,-1.461602458063043005e-03,6.043762401374864167e-03,-1.050363865450405689e-03,5.177493691444396973e-01
8.290751955414946139e-02,6.601309674493305302e-02,-4.373263531653883152e-01,1.448043475056628353e-03,-2.069561265112589631e-04,-1.089971105085596817e-03,5.120055079460144043e-01
2.459812656602219927e-02,1.567830821890128790e-02,-1.923077563966655024e-01,2.922910255749201248e-03,-4.757715518237436853e-02,-2.297875335076324244e-02,2.315025329589843750e-01
8.165011482427261824e-02,6.691236265451747101e-02,-4.410262807763894455e-01,-4.609699176751703206e-04,5.257158325836674972e-03,2.161766998687264692e-03,5.155602097511291504e-01
7.646633686614773273e-02,7.266328538510424817e-02,-4.469135715832176503e-01,-2.125137499574046226e-03,1.546390163500567820e-03,9.273270792043454818e-04,5.215111374855041504e-01
6.182699825935836224e-02,5.790139994366205745e-02,-4.386023415353552113e-01,-5.353154428137235892e-04,9.365107501293581417e-04,-1.273878745640795408e-04,4.984816908836364746e-01
7.270877829155658612e-02,7.753868820246775928e-02,-4.454174254223243756e-01,3.985468508989739068e-03,1.138251296067134197e-02,1.398599001511094050e-02,5.215398073196411133e-01
6.706005251855354232e-02,7.895493500186834268e-02,-4.472653653704497523e-01,4.030347010754405573e-05,5.264312176239178791e-03,-3.516060019854638438e-03,5.204903483390808105e-01
6.831375826828148257e-03,1.031290720906352931e-01,-4.496937067009020295e-01,2.160891122178368665e-02,1.158174133395012059e-02,2.476004641400771870e-03,5.132955908775329590e-01
8.243974961484262787e-02,6.595747299729298740e-02,-4.366475664305985993e-01,1.200077419996090555e-03,-3.470283856547993128e-04,-8.402944269981780286e-04,5.110521912574768066e-01
1.085870349230917686e-01,-3.818715482728403388e-02,-3.861419197670386549e-01,-3.040891462115898752e-02,-5.163477815533109010e-04,5.674715961775838452e-02,4.540061652660369873e-01
6.775190437233571950e-02,7.538986334809827383e-02,-4.465269092504032811e-01,-3.425368969281786350e-05,5.260611155074177564e-03,-1.583633883866400515e-03,5.182273983955383301e-01
7.999873410933547313e-02,6.341775213830638802e-02,-4.282331382161584932e-01,3.406650874566446822e-03,8.127788070821217320e-03,-4.943294294296458717e-04,5.003811717033386230e-01
6.124701925180053852e-04,9.222823398157711794e-02,-4.324538612388695302e-01,6.527061981194316742e-02,5.370535794824336101e-02,-3.849779273913173094e-02,5.113661885261535645e-01
1.119864276286611227e-02,1.540877561435918808e-01,-5.269009878925904333e-01,1.132580294266558318e-01,-3.084824968045871835e-02,-8.192958275000618296e-02,6.695755720138549805e-01
8.298247845426376390e-02,6.031358683245977015e-02,-4.256902156215206512e-01,-2.795324365553687653e-03,7.873685512187457436e-03,-2.938853815548261254e-03,4.979619383811950684e-01
-2.035267739667054321e-02,1.233419838353595477e-01,-4.734058047784243661e-01,3.568121795259871637e-02,1.314069540463063887e-02,-2.279954141522261193e-03,5.434700250625610352e-01
1.890451454894045979e-02,1.822996758959609109e-01,-5.773115928550254239e-01,-6.604858057823036199e-02,1.461690828528834918e-01,6.135587691652926584e-02,7.537025213241577148e-01
2.107790934122441562e-02,1.362731787732701094e-01,-5.128219344903424126e-01,5.117576324439994384e-02,-1.600254872920446256e-02,-3.800564072724542733e-03,6.070339083671569824e-01
8.290389505920359170e-02,6.009685647887716420e-02,-4.201567380066983937e-01,-2.474067910910730025e-04,8.410205393309789709e-03,-6.972647839983927469e-04,4.922709465026855469e-01
3.447602905902741321e-02,1.611619884139470216e-01,-6.037433973496704187e-01,1.151800739997321521e-01,4.464500903540951499e-02,3.370612264405042913e-02,7.439180016517639160e-01
-2.777419810952759527e-02,1.548690476986929188e-01,-4.908811714008178284e-01,2.414274756332229765e-02,-1.109874127033949089e-02,-2.464857942262528839e-03,5.783998370170593262e-01
7.780647884247596235e-02,7.134882685119137147e-02,-4.409692997846405005e-01,-3.248545231014986039e-03,-8.124232340956167491e-04,1.332985551301324977e-03,5.156150460243225098e-01
4.632683264618520091e-03,1.063043061288486690e-01,-4.476363431117544867e-01,-1.252743287981548936e-03,3.976253017579173266e-03,1.277262118160987650e-03,5.108075737953186035e-01
7.867792101384926684e-02,7.139050653665940382e-02,-4.412145277896965534e-01,-1.676924873003566782e-03,4.164156962722819454e-03,-1.557323746659547556e-03,5.163528919219970703e-01
8.040244865386703133e-02,6.433482999315051631e-02,-4.305623799548031205e-01,1.332600446614630018e-03,8.684314472002551463e-04,1.068970521773802149e-03,5.031344294548034668e-01
7.299994151417452115e-02,6.704732330804813456e-02,-4.356211714367703158e-01,2.636020723798324214e-04,1.076004124015745352e-03,2.026926998044684299e-03,5.056869387626647949e-01
5.630159307314736017e-02,7.874757511629754125e-02,-4.136261486329372850e-01,2.901068735922356177e-03,9.395772975261451609e-03,1.299103594297119219e-02,4.823694527149200439e-01
6.657538675317553611e-02,7.941151182756556182e-02,-4.327958618739299879e-01,4.187442728325391737e-03,4.660899769007783048e-04,2.714355470530657732e-03,5.059859156608581543e-01
8.429261808125895761e-02,6.337614660462889682e-02,-4.318572060606439278e-01,-1.892427890329102455e-03,-6.404868524769089487e-04,-4.344205642154983556e-04,5.060282945632934570e-01
7.231292726707888585e-02,6.972380431474967111e-02,-4.451393021085426338e-01,1.950231119314044075e-03,1.809484901188089035e-04,2.999737306502145862e-03,5.161998271942138672e-01
6.799711702134880742e-02,8.181966830703971127e-02,-4.404725659099984481e-01,2.240297575224090617e-03,6.728111505781806138e-04,1.466032678716829192e-03,5.155421495437622070e-01
5.152038067875636118e-02,3.488554747466225681e-02,-3.166426686353785991e-01,-2.394209830129928780e-03,3.368934725249345119e-02,-8.392285979924096057e-03,3.651435673236846924e-01
7.911328764655800594e-02,7.034517822125085917e-02,-4.400737764166463561e-01,-1.269785588277958519e-03,1.352168487310342415e-03,-1.061475490455276094e-03,5.148723125457763672e-01
2.339453500969759792e-02,1.260315030240689860e-02,-2.360308585592683084e-01,-1.296291038381517128e-03,-4.000171158217215306e-02,-1.782093734233041599e-02,2.652859687805175781e-01
6.185679362929943914e-02,8.378304364903568779e-02,-4.235159803772004516e-01,3.596000612817618070e-03,1.561058057392473736e-03,7.878903348156069547e-03,4.969328343868255615e-01
7.824510146629526375e-02,7.223783888256232744e-02,-4.435765071079328936e-01,-2.062965298480601718e-03,8.351236534851073153e-05,-3.439384140158416423e-04,5.188567042350769043e-01
7.689032109302701423e-02,7.158108976852947669e-02,-4.442080517241118187e-01,-8.722978008364017100e-04,2.595562586103301785e-03,2.932307348936938145e-04,5.184860825538635254e-01
7.649902231757244042e-02,7.498673426896762528e-02,-4.481849198715791016e-01,-1.319163778591624266e-03,1.358189539920925503e-04,2.187661665120568409e-04,5.239346027374267578e-01
1.509218922133565566e-01,1.439642481430918330e-01,-7.980987829883726681e-01,1.300343622380442932e-01,3.599316204846945283e-02,-2.559049216070428609e-02,9.750198125839233398e-01
6.514889510456250976e-02,8.230755473567186176e-02,-4.337089999427362619e-01,1.512397339263848528e-03,-1.405091890834987613e-03,2.223231573116418139e-04,5.076674818992614746e-01
6.347351141205823111e-02,8.588239524955285087e-02,-4.321490667864775204e-01,2.225862880949086575e-03,9.143654821253394257e-04,-1.558882639280951892e-03,5.072227120399475098e-01
7.417391014186855425e-02,7.255887282848255682e-02,-4.458108096292475730e-01,-1.494746055078377761e-03,-2.555669148711501009e-03,-4.752360995113223338e-04,5.192050337791442871e-01
5.122421977425861694e-02,7.069595996921321235e-02,-4.454511280689193442e-01,1.518631179313300467e-02,-3.205286931712316573e-03,3.418951355699686220e-03,5.074390769004821777e-01
7.308836477419622391e-02,7.095269795776715238e-02,-4.469634169257550860e-01,-7.031930302419582036e-04,-7.602459366196321093e-04,1.055633722029202751e-03,5.189935564994812012e-01
7.733422200332332186e-02,7.309603007541498609e-02,-4.436069324959054927e-01,5.531317895698392197e-03,-5.562336561953226330e-04,-5.851190539180251482e-04,5.189253687858581543e-01
6.949706565032123806e-02,7.191381503115232277e-02,-4.457945082398895864e-01,-7.943673533303014650e-04,-1.910037863674854137e-03,-1.560233459738549376e-03,5.165236592292785645e-01
7.190333825901570886e-02,7.398802962627548663e-02,-4.450522298944352695e-01,1.796358485629033150e-03,2.308556334083804857e-04,-2.757820504611090129e-03,5.180326104164123535e-01
7.430797109764436525e-02,6.964944726987762347e-02,-4.466228557444451019e-01,6.302995265742765505e-04,-2.245901919823288517e-03,-2.057964032793467828e-03,5.186452269554138184e-01
7.090697131732676128e-02,7.914252297212739928e-02,-4.427655350546468860e-01,-1.407101326574085060e-03,1.995749782413916429e-03,-1.357483349722667749e-03,5.178620219230651855e-01
6.935365882474894828e-02,7.281700584110667451e-02,-4.304079898725812203e-01,2.588992384454598394e-03,3.453283718509804305e-03,1.841702048876489193e-03,5.015681385993957520e-01
4.664416269232135592e-02,6.494371874340421069e-02,-3.699983567599111622e-01,7.229863924871987590e-03,6.541226506633886564e-03,-2.438403036891563166e-03,4.264425635337829590e-01
6.568272360855995085e-02,6.838982015225297806e-02,-4.417737479282310975e-01,-6.405714053239145583e-03,4.637860341608205858e-03,2.390431792830878359e-03,5.090166330337524414e-01
6.528000645336476393e-02,3.640891002551099875e-02,-3.512652858345337026e-01,2.840844816406834852e-03,1.398815916386423317e-04,6.534355394323508462e-04,4.029180407524108887e-01
5.362695850101056871e-02,7.589954531018913708e-02,-4.451628595383728126e-01,-2.703614826717469673e-03,4.864109963287025808e-03,-3.708327749753207846e-03,5.104222297668457031e-01
7.551630935747163931e-02,7.598300731474683101e-02,-4.454273185157021087e-01,4.046351730705983682e-03,-1.170182051943493423e-03,-9.733400661713533918e-04,5.212309360504150391e-01
5.895359198269556344e-02,7.535322741484010156e-02,-4.104967239302452775e-01,-5.374844055238095497e-03,2.760611871212759888e-02,8.501148033340306031e-04,4.803399741649627686e-01
7.120686209135401734e-02,6.893024664147065494e-02,-4.213604636581066432e-01,8.033198634363006643e-03,4.065075034012387983e-03,-1.275235769676475546e-03,4.916852712631225586e-01
6.587491913414358913e-02,7.405190133258848784e-02,-4.458169742632431820e-01,-4.324200348931974726e-04,3.114833782612290956e-03,-2.599399452542294070e-03,5.158774256706237793e-01
8.078867844029902212e-02,6.076363676356297261e-02,-4.236727756925003363e-01,2.041526907004461659e-03,4.429574872703182647e-03,1.122483486366938958e-04,4.948251247406005859e-01
7.559448067868917986e-02,7.247418249883552654e-02,-4.426600597146290172e-01,5.504614708410048842e-04,4.984408307951920976e-03,-1.398838234471705194e-03,5.167801380157470703e-01
1.919809406224233239e-01,8.861939065843521535e-02,-7.550334117992215655e-01,-1.064900362060700600e-01,-2.943552975980224043e-03,-2.315236104100772824e-02,9.193962216377258301e-01
6.750078613638188507e-02,8.215288286886790470e-02,-4.384731436016863770e-01,-5.229458417107575238e-03,-2.929321006014176491e-03,4.639384723780490272e-03,5.136246085166931152e-01
7.512531710656827899e-02,7.157929128688270137e-02,-4.424778540204895583e-01,1.776810416349519726e-03,4.038031323010619206e-03,6.818503164006601332e-04,5.158972144126892090e-01
7.242613367982778105e-02,7.172694329881135200e-02,-4.313758589533378540e-01,5.790883788280216417e-03,8.194811958050064824e-04,1.718711842311679110e-03,5.035634636878967285e-01
6.430347140510289661e-02,6.097419688793362380e-02,-4.415309238118822477e-01,-2.134830107833215335e-03,-1.803748204177905686e-03,7.684905233667994797e-04,5.042030215263366699e-01
5.956297879174227150e-02,7.401666624618880030e-02,-4.339409562332950943e-01,-2.338777977518030279e-02,1.837995765205132498e-02,3.694364030001716370e-02,5.075795054435729980e-01
6.673479796484638182e-02,8.129076552543024192e-02,-4.342289181171209989e-01,-5.275549248843638440e-03,-4.699389800682224512e-03,5.828147842753706766e-03,5.086454153060913086e-01
4.454324935717726697e-02,6.926365597726019674e-02,-4.400423636086509549e-01,-7.553678584334149945e-03,1.407709937362209814e-03,-5.143215937068927688e-04,4.975855648517608643e-01
8.758042775999236307e-02,4.644101574875120209e-02,-4.466248504328542146e-01,5.247884726468967850e-03,-5.150941466410319247e-03,-1.265639835516746935e-02,5.154935717582702637e-01
7.413429903834645174e-02,7.218007300532292003e-02,-4.450993950883549433e-01,2.329874228971785550e-03,2.556251831061819892e-03,-1.968880397247464579e-04,5.182940959930419922e-01
7.888293470751708836e-02,7.216624585334990849e-02,-4.409107707210558891e-01,6.200845736633218367e-04,-5.755315700405294957e-03,1.009531961961977449e-03,5.165683627128601074e-01
8.296315711279117489e-02,5.746362859661027778e-02,-4.153281587995241719e-01,6.262329867215784716e-04,1.804076892752154264e-03,-2.259227833144448929e-04,4.860548973083496094e-01
5.400246151036622311e-02,6.096556570977257339e-02,-4.410254964625576202e-01,-1.471065942864053372e-02,-3.165104987300139828e-03,-3.367584988152402641e-03,4.992608428001403809e-01
6.648887098327990741e-02,4.874326824374627942e-02,-4.399305761235665080e-01,-8.098292886889428208e-03,-6.477780574628648740e-04,-1.111248432739759835e-03,4.979864954948425293e-01
5.634001925437928660e-02,7.434857287418941696e-02,-4.488782690085221794e-01,-1.050944324896365897e-02,-2.239665094984172496e-03,-2.558830747346836978e-03,5.148146152496337891e-01
7.472159940581263315e-02,7.256840407500222967e-02,-4.452273705366355805e-01,9.215540017128813488e-04,2.645243069746378625e-03,-4.721583478203879173e-04,5.188990235328674316e-01
6.703769359544345385e-02,5.123850652583056275e-02,-4.400333557385907035e-01,-1.649489973614588767e-02,-1.676118523704828297e-03,-1.588985444086367079e-03,5.001915693283081055e-01
6.342352679571944263e-02,8.601678588476674436e-02,-4.514633992705333054e-01,-1.334552082364544572e-03,-1.197939089736978387e-02,-1.895931976450860494e-03,5.269711613655090332e-01
5.307776112621545583e-02,1.209483364226021374e-01,-4.941795442225149215e-01,1.398230414485164552e-02,1.168536607316860614e-03,-2.257476914996594999e-03,5.846756100654602051e-01
3.111737928377009132e-02,3.987983187351386294e-02,-3.043369924423712236e-01,5.338727941793078996e-03,-8.760387728363345236e-04,5.822711232952152739e-04,3.400509357452392578e-01
2.300598723514143962e-02,8.423480095196306250e-02,-4.436984850093662613e-01,2.508994185468473026e-02,7.005078833403345336e-04,2.254316763121769467e-03,5.020388960838317871e-01
6.823570208284915339e-02,7.524215579793816500e-02,-4.418432365362592873e-01,1.640550737662315744e-05,-5.104190005522524914e-04,-1.726904696598027117e-03,5.136274695396423340e-01
4.345860938194909262e-02,7.126020456442092033e-02,-4.449047725263219899e-01,-7.342839510655731552e-03,-2.288780684370573474e-03,-3.906768748173990884e-04,5.030178427696228027e-01
6.270124776075025608e-02,5.471571709313721721e-02,-4.398400047984385997e-01,-3.172154039461248451e-03,-4.906389663934804853e-04,-7.278671107864311245e-04,4.986290335655212402e-01
7.066619568661436368e-02,7.310093157153915722e-02,-4.453029918360075778e-01,1.047754619446200196e-03,1.214275404212077124e-03,1.788422371247899571e-04,5.171983838081359863e-01
5.382637331639708589e-02,1.101122498971068842e-01,-4.695408236977116623e-01,-1.767812501654145163e-02,-5.497749931345802948e-02,1.341017264581628862e-03,5.626277923583984375e-01
7.151494487294460245e-02,7.367129309044614938e-02,-4.460704355580518699e-01,-2.138450570757485618e-03,-1.273653267562191828e-03,9.221031296106247136e-04,5.186873078346252441e-01
7.736989302812952163e-02,7.251892157175537923e-02,-4.470133911655157499e-01,-9.887900103916116411e-04,1.854332286955472173e-03,1.546548016298851611e-03,5.219942927360534668e-01
7.970806914611161531e-02,6.915659489872869048e-02,-4.340169473064389716e-01,-6.427161919504108950e-03,-9.419595176548449045e-04,2.058474102883022221e-03,5.086683034896850586e-01
7.920828020876621856e-02,6.649876426244127892e-02,-4.294273207172637496e-01,-7.089212346598022102e-03,-6.084198288757635071e-04,-2.138578711222121481e-03,5.025662183761596680e-01
6.280918955838965534e-02,7.530589318629010709e-02,-4.451301455470342283e-01,1.334224848228413246e-03,2.783482890169177403e-03,2.106325632357906961e-03,5.143423080444335938e-01
6.358688740167900422e-02,7.441372081784575210e-02,-4.153068033436296824e-01,-8.853529616451921366e-03,9.377421192889872845e-03,-1.341985661614678894e-02,4.854694008827209473e-01
4.357138021322906618e-02,9.324219479665829535e-02,-4.500605161632926232e-01,-4.298843204191509079e-04,-1.498343346196146127e-02,-1.192608613683827879e-03,5.209002494812011719e-01
7.486783438489064135e-02,7.505285861070448705e-02,-4.468561456403572496e-01,-4.541816791146601308e-04,-5.914636906009003306e-04,1.097408873692742523e-03,5.218215584754943848e-01
5.365007637588381506e-02,7.813100979816170466e-02,-4.450769671232576163e-01,-5.026396198543766312e-03,5.926064207760322819e-03,3.144646300697662589e-03,5.116132497787475586e-01
7.700404306522848352e-02,7.156134873799066543e-02,-4.441958607898245925e-01,4.448894170382433101e-03,-1.208627202439396114e-02,-7.745072320664635884e-03,5.191529393196105957e-01
7.647052010662655497e-02,7.018670579964361722e-02,-4.417658640247399404e-01,3.691145091878239885e-04,1.835845614856406035e-03,1.114759655100802920e-03,5.151370763778686523e-01
6.561920677571667082e-02,6.909519704607858248e-02,-4.445959841323796069e-01,-1.296794918680273332e-03,8.339165999290371967e-04,-4.353107778588148537e-04,5.119695663452148438e-01
7.174222396023016701e-02,6.778834567697220037e-02,-4.454404260643287650e-01,-4.353038691320062223e-04,-2.790836771084679712e-03,-4.091856273180879988e-04,5.152407884597778320e-01
7.497256843498276146e-02,7.154050241863621484e-02,-4.465755984535206835e-01,-7.437889267451046761e-05,6.466157426877474712e-04,1.828777949347691351e-03,5.198515057563781738e-01
6.799812777063207747e-02,7.654022941634158750e-02,-4.420250304486063597e-01,4.253872496976591946e-04,1.169399011686464299e-03,-7.036531481632785686e-04,5.143533945083618164e-01
6.410390363504250844e-02,8.509323389150147410e-02,-4.357377881241702999e-01,-1.830913699049082494e-03,1.592676991326704219e-04,1.383634549588317253e-03,5.106755495071411133e-01
6.406470492060131749e-02,6.733158979250805642e-02,-4.206802765886478723e-01,4.156965509105319846e-03,-1.397718694443094226e-02,-2.897360533528307771e-03,4.870678484439849854e-01
1.473284579723623811e-01,1.314810260452025092e-01,-7.273624012965264063e-01,-1.245554655642392150e-01,4.024860677746851939e-02,2.382779092938969862e-02,8.969832658767700195e-01
6.580551379463633888e-02,7.513191677732261597e-02,-4.465957140024983119e-01,-4.567419660522697381e-04,3.099283095247418879e-03,-2.806761315004111402e-03,5.171788334846496582e-01
5.419681223680625215e-02,6.572444949462283303e-02,-3.801194150299395669e-01,-7.970335462264927992e-03,-4.432505965915459808e-04,1.134566990426955557e-03,4.404147267341613770e-01
8.221060554661974162e-02,6.598264957290436716e-02,-4.363891557632123552e-01,1.124048328568571977e-03,-9.416145200337525112e-04,7.981948250956527255e-04,5.106874108314514160e-01
2.145654726783911559e-01,4.922533581985319429e-02,-7.282659267916905543e-01,-6.521775469394623659e-02,1.334255215364699501e-02,3.430827213920639024e-02,8.815928101539611816e-01
7.485497339205574030e-02,2.580019437369576729e-02,-4.558562031058225328e-01,4.566878343657018724e-02,-9.321603515560814013e-03,1.030579802475364674e-02,5.146484375000000000e-01
5.167998760456213314e-02,6.819947659887964919e-02,-4.386927729466355008e-01,-3.417235361237421290e-03,-5.376044745569230664e-04,3.190038255472702421e-04,4.988739788532257080e-01
5.512076560019435467e-02,6.082463016936787148e-02,-4.381398926406951944e-01,-3.982197049242198680e-03,-6.304086262449628414e-04,5.243492052407445559e-04,4.961871504783630371e-01
5.758312466810228125e-02,8.433247209822997137e-02,-4.442780078101375429e-01,-1.453757489636800515e-02,2.529574010351385432e-02,3.425949671879681847e-03,5.182600021362304688e-01
1.306506667676471944e-01,-4.414295434749984648e-03,-4.948124873886237673e-01,1.225427016071451315e-03,7.687652266575802779e-03,-2.233139327904451119e-02,5.715299248695373535e-01
-1.905832268612572822e-03,1.081734366255590607e-01,-4.458129409207037264e-01,-1.695509681136101073e-03,9.278951864270952024e-04,4.989033493816608404e-04,5.079841613769531250e-01
8.149767322129436442e-02,5.947196214173453011e-02,-4.203478511735447842e-01,6.917612290336761643e-03,2.803186212829754192e-04,1.073449855985680098e-03,4.913530349731445312e-01
6.039437207696032872e-02,6.727883909649184924e-02,-4.436108040303777256e-01,-2.692884220602026219e-03,-1.534995749060693061e-05,4.071481417858007802e-03,5.075528621673583984e-01
1.062402798709580765e-01,2.391546675747108219e-02,-4.416083364723256133e-01,3.000569839112116055e-02,2.985074442543722908e-03,1.182020032963014208e-02,5.147435069084167480e-01
6.815699204962150093e-02,7.369892235365457789e-02,-4.440448427394762532e-01,1.160512860758507485e-03,-3.279344373512699078e-03,2.358745594642355520e-03,5.150465965270996094e-01
7.496311450639636664e-02,2.510725762677261386e-02,-3.035578342462049717e-01,-8.821076858531895493e-02,-1.411360986832487507e-01,-1.367136777996114383e-01,5.158156156539916992e-01
1.385617909796696967e-01,1.426582184017625154e-01,-7.423977228172931042e-01,-1.270862003811846219e-01,-5.103214756004274821e-02,-3.864029372489909131e-02,9.167660474777221680e-01
1.223459573302440040e-01,3.792282872900687440e-02,-5.160339509127325197e-01,4.285144991355965827e-02,2.807018745628082814e-03,-1.303830831521755060e-03,6.052269339561462402e-01
8.740523589963897222e-03,4.031381468763001186e-04,-7.606407747946114517e-02,-1.935358514380562753e-03,-4.780113326805025126e-02,6.718143036522755684e-02,1.641962230205535889e-01
1.806000360426208984e-02,2.112776350096413902e-02,-2.121328951939679963e-01,-1.442560797249691027e-03,-3.247832945170298774e-03,7.710989896612138739e-02,2.675445079803466797e-01
9.071352778307448239e-02,1.922927564149734536e-01,-7.551229837111481658e-01,-1.112834693896086469e-01,4.164281178528723287e-02,3.177519544872210028e-02,9.257756471633911133e-01
1.694293930542864479e-02,8.742959882945808281e-03,-2.301700789233349087e-01,7.497344580246267454e-04,-5.994970220581807450e-04,-9.783793181787384888e-04,2.431283593177795410e-01
6.517826766236908820e-02,7.599414607375720720e-02,-4.462191940167549165e-01,-1.680831914200860502e-04,4.761901524888971504e-03,2.210824929097431057e-03,5.169703364372253418e-01
2.596739110927041849e-02,3.472255718558087123e-02,-2.779345426187751489e-01,-5.791723070326465711e-04,1.084048854423202458e-02,2.513877173171803064e-02,3.119986951351165771e-01
7.088946142598646916e-03,7.229580898250091703e-03,-1.364433262972040706e-01,-4.511227095448319853e-03,2.361083824733065800e-02,2.585993154371772629e-02,1.560813784599304199e-01
7.049555900797990771e-02,7.060833275192623937e-02,-4.456770362594665302e-01,6.247431786590499278e-08,2.242100554115417956e-03,1.503588910159404371e-03,5.162501931190490723e-01
6.465172787934322929e-02,8.496942381432878721e-02,-4.345962005116842941e-01,-1.017235956700909263e-03,8.669671131156183892e-04,-1.455149405519873089e-03,5.097220540046691895e-01
1.840811983531270846e-02,1.166188315108059037e-02,-1.729689427489422560e-01,-3.187390742664675952e-02,2.583768182355662343e-02,8.574508191918268907e-02,2.499737441539764404e-01
3.045951301144475543e-02,9.324708493998334902e-02,-4.468169494577221013e-01,-1.490187219489251882e-02,4.226240706456009175e-03,-1.955195980299933960e-03,5.122824907302856445e-01
6.299230696088234382e-02,8.517560366753035295e-02,-4.483558076347036736e-01,-2.602385689576779387e-03,8.982485416904799000e-03,-5.494525289729053786e-04,5.230445861816406250e-01
1.741735231284860519e-03,1.050270681333708156e-01,-4.493659955857973731e-01,-1.074423467351940699e-02,-5.198510382572991452e-03,-1.914991639466655845e-03,5.110746026039123535e-01
2.400341011196407970e-02,9.650881958147244921e-02,-4.584490984497806010e-01,-4.092695900382773908e-03,-1.010666670204544981e-02,2.911433387241259187e-03,5.228575468063354492e-01
1.106760158518570181e-02,1.013165314311732512e-01,-4.447990895371370934e-01,-9.009257237382857844e-03,4.597726151571875607e-03,-8.508609144849022411e-05,5.073536634445190430e-01
1.785244115085835026e-02,1.247126035766496499e-01,-5.209926153802812987e-01,-6.144554601537165206e-02,-4.610570190868275645e-03,-4.198347823817193819e-02,6.132148504257202148e-01
6.468401063740009116e-02,8.169099410905375502e-02,-4.341789554747374491e-01,-3.544967893279794315e-03,1.081228867952098698e-03,-4.168729253145743549e-04,5.076212882995605469e-01
2.999493070579217768e-02,8.291007645248213431e-02,-4.413446682235448448e-01,-2.176524857611869535e-02,2.623202316580532881e-03,-3.170686869776511482e-03,5.013721585273742676e-01
2.369545897458436023e-02,8.084383005544709677e-02,-4.426146567605969140e-01,-1.654281436246489781e-02,1.037921854711732622e-03,-1.223859165204994100e-03,4.981853365898132324e-01
6.489859441753462188e-02,6.954521302228378055e-02,-4.056375538455966323e-01,7.979543032688192830e-03,1.026671518938851099e-02,7.239060940250257280e-03,4.735786318778991699e-01
5.052079868346004421e-02,5.139570260240816646e-02,-3.190884539560590039e-01,3.607317635399952781e-03,-5.556580271512642083e-02,-6.448350919337894616e-02,3.983857631683349609e-01
4.545355320159197299e-02,8.856548254352022975e-02,-4.513840114560165317e-01,1.028499877400797843e-03,3.319330161508736183e-03,1.988101109764550678e-03,5.197825431823730469e-01
3.145495916728921482e-02,9.993002817658672154e-02,-4.501288668202594323e-01,7.624282721915274542e-04,7.258349309851800345e-03,-6.315106264641287851e-04,5.193739533424377441e-01
5.874454365877768147e-02,-3.061535965539146850e-02,-2.124399309830025950e-01,5.506608418801131437e-03,-2.286290974924616581e-02,-9.895145431132723601e-02,2.971976995468139648e-01
6.850286425749718688e-02,6.885137298251897686e-02,-4.450355257054814384e-01,1.500326145620231762e-03,8.983164016159705381e-04,3.825133716230561063e-03,5.137643814086914062e-01
8.364815892248297913e-02,4.970746685943253085e-02,-4.458137334130042317e-01,1.879875879520992096e-03,-1.546357513449135362e-03,7.040638121619048921e-04,5.133525133132934570e-01
6.926490640838409152e-02,6.306273616937430049e-02,-4.444342362535584900e-01,1.526507981750131141e-03,-3.210455951018091180e-03,3.115318303946015659e-03,5.106919407844543457e-01
7.181363170844060062e-02,7.083009153786559708e-02,-4.463291994358686843e-01,7.165476874232690196e-04,-2.346294077710633138e-03,2.328472454457379982e-03,5.176849365234375000e-01
6.088507185553385104e-02,6.328255294436635481e-02,-4.405692441707288465e-01,-7.573201663466615089e-04,4.747461436902088855e-04,-2.936638419787614487e-04,5.026599764823913574e-01
6.650680128221825305e-02,7.926026874559249924e-02,-4.355439021698292446e-01,2.192780863746934296e-03,1.745526682812979184e-03,-1.500226988469676413e-02,5.092339515686035156e-01
6.079198537640442823e-02,5.879985442944873908e-02,-4.403117673499900575e-01,4.033621559905148542e-03,-2.840264810324343980e-03,1.830564917599939410e-03,5.001937150955200195e-01
6.278179564899200038e-02,8.093029043244565068e-02,-4.257164256105270828e-01,-4.888293396779773252e-03,4.436844713022293561e-04,9.715584047194726625e-03,4.981775283813476562e-01
5.390399816359722762e-02,7.760182795137188227e-02,-4.479077369947468967e-01,-2.953983810566177415e-03,4.367321817423268360e-03,-2.997427756063554202e-03,5.141777992248535156e-01
4.291372317974717632e-02,6.843781527116707397e-02,-4.389409073565638808e-01,-8.148124497966559993e-03,4.294168751481057945e-04,6.832080698264015326e-04,4.953134357929229736e-01
7.283220242128532473e-02,5.859628020179255548e-02,-4.484647839721754847e-01,-1.049174722559669155e-02,1.677859469909363018e-03,1.975322325826354346e-04,5.146560668945312500e-01
6.390241943878455233e-02,8.146979953303257194e-02,-4.316439144849729681e-01,-1.078393312672032769e-03,-2.235893250710072793e-04,3.905200667078520733e-04,5.045635104179382324e-01
6.885502806275792254e-02,6.641412875496083279e-02,-4.475373226170151209e-01,-8.310574723680895851e-03,-4.885888841429105768e-03,-4.723800161612283673e-03,5.155116915702819824e-01
7.189107911951186924e-02,7.267579445284971795e-02,-4.469709523191487954e-01,-7.448847542437231069e-05,-2.436335235212204291e-03,2.974291109211882160e-03,5.192975401878356934e-01
7.061731598642453922e-02,5.907179415383947974e-02,-4.482564120109912009e-01,-7.171030457045561232e-03,1.150652537817629896e-03,3.197639908163804200e-04,5.133528113365173340e-01
5.607278658743503064e-02,4.993452244811955043e-02,-3.370617550170521559e-01,-6.487560657021175167e-03,6.518883912282505237e-03,-6.706470998965011199e-02,4.073402285575866699e-01
6.018838371874349336e-02,4.970248277947258986e-02,-4.411847461362349843e-01,-3.930326662044064667e-02,-1.121319043247885269e-02,-1.560384941727784719e-02,5.019656419754028320e-01
7.216521754457613791e-02,7.486590105465376621e-02,-4.456785789926861474e-01,-1.186788446821426899e-03,-1.960047951360472957e-03,7.633695887090253922e-04,5.192162394523620605e-01
7.568592938286403116e-02,7.680531567131032578e-02,-4.490599418774563478e-01,-5.089426683952736653e-04,-6.547593711086759994e-04,6.442469641345820782e-04,5.253096222877502441e-01
2.042107759049159865e-01,6.401924177744264255e-02,-8.009995509210902087e-01,-7.658771866085492541e-02,-7.409684382567147121e-02,1.267764930381722055e-01,9.856289029121398926e-01
6.226720289878137637e-02,5.546121903869716263e-02,-4.388864260858281185e-01,-3.069020301398299976e-03,-4.027324779253310845e-04,4.527087482839619909e-04,4.978150129318237305e-01
7.583223489012222429e-02,7.564996419293837371e-02,-4.493519615158070857e-01,-1.523991874548341824e-04,2.399844612748546825e-04,-6.568464884673723598e-09,5.250933170318603516e-01
7.505416263405814692e-02,7.667026584711100767e-02,-4.479118021007157946e-01,-8.162758723636862664e-04,-3.093605561989399384e-04,3.343527333867313896e-04,5.237783789634704590e-01
1.759211825048005440e-01,9.908208137821927775e-02,-7.592650802205902494e-01,-1.151583411387418765e-01,1.362604298621989535e-02,-8.292144171231797395e-03,9.215022325515747070e-01
-4.976818234759955439e-03,1.276342064201497206e-01,-4.667972297988168262e-01,1.298088715009410726e-02,3.361001820004670682e-02,7.330753488062943107e-03,5.442075729370117188e-01
2.214398816361273781e-02,9.545262961590134099e-02,-4.474517763466598352e-01,-5.142423674654217174e-03,-4.653493269582410731e-04,2.468725448978019866e-03,5.103117227554321289e-01
3.938677263587947452e-02,7.697350160068211489e-02,-4.396879916879034567e-01,-5.591960520522696113e-03,-1.467328715722642125e-03,1.990727910447442287e-04,4.990316927433013916e-01
4.178358615016991573e-02,8.934258386761034787e-02,-4.478554502968952189e-01,-3.609332802792916163e-03,7.038906788892492286e-03,-4.479384020197549679e-03,5.153085589408874512e-01
6.180262632457830807e-02,3.078230374568106942e-02,-3.281105591041761360e-01,-1.593695438803919770e-02,-1.808683013385220528e-02,-5.706024397915397672e-02,3.903976082801818848e-01
8.604744552565890547e-02,6.086576354841843894e-02,-4.302747346929344241e-01,8.222447490128265580e-04,5.050280102259774306e-04,5.080610851672269761e-04,5.042067170143127441e-01
7.444375533312133641e-02,7.452676331589019876e-02,-4.481576633165382240e-01,-1.030303086308817235e-04,-8.419718663484113651e-04,1.649821690662633630e-04,5.226450562477111816e-01
7.664357361553580938e-02,7.489244849173512519e-02,-4.479527253546332077e-01,-1.321945946191478618e-03,-1.202365032453876282e-04,2.216823673344704953e-04,5.237281322479248047e-01
9.349355205744505626e-02,3.609920737144928227e-02,-4.481202372621400642e-01,-7.867110104728689338e-03,1.473231092470631172e-03,3.269678296065475342e-03,5.155369043350219727e-01
8.793190383691321110e-02,5.111368090787424268e-02,-4.530952487725733446e-01,-9.764564728678216173e-04,-2.683721994903703282e-03,1.019231898265512276e-02,5.239107012748718262e-01
6.848154376091097895e-03,1.456795792089622676e-01,-3.693239004326586694e-01,-1.455599216332193260e-02,1.170528967650721064e-01,3.177017474452406565e-02,5.077124238014221191e-01
1.074643574266843926e-01,1.423262830964672210e-02,-4.593966571064893034e-01,-6.076121101829996558e-04,2.303364697009242443e-03,-9.901824386581109180e-03,5.267687439918518066e-01
1.277617956682172706e-01,1.266803289525150755e-03,-4.542637606666959926e-01,-5.992758698226246725e-03,-1.081872052026008023e-02,1.702640756864132535e-02,5.314696431159973145e-01
1.261090413739158755e-01,4.189248387617275360e-02,-5.103704197705918322e-01,1.584680975136753059e-02,-1.063241442549735065e-02,9.326628369530532911e-03,5.999582409858703613e-01
1.068078507855757253e-01,1.144102345926412134e-02,-4.622228487534746355e-01,-8.277219563356058574e-03,-3.269382118715942823e-03,2.412103161775723190e-02,5.297237038612365723e-01
5.179507490367785127e-02,6.625774104883117022e-02,-4.401012113717104324e-01,3.664100640925165367e-03,1.515285169874909066e-05,2.195656318194178728e-03,4.993395507335662842e-01
6.562802704582121338e-02,6.681605493018930031e-02,-4.437951782908645115e-01,-7.827613327630346656e-04,2.312529431090345946e-03,2.428956265695576128e-03,5.100531578063964844e-01
7.997694461838616986e-02,6.092505212231091871e-02,-4.228546367120039062e-01,-4.772879772343243017e-03,-6.135684669506247073e-03,1.675969822074235751e-03,4.937736093997955322e-01
5.479700222812730614e-02,7.191118578463523425e-02,-4.443590311226253142e-01,-2.486482426758919364e-03,-3.130605632850715688e-03,2.829369875540398410e-03,5.080002546310424805e-01
4.269820765213691582e-02,2.669532019709706938e-02,-3.069558771272155040e-01,1.916334040556424544e-03,5.960913608881046469e-04,-1.581858469326254731e-03,3.419622480869293213e-01
6.645848661561809534e-02,5.233717523463271570e-02,-4.408334578713911101e-01,3.721061620384532274e-03,2.292937950599027979e-03,-1.554854951660131386e-04,5.004380941390991211e-01
5.870303801185713932e-02,5.871987151602495181e-02,-4.402665124411639930e-01,-9.083230573165398253e-03,8.930549603640491679e-05,-4.306772863647192334e-04,4.992265105247497559e-01
7.256188156193171812e-02,7.022910557103534401e-02,-4.491445020396052645e-01,-2.032007194790780031e-03,3.391194653681919510e-03,1.467948273611068217e-03,5.205951333045959473e-01
4.568948673127681825e-02,6.657453288095147026e-02,-4.395410869969078593e-01,-9.449664938116823787e-03,1.967539559450858389e-03,1.734282122513990674e-03,4.962937533855438232e-01
6.176623683024717870e-02,5.734482776752408695e-02,-4.382035766074476313e-01,1.199940516476612163e-03,-9.880695742527870890e-04,-1.079188631582303216e-04,4.977811574935913086e-01
6.638683682808749209e-02,5.686693530564948529e-02,-4.410702220713285659e-01,2.308639677430206032e-03,-2.347610786757370165e-03,-2.739657958909837978e-04,5.027973055839538574e-01
-1.003060473601544156e-02,1.349741348149943732e-01,-4.619666546650144090e-01,3.232472700814808392e-02,4.280655614300216995e-03,-4.865163556509699908e-03,5.422785878181457520e-01
1.245057664970961042e-03,1.126892292140416751e-01,-4.469217427917864249e-01,-7.710285508279695124e-03,-3.937454847961550757e-03,5.793623882788579565e-03,5.133657455444335938e-01
9.144233835833412427e-02,3.952012660069523231e-02,-4.511357243749486989e-01,1.865077877478466711e-04,6.056666561575414255e-04,1.064243064300294216e-02,5.188988447189331055e-01
2.085055074320979474e-02,1.035547712528894215e-01,-4.581845921635050445e-01,3.969577613807276448e-04,3.324205870001162473e-03,-6.710216580400765827e-04,5.253264307975769043e-01
2.027068912331209116e-02,9.872987691667414745e-02,-4.597843511003422146e-01,1.189914890094811994e-02,1.350225420680295106e-03,-8.213450567148058296e-04,5.241237282752990723e-01
2.546832723650013786e-03,1.096460767073156317e-01,-4.589020059472880275e-01,2.068503318400311333e-02,2.923619753880630037e-04,-3.125417138742442140e-03,5.245372056961059570e-01
6.058889281725363118e-02,6.662923404340348466e-02,-4.434400911174558590e-01,2.931064007342132263e-03,-1.585681035205049839e-04,4.527158353864108899e-03,5.071622729301452637e-01
5.526128853152381670e-02,5.971131169930982141e-02,-4.375810235157169825e-01,4.354044971902529433e-03,-3.231814110522889894e-05,2.271896495196682299e-04,4.951399266719818115e-01
2.265969788000458951e-02,3.834511775653516585e-02,-2.923511751999424702e-01,5.823740777560717412e-04,-8.282519242497695007e-04,3.507458842511419978e-04,3.231445550918579102e-01
6.633208287144035098e-02,7.203734909520290164e-02,-4.348722515470571093e-01,3.216191200735270608e-04,7.270796834172849445e-04,7.546206043994497029e-03,5.042524933815002441e-01
-2.142214577086559713e-02,1.196948001297294395e-01,-4.573721086798068214e-01,1.030196475625180103e-02,8.160144614052010012e-03,1.924073654315436137e-03,5.215510725975036621e-01
4.350315406448182487e-02,8.246145640229354812e-02,-4.456053068517962790e-01,1.623746632051914149e-02,-6.242677314036448183e-03,-3.760420652187445104e-03,5.106368064880371094e-01
5.728840049568939552e-02,3.555133533055934714e-02,-3.362720472187696319e-01,-3.350811554185754125e-03,-1.892428588020741986e-02,1.541730574948329754e-02,3.855238258838653564e-01
4.044750248601122755e-02,7.692179007018942749e-02,-4.405487385853252835e-01,-5.149190436106397192e-03,2.312989922431581309e-03,-2.888536702990346199e-03,5.003522634506225586e-01
7.723156862758615016e-02,5.714442064045610614e-02,-4.483386375472128704e-01,1.878076333064876077e-02,2.204879418416578161e-03,6.699088367521846034e-03,5.169890522956848145e-01
7.877294950203148072e-02,5.633639890686123475e-02,-4.499221705033242258e-01,4.670952101551838036e-03,1.822103017161017229e-03,-6.584997790345690355e-03,5.180398821830749512e-01
6.382717851860322811e-02,7.820476894483785468e-02,-4.468484044699276292e-01,1.064523504294696441e-03,8.545542270246753516e-03,-5.881536285121315589e-04,5.182297229766845703e-01
8.378306656817705034e-02,4.900667095876909407e-02,-4.583579875631240141e-01,1.064590766241286200e-02,3.666282254804143371e-03,8.852952159016921896e-03,5.262015461921691895e-01
4.133371422924220218e-02,7.935200272126863297e-02,-4.463956851176663077e-01,-5.207638961963716694e-03,2.097678000282614599e-03,-5.446482881258643202e-04,5.079010128974914551e-01
4.788089672743819913e-02,1.089994194907591696e-01,-4.611285454449758903e-01,1.131407403360138245e-02,4.718424196033921270e-02,-9.261725385530050758e-03,5.488682985305786133e-01
8.363498031288327250e-02,5.502772642793557489e-02,-4.156687412079718702e-01,3.198735163830295110e-03,5.094409124448049352e-04,1.199720811804189449e-03,4.856692850589752197e-01
-2.732194483046986033e-02,1.484227125221130317e-01,-5.187917738951044466e-01,-6.061424910068989591e-02,2.136713773585672757e-02,1.637136651068565874e-02,6.099163293838500977e-01
1.379817025509897377e-01,2.864105373406147792e-02,-5.734820684361152665e-01,-5.449803515516254970e-02,-4.465076582542078232e-02,-1.325439907001157991e-01,7.126984596252441406e-01
6.821960242680649711e-02,7.448891101331872600e-02,-4.415374474921312520e-01,-8.512214493523503466e-04,3.359754916934008274e-03,1.567424197731587601e-03,5.129627585411071777e-01
4.576908344335864354e-02,8.519858962194715168e-02,-4.457948531722383811e-01,4.404502458163204667e-03,5.877610321444241793e-04,-2.751828619714897020e-03,5.124976634979248047e-01
6.667433435978983858e-02,8.807726422075595751e-02,-4.677811498969641768e-01,2.031580002947932541e-03,1.410201694659420774e-02,-9.494740720227965586e-03,5.462774634361267090e-01
4.358484096756234938e-02,9.940923790979219743e-02,-4.554814602421391467e-01,1.794963380382893266e-03,3.450427132775538142e-02,-2.213651600407137363e-02,5.339428782463073730e-01
1.503238478088145258e-02,9.669463045285314751e-02,-4.451173471909098400e-01,-5.173116564827291881e-03,4.288889433000793797e-03,-2.010643256675792058e-03,5.060938000679016113e-01
2.245917787406559452e-02,9.502296377953436957e-02,-4.535077436048162158e-01,4.529855955625651694e-03,-7.181938812797161731e-03,-3.228739200227139557e-03,5.163289308547973633e-01
7.060470963371284769e-02,6.782325929068405701e-02,-4.152029471410980666e-01,-1.052010939890864367e-02,1.374906195619904998e-03,-1.951939433952176468e-03,4.847831428050994873e-01
7.295238084460617389e-02,7.665444585654820897e-02,-4.458858953163343797e-01,-2.723876846483123254e-03,3.653233042334514454e-04,-1.163872680925132725e-04,5.207209587097167969e-01
8.135461234382052043e-02,6.536959056093510911e-02,-4.344934058737014437e-01,-3.469059751572588918e-03,6.711286032644650772e-04,-9.138437914310662026e-04,5.080834627151489258e-01
3.939238035805128768e-02,7.788601125318003748e-02,-4.399886422438211153e-01,4.633655200937808472e-03,9.888694617947338221e-04,4.572488781617544654e-04,4.998089671134948730e-01
6.717119337273308455e-02,7.835899321438030696e-02,-4.331388121663824475e-01,-3.753367462688027290e-03,7.284689003712586887e-04,-2.466452183477076034e-03,5.060580372810363770e-01
4.069366105300439851e-03,1.088971919176049130e-01,-4.479200833402124382e-01,-2.873518329422615307e-05,3.969840120487917907e-03,-3.507732309061680712e-04,5.125544667243957520e-01
4.380107392138710143e-02,8.840931259960999045e-02,-4.475364932459777734e-01,2.967986091661305430e-03,-5.939410450149988467e-03,-4.648954081641882771e-03,5.152837038040161133e-01
7.146296774791663364e-02,7.793731785794424938e-02,-4.558833491013806194e-01,2.077556946413143969e-03,-5.863649584962919541e-03,1.694080671910437944e-02,5.315330028533935547e-01
6.961813179437095767e-02,7.785282248292849094e-02,-4.357339961543874596e-01,-4.286963142925433179e-03,-4.238747457631888071e-04,-3.878940093866802344e-03,5.096182823181152344e-01
7.262228138504348007e-02,7.858099375095398131e-02,-4.437745744659437053e-01,-2.568231787521311864e-03,2.080833246193922322e-04,3.233902743219364828e-04,5.194213390350341797e-01
6.297285676825817302e-02,7.420298768170760506e-02,-4.170267231298864230e-01,-7.403996381264408427e-03,-3.228052795029741476e-05,1.200608824541108278e-04,4.858813285827636719e-01
6.770916125340628589e-02,5.016645379929376980e-02,-4.396462093773748636e-01,2.844697662936906089e-03,-1.025805097834134967e-03,-9.740111960460295308e-05,4.988429546356201172e-01
6.537838472711290927e-02,6.158451333359180047e-02,-4.154973656350728350e-01,-5.780196677708132917e-04,3.334479096011735456e-03,-1.201202775693545159e-02,4.794775545597076416e-01
6.668196375343232729e-02,5.675490886507733590e-02,-4.585265927645815198e-01,4.048569744465242010e-02,2.153167918977786505e-02,-1.598346369572812772e-02,5.270705223083496094e-01
7.075245973473162642e-02,6.207265967918573768e-02,-4.472043118885743462e-01,2.427434617969677008e-02,1.114903522901936755e-02,5.153225664372899570e-03,5.158285498619079590e-01
2.262163922941126670e-02,9.487809935678542805e-02,-4.485842478785948551e-01,5.032475729022545252e-03,2.207937210227574755e-04,2.135176692342523937e-03,5.112665295600891113e-01
3.014011601192498335e-02,9.181248239083206197e-02,-4.444204023055078889e-01,4.796353753776963318e-03,-1.142852717577416514e-03,-2.916206789564074458e-03,5.083078742027282715e-01
6.119197624216618503e-02,5.729660230801178478e-02,-4.373256203346549964e-01,1.986143897963521792e-03,-4.114908741399353280e-04,-9.121178139877502181e-05,4.965938329696655273e-01
3.739466595288244710e-02,4.441386707359321062e-02,-3.268726372147728876e-01,-5.228862562060675699e-03,1.274928113352201756e-02,-1.948364894933841615e-02,3.701422512531280518e-01
5.113685606068779643e-02,5.898707067546188343e-02,-3.849100426016496823e-01,7.754261006671246594e-04,3.086722374288226878e-02,3.276903116266791614e-03,4.432989656925201416e-01
4.773917059809404395e-02,8.075491606217868878e-02,-4.465934446161440308e-01,3.836762930952790189e-03,3.990713601905182713e-03,1.222200680949145270e-03,5.117342472076416016e-01
4.662112728929693195e-02,3.274091245945978668e-02,-3.163888017403430064e-01,-7.956075156948363980e-03,3.859873859536534779e-02,-5.592715465898033533e-03,3.628822565078735352e-01
7.402683228287315620e-02,7.011912181956742041e-02,-4.400178244029797625e-01,5.994813270788089312e-04,-5.323806362683037620e-03,8.566895731328853314e-04,5.121881961822509766e-01
6.730713957084513699e-02,5.144177988879178320e-02,-4.381611075301368730e-01,3.353082284142821536e-03,-1.294716311793433366e-04,4.802588624040170229e-04,4.977598786354064941e-01
1.933643957672909752e-01,-1.807062497395744982e-02,-5.539692214786434699e-01,-2.949841238005613403e-02,-5.712082074651764901e-02,-8.137567953378259389e-02,6.909881830215454102e-01
4.093849249893051490e-02,5.079269547277942554e-02,-3.296031163645828932e-01,-1.209822189977039289e-02,1.337910163741109701e-02,-2.067470895616355109e-02,3.785604536533355713e-01
5.435086072819686476e-02,1.046174473331518140e-01,-5.420046220538192738e-01,-6.329564700687355383e-02,1.112516485106747506e-02,1.151719596813808796e-02,6.331915855407714844e-01
6.767810640018892543e-02,5.169018509642042680e-02,-4.413164177477444938e-01,-2.587564803228589207e-03,8.948677448042428395e-04,-7.703341426417890199e-04,5.012160539627075195e-01
1.596344697180225869e-01,1.610371375973319863e-02,-4.565097606636199790e-01,-3.000338715535409706e-02,-3.753685228880682123e-02,-1.512335964208900707e-01,6.223677396774291992e-01
3.155803000143744819e-02,2.952181919919506792e-02,-2.322336103780928696e-01,-1.997372105167409366e-03,1.367698173295402338e-02,-6.257826564974408590e-02,2.852618098258972168e-01
2.980158317076822549e-02,4.190193262136446273e-02,-3.070262008998504988e-01,-5.850726689356089243e-03,9.232283772367186683e-03,-2.560297409320550985e-02,3.464102149009704590e-01
7.602503945968225318e-02,7.568418815020244717e-02,-4.279703658835753433e-01,4.480035189619559037e-03,-1.096554663694060579e-02,-2.365167273135816359e-02,5.059039592742919922e-01
1.794210514564456571e-02,3.204322819268055900e-02,-2.699392659487923618e-01,5.721299066065209729e-04,-1.623188516679088464e-02,-1.091772669748586203e-03,2.965281605720520020e-01
5.249112898810223693e-02,6.632551235036895920e-02,-4.400391511950175749e-01,-4.047270262710217677e-03,-1.378665691699336210e-04,2.542168756587694436e-03,4.996597766876220703e-01
7.169654041161668823e-02,7.373967845584697423e-02,-4.472412693634408853e-01,2.767364908044487606e-04,-2.386438582739244287e-03,2.425258013497737664e-03,5.199959874153137207e-01
5.919366471734527346e-02,7.029068529132068144e-02,-4.418443938281903516e-01,-1.630505820340887209e-03,-5.939131097177988150e-04,7.810678288150044559e-04,5.066884160041809082e-01
2.983498351991105413e-02,3.185003546100576011e-02,-2.823575321083161560e-01,-7.040368602122254807e-03,1.570132891156515720e-02,-1.486826358603865039e-03,3.146303296089172363e-01
2.355107233893036223e-02,1.872118868583874662e-02,-2.381976121058386464e-01,-7.096368197283474746e-03,1.733796252931461140e-02,-1.599583730556219940e-02,2.628535330295562744e-01
7.304925162319625409e-02,6.817309606338717298e-02,-4.458630225931689006e-01,7.607667516183572480e-04,1.343018914806282018e-03,2.298220251779198742e-03,5.165137052536010742e-01
2.561772724104259547e-02,2.056366299613991699e-02,-2.349508376630942974e-01,1.020690059823732565e-02,2.680305255165236697e-02,-7.532809073484046658e-02,2.934200167655944824e-01
6.253562243037211199e-02,6.997417806066860702e-02,-4.438579458459424032e-01,-7.150721644785820947e-04,2.628500478933216197e-03,2.612259566606216828e-03,5.101953744888305664e-01
5.387703077414390807e-02,7.488698814562194661e-02,-4.458073342474808132e-01,-3.499827498649732242e-03,-2.306027768518363521e-03,3.937045204642707422e-03,5.106108188629150391e-01
2.159269622698767321e-02,1.029167587650726690e-01,-4.493674059951840438e-01,-1.365950010483444298e-03,-7.951816336014669653e-03,-9.632992390808303631e-04,5.166386365890502930e-01
2.682396878693220355e-02,4.404563588620334647e-02,-2.315986755917962270e-01,-4.116127736010816336e-03,2.890717322951296547e-02,-1.375427396842208213e-03,2.721997201442718506e-01
7.726822572230512831e-02,6.267858660160419149e-02,-4.226026336293851604e-01,-9.090456728092357469e-03,1.444332186642133167e-03,-5.892094204421738498e-04,4.929969608783721924e-01
5.708833032302404464e-02,7.812831031786010572e-02,-4.453317189694497302e-01,2.381380801331610549e-04,-1.505215963509670121e-03,1.381085874022851701e-03,5.132759213447570801e-01
6.912077858963655563e-02,6.873384209267111022e-02,-4.123536236538692390e-01,1.124965830887980460e-02,1.905488067514304797e-03,1.952493327995381747e-03,4.816985130310058594e-01
1.581319736655683594e-01,-2.176076955084613185e-02,-5.347181537908696214e-01,-6.440988574254092117e-03,3.022208351102700224e-02,-1.089159259208325736e-01,6.528526544570922852e-01
8.272610502643190644e-02,5.721766798103969376e-02,-4.141283164579051546e-01,-8.496048899509158370e-05,1.087743316453293647e-03,4.137045385565354494e-04,4.846082031726837158e-01
1.290550330739358986e-01,-1.948664655915637034e-02,-4.596672988603081045e-01,-2.951786106297917683e-02,-2.554314700726815351e-03,-3.137518486327558684e-03,5.327962636947631836e-01
1.112473618040399348e-03,1.195184244642506499e-01,-4.892429427889606330e-01,3.802054798355160997e-02,-3.914992247791838215e-03,2.811936329277407980e-03,5.629705190658569336e-01
-3.686425669927349824e-03,6.048491879607600930e-02,-2.448304588705682017e-01,-2.294084801877002006e-02,-3.875730616163851339e-02,-3.719053242347770960e-02,2.966101467609405518e-01
1.125681570026059730e-01,-3.306641529246548417e-03,-4.585648927950482512e-01,-2.371747604099995466e-02,3.841584296578792225e-03,2.949027275758381306e-03,5.245931148529052734e-01
5.414672910810491846e-03,1.054894376546426094e-01,-4.502128559015883824e-01,2.462449037954239379e-03,-2.316729661056409709e-03,1.484407103910646668e-03,5.130780935287475586e-01
1.103528192023133236e-01,1.051954498512219782e-02,-4.604872740906348350e-01,-8.388451938438169081e-03,2.302805783017285342e-03,3.333046451606786354e-03,5.282959342002868652e-01
2.310540542011932374e-02,9.607178443435013260e-02,-4.486982444074493204e-01,8.895487226762057581e-04,-7.988735121244868592e-03,3.361520475168175426e-03,5.124220252037048340e-01
6.080643716691255807e-02,7.373051138808731086e-02,-4.315501749530851194e-01,4.522611315073111864e-03,-4.779339356813303366e-03,1.464360149388412285e-03,4.990808069705963135e-01
6.639315677566015594e-02,6.087281165186328447e-02,-4.437933536072182217e-01,3.174571058252258215e-03,4.814657192336705555e-03,1.328773778341496776e-04,5.075471997261047363e-01
1.193593779476851968e-01,-3.892923751601204407e-03,-4.606710434379862051e-01,-6.481565137703183821e-03,-1.762315060444644707e-03,2.588204209428515527e-03,5.294259190559387207e-01
5.136985825707798825e-02,6.586976157949117616e-02,-4.381926664098221291e-01,3.469982561711714396e-03,-2.689670416799137538e-04,-1.995351309109473503e-03,4.970197379589080811e-01
3.104625549224043768e-02,9.181139187216616482e-02,-4.480129423437058112e-01,5.194241494440090916e-03,-2.760958694306144250e-03,-4.333694465443658464e-04,5.122544169425964355e-01
7.817950807938522928e-02,7.111016691869390116e-02,-4.410254799719531826e-01,-3.235275656987582522e-03,1.016075774049354091e-03,-1.357233807100760364e-03,5.157454609870910645e-01
5.630439629663497314e-02,5.691613212387097720e-02,-4.393438361693656202e-01,1.207103785102680432e-02,-3.229981059108182623e-06,-1.281051437338275468e-03,4.963998496532440186e-01
7.427304783529328769e-02,6.657988913829285260e-02,-4.236373462354418029e-01,2.163326203290949750e-03,-4.114095455759727432e-02,3.424872597051976247e-02,5.027465820312500000e-01
-3.679824042376517168e-03,1.184348376384636303e-01,-4.595231316911346786e-01,1.324722081727875301e-03,-2.247061002144189537e-02,7.458725595091034860e-03,5.292043089866638184e-01
-2.209945660899995112e-02,1.331289014360061973e-01,-4.676329547428238476e-01,5.141787523894077172e-02,-6.927764091431141968e-02,4.830849967052866512e-02,5.666445493698120117e-01
9.192277734781942322e-02,-9.756756205602359899e-03,-3.687219825927647299e-01,-5.059133256807168966e-02,-2.985670236233924080e-02,-9.767703515611042553e-02,4.633241891860961914e-01
1.047338804861465411e-01,4.076450700095621271e-02,-4.624185701386631098e-01,3.257215404838588457e-02,-9.676246501521715976e-03,1.055776858340322887e-03,5.412399172782897949e-01
1.223367624794807484e-01,1.013666065256668691e-02,-4.574261965614951353e-01,4.673240381717201630e-03,1.465287924122789590e-02,1.516206321462792994e-02,5.339136719703674316e-01
6.012000431538552792e-02,6.192226783499896192e-02,-4.396831423129800021e-01,7.837649697215213433e-04,1.623128745343906543e-03,-1.627744079745825590e-03,5.007243752479553223e-01
1.716878998080332286e-01,-6.427588616156934553e-02,-5.024788300944302843e-01,4.652344144960030188e-03,1.142650816980619877e-02,-4.986639000807717784e-03,5.929856300354003906e-01
1.026185734920309067e-01,1.173326999780810453e-02,-4.509362544673614082e-01,5.081031101038623043e-02,-5.456484108136686398e-03,5.997333271987705799e-02,5.319754481315612793e-01
6.504460510162710096e-02,6.693294097913476959e-02,-4.434515194245890468e-01,2.243434162765325620e-04,1.861795591373424479e-03,-2.369698493867395707e-03,5.094698071479797363e-01
1.707762614983849847e-01,-1.864597809834164788e-02,-4.542981529970702148e-01,4.774748284747633992e-02,-1.897072354564761920e-02,5.748680683805421771e-02,5.709896087646484375e-01
7.964113347438389612e-02,3.662208965629029644e-02,-4.430083762537664338e-01,-5.407917168093090594e-03,2.092874676099775767e-03,-9.399959177074572285e-04,5.026258826255798340e-01
1.171445493129723014e-01,5.557737764441800232e-02,-4.841421635164066539e-01,-2.652569208361267063e-03,1.254807058208774057e-02,5.397292179251525490e-02,5.809900164604187012e-01
1.014537366174000643e-01,2.427958426985893370e-02,-4.534665782475746920e-01,-7.679823765259273169e-03,-1.882123210987755348e-03,-8.845830890063419508e-03,5.210462808609008789e-01
1.232645553559821860e-01,-4.052839936681532085e-02,-4.171480318554762756e-01,4.029260204878227884e-03,1.137687934903615014e-02,7.510990018523946987e-02,4.977144002914428711e-01
8.888604534991156880e-02,6.530638513299272252e-02,-4.586637930403930086e-01,-2.480198155778241733e-03,7.513946471789901497e-04,1.760881774438384159e-02,5.370345711708068848e-01
1.070452082781956915e-01,1.597637792584875871e-02,-3.104883564560229070e-01,-5.385242988087429739e-02,-5.091639773034698641e-02,-1.429567847037384876e-01,4.715836346149444580e-01
6.705879902876826781e-02,7.167335023053036935e-02,-4.450539298204915228e-01,2.079839886134072363e-03,1.441646978587056752e-04,1.034448529222002037e-03,5.144513249397277832e-01
6.241944665163340344e-02,6.397754303578870316e-02,-4.413361318121875043e-01,3.975544656412042903e-03,1.855380914337132489e-03,-9.418644415431224248e-04,5.045962929725646973e-01
9.447479095938021709e-02,5.079825077730490412e-02,-4.511023576061797269e-01,-9.966671127100011802e-04,6.934577943368313950e-03,1.996993121264018997e-02,5.263808369636535645e-01
-1.142352393568486085e-02,2.004015606354514478e-02,-2.016642232571519699e-01,6.107511314242648759e-02,-8.899197105979357592e-02,4.721295830581791197e-02,2.912105321884155273e-01
2.666286895285410741e-02,9.442880657915486697e-02,-4.652380482991310684e-01,7.541924556945775460e-02,-1.409246937743735550e-01,6.604997420838653460e-03,5.972162485122680664e-01
2.495981206039049605e-02,8.692805811388010229e-02,-4.544043829868898987e-01,5.992138678904476712e-02,-4.448757919484520873e-02,2.601598020100662559e-02,5.311074256896972656e-01
7.567699794485954756e-02,6.261440693210218456e-02,-4.361921560615174553e-01,-2.605541872223213207e-03,-1.178390920383480013e-02,-8.688894093685910550e-03,5.061203241348266602e-01
2.935721292899974577e-02,2.462557307571143494e-02,-2.611869404246741633e-01,3.500189018370555849e-03,1.535598081422772439e-04,2.024553673986851515e-02,2.903963029384613037e-01
7.487726425925184115e-03,1.477224101165247605e-02,-1.885346742775064754e-01,-3.333771427766655561e-03,-4.022529837995052898e-02,3.684967773946714806e-03,2.117405831813812256e-01
7.920643067928342940e-02,6.961592474715971868e-02,-4.433304702467158465e-01,8.318930998699768705e-04,-2.947189121704989635e-03,1.968399584204376732e-03,5.178466439247131348e-01
1.821346886086726291e-02,9.053516448291870633e-02,-2.237237469732420436e-01,-7.237561435132409959e-02,-1.299339890007505105e-01,-8.574936134343821847e-02,4.119264781475067139e-01
7.365273808043831805e-03,1.081132969753355044e-01,-4.469684765086981426e-01,4.007139707041316827e-03,2.906199338475561316e-03,1.686082376561178061e-03,5.122739076614379883e-01
6.401851640995454007e-02,6.461588511758414866e-02,-4.422329420272695377e-01,-2.249700326050151598e-03,1.447617928195318350e-03,9.795838748810755878e-04,5.065744519233703613e-01
1.158898239891597293e-01,8.172898981014892206e-03,-4.642744184906759108e-01,8.917444009288377424e-03,-1.293695979017264047e-02,-2.506525834686361767e-02,5.369594097137451172e-01
-4.417024984149532651e-02,9.646673147798817682e-02,-2.832103543201250906e-01,1.997094592532409462e-03,-8.734270362452975500e-02,3.277647823244679570e-02,3.696727156639099121e-01
-8.743287419002966632e-03,3.600110671732834056e-02,-1.518790597244049356e-01,-4.591960981421447548e-03,-7.481686116335288517e-02,-3.928214281703292649e-02,2.244540899991989136e-01
-2.251331914276067173e-02,1.004155387414117362e-01,-2.212685327928759771e-01,5.261232225694979087e-02,-8.989416668669401866e-02,4.556280452384406376e-02,3.432533442974090576e-01
5.793680180549265479e-02,4.074960091939967832e-02,-3.347578042209083948e-01,-8.615938577253304254e-03,-1.528014314416842670e-02,1.088146095502681189e-02,3.860485851764678955e-01
8.275642199876551142e-02,6.206763856249852829e-02,-4.240831090386570912e-01,-2.075271901939648462e-03,-8.239807668717754816e-03,3.376088909756726187e-04,4.970366060733795166e-01
4.015601750684047455e-02,5.270201001805419061e-02,-2.711724271312144774e-01,-1.037949545880529831e-02,9.630487369539543485e-02,5.979985740374335612e-02,3.739838004112243652e-01
6.138770454629849382e-02,5.214045093929467467e-02,-3.709545584203246538e-01,1.402764185038685857e-02,2.119074785874632688e-02,1.196650792977698233e-02,4.305512905120849609e-01
2.940272364381880943e-02,2.883559272506840132e-02,-2.670999623028563752e-01,7.064845814280268366e-03,1.318195922687817774e-02,2.499470627542071249e-02,3.004850149154663086e-01
1.107818144470444077e-01,9.457447774461336110e-03,-4.177072950451755640e-01,6.138358244636404892e-03,-2.636659021839566578e-03,-1.477624892303385784e-01,5.492300987243652344e-01
6.635282121597332883e-02,5.091282247298570263e-02,-4.390428895133191567e-01,2.197388141011726807e-03,6.170885702315116522e-04,-5.230132846818639266e-05,4.978710114955902100e-01
4.587108436491083019e-02,5.777044594222346952e-02,-3.493963172624698910e-01,1.080491441991526975e-02,3.837114336579677300e-03,1.619959492555625089e-02,4.028188586235046387e-01
6.733737839075082388e-02,7.308101907468980696e-02,-4.416631753384883119e-01,5.839257342517246378e-04,1.750083373680775710e-03,-1.385423632333113598e-03,5.119121670722961426e-01
4.522870259852135311e-02,8.627285360355629873e-02,-4.510900931096421540e-01,3.026742379302733554e-03,-6.010917511029829734e-03,-7.305366305881206201e-04,5.181943774223327637e-01
3.639380798379496240e-02,4.015786801619058988e-02,-3.107482569173178888e-01,8.105565809523191875e-03,1.543784951822937609e-02,3.823732163973270388e-05,3.503434360027313232e-01
5.069285401450374096e-02,6.926508317540056026e-02,-3.739036659726271972e-01,-4.257935220511441157e-04,1.058763615287434262e-02,1.752259633980415843e-02,4.356268942356109619e-01
1.570268136822683958e-01,1.223363446649441966e-02,-5.567604685922271646e-01,-4.860657999981121691e-02,-5.182845675150418371e-03,-6.580373975568130224e-03,6.590933799743652344e-01
1.743446864648086070e-01,3.566982756846565072e-02,-6.785887000054116047e-01,-6.600011828318404217e-02,2.720330063973097276e-02,4.676076382023518913e-02,8.064077496528625488e-01
1.853393728914420890e-01,5.359673230876646488e-02,-7.050422148114184884e-01,-9.786279720493532008e-02,1.776881985627135063e-02,2.460506758497985752e-02,8.510752320289611816e-01
5.622205614903580395e-02,7.507668554554852713e-02,-4.445565196648486594e-01,1.654435738440439112e-03,-2.124472950181476114e-03,-3.767474134414609040e-03,5.105301141738891602e-01
5.652561672846992402e-02,7.710922085137922322e-02,-4.477300285963735638e-01,1.660855133259426641e-03,-2.115194421536193466e-03,-2.990671115991728676e-03,5.149032473564147949e-01
6.289630842282747936e-02,7.523230236759828604e-02,-4.457598102351382208e-01,4.464554896668564404e-04,-5.792237502463358674e-03,-1.670593686663045165e-03,5.150413513183593750e-01
1.591726725650352003e-01,1.478294021948395320e-02,-5.474782291910957888e-01,-3.569277060348646780e-02,-2.155264810015810467e-02,-4.649528803651126196e-02,6.556459665298461914e-01
7.654535147970970010e-02,7.454845055028103129e-02,-4.472659358635362459e-01,6.498285829579141188e-04,-4.580700046228150806e-04,4.026504968284050790e-04,5.228179693222045898e-01
1.387774448549340400e-01,-6.604976705808840443e-03,-4.950164519949082353e-01,-3.511038820337181871e-02,-3.406411112514665801e-03,-6.125239168283299609e-04,5.782926678657531738e-01
6.647114838717102514e-02,6.513390149347741964e-02,-4.429199368843561579e-01,-5.598037622040577185e-03,1.771495373260875217e-03,-1.027497076483098329e-03,5.088285207748413086e-01
2.310777979921906367e-01,-4.816443878372078657e-02,-5.604433855441559587e-01,-5.337993788663358830e-02,-1.293739017040370642e-01,-5.733939458626056973e-02,7.430211305618286133e-01
4.722255308746020619e-02,1.281413761310514765e-01,-5.054450699609049913e-01,-2.807120768194768835e-03,-2.584936281385950829e-02,-1.231211543654050188e-02,5.993275642395019531e-01
-2.714655824122225170e-02,1.600883064429169389e-01,-4.152639113752424338e-01,-3.363795034947746065e-02,-1.429917457116415824e-01,-5.549333121527739304e-02,5.764842033386230469e-01
1.002516503492624778e-01,3.671077583416329504e-02,-4.654072276580741852e-01,8.830585360636333467e-03,-1.159357474687426918e-03,-7.067387290225060625e-02,5.507152676582336426e-01
7.072602681189399387e-02,9.762713878410136936e-02,-4.435487482566478068e-01,-1.858156880797533911e-02,-1.519857851769571000e-02,-2.076483778441796241e-02,5.310924053192138672e-01
4.608350488206566786e-02,7.805995251548489278e-02,-4.341211554794847105e-01,-9.847702879262103942e-03,8.813089137740617602e-04,6.198200014636707708e-03,4.973758757114410400e-01
7.511001327303101771e-02,7.084927296038678879e-02,-4.445775714922701183e-01,4.557114814185362489e-04,-1.641127397090960194e-03,1.347906110592003931e-03,5.175840258598327637e-01
3.888481381627928446e-02,6.599750687755159828e-02,-3.662978234022544743e-01,-6.445397160396862737e-03,2.060903341961568651e-03,-1.614577155372568559e-04,4.195606112480163574e-01
8.324924236527028731e-02,8.531861692220854554e-02,-4.873107341675108617e-01,-7.613333404080348948e-03,-5.380009431833333855e-02,-4.387991034590124628e-02,5.842578411102294922e-01
3.274111094153306367e-03,1.149917441634599191e-01,-4.489054175444399108e-01,-1.301552623251647431e-02,-6.377400875373782918e-02,-2.811582292142930043e-03,5.293362736701965332e-01
6.385047910140673189e-02,7.962526236095257559e-02,-4.461788859271142438e-01,6.396870968166857479e-04,-4.419865787505461267e-03,6.859392741647102418e-04,5.181559920310974121e-01
5.167874498759442159e-02,2.945942096270394439e-02,-2.979541731217738576e-01,-5.628373034299536184e-03,2.011626093997905679e-02,-9.703721972667793752e-03,3.414085209369659424e-01
8.075324399340075288e-02,6.341876558141798514e-02,-4.269761826651373715e-01,4.199844152471178364e-03,-6.171357567781816933e-03,1.044371834921536848e-04,4.994553327560424805e-01
7.327780346335802109e-02,7.965137079178302715e-02,-4.440230396198283636e-01,-4.615396558887544659e-03,7.399587032740740462e-04,-3.187418298760825563e-03,5.206091403961181641e-01
4.234576298649997406e-02,9.158166144809634646e-02,-4.049224419016722032e-01,-3.107187708045753942e-03,-4.283222848414468265e-02,-4.204905664905599777e-02,4.851101040840148926e-01
6.837611031597914946e-02,7.881122360931594462e-02,-4.367962591881470735e-01,-1.776065672686713039e-03,-5.697290194422771539e-04,8.005992663743232438e-04,5.104820132255554199e-01
7.172730639189558999e-02,7.832354022325399567e-02,-4.443383206299301724e-01,-5.833577809934663554e-04,-8.784517619391163292e-04,2.122429303158951397e-03,5.194113850593566895e-01
6.791035432313313747e-02,8.160553905034551025e-02,-4.376657878660884515e-01,-2.777580135099823669e-03,6.732244887442547475e-04,3.222188252176820403e-04,5.125851631164550781e-01
7.977055527835341664e-02,6.834165238723818869e-02,-4.405979050367132555e-01,-1.003807936809600820e-03,-4.285917817042104311e-03,-4.191591204278339406e-04,5.148061513900756836e-01
8.038535935808122090e-02,6.639844117294449455e-02,-4.298787245042832161e-01,-3.694064632625589442e-03,-6.511093327973577032e-03,-1.635894690086355939e-04,5.035834312438964844e-01
1.605414122933346288e-02,2.364933007509464891e-02,-2.458962513932091698e-01,-5.400446179673146305e-04,7.281308248674974067e-03,-2.530483003775489681e-02,2.697150111198425293e-01
5.918582320290574628e-02,7.976391492968110120e-02,-4.339289586120395614e-01,1.218996866664549990e-02,1.697886984637530378e-02,-8.983917468770738490e-03,5.052581429481506348e-01
3.043932381342107085e-02,5.230611268755158694e-02,-2.936232141869339340e-01,1.613415965579658752e-03,4.264307305775702495e-02,-7.673216425202872282e-02,3.683849573135375977e-01
6.536263391357136077e-02,7.643799758905486796e-02,-4.467893816998362300e-01,-9.500131677051956502e-06,-8.557372274878544127e-03,1.012720828334666857e-03,5.179936289787292480e-01
8.321728538356956695e-02,5.938448933339038338e-02,-4.234804073264297197e-01,-1.148420622046212973e-03,-7.612586035205384793e-03,-1.119412320846730879e-03,4.953948855400085449e-01
2.739703104498573960e-02,2.260306610771049829e-02,-2.247124520107573742e-01,1.086911663590635346e-02,-2.022187335334523633e-02,-3.434214260902942323e-02,2.597939670085906982e-01
7.156730320186066585e-02,5.887218806978930519e-02,-4.013751777102798068e-01,-8.830765328821099658e-03,-8.966137396447077315e-03,-8.195995270417059161e-04,4.672352969646453857e-01
7.874305592198382886e-02,7.248501827096362482e-02,-4.438281392512664625e-01,2.181329247575751647e-03,5.384083054680266186e-04,2.999834411258499637e-04,5.194852948188781738e-01
3.734799127025399679e-02,2.398168254740422334e-02,-2.864336518054622638e-01,1.925945066666758139e-03,4.250259363845073583e-04,-4.022263968176927398e-03,3.174045681953430176e-01
7.448018349634963342e-02,7.571697527163795405e-02,-4.458013482434191044e-01,1.712102404216853634e-03,2.729984120244130594e-05,-1.284076276986437790e-03,5.209141969680786133e-01
6.980390431089239511e-02,7.574596098288383095e-02,-4.483645156252596409e-01,-8.768936553334013770e-04,1.606195712327376920e-03,-2.916960015474880834e-04,5.211747288703918457e-01
7.520478529860299965e-02,7.631570199060164206e-02,-4.487460379053732629e-01,8.490405946418191994e-04,8.650395840225944552e-05,-5.317625242556158838e-04,5.245100259780883789e-01
7.480221886168533785e-02,7.420392559447239189e-02,-4.478478112452006776e-01,-2.650964545438579405e-04,1.053219905085777145e-03,9.391079688103332870e-04,5.223570466041564941e-01
7.261374412697496616e-02,7.003884675012311822e-02,-4.457941469741364404e-01,3.233277572913263167e-04,2.727040215779524910e-03,-3.024636236328736346e-03,5.171736478805541992e-01
6.490469677905930102e-02,8.886589303153760722e-02,-4.601139004322285508e-01,1.372405380681376548e-03,-2.942585384894944207e-03,4.212706093520299233e-03,5.374789237976074219e-01
7.207530144271032113e-02,6.603027418985918384e-02,-4.162359021998024433e-01,-7.172291230671251974e-03,-3.359024556380609070e-03,2.665965200439742236e-03,4.855327010154724121e-01
7.602803701156335414e-02,7.545844041313154449e-02,-4.485106973792824525e-01,-3.957527564025516192e-09,1.000684187474047573e-04,-1.993891683855664881e-04,5.242543220520019531e-01
7.502429736178206632e-02,7.284278284168252404e-02,-4.462646689710774162e-01,1.376279978649628784e-03,5.573682467971650956e-04,2.224770185864957152e-03,5.202222466468811035e-01
7.469754713577644867e-02,7.624337340938139307e-02,-4.494223621606229790e-01,7.946319937957079058e-04,-4.269466627063096299e-04,-1.386951235484708681e-05,5.248968601226806641e-01
1.208375258587154333e-01,-6.505131099016611684e-03,-4.557636745820786706e-01,1.705647085189827827e-02,5.469924805091203913e-04,-1.613446098176587020e-03,5.254908800125122070e-01
1.300201719933671285e-01,-1.146736259244413025e-02,-4.713951288082270930e-01,2.841335647423291755e-02,-4.286583940825599778e-03,-1.454012363609889346e-03,5.469092726707458496e-01
1.210059663097557969e-01,7.844454612132983895e-04,-4.664859568921755351e-01,2.034306701637053627e-02,-3.982294667918254497e-03,-2.030129450656803849e-03,5.387691855430603027e-01
1.331054250106099013e-01,-1.143761867981778202e-02,-4.728145259278953016e-01,2.107613699572591023e-02,-8.093600116366066795e-04,-1.610550006005444235e-02,5.500571727752685547e-01
4.124391638053276354e-02,8.749739859446639678e-02,-4.697278541986162348e-01,3.620165197276072055e-02,1.529748763349302867e-03,-1.035215884297885922e-03,5.392658710479736328e-01
7.684125595838456335e-02,7.319474013788143663e-02,-4.452726332799182285e-01,9.333034292342485324e-04,-9.047715621926379981e-04,-1.512455059823864618e-04,5.203051567077636719e-01
7.283698552192832687e-02,7.025029482927550029e-02,-4.465498377934226659e-01,-7.163482063617060229e-05,-3.077636474188718912e-04,1.643458741963466779e-03,5.181064009666442871e-01
7.235040625147395876e-02,7.351889088766577762e-02,-4.383089372377374504e-01,3.180700171332060365e-03,-2.490753339980541180e-03,2.490479259618225876e-04,5.112926363945007324e-01
7.106243375012283314e-02,7.336434767195268436e-02,-4.443765879990961842e-01,1.933505175700415502e-04,-3.133245362813759718e-03,1.598366049254812404e-03,5.166298747062683105e-01
7.499036494041524947e-02,7.417430662508847639e-02,-4.473436630770838418e-01,4.551697718500996278e-04,-1.641848746700192135e-03,9.415588621422628542e-04,5.219373703002929688e-01
6.695058816794555168e-02,7.177724939208046662e-02,-4.438900546953279402e-01,-8.051233272906965343e-04,3.465142287115546664e-03,2.956597849314697175e-03,5.133334994316101074e-01
6.914192501329768925e-02,8.085427070776515790e-02,-4.402396536611411504e-01,2.311864060047026659e-03,-7.564913853866467265e-04,-1.499001142922064180e-03,5.153613686561584473e-01
7.440330511180096029e-02,7.326549579161797943e-02,-4.450696726814401538e-01,3.023443172556526150e-03,-2.412667104748209522e-03,-1.328468411146241802e-03,5.189533829689025879e-01
7.499342325127081321e-02,7.617130220891432657e-02,-4.481250124776028354e-01,2.147549905970675549e-03,5.662085726995659497e-04,-1.132554187146285067e-04,5.237225294113159180e-01
7.135465064519389000e-02,7.802581116272322426e-02,-4.406184327187566141e-01,3.553893895465066489e-03,1.004853732182864898e-03,-1.007307071932051499e-03,5.153837203979492188e-01
7.608349864453431421e-02,7.150912559941144386e-02,-4.419212197826875022e-01,-2.822456099184711756e-04,1.647204845625384589e-03,1.233243783663386973e-03,5.157452821731567383e-01
8.204070525867490637e-02,7.008362211913263251e-02,-4.415415958525974460e-01,3.302670515806574274e-03,-1.833346405625383454e-04,1.018724424388638096e-03,5.177420377731323242e-01
7.933740985242121457e-02,7.470087974881531312e-02,-4.457647670009720064e-01,4.256129375181007127e-04,-1.730410175870553471e-02,-9.002485980183564914e-04,5.236606001853942871e-01
7.939525498581245788e-02,7.020664342366020327e-02,-4.358073588371387252e-01,8.260377932148140964e-03,1.042996779907638579e-04,1.203758763301892047e-03,5.108749866485595703e-01
8.219669490736405959e-02,6.791927374059864020e-02,-4.375265116493196049e-01,5.203694991171190290e-03,-5.285260708096429540e-03,-1.078765100626269229e-03,5.128979086875915527e-01
8.506182191879260723e-02,6.142317666704155688e-02,-4.321560790108131545e-01,2.467230965033571227e-03,-5.915785285497082366e-03,6.687126130514197591e-04,5.059361457824707031e-01
7.811313763273705635e-02,7.200245867446342096e-02,-4.413254795012218623e-01,1.695784159066521767e-03,-3.556886859588393075e-03,-1.016243289174245104e-03,5.164585113525390625e-01
7.848359416760666840e-02,6.895969718789649039e-02,-4.383620781915353315e-01,1.607069564061858451e-03,2.729317377180151679e-04,1.075798498694020963e-03,5.121613144874572754e-01
8.245636349953697208e-02,6.695208605264657553e-02,-4.358342334028971199e-01,1.334214664142173998e-03,-2.256402347005544758e-03,-1.527553621072724787e-03,5.107420086860656738e-01
7.065328903479575762e-02,4.479636748058241080e-02,-3.714764149539179772e-01,4.397280460671172155e-03,-1.519361434911066164e-02,-8.090368374938632784e-03,4.308851957321166992e-01
8.034862766771774800e-02,6.802493382246066478e-02,-4.380911488409409693e-01,1.315199513798810975e-04,1.293925853370351403e-03,5.551774055691655052e-04,5.123949646949768066e-01
7.185118458751704740e-02,7.654048772285276803e-02,-4.430851370089090024e-01,-7.230007278739898776e-05,1.686113691862233671e-03,-2.515115626223213101e-03,5.173234939575195312e-01
8.458994678502865239e-02,6.479988133024966457e-02,-4.342143278659516548e-01,2.135141534182892378e-04,-2.509832696275633105e-03,-9.308212487693505758e-04,5.092189908027648926e-01
7.439321410479426966e-02,7.822540430170246695e-02,-4.457980274274360166e-01,-3.082252853978236385e-03,-9.743784289125388687e-04,1.032905657171214776e-02,5.224543213844299316e-01
8.009761436092094344e-02,7.190224877054920971e-02,-4.404198627076780781e-01,1.647583717643416254e-03,-5.262084093554142070e-03,-1.796739725167410817e-03,5.165662169456481934e-01
7.067382310429751180e-02,6.973728588564712116e-02,-4.375092718853213491e-01,-1.030326081245599469e-03,-1.780664343973088943e-04,-1.543524852827355938e-03,5.077257156372070312e-01
8.486161459433358423e-02,6.493862825104926295e-02,-4.358715953497390716e-01,-6.578954986636804730e-04,-2.485632306344307332e-03,-9.228687357076508619e-05,5.110824704170227051e-01
8.026808208124125432e-02,7.131847169355876037e-02,-4.410463418139949354e-01,9.788774454934307326e-04,-4.580075646353347005e-03,-1.569724231804243541e-03,5.169685482978820801e-01
8.107414882460889372e-02,6.685410234043245858e-02,-4.398975183782943832e-01,-3.324653470037870827e-04,-4.776081705144380983e-03,6.929877382615224962e-04,5.140774846076965332e-01
5.554562810066404621e-02,6.509281142417291943e-02,-3.913947070861363842e-01,-1.138080041781471853e-02,-3.363969798781629716e-02,3.120094945188162799e-02,4.591489732265472412e-01
7.425713976706327379e-02,6.348597957055732155e-02,-4.156178032284021939e-01,-2.049570177470162822e-03,-1.148679245589810834e-02,1.168882398499720412e-03,4.850046336650848389e-01
8.296718505390426879e-02,6.747981059932936510e-02,-4.402634300772215736e-01,-1.506089204605219004e-03,-1.763908005510559035e-03,9.243273332010686939e-04,5.156795382499694824e-01
7.319815599820297947e-02,6.851767575091813334e-02,-4.379977990884942884e-01,2.967434264599397103e-04,1.843962190580007926e-03,-6.989472643914836428e-04,5.088835954666137695e-01
7.127904182011779444e-02,6.891491575798666669e-02,-4.353905476413811870e-01,1.547905107869490277e-03,-3.604879865642575485e-03,-2.548100032016875887e-03,5.055565834045410156e-01
7.909199938615163461e-02,6.882708120083397274e-02,-4.382023781879084146e-01,-1.628997822430488813e-03,-5.973455032825882331e-04,5.889693202621042222e-04,5.122488737106323242e-01
7.980392177444567414e-02,7.166343358914517570e-02,-4.439607740865074148e-01,-1.820506531050674302e-04,-3.455406136279330111e-03,-4.033527453354470035e-04,5.197772979736328125e-01
8.113800123927486507e-02,6.823814755641280372e-02,-4.378772844011428744e-01,-2.716577879220285086e-03,-2.713343673857401849e-04,-4.697934068435666820e-04,5.127095580101013184e-01
8.060348964810978845e-02,7.113244216582925716e-02,-4.453993244595088608e-01,-1.378014454158469184e-03,2.279415774054421764e-05,1.336863269328131395e-03,5.213423967361450195e-01
7.042966363017580389e-02,6.817007239629688242e-02,-4.481057783054149257e-01,1.923787745812028608e-03,1.585607111393364096e-03,-9.599671720115512084e-04,5.174300074577331543e-01
7.745386863492054186e-02,7.146548108919303921e-02,-4.436367894723180494e-01,-1.244255345525130309e-03,-2.916943221884254426e-03,-1.703336953586332900e-03,5.181599259376525879e-01
7.653500202859611634e-02,7.193809256956038012e-02,-4.422455776923809312e-01,-3.185836582674999445e-03,2.906069223788528238e-04,-6.534501183843363778e-04,5.165284276008605957e-01
7.729308615297580953e-02,7.226009690946391673e-02,-4.461381957789670727e-01,-1.001037365239810161e-03,7.500928950453376236e-05,-1.337211413122706008e-03,5.209410786628723145e-01
8.005022102844339127e-02,7.156908310835455311e-02,-4.449814418926835158e-01,-1.230603568077109043e-03,2.090761948414121985e-03,1.417247277857839119e-03,5.208656191825866699e-01
7.864863465324467562e-02,7.247620304955113002e-02,-4.449168780672197454e-01,-1.976804177887839416e-03,7.132501504369809231e-04,-4.298113666669009926e-04,5.205200314521789551e-01
1.046736268405753789e-01,2.032300126507524674e-02,-4.498915677104801669e-01,9.194042466078964845e-03,5.196049744223264939e-03,-5.326224024730280386e-03,5.179762244224548340e-01
7.026151944457809106e-02,7.466125210595819794e-02,-4.562225236511185389e-01,3.425997865610141795e-03,4.459123074459479981e-03,-2.570665005692318768e-03,5.288060903549194336e-01
8.019198927280024591e-02,5.068796568230335420e-02,-4.478185462764875391e-01,3.449117703643149631e-03,-6.783858293004888396e-04,5.375499922254238852e-03,5.140145421028137207e-01
7.591107920456913183e-02,7.533182102358335075e-02,-4.465209759822927893e-01,-2.132854902880329962e-03,8.589970087759381083e-04,-9.587830189934593104e-04,5.221604704856872559e-01
7.368311522565101912e-02,7.192224777262504198e-02,-4.473626548703812933e-01,-7.780962356096286347e-04,-2.638361248919790687e-03,-4.981599216592463982e-04,5.201901197433471680e-01
6.785920996983230147e-02,6.653445421412298999e-02,-4.460378995054593565e-01,-9.068688980031587230e-04,-3.014883948163521758e-05,3.383652250188735736e-04,5.132387280464172363e-01
7.268536918826365434e-02,6.464891461116384352e-02,-4.435794154163467673e-01,3.740701078190040302e-03,4.349962571488959207e-03,3.566292655113259200e-03,5.124274492263793945e-01
-7.987084890557098749e-03,3.100712488757421947e-02,-1.147370347630312093e-01,2.449239573470506082e-02,6.149368159825815972e-02,-4.362310768319307280e-02,1.895566135644912720e-01
1.700622697543663353e-02,9.730074189805820728e-02,-4.473478165937911921e-01,5.802575124329042641e-03,-5.671926597736478382e-05,-1.223213613625720019e-03,5.093746185302734375e-01
6.728882523124163351e-02,7.382021230650470667e-02,-4.389438693615174136e-01,-8.358179290353627295e-04,6.012708508518115058e-03,-1.257925837940761281e-03,5.096428990364074707e-01
1.710763539556902080e-01,5.719525036410533225e-02,-7.257552815271010038e-01,7.199614598275813626e-02,-3.405455578614971501e-02,4.427614256368132828e-02,8.602641224861145020e-01
7.837377508280649052e-02,3.748170846811790802e-02,-4.427816552608080936e-01,3.641539813989511272e-03,1.979760983423908393e-03,-4.102834398397365743e-04,5.020120143890380859e-01
7.085940431273585194e-03,1.048099848479481233e-01,-4.447297583132793775e-01,-3.452368486510675426e-03,5.256962223752133581e-03,-2.030053952150006388e-03,5.079091191291809082e-01
7.514233004003365024e-02,7.131547962426595944e-02,-4.470908330548172271e-01,8.106592417603754775e-05,-6.839317310904981803e-04,-7.388916023027336044e-04,5.203332304954528809e-01
7.482544551753933515e-02,3.288133567197365492e-02,-4.414984480739553296e-01,3.604747295637703020e-02,-1.715740700942766997e-02,1.460036653257978760e-02,5.021094083786010742e-01
1.920795373266111494e-01,-6.038704879374728191e-02,-4.753156298120013168e-01,9.967554246120995110e-03,-1.071069450188496530e-01,-1.477165733729154662e-01,6.639540791511535645e-01
2.241108334843970318e-01,1.773763167343120339e-02,-7.468267779890388480e-01,5.628205942373516084e-04,-1.357559953821253600e-02,-3.216283724970137037e-02,8.880267143249511719e-01
1.880830734558998352e-02,2.369077876045831699e-02,-2.423937402006114405e-01,2.451671030411646610e-03,9.859875413743970224e-03,3.615757589859633359e-02,2.715832293033599854e-01
5.337321468234478006e-03,1.171100342619004614e-02,-1.189798747407992963e-01,-6.951397729439475620e-03,2.462706264724500230e-02,-8.877662263541015106e-03,1.359729021787643433e-01
7.735919124824261472e-02,4.479885165856614671e-02,-4.422732891302587066e-01,-4.879205422057566154e-03,5.821664509192444117e-03,-3.700554847612766429e-03,5.043538808822631836e-01
7.282826857644925100e-02,7.691283394983425281e-02,-4.464525501519114870e-01,1.343481854008322278e-03,-1.060563459696911874e-03,4.045288909131557220e-04,5.213440060615539551e-01
2.624897073204510156e-02,4.268207026549025729e-02,-3.040465176530291469e-01,3.813893588084506063e-03,-2.694906598002982153e-03,1.362517548031701988e-03,3.389158248901367188e-01
6.444843785826248617e-02,7.887290783963313290e-02,-4.461412123317968215e-01,-9.921980133999572671e-04,4.851558277594785439e-03,1.728437137436112769e-04,5.180236697196960449e-01
9.154794588926312704e-02,1.844635863882627125e-01,-7.290092934499199373e-01,-1.059696925589373173e-01,2.379419084082878139e-02,2.455429872510871830e-02,8.918442130088806152e-01
-3.219197567174898744e-02,1.426812991644856865e-01,-4.675256785532402315e-01,-4.293873455745053636e-02,-9.414604768461841411e-02,1.207590297147783341e-02,5.733963847160339355e-01
1.932055633640392123e-01,1.139881586305247496e-01,-8.152327373879104666e-01,1.235354580397286239e-01,3.381396154299760870e-02,-5.562635124782087243e-02,1.000916242599487305e+00
8.613221118020683575e-02,4.795440158221675464e-02,-4.438601905985985474e-01,-5.342343622449939079e-03,7.965933656940484345e-03,4.050535241424756995e-03,5.122897028923034668e-01
5.629760799678934502e-02,6.709668391685380540e-02,-4.618732776420217401e-01,3.994676743542419084e-02,-5.401302241540701689e-03,2.002707212488298930e-03,5.282993912696838379e-01
1.230343342614118041e-01,1.148063641668270463e-02,-5.255389797924536754e-01,4.352505853996854052e-02,-1.283078302281991101e-03,-5.518538318283391225e-02,6.128338575363159180e-01
2.694215346545350553e-02,1.427494224009667190e-01,-5.190530612913898389e-01,2.795879233923092427e-02,-7.279812302586544234e-04,-5.662618301172553490e-05,6.140838861465454102e-01
2.380150792274671745e-01,4.138404212588037145e-02,-7.967587102879696292e-01,1.240325043257881413e-02,-2.599608889343057311e-03,7.151253996575007710e-02,9.600915908813476562e-01
-1.692438609101773461e-03,1.116755224700172744e-01,-4.500781502189730721e-01,-2.534191094741736032e-03,-1.831555344171718696e-04,1.011872776945354872e-03,5.145455002784729004e-01
8.439981755816639009e-02,9.610957348643703324e-02,-5.142055850955329355e-01,-9.430562577065380869e-02,-9.255759977711258690e-02,-1.068745154792246077e-01,6.724008917808532715e-01
7.808808130622565957e-02,5.376908796300483573e-02,-4.479437335154628497e-01,-3.814100603841008401e-03,4.349102222536980686e-03,-5.845489441517300738e-03,5.145009160041809082e-01
7.954662140756968425e-02,3.655295055197327336e-02,-4.426394602523909816e-01,-4.616415958032033494e-03,-2.000918719193033220e-03,1.121852294911924314e-05,5.021473765373229980e-01
7.289722491985275998e-02,7.223248853886390930e-02,-4.471006059379742936e-01,-1.377521420922954681e-04,7.172993895450872860e-04,-1.033477729567282765e-03,5.196704268455505371e-01
1.184689549140922615e-01,1.532714260649659099e-02,-5.245457310684259467e-01,7.354664182652508042e-02,-8.757321250488541570e-03,1.958767028788324302e-02,6.126931309700012207e-01
1.912649478581435192e-01,7.488238359951435164e-02,-7.834863821759981972e-01,8.180036010067551211e-02,3.374237188220618328e-02,-1.691045740696848002e-03,9.347401261329650879e-01
2.222653322673669163e-02,4.259805120520804289e-02,-2.994989333441681612e-01,-6.121762425263975287e-03,1.101280205619366856e-03,8.780761441159585200e-04,3.325577974319458008e-01
5.163142809049311999e-02,7.340774595407481562e-02,-3.878775613626324059e-01,-6.221716805963027619e-03,-2.175963503667974197e-02,3.144845726453776580e-02,4.557596147060394287e-01
6.274322629579368038e-02,8.341304915471411952e-02,-4.296911883845582203e-01,2.471650539234156608e-03,8.045882941615136851e-04,4.119899541823936195e-03,5.031586289405822754e-01
6.702627668444116615e-02,1.730429532774195867e-01,-6.323074451186702083e-01,-1.070483168177844835e-01,-9.330973626303463997e-02,-5.023584985722094609e-02,8.015717864036560059e-01
1.030325056602468536e-01,8.193020443233389738e-03,-4.449334120659243497e-01,-9.141539703967813471e-03,4.085186706466519490e-04,3.518937484273165165e-03,5.075241327285766602e-01
6.208400017398951753e-02,6.916208012328922683e-02,-4.023530212995192201e-01,-7.702205049849919494e-03,-1.374292531076597504e-02,5.786213179023523556e-03,4.689181149005889893e-01
6.248044689230258797e-02,8.678403628286993077e-02,-4.345897257332920205e-01,-6.020917395957747272e-07,2.729208014739855498e-04,1.394497505605859014e-03,5.096626877784729004e-01
4.773006540572222178e-03,1.056463351324386790e-01,-4.475528293375020672e-01,-3.007453379351081139e-04,4.228626328486684120e-03,1.555872337290210112e-03,5.103556513786315918e-01
6.177867065706166283e-02,8.697505815258899098e-02,-4.312220406566068531e-01,-3.353724906061543486e-04,5.325598948815885985e-05,-4.269591133549303984e-04,5.060704350471496582e-01
6.100062761545152479e-02,6.257256822142681640e-02,-4.410664511884483940e-01,-1.311248327705877076e-03,2.956630215488250529e-03,-1.234946735275160477e-04,5.028861165046691895e-01
1.017188273003613030e-01,1.916178492050094051e-02,-4.553505191990689371e-01,2.891028958246652514e-02,-1.756042502926874222e-04,9.350256178276589170e-03,5.233753323554992676e-01
2.121095655706828342e-02,1.839732515244373035e-02,-2.021021753678726163e-01,-6.934609833313252385e-04,-5.280217534892688545e-04,8.051760201247376569e-02,2.621066272258758545e-01
-1.208019170943031018e-02,1.482215815668069814e-01,-5.221990332984756122e-01,-6.438391597239412345e-02,-9.255340310259306535e-02,-4.913049324741598778e-02,6.427025198936462402e-01
6.115395686391747465e-02,8.489023285600316715e-02,-4.308745864045349649e-01,-2.441220767446846546e-03,7.407247071043650830e-05,-3.838528695090465885e-04,5.043339729309082031e-01
6.114088585455723646e-02,8.479928564553071424e-02,-4.272318976449963612e-01,3.520976204218297968e-04,5.746067356851779998e-04,4.949265385329317500e-03,5.006961822509765625e-01
6.684079066406115044e-02,8.092937767084029677e-02,-4.377895558686563660e-01,-1.107049095283080449e-04,-1.143144840072069434e-03,5.089192348174104326e-03,5.118998289108276367e-01
6.213495169109106708e-02,8.594653959649109498e-02,-4.323109032694930631e-01,9.922628502339191255e-04,-1.175634803916726862e-03,-3.799006338781471878e-05,5.067784190177917480e-01
1.162644909768077439e-01,7.397580892059441027e-02,-6.346247593477161164e-01,1.047592754962183015e-01,-4.508498520838838397e-02,5.775987406953846104e-02,7.634782195091247559e-01
9.573950628282537623e-02,4.308404006154806232e-02,-4.980991939578081618e-01,-6.887076321586965699e-02,-8.644956227930980508e-02,-8.378388454871527058e-02,6.179462075233459473e-01
6.176685412835342115e-02,7.156545372757827650e-02,-4.483405593142114065e-01,8.860017450223051094e-03,-6.678533874714199896e-03,6.701780171508510582e-03,5.155656933784484863e-01
6.428216124792218711e-03,1.085878867823751870e-01,-4.963646675357305527e-01,-6.659628288527397189e-02,6.999782737882832839e-02,3.298013137352915486e-02,5.881069302558898926e-01
9.655838077296866051e-02,7.328202443195205862e-02,-5.247547511848953405e-01,5.753159057285113509e-02,4.814067327621953871e-03,4.920777693990395843e-03,6.182084679603576660e-01
9.946311438370908364e-03,9.885349746410859728e-02,-4.773541448661520192e-01,5.296702032245614866e-02,-1.978260492015408711e-02,3.604030232409835988e-03,5.461870431900024414e-01
6.286043544636932268e-02,7.744180455983240563e-02,-4.208653361001185589e-01,6.059774922389428269e-03,-1.484145610208468906e-03,1.184993356147685524e-04,4.912976920604705811e-01
3.059020634742298794e-02,1.006591052251597229e-01,-4.739736795846513084e-01,-6.605985108500371517e-02,2.348619642621636167e-02,1.952758344667120810e-02,5.574397444725036621e-01
7.118855257932668601e-02,7.814033868068054334e-02,-4.442288020214185673e-01,1.864623686626357048e-03,-1.818856542613657987e-04,2.631850574307553151e-03,5.189583301544189453e-01
6.036220619868060133e-02,7.255172978430532438e-02,-4.094092710715312444e-01,-1.329138136015473948e-03,4.085685912730604562e-04,1.195164143048112887e-02,4.764393270015716553e-01
8.645595995829050140e-02,6.792765095865532787e-02,-4.300344477065652926e-01,7.585907450907926255e-04,1.983601646974868238e-02,6.370103648775672645e-02,5.204724073410034180e-01
1.063552096888568665e-01,-2.148890242912983306e-02,-3.888840761936059875e-01,3.435680410194475592e-02,7.419391918152478532e-03,5.077537567661037643e-02,4.579665660858154297e-01
3.889431416462223179e-02,3.250029718266916889e-02,-1.578734893443015375e-01,6.560424753984631097e-02,8.221223392459829638e-02,-5.781185000720110573e-02,2.841042876243591309e-01
5.284421660444271751e-02,1.087198829814409184e-01,-5.370284802035854010e-01,6.648344749674574283e-02,-8.430199463363128448e-03,-3.304116985695244348e-03,6.305057406425476074e-01
2.513247993541366243e-02,6.650548652682997108e-03,-2.578928666269242886e-01,5.561502603933116129e-02,6.753451526840259511e-02,-7.074731221911415013e-02,3.364393711090087891e-01
7.625864350669164793e-02,6.131713219313764118e-02,-4.122713716904462533e-01,4.254871344517025498e-03,1.612124166065080405e-04,5.487602978892162052e-03,4.813836216926574707e-01
7.883487272890052355e-02,3.695936910583857982e-02,-4.400032816412742243e-01,5.812898040815273407e-03,3.717757557284700077e-04,-1.073403928101960636e-03,4.993247687816619873e-01
7.270089848936450716e-02,7.690339563150674906e-02,-4.445658955489044661e-01,-1.670213761615805398e-03,-1.450970625553422641e-03,1.385005068882560813e-03,5.194004774093627930e-01
7.965127675078212399e-02,7.271948688973881025e-02,-4.458416644325370326e-01,-3.682764092756211395e-03,2.516467761187378849e-03,7.230910881853880616e-04,5.221202373504638672e-01
1.440569651591038780e-01,-6.271311570746604391e-03,-4.921718972499691258e-01,3.978626280955342015e-02,3.904137199363728015e-03,-6.121134035510735275e-03,5.802150964736938477e-01
-4.105531910493953607e-03,1.234421238328607395e-01,-4.731373340373936087e-01,-1.057714457982936868e-02,1.985440489751952309e-02,-1.086895762095809034e-03,5.455317497253417969e-01
9.437580493819039407e-02,2.660640515016091112e-02,-5.282760708582834308e-01,1.037219555171069174e-01,-4.061853557716595814e-02,5.828332043016873354e-02,6.304811239242553711e-01
9.760770255521328265e-02,4.297658550116728593e-02,-4.481294766638554417e-01,2.343778305754991298e-02,-5.959753884821460818e-03,-4.223336965992124936e-02,5.273565053939819336e-01
2.614816077363170121e-01,4.044627506142872697e-04,-7.081894168281517299e-01,-1.209738249801255161e-02,1.441531611461178801e-02,-4.014227445450996301e-02,8.724453449249267578e-01
7.233927519651633942e-02,7.720448881960548237e-02,-4.448843160794636598e-01,1.909887023597116318e-03,-4.333067779133327235e-05,-4.545645006550336729e-03,5.197434425354003906e-01
5.019881053916311342e-02,5.696340997512988613e-02,-4.384152464300556939e-01,1.636979738412084467e-02,-6.457903820049920194e-04,1.060533864193390682e-03,4.928521811962127686e-01
1.434491551842632107e-01,-1.973640754961827892e-02,-4.927291020735095617e-01,-5.976931293061582377e-03,-1.389919033880746002e-02,1.292916393385962204e-02,5.733458399772644043e-01
2.450780764513025844e-01,1.399245506497115432e-02,-7.163794352557413259e-01,-2.159598537257944109e-02,-2.544001127035070906e-02,-2.860693294552184296e-02,8.725926280021667480e-01
6.429972347587267767e-02,8.085421062787837010e-02,-4.301401738926046159e-01,4.570037270514215946e-03,1.358877752498572657e-04,-3.376970572289895566e-03,5.030179023742675781e-01
2.810337363870593075e-01,2.038246524719714015e-02,-7.730814546148564448e-01,4.692908183645512488e-02,-7.110861140038213235e-03,-5.439432438160375638e-02,9.591540098190307617e-01
6.906163417570818086e-03,1.103335885378619319e-01,-4.493830722480666728e-01,-1.743126950596855362e-03,3.922759323404845927e-03,-1.385214798365567079e-03,5.158982276916503906e-01
6.665125590060638761e-02,5.668500303442514099e-02,-3.885795906256667709e-01,-8.238016405018333890e-03,-5.581059058753048193e-04,8.905197238236855486e-04,4.505601227283477783e-01
2.200042422275065301e-01,-3.138859253442960462e-02,-5.825332262777648262e-01,3.385009428426608014e-02,6.422641516408840456e-02,4.198150653211354943e-02,7.256807088851928711e-01
3.346967708800001329e-02,3.129069292896903554e-02,-2.800877568812135676e-01,-6.139164547627308857e-03,8.988197404292047610e-03,-7.696411207836582891e-02,3.402434885501861572e-01
7.626002810918830477e-02,5.316840125731656097e-02,-4.459459778853314682e-01,3.083924063277189084e-03,-3.334379541915090655e-03,-1.371644019585045813e-03,5.111176967620849609e-01
2.642907108101346658e-01,2.070860455040618442e-02,-7.589981447740201670e-01,4.419475563766431941e-02,4.266583175954511559e-02,-4.679881375688075412e-02,9.354616403579711914e-01
7.420701926464412512e-02,7.961005039398461047e-02,-4.442505573389527451e-01,1.121795508692475596e-03,-4.478644494822467447e-04,-9.792884673254738381e-03,5.214602351188659668e-01
7.401401367797105779e-02,6.188866978675766628e-02,-4.284424028187832079e-01,-3.695986880304483885e-03,3.148416163478477085e-03,-7.173204105772729849e-03,4.967314302921295166e-01
1.689449704713562039e-01,-3.418671139676884851e-02,-5.117941151956189039e-01,1.946439709018636319e-02,-3.900370756758022792e-03,-6.461821313497437269e-02,6.165202856063842773e-01
6.745565026835745326e-02,5.202432577882740161e-02,-3.861641783298836450e-01,1.073328335323392967e-02,1.357178707051723970e-02,2.272737683852639468e-02,4.488395154476165771e-01
3.838110457749449589e-02,7.367711038504987098e-02,-3.161164584962484758e-01,9.300397316878775134e-02,8.854076720144939128e-02,-4.453903682961089100e-02,4.414130449295043945e-01
6.095208222245837582e-02,6.967802601684341957e-02,-4.434469274957457130e-01,-5.499758722730728119e-03,-4.632025977898533535e-03,-2.564545665356000870e-03,5.089898705482482910e-01
1.025478910795384335e-01,1.347494023476571157e-02,-4.482957172371137000e-01,9.440993647357967533e-03,8.756596873195315433e-05,-4.792967683195096390e-03,5.124780535697937012e-01
6.206496009496242916e-02,4.449805207210241753e-02,-3.596552864538867245e-01,5.006799817010730048e-03,6.119849528879059376e-04,-1.038751101487129765e-03,4.133132100105285645e-01
8.598770283448614604e-02,6.257514012185899643e-02,-4.335046989088713332e-01,6.741621923733666540e-04,-2.861431141508636623e-05,-8.488571860085715633e-04,5.081942081451416016e-01
-1.404145901250232475e-02,1.292201543571614986e-01,-4.493236271127428183e-01,5.276064749622121075e-02,4.019535685675631326e-02,-8.226602363791697681e-03,5.345603227615356445e-01
8.211389643527455817e-02,6.171636607338404357e-02,-4.231291408709220714e-01,-2.056526491337375227e-03,5.253551067166536623e-03,-1.294553265304708043e-03,4.954607784748077393e-01
7.804969752362156399e-02,4.887129978321542306e-02,-1.565119579007163975e-01,6.891987537175700215e-03,-1.929193918642481062e-02,-6.881026430033668206e-02,2.539488375186920166e-01
6.158888705076531744e-02,7.429582549310911888e-02,-4.467858640176927687e-01,2.416579595448362680e-04,-1.584909239485711007e-03,1.344469694598572065e-03,5.148586034774780273e-01
1.435108069476676018e-01,4.682358557324933779e-03,-5.175205587090221382e-01,4.147370388872641256e-02,4.889875581790065033e-03,4.711581095765996104e-03,6.080825328826904297e-01
1.305994004832033983e-01,-1.835811324755400042e-02,-5.083657473831735274e-01,7.565684239890511920e-02,2.554314894441003098e-02,-4.306824749057879681e-02,5.999833345413208008e-01
1.693257918674274665e-01,-5.395278311181819775e-03,-5.358407580675936810e-01,9.934321627978422165e-03,-1.124144784307817314e-02,-8.508948702836384372e-05,6.365964412689208984e-01
9.939756503980387570e-02,6.095037399981309556e-02,-5.239428537331621838e-01,6.875153996912722332e-02,6.489898800575303120e-05,-6.975429921068721298e-03,6.167593598365783691e-01
7.357755119603767713e-02,6.117503233286628039e-02,-1.437041132140527144e-01,1.152014283681452103e-02,1.798024401145663018e-02,-8.244348097967563183e-03,2.150400429964065552e-01
6.393802645001642193e-02,6.502233806805690630e-02,-4.422119895548640156e-01,2.997118723813957560e-03,-1.490049097009235948e-03,7.619740910995521704e-04,5.067279338836669922e-01
6.658207360545417841e-02,5.547622101486010537e-02,-3.898144647579281363e-01,9.553319216728395000e-03,-5.962335227159172037e-05,-5.190179839155061254e-04,4.512505829334259033e-01
1.413206613135939982e-01,1.236396775549819527e-03,-5.343424793932489703e-01,1.857354204497793995e-02,-3.095344413348375366e-03,-1.584055397717068492e-03,6.185189485549926758e-01
3.871450245898491738e-02,1.209898567450269358e-01,-5.139990855302489781e-01,-3.271230289448542883e-02,-1.097907548454570004e-02,-5.859581817218996458e-03,6.011748313903808594e-01
6.387664384397395700e-02,6.607037246466987424e-02,-4.046156548951102550e-01,-1.225581368375833723e-02,4.356263290865892979e-03,-5.209149448784681884e-03,4.702196717262268066e-01
6.657548814298847040e-02,8.192712807002561215e-02,-4.270786424052792074e-01,-2.531740186663143915e-03,5.089956939926743723e-03,3.146631911149937871e-02,5.045550465583801270e-01
2.090627659712315789e-02,1.004989000092822160e-01,-4.579920442414259774e-01,-1.750122198006520344e-02,-5.271218575042329116e-03,5.748871410028825145e-03,5.243059396743774414e-01
1.433595935375365782e-01,-1.611893835857559909e-02,-4.741943556898284839e-01,-8.204147365781415402e-02,1.969102178919336296e-02,7.545171493371524707e-02,5.888583660125732422e-01
5.897195826327439327e-02,5.489669274829228618e-02,-4.368291991719346345e-01,5.387217053379959875e-03,-9.559201720537912131e-04,-5.008524306413220627e-04,4.938678443431854248e-01
6.079520463261672836e-02,5.889600106884834707e-02,-4.405565537335988102e-01,-4.645149280514237165e-03,-2.535052443332839068e-03,-1.643722653862126791e-03,5.004968643188476562e-01
2.090432035053085835e-02,9.226244080465845210e-02,-4.415161125015871768e-01,-5.907178668080692238e-03,3.688002358015124178e-03,-1.191539890380005325e-03,5.020675659179687500e-01
2.125417124261294588e-02,9.475263352931498351e-02,-4.453239120998865319e-01,-5.408253591157464145e-03,2.767670093929803891e-03,-2.083430146916159190e-03,5.074580311775207520e-01
9.497865108895137132e-02,2.429203902878393495e-02,-4.494839475178842303e-01,-5.846821973977256795e-03,-3.718044705599510779e-04,6.851908133883337013e-04,5.128881931304931641e-01
5.350425700854924416e-02,7.662406669135357618e-02,-4.458056581182140987e-01,-6.078057978019592821e-03,-2.178564579521220963e-03,7.784946548532825118e-04,5.113860964775085449e-01
2.279295085991089875e-02,1.734393886540981922e-01,-5.483885345156194191e-01,-8.097421184921205217e-02,1.521585224638599965e-01,5.927401689777332672e-02,7.312020659446716309e-01
4.834074672152482988e-02,8.902373370474564451e-02,-4.596372405938507488e-01,-2.568447237605418071e-02,1.957820865174049029e-03,6.714528360003734278e-03,5.314965844154357910e-01
6.840808548254859178e-02,7.809294852205264648e-02,-4.360749993700436256e-01,-1.733388338839504401e-03,-1.119732438413334707e-04,-6.854782401658309062e-04,5.094048380851745605e-01
8.126685983791792633e-02,8.124183405078114206e-02,-4.486574436415321498e-01,-4.055075629410101294e-03,7.020093327152078511e-02,3.169885776952545420e-02,5.464931726455688477e-01
3.544607123324911013e-02,1.716730521886110361e-02,-2.140651520317436440e-01,-1.324708510400050745e-03,-7.243432554986264926e-02,1.653791271998416093e-02,2.731211781501770020e-01
1.061921070008445267e-02,9.261954318640647221e-02,-4.491019602640896613e-01,-3.997969182819868100e-02,-2.744454894879164056e-04,-1.512608371454085511e-03,5.104577541351318359e-01
1.006695444418015672e-01,3.092120712723786524e-02,-4.491875687956836116e-01,-3.620593550050837418e-03,-3.886709186725944079e-03,8.220184271294792358e-03,5.187903642654418945e-01
1.542444419393598776e-01,-2.019834040015970611e-02,-3.571553439699997612e-01,1.277942308647154503e-02,-2.062954881453241129e-02,1.069253012036501388e-01,4.886877834796905518e-01
6.287073434911766290e-02,4.815203785988986240e-02,-3.666486469115430857e-01,7.926285997545716097e-03,-1.776983314718446065e-04,1.229796259043509227e-02,4.231121242046356201e-01
7.604351584441187972e-02,7.919641626085402453e-02,-4.936502642652065842e-01,-1.322178675154093430e-01,4.549859526158833711e-02,4.403631817155580219e-02,6.251637935638427734e-01
3.761258934111787189e-02,2.421041564817284775e-02,-2.878644493467113485e-01,3.497630775770923031e-03,1.355118418170475993e-04,2.908258843183395654e-04,3.190451860427856445e-01
4.053179978261309269e-03,1.619842180245389951e-01,-4.772302467878675736e-01,6.365257909275824633e-02,1.464059101603466528e-01,-3.956660137064645089e-02,6.432271003723144531e-01
5.400637822804474353e-02,8.356090104312086098e-02,-4.608286850392042666e-01,-1.282247222045690416e-02,2.757005072374457862e-03,5.296257975458450791e-05,5.307168364524841309e-01
4.776681859923620488e-02,2.341637684365290850e-01,-7.686111943223030707e-01,-1.053362233974491080e-01,-4.853768415344137527e-02,-3.544275491129792593e-02,9.473704099655151367e-01
6.168489762112422392e-02,3.722042996175986551e-02,-4.424304156508221952e-01,-3.346154467366398849e-02,1.862582721909148992e-03,1.353428441302999188e-03,4.957547485828399658e-01
5.097306599649836789e-02,6.465802809340312485e-02,-3.786038008046895831e-01,-9.543310485713990890e-03,-7.325092266001665851e-04,-7.359191975389657884e-04,4.368967413902282715e-01
1.132735511543611073e-01,2.089731370755043560e-02,-4.746391217691560138e-01,5.408751980821328853e-02,9.458962511904785500e-03,4.827181102740218076e-03,5.558598637580871582e-01
7.068073413995726306e-02,6.397739037181618404e-02,-4.461056833053485549e-01,-4.442542363426344202e-04,-1.751589141785447868e-04,-2.196822870618579557e-05,5.134682059288024902e-01
5.295364101435182103e-02,7.661113143257361480e-02,-4.438611517259083428e-01,-2.891483125872019652e-03,-2.836330428146083445e-03,1.408901600889194252e-03,5.091101527214050293e-01
-7.688895782437948911e-04,1.139651731707382876e-01,-4.505432510731395279e-01,8.428390178823106076e-04,-5.930075205737772234e-04,-2.795922654501370257e-04,5.167869329452514648e-01
3.349302060107892109e-02,9.836437085887791976e-02,-4.511346439678020626e-01,3.089500574684148591e-03,-1.019053097195481324e-02,-3.427617652210001708e-03,5.204672217369079590e-01
2.193045802942951428e-02,2.092574999085064502e-02,-2.604159664757971226e-01,5.665456928697468241e-04,-3.106361887141932676e-02,1.077347112893684879e-02,2.875427901744842529e-01
7.450898622174412234e-02,1.761739275646166947e-01,-6.688863312304075270e-01,-1.149313476150396751e-01,-1.057955690460693488e-01,-7.324499993003132092e-02,8.531411886215209961e-01
9.314215336381465038e-03,1.483628036457248500e-01,-5.210066064344007764e-01,-2.915539362870173817e-02,-1.014581841615508177e-02,6.070691402487995644e-03,6.142349243164062500e-01
5.956144530670745563e-02,8.195135127059560709e-02,-4.624724473263174263e-01,-8.359725928393258246e-03,-1.912938139097280664e-03,3.394202913181446502e-03,5.338203310966491699e-01
1.466362979679620981e-02,1.907132499850371088e-02,-2.435468369406517675e-01,3.906607884751909848e-04,2.020552498092668611e-02,2.310102874011644991e-02,2.658127248287200928e-01
1.525768487045450761e-01,1.539044698087727037e-02,-5.103584938216410016e-01,-6.864665321668553255e-02,6.779304984231059039e-02,1.680083475294441853e-01,6.927935481071472168e-01
2.653026190088675351e-02,3.114604749393229399e-02,-2.702794170687485287e-01,8.821641713140485758e-03,2.318971242621664305e-02,1.374146668635583754e-02,3.031510114669799805e-01
1.760042391536997819e-02,2.068659810191578186e-02,-2.416260581361650006e-01,-1.194553593018712152e-03,-2.516576831043013107e-02,-1.217497506408922979e-02,2.652486264705657959e-01
2.190751644376892626e-02,1.001743318427478213e-02,-2.063966539695462066e-01,3.505265386977875338e-04,6.400346041460469072e-03,-8.879243350746112914e-03,2.234041094779968262e-01
-6.259561413750683312e-04,6.859529268845178385e-03,-1.172037649301796020e-01,-5.817759271588300064e-03,4.352371895314304656e-02,3.916777931022785708e-02,1.578159928321838379e-01
6.850720816998517870e-02,4.933826585405653997e-02,-4.449966687902044971e-01,-7.932332686711215941e-03,-3.158568478623285697e-04,2.189489021328174011e-04,5.043803453445434570e-01
2.332900672269647147e-02,2.602738201663699624e-01,-7.561823230041896382e-01,-3.687623360787099791e-02,2.499078122341017241e-02,-3.379972069278768670e-03,9.243751168251037598e-01
3.313900380213546937e-02,9.328851709941463066e-02,-4.503367402294561894e-01,1.281082639436653594e-04,7.348612059042728198e-03,4.140665226910852058e-03,5.163923501968383789e-01
3.277467040042371382e-03,8.582635260376753061e-03,-1.603294415637154247e-01,2.432951596540660656e-03,-4.769814542116159600e-02,-8.865087768772289545e-03,1.863925755023956299e-01
1.531585695841329864e-01,-2.699614903374751573e-02,-4.682054933477284853e-01,8.895751208619403355e-04,-1.485467950285393468e-02,7.955259841204719712e-03,5.544921755790710449e-01
2.197281745829821054e-02,9.264047576771816672e-02,-4.438424814602705548e-01,5.451775554995975243e-03,1.585416298444820155e-03,4.177872945136500431e-04,5.049684047698974609e-01
1.093326104833662882e-01,2.199273068960083677e-02,-4.614132224055804143e-01,4.273560990429649785e-03,-1.157136762284219540e-04,-4.076469516564841349e-03,5.325738191604614258e-01
3.718818821609279346e-03,1.086102439956449228e-01,-4.465163175448561006e-01,3.060027135205388438e-03,-2.856041323589415381e-03,-3.291174903246600354e-03,5.109058022499084473e-01
3.860259940372884335e-02,8.238051077815700118e-02,-4.456277194972348421e-01,-6.127359608566945726e-03,2.488043460625441114e-03,2.849880422804236448e-03,5.076905488967895508e-01
4.255287706824936733e-02,7.854706280125206552e-02,-4.580224529484704377e-01,-2.685318928793983123e-02,-2.436962589234716449e-04,-4.747483629579876555e-04,5.215871930122375488e-01
6.573186074045681004e-02,4.972200397171799846e-02,-3.805524201058930744e-01,-1.135075210630373185e-02,-1.523191897204174581e-03,6.474352477641014689e-04,4.389484822750091553e-01
2.096244908184877187e-02,9.754829639895817861e-02,-4.540773352924682982e-01,-5.415714094503759277e-03,3.403114373411978040e-03,-2.281226237038687637e-03,5.177333950996398926e-01
9.564677567633364519e-03,1.151337223375659413e-01,-4.621119672621508689e-01,1.455727657667344171e-03,8.482169795940722526e-03,1.611934064737017809e-03,5.325862765312194824e-01
2.400350593132048738e-02,3.295358507215150057e-03,-1.209984307952171462e-01,3.668872442356005230e-03,-2.247600796060906722e-02,1.079075039214685144e-01,2.343920916318893433e-01
6.850617606395920101e-02,7.323276512824883344e-02,-4.372309505683134034e-01,-5.058247771960580402e-04,8.956920951309369980e-04,-7.558244693105848255e-05,5.081200599670410156e-01
6.400251993693215069e-02,8.199667613870012528e-02,-4.468246424096343761e-01,1.644005347440291847e-03,-8.684828267123785236e-03,-2.775358983046167811e-03,5.203052759170532227e-01
6.230643306982780461e-02,5.930303490030972013e-02,-4.402998293140304442e-01,-1.156959344167682790e-03,-9.670977669326661242e-04,-6.486407231350839551e-04,5.011193752288818359e-01
1.081576540700003031e-01,9.604109288716397574e-03,-4.573921200563671463e-01,1.031014138846790800e-04,-1.406698897563205030e-03,3.372291010313533798e-03,5.233187079429626465e-01
9.772432696786362283e-03,1.553336186822087961e-01,-4.824573313480405856e-01,-7.332961343208239946e-02,-1.452699419759657384e-01,-3.729768282500075388e-02,6.471034288406372070e-01
6.048325137465665469e-02,3.705191976799317166e-02,-3.497932464285124499e-01,-6.009999933707395499e-03,4.968798458547460384e-04,1.133529719425202661e-03,3.992185592651367188e-01
1.111609325682481886e-01,1.577898919976700176e-02,-4.583126243101603992e-01,-7.175781795229395355e-03,7.615627633106682778e-04,7.094211168623823028e-04,5.284298062324523926e-01
4.547898333887001598e-02,8.170229357358629874e-02,-4.402563341054824830e-01,-7.101866982547995954e-04,4.241615735033264951e-03,-5.193394682537294743e-04,5.048783421516418457e-01
1.346706066419632308e-01,3.698919289773366925e-02,-5.146386562135099041e-01,5.431234110205017428e-05,1.258423987673760319e-04,2.332156319263448824e-02,6.077421307563781738e-01
1.171813289659843771e-01,-1.997914530592746762e-02,-4.456798186498956982e-01,-1.099288497584269969e-02,-3.183580287417418189e-04,3.123299428689298423e-03,5.087391138076782227e-01
5.826907043853521428e-02,6.175592679017991027e-02,-4.385897379823523456e-01,-6.769236598929676994e-04,1.168514924596278419e-04,-1.103957098425424090e-03,4.986164569854736328e-01
5.957868797264732896e-02,8.367577539628978656e-02,-1.962965162622172799e-01,-4.872647097800686389e-02,-3.509754783444826026e-02,-3.112919273809872794e-02,2.931621372699737549e-01
-4.192232820541388905e-02,1.749419370671763119e-01,-4.534158693720846123e-01,1.065395222248928346e-02,-1.101684772668885676e-01,4.812285101928150816e-02,5.910114049911499023e-01
2.320265884054582839e-02,2.158867057194001349e-02,-2.614885405987909528e-01,3.860658321232176594e-03,-1.752515471703966835e-02,1.226876567009389102e-03,2.855920493602752686e-01
2.994096690602396360e-03,1.782937767267311902e-02,-1.654559939665944945e-01,-1.013221850148539587e-04,-4.644893031978020170e-02,-1.118628402036762545e-02,1.947882473468780518e-01
7.131758087957743020e-02,5.668198982256897334e-02,-4.436197575687280126e-01,1.403467361894747282e-03,3.719547413584798918e-03,1.471306194225845826e-03,5.078308582305908203e-01
1.740731742209409849e-01,-1.120080919366744920e-02,-5.776222290213430810e-01,-4.760836296934200379e-02,-1.162790847714549082e-02,-3.028940834518176715e-03,6.836194992065429688e-01
6.685275554492453587e-02,8.495333432587229283e-02,-4.412619321857707555e-01,1.852112005830474934e-03,1.546322836557507225e-03,-3.322062268364092859e-03,5.174513459205627441e-01
7.173626546306449692e-02,7.301702374595214762e-02,-4.387464593624484377e-01,1.872955633008373949e-03,1.071927772169201055e-03,4.931420668261122598e-04,5.111386775970458984e-01
4.932528473154978998e-02,7.335690483708690035e-02,-3.838181597965718006e-01,-3.502742389913344329e-03,-7.371862499002129624e-04,-1.761326645516833253e-02,4.467314779758453369e-01
5.868637634630829991e-02,5.932198382411812965e-02,-4.378400894289459777e-01,-7.378539189282204208e-04,1.057211655065732762e-04,6.288000856352447690e-05,4.968462586402893066e-01
1.748597170397014344e-01,-4.123232918283134540e-03,-4.986606179107656578e-01,4.790899886495592064e-02,2.666956437913532013e-02,-1.100120433905933948e-01,6.406586170196533203e-01
7.324941829396089399e-02,6.009334143746161705e-02,-4.344933282470562763e-01,1.019159962841542774e-03,2.308133540921869769e-03,3.980936068886288407e-04,5.013137459754943848e-01
1.031968580171588323e-01,2.503168749524706249e-02,-4.489424026050639616e-01,1.718446132364250358e-04,-2.184801053051230613e-03,-7.413514665154084110e-03,5.176763534545898438e-01
1.021937255406042688e-02,1.722232685734603752e-02,-2.323706722809300018e-01,-1.608465465010497071e-04,1.932173142514031702e-02,-5.944374878872221192e-04,2.484329789876937866e-01
1.127920852326259327e-01,-4.890668255653665697e-03,-4.494047905511189822e-01,3.836391537670744145e-02,2.696542305570330880e-02,-6.834722809567285451e-02,5.332583785057067871e-01
4.273684637838057188e-02,3.577135615989472661e-02,-3.128792876547985546e-01,-8.985733074417448854e-03,1.278982620765145139e-03,-3.186073502404991077e-03,3.525789380073547363e-01
1.475631280914344590e-01,6.838949525360363269e-02,-6.106588376920684125e-01,1.045515840116452710e-01,5.869590598179955793e-02,-1.104733305799943804e-01,7.751642465591430664e-01
3.817631029692611366e-03,1.025733419429792903e-01,-4.462598183854194489e-01,-1.478268020228514293e-02,-1.645299085746303744e-03,4.773901379222123421e-04,5.073800683021545410e-01
7.847490300651324691e-02,6.499744784158215105e-02,-4.466469600220607794e-01,6.926055001931664002e-04,-1.140876638074103406e-03,-9.024804964777513941e-03,5.187552571296691895e-01
8.683169561455308938e-02,3.694864655550919585e-02,-4.475043322019757186e-01,4.615226960991527724e-03,-8.376289725986682533e-04,-4.427484748863389462e-03,5.113450884819030762e-01
1.126771191974513531e-01,1.654067573710477079e-04,-4.517989451156461667e-01,-4.016253183968677108e-03,3.709071358778690767e-03,-1.778027289503314934e-03,5.175722837448120117e-01
9.748163953002050852e-02,1.318697915046179725e-02,-4.374035695546851232e-01,1.221388774050298671e-02,2.927059970578056378e-03,-2.879863470041192988e-02,5.010799765586853027e-01
9.700723618387438463e-02,5.463529626295579589e-02,-5.061207130600888782e-01,2.709652968847996168e-02,-1.033058235003855158e-02,-5.035456349616843075e-03,5.853220224380493164e-01
1.069682288717901941e-02,8.943946131494109886e-02,-2.542837940494688809e-01,5.830446758457753786e-02,1.393434853263966211e-01,-1.361853668878357411e-02,4.077804088592529297e-01
6.345367602401510987e-02,8.073447039793263391e-02,-4.478032355338202875e-01,3.243694771225719988e-04,1.545871990292932777e-02,-7.546878486558989199e-03,5.209656953811645508e-01
7.148323069796003182e-02,7.755738039996457056e-02,-4.471577019625632143e-01,2.434979142600846806e-03,-2.645171223261177321e-03,5.029188425672682407e-03,5.218144059181213379e-01
4.460517601312291580e-02,4.672864449290325961e-02,-3.363485040736796661e-01,-8.442895360976710936e-03,5.605224081418214849e-04,-2.440522793831016962e-04,3.823010921478271484e-01
2.103146760245813707e-02,1.001020291358587777e-01,-4.508432354237525419e-01,-7.369069591779880968e-03,-7.191894663372523470e-03,-5.031418733800461542e-03,5.163558125495910645e-01
1.020980829130100076e-01,1.913088198581464061e-02,-4.532790226124327471e-01,-5.926804832929286233e-03,5.978634603372887275e-03,7.036801818658624912e-03,5.192402005195617676e-01
7.408942699202158977e-02,6.781652395369008879e-02,-4.434408802247928327e-01,2.745405350935268716e-04,1.496827679056645169e-03,1.791988101454297221e-03,5.144386291503906250e-01
9.560775513560620942e-02,1.213718778481560900e-02,-4.416117615513674988e-01,6.467835021574653426e-03,7.676432796035811013e-04,4.841608399209784979e-04,5.008573532104492188e-01
1.760672264190910608e-01,9.690788419175261348e-02,-7.362006879956753957e-01,1.058480359096593548e-01,-2.431977386192914550e-02,5.391746816592437458e-02,9.002174735069274902e-01
1.096714681337208619e-01,1.575848452641659403e-02,-4.627953587499589183e-01,-1.030432835889844717e-02,3.708484772257460843e-03,-7.848042881240165428e-03,5.322785377502441406e-01
9.738017137729651496e-02,3.217808801429350440e-02,-4.481078653120552091e-01,-4.577611158452197203e-03,4.549031222847162853e-03,-8.906079371190280675e-03,5.163375139236450195e-01
1.861583343419063730e-01,-3.405314138150872250e-03,-5.506178094408060719e-01,6.503141626087872995e-02,4.692639787031818721e-02,-1.486676040769622231e-01,7.243667244911193848e-01
6.938579505204386932e-02,4.148449805192813700e-02,-4.428107675059235748e-01,-1.018469017405326457e-02,-4.030599344203526953e-03,-2.707208829474432293e-03,4.992141425609588623e-01
6.957416332725699371e-02,6.127866869151055162e-02,-3.895410466772075697e-01,-1.006556075611459398e-02,-3.644343497507718938e-02,-6.558989590151846627e-02,4.735413789749145508e-01
1.796534604555170833e-02,9.988662191753411301e-02,-4.260888011638518380e-01,8.936504747754791741e-03,-2.465938040986550076e-02,-2.598948510426338232e-02,4.943307340145111084e-01
8.865594832814274739e-02,4.684516354286111239e-02,-4.461683666219909972e-01,7.282832540443968808e-04,-2.935198697065293915e-03,2.016626036893342643e-03,5.152314305305480957e-01
3.255853142029244141e-02,8.076300065329664046e-02,-4.431969400599053976e-01,6.267586434218109723e-03,-1.577416825189357922e-03,-9.026468366229370563e-04,5.017252564430236816e-01
7.331467005656069902e-02,6.740147474802696270e-02,-4.459639545502686042e-01,-4.727092588951608469e-05,3.723206386880660492e-03,1.444204096767149562e-03,5.163937807083129883e-01
2.567914209291691230e-02,8.773261057630146742e-02,-4.458132868268536719e-01,1.279357056566579262e-02,2.662160997804116028e-03,-1.477026661003449882e-03,5.058975219726562500e-01
4.543745361406995031e-02,8.381728142148384131e-02,-4.467010699284890141e-01,2.109944327108080088e-03,4.366004688625848770e-03,2.081546119520211527e-03,5.124890804290771484e-01
5.041190647980081652e-02,7.729826939415324061e-02,-4.434993376131656784e-01,2.723852624071813021e-03,1.944529133649935699e-03,2.181558078049879602e-03,5.079355835914611816e-01
7.749820852358005330e-02,5.235630174866934272e-02,-4.461951618672463926e-01,2.842427771568608284e-03,-3.228431498653678167e-03,-3.427234225171054468e-03,5.116746425628662109e-01
9.048921690087088909e-02,4.735218968850735122e-03,-4.477872418977422719e-01,4.600571847583222879e-02,7.163815971296947412e-04,-5.027062635290684318e-03,5.073094367980957031e-01
5.225423353800953685e-03,1.134641256096337314e-02,-2.028176907862272449e-01,-1.284655193769364268e-03,-6.969048694612465242e-04,-1.487671125438876432e-02,2.127514779567718506e-01
1.008556812707299410e-02,1.104471023277066311e-02,-2.029211888552002463e-01,-3.256747073229240320e-03,4.718189033527858678e-03,-1.009619078139554864e-02,2.144329845905303955e-01
3.618003285144852366e-02,2.798327996198975154e-02,-2.752600725542010407e-01,7.118291570363097578e-03,-3.160926697635051130e-02,-1.409258752433158179e-02,3.134558498859405518e-01
3.563914234963665162e-02,3.757021397232529480e-02,-2.388302357968491996e-01,-2.135027423080289831e-03,-6.572036583269701138e-02,-4.006072599914843233e-04,2.980584502220153809e-01
1.557729046045078919e-02,2.029439651679870726e-03,-1.337124950374667109e-01,1.760985924552018606e-02,-5.217250059399707734e-02,3.242980042845753502e-02,1.808306872844696045e-01
3.502131983618300692e-02,9.061686456081943786e-02,-4.481700104475826452e-01,8.422802631720082128e-04,-8.322117711502504886e-03,-3.508226909607278961e-03,5.134927630424499512e-01
5.855652403718852872e-04,1.073346018286004677e-01,-4.480928434556665230e-01,-1.173611381101100082e-03,-4.681309882520398591e-03,-2.062219656657681040e-03,5.105744600296020508e-01
1.080106899359020989e-01,9.382261172035777363e-03,-4.515279657903259469e-01,-2.289795702215360797e-03,1.396677578337000934e-03,8.824934367761395546e-03,5.175711512565612793e-01
1.461904668367451643e-02,1.624932956940873530e-02,-2.185284548508832358e-01,1.504033241863606072e-04,1.371180100199322419e-02,1.871465625411163937e-03,2.351916879415512085e-01
7.748089498799348718e-03,6.414041005236320592e-03,-1.737024902222264466e-01,-2.803770626191665278e-04,-2.344321758312926593e-02,-8.518876133064108222e-03,1.858782768249511719e-01
2.179479604607688359e-03,2.593105123897097852e-02,-1.473323441636235631e-01,1.566478795035248020e-02,-3.151574238032556208e-02,4.211190658120069624e-02,1.884281933307647705e-01
7.107262478014103602e-02,7.445930318863078212e-02,-4.480404600043972896e-01,1.312628972887323366e-03,8.152885703977087251e-04,-9.381717812282324684e-06,5.208215713500976562e-01
1.081341582513371258e-01,2.398361848123531370e-03,-4.490919830563036008e-01,-1.248943059411434294e-03,1.778011988747348450e-03,3.896413943960422462e-03,5.126616954803466797e-01
6.430571616095859255e-02,6.486181084902331584e-02,-4.427427323145587401e-01,-2.301591366895807539e-03,-1.682683367193502739e-03,-1.110652314237168354e-03,5.073543787002563477e-01
8.533863316375578378e-02,6.410836974306557967e-02,-4.501462175554237777e-01,8.047836537986993114e-04,-3.001779053694487651e-03,-1.049857720983578616e-02,5.255339145660400391e-01
7.480625211403243990e-02,7.047408156539702873e-02,-4.451848626952877308e-01,1.383464583410684950e-05,-1.050339821823794957e-03,2.949358393847082566e-03,5.178670287132263184e-01
1.136487285974196459e-01,5.697186553787356167e-03,-4.527270912189057528e-01,2.212525144899646443e-03,5.448764513195538187e-03,-5.015470562862201463e-03,5.210309028625488281e-01
5.736526502955446860e-02,5.056938411752046059e-02,-3.637781002219091508e-01,1.016340062968966798e-02,-1.691240767674013698e-02,-9.405381083542135000e-05,4.191823899745941162e-01
1.012748488971452199e-01,3.677558859801866031e-02,-4.690242487527174209e-01,-6.928785932354393148e-03,4.510400968688229803e-03,5.993983285080244604e-03,5.412302613258361816e-01
1.023287913179956599e-01,6.045042385750265534e-03,-4.495999599387411894e-01,-1.293414573916583030e-02,-1.877029990595678512e-03,-1.593330571648916578e-03,5.111498832702636719e-01
2.540718746181510612e-01,2.163853456913475415e-02,-7.522400417498156244e-01,3.633985846840365186e-02,7.345145066684490368e-03,-3.059220626317009015e-02,9.163622260093688965e-01
8.531432107764308492e-02,4.886423971212527917e-02,-4.559278238569904329e-01,-2.160177652708123938e-02,1.593426572946230607e-03,1.602152727288382213e-03,5.253176093101501465e-01
1.583913695094285590e-01,-5.053102599476685941e-02,-4.616015213234735959e-01,-2.569849926479766955e-03,-2.727951530427720483e-02,-9.929986449629554790e-02,5.747547745704650879e-01
1.489450125784527734e-01,6.736244435376348427e-03,-4.639379605948736329e-01,-7.049185887950847051e-02,-5.011401930118146442e-02,-1.218417589164342840e-01,6.129186749458312988e-01
1.099286289277182915e-01,5.323428472790325827e-03,-4.838102620693504052e-01,6.171760855204484753e-02,-2.792370417435527732e-02,9.206649436067576575e-02,5.835709571838378906e-01
5.828420061122888129e-02,6.546904612055817752e-02,-4.411700683864991923e-01,-2.478475637592324372e-03,-9.046786617827545871e-04,3.089270432197805619e-03,5.031343698501586914e-01
1.392586038020776629e-02,1.163229884548734328e-01,-4.630991925768614959e-01,-5.941309433268427732e-03,-5.207840545039919486e-03,-4.729522556922628566e-03,5.358529686927795410e-01
8.610521113312999408e-02,3.132934582012461555e-02,-4.534985697146241557e-01,-3.054987232980635459e-02,1.077042445626478812e-04,-2.275533518116200273e-03,5.171371698379516602e-01
5.232540662159321232e-02,7.743856181139133210e-02,-4.471737087804931177e-01,-2.471901007491688132e-03,-3.783095356279862157e-03,3.502443880064774143e-03,5.126129984855651855e-01
1.123182262295611689e-01,9.526733386620606092e-03,-4.513946407644029435e-01,2.792140849736458527e-03,6.986466418523624815e-03,1.014733380905223116e-02,5.204537510871887207e-01
1.039281420423273095e-01,1.328702643200208033e-02,-4.524301071884637704e-01,2.276074342119825851e-03,2.373772910831553531e-03,-2.474107264930125710e-03,5.170804262161254883e-01
7.620804375171499889e-02,6.646202738324261117e-02,-4.476849019305965127e-01,1.505659870172990208e-04,1.428516857145954375e-03,1.030603165763164207e-02,5.194013714790344238e-01
8.283025299373986128e-02,5.847008603746023381e-02,-4.493536319323863659e-01,4.040992838330915299e-03,-3.191023637334952363e-04,3.499713297623057058e-03,5.205142498016357422e-01
9.011072690981244970e-02,3.769034177470795277e-02,-4.747666423311002193e-01,-3.079818811016094698e-02,1.563685271940681550e-03,-1.559223616815159051e-03,5.432158708572387695e-01
8.406544488428080442e-02,5.972651365204340035e-02,-4.510639165385895710e-01,-6.171937313231538533e-03,-2.166601215975456907e-03,1.528472669063306658e-02,5.241760611534118652e-01
8.801707010119030894e-02,4.659633386489339668e-02,-4.553588853726718289e-01,-4.307704290650803125e-02,-3.010159736692798009e-03,3.133105656497406528e-03,5.292349457740783691e-01
6.174106642249987953e-02,7.793807304891794963e-02,-4.469995971413180946e-01,4.292878288983757035e-04,-7.953628412554508698e-03,-2.881210639425107849e-03,5.172376036643981934e-01
4.274942610289450551e-02,8.328076832721675871e-02,-3.921831259424286564e-01,-5.513106750130918575e-03,-5.023168701210755510e-02,-1.020569264370022912e-02,4.651997685432434082e-01
7.495044469968939471e-02,8.939305962636093228e-02,-4.645625901679514835e-01,2.711580822784383227e-02,-8.719518242866787505e-02,6.435511208078452394e-02,5.800986289978027344e-01
5.856355538266658223e-02,1.355417636221853961e-01,-6.395107569048297247e-01,-9.108863152370023919e-02,-8.561810249446523413e-02,-2.985553689582476009e-02,7.723514437675476074e-01
9.309321936678949250e-02,3.023380636791725418e-02,-4.510978864633726770e-01,-2.429433767769015318e-02,9.663162715250186649e-03,1.069661509429042229e-02,5.179592370986938477e-01
1.189800108745635021e-01,1.515393789998202567e-02,-3.135394587063400906e-01,-4.434083957642079299e-02,-6.520725007352799751e-02,-1.117550287169590678e-01,4.572395384311676025e-01
1.045304409220483288e-01,1.799150378298133846e-02,-4.560240073443824205e-01,-1.763737486971511323e-02,1.793559753938462351e-03,-2.733210512681858578e-03,5.236084461212158203e-01
7.493357943990516801e-02,7.336661857333415249e-02,-4.473821595599621337e-01,5.878205506196324285e-04,-6.143297790962010119e-04,-4.939274391696519412e-03,5.216062664985656738e-01
1.287950789981896493e-01,2.523944557518892351e-03,-4.874968630617982912e-01,1.513284180130758383e-02,1.232495038555484444e-02,8.197587815519050830e-03,5.650527477264404297e-01
5.927274140486218923e-02,5.832399166863597162e-02,-4.381673344189870867e-01,-6.783715229441274197e-03,-3.428366820491008136e-05,-9.842998306695394768e-05,4.971053004264831543e-01
2.058669909608162873e-02,5.096416847011425721e-02,-2.953282236292031904e-01,-5.253846765514808698e-02,-4.109906566849165499e-02,-6.932582442708062898e-02,3.716022074222564697e-01
6.613604177639587078e-02,4.031992631148720307e-02,-3.681228478951372729e-01,2.519277873692301554e-03,-1.563663489563454738e-03,3.278375142936445271e-03,4.220130145549774170e-01
1.857382833235394215e-01,-5.811025787078955007e-03,-5.937213694047641654e-01,5.438036100991455735e-02,9.780015747152885977e-03,-5.731357729421857061e-02,7.169077396392822266e-01
1.131105825772510398e-01,-1.472088988116876385e-03,-4.565249448794304055e-01,2.402707870969373032e-03,1.302365201347891041e-03,-5.591821753408788773e-03,5.219767093658447266e-01
6.534904875191926976e-02,5.223607730463983301e-02,-4.392558420751418446e-01,-1.933425674965874586e-02,6.567121601618044428e-04,-7.195643251139314199e-05,4.993034303188323975e-01
4.987076879407106866e-02,6.488363673238020657e-02,-3.719351188591566437e-01,1.014190813595887419e-02,1.068939253609377943e-03,2.195526559912968148e-03,4.298890233039855957e-01
8.684613052405440459e-02,6.634650549147116938e-02,-4.608242445576162805e-01,2.789402621132722367e-03,1.384178213146817354e-02,-5.189664989968990894e-02,5.457233190536499023e-01
8.210710051782563190e-02,5.377064123932911999e-02,-4.590062738268750886e-01,-1.129091133029631357e-02,9.836316560920746813e-03,6.808995118620096362e-03,5.282851457595825195e-01
6.777641244785245767e-02,5.373915292133618626e-02,-3.874209436597659817e-01,9.056560472618302091e-03,-2.394916928063296811e-04,6.528536095866377918e-04,4.486195147037506104e-01
7.276367190741611646e-02,6.921888135480447346e-02,-4.462525543596569388e-01,-1.154400293600189116e-04,1.503473287439190250e-03,-1.237971257778583889e-03,5.172640085220336914e-01
6.563834923159980739e-02,6.564371900603105381e-02,-4.426370695737333327e-01,-3.167580542600506002e-04,1.478712479774848838e-03,1.940020991143956170e-03,5.082959532737731934e-01
1.092092680723372733e-01,-1.821373634595280233e-03,-4.629290066321582464e-01,2.348154491427885057e-02,-5.783291881411071166e-03,7.197424473394798197e-03,5.273092389106750488e-01
1.449804233768030026e-01,-3.600571828337181812e-02,-4.727575811040283238e-01,3.759000917492343052e-02,3.513699799690055831e-02,-5.196281430749500468e-02,5.644443631172180176e-01
1.377773738296827477e-01,-1.555474187867739166e-02,-4.228271076244868865e-01,-1.903527218391047604e-02,3.191118091004626484e-02,-9.142383320896088628e-02,5.301380753517150879e-01
1.689136761953788368e-01,-1.490439777842884894e-02,-5.325454197086387786e-01,-5.664535054006218174e-04,-1.291297516246874173e-02,-1.434398367128074218e-02,6.308815479278564453e-01
2.763285801174635292e-01,-3.611809354008313488e-02,-6.865539302533955057e-01,-5.939051102914789937e-02,-5.628565307814705626e-02,-1.925908530235833638e-01,9.248112440109252930e-01
1.282390141253451632e-01,9.238404282934709055e-03,-3.010950553104296823e-01,-2.834946408239927274e-02,-1.227439138356599489e-03,-1.131916716163864217e-01,4.338784813880920410e-01
2.536634864680976098e-01,1.836303020983848233e-02,-8.179754873756936995e-01,-4.961708057383357184e-03,3.169769977577258091e-02,3.796233540363834480e-02,9.793011546134948730e-01
1.671177393560256408e-01,-2.835075535006545411e-02,-5.538050999158210530e-01,5.173646229499902216e-02,-1.699630358278950842e-02,6.789060384141687443e-02,6.631319522857666016e-01
7.749576911079231190e-02,6.980108483272787212e-02,-4.607399854889981938e-01,-5.449502521256427943e-03,5.685579232432348175e-03,-3.793306952710743390e-03,5.346443653106689453e-01
2.065460387330017022e-01,-4.847655344776249930e-02,-5.136686081102319612e-01,2.623542080548686012e-02,-3.737902473437595963e-02,3.969907943421817353e-02,6.411389708518981934e-01
5.139711609384270408e-02,1.605401413685542678e-01,-5.879721187663282667e-01,1.019725897166430806e-01,1.134721023412494090e-01,-4.829832313734292587e-02,7.531992197036743164e-01
1.268632660378296584e-02,1.072678332726098860e-01,-4.721862664454106739e-01,2.891600227447231608e-02,1.516465941978950571e-02,-3.386166640346031324e-03,5.414238572120666504e-01
7.405364645572559690e-02,6.626934359808542285e-02,-4.464050432638455024e-01,2.929713885688532519e-04,-2.952941906216989196e-03,-4.268924791985744677e-03,5.166890025138854980e-01
5.791866105047188684e-02,7.272187820926981350e-02,-4.026389103284090387e-01,-8.816361875649981333e-03,-1.142184760996501573e-03,-1.155438973891911338e-02,4.688152670860290527e-01
7.001500307614760832e-02,7.255163227069894027e-02,-4.457295218838899231e-01,-8.343433825504622051e-05,-2.178169943344145185e-03,1.825832919581986185e-03,5.170409679412841797e-01
5.929265954512713543e-02,7.037001852927460277e-02,-4.420112551230139797e-01,1.660839845375968338e-03,3.487265669944324652e-04,9.622204718253357051e-04,5.069446563720703125e-01
6.757252099171706661e-02,7.169176532336282714e-02,-4.176093267980220403e-01,-9.984541756038696481e-03,-1.700380913465996237e-03,2.331121764002091860e-03,4.875869452953338623e-01
7.198500960459847109e-02,7.594135969758913918e-02,-4.440370476684445955e-01,-8.944264328284263436e-04,-1.711318834986534860e-03,-1.441486616104608589e-03,5.180283784866333008e-01
1.164776199329672912e-01,-6.434172908561269777e-03,-4.626545410783747814e-01,2.298406480549346903e-02,-4.296687602861904050e-03,8.770790391042528750e-03,5.302736759185791016e-01
1.173728801462310956e-01,-3.045949693991495399e-03,-4.570522679197026039e-01,1.465887280307966211e-03,1.679035171624190066e-03,-5.212384700108439566e-03,5.247759222984313965e-01
-1.849912202291888186e-02,4.747118577147274587e-02,-2.808962234699979854e-01,6.051430543739465262e-02,1.169887900526354052e-01,-4.758117898568840765e-02,3.864605128765106201e-01
8.107743354063629004e-02,6.218733582685131989e-02,-4.207967033353509079e-01,-4.811176466528449894e-03,-1.015325249555342401e-03,5.916585248553783488e-04,4.927754104137420654e-01
8.992723690620013643e-02,7.965760975568580982e-02,-4.840515924342336240e-01,9.261255626850947720e-02,8.530634329488853695e-02,-1.054967550936342507e-01,6.360928416252136230e-01
6.217089678283818643e-02,6.149353633913620665e-02,-4.410464803454995364e-01,-9.133407771883955695e-04,-3.569128132706719716e-04,2.746286296131353073e-03,5.029044151306152344e-01
1.628577292844611835e-01,-2.888387068372075955e-02,-3.952807622480827288e-01,-2.745261098533474664e-02,1.695790414585046299e-02,1.682620247801658586e-01,5.738684535026550293e-01
7.661520840940785892e-02,4.265774818218864839e-02,-4.106966531246764585e-01,1.190856513855141283e-02,4.704091470925384280e-03,-2.656583431737221529e-02,4.740117490291595459e-01
6.156181436874177959e-02,6.042861738060237298e-02,-4.598188278501633142e-01,3.713459716951850176e-02,1.824061113610335808e-02,-1.839176324739827395e-02,5.266859531402587891e-01
2.156613656428132964e-02,9.839030652618713235e-02,-4.485923309121497282e-01,2.816977466521815993e-02,-6.450343165597643980e-03,-2.728530228353910278e-03,5.153622627258300781e-01
7.463225069397433353e-02,7.417658895943907149e-02,-4.478020595000077875e-01,-8.185100610117513643e-04,3.828689559459716538e-04,8.521058427720518266e-04,5.222110748291015625e-01
7.597062897518647162e-02,6.881006949402176942e-02,-4.443502652050075330e-01,4.527742765962576967e-04,3.479193574326220478e-03,-5.673768843873871863e-04,5.168144702911376953e-01
1.448617492285287911e-01,-1.423993824269102759e-02,-4.664215966402488478e-01,2.338018434453528749e-02,-4.598926073613331285e-03,1.023415881040619889e-02,5.511279702186584473e-01
1.126244996217953265e-01,1.453553381955330348e-02,-4.596621296680378221e-01,2.151786695947350246e-03,9.313761833873875594e-04,-9.838592302636990292e-03,5.303822159767150879e-01
5.036451352082160771e-02,6.206446309938629113e-02,-5.116631281787755725e-01,1.048491284588890793e-01,9.276351948178780671e-02,-8.596435729360492328e-02,6.352578401565551758e-01
1.303227358883278231e-01,-2.099642396810116884e-02,-4.512070582124838580e-01,-3.651695344954275502e-02,-1.232487073905907254e-02,5.314871490511159646e-02,5.347974300384521484e-01
2.822536634942882094e-02,9.349920527000699089e-02,-5.028180138981342973e-01,1.001622567988981471e-01,3.856641637054560728e-02,-4.931810154067927526e-02,6.023182868957519531e-01
5.055754634074974274e-02,8.876116609459919204e-02,-4.598280055833923186e-01,-5.645571765498880699e-03,-6.289782749053922893e-03,-7.881367656354954995e-03,5.308974981307983398e-01
1.691517808031970937e-01,-1.936630330671890166e-02,-4.221524486244931929e-01,1.444052549323079915e-02,-1.807454637660617022e-02,-1.386929831021523618e-01,5.770798325538635254e-01
6.603225109263435866e-02,6.269490779912290090e-02,-3.944614880201836593e-01,-1.095035425803250924e-02,-1.352127295173922040e-03,-1.271581712084713343e-02,4.597598016262054443e-01
5.099897026444122350e-02,1.924524841082304039e-01,-7.283735208118751192e-01,7.227057449374885145e-02,2.052056815589938920e-04,-6.499313795149216921e-02,8.752240538597106934e-01
9.178363748677248468e-02,4.465905124914959501e-02,-4.518835102875611853e-01,4.602770655252105131e-03,-1.742688896814333132e-03,8.364975773442733659e-03,5.219743251800537109e-01
9.142326712406689815e-02,1.207141514225413270e-01,-6.687761417815061282e-01,1.205291085340391422e-01,-5.378283505618024207e-02,-1.749114352923709231e-02,8.088296651840209961e-01
6.616733143036390707e-02,1.979858633001386203e-01,-7.244557326960961996e-01,1.128951463028929625e-01,5.004181882048371055e-02,-9.261525443239642524e-03,8.903288841247558594e-01
2.996266908561284747e-02,5.262798830409717854e-02,-4.168722015935239500e-01,7.235884357346691886e-02,5.200408651133325844e-02,-3.489839510303600206e-02,4.876239895820617676e-01
8.204565669134195049e-02,3.840014607118275025e-02,-2.467223458255608237e-01,6.154624752171351798e-02,-6.161963004065790228e-02,8.445912268379827947e-02,3.738968670368194580e-01
1.778268560290183764e-01,-1.988019571492592730e-02,-4.425186666658865176e-01,1.089896116846770027e-02,-2.693057381089185645e-02,1.626324631648724817e-01,6.189911365509033203e-01
8.050260453341162581e-02,7.125838890229110878e-02,-4.407104350326332409e-01,-1.824409943359534946e-03,5.455138546220286884e-03,-1.015237618623418114e-03,5.167520046234130859e-01
6.806514219187931314e-02,6.637305914216942715e-02,-4.447052913124852624e-01,6.776404873011102406e-03,-1.919891946728693663e-03,-1.095257314631458128e-03,5.120753049850463867e-01
1.960352274910074910e-01,-4.645948603090852003e-02,-5.023317523629315939e-01,5.141363599306486565e-02,2.007104523054322950e-02,-1.727210136100729067e-03,6.215443611145019531e-01
5.429549641564174189e-02,6.748048863078182080e-02,-4.406136484231999439e-01,1.571105854660330078e-03,-2.569867121221519786e-03,3.165553856699828035e-03,5.016887187957763672e-01
3.471683017303947572e-02,7.996721706122689177e-02,-4.452707476364310413e-01,5.746706176228668674e-03,-1.474554559718876598e-03,-1.826636299882868075e-03,5.042527914047241211e-01
2.830612232744147971e-02,2.627344788965162992e-01,-7.686771461205431644e-01,4.516692924360245220e-02,3.130521334932347133e-02,2.864612035235486074e-04,9.412942528724670410e-01
6.565029589236309748e-02,4.002015830310803879e-02,-4.609997825725696274e-01,8.079990112442533845e-02,-8.181392191600113384e-02,5.042268829293482940e-02,5.584020614624023438e-01
8.875541947022846934e-02,1.487397725368782564e-01,-7.368336933795721633e-01,1.081703746915628483e-01,5.340817483569679919e-02,-5.119721805182113339e-02,8.867024183273315430e-01
2.058927091675469279e-02,1.174169890653350701e-01,-4.653155776797700538e-01,-1.305696697796320666e-02,1.546506968275368835e-02,-2.760423472764360342e-03,5.420147776603698730e-01
1.192228904179445381e-01,8.032524593733519902e-03,-4.919552820073088695e-01,1.869319318875352701e-02,4.935886065687506222e-03,-1.388217792340014356e-02,5.653710961341857910e-01
8.174500186809224855e-02,5.088240586575697860e-02,-1.234007046531920559e-01,-5.698379570152656585e-04,-1.537308206936596061e-02,-6.464013854517437763e-02,2.234970778226852417e-01
7.288303006636434600e-02,5.137097415263379430e-02,-1.823183339114344548e-01,-2.674627711700489768e-02,-5.122502572922455616e-02,-4.849164103417635124e-02,2.778003215789794922e-01
5.714387095525438887e-02,6.606509106862827607e-02,-1.735782749471955766e-01,2.397633292128290711e-02,6.118082252751623484e-02,-2.438027451677053647e-02,2.647785544395446777e-01
4.182983980793300582e-02,6.671489213201800550e-02,-3.682075211222462507e-01,2.283533305412306907e-03,1.422408992196925320e-03,-7.081493260018109810e-04,4.230566322803497314e-01
4.171149976148094685e-02,4.527086591847577501e-02,-2.362616660567546378e-01,1.918044182305204265e-02,-3.732839160914823429e-02,1.767399570023666516e-02,2.906753718852996826e-01
1.085097844748693086e-01,1.956491150535792367e-01,-7.959250990147545002e-01,1.176079236062496924e-01,-4.544138415661304331e-02,1.426697602227018635e-02,9.760675430297851562e-01
3.891644011189469149e-03,-8.044773144349166155e-03,-3.631769709036877791e-02,9.105272963042703935e-03,-2.678850509269466162e-02,1.449584686379697465e-02,6.566043198108673096e-02
1.322289819398488053e-02,1.124579365538038167e-01,-2.879279748623552182e-01,1.267264276059355994e-02,-9.896223955453224697e-02,3.029742806822883008e-03,4.003923833370208740e-01
6.063013169596950802e-02,7.007578961137436724e-02,-4.264616399890747700e-01,7.693120903398453824e-04,-8.488265141385602924e-03,5.686983148726776176e-03,4.922026693820953369e-01
2.482453291390766814e-02,3.499848784431454363e-02,-2.849089384104338540e-01,-6.413072885147164462e-03,-1.804367596509233104e-02,3.244790138832483184e-02,3.216337263584136963e-01
3.952328555141000621e-02,2.074826702910262388e-02,-2.920371525464464102e-01,-6.121887354144409446e-03,-9.533724602689603884e-04,-8.132846266494643626e-04,3.227644860744476318e-01
2.804212787342451330e-02,3.688515098035477502e-02,-2.561939048549277120e-01,-1.995670106508026093e-03,-1.186050644283258293e-02,4.094619419491391660e-02,2.980697154998779297e-01
4.145688307494857505e-02,4.297952247471675813e-02,-3.436384018949316110e-01,-1.178341500514502004e-02,1.521864584439077805e-03,4.744562007007838839e-02,3.950491249561309814e-01
5.939729159729750796e-02,8.592586437947821731e-02,-3.649180271911550144e-01,-8.763713612968418443e-02,-1.021221713589572644e-01,-6.251153301234427251e-02,5.079905986785888672e-01
8.517677850439983600e-03,1.026741892669804923e-01,-2.691148239959741950e-01,-5.870260672811856983e-02,-1.104520957366073308e-01,-7.665325850337745273e-02,4.202978909015655518e-01
5.055119877237482240e-02,6.632452587211495887e-02,-4.381477222821294482e-01,-3.808013220885813829e-03,2.636391222465816466e-04,-1.747381316143554152e-03,4.968266487121582031e-01
1.520743974403181153e-02,1.672220271081310827e-02,-2.323276532584255538e-01,-4.269024166232820430e-04,-1.772922356099826402e-02,2.643268173546928571e-02,2.543431818485260010e-01
1.528797538727755256e-02,2.258696530448550677e-02,-2.359350312765244317e-01,-2.502809927764903467e-03,-1.483106904490859648e-02,1.708580850445075988e-02,2.579813897609710693e-01
1.875589659276680199e-02,1.048368523391604856e-01,-4.666347687214443263e-01,-1.646206294079525373e-02,1.166966898152455370e-02,7.670913350577625647e-03,5.349719524383544922e-01
8.370240833008887882e-02,4.893337669534157663e-02,-3.018655043671694127e-01,-5.193201305504944326e-02,-6.931952871618378420e-02,-6.972425203495130619e-02,4.166011214256286621e-01
1.230950510375258822e-02,2.683170157499712438e-01,-7.587200698940097521e-01,-3.953101433570396783e-02,-4.176106149226848502e-02,-2.279495871212574437e-02,9.321452379226684570e-01
4.503537957843123385e-02,4.834226739285357732e-02,-3.434769900265257636e-01,-9.116525197551244783e-03,-5.313541285794332015e-05,-3.870083570375279389e-05,3.904957175254821777e-01
5.614742623840540681e-03,1.017554692580792397e-02,-2.083090451987596736e-01,-1.799656352847696979e-03,-6.484009957638286374e-04,8.157892378592818908e-04,2.162702679634094238e-01
8.573807317477576129e-02,-1.408982517385950171e-02,-1.095397228036391890e-01,-6.065785456974482313e-03,4.916056974192806184e-02,-2.006173348539260284e-02,1.928028613328933716e-01
2.893354789483061629e-02,2.829472712135140677e-02,-2.636958868990697535e-01,-9.034187995745800864e-03,-1.457309265826872528e-02,2.556165649957588271e-02,2.971323430538177490e-01
2.765160172232510039e-02,3.723788274495308526e-02,-2.450453258998719908e-01,-9.427337904417383910e-03,-5.568140860018991334e-02,5.415797930096331522e-03,2.944920063018798828e-01
4.023108047779982988e-02,2.594272718071422013e-02,-2.983825933815059672e-01,1.814506039733258802e-03,1.145784811521239482e-03,2.038149978069879811e-03,3.317399919033050537e-01
1.581837206491927550e-02,2.020849846023675678e-02,-2.196940146196637023e-01,3.463929376568730331e-03,1.154984750633386743e-02,-1.887448617449245282e-03,2.386758625507354736e-01
1.219613231316518664e-02,1.322106385319163913e-01,-5.413125630751257633e-01,7.722801974007258152e-02,1.294643005155550301e-03,3.264697729456737633e-03,6.365013122558593750e-01
4.427355806296548457e-02,4.470648452289699426e-02,-3.385627401744986664e-01,7.932118333906761770e-03,9.534125478686430294e-05,-1.562274977776895580e-04,3.832993805408477783e-01
1.427491332220695575e-01,4.758007086723109458e-03,-5.098724124399445223e-01,-2.426285959570473241e-03,-6.434190092380832372e-03,-1.056866949611199105e-02,5.961353778839111328e-01
4.088725010714986535e-02,8.714733778790989538e-02,-1.743122940328794557e-01,-8.689871975933207565e-03,-5.260963739548769891e-02,1.043896377824181897e-02,2.593506574630737305e-01
1.081186468286984281e-01,-4.985985007385992929e-03,-4.519854770505409847e-01,-2.627787400418953034e-02,4.621162699144965719e-03,4.161357240725606192e-03,5.151179432868957520e-01
1.290181607930478980e-01,-1.524025446753045354e-02,-4.686013802409580986e-01,-2.102170932522866211e-03,-5.544819023818609721e-03,1.094248669925605190e-02,5.405669808387756348e-01
1.145474646249357020e-01,4.838082510548291637e-03,-4.525506646079899831e-01,4.449421961572476436e-03,5.902890666886845272e-03,7.976861450622863697e-03,5.213207006454467773e-01
2.537171715130377703e-02,2.596919944321725293e-02,-2.651419039365926489e-01,-5.149905402951196476e-03,-2.686214625618678700e-02,2.103109996564805559e-02,2.968893945217132568e-01
5.634843437056155646e-03,5.411404822380255775e-03,-1.780797726489549149e-01,7.481953937200671841e-04,-1.721414094411046619e-02,7.067638518645350844e-03,1.864150613546371460e-01
1.905297197858966951e-02,2.676927673018689169e-02,-2.640667442718193092e-01,-4.158916228192022918e-04,-1.188754350535634052e-02,2.050722963984045327e-02,2.899776697158813477e-01
1.646052145823098667e-02,1.017436874469526686e-02,-1.886176414746747187e-01,-6.252849993974756229e-03,-3.584043713095244610e-02,-1.469146344809953847e-02,2.131333798170089722e-01
-1.630654732262221129e-02,1.339994736462936653e-01,-4.757226298131218001e-01,6.648034263660265730e-02,5.992344147455624243e-02,-6.621334057168182241e-02,5.830025672912597656e-01
3.146090665280548704e-02,8.898948440357390410e-02,-4.519854882368608551e-01,-2.337073173986587912e-02,2.225483934848631554e-03,-2.408229199069639691e-03,5.162487626075744629e-01
3.080664623277737380e-02,2.490302013967259087e-02,-2.322770809569179584e-01,4.801409867293240236e-03,-5.035326964967005992e-02,-2.437780916795427230e-02,2.777644693851470947e-01
3.413196303182043645e-02,2.872665273088773064e-02,-2.913642539995811021e-01,-7.269636545215863235e-03,-4.029186350530191557e-02,8.991253393394961838e-03,3.308911621570587158e-01
5.226054532550448994e-03,3.966920272510464363e-03,-1.602677461928589953e-01,-1.921714078690618839e-03,-9.130313412813815394e-03,2.113249560273177188e-02,1.696535199880599976e-01
3.318506530461874660e-03,1.063747512135930495e-02,-1.679505739372635365e-01,-1.293381072307276075e-04,-2.055320832992969110e-02,1.161337895923361153e-02,1.797557920217514038e-01
7.810365606436561747e-02,7.153403300823668598e-02,-4.394960624673670546e-01,-3.100718680721432918e-03,-2.710491172739449249e-03,1.143154920798144288e-03,5.143996477127075195e-01
2.856509487242528400e-02,2.139456275964975174e-02,-2.453340122220354080e-01,1.388710489859389628e-03,1.920238227878037426e-02,2.863643970990218182e-02,2.769120037555694580e-01
4.480622598256246703e-02,8.488083181214008122e-02,-1.764661563787732479e-01,-3.449625397488575995e-02,-4.808728607366362373e-02,-5.797983602958653448e-02,2.828903794288635254e-01
5.402456506003602832e-02,4.287829434100484671e-02,-3.295446298608948887e-01,-1.034061948123243466e-02,2.788095112520653021e-02,-1.428851593958592632e-02,3.824127614498138428e-01
6.054434667382826984e-03,1.042269019528994922e-02,-2.107408998357971908e-01,-7.876582603697428013e-04,-3.697873802204871500e-04,-4.226220058489548424e-03,2.191396206617355347e-01
6.890816291241486091e-02,5.155221907659418568e-02,-4.468712826787951675e-01,7.675802056380003069e-02,-5.445213071553729051e-03,5.054389402194055247e-02,5.317952632904052734e-01
1.418427737773179931e-02,2.314485721285622355e-02,-2.167858725843510304e-01,-8.277795147865319933e-03,3.165473948475561183e-02,-1.792040390227526286e-02,2.442789077758789062e-01
2.273465510179935312e-02,2.156415013083587406e-02,-2.640482626992254334e-01,-1.662790027655271230e-03,-1.530258682934615769e-02,1.701907828025064212e-02,2.889461517333984375e-01
1.439461833625955978e-02,1.786186932260031002e-02,-2.384983148381847884e-01,-2.359744836166225226e-03,1.449223861825847095e-04,1.710369169580932408e-02,2.563943862915039062e-01
5.116184844743168481e-02,5.936639322305534150e-02,-3.746446880283485492e-01,-1.449857727610909600e-02,1.928293485815240488e-02,-1.611880836930944250e-02,4.328944981098175049e-01
1.994373001719806915e-02,1.830181310859911592e-02,-2.426757617677652579e-01,3.033360207445522701e-03,1.014074984145773954e-02,1.904724420952667516e-02,2.645089626312255859e-01
1.353288037436402302e-02,1.061857008723764151e-02,-2.020173545785684532e-01,5.237871398852261828e-03,2.061774869836695626e-02,-2.480271663952771273e-03,2.172976136207580566e-01
7.626334390045105827e-03,5.907101169120743123e-03,-1.835753875966030235e-01,1.783156426709576678e-03,1.470142426365829251e-02,3.690919845628249686e-03,1.921747624874114990e-01
3.590755582291080272e-02,1.029592507609777829e-01,-4.353455697840306615e-01,9.560793478497255429e-03,3.136037659731269467e-02,2.227862400537888865e-02,5.127254724502563477e-01
7.504890975522238161e-02,7.339447823669639770e-02,-4.476779338252633855e-01,-1.053751388029067985e-03,2.186153801766139299e-03,2.128504509417990351e-04,5.219186544418334961e-01
3.574471393730796476e-02,7.418875726711002261e-02,-3.913914567884430595e-01,3.863524125297808712e-03,4.695107174004918560e-02,-9.578919674334581205e-03,4.552772343158721924e-01
8.070879996151092417e-02,5.198189220572743685e-02,-4.130603036098174363e-01,-5.119809197294607097e-05,1.118648822774235760e-02,1.817883175681691155e-03,4.804519116878509521e-01
4.983904311167472456e-02,3.049967184057231218e-02,-3.094122233556106383e-01,7.685229543216193400e-04,2.895055121173366677e-02,1.242268979631403793e-02,3.542131185531616211e-01
6.938428542789773501e-02,4.311725093256893460e-02,-3.647493563620221035e-01,-5.173914749939949494e-04,4.154475489808037020e-02,7.644674289482475057e-03,4.279165863990783691e-01
6.341996894953863539e-02,2.007407512612149891e-02,-3.723657550113525505e-01,-6.636609244447221057e-02,-8.266949170603804520e-02,-6.911018641108859772e-02,4.700460731983184814e-01
7.993116848466347291e-02,5.146185594355665027e-02,-4.427319282463274552e-01,-9.838158177578042174e-03,2.221493184580133461e-03,9.416611469134245418e-03,5.095866322517395020e-01
7.738907230999386710e-02,5.855035149620041457e-02,-4.072689918079853699e-01,-4.246993522171262948e-04,3.072794541026056120e-02,4.544874348452372821e-03,4.785531461238861084e-01
5.181544409618552005e-02,3.805552116655562533e-02,-3.262641159082527720e-01,-3.337767534854057909e-03,2.074889308104137936e-02,-2.244228783367741790e-03,3.731906116008758545e-01
7.288965449021286847e-02,4.539679661848033954e-02,-3.782926929802387650e-01,-1.033651775224412889e-03,1.532846237413423851e-02,-5.571317130848580778e-04,4.388918876647949219e-01
8.729327780282158944e-02,3.739866608247958968e-02,-2.817651343068117709e-01,-6.166911084176653068e-02,6.887189335929411182e-02,8.214563406527278233e-02,4.076303839683532715e-01
8.170471839915671719e-02,6.969540070488980388e-02,-4.583936510701939748e-01,6.064846840110198027e-03,2.696425452746193524e-03,1.459120410907499901e-02,5.349159836769104004e-01
1.410047531188405312e-01,-3.845925016207792091e-02,-4.723723977772840699e-01,9.696479297898477623e-03,3.876563920192843335e-03,1.022629028114537403e-01,5.745084881782531738e-01
8.872477415647335441e-02,-1.407202028902845674e-02,-8.386544383157465421e-02,4.009690216614161286e-03,-2.857528911633294699e-03,5.077909089360434225e-03,1.508738845586776733e-01
4.832567401910617400e-02,3.507194206241071033e-02,-3.099379204568718515e-01,6.897150417019510399e-03,5.874436533773449293e-02,1.113152241971280057e-02,3.669431507587432861e-01
8.066798739989364253e-02,4.446951510465144142e-02,-4.544652884683942906e-01,-3.074549005025755538e-02,-7.799057566645513362e-03,4.733579806694386549e-03,5.209534764289855957e-01
-7.584467077915676633e-03,6.572933240564511614e-02,-4.203407041716682863e-02,8.467207150233212187e-03,7.102785469277578083e-03,-3.212497446734689788e-02,1.120258495211601257e-01
1.235419822346175422e-01,-2.166167031166763707e-02,-3.162559754642284005e-01,-6.064850345935733633e-02,5.340236359097630392e-02,7.932694367971306060e-02,4.348730146884918213e-01
8.394995865392639034e-02,6.202214528198601862e-02,-1.280117680355950804e-01,3.877387912391659988e-03,-3.599326043386431081e-03,5.140059439489982201e-02,2.208410650491714478e-01
3.846523863041140245e-02,1.148985486708140047e-02,-3.064626255755963369e-01,-5.432711919943185308e-02,6.037654323621002156e-02,7.439060096883906570e-02,3.831325173377990723e-01
7.446630660112263378e-02,5.886231283849066576e-02,-3.409950043803425812e-01,-7.825321829915576899e-02,7.457394121575043611e-02,9.845532316677906015e-02,4.801079034805297852e-01
2.026711565071059873e-01,1.677191992941609588e-02,-7.016475796026592215e-01,4.471322779077901294e-02,4.217347871124715181e-02,7.461848838236158354e-02,8.439645171165466309e-01
6.900667071208985148e-02,-3.175700646344563338e-02,-2.803571612811690539e-01,-2.659432064589625083e-02,2.657656060935250503e-02,8.631130634455477790e-02,3.515605926513671875e-01
5.278030503290295772e-02,6.769809765448220329e-02,-3.875179304571653716e-01,9.198541218946594544e-03,-2.207223870806283329e-03,-9.939063085838779812e-04,4.482463300228118896e-01
1.200712617133174176e-01,1.378091881942783425e-02,-4.607742615159602928e-01,-2.130326561556731418e-02,-6.545692689688106629e-03,3.685482341749349213e-03,5.370956063270568848e-01
7.882126079146509201e-02,5.610954334926976372e-02,-4.261070896408155617e-01,4.093042625004327667e-03,-4.218832502727606557e-03,1.539113858108017222e-02,4.947878122329711914e-01
3.826479151202295814e-02,7.881749586206006353e-02,-1.552558415003501002e-01,-2.899190888228369428e-02,7.400922128945855438e-02,9.622999484145395785e-03,2.572431564331054688e-01
1.152449377394359209e-01,-2.323882674515106994e-02,-4.185326454882037361e-01,9.361125699666628108e-03,1.723126724498989792e-02,5.555648542891653691e-02,4.904996752738952637e-01
6.053294343430409841e-02,6.584091113128445749e-02,-4.424557025120220977e-01,-4.922737963242913330e-04,1.932989477290736422e-03,-2.347108947915662290e-03,5.056916475296020508e-01
7.940942066974820968e-03,1.142751426056651531e-01,-4.514652148944134358e-01,7.385298269233253610e-02,1.447916363878004042e-01,-1.101599984360972229e-02,5.923109650611877441e-01
-1.156116877968592360e-02,1.163556265221433461e-01,-4.310990908645510045e-01,-3.273804870908195858e-02,3.906963543880628137e-02,-4.434632174346388005e-03,5.038793087005615234e-01
1.745144199471387880e-03,3.669558847595252860e-02,-3.074386260507998014e-01,-6.427416797846659258e-02,1.194977448784975971e-01,6.892039076106483420e-02,4.208383858203887939e-01
9.002451330028762855e-02,4.836425714771824813e-02,-4.548426780561657945e-01,-7.983442695620245749e-03,-1.243187326204128057e-02,-3.910491628413802212e-03,5.259441733360290527e-01
2.297659282568655370e-01,3.960362947580828297e-02,-7.282368907438069305e-01,6.636529050908024363e-02,-1.755258916983316181e-02,4.263400790608891378e-02,8.895759582519531250e-01
3.195435198030588397e-03,1.109043146749343622e-01,-3.049744835645020746e-01,5.944473668945457479e-02,-7.555311913605200491e-02,2.939107797875406547e-02,4.124074280261993408e-01
7.099555002644572510e-02,5.862094341405493791e-02,-4.433009631304020703e-01,-2.267092624845457559e-03,4.093604124156904195e-03,-1.535613061480492697e-03,5.082938075065612793e-01
1.008850499305389836e-01,5.759809309631641616e-02,-5.103179718182058178e-01,-4.668810797908895527e-02,-8.883776547353493605e-03,-8.564256588010703622e-03,5.966421961784362793e-01
1.712882135202025702e-01,1.557608040497793223e-02,-5.217199796098177522e-01,6.248236032271928253e-02,-6.223856216002256192e-02,1.573645763779019102e-01,7.030083537101745605e-01
7.821803749557360019e-02,5.477165947605108776e-02,-4.133503771439182017e-01,7.378645294336771618e-03,1.131499917170592819e-02,6.879027415710102858e-03,4.809918105602264404e-01
5.824958702726021342e-02,7.195337682773422783e-02,-4.488805550192889182e-01,-2.254034603848036056e-02,-1.116815848693791108e-02,-1.033241351073036288e-02,5.162722468376159668e-01
5.812120703375381336e-02,5.915721040153659738e-02,-4.378553087761153373e-01,-7.307221189308030869e-04,1.112991711819900031e-04,1.576904774999199376e-05,4.964969754219055176e-01
6.712420821185999253e-02,5.362480470874383953e-02,-4.404778045414611820e-01,1.539362445520979158e-02,-1.067381667962969067e-03,6.218605978112410606e-04,5.017023086547851562e-01
2.330442340096845755e-02,2.711222882773120513e-02,-2.731369997081888323e-01,4.952880187580264472e-03,-8.679667254795416387e-04,1.783329624260223886e-02,3.000845611095428467e-01
5.039360354987679202e-02,3.492142322847253955e-02,-2.542883078376199646e-01,7.617413726895290449e-03,2.394346152670809996e-02,5.679087932838255276e-02,3.161106109619140625e-01
-1.516149351803074141e-03,-4.783201524766328427e-04,-1.084805050383024771e-01,-2.154456087812044000e-03,4.900625824681262288e-02,-9.751670413641232854e-03,1.380489468574523926e-01
5.943351607008703907e-02,5.739408912326196543e-02,-4.370296691045670867e-01,-7.517083435690007434e-04,1.807340964883547355e-04,1.140706806491488838e-04,4.954484701156616211e-01
4.607324419291794482e-02,6.973568219615788877e-02,-3.704906897192707937e-01,1.813271615954172196e-03,5.227436590080259196e-03,1.334503040566180528e-02,4.296143054962158203e-01
7.455940375123687458e-02,4.607071454691857859e-02,-4.705534290759887384e-01,-2.948692200830359267e-02,-3.480864272761052857e-04,4.032484322641323622e-03,5.339359641075134277e-01
1.448584231947595558e-01,1.962866331130080910e-02,-4.853615764321386750e-01,9.079274496225743507e-02,6.256641442881677451e-02,-1.515985951722171599e-01,6.628404855728149414e-01
2.078246310322753865e-01,-2.158214777635623915e-02,-5.190812778839931640e-01,3.851196243320784141e-02,3.890909540895946817e-02,-1.900220279322647199e-01,7.290945649147033691e-01
7.891540949749428768e-02,6.543393047870180168e-02,-4.479586882805425829e-01,1.114254471784122905e-03,-1.225272936710165503e-03,-8.499987024985704992e-03,5.204805731773376465e-01
6.742090216815832537e-02,6.820408382140541459e-02,-4.407359105817538203e-01,3.977185393253238402e-03,-1.178897977377230295e-03,1.959716896553251146e-03,5.086109638214111328e-01
8.185800324980430087e-02,6.294775348562503536e-02,-4.243026022690126742e-01,-4.996165653882752092e-03,-9.720533182818150326e-04,7.272966106407599595e-04,4.970551729202270508e-01
7.141713493015586223e-02,7.172810525211767430e-02,-4.134209604684010997e-01,-3.536366906517075803e-03,1.087829970460751916e-02,-2.110339384954824926e-02,4.867724776268005371e-01
6.587066564562069071e-02,7.648943394985982525e-02,-4.285486582853378357e-01,-4.502714302141754867e-03,-1.801141692814259981e-04,-5.014405136914540893e-03,4.999496936798095703e-01
1.559301920795926333e-01,4.939523333535059124e-02,-6.711367809118456984e-01,8.097614254807766754e-02,5.869762110361723823e-02,-6.191587341679103546e-02,8.054727315902709961e-01
2.017589909178482688e-02,2.642962665275663814e-02,-2.616468812556437817e-01,-1.463189495729112213e-03,-1.161393470385271463e-03,-1.864321148474426537e-02,2.868428230285644531e-01
3.663062958616725151e-02,6.389756085741662983e-02,-4.612391702525217019e-01,5.988085290665502713e-02,3.113254575363521345e-03,-3.006896638774160524e-03,5.225002765655517578e-01
6.753114401719237381e-02,1.680199275780266954e-04,-2.069410639159722232e-01,3.979495825212702592e-02,-5.105247973220911756e-02,4.954029824933497972e-02,2.851599156856536865e-01
6.994701161569150116e-02,6.094507574383642434e-02,-4.450958824383750567e-01,3.611777539334431325e-03,4.714474051489774865e-03,-4.858058265410942524e-03,5.107743740081787109e-01
6.333691764196008878e-02,6.090473059900114450e-02,-4.409654214595503108e-01,-3.705672658656560849e-03,-1.971639784105947996e-03,4.582977819651090179e-04,5.031437873840332031e-01
5.486602673582330336e-02,5.974849668513873557e-02,-4.374788613122650438e-01,-5.113959386542973364e-03,6.077444426618381615e-05,-9.397192041959850104e-05,4.948835074901580811e-01
4.759532110552949780e-02,-3.032132228268424878e-03,-2.844632797759097942e-01,-4.614947946059454187e-02,2.976927558879833083e-02,8.091939351888115250e-02,3.531381785869598389e-01
6.218949076362620398e-02,5.697279775302035998e-02,-4.380776662086710571e-01,-1.118297136630248432e-03,-1.004241722823823266e-03,1.773475985957392008e-05,4.976861178874969482e-01
7.435741045092938983e-02,6.715725972203887006e-02,-4.461877890800307056e-01,7.457075584482172155e-04,-2.312364111386416062e-03,6.838009136831803628e-03,5.171355009078979492e-01
-1.551739944726151371e-02,7.087150617003676323e-02,-2.456231846090357607e-01,2.188638702328003782e-02,-1.455600675106833441e-01,5.011882255342587494e-02,3.909299671649932861e-01
2.167889651848488586e-01,-3.284824881234979510e-03,-5.868456429037848254e-01,-4.612003320780852511e-02,9.430661417435058647e-03,1.614965876534804057e-01,7.760757207870483398e-01
6.788506371086927560e-02,4.207954701775731832e-02,-4.384686354284905163e-01,-9.114295116523521423e-03,-1.531295366174962322e-03,3.931482571660392341e-04,4.942165315151214600e-01
6.606135283417766124e-02,5.605317571025578149e-02,-4.403674911996379726e-01,-1.805122649125373395e-03,-2.106937061194581219e-03,-2.314716572313841366e-03,5.015386939048767090e-01
1.133771065622017626e-02,1.084030648743790903e-01,-4.486753753048653981e-01,-6.002282074640228303e-03,3.379186326565638849e-03,-3.236048278693967476e-04,5.155848264694213867e-01
2.688712699796674821e-04,2.398134635100320627e-02,-1.103582102623814204e-01,-8.198868116547759072e-03,-1.688027505481180107e-02,-2.581111653763295752e-02,1.359375268220901489e-01
8.834057759500288376e-02,4.298735515532678408e-02,-4.426900695015530407e-01,1.433476738962099887e-04,7.209569423094985786e-04,-4.568019127347033512e-03,5.099321007728576660e-01
7.037782075545567784e-02,7.566315414711677345e-02,-4.311358924551734195e-01,-7.804644870418996766e-03,-1.549479873253640930e-03,1.887046740623305602e-03,5.043760538101196289e-01
5.822662278937801306e-02,8.236018477674669769e-02,-4.171515979465322821e-01,-9.775471027686764326e-04,-3.570846465700625982e-04,1.191174827685745384e-04,4.878962337970733643e-01
2.668995326118031031e-01,3.038938668073312699e-02,-7.780797396879740591e-01,-5.019406298795364707e-02,2.511663949978264199e-02,3.878939240050957582e-02,9.564179182052612305e-01
7.372609336080365727e-02,-7.713481318676884690e-04,-3.142911262975670583e-01,-2.510513805514739266e-02,4.576592202544530613e-02,1.195049531126160802e-01,4.221606254577636719e-01
-1.899932399770869196e-02,1.228649967997845205e-01,-4.635601586227345861e-01,-1.193878126978760792e-02,7.581491202732704854e-03,4.403653488535179752e-03,5.305519104003906250e-01
2.488902097087147824e-02,1.256768566471830328e-01,-4.874794061598395900e-01,-5.302911652295864975e-02,1.019670040796893939e-02,-2.598650197612482459e-03,5.771382451057434082e-01
1.797170753445670455e-02,1.073643223334025398e-01,-4.622855830802146127e-01,-1.785413007266151240e-03,6.761124413147686502e-03,3.820325499532051315e-04,5.307698845863342285e-01
-2.221022701121617982e-02,1.246215333085970989e-01,-4.570482003811231486e-01,7.618829490507877944e-03,1.202683568489767464e-02,-4.277661799876986137e-03,5.245518088340759277e-01
5.460904171496047677e-02,3.475378400016439218e-02,-3.339411189781171796e-01,-2.827293796634787904e-03,-8.528542275593686828e-03,-1.451523729312727534e-03,3.793404996395111084e-01
1.191236707267237516e-02,1.240838187122101643e-01,-4.417079337494394520e-01,9.352497332041732891e-02,-1.415655396835575064e-01,1.067204139473113683e-01,6.243140101432800293e-01
4.850521963892198696e-02,7.953354162454051579e-02,-4.469502124631549167e-01,6.595560523336227096e-03,-4.500180102441406378e-03,-3.563583742026102830e-04,5.118629336357116699e-01
4.960706805603828928e-03,1.009881759246595290e-01,-4.457647924052360322e-01,-1.530729243549148674e-02,-3.351702673294430865e-03,-6.457762499368406789e-04,5.063542723655700684e-01
-6.615978188012808237e-03,1.390053572124634318e-01,-4.645002992254448348e-01,-5.092873546981519471e-03,-2.005343008104731525e-02,-1.601076705375869755e-02,5.473523736000061035e-01
4.255376169903998806e-03,1.127392764967176386e-01,-4.571097730388360980e-01,7.296312076966415122e-03,-6.219705095952067324e-03,3.794787410517034415e-03,5.244008302688598633e-01
7.536755165894912234e-02,7.477595510488549424e-02,-4.455085279631239570e-01,1.671932422502984527e-03,-1.131114297763783152e-03,1.978138559136321227e-04,5.205923914909362793e-01
7.262681164804160594e-02,7.013192668624296244e-02,-4.458750162347842050e-01,-3.513624090107561463e-05,-1.836310928951807040e-03,1.674236623514336469e-03,5.172768235206604004e-01
1.902288827592327203e-02,1.121265759234267856e-01,-4.779306774307985339e-01,-2.407804045943004456e-02,9.311407764942348023e-03,1.946592775296375824e-02,5.523001551628112793e-01
6.614598744941507791e-02,6.346510923721440656e-02,-3.793965259630232012e-01,-6.981543978046539367e-03,-2.139741286925602240e-02,-3.411843466563733301e-02,4.498142302036285400e-01
-2.458292959980559050e-02,1.607755958499562099e-01,-3.593033226528973834e-01,2.048042843271082047e-02,-9.477798110124736886e-02,-8.000604181524997860e-03,4.866598248481750488e-01
3.224699190678692595e-04,1.317400841801894540e-01,-4.813106908870473655e-01,-3.952886500771365247e-02,-1.151010354201128932e-01,-5.882667983070202083e-02,6.060942411422729492e-01
-4.577670246328741088e-03,1.102002958517957765e-01,-4.645842725639989235e-01,-3.940890984275665504e-02,4.726639144043290677e-03,1.041139801530604342e-02,5.316296219825744629e-01
-3.967616647549257469e-03,1.158261261607800297e-01,-4.599156606122322688e-01,-1.507219932532707918e-02,-1.041054500679168895e-02,2.065249320567529023e-03,5.271416306495666504e-01
8.196365984576567398e-02,6.491298861935185238e-02,-4.348762297460793125e-01,-1.305713280848367144e-03,3.426066664259081298e-04,-6.469664847066941733e-04,5.085356235504150391e-01
1.206024540540582279e-01,1.577996790612615219e-02,-5.266019584586171254e-01,8.430253747159473232e-02,-2.371620664329269611e-03,-1.661491776219982787e-03,6.191653013229370117e-01
3.147941261007738967e-02,7.711830142784224795e-02,-1.400537176344664458e-01,-1.714045868790503926e-02,-4.226786562976211220e-02,2.769657760812985203e-02,2.188092917203903198e-01
3.191252124969237713e-02,7.973347237769023987e-02,-8.392763068919080471e-02,3.069153820504578155e-03,-7.146138807374294299e-02,-2.969875044400472480e-02,1.980905532836914062e-01
7.202540775817298235e-02,7.184077914123718211e-02,-4.461252757472540798e-01,-4.125243836464805199e-04,-1.603491056259077332e-03,-4.693597037183861657e-04,5.180669426918029785e-01
4.629198049109092827e-03,1.207481748366670549e-01,-3.198803318635222159e-01,-4.715113851391449472e-03,-1.065038370074160856e-01,3.198628871457493208e-03,4.365757107734680176e-01
1.122749385869621641e-01,-1.721241000023476797e-02,-4.050160985864097452e-01,2.290120808055693194e-02,-3.986616975474203267e-03,4.120763458546479463e-02,4.733810722827911377e-01
1.029228403114959278e-01,3.412356076483892553e-02,-3.434842400402557949e-01,6.263562033658985617e-02,-5.321083927485516923e-02,8.985917586415864688e-02,4.666776061058044434e-01
9.637942384804659701e-02,1.082676863712513926e-01,-6.590255544556425926e-01,9.151291264410901793e-02,5.806843962090029940e-03,2.443248627232845818e-02,7.789571881294250488e-01
3.856874658255024513e-02,6.452123196541786898e-02,-3.617201956579864652e-01,-5.836670141795536650e-03,6.919111076470818101e-04,-8.507310015036308485e-04,4.140037000179290771e-01
1.123431560093346993e-01,1.410395197843541948e-02,-5.092987699680890934e-01,7.399242560677346536e-02,-4.373693594563869691e-02,1.028602462549475932e-01,6.236377954483032227e-01
8.005638575345322416e-02,5.048126554992582449e-02,-5.201838659298130274e-01,4.394026387521467875e-02,2.620122835827974964e-02,-1.719552309616062015e-03,5.926815867424011230e-01
8.461241512434894418e-02,4.788914341785935336e-02,-4.656144941357149292e-01,6.888572919083582602e-02,-2.035094842581734037e-02,9.537437616553318120e-03,5.473967790603637695e-01
2.038305189022385222e-02,1.783453003208396170e-02,-2.059800024150255371e-01,-5.157613028470000791e-03,-8.263053192748071041e-02,1.515092180811692529e-02,2.681822180747985840e-01
5.676781532627242499e-02,6.252994011355555992e-02,-4.444763539116645124e-01,1.845988120053703233e-02,-6.749942594025786771e-04,-9.444421019265175545e-04,5.051668286323547363e-01
-2.018315060307554476e-02,1.440890396705946097e-01,-4.567043395551734219e-01,2.945508252229831619e-02,4.961484240451165956e-02,2.327066549003210111e-02,5.485040545463562012e-01
5.899646665262317513e-02,5.603679977009295987e-02,-4.398158433666571332e-01,1.305314644001952934e-02,2.632536650522593249e-03,-1.803226928097680743e-03,4.978833794593811035e-01
5.937725008717445463e-02,5.788376236132319885e-02,-4.379046811520154181e-01,8.298778746530970432e-04,1.009337751199090985e-04,5.322381742272749638e-05,4.965389966964721680e-01
5.758338643763691311e-02,5.939244001998530975e-02,-4.371130749439297580e-01,8.448321795334608024e-04,-2.926281081915909038e-04,2.562044894665350608e-05,4.956058859825134277e-01
5.720187200914708670e-02,6.235451505565148267e-02,-4.385174835230135626e-01,1.230487532320824733e-03,-1.533250327898693711e-04,-1.057315505883714988e-03,4.983236491680145264e-01
1.121921497807640000e-01,3.534316613637782101e-02,-2.047611833506750856e-01,1.429139223185964952e-02,-1.118771506010573201e-02,6.323656031133111088e-02,3.082084655761718750e-01
4.607832762754621170e-02,7.394199369799289712e-02,-4.477637137421291991e-01,-6.706258018242291022e-03,7.039743419000272194e-03,6.565054904878522661e-03,5.087528824806213379e-01
7.400470240298190339e-02,6.648070227368071961e-02,-4.457861133283647082e-01,-4.669272729337490440e-05,-1.708907393362515915e-03,3.136988803198910870e-03,5.161070227622985840e-01
5.832138031901207276e-02,1.072328876131360131e-01,-5.391768537267715988e-01,-5.374439170920851383e-02,-1.189066319863172835e-02,-2.658624661303408791e-03,6.306597590446472168e-01
6.753420914261620833e-02,7.842033974785103667e-02,-4.331468773622993429e-01,-4.341441803574369075e-03,1.344096422603531949e-03,-3.999368149259925273e-03,5.063205361366271973e-01
6.616997793825687979e-02,8.260065568236144018e-02,-4.338565317043002745e-01,-5.697898223097818717e-03,2.509447481363710330e-03,-5.132360387031618433e-03,5.086330175399780273e-01
6.763303864708805624e-02,8.045769329303631423e-02,-4.368411546687469560e-01,-3.583706848926488872e-04,-5.298163113002025320e-04,1.407911111169599539e-03,5.110142230987548828e-01
6.212498647482378455e-02,8.228812896560597223e-02,-4.254721238438408104e-01,-3.469420763959119892e-03,1.104591357667266066e-03,-5.992878892211234675e-03,4.981330037117004395e-01
4.990363683605220091e-02,6.478584774347134756e-02,-3.631702412961210769e-01,2.893846588582184992e-03,4.247372084572148890e-03,3.513546830972796853e-02,4.251843094825744629e-01
8.022013266753857952e-02,6.385426160833881926e-02,-4.283981422934790562e-01,-1.479812272570695452e-03,-1.656980729346782142e-03,8.940246895156093131e-04,5.006532073020935059e-01
6.775841989851066893e-02,1.025286903303355979e-01,-4.842977030728046195e-01,-9.239365405462299230e-02,1.070094210710023780e-01,8.679307734233820959e-02,6.385389566421508789e-01
4.250348235595652335e-02,7.096242797295973515e-02,-3.597343341294560459e-01,8.567131338728443263e-03,1.132836286178890983e-01,6.049085416251339872e-03,4.613912999629974365e-01
-3.052661332667211402e-03,1.537644317269151462e-01,-3.792621167382648761e-01,-3.632014659977853693e-02,1.391760742893952407e-01,2.685944444157174413e-02,5.379153490066528320e-01
6.810931172440007342e-02,2.291973159486070943e-01,-7.794953966608861862e-01,-9.417828538505637614e-02,1.173686881502185031e-01,4.836110541597761492e-02,9.776877164840698242e-01
2.041771794241972748e-02,1.170679761128593233e-01,-4.815096238122938965e-01,3.730031604509374127e-02,-2.455742844117479815e-03,-2.065559538794527542e-02,5.614764094352722168e-01
7.063244972780716169e-02,7.145931734396424040e-02,-4.456495744668746983e-01,-1.926745413687039592e-03,2.199021897666759724e-03,1.431222435755125783e-03,5.167267322540283203e-01
7.689290234347320729e-02,5.953611676790254714e-02,-4.126372378906994487e-01,7.735023020185164896e-03,1.116457813608026997e-02,3.944266429177672659e-03,4.817099273204803467e-01
7.050394688585592817e-02,8.910385317974403585e-02,-5.188460959656296945e-01,5.168884215913414903e-02,9.032765509397959469e-03,-9.469997808743782844e-03,6.059458255767822266e-01
3.070678660232964430e-02,5.188210564396140978e-02,-2.668047430529986164e-01,2.525425223796835209e-03,4.642608832466070534e-02,2.023451029942905863e-02,3.208971619606018066e-01
5.598098201019674480e-02,6.752070772062199189e-02,-3.939591076257863977e-01,-1.232513254877502101e-03,5.427821590507939803e-02,2.565353646441620450e-02,4.675346910953521729e-01
1.003321661952671917e-01,1.503940752494294375e-01,-7.604645499896411920e-01,1.009866065418219550e-01,5.272089184686098995e-02,3.412830521989486388e-02,9.104931950569152832e-01
9.108248882754824138e-02,6.386836545700841361e-02,-4.979494256738559166e-01,3.029143560654750517e-02,3.534446011550188005e-02,-3.335293793346155722e-02,5.843858718872070312e-01
-5.380518680941456799e-03,1.437541087601131862e-01,-4.757169239393842508e-01,-3.236073862833736825e-02,1.879605336607175631e-02,-2.716065873451086344e-03,5.637593269348144531e-01
6.234470933902327983e-02,3.692268994104291879e-02,-4.570982565700907330e-01,9.096665518893116975e-02,2.348594903055965105e-02,-4.978113729875849325e-02,5.396072864532470703e-01
9.307676544926993256e-03,1.020073673527316649e-01,-4.489377568173206767e-01,-1.326331456472685036e-02,-3.856043467354195245e-03,-9.431546994493922613e-04,5.115039944648742676e-01
8.108918537621659373e-02,5.942668869339715054e-02,-4.177689141389611116e-01,-4.831178486181505853e-03,-1.135709699672573505e-03,-1.273321958410694992e-03,4.884679317474365234e-01
4.291761876408170528e-02,3.495092204713992623e-02,-4.545309044777047780e-01,9.717504885585011298e-02,5.808432051806763224e-02,-6.874448608785947712e-02,5.442271828651428223e-01
7.486243071011886019e-02,6.208004675756365054e-02,-4.140573216274078816e-01,7.221624915689039623e-03,1.324110085356514262e-02,5.235924956033838340e-03,4.834470450878143311e-01
4.942231539543118224e-02,9.928757340193808401e-02,-4.662401339327784111e-01,2.695149980057040713e-03,-9.627485469649003577e-03,-2.961978979296644738e-03,5.426178574562072754e-01
3.042256364991904882e-02,8.910400879146959663e-02,-4.516270149058239092e-01,2.485912444422685302e-02,-7.309804033452889154e-04,3.311561207630686274e-03,5.157432556152343750e-01
5.024339465809229965e-02,8.804411958336877397e-02,-4.611207334520824319e-01,1.102405777753263797e-03,-7.095409323973041540e-04,-5.094278611803674389e-03,5.313521623611450195e-01
7.169289703498091249e-02,8.040025172594811309e-02,-4.455499568112543107e-01,-1.535812642687635864e-03,-1.568904419242524249e-03,-2.396573558816187267e-03,5.216814279556274414e-01
6.410569489760187256e-02,7.757222233171476300e-02,-4.628352996953469800e-01,1.035252876613046089e-02,1.502745055383434940e-02,-2.829905932606119681e-03,5.347590446472167969e-01
1.213683757366051386e-01,-1.872289596742265916e-02,-4.652655296617427827e-01,-2.326938916193310031e-02,9.644210216122691207e-03,6.554452524582114400e-03,5.325551033020019531e-01
1.019936583251984941e-01,3.156702605568514897e-02,-4.572815839146766592e-01,-2.883424176667889749e-02,-7.482810259085624811e-03,-4.220677974766910007e-02,5.351329445838928223e-01
6.634823386972554804e-02,7.742836592708529642e-02,-4.482961750174284110e-01,-4.273463358831301392e-03,-7.629713170708608480e-03,1.662650922308336367e-03,5.205013751983642578e-01
-1.094600939754765412e-02,5.858748454596546251e-02,-3.015995954979880933e-01,-5.026879804357569509e-02,9.869100937299982168e-02,5.885445012183869451e-02,3.958746194839477539e-01
4.671656351089639725e-02,2.954285299606278503e-01,-8.694789535625260246e-01,-4.174552702056816278e-02,5.467460341756195941e-02,4.031849861462624002e-03,1.069292068481445312e+00
1.107084701647742253e-01,5.046868844151897182e-03,-4.610596831953455710e-01,-1.946513589267496319e-02,5.363178669369543213e-04,-3.178128741270725907e-03,5.280503034591674805e-01
7.398773729867674787e-02,3.092252602601089362e-02,-4.104973902771923422e-01,-2.728203935537187180e-02,-1.090550481768701868e-02,-2.477100003325100053e-02,4.691977500915527344e-01
4.549746303986884621e-02,8.760991704646317602e-02,-4.469660469834970673e-01,2.158350035850786167e-03,3.787072827400249277e-03,-1.238639654436789845e-03,5.148730278015136719e-01
4.618968761529798628e-02,8.751742646687848959e-02,-4.458443655071111511e-01,-5.243289426062345063e-03,-7.234169446702895523e-03,1.133410179607084690e-03,5.141823291778564453e-01
1.074047034288958258e-01,1.826995381055523948e-02,-4.588001133468365134e-01,-7.716036924443185965e-03,5.393944723874215252e-03,3.900526452508329064e-03,5.276134014129638672e-01
-2.464869656886163607e-02,1.322401053925608139e-01,-4.972812932511279094e-01,-3.882143157874717171e-02,8.517899717506796642e-02,3.267392940648913835e-02,5.929898023605346680e-01
1.038409069866815526e-01,1.934776798568993428e-02,-4.611087504894660904e-01,-9.648957811456195313e-03,1.081246332620807099e-03,2.614945052347416796e-03,5.280872583389282227e-01
6.090381844239595166e-02,6.639710203735549321e-02,-4.408861095525233864e-01,-2.269760769420525563e-03,-1.901503444801387100e-04,-7.473969766314453094e-04,5.045760869979858398e-01
7.308511282291077493e-02,7.367653364305815078e-02,-4.470299707776708154e-01,2.339726481785873221e-03,-9.860602788643309073e-04,2.847790722939995954e-04,5.204298496246337891e-01
6.703052296190889492e-02,5.393559202163258903e-02,-4.409877396486313050e-01,2.370424215536977904e-03,2.675176312046423019e-03,-2.870048760791966361e-03,5.016618371009826660e-01
-1.484116342608959860e-02,1.792104870861715438e-01,-4.980253378274552278e-01,-3.559074786643019045e-02,-1.268697377671845761e-01,-5.030996925737713649e-02,6.515879631042480469e-01
6.888667086762134684e-02,6.838829325502804313e-02,-4.300123202878935458e-01,3.043252665028950942e-03,1.544572371655512108e-04,6.874833176581521873e-04,4.986793398857116699e-01
-3.860597425273459837e-02,1.642488301357577507e-01,-5.424546711208521055e-01,-3.201770256723660002e-02,3.270319348670160109e-02,1.883405594324142479e-02,6.360579729080200195e-01
7.497559615865190263e-02,7.203171429606464171e-02,-4.430924397299224604e-01,5.105542375200417850e-03,-2.397349975757836517e-03,8.513012111163002771e-04,5.166968703269958496e-01
-7.051015125278295437e-03,1.135352744336816100e-01,-2.756894980547725527e-01,4.696995222798749925e-02,-1.279103347277099068e-01,2.193730400868411368e-02,4.198181033134460449e-01
-3.972187184041518077e-02,4.534392842784072675e-02,-1.727689096803331215e-01,-2.064155496685489768e-02,-1.285371211167022354e-01,-4.902024324131766531e-02,3.070960938930511475e-01
7.413005255045371222e-02,7.452017595471721600e-02,-4.439808702967352749e-01,4.439454826377233583e-04,-1.059866530704269526e-02,-1.149305031425633243e-04,5.186316967010498047e-01
7.270961303689732480e-02,7.175261675655994487e-02,-4.339908968573330528e-01,4.276452597905587051e-03,7.812724774090595067e-04,1.125724191023502827e-03,5.062824487686157227e-01
7.602273008257826037e-02,7.155419847286162427e-02,-4.447571429137105459e-01,7.848754784583441071e-04,-2.149577261775574913e-02,-1.650800048159121666e-02,5.206823348999023438e-01
2.673924916710745947e-02,3.737839176423575493e-02,-2.638290514503305317e-01,8.900830819637611455e-03,3.777677857733824363e-02,5.037458961737575208e-02,3.158579766750335693e-01
6.278953538088202779e-02,8.784657815698784789e-02,-4.324034611533817407e-01,-1.068131624338049257e-01,-1.427327390577213251e-01,-1.028974890136320902e-01,6.207743287086486816e-01
7.647957740439872976e-04,7.154787833169175271e-03,-1.211402792406263973e-01,1.516972709510837998e-03,3.094584139641255727e-02,-3.537989853776905835e-02,1.493844091892242432e-01
7.567691540336718425e-02,7.133472036063595589e-02,-4.474886908182926781e-01,-1.776331995843265406e-03,1.822954360843294429e-04,-2.449296251922190252e-04,5.210174322128295898e-01
8.772449520794300959e-02,-2.346055093299427574e-02,-4.194477918828305452e-01,8.008887864914596144e-02,5.842261587484368773e-02,-8.175240683584407420e-02,5.125705003738403320e-01
-5.690981765290856198e-03,7.319894964857270869e-02,-3.401861525615478277e-01,-3.223179325047598187e-02,-1.015387769676946716e-01,-1.502088090061096462e-02,4.233472049236297607e-01
6.430151336781436688e-02,-7.950944086618325080e-03,-1.296771917366770777e-01,2.543539727323144983e-02,5.445212037229615193e-02,4.188639342872890747e-02,2.119719386100769043e-01
7.155024792534145361e-02,7.126079760032547061e-02,-4.472303609603098806e-01,1.012146827423773333e-04,-1.861431977299774724e-03,1.147241941042041833e-03,5.186498165130615234e-01
7.779959698492600051e-04,1.661190875776049625e-01,-4.933341681666031375e-01,5.477347310354108156e-02,-1.333307348252661673e-01,2.833082496165129777e-02,6.464681625366210938e-01
3.280115770637132000e-02,1.029300906066284160e-01,-5.341910322940548461e-01,9.659024989530891336e-02,7.599297355552459519e-03,-8.761185446362495036e-03,6.281347870826721191e-01
3.257532369533211458e-02,3.176302807384751015e-02,-2.725918432200286623e-01,8.195851893154214307e-03,6.780387489027522863e-02,3.158497765969132953e-02,3.314607441425323486e-01
1.366996550157309476e-02,1.303178400254369207e-02,-1.966485994030682805e-01,5.281538394315007197e-04,3.514572102609955784e-02,6.465821134657417230e-03,2.189337909221649170e-01
-1.998317983152468613e-03,2.059956940932640423e-02,-1.596910187139171100e-01,-2.217138649458311531e-02,8.805663878313009507e-02,1.525212344082433821e-02,2.331859320402145386e-01
7.661001436281855703e-02,6.529502456987482106e-02,-4.473217193292190474e-01,2.252210973361660953e-03,2.480637186760145056e-03,7.267297809011303081e-03,5.185521245002746582e-01
3.975653583970115146e-02,2.840616589166224393e-01,-8.418748584488405795e-01,-4.896825678205252164e-02,5.669322263860748778e-02,3.520228803666204664e-02,1.035808682441711426e+00
5.737986497960734233e-02,6.208791998341628426e-02,-3.789714678595595965e-01,-3.259530108172233390e-03,-5.343603645967060162e-04,3.802715350373613717e-02,4.436777532100677490e-01
8.871658092428716391e-02,-2.242177045878949657e-02,-1.821256534514145986e-01,1.846345901884808779e-02,-1.517486380150068290e-03,1.168657642268962210e-01,3.124239444732666016e-01
6.492357769459869421e-02,5.145090764564000385e-02,-3.614264960202704380e-01,-7.953800666516816151e-04,3.768000518573049601e-02,-3.093754759145005747e-03,4.248550236225128174e-01
9.040013292181603433e-02,2.981045125735051760e-02,-4.461828532808461700e-01,-3.415246619986423565e-03,-5.818184054018759634e-03,-7.625812974796250705e-03,5.093054175376892090e-01
6.645925200631863650e-02,7.532171655106295605e-02,-4.272860713375657982e-01,-5.048192193321902714e-03,-6.612454367905694005e-04,-1.114842983154394271e-03,4.983174502849578857e-01
5.751764759835165108e-02,7.590923032348192989e-02,-4.457007935138777022e-01,1.435817014496360748e-03,5.093925454703689647e-03,-4.536686511273041109e-03,5.128038525581359863e-01
6.507546735530056470e-02,7.826197097396728197e-02,-4.506416897293878399e-01,1.271278720981392461e-03,1.856876416811549177e-02,-1.451229381030127216e-03,5.234349370002746582e-01
6.233363807794961575e-02,6.457306967999179581e-02,-4.416107105136619637e-01,4.007883499629416243e-03,1.647907398020962864e-03,-2.048244917320500656e-03,5.051360130310058594e-01
6.127833181287281605e-02,6.397215505687484094e-02,-4.411450089730009627e-01,9.794626271774104376e-04,-1.221458714265710515e-03,-1.219568265068954934e-03,5.037873983383178711e-01
1.044672994401635580e-01,1.146762077375355904e-02,-4.546693066199050670e-01,2.944638279929936986e-02,3.866164545948488733e-03,-2.075180617458558658e-04,5.214685201644897461e-01
2.497349781193183293e-01,3.299544503388796013e-02,-7.414182235776631824e-01,8.557879205033613879e-02,-2.039458610037522823e-02,5.004616695951782934e-02,9.193864464759826660e-01
5.743193546367361679e-02,4.876053017648709909e-02,-3.573915387539297051e-01,-1.063958221209375561e-02,-2.027941541188528138e-02,-5.287127236222247248e-04,4.124691486358642578e-01
5.530575452628230804e-02,4.101432037103056039e-02,-3.443666884697231811e-01,-7.670380681120133465e-03,-2.114411397136257281e-02,1.641874331723545619e-02,3.956726789474487305e-01
6.842949763174191458e-02,7.739527641401722224e-02,-3.808786549979288338e-01,9.400547091961734825e-02,-9.682555011595746219e-02,6.643650251215350855e-02,5.233207941055297852e-01
7.297188461433967710e-02,7.646365959988130068e-02,-4.415025465321348319e-01,-3.338186930746440788e-03,-8.125200171633710456e-04,2.429367758495786997e-03,5.162805914878845215e-01
6.777094709026046382e-02,7.163381920613494380e-02,-2.166126273088607168e-01,4.841489845508262224e-02,-5.880777584737747338e-02,3.148221228937052307e-02,3.199498951435089111e-01
6.002359741426152584e-02,8.416059550909324449e-02,-4.239204264912502240e-01,1.252883253529534380e-04,2.345601006327390544e-03,3.545105495969714388e-02,5.002521872520446777e-01
7.729576140287292008e-02,5.905664294446499873e-02,-4.461517796924136525e-01,-2.092665784385543777e-04,-4.984523327054178263e-04,-5.795962513278467027e-04,5.145723223686218262e-01
8.105433137404502442e-02,7.274799261343370405e-02,-4.753557995785128165e-01,1.981318712604793197e-02,-2.801728134199146444e-03,-1.849384129760156320e-03,5.533995032310485840e-01
3.557031921204524549e-02,6.385262890653140011e-02,-3.518601629497614680e-01,1.950622037021069316e-03,2.545440948739282607e-04,4.147666788574049749e-04,4.023329615592956543e-01
2.839355472767121635e-01,3.640724061146516366e-02,-8.189238800535807439e-01,-5.451767331986219489e-02,1.729867674046988574e-02,5.932510098260837528e-02,1.012399554252624512e+00
7.590141763621818805e-02,5.815423083708445851e-02,-4.415012904957019146e-01,5.103011501662481700e-03,-3.865461894647599975e-04,-1.293831904793091986e-02,5.093317627906799316e-01
6.568179412908189962e-02,8.207831532314407985e-02,-4.335154620241616352e-01,2.295998562638087537e-04,1.749270219360287321e-05,5.955958381183959526e-04,5.075953602790832520e-01
7.916248861099298151e-02,6.074502144116611380e-02,-9.754008552398196752e-02,5.460699990759241423e-03,1.943737702363344810e-02,-2.531453238209604301e-02,1.773526370525360107e-01
3.304161900364141480e-02,3.070911495852073070e-02,-2.684244371506129268e-01,9.409889840314870912e-03,-2.640531640177966322e-02,-2.308439166753902330e-02,3.068225681781768799e-01
4.827623497923597129e-02,5.529843974777848281e-02,-3.562855458314904133e-01,-1.164982778176938162e-02,-1.208430745928473207e-03,-2.080312904468440902e-02,4.102076292037963867e-01
8.449768293252821194e-02,-1.315466824784858151e-02,-1.174650956518946132e-01,2.426426209226990524e-02,-2.159030084912415270e-02,-4.230928317948384754e-02,1.978325545787811279e-01
2.550041414230538872e-02,3.679533803178988705e-02,-2.889699785851928548e-01,3.465135139880911805e-03,-1.143171749529671433e-02,-2.615976471653276569e-02,3.241175711154937744e-01
3.779378514647643850e-02,4.037074495074013947e-02,-2.784663410081534840e-01,4.344327620871029326e-03,6.162117934671279117e-04,-8.807919932523103346e-02,3.523828685283660889e-01
-1.835873770620992385e-02,1.032121828281171716e-01,-1.605018745318083639e-01,-1.883938798628248534e-02,4.938573297766228609e-02,1.370492425239022878e-02,2.474059909582138062e-01
8.608902296299590640e-02,-2.693352806511266351e-02,-1.403170932187522701e-01,3.010620955252475694e-02,-9.984714514566827084e-03,-8.217351846403375681e-02,2.484361678361892700e-01
5.027722601468898045e-02,6.518578483438219884e-02,-3.740242739851946663e-01,-7.513215340534007414e-03,1.481541223979118953e-03,1.549019720678862727e-03,4.321607053279876709e-01
3.039762765331249783e-02,4.985067672365348090e-02,-3.167947740835672654e-01,4.943938510214524427e-03,-6.451432634841776370e-03,-2.162009080184319060e-02,3.595488965511322021e-01
1.599733278067475006e-02,1.085663551406931548e-01,-2.448870758901643685e-01,1.891483716602528412e-02,1.226853056432400113e-01,1.376144981398993300e-02,3.841562271118164062e-01
1.931631312418578827e-02,2.167765598080099998e-02,-1.887017357522354499e-01,2.534340577521419779e-02,1.230975820614966243e-01,-2.240416720611389592e-02,3.044010996818542480e-01
6.893102531244396647e-02,7.203792136151596082e-02,-4.392986422933355950e-01,-6.014676803071383748e-04,-1.336397177119115400e-03,4.117172397264429900e-04,5.097970366477966309e-01
2.565006222588429863e-02,-8.168007973450158721e-03,-1.319686598793224364e-01,4.845246199063403016e-03,-1.607392939617195357e-02,-9.439897170065972287e-02,2.196269631385803223e-01
2.406937585669899349e-02,6.204788549123088637e-02,-2.841900045548546583e-01,-5.533371553589311320e-02,1.083140089652132182e-01,2.550465957657039109e-02,3.930726945400238037e-01
4.644578174031996354e-02,4.583095479727719579e-02,-3.390172278813899376e-01,1.039136504245091221e-02,7.721950344021516347e-04,2.836403254132739520e-04,3.855789005756378174e-01
7.201382273251580313e-02,6.688797728663742337e-02,-4.458124907546235915e-01,3.674467909846903494e-04,-2.201457502339024958e-03,2.727869509836428237e-03,5.153186917304992676e-01
6.850149240324976407e-02,6.498201614678603133e-02,-4.414232095339402639e-01,-5.969109254535937686e-03,2.193053126240930399e-03,4.576510541065354626e-03,5.083552598953247070e-01
5.384201267134786084e-02,4.351981872545315766e-02,-3.400866234470961147e-01,-9.379909076431306239e-03,6.142559564417478246e-02,-1.390107294168840997e-02,4.042067527770996094e-01
7.731533664427370223e-02,5.806986926891277712e-02,-4.463037107832486527e-01,-4.997442489743115634e-05,-1.378691344635148304e-04,-1.161046761621939124e-03,5.142704844474792480e-01
2.425407323620187849e-02,1.693888176307892235e-02,-2.555737005823107144e-01,-3.415043804925518151e-03,2.476659307543030084e-02,8.442243890264314841e-04,2.796200513839721680e-01
7.187954828563344889e-02,6.780489617267312918e-02,-4.455269631687589493e-01,1.804729078955242226e-03,1.050277508129672521e-03,3.997248995759962779e-04,5.153944492340087891e-01
7.726606917334860603e-02,7.365064680264343799e-02,-4.447821367088157785e-01,2.792521085458860540e-03,-1.281114442995788570e-03,-1.093952652295864924e-03,5.202805995941162109e-01
5.087454651314510246e-02,3.244667847220936152e-02,-3.244038976143576725e-01,-2.879407402380560789e-03,1.913627577301370980e-02,-3.425899582982637362e-04,3.679425716400146484e-01
7.273339668827588644e-02,8.111391729818256957e-02,-4.347336317629206248e-01,-3.115549407739005329e-03,-8.833936194272131934e-03,2.441356553764621393e-02,5.137091875076293945e-01
1.203442104444141514e-01,5.400509578024806356e-02,-4.973092139671553280e-01,-9.796354643916761751e-02,8.141222455598411123e-02,1.314439481175706526e-01,6.674046516418457031e-01
5.985881323514374852e-02,6.409153794509889202e-02,-3.484918121832917270e-01,6.425688238838199364e-04,8.595471880502585094e-02,2.160261418981239412e-02,4.382493495941162109e-01
5.789475327807869220e-02,8.377793484809456515e-02,-4.213119335608153104e-01,-2.242971009842980451e-03,7.784194335209989679e-04,3.439760021605993943e-03,4.927116632461547852e-01
5.440056939076026721e-02,9.605657765193142961e-02,-5.065568512790092903e-01,4.201584633418943560e-02,8.886462685239130549e-03,5.758969405552438921e-03,5.877143144607543945e-01
5.387450480379704643e-02,4.184963846647730967e-02,-3.307183114713103667e-01,-7.863622672643616821e-03,2.692876787722323084e-02,-7.889859538784021672e-03,3.820723593235015869e-01
2.819128362851186509e-02,2.496023361932489526e-02,-2.754958288504374408e-01,2.900619824609770948e-05,2.397139179111463375e-02,-4.981872981880750353e-03,3.050465881824493408e-01
4.112599855027813944e-02,2.597832994477945745e-02,-2.992251937194619349e-01,-8.399406751103898582e-04,1.558276321480816943e-04,7.848315447242629889e-03,3.333164155483245850e-01
9.197335314180685173e-02,3.461704807511417625e-02,-4.495467739932012541e-01,1.121023069883967348e-02,-4.851385210938552808e-03,6.398091700913920502e-03,5.157951116561889648e-01
7.924545721484127503e-02,7.291251876139631660e-02,-4.575773821214149106e-01,-2.735851677348800936e-04,7.271245801408167224e-03,6.453736143933671253e-03,5.339503884315490723e-01
4.292556561686336480e-02,1.253749201736538699e-01,-5.103366692568147567e-01,1.429176359544465265e-03,2.028856108328302640e-02,7.247641237270174841e-04,5.997963547706604004e-01
1.483932362782708347e-02,1.396390771098023065e-02,-2.068755457075335258e-01,4.772193165565871871e-03,2.198507078275412432e-02,-1.610263736143168270e-02,2.264075875282287598e-01
4.542411136543925143e-02,1.417128483620965773e-01,-5.401066485272165707e-01,-1.024139640067814050e-01,1.528728178229016299e-01,6.032910488276976846e-02,7.217983007431030273e-01
5.980391028780072948e-02,7.232753910957435972e-02,-1.734313744388856771e-01,-3.851860760951775903e-02,5.406340236793821113e-02,3.954075479841750312e-02,2.745660245418548584e-01
1.745291422133521397e-02,1.069004134492108904e-01,-4.935514592326168404e-01,-5.615530665416040845e-02,4.722167906817887478e-02,8.044034463825499096e-03,5.754810571670532227e-01
1.333017688441316684e-02,1.122718385004439767e-02,-1.969549415072477938e-01,1.215341145016690270e-03,3.634425123552299103e-02,-1.465424618742955550e-02,2.199850231409072876e-01
6.117125256027805547e-02,7.912983917502647291e-02,-4.454176412477101610e-01,2.263333311488411638e-03,3.054128437831073531e-02,-2.329290590861024090e-03,5.185387134552001953e-01
7.600194979829064112e-02,7.514667864302729261e-02,-4.448001634191761089e-01,5.735047674398236102e-03,1.707621818711018129e-04,3.286367048636876318e-03,5.205010175704956055e-01
3.405144285049704900e-02,2.810107631325983735e-02,-2.773913338906233150e-01,-6.488495364492974371e-03,2.849071065003859482e-02,-1.007086850551488361e-02,3.131206631660461426e-01
4.174959530053617973e-02,2.132643199827045644e-01,-7.051516591087781949e-01,-7.379232964910356629e-02,3.697997733779597590e-02,2.442052265681573381e-02,8.588427901268005371e-01
4.537164724524253567e-02,2.208173561246318251e-02,-2.725348436202603142e-01,1.528830102239018586e-03,7.209566969057733254e-02,4.673762935265965944e-03,3.314647078514099121e-01
1.110674790016102642e-01,1.389461539232350606e-02,-4.856111521838033518e-01,6.283728501315394288e-02,1.004197921418107341e-02,5.019231881122208916e-03,5.654296278953552246e-01
8.194705620116995992e-02,3.740188381406353568e-02,-4.676859533039506300e-01,8.716948448613799638e-02,-1.786220135989145807e-02,7.435585366805921859e-02,5.656291246414184570e-01
8.555504729938623321e-02,4.894916138565030828e-02,-4.642913924759899391e-01,6.769437132906902521e-02,-1.200813917313582439e-02,1.289534031593224514e-05,5.456405878067016602e-01
4.357295613466455331e-02,9.071361983878220570e-02,-1.704002081223714715e-01,6.234104843064239808e-04,6.967339098917862961e-02,1.356594515379508717e-02,2.705734670162200928e-01
1.338269239779510400e-01,5.053581320223399231e-02,-5.459262202603361036e-01,3.762962471924072988e-02,-1.720890251421760761e-02,2.566475366955946538e-02,6.476857066154479980e-01
-1.653501027022138276e-02,8.492677204323148543e-02,-1.980665003122333012e-01,3.572634306771550056e-02,-9.445025794064638991e-02,3.605406890294202832e-02,3.100936114788055420e-01
7.817936450840451412e-02,7.641902167216343966e-02,-4.601621475107288695e-01,1.363400722043865742e-03,-5.733718627778891866e-03,1.184638692450529869e-03,5.375643372535705566e-01
8.626339339893024372e-02,6.360599299253430483e-02,-4.614869034334243558e-01,1.954025625580994852e-02,-1.369369763823002212e-02,2.246847330109469007e-02,5.397737026214599609e-01
3.888502489900914905e-02,2.695136911916681810e-02,-2.932986648565555354e-01,-4.901191272752935093e-04,9.409466460627574505e-05,-2.352882924521167238e-04,3.263819217681884766e-01
2.145404436756770394e-02,1.625671733272454622e-02,-2.455483853100024483e-01,4.484975513361583697e-03,2.252323840679988642e-02,8.831234806163051551e-03,2.678540945053100586e-01
1.746663336015025214e-01,6.918793735275416412e-02,-7.438062976117402192e-01,9.471859571012186674e-02,6.383734321045234084e-02,6.376201948199222702e-02,8.995420336723327637e-01
1.144629910721878252e-01,7.297811031191875353e-02,-6.123913858383993603e-01,1.269901441565439437e-01,-4.769976868011479437e-02,-3.040837561168145686e-02,7.469030022621154785e-01
5.228020515070787994e-02,9.174391011476248914e-02,-1.380743133423257829e-01,9.437807951478657462e-03,-5.068295719416261724e-02,1.589519722623464540e-02,2.324560135602951050e-01
7.268667625849956071e-02,4.724960787835813525e-02,-5.386208513485646332e-01,-1.032286688422532350e-01,1.765571756911846549e-02,3.627566876967776299e-02,6.290035843849182129e-01
6.083149080183036794e-02,4.969633115398930379e-02,-4.838436534474864215e-01,9.997881288514084974e-02,-4.307930278286184467e-02,8.481863587878046840e-02,5.898028016090393066e-01
-1.248765724375858199e-02,1.133043384975547796e-01,-4.536130551854886672e-01,-3.289526135606497120e-02,-3.899436191636952123e-04,-7.192693322727194581e-04,5.188001394271850586e-01
4.436233381351739613e-03,1.623424507740239831e-01,-5.569391461329513682e-01,-5.806471092146305024e-02,-1.855000749145409300e-02,6.915767061651534320e-03,6.633337736129760742e-01
6.550038879741579279e-02,8.417041328214480700e-02,-4.356903184657165973e-01,-6.025538148932791868e-05,-7.474679534172515381e-04,-5.452401850721188756e-04,5.107842087745666504e-01
6.825857060458132008e-02,4.653530470072006486e-02,-4.405893016210897795e-01,-6.773790509016839115e-03,6.464504641954710350e-04,-1.149102622285832608e-03,4.984847903251647949e-01
1.696680001874342758e-01,1.416702356953918884e-01,-8.081636963585433486e-01,-1.316618586417687420e-01,1.112026961615447153e-02,-5.970361759806640245e-02,9.963085055351257324e-01
7.059686345149518427e-02,7.313521662775890331e-02,-4.277563492797158973e-01,6.896192111786804413e-03,4.703349122055161015e-03,6.363013989516246548e-03,4.999578595161437988e-01
7.445073369374577421e-02,7.108918634346955701e-02,-4.434708119485970546e-01,6.186132431006524093e-04,-8.176155648703118187e-03,8.494707377848103062e-04,5.164464116096496582e-01
7.796726249282823207e-02,7.010144928316838775e-02,-4.376486128734810577e-01,3.816292835356312543e-03,-8.014235160838207531e-04,5.928425881428396604e-04,5.117738842964172363e-01
7.949328474687167301e-02,9.006356510692578587e-02,-5.156924417485232448e-01,-3.597051592281681753e-02,-3.204259663385931878e-02,-1.784429517160743967e-02,6.070964932441711426e-01
1.486210425126907597e-01,9.470874465090653449e-02,-6.868844887311026381e-01,-1.142084928700175805e-01,5.292960025250167955e-02,1.185790700174108314e-01,8.635104894638061523e-01
7.052731748658533362e-02,7.739759301328613672e-02,-4.404904801894615751e-01,3.109658186211425681e-04,3.143895435116686021e-04,-4.126233037246496886e-04,5.144883990287780762e-01
1.570198365193888335e-01,1.903293769856455597e-01,-9.030738250762632147e-01,-1.483780254223318606e-01,3.345109755180091654e-02,-1.012351805867451639e-02,1.109022974967956543e+00
9.560423718513375024e-02,4.311094285101965684e-02,-4.478256231753399152e-01,-1.918316103273676708e-03,7.239878934562946067e-03,-5.926630942401833226e-03,5.194408297538757324e-01
7.488785677717293976e-02,7.649787911358754688e-02,-4.476380417249679056e-01,9.301364892734579302e-04,2.340825444517209979e-04,2.996670313266431998e-04,5.233356356620788574e-01
6.312526205096266607e-02,7.321387187052005863e-02,-4.057393485348687046e-01,6.958607428812482384e-03,-2.175487756753441849e-03,-1.084355123854182160e-02,4.745294451713562012e-01
5.161356987590515200e-02,7.227966569792756979e-02,-3.875875861320285942e-01,2.679790175517596153e-03,1.169981854962294857e-02,1.762946871409721075e-02,4.514043629169464111e-01
9.334050460356041468e-02,1.968579733915570840e-02,-4.435724471142360459e-01,-6.119743864950491843e-03,9.036311927249503738e-04,-2.060735126498934762e-03,5.042637586593627930e-01
7.183957528418541405e-02,7.557901305005296222e-02,-4.463307538228954985e-01,6.305404487978983306e-04,1.548555639016679052e-03,1.793508761344665779e-03,5.200674533843994141e-01
1.395364685055968113e-01,-8.081665483986935627e-03,-4.938501107102091225e-01,-1.186817395092494478e-03,1.272456089994023973e-02,-2.411933142398262064e-02,5.759388208389282227e-01
-3.751790742978142190e-03,1.314676160229023005e-01,-3.432003357408208166e-01,5.335166315280141791e-02,8.683124729276728293e-02,-1.499493122863803513e-02,4.596111178398132324e-01
3.983924854728135290e-02,1.021486472108641130e-01,-4.694510798689873754e-01,-7.455615357804796714e-03,1.226844431525080797e-02,1.146700796710980845e-02,5.440638065338134766e-01
6.761131461676303522e-02,7.887465939080012811e-02,-4.296568995977377847e-01,6.876606681047149616e-03,-2.084439554620081195e-03,1.380819850961139371e-03,5.031540989875793457e-01
1.099448217236874414e-01,1.381564762736503527e-02,-4.635597634575820414e-01,-7.343327965368470897e-04,-2.480737618687309937e-03,8.077638659951013808e-03,5.321969985961914062e-01
8.092065853959656829e-02,5.707973085088696719e-02,-4.131746411912216033e-01,6.916005529779689978e-03,-1.891390303636593471e-03,-1.375840229707589674e-03,4.827823340892791748e-01
8.396692774809355608e-02,2.636907686886608149e-02,-4.436125298714408416e-01,-1.232436340480315418e-02,-5.948155877758508348e-04,2.373744103936218253e-03,5.017407536506652832e-01
3.842207397636186739e-02,4.739744711716990799e-02,-2.802652432073436950e-01,-4.534640887521020590e-03,-2.258381001467613114e-02,1.031567229154690402e-01,3.715080022811889648e-01
3.974489938782850562e-02,5.013972388173862371e-02,-3.025352411723980506e-01,1.660140744687162032e-03,-1.212750106653494829e-02,7.743659935583346865e-02,3.731761872768402100e-01
6.892876128707459138e-02,6.076445179418807352e-02,-4.004903582510292992e-01,1.189252795030242005e-02,1.837386509814108171e-02,2.496427848675344952e-02,4.689298570156097412e-01
2.673065730307193355e-02,2.697161755435958930e-02,-2.473963754412510097e-01,5.680706750729519992e-03,3.734172305019185789e-02,5.448529240327850548e-02,2.973175048828125000e-01
8.131000987591160967e-02,6.682699516456228062e-02,-4.402432899272604727e-01,7.384528630977525395e-05,6.226506411822493349e-03,1.701031831378619795e-03,5.145862102508544922e-01
8.284638852114759033e-02,5.998796677020185042e-02,-4.479945142698571470e-01,-3.696906527045823779e-04,-2.830250502421944193e-03,9.946360576793347036e-03,5.200976729393005371e-01
6.673582391083895948e-02,4.896868428033296361e-02,-3.726404061945596813e-01,9.468233102374625648e-03,3.014033057881943325e-02,5.444338986017918311e-03,4.343315064907073975e-01
2.363932916249185390e-02,1.082352688224399728e-01,-3.358699654745931351e-01,-7.374770700658617173e-02,1.220199186531641389e-01,6.412883637135052828e-02,4.900374710559844971e-01
7.606167228435048444e-02,7.098273304359303815e-02,-4.402292113458738942e-01,4.613792570591699997e-04,-1.272468167437814822e-03,-1.028972492427402850e-03,5.137786865234375000e-01
4.318766704248604149e-02,6.199471819660351546e-02,-3.052445671257700832e-01,1.573557131752112859e-03,-2.614240561497058191e-02,-6.621487054983864196e-02,3.788438141345977783e-01
5.223986701073551897e-02,4.996347030584075144e-02,-1.973842940845354776e-01,4.945950641394041003e-02,-4.892287635380632160e-02,8.169892738811859734e-02,3.103101253509521484e-01
9.170239975331816173e-02,4.379416799424170476e-02,-1.124025061082364052e-01,1.763245687346244941e-02,-1.449434075476044477e-02,8.469822354226599903e-02,2.392906993627548218e-01
5.943030858174518094e-02,2.330108529095673009e-02,-1.880100301947860708e-01,-2.293399491057603393e-02,3.424347968501471884e-02,8.823592547066823333e-02,2.864344716072082520e-01
5.989599378233226301e-02,6.150078851583082318e-02,-3.857912694146328203e-01,-1.244755025882383209e-02,-1.304128158612552837e-02,7.977889234640654637e-02,4.684271812438964844e-01
6.518175877874449187e-02,8.778549018491008105e-02,-4.550293444188761027e-01,-2.837719444435595362e-03,-6.223968065675168637e-02,-1.025605118685417663e-02,5.430011749267578125e-01
4.887034797049677470e-02,4.233120976459277263e-02,-2.965502615310026124e-01,1.151387575224221624e-02,-3.541675848850670406e-04,7.886666279160943482e-02,3.689950406551361084e-01
5.183400532893994717e-02,7.840619008399118961e-02,-4.441863322109741996e-01,-1.953461717560412651e-03,4.030136963985201694e-03,1.831026011530741560e-03,5.098949074745178223e-01
1.187643894945143719e-02,8.410797737424843823e-02,-3.139916345080862037e-01,4.091616589897453110e-02,-1.334320477646727954e-01,7.476061525842997435e-02,4.584185183048248291e-01
-5.585574914307585292e-02,2.281987318779735707e-01,-5.540805345231500922e-01,3.158473549022679239e-02,8.261032862020049883e-02,4.574910559702471957e-02,7.072361707687377930e-01
9.808708837330948338e-02,1.578119596999572050e-02,-4.473032990074320980e-01,6.327612894541888300e-03,-1.486965659663867833e-03,1.847266795756751998e-02,5.103788375854492188e-01
4.430498548979694418e-02,1.564994037972689545e-01,-5.611257002585512410e-01,-8.394521399175552956e-02,-1.227682964498291313e-01,-5.681756637789413950e-02,7.232573032379150391e-01
9.193105394078593395e-02,1.788797120522434003e-01,-7.534723676426051675e-01,-1.200303058806313217e-01,-8.490719172697989980e-02,-8.785969865368982445e-02,9.400963783264160156e-01
8.943962950393161138e-02,4.701849233594762589e-02,-4.450490768611153336e-01,3.864730814190155649e-03,-9.719199406161497645e-04,-5.129947477084859618e-03,5.147141814231872559e-01
1.178565647213553058e-03,2.642597331666263205e-01,-7.150549737077187551e-01,7.213687635263929879e-03,-6.042925038048017894e-02,-1.134506782287627268e-02,8.843795061111450195e-01
4.253821802957921672e-02,8.128821626286542035e-02,-3.447062168618314493e-01,4.462775193558838650e-03,-6.716262607642922711e-02,-5.997875896299177841e-03,4.244592487812042236e-01
8.193248079046680510e-02,5.170312755840694718e-02,-4.464569349193575620e-01,2.233443036782617637e-03,6.109461385025942610e-03,-6.946511285476809558e-03,5.142062306404113770e-01
6.840897105791762800e-02,7.023989867591370895e-02,-4.462749881405186358e-01,-4.129827753427460155e-03,1.732896732873508670e-03,3.848835881117985101e-03,5.157033205032348633e-01
3.443649969383213993e-02,2.312109594811214697e-01,-7.642020381587515399e-01,-6.921192538663173410e-02,-1.400144356671872634e-02,-2.279982730874429570e-02,9.220704436302185059e-01
8.248515282562862705e-02,2.642170529999557371e-02,-4.429785544249882356e-01,-1.084626225692897350e-02,-2.300663861996423776e-04,-1.606567304554593501e-03,5.001567006111145020e-01
7.712172802694952645e-02,6.600098299946899338e-02,-4.463461050603982350e-01,8.623624374167136980e-05,1.295479812348410316e-03,7.817647575947146363e-03,5.181788206100463867e-01
6.878742299925885706e-02,5.377735483625425972e-02,-4.445025747512755809e-01,-1.531820254721275032e-02,2.076327418461876469e-03,6.178824662501488860e-03,5.067729353904724121e-01
6.842863037658061809e-02,6.542712313024293125e-02,-4.444256797580887208e-01,-8.689376620291549853e-04,-2.388764839939559238e-04,2.864432166646049913e-03,5.113866329193115234e-01
1.268421135514511411e-01,2.187028993900153040e-01,-8.970235479506920573e-01,-1.215360806159153928e-01,3.547291347524336724e-02,7.267666221583025249e-03,1.095006346702575684e+00
7.589519468871666619e-02,7.484788643443573974e-02,-4.450613284285306892e-01,2.680212253451008837e-03,-4.896680342118816474e-05,5.538300987722235289e-04,5.204552412033081055e-01
4.538599064723194965e-02,3.058997070206387336e-01,-8.783966062658283835e-01,-4.321544480082462059e-02,4.928964860529568698e-02,1.037826291941148019e-02,1.084026694297790527e+00
7.042442523545539013e-02,7.723331957877926923e-02,-4.420539165807973458e-01,-2.865371680990660801e-03,4.549272224925716979e-03,-9.007349840937657615e-03,5.162363052368164062e-01
6.702783183951321888e-02,7.117986102792919767e-02,-4.445453689059684077e-01,-1.864512520773818627e-03,-1.654678893462843941e-04,-1.010914586477581470e-03,5.136750340461730957e-01
3.026660484313548061e-02,1.084786957188123291e-01,-5.119024716289561905e-01,5.874368748381918193e-02,6.207869955058838152e-02,-4.273219099352103256e-02,6.081615686416625977e-01
7.439209323720533118e-02,7.413746154316133707e-02,-4.477844777641699081e-01,1.039167551437169114e-04,1.079057020664455193e-03,9.101565955990076860e-04,5.220550298690795898e-01
3.706398978108274567e-02,8.052371679789607772e-02,-4.427537850808892506e-01,1.177079394459028608e-02,-4.405713029623248636e-03,-2.565193564083875864e-03,5.034483075141906738e-01
-1.287243409360594448e-03,1.281965188724565330e-01,-5.394059702561713188e-01,9.903559523027177791e-02,5.675798804910652667e-02,-3.658852955076365848e-02,6.473948955535888672e-01
3.505360437380855565e-02,7.960479968936629014e-02,-5.071710634013335550e-01,1.002092026205551878e-01,2.028821260147067526e-02,-1.062284002162386214e-02,5.931679010391235352e-01
-2.315226438218465077e-03,1.136827962249064017e-01,-4.578376858754414358e-01,2.479560266394058646e-02,6.149178758196657303e-03,1.051980475191045686e-03,5.251258611679077148e-01
1.634287966254193702e-01,6.243272152680362508e-02,-6.665926990524826401e-01,1.178745065147989435e-01,4.560910032706866346e-02,-8.533078608635646933e-02,8.276924490928649902e-01
6.759896422224120904e-02,4.410834839244912042e-02,-3.636911979480578205e-01,5.035136613272878613e-03,-8.236393132767132197e-03,-6.726721308898193225e-03,4.205318689346313477e-01
4.293668332002287258e-03,3.015204179980506272e-01,-8.115328908739248837e-01,4.306048794183821304e-02,4.314631673911932530e-02,-1.365467630884900120e-02,1.004046320915222168e+00
1.930555386035182064e-02,3.248331651670494091e-01,-8.771707696022941203e-01,2.309300359980501205e-02,6.177314176290084335e-02,1.853815937623618654e-02,1.088574171066284180e+00
9.003844228489840673e-02,4.339840913893297514e-02,-4.473190505862830180e-01,1.143157085140943021e-03,1.374163199715503544e-03,-9.814139936816670615e-03,5.159113407135009766e-01
7.238724172666968770e-02,7.318822106618311230e-02,-4.456554052905709606e-01,2.903258903645580379e-04,2.093944350714005941e-03,6.836033481653138203e-04,5.184578895568847656e-01
2.164983249073204608e-02,2.675898236971697153e-01,-7.948005382653985373e-01,5.752159615554866545e-02,-6.527494991251858725e-02,6.974565922977827258e-03,9.750539064407348633e-01
1.569297840038830216e-02,1.055677067060293017e-01,-4.549100402643388441e-01,3.136658373107586127e-03,8.336774793537284414e-03,-3.173269122216620768e-03,5.216399431228637695e-01
7.174128299250054352e-02,7.628868362411403425e-02,-4.465953849074714155e-01,5.267206960910926971e-04,1.703864918736861574e-03,2.852359501588019549e-04,5.206346511840820312e-01
6.996852207994430639e-02,7.327417340384234645e-02,-4.464728106873219193e-01,-5.360240377346772429e-05,2.070161464996791989e-03,2.352169838801213692e-03,5.181304812431335449e-01
7.482959183018220162e-02,2.210218846520716762e-01,-8.125210574767630645e-01,1.228238359196663909e-01,-8.050321474415798872e-02,6.952861363512975734e-02,1.008805871009826660e+00
7.204123638549414510e-02,7.471427523721146935e-02,-4.477683293409014387e-01,-1.385672171853355884e-03,-5.177061229832618594e-04,-5.896109600040087568e-04,5.211585164070129395e-01
6.505037487953649333e-02,8.516017729130889724e-02,-4.724054174447836485e-01,2.666978490356387843e-02,5.576714809401395884e-02,-1.409798002358790374e-02,5.586870908737182617e-01
1.714470936917116273e-01,1.048189308970900457e-01,-7.514523757754052458e-01,1.183175294125616561e-01,2.147510272563796230e-02,-3.295717014150303936e-02,9.172408580780029297e-01
3.834028676749270947e-02,1.765251160030453792e-01,-6.213391755103374603e-01,1.072150862708664554e-01,1.414557409541298272e-01,-1.104288054523341195e-01,8.225130438804626465e-01
7.995729877105262062e-02,5.752752821107323666e-02,-4.119274314083252730e-01,3.208520951897216728e-03,1.616964688566198058e-02,2.129841416536018724e-03,4.819228947162628174e-01
1.095254297068387062e-01,4.661820628884535966e-02,-5.100405854354461699e-01,1.807087024670008327e-02,-6.221423021715917490e-03,1.346187327348007806e-02,5.920165777206420898e-01
8.034310014966850044e-04,1.039968805529398466e-01,-4.252255293881087583e-01,3.878264727481237767e-02,1.674571736780690670e-02,-7.665997821642452775e-03,4.915717542171478271e-01
2.457619595857132855e-02,9.886113535218885029e-02,-4.513952680839614096e-01,1.808024601589600794e-02,2.068868024444066658e-02,4.705594722267667125e-03,5.193802118301391602e-01
1.534104679566104801e-02,1.990655186470148552e-02,-2.165948527914889066e-01,-5.486370487953274970e-03,7.860638185885181900e-03,-3.819452330721549715e-02,2.439797967672348022e-01
7.657311199996197359e-02,5.251504944401291786e-02,-4.436841774421971252e-01,2.860123644434500127e-03,-1.569931617409087285e-03,-1.941875761165490905e-03,5.086976289749145508e-01
5.197738523114067699e-02,7.531771011347379585e-02,-4.441198924869178555e-01,3.611134732158313362e-03,-2.478734638211101821e-03,-4.595575139919453808e-03,5.082885622978210449e-01
7.984755526240491785e-02,5.691810345477746336e-02,-3.982654330277901056e-01,7.214396534691262276e-03,2.726625484000333097e-02,-9.908250356628882372e-02,4.999934434890747070e-01
3.308593000260254269e-02,7.982398484553981932e-02,-4.440624735398268075e-01,6.102462363722777929e-03,5.294415036617161358e-04,-2.402485726114341174e-03,5.022807121276855469e-01
7.268880880462913474e-02,5.806932924249427752e-02,-4.002561546309238993e-01,-7.933479597767939540e-03,1.087053541077232996e-02,7.391484387452907680e-04,4.663919210433959961e-01
2.495100860358863137e-01,5.145551081961269313e-03,-7.024260506374325752e-01,2.894511677816307554e-02,-1.453406118227819344e-02,9.508215454902789465e-02,8.738111853599548340e-01
4.626625504251286047e-02,1.266640834212425792e-01,-5.212057503286682270e-01,-6.313714377288750373e-03,2.044104050261333003e-02,8.853935803294162368e-03,6.129601001739501953e-01
1.031294175812991210e-01,1.817744853756370071e-02,-4.533279316285411253e-01,-9.309580882691265592e-04,2.073632902062290916e-03,1.124154782095719562e-02,5.195999145507812500e-01
2.909079303234748393e-01,2.132453516433624463e-02,-8.300687000853745889e-01,2.392934261458973255e-02,7.420674731218540945e-03,2.179638836419278691e-02,1.015074133872985840e+00
1.137836491514808146e-01,-4.250753226126682827e-03,-4.473824588424907822e-01,-7.079994113375736794e-03,-6.984096138807333433e-04,-3.012802450697292175e-03,5.126223564147949219e-01
1.140241902788724782e-01,-1.443918365699542461e-03,-4.587648443926241049e-01,1.471955129507764156e-03,-3.730724024780486731e-04,-9.119687488273795981e-03,5.249168872833251953e-01
1.507218209524306962e-01,5.686735503261300395e-02,-5.782918695190346625e-01,9.975874582548810432e-02,-8.205283926381151671e-02,1.376447337378716718e-01,7.607496976852416992e-01
4.063853739065614867e-02,5.226057247952745066e-02,-3.291836671784195700e-01,4.360268128835348249e-03,-1.961321022729543839e-02,-2.954571467224720305e-02,3.808300793170928955e-01
4.820517165241569590e-02,9.312209030578957880e-02,-4.547359062614669822e-01,-2.757847956804074675e-03,6.021596300294551098e-03,-5.049238712908073017e-03,5.270349979400634766e-01
8.725567583079502088e-02,2.573794640988047444e-02,-4.485079162559081900e-01,1.391896253552374688e-02,1.370768074505811750e-03,-1.565789680286481167e-03,5.083918571472167969e-01
1.575818776776270747e-02,2.415302993058202063e-02,-2.219146366992606756e-01,-7.151775400086494289e-03,-2.797356760714939366e-03,-2.397301949139447538e-02,2.458762079477310181e-01
9.459731584729128007e-02,2.829256924602924217e-02,-4.498437704897544909e-01,2.903680769197688246e-03,-1.824210416864550629e-03,9.288213213813022867e-03,5.147887468338012695e-01
2.609146878318892304e-02,4.032916294598307139e-02,-2.415209906263589557e-01,-2.773894135039477703e-03,-4.480141611553275366e-02,-5.736288012811500969e-02,3.025647103786468506e-01
7.695018068887424234e-02,6.294666749868990663e-03,-4.164795655733712354e-01,-7.038916134943670744e-02,3.174333802176518282e-02,2.874901054880717177e-02,4.837023019790649414e-01
2.694807127059966612e-01,4.658647567051843463e-02,-8.201816476755405816e-01,-4.774331093786696179e-02,-1.029769189406459957e-02,7.726480363527547801e-02,1.009570360183715820e+00
6.633652551459651159e-02,6.130659659047182908e-02,-3.964591452550765283e-01,6.366287184704744542e-03,2.973922772262974079e-02,1.483725934273028187e-02,4.640178680419921875e-01
1.058602036570862326e-01,2.118365323003748579e-02,-4.606075212870200386e-01,9.130315996899714213e-04,6.392099859813409101e-04,-3.950325049916087947e-03,5.292823314666748047e-01
9.929335128789476550e-03,1.134045433626765242e-01,-4.588582864388493499e-01,-6.061871784831314447e-03,-9.593547920543826074e-03,-1.848155116975744609e-03,5.285578966140747070e-01
-2.626064144572105852e-02,1.936201109660911635e-01,-5.289695903488245143e-01,2.096628828021255848e-03,1.367880784267235805e-01,5.767969553540841163e-03,6.839925050735473633e-01
2.964153161348007104e-02,8.568700961701358754e-02,-4.454844327861152142e-01,2.533204691510092949e-02,1.590613261747591319e-04,-3.144696723122338260e-04,5.073854327201843262e-01
-5.803502718601560861e-02,1.826698813821137080e-01,-4.916228369325028602e-01,-3.327231227995825283e-03,-8.098220537548425635e-03,-2.713483737016529965e-02,5.939215421676635742e-01
2.336821025741889768e-01,-2.836041951948423123e-02,-5.881744555095040905e-01,9.397817385005502022e-04,-6.071232488923848647e-03,1.576832946629366239e-01,7.768258452415466309e-01
8.442787330353870856e-02,4.840540522409136903e-02,-4.429291256946525368e-01,8.452319339937088699e-03,1.695511242137194867e-03,9.490476483507599703e-03,5.107831954956054688e-01
8.749986045815311142e-02,6.378970538988595895e-02,-4.632650265916488652e-01,4.777261426164003920e-03,-4.628369690454494159e-03,1.444046685336004138e-02,5.400034785270690918e-01
8.227742089103412537e-02,2.051332072071836987e-01,-7.716749767739911059e-01,1.153583329944864733e-01,-4.581181213173646238e-02,6.032682635201469523e-02,9.520388841629028320e-01
5.772808730971773494e-02,5.991231694795809415e-02,-4.384735428812651659e-01,6.408340176975732896e-03,8.078467199504077521e-04,7.159996287732525266e-05,4.974231719970703125e-01
-9.902740227831316466e-03,1.219878483146623616e-01,-4.549709872463624238e-01,5.322540351138720267e-03,-2.029762456792124584e-03,-3.536320576092618836e-03,5.237519145011901855e-01
6.248085487336113575e-02,6.351198320041787082e-02,-4.450738564301817690e-01,5.679196675757948801e-03,-1.341785494643491167e-03,2.192832312011961000e-03,5.081858038902282715e-01
7.935206530264149460e-02,3.825646546964761585e-02,-4.455994418718831063e-01,6.015070215413780529e-03,-3.126111096749201092e-03,3.483589051883926669e-04,5.057944059371948242e-01
6.203960042548326004e-02,6.981257941669935518e-02,-4.444631372966372229e-01,1.733901710001894882e-03,-3.180147706905965977e-03,3.364682618132325623e-03,5.105054378509521484e-01
1.460764433718995114e-01,1.394525501808910883e-01,-7.764199545191861063e-01,1.248405569963991490e-01,-4.104002544029635574e-02,4.149815580608674087e-02,9.496881365776062012e-01
9.373999170720331842e-02,4.245565883906002314e-02,-4.456422222442102399e-01,4.419281582141732119e-03,-8.756729752283531898e-03,3.537140871380075116e-03,5.159724354743957520e-01
1.505796094544355479e-01,4.160011392259160834e-02,-5.779512837181723928e-01,1.120797169706075069e-01,-8.914748430462701712e-02,1.486520594103244719e-01,7.688033580780029297e-01
6.472391827939463771e-02,7.136339919527381892e-02,-4.161153106054295558e-01,-2.385116619293268635e-03,-1.078638319124033441e-02,6.935283357048066880e-03,4.847198724746704102e-01
5.639920643154000546e-02,6.503252969700459851e-02,-4.417499095348104143e-01,3.160426595952024742e-03,-4.277878390071639635e-03,3.754852606538571468e-03,5.026479363441467285e-01
2.495752734607726286e-01,6.770168303353740757e-02,-8.134918911507054151e-01,1.079548016694569235e-01,-6.796944076847255198e-03,3.078073639423124785e-02,1.003887295722961426e+00
1.462546551911469983e-02,1.440258860936289853e-01,-5.098851719788677350e-01,-2.751803062230397112e-02,-1.889505076328622940e-02,9.414036431431404683e-04,6.025555729866027832e-01
3.492093901586537652e-02,1.863357286095672083e-01,-5.969267304662908558e-01,8.807705860235262585e-02,1.177281836173414836e-01,-8.309357935493544289e-02,7.767851352691650391e-01
-4.763239477121583576e-02,1.717507837068477095e-01,-4.759335116562989354e-01,1.771155164025080275e-02,-1.050267870484702104e-01,-3.648379276595408241e-03,5.996714234352111816e-01
2.130093755014139667e-02,1.322636272207362573e-01,-5.008651887592349139e-01,7.140851920762161797e-02,-4.247880730779386715e-02,6.129865266927836398e-02,6.122863888740539551e-01
-3.364890741009485264e-03,1.045589287321301852e-01,-4.635307199760778651e-01,4.695891036658584455e-02,1.770191825173459549e-02,1.229348432622694946e-03,5.297386050224304199e-01
-1.715740938603449450e-02,2.166446555624507719e-01,-6.240220983997748494e-01,-1.952156611040406151e-02,9.072963094373805160e-02,-2.036696953945616589e-02,7.693618535995483398e-01
4.565505884248619028e-02,1.015404959962965814e-01,-4.838274097391592754e-01,7.040073376186915810e-03,-3.082559228981223906e-02,3.587032179079453504e-03,5.622305274009704590e-01
-3.535953042219609765e-02,2.089726038500424599e-01,-5.470672538955471120e-01,-4.325388050918463345e-02,8.226040020355892754e-03,5.242656533911266813e-03,6.726572513580322266e-01
2.550380279799527306e-02,1.149465386473830786e-01,-4.920989370559010201e-01,8.755850283409777335e-02,1.135419503848938000e-01,-1.014282520937862392e-01,6.440079808235168457e-01
5.161043640058854409e-02,8.297452154223128318e-02,-3.942503207848953029e-01,1.606618761703053257e-03,1.037359547502176849e-01,9.408977118579128079e-03,4.963026344776153564e-01
1.678682603691197817e-02,1.035341981556071322e-01,-4.525949813961198664e-01,1.371617246816648344e-02,-1.452797735666227358e-02,-5.387997201992483776e-03,5.194677114486694336e-01
7.570197979548168310e-02,7.605970053151195343e-02,-4.467710626036434651e-01,2.381191580668368807e-03,1.534987218516089364e-03,1.732716872087370231e-03,5.226836204528808594e-01
6.695777238206346293e-02,6.428431322032740480e-02,-3.999631594288462488e-01,1.156230353492425714e-02,-9.573451847391125334e-04,9.121650435413885746e-03,4.662911593914031982e-01
-4.192257217517525447e-02,1.476941699460280755e-01,-4.753388943296782965e-01,2.176594911719837225e-02,-9.941031877310602116e-02,-2.890619481756074444e-02,5.827198624610900879e-01
4.007699641022138826e-02,9.295815407589183565e-02,-4.512946307736216411e-01,4.279795434850671397e-03,-6.645622956348938744e-03,2.649080552802657762e-04,5.200138688087463379e-01
2.968098684058886882e-02,8.289036163160845572e-02,-4.439914188571792986e-01,-2.704381949298523963e-02,3.837954176727323072e-03,-3.312073300672089236e-03,5.046501755714416504e-01
6.937337845904548161e-02,6.827412885474271054e-02,-3.259687901432480328e-01,-5.469577070906513072e-02,5.257280714422004481e-02,8.934959499058846288e-02,4.439354538917541504e-01
3.683560323745280196e-02,1.034735420724771371e-01,-4.842550660900740711e-01,2.419972757389213941e-02,-3.429756206167108856e-02,1.075708735651486822e-02,5.624353289604187012e-01
6.740979684231751534e-02,7.825738327381573378e-02,-4.375851717660855789e-01,3.695718383414255386e-04,1.146480561549098089e-03,6.219290599000351638e-03,5.106230974197387695e-01
7.246629837979037814e-02,6.516996934613872305e-02,-4.708145576131541055e-01,3.228097259799139751e-02,-8.384621385702820465e-03,7.131642386864910435e-03,5.428932309150695801e-01
5.606118400512533073e-02,6.977827548498818921e-02,-4.013738965916869295e-01,8.350700070226377628e-03,-1.007947735393329271e-03,1.157901706730842277e-03,4.646783471107482910e-01
7.057861990211608538e-02,7.175099674751816980e-02,-4.209937812134207924e-01,-7.624162112737782951e-03,-2.125421565483263595e-02,2.290284600348370045e-02,4.953022599220275879e-01
7.410178640327630406e-02,7.920513051046679243e-02,-4.454976288063128842e-01,3.016389923817365450e-03,8.816631320051321720e-04,3.976426858363397315e-04,5.221986174583435059e-01
6.543170116664569214e-02,5.487310714213018692e-02,-1.848172767267661776e-01,-2.608794937947305284e-02,4.257106537804086765e-02,5.218800531573271340e-02,2.752147316932678223e-01
-1.664757147913840246e-02,8.019869205494946363e-02,-1.550816566059713686e-01,-2.755844172135440279e-02,8.718278075686611284e-02,-7.975462168928963702e-03,2.592715919017791748e-01
3.949885922272611261e-02,8.462578522677779991e-02,-4.498316067711092270e-01,6.836245262833225145e-03,4.620224421273666157e-03,-3.526190334260206980e-03,5.136187672615051270e-01
6.896854501652030511e-02,7.681618567634915240e-02,-4.409571254669680807e-01,9.769221531230245364e-04,3.211923183095087043e-03,-1.611390030314543281e-03,5.139349102973937988e-01
8.234308727224862179e-02,5.817124113632951565e-02,-4.194463253987735230e-01,2.275576708637783510e-03,-9.905527606750477027e-03,-1.177671332662078149e-04,4.904667735099792480e-01
6.483701415324255590e-02,1.102653706548172297e-01,-5.026023350873964901e-01,1.097068039818309970e-01,1.446960882916489000e-01,-9.949024074822020169e-02,6.916946768760681152e-01
-6.965352362148950760e-03,8.999553827760614633e-02,-2.542887869205661677e-01,8.050781244473131926e-02,1.667448135561457045e-01,-4.267859118882676855e-02,4.504124820232391357e-01
8.584280449067743790e-02,6.096448711465182746e-02,-4.309950124365937718e-01,-1.879687573394764073e-03,8.398205316748793810e-04,-5.534598389674241390e-04,5.048720836639404297e-01
5.121398377496130805e-02,6.532244068601858467e-02,-4.398099644624992033e-01,1.696441527850907436e-03,8.942813827762528854e-04,-6.885872428211946283e-04,4.982405304908752441e-01
1.510736219196527619e-02,6.433095775350874956e-02,-3.034002319758104527e-01,1.164804752520666453e-01,1.733819169087121859e-01,-1.332372874247392258e-01,5.510822534561157227e-01
6.898200294811748789e-02,6.829200637969204402e-02,-4.453153465677180955e-01,-5.397421345617555745e-04,1.015794851668165664e-03,1.061337529116245263e-03,5.139598250389099121e-01
6.925517831851546458e-02,6.363289654672671380e-02,-4.034053619015289804e-01,-1.008745137880866401e-02,8.167676078997420167e-03,-1.099120661481104051e-02,4.707971811294555664e-01
9.231717129178196313e-03,1.100558264912705753e-01,-1.931562870565530221e-01,1.925978889894624721e-02,5.903261291156464835e-02,-1.790825809562690118e-03,2.882862985134124756e-01
8.013731227635897958e-02,6.895722646978405534e-02,-4.454027136993889968e-01,-1.001932342513946108e-03,-1.632485586057813923e-02,7.252717139536236403e-03,5.209625959396362305e-01
8.666397256026767137e-02,6.325425247131141737e-02,-4.365426061345601960e-01,-8.277448616584137230e-04,-3.052615828095868629e-03,-1.184505882391174211e-03,5.119367241859436035e-01
1.674409547293288780e-03,1.322529649141564456e-01,-2.913757465858637374e-01,1.543953989261271503e-02,1.351810997148759352e-01,-1.904579169903006589e-03,4.435572326183319092e-01
-1.581242647551939218e-02,8.429131144999549297e-02,-3.173721330268427510e-01,1.392204318436599669e-02,6.994158770889685739e-02,-4.348541349293202213e-02,3.899694383144378662e-01
8.736483935176622695e-02,6.207262757498954731e-02,-4.333558237873382790e-01,-2.558620153198422483e-05,-3.534956167144696643e-03,-4.075701188179023512e-04,5.085838437080383301e-01
6.097033915449442953e-02,7.754015564974112151e-02,-1.768451908973828757e-01,2.327879454765168984e-02,6.658777382400488110e-02,-3.874414178872641334e-02,2.831998765468597412e-01
6.368831761841500794e-02,6.722869489453536795e-02,-3.957669083385607633e-01,-4.376634112373638513e-04,1.795669958372746178e-02,-1.171072038947362261e-02,4.627284407615661621e-01
1.666123474891380296e-02,1.257488997858889068e-01,-3.726663976183556826e-01,4.708337386306939848e-02,1.471388716069992608e-01,-3.902821107651710530e-02,5.311465263366699219e-01
6.830919635793461508e-02,5.742488089469569013e-02,-3.983136841367933556e-01,1.213311258044730105e-02,-2.220257790435605644e-03,1.435533522073952767e-02,4.624404311180114746e-01
3.440516729781446792e-02,8.212289738873362888e-02,-1.856198224025099874e-01,-1.908852806815672029e-02,5.014530356233512509e-02,2.605190891960197305e-02,2.680670619010925293e-01
7.436826197867119070e-02,5.126566297915699510e-02,-3.849537675632616618e-01,3.658505911354460911e-03,2.128503094089231190e-02,2.978589190599195084e-03,4.498053491115570068e-01
6.875480446567122650e-02,6.922413406241653688e-02,-4.454092287096297342e-01,-2.559995219115107808e-04,8.808225493429124855e-04,8.118669837134446414e-04,5.144032239913940430e-01
6.428498883573605105e-02,6.729794866298907663e-02,-4.126225763372362021e-01,-7.127123611388207821e-04,1.311908134124998085e-02,-8.398856697948743621e-03,4.791829288005828857e-01
-2.825019073558918126e-02,1.472065410290438470e-01,-4.942392197404461007e-01,5.068690724691943261e-02,9.165330227942072860e-02,-1.193626825495239761e-02,6.025177836418151855e-01
6.529693771632005816e-02,6.928021279536697441e-02,-4.448898322805552863e-01,9.323338901394810380e-04,-3.043241238277811893e-03,3.956879232234017884e-04,5.122201442718505859e-01
6.842894085707548757e-02,4.682666392728730698e-02,-3.425752929859908757e-01,-1.759819425821075936e-02,6.074347176044386787e-02,2.135123051781916484e-02,4.169874489307403564e-01
7.968447452979890433e-02,7.257462708450829192e-02,-4.464360233313906523e-01,-2.065701480227962947e-03,2.128153824323423746e-02,-1.470367063689591823e-02,5.245310068130493164e-01
2.776492278593425955e-02,8.520093978886961184e-02,-4.454098328681685426e-01,1.339213855233232706e-02,2.379895638872351650e-03,-4.931693816908646862e-04,5.049022436141967773e-01
-1.707454900758774430e-02,2.389444107921706029e-01,-6.107641758705937285e-01,1.453853023485674259e-02,1.062691405329588973e-01,-1.641117380066008796e-02,7.780297994613647461e-01
3.625379548967938570e-03,1.670601514984683122e-01,-5.236207626746802735e-01,6.166722205146567271e-02,1.266001685033791291e-01,-3.060566055931324830e-02,6.731799244880676270e-01
3.318976212455498898e-02,1.044958423608906561e-01,-4.534380666085148226e-01,2.808652057817324736e-03,2.079799688033535585e-02,2.623828034277611923e-02,5.291289091110229492e-01
5.518124647376676517e-02,4.647689671857793692e-02,-3.480435365381102653e-01,1.089607073388253015e-02,1.662523562676593639e-02,1.297975897106528297e-02,4.010573327541351318e-01
2.346019638112645245e-02,7.728017497243688805e-02,-3.827255732430508428e-01,-2.933263313700244139e-04,3.085063982784073261e-02,-6.829398525756849060e-03,4.390214681625366211e-01
7.604709634255862882e-02,5.942700022479072142e-02,-4.095684406123765720e-01,8.843019786681191249e-03,1.363508436284555612e-02,5.330626538364294752e-03,4.784404635429382324e-01
4.643043593072451736e-02,4.948920425748677687e-02,-2.916367154170308451e-01,6.326021184505716509e-03,8.529219304243937372e-02,2.627509174597646331e-03,3.705372810363769531e-01
1.127455041003134761e-01,-2.235481831511273998e-03,-4.544536964071222984e-01,2.437211594836182372e-03,-9.925816085853795493e-04,8.450419212653739048e-03,5.195704102516174316e-01
2.605118260412553899e-01,5.381602210261518526e-02,-8.009234129794189361e-01,5.284572706221826732e-02,-5.313348842290142870e-03,6.781321138058618581e-02,9.860184192657470703e-01
1.120288308147620870e-01,1.972714198331407265e-03,-4.511953989892094063e-01,-2.034833345945621756e-03,5.065039818211561134e-04,3.560172763156819759e-03,5.171061754226684570e-01
7.761371531800384527e-02,5.867762811071108864e-02,-4.453553895380577554e-01,-7.181960674986196964e-04,-4.345917655386224705e-04,7.542610500421622483e-03,5.139309763908386230e-01
2.192676794283950070e-02,1.701749187862980350e-02,-2.013067819739333963e-01,-3.151027499847494813e-03,-4.137507819157964367e-02,6.685527982862057850e-02,2.594913542270660400e-01
7.180197769524937490e-02,7.638941702194360084e-02,-4.423055009458232156e-01,7.725563656097994688e-04,-1.020892376524138280e-03,-1.360081521527991655e-04,5.164213180541992188e-01
7.357731583011145604e-02,7.098105027997556049e-02,-4.464791173787989176e-01,6.471710416839390571e-04,-5.767754492398473277e-04,-3.618374359795716705e-04,5.187657475471496582e-01
7.395497818892624031e-02,7.649605246449636686e-02,-4.451308806709780019e-01,7.841395704785293196e-04,6.298257466209311855e-04,-5.364741450428435129e-04,5.203648209571838379e-01
7.128474105158816299e-02,7.716093699014642260e-02,-4.426343776909756333e-01,1.354581109332239977e-03,2.066857738923182477e-04,-4.342850942692023063e-03,5.169424414634704590e-01
9.830269656335599571e-03,1.245253880582149475e-01,-4.835912570863716287e-01,-1.807049457173097798e-02,-7.586156891722195365e-03,-1.016187872993595462e-02,5.609589219093322754e-01
6.455549846689859206e-02,5.196998290671822618e-02,-3.726281577910586784e-01,6.767579290590899563e-03,-3.739576079112463813e-02,-1.612983836827014059e-02,4.369198977947235107e-01
6.451124833662930103e-02,7.021599537308773065e-02,-4.056655025608565390e-01,-8.535925926693974791e-03,1.039697548086703296e-02,-8.029976780806954983e-03,4.738325476646423340e-01
7.536212643858625215e-02,7.584785193875459575e-02,-4.462581680281726970e-01,-1.721702784982306021e-03,-7.382367895687878172e-04,1.008870635975981115e-03,5.218763351440429688e-01
2.255927869050047829e-02,1.013410157894141517e-01,-4.524411910348951071e-01,-2.493578767970844323e-02,-8.061578742861242805e-03,8.967803025168060013e-06,5.208778381347656250e-01
6.643316626836384686e-02,8.073576524141587440e-02,-4.329788586930781724e-01,6.470055065927452680e-04,1.365807647455004022e-03,-1.218319267921813684e-03,5.067259073257446289e-01
7.146592594408449073e-02,7.653034908509315226e-02,-4.476158487312054679e-01,-2.145807947649184394e-03,-1.096598920475681251e-04,7.840939065073102184e-04,5.216474533081054688e-01
2.011107480286589144e-02,9.607982087693756057e-02,-4.477932032762610426e-01,-6.352386470771766852e-03,1.237357885696631181e-03,3.775057909677838330e-03,5.103138089179992676e-01
2.579893591624066174e-02,8.381246663074767844e-02,-4.436532193714085026e-01,-1.542914347423368984e-02,1.697194354459042155e-03,2.000216812205010252e-03,5.017173290252685547e-01
6.798033542830378417e-02,7.158952590059747267e-02,-4.415678587298283442e-01,-9.742857553865882578e-03,-1.322463834226520613e-04,2.848463955221849832e-03,5.116645693778991699e-01
1.046874182069085224e-03,1.031773288850502956e-01,-4.227834428015626589e-01,-4.388811751608746176e-02,-3.437268677506654518e-02,3.675837912635983654e-03,4.926583170890808105e-01
-1.042415784592756745e-03,1.192333104752748008e-01,-4.712890649693932121e-01,-6.579381721127869342e-02,-5.496547648466464098e-02,-5.808838845539437273e-02,5.695000290870666504e-01
7.750692895204541744e-02,7.420777118896362823e-02,-4.516964006733866777e-01,-4.066185099484012980e-03,3.307883950110401556e-03,-4.939313100677509595e-03,5.277089476585388184e-01
1.044633623278091311e-02,-5.479881178540663839e-03,-1.009793546267716974e-01,-1.121643374575591323e-02,-6.528397570804368721e-02,-8.077374755364476189e-02,2.088811844587326050e-01
4.052493119048147796e-02,3.980436143327562015e-02,-2.606352468322137295e-01,7.994117288143274451e-04,-7.322274530895861444e-02,2.374064069965355420e-02,3.290265202522277832e-01
2.154085973921485153e-03,3.181957338674455682e-03,-1.512352007427864020e-01,-1.394706022671509098e-04,-1.220749516168730814e-02,2.755175172164492023e-02,1.625159084796905518e-01
6.512719122185775533e-03,2.673995312937695046e-02,-2.166406326408621408e-01,1.728482820622705141e-03,-6.805003225232124364e-02,-2.968070880731569355e-02,2.669542133808135986e-01
4.564994925467122378e-02,4.247552845169459690e-02,-3.194327483848326543e-01,5.480770557122693724e-03,-2.394280871320286774e-02,-2.975054199434348443e-02,3.695966601371765137e-01
5.025844270985210804e-02,2.713625662482710421e-02,-3.037570411653119917e-01,-1.353507131963017007e-03,-2.833002473510855268e-02,-8.244398320423077181e-04,3.465419113636016846e-01
2.314941616587876116e-02,2.989096314981098956e-02,-2.697213680430375904e-01,3.915639803646021530e-03,-1.487096086279769518e-02,-2.392061977055283395e-02,3.003650605678558350e-01
7.269689827384032133e-02,4.735688108315205813e-02,-4.432619685419787459e-01,-6.829251402129603646e-03,-4.695635880131607438e-03,-4.407861349420249576e-03,5.040293931961059570e-01
7.579699582776369682e-02,7.150963375638610953e-02,-4.338181119815179287e-01,-7.643789414973426941e-03,-2.038318368125084570e-03,2.541922857912074559e-03,5.076890587806701660e-01
-6.856974518344591263e-03,1.484560728621087122e-01,-5.360876795159610353e-01,2.772327057075887891e-02,5.924921944571898656e-03,1.130796586213118730e-02,6.238576769828796387e-01
-1.150286173454617700e-02,1.302446229847286641e-01,-4.752315478696803042e-01,2.296888621215969692e-02,1.676438274659582464e-02,-4.080018263118250638e-03,5.507674813270568848e-01
3.354682044745060931e-02,2.185469284837519011e-01,-7.668234055087211898e-01,6.675279203783088255e-02,-8.075929893391334269e-02,1.682980801302767782e-03,9.251100420951843262e-01
7.472913282266324675e-02,7.652755624140683555e-02,-4.494739941475075495e-01,-8.047064549133371193e-04,-5.575286654678508064e-04,-1.365487293658459121e-04,5.251074433326721191e-01
7.867011506626581108e-02,6.991847816933141613e-02,-4.427073420813781301e-01,1.886304090207881635e-03,-7.176291735529065395e-04,1.291468143156727401e-03,5.170738697052001953e-01
7.213435710369320297e-02,7.641169968845104576e-02,-4.460407083399061112e-01,-8.945633171408195940e-04,-4.539653315670516684e-04,-1.442625880664740899e-03,5.203357934951782227e-01
-5.197340948116710435e-02,2.035905054138312797e-01,-5.830271512848702598e-01,-7.006652824518873682e-03,-4.856202232880994091e-02,2.630590103611350327e-03,7.002085447311401367e-01
2.403379528568283519e-02,1.314144712668783854e-01,-5.392167354863710571e-01,-5.933803330332133863e-02,1.332839221566995691e-01,7.042106340472222004e-02,6.841039061546325684e-01
6.458801630692423412e-02,4.607951298611825952e-02,-3.611378091134663237e-01,3.918310238368726169e-03,4.037435426868729582e-02,3.003457677679774885e-03,4.226924180984497070e-01
7.315207765083317493e-02,5.001175745788435933e-02,-3.817946260301282591e-01,-5.585216119712823257e-04,-1.735366654909590092e-02,-3.692365181929129717e-03,4.448928534984588623e-01
7.841808283039269911e-02,7.349067004931408853e-02,-4.447729169043408426e-01,-6.778661810593134343e-04,1.304465148250382074e-02,-1.812248504930596710e-03,5.212454795837402344e-01
8.268432412095202966e-02,5.966159691749253757e-02,-4.218640083629212612e-01,-5.143036330929643199e-03,1.531945700433592211e-02,8.716680492464753092e-04,4.942354559898376465e-01
1.882475754262692702e-02,3.359040685950882843e-02,-1.553603456304318842e-01,1.437869059050526921e-02,-7.192516411574527424e-02,-3.630968605569605961e-02,2.307066023349761963e-01
2.539198328117436843e-02,9.908444951930239775e-02,-4.563583124421677906e-01,-1.179761489161822337e-02,1.521495140925446972e-02,1.060360617457476243e-02,5.238937139511108398e-01
8.065964754266108372e-02,6.840901599072710115e-02,-4.410876465126812862e-01,-8.966685708529985397e-04,3.655829676364995024e-03,-1.042695636669345883e-03,5.157755017280578613e-01
7.575673714229733124e-02,7.469749345133239182e-02,-4.488812394986093635e-01,6.115688719617593579e-04,4.503487895149446918e-05,5.077425772098339033e-04,5.241109728813171387e-01
6.698108850630823952e-02,4.767679027127330604e-02,-3.615192812491690999e-01,-1.191620806754890979e-03,4.134940495791911835e-02,2.297069848362656708e-03,4.252795875072479248e-01
4.542947300712213421e-02,6.970012171254511002e-02,-4.424726006458293281e-01,1.115580423265514522e-02,5.081061825931209924e-04,-4.602444515308168121e-04,5.008532404899597168e-01
4.600551872123379016e-02,6.625755849470157943e-02,-4.403588494703977729e-01,8.360751176124968376e-03,-1.143495905534783240e-03,-8.884594771785705005e-04,4.970174133777618408e-01
7.478243820849544976e-02,7.624941650278260763e-02,-4.495777692110394796e-01,7.269117601039355291e-04,4.580856930642970902e-04,-4.993980115251997313e-05,5.250973701477050781e-01
4.203619694012025731e-02,5.927960759616118791e-02,-4.553538878508257559e-01,5.635371924706801539e-02,-1.335641082791784624e-02,8.696121317379970628e-03,5.162947177886962891e-01
1.696294816183543941e-02,1.168322656792121772e-01,-4.984232597178845925e-01,-1.525491990215628590e-02,-1.550250679598009357e-02,5.180977581329915434e-03,5.732082724571228027e-01
7.151610777264053032e-02,7.151944693315362422e-02,-4.630815424314796980e-01,-1.452960762113464019e-02,-1.152628941000198408e-02,-6.259633613276431065e-03,5.356733202934265137e-01
7.170473013276146279e-02,7.033744887747317431e-02,-4.458027881024204109e-01,-7.370804728442656786e-04,2.040147614589771403e-03,1.707966228148144038e-03,5.168473720550537109e-01
7.047172920487712600e-02,6.280300343491737602e-02,-4.491232634652579381e-01,4.276961312744287196e-03,6.025213667958030650e-03,-4.293079893564213934e-03,5.160157084465026855e-01
4.679253358869633894e-02,7.046851826572969602e-02,-4.410330115235065462e-01,1.525876470605185345e-02,4.767629127293849514e-04,2.021560494541347480e-03,5.007948875427246094e-01
6.839177670386700769e-02,7.903571047326299337e-02,-4.319414218991095566e-01,-5.703776232606342853e-03,-1.139522007665014474e-03,1.041734956924232234e-03,5.058427453041076660e-01
7.587233714523747286e-02,7.463944383289480844e-02,-4.491727309387191225e-01,-6.807450609923865583e-04,-2.010634602326129749e-04,3.469524632009279527e-04,5.244314670562744141e-01
7.264679565286275009e-02,6.689645162672719358e-02,-4.457930115185732567e-01,1.055207830712970047e-03,3.419125529518600155e-04,3.080810967654006634e-03,5.156198740005493164e-01
7.181975999125012056e-02,7.852897420755261537e-02,-4.398077047070973467e-01,-3.576013940005715042e-03,1.232943762576307455e-03,-3.639369147786035083e-03,5.150951147079467773e-01
7.308346243805713405e-02,6.721563088395574037e-02,-4.446855232981743455e-01,-1.617196096533183788e-03,1.147545804538854190e-03,-1.992242233079679226e-03,5.148831605911254883e-01
2.468121176624499258e-02,8.371925359400150812e-02,-4.462573308862456400e-01,2.508288253237232063e-02,2.116337211024419979e-03,-3.348025186960703562e-03,5.049815773963928223e-01
-2.068717966250410711e-04,1.296865127198090772e-01,-4.859302865817485273e-01,4.173546386057908758e-02,1.338647097112175607e-03,2.079750582763048323e-03,5.666883587837219238e-01
6.339890843825940481e-02,8.053248817035435492e-02,-4.477641217705091159e-01,2.393624181605792049e-03,1.494728813772925116e-02,9.276622508549263457e-03,5.208501219749450684e-01
2.822942759879923380e-02,4.273820128921296257e-02,-3.987937322996487621e-01,-9.456670027115771093e-02,-3.019760758004462822e-02,-7.508455417816063682e-02,4.850074350833892822e-01
-4.337041925675247378e-02,1.772441113519782618e-01,-4.970057113126513104e-01,-2.636350769717065584e-02,-6.097430160859061699e-02,2.684668392278463656e-02,6.082230210304260254e-01
3.944326985450929968e-02,1.002049570543945556e-01,-4.609573634343140935e-01,6.481226455980098819e-03,-8.958439025090502925e-03,2.165476399196093402e-02,5.350434780120849609e-01
7.576296465457979523e-02,6.957903990058911248e-02,-4.405056718871609989e-01,-7.701190999427556946e-06,4.608700129506013848e-03,-8.880610639784009127e-04,5.132690072059631348e-01
5.463416846843072161e-02,5.924985838495619439e-02,-4.375827719475013367e-01,-4.787920869479853764e-03,-3.380078713775844321e-04,2.322695723582699726e-04,4.946109652519226074e-01
5.441839707226900358e-02,8.933531306117523108e-02,-4.293555323869236440e-01,1.034039806159557824e-02,-2.493490142754233377e-02,2.918361623368403730e-03,5.043410062789916992e-01
-3.135766986405692791e-02,6.887080150305238679e-02,-2.760365948620823739e-01,1.274557714119867007e-02,-8.868068790285521530e-02,2.788363280808109704e-02,3.476347923278808594e-01
3.421658465055651965e-02,7.337317048154398669e-02,-3.599792925221126372e-01,2.964503834390592313e-02,-9.843241633236715638e-02,1.014061461128084804e-02,4.520738720893859863e-01
-4.995702260878553957e-02,1.639262270867896110e-01,-4.761055691505302612e-01,3.751222574679071060e-03,2.735035933796822662e-03,-1.031986079561710880e-02,5.646935701370239258e-01
-3.980534134752620329e-02,9.107040468989402449e-02,-3.176600677451175692e-01,-2.025651447773669546e-03,1.077415369299760950e-01,2.030206036145923779e-02,4.083744585514068604e-01
6.040146838857538003e-02,1.144768973668238432e-01,-4.715569910450617130e-01,1.297967701565149855e-03,7.511808040911638340e-02,1.782864615673378228e-02,5.766772627830505371e-01
7.377300820701726547e-02,7.690005028909951967e-02,-4.484752589707103887e-01,-1.050928850885727781e-03,9.310620530238077541e-04,3.064163379138875199e-04,5.238246917724609375e-01
7.530030314300836802e-02,7.410297974433174839e-02,-4.482127613062970584e-01,-1.135353593107402896e-04,4.328638398222114676e-04,-3.733575578131419193e-04,5.229163765907287598e-01
1.112616535507751636e-02,1.058187748552786855e-01,-4.521620298789940096e-01,-2.588371326474357432e-03,-1.283853478851823028e-02,-6.046421217522502355e-03,5.177807211875915527e-01
4.923998081468689003e-02,8.570752522080549163e-02,-4.474048823519206630e-01,2.488252381067902752e-03,-3.616284217904016871e-03,1.358060963725671441e-03,5.159077048301696777e-01
6.033989150645746591e-02,6.610380547204161572e-02,-3.941486553815017890e-01,-8.699927758265821320e-03,-7.356629470252263291e-03,-3.653670814471271164e-03,4.578669667243957520e-01
4.735771593725882078e-02,6.159130104029669761e-02,-3.625117538677502527e-01,-9.575749266037382815e-03,-1.949295730875770310e-04,-1.084872549349537177e-03,4.175023436546325684e-01
5.214801707742461323e-02,8.036131468628382457e-02,-4.404300869872341817e-01,-1.403238482717449141e-03,1.451581424659496985e-03,3.660952406163841280e-06,5.072855949401855469e-01
3.615700593799903162e-02,1.007436561218503224e-01,-4.568122299457999524e-01,3.164274265161027590e-03,8.655750230912494236e-03,1.066223283737708282e-03,5.284766554832458496e-01
7.662172444166928664e-02,7.309161082230036799e-02,-4.474869046337007772e-01,2.854799452838360872e-03,1.767509891201885950e-03,1.165722082846950983e-03,5.223888158798217773e-01
6.979584531707436201e-02,8.032800760871447454e-02,-4.405146132301122619e-01,1.526051159389478669e-03,-1.561810679712890204e-03,2.041159064847231606e-04,5.156711935997009277e-01
2.505216708049330387e-01,2.947465452698277977e-02,-7.345684627390243193e-01,-5.333030381506739803e-02,1.909361863841570542e-02,5.165086881224323356e-02,9.050650000572204590e-01
6.980848698641212158e-02,6.898244203571354816e-02,-4.152503342713314005e-01,-1.023891522668007696e-02,1.536674563378263121e-03,-2.242502835701389117e-03,4.849935472011566162e-01
8.514728003927651834e-02,6.015720146891473386e-02,-4.736751523065161340e-01,1.504456593807506140e-02,-7.223772655694276484e-03,-1.164316683113950915e-03,5.475232005119323730e-01
9.284936550153261026e-02,2.994532843985961423e-02,-4.457855764196667625e-01,-2.382399371774990629e-02,-3.974070956770308499e-03,2.898133006295438782e-03,5.118374228477478027e-01
1.152225015880971315e-01,-2.755049219275867989e-02,-4.267974560053780508e-01,-4.447346231542356060e-02,3.301511222384635735e-02,6.308059348914821229e-02,5.078632831573486328e-01
1.129231910086347379e-01,4.591001592379878593e-04,-4.628044074392442808e-01,-2.069371002013338512e-02,-1.518747957421440935e-03,-9.327323872091793089e-03,5.300135612487792969e-01
1.112109612770072475e-01,1.691729074436673641e-02,-4.605368332196949632e-01,-5.659638577239734999e-03,2.109393144792507183e-03,-9.893705217695574275e-03,5.312981605529785156e-01
1.602441673853113313e-01,-3.890984721225386467e-02,-5.201882979845311450e-01,-8.540136217252897784e-04,3.468901650077226353e-03,5.303807133447516198e-02,6.128761768341064453e-01
1.915659019130541707e-02,9.354297778154135878e-02,-4.477765162102474994e-01,1.379721325241155955e-02,8.651795308267210688e-03,-3.432895667245166281e-03,5.090425610542297363e-01
6.520987587759186077e-02,8.210891268428330281e-02,-4.324754939852972768e-01,5.693009090149797309e-04,8.813163470307177911e-04,-1.051698195668422301e-04,5.063497424125671387e-01
4.523281007747895210e-02,7.252728759158119654e-02,-4.564082768719379124e-01,-2.157903612900974322e-02,1.216932528822628305e-02,5.123198509491932832e-03,5.176879167556762695e-01
1.182462440975584061e-01,3.412293702200322465e-03,-4.597330720808147086e-01,9.409838751242710631e-03,1.438090556206698045e-03,-6.808288061773767538e-03,5.303642153739929199e-01
1.143452388122045416e-01,-5.921760286078492364e-03,-5.175979970487424309e-01,-1.267920215074288259e-01,-4.754079284293423469e-02,-1.995084048739983670e-03,6.267658472061157227e-01
1.696380392839635931e-01,-5.432243542696002514e-03,-5.654814781051551442e-01,-4.818417099431519107e-02,1.563049198604664000e-02,2.877802186290159131e-02,6.727074384689331055e-01
1.621129609930059834e-01,1.587754083995831511e-01,-8.251989318883604652e-01,-1.287279499545451456e-01,-3.404708314828398807e-03,-5.277530958692732560e-02,1.014693975448608398e+00
7.299436991540456110e-02,7.438981888155160593e-02,-4.470523334618751732e-01,-7.004544951191912913e-04,-2.651677628091321862e-03,-2.393804430081297209e-03,5.207840204238891602e-01
6.479268632695597829e-02,6.175909821570457758e-02,-4.415385818047208311e-01,1.311689586970788161e-03,1.403595073646692146e-03,9.432523402443080979e-04,5.048348903656005859e-01
6.213952692504742803e-02,8.459281861173337247e-02,-4.577452101790797090e-01,4.028474180427495631e-03,3.364893383589198650e-02,-4.551289270588063270e-03,5.347569584846496582e-01
1.633688893056105540e-01,-3.691047133937430669e-02,-5.102685140141540732e-01,-4.670797694871425994e-03,-3.739509973017429749e-05,-5.519397580111724128e-02,6.067850589752197266e-01
1.281266639277338082e-01,-2.652407758123055681e-02,-4.592372397079971247e-01,3.983940107513021106e-03,1.999565303620427868e-03,-6.000635407391695505e-04,5.273875594139099121e-01
4.041782286726949835e-02,1.195718063250741925e-01,-5.137095859197300385e-01,-2.463756000374464628e-02,3.245713774721007555e-02,2.357870091209578883e-02,6.031858921051025391e-01
1.316252443584283172e-01,7.931078245306033558e-03,-5.005497408862678022e-01,-4.137357644953750272e-04,-7.651081564565989993e-03,6.854487749545190058e-03,5.805740356445312500e-01
1.335670854518373196e-01,4.332561469249354702e-02,-5.323253596590844516e-01,2.585837460685169037e-02,1.006976038005751462e-03,-1.312305401068620571e-02,6.276868581771850586e-01
4.307235166233197576e-02,8.910783246272660496e-02,-4.505163625406949368e-01,-1.450734550220546390e-03,-3.428495286401866786e-03,2.718330968069863560e-03,5.182040333747863770e-01
9.607449026182257601e-02,2.329792722991888554e-02,-4.621021995951917760e-01,6.406550304196480944e-04,5.953145894770499845e-03,1.059559118248543270e-02,5.260035991668701172e-01
8.237694341782214602e-02,-9.720528903215189254e-03,-2.902702379708180791e-01,-1.671344548065886899e-03,1.706822121758592992e-02,7.760966932332548363e-02,3.632906973361968994e-01
6.885572252152069583e-02,8.628646932349612331e-02,-3.649558587410105526e-01,-6.519997109467137730e-02,1.018744257206253417e-01,7.151962009089800343e-02,5.052637457847595215e-01
1.769044145461599882e-02,4.719462531379914338e-02,-1.706113475640145538e-01,2.184357142336497762e-02,6.869666973965857237e-02,-2.918184151905756779e-02,2.450053393840789795e-01
6.557177201436170666e-02,5.860605913093031027e-02,-4.409572710717455379e-01,-1.941869118593995015e-03,-2.376822317811644845e-03,6.636385537767981041e-04,5.031117796897888184e-01
3.897806744891448016e-02,9.203185977407926655e-02,-3.171869735403480273e-01,-4.729150903022193153e-02,9.895532438445613088e-02,4.535394472388974002e-02,4.368306398391723633e-01
7.341916834065823072e-02,7.082422496064885720e-02,-4.465604068061158616e-01,4.234871659627634493e-04,-1.273563093708100433e-03,-1.467068747521690138e-03,5.186983942985534668e-01
8.464345964917549536e-02,6.361615843673162907e-02,-4.355650721116453572e-01,1.578196590256758861e-03,1.128139578488424272e-03,-5.402450736936858806e-04,5.100319981575012207e-01
8.221059208740719160e-02,6.546505254440443400e-02,-4.337978464658279742e-01,1.421246405974125335e-03,4.984004618561099689e-04,-1.168176721131736510e-03,5.078535079956054688e-01
7.965620982279633666e-02,3.866338927935814018e-02,-4.442967524143391356e-01,5.738464789388890604e-03,8.650082465889454529e-04,2.158816752195524217e-03,5.048205852508544922e-01
8.187325447972473857e-02,2.482497327353008765e-02,-4.419752620653546460e-01,5.555876038412003136e-03,1.997667726994531694e-03,-9.698863169894671524e-03,4.981705546379089355e-01
8.800223398940554276e-02,4.058145855709269223e-02,-4.564544885007994490e-01,2.179182969774288645e-02,-3.403606011043135583e-03,-6.091960837399306578e-03,5.238645076751708984e-01
6.115487138293007607e-02,6.010145340323050367e-02,-4.393657091396996339e-01,8.811510184259000681e-04,1.572643365632804503e-03,-1.612981861536159130e-03,5.000122785568237305e-01
1.027867918919363466e-01,1.691951716652989601e-02,-4.530505756671358020e-01,-7.707482006339139158e-03,-1.660131212674463563e-03,-1.225803470665023064e-02,5.188809037208557129e-01
3.065212170917636092e-02,9.274245353620144683e-02,-4.478609751939406358e-01,4.086841116969388947e-03,-4.550793674308804999e-03,-2.343670468412757755e-03,5.125131607055664062e-01
4.695823823290651289e-02,7.248268679818131721e-02,-4.459715171902619568e-01,8.997005009306431253e-03,1.177444181447908630e-04,-1.023590886302056598e-04,5.064147710800170898e-01
6.830550714040822813e-02,6.482493892160823279e-02,-4.070136274592978110e-01,-1.053658956097399714e-02,4.030162535917586331e-02,-2.008284347121924718e-02,4.803141653537750244e-01
7.387475184088809765e-02,4.529639477391861346e-02,-4.435224199855681282e-01,6.324032793969510194e-03,5.554464154171415494e-03,-5.903892231042502832e-03,5.040310621261596680e-01
2.750130575074383188e-02,1.075980716005642546e-01,-5.021555448598780114e-01,9.093048159298282307e-02,7.545975091216035324e-02,-2.964540347816409932e-02,6.114734411239624023e-01
3.740967803876540931e-02,7.858954892881056531e-02,-4.409421971483891145e-01,4.212154420577264059e-03,1.543736686483714905e-03,4.317786853850264471e-03,5.003309845924377441e-01
5.143276865117862862e-02,7.016028935076190631e-02,-4.417275478294447333e-01,1.365736510413535082e-02,1.101733543567279001e-03,3.691239052814224153e-03,5.033861398696899414e-01
4.514688210345924047e-03,1.074892051723607966e-01,-4.579448720878745993e-01,9.780861727222067356e-03,6.765679477512706597e-03,1.332375071176734437e-03,5.220381021499633789e-01
6.457162020822673765e-02,5.555258844600513557e-02,-4.406500276841040509e-01,3.338912877739795212e-03,2.275838790380153766e-03,-3.479400176658065027e-03,5.008581876754760742e-01
5.143180807740690974e-02,7.675252112825164952e-02,-4.433729642905289148e-01,3.130971059435800653e-03,-2.715749112472900292e-03,-3.087016592935789162e-03,5.080175399780273438e-01
5.491649933079351120e-02,6.994525304823323575e-02,-4.429136344016766924e-01,4.779856216520017922e-03,-2.550399152704204385e-03,-2.689597552723965723e-03,5.056206583976745605e-01
2.791711572947344622e-02,2.518745035130054988e-01,-8.059389008010405808e-01,4.857970951008977467e-02,3.709588154122626241e-02,-1.251130546598299385e-02,9.715445637702941895e-01
5.183659373964599748e-02,2.596519919446269586e-01,-8.291667231935939686e-01,7.957529720533183804e-02,3.759630977272672425e-02,-3.440328210978969847e-02,1.014508724212646484e+00
7.065631626283216948e-02,5.726783930151829738e-02,-4.435252913257933804e-01,6.104361637209401552e-03,-1.775447147972759356e-03,-2.026951585256374973e-03,5.077513456344604492e-01
1.717272399499952806e-02,1.064501966917715259e-01,-4.580392959968238031e-01,3.028242675588456705e-03,-1.087728110320008816e-02,2.316640235320009157e-03,5.259479284286499023e-01
2.360892651921639440e-02,8.711960319278969078e-02,-4.437447997266559252e-01,1.403199481272379701e-02,-2.801438525768604063e-04,-8.374030199480695822e-04,5.027207136154174805e-01
2.403860033584201417e-02,2.873525011904592974e-01,-8.734514685201192341e-01,1.380468407638058437e-03,5.541291672824614351e-02,5.295786775910860545e-04,1.058471798896789551e+00
1.707317899849196130e-01,1.387475400934895520e-02,-5.307696455996475660e-01,-6.425562976381311853e-02,6.071726458713891383e-02,1.164482596266711995e-01,6.861484050750732422e-01
6.544718643217622978e-02,6.592387297468513263e-02,-4.430457209368891536e-01,2.947497517644772003e-06,-2.146354654152332186e-03,-2.117775818996691772e-03,5.087582468986511230e-01
7.843415277101095651e-02,5.259039571120394108e-02,-4.493961171213183281e-01,-3.070789945037565982e-03,-2.073066939987069663e-03,3.473590840872632732e-03,5.154696702957153320e-01
1.354844054148466870e-01,6.423424569963689934e-02,-5.678948344652470226e-01,-9.779988050940863209e-02,7.820888708272498435e-02,1.309566345155316613e-01,7.404028177261352539e-01
7.496933163663899169e-02,7.699700473830448089e-02,-4.485277941998023210e-01,3.928774349927457131e-03,-2.921406723713381630e-04,1.210872421926500889e-03,5.245624780654907227e-01
7.559472497196209617e-02,7.508765940094960789e-02,-4.444223633633827553e-01,3.084690385062721901e-03,6.033695446307790365e-04,-7.800647779722761363e-04,5.197939872741699219e-01
7.158160484440290183e-02,7.348933069728988410e-02,-4.473515338338685532e-01,4.893669523492465319e-04,2.814656783340468136e-04,-1.405166916929998411e-04,5.198906064033508301e-01
2.473274262294428150e-02,9.438939228459850006e-02,-4.500617111014144078e-01,-5.628677969287801397e-03,-3.010042754274149749e-03,2.458881829971083126e-05,5.132997632026672363e-01
7.916426398081924387e-02,7.062165932760888776e-02,-4.442743944889914198e-01,2.007611607326399965e-03,2.277202803428327645e-03,-8.596976762544485768e-04,5.192488431930541992e-01
-4.502115149545446449e-02,2.177631890283101002e-01,-6.246656715796388148e-01,-1.493630545068534710e-02,-5.968205885675254702e-02,-1.441391811339895815e-02,7.545484304428100586e-01
-8.760901137790932935e-03,1.977195259151303119e-01,-5.249263862742674647e-01,-3.037738932444444123e-02,1.187647189832742312e-01,1.770890420493275580e-02,6.794581413269042969e-01
4.729803924721401320e-03,1.394466167332825135e-01,-4.961543530932251977e-01,-2.300067111690563826e-02,-1.207698036664041699e-02,5.562499529773477303e-04,5.818390250205993652e-01
3.175801986536036514e-02,9.202622614623287567e-02,-4.512078568720135907e-01,-4.075249072242897834e-03,-6.594186355243909954e-03,-5.252245880590850242e-03,5.160027146339416504e-01
7.277835548995367776e-02,7.806275037542587114e-02,-4.437186098756683017e-01,-2.860367404471879978e-03,3.622855388651626202e-04,2.348239085998411150e-04,5.191835165023803711e-01
7.766028822472714754e-02,7.504452180770446179e-02,-4.459548041429962084e-01,-5.040608175786035275e-03,-2.042172800427642220e-03,1.712260662569084621e-03,5.224055051803588867e-01
5.872672619467880772e-02,7.572167459931533617e-02,-4.484975867486494239e-01,-1.989992917282968710e-04,-6.065438441658081020e-03,-4.136437794267267161e-03,5.160885453224182129e-01
2.898612566006419922e-02,9.409998278879894151e-02,-5.524121559471861787e-01,-1.056062790754159764e-01,1.275291563002561024e-01,6.555608337381522988e-02,6.893930435180664062e-01
7.084389382104719357e-02,6.245799711591085157e-02,-4.597543971433268317e-01,-1.201774189528039168e-02,-1.134510713595730715e-03,-5.924922256272142397e-03,5.269703865051269531e-01
2.576017126752666586e-02,7.087642201584121171e-02,-4.648790893740868402e-01,-7.570015021985744552e-02,1.808019886300119570e-03,4.626709660141269456e-03,5.311908721923828125e-01
7.717700811275848838e-02,6.571598572819631334e-02,-4.375052757159731409e-01,-1.742893921834124359e-03,1.257921517716077166e-02,7.167344616941049434e-04,5.095250606536865234e-01
6.829159304032070277e-02,5.730765970806842025e-02,-4.423755538695368639e-01,-6.462974403164642098e-03,-1.268592774852048653e-03,-1.193964496948313712e-03,5.053977370262145996e-01
7.059820456434934277e-02,7.265129738251788205e-02,-4.396861275788553347e-01,5.618651100866962032e-04,-9.479061741676925168e-04,2.557230987298253315e-03,5.113367438316345215e-01
7.518655322543577046e-02,6.710657302311817674e-02,-4.218077116402333404e-01,-9.393748162837119164e-03,-9.755425642692102522e-03,1.092150488225910460e-02,4.939240217208862305e-01
3.986365929086030380e-02,6.188056415227957685e-02,-3.507419073215660155e-01,-2.401935174181570216e-03,-7.847468024304344800e-03,3.089827878612548540e-02,4.058614969253540039e-01
1.178858660424234317e-01,-1.597180367323519645e-02,-2.077397916952053447e-01,3.622727749855134821e-02,-4.039047783135867736e-02,1.207073336211302861e-01,3.645609021186828613e-01
1.076997026040984184e-01,7.122775396161287742e-02,-4.841364361012145401e-01,7.784252692685351971e-03,1.105372082410231716e-02,4.975810966988901407e-02,5.813696980476379395e-01
8.907695118161715331e-02,4.791228694837237900e-02,-4.519684792931988326e-01,1.761437661734778764e-03,1.248167265877415250e-03,6.902132804565502822e-03,5.218329429626464844e-01
9.296550729540009606e-02,2.018864513926429960e-02,-4.466051588594227573e-01,-2.163547221084653402e-02,-3.619069994190025376e-03,5.734677737211446059e-03,5.086324214935302734e-01
6.608441206324050521e-02,6.506435814960190300e-02,-4.465730379927559945e-01,9.050114867486887607e-03,3.851693887716362875e-03,-5.563095161366580360e-03,5.125220417976379395e-01
6.949827541442721301e-02,7.739423391507443961e-02,-4.427108670215910702e-01,-1.181121766467529239e-03,3.030285085968607850e-03,5.733848835313989575e-03,5.163286924362182617e-01
6.390510952026343117e-02,5.086342429959597733e-02,-3.907699725825816151e-01,2.639324752494313572e-03,-3.519788245796682397e-02,-5.478262369919005559e-02,4.622886180877685547e-01
7.677242823785368486e-02,7.707520204654944029e-02,-4.443034730637936969e-01,6.824206636659970598e-03,1.131299451547274667e-04,4.211286923275718965e-05,5.213614106178283691e-01
6.769931337705309415e-02,5.905715556733362459e-02,-4.406760946197932349e-01,-7.817899574010604355e-03,2.057072838324693152e-03,4.937171693752013049e-03,5.043768286705017090e-01
7.489856450800363996e-02,7.052748066562045115e-02,-4.457437529418171174e-01,2.734646369158438492e-03,4.269725893185643759e-03,-2.070809994296669149e-03,5.185573697090148926e-01
7.017298202073260494e-02,8.008159611954535073e-02,-4.369851838853112680e-01,8.163163166390928135e-03,1.108046992335648450e-03,9.215899061272819336e-05,5.123831033706665039e-01
6.886907733669928033e-02,9.366824059346606779e-02,-4.510787579305616246e-01,-1.012313046922508689e-02,-3.387592936328993193e-02,-2.003350358508567200e-02,5.374097228050231934e-01
4.527299952182511911e-02,1.949308262520189905e-02,-2.704278389104690650e-01,3.185533832031571186e-03,4.961843397241898213e-02,9.092526535948598082e-03,3.160020709037780762e-01
8.239710480840001239e-02,6.342577743443519878e-02,-4.326675349957077032e-01,-1.013263515172891792e-04,6.776243189176372420e-04,-5.160479574394946038e-04,5.058480501174926758e-01
1.338789124145710052e-01,1.791658753966113293e-04,-4.966950367504428532e-01,-3.619672156242766808e-02,8.646694417804709140e-03,-3.495930988422224234e-03,5.791227221488952637e-01
5.941363213355960182e-02,5.887952838854476623e-02,-4.393390908573602260e-01,-4.155280749304299075e-03,1.670974869288447415e-03,1.888268329911212736e-03,4.985569715499877930e-01
6.718319220333146546e-02,6.928067802611082016e-02,-4.475868385796278326e-01,-6.431244924357511564e-03,4.680792697543934532e-03,1.020603829837705197e-03,5.160089731216430664e-01
4.148147487864434213e-03,1.565621276982590016e-01,-5.383252322869509499e-01,-6.339156934679789079e-02,5.799232936441551384e-02,5.957667212789234668e-02,6.580128073692321777e-01
5.164513940553563942e-02,4.559170270760118382e-02,-3.476215991149471107e-01,1.019729159799063990e-03,-6.575422058912662113e-03,-5.306111076118467940e-02,4.069556593894958496e-01
5.083407681829815727e-02,6.784191826936381009e-02,-4.407326901522589657e-01,-3.505975216892317191e-03,9.258929023575829600e-04,-1.022107271133604464e-03,5.003300905227661133e-01
6.929248639466722981e-02,5.129116787296830737e-02,-4.479638657591193396e-01,-8.095623830345418867e-03,1.413754022686724600e-03,2.589225405462341014e-04,5.086941123008728027e-01
6.894780126353336480e-02,5.456251570908912663e-02,-3.828013356117915822e-01,1.672199750960099915e-02,-7.631653809178225688e-03,2.380134211277235706e-02,4.477709233760833740e-01
6.047358051874618390e-02,8.174363136596343726e-02,-4.230670006318737464e-01,6.238046137180021378e-03,1.895757790149804178e-03,7.546654452491288224e-03,4.948203861713409424e-01
9.550828295508737020e-02,2.225280494523773633e-02,-4.510182138791826167e-01,-4.451537361139739843e-03,-4.067109798203048213e-04,-5.503079833824819867e-04,5.138894319534301758e-01
6.827351184818228336e-02,7.224270504056137798e-02,-4.195386633514199826e-01,7.807337333032798518e-03,-1.494027024330898609e-03,3.283183050279303572e-03,4.900352954864501953e-01
7.279524674651452476e-02,6.853485767746109181e-02,-4.211201584555338551e-01,8.430551862037739472e-03,3.110620620833242159e-03,-1.509533730699775828e-03,4.920522272586822510e-01
1.704742838291894991e-02,1.004456495155188200e-01,-4.492759946042437780e-01,-3.051104914519236350e-02,-2.064782429895360445e-03,-4.410289735788181648e-03,5.159140229225158691e-01
7.459435588999030475e-02,5.593690156131297941e-02,-3.995543826589608716e-01,8.116529077717619597e-03,9.382324851780254882e-03,1.225378343549146491e-04,4.655969142913818359e-01
3.136486897747163549e-02,2.931074739507419369e-02,-2.695783748206264097e-01,8.518202246488335710e-03,1.451842148473993406e-02,2.675242275873577352e-02,3.048770129680633545e-01
1.261973496658808924e-01,1.073210243564551303e-02,-3.590940219900680686e-01,-5.559388297183789907e-02,6.662762896040609617e-02,1.071264533344890163e-01,4.998236000537872314e-01
7.013984733463785037e-02,7.302139084259909318e-02,-4.469403305743350763e-01,2.210492338740478475e-03,-2.000498839141674843e-03,1.935089360638550353e-03,5.185635089874267578e-01
3.598420394988283144e-03,9.389255356974191002e-02,-4.482485974021412356e-01,-3.197264582146420314e-02,-7.059862534484071450e-04,-1.479126460291436788e-03,5.061548352241516113e-01
9.095915537834337039e-02,1.249993224170356521e-02,-4.393234244668123845e-01,-3.132819874897322526e-02,2.226374600455082071e-03,-2.500306954039983615e-03,4.987262785434722900e-01
1.306792712162124226e-01,3.046376551423460310e-02,-5.379423004927416097e-01,-1.074126451688232065e-01,-2.324026486387119686e-02,-6.413008403064560103e-02,6.623159646987915039e-01
6.369812798026019962e-02,7.884978074759901867e-02,-4.257433882745883524e-01,5.921543484205509487e-03,8.178272502857822542e-04,8.992251015071038535e-04,4.973007440567016602e-01
6.071880811082316920e-02,8.264913895422740242e-02,-4.258493536671471014e-01,6.555589584846786139e-03,1.512812216019536558e-03,-1.158636828759372595e-04,4.980320632457733154e-01
4.870625185723786998e-02,6.869864765101635351e-02,-4.398139900284641635e-01,-1.663825328310013230e-02,4.922402515345454879e-04,9.572797130645370033e-04,4.996522665023803711e-01
6.597927689789159778e-02,5.069213671844993718e-02,-3.720648292912762667e-01,1.070635039447704120e-02,5.205373205689023224e-04,3.367617938399396216e-04,4.310045540332794189e-01
6.289583990741362540e-02,7.003424979502234637e-02,-4.439150977645465734e-01,-1.240098176586528628e-03,2.587590504217593748e-03,2.694005006002115222e-03,5.104631185531616211e-01
6.650014290942318773e-02,6.173169195058098024e-02,-4.421834234542287856e-01,2.491843478320314117e-04,2.053606286493722764e-03,-4.464385271694483502e-04,5.063294768333435059e-01
6.859091676294604145e-02,7.929547279929227699e-02,-4.339929091008227768e-01,7.250254133138693893e-03,1.294190470295347988e-03,-7.907919240331823252e-03,5.083653926849365234e-01
5.982681800404385242e-02,8.328479334201671636e-02,-4.209478032162231043e-01,-4.831959866990954327e-04,-3.586009368570182215e-04,-8.495998298895277717e-03,4.931431412696838379e-01
4.373084160077897464e-02,1.097297953355880484e-01,-4.980482262691309225e-01,-9.092428712384571787e-02,-7.169479086640248577e-02,-1.248057915373831650e-01,6.485282182693481445e-01
6.132679870069293604e-02,7.466479140885087795e-02,-4.167579140875783961e-01,4.335407644028127158e-03,-8.206502108148044407e-04,-9.954366563498046050e-03,4.852579236030578613e-01
5.112071682780114368e-02,6.906850084445345650e-02,-3.898379352390023422e-01,8.150755164908460998e-03,2.217722091140139802e-03,4.660678016896392835e-04,4.504393339157104492e-01
7.906156342336115306e-02,6.877534914089794560e-02,-4.406272197557665193e-01,2.347940809744906727e-03,-1.745289315563553628e-02,-1.354090548531304214e-03,5.155312418937683105e-01
-1.044136427255852595e-02,1.289819356756922164e-01,-5.000432900773368328e-01,7.405504227687334518e-02,7.441319093214824806e-03,-9.017768419087185752e-03,5.867481231689453125e-01
-4.551659384470470998e-02,1.936274162217336836e-01,-4.613764172733229585e-01,2.166701577205195142e-02,-1.728738060660997555e-01,-6.917427782510249604e-03,6.486814618110656738e-01
6.297811561664218294e-02,8.561464512182129227e-02,-4.476823816216191076e-01,2.761555043126414505e-03,-7.995231237991224163e-03,-1.405441383288042259e-03,5.225578546524047852e-01
2.965379410678034566e-02,8.531167167858894063e-02,-4.020325983353607580e-01,-4.838054593123925027e-04,-4.015224130322438134e-03,5.945011693616561801e-03,4.622042775154113770e-01
3.527996459489027292e-02,2.515019186023859099e-01,-7.557169490396747902e-01,6.053705634866861363e-02,-3.041531578755023862e-02,1.433092106980379636e-02,9.261989593505859375e-01
3.018444511986670409e-02,2.590711397071311928e-01,-7.724764820090521678e-01,-5.441854927904893335e-02,-6.937401576702845185e-02,-2.864857478916001815e-02,9.519226551055908203e-01
1.385001426483997711e-03,1.122838027570192687e-01,-4.553004462176232781e-01,-1.775907787966006859e-03,-2.259634401167341482e-03,-8.831196962570089966e-04,5.210884213447570801e-01
5.882874710634286575e-02,6.611523119401363502e-02,-3.507691348649570884e-01,-7.384333346709816975e-03,-7.261985095083578479e-02,-8.035234965594983958e-02,4.540507197380065918e-01
6.459423844914946589e-02,4.890326615699133739e-02,-3.723621757653166053e-01,-7.752470569572358916e-03,-8.637842829816336047e-04,-3.911401175279148081e-03,4.295919835567474365e-01
7.417742655188686030e-02,6.535212514054486443e-02,-4.448286413376409953e-01,6.857548335980476932e-04,3.756366942472854666e-03,4.992080833774940017e-03,5.147652626037597656e-01
4.850065509612766501e-02,7.295182682908715743e-02,-3.910004828147356504e-01,-2.487155472470547503e-03,-5.320507106158006358e-03,1.686183836270758324e-02,4.532790184020996094e-01
7.161612192128896659e-02,7.833351494830623207e-02,-4.414626649235064426e-01,-3.297624310588711735e-03,1.280981598167437504e-03,-5.627113684332308912e-04,5.165075063705444336e-01
5.673944358435718816e-03,8.364635084129899700e-03,-9.476208566521447663e-02,2.379788354328299035e-02,-7.134067836341854985e-02,9.835164881120536315e-03,1.662003695964813232e-01
7.285454480711439640e-02,7.607921221483465724e-02,-4.463291951620194098e-01,-1.518843018576586856e-03,3.782009394030669226e-04,-1.280264010114503127e-03,5.208153128623962402e-01
7.379983361524106167e-02,7.561842196032791952e-02,-4.462909792004620679e-01,-8.357631700859095500e-04,2.380615284763487084e-03,1.477680930212230039e-03,5.210270881652832031e-01
7.338418540657340450e-02,7.898792530360160269e-02,-4.438077205282800475e-01,-4.742077450236553693e-03,-2.449309714163680550e-04,1.660863098656949416e-03,5.200893878936767578e-01
7.041249944875724309e-02,7.926915000925027766e-02,-4.403707898320629588e-01,-1.508043911652423618e-03,1.573001841959646187e-03,-6.030823435224325155e-04,5.152835845947265625e-01
7.535624729051623727e-02,7.389343400528988748e-02,-4.479594459501805570e-01,-9.076892504363538814e-04,-7.188530623409718863e-04,-7.952108987139365742e-04,5.225914716720581055e-01
1.705176151619436364e-02,2.460202121001696385e-02,-2.411383726039184883e-01,-5.032163812717250356e-03,-1.512024103739633904e-02,2.020317773745312559e-02,2.658098936080932617e-01
3.565121206866640746e-02,4.106308457100328602e-02,-3.057598005668853425e-01,-9.258682100416188235e-03,-2.248330286799411076e-02,5.242582356590686421e-04,3.467173576354980469e-01
1.672642354001038778e-01,-1.506929487752600716e-02,-4.137060000735264254e-01,1.624332158914550822e-02,-1.191481963137341893e-02,-1.487842704491627588e-01,5.766015052795410156e-01
4.657770785156667426e-02,6.389635690286440961e-02,-3.628146945061813122e-01,-2.069728434467640529e-03,6.627709036679274601e-05,5.257909464588055807e-04,4.183370471000671387e-01
3.023831088927227129e-02,4.498754980326366559e-02,-3.045981247097340194e-01,-7.581407813117217731e-03,-1.041879467634306174e-02,2.711913915852554383e-02,3.463754951953887939e-01
9.861591990938803343e-02,4.357597142609792584e-02,-4.625781855053922031e-01,1.757125385761439725e-03,-3.581550046298168609e-03,1.662300405320477721e-03,5.358508825302124023e-01
7.988136964135172935e-02,6.486509445591165379e-02,-4.479956844410166172e-01,1.313651249739940306e-04,-3.047267664697414936e-03,-5.283230212662459561e-03,5.206386446952819824e-01
6.898234828828134213e-02,7.752194161726444488e-02,-4.402468134896129204e-01,-4.671508989522082976e-04,-1.177931491586254621e-04,-4.536899171880413167e-03,5.136129856109619141e-01
6.808407992002729614e-02,7.793744213312506219e-02,-4.350111746737255758e-01,-1.392947817561963073e-03,-6.225285164294574796e-04,-3.807112446091827297e-04,5.081009268760681152e-01
5.208246876084302035e-02,7.021456563293590469e-02,-3.859494516467011360e-01,-9.196104901468533585e-03,9.050306585780798149e-03,-1.377040203547337874e-02,4.485660195350646973e-01
7.155562466614892592e-02,6.942440046658326924e-02,-4.452335860135958612e-01,-8.801420818661440625e-04,-6.146045734673007046e-04,-8.359801114803743589e-04,5.157322883605957031e-01
7.207687265179402170e-02,6.271571701244124664e-02,-4.426479480606914652e-01,-1.201796050365017913e-03,-3.707445307031819424e-03,1.448130114377037736e-03,5.101594924926757812e-01
7.073049496861313901e-02,6.110534850408708141e-02,-4.475978119744773442e-01,-5.098072578765758776e-03,-2.091257538009184524e-03,-4.153916428470506156e-03,5.137224197387695312e-01
8.610815818435385571e-02,5.987390101003930987e-02,-4.566608112720154100e-01,-4.012996364823296497e-02,1.273050033744824172e-02,4.402760364907511853e-02,5.405367612838745117e-01
2.814724906730583509e-01,1.015022662576436918e-02,-7.674727750281081784e-01,-2.191611131791760744e-02,4.351483529569656963e-03,-4.479119223133413985e-02,9.470038414001464844e-01
2.484130293345347407e-01,2.656302015127490201e-02,-7.356396521657929677e-01,5.211522284407890671e-02,-1.802751496289589639e-02,5.696749544696110695e-02,9.045019745826721191e-01
1.049022875136561284e-01,1.053958566857714219e-02,-4.507382678566690948e-01,-2.587562833362318238e-02,-3.136337796003397637e-03,-1.843528479952230180e-03,5.169693827629089355e-01
7.990472629397790683e-02,3.263780568077020994e-02,-4.437710169226798951e-01,-1.335875268383601017e-02,-4.047629675243117134e-03,-3.934217198557413836e-03,5.023433566093444824e-01
1.028485907573621350e-01,4.280506134317879630e-03,-4.447398769757722747e-01,-1.319015901754295658e-02,1.382056722862155980e-03,-1.709922710395836128e-03,5.060933828353881836e-01
7.190531807053054947e-02,5.603550169087448407e-02,-4.464704721235188689e-01,1.162319560240532464e-02,-4.370598412468150624e-03,3.047275568609734715e-03,5.111058950424194336e-01
1.096231109161057149e-01,6.254579241233404474e-03,-4.555507845980105164e-01,1.369229813333040432e-02,-2.805391236269503055e-03,8.943489006648973685e-03,5.220262408256530762e-01
7.820164338878557442e-02,6.566905963836575100e-02,-4.493955066283376043e-01,-2.346619850728858328e-04,3.894851509662054269e-03,-8.899807006484796237e-03,5.217154026031494141e-01
8.004976747385408875e-02,6.573626309327829098e-02,-4.493070973962810521e-01,-5.255545458113617275e-04,3.213080510084728898e-03,-1.197688652332815074e-02,5.227894186973571777e-01
7.450449234209441385e-02,6.277873043561715827e-02,-4.384966883308442642e-01,2.899183042338234536e-03,-2.707507786126636500e-03,-4.659547952296283491e-03,5.073506832122802734e-01
6.447485345003917123e-02,7.245371739029943248e-02,-4.179482232133158726e-01,-1.488767615824733654e-03,2.554097906667148875e-03,-8.915059420249981867e-03,4.867335259914398193e-01
6.591127995020062968e-02,6.638285806680394030e-02,-4.443177608389674571e-01,4.587249775278762036e-03,1.103266390480975344e-03,6.224069337539592890e-04,5.105315446853637695e-01
6.113380457407108226e-02,8.472317635414344794e-02,-4.307928908246628774e-01,-2.046412954426319285e-03,-3.712064030564072160e-04,7.735492517379500416e-04,5.041500926017761230e-01
6.304522649697039127e-02,8.215000601253399926e-02,-4.305348245605458146e-01,-7.554649960231527584e-06,-9.434069163672958872e-04,-4.264762939915783834e-04,5.034075975418090820e-01
6.299664323885353912e-02,8.492624899262143923e-02,-4.338064753598520062e-01,-2.661547970009470643e-04,-8.026923691694015422e-05,-1.490843199493987461e-03,5.081297755241394043e-01
4.034354019670108316e-02,7.320308087689803012e-02,-4.614080017456724248e-01,-2.708976940520645138e-02,4.663325336776102947e-03,5.474419785462115821e-03,5.212277770042419434e-01
8.122492132162761891e-02,4.904581038725938646e-02,-4.471566975497422991e-01,-4.919826052604316276e-03,-2.890553608091648782e-03,2.987723477043716883e-03,5.131707787513732910e-01
1.383452520790823259e-01,1.068737823147756227e-01,-7.444174137008828795e-01,-9.706461323435452981e-02,-6.978807172710904672e-02,-1.235759316301111507e-02,8.920831680297851562e-01
1.046116397927111530e-01,1.045824664278352523e-02,-4.533574569008999577e-01,-9.195513642194346957e-03,2.089022276440610695e-03,1.262859940930741165e-03,5.176207423210144043e-01
8.954292348241257860e-02,4.106182067567187843e-02,-4.477663800714626885e-01,-4.096519740764507748e-03,5.808751154012793856e-03,-1.006834985946746669e-02,5.152261853218078613e-01
1.804595650062695844e-01,-4.904877261101706076e-02,-5.389026294761019020e-01,-7.312113020406359187e-03,-1.612202298253767943e-02,-3.986828519093223860e-02,6.409095525741577148e-01
6.775234015855743919e-02,6.332562868831143055e-02,-4.422756588595221916e-01,-1.003579293869879228e-02,3.179819236936550202e-03,2.724978445684256290e-03,5.081782937049865723e-01
7.460498959244141193e-02,6.033282786040614076e-02,-4.441138198480025778e-01,-7.903052896160807275e-04,7.500017078178940633e-04,9.018440615397191286e-04,5.117378830909729004e-01
7.915643037053574083e-02,5.169779200698917943e-02,-4.483101513910946467e-01,1.292294683943025083e-03,4.362213186859720607e-03,-5.766398568294276057e-04,5.143486857414245605e-01
4.260407262480778168e-02,9.474638390501050056e-02,-4.512109037615990581e-01,-1.532432787572658717e-02,-8.938687584933295224e-03,4.511573859513475643e-03,5.228058695793151855e-01
7.259251450706319386e-02,6.816602988894665538e-02,-4.458670845067826960e-01,-3.665949265325900083e-03,-1.213899010538946642e-04,-2.744811323563412821e-03,5.163215398788452148e-01
7.269085847913334120e-02,7.421789056525757156e-02,-4.454981746337096649e-01,2.993311047058919497e-03,2.810403420850565498e-04,-1.519781603760306070e-03,5.189870595932006836e-01
4.313489967390515822e-02,8.557282127182813669e-02,-4.495077221048950911e-01,-2.503498162987747699e-03,6.561199568581975103e-03,-7.376283458215133993e-04,5.153193473815917969e-01
9.419281050052003001e-02,5.577090716705607187e-02,-5.536189683542427353e-01,-9.344727768098219645e-02,-7.775744524682830228e-02,-6.993648630406359978e-02,6.747261285781860352e-01
4.967099634986132939e-02,8.307949382468457489e-02,-4.459626380532222267e-01,-1.688260851249706596e-03,-5.788980162025986372e-03,-3.287926167008743683e-03,5.132920145988464355e-01
4.261513917800141549e-02,1.020461205225955681e-01,-4.642164200890468440e-01,-5.034846668716928819e-02,5.621462142425950187e-02,3.557079832668401387e-02,5.580437183380126953e-01
7.838267839326951147e-02,6.841675513060516134e-02,-4.354535961389010001e-01,4.110527786650625820e-03,5.527327926277111528e-05,-2.833888686058102374e-03,5.090000033378601074e-01
1.109602633150173490e-01,8.816314218153022131e-03,-2.532791848747892871e-01,-3.902315330808005245e-02,5.330015932010542107e-03,9.793391736972271999e-02,3.732635974884033203e-01
7.039591095043420954e-02,7.660944781603223896e-02,-4.451183341482600198e-01,-1.174827071879711634e-03,5.700503038076897315e-04,4.485094613308513584e-03,5.187120437622070312e-01
6.896303192425062845e-02,6.844333767396595936e-02,-4.176022562723022968e-01,-2.871631645470746654e-03,3.244860614513329997e-03,1.304949331252089686e-02,4.868884682655334473e-01
5.270722604325012162e-02,6.863952905485659617e-02,-3.836518247640621215e-01,6.950760036083119403e-03,9.460384226153131446e-03,1.335635443308061734e-02,4.456050693988800049e-01
4.503642315692582554e-02,7.733015086124894744e-02,-4.619654739653103470e-01,-3.903391931594969722e-02,5.863356929794509564e-02,3.028198717721851743e-02,5.404649972915649414e-01
6.409476520704682212e-02,8.210712159428273926e-02,-4.247792728042751875e-01,-1.176334769413097271e-03,-1.904312431522041642e-03,3.983686841743900447e-02,5.028955936431884766e-01
7.350143381266982523e-02,6.770577327017412994e-02,-4.439342395464713764e-01,-1.696379264243437924e-03,1.971042361463964769e-03,1.248686385662297607e-03,5.145865678787231445e-01
2.792668743007364895e-02,4.048424322784817397e-02,-2.958205835869430755e-01,2.373083082755041758e-03,3.914667048651176984e-03,-1.002288464288008724e-04,3.303004205226898193e-01
7.618172113602489359e-02,6.441829129755896610e-02,-4.209721741766743186e-01,5.522217144909480520e-03,-2.887783050515627375e-03,3.723975014304333354e-03,4.915386438369750977e-01
7.544796642807158338e-02,6.208356499537640016e-02,-4.120018781114413997e-01,9.486980715426335253e-03,1.578490737790062826e-02,6.865792770853739249e-03,4.821103513240814209e-01
6.162524348702652643e-02,6.039720643665849598e-02,-3.829644940233007944e-01,1.042914215876401471e-02,9.265329848778125141e-03,5.772867767533770150e-03,4.447464346885681152e-01
7.317121403152565540e-02,7.179136911093161877e-02,-4.397740954022835158e-01,-1.032888657374819979e-03,-1.534212781646518853e-03,-1.959917473489202855e-04,5.122669339179992676e-01
7.271286084304312558e-02,4.623539333120693651e-02,-1.067196139513100911e-01,-1.142668033693030813e-02,1.533372234163381254e-02,8.600188340950128130e-02,2.267866879701614380e-01
7.257507092096865398e-02,7.684164221511216586e-02,-4.389138795013035055e-01,-6.099106283150761490e-03,-1.307706018997895113e-03,-2.269534096682975020e-04,5.137493014335632324e-01
7.407294375405590325e-02,7.688100994526292364e-02,-4.449952432893448662e-01,-1.923859094555314952e-03,1.229013286360889365e-03,-8.857129351312572393e-04,5.204951763153076172e-01
6.697112935138502254e-02,8.436844305005536393e-02,-4.387157361319001248e-01,-2.534613538791489085e-03,-4.192883657121877750e-04,5.861332830421888719e-03,5.147255063056945801e-01
7.871860423339774315e-02,7.265646001356329542e-02,-4.452253739713528113e-01,1.673294875891311820e-03,2.362050862017880232e-04,1.100623709667698531e-04,5.209476351737976074e-01
7.977006349613929848e-02,7.083919475615940708e-02,-4.429142786566570011e-01,1.373744284094013165e-03,4.739490782089021893e-05,-1.404459102388589623e-03,5.182877779006958008e-01
8.302345342866962463e-02,6.764568850899835284e-02,-4.365989634251572493e-01,5.461301784942046260e-03,7.610289512936440834e-03,2.755235673205695159e-03,5.123859047889709473e-01
7.814245038016165434e-02,6.538551362476408002e-02,-4.251647748946346672e-01,7.313250557024938633e-03,-1.023234811197581366e-03,5.169382093660622804e-03,4.972966909408569336e-01
7.953946615358395422e-02,6.945450423538213069e-02,-4.391915308850366517e-01,1.466553675252368558e-03,-6.629572851422315923e-04,-5.018424365550184368e-04,5.137710571289062500e-01
7.061599600547910360e-02,7.253955307266371499e-02,-4.458083237189211512e-01,4.520935810410190738e-05,-2.117610467889584520e-03,-1.711533558450826706e-03,5.174102783203125000e-01
6.970001021618885129e-02,7.306143186322350269e-02,-4.438294204913304508e-01,-3.857205491063235483e-04,-2.376121904672986833e-03,-1.864289491717557607e-03,5.152453780174255371e-01
3.334029688545663006e-02,3.160328419600744176e-02,-2.814553202751524097e-01,5.551297833883455518e-03,1.267277798923554556e-02,2.085475454891928121e-02,3.169093132019042969e-01
6.147869875998990263e-02,6.835175457739647853e-02,-4.021239090972868468e-01,2.321886656939201824e-03,5.740208013692916708e-03,1.781352059227530107e-02,4.682178795337677002e-01
5.230654946292681573e-02,7.167417982557960920e-02,-1.365856254115502266e-01,-6.347338144838824206e-04,2.201554899631875950e-02,-2.582175004700754117e-02,2.077722400426864624e-01
9.609404234272142520e-02,4.157215760545376892e-02,-1.582933306000814666e-01,-1.284370048717283462e-02,1.091870796478284882e-02,6.247857834894660067e-02,2.576414942741394043e-01
2.563112373432839541e-02,2.783641906601189153e-02,-2.028356062395376136e-01,6.701965607869902683e-03,-1.566611853990292763e-02,6.457502761239052036e-02,2.570731043815612793e-01
3.496965112881955662e-02,5.286088686569115347e-02,-3.124681247517227534e-01,-3.286788035884309102e-03,-2.248755866177505874e-03,3.241480304782030919e-02,3.611771464347839355e-01
9.979659922119266113e-02,8.084644230284043775e-03,-2.556767850021181010e-01,8.978456611498569773e-03,1.463678131731275568e-03,8.462619026118278764e-02,3.520004153251647949e-01
4.257972295460074608e-02,3.873690703937654467e-02,-3.155916889409772219e-01,7.642658772917334392e-03,1.604204744981388561e-03,-1.996064770496437657e-02,3.581945896148681641e-01
9.920760919771662301e-03,1.511388273251282333e-02,-2.173029094820709273e-01,2.242015652656907231e-03,6.050596160751049073e-04,-1.406398389309124165e-04,2.298995554447174072e-01
6.123188531965395587e-02,5.707848256148972954e-02,-3.281091553539201566e-01,-1.129128771041642935e-02,-5.985626781563497048e-03,7.445668030319506359e-02,4.087884128093719482e-01
7.316605077003196511e-02,7.113946767039067143e-02,-4.285198553066736915e-01,7.192989859324221483e-03,6.433366217305774327e-03,4.527190002839993378e-03,5.010159611701965332e-01
8.259008354778663019e-02,5.010297647527972575e-02,-4.496096352070952928e-01,-2.517307607328978219e-03,4.055711678534604302e-04,5.411539237786600239e-03,5.168265700340270996e-01
7.025410688269648207e-02,6.998735573290440493e-02,-4.451022315011594621e-01,-2.964054464756791873e-05,1.483430103250772724e-04,2.476978814794693860e-03,5.152409672737121582e-01
7.537061276794052023e-02,5.403922995270260543e-02,-4.415067866630656979e-01,-1.327872917362691793e-02,-6.399928941690247739e-04,5.070436948983857856e-03,5.071477890014648438e-01
1.279867530527095676e-01,-2.367089152106030547e-02,-4.598647990772391503e-01,-3.574914566402126459e-02,1.045174231602410443e-02,-7.714718298252858791e-03,5.326890349388122559e-01
6.624987089583220246e-02,6.653489154299108144e-02,-4.437238278178566309e-01,-5.388505739366883721e-03,1.071725936405599263e-03,-2.007746666295009107e-03,5.102168917655944824e-01
7.464446431367377510e-02,7.474147677339840201e-02,-4.459542200284848934e-01,1.945384736711529110e-03,1.191047643596814822e-04,4.524739184402514262e-04,5.206587314605712891e-01
6.701218873129277664e-02,7.666684894329914290e-02,-4.469487127253735648e-01,1.723453529781062126e-03,4.554431473981701388e-03,-9.348379737068911524e-04,5.189266800880432129e-01
5.615619857479015042e-02,7.875842945489477942e-02,-4.446324490228769633e-01,-3.036678777070891152e-04,-2.787757854568456012e-03,-3.325795636647912654e-03,5.125191211700439453e-01
7.842415481578657310e-02,6.998322111612528817e-02,-4.363556545275341647e-01,5.037984148364586801e-03,1.637088142759035797e-03,-5.318723085904001604e-04,5.106949210166931152e-01
7.406371752923501806e-02,6.823094810066471227e-02,-4.256908275657127483e-01,5.623733592988037697e-03,6.740195254336381857e-03,4.582385895442096790e-03,4.971597790718078613e-01
6.806606687419020085e-02,8.440068562613331493e-02,-4.478171379451723055e-01,3.283527363766980574e-03,5.926622062846274158e-02,2.187010028829907901e-02,5.355686545372009277e-01
9.322460298331286532e-02,5.030769739823215403e-02,-4.721050514095269657e-01,5.834871865374567645e-02,-1.389703541003393071e-03,1.715788427760463978e-03,5.544417500495910645e-01
5.888920031562125401e-02,8.386023636900952205e-02,-4.540573503782924236e-01,1.376139234435248132e-02,-7.271773304421937784e-03,5.362591717394173466e-03,5.266493558883666992e-01
6.251441194837073501e-02,5.247156674714573144e-02,-3.760823590727981336e-01,-1.001601400382075638e-02,1.308162836792095898e-02,-5.352951824348141721e-03,4.346993565559387207e-01
1.076692124455409239e-01,2.606349242147122658e-02,-2.998855818726714473e-01,5.692529688321155967e-02,4.378431440117628443e-02,-1.009656564186511840e-01,4.307626485824584961e-01
4.701511643910449845e-02,4.986071321927276756e-02,-3.480411332204898511e-01,-8.804438606299652345e-03,-3.445132382841609164e-04,1.753205025870370058e-04,3.967804312705993652e-01
6.948295982660218639e-02,7.515315004204095595e-02,-4.307413575386410121e-01,-8.561497107226027914e-03,6.747363567343996581e-03,-4.392700845748091602e-03,5.034950375556945801e-01
7.458302235333486019e-02,7.410489987836457737e-02,-4.410393780781438622e-01,-1.725489323783040933e-03,4.710990758207278398e-04,-1.217929324274552236e-02,5.158243775367736816e-01
7.230137480639128866e-02,6.856558132782583637e-02,-4.218993643876032262e-01,-8.821004712903248932e-03,5.303092916217409802e-03,1.110686880505659972e-03,4.926698505878448486e-01
8.374337633012532423e-02,3.377583908648920663e-02,-5.021512534688429286e-01,9.179370720437599052e-02,1.240468405233753069e-01,-1.710078883605718192e-01,6.896852850914001465e-01
8.162925194381298599e-02,6.246389754427450480e-02,-4.256578867656404808e-01,4.678420826381185678e-03,8.027020916324699440e-03,1.117844602147979372e-04,4.982411265373229980e-01
8.109156966378777698e-02,6.993848963108059702e-02,-4.434313219147633656e-01,3.317892808584135649e-03,1.447407265317665788e-03,3.611712439793742760e-04,5.190744996070861816e-01
8.017030398463378948e-02,6.974951234566467706e-02,-4.423389357963051771e-01,1.023928880869819265e-03,7.153895833397802930e-05,1.103011819513670345e-03,5.173841118812561035e-01
8.111464486209424285e-02,6.242006602019617434e-02,-4.226788802384623400e-01,3.163804516092184708e-03,6.991684387062906646e-03,3.888058523052449235e-03,4.949355721473693848e-01
7.727744325663604696e-02,7.091211850408626893e-02,-4.431392434048486151e-01,3.395381409199412469e-03,5.650618992462739208e-03,-1.829921487361302118e-03,5.173991322517395020e-01
8.295634653657793511e-02,6.743995526869434043e-02,-4.360011195367159975e-01,5.441975263352149053e-03,7.023089096492676417e-03,3.887397106741750756e-03,5.116516351699829102e-01
8.258997234111756236e-02,6.658298191535941268e-02,-4.370833494607953007e-01,1.071471887308858822e-03,8.695191938482024849e-04,1.936772693453202646e-03,5.118741393089294434e-01
1.330844392422765587e-02,6.890375832640578679e-03,-1.627543079656825764e-01,2.806399444986068525e-02,4.788144184431901429e-02,-4.548272047139682861e-02,2.129694670438766479e-01
1.919036286440061190e-01,-3.857034911836819402e-02,-5.029538787811249634e-01,4.024437997742543599e-02,7.126618080623947638e-02,-9.217904797315110144e-02,6.491417288780212402e-01
-1.820245456661041816e-02,1.045474880041605270e-02,-1.007334534718861419e-01,7.666613431209541238e-03,2.723710620650865097e-02,-2.346764154350636927e-02,1.185403317213058472e-01
6.055430273057529900e-02,7.700727518546154893e-02,-4.184298713799193825e-01,-2.011187103720997287e-03,-2.109757943979177460e-04,-6.629739960446904244e-03,4.875667989253997803e-01
1.406804088075428449e-01,-5.948450359244317892e-02,-4.081866768272555124e-01,8.655054915486621106e-03,2.103425080215351461e-02,-8.890280630513545945e-02,5.066757202148437500e-01
6.261967892373740407e-02,7.566323652942241740e-02,-4.147746906182472326e-01,8.517226808540134288e-04,-3.616231971529220704e-04,-1.186786672936722582e-02,4.844868779182434082e-01
1.990007666955660448e-01,-2.447743715046750423e-02,-6.215768371149988925e-01,2.109876396961227023e-03,-5.266786997797823396e-03,-1.416402083975339676e-01,7.747201323509216309e-01
8.052316881381432756e-02,6.650741024555709147e-02,-4.383763483468561262e-01,2.129066899852284146e-04,9.103461530056217860e-03,-4.824356224540021039e-04,5.122790336608886719e-01
3.961598138702437932e-02,2.025117560872069511e-02,-2.862084834233720732e-01,-5.414759220044329004e-03,7.720660060242643839e-04,-3.241009537047480587e-04,3.167287707328796387e-01
8.053249611684612508e-02,5.658269036777949235e-02,-4.109649107715055982e-01,-1.569673993018128391e-03,-5.300885870036007403e-04,-1.871720733410939567e-04,4.799795448780059814e-01
5.376414701373219418e-02,7.963150517877412571e-02,-4.214592143217798514e-01,1.877556418755136041e-04,2.359170265919195708e-02,-1.288622851215797185e-02,4.908840060234069824e-01
6.554720260420823785e-02,6.244769470605152084e-02,-3.946359472853546158e-01,-1.097847073093565287e-02,-5.696580923353533523e-04,-1.014501808533811722e-02,4.593725204467773438e-01
7.099790334650532553e-02,7.207995220022789251e-02,-4.432502597517079534e-01,-4.066157837968897328e-04,-2.300213605765315250e-03,-9.576940125571201752e-05,5.148059725761413574e-01
6.567527885694826595e-02,8.406098437626444153e-02,-4.569593972128355164e-01,8.466472292724210383e-03,1.961593129915418024e-02,-1.705288183953987359e-04,5.333512425422668457e-01
7.264971593718436149e-02,6.810540989791480371e-02,-4.271278371956510056e-01,-3.403832240162221572e-03,3.799855385855013291e-03,-3.265866789143199653e-03,4.976315796375274658e-01
8.910214891299494955e-02,3.494993791490033641e-02,-4.547491357834924641e-01,-2.162787578026531543e-02,-1.022088172087461241e-03,8.319093800834502072e-04,5.202541947364807129e-01
5.042901377448805178e-02,8.262676943083718806e-02,-4.453058907330896821e-01,-8.621565377305133188e-04,-6.905442994380146284e-03,-4.658641144217887456e-03,5.127979516983032227e-01
2.313442249611288859e-02,9.724963247825238466e-02,-4.520450512535524878e-01,1.286157804922668027e-02,1.706037833687524055e-02,2.790816201925525562e-03,5.175899863243103027e-01
6.343899261360613773e-03,1.051277437815363869e-01,-4.576767657984814330e-01,8.671765927422921127e-03,-6.201620822435480532e-03,-2.930258336766226272e-03,5.208434462547302246e-01
3.562146143159547473e-02,5.777171154322705005e-02,-3.304790246482305904e-01,-3.159867325192482982e-03,1.672050694759316929e-03,4.664475878456685043e-02,3.862576186656951904e-01
-3.666144686416017429e-03,1.362421604036274103e-01,-5.061761441363451519e-01,1.530246503837046426e-02,9.091072138595423721e-03,1.398426786527141082e-03,5.859626531600952148e-01
-5.484215829688998678e-03,2.555699652181719905e-01,-6.916708447451415109e-01,1.100615557873884688e-02,1.418416084518923370e-01,-4.070597774831067814e-03,8.825551271438598633e-01
6.435401021578787684e-03,1.080048583099456339e-01,-4.447798770045068850e-01,2.119016995885556354e-03,1.111389357312418322e-02,-1.074450155623042462e-03,5.100281834602355957e-01
3.511322696820248779e-02,9.202408037390580331e-02,-4.495452797901955955e-01,-6.899149268898873474e-04,6.863763783887767353e-03,1.403601278721818392e-03,5.156197547912597656e-01
-1.072929647638165562e-02,1.933224405062148876e-01,-5.430342688679737906e-01,2.941377097598870186e-03,1.273962843390328559e-01,1.464585673044598371e-02,6.949549317359924316e-01
7.159506939583415441e-02,6.844645598155735255e-02,-4.142679352636904899e-01,4.704890049369205539e-03,2.048279831474415780e-02,3.892145164301526183e-02,4.903189241886138916e-01
1.793324253575775962e-02,4.642839943997176255e-02,-3.142013538034936770e-01,-3.796485437984520317e-02,1.229788347758382638e-01,6.542263506902264159e-02,4.279314577579498291e-01
7.077823893818280254e-02,5.955900824781221181e-02,-4.473226422229114596e-01,-9.081984851165491798e-03,-5.162641118943249278e-03,-4.866388616848288731e-03,5.129718780517578125e-01
1.304045304372136171e-01,-8.511447228185545222e-03,-4.351690408427499324e-01,-8.731214534545592154e-02,3.591803122710253426e-02,4.193853174817464835e-02,5.409445166587829590e-01
7.716947754354097633e-02,6.702868574036410787e-02,-4.322867844332274889e-01,2.878436792562121243e-03,9.049282855679416718e-03,5.017952072242613804e-03,5.048052072525024414e-01
6.779591294696102333e-02,7.126603878210799325e-02,-4.283416968327908303e-01,4.032060814836868650e-05,-6.103830121577373362e-03,1.752060359390179844e-02,4.989177584648132324e-01
4.003772606954958402e-02,3.755228970246635156e-02,-3.128530803313526731e-01,9.244852334156615156e-03,1.340292354276864661e-03,1.366886470002443878e-02,3.528219461441040039e-01
7.330666160490623140e-02,2.271791593214175786e-02,-4.197419035593318859e-01,-9.016602864533553030e-02,3.659766758316048557e-02,2.956010349156818276e-02,5.017396807670593262e-01
8.280289588370398635e-02,3.981490088583736209e-02,-4.440997571238326502e-01,-6.089332505130991974e-03,-4.326263650289503132e-03,-2.248665378698672633e-03,5.069580078125000000e-01
7.969788028046748130e-02,4.936128782887796995e-02,-4.457180676646265716e-01,6.487931968459547533e-03,5.683625729380097427e-03,-5.903371769402513194e-03,5.112441778182983398e-01
6.845978586409437461e-02,7.190149205972243274e-02,-4.466223947021860097e-01,9.977321351308486574e-04,3.305647368369551541e-03,4.785513080472743406e-04,5.168468952178955078e-01
7.351226213594116987e-02,7.370216844396740297e-02,-4.427396788388305304e-01,-4.581842521520499562e-03,-2.043520186816220538e-03,3.602648982659024425e-03,5.164577364921569824e-01
8.384711904721142695e-02,4.621748526349317432e-02,-4.626354470983080613e-01,2.458953261692803718e-02,9.631422708926426837e-03,-1.117158736858117792e-02,5.310008525848388672e-01
6.802746144866864131e-02,7.734090849158481440e-02,-4.348116764130916523e-01,-4.636192604582584434e-03,9.154272672151532323e-04,2.063704926864971898e-03,5.076385140419006348e-01
1.117207010072604201e-01,3.158714467574355589e-02,-4.179840434759658496e-01,8.271876127512650667e-02,-9.107623898304574583e-02,1.362942726925914505e-01,5.879639387130737305e-01
9.957501159795326129e-02,6.906867472992178625e-02,-4.435361613592678776e-01,-3.141194107249594119e-03,-1.698616004207395211e-02,-4.509894985851781862e-02,5.350971817970275879e-01
6.878982975763134333e-02,8.035868908474261274e-02,-4.385962430355843100e-01,2.508419984879090622e-03,6.276125219049169014e-04,2.039651486751485870e-03,5.133000016212463379e-01
2.517076129853280941e-02,3.701226330614529325e-02,-2.642737414040176036e-01,1.950387428639985092e-03,-1.364117438223012759e-03,-6.299803823567473593e-02,3.150699138641357422e-01
9.098874305193854761e-02,5.305470824964109156e-02,-4.700711765010468501e-01,-1.748738403565284344e-02,-4.868316801688823969e-03,9.650519069646893919e-03,5.442535281181335449e-01
9.227645518921162582e-02,5.570303300414380931e-02,-4.512123695780519972e-01,-3.783322512727365543e-04,-3.053766929005460960e-03,-2.043515264885105778e-02,5.273724198341369629e-01
6.646716808835351209e-02,7.562662707034889520e-02,-4.267638410990367004e-01,8.008018438029786482e-03,6.084114035125491116e-04,-4.479618021576413714e-03,4.981286525726318359e-01
6.201382238323635554e-02,7.607148198614621659e-02,-4.436806164162980792e-01,-7.974825312061996525e-04,-9.625875333715986151e-03,7.735095722231739249e-04,5.131423473358154297e-01
5.510636429596926789e-02,6.164269463301635943e-02,-4.462821420939246941e-01,-2.324490505152421865e-02,-2.438655041406239191e-03,-2.826586132930881436e-03,5.063330531120300293e-01
1.304390477801098402e-02,1.228297797620574172e-01,-4.651350927026482451e-01,-7.730555273018090146e-02,-1.434599636257561650e-01,-1.998278499079798876e-02,6.116159558296203613e-01
-1.701100770807932594e-02,1.724073477128396092e-01,-4.929476017242568897e-01,-2.181558935010147193e-02,-1.309684136415495415e-01,-6.317777172921877626e-02,6.460698843002319336e-01
6.440558485415048828e-02,4.414350535941330422e-02,-3.599484584783116947e-01,5.821207880406841298e-03,-4.741094155401293780e-03,-4.692105743262700752e-03,4.148780107498168945e-01
6.060224005121492286e-02,6.304308006762826544e-02,-4.400864070169892561e-01,-9.972695080748437621e-04,-5.850222013954974303e-04,1.964399538379893537e-04,5.019176006317138672e-01
2.134719150501110385e-02,7.320743550244948605e-02,-4.643877886640824237e-01,9.949701291478041387e-02,-9.690054341331170995e-02,3.524050262510773635e-02,5.704489946365356445e-01
7.666554713320436476e-02,7.172913546467327151e-02,-4.382419618210204870e-01,-5.883984624311115914e-03,8.545314326582175834e-04,9.772886612260452566e-04,5.125634074211120605e-01
6.210240987528442558e-02,8.112101421362916120e-02,-4.461558244130323092e-01,3.038758555296769957e-04,-9.440377168068789585e-03,8.329527464096600758e-04,5.182896852493286133e-01
6.547495759918409153e-02,7.041031151140372812e-02,-4.382361581061225975e-01,-3.557386103068650024e-03,5.763221820023122118e-03,1.400527230864691665e-03,5.063385367393493652e-01
7.339824398572120101e-02,7.333110087782973574e-02,-4.470249532957757399e-01,1.380614859384637298e-03,-2.340722517556318490e-03,-1.039431673096464148e-03,5.204140543937683105e-01
6.970837275777991282e-02,5.428538182830103254e-02,-4.468046592478734369e-01,-1.388472236844228228e-02,-9.949141116930245755e-04,-1.234939348110298618e-03,5.095520615577697754e-01
5.254315826333541550e-02,8.200672141019615946e-02,-4.660623068767394961e-01,-2.606985935213425309e-02,-1.145353350445093600e-02,6.572665159616400930e-03,5.363410711288452148e-01
7.269561046171604812e-02,7.209794505977021317e-02,-4.449654399602843147e-01,1.292781881813567053e-03,-2.824260236419211777e-03,-2.819916253988130009e-03,5.174134969711303711e-01
5.142490430781929134e-02,6.655467436079867682e-02,-4.398927857574407851e-01,-2.584064247487730896e-03,5.539325349727714128e-04,9.453366432563961369e-04,4.990783035755157471e-01
1.026428267026605334e-01,1.732441247912347437e-02,-4.577897462276308005e-01,-1.020773165391748900e-02,5.872444661183519495e-03,2.847734917418208011e-03,5.234396457672119141e-01
7.038881864846088798e-02,5.904141456795619636e-02,-4.421004508452172632e-01,-2.336638219818817051e-03,-1.184459592092450709e-03,5.539210552197801080e-04,5.069320201873779297e-01
6.998922199304319358e-02,7.568846825564976011e-02,-4.458861326839719252e-01,1.228281589656478713e-03,-7.163119735341339162e-04,3.957314108595002536e-04,5.187547802925109863e-01
6.296848774729477127e-02,6.008206279717667742e-02,-4.407349634488965107e-01,-1.031647454575071010e-04,-1.371952951753279228e-04,2.867078044580955473e-04,5.022667646408081055e-01
6.073808890962334450e-02,5.966809801989780837e-02,-4.406676251527172905e-01,-3.405040925591019431e-03,-2.111286935272744646e-03,-1.825496914666166611e-03,5.009296536445617676e-01
6.826876840004258984e-02,6.459583209502114953e-02,-4.436847448444330988e-01,1.010445825746411359e-03,-8.337350912713514242e-04,1.699887347484647362e-03,5.101404786109924316e-01
7.108268329396297269e-02,7.250205168641796205e-02,-4.270331474521515958e-01,-6.388932352171573098e-03,3.403862098613363255e-03,-6.245958768546618078e-03,4.991018474102020264e-01
7.228782279063830640e-02,7.105999588768888153e-02,-4.400746830221515249e-01,-6.382789560885165610e-04,1.528586759459602212e-04,1.326336010796027835e-07,5.117509365081787109e-01
7.448973767640687527e-02,7.730854397195618954e-02,-4.473840488982454011e-01,-4.521755823769718153e-04,2.545408089773669273e-03,-9.606880364990619259e-03,5.235725045204162598e-01
5.910960753280454505e-02,1.756841017667137156e-02,-1.536300339475570598e-01,4.574995200705543608e-02,9.323635400824574482e-02,-6.493399653569098540e-02,2.883641123771667480e-01
2.229525968675229175e-02,1.536797060878121457e-02,-2.109189154584487913e-01,-7.409532840631664896e-03,5.088073935902644174e-02,-3.040051987103536968e-02,2.520419061183929443e-01
1.588911938420158876e-01,-6.938090676787425637e-03,-5.186537062217928540e-01,3.258018481318189496e-02,-1.221682952765045307e-02,-4.290801290989360722e-02,6.191648244857788086e-01
4.020331184868454477e-02,4.312819057372505038e-02,-3.030448934259420968e-01,-2.739464815583261131e-03,1.228440945233069161e-02,-7.752134771749354114e-02,3.705883920192718506e-01
-1.926350505614842640e-02,5.397645028750613916e-02,-2.776766983113038156e-01,-4.797197607395969898e-02,9.203421528638681959e-02,3.979114514295852695e-02,3.579559624195098877e-01
-3.683475951058846204e-02,8.513531394608522818e-02,-3.150607745425650363e-01,1.113590216489664629e-02,1.240037330814612593e-01,-5.447461149271183752e-03,4.157084226608276367e-01
7.454361194312703054e-02,6.521557269697170200e-02,-4.192008424469811922e-01,-6.463308526116057912e-03,8.987211336712068108e-03,-8.128523803460083533e-03,4.897252023220062256e-01
7.767989811185352367e-02,7.113260755484823727e-02,-4.558309264261345417e-01,1.799883170754645878e-02,1.843202598534553552e-02,-2.149358523610462104e-02,5.334422588348388672e-01
6.448839480423834702e-02,7.649919557096093725e-02,-4.458328686962842458e-01,-2.321907909430567752e-04,9.414518553342429361e-03,3.704304369643490573e-03,5.167288184165954590e-01
6.199059624173089422e-02,7.886580608377516399e-02,-4.462173281866993468e-01,-2.507456547353645402e-03,6.540597988600959332e-03,-9.719068713543219497e-05,5.169945955276489258e-01
6.778928269319195454e-02,7.701077269683864746e-02,-4.434003724407746261e-01,1.021293893782265045e-04,-1.319449915849461906e-03,-1.345989947406013359e-03,5.158725976943969727e-01
5.925336541669376511e-02,7.771901584915005823e-02,-4.287689921548574201e-01,2.160285607065749736e-03,-1.297705558573187775e-04,-8.162802642156843577e-03,4.977272450923919678e-01
6.673908237197861970e-02,7.591673933306331001e-02,-4.490462022812425902e-01,-3.406035293698031138e-03,5.003473991712027204e-03,1.846278550086944987e-03,5.205501914024353027e-01
5.929021224398997592e-02,6.540860579955515286e-02,-3.954300248583667576e-01,1.229453650683283265e-02,4.412726257225903399e-03,1.130538162222383992e-02,4.587868750095367432e-01
4.839432529251500026e-02,9.118572233689331563e-02,-4.507804466135522659e-01,-3.583093844638928979e-03,-8.351465515107193635e-03,-1.850087968733959412e-03,5.221350193023681641e-01
7.919064253332511183e-03,9.620882414261933135e-02,-3.297513615232763318e-01,-9.910895868506638950e-02,1.182401926934195102e-01,6.559138292588097274e-02,4.857426285743713379e-01
6.303567092759337909e-02,7.311960888329202546e-02,-5.122495472043563369e-01,-9.773387049253604020e-02,1.371683028719413722e-01,1.333766509968551672e-01,6.894382238388061523e-01
4.764814815627330113e-02,8.203995639548222751e-02,-4.406945539557250435e-01,-4.480264129483445094e-03,1.813508550233254579e-02,-2.511145895011921564e-03,5.074664354324340820e-01
-1.430457686154928618e-02,2.583207701355635932e-02,-1.282606113314581631e-01,-1.777971289476141387e-02,6.629218874983108800e-02,8.588219682634515989e-03,1.830965131521224976e-01
7.227070812188790550e-02,7.652060551084999274e-02,-4.422585770596713095e-01,9.724698177221125731e-04,-1.296223758039405328e-03,-3.100317777054377010e-04,5.166752338409423828e-01
7.391200764702809956e-02,7.692412813960711193e-02,-4.449088229807480754e-01,1.471931501913381407e-03,-1.840727415171208295e-03,-1.133053208539776778e-03,5.203531384468078613e-01
7.191408668773247026e-02,7.979581304994434743e-02,-4.450184669040991858e-01,1.998992808376060751e-03,6.758026564282465900e-04,4.906271143342340194e-07,5.209309458732604980e-01
7.235897360622089991e-02,7.646956294263410059e-02,-4.389440424413437181e-01,6.482230661032963026e-03,2.346816679921021227e-03,-1.135771923533595131e-03,5.135132670402526855e-01
7.445795473501312656e-02,7.011945882510117745e-02,-4.299755452647087695e-01,7.011146671753913998e-03,3.405346299995392310e-03,1.017185173708791369e-03,5.024628043174743652e-01
7.041636644957641189e-02,7.149728884558007036e-02,-4.449413765027068757e-01,-1.583439215568155627e-03,6.991244343428465978e-04,-2.060802348244881749e-03,5.159201025962829590e-01
1.506119522116389220e-02,2.587077363862767820e-02,-2.357672801971145704e-01,-8.628297212445257616e-04,-7.219530810724111153e-03,3.129242319616334228e-02,2.623725831508636475e-01
7.357528912081442996e-02,7.800242691806341666e-02,-4.488410825873767052e-01,1.182603533470416449e-03,1.051260386529059019e-03,-2.326231817211810702e-04,5.246512889862060547e-01
6.511000801916741465e-02,6.049873039524886198e-02,-4.413461998167240719e-01,-1.883733515336659479e-03,1.790216036128692775e-03,-6.499408730408586833e-04,5.041877627372741699e-01
6.846069631704596037e-02,6.375134010187505362e-02,-4.432897705251369058e-01,-1.257234802337883718e-03,-2.911017012396468952e-03,-2.827605201887796373e-03,5.094652771949768066e-01
9.379228120541108216e-02,2.204987695786844726e-02,-4.444034682770865996e-01,-6.500311628718303050e-03,-3.491289394582884013e-03,2.953359816037763857e-03,5.063394904136657715e-01
7.290523772987628215e-02,6.479817643998714294e-02,-5.498808113539412901e-01,-1.159896638193469720e-01,2.772022089365489689e-02,-1.802017886173820464e-03,6.523457765579223633e-01
8.769214640947073369e-02,2.810731261080712251e-02,-4.440915733458811188e-01,-1.603736154568106628e-02,-3.577714386685756399e-03,2.535836164722536038e-04,5.054386258125305176e-01
9.235407021733674227e-02,4.465404371343323353e-02,-4.505765887371386835e-01,-2.258358200998387879e-03,-7.329086261236135436e-03,2.300410422819216833e-03,5.209064483642578125e-01
6.725693936464902101e-02,5.198936659114627989e-02,-4.385271134386184433e-01,-2.927133580700595848e-03,-2.072591666442907354e-04,-2.230879355086458376e-05,4.983516335487365723e-01
1.078590136056405968e-01,2.933000112528350023e-02,-5.045530002939420111e-01,-2.844781642809247890e-02,2.714111021001052847e-03,-1.932877763043054989e-02,5.802533030509948730e-01
7.670690258514928361e-02,7.466911099969236743e-02,-3.392145383984048745e-01,-5.532821505330449974e-02,-3.051713663199309701e-02,-3.913106436848408365e-02,4.344173967838287354e-01
1.567240295751641532e-02,2.717768749132079553e-02,-2.577131016097478078e-01,-1.846424115653711156e-03,4.763483069766514286e-04,1.744644661467508601e-02,2.809651792049407959e-01
7.367202159146965523e-02,5.174322699374425683e-02,-3.922544990614424409e-01,5.328616777759087597e-03,-8.465725751483948319e-03,-9.663806226470261426e-04,4.556908905506134033e-01
3.447483293878737809e-02,4.578953598132960712e-02,-2.993020785474655443e-01,5.041918086335076508e-03,-2.296365562351078762e-02,-2.336316623535204806e-02,3.443942368030548096e-01
6.271224601851255187e-02,4.239368713788688181e-02,-3.531469529707205179e-01,3.696828555394811831e-03,-3.433595226001157769e-02,-9.894538001832559743e-03,4.108206927776336670e-01
2.720906871058026422e-03,1.593353756070855498e-01,-4.932503736060928068e-01,-8.887744989253393291e-02,8.354742566369252610e-02,3.194289902315100571e-02,6.291987299919128418e-01
5.246122598840180506e-02,4.071039916759051913e-02,-3.235318442854385745e-01,7.951939180907325461e-03,3.009425751118453840e-02,6.367473382976419037e-03,3.743246793746948242e-01
5.333427609285465443e-02,3.189530823924205394e-02,-3.187955214686626348e-01,5.487853946506380219e-03,3.077658303094382708e-02,-1.714680764479199673e-04,3.659155070781707764e-01
5.516752805643118651e-02,7.403102277747483639e-02,-4.168812419038249173e-01,3.285162796115344980e-03,2.649762052395127424e-02,-4.059480950841534708e-03,4.840233027935028076e-01
1.179359490655479403e-02,1.032215542424205490e-01,-4.550662253043763483e-01,-2.342450942414287668e-02,8.203492740689297819e-03,9.135107898524905687e-04,5.204341411590576172e-01
8.100362435627853075e-02,5.572460897777761768e-02,-4.107467009351969955e-01,3.332407860752495225e-03,-1.683678531474027198e-03,-1.369726784108444770e-03,4.796601831912994385e-01
7.201431220201473526e-02,7.731524928934394025e-02,-4.473137428809517702e-01,3.270726476292110628e-03,-2.080572502984539152e-03,4.861387888700387586e-03,5.221098065376281738e-01
4.096092265188469583e-02,1.131642341117861938e-01,-4.639960886306374044e-01,-1.028868249105079936e-02,1.274910843002848883e-02,-1.315142797539805078e-02,5.458741188049316406e-01
2.746297882427475856e-02,4.289386985053163237e-02,-2.554355308594781215e-01,8.480391905690946169e-03,1.108664885799062749e-02,6.071233378566509575e-02,3.102861642837524414e-01
4.676698251703906295e-02,8.477241506611910005e-02,-4.485502805138175675e-01,-2.588922020182246510e-03,-7.427413872026417119e-03,1.338085784749950711e-03,5.155572891235351562e-01
3.929590548067526945e-02,9.425814778178315256e-02,-4.396340114154388412e-01,-7.447207628257224155e-02,-5.480109305849866635e-02,-1.074824115634383376e-01,5.648211240768432617e-01
-3.444834729050366695e-02,1.679119621382576533e-01,-5.391574320650129870e-01,-7.135049443201947617e-02,-1.568982009700659735e-02,-1.326992601872716351e-02,6.437029838562011719e-01
4.503438743183646453e-02,8.364747289093549254e-02,-4.383181138519389175e-01,1.513028587741249579e-03,1.484286228253670114e-03,-1.979069385011036474e-03,5.037951469421386719e-01
4.185514863817121900e-02,7.997903413536708306e-02,-4.483846227862045564e-01,-4.593696240342163249e-03,5.756722240747065220e-03,7.124333036165619165e-03,5.106792449951171875e-01
2.338116518478866590e-02,2.924801509228074359e-01,-7.975883285452475269e-01,2.698873734476189140e-02,-6.988600200681148455e-02,2.794627350347911668e-02,9.932308793067932129e-01
4.206874319485084945e-02,1.039104417664284408e-01,-4.618910538233814700e-01,3.466243724052003872e-02,1.332850431175251977e-03,5.857695554728792851e-03,5.409975051879882812e-01
4.507102975217427976e-02,5.527833502313253544e-02,-4.624220854904148026e-01,-5.590128740912016225e-02,-1.054508027496774310e-02,-1.075089166719622215e-02,5.223875641822814941e-01
9.055745473987431016e-02,4.174200225362489913e-02,-4.481192475737642567e-01,4.981544448864788947e-04,-2.829087066300112630e-03,7.444308429094650612e-03,5.161887407302856445e-01
6.727548972437413788e-02,7.089657605860480438e-02,-4.515627927604546898e-01,-6.548064894706460970e-03,2.678787635373984944e-03,-4.020487892277920168e-04,5.208029150962829590e-01
7.244770209444939546e-02,5.992525463322750934e-02,-4.447455173508941817e-01,-5.354656406741842636e-03,-5.600830232626829476e-03,-3.603511597573917213e-03,5.112614035606384277e-01
1.414561177914009926e-01,3.320927933568326718e-02,-5.135248913117398395e-01,-4.121304670197499520e-02,2.109911597463737243e-02,-1.504349053893325704e-02,6.139445304870605469e-01
1.011305599978819525e-01,5.664077050360613597e-02,-5.271568370215831134e-01,-6.423198649535542815e-02,-4.701128294408494709e-03,3.132733879643467834e-03,6.174504160881042480e-01
7.590235607714318489e-02,5.642894225134867381e-02,-4.446987865958751951e-01,-2.157390863739845187e-03,-4.219639295253085724e-03,-4.130327171851562972e-03,5.112586617469787598e-01
1.927394956235433110e-01,-2.920459304538211565e-02,-5.472989623970707651e-01,-1.622545631368938271e-02,-5.799018286411872919e-02,1.086897307905407006e-01,6.920893788337707520e-01
8.536813183313773923e-02,7.891135095543666544e-02,-4.557486477733177499e-01,-1.313794324774224254e-02,4.098149296179575546e-02,5.097724903186645617e-02,5.501886010169982910e-01
7.911907285322211658e-02,5.300267499054553411e-02,-4.452573653449923285e-01,-9.176220665928991327e-03,-3.304422052850682166e-03,9.668802498088088782e-03,5.123707056045532227e-01
1.640302053675796734e-01,-1.961344762665018226e-02,-5.366981331937654698e-01,-4.060743585152201685e-02,5.769945468809759524e-03,1.126172210147498992e-01,6.626881361007690430e-01
5.930366296064687459e-02,6.701920171215219879e-02,-4.427087984219057470e-01,-4.786018723127298882e-03,-2.663841550197429409e-03,-2.245555351348421484e-03,5.060182809829711914e-01
3.211758055429284053e-02,7.924025218443175866e-02,-4.399800306066510291e-01,5.938660538101341382e-03,-2.623368310489068971e-03,-2.069583560556550236e-03,4.974761307239532471e-01
6.864545305987557189e-02,4.587211754460651658e-02,-4.386226165006929523e-01,1.688216161160711881e-02,1.875195307376160839e-03,7.003550085472843526e-04,4.971462190151214600e-01
9.623599761373838324e-02,1.787545929104270570e-01,-7.284394384047641058e-01,1.118541787704315782e-01,-2.395367588124219793e-02,1.448730900168741700e-04,8.911820650100708008e-01
6.692602609363604294e-02,4.668011574352665116e-02,-4.394754890216343579e-01,8.241768099720459331e-03,-9.027557493203273433e-04,1.436703896742787343e-03,4.968020319938659668e-01
8.121027563649360625e-02,5.906925861809789180e-02,-4.187965889138498543e-01,4.556175344745965264e-03,1.469771107508993820e-03,-5.587394928245392528e-04,4.893833994865417480e-01
6.825572987348682563e-02,7.324051232879033591e-02,-4.389785039458931060e-01,-8.594872512728324895e-05,1.087222426556089163e-03,-5.167855775369250421e-04,5.097491741180419922e-01
7.525620732975912830e-02,5.821124514940559380e-02,-4.070770495667878630e-01,-6.330414142138758582e-03,-5.134624893236197640e-03,-2.382734540799630026e-05,4.742508530616760254e-01
1.252148213924594855e-01,-1.059468116773638890e-02,-4.691330699407109672e-01,1.877516576278774260e-02,2.921515188427196985e-04,-1.615944839547733131e-02,5.411254167556762695e-01
-5.688202124195210208e-02,7.950183229280360919e-02,-2.571038711421953504e-01,4.271813223549541377e-02,-1.127272682096118611e-01,2.505850273116173518e-02,3.625975549221038818e-01
9.189835121795503214e-02,5.904349789672735938e-02,-4.540049245233653830e-01,1.247927852907145321e-03,-4.143451639113527110e-03,-2.513292075799713685e-02,5.320765376091003418e-01
7.252888158053483192e-02,7.205016802916627827e-02,-3.928129705763385160e-01,6.515109947435724323e-03,-4.957310385690416599e-02,5.974675552113324628e-02,4.842822849750518799e-01
8.315270013404066352e-02,3.913981276058367542e-02,-4.476585991321602731e-01,-2.645299770432196079e-02,2.119388459049471006e-03,-1.219201075621549222e-03,5.123011469841003418e-01
6.550289470304507256e-02,5.234567958660438225e-02,-4.399479737884823272e-01,-1.711061921962392113e-03,-1.507457328253264004e-03,-1.296102158185493390e-04,4.990180432796478271e-01
7.719791835617434428e-02,4.521353612036735359e-02,-4.441648242702287974e-01,-4.564743635887632059e-03,-6.081556708021179126e-03,-3.352402581006047079e-03,5.063337087631225586e-01
4.252163449694795760e-02,7.116944433064564812e-02,-4.442636241733197155e-01,-8.084096546405742517e-03,3.333252530762109700e-03,8.454695272390050104e-04,5.019536614418029785e-01
2.492511664476798616e-02,8.570230696853614605e-02,-4.462911761151031054e-01,-2.214940045813992148e-02,-1.398281098942608146e-03,5.243248000642783402e-03,5.059031248092651367e-01
4.770051343469128291e-02,7.517939138212179073e-02,-4.480141127100111809e-01,-5.833239975757480503e-03,-6.148285003193106231e-03,-1.631099775869506016e-03,5.102285742759704590e-01
6.839794964017112400e-02,4.319493241565122710e-02,-4.415287686497500474e-01,-3.089891492714307714e-02,1.126255847696722850e-02,3.276466948375098085e-03,5.010845661163330078e-01
1.006393038997658029e-01,1.743051388954935943e-02,-4.514660829662836550e-01,1.064320316244972246e-02,-4.407654748070259816e-03,-6.730615492226170969e-03,5.160794854164123535e-01
5.060345939081856148e-02,7.125505061540030050e-02,-4.458514756253469380e-01,-1.503520903756258575e-02,-7.813283282911416376e-04,-7.830220612328300843e-04,5.077680945396423340e-01
7.387020553358308872e-02,6.795069002408843373e-02,-4.397172300076624407e-01,-9.253203319859145456e-04,1.160609136667187496e-03,1.809832265688385072e-03,5.106695294380187988e-01
1.327687048270120851e-01,1.706768805005670631e-03,-4.830310978904522323e-01,-2.304890000322887267e-02,1.708216084435082785e-02,1.789581530413494881e-02,5.648970007896423340e-01
7.109780067749466026e-02,7.262570808584434268e-02,-4.314012227704782654e-01,-4.353450462598992127e-03,4.157582896159676272e-02,6.285043585069333139e-02,5.199696421623229980e-01
9.408259344139868752e-02,2.678470332906823792e-02,-4.501687866071629740e-01,-4.737515932977675454e-03,3.391039079062487666e-03,4.661625162969368005e-03,5.140803456306457520e-01
8.495322054619797170e-02,4.385506568032979113e-02,-4.396706076156853826e-01,7.237151115052395389e-03,2.003357078143281657e-03,6.077519098494632566e-03,5.056067109107971191e-01
7.601161340183576476e-02,6.515575295281933466e-02,-4.479038155886094219e-01,-1.223296237873357315e-03,-7.577263984865238505e-04,-6.306612004705842121e-03,5.186937451362609863e-01
6.592963447399924348e-02,6.610403512520227065e-02,-4.079693418218381940e-01,1.197694506810130163e-02,3.934935414400451102e-03,1.492023512239390101e-02,4.751921296119689941e-01
6.410897387253844393e-02,5.116840970670746835e-02,-3.725271590283469325e-01,-7.894369609263377635e-03,-8.618491559046108710e-04,-6.809508562312616316e-03,4.306931197643280029e-01
6.987916482263042961e-02,7.692261669006333902e-02,-4.385052981882042178e-01,-3.729510227193204037e-04,1.455474037721249522e-03,-5.095923210747034006e-03,5.120252370834350586e-01
5.968467007399469448e-02,4.752591737834888086e-02,-3.590240444607727954e-01,8.408273396422756563e-03,1.728058839896416676e-02,-9.059621637236892934e-04,4.141065776348114014e-01
5.217286422873732010e-02,3.540696913405455559e-02,-3.146414240599383905e-01,3.534930212081574888e-03,2.874701480083990957e-02,5.358262360947240767e-03,3.623349964618682861e-01
7.367040766315133271e-02,7.850923062066572644e-02,-4.486110100094760633e-01,-1.548153502303101486e-03,-9.475613129014667574e-04,-6.914207303013581146e-04,5.247283577919006348e-01
2.158426652072308882e-01,-1.989470376889437842e-02,-5.840471966326996611e-01,-4.134242689510519292e-02,-5.408707514590130501e-03,8.002566945751102279e-02,7.288755774497985840e-01
-7.280050367102955389e-03,1.175622316389626221e-01,-4.520434868438903964e-01,-6.513753154074561000e-03,7.745153034277715495e-04,-3.378222647994747656e-04,5.187049508094787598e-01
6.312300029454065431e-02,5.852570454335695449e-02,-4.394784480462969323e-01,-2.385529254723666587e-03,-6.237525810424619614e-04,-1.463401031320075681e-03,5.003432631492614746e-01
4.863073899482431295e-02,6.819238712561490057e-02,-4.416001577424224500e-01,-7.458298285715725742e-03,-5.392541147523816775e-03,-5.182011088817133591e-03,5.006330013275146484e-01
6.552663708554934408e-02,3.951231273706562463e-02,-4.431200198074163321e-01,-4.701251835811422891e-02,4.062381759287859257e-04,-3.377588488105980492e-04,5.027896761894226074e-01
6.630261402840009755e-02,6.120517285993093415e-02,-4.409034399826790018e-01,-2.078526984433397892e-03,-8.140826374775368387e-04,-3.101290258272299878e-05,5.046914815902709961e-01
4.059826826216011986e-02,9.468761490749497134e-02,-4.468754199844222064e-01,-3.376135810179813589e-03,-1.006198481291787489e-02,3.746547079043601770e-03,5.170139670372009277e-01
-1.572966782521324769e-02,1.382983757722955342e-01,-4.872827443996156083e-01,-1.723373761027896522e-02,1.956041916103601775e-03,-1.794589793585088999e-03,5.653595924377441406e-01
5.384107905519364135e-02,6.630720275635798577e-02,-4.393520476656818663e-01,-1.659037346057714787e-02,2.314863741831780803e-03,-1.337418810083686703e-03,5.003900527954101562e-01
7.446547791226951207e-02,7.626579668199381934e-02,-4.440832711840522196e-01,3.432008403146410633e-03,6.847846505097955746e-04,-1.155936328966301397e-04,5.194866657257080078e-01
5.396346312804636836e-02,1.143534062311545030e-01,-5.015679031328852400e-01,-2.935582306563986471e-02,-3.298693297302646155e-02,-3.244949198051960801e-04,5.930097699165344238e-01
8.009071482255256114e-02,6.353948767764935890e-02,-4.461266724741653755e-01,1.048326296279530456e-03,-1.006174218614803214e-03,7.434941861468116059e-03,5.183061957359313965e-01
7.428347858757250455e-02,4.435292706453142220e-02,-3.784597967101041571e-01,-3.552891940483248189e-05,1.699766935326708223e-02,4.133151054593490266e-04,4.395323991775512695e-01
6.877880644754141848e-02,7.259209277136885463e-02,-4.236284968656515160e-01,8.451055383381323935e-04,1.264578262680626309e-03,2.970584780060195676e-02,4.970024526119232178e-01
9.937556171670097749e-02,2.022139075599688196e-02,-4.519511731866499016e-01,-8.621559485551134883e-03,-3.569281415806725526e-03,-5.454646497703544671e-03,5.166596770286560059e-01
9.950429153440629171e-02,2.412338615688050525e-02,-4.517770527157782268e-01,-2.066661329815431408e-02,-5.460103860589033201e-03,1.957466799532742857e-02,5.201514959335327148e-01
6.416545069334053664e-02,7.615005298125152033e-02,-4.212745139607500522e-01,3.167094926205591895e-03,7.425840703541662820e-03,2.311531581154242440e-02,4.933678805828094482e-01
7.030465897593279889e-02,7.226732949918973636e-02,-4.459126397411449783e-01,3.651682743623285623e-04,-2.430879697368706124e-03,1.921276773809846902e-03,5.172296762466430664e-01
7.323706454557482592e-02,7.088375530283416714e-02,-4.472366929031587057e-01,-9.135434049324080846e-04,-2.291028951578506117e-04,1.462856253935369485e-03,5.193098187446594238e-01
7.327588161345149897e-02,7.707267621008176417e-02,-4.453247799068633106e-01,-1.029477688695905422e-03,1.411029074299054056e-04,-5.380047896783126705e-04,5.205134153366088867e-01
7.319233479519104968e-02,7.811928017346250752e-02,-4.454481043068787560e-01,-2.774799079801569968e-03,6.828222256796595601e-04,-7.481596463500447521e-04,5.211464762687683105e-01
7.010560439171692471e-02,7.800753228635154413e-02,-4.360462654080076161e-01,-4.931731663768939081e-03,-6.043694722759835117e-04,-5.464344557875753725e-03,5.103091001510620117e-01
7.238717615839565522e-02,7.739962551645845901e-02,-4.400379387584003044e-01,-5.608853928361973683e-03,3.712185114817261392e-03,-8.835644146135956663e-05,5.150814056396484375e-01
8.803796994907783779e-02,3.844627239980830113e-02,-4.545152732317591093e-01,2.207424485551345503e-02,-3.430468034501107585e-03,2.618921141885322251e-03,5.209941864013671875e-01
7.964549399724502043e-02,5.626518471034425151e-02,-4.490335110839157595e-01,3.955442715060119609e-03,-1.242752063885966412e-04,6.564161937253761361e-03,5.175554752349853516e-01
7.384183576221758916e-02,6.828317908973230432e-02,-4.310727969929576409e-01,-4.543104471515833388e-03,4.835228945308752725e-03,-9.361381107340397637e-04,5.022924542427062988e-01
8.432784004924764876e-02,3.592183030612453032e-02,-4.454331172721293086e-01,-8.215429263951983321e-03,-6.354054736037278691e-04,4.549600038548705459e-04,5.074943304061889648e-01
6.981345032301233822e-02,6.344242762211185771e-02,-4.096753677127920601e-01,7.435520034659940866e-03,-5.522672463226445221e-03,-3.622271164913084315e-03,4.766466319561004639e-01
6.849604166776829262e-02,7.427168405134157436e-02,-4.258276318881481504e-01,3.453640969319658402e-03,-1.712991123772692609e-02,-1.395277221345089975e-02,4.987428188323974609e-01
6.261891320463464083e-02,8.131341204648673271e-02,-4.498272502527610461e-01,-1.037936656709362651e-02,-5.299636736412970464e-03,3.153917230189634720e-03,5.224632024765014648e-01
1.091623345190872729e-01,-3.197583181617350001e-03,-4.560309946973731265e-01,-3.086516335990132504e-02,3.318748778370507588e-05,1.156793648627247283e-02,5.213661193847656250e-01
1.190600662906307894e-01,1.528696321827421878e-02,-4.667322761984156743e-01,-8.346634658457716127e-02,-6.645496486677236747e-02,-1.280486476815851926e-01,6.135715842247009277e-01
8.918927245736196774e-02,4.488212002827696168e-02,-4.425626703602960066e-01,-1.132757504574519528e-02,5.773493143336949282e-03,-1.592729963329892959e-02,5.122585296630859375e-01
7.695870692409381708e-02,7.283037781139697908e-02,-4.447447512146958104e-01,-9.322849775900445262e-04,6.935003326639795854e-04,-4.107479896975174509e-04,5.196560025215148926e-01
7.741908467626973378e-02,7.456002928868343815e-02,-4.482486471638431058e-01,-9.326526369291291904e-04,6.946523003791206952e-04,7.775870514005509644e-04,5.242496728897094727e-01
7.639899251129961266e-02,7.483687960324339472e-02,-4.469311101919064000e-01,-2.155157917031392222e-03,-9.599164719208519003e-04,8.753735541705952999e-04,5.225690007209777832e-01
7.430584742094697992e-02,7.322738654622992782e-02,-4.476366846660057019e-01,-1.836130743914172071e-03,6.062678101089606685e-04,1.298149702634807719e-03,5.214197635650634766e-01
7.327696758402926780e-02,7.758339663393407082e-02,-4.479312807006155528e-01,-4.076791124786776147e-03,-1.509809225842876279e-03,-2.452849327877194147e-03,5.234461426734924316e-01
7.385639741297594929e-02,7.041658316947846386e-02,-4.472102416055980245e-01,7.213696776572376410e-04,1.804538931567497195e-04,1.726864794888840560e-03,5.193654894828796387e-01
7.218498086013661053e-02,6.676202009325230002e-02,-4.476649512502749451e-01,3.697772468894289059e-03,-4.997691132002324288e-03,3.328318552395864976e-03,5.173040032386779785e-01
7.937427064039451197e-02,7.133606373323461702e-02,-4.424023076205316762e-01,-4.579898083552091242e-03,1.931780227294763869e-03,-3.020120911397069412e-04,5.178760886192321777e-01
7.772501581455876218e-02,7.584039842382900298e-02,-4.492640993661621285e-01,-3.154344930692988720e-03,-2.820003133814726407e-03,1.316406244584862432e-02,5.265942215919494629e-01
-1.827384386485247925e-03,3.817349949152461230e-02,-1.733906564946195716e-01,2.850713044802859197e-02,-7.551317887066587298e-02,1.156906629080848778e-02,2.405055761337280273e-01
4.073318209093412801e-02,8.539083484757697962e-02,-4.196533771594501139e-01,4.631062811604887142e-02,-5.538257898086749315e-02,4.625513758210731546e-02,5.065216422080993652e-01
-1.317358817979714242e-02,8.491962204692776739e-02,-1.783346229340839750e-01,-6.577583057147486090e-02,-9.810340335176985505e-02,-8.069452625469472618e-02,3.383617103099822998e-01
6.796717753816672314e-02,6.456750185329690472e-02,-4.086194909123189167e-01,-1.139199373089141293e-02,-7.977890277696733298e-03,1.415742140190975017e-02,4.761383533477783203e-01
1.458468919150252008e-01,3.496810131730601623e-03,-4.401407291960904300e-01,6.335682668779671345e-02,-2.926190209863637273e-02,1.447357982564515255e-01,5.980685949325561523e-01
5.501899887729921890e-02,6.104706313431709774e-02,-3.698551057724849267e-01,-1.150052012112448216e-02,-3.117667248906790325e-03,2.695345296103205182e-02,4.309535026550292969e-01
6.136386768498539035e-02,6.038374954975661568e-02,-4.396032393988881792e-01,7.766787749460497608e-04,-1.528724254684617982e-03,1.630711230455404942e-03,5.004945397377014160e-01
6.265225127204801514e-02,7.014678862566756101e-02,-4.444029009878009973e-01,6.525940322393904581e-04,-2.695685853072722453e-03,2.979849091297048173e-03,5.108923316001892090e-01
6.135812802064236071e-02,6.653800418166455621e-02,-4.410829595047939256e-01,2.195641240835962630e-03,-9.674620572189294250e-05,-8.553217160237735085e-04,5.050674676895141602e-01
6.620905515340574921e-02,6.568242914211591676e-02,-4.435695428328487178e-01,6.736658066105941220e-04,-2.066947527066662852e-03,2.254928515423431160e-03,5.095443725585937500e-01
6.916208894924869011e-02,7.248420548253370344e-02,-4.417407545862245821e-01,1.525106981007939193e-03,5.018594844322940909e-04,-2.535317028003737823e-03,5.125983357429504395e-01
6.109470059649532714e-02,6.555069503318439184e-02,-4.415987164718161440e-01,1.183175270258513120e-03,6.325712003125115446e-04,1.535509962349084108e-03,5.049484968185424805e-01
7.037472155067051038e-02,5.418677478137590153e-02,-4.431618135441542927e-01,3.127632162859412569e-03,-1.710417044217076715e-03,-2.754408633662316919e-03,5.056971311569213867e-01
3.683896750648646412e-02,6.268536482294700951e-02,-3.520848694467820783e-01,1.339868241846724857e-03,5.098819145618277649e-05,-7.422073848255619777e-04,4.024787247180938721e-01
9.716797362119750092e-02,3.040196963966984578e-02,-4.930549445651304930e-01,-5.660556411599232396e-02,6.592808329842912707e-02,1.581015771043017826e-01,6.411352157592773438e-01
4.700891667497203441e-02,-5.732287063649754710e-04,-2.651377705141297336e-01,-5.478932832406525899e-02,7.912097065580823985e-02,7.327298241123864075e-02,3.588032722473144531e-01
2.482807442880179127e-02,2.742512469090435667e-02,-2.550372192814717165e-01,-1.475694190248799838e-03,3.195015567097797809e-03,-2.209539169509099846e-03,2.812649309635162354e-01
3.404486945657383967e-02,5.361957269975850537e-02,-3.234011053774223377e-01,-5.204001794967001715e-03,-1.259098869569624584e-03,-2.775846883700086240e-02,3.708709776401519775e-01
7.575506635972120706e-02,7.081535368099933780e-02,-5.034919691578865208e-01,-6.408977134888789451e-02,-4.172982470160509043e-03,6.871548453660695707e-03,5.875428318977355957e-01
-4.947424363991273499e-03,1.125005048275509734e-02,-1.630463106395374784e-01,-3.039829202957731319e-02,-7.526821134314966300e-02,-6.994422838216143856e-02,2.495257109403610229e-01
1.359621548698381616e-02,5.104229233520847508e-02,-1.181915845533795528e-01,-4.052029693361359347e-02,-4.486595020246153618e-04,-5.731821749867505034e-02,1.961825489997863770e-01
2.682055378984520011e-02,3.120297857363737992e-02,-2.728381614709604053e-01,6.081781667355855119e-03,-2.224541245567231498e-03,1.957783396898426717e-02,3.039793968200683594e-01
6.171040428664134603e-03,-4.288103766133236419e-03,-5.620183217573272716e-02,-2.579363925061944028e-03,-1.635754055398713075e-02,-3.971041962599033276e-03,6.494133174419403076e-02
1.615108586640083277e-01,-3.503003163738081793e-02,-5.257961536638761091e-01,5.106533435080921890e-02,-2.403472022928133597e-02,6.702300075162444248e-02,6.316388249397277832e-01
7.799304205799481582e-02,7.357136495014099387e-02,-4.425160383831886479e-01,7.351242437781689608e-04,1.397503957167158840e-02,5.209007468667293216e-03,5.189572572708129883e-01
3.579254744399426591e-02,4.403681777645787609e-02,-3.218257741770946256e-01,-4.831184843870463611e-03,-1.214750376086713322e-03,-2.621805730483554517e-02,3.647516071796417236e-01
3.680418807685585658e-02,3.591511432127821035e-02,-3.120664293740859074e-01,-3.245280451655392466e-03,3.138425617700186273e-04,-1.848857024743406734e-03,3.484874069690704346e-01
-2.032980743138103341e-03,2.224661019209003832e-02,-1.457364779168744962e-01,-3.274447123362872469e-02,6.073250614310006512e-02,2.607459234680642793e-02,2.026100307703018188e-01
1.117872101818620512e-02,1.122927688847617234e-01,-2.812994256259759296e-01,-4.431332246196535013e-02,1.173131055638849674e-01,5.479059082365698996e-02,4.260578453540802002e-01
-3.335868676163509378e-02,6.772222308820374792e-02,-2.786950355206402330e-01,-2.929475106348980451e-02,9.688693093297964798e-02,3.003765840808061971e-02,3.586762547492980957e-01
6.672438115830112149e-02,6.798047080819427657e-02,-4.092377914653119175e-01,7.190548638698534764e-03,3.019682134005059748e-02,2.980542563261412425e-02,4.823848605155944824e-01
6.527634637531362638e-02,4.220259427764641580e-02,-3.569206811885254349e-01,-1.768104076601550566e-03,-1.320833523716524998e-03,-7.324615830563764064e-03,4.113594889640808105e-01
1.995039197446997481e-02,2.957961957367738481e-02,-2.619785280763018420e-01,5.185790429165336966e-03,-1.461378799753774429e-03,2.440162092858759804e-02,2.901116907596588135e-01
9.327957248679137614e-03,1.806533902807708897e-02,-1.024623105599239276e-01,-1.991847712039438237e-02,-2.297037709496972668e-02,2.754755398317461270e-03,1.278517842292785645e-01
6.638023358601594093e-02,9.214272589909915101e-03,-1.814669621985419701e-01,-5.698159429423932387e-02,-6.430014141692215468e-02,-7.149563976988279612e-02,2.966594994068145752e-01
4.096609688579982977e-02,-3.893672068516672302e-03,-1.745345803384678318e-01,1.989378096030874551e-02,3.209157371375833540e-02,-5.566388411678229592e-02,2.288185507059097290e-01
3.056269467617206415e-02,2.630932969910225461e-02,-2.422092005244809443e-01,2.999305898907168172e-03,-4.301822232286650616e-02,-4.520163101525546262e-02,2.914972603321075439e-01
1.417520369309289152e-01,-1.674933925301061444e-03,-4.976324406042531012e-01,8.035129037768211097e-04,4.490001142402486045e-03,-8.061423132214812302e-04,5.811567902565002441e-01
2.487069929948459990e-03,7.184152019074588336e-03,-1.672118736016269258e-01,-1.672108071783849972e-03,-1.736199767908000111e-02,-3.179623628319348111e-02,1.832009553909301758e-01
7.129283297487609694e-02,1.209120972334838673e-02,-3.184854776411134014e-01,-1.153042126427320652e-02,-2.637055171212434809e-02,-1.359411385463019373e-01,4.362126886844635010e-01
2.102893337312786715e-01,9.246460114742838243e-02,-8.569434747236881478e-01,-1.117063304426398340e-01,8.065710062272982150e-02,5.317689217570302496e-02,1.045254588127136230e+00
-3.410128051706932950e-02,3.211911144519863370e-02,-1.418936361772850652e-01,3.659819958676186619e-02,6.149351644078816792e-02,-7.347217160132965552e-02,2.338792532682418823e-01
7.247201663187430309e-02,7.226014189406185229e-02,-4.313176293859314336e-01,-6.901538925330625088e-03,2.619399470469211191e-02,-3.138878133639121798e-02,5.087773203849792480e-01
8.641926223426840692e-02,6.694073382169299369e-02,-4.672269383569674361e-01,4.679683849665962174e-03,8.291157354075271227e-03,-1.231674531336833175e-02,5.448361039161682129e-01
5.958704347470397678e-02,7.811217293594763245e-02,-4.458741514664937844e-01,-2.458028850644084374e-03,-8.802039705484401150e-03,-1.633381579661774032e-03,5.152246952056884766e-01
6.778984326436973684e-02,7.322602462986280147e-02,-4.386314141229367136e-01,1.292942747752810458e-04,8.301649780433809729e-04,-1.102225227469917981e-03,5.091667771339416504e-01
8.070660256336209537e-03,1.031285856638981535e-01,-4.468926220622018719e-01,8.829371288547212954e-03,-2.971405333039768386e-03,1.921135686847963084e-03,5.094574689865112305e-01
7.884897963809320287e-02,7.151447557209006378e-02,-4.446915056887659756e-01,-2.173497748560029863e-03,1.399255733588988457e-03,-4.377392786452447134e-04,5.199318528175354004e-01
6.925853921112376521e-02,7.514355258540475480e-02,-4.408844253266035462e-01,2.260439665870080366e-03,1.939991909289515495e-03,1.000544636793730289e-03,5.131396651268005371e-01
5.379580877524334226e-02,3.882705192815073814e-02,-3.326406993046699401e-01,-8.068616619521930960e-03,-2.723819316619254319e-02,1.838023060746061740e-02,3.836760818958282471e-01
-1.455065351216604241e-02,1.673992515526070424e-01,-5.541198066757218044e-01,-4.333797321938315239e-02,-9.067217290738499580e-02,-2.917331946579825031e-02,6.747350096702575684e-01
8.325425866243216233e-02,5.921804633101493409e-02,-4.241559364909816554e-01,2.632400466933269845e-03,-1.030490019024417510e-02,2.358646536346654422e-03,4.961881339550018311e-01
5.344640321877866529e-02,4.097622179049377478e-02,-3.317232541633420850e-01,-6.650124093252416518e-03,-2.879673776493341456e-02,1.062782266194239530e-02,3.829717040061950684e-01
3.888992335814020485e-02,8.583813703716058896e-02,-4.322371861143011751e-01,-1.477079706731192904e-02,-3.022239265614131559e-02,-1.447513882811800150e-02,5.003066658973693848e-01
7.144211619564988514e-02,6.938636088360281007e-02,-4.436372935735039547e-01,1.239419593098890814e-03,-4.400106596594361352e-04,-2.063145928040977135e-03,5.140720605850219727e-01
8.403456861209712692e-02,4.211588603587579360e-02,-4.256769951005167085e-01,8.412435263670603458e-02,8.278299251769928591e-02,-2.292125367339660838e-02,5.325059294700622559e-01
7.760841589272116092e-02,3.674442887347051379e-02,-4.391484896736844723e-01,5.353370012366806020e-03,-3.042124827954246179e-03,-1.083720595279204875e-03,4.977028071880340576e-01
-2.545598221151093576e-03,4.271350622879296899e-02,-2.327056758094326605e-01,2.170063277537934848e-02,1.235246456592629660e-01,-5.605071139410206654e-02,3.493589758872985840e-01
7.136346646281352402e-02,6.034197775679042697e-02,-4.650451680811408806e-01,2.802388535519965279e-02,-7.446328703575099545e-03,2.042412890666329712e-03,5.333653092384338379e-01
5.968711184124186886e-02,1.203256862873100519e-02,-3.680473312589090384e-01,5.430254751283052073e-02,6.756297497784329031e-02,-6.849012762583357727e-02,4.488401412963867188e-01
8.042473243452855081e-02,5.437989332448658897e-02,-4.444733625044314795e-01,1.728143533652914607e-02,2.313080090979484013e-02,-2.568069539432257103e-02,5.167252421379089355e-01
9.309554799642436040e-02,1.777450786534770510e-02,-4.576840565547485862e-01,3.853497347607388185e-02,-7.999330220129309554e-03,1.637792875696563594e-02,5.224917531013488770e-01
7.005497096031593207e-02,8.017243931883122343e-02,-5.112600513294150995e-01,6.997487951323748401e-02,-6.834353012654469095e-03,1.931481475009217200e-02,5.998830795288085938e-01
6.881210356754777213e-02,6.984204408398633768e-02,-4.454704352987735039e-01,7.775310222624461521e-04,9.204439054665991158e-04,2.000499623145677620e-03,5.148141980171203613e-01
6.377466026837366742e-02,6.577627397247706731e-02,-3.972074207101119470e-01,1.051276605631388736e-02,9.006086545602793800e-03,-1.743042407640690936e-03,4.626177549362182617e-01
6.753090343733553214e-02,7.055756063547558021e-02,-4.176285792474453418e-01,6.979009102498356584e-03,1.157925256271767796e-02,3.888024183354996458e-03,4.872894585132598877e-01
1.095430453546075711e-01,4.937138247989839024e-02,-5.110819993340176559e-01,1.312177569115646411e-02,-7.521393830161431267e-03,3.450348341811922126e-02,5.964140892028808594e-01
8.028550175830065361e-02,1.428527990800124159e-02,-3.204691760948981116e-01,-8.194442660743457563e-02,6.991255087810119284e-02,8.957531906728895266e-02,4.442855119705200195e-01
6.429588547537928855e-02,8.378025773127936726e-02,-4.383814528677666411e-01,-4.093936728802354680e-03,5.708177562398348420e-03,4.635443391006292824e-02,5.190883874893188477e-01
5.029290505357866814e-02,7.377564235500949641e-02,-3.908987189300824339e-01,4.003384042792817489e-03,3.424895168119877677e-03,2.016686862656594942e-02,4.548244178295135498e-01
4.190133022164636845e-02,3.347267819642917031e-02,-2.671882600257883267e-01,-3.931493627018452230e-03,1.004799070393852523e-01,4.004586805918151915e-02,3.579779863357543945e-01
5.991807471676813268e-02,6.997149136922833912e-02,-3.884156947646308367e-01,-1.175827017989768998e-02,5.323399802470715064e-02,6.510725308139918288e-02,4.767019450664520264e-01
3.544258843975638118e-02,5.265143116684280200e-02,-2.676950717902408794e-01,-6.221393877606495870e-02,7.032624004603572898e-02,7.238142267821676135e-02,3.735927045345306396e-01
6.332990680246716741e-02,5.711133179541477700e-02,-3.735673259265491208e-01,6.818038135654855628e-03,-6.250043698638028944e-02,-2.036361218153664651e-02,4.486684501171112061e-01
-8.756915061537084988e-03,4.492374062972372128e-02,-2.531825702601863681e-01,4.865336030775841564e-02,-1.285122671766765201e-01,4.895402804770682126e-02,3.736088871955871582e-01
6.629884862965174097e-02,4.879595901250571854e-02,-3.764222098380354820e-01,9.171336542724336377e-03,-3.239003912103775276e-04,-7.206970954227976192e-03,4.347043335437774658e-01
7.964678455794119150e-02,6.646058598029591646e-02,-4.383838643497081633e-01,-9.305967106512777389e-04,-5.241548161860482002e-03,-1.163505879178332141e-03,5.116521120071411133e-01
1.337235820621662796e-02,5.786234820423143133e-02,-1.278595083923562692e-01,-4.005799731678119646e-02,-6.840521458755680073e-02,4.416524806360880642e-03,2.170701920986175537e-01
-1.455041022741140541e-02,2.602568142382215288e-02,-1.191944852016646877e-01,1.186483782076676752e-03,-6.063528048989086372e-02,-8.638566084808219775e-03,1.676331013441085815e-01
1.175259404885523329e-01,2.532207232309457989e-04,-4.560575462469195207e-01,1.208840883603929349e-02,-5.312761220241127248e-04,7.437544079108852207e-03,5.254430770874023438e-01
3.646995498249898382e-02,6.163112628047379138e-02,-2.848670687063037388e-01,8.437931480912132243e-02,-7.849829763232407664e-02,8.743707961455919608e-02,4.180395603179931641e-01
-4.352602124070925615e-02,9.384650844145275839e-02,-2.666586560996304645e-01,5.968801294686056080e-03,-1.080776940924480373e-01,-5.660136370109642573e-02,3.795682489871978760e-01
7.139630201978827695e-02,7.810753994792424271e-02,-4.451465977699672893e-01,1.579158016587812931e-03,1.798933160651661255e-04,4.082238401391106303e-03,5.199863910675048828e-01
6.399883853148516377e-02,8.582343822537916167e-02,-4.339808424456887415e-01,3.597581495691380173e-03,-4.840972736186830057e-04,6.046982060753886522e-03,5.093893408775329590e-01
3.197339239924738841e-02,5.363592811981210406e-02,-3.085467028356695396e-01,-1.488525374778153915e-03,-6.099377921824610145e-03,3.611852111955059924e-02,3.575354814529418945e-01
7.517279961087056095e-02,6.085122979983959013e-02,-4.188707866154213200e-01,-5.516867986988068483e-03,1.702778195229208077e-02,1.840849568843438630e-02,4.890669286251068115e-01
6.466347701863200959e-02,8.199554154906510406e-02,-4.320666711097115864e-01,6.568957038047562602e-05,-2.548197262808102738e-04,-2.122700350972177470e-04,5.056193470954895020e-01
5.780158013656580551e-02,8.290305620514562546e-02,-4.203423371829755895e-01,1.607866260942246439e-03,-1.117173464466015079e-03,-7.241490926357127891e-03,4.913477599620819092e-01
6.023427111053855643e-02,8.602029227983157278e-02,-4.297026403474185630e-01,1.032691572766832305e-03,2.826507136256093560e-04,3.709898351471478976e-04,5.033293962478637695e-01
6.262926377793950894e-02,8.256541593643934585e-02,-4.316886151673320904e-01,1.647817177259684946e-04,3.157659538350742075e-04,1.425366543839159971e-04,5.045818686485290527e-01
6.460390758715181536e-02,8.359005429072580151e-02,-4.354008996502357620e-01,2.171129319126334674e-03,-7.856004613383708391e-04,-1.867794408780135704e-03,5.097890496253967285e-01
3.410190197560021563e-02,5.285655980663278575e-02,-3.133241184496167175e-01,-2.816270812741101907e-03,1.044401449492400255e-02,-1.823912901855578167e-02,3.590563535690307617e-01
5.267737839718134030e-02,8.071523691402301970e-02,-4.108650610234204081e-01,-4.469521435971700318e-03,1.199408512698972801e-03,8.907610301322368800e-04,4.782479107379913330e-01
6.189173644060361190e-02,8.430147011035882265e-02,-4.296948725659184842e-01,9.848662508489974300e-04,4.738243907745255537e-04,1.687796678594823488e-04,5.031695365905761719e-01
9.271073322177458831e-02,2.915096222819693605e-02,-4.507549700229191991e-01,3.374246252073813228e-03,-3.279104142627434302e-03,7.096189418531114422e-03,5.148492455482482910e-01
7.201547311170686250e-02,6.793995304822242343e-02,-4.328213911321169283e-01,5.493130345906599302e-04,-6.155408818607486284e-04,-2.424400137708958985e-03,5.028310418128967285e-01
7.756327331323903396e-02,7.892294178505676605e-02,-4.454554541302226389e-01,6.080411036907994865e-03,4.478081809974312349e-02,-5.145506526987053686e-02,5.369648933410644531e-01
8.217357023710289421e-02,7.565564548754771801e-02,-4.903021302515176427e-01,2.510220913259607334e-02,-7.030447833104017628e-03,-8.083854072435303975e-03,5.712041854858398438e-01
8.843099966725792571e-02,5.868449334937511641e-02,-4.517228497861210390e-01,1.740928582581717770e-03,1.027207723196109802e-03,-1.909518537195555032e-02,5.269625186920166016e-01
7.715158506096800317e-02,6.560448268289886808e-02,-4.477283212623523467e-01,-1.175728619229606084e-04,-1.724521817530700598e-03,-4.861374528581572513e-03,5.192795991897583008e-01
6.616382759120298385e-02,5.259353488873222404e-02,-4.398948803539746710e-01,-1.502748946303380032e-02,-2.506901503018341137e-03,-6.104598046783543761e-04,5.001096129417419434e-01
3.522174874060754468e-02,7.886775478384619453e-02,-4.437884969653151934e-01,-5.207109528854677628e-03,-2.099949389780675878e-03,-1.817258013481452264e-03,5.023615956306457520e-01
2.329122093347429923e-02,8.093861782852651565e-02,-4.585507235614627031e-01,-8.424846216356411677e-02,-6.384323820332472865e-02,-2.762079884339731575e-02,5.468837618827819824e-01
7.360934839251850881e-02,6.838235604752485042e-02,-4.299038747560123275e-01,2.743513230633849633e-03,5.741483280325947701e-03,-2.001486627145366854e-04,5.010415315628051758e-01
3.648217175375076393e-02,7.761594188813647488e-02,-3.224734076353016898e-01,-8.334138284891873250e-02,7.295174828990055871e-02,4.138201543633331092e-02,4.327203929424285889e-01
7.392685502933343811e-02,6.367858975686385703e-02,-4.244295938524086931e-01,-6.788644357791187231e-03,6.172393550831749114e-03,-1.856704786356650622e-03,4.935785531997680664e-01
7.076449639930862401e-02,7.071204930789407039e-02,-4.436221853878642984e-01,-6.933297460550069593e-04,-2.606336374244255273e-03,-1.472300884704184866e-03,5.143879652023315430e-01
6.483526042287596214e-02,7.349703212108438244e-02,-4.079075776041667933e-01,1.563304306006859518e-02,1.188801500388805832e-02,3.940366910831633734e-02,4.831880629062652588e-01
6.748909683501003176e-02,8.289881806238205697e-02,-4.334318440589595145e-01,7.320448437103204559e-03,3.331020823483868843e-03,7.013040789881048488e-03,5.091364383697509766e-01
1.014082863993697736e-01,3.961542881372126512e-02,-4.559529212341642546e-01,-7.904783152880541855e-03,2.081851490372519514e-02,2.420424691360003114e-02,5.322350859642028809e-01
4.721318131732710199e-02,1.039663788410409295e-01,-5.705225382555008107e-01,8.547973505185153809e-02,-1.654332199714790008e-01,1.604629093574094501e-01,7.753365039825439453e-01
5.489877033623424829e-02,4.324437628238343712e-02,-3.191829482560016307e-01,1.683948794771782803e-02,-3.959084360317326190e-02,6.149897148364678878e-02,3.906566798686981201e-01
-4.453483059544821598e-04,1.427232135204980490e-01,-4.935814047762119849e-01,2.123483468210008232e-02,-1.253566964542825457e-01,4.089595588315223657e-02,6.227319240570068359e-01
3.357743944260534186e-02,4.290611154631944479e-02,-3.035860730490556048e-01,-2.427265450640979892e-03,-3.393283664212539547e-03,5.158844204481798090e-02,3.534796535968780518e-01
1.115107100038943144e-01,9.946300633576918293e-03,-4.563946754070129508e-01,6.090821298394938701e-03,-2.015342786331743904e-03,8.186999942021544463e-03,5.248594284057617188e-01
6.881152935899303991e-02,8.672609646147716456e-02,-4.627834222115406182e-01,-2.438004206860444265e-03,-1.435077362497150406e-02,1.379096683010343173e-03,5.413675308227539062e-01
7.077414210379301407e-02,8.009538685718653461e-02,-4.427384851578370362e-01,-4.155956619648364450e-03,-2.285587987575511660e-04,6.062727239238851779e-04,5.182873010635375977e-01
7.662677782504059842e-02,7.401184031076091241e-02,-4.525752311745014356e-01,3.279618032513476056e-02,-6.726516419292684346e-02,2.351430152599053719e-02,5.451028347015380859e-01
7.049975442350367438e-02,7.016999072585916597e-02,-4.404130755509675921e-01,2.177808390297237065e-03,2.036031984908583722e-03,3.059040819809470593e-04,5.107744336128234863e-01
3.552989182282986769e-02,8.550637512540545937e-02,-4.586629677809710981e-01,6.576848012272405730e-02,-3.282369710057635778e-03,-5.589231969396227413e-03,5.334086418151855469e-01
-7.642640078288132077e-03,1.757049324792405165e-01,-5.638315259356758702e-01,3.356272859772053974e-02,1.343204642130303543e-02,3.361298949539420593e-03,6.699946522712707520e-01
5.784087008523405848e-02,7.747977043828876975e-02,-4.456669375657340004e-01,-6.492862167975261157e-05,-1.317411829905118688e-03,-4.806428630494512244e-04,5.136147141456604004e-01
7.022886068526534853e-02,7.454362728456642717e-02,-4.527607701630677606e-01,1.346291924617879117e-03,3.907996922029913743e-03,-5.106278096392611460e-03,5.252835750579833984e-01
1.047257869003676567e-01,9.067543344188577770e-03,-4.479781640843421009e-01,3.040271574133657055e-03,-2.441573634543805788e-03,-5.752130257693366909e-03,5.117678642272949219e-01
8.236186099582454290e-02,6.549152279442774227e-02,-4.345537110066855502e-01,1.385852036995581212e-03,3.546517314434844922e-04,1.084076525974311204e-03,5.086997747421264648e-01
7.964722084161274251e-02,6.728517651446683234e-02,-4.381140979047979944e-01,1.499192506959261349e-04,-2.194741022655366872e-02,-2.233619433841884782e-03,5.131170749664306641e-01
7.953448996852222064e-02,7.013983800883175079e-02,-4.408353741552313854e-01,1.393975178382467640e-03,2.109187184338654202e-04,1.621107504851222346e-03,5.157501697540283203e-01
8.673805476994791985e-02,6.393744447850860380e-02,-4.349148212753080056e-01,3.579176680136220666e-03,5.646211981012619167e-04,1.051279058628059454e-03,5.106763243675231934e-01
7.035429124115027966e-02,7.727875106043222142e-02,-4.382415792998562987e-01,-1.310639705751090803e-02,-1.641869517512865514e-02,-4.947947807450387564e-02,5.204883813858032227e-01
5.350723208219729243e-02,7.258023437673052913e-02,-3.915659064716460191e-01,-5.942240965148537155e-03,7.204046367004361988e-04,1.104459103932082555e-02,4.554296731948852539e-01
6.921436526403126899e-02,7.206377929558760442e-02,-4.210099551196782031e-01,-8.283382743615364321e-03,1.521645056145891827e-03,4.970042336665791635e-03,4.919469058513641357e-01
7.484025485880396733e-02,5.904424615889361516e-02,-4.076177565177788176e-01,-1.004154302660984453e-02,-1.396517636296509129e-02,-1.026083045374794316e-03,4.756942987442016602e-01
5.400948115623599444e-02,7.222208159924897730e-02,-3.910036141160950773e-01,-7.614109140052496491e-03,-1.662555070280207512e-04,1.179613288365853087e-02,4.550435841083526611e-01
7.679188073840684248e-02,6.500963091886363676e-02,-4.436605438947852642e-01,3.374883432574178263e-03,-1.129709160712010765e-03,1.263501595770533809e-02,5.151644349098205566e-01
7.142756882443823674e-02,7.947223605689718307e-02,-4.452423954252713867e-01,-2.526943385847853045e-03,7.790676729179733372e-04,3.476061080432512988e-03,5.207938551902770996e-01
5.236520572830596909e-03,1.237770476655731811e-01,-4.715448156077433617e-01,1.903201197500319422e-02,1.529544867958398391e-01,-4.023557102809539876e-02,6.115707755088806152e-01
7.904841571203236050e-02,7.744976921618085264e-02,-4.467747349678389823e-01,9.683610203189236751e-03,4.555211557494164010e-02,-5.430628507534708549e-02,5.394495129585266113e-01
7.751996483812484406e-02,6.746398552253815573e-02,-4.316576237507803171e-01,-7.801505340292265098e-03,8.364096351767007567e-03,1.559149793897116900e-04,5.046139359474182129e-01
6.408285759002385618e-02,6.410488963193242129e-02,-3.677804785519957487e-01,-6.412508022362707963e-03,9.650048544671810391e-02,-1.068126765706855531e-02,4.635926187038421631e-01
6.471413668403483421e-02,5.976375138653666763e-02,-3.858997895730009731e-01,-7.493093612118181812e-03,1.835622393171718741e-02,-1.261470708658563554e-02,4.500037729740142822e-01
5.950044942796328673e-02,5.767953545143633676e-02,-3.774970343376792825e-01,-1.110943878452259719e-02,2.255457289272120094e-02,-2.191163673468781922e-02,4.398989975452423096e-01
5.928282294083422888e-02,6.850989461730683239e-02,-3.964590080345287704e-01,-1.099979650869003893e-02,1.777346669229172907e-02,1.769413946610246631e-03,4.618560075759887695e-01
7.536909767652524850e-02,5.318718110769482532e-02,-3.892911387809576129e-01,3.158230891408986274e-03,1.773022557883445482e-02,2.320889813205660387e-03,4.550640583038330078e-01
7.346443463031093746e-02,7.673900448575221578e-02,-4.485186428474357556e-01,-4.553411063298517733e-04,1.448328748389091265e-02,8.134230040132101958e-04,5.242310762405395508e-01
6.203087460038833600e-02,7.836584996511991585e-02,-4.390264426539859932e-01,-1.413647919553126867e-02,1.846287241781371241e-02,6.252668472924810712e-03,5.111256837844848633e-01
3.506673907474155971e-02,9.287700283355637687e-02,-4.480570170975105571e-01,-8.663975739407976662e-03,-7.042207454293709402e-03,1.835528953443051406e-03,5.148438215255737305e-01
7.762573902570238382e-02,6.656021829923763899e-02,-4.284387926774838595e-01,5.706862723928019139e-03,6.064372837783564910e-03,-1.558558044697909905e-03,5.008385181427001953e-01
6.688274306045940976e-02,6.246296681914606519e-02,-3.973470028313013103e-01,1.041397584196738189e-02,-1.905256249575679487e-03,9.221400528436569932e-03,4.626752138137817383e-01
5.666466384361612540e-02,4.682741355713698761e-02,-3.533398158794023858e-01,1.116202666110535473e-02,1.461104424845581853e-02,-7.037018844912044978e-05,4.064250886440277100e-01
2.656717170797825989e-02,9.973977079690587999e-02,-4.496166044337691070e-01,5.270555716689990892e-03,-8.417387418764290738e-03,-2.168538600989580820e-03,5.169708132743835449e-01
4.406118364795244546e-02,8.315691135660943645e-02,-4.419903047770236126e-01,-4.349254204759224864e-04,-1.427590775573808930e-02,-2.817469652836755538e-03,5.073586702346801758e-01
6.417024472247312428e-02,7.899711032637557473e-02,-4.464528214416218499e-01,-4.755650765532907836e-04,-7.153282127680796881e-03,-1.133475062165971263e-03,5.183480978012084961e-01
3.209827905980702778e-02,9.401162701859794302e-02,-4.384582102324469099e-01,-1.457447932035924086e-03,-2.949652848366684024e-02,4.495396596258508307e-03,5.070182681083679199e-01
-3.370617712461387860e-02,1.271632679269194544e-01,-4.041758690569494106e-01,9.163369686260891198e-03,-1.338671057268586151e-01,4.665746112400382534e-02,5.322291851043701172e-01
4.446789011411320103e-02,7.786181152118237803e-02,-4.437535959745244063e-01,4.629256209422851452e-03,6.077921366322005733e-03,-7.074285490303847471e-03,5.060674548149108887e-01
6.768680859380574177e-02,7.932421632478259266e-02,-4.501374518156491811e-01,8.994857236807028179e-04,-1.420556594783669094e-02,-2.240887157065275283e-03,5.243342518806457520e-01
-5.571158979710766346e-02,1.717121478329712292e-01,-5.224290777435292021e-01,-3.206043466019308646e-03,1.553060255231084562e-02,6.224365035655109873e-04,6.135511398315429688e-01
7.832066530442238772e-02,7.181983576316849915e-02,-4.474024100453860564e-01,-1.370683327287483717e-03,-1.893551727386346513e-03,6.078135958087707178e-04,5.225197672843933105e-01
-9.206129933029012086e-03,6.684485571741789756e-02,-7.580230067878661326e-02,4.167674776802505338e-02,-6.358371842635673898e-02,-3.113158835657391099e-02,1.884955018758773804e-01
4.411441234283594581e-02,9.346497185824281795e-02,-4.611982301838946641e-01,6.573504360900209870e-03,1.924792951524679618e-03,-3.211900158504145202e-04,5.318410396575927734e-01
5.137104673925935172e-02,-1.968901819518571739e-02,-2.279065796685076084e-01,-2.662703278238690713e-02,1.081220339376441283e-02,7.876175210559401008e-02,2.903239428997039795e-01
8.775344708205473632e-02,8.030341550581374110e-02,-4.557160413455600412e-01,-1.690943332680045971e-02,3.524331892215429307e-02,6.024283074843306968e-02,5.539290308952331543e-01
4.398539340946946985e-02,6.674169508958646690e-02,-3.597729828593049239e-01,2.892049961939827541e-03,4.424421722452923436e-03,2.180227864583270461e-02,4.174165427684783936e-01
6.858589144544229022e-02,4.365147673506333814e-03,-1.611860212610046472e-01,-5.279693740832885201e-02,6.213808070510935810e-02,5.827253321607148151e-02,2.688798010349273682e-01
-5.384952245078733490e-03,1.200608196527864213e-01,-4.720318952262281265e-01,-1.704305342993686287e-02,1.757236355199383315e-02,-1.439482201076010184e-03,5.420690774917602539e-01
6.496961309875018409e-02,7.138725580235286139e-02,-4.448941229048136714e-01,2.281742457318433354e-03,2.728034827012519072e-03,1.989760371115663080e-03,5.131512284278869629e-01
6.916948499812070050e-02,7.560412460282908698e-02,-4.570304363284591331e-01,1.171240373863508509e-02,2.992654255375100381e-02,-2.261497052630442525e-02,5.338036417961120605e-01
6.650270170575117712e-02,6.828239749012551818e-02,-4.283435127117754537e-01,1.229642648248208017e-04,3.106744101005135938e-03,-9.183302967940260670e-04,4.957702457904815674e-01
6.736984569746307105e-02,7.557542851715581822e-02,-4.585037601577257593e-01,1.498403273810188646e-02,5.685650207987980563e-04,4.593106300817751363e-03,5.307196378707885742e-01
8.314712597151346918e-02,6.626457470963340035e-02,-4.313711871924510444e-01,-6.362377975526125815e-03,-4.544764969051385411e-02,6.902918027951119792e-03,5.126290917396545410e-01
3.280856903097238708e-02,3.419811959860000194e-02,-2.400931820201231137e-01,-8.142526584393010303e-03,-4.337590380014697683e-02,2.712110864317088602e-02,2.879348397254943848e-01
4.794480376177806535e-02,6.963615927163582797e-02,-3.881647958438180224e-01,1.003040343100116208e-02,-1.518638718109879479e-02,-4.798025445277086069e-03,4.485361576080322266e-01
7.579322948833766560e-02,7.693035481542406795e-02,-4.479581124434229844e-01,2.848255749731379901e-03,1.746774840376751027e-03,6.471390989421440003e-04,5.243539810180664062e-01
5.324407799850999767e-02,8.703383072427314793e-02,-4.596167634316240536e-01,1.667543890820630953e-02,4.703692476331909622e-02,-3.903157522032044743e-03,5.376009345054626465e-01
3.004894771391353192e-02,9.237927792940861527e-02,-4.507212714271314757e-01,3.670548941294139896e-03,-8.027814246293193609e-03,5.033918592951946297e-03,5.150741934776306152e-01
6.979236678617961598e-02,4.864718694633676788e-02,-4.443865959063349469e-01,1.520793810820144504e-02,-1.382168119224517870e-03,1.775974961142772835e-03,5.046421885490417480e-01
8.045411711266456378e-02,6.305505187609619644e-02,-4.721611133895836643e-01,1.162718602972341864e-01,-6.196426558071996271e-02,5.648959785065207906e-02,5.980975627899169922e-01
1.316134679250227646e-02,1.057900775434940654e-01,-4.561868244484709178e-01,-2.244201531673937003e-02,-1.244292238603448598e-02,7.489206328098822404e-03,5.239146947860717773e-01
1.552171765585652619e-02,1.002608861169252130e-01,-4.483194485668405838e-01,6.848714697142327043e-03,6.512005827611824088e-03,-4.630852585309149644e-03,5.118272304534912109e-01
1.464832855376068110e-01,1.083239954281879358e-01,-6.961044190787181174e-01,1.130316062315220027e-01,-5.026484729189972106e-02,2.035426898538307203e-02,8.522960543632507324e-01
-3.585733112863490057e-03,1.279317048811742796e-01,-4.473143469648725445e-01,2.845689105385905415e-02,-2.629864295992397419e-02,3.370550169027508591e-02,5.295870304107666016e-01
4.177119297213308102e-02,1.130640576021585963e-01,-4.745326519155334544e-01,2.355264456902079681e-03,-8.106817350642499254e-02,-2.400966447018373917e-02,5.743895173072814941e-01
6.627455761206427209e-02,-1.303001030611385114e-02,-3.336986033888328929e-01,-3.937595139899517649e-02,-2.958119052124464146e-02,-8.546699601166146687e-02,4.046460092067718506e-01
6.999739195110479817e-02,7.125628360743704870e-02,-4.323543160474649372e-01,3.332019570571111491e-03,-4.393427238211878270e-03,-2.706895571348554800e-03,5.030948519706726074e-01
5.296569450072491358e-02,7.496202175342772667e-02,-3.951643827313571222e-01,-9.081607706889029130e-02,-9.341559039046017088e-02,-8.680169869675539995e-02,5.335609912872314453e-01
9.653817561884012188e-02,5.792944230323740507e-03,-3.196186866119832271e-01,-1.603328789793847034e-02,-6.988878771390720501e-02,-9.024001676202969557e-02,4.283821880817413330e-01
7.934183987623524836e-02,6.485856947438520259e-02,-4.500443548685501560e-01,-3.428655009497080276e-03,2.300689137706293710e-03,-1.388121338006056277e-02,5.228971838951110840e-01
7.728987379924975865e-02,4.037109371086880505e-02,-4.447424725376232235e-01,-1.075096144055808466e-02,-1.920864142760851309e-03,-3.793059971274271181e-03,5.049840807914733887e-01
6.206346695350037357e-02,9.944856050302697259e-02,-4.689760070854395724e-01,-2.148984594745420931e-03,-4.117129477455724884e-02,-3.499195658113873810e-03,5.553281307220458984e-01
6.958535270007620843e-02,6.265507549307222646e-02,-4.482252610211317490e-01,-1.138543021021586055e-02,5.653983254812775493e-03,6.680775559061912124e-03,5.149815082550048828e-01
6.614762450608246969e-02,1.131890962043257676e-01,-4.870948244407750649e-01,-1.076534943898079487e-02,-5.135224406039076706e-02,-2.616797841210020178e-03,5.853160023689270020e-01
-2.706027943481051357e-02,9.005280945881799504e-02,-3.102038412275665014e-01,-3.493775302410567080e-02,-8.161848743484345636e-02,-4.726800668784397752e-02,3.967304229736328125e-01
1.370339170317542987e-02,1.449333243394447523e-02,-2.296486760300257279e-01,-1.224076620188948965e-03,-1.383002055906906312e-04,1.387960702428017159e-03,2.437691837549209595e-01
7.885454776713771152e-02,6.894219426257486294e-02,-4.325114145458722748e-01,-6.778865682872640616e-03,-5.520864450536551969e-03,2.280441133591797152e-03,5.067242383956909180e-01
6.108436756606938633e-02,6.620531177098429310e-02,-3.949148430713969593e-01,-9.006476767461918040e-03,-1.269689708975600510e-02,-2.283948805091583299e-03,4.593901336193084717e-01
6.999789230030223353e-02,8.061985189791012751e-02,-4.568359310415246455e-01,3.898365839410557329e-04,-7.467346427423906738e-03,-1.149770783208819633e-02,5.327541828155517578e-01
7.589836090302071181e-02,5.593664330801184636e-02,-4.142718833767190523e-01,2.921397976991109598e-03,-1.664220128472636284e-03,9.421208528147179129e-03,4.808127284049987793e-01
6.911169211187101480e-02,9.254033897605490333e-02,-4.665996723643087707e-01,-2.939944730245937395e-03,-1.734438304949200566e-02,2.423190640206583472e-03,5.486643910408020020e-01
1.319732854602151395e-02,2.326722950068971230e-02,-2.379388689845317040e-01,-7.480989615185274638e-03,-1.260505635719056695e-06,4.163979072982623014e-02,2.665881216526031494e-01
1.135672966704411035e-01,-4.217351285000134342e-02,-3.930020375106657027e-01,4.195431129728534325e-02,-2.731388917889732496e-03,7.056247029512538460e-02,4.713960587978363037e-01
2.748191994633819579e-02,2.875733563955011618e-02,-2.627099980948252034e-01,-9.786862401931085975e-03,-2.126425320497957877e-02,1.778079494020035414e-02,2.952548265457153320e-01
4.778621299589688731e-02,6.435004984325143340e-02,-3.804915584960254504e-01,-9.928601028425972086e-03,-1.667409070738901794e-02,2.268622713404440730e-02,4.398453533649444580e-01
6.799041239059430697e-02,4.983238284862109846e-02,-4.542392324647018809e-01,-2.739724145570147235e-02,4.216996935336153780e-03,9.392519594565587951e-03,5.158882737159729004e-01
4.153373343546326590e-02,8.921608461554036973e-02,-4.671259289138619542e-01,-2.411758421882898365e-02,4.251986068367413427e-03,1.220055957594873806e-02,5.361978411674499512e-01
8.352052021803307857e-02,2.984412715046430575e-02,-4.438349952431747680e-01,-1.183538633793221502e-02,3.266040409638050045e-03,9.983110522683257253e-04,5.031239390373229980e-01
3.234074904222708491e-02,8.267843207189018440e-02,-4.413980701903277293e-01,-8.467393150428126694e-03,-4.195380660105331797e-03,-3.578528829347079818e-03,5.011143088340759277e-01
7.048727443366900602e-02,3.962732685370029539e-02,-4.421957640468797690e-01,-9.205688980575299843e-03,3.141335387010231028e-03,4.752785645212271454e-03,4.983236491680145264e-01
6.160053531385065173e-02,4.869865104867990291e-02,-4.408282769619509822e-01,-2.477972242271019379e-02,-4.329283653301354054e-04,-2.077745062212156199e-03,4.979704022407531738e-01
9.270415526740349854e-03,1.194847434407626530e-01,-4.984074604265879005e-01,3.209444430957808514e-02,-9.850955349869433553e-03,9.959696551176842536e-04,5.737783908843994141e-01
5.855429783475032957e-02,9.351189615962457458e-02,-4.520424870946489482e-01,4.969843591913572674e-03,3.421747756514020161e-02,5.397858652045586965e-03,5.324043035507202148e-01
7.302461103677976295e-02,6.404162451240938414e-02,-4.146518060217939117e-01,4.035516358734351529e-03,6.474734120068830097e-03,9.297761952873953226e-03,4.836963415145874023e-01
6.931365108026313337e-02,8.492817647433570372e-02,-4.610073947697465591e-01,-4.429476268515746863e-03,2.370932457682790873e-02,1.487446397961941433e-02,5.405311584472656250e-01
6.498375907466347190e-02,5.250954525213538671e-02,-3.711563587963026545e-01,2.129620521837650386e-03,3.186832508098093319e-02,1.603375675342308404e-02,4.344708621501922607e-01
7.535190454777823676e-02,6.581951837088806379e-02,-4.258254998627586385e-01,-3.638872914240717446e-03,3.134323171017766411e-03,1.387451474055650903e-03,4.965553581714630127e-01
8.134513987050803752e-02,6.776788903193614599e-02,-4.405647101714357250e-01,1.001600634961863964e-03,4.253761053964374636e-03,2.170051783177506018e-03,5.153247117996215820e-01
9.573727383868946283e-02,4.087600029234456089e-02,-4.475578178946972296e-01,-1.883713321984053428e-04,-7.302058591613271553e-03,-1.045735041075326367e-02,5.185186266899108887e-01
8.797829235837986706e-02,6.209760274590053752e-02,-4.352776769029234605e-01,-3.900712271157182401e-04,3.597795187941124455e-03,-4.530911324326956853e-05,5.108460783958435059e-01
6.945704843021824337e-02,7.353239036999573153e-02,-4.408271735446229189e-01,4.678648173162886685e-04,-8.233635993330059915e-04,1.550851436868900439e-03,5.123437047004699707e-01
8.161165789391430780e-02,6.415383147442257905e-02,-4.289803481611142999e-01,-4.242782895362623083e-03,4.585644684073005538e-03,3.458409377882778416e-04,5.022076964378356934e-01
7.870861359348751973e-03,1.376575075653856395e-01,-5.056433171647680691e-01,2.571590375918748894e-02,-8.853597068468320799e-03,-1.684212549288072744e-03,5.911144018173217773e-01
4.803636339114811249e-02,7.443495238460776098e-02,-3.838126708036158075e-01,3.416638607001983886e-03,-2.636264535748428727e-04,-1.522506570618929744e-02,4.464541673660278320e-01
5.240267808075887990e-02,5.182171703299637278e-02,-3.635969733176189767e-01,1.143683136579140211e-02,-2.251208984428047788e-02,1.992619375494231355e-03,4.180180132389068604e-01
5.420202313690983265e-02,3.811407716445855409e-02,-3.260295569232390944e-01,2.987662488141155405e-03,-3.576722603964899855e-02,-8.660902987089325045e-03,3.778986930847167969e-01
8.948739595715821116e-02,3.801943228798343455e-02,-4.499002810142481712e-01,5.364012386288696810e-03,2.540753491475493311e-03,-1.066625584934215859e-02,5.160172581672668457e-01
8.318799246369856792e-02,4.818149237166333143e-02,-4.480685927183362671e-01,-1.637319669349237422e-03,2.669928343673909008e-03,7.744335643853661119e-03,5.148503780364990234e-01
1.096373884729968384e-01,2.798186085566145564e-02,-4.384912509720759188e-01,1.537827447677057868e-02,-7.353945194623959930e-03,1.550340725225757624e-02,5.137583613395690918e-01
5.189896852161796081e-02,8.158447335835855574e-02,-4.147520684407884350e-01,2.199976804653671139e-03,-4.747913908367913313e-04,-1.431236060256179873e-02,4.828321933746337891e-01
3.100228209283090175e-02,4.074325331130879135e-02,-1.624002744141543608e-01,1.065076704320769112e-02,4.121023781004485437e-02,-9.327814312865734259e-02,2.663099169731140137e-01
1.422394813826433763e-02,-2.709446872215977298e-04,-8.842758173999341886e-02,6.046269917621990495e-03,-4.097541177845465121e-02,-6.649658462440825868e-02,1.663476079702377319e-01
4.852513084145683442e-02,4.498432887013760484e-02,-2.926537454275104366e-01,1.023212883489443489e-02,-5.533755655103706622e-02,-4.925328487088425494e-02,3.632987737655639648e-01
3.387035629426375649e-02,3.211444178313377362e-02,-2.775420887578042839e-01,1.023825714994944930e-02,-4.697527233418590659e-02,1.751577338838268408e-04,3.215098381042480469e-01
8.181651257324173976e-03,-1.879770086683902469e-03,-3.951641823330204195e-02,1.291656380945467933e-02,4.404701298020802930e-02,-1.041892488256397110e-02,9.242846071720123291e-02
2.618118510235654950e-02,5.569484619432753247e-02,-2.014647815237785855e-01,-5.109608615343760873e-02,7.483300755530745973e-02,5.604550990546518924e-02,3.057254850864410400e-01
2.522259378980014344e-02,2.101839812942299379e-02,-2.592615084588948404e-01,-9.475560306347161239e-04,2.494282750379201233e-02,2.058807962232812698e-03,2.857178747653961182e-01
7.425890571391569051e-02,5.554980519811289486e-02,-4.045957884948703787e-01,1.695652778376816310e-03,1.211617318076476345e-02,3.950803072481078883e-04,4.702578186988830566e-01
7.182616292441651451e-02,5.705376841985831948e-02,-3.952717807695135810e-01,4.508074942299704346e-04,1.027436439590172917e-02,7.118645184113717161e-03,4.603996872901916504e-01
4.188844484041259753e-02,4.082143722573107480e-02,-3.168431841917170866e-01,6.752495517545826359e-03,1.633597947288482335e-04,1.607454432531505925e-02,3.594701588153839111e-01
1.049634810250674177e-02,8.478752090605320979e-03,-1.902403548377311904e-01,5.527000600755261955e-04,1.311930539335559066e-02,2.080221641229848539e-02,2.042296528816223145e-01
1.338271630530785128e-02,1.938851847265649075e-02,-2.155548267944564222e-01,1.678604387853440110e-03,-2.369290959775403882e-02,-3.526907977158606766e-02,2.434084266424179077e-01
4.785091373175413831e-02,-1.531175305705910483e-02,-1.824532308970689132e-01,-2.762256556825622503e-02,-6.406651402254842642e-02,-7.815130359900764045e-02,2.746058106422424316e-01
4.033102346452666076e-02,-2.271268036401014045e-03,-2.854402892495138677e-01,7.554942092875209514e-02,6.758583914879921772e-02,-1.148823808819645076e-01,4.055660963058471680e-01
7.339704606373578799e-02,3.865327083319479440e-02,-2.407325131354366710e-01,7.248207123089087101e-02,4.056266084245035292e-02,-1.160630685880498780e-01,3.874007165431976318e-01
6.497775110368134155e-02,6.837406589192546180e-02,-4.050426974576477601e-01,9.251631205934814084e-03,-9.054165106528741860e-03,-4.244980960047377294e-03,4.723175466060638428e-01
6.034540902388668693e-02,8.102479259554493107e-02,-4.189502624020702837e-01,5.124401094123549882e-03,-2.871829711139435321e-03,1.316334156889823566e-03,4.900737106800079346e-01
5.449440255101578590e-02,7.389122712873291698e-02,-3.875426256633549560e-01,4.621635303549294881e-03,-2.356206924307276129e-03,-1.491098799746895694e-02,4.528739750385284424e-01
1.966684266985951890e-02,5.760102625794463749e-02,-2.877081180096532909e-01,-1.595387844423683948e-02,-7.900863295630930483e-02,-9.251442034295453976e-03,3.568274378776550293e-01
7.318975989126788595e-02,7.024615256409441622e-02,-4.460306037404019874e-01,1.527545727992293413e-05,1.160854233913208473e-03,1.276210752269677168e-03,5.177634358406066895e-01
6.400761999322132634e-02,8.512037473828054646e-02,-4.345498871921952277e-01,2.697292720868233167e-03,8.550854082151619802e-04,-5.903625133952317139e-03,5.095682740211486816e-01
1.247932118564900605e-01,-4.103010153859830422e-02,-4.345687393905964258e-01,5.384086142722176171e-02,-2.461333165299276274e-02,9.159453909128373317e-02,5.322692394256591797e-01
7.156480761007028013e-02,7.570571609595230789e-02,-4.402288950518262745e-01,9.671681225401844006e-04,8.125362495991655422e-04,-4.519135495979400424e-04,5.138819217681884766e-01
6.985097509860088705e-02,7.920265762653030950e-02,-4.404235744924497875e-01,1.794702538123642450e-03,5.738378568238140494e-04,4.171527728719607187e-04,5.150249004364013672e-01
6.401447034536983383e-02,8.237598849790320199e-02,-4.351974710551805292e-01,4.899286816043749160e-03,-1.401286337486200946e-03,-2.823930584363278356e-03,5.087413787841796875e-01
8.078549371193075035e-02,5.588691335933521076e-02,-4.104178596899661913e-01,1.260217111326642891e-03,1.395251896297086810e-03,4.635693356237940814e-03,4.793177247047424316e-01
7.122089203080014808e-02,6.648736982020558850e-02,-4.206255665837573821e-01,1.357715633852540340e-03,-7.812712822513431798e-03,-5.058526378820930609e-04,4.896903038024902344e-01
7.529116123173026920e-02,5.044441952059852685e-02,-3.936182609900331641e-01,7.092176625690463365e-03,-1.655631688004416402e-02,-1.011740263696703050e-02,4.583916068077087402e-01
4.680927422280509176e-02,6.913529148709562921e-02,-4.398124894795701345e-01,6.455801623762592520e-03,-2.121821545240306760e-03,2.975665120583562834e-03,4.983258247375488281e-01
8.106483758913288207e-02,6.885750962623315985e-02,-4.370248518075770527e-01,2.731063589690187025e-03,-4.367125069715221790e-03,-2.914933278910346835e-03,5.121977329254150391e-01
7.825020294372297958e-02,6.094821210024764513e-02,-4.166478111532959105e-01,5.897326587992545756e-03,-7.675114460824333795e-03,-5.106963629645943845e-03,4.868469834327697754e-01
8.460137514386256719e-02,6.344339626224551609e-02,-4.328041455085627764e-01,1.431650548856506925e-03,8.550095709247010692e-04,-2.025594867250752251e-04,5.071659684181213379e-01
8.037365326570203306e-02,6.859058041656357352e-02,-4.411772463190257731e-01,7.975376170669221543e-04,-3.533984563346864814e-03,-9.869268782019451416e-04,5.158013105392456055e-01
7.514523538529560565e-02,6.421697387633326648e-02,-4.132509964909010236e-01,9.510619100442267021e-03,-1.057897257611599764e-02,-7.564345180773015577e-03,4.838302731513977051e-01
8.099872500507029893e-02,6.245294712214524702e-02,-4.258573360199885416e-01,3.138266398559145555e-03,-5.335842891139056139e-03,-6.503234069748080890e-04,4.979590475559234619e-01
8.362829106227706588e-02,6.690180435943537951e-02,-4.404448902653255171e-01,1.521266017013957585e-03,-3.035388447288565536e-03,1.613979500500620961e-03,5.159544348716735840e-01
8.174330296545390118e-02,6.781690698171050080e-02,-4.381531468963328901e-01,2.473228081971129162e-03,5.058108124421177966e-04,-2.647471124590098962e-04,5.130938291549682617e-01
3.120127114692816672e-02,2.884600562717613836e-02,-2.739841979080709367e-01,4.932900038455064265e-03,3.853926046453837011e-04,-2.581675156408134650e-02,3.074050843715667725e-01
4.247173007910867715e-02,7.328241952894273825e-02,-3.865705026774610698e-01,-1.167569677452116568e-03,-5.782265776625456627e-02,7.750601394237485731e-03,4.565745294094085693e-01
5.777608490218424930e-03,6.746971038050553204e-02,-2.799349182940476521e-01,-1.092492960439768630e-02,-3.883846063263525494e-02,-1.782383484855458097e-02,3.300002813339233398e-01
5.729481381209500235e-02,4.985931848529032151e-02,-3.580641110699315788e-01,-1.089955082449705487e-02,2.139193167821254807e-02,6.388794829269555525e-04,4.137878715991973877e-01
2.395979256083506648e-02,4.021193640774393951e-02,-2.928033831462319991e-01,-4.897688944171882906e-03,1.555571493839361281e-03,-1.629054517398965474e-03,3.253279924392700195e-01
5.494935741721643230e-02,4.660088622998845298e-02,-3.429449053995206054e-01,-9.621131754092912894e-03,1.813898841728446218e-02,-9.555736589651340346e-03,3.957353234291076660e-01
6.179961433738948018e-02,6.475928233869759909e-02,-3.920308505351864370e-01,-1.059495785556072156e-02,1.236858840051099050e-02,6.930505359579840078e-04,4.561920464038848877e-01
2.966736466314423559e-02,2.037138735040129600e-02,-2.649521920923691987e-01,2.711806143154909567e-03,2.858195803512047009e-02,-9.777143324341977613e-04,2.943196296691894531e-01
4.481125766911731034e-02,6.586936077454122462e-02,-3.675647740726760704e-01,7.821366223906760055e-04,-8.511151855193297691e-04,5.981516893555003083e-04,4.233041107654571533e-01
6.403208228128254298e-02,4.859551400126163601e-02,-3.731938810039699961e-01,-9.570504510975408330e-03,2.374045140834022891e-02,-1.824911379786888638e-02,4.331515431404113770e-01
5.716325094400032114e-02,7.179734541339752307e-02,-3.985195582163739703e-01,-7.647058350055415191e-03,-1.487419543653188464e-04,-9.219811757541980166e-03,4.636377990245819092e-01
5.948229754004910608e-02,6.385919293489455972e-02,-3.860524908012205603e-01,-4.032314575243043688e-03,6.537297704235806028e-03,-2.843494321456207369e-02,4.506363272666931152e-01
1.875623488052791110e-01,-3.685266280894741731e-02,-4.602974031233637575e-01,-3.073583340225575361e-02,6.534740807503967158e-03,6.169084073641955407e-02,5.823009014129638672e-01
6.305755632055951021e-02,5.840726179686353547e-02,-4.394530091542489525e-01,-5.282610262782038400e-03,-6.300734385752955295e-04,-1.674268261136061149e-03,5.002949237823486328e-01
7.179364942681767947e-02,7.066436163238123958e-02,-4.454144648625564251e-01,-7.104331120063874612e-04,-2.148302893382084827e-03,-2.743750311009939685e-03,5.166811347007751465e-01
-2.783070557636319747e-02,8.292600745735989598e-02,-2.678864719802017680e-01,2.375297894992892470e-02,-9.604609488631898895e-02,1.870940623905062092e-02,3.562287092208862305e-01
7.897161774205938012e-02,6.775981969734110044e-02,-4.404146392966329926e-01,1.519369986526803622e-03,-1.604739421763182183e-02,3.393935528016990208e-03,5.146635770797729492e-01
4.033994275854671518e-02,7.865475961625986723e-02,-4.422403267312157715e-01,2.845775520931565633e-02,-1.134713117564552752e-02,2.059488295738971103e-02,5.068826079368591309e-01
-1.849051447863517966e-02,5.484845934234817977e-02,-2.301558249043268445e-01,5.801734139923215607e-03,-1.476355735166384742e-01,1.279786877524300738e-02,3.628846108913421631e-01
8.109289426312452087e-02,6.430444530851719964e-02,-4.325758928536190262e-01,1.001218544967811446e-03,8.472272516650797107e-05,4.128768538560516278e-04,5.054872035980224609e-01
2.406001150482639517e-02,3.924739139605572247e-02,-2.949351927495077463e-01,-6.331568314722898442e-04,9.232865450865082937e-03,-7.769674986569024893e-04,3.272492289543151855e-01
7.878187416969431589e-02,7.081192502096267383e-02,-4.443533844278509948e-01,-1.750032150719328834e-03,2.557370750121620850e-03,3.334367811545846448e-04,5.192242264747619629e-01
5.440383884687360894e-02,7.100975806134163237e-02,-4.431832966959213804e-01,4.350197923417367836e-03,2.016836697818618143e-03,2.344484490132124968e-03,5.061789155006408691e-01
6.889800470553508749e-02,7.384610795320808996e-02,-4.442954891177983145e-01,-7.723387574927222110e-04,-1.340648181646185780e-03,-7.815075044993719357e-04,5.156940817832946777e-01
7.995044597911649120e-02,6.641716311183809562e-02,-4.327859183516439279e-01,9.050712682726263364e-03,7.945904340657046136e-03,-9.754175614890403913e-04,5.065379738807678223e-01
6.595853384496414007e-02,7.507670146141312562e-02,-4.459396361329598379e-01,-7.036934999511836692e-04,3.871078844191361799e-03,-1.577488486358506140e-03,5.165697932243347168e-01
8.051477621519073646e-02,6.804663986012818300e-02,-4.396136256716954294e-01,-3.185334744255841587e-03,6.062563619308075288e-03,1.680498924057325988e-03,5.141528248786926270e-01
4.352580414607493120e-02,8.845164706608737992e-02,-4.447499649905427010e-01,-1.331659000580194324e-03,-5.731894148610148891e-03,-4.210976360008422334e-03,5.123717784881591797e-01
6.319361874384524236e-02,7.963480755774401953e-02,-4.469726574356328030e-01,-1.654125139178845311e-03,1.469977295706341620e-02,5.701634276578968624e-03,5.193088054656982422e-01
8.073088315425550054e-02,6.773337986977234770e-02,-4.385643111683021345e-01,-7.971621721971587898e-04,7.797259717950075220e-03,2.022267481344424290e-03,5.131115317344665527e-01
8.318805691906761002e-02,6.374668854976331400e-02,-4.322808950856919519e-01,3.295326836177734156e-03,7.265744162014600716e-03,7.030656836114891443e-04,5.062185525894165039e-01
4.871417134279748540e-02,3.934146945833244535e-02,-3.283840832375313212e-01,-2.593396205842777788e-02,9.088779509001716772e-02,9.102539632864171948e-02,4.363632202148437500e-01
5.020373969732336294e-02,3.662014862988874353e-02,-3.270680763309931072e-01,-2.008692323913760253e-03,2.040586699846110713e-02,-2.261191298142697340e-04,3.723644614219665527e-01
3.675990120389488469e-02,8.435973570507349084e-02,-4.116701908209735583e-01,-6.390827460213686570e-03,2.419768308844445076e-02,-1.789426444653758686e-03,4.760138690471649170e-01
6.313878837638528529e-02,5.776447638637993709e-02,-3.772747066439301467e-01,1.744310889942139384e-02,5.962218569398590462e-02,-9.570929925528884330e-02,4.802957773208618164e-01
-4.313809564772112803e-02,1.393976244979272527e-01,-4.424140289542033422e-01,-2.142095507831664331e-02,6.203229130516162149e-02,-1.486600544525697870e-02,5.283997058868408203e-01
6.400777050811456981e-02,7.725262553572265212e-02,-4.462260256997075403e-01,-1.207064784636744997e-03,4.203823091384703385e-03,9.176012870838631775e-04,5.170414447784423828e-01
7.244130244370719507e-02,6.782309688557069949e-02,-4.404220210055969087e-01,9.415440352642926759e-04,3.110724794657478316e-03,-1.144141044351530473e-03,5.106047391891479492e-01
8.043986354027399255e-02,8.366036110715252549e-02,-4.826235985446210575e-01,3.662756220768384474e-02,-2.834320373803680959e-02,4.021315342964895678e-02,5.745869874954223633e-01
5.423616647253723388e-02,6.242612009510059567e-02,-4.447517943033234000e-01,3.824578462793937900e-02,4.852750511207204681e-04,-5.924647080528465740e-03,5.075795054435729980e-01
6.702532570528535460e-02,7.039357910377272431e-02,-4.349901470613165566e-01,2.988731201122613902e-03,-2.616538427843327023e-03,4.438994094101813941e-03,5.038136839866638184e-01
9.016917805336166492e-02,7.450163325741951392e-02,-4.684422138793938872e-01,1.520984373737539405e-02,-1.144537445369544874e-02,2.555782312595875419e-02,5.537027120590209961e-01
6.584557274134544835e-02,1.191570943825719375e-01,-5.865702473094072111e-01,-1.210663134143435959e-01,-9.698553229376229157e-02,-4.108553568099946457e-03,7.317855954170227051e-01
5.604138722871979117e-02,7.051692039987195182e-02,-4.434479306913594598e-01,-3.566976854530452823e-03,-2.780524110734401613e-03,1.302051218813695711e-03,5.069476962089538574e-01
4.345694968388183477e-02,7.731626552965339960e-02,-4.449345172604167731e-01,-4.327210917571717129e-03,4.760425837333335033e-03,4.854941487900221730e-03,5.063636302947998047e-01
3.934042082424629716e-02,7.486087064188387541e-02,-4.585115102633264272e-01,-3.777918781795969183e-02,1.385834713871305843e-02,9.478568947871902212e-03,5.214687585830688477e-01
7.592847814830716580e-03,1.051733356957703647e-01,-4.559648846061002958e-01,-1.283625273849491391e-02,-4.627106646210159789e-03,-3.322921574884500195e-03,5.198399424552917480e-01
2.413123105522199663e-02,9.426302587002272082e-02,-4.409138321664308191e-01,1.170359865849104723e-02,-9.696149386055055372e-03,6.561517004472407037e-03,5.046007633209228516e-01
7.807827895912475280e-02,5.775448171165589728e-02,-4.439697460211097790e-01,-1.352405538064396524e-03,-1.582026125259295389e-03,1.812187531371132684e-02,5.131621360778808594e-01
8.379831516215399678e-02,3.561410607935305839e-02,-4.493149688771718164e-01,-9.957556798218827193e-03,3.726796893104308058e-03,6.640720715606145651e-03,5.111900568008422852e-01
7.094433931327739917e-02,6.600602067036148712e-02,-4.458139357113630186e-01,2.066888191626916390e-03,-3.715150177782224668e-03,3.981911900910673624e-03,5.144058465957641602e-01
8.280324737737831953e-02,2.697018064852066410e-02,-4.461447460972409740e-01,-2.673846804323767867e-02,-1.832560413657401523e-03,-5.024018239606140371e-03,5.055701136589050293e-01
2.094609788955630048e-02,4.313553170750931975e-02,-2.386643427266422479e-01,4.128890802994501265e-03,1.076490406792457617e-02,-4.589820674551597229e-02,2.834947705268859863e-01
1.148515034469098084e-01,-2.032217632120272149e-02,-2.871164926808079665e-01,-6.172185195109934630e-02,-5.075209062396119492e-02,-8.346472341230026792e-02,4.069027602672576904e-01
6.078257618153332098e-02,7.475225804115687156e-02,-4.104309335297423034e-01,7.726262640134056239e-03,-9.835427778746883704e-03,-1.385073001751261496e-02,4.794422388076782227e-01
7.373462049060078294e-02,4.243124521487562362e-02,-4.315620817559321365e-01,-1.054744711567967008e-01,-1.464409311546562564e-01,-7.994392463788176084e-02,5.978040695190429688e-01
7.328553627995204600e-02,6.818833849383457157e-02,-4.285000085991693131e-01,-2.791344416990509687e-03,5.720476994259907425e-03,-3.856088626365995341e-04,4.993786215782165527e-01
6.585659382725314592e-02,7.914990094290180744e-02,-4.277343838040173485e-01,7.257086850927910865e-03,-8.398398882830711157e-04,1.594726280553331738e-03,5.005376935005187988e-01
5.120990618268267403e-02,3.644571427585591161e-02,-3.107256939192584722e-01,6.289850365880474614e-04,-2.976840304573657309e-02,-2.557875940802671264e-03,3.585400283336639404e-01
-2.088673498666100345e-02,8.065478803947094544e-02,-1.228205958059753189e-01,-1.906254747621070195e-02,2.302688963109080292e-02,-2.307927237807034376e-02,1.879641562700271606e-01
6.433206611176323086e-02,8.138776709672346232e-02,-4.268127569432368928e-01,-4.526526181520704184e-03,5.148364880730084241e-03,-1.430174487921173285e-02,5.006451606750488281e-01
7.473572673423206636e-02,7.034424324400895268e-02,-4.364133629429665651e-01,-2.433541363797251875e-03,1.651886813237679955e-02,-1.449776326095802981e-03,5.097947120666503906e-01
6.679958574888023026e-02,6.463806177030209654e-02,-4.426490991999422198e-01,4.011108798400031192e-03,-2.441651156730701528e-04,1.083995642508670974e-03,5.084224939346313477e-01
7.116003304881854397e-02,7.810718241709199705e-02,-4.438228112691954830e-01,-1.836322690696725549e-03,5.850852369140856256e-04,-2.717814677910491885e-03,5.185234546661376953e-01
5.489046669180372429e-02,8.098336043326279099e-02,-4.479566886780923518e-01,1.296720751361870412e-03,-4.097810743539355427e-03,4.914313489931299538e-03,5.165120363235473633e-01
5.715852806446156120e-02,7.667520497802399193e-02,-4.476986447233820554e-01,2.108373714908966419e-03,-4.131651529956178841e-03,4.566656116724923664e-03,5.150164365768432617e-01
1.421762124795706295e-01,-1.767087101965597595e-02,-4.901406140839256187e-01,3.966518759761169383e-02,2.624193955860812041e-02,-3.808567340719992006e-02,5.791710615158081055e-01
6.661410052076785493e-02,6.381745979145825309e-02,-4.424929451748000897e-01,1.331288483793243447e-03,-3.714154642209434721e-04,1.255475452163694328e-03,5.077248215675354004e-01
7.214249954492726880e-02,5.271429454571438522e-02,-4.431837167044493375e-01,4.314569130520082459e-03,3.170197496090159436e-03,1.934293794281444559e-03,5.059880614280700684e-01
7.678485089512779305e-02,5.691420558380094752e-02,-4.490161766885714112e-01,1.953705154842926700e-03,4.635673099413947437e-03,-4.631772065563400341e-03,5.162885189056396484e-01
3.482353588569556124e-02,7.868362109290635842e-02,-4.427073592976908389e-01,-5.311741125768488538e-03,1.895280630656891348e-03,1.933430964071969262e-03,5.010096430778503418e-01
4.540100430054644365e-02,8.246827398581252355e-02,-4.597149241425771415e-01,-2.793436533132219457e-02,1.155611533252836991e-02,3.399111517076364598e-03,5.272718667984008789e-01
5.568979005754845502e-02,6.604568363833721034e-02,-4.408801903412106205e-01,-1.968203240768995419e-03,2.288858987923401457e-03,2.065416669805887877e-03,5.018680691719055176e-01
-5.378198281510093715e-03,1.644622199345687763e-01,-5.376057237507236852e-01,-2.741555087657548961e-02,1.304971646780723853e-03,1.080824473713306189e-03,6.362146735191345215e-01
4.150025109663726952e-02,6.622639798885293638e-02,-4.402508219002669865e-01,-2.661910540830236815e-02,-1.887893461211777183e-03,-1.641699516710824237e-03,4.967412054538726807e-01
4.933512416375096521e-02,5.395148055109416640e-02,-4.414836050714017190e-01,-8.054264150421694413e-02,-5.144738174171616107e-02,-7.505221263495882866e-02,5.361813902854919434e-01
7.638460590687556895e-02,7.339919896924401721e-02,-4.450214062025026340e-01,1.399166268582790204e-03,4.324438451703765756e-04,7.360743783739315520e-04,5.199275016784667969e-01
7.384882236355630458e-02,7.353219453228679314e-02,-4.429576859718553083e-01,2.698300666941802397e-03,-2.034050080903124398e-03,-3.231577470900944774e-03,5.167117118835449219e-01
8.138924922184878619e-02,6.846719392823988337e-02,-4.403576308966332120e-01,2.276098429095582687e-03,-1.215899793219892217e-03,-4.353075736701510537e-04,5.154272913932800293e-01
7.834973131428277227e-02,7.294482160735013543e-02,-4.454350187828144958e-01,1.959898270051140586e-03,-7.725335231798892205e-04,-1.215421843565286217e-05,5.211160778999328613e-01
6.666070186186462410e-02,7.400166636042937451e-02,-4.423393549285740134e-01,9.784131871296041557e-04,-4.028125906729208665e-03,-2.449476002763244838e-03,5.127778053283691406e-01
6.832964251290882252e-02,7.385287205099341779e-02,-4.295720843049616322e-01,2.558847991739810878e-03,5.954538224127349109e-05,-2.699291093084736030e-03,5.007276535034179688e-01
7.459840639217202307e-02,6.465697386756816267e-02,-4.385804638598349015e-01,-1.749413897696085879e-03,5.630695403726368106e-03,1.495536170224462565e-03,5.083902478218078613e-01
8.180795847591826320e-02,7.315897938024459868e-02,-4.541335866691600387e-01,-1.760007515220794044e-03,1.656423391189365806e-03,-3.103094937242955459e-02,5.343959927558898926e-01
6.063338982181101788e-02,8.118719159373102845e-02,-4.202674610553274182e-01,4.846927698285244737e-03,-5.950310135857013460e-04,-1.193663266334071653e-02,4.920075237751007080e-01
7.951299122366542460e-02,7.149411806586056239e-02,-4.430531846568062093e-01,-4.623922809840910406e-03,2.410169989481621405e-03,-2.453573214887655972e-03,5.186992883682250977e-01
6.178570048260023650e-02,8.020713795184888917e-02,-4.240523744434889220e-01,4.925022333257631814e-03,-2.982251213981686969e-03,-4.985101186316444506e-03,4.954814016819000244e-01
5.375678242128983930e-02,7.927365511445103041e-02,-4.462674442334939040e-01,2.560754716382097895e-03,-5.111727589170304495e-03,2.274873139256357486e-03,5.133692622184753418e-01
6.739440794743986607e-02,5.392298867000305806e-02,-4.409134183604159207e-01,1.401621859113827764e-02,3.595132065809928269e-03,-1.300972265473348015e-03,5.023384690284729004e-01
6.305921937723232840e-02,6.039070153383438444e-02,-4.410975307059028516e-01,5.070693360030109273e-03,-2.388310806759736966e-03,-2.901205528770041549e-04,5.029217600822448730e-01
6.416584828381682870e-02,6.533898853515121563e-02,-4.432591938581478264e-01,2.011317039068478366e-03,-1.844462764472964153e-03,1.221656650477009280e-03,5.080389976501464844e-01
7.300184668468986948e-02,7.489666244065695810e-02,-4.482116185191284408e-01,7.199610286039738721e-04,1.807156959469589095e-04,-6.640759739407458423e-04,5.221663117408752441e-01
6.343687874599535093e-02,6.530545030724510536e-02,-4.439453066576711238e-01,4.256028244636094610e-03,-3.941241629731699787e-03,2.418193487083741735e-03,5.084356069564819336e-01
6.705340733895956418e-02,7.157087295331485133e-02,-4.451207966327789256e-01,1.765659874218155050e-03,3.110889180426089471e-04,-9.656769425836675327e-04,5.144599080085754395e-01
7.123498724801130555e-02,7.058216204614134459e-02,-4.461794797271517732e-01,7.061253946676758660e-04,-1.323710136860272541e-03,1.509553419547355691e-03,5.171015262603759766e-01
6.339001637126376321e-02,6.608889190519198764e-02,-4.440470210909087667e-01,2.064266951215333861e-03,-3.950372297715323486e-03,2.753195994525701757e-03,5.088727474212646484e-01
6.762869778378310937e-02,7.230989519751912509e-02,-4.459714115812322688e-01,1.854212372966746727e-04,-2.846803230928343902e-03,2.083202100298094193e-03,5.159929394721984863e-01
7.525944931148237371e-02,7.357717611244007916e-02,-4.460485955190275908e-01,-4.392083579582815736e-04,-1.351780499826455090e-03,8.703167864015396110e-05,5.204747915267944336e-01
6.826657664838417516e-02,6.440794548644623863e-02,-4.436684270033090516e-01,2.317630232541445946e-03,-8.080109367458512002e-04,1.202077849003995542e-03,5.100386142730712891e-01
6.077557783347747877e-02,7.000578582148889173e-02,-4.459150616825201530e-01,3.932098565264314713e-03,-5.428595060654197411e-03,4.045301062834728151e-03,5.115479826927185059e-01
2.485579064264070714e-02,8.581655738755525342e-02,-4.448052883652512390e-01,1.316990840023205683e-02,8.418998775260929258e-04,-3.956483115010280601e-04,5.034397244453430176e-01
-4.476228259043155133e-02,2.110702495922994193e-01,-5.901662418222066719e-01,2.908814917756868349e-03,7.715117423101881811e-02,-1.676458899085062071e-02,7.219233512878417969e-01
3.259738454010041586e-02,7.899969400501469230e-02,-4.335499103440347279e-01,7.951059722427983312e-02,-3.769590271457600589e-02,1.723427491477664761e-02,5.149724483489990234e-01
-3.092574028267518205e-02,2.105013795166390533e-01,-6.042350623077803462e-01,7.381417556069658215e-02,1.248894673900553982e-02,-1.982769721001048646e-02,7.371404170989990234e-01
4.309697859433972433e-02,9.361100907724548281e-02,-4.536632923945427276e-01,6.687430287767245213e-03,8.862795099616247244e-03,5.509662314026112645e-03,5.242868065834045410e-01
7.916732143915905517e-02,4.382999402301854253e-02,-5.248228046045710915e-01,1.027627009115149315e-01,3.033527666400705897e-02,-8.868145448583439339e-02,6.346210241317749023e-01
2.305917449626895821e-02,1.025928716998865675e-01,-4.790434775182254579e-01,3.272625550794232285e-02,-7.002334635955356767e-03,-3.865157279822516645e-04,5.492971539497375488e-01
7.117219673238467381e-02,5.973394481388408228e-02,-4.459371773635421587e-01,9.278889072786591224e-03,5.627780470202362051e-03,-3.736101348828630830e-03,5.118723511695861816e-01
4.971549069611411187e-02,6.736855145338230266e-02,-4.595619799549152673e-01,2.836686618811200267e-02,-2.538956322088495830e-03,3.639789888605359479e-03,5.207096934318542480e-01
6.271073476120581081e-02,6.966657929287728424e-02,-4.481979844434468285e-01,7.108316983776020656e-03,4.105257856289762364e-03,-4.965249728184596527e-03,5.146902203559875488e-01
8.760166001164429450e-02,7.529600806524097689e-02,-5.368218484677278468e-01,6.605340957807712132e-02,-7.982395570224462469e-04,6.465845652042364992e-03,6.289584040641784668e-01
7.414734533519207194e-02,7.666188010976393574e-02,-4.464517722798101995e-01,-4.431407280252316200e-03,-4.677719866872823520e-04,2.250165929852068758e-03,5.219325423240661621e-01
8.069179942750506762e-02,9.129525248586928265e-02,-5.242892227416408035e-01,6.034458601716580217e-02,1.358196575263680324e-02,-3.322514104758873387e-03,6.197098493576049805e-01
1.833958408185308586e-02,4.915572150635424964e-02,-2.766022143227828689e-01,4.888116560876434175e-02,-3.781768407513036445e-02,6.883956754049463944e-02,3.502921164035797119e-01
3.665469872557346187e-02,5.268254135775204960e-02,-3.217283317173354473e-01,-8.607572020395680770e-03,-2.309986301529960706e-02,1.952092962238932000e-02,3.706827163696289062e-01
2.432124025585467864e-02,5.159546576977719345e-02,-2.749281647996330014e-01,7.019200902772268491e-02,-9.149042066511653415e-02,6.159013571209547011e-02,3.869472444057464600e-01
-1.054532248046109733e-02,6.139845414587716266e-02,-2.674435832596517293e-01,-3.755036640221762201e-02,-1.498976757752876476e-01,-7.244188811269956785e-02,4.207569062709808350e-01
7.515658024514737523e-02,7.499012832765472591e-02,-4.472014317176611353e-01,1.031341680283954674e-03,4.079283350994576782e-06,-1.226383569014465914e-03,5.222821831703186035e-01
5.936633363969281985e-02,7.065352158308735309e-02,-4.233975954777455808e-01,1.250678427611569971e-02,-1.074296702459311414e-01,3.842817947741854201e-02,5.274090170860290527e-01
6.688969423907284440e-02,6.242693950677941084e-02,-4.039023424506894000e-01,-6.028622778819850599e-03,-1.275472138134826385e-02,4.162835171597449938e-03,4.692686796188354492e-01
6.062097424379309096e-02,6.543799879841938338e-02,-3.912748747113684589e-01,-1.187295997415855654e-02,-3.506864990449095731e-03,-2.909485002163207396e-03,4.548571705818176270e-01
1.077392224271000176e-01,-1.424198163821687596e-02,-2.711693005797902734e-01,6.944965628234546495e-02,-4.494912704815723359e-02,8.334665450695655231e-02,3.919214010238647461e-01
4.428426911093286122e-02,6.419621139001330246e-02,-3.647478194041947619e-01,-3.049952699666081454e-03,-7.945070640827410491e-03,-9.352525769719793533e-03,4.199143350124359131e-01
8.383464996846598516e-02,4.653714834260488931e-02,-4.435915456202373930e-01,1.620494629168033746e-03,2.549938676835687614e-03,1.974156217531925547e-03,5.098400712013244629e-01
3.775425062549961353e-02,5.688110359452974718e-02,-3.328285928304779984e-01,9.347692588181260101e-03,1.824056233491108334e-02,2.928421335125981281e-02,3.855107724666595459e-01
3.272759149256319888e-02,5.611811606304245581e-02,-3.240712334757445690e-01,-6.570753437721460130e-03,1.817648178344122073e-03,2.997700123053860868e-02,3.728719949722290039e-01
8.081775957846076830e-02,6.944713245023129145e-02,-4.596823025227929627e-01,1.774370887164615582e-03,9.873039839305311569e-04,8.877161183784065823e-03,5.351378917694091797e-01
6.357597851199708883e-02,7.428488402092953136e-02,-4.435857047046115609e-01,5.040391541405841135e-03,-2.583264407654510021e-03,4.787153810184759280e-03,5.127609372138977051e-01
5.586310647660841511e-02,5.648006669572216976e-02,-3.363706562720986670e-01,-1.245779974920104699e-02,8.740470097505918801e-02,7.323393914970090235e-02,4.399586915969848633e-01
5.854740993256837833e-02,5.932216306603313449e-02,-3.719852475488078514e-01,1.188529656374193513e-02,-3.338641768780686858e-02,8.762003439308018544e-04,4.352729916572570801e-01
5.901158173003490104e-02,6.207966540912890352e-02,-4.424024444206021700e-01,-9.960734836770545816e-03,1.075691051936166235e-03,2.808768035947139911e-03,5.032778382301330566e-01
4.895273695694535299e-02,6.447841080644015066e-02,-3.669524435700158849e-01,-8.861020077394350311e-03,4.742759783958159711e-03,1.495082627672461757e-03,4.242465198040008545e-01
6.934041740837890155e-02,7.913323562786148124e-02,-4.414155572735389277e-01,2.249890965999437609e-03,2.038514753206519241e-03,-5.636371344828025771e-03,5.158413052558898926e-01
7.242413706213735036e-02,7.118988530839445716e-02,-4.414253982487418848e-01,1.280175634404518217e-03,-6.732527201948767907e-03,-9.254195775453668074e-03,5.136209130287170410e-01
3.129679873528083689e-02,-1.459171556593268082e-02,-1.413776974763639727e-01,-2.017748399649028912e-02,-3.384949449885007317e-02,-9.782544342252996739e-02,2.395133972167968750e-01
2.893530206033155527e-02,5.086574161165183239e-02,-3.094968069486193074e-01,3.178521317326462540e-03,-5.611823452336145044e-04,-3.199792405624796165e-02,3.543191552162170410e-01
6.020577067668830828e-02,6.327807683972933028e-02,-3.808562850999603899e-01,-6.560201281193030545e-03,-5.868198045094080717e-02,5.195707977472032585e-02,4.630968570709228516e-01
2.047154394378190856e-02,4.298255632409028748e-03,-1.686134607477294545e-01,2.046043766614158779e-02,-8.192423338733077764e-02,6.231741534108783953e-02,2.568999826908111572e-01
5.763151110047970427e-02,4.944022748697285419e-02,-3.608313078822290576e-01,-1.000360038233896048e-02,-2.020925636192722613e-02,-1.087199247503966171e-03,4.162685275077819824e-01
8.141311271274387362e-02,6.729111943499369031e-02,-4.411470598421055045e-01,1.760874439875367143e-04,-4.944978813435465734e-03,1.837785708816678295e-03,5.157252550125122070e-01
7.815061878498041903e-02,7.533556919792080975e-02,-4.443730047031740349e-01,-3.671118473844606038e-03,-1.207712853498978459e-02,4.187450944064273484e-03,5.216306447982788086e-01
8.448544378338346261e-02,6.356881334723180066e-02,-4.318931923417490548e-01,-2.144050072553665108e-03,7.384007660153564566e-04,3.719168050271483175e-04,5.062601566314697266e-01
8.578914062792536432e-02,6.205485991809844837e-02,-4.304022547340818905e-01,-1.867977407902201214e-04,1.018187356942786568e-03,1.506068440673430798e-04,5.047461986541748047e-01
8.487559161492508331e-02,6.298040699363693928e-02,-4.340181267713026370e-01,-1.728785687087309130e-04,-2.035992802707328048e-03,-1.159887755261268934e-05,5.083122253417968750e-01
7.183201954497378527e-02,4.349970654340273857e-02,-3.707000366122957247e-01,-3.671278464171555400e-03,-2.009554243099246837e-02,-7.033834397643410697e-04,4.305261969566345215e-01
8.302379034880924547e-02,5.913150045079293426e-02,-4.223041966672719250e-01,-1.859264662705819703e-03,-8.336546065994395946e-03,-4.786187278853447076e-04,4.940377771854400635e-01
7.171784516504639551e-02,6.457956113649801488e-02,-4.137550023761579210e-01,7.008789226441788575e-03,-3.815308250172611687e-03,-1.425643127913295500e-03,4.821478426456451416e-01
5.458703992251440207e-02,4.294823390557567233e-02,-3.397384545352916119e-01,-1.081568467105908232e-02,-2.392356991454166332e-02,1.161359163013829174e-02,3.918049931526184082e-01
7.271788083353664112e-02,7.380550887835332641e-02,-4.482444861547453807e-01,-2.059205374778654007e-03,1.388746466844303831e-04,-6.264182286560748738e-04,5.215204358100891113e-01
7.516616388638144852e-02,7.523040105395475963e-02,-4.471563812106439939e-01,-5.624280362607037877e-03,-1.151012754527127278e-03,-5.457377344722706344e-03,5.225347876548767090e-01
7.343393549951723887e-02,6.967604267555091435e-02,-4.322427504448856928e-01,-3.182603036162935488e-03,4.007877959032686566e-03,2.545541560748145089e-03,5.039055347442626953e-01
8.114054714884763597e-02,3.991737589800942176e-02,-4.395398424536490767e-01,1.213520287651203601e-02,-2.289254322521192594e-03,-5.228314502082727355e-03,5.018793344497680664e-01
7.557514585070243540e-02,7.388183337215592505e-02,-4.482132973173867385e-01,-2.257400986282019498e-04,-4.216619162413070957e-04,-5.013628130261077974e-04,5.229452252388000488e-01
6.817993238022668212e-02,7.955710709905525202e-02,-4.369938170017315104e-01,-4.554215111509893679e-03,-6.822465322099452358e-04,-2.351071757328465281e-03,5.110357999801635742e-01
8.272135223739696119e-02,3.571439921545860319e-02,-4.430524811738503210e-01,1.752010729756881685e-02,3.635125197834439595e-04,-5.944383661518858053e-04,5.048317313194274902e-01
7.386981447707538506e-02,7.632079456097237702e-02,-4.469399503024593656e-01,-6.585860365059374461e-04,-1.289599986274914166e-03,2.285469445843985904e-03,5.220606327056884766e-01
6.330826995002042379e-02,8.516004158987283690e-02,-4.312467676117234250e-01,-5.236713106498736307e-04,-1.162210095585652350e-03,4.393049250531263702e-03,5.058971047401428223e-01
7.214775392515943020e-02,7.377714414993929992e-02,-4.418208249010225908e-01,-3.858508300797958666e-03,7.816078349488166446e-03,-1.954229525410401680e-02,5.161176919937133789e-01
2.226538910364778134e-02,6.506609426753687253e-02,-3.027424595787604478e-01,-6.065604150270420547e-02,-1.043758097816615826e-01,-6.834433044421546477e-02,4.232089519500732422e-01
5.792214655436847548e-02,5.656807918110010047e-02,-3.311100174784611383e-01,-8.249019527014761488e-03,-4.348992833341373820e-02,-1.048727483940918165e-01,4.355390071868896484e-01
3.780547987164170620e-02,1.631787571918896784e-03,-3.282383454082472563e-01,-8.507295380046109301e-02,-1.242758095152152187e-01,-1.352150953430345526e-01,4.949247241020202637e-01
7.056146419272893433e-02,7.689521824133610517e-02,-4.357719001323112074e-01,6.744266613968817256e-03,-5.656422459349859724e-03,-5.262546793396781324e-03,5.098392963409423828e-01
5.297575982932151151e-03,2.286986552852984800e-02,-2.323897178840783062e-01,-3.192781016225670204e-02,-1.177773061830083567e-01,-8.088983558084339442e-02,3.539532124996185303e-01
4.882782124417019143e-02,4.211079790407552814e-02,-2.730863909696923386e-01,-6.732067416660855730e-02,-1.346449376457212466e-01,-5.954509625140566587e-02,4.244201183319091797e-01
1.043789949298013497e-01,1.568228770325424959e-02,-4.628215387982795859e-01,-2.396386307234563140e-02,6.780162726311956926e-03,1.152309021891322928e-02,5.305975675582885742e-01
7.153983954974618698e-02,6.325449875431446434e-02,-4.418633605383576746e-01,-5.684575281556042241e-03,-4.329607760228980536e-03,-7.010290625940955936e-03,5.096061229705810547e-01
7.580177498805759639e-02,5.745051476898951903e-02,-4.487522876461097487e-01,-4.855782892858405810e-04,2.726248462457414503e-03,5.847198154564644569e-03,5.157451629638671875e-01
6.722934169314809250e-02,5.463875751353239330e-02,-4.409947972055382470e-01,-1.403266469842187093e-03,2.855940194046494105e-03,2.070339570928359310e-03,5.020903348922729492e-01
6.579489056128767777e-02,6.817720707117125301e-02,-4.440336985383371293e-01,-7.048217074900365057e-04,-1.511246099761333036e-03,-1.129892250779399379e-03,5.110357999801635742e-01
6.434200541216442137e-02,8.681946418805167043e-02,-4.688393791357017282e-01,-5.384654158759803917e-03,-1.786725106337106947e-02,-1.111523451611631796e-02,5.460655093193054199e-01
6.281083466725417841e-02,6.268982989888485791e-02,-4.418210028162038450e-01,-1.475905013460290099e-02,-9.221303776779671973e-04,1.173011824329370668e-03,5.052251219749450684e-01
3.467178943202234298e-02,6.795288753193465259e-02,-4.439552253128226100e-01,-3.018318187574208639e-02,4.009066693925198918e-03,2.708283334952525483e-03,4.989228248596191406e-01
6.132813219913410552e-02,3.799763163523744991e-02,-4.425608310337355022e-01,-3.414235127530622360e-02,2.071301130817648599e-03,2.400591187491444775e-03,4.962052702903747559e-01
6.424982512759500053e-02,7.849876343653369726e-02,-4.460730148954940577e-01,1.448073986821925903e-04,-6.221990911819727521e-03,-1.298110398024762777e-03,5.177115797996520996e-01
4.513765981497472324e-02,6.922828580254311581e-02,-4.394066414285112132e-01,-7.997791146136764770e-03,-1.773344995234665995e-03,7.636188605357315190e-04,4.972319304943084717e-01
2.944850094115583627e-02,8.405011286057481601e-02,-4.424328691583488959e-01,-1.278720101981786414e-02,-1.593499213105356452e-03,7.373626395536061248e-04,5.019149780273437500e-01
1.001296976073667300e-01,4.931577988425220327e-02,-5.073965238939868172e-01,-2.771411731534514922e-02,3.731067105137946113e-04,-1.095808148230185269e-02,5.860582590103149414e-01
9.363938252739867352e-02,1.787290361152857332e-02,-4.657232637715295609e-01,-4.162574973470143519e-02,1.569451543577647656e-03,1.212704572802959790e-03,5.305243730545043945e-01
1.059832496447400685e-01,2.017200321891143844e-02,-4.536882335042867753e-01,-7.586080645569393335e-03,3.355865719723741519e-03,9.325260421878461131e-03,5.225293636322021484e-01
2.151136076277883613e-01,-2.229448808000819571e-02,-5.907054099069358744e-01,5.574345084296058496e-03,3.458717212744832209e-02,-9.411171180732590125e-02,7.380054593086242676e-01
1.708317189525938584e-01,7.193104590818322208e-02,-7.450377586995232670e-01,-7.512953103531935795e-02,5.225920883476559142e-02,3.715271731562318908e-02,8.872911334037780762e-01
8.265283475350915232e-02,4.808883564081306572e-02,-4.472657854250187692e-01,1.618921595528805251e-03,2.954727447289968827e-03,2.641857855494832152e-03,5.135633349418640137e-01
1.115978700518782674e-01,-2.123127346864585319e-02,-4.428280861161257853e-01,7.625722243753314811e-02,-6.955785641909584260e-02,7.713921540089259399e-02,5.488165020942687988e-01
1.026810755828898025e-01,1.925447328892310184e-02,-4.527081508339778626e-01,7.073527905894307077e-03,-5.213278746391352379e-03,3.805727774712892430e-03,5.189971327781677246e-01
7.879984426836197930e-02,4.200325796635964726e-02,-4.442628969981893827e-01,4.048408882798571959e-03,6.191509719021965653e-03,-4.541786916247058173e-03,5.058930516242980957e-01
6.289474402545566778e-02,6.352597489026212685e-02,-4.420362092264248921e-01,3.883162502480623848e-03,2.542167984337846166e-03,-2.608167630427418813e-03,5.053309798240661621e-01
9.166712746400915157e-02,4.330780264407380065e-02,-4.486286442852719936e-01,-9.370673037592081728e-03,5.520745854786997557e-04,1.805827094384892043e-02,5.190110206604003906e-01
1.088700780889073350e-01,2.505961692969016497e-03,-4.529433121647767901e-01,4.035226136044534409e-03,-5.019900613966375887e-03,1.476284249889510576e-02,5.176573395729064941e-01
1.668908189284250554e-01,-1.585284444351831024e-02,-5.165993448608012795e-01,7.019151706077949096e-03,-1.377817092751499120e-02,1.992165527979452774e-02,6.144579052925109863e-01
1.205484761304882468e-01,-2.250095771405558054e-05,-4.884896161817842697e-01,4.516333832925346903e-02,1.116233475232640375e-02,-4.530674104988997690e-03,5.644351243972778320e-01
4.894496398254841174e-02,8.350687689238681100e-02,-4.480315200017490063e-01,-5.776516779084277763e-03,4.897921860415099804e-03,-1.956209504279108908e-03,5.153058767318725586e-01
9.639444189780144168e-02,2.742373785753043913e-02,-4.505941702652427328e-01,-1.319512384706819988e-02,9.717655356588775824e-04,-7.608986462020009799e-03,5.166490077972412109e-01
2.083191419695356039e-01,4.120194803670762518e-03,-6.898734291295357535e-01,-6.024117639829879023e-02,3.675476076902576758e-03,-1.625388786851300893e-01,8.690347075462341309e-01
1.177114371646515445e-01,-3.581792066138052288e-02,-4.374712106629147224e-01,-7.148967911900364069e-02,-4.924830579287114984e-02,-1.308337538608302653e-01,5.661476254463195801e-01
1.092050732387982170e-01,1.982926206750865172e-02,-4.633197946048942528e-01,-1.262382249340878934e-02,6.922635997053893341e-03,-1.213980006344038236e-02,5.344781279563903809e-01
1.019943352067352871e-01,4.007940965723050253e-02,-4.685461289879539470e-01,-1.196351444967222455e-02,8.734084419616832849e-04,8.612844058461214744e-03,5.428435206413269043e-01
1.452475427191295410e-01,-3.807487324066323453e-02,-4.519584421072558311e-01,-1.055930560182004319e-02,1.731944477709194269e-02,-2.030062843298890279e-02,5.322138667106628418e-01
1.036035809329100277e-01,2.210205788647717773e-02,-4.485864859402877158e-01,-7.591619861671228264e-03,4.728629842950212055e-03,-5.795223236565287712e-03,5.166166424751281738e-01
2.588898447533543590e-01,2.900081238497817515e-02,-7.693472204865346997e-01,-9.437216080369836835e-02,-7.563910418934589874e-02,-8.477969423686465555e-02,9.691155552864074707e-01
1.139487684244749333e-01,2.700688742541987319e-02,-4.478353043400307154e-01,-8.970916929691940406e-03,8.004333971328617126e-03,-6.064908724579556876e-02,5.345897674560546875e-01
1.086324482039530415e-01,1.728426642269795255e-02,-4.528867744777084758e-01,-1.412375159627316662e-02,-2.748583562459093813e-03,6.072520683361767868e-03,5.225765705108642578e-01
4.109659124675840713e-02,1.915553750620494489e-01,-6.618057213084447277e-01,-9.061458014620354939e-02,-1.025006189510618559e-01,-5.059703735118849938e-02,8.284320235252380371e-01
8.221641860707420979e-02,6.933212356731519033e-02,-4.400113687509430438e-01,-1.218766990582707257e-03,-1.303814774935429122e-03,1.268492641050367057e-03,5.159202814102172852e-01
7.848683661362962360e-02,7.044017080913006490e-02,-4.396750278212036012e-01,-3.265679217943632390e-03,-1.305570789119623850e-03,1.268740361541490728e-03,5.142265558242797852e-01
6.917674985406627175e-02,7.310431742170350744e-02,-4.428099307339060098e-01,4.175510094323746412e-04,-3.015241976957544045e-03,2.239535608365926175e-03,5.140033960342407227e-01
7.600164293620847999e-02,7.571504489333585886e-02,-4.469993390793097765e-01,-2.476922195412507247e-03,-1.029451908592961089e-03,1.288607524080054951e-03,5.228831171989440918e-01
7.950555996261232661e-02,7.405833126827354729e-02,-4.472368784738124381e-01,-1.030162120257683200e-03,-1.645607864715438462e-03,1.462801991876224719e-03,5.240569710731506348e-01
7.539881524308034155e-02,7.279031357672469116e-02,-4.441618759040826259e-01,-2.117755211367046506e-03,4.156277858204705106e-03,-3.603339214585802902e-04,5.183247327804565430e-01
7.083709584177338980e-02,5.358985311550085173e-02,-4.340395260817733747e-01,1.725731244735312711e-02,-4.680931796097316478e-04,5.709930375585426689e-03,4.974756836891174316e-01
4.344922500195466664e-02,6.539721630211831060e-02,-3.580315398859196807e-01,9.218397727221256874e-04,6.526217456091820690e-02,-1.344394292771930108e-02,4.287218749523162842e-01
5.915155203633301606e-02,8.621828156840266599e-02,-4.466977159999384051e-01,-5.906761606816028805e-03,-5.352473923873851680e-02,-2.543027135199508060e-03,5.282296538352966309e-01
2.882983848621090139e-02,2.199844971340058630e-01,-7.637875330901313653e-01,-4.992533655471145804e-02,-3.117205147672451326e-02,1.755113265984783663e-02,9.097316861152648926e-01
7.668563462332789182e-02,7.552448227293803718e-02,-4.485215663230241456e-01,2.338725239869500830e-03,9.044924462507745186e-04,1.627585501018520694e-03,5.246531367301940918e-01
5.084984052789859321e-02,8.393837318156727179e-02,-4.493125446487492569e-01,-1.909687146992867721e-03,2.720176680399563878e-03,4.080838396892591535e-03,5.175809264183044434e-01
7.263791726412921479e-02,7.497545276187164709e-02,-4.480132875804214154e-01,5.157374611363491242e-03,-4.378920772980465781e-03,1.531671442546148456e-03,5.219622254371643066e-01
7.880932211581981317e-02,6.795781646136528353e-02,-4.360371138581273232e-01,7.005833085147415967e-04,8.932624347270330450e-04,9.728634704059555341e-04,5.095139145851135254e-01
8.173639795890266790e-02,6.848412996278355203e-02,-4.385635313429891435e-01,4.666801822454709307e-03,-6.332737577635624837e-03,-1.678661518110558058e-03,5.139908194541931152e-01
5.116899174316263954e-02,8.861551678689832956e-02,-4.377720401237146786e-01,-1.325562098421757123e-02,-1.101064185375649762e-01,-3.567966612607412907e-02,5.472579002380371094e-01
2.205408871711772578e-02,1.306764824012952020e-01,-5.074692484702006956e-01,1.601817626824379032e-02,-6.447784219322140117e-03,6.054450630068671999e-03,5.922130942344665527e-01
7.585033941777516442e-02,5.810567040735820088e-02,-4.024195595873857889e-01,6.205487052144872603e-03,9.776724828144136258e-04,-4.297882233800607611e-03,4.698340594768524170e-01
6.673404433867080598e-02,6.248513542613196026e-02,-3.974255458387704332e-01,1.110531790767283616e-02,8.596789194767395434e-04,-6.803343645620844871e-03,4.626024961471557617e-01
7.078579907338050647e-02,6.736874458800973242e-02,-4.179150913141712609e-01,7.452291752587892823e-03,-7.032847670276801133e-03,8.366672181674980960e-04,4.873268008232116699e-01
6.077221769818802466e-02,7.069086280002354061e-02,-4.177586459532964258e-01,-2.989938878472866643e-03,-1.915188829985101093e-02,-6.802870267686759835e-03,4.848737716674804688e-01
7.021351112552860763e-02,7.191902404253226744e-02,-1.208748181098562025e-01,4.346939836549770612e-03,5.753825124168877175e-03,4.459078169867994670e-03,1.925077140331268311e-01
1.506011422722504378e-02,1.407903859567516403e-02,-2.328656792319039603e-01,-3.187105461219895582e-03,-1.249433369867539688e-03,7.443892165814069203e-04,2.475111037492752075e-01
4.067783032184968395e-02,4.331526788123074567e-02,-3.230840646401063609e-01,-7.865480748323520552e-03,1.286946096858367430e-02,1.059935936781106376e-03,3.660258352756500244e-01
2.104537849047090348e-02,2.185997144877567522e-02,-2.612472432456700577e-01,-2.083778246081593143e-03,-1.150052454411623929e-03,-1.450352931799816711e-02,2.838446497917175293e-01
7.178669342058072167e-02,1.060659328593883122e-01,-5.155562772195421140e-01,-2.001021665658103688e-02,-2.628893747380808485e-02,-1.250033065523077636e-02,6.082958579063415527e-01
3.778131768318568340e-02,7.868207029243221018e-02,-4.446428569269065822e-01,-4.996913805092563325e-03,-2.331010304977447923e-03,-2.707485503477463640e-03,5.042327642440795898e-01
-1.933792939758810503e-02,8.603645189360464851e-02,-1.341331575609910620e-01,7.994683917546723320e-03,-5.126092055064854214e-02,2.624887631855347264e-02,2.156849205493927002e-01
5.727975090823417270e-02,4.519778719237191322e-02,-3.438720631709505926e-01,-8.145441216137288415e-03,2.308545101651611996e-03,3.809046528321397701e-02,4.009859561920166016e-01
7.451933130007784567e-02,7.248911740301147710e-02,-4.419203647615044250e-01,3.805102921910032132e-03,2.806161313597944863e-04,-3.624882113815045340e-03,5.155081748962402344e-01
2.230271052132858089e-02,3.919347673349102279e-02,-3.461623812207964557e-01,-5.275117074571940984e-02,-8.671776793782325077e-02,-1.011640920739938498e-01,4.515373408794403076e-01
1.242010508460446305e-02,1.110200642976852947e-01,-4.512569901442444742e-01,-5.703608729515305398e-02,-1.910065620650646528e-02,-5.185714536773020772e-02,5.379203557968139648e-01
1.198345692373456728e-01,2.329046539410206673e-02,-4.756448641396255894e-01,1.389792764053333126e-04,-1.056592857214319267e-02,-2.304200374439114782e-02,5.552965402603149414e-01
7.662387567283271417e-02,6.227427649327979542e-02,-4.452928944478511397e-01,-2.700178270695516042e-03,1.549501603245490022e-03,-6.953125479373568722e-03,5.150610208511352539e-01
6.187439901957711430e-02,7.972867470291306047e-02,-4.164463555979835974e-01,5.925274713372949593e-04,-8.830097912909673497e-05,-1.450538321576702074e-02,4.881412684917449951e-01
9.263881122620362674e-02,2.861916389288013396e-02,-4.496522379447983608e-01,-3.900453115004084287e-03,5.174784339139076178e-03,5.764137486650516666e-03,5.135040879249572754e-01
7.421620564941133757e-02,6.066093806937936095e-02,-4.301507979434513462e-01,5.245005092649609839e-03,-4.176769689907996173e-04,-1.836909938138410470e-02,4.988269507884979248e-01
7.112157388675782732e-02,8.072442014448821812e-02,-4.458247139625864386e-01,1.358588432927367549e-03,-8.153903439661528210e-03,-1.541965175534895996e-02,5.226931571960449219e-01
9.480545830765896298e-02,4.869450494423555043e-02,-4.565984769020294820e-01,-4.783644014713714712e-03,4.225562154140035677e-04,6.359731281747152062e-03,5.300351977348327637e-01
5.840389117407221442e-02,7.240808327633219132e-02,-4.454769533206838217e-01,-2.586572526129791300e-03,5.238926136459021686e-03,3.302732115813617440e-03,5.111590623855590820e-01
7.193211660539722274e-02,7.232483285896643133e-02,-4.321582760112994137e-01,5.297609925955416507e-03,-4.761021785894393012e-04,-1.180108917325968385e-04,5.043710470199584961e-01
6.146646864967758583e-02,6.386967246567834544e-02,-3.792180053047313759e-01,-5.143102441800462190e-04,-4.666929368899830344e-02,5.410701041327325295e-02,4.588956236839294434e-01
7.441116708412540137e-02,6.892648541841248089e-02,-4.381141754386524423e-01,-9.448871162296343645e-04,2.426030006153722090e-03,-1.154913215288388495e-03,5.098289847373962402e-01
6.728426104381513007e-02,6.638957382433977039e-02,-4.111218520453686631e-01,1.727333226257433095e-03,2.428983604206493008e-02,2.626694429755566454e-02,4.819688498973846436e-01
4.343292532272854944e-02,7.249589741680595445e-02,-4.208932738312658461e-01,1.804868045401167645e-02,-8.226803114814166401e-03,2.537894065034490988e-03,4.807679355144500732e-01
6.186874189655724998e-02,8.182221892540730845e-02,-4.220775978350329583e-01,-4.159041051912862504e-03,1.169542743733624794e-03,-1.074221423227725639e-03,4.942854046821594238e-01
7.553134940512318263e-02,7.638108266814572223e-02,-4.463539078959844475e-01,-3.169795801705309335e-03,-1.443960956021668289e-03,1.275948349673550804e-03,5.223501324653625488e-01
2.632863330319662465e-02,8.365920353605879600e-02,-4.436004304567536805e-01,-1.459055678341674572e-02,-4.670584565588545918e-04,-3.350929424029495864e-03,5.017313957214355469e-01
7.461572005135125307e-02,6.510843392276860486e-02,-4.458898048297628147e-01,-1.301792545598356825e-03,1.390076758057209958e-03,6.277198268054417531e-03,5.159426927566528320e-01
8.364505408595748759e-02,5.534902806278363396e-02,-4.541724591826387103e-01,-1.392364564037511460e-03,-3.054629248557044416e-03,-7.136961795935804938e-03,5.244204998016357422e-01
6.667336557362474325e-02,8.154008057602141202e-02,-4.353987948794699747e-01,1.140176596621226071e-03,1.913879118955058535e-03,7.576097768843769419e-04,5.096844434738159180e-01
1.114252031298020029e-01,-4.258070615464473740e-03,-4.548539309861454050e-01,1.903428379772335866e-02,1.917607480774277152e-03,-1.890635398473395658e-03,5.192825198173522949e-01
6.990133738506623673e-02,4.326513644500962208e-02,-4.401953343461567081e-01,-8.356758415217680272e-03,-3.011107887964210254e-03,1.597309721826947705e-04,4.975518584251403809e-01
1.111527300540083307e-01,3.358800774327594385e-02,-4.719199490254696872e-01,-3.559107444028025008e-03,1.160353250468115424e-02,1.290792261639647776e-02,5.492776632308959961e-01
6.975163357299946076e-02,6.639385199437361496e-02,-4.483625591816504108e-01,-5.834058700425403046e-03,5.793993616266743252e-04,5.890661964247130220e-03,5.166440606117248535e-01
8.114854526399511991e-02,5.681123068300761303e-02,-4.538487003252409391e-01,-3.044529644796845503e-03,-3.071884921355098972e-03,-6.459958698830045067e-03,5.234264731407165527e-01
6.507894193558091955e-02,7.748999121823155201e-02,-4.478586575745320819e-01,-1.774259215153569692e-03,6.710708629012050903e-03,-4.128607379706458400e-03,5.194427967071533203e-01
4.332275328951508409e-02,4.013866056205390997e-02,-3.149064651219443123e-01,4.622409002528722957e-04,5.106687643555871126e-02,7.936240891389444163e-02,3.923225402832031250e-01
4.852308185137738095e-02,2.654886819782881213e-02,-3.010839981206531180e-01,-6.528565314472678863e-03,2.667730091875517712e-02,-1.915829136052435780e-02,3.440779745578765869e-01
2.887631587426184310e-02,3.864023446563172315e-02,-2.995548519834558832e-01,3.611609165571118447e-03,-3.546317520163092072e-03,-4.565975771367134992e-03,3.336293399333953857e-01
4.214266229656513096e-02,4.047539377417684603e-02,-3.174070129745264479e-01,-8.170608782936589903e-03,-7.858213955698616126e-04,-2.000246939684025005e-02,3.606684207916259766e-01
5.865753804970258445e-02,4.018221693971729680e-02,-3.045941300435172638e-01,2.388161887911485412e-03,5.723691645965308522e-02,4.149612078898143319e-02,3.749573528766632080e-01
1.517182428907339342e-01,-3.390212796360780878e-02,-4.772331913819634619e-01,-8.282150143671899306e-03,-3.528154463070587769e-04,-1.588459921757440219e-02,5.605816245079040527e-01
1.150606516964683967e-01,2.943643679070032104e-03,-4.631486704258626075e-01,-2.953371019163440140e-03,-1.016992313838859180e-03,-1.844775459716417381e-03,5.311390161514282227e-01
1.861812952400015986e-02,1.027745761446020312e-01,-4.521106330867391554e-01,2.978692623487335343e-03,-6.821284632104680605e-03,1.049071041641470815e-03,5.181237459182739258e-01
7.553819895845567678e-02,6.766431884792767359e-02,-4.212543702991531358e-01,9.756331088402672366e-03,1.248266310690032514e-02,7.371893260424012238e-03,4.938311576843261719e-01
4.683895165547297124e-02,9.106442891606553180e-02,-4.483912778464974602e-01,-6.226384214510116005e-03,1.534048146661081552e-02,-2.607507561239731132e-03,5.195703506469726562e-01
2.052671033835029579e-02,1.071232667336730893e-01,-4.531554591556719580e-01,-4.877716273900821985e-03,-6.606284512340752750e-03,2.926400273847148742e-04,5.225854516029357910e-01
3.888872086458300403e-02,9.341374439308647304e-02,-4.500043598326889938e-01,-3.477886152541657602e-03,5.990278295652064385e-03,-1.835573154464517414e-03,5.184596180915832520e-01
1.736755634859643571e-03,7.557144883390765067e-02,-2.756411563734396664e-01,-1.291818609390615706e-02,1.112187863157426959e-01,6.434514085272600992e-02,3.910250067710876465e-01
6.129543118120733824e-02,7.457028166030063576e-02,-4.455891104954990412e-01,-5.737240067127697286e-04,-1.374442387107764271e-03,-1.391913839414955778e-03,5.136627554893493652e-01
6.440424176547890345e-02,6.993848477435063438e-02,-4.536271051085762340e-01,-2.821867967490044454e-02,-1.892618382328781559e-02,-4.261224891267406667e-02,5.293060541152954102e-01
8.838189259304576884e-02,4.502114758023315066e-02,-4.624192087965903197e-01,-2.226978049390723399e-02,5.930290565459309104e-03,1.560415502021626852e-03,5.319581627845764160e-01
6.804766154393654398e-02,6.837506286792682797e-02,-4.441097411151925800e-01,-2.545331056646796264e-03,9.577992055923043122e-04,-2.149137675307517988e-03,5.123563408851623535e-01
7.031822920684193887e-03,6.575849925106559690e-02,-9.150710519815842547e-02,5.321928404105780858e-02,-5.483927815149895052e-02,4.122001114740065503e-02,2.038670927286148071e-01
5.419514456458257579e-02,1.176928139259329070e-02,-9.615386791600055716e-02,3.413916824605540967e-02,-5.122037098891397966e-02,5.885524775511439405e-02,1.994616240262985229e-01
5.878671117762387932e-02,1.096494246138594586e-01,-4.732634754736256277e-01,1.209001777602539997e-02,-1.282060125761666225e-01,2.138461720745454993e-03,6.020701527595520020e-01
1.469021533297545923e-02,1.498217819491423630e-02,-2.350295838831421846e-01,1.294245810943619188e-03,-1.481118461429304506e-02,-1.391859390411544911e-02,2.523435950279235840e-01
7.449307466270022049e-02,4.756770912196925383e-02,-3.844850127323216071e-01,-5.505235722785423343e-03,-1.581684329333554392e-02,2.390260127181379531e-03,4.470864534378051758e-01
5.937065752361156412e-02,4.380171714143135664e-02,-2.489593568170002935e-01,6.162262559904686798e-02,-2.902827716284192561e-02,7.953520520144459482e-02,3.512932360172271729e-01
2.572865099349261331e-02,9.056705879882620547e-02,-4.518943832232101832e-01,2.402190804593769269e-02,-9.387670521173641439e-03,6.786770990394539078e-03,5.151988267898559570e-01
3.530188967207906203e-02,5.708279996982970617e-02,-3.077831021534473965e-01,-7.435657961434123317e-03,-5.966510721614477070e-02,2.224030756401779510e-02,3.714619278907775879e-01
5.762586522245363718e-02,7.583999502603142040e-02,-4.458471295079269869e-01,1.499152239892527407e-03,4.286140268364555320e-03,-6.484842962176042176e-03,5.130059719085693359e-01
6.540397447083967641e-02,1.040300102331584708e-01,-5.185172495278254079e-01,3.487015961462004709e-02,-1.446325745829362200e-02,-3.903384422620241080e-03,6.077265739440917969e-01
5.165950766359689306e-02,6.770953068492413518e-02,-4.411182370542007791e-01,3.083526587093831511e-03,-1.027728599243381800e-03,-1.259078871811613850e-03,5.010319948196411133e-01
4.484445260425587443e-03,1.148210893623301532e-01,-4.786519810487918081e-01,6.419524189968194017e-02,4.695395436590047572e-02,-4.972516496746984954e-02,5.703486204147338867e-01
2.023043660618623063e-02,9.543401226390824110e-02,-4.483166481056123365e-01,5.195203479751428488e-03,-1.327207034299900763e-03,2.309180143731460848e-03,5.104219913482666016e-01
2.968893775944903002e-02,8.351921350807325894e-02,-4.436431331672375800e-01,1.272661869196189260e-02,1.674476308744410509e-03,6.656459981720204899e-04,5.029077529907226562e-01
5.162741163439849013e-02,6.692003832763365745e-02,-4.460060768874763437e-01,2.053915184792488163e-02,-9.410419543096716416e-04,7.965116690042484474e-04,5.067082047462463379e-01
5.700212508431815039e-02,7.379375006206481680e-02,-4.018981028912068654e-01,7.904150715124283119e-03,1.240779570992999858e-04,-1.020751416460929061e-02,4.680567383766174316e-01
5.717218922470260201e-02,5.737007628033266582e-02,-3.700479729202546531e-01,1.257325070285719888e-02,-2.058226527244860771e-02,-8.397133258005180789e-03,4.296025335788726807e-01
4.396820315560839854e-02,5.432623694830118755e-02,-3.447763261489646403e-01,1.066672375679838039e-02,-7.882786833019185774e-05,-2.348473633511665923e-02,3.965503573417663574e-01
6.919400339141934531e-02,7.269743399315389820e-02,-4.300075747072688581e-01,4.413394635275747109e-03,2.693427389176477693e-04,-4.132537180961745951e-03,5.010721683502197266e-01
7.092143373914377991e-02,7.775143674625575874e-02,-4.462220312323015858e-01,2.547907279724799176e-03,2.336946168398389753e-03,-5.239005814253024085e-03,5.207055807113647461e-01
5.050887193238684514e-02,6.581066828739054464e-02,-3.756618093384493373e-01,7.747298388972591668e-03,-7.487568869782406690e-03,8.090889845591820286e-04,4.344272017478942871e-01
8.345512025103080100e-02,4.862226802960858962e-02,-4.503598416393260750e-01,-1.979104380159924566e-03,1.258437920600934731e-03,7.230532303274105933e-03,5.174463987350463867e-01
4.065223236219046854e-02,-7.988950016767033813e-03,-1.927240615515592170e-01,-6.341481864721473793e-02,-1.492295190056309728e-01,-1.053181168266136836e-01,3.970228433609008789e-01
6.069045054925942262e-02,4.817196657911065882e-02,-3.484135706363134521e-01,-1.497327801807295591e-02,-7.239383841284623144e-02,-7.698805497200512937e-02,4.433713257312774658e-01
1.813605781854427113e-02,4.982774261360398138e-02,-1.577673987938394695e-01,-2.165075454131536528e-02,1.560991057684931252e-02,-5.787902113877212845e-02,2.229535430669784546e-01
5.133923880298471576e-02,6.921995982501844002e-02,-3.816873394801486574e-01,7.625990359901040419e-03,-4.076837901722724956e-03,-3.044302454417896486e-02,4.456222951412200928e-01
5.196012923475218370e-02,5.970671116747475193e-02,-3.751081047129184443e-01,9.907691685282722649e-03,-3.639655348995142134e-03,-1.705858597073556943e-02,4.323919713497161865e-01
1.812908890199396716e-01,-4.706881270146540119e-02,-5.317185984623692407e-01,7.970980855888334937e-03,-9.214566981170950466e-03,-1.760076893476403628e-02,6.317299604415893555e-01
3.909681598636144395e-02,3.681966151853442726e-02,-2.942684439912177097e-01,-5.653255842643232360e-03,-6.017569350850589249e-02,2.889794313533552636e-02,3.519132733345031738e-01
6.651281730314570484e-02,6.367254594351129393e-02,-3.974428318473832156e-01,-1.180670720634405257e-02,7.827494327054227178e-04,1.092247374351775109e-02,4.633822143077850342e-01
5.699724344074083571e-02,8.415809304458751750e-02,-4.564074483743256194e-01,1.399716822725571852e-02,-3.985649675631643823e-02,3.942768458398571846e-03,5.326036214828491211e-01
2.660454080998859994e-02,3.014150211830991799e-02,-2.659189320619068098e-01,-9.840493683661881083e-03,-2.682081832962453227e-02,2.082078134921632254e-02,3.006097674369812012e-01
7.429965822782830243e-02,7.457131875824227207e-02,-4.407287677590939201e-01,3.015940457574814893e-04,5.329036235077472131e-04,1.776846430072767311e-02,5.160838365554809570e-01
5.688667498510541209e-02,7.247332744231568813e-02,-4.463662111737253246e-01,-4.715293537782000444e-02,-9.535979116587020186e-04,-1.412986076723788190e-02,5.182878971099853516e-01
3.095625762529588543e-02,9.206701099950773126e-02,-4.498347396473091342e-01,-3.606212925665082912e-03,8.412613221360543819e-03,6.111261678532905854e-03,5.144311189651489258e-01
1.815816700726596844e-02,1.322219515144674173e-01,-5.072642520233708874e-01,-5.749704256417331738e-02,-1.704379160913280927e-02,-1.161781588416586214e-02,6.001708507537841797e-01
2.618280243542719932e-02,8.544082763498753175e-02,-4.497931710999945598e-01,-2.277937510608129407e-02,-8.885610708240185632e-03,-7.862479475158123477e-04,5.099661350250244141e-01
4.586504463104976170e-02,7.995800096996119599e-02,-4.453904374835896962e-01,-6.822661850324195434e-03,-4.247007978527840046e-03,1.669124644839220127e-03,5.093572139739990234e-01
5.070358678334641045e-02,8.275192565138250744e-02,-4.454632376490154644e-01,-1.739424085949551561e-03,5.144849476087636278e-03,3.431298547166130274e-03,5.130630731582641602e-01
4.717650126820371881e-02,8.633824728823732975e-02,-4.559920416032551271e-01,-1.152743602977303675e-02,1.153878394061994732e-03,-4.841914826758526337e-03,5.242996811866760254e-01
5.892112311291619609e-02,1.168964387706868391e-01,-5.146628228689418272e-01,-2.166427132978345979e-02,-2.869810127129562849e-02,-1.630652383108911752e-02,6.085144877433776855e-01
5.766516691877071610e-02,7.831532124157522534e-02,-4.479946381849887471e-01,-8.088846885225009845e-03,-7.168177281285556882e-03,4.240813905487776300e-03,5.166862010955810547e-01
8.194685394740519602e-02,4.352360268133018129e-02,-4.455899157736346594e-01,8.734549928604062874e-03,-3.216202925006669388e-03,-3.422248128578974421e-03,5.097026228904724121e-01
9.776746226819460484e-02,2.123546829107669787e-02,-4.468400919877597577e-01,9.648049012223965451e-03,-3.516225816284066809e-03,-1.961066496019394853e-03,5.109819173812866211e-01
1.104220144719699759e-01,3.904461813498116829e-02,-5.056520331604692498e-01,6.093779168107468780e-02,-9.100595813277252352e-03,2.521311709263650454e-03,5.933598875999450684e-01
7.421268572341851999e-02,5.813044179374698972e-02,-4.473610007550728462e-01,1.784917435054877554e-03,-4.211026495247277741e-03,6.443090116106652346e-03,5.139036774635314941e-01
7.842091038834303474e-02,5.788676355546004682e-02,-4.192174806627502193e-01,-1.037117064155294519e-02,8.699167118716022093e-03,-1.052943040824694948e-02,4.885993897914886475e-01
6.123988435607399805e-02,7.175977381796477816e-02,-4.444205114296074233e-01,4.913591830276830934e-04,-8.666918055818783858e-04,1.146647142705542249e-03,5.110083222389221191e-01
8.778889568818282196e-02,2.920813776515773785e-02,-4.426449652802321166e-01,2.544227997906937239e-02,-4.267555663245382359e-03,2.958278707937972299e-04,5.056831240653991699e-01
7.658887157696858683e-02,5.741878398301245023e-02,-4.475911953791583686e-01,1.997904818585370928e-03,-5.819678184426472362e-03,5.836584761769730324e-03,5.150722861289978027e-01
7.632703630182141596e-02,9.173236804535159217e-02,-4.968379857958948320e-01,2.357285040885431782e-02,7.511317888768784257e-03,-1.965135247999277510e-02,5.835924148559570312e-01
3.137268389280420400e-02,8.817271290353007052e-02,-4.492489054904004742e-01,-9.072009088581032069e-03,-9.166103412546814516e-03,-5.163388905292262687e-03,5.119585990905761719e-01
4.682494971324835387e-02,6.462252808243942881e-02,-3.585290667729467140e-01,1.016550484055753559e-02,1.029494976241120217e-03,-9.162372958816207211e-03,4.152204096317291260e-01
2.875799978575128979e-02,-3.483280651299961589e-02,-1.265386545831660159e-01,-1.053208764624778693e-02,-3.519203003738968077e-02,-9.604355727664513898e-02,2.236218005418777466e-01
9.102515439503042205e-02,4.663208229013887651e-02,-4.560063825773313373e-01,-6.435060789726698087e-05,-1.036518174211302230e-03,7.793946808660722966e-03,5.264174342155456543e-01
7.647625251848977346e-02,6.810589890683693692e-02,-4.358689477484621877e-01,-2.435844045669550983e-03,-1.823954511313419366e-04,-1.016824681958861717e-03,5.082324147224426270e-01
1.026625560625509248e-01,1.668925076470961777e-02,-4.505302994218378654e-01,6.087399042595033685e-03,1.695171674612208580e-04,-1.887694592901840345e-03,5.157284736633300781e-01
7.817940186438393502e-02,4.443908641570948337e-02,-4.459294184998247590e-01,4.020430754363474649e-03,-5.310555941561344306e-03,4.513503443252402103e-03,5.082706809043884277e-01
7.450741123538701105e-02,4.562374921737166744e-02,-4.614119515500283986e-01,2.389141613695697219e-02,-8.434918898660690584e-03,1.084459346184394810e-02,5.242548584938049316e-01
1.116456240918460019e-01,1.060351172893808647e-02,-4.563858353343656082e-01,4.928630672099334337e-02,4.809639644424766255e-03,4.521078293553297545e-03,5.318762063980102539e-01
1.154595105276074452e-01,1.495687954740954062e-02,-4.703224055035821749e-01,1.202819604262719139e-02,2.816647356024642654e-02,-1.399365168296407523e-02,5.456832051277160645e-01
1.370928962635348247e-01,-1.098137344857827435e-02,-5.060036784520716147e-01,3.929406410470187225e-03,1.926063869570493817e-02,6.113016188493605035e-03,5.844180583953857422e-01
1.016533229035955777e-01,4.913226248747792901e-02,-5.113043306321445325e-01,6.616187814688591351e-02,-1.874989901087320207e-02,1.253407027731706647e-02,6.007832884788513184e-01
3.171195071555872602e-02,-1.651092848327200685e-02,-1.764682119993246923e-01,-2.870186568702303917e-02,4.993187997522818139e-02,8.847945208643781534e-02,2.627968490123748779e-01
4.847091646996215530e-02,5.685164909656095777e-02,-3.566227930720972661e-01,9.551957224141026728e-03,5.193501519379156110e-04,1.819853217177911514e-02,4.108944237232208252e-01
5.913772677079562334e-02,7.809204433616559471e-02,-4.246874719219663197e-01,1.629447674929814741e-03,-2.071176370660131588e-03,1.410892687388937833e-03,4.936025440692901611e-01
7.054864008516031904e-02,6.493080857593522270e-02,-4.068454208433440744e-01,1.034099203075226729e-02,5.915416528402898423e-03,1.040371621177358687e-02,4.754000604152679443e-01
4.098870204811949636e-02,5.005394703543517010e-02,-3.331526119885254711e-01,-4.501118851794589856e-03,-1.414568802022646461e-02,2.372577359504739886e-02,3.818447291851043701e-01
1.062745536511623332e-02,3.812531483908247754e-02,-8.643768583921865312e-02,5.697869912737511811e-02,-1.849341375881955601e-02,8.996915014253431542e-02,2.188514024019241333e-01
1.007568800078877391e-01,-1.819230175572129557e-02,-1.405996668688451190e-01,-6.807741324154729934e-03,-3.243520256595013723e-02,3.247428303290469248e-02,2.239455878734588623e-01
6.741128555665293343e-02,5.572705701169014536e-02,-4.411430613054213579e-01,-1.646049522057427359e-03,-2.285175997483236167e-03,-2.505838875196247754e-03,5.028564333915710449e-01
3.587924719075927249e-02,5.291684269170207622e-02,-3.088855072394030010e-01,-3.954134172109359416e-05,3.030125107106138027e-03,3.632674428668176275e-02,3.591843843460083008e-01
3.771365455076099160e-02,5.513251839844329760e-02,-3.240952173997451724e-01,1.028206499100446647e-02,1.212612539226489740e-02,2.071007722448483732e-02,3.735724687576293945e-01
4.976886434105101675e-02,3.386591239935672626e-02,-2.401814690086546134e-01,4.879036759285024921e-02,-3.780695959569344705e-02,1.368520771724516527e-01,3.838334381580352783e-01
5.844894905967906729e-02,-2.483154390425307972e-02,-2.466159198885324866e-01,2.888148709415920556e-02,-5.017028507744921567e-02,9.652164598012873131e-02,3.355549871921539307e-01
1.759560212425545500e-01,-2.318932486743228993e-02,-4.857322942830475387e-01,6.090002512581534078e-02,-4.972210508409208307e-02,8.472394769077964960e-02,6.211246848106384277e-01
1.146878493731624260e-01,3.160080684130531226e-02,-4.425637449183257854e-01,1.942626224473519708e-02,2.912712893241869994e-02,-6.972319396506262978e-02,5.379532575607299805e-01
1.151274373766289216e-01,-4.736653879252470528e-02,-3.768710682842714155e-01,3.283375680078266974e-03,1.382206777866150892e-02,-6.262507663149555204e-02,4.482088983058929443e-01
1.763431692819867336e-01,-2.738676350513966073e-02,-4.242728867513694269e-01,7.235965519162208814e-02,3.860363677151613243e-02,-6.248560486748837295e-02,5.583671927452087402e-01
1.220069891552816310e-01,3.143519965033927943e-02,-5.166740419543072171e-01,1.138588234950838884e-01,-2.700325940286229034e-03,-9.657092153944274449e-02,6.520440578460693359e-01
8.404910770720100399e-02,3.128754111131326621e-02,-4.432412662396328362e-01,1.127787367957685735e-02,4.601952573369314133e-03,-4.417922362811289166e-03,5.034897327423095703e-01
6.199404729243279677e-02,6.252310085411380558e-02,-4.422879586983644584e-01,5.114319921245019489e-03,-5.446651268016528945e-04,3.492559334026166759e-04,5.046257376670837402e-01
7.451656949962298659e-02,7.152401229855531728e-02,-5.118079605383073494e-01,3.973607744441420841e-02,-1.865706891557911487e-02,3.654827190808019807e-03,5.897898077964782715e-01
9.797221449812357208e-02,2.022174447428631838e-02,-4.462740375392685310e-01,7.708176373515973970e-03,5.644381794352087219e-05,-5.599047424543168207e-03,5.101039409637451172e-01
7.300022730542143901e-02,5.633593154839619532e-02,-4.163194134075615671e-01,-1.771272369863186903e-03,4.397448825102885303e-03,1.118662945890233802e-02,4.816638827323913574e-01
6.127854795138151789e-02,-1.993128399337261436e-03,-2.227277807166130608e-01,2.215858591310861797e-02,-5.415241673477481921e-02,1.064685133520540949e-01,3.331222534179687500e-01
4.701327001188590482e-02,5.765060888078610279e-02,-3.547751593789694735e-01,-8.803012204767859603e-03,-8.877732642248881839e-05,1.194301036459443494e-02,4.080213904380798340e-01
4.733704207584454871e-02,7.004030905802069440e-02,-3.785794609388808962e-01,-2.692554641915269418e-03,9.013150393576014599e-04,1.781906575857715447e-02,4.388242661952972412e-01
1.540099002402567363e-02,1.766475469605149895e-02,-1.673478271040056697e-01,9.936847403726736458e-03,6.596805717136717921e-03,2.465815477573620254e-02,1.899126321077346802e-01
8.477023842125022690e-02,6.442198393103193421e-02,-4.340390229331758110e-01,-5.198599546821549558e-04,3.105603856221081198e-03,-7.667621847608382902e-04,5.089712738990783691e-01
8.180881978507414942e-02,6.742353241633636252e-02,-4.357075284079205968e-01,-4.945165141993895438e-03,5.610862161228016495e-03,-3.227102647996692251e-03,5.106706619262695312e-01
4.488186401232932554e-02,8.888429029845898444e-02,-4.513114870410103729e-01,1.251448016304713929e-03,9.821430578759608732e-03,-5.026918434309063551e-03,5.199496746063232422e-01
8.188615080793257284e-02,6.265887924519134011e-02,-4.297693462240812501e-01,4.928343614773272830e-04,5.583464550593840925e-04,1.201131916920467643e-04,5.023196339607238770e-01
8.483904226547261951e-02,6.284763360574069369e-02,-4.338468756666070680e-01,4.863970088370613573e-04,1.767632814387515641e-03,9.397445307070851099e-04,5.080598592758178711e-01
8.441585852872707241e-02,6.323829466911165542e-02,-4.338432298151636557e-01,4.418569865591954679e-04,8.614455384376289724e-04,-1.032762117685905295e-05,5.080042481422424316e-01
6.151032290116570378e-02,7.280371730477350201e-02,-4.256254621556133655e-01,7.902926847411764679e-04,1.090920345346214904e-02,-1.342995405875319829e-04,4.932435452938079834e-01
8.545181550187583297e-02,6.289230625261424401e-02,-4.352619702180408057e-01,-7.759014891015407998e-04,3.284186167892434033e-03,1.096393394355904246e-03,5.098455548286437988e-01
8.429876968065314058e-02,6.165957780176214986e-02,-4.320485073542812415e-01,-2.899402074196864073e-03,6.743687642110893048e-03,-1.887752101544801784e-03,5.055785775184631348e-01
1.816335372692265415e-02,1.394240038069028964e-01,-5.046324679568343630e-01,2.977433277057497940e-02,-6.185424924057070575e-03,-3.117541906732276651e-03,5.951618552207946777e-01
7.867726287160067833e-02,6.803043377048492713e-02,-4.346858603034340351e-01,-3.700770025275806549e-03,2.722515787996187403e-03,-8.983970645070769780e-04,5.081880688667297363e-01
6.860645723278524510e-02,7.777113087329792784e-02,-4.182421240037595411e-01,-1.044650642009851103e-02,5.965333484912448830e-02,4.460324389957798230e-02,5.084669589996337891e-01
2.692509005256935040e-02,1.126510062759743802e-01,-5.064239780284718329e-01,2.184984829140898532e-02,-5.573497023131817815e-03,1.291033805353901040e-02,5.827155709266662598e-01
7.936544308700213546e-02,8.633139339514511734e-02,-4.968831415611733027e-01,3.057016617724996055e-02,2.156132319993699347e-03,-3.024555768734056398e-03,5.822113752365112305e-01
5.665441503096760312e-02,7.644051286829467440e-02,-4.462545361343298600e-01,1.892504544271309160e-03,-5.769428209787397580e-03,4.062946168101013583e-03,5.132442116737365723e-01
5.204162548185090054e-02,8.207018190903775379e-02,-4.464214052632250462e-01,1.591818304072776125e-03,-4.728422557891263922e-03,3.132769626592441219e-03,5.142366886138916016e-01
6.219369139689634451e-02,7.994726433721824344e-02,-4.460250074156141276e-01,1.011355350005080063e-03,-8.717963282904101635e-03,-2.916704250821599165e-03,5.175719857215881348e-01
4.327170957854722944e-02,9.159413121196352536e-02,-4.448356361395653935e-01,2.150523194060150866e-03,-5.357487511966833697e-03,1.987541086483299042e-03,5.140838623046875000e-01
4.954178770045636337e-02,8.210118951971759338e-02,-4.445119504561438339e-01,-9.603699943154021292e-04,4.596295590905166185e-03,1.322576388603127111e-03,5.111816525459289551e-01
6.198108906268537388e-02,8.149323264709837367e-02,-4.481698381046677615e-01,-2.383989651320224954e-04,-8.356815562912671413e-03,2.220119767444482094e-03,5.203972458839416504e-01
7.778020586200262709e-02,7.022163891187896412e-02,-4.405178139460687037e-01,3.884424156824779761e-03,-5.596431513359120639e-03,5.421061929947987345e-04,5.146964788436889648e-01
7.823199847283870967e-02,7.055391706771760307e-02,-4.380034104992722721e-01,-2.367344012867164324e-03,-1.689098904254873051e-02,2.217923833103594040e-03,5.133047103881835938e-01
7.996990090252040217e-02,6.996067995285867869e-02,-4.406869909550156228e-01,-6.134590092540437756e-05,-7.093075297048686764e-03,-1.602108989580683330e-03,5.158789157867431641e-01
4.990782700483364920e-02,7.200034290991805253e-02,-4.437253902428265895e-01,-1.614684659799340768e-02,5.477167957729367834e-03,5.913349279387066469e-03,5.060083866119384766e-01
3.645579541389126765e-02,7.897422426099864889e-02,-4.444419923253558058e-01,-5.762953455793993172e-03,2.783582958047989622e-03,2.193474730514473076e-03,5.036415457725524902e-01
9.157129272062511371e-02,4.009157105758096029e-02,-4.471151848584353772e-01,1.363140022595633188e-02,-7.290625453285570767e-03,1.475161945299108615e-02,5.162088871002197266e-01
6.540385602225060047e-02,6.395214289489234427e-02,-4.085896634431818719e-01,-2.719934859594410649e-03,-6.344065956802018985e-03,5.221982351659684891e-04,4.734211862087249756e-01
6.651963185909945397e-02,7.914896084748873628e-02,-4.284030458627157700e-01,-8.143426736119284068e-03,4.272529908862114970e-04,-1.864247447257291182e-03,5.015659928321838379e-01
6.715208488090043670e-02,7.376997524220541003e-02,-4.260303936330990804e-01,-7.320541605023314288e-03,4.260157435918568913e-04,-3.162916683487591168e-03,4.967171251773834229e-01
7.346342650032322563e-02,6.302103773792414043e-02,-4.324425096638218058e-01,1.944799258767419044e-03,4.327596664304291657e-03,7.579660103504408820e-04,5.008355379104614258e-01
5.723875436115699600e-02,5.721952915357442215e-02,-3.665210412627601388e-01,-1.081065476793756884e-02,-2.045738885487355038e-02,4.656200867325054754e-03,4.257175028324127197e-01
6.895990488899300663e-02,6.340748408147864335e-02,-4.041511952106486838e-01,-1.040424758857190837e-02,1.426858637089876113e-03,9.937908982125329485e-03,4.710256457328796387e-01
5.247006973804699270e-02,8.982598219853640820e-02,-4.434856906807886912e-01,3.242430778384219198e-02,-1.171603411449955584e-02,4.751968364214763027e-03,5.191608667373657227e-01
7.038253844956351979e-02,6.236342311557074858e-02,-4.448405783279087422e-01,1.205907258683681666e-03,3.465193876388294493e-03,-2.973778201203686362e-03,5.113261938095092773e-01
7.575712998129360831e-02,7.622853392481310220e-02,-4.488317936099035510e-01,2.769169386151516800e-09,5.958969890201358912e-05,2.342574677096506892e-04,5.248249769210815430e-01
7.685950692665854955e-02,7.676999318027577512e-02,-4.490430854827480167e-01,1.287784989041492953e-03,5.585869467897731228e-05,2.317518208323692626e-04,5.258627533912658691e-01
7.593051664782077270e-02,7.585553426273081157e-02,-4.491534208098686420e-01,-6.949787303476624061e-05,2.896167876878361821e-09,-2.319876989511080779e-04,5.250466465950012207e-01
7.462209552220128161e-02,7.470696136392115938e-02,-4.477981307662491361e-01,-9.996556397154639337e-05,4.900394133846642294e-04,5.709044535737743589e-04,5.224643349647521973e-01
7.423199447079839586e-02,7.572989482311820453e-02,-4.448253062462044216e-01,2.239809948501838427e-03,-2.256021130487383250e-04,-1.207591437891033809e-03,5.198267102241516113e-01
7.604817493086635238e-02,7.443688835331485620e-02,-4.449937325013296197e-01,1.993704877536481204e-03,-1.610710693637451302e-03,1.278668719415338394e-04,5.202571153640747070e-01
5.960210322075315537e-02,5.918632402329215836e-02,-3.624406525474544449e-01,4.723006676011017209e-03,5.866409204076632883e-02,5.327332206077733251e-02,4.436781108379364014e-01
-3.480786737309074508e-02,5.619305973151379752e-02,-1.899362720648216651e-01,1.950931503599719150e-03,1.162120026986887267e-01,-1.639132700071927254e-02,2.963038086891174316e-01
-1.084312447873830854e-02,8.013022836893834988e-02,-3.124731997121784621e-01,-5.051128561892438175e-03,1.297370659503793155e-01,2.719995602321764738e-02,4.236606359481811523e-01
-2.619540459530292353e-02,4.837635656703223597e-02,-2.060833680561635350e-01,-1.251528366461257535e-02,1.108113393326600471e-01,3.757417114111197970e-02,3.047589063644409180e-01
6.367458594668426453e-02,4.272387430255369933e-02,-3.607635202123562479e-01,1.392778450235862379e-03,1.032024341466335389e-04,-9.702499756754356941e-04,4.143706560134887695e-01
4.882218344982384300e-02,7.535284023335833692e-02,-1.444947825944817854e-01,-1.045652485092582809e-02,3.382309638139786856e-02,5.639790182453575940e-02,2.377106249332427979e-01
2.927055785931814702e-02,5.175252422491985471e-02,-3.051536575417597152e-01,5.800540885754652647e-03,9.659050465111531508e-03,2.695696605162288192e-02,3.498919308185577393e-01
8.102861132928014520e-02,-1.957171624274455651e-03,-1.581828677450920484e-01,-3.129790636338800058e-02,6.843778489645306606e-02,8.358102436787141765e-02,2.867138981819152832e-01
4.028491443386673920e-02,2.994578840975736789e-02,-2.875646335876529958e-01,3.957775546975156322e-03,-4.046534518644879369e-02,1.288593573035995699e-01,3.987180292606353760e-01
7.597137632529318840e-02,5.156908316363228995e-02,-3.673078737969385221e-01,6.336374950686983649e-03,-3.403961952877691127e-02,7.722075621012801372e-02,4.558076560497283936e-01
2.908381788727368300e-02,4.243519676633455973e-02,-2.935326597520833136e-01,-8.001149286272083230e-03,-6.804812884808894916e-03,2.419687970822372025e-02,3.326476514339447021e-01
9.581310471325932276e-02,4.562915787789881272e-02,-4.559900535015950496e-01,-3.066154983305650634e-04,-3.999386287064666048e-03,8.234026321908734236e-03,5.287392139434814453e-01
5.852868334829848529e-02,-2.491192784012624326e-02,-1.945136633226824674e-01,-8.310472070518418533e-03,3.986752747438130490e-02,6.853056656769852817e-02,2.625709772109985352e-01
6.088875370592376768e-02,2.559369089265409181e-02,-2.338267469155788369e-01,1.987272560965892484e-02,5.986287927380399762e-03,1.381900922012634925e-01,3.691649436950683594e-01
5.199868524795027425e-02,-2.619091504204881793e-02,-2.025161228323324181e-01,2.739497366219482977e-02,-3.113675587814582202e-02,7.958192384521163565e-02,2.741364240646362305e-01
2.679595311548117753e-02,5.179652883608414082e-02,-1.828272714034322177e-01,-5.409221344824442085e-02,5.574434896563883191e-02,6.046525352327752900e-02,2.808486521244049072e-01
5.077808568116465304e-02,3.361756552879791027e-02,-2.678905969454736802e-01,1.093762172100810719e-02,-3.648865859729952948e-02,8.262063886567376503e-02,3.481484651565551758e-01
9.659170368729610989e-02,2.421902488675314880e-02,-4.284426536181941136e-01,5.042338260329654910e-03,5.042600271872777276e-03,-1.140180915886110889e-02,4.933997392654418945e-01
8.447579250198031242e-02,6.538430343384701859e-02,-4.345429511888130314e-01,-7.675183014862846332e-04,-1.418198170504493408e-03,9.233836608033603325e-04,5.097513794898986816e-01
8.223041082294479942e-02,6.682968215085249852e-02,-4.353525737191101252e-01,-1.247333849257144852e-03,2.297154432266981794e-03,-1.554509628866654856e-03,5.100842118263244629e-01
8.085597390744178603e-02,6.550810692730663076e-02,-4.340938995745113327e-01,-3.489920848019847574e-03,-8.836730616751344762e-04,1.021648622769502201e-03,5.074914097785949707e-01
8.292471251847371994e-02,6.691321180229761745e-02,-4.372825329833214258e-01,-2.977109531221732320e-03,4.404031179902362196e-03,-8.407285490419030925e-04,5.124739408493041992e-01
8.102976279267939952e-02,5.872439450486016677e-02,-4.172275400975716253e-01,-4.395218148958405721e-03,-1.226191064777219352e-03,-2.087741030516537376e-03,4.875649809837341309e-01
7.247804768934187902e-02,5.635991283887470393e-02,-3.989897029685980367e-01,-8.091155597044966466e-03,8.192510426903196891e-03,9.138643916875268313e-05,4.640476703643798828e-01
6.998628273666759880e-02,6.990630547104109693e-02,-4.437823382745851863e-01,1.542290141842151286e-03,-3.354070591623488709e-03,2.416635200246799488e-03,5.137854814529418945e-01
7.582310882280604569e-02,4.345859959197870270e-02,-4.461475150330383999e-01,-1.740086914851362437e-02,-3.308573668968136511e-03,-1.034604308929490749e-02,5.078088045120239258e-01
1.831767222632872394e-01,-1.367803761284902553e-02,-5.390699861558305717e-01,2.747092128743096329e-02,5.157898164676256308e-02,-5.690995580485749827e-02,6.619484424591064453e-01
1.262412201621942454e-01,-3.500829758670825909e-02,-4.712623950778491166e-01,-6.939445007835925994e-02,-6.002605529275648749e-03,-7.283772640548522026e-02,5.631480216979980469e-01
9.180150859342883773e-02,5.714629484751876376e-02,-5.049568515926359247e-01,-5.619882757215939606e-02,4.406286992283368030e-03,1.128037152780894670e-02,5.886897444725036621e-01
1.008473694877543292e-01,6.603716373260831718e-02,-5.201163946636095936e-01,-4.104592661195115982e-02,-1.391300892360649265e-02,-5.257366646916958666e-03,6.090236306190490723e-01
1.303863565001507907e-01,1.859213622425737178e-02,-4.730702005732851378e-01,-9.242243109480072216e-02,1.563576595330524663e-02,-3.716853682161577049e-02,5.828365683555603027e-01
8.425051911797287740e-02,8.098932974152661668e-02,-4.588648804856274577e-01,-2.314299295639021467e-02,-1.743475503604308835e-02,-3.187719311691897262e-02,5.466085672378540039e-01
6.069943860201124086e-02,6.709365352593052445e-02,-4.415165564091521055e-01,-5.140293463767925310e-04,3.981423025302868301e-04,2.876858821084561386e-03,5.054692625999450684e-01
1.066060533438324687e-01,2.372114765970739780e-03,-4.537415855762862993e-01,1.245909774917682532e-02,-2.590647085883293274e-03,7.290978606019518464e-03,5.168097019195556641e-01
6.632186544548282492e-02,6.066189493918539011e-02,-4.405023135153476876e-01,2.795151492828577919e-03,1.025913120619675314e-03,1.939944750465175441e-04,5.040445327758789062e-01
5.852870447426120060e-02,5.824989288158732847e-02,-4.383077296314649707e-01,4.961069758422478708e-03,-9.285754292505279776e-04,1.035119192636203356e-03,4.967772364616394043e-01
7.430126903237255220e-02,7.472790614597507597e-02,-4.476902323732975253e-01,-4.066014118590719449e-04,-1.067086616327106614e-03,1.351518693929062336e-03,5.222139358520507812e-01
6.167033181203901426e-02,5.985974019862694284e-02,-4.389660529365770336e-01,8.049907334297728631e-04,-1.582899356400799956e-03,1.366673458189504023e-03,4.997486174106597900e-01
5.390336600098247222e-02,6.661548001798325847e-02,-4.416239060945179595e-01,1.998513435136375221e-03,-4.578028077776338800e-03,3.864291967255130758e-03,5.021232366561889648e-01
3.136054924950570921e-02,5.359857220879102324e-03,-1.991997498977403358e-01,-3.009683931587328609e-02,4.058450325688756077e-02,1.150898376589428868e-01,3.086019158363342285e-01
4.007776675156957125e-02,2.877035915087691742e-02,-1.714201903708841568e-01,8.335931767595602948e-03,2.091780820896704893e-03,8.473465289889456353e-02,2.534348368644714355e-01
-1.146344064329438313e-02,9.424311664016854495e-02,-1.626462995723612359e-01,-5.283664497573377014e-03,9.072586704135460201e-02,4.211742128161004989e-02,2.830372452735900879e-01
3.556321516782007253e-02,2.182112673770469913e-03,-1.543869531182205102e-01,-6.750556845972560671e-03,2.103446843688125054e-02,1.252333620482639631e-01,2.817247807979583740e-01
4.554368216720827700e-02,6.306546460627260320e-02,-3.605385756145525478e-01,6.792673339153449188e-04,2.812122638768423371e-03,3.034444601385746093e-02,4.184645414352416992e-01
8.028109021321144789e-02,6.178350627097933812e-02,-4.344209321950278646e-01,3.273628776827569933e-03,7.803251288414490838e-03,1.118688980445995719e-02,5.062902569770812988e-01
6.227989610500758721e-02,7.326560886759039826e-02,-4.134890760106611496e-01,3.074825287617185925e-03,-4.214103029934506556e-03,-3.510105376151321371e-02,4.852642118930816650e-01
6.392306645516829255e-02,4.564765016987720747e-02,-3.640046928265071591e-01,3.583296373530811779e-04,4.461522231147325339e-04,-3.021961949955689723e-03,4.191228747367858887e-01
5.481889109198773147e-02,8.060102729888507511e-02,-4.092574215226870704e-01,-1.796874455119074759e-03,-8.544758417770612069e-02,1.624691404149117106e-03,4.999178946018218994e-01
2.672200830318118003e-02,2.938385560298936716e-02,-2.535549934529004457e-01,-3.531530811396971919e-03,-9.912461438031919259e-02,-1.458314693672419990e-02,3.308486342430114746e-01
3.846101448189533090e-02,2.857183812674470025e-02,-2.929617222308394386e-01,3.274356837356001346e-03,-2.652509401683361646e-04,-3.421146960566367242e-03,3.266937732696533203e-01
4.900837615266198655e-02,5.084104858285579120e-02,-3.335118197073855817e-01,-3.785949371198634589e-03,-4.179012057984343026e-02,-5.839989815993291283e-02,4.031624794006347656e-01
5.490787600944674329e-02,4.972883382420678622e-02,-3.363783318919527643e-01,-5.404493700236294093e-03,-3.786838950791548281e-02,-6.156682967668744566e-02,4.084927439689636230e-01
6.728587478225331320e-02,7.698586083377209621e-02,-4.358273922060758587e-01,-1.147687701019821068e-03,-9.092767311137761252e-03,8.253344504596319938e-04,5.082826614379882812e-01
4.734586700595616593e-02,4.379185063848252402e-02,-3.172392809230690225e-01,-9.650559186221509961e-03,5.355454894448308245e-02,-3.285352369942774048e-02,3.791581988334655762e-01
1.304696379169505427e-01,-4.171837330094173291e-02,-2.855243755473488299e-01,8.543384484096546924e-03,-2.833644605670458845e-03,-1.338565290637358796e-01,4.301933348178863525e-01
4.932042555897209191e-02,1.921970103869766189e-02,-2.508980611941611372e-01,3.156310479203366243e-02,5.480935697608931706e-02,-9.641012588488240276e-02,3.491217792034149170e-01
3.134755869415872809e-02,3.243042420154795824e-02,-2.694415249028615511e-01,-7.342162819329145496e-03,2.949274487531292066e-02,-1.709849747950485319e-02,3.073259294033050537e-01
6.629944104425086748e-02,8.052829298162308969e-02,-4.374531993726401002e-01,2.211889314190500742e-03,-3.727770337730819915e-03,-1.301237769310681011e-02,5.115675330162048340e-01
6.972535007183935929e-02,-5.161336231491777012e-03,-6.564420723261105151e-02,2.399272804720213939e-02,1.596179312477152487e-02,-1.540326384511776434e-02,1.303787827491760254e-01
2.356266194288192395e-02,2.483772909176763799e-02,-2.082916631568436927e-01,1.033000964769138080e-02,-1.342865943139144591e-02,-5.814589250579144108e-02,2.550639808177947998e-01
6.075642609852538456e-02,-4.446516798234724510e-02,-2.593038714960596014e-01,5.346480719952182575e-02,6.933209528577743974e-02,-1.464394710560933954e-01,4.088554084300994873e-01
5.296251556583245201e-02,7.156904122965665471e-02,-3.854870321649213061e-01,-4.092433817378393623e-03,1.756572777842377612e-03,-1.458264794021572539e-02,4.488203227519989014e-01
1.097534268981421590e-01,1.024021610064665411e-01,-6.712943355914171573e-01,-1.228971469813563977e-01,5.999818796142129818e-02,1.264107502610166134e-01,8.416635394096374512e-01
1.046860949656437112e-01,1.102603442952704293e-02,-4.719501779219946735e-01,-6.608911203895738440e-02,3.925122929100453850e-02,3.985960683916369568e-02,5.565657615661621094e-01
7.529160212630625626e-02,4.806961204209941885e-02,-4.803270193603722538e-01,-7.024219458626876356e-02,1.033933113880987908e-01,1.025870412991568281e-01,6.105511784553527832e-01
2.044433969492950864e-02,7.904657814342622157e-02,-4.747552196842979577e-01,-9.359471104410974074e-02,9.112693394466885033e-02,3.912822953063790909e-02,5.774616599082946777e-01
5.943129922519285735e-02,7.632177570163867220e-02,-4.486278807998180240e-01,-1.672041938399593253e-03,-5.788005538745068235e-03,-4.631076534012077209e-03,5.168790817260742188e-01
2.902055389878246960e-02,1.224476172074542291e-01,-5.393970957882682216e-01,-4.872130343435657207e-02,8.717630520435658628e-03,4.278370618033641715e-03,6.263681054115295410e-01
7.032744727854003952e-02,7.343312241597949042e-02,-4.423667986778689887e-01,1.426547304219036912e-03,1.079414739249084151e-03,4.434334182272330321e-04,5.142640471458435059e-01
6.845194125711701050e-02,7.239638196020253824e-02,-4.505475459009498085e-01,-3.936229236527738658e-03,-6.081342926378985672e-03,-5.130557306790075114e-03,5.212097167968750000e-01
7.910705749532440101e-02,7.440296578233032698e-02,-4.487675102431786245e-01,-7.590907632235445457e-03,-3.703673437660935045e-03,-4.392524831949410377e-04,5.257424116134643555e-01
5.582614491094387010e-02,7.602473102970852548e-02,-4.451173952362103559e-01,-2.029887304559782960e-03,5.027430576928180843e-03,4.949405232809706880e-03,5.115001797676086426e-01
6.440375665471470557e-02,6.881665001827080852e-02,-4.440822421917133278e-01,-1.273246806740499937e-03,3.127103010086395261e-03,4.062525496931700640e-03,5.107886791229248047e-01
7.393087355409286299e-02,7.214080707259207248e-02,-4.423115052766788402e-01,1.871114732705752518e-03,-4.855765649296852129e-03,-2.240121188468600835e-03,5.154430866241455078e-01
7.978759608502050682e-02,7.047044754168338421e-02,-4.432867733736462479e-01,1.810113581430562030e-03,1.609769180118566373e-03,9.391747596916420358e-04,5.184981226921081543e-01
6.480288143391563227e-02,6.412897990746249666e-02,-4.433262612628789956e-01,-2.732397116452930756e-03,1.633890269418993447e-03,2.248095356055526076e-03,5.078374147415161133e-01
6.461991010721374051e-02,7.928372492191876342e-02,-4.470698000886678680e-01,-5.883022522416217611e-04,-7.663829663923506924e-03,-1.029120085737269619e-03,5.193507075309753418e-01
7.789219262404262212e-02,5.342353137525165940e-02,-4.068913277154387886e-01,-4.760367785682377388e-03,-1.317047220887614112e-02,8.293972781881826795e-03,4.738633930683135986e-01
4.170790775920135696e-02,1.276994256020224650e-01,-4.948074600237156173e-01,1.590965004940165031e-02,-5.527880209293881825e-02,2.348541218109292256e-02,5.941046476364135742e-01
6.359210112450566776e-02,6.822140939369764068e-02,-4.154904355449155484e-01,2.615709020524871215e-03,-6.344043055966817717e-03,1.912075033115391912e-02,4.826980531215667725e-01
6.748731214095873843e-02,5.047234182350304743e-02,-4.443591806286367740e-01,-1.867709303344298327e-02,-1.302044256561160152e-03,-2.801887734820904946e-03,5.046210885047912598e-01
7.318141673803296721e-02,4.740596888092432626e-02,-4.445543367155523340e-01,-5.127964801192610132e-03,3.703417491317910915e-03,3.658275326947215290e-03,5.054997205734252930e-01
7.797410624072109719e-02,4.502741169274551702e-02,-4.451315898761792900e-01,-3.469231460580289757e-03,4.526876390241169230e-03,2.948903399181320925e-03,5.075570344924926758e-01
8.047573114289841012e-02,4.509812909583971186e-02,-4.451462232209963954e-01,-5.237367228761427920e-03,7.469924643559096604e-04,-4.403641595786743530e-03,5.089960098266601562e-01
3.178782429735622916e-02,5.417930348228480741e-02,-3.213457458345587714e-01,1.778121352782129592e-03,3.294675251568793088e-04,2.389912498829024901e-02,3.671991229057312012e-01
3.186512236971368595e-02,5.323080398775698052e-02,-3.099620597073432515e-01,-5.793753774683987542e-03,-5.712502346496662470e-03,2.583977214968300948e-02,3.561002314090728760e-01
2.803055766647669089e-02,5.292784444578241265e-02,-3.098936062168764494e-01,1.331050825581179663e-03,8.115631633652167082e-03,3.133223630123189302e-02,3.554912805557250977e-01
4.737099439571332282e-02,5.887616056172453871e-02,-3.557867783567801312e-01,1.183088215826858143e-02,1.425806711670725825e-04,1.723305298464618968e-02,4.106310606002807617e-01
3.653222967520061704e-02,5.035876438086811513e-02,-3.166502275956455392e-01,3.092684778779799387e-03,2.431004547658766404e-02,4.449929291728119130e-02,3.708834052085876465e-01
8.884031532577273127e-02,-1.459174754297291182e-02,-1.454098375080668804e-01,-4.935339518981688572e-02,1.655399372122298360e-02,8.283738062928053258e-02,2.646843791007995605e-01
1.402448394373130569e-02,1.819015071032993591e-02,-1.904383464190414765e-01,2.611124674229615538e-03,2.389816938004774710e-02,4.994688893742069841e-02,2.277982085943222046e-01
8.349678934061693925e-02,4.987362451309876321e-02,-4.463551174082760475e-01,2.043808559374339640e-03,-2.655430256040590496e-03,2.111221002708259763e-03,5.139117836952209473e-01
9.601740092493935008e-02,2.377593061189162138e-02,-4.525168408459112612e-01,5.984813006963235829e-03,1.600816006748386920e-03,3.413768649945402803e-03,5.163640379905700684e-01
9.100519401081269555e-02,1.352787725158671739e-02,-4.469004526576337843e-01,2.727253896779694570e-02,2.249494522818047421e-03,2.589748704557752208e-03,5.059015750885009766e-01
1.318166599826301466e-01,-1.956130306485052983e-02,-4.695316689208053895e-01,2.637859499925374312e-03,1.790263961590248453e-04,3.570716989739016259e-03,5.418149232864379883e-01
2.202532313594214308e-01,-3.317696611643189408e-02,-5.667862938844463461e-01,5.873126075451161332e-02,1.768733484551960472e-02,-1.499515879169622257e-01,7.502943277359008789e-01
3.487042542573662307e-02,8.436106052708136627e-02,-4.530425324147225874e-01,-3.572684691412122450e-03,-9.183675001416834183e-03,3.307875370101738370e-03,5.147617459297180176e-01
2.494457837881861040e-02,2.567108713918970220e-01,-8.091107729998409104e-01,-7.361010209048533814e-02,5.145229326981711621e-02,2.481736133684757373e-02,9.842331409454345703e-01
4.565580707475022648e-02,2.074368724192253710e-01,-7.906292403160283255e-01,-1.120140408424918632e-01,-8.417104761059972240e-02,2.600638515631089817e-02,9.600862264633178711e-01
3.671384250012374451e-02,2.425381851831270863e-01,-7.598456122789943867e-01,-8.658119052156920681e-02,-4.911647064195887036e-02,3.553236716080173004e-03,9.330520033836364746e-01
1.886298220655011071e-02,1.044710304912319920e-01,-4.784383197976335711e-01,-5.883003994655551516e-02,1.294566350281520783e-01,8.288319094813184629e-02,6.152065992355346680e-01
2.843874492262460363e-02,2.521096646218362602e-02,-2.160654627117359894e-01,8.266904602836241261e-03,-4.859654307386649524e-02,-8.631448493869287378e-03,2.579087615013122559e-01
7.741391864182381455e-02,7.161990789005986957e-02,-4.392910265767537847e-01,2.951448086598756557e-03,-2.007609018640103393e-03,-2.387447523811145941e-04,5.138698220252990723e-01
7.193325632937405678e-02,7.259485478143179460e-02,-4.342107714737525326e-01,4.097097060531510425e-03,1.427190656961956679e-03,7.999925672433847714e-04,5.065327882766723633e-01
7.405749106402256809e-02,5.914446641704215746e-02,-4.121225648641392847e-01,2.519642254665250148e-03,-1.184116788789920348e-02,6.242275858428672584e-04,4.793577790260314941e-01
6.142928378167586412e-02,4.316451814872285242e-02,-3.533836043233074542e-01,5.020408451177084050e-03,-3.691945909777961943e-02,-1.026846084174920168e-02,4.114704728126525879e-01
-2.104719055316522924e-02,1.195317233119647105e-01,-4.557926501788528428e-01,-1.967169787683909626e-02,-6.791388578984415732e-03,-3.589538351450706401e-03,5.207878947257995605e-01
5.531248026612589630e-02,5.054940051010414770e-02,-3.610183821268726501e-01,8.126708514081353724e-03,-8.326481812744923605e-03,1.598906093600036991e-03,4.144693613052368164e-01
-6.561701044699233543e-03,1.658412222150932314e-01,-5.447020513354956517e-01,1.897989244615477800e-02,-1.346069112761825309e-02,3.698111715898726604e-03,6.432418823242187500e-01
-5.849201325538483376e-03,1.153763360614818434e-01,-3.184910483011511029e-01,-7.555081382004900925e-02,-8.540453969728920014e-02,-4.770115406972089134e-02,4.429136514663696289e-01
4.494018217224599043e-02,8.620725829454090050e-02,-4.449083921819560472e-01,-3.826996458202974738e-03,9.121955849641587939e-04,-1.282937823250604892e-03,5.117817521095275879e-01
4.473760903510939912e-02,8.949438160351716465e-02,-4.449231453136022751e-01,-9.303798408148550823e-04,3.889013449146231684e-03,2.747770318741131652e-03,5.135728716850280762e-01
2.984041654782859654e-03,1.036179818963885446e-01,-4.489965754424324884e-01,-1.473160544930342958e-02,-3.657938323721924927e-04,-1.306174536818501116e-03,5.104457139968872070e-01
7.732096880511662995e-02,5.113319406336033768e-02,-4.036165608729275212e-01,4.890880200395487758e-03,-1.397194727504771569e-02,-5.591379004813048885e-03,4.691942334175109863e-01
3.862198799169794250e-02,6.674693952509427874e-02,-3.499003754178816594e-01,-3.057550183260644965e-03,-4.503716463229694676e-03,8.755761552144117679e-03,4.037161171436309814e-01
5.690880817313223594e-02,8.435368118619440692e-02,-4.226136152770192389e-01,1.553682949355498968e-03,-1.612359538211165363e-03,6.847600713959730440e-03,4.939748048782348633e-01
9.599592943507526122e-02,3.849686262662535552e-02,-4.609475039050650036e-01,3.657567436732650501e-03,1.038553051691790607e-03,-1.492603313318832583e-03,5.305831432342529297e-01
9.135737152286882434e-02,4.129263569600266637e-02,-3.916382629827452333e-01,-2.061591614575427646e-03,3.439046921800619199e-03,3.593447509904120624e-02,4.642545580863952637e-01
4.397030868515355850e-02,6.174337045252012435e-02,-3.538877875922755156e-01,9.732000660182321336e-04,4.261851821268337719e-03,-2.048580239015921137e-03,4.071216285228729248e-01
7.006250155358609288e-02,6.981166923175180505e-02,-4.408175352538830083e-01,1.735384467219811856e-03,1.609074564385611214e-03,-9.107338197680210938e-04,5.107735395431518555e-01
4.951132991920387250e-02,7.182125562141872255e-02,-3.865381397193528579e-01,-3.628960054561872033e-03,-1.192183869834696546e-03,1.293049700597976095e-02,4.482303857803344727e-01
6.442269198221126092e-02,7.875445847030931867e-02,-4.222407206935614998e-01,-1.560176836299453224e-03,4.368197690829035348e-03,3.839570662423128639e-02,4.985064268112182617e-01
7.370739777866605613e-02,7.139486028009925378e-02,-4.478624436057691560e-01,1.263961235524287217e-03,2.011355298263544928e-04,9.335579335044949566e-04,5.204246640205383301e-01
7.418677785136432168e-02,7.650079704641515876e-02,-4.460419691627512950e-01,6.534363978667099247e-04,-8.707126284203594180e-04,3.448564938556471790e-04,5.213933587074279785e-01
7.540415256855853565e-02,7.883368904219995033e-02,-4.439392623568062524e-01,3.722723073955378111e-03,1.450005250866400440e-03,1.152960581919860571e-03,5.211164355278015137e-01
7.483561774278396639e-02,7.993121705351227679e-02,-4.465651940981290591e-01,3.842239022545719529e-03,-1.267709207038373535e-03,-6.708937180448843905e-04,5.240153670310974121e-01
7.241694989405528249e-02,7.020119398331087224e-02,-4.460839838517701161e-01,2.319796251634425482e-04,-1.787210541161341013e-03,-2.408169480878308462e-03,5.174228549003601074e-01
7.260413042728880439e-02,7.618334415116015390e-02,-4.461593286092946364e-01,1.884935069927824725e-03,-1.699009465137797659e-03,1.547181118133845058e-03,5.205877423286437988e-01
7.516745241750963369e-02,7.532508469589305200e-02,-4.477073468239773923e-01,1.331733704380380721e-03,-4.847251198406633040e-04,9.748049202948683742e-05,5.229594111442565918e-01
7.000503789908216201e-02,7.403203362335852855e-02,-4.470653460238203092e-01,-4.499263177860935705e-04,-1.770578514405402471e-03,3.817575067500884899e-04,5.191056728363037109e-01
7.592676901197689676e-02,7.240899194568425901e-02,-4.443869507049133527e-01,5.860186883995052590e-04,2.578265989109707586e-05,1.413090219007651083e-03,5.185705423355102539e-01
8.536212797431794175e-02,2.788058624856093459e-02,-4.435697242538933494e-01,1.239909819764337118e-02,-5.414399136120103765e-04,3.196651313746102889e-03,5.031520128250122070e-01
3.590513631474301359e-02,9.963677520232328000e-02,-4.533862949606824455e-01,-2.347261259993349992e-03,8.268569956284731876e-03,-5.311820534070340119e-03,5.243638753890991211e-01
1.039381460045851746e-01,5.181904579410381850e-03,-4.538901687347830505e-01,1.500627106778851597e-02,3.005272691788369883e-03,-6.443071053802248115e-03,5.163946151733398438e-01
9.708090749353526228e-02,2.481525518580457446e-02,-4.574736614309648508e-01,6.048542690674078327e-03,-4.017105513485977678e-03,8.075026781935245408e-04,5.223389267921447754e-01
8.869982652969254922e-02,2.648304239557230932e-02,-4.537731842542641614e-01,1.214809664627350405e-02,-1.861447856621749894e-03,3.548207004388048355e-03,5.146725773811340332e-01
8.469397046647425542e-02,1.577531475332971667e-02,-4.650639415963272461e-01,5.990050847723231431e-02,-5.544390701493428185e-03,-2.122715991868939257e-03,5.291171073913574219e-01
8.567464828876883431e-02,2.761749387194101235e-02,-4.449761707978351910e-01,1.025304121991877510e-02,1.889546671092562303e-04,-2.663686079114030176e-03,5.044696331024169922e-01
7.334431702553681487e-02,4.691155754479650608e-02,-4.458747871195016810e-01,1.342820700186122401e-02,-1.754378108574629553e-03,2.375571187464253200e-05,5.070630908012390137e-01
3.452278537561204175e-02,8.991590103189037175e-02,-4.761889789128044281e-01,7.777250936750199073e-02,6.741664413306541759e-02,-1.139613896338839971e-01,6.024343371391296387e-01
-2.162867364113482682e-02,5.676108772917834444e-02,-2.624287306232703232e-01,1.408620462395326900e-02,8.071649553673598820e-02,-2.146796983675700390e-02,3.233098089694976807e-01
9.129058295985356675e-03,1.022862340515814372e-01,-4.399754112214382396e-01,4.781370024115425693e-02,1.053239137516541295e-02,-3.856721858987634949e-02,5.136768817901611328e-01
1.730913454586829880e-02,1.125864340843195921e-01,-4.531046250760735195e-01,1.176809908396174616e-02,1.339760706958419666e-02,-1.215338123763967334e-04,5.254908204078674316e-01
3.405623609456553957e-02,9.988990015622703500e-02,-4.472928308535490949e-01,-4.911418879764626027e-04,1.276455668196690811e-02,-1.657910856174230757e-02,5.186849832534790039e-01
5.346064316854484688e-02,7.029832318090276089e-02,-4.044120012573828027e-01,1.739806454952888288e-03,2.564349872551634560e-02,4.805948640413388977e-04,4.686394333839416504e-01
4.642476250337210231e-02,9.112712131985917230e-02,-4.539922840244679514e-01,2.433350863221435119e-04,-8.062620073769699927e-03,2.249342301317882199e-03,5.244003534317016602e-01
3.302205570142957569e-02,3.282473687482011238e-02,-2.592821091090458663e-01,-7.176919061947725515e-04,4.565422345673644799e-02,-3.580169113429836764e-02,3.090046048164367676e-01
-2.774753485158931721e-03,1.142140568762513297e-01,-4.485444409119465070e-01,-6.342539548207527453e-03,6.981671820779467887e-03,1.659895125980199570e-03,5.146088004112243652e-01
1.725071634797500919e-03,1.245137619991476541e-01,-4.511134153973718197e-01,-2.612696900879733775e-02,5.775253537902857830e-03,-5.826191706465400598e-03,5.272503495216369629e-01
-1.124003595716124848e-02,1.436691989204669784e-01,-4.554610097152494430e-01,2.887098744247371899e-03,1.612936940468137972e-02,1.348749029378342769e-02,5.399020910263061523e-01
1.522764222958430946e-02,9.679894618347026358e-02,-4.462851907311772282e-01,-1.450243284583198691e-02,1.183901593401139041e-02,-1.888050471723846241e-03,5.082876086235046387e-01
6.966104449861454384e-03,1.656719604583996031e-01,-5.339993689306543612e-01,-7.461540771597061431e-03,-3.948169569703417758e-02,6.076109987992468764e-03,6.392493844032287598e-01
2.816098664519775530e-02,9.123818524868598789e-02,-4.602171984571019059e-01,3.521053995757573302e-02,-3.737176813197730873e-04,-1.119687752045686211e-03,5.263279080390930176e-01
-9.024150714444512111e-04,1.243623592941103251e-01,-4.648216346999473614e-01,-1.434813617870311399e-03,2.425727990554972166e-03,-1.909226911243586209e-03,5.376428365707397461e-01
5.246805198831577810e-02,4.476632700724686442e-02,-3.538921186996115686e-01,7.174906490890753386e-03,-3.239997460422957415e-02,3.335742870142235222e-02,4.107311666011810303e-01
-1.254754350241384098e-02,6.038553768029927826e-02,-2.972724634519073872e-01,-4.048548911155819274e-02,-1.080922171557248262e-01,-2.196021578259258616e-02,3.854466676712036133e-01
2.443024100739478455e-02,3.886037159352392911e-02,-2.567250639944205215e-01,-5.993165721576897143e-03,3.647580348125256146e-03,7.266102975987413781e-02,3.151193261146545410e-01
3.906580931241024346e-02,5.514654588110226574e-02,-3.310268133696668835e-01,9.641083676626475280e-03,1.620801714590004369e-02,2.895696407500186406e-02,3.830939531326293945e-01
3.880293098959880504e-02,4.846714358736101125e-02,-3.236001275992768100e-01,-4.341662676698171061e-03,-1.099102495330557018e-02,2.041596490906124467e-02,3.695958554744720459e-01
3.231174891215268796e-02,7.995344546381005779e-02,-4.126705983061866312e-01,-1.849188453919905009e-02,3.242635925208298825e-02,1.968143141899694054e-02,4.762573540210723877e-01
4.507289837024708312e-02,5.562814710184460498e-02,-3.467514879612100809e-01,-8.478423737799617096e-03,3.889224080560530730e-04,1.359552607723947884e-02,3.981760740280151367e-01
3.471700780861571023e-02,3.984616800426546424e-02,-3.003785504356067948e-01,-7.398844984060572519e-03,-2.474123660516711412e-02,-1.524317669831419574e-03,3.406489193439483643e-01
8.892539608635716131e-02,1.413265713349759478e-02,-4.491731700879508793e-01,-2.616111213305977873e-02,-7.851361661700895960e-04,-1.814854777517912760e-03,5.069152712821960449e-01
1.163784088314762655e-01,8.014067257733181737e-03,-4.935629804669076637e-01,-2.864921343537155801e-02,5.428373249677121218e-03,4.164162421672434715e-03,5.659312605857849121e-01
9.888562186982433055e-02,1.311719728650156958e-02,-4.556861628414075605e-01,-4.017521793251768031e-02,2.692409250993320954e-03,6.391168860518086497e-03,5.218503475189208984e-01
7.658531169302079666e-02,8.253880891536949371e-02,-5.323792048967999069e-01,-7.797866962573937744e-02,-1.769569692952173076e-02,-3.270389079104755320e-02,6.299910545349121094e-01
6.510387308431117570e-02,6.590227286544969587e-02,-4.670456768318201890e-01,-3.163668945612320427e-02,1.310063092936339813e-03,-5.112369619941441352e-03,5.354389548301696777e-01
1.242099261442828895e-01,6.356143666876520881e-02,-5.594969372591933610e-01,-8.482787230740460038e-02,1.243339625294488660e-02,-2.882151113552158112e-02,6.739515066146850586e-01
8.097274766436954319e-02,3.613225986976925652e-02,-4.422414418913311884e-01,-2.549398919319609269e-02,-6.946002194505120943e-03,4.941379618662719228e-03,5.044506192207336426e-01
1.354352341483018862e-01,5.492861032440896074e-02,-6.093823413975858472e-01,-9.832283778628092552e-02,5.486952858114063636e-02,-3.051776878828624945e-02,7.362743616104125977e-01
1.276903914806095108e-01,-8.486029667052960579e-03,-4.989420067641932022e-01,-7.095515235825683442e-02,5.895583254310209076e-02,7.099156902768630206e-02,6.054174900054931641e-01
1.455613222217384539e-01,-8.181045373026107903e-03,-5.560698416284530765e-01,-1.066194462476578453e-01,1.235480060312658945e-02,-6.222407972006546717e-02,6.739652156829833984e-01
7.159066461896165801e-02,7.648606273731431426e-02,-4.409274065637022177e-01,-1.622204709965479989e-03,2.161724091400167233e-03,1.679174142307253773e-02,5.158250927925109863e-01
7.349482981232216550e-02,7.039919070413613866e-02,-4.388878099965727864e-01,1.181318938713200265e-03,-6.070652786787797623e-04,-1.541414799563092667e-03,5.108540058135986328e-01
7.055832969999509263e-02,7.763675778992534804e-02,-4.411653894965533174e-01,-4.420165314874025496e-03,-8.794297011115583679e-03,7.458989317993177867e-03,5.157431364059448242e-01
1.056848092052629917e-01,4.285283060719605186e-02,-5.194516692752446652e-01,6.835118447602402114e-02,1.328855514550884853e-02,-2.269893834965233323e-02,6.095539927482604980e-01
3.084125546150834341e-02,1.368102141468323096e-01,-5.606512416055167147e-01,-7.357171158293429603e-02,-1.284734282574956192e-02,-3.201693024791378399e-03,6.637295484542846680e-01
5.592418044920519082e-02,7.450018925197965380e-02,-4.089441059958438540e-01,-2.079245359360980608e-03,-2.769870899635083674e-03,1.722019508089354944e-02,4.754036068916320801e-01
6.909956894229721258e-02,7.715696473407823719e-02,-4.385529873087481989e-01,-8.859544180297184747e-04,-5.055676161334568151e-04,5.741606168713727677e-03,5.118284821510314941e-01
6.562342351407740582e-02,8.501168931144850727e-02,-4.343029527869333162e-01,3.461929478047460866e-03,9.780199372470389872e-04,4.951700127204384030e-03,5.100072026252746582e-01
7.513217996521387443e-02,6.893331605017025132e-02,-4.395968249351439594e-01,-1.021773833482783568e-03,8.037690894185733166e-05,-3.488706521131902552e-04,5.116611719131469727e-01
6.909881884245674954e-02,7.828957592454144354e-02,-4.394376764754039377e-01,1.019629508070211315e-03,-2.833451764357175834e-05,5.014162094949754615e-03,5.132701396942138672e-01
5.491084662857623200e-02,7.156300805715257174e-02,-3.884460961046749539e-01,-6.094478027766902020e-03,-1.552192428693390880e-03,1.364511604931918642e-02,4.526618421077728271e-01
6.818245820591370410e-02,7.170070829949845570e-02,-4.456672023181098563e-01,-1.212215612821170756e-03,-3.066280774014347953e-04,2.636701269863732898e-03,5.156425833702087402e-01
6.804053970313539423e-02,6.916546497798145565e-02,-4.467841388849143613e-01,3.260605004244737995e-03,1.382622244287641999e-03,3.946100509104506944e-03,5.154699087142944336e-01
6.946791082119943561e-02,6.577659679918532176e-02,-4.449321607564116765e-01,-1.679680057845882400e-03,-2.998525883268729790e-04,-9.256838270144218499e-04,5.125753879547119141e-01
7.483809533604252051e-02,7.473487840929998738e-02,-4.479168488197335374e-01,4.200813111465879785e-05,-1.189097090083516672e-03,1.061406662732635462e-03,5.227106213569641113e-01
6.561369672874159398e-02,6.536681998485191492e-02,-4.423214331412335110e-01,1.837254677122876687e-05,-1.842337028700449884e-03,2.279006172965414648e-03,5.078371167182922363e-01
6.861600463417855122e-02,7.242879561645454434e-02,-4.446574234895255273e-01,2.522884868917897681e-03,-4.470710028427785435e-03,4.033404554969640537e-03,5.153144598007202148e-01
6.057005126653261518e-02,7.036907917611315288e-02,-4.447723495215034628e-01,5.260421306979692034e-03,-4.927190392901883466e-03,2.311582929621905456e-03,5.104808807373046875e-01
7.322334780756986627e-02,6.508164601875765509e-02,-4.449730703146928534e-01,-4.670983921632466604e-03,-1.930043585393700738e-03,-2.483219328043249734e-03,5.142664313316345215e-01
7.524633404588698671e-03,1.150802628683741391e-01,-4.533744223637018456e-01,4.447534857965526264e-03,-1.029223773476706065e-02,-5.123993379965620029e-03,5.234733223915100098e-01
-3.868199923897724934e-03,1.168107425184385928e-01,-4.487537974993022760e-01,5.919404041025261819e-03,7.168961415686114606e-03,-5.477967439498711115e-03,5.162598490715026855e-01
3.729648985769623559e-02,8.496199717554717146e-02,-4.445997656413427368e-01,1.247603751378473236e-03,2.831701344029326998e-03,3.532944264732465218e-03,5.074760913848876953e-01
1.156768688976529680e-02,1.013700111735926224e-01,-4.466061328377997630e-01,8.621891058825995741e-03,3.172956065132645151e-03,2.561627434500740423e-03,5.093188285827636719e-01
-2.197213947739300177e-02,1.161903827095877584e-01,-4.582978765324249304e-01,3.685796456440081775e-02,1.752196557438616062e-02,-3.684939682493765852e-03,5.242043733596801758e-01
4.863005317294466501e-02,8.167213797955208410e-02,-4.457438586825642757e-01,2.552535094568114497e-03,-5.535381952226187466e-03,9.639883927962870740e-04,5.118073225021362305e-01
-4.790558772325120840e-03,1.122764633780096721e-01,-4.503112776097911163e-01,4.342846144174764174e-03,-7.919129806007495567e-03,2.034359647326016048e-03,5.143989920616149902e-01
1.884795808692057983e-02,9.786361775684118691e-02,-4.512479852195594998e-01,4.464958285198963178e-03,-1.206459082705500655e-03,2.592949116249531911e-03,5.142596364021301270e-01
2.553989493636787955e-02,8.969714877868936731e-02,-4.510148447452658749e-01,1.245182813936612440e-02,-7.884179114984945450e-04,2.992781286692182061e-03,5.121414661407470703e-01
-4.790205284983523049e-02,1.824301499598147136e-01,-5.517718272398444146e-01,1.600542767691050250e-02,6.565129025754094794e-02,-2.754181880553345854e-02,6.625477671623229980e-01
5.919389259918694801e-02,8.330238607087503411e-02,-4.228004343679365729e-01,2.109428735237085621e-03,-2.117714874288873753e-04,-7.257310205222531133e-03,4.946629106998443604e-01
8.005982773398509500e-02,6.537896404811516238e-02,-4.482470261429483127e-01,5.575685014010006192e-04,-3.613844724509672045e-03,-1.194869061462812583e-02,5.215708017349243164e-01
8.947822502200725170e-02,4.776915553126762082e-02,-4.529416846053150314e-01,-1.801111203250581935e-03,5.049399836728253078e-03,6.967821879042333626e-03,5.230363607406616211e-01
6.410505113900014096e-02,7.523655159241596224e-02,-4.190096997105109966e-01,1.983081847954394020e-03,-7.106264568922241506e-04,-8.680484736152920336e-03,4.890203773975372314e-01
9.953412541942091574e-02,2.840400639977508357e-02,-4.505121344327356336e-01,-5.716240438364728234e-03,-1.903711531618503981e-03,-7.672348139758426028e-03,5.184313058853149414e-01
8.142425003877018508e-02,5.574837446193744994e-02,-4.255323414651633329e-01,-1.229360023072000995e-03,1.984725421425286278e-03,-1.146475664800715097e-02,4.950336813926696777e-01
6.996614140012891170e-02,7.423361416570931071e-02,-4.404654258615158247e-01,1.577768497218677048e-03,4.993334557015273630e-03,-8.195717220447025150e-04,5.126608610153198242e-01
8.030422992144503613e-02,6.381706884146229330e-02,-4.281627146781212812e-01,4.837954105375085606e-03,-6.158952150954387535e-03,5.251293762562695691e-04,5.006117820739746094e-01
7.962486196943818761e-02,7.002080295415744060e-02,-4.385595147267781213e-01,5.040178885989969951e-03,-2.137704916921496882e-03,7.192647769039067166e-04,5.135387778282165527e-01
7.407253995793178225e-02,7.534655709929471978e-02,-4.362102691657288034e-01,8.195876158543641266e-03,-6.320503520007841360e-03,-6.221665297049630908e-03,5.113489627838134766e-01
6.366900745512188431e-02,8.466866524457469789e-02,-4.357622608547175314e-01,1.567318622837546131e-03,-4.054474101225242892e-04,1.487920443816014102e-03,5.102695226669311523e-01
7.405956785180800583e-02,6.737219883991041325e-02,-4.393779586780328650e-01,-8.413349678359706603e-04,-2.528020071925902914e-03,-1.080939260858171597e-03,5.101510286331176758e-01
6.863318062005407949e-02,8.078632935187421427e-02,-4.424722019654208083e-01,1.258645804454898388e-03,1.842367968026115783e-03,5.612548585241385925e-03,5.173947811126708984e-01
5.161381583372084969e-02,5.229660021603763087e-02,-3.551409122634855975e-01,1.047962072303519881e-03,-8.612045810053991363e-03,7.181253463262757264e-02,4.259395599365234375e-01
6.762568284682377029e-02,7.840230787227317477e-02,-4.341195053394583114e-01,3.971233977967279435e-03,5.384113833776226496e-04,1.505878234429368486e-03,5.072735548019409180e-01
6.566008960833713548e-02,8.153010709088581720e-02,-4.334149633814421976e-01,1.445866861871844588e-03,-1.272417237144214067e-03,7.942939332678898958e-04,5.072091221809387207e-01
7.346492253891703794e-02,6.914425710819524507e-02,-4.436724559928933997e-01,-3.927303139134669325e-04,-2.132728550196769188e-03,-2.634228150135469338e-03,5.150245428085327148e-01
7.119243267935040920e-02,7.703476477322546145e-02,-4.416649535202537558e-01,2.598318954449226103e-04,-5.624092300548745393e-05,-1.065871446659076615e-03,5.158068537712097168e-01
6.978162993546410675e-02,7.498659522654241294e-02,-4.312932658789317975e-01,8.259823827764333978e-03,6.349834867359483229e-03,5.764611829484907191e-03,5.041195750236511230e-01
-4.143275143091282309e-02,1.569676829426063791e-01,-3.410712615810476689e-01,-2.898559527256703433e-02,1.054745588139235912e-01,1.308593421848394320e-02,4.743450582027435303e-01
6.881706854372146576e-02,7.698472371032180628e-02,-4.391109944418681854e-01,-9.760237426940615406e-04,9.998399455374701317e-04,-7.533641953228707548e-03,5.122327208518981934e-01
9.147308380041357934e-02,5.871959871351778437e-02,-4.456519739572055716e-01,5.537899062134100589e-03,2.180526919572404673e-02,-5.295625403484181121e-02,5.309566259384155273e-01
7.385860315819797739e-02,6.686666364965548892e-02,-4.352050890898128688e-01,4.583498544202748055e-04,-8.801260258207251790e-04,-3.565817972319225882e-04,5.056073069572448730e-01
6.971151007066506144e-02,6.780562156299166365e-02,-4.340018207384528925e-01,2.449375667157000598e-04,8.396982946760541159e-04,4.060019191662155979e-04,5.027658939361572266e-01
1.135621992003143232e-01,6.039428282826628247e-02,-4.712010296268781540e-01,-3.771695340915097623e-03,-1.802040663710573198e-02,-4.218378328028309782e-02,5.657203793525695801e-01
1.186960843709857771e-01,1.870602438254687083e-02,-4.764235653317876462e-01,7.875285686966947835e-03,-4.135968586673900715e-03,-2.714810188680239628e-02,5.541730523109436035e-01
7.486587906238173495e-02,7.321541363045289130e-02,-4.480395827312517731e-01,-7.797192277034696931e-04,-8.057646550150393246e-04,-1.701544657655234508e-04,5.220859050750732422e-01
7.054624642087814479e-02,7.174904907425805334e-02,-4.461908184992433579e-01,-5.831433899860182478e-04,1.391369897884939732e-03,1.022610195376372167e-03,5.173491239547729492e-01
7.444884703071324994e-02,7.456529864682576170e-02,-4.477090485847800561e-01,1.323182605872586155e-04,1.130845828962372492e-04,9.770088095718597668e-04,5.222189426422119141e-01
7.685089080376095172e-02,7.517922451223610358e-02,-4.474604945999706151e-01,1.045051512205106854e-03,2.943718742651942337e-04,2.068378910872406421e-04,5.234810709953308105e-01
7.705306127519359616e-02,5.770647949657473075e-02,-4.491874395523702823e-01,-1.502123824912157636e-03,4.311221555659525834e-03,5.096584180651581725e-03,5.169746875762939453e-01
7.129951408872259311e-02,7.136546262448997813e-02,-4.457580115660697562e-01,-4.029157290451317736e-04,1.969943597595341309e-03,1.764201362232342826e-03,5.171112418174743652e-01
7.563738897798505390e-02,7.344010306630269214e-02,-4.464020319328556585e-01,1.893353684293051331e-04,1.138611339273261054e-03,1.096514740558165177e-03,5.209515690803527832e-01
6.788114443468826198e-02,8.231025154587232051e-02,-4.350918069034445668e-01,4.014005259950068592e-03,-2.647605926767889351e-03,-3.800076087650669596e-03,5.104508996009826660e-01
4.394095418248175622e-02,1.195673596861444588e-01,-5.536375581969359416e-01,-4.883157025616158275e-02,1.278468161668660022e-02,-8.434053806667975856e-03,6.448794007301330566e-01
4.730312100546796295e-02,8.158050982912085081e-02,-4.396816581939482771e-01,4.416073258726671558e-03,3.923706857692875818e-03,-4.622323885526392895e-03,5.051637887954711914e-01
6.453426956719862662e-02,9.079878022325280074e-02,-4.626982325318875766e-01,9.568182092770411307e-04,-1.519297822060679086e-02,7.962063374183233570e-04,5.414873957633972168e-01
4.995296950289593307e-02,9.549794421230206609e-02,-4.661823985877501242e-01,2.827627863483468413e-03,-3.160624588193888785e-04,-2.542797824459665321e-03,5.403897762298583984e-01
-2.547571176342731947e-02,1.449628637373213125e-01,-4.589997670821909237e-01,-3.177045748026165878e-02,-4.197085053677127552e-03,-6.856970093231480254e-03,5.423132181167602539e-01
6.902098011740323558e-02,7.523908372394513822e-02,-4.305240897300785519e-01,-9.286321971237999906e-03,-1.763673908867899667e-02,6.478092749682238562e-03,5.039920210838317871e-01
6.735712542495148059e-02,7.577378735430728707e-02,-4.322391175305089206e-01,-3.753031308603792249e-03,-1.839705104081060466e-03,4.206126415110333396e-03,5.039619803428649902e-01
6.516598726410371967e-02,5.838476115120716514e-02,-4.424096433021749708e-01,-2.934012838088887083e-03,1.615342554303445021e-03,2.097271557209696297e-03,5.042656660079956055e-01
6.694433553469766873e-02,5.581987274895944262e-02,-4.425110555658021694e-01,-1.335379016866726368e-03,2.150926798768952077e-03,1.258024622929221825e-03,5.040090084075927734e-01
6.923839273378493142e-02,5.191904337722294538e-02,-4.421239707251244377e-01,-1.244698772671756770e-02,2.367369503609489858e-03,-2.390878974037108275e-03,5.034220218658447266e-01
8.437051736604575525e-02,2.581755764561244337e-02,-4.421290820542967959e-01,-1.205847679180187607e-02,-1.793392910135801566e-03,-4.052062432065090675e-03,5.002971887588500977e-01
6.342811901821338028e-02,6.284328192056176654e-02,-4.460960861817327427e-01,-7.725416848319970400e-03,6.061381567281447745e-03,7.556003659413034965e-03,5.096840262413024902e-01
8.886407751841676750e-02,2.808847233058928139e-02,-4.529162563966976918e-01,-1.002372289603442428e-02,-2.339006565153447289e-03,-1.878696860543747167e-03,5.144132375717163086e-01
4.293609387991917381e-02,8.802672808954478678e-02,-4.605185893072876735e-01,-5.245551765463415950e-02,-3.383220470103752951e-03,1.793808293583701004e-03,5.352565646171569824e-01
8.604317125603661021e-02,3.965491985216745841e-02,-4.635093102757190664e-01,-1.276518165554058407e-02,-3.113620936532673130e-03,7.174715841973411043e-03,5.285256505012512207e-01
7.631270450192936816e-02,5.388213770166772054e-02,-4.411638921221143761e-01,-3.538456056898364212e-03,6.695086350118516910e-03,3.279353550401938478e-03,5.068354606628417969e-01
7.084643489366579394e-02,7.835316174691914215e-02,-4.411407500490210354e-01,-3.100875519280860831e-03,-1.242927542030798941e-03,6.895963462961764157e-04,5.158153772354125977e-01
6.972455559509532774e-02,8.180136024425063712e-02,-4.414398118813410710e-01,-1.283557047052917392e-03,-1.307522136408946186e-03,1.252374269685460487e-03,5.173227787017822266e-01
6.834560762223704233e-02,8.123834469226171029e-02,-4.398173856088669065e-01,-1.804537708484725035e-03,6.534411141369181721e-04,-1.413374713114762564e-03,5.147470235824584961e-01
4.690178544325157572e-03,1.008360821634131377e-01,-4.468264807463814270e-01,1.383290973006837815e-02,-9.997921421969070254e-04,1.734304720058784397e-03,5.070590376853942871e-01
7.514163372566576293e-02,6.979895720721759900e-02,-4.450700225987540004e-01,-7.985102709308501256e-04,-8.492474603958323747e-04,2.816404642764871926e-03,5.175879001617431641e-01
6.817124310902317186e-02,7.261293817466246692e-02,-4.209486387286351383e-01,-7.786045647275165876e-03,-1.010231040735381971e-03,-3.362119918098710122e-03,4.915784299373626709e-01
5.637615619958316615e-02,8.248098996216185474e-02,-4.132879605617085783e-01,-1.174919351940797215e-03,-5.994141402937894344e-04,1.808366324094239780e-03,4.832611978054046631e-01
6.837810713983158428e-02,7.582722646501968700e-02,-4.449140828415192317e-01,-3.348652764511306505e-04,-1.867378022889048562e-03,7.776798892317220895e-04,5.170692205429077148e-01
8.157303812186234016e-02,6.807226190429771506e-02,-4.421420566474014713e-01,2.294676994328001714e-03,1.378493146007189231e-02,1.746735991605568618e-03,5.176719427108764648e-01
7.183532236888090505e-02,5.018089366623645908e-02,-3.836912509362275236e-01,6.821724797059100509e-03,1.599086932422492252e-02,1.169217106107569258e-02,4.465714395046234131e-01
7.571193415704424723e-02,7.497780498998524168e-02,-4.486121483837002266e-01,4.568333019019591400e-03,4.655520580903779737e-03,2.767957867375664925e-03,5.241011381149291992e-01
6.592632742509627053e-02,5.928658291098690136e-02,-3.930939366406203117e-01,-1.969569130070501772e-02,6.733698421481008889e-02,5.860495299374320760e-02,4.824583828449249268e-01
6.615777401332414986e-02,6.897328015084372432e-02,-4.082513846530355650e-01,1.235239013748886013e-02,3.994651504642383541e-03,-2.992293944093102559e-04,4.763544499874114990e-01
5.350651247413243383e-02,4.022629629127258410e-02,-3.250830076340470165e-01,8.014739914476647076e-03,1.802091916201090799e-02,1.761702926032245389e-02,3.749355673789978027e-01
-2.646448711884798188e-02,6.661928361335861526e-02,-2.886569179441036415e-01,-3.077517031724302798e-02,1.039832988871556424e-01,2.678441030786126928e-02,3.731574118137359619e-01
6.029130711450431113e-02,7.588263272894429923e-02,-4.158841838588630546e-01,-4.278090744562671084e-03,1.861599609997402482e-02,7.791424022178144657e-03,4.854761362075805664e-01
7.611377581349113020e-02,5.783368716966050260e-02,-4.025530202215227282e-01,4.048071422827694173e-03,1.937925280003064202e-02,5.793975504713433193e-03,4.711502194404602051e-01
6.681792960759497246e-02,4.948324940711348874e-02,-3.735882240428292089e-01,7.016147743546717608e-03,3.196869941516902736e-02,5.970367872503604817e-03,4.358260929584503174e-01
6.296281588917296279e-02,7.128297467701094625e-02,-4.174475908268793223e-01,-1.157860354147307756e-03,1.710982326943393320e-02,-1.783289161162395029e-03,4.855432808399200439e-01
6.589487610501426618e-02,6.280039859353261922e-02,-3.930421469138186130e-01,1.066674893957160648e-02,1.599813707961596221e-02,2.178446440868820125e-02,4.601580798625946045e-01
1.001703658859726120e-02,2.304121634504255334e-02,-2.053178106333322650e-01,-3.392665016672435918e-02,1.131396771513540761e-01,6.865490569602651638e-02,3.245590627193450928e-01
7.310342467779995523e-02,7.319362988138583548e-02,-4.464170152689500570e-01,2.463145663830560751e-03,-1.079986270120601678e-03,-1.812788440292420434e-03,5.195959210395812988e-01
8.065047043046255637e-02,6.737832107080293786e-02,-4.331925725008414219e-01,4.623829097924614037e-03,-6.788177105999426524e-03,-4.313300128667030969e-03,5.075916051864624023e-01
7.330610281788130234e-02,7.369869139598067553e-02,-4.389736044361715606e-01,5.310931992986085357e-03,1.713699820524665525e-03,1.911702356129691858e-03,5.125779509544372559e-01
7.766071121474649175e-02,7.123892872667594856e-02,-4.431260104388544119e-01,4.758309316580124591e-04,1.865493347102009864e-03,1.175600133393675832e-03,5.176204442977905273e-01
7.803310858473433420e-02,6.936144607690647446e-02,-4.352919294473689416e-01,7.156301088267266871e-04,2.696330311392298919e-03,-3.605605581719675042e-03,5.091058611869812012e-01
7.616084717970048046e-02,6.452732469579758323e-02,-4.195247999248708504e-01,6.084449289179183658e-03,7.159455804595589489e-04,-6.366635264204428130e-03,4.902114272117614746e-01
7.299793848654895223e-02,6.393444383523863572e-02,-4.095060518759101598e-01,1.047216606256703118e-02,-9.101690920771104282e-03,-7.085748915874471969e-03,4.787976741790771484e-01
6.755653145181109154e-02,7.125446130255044808e-02,-4.164666667920690069e-01,8.931532825808705112e-03,1.410457570946941144e-03,-6.865625770324371331e-03,4.862804710865020752e-01
7.196031801157709573e-02,6.780580362330465571e-02,-4.450354290535903923e-01,5.207682767061910670e-04,-2.888370312141617588e-03,3.088357005278353183e-04,5.149564146995544434e-01
6.568650719073321209e-02,1.079740214424648181e-01,-5.162646626879023870e-01,2.527819383695416311e-02,2.678759575915052801e-02,-1.683945575941181785e-02,6.082639694213867188e-01
6.708819570874810512e-02,7.692687321834754122e-02,-4.267021142300227998e-01,4.055093529751506616e-03,2.278586980791360867e-03,1.573084017204612719e-03,4.988549351692199707e-01
6.504428545849857968e-02,7.394155515245207089e-02,-4.481858128542722253e-01,-9.514580306357722089e-04,-2.669768798185587384e-03,-4.742590318916506571e-03,5.178245306015014648e-01
7.380822830707320370e-02,7.595738912520708097e-02,-4.477621515461963075e-01,8.331727984358721576e-05,-8.334574081347214530e-04,-1.897588768740208175e-03,5.226606130599975586e-01
7.073741264787455907e-02,7.056156139350230894e-02,-4.463670650088012448e-01,-2.037195818237640729e-04,-1.048861056484029150e-03,-1.331391437567697536e-04,5.170199275016784668e-01
6.597399992038441296e-02,6.918500647663250458e-02,-4.446115403045275416e-01,1.375266433456754202e-03,9.284133409769702947e-04,2.828741920099684878e-04,5.122069120407104492e-01
7.362602984194524525e-02,6.143263878799609667e-02,-4.076578723992114739e-01,2.653667599659272937e-03,1.276228650953447480e-02,1.036160780486944551e-03,4.758438467979431152e-01
8.526567869472545524e-02,7.607786908282143656e-02,-4.631332399039093661e-01,4.523819832707716253e-04,3.977977083180887774e-02,7.750255495989208376e-02,5.644068121910095215e-01
8.181066727308816677e-02,6.787738631117015697e-02,-4.391569991841882681e-01,4.176289184013741223e-04,-1.403020838308551965e-03,-5.623219132984463766e-04,5.141498446464538574e-01
7.962437981848893842e-02,6.876057563189774680e-02,-4.421520993944237921e-01,-2.630015941605871269e-03,-1.352023015678855203e-02,-2.735434720359083711e-03,5.170027613639831543e-01
2.825352363241731557e-02,8.665359858402235660e-02,-4.217777280981507837e-01,-7.469228385411467996e-03,-1.742937532919374213e-02,-5.706831110205937141e-03,4.831117689609527588e-01
7.063948200163666646e-02,7.566194602345532871e-02,-3.883458832115328496e-01,7.996821947049089635e-03,-8.002711842333383452e-02,-3.850305611977510728e-02,4.866727292537689209e-01
-1.751027463967402831e-02,1.090975614576281949e-01,-3.150465452536365119e-01,2.232154866365900978e-02,-1.152441773398046182e-01,1.369722709765113476e-02,4.291026294231414795e-01
7.590806816054254669e-02,7.177808129675589122e-02,-4.420345020018909277e-01,3.236377167086005972e-03,3.474919317048290080e-05,-8.698545316995543765e-04,5.159226059913635254e-01
7.681948430254173510e-02,7.239581972729916548e-02,-4.426052088052201405e-01,8.117429380773185776e-04,3.674961968355879558e-04,-7.831070499173969392e-04,5.172311067581176758e-01
8.280264047769739233e-02,6.797184447852305800e-02,-4.385983956881580048e-01,2.493936254830064585e-03,-5.365445129185649527e-04,5.137216481344220780e-04,5.141658186912536621e-01
7.775469419201563870e-02,7.097134518785416790e-02,-4.417942725301438611e-01,4.183418804110684017e-04,-6.579488084796282932e-04,6.688957287848103846e-05,5.161924958229064941e-01
7.888641535241683322e-02,6.942501321421251648e-02,-4.360942162947992196e-01,4.101443270677606820e-03,2.721826715578727889e-03,-9.973877402685838150e-04,5.103898644447326660e-01
7.058147829868186007e-02,7.351189344163452932e-02,-4.332745360819213465e-01,3.654564784249124745e-03,1.027401841105588442e-03,3.124206215545363707e-03,5.053993463516235352e-01
4.492838094022597040e-02,2.933198471096627735e-02,-2.914730169516457359e-01,-3.892185801904452826e-03,2.754303579226316870e-02,-9.736843233530518074e-03,3.328185975551605225e-01
3.535396504079683921e-02,3.658260116049466548e-02,-2.911698940409849223e-01,-7.727407248734021600e-03,2.731194663944440382e-02,-1.395269933867593001e-02,3.316949307918548584e-01
7.746191493434737008e-03,8.423578557182481719e-03,-1.925798846959566879e-01,-1.837693660520607012e-03,9.286666891249528016e-03,-2.112034410413411029e-02,2.046307921409606934e-01
3.747939105824246719e-02,3.190780380124284832e-02,-2.955560146605984428e-01,-7.280758149525157902e-03,2.536725748587089976e-02,-9.699465238691657581e-03,3.338560163974761963e-01
2.277152327777004492e-02,1.000509042192343767e-01,-4.533152727886679556e-01,1.269281508062662309e-02,1.669524386322348772e-02,9.430675455981488153e-03,5.205850005149841309e-01
8.981139778867230916e-02,4.731253461565412821e-02,-4.632838213201155297e-01,-8.088754298617155392e-03,-5.386481959267813875e-03,1.302299720993236286e-02,5.338601469993591309e-01
8.366366806606037598e-02,3.242841254630082770e-02,-4.469193482813831331e-01,-1.554191294864567391e-02,-1.468457779182252743e-06,1.977652713421353261e-05,5.076253414154052734e-01
9.655992325028830980e-02,2.162133688787168384e-02,-4.530074368489808156e-01,-4.201317037417132312e-03,-5.008865700132984723e-04,-2.371493114197535234e-03,5.162624120712280273e-01
9.404320177512975887e-02,1.906417109014327260e-02,-4.506119116353540233e-01,-4.148886809130190000e-03,2.454658019264839477e-03,-1.107414669321506173e-02,5.117332935333251953e-01
1.204890798445945044e-01,-2.621679086423231442e-02,-4.492984051025815107e-01,-4.710144241618496874e-02,3.955411346420884683e-02,8.566496930741480942e-02,5.440164804458618164e-01
8.714149243520097343e-02,5.093074277699205510e-02,-4.529310449712067310e-01,2.189955172472478947e-03,6.004359584207104479e-03,9.579859651594925182e-03,5.232886672019958496e-01
8.263595029167536410e-02,3.293288411644440528e-02,-4.447121773306609849e-01,-1.363426628190576861e-02,-4.631323640639422386e-04,-8.156520868783797510e-04,5.048919916152954102e-01
5.879133095257135788e-02,6.561414025932357785e-02,-4.414961263931420632e-01,8.121191897084987718e-03,-1.466537281664951091e-03,4.913784747711643502e-03,5.040081143379211426e-01
8.472550121326652417e-02,3.514083550587260296e-02,-4.518168442338653112e-01,9.958755601654630321e-03,-4.884844138002896602e-03,7.081827847123635736e-03,5.140541195869445801e-01
6.273199282634825402e-02,5.584699242170682032e-02,-4.398383576880995349e-01,6.596510803591550814e-03,-4.820697244385991134e-03,3.001047506001913289e-03,4.993910789489746094e-01
8.712017917005482337e-02,1.675534494204661828e-01,-7.362402255400689599e-01,1.420954504311526811e-01,4.552548642492006137e-02,-5.594851526679364695e-02,9.092850089073181152e-01
7.847177027979310160e-02,3.598438747046731057e-02,-4.446470694709992455e-01,2.734713835952163469e-02,2.697776479704560616e-04,1.173619706429814913e-03,5.054507851600646973e-01
4.551382419702035276e-02,6.369980776319625337e-02,-4.441158672950525910e-01,2.851058001939267561e-02,4.553851828201579618e-03,-5.088001224923685561e-03,5.015484094619750977e-01
6.234573476137406089e-02,6.175515599672326550e-02,-4.419456484005506725e-01,5.724913859030314640e-03,1.390386626856623324e-04,1.697385272665200570e-04,5.040940046310424805e-01
6.754502568790191064e-02,4.434251771563541000e-02,-4.401886214130580899e-01,1.032492031361519416e-02,2.358953964353033847e-04,1.525333216708410359e-03,4.968682825565338135e-01
5.351360704345170527e-02,5.072262031204552435e-02,-3.489345622980972728e-01,-4.944185042508561154e-03,-2.103479345702786388e-03,-4.064248443677627443e-02,4.072973430156707764e-01
3.881265519793435093e-02,6.051647820697766966e-02,-3.404795613635583362e-01,1.101148644579099225e-03,-4.837418536165159592e-03,-2.944398369284377190e-02,3.940055966377258301e-01
1.928358959145257123e-02,1.068379646696636931e-01,-4.535378154745485779e-01,3.181641231411656140e-03,-6.407115392432900965e-03,4.528578966193764870e-04,5.222811102867126465e-01
-1.706628666274707939e-02,4.678404037070121868e-02,-2.687239369351310803e-01,5.624755458993421775e-02,1.063921126140382478e-01,-3.980174256624943036e-02,3.628754615783691406e-01
8.182708203572328087e-02,7.229380133476476233e-02,-4.298273383619272137e-01,5.116945204066311072e-03,5.877371360550874557e-02,-3.721843773272471428e-02,5.211531519889831543e-01
7.071462009227388879e-02,6.900462831910486594e-02,-4.304677408720966048e-01,-6.302911058851638423e-03,1.703153779800480397e-02,-1.661529294255917333e-02,5.021426677703857422e-01
1.037462620500527732e-01,-1.703421938294726046e-02,-3.532735540303013622e-01,1.052107077386634643e-02,3.092996213334641559e-02,-1.317991999610161891e-01,4.728330671787261963e-01
4.455647974600172867e-02,-6.903984655608048915e-03,-1.836081909683592306e-01,1.031231249993193495e-02,3.572001762910101408e-02,-1.559227960919422340e-01,3.464799821376800537e-01
7.773955014448497014e-03,6.670222393795953442e-02,-1.684864623952784246e-01,4.674267935391023671e-02,5.505315026824016827e-02,-2.216493755618611020e-02,2.490944266319274902e-01
5.426488219335820484e-02,7.785864337006384583e-02,-4.219627073207655732e-01,1.122008363949496918e-03,-2.980170823921681617e-02,4.590014135877642371e-03,4.912400543689727783e-01
4.923243875062513486e-02,1.149380512423581191e-02,-3.240446484638089264e-01,4.509731925240594713e-02,5.418063306355616615e-02,-4.375906312244852436e-02,3.838300704956054688e-01
7.125901263757300486e-02,6.000607296831392268e-02,-4.183046836644359057e-01,2.059458392221825453e-03,9.687035998263541798e-04,-1.576583553423735115e-02,4.848210215568542480e-01
7.985680986269401427e-02,-1.789362058299270863e-04,-1.773357560918378539e-01,4.605341942772353536e-02,-2.332964328805482712e-03,-6.612506062655848504e-02,2.673308551311492920e-01
6.319744370518864951e-02,7.462931460017102614e-02,-4.165564096817447326e-01,-8.084247124144088373e-03,7.252520043645186570e-03,-1.011289009094213168e-02,4.862505495548248291e-01
9.997134592105019757e-02,6.028909312140773302e-02,-4.605029777481752795e-01,9.641103249427313698e-03,2.847098033060142114e-02,-5.661004114262846443e-02,5.529828071594238281e-01
-2.226819012178693491e-02,6.371360607357506867e-02,-2.127850066850529021e-01,2.760917710882974593e-02,-1.402638507347853392e-01,6.788444488603630200e-02,3.677010238170623779e-01
-2.260960753767651821e-03,1.135238924232856161e-01,-4.483817035730200407e-01,-5.681066290478761771e-02,-4.627353768114964711e-02,-3.174768378503353694e-02,5.321782827377319336e-01
6.627388256813865341e-02,7.500424644156730714e-02,-4.452315510234160501e-01,-3.008977361061484449e-03,-5.949975136450525934e-03,1.606912512399337207e-03,5.160627365112304688e-01
7.434886637460721981e-02,7.321203131552744825e-02,-4.368142298375104482e-01,3.871485698039000764e-03,-6.417279680367935293e-03,-8.547665208943367246e-03,5.109751224517822266e-01
6.764935545881420320e-02,6.697888250588174275e-02,-3.906407306031377535e-01,-1.270960501758380996e-02,-7.089565582936133148e-02,-2.317279158287247759e-02,4.763371646404266357e-01
8.380971643182966169e-02,6.088809881290591086e-02,-4.255975423598480356e-01,-1.034185749487691818e-05,6.542834225328443380e-03,1.227550281039871925e-03,4.984753429889678955e-01
1.475519873731762077e-03,1.485104229875905402e-01,-4.624742005897394814e-01,-7.884316332547626482e-02,-5.955063707756780289e-02,-1.004576805007139154e-02,5.785116553306579590e-01
1.829847988346326726e-02,6.283733301230751134e-02,-2.959370773049173620e-01,-1.478309406697439141e-02,-5.295993818787638613e-02,4.748752941130348314e-03,3.519388139247894287e-01
-1.394888416536620157e-02,1.303215952306197578e-01,-2.913506690253147013e-01,-1.346083426767914412e-02,-5.712829080855080788e-02,-2.498624842402907484e-02,3.872906565666198730e-01
7.172790044751936600e-02,8.424248160517741613e-02,-4.678566641652666669e-01,-3.004008776744177944e-03,-1.856897104457179079e-02,-5.927148769484775516e-03,5.470170974731445312e-01
6.187017527115223903e-02,8.590259979698314230e-02,-4.303047676150368872e-01,-4.108131462428785911e-04,2.835249814134971867e-04,9.870217568247728092e-04,5.046241879463195801e-01
5.827740039739964795e-02,8.263836224787340923e-02,-4.206710418565998144e-01,-1.894988173203979165e-03,-1.911830421258485339e-04,-5.896425622226978552e-03,4.916989803314208984e-01
4.563683674006727142e-02,7.267038040770482099e-02,-3.757502786809210349e-01,2.346738000767170304e-03,-8.093184316911916155e-05,-1.712725292788450787e-02,4.365616440773010254e-01
7.414510563052773007e-02,7.078395551792676654e-02,-4.394734875142672359e-01,2.123148230924135332e-03,1.148593076377507887e-03,-9.064418277098508720e-04,5.119657516479492188e-01
5.892001430215837443e-02,8.141077170823496356e-02,-4.182902473186804193e-01,3.995349791495299459e-03,-1.331104423303945987e-03,1.299966097123641433e-03,4.889034330844879150e-01
6.735040440330122835e-02,8.052480088366106847e-02,-4.387239241129722855e-01,1.692359713644508447e-04,-1.037089921345361513e-04,-4.152767702726080368e-03,5.128390192985534668e-01
6.297888396545348044e-02,8.436788541806819475e-02,-4.312012604407095551e-01,-2.645280235668027915e-03,3.315926048747206973e-04,-5.617116811946841481e-03,5.053291320800781250e-01
5.133529028263611460e-02,4.124533119767229139e-02,-3.509954937603945169e-01,-7.667165263205444076e-04,9.969990203293428721e-03,-4.415506591966211064e-02,4.050448536872863770e-01
6.431077824311043356e-02,8.484782401415272290e-02,-4.361939342060134894e-01,7.271598114278068990e-04,-5.398020097153951886e-04,-2.091957966522408740e-03,5.110980272293090820e-01
6.347231936746100533e-02,8.557783539709376552e-02,-4.361796452185606743e-01,7.867716624277271663e-04,9.195179125733983711e-04,-3.505080961698677118e-03,5.111037492752075195e-01
-1.711982285293016381e-02,8.270980109626538401e-02,-3.566660773145321484e-01,3.639700435808061046e-02,-5.866230672479472164e-02,1.261748263629732317e-02,4.170491695404052734e-01
4.735439287224502136e-02,8.372910666952179670e-02,-4.418682297026424455e-01,1.664337029928723236e-03,4.790782849287456707e-03,-1.606167053615478084e-03,5.084703564643859863e-01
6.888308486214306248e-02,7.336613269856998021e-02,-4.468803594729904849e-01,1.389712221824134560e-03,1.009284630173318091e-03,-4.448820375769854500e-03,5.180853605270385742e-01
1.920238968861187612e-02,1.005000096020234879e-01,-4.533497576344514002e-01,7.702541621117126730e-03,1.082860381086931528e-02,-1.434172116933950854e-03,5.185249447822570801e-01
2.541987851063567949e-02,9.363784899571836462e-02,-4.351347446083388415e-01,2.808652116672050083e-03,1.147589641386267956e-02,2.481470664852951716e-03,4.986176788806915283e-01
4.598960941775839806e-02,9.288340110619455747e-02,-4.606727418056038026e-01,1.367827330675117775e-03,-2.490709539568820418e-03,3.129841436144564434e-03,5.317130088806152344e-01
4.294185900289487767e-03,1.037333432474280004e-01,-4.487288942872176278e-01,-1.341394707519880450e-02,1.026750996085148710e-03,6.591915798489331353e-04,5.105982422828674316e-01
2.810606983148897231e-02,8.597512875170235103e-02,-4.443471189895549234e-01,-1.363099189965953986e-02,-2.068210022872924055e-03,5.170998855013038777e-05,5.044516921043395996e-01
2.716679730798912673e-02,8.394666308065229510e-02,-4.412207824066545214e-01,-1.013506259855762905e-02,3.105946597640698269e-03,7.203205548093213569e-05,4.995427727699279785e-01
-4.846322092584384733e-03,1.087278582661228010e-01,-4.480580259520512421e-01,-2.973275913062602138e-02,2.818030442813707157e-03,1.464500678759297935e-04,5.122002959251403809e-01
2.495608705207097433e-03,1.192779758307986882e-01,-5.239835741643523725e-01,-8.898306796163515942e-02,-2.045688033444616541e-02,-1.770386249979393183e-03,6.142643690109252930e-01
6.189568564704842069e-02,8.187822857061252679e-02,-4.252756239198094979e-01,2.418253013048144578e-03,1.979102531078181322e-04,-3.547472360093944978e-03,4.975193738937377930e-01
5.904437833109213440e-02,8.323987866188159446e-02,-4.216268657744698389e-01,1.104319572801419017e-03,-3.144524600167352118e-05,-7.728527309491473041e-03,4.933996498584747314e-01
6.820708036664327456e-02,6.830129329340808852e-02,-4.302459623515370035e-01,-1.633057916348869113e-04,2.364336614271824518e-04,-1.504949836328670163e-03,4.985072314739227295e-01
6.453914467476623562e-02,8.085786715065743091e-02,-4.329169063075944957e-01,1.304784865211651478e-03,7.226236034569339555e-05,-4.590912909960719783e-04,5.058185458183288574e-01
6.266247606621444532e-02,8.488255283025405995e-02,-4.316306231076039168e-01,9.938189052269153357e-05,-1.239754745611670091e-03,-6.083313143896119761e-03,5.058836936950683594e-01
6.509132902294376133e-02,8.479605947722237969e-02,-4.337674754471780858e-01,4.778749827343864746e-04,1.691996371666322244e-05,-5.378091412945715591e-03,5.090832114219665527e-01
6.051200400755982201e-02,8.282779103769130624e-02,-4.212553566139438099e-01,2.072550579342232759e-04,-1.088663363622486635e-03,-7.259789727650584751e-03,4.934679269790649414e-01
4.547138419096335982e-02,6.552748151228823814e-02,-3.620551746312320462e-01,2.542825727758552066e-03,2.794477377630337229e-03,3.516059397887193877e-02,4.223803579807281494e-01
6.228030756284388958e-02,8.408141385175316174e-02,-4.335596410866057182e-01,6.303019140729866979e-03,-7.569550307830120095e-04,6.326467763787855560e-03,5.073296427726745605e-01
7.959443250957798366e-02,7.819914148417295152e-02,-4.475382170100224433e-01,1.593174118585559927e-03,8.131420835785873116e-03,2.618098562798168785e-02,5.285807251930236816e-01
6.530432601397376247e-02,8.589519164681477803e-02,-4.365422037930094534e-01,4.069468016614393151e-04,5.344404321240131799e-04,2.941348373085516787e-03,5.124789476394653320e-01
6.237635473879377113e-02,8.587152790448351891e-02,-4.335955226670505924e-01,3.420284452918556607e-04,5.377512646782702356e-04,2.873947047881406699e-03,5.081526041030883789e-01
5.557545726842330613e-02,8.256165128721079660e-02,-4.153812962326390301e-01,9.262586865239745039e-04,-1.293914781735045578e-03,-8.397466466224994073e-04,4.850232601165771484e-01
4.703528032235454459e-02,7.185447719092263874e-02,-3.800932986829771432e-01,3.353401542104301331e-03,-4.185035803740593321e-04,1.486348335933892865e-02,4.408546686172485352e-01
9.777968675776371743e-02,7.926610221809435308e-02,-5.140793631826391374e-01,3.123767585062738050e-02,-1.871647509194222098e-02,1.109988036332548549e-02,6.064111590385437012e-01
1.167244693479499162e-01,-1.258880985943511277e-03,-4.393341525416416538e-01,3.310935907330930794e-02,-1.246897929965263586e-02,1.607434748925604673e-01,5.820533633232116699e-01
7.261551625214146544e-02,6.968320915792156067e-02,-4.299561709550065447e-01,3.194028911460274241e-03,4.309542129855072415e-03,2.399521052813810562e-03,5.012153387069702148e-01
7.346623959026721273e-02,7.289149378890918962e-02,-4.354900179222060963e-01,6.501172368630200524e-03,-2.848035675754897848e-04,4.151522028709950262e-04,5.087944865226745605e-01
6.928563118732938841e-02,7.706625878613859726e-02,-4.331441008011220339e-01,1.147657838530466434e-02,1.985615498907946242e-03,4.251454703958979647e-03,5.068200826644897461e-01
7.215082019238774902e-02,6.658716153297986051e-02,-4.455527565911349686e-01,9.462668164115434818e-04,-1.553092305319767573e-03,3.054607325696618528e-03,5.149810910224914551e-01
7.221517372133615109e-02,7.489467713205777422e-02,-4.478720150625489782e-01,7.582566696476855141e-04,-8.328228642410797592e-05,1.703948638383383533e-04,5.214338898658752441e-01
7.502446397650253118e-02,7.512114232168984329e-02,-4.468213153257358239e-01,1.035953013684398063e-03,-1.195747323349788909e-04,-1.373776692786546013e-04,5.218973159790039062e-01
6.817422448509555255e-02,6.773180094423000841e-02,-4.445170020843289271e-01,-1.881063154774141512e-03,-1.860678253832698725e-03,7.772679237972462702e-04,5.124924182891845703e-01
7.659309031928532296e-02,7.193170751503072391e-02,-4.379918814329768484e-01,6.327075644931174150e-03,-1.485582499352079049e-03,4.307051426234053586e-04,5.123943686485290527e-01
7.285147310939235621e-02,5.504102616829306682e-02,-4.133820999880986058e-01,-1.108360873002777781e-03,-4.450898531752613303e-03,-6.595598689365794742e-03,4.777801632881164551e-01
8.350060516513746478e-02,4.364995833664447877e-02,-4.432579165494135442e-01,2.802902602426866115e-03,-1.821672420340587299e-03,3.296163617045912695e-04,5.080401301383972168e-01
8.942857269789081243e-02,9.064688529230105485e-02,-4.655443738378448049e-01,2.111349656961164847e-02,4.853291171685181898e-02,-6.213715466833140411e-02,5.732882022857666016e-01
1.122836009652239675e-01,4.403506257341788244e-03,-4.603084878372983857e-01,-2.049660413353626958e-03,1.319346209973598942e-03,5.468801809431452984e-03,5.271015763282775879e-01
7.258926693596701174e-02,6.921233898152495678e-02,-4.420773679554322322e-01,4.121872878337960256e-04,-1.381003942490641526e-03,2.166456124106953211e-03,5.130063295364379883e-01
4.879253767222482829e-02,7.248362475415021100e-02,-4.462296954919634517e-01,1.570206974642882752e-02,1.107165267175085185e-04,-4.376423947151823415e-05,5.080114006996154785e-01
3.252763280495854503e-02,9.813273693122251395e-02,-4.500307904746145837e-01,-6.529351654841271564e-04,6.774888718364451001e-03,1.236485258291022092e-03,5.186217427253723145e-01
1.071401795188620110e-01,1.066560620395604064e-02,-4.488546866930114843e-01,-8.407420266617882804e-03,2.262488511563577956e-03,-3.480827455110963378e-03,5.148417353630065918e-01
1.045708835456192753e-01,1.652694869936049971e-02,-4.546994365349947276e-01,2.938339154624733471e-03,-2.713004984284925897e-03,3.706342737079689007e-03,5.209451317787170410e-01
1.079190462827871455e-01,1.003079585957537823e-02,-4.485879983751964173e-01,1.155970942629262234e-02,2.968389716269889851e-03,2.018700803174012549e-03,5.150206089019775391e-01
1.039496934968441588e-01,1.889649840881946208e-02,-4.644809461982083998e-01,1.655219758353166509e-02,1.730934394873810027e-03,-1.024722184326761279e-02,5.321151614189147949e-01
1.037259327895325156e-01,3.551848463710968740e-03,-4.534688468399564742e-01,1.634170229340100450e-02,-8.528922559428868443e-04,3.138943118848122257e-03,5.152837038040161133e-01
1.814035810789758618e-01,-4.015044315070789849e-02,-5.002742027420123971e-01,6.302705513870932030e-02,-3.158820248490590288e-02,-1.262321945846349158e-01,6.522704362869262695e-01
1.579746399046628169e-01,-3.523820972923151496e-02,-5.169745530574236803e-01,3.456821465517853631e-02,-6.591067969942487371e-03,3.358066497203939654e-02,6.079283952713012695e-01
1.127942819596289281e-01,1.115252004624135707e-02,-4.470191411016619654e-01,7.467767364281242826e-02,-5.422476018692302946e-02,1.518917892641679923e-01,6.013204455375671387e-01
6.466578128643368784e-02,7.655344994537632841e-02,-4.208131929484437705e-01,-6.377481152960235572e-03,-9.518961845262789712e-03,1.315418909669593267e-02,4.924584329128265381e-01
1.216735529519779591e-01,-8.899538438014581443e-03,-5.029699413983677037e-01,8.560724469600199116e-02,3.759016698854855676e-02,-3.366699757572284846e-02,5.960641503334045410e-01
7.708629466343694392e-02,7.046807132532131868e-02,-4.498251264702226027e-01,5.912044343126998149e-03,5.887865987491999568e-03,1.535927007503519459e-02,5.245081782341003418e-01
4.290896506920574560e-02,-1.355538186063212636e-02,-2.663538566873106528e-01,5.522798678887846230e-02,-6.774097583034535686e-02,1.043169986200987859e-01,3.700437843799591064e-01
3.665493250737282549e-02,4.918077343935683965e-02,-3.069687003384977131e-01,6.061179690840952025e-03,3.382681629129304091e-02,6.350128943296681761e-02,3.717236816883087158e-01
4.880571905215815021e-02,3.759389238588635440e-02,-2.985661411587699487e-01,1.531176792365481626e-02,-6.847897893753722431e-02,1.108497030304485403e-01,4.105273187160491943e-01
9.209119012142572003e-02,2.527634222811436793e-02,-4.446551132428827047e-01,4.547388165102722590e-03,6.174757169332003616e-03,-9.894751287786560448e-03,5.071176886558532715e-01
3.604652442606572083e-02,5.328806558699406004e-02,-3.166711249430222974e-01,-1.768162149899934251e-03,-3.614851691655691143e-03,-1.913063393615454730e-02,3.632284700870513916e-01
5.378030254557508716e-02,5.930098746306719515e-02,-3.722802194700933764e-01,8.236278542040861503e-03,-1.472666837963183296e-02,-1.663515549560357076e-02,4.308068156242370605e-01
9.225696975765154684e-03,2.295153829576256077e-02,-2.008756194527812899e-01,1.941912351914154566e-03,-1.611778830603821308e-02,-5.818138651414706680e-02,2.411652207374572754e-01
1.914991372042307294e-02,9.782999930026911595e-02,-4.498928172674604431e-01,8.597428113789154155e-03,-4.321748142021705416e-03,9.677377210567938981e-04,5.132022500038146973e-01
6.281238545071621271e-03,8.321533575973694141e-02,-2.865421934884546662e-01,3.829117037024021980e-02,1.420867179839994388e-01,-1.136203464208493559e-02,4.237267374992370605e-01
6.880945577632871513e-03,1.539655323473362869e-02,-1.939144894274009157e-01,-3.418124231274878946e-04,9.685714534942258674e-03,-1.923395359411761776e-02,2.085493803024291992e-01
7.947108370871205918e-02,5.851084160663491684e-02,-4.292959261208683097e-01,-1.356987057519544806e-02,-5.496068213099859073e-02,-1.152978746783945296e-01,5.459986925125122070e-01
2.713392015446097760e-02,-3.199978284277697760e-02,-1.354458595982451774e-01,-4.214806179423598136e-03,2.246484584093204687e-02,-6.771531622431790909e-02,1.887814253568649292e-01
7.419916676170694447e-03,4.800791661816292133e-02,-1.397443307721492889e-01,3.733663476875973518e-03,-3.920238601530196682e-02,-4.566360837733335343e-02,2.004634588956832886e-01
7.111279427482690429e-02,-1.268386874258134456e-02,-1.756303587254564869e-01,-7.115452259023311021e-02,-4.319924084946907827e-02,-9.751147753477959479e-02,3.107099831104278564e-01
6.034123701663204886e-02,6.287692024937843738e-02,-3.826361963625792839e-01,-3.225579260386864100e-03,4.575842494803286642e-02,-7.008851702053343902e-02,4.673420488834381104e-01
6.292475453889243009e-02,4.701850153423767220e-02,-3.590908182920002911e-01,9.890467616705599790e-03,3.345929046745942104e-02,-8.258986422105812908e-02,4.424395561218261719e-01
3.438441217419219154e-02,1.922643476745883317e-01,-7.166216085640799704e-01,9.371180328540190674e-02,4.833327931635627434e-02,-1.815408177460508046e-02,8.613057732582092285e-01
7.307096922932421190e-02,7.588344450232045735e-02,-4.407445039179664348e-01,-6.690102636950094953e-03,-2.763553599814141254e-03,-1.353164664983788320e-03,5.153853297233581543e-01
4.910884895771738812e-02,6.588706556267798220e-02,-4.538668190746963371e-01,3.922996432082997281e-02,1.577097084688496844e-03,-1.475800916920237855e-04,5.160712599754333496e-01
6.883175531472621178e-02,5.456020726345173211e-02,-4.431704780529339138e-01,-4.557327878524450142e-03,-2.083596176809174999e-03,2.690486204094161022e-03,5.051137804985046387e-01
1.251141536441108260e-01,1.180592469425614244e-01,-7.506135321297983110e-01,1.072070640425647481e-01,-8.762547783709262288e-04,-3.598010001510566769e-02,8.939444422721862793e-01
5.811334524249833766e-02,7.622122867628305931e-02,-4.499942750386596857e-01,9.305841720476925108e-03,-8.231925205537168194e-03,2.764517194355057411e-03,5.178687572479248047e-01
6.837880707547497328e-02,6.475904244904426288e-02,-4.432836086212282867e-01,-8.644180113804892599e-04,-1.199829734829003765e-03,-1.859091607982706496e-03,5.098787546157836914e-01
2.290838152783347681e-02,8.671685613670160331e-02,-4.476784147865257579e-01,-1.212184586400481476e-02,-4.259001409513767621e-03,-2.080119640813839123e-03,5.060228109359741211e-01
3.746224487418498006e-02,7.489218983153483888e-02,-4.881652076437297816e-01,1.032463389971833567e-01,8.657061334668031405e-02,-2.706314881286606133e-02,5.949953794479370117e-01
5.206788884395760486e-02,4.451793953603490339e-02,-2.955394055491987748e-01,3.989888179082880064e-03,5.939569822518757369e-02,-4.276147757979548852e-02,3.665792644023895264e-01
4.900392451307541974e-02,6.335865436100343584e-02,-3.734474658493841526e-01,-1.246668142589931437e-02,1.606708924146281470e-02,-1.634857752132509376e-02,4.321781396865844727e-01
5.660716785922445538e-02,1.771179560341425152e-02,-2.665782394269315403e-01,2.636811078518829302e-02,7.627329331519180911e-02,-7.478082330736481043e-02,3.601478040218353271e-01
1.028179913900434950e-01,-3.219391450920741637e-02,-4.158108795470138452e-01,8.318374531178714115e-02,4.805778894202449025e-02,-8.283429310165962844e-02,5.152231454849243164e-01
1.038512812217052272e-01,2.216689966837073755e-02,-4.284144457170098175e-01,1.186524309994707038e-01,6.376811303304029399e-02,-2.390807030169559561e-02,5.501367449760437012e-01
8.720300324111293633e-02,6.243866291416402814e-02,-4.352230416373680244e-01,-5.187414247285325626e-05,2.448343666851024881e-03,1.105426202197173999e-03,5.105158090591430664e-01
8.370860605507249308e-02,6.620594741692173435e-02,-4.368152540704973164e-01,3.574414129889473893e-03,6.865849325759762305e-03,1.958634432848707727e-03,5.121836662292480469e-01
6.788039826834096901e-02,6.929456946041689935e-02,-4.335241441931616535e-01,1.042605526958646257e-03,-3.273733636693490815e-04,2.413868443654963031e-03,5.021340847015380859e-01
6.778553389419245123e-02,7.311458290305858365e-02,-4.350951787683244310e-01,-5.894650652731789602e-04,8.183586316666095761e-04,-1.021878706327365672e-03,5.055724382400512695e-01
8.166733697577960305e-02,6.247226377086287363e-02,-4.294691005717690691e-01,5.319105754182602624e-04,1.309392302781797182e-03,-1.803013270615253579e-04,5.018203854560852051e-01
6.688996522517928756e-02,7.662768371246858612e-02,-4.362859639679364521e-01,8.557457543737691675e-04,3.903689424702254385e-03,2.253468971137748134e-03,5.081769227981567383e-01
6.678208578506425463e-02,4.695339410447318951e-02,-4.391880670206465553e-01,-8.419327989991906916e-03,-2.375175195801398301e-03,-2.591939210572177452e-03,4.966044425964355469e-01
9.417896282044452283e-03,1.030300097405263682e-01,-4.506309948910770524e-01,8.430544512342007246e-03,-1.026959807639875148e-03,2.350338712931588324e-03,5.135244131088256836e-01
4.398927572961813803e-03,9.457325861871118677e-02,-4.590536327927715599e-01,5.439287160884022365e-02,-2.115853284818618174e-02,5.826458865310567628e-03,5.244348049163818359e-01
5.150653414323358437e-04,1.217792371161174891e-01,-4.511172693537270906e-01,2.650084681552494076e-02,7.935416271679325562e-03,-5.718041679080452556e-03,5.252023339271545410e-01
6.368005195026568699e-02,8.480623827494682132e-02,-4.578910894094627704e-01,-8.965732254480691856e-04,1.592312029492583270e-02,1.837671167626265221e-03,5.331742167472839355e-01
3.468566091021127451e-03,1.038790903437960544e-01,-4.502221403646585740e-01,1.500400330549369818e-02,-7.087715784592421055e-03,2.966429240626244652e-03,5.121770501136779785e-01
1.557768260085756751e-02,1.012687284876158944e-01,-4.493066560558980904e-01,6.901561261052381602e-03,-4.267029351527619821e-03,7.813579758127658925e-03,5.134953856468200684e-01
4.367513266549247208e-02,6.138697604754622672e-02,-3.864818375415920437e-01,1.797158840126689139e-02,4.184529663997721416e-02,-2.942419167777014441e-02,4.492070376873016357e-01
6.296927477631980574e-02,7.685288086962627219e-02,-4.458850889424584296e-01,1.338337239409998760e-03,8.494200989857095957e-03,1.764953256474263146e-03,5.161602497100830078e-01
6.647244697428006388e-02,6.569642947370449293e-02,-4.431541351189216549e-01,-6.343140241360257234e-04,-2.029967595078505278e-03,-2.235071594258097958e-03,5.092670321464538574e-01
1.273795063697244490e-02,1.045124803216355702e-01,-4.522338207809642463e-01,-1.346196040560205393e-03,1.118158919826272267e-02,6.006421522501871483e-04,5.173736214637756348e-01
-2.483693357859251272e-04,1.129757152971784528e-01,-4.572961933113993127e-01,3.864221098939002973e-03,7.088337239717818622e-03,-1.789491766403167533e-03,5.231313109397888184e-01
-5.842001337800939442e-03,1.181352237149291273e-01,-4.571420548584102517e-01,6.125597571494252949e-03,6.507975804274666008e-03,-2.544579980109423680e-03,5.246447324752807617e-01
-2.936022514062475164e-02,1.256430628615307632e-01,-4.557301462624603894e-01,3.967879592305255734e-03,-4.320429247211688382e-03,-8.450472020933033840e-04,5.215471386909484863e-01
4.789049364928854580e-03,1.167331962855502059e-01,-4.642101493791358502e-01,-9.875449707249248435e-03,5.480831723320978878e-03,2.537682972021969730e-03,5.342241525650024414e-01
-1.046444658308420816e-02,1.758013563088086650e-01,-5.856246180091089215e-01,5.764982919213856860e-02,-1.220718847787431588e-01,3.261261207346086155e-02,7.283561825752258301e-01
1.110376368422850979e-02,1.138545362188235210e-01,-4.554236670794532538e-01,1.301171775446946944e-03,8.379095859857087908e-03,-3.427329160279784896e-03,5.257304906845092773e-01
-2.344029987194772013e-02,1.362933776237523209e-01,-4.702675343287137655e-01,-1.368678491945657730e-02,-1.501322147409895995e-02,-3.441913061271700824e-03,5.457256436347961426e-01
7.266631852700869421e-02,7.769319247610811940e-02,-4.479329819030528625e-01,-4.353060948547072227e-03,9.444778656749034957e-04,-2.155491108655044428e-03,5.232010483741760254e-01
7.549634210382336064e-02,7.411396712300519218e-02,-4.469035482086636257e-01,-1.180660793929677902e-03,-6.129643496684653199e-04,6.680491412531377538e-04,5.217164754867553711e-01
7.293984943150305655e-02,7.224762855089886249e-02,-4.460578771322361025e-01,-8.302387099449117392e-04,2.247877225802960219e-03,-6.476066416976568232e-04,5.186697840690612793e-01
7.465874159421612144e-02,7.317576819306359504e-02,-4.473167121196527929e-01,-1.538709793330183748e-03,-2.087124020459709978e-03,9.832139390822238823e-05,5.212548971176147461e-01
7.650532096470535892e-02,7.416298532607054628e-02,-4.443622911639626416e-01,-2.838657707986091266e-03,8.512129843715994862e-04,1.841414084688768299e-04,5.197258591651916504e-01
7.861853168415211535e-02,7.031072924010300929e-02,-4.376053005735711099e-01,-4.148504150089113787e-03,3.699304253414930580e-03,9.096949917736447174e-04,5.122134089469909668e-01
7.731092847806092516e-02,6.182201573620585422e-02,-4.478803626785433645e-01,-3.750744025334168223e-03,2.572259722342031592e-03,-6.767911925555812266e-03,5.178133249282836914e-01
8.809306724928958610e-02,4.887793634949241794e-02,-4.560091551193686255e-01,-6.891728788599092020e-03,-7.626040473824197488e-03,-3.265669519988062281e-03,5.259248614311218262e-01
7.050291812593709184e-02,7.269204090169942289e-02,-4.383727905403366765e-01,2.223222927507722928e-03,-4.547257049222795840e-03,-6.339055286220026536e-03,5.101673007011413574e-01
6.975351725389877799e-02,5.452515839480087667e-02,-3.339152203089718052e-01,7.883681117295739116e-03,-1.183739569294890021e-02,-7.986778171898746559e-02,4.204480350017547607e-01
1.335394590713745999e-01,-4.232475542424449233e-02,-4.165811489044511373e-01,5.954260138724931997e-03,4.844223369021495584e-02,-4.617496784672113497e-02,5.003569126129150391e-01
7.356009297645788036e-02,5.872972634307974116e-02,-4.164405870009352251e-01,-3.188636963772496064e-04,-2.499734414059132884e-03,-1.841399744011820022e-02,4.838284850120544434e-01
6.168124138860203720e-02,7.869772901890467742e-02,-4.251169817199423884e-01,3.528168459816567563e-03,-1.564864154237774127e-02,-2.291774291144021980e-02,4.978888630867004395e-01
3.466354467910327808e-02,5.599544761555622086e-02,-3.119782027893447385e-01,-4.269649954691311609e-03,3.361027526408659656e-03,-2.647259005087307729e-02,3.608338236808776855e-01
8.554888892395304256e-02,5.011695505505484038e-02,-4.511085118074693590e-01,-2.847487738627169519e-03,2.632563807428076746e-03,3.257322973506856286e-03,5.199218392372131348e-01
7.638334944562813478e-02,6.729334642933054722e-02,-4.350395590608496232e-01,1.722832645637336658e-03,-1.892099284073865510e-03,-1.637045719455431812e-03,5.069663524627685547e-01
1.506523901217758366e-01,-2.472522068178534260e-02,-3.967239365995637312e-01,-4.497474276703029850e-02,1.454223886053439968e-02,-6.848881532782248593e-02,5.051290392875671387e-01
8.187479575272463284e-02,6.198815745262054033e-02,-4.482423950760187070e-01,7.582734176854125790e-04,2.038887183404413262e-03,-2.973739558813934952e-02,5.230149030685424805e-01
5.034012476093524535e-02,3.609633074890060411e-02,-3.050898752366749678e-01,6.236128332042171173e-03,2.392170290664528964e-02,5.077303874145097477e-03,3.512569665908813477e-01
3.268650692961305726e-02,3.201984260112500369e-02,-2.828240065602281028e-01,7.796258793568083129e-03,1.095094912173861200e-02,2.216747680769411144e-02,3.183603286743164062e-01
1.878462278138985642e-02,2.360688035936303608e-02,-2.536217019614530055e-01,-3.714834167772224148e-04,7.190038775703259380e-04,-4.149244201872021552e-03,2.749466896057128906e-01
2.353959400115427508e-02,4.341389092746192335e-02,-1.133805464989437323e-01,-3.991625077688478601e-02,-1.875203957594002296e-02,7.133781985442667894e-02,2.072809636592864990e-01
3.684236049326597429e-02,6.278634259435464382e-02,-3.500963747063174369e-01,4.272755783667678102e-03,1.148085609543051701e-02,3.571709398021753745e-02,4.058457016944885254e-01
6.081201802457245065e-02,6.032488171702340973e-02,-3.752086991960738027e-01,1.208807225780011464e-02,2.005610361651438342e-02,1.619754165102538918e-02,4.385591149330139160e-01
2.546148276911533448e-02,1.398899071995802351e-02,-1.504340525682114627e-01,-1.696067534540783919e-02,5.457667649964507810e-03,1.083501766434115388e-02,1.742338687181472778e-01
5.014468055044279948e-02,6.955886727603596831e-02,-3.623193617097349439e-01,-5.236887578481510055e-03,2.877489866116271847e-02,5.261944772605449405e-02,4.351825118064880371e-01
-4.755186394821274420e-03,-3.644961094438337740e-03,-9.144540651583191182e-02,2.356221175725932773e-02,6.654199339482180786e-02,-1.586385698958622456e-02,1.526980698108673096e-01
4.698240766776745625e-02,6.686928406692396742e-02,-4.665504108242980452e-01,-3.897099869451473020e-02,-2.482805572927835095e-04,5.386731554109300615e-03,5.281736850738525391e-01
4.922124327838367508e-02,9.799923946449232148e-02,-4.685014709064285188e-01,-5.309050682796180760e-03,-3.355543876667759114e-03,3.326409800167451618e-03,5.438944101333618164e-01
2.030323670398630209e-02,6.224481139640478111e-02,-3.518019376057919811e-01,-5.995941060928772215e-02,-7.875325770939144154e-02,-9.306122428571127203e-02,4.595659077167510986e-01
7.080397214074646284e-02,6.668613567241249429e-02,-4.089858200704146185e-01,6.200856614070946252e-03,-1.569934000791823811e-02,-1.681469053049031506e-02,4.795231521129608154e-01
3.532997541102500527e-02,8.677142460853323747e-02,-4.530200263465244959e-01,-1.150420597711976876e-02,9.138444190743800002e-03,5.572830793155642698e-03,5.167147517204284668e-01
4.190568696493995882e-02,8.806537981350079369e-02,-4.383428551860621969e-01,5.271674012494586160e-04,9.889825055196740933e-04,-3.327567938029636629e-03,5.049499869346618652e-01
6.176221775795534552e-02,6.015094320983918608e-02,-4.395165615259232772e-01,-8.057378426112396259e-04,-1.402746727050576498e-03,-1.815216732837683688e-03,5.004928112030029297e-01
7.091428049995895933e-02,6.256660663938443112e-02,-4.158615602405394407e-01,7.685117814967494521e-03,3.275060948601095888e-03,-2.551057585509607442e-02,4.848903715610504150e-01
5.847171787886407124e-02,1.223274626342474580e-01,-5.219710504064665191e-01,-4.067627482865140975e-02,-3.985796848711324614e-02,-1.381297912473693559e-02,6.231837868690490723e-01
6.909264738175407983e-02,7.375148742095152810e-02,-4.410397559779360432e-01,9.671592777566167393e-04,2.206896731048747003e-03,2.287915443010988745e-03,5.125100016593933105e-01
6.965963341210940074e-02,7.766656057503240618e-02,-4.406298952795707491e-01,-6.647202162050970574e-04,4.498892477704761160e-03,1.414114188951996363e-03,5.144059062004089355e-01
5.244230917986403284e-02,8.059482089844743902e-02,-4.467195138903123364e-01,-3.749382192612040789e-03,2.334384392259123732e-03,2.214678960483275685e-03,5.138881206512451172e-01
6.255848932369398319e-02,4.737381176269286898e-02,-3.632987544592174434e-01,4.029888824498212459e-03,-5.113285641813034715e-02,3.113552166575106472e-02,4.311834275722503662e-01
7.261984303671409346e-02,7.854274933293112215e-02,-4.464883074866721757e-01,3.956810152835624206e-03,-8.426818951351427306e-04,1.925894325218591250e-03,5.221524834632873535e-01
7.560769452884874564e-02,7.464952009247033393e-02,-4.480169976777004792e-01,8.102653530577600110e-04,7.242656588496539571e-04,7.760714028671184938e-04,5.231513977050781250e-01
7.418755610422261837e-02,7.641808354333340381e-02,-4.466407760915824809e-01,4.035973155105629937e-04,7.180445131308378810e-04,-8.179213491750904168e-05,5.219491124153137207e-01
7.278372849121195198e-02,7.676319889004848407e-02,-4.391756334306522458e-01,5.668463261038296334e-03,-6.286469134299736521e-04,1.207012849360101494e-03,5.140598416328430176e-01
7.479174253244086357e-02,7.649927818405646840e-02,-4.469036061933753246e-01,3.437247007033305407e-03,4.816981483831195071e-04,-1.252377996751927300e-04,5.225858092308044434e-01
7.606716025070486831e-02,7.155764887319177037e-02,-4.446219491244414734e-01,9.587831722870148940e-04,-5.271020844013475605e-04,8.355649123251806913e-04,5.184545516967773438e-01
7.729689411398488197e-02,7.468067640236183968e-02,-4.485197641322696827e-01,1.074452571176260415e-03,-4.417930437110862947e-04,1.030084439301493090e-03,5.245203375816345215e-01
7.555619234331945044e-02,7.308526004215343264e-02,-4.469379470845093461e-01,1.647187001620821142e-03,1.058628479549403268e-03,1.367135096683306280e-04,5.212741494178771973e-01
7.852752555070260931e-02,4.419070612377054563e-02,-4.455287862834665380e-01,3.809599412579933210e-03,4.820972319591991517e-03,-4.428613612126385685e-03,5.079288482666015625e-01
5.242212392330816706e-02,6.419478021227922881e-02,-3.713874153720254645e-01,-4.296260107507748026e-03,-1.403311245380345525e-02,2.583178839554264861e-02,4.328862428665161133e-01
6.901754568608303719e-02,4.301444231123677242e-02,-4.603303134911860828e-01,5.286434204624844424e-02,-1.343289634663211163e-02,1.129617768254452884e-02,5.257648825645446777e-01
7.998044286736261110e-02,4.498787930412331826e-02,-4.416231744065296505e-01,9.789393396728367572e-03,4.149623522132989475e-03,7.506428373714536632e-03,5.055202841758728027e-01
1.235715798160800238e-01,4.145701785486560764e-02,-5.442242139857937921e-01,1.188581369389833942e-01,-9.777707691912855201e-03,1.975268982440824689e-02,6.646031737327575684e-01
-1.518938112001892715e-02,8.016214318233724767e-02,-4.392987158245051926e-01,9.151648332871702152e-02,-7.096548629582200007e-02,4.087393761933527658e-02,5.240670442581176758e-01
6.523166759679607796e-02,8.123941326560193965e-02,-4.335976210988252699e-01,-3.320335443876462275e-03,-1.074560318521930631e-03,7.523901473545982748e-04,5.070604085922241211e-01
6.513499782166234930e-02,8.454790914341803187e-02,-4.340099568876273350e-01,-8.200921436691229523e-04,-9.822465058838322077e-04,1.241738651045601154e-03,5.091384053230285645e-01
6.401424464300131678e-02,8.412664946633185981e-02,-4.349433870999552254e-01,-1.221381252975983810e-03,7.971743748625040966e-04,-1.943778751055511358e-03,5.093291401863098145e-01
7.272258888003524380e-02,7.089610843115590200e-02,-4.427279384649514538e-01,-1.120643484905172816e-03,-4.031410605258307477e-04,1.672887769557601309e-03,5.145519971847534180e-01
7.268207015774780233e-02,6.838271000570891878e-02,-4.374576456090540355e-01,5.251663401220249246e-04,-1.672420951929670272e-03,3.866525608467695903e-05,5.080127716064453125e-01
6.130742736111038926e-02,6.283783547722437968e-02,-4.403699418374293351e-01,5.522846187690974833e-04,5.953411968790859416e-04,2.795767597233277807e-04,5.024465322494506836e-01
6.760264254525785721e-02,8.148138500754689706e-02,-4.361681983106133198e-01,-1.523603175840473802e-03,1.000315859699832041e-03,-8.208209384917484173e-05,5.108613967895507812e-01
6.734098635576910019e-02,8.112313695496942145e-02,-4.403515416066655086e-01,-8.308446541990382192e-05,-5.892359426268293674e-04,-4.965384619522522462e-03,5.147948861122131348e-01
7.215020670229688182e-02,6.644194416598711572e-02,-4.461683321656378931e-01,-5.798642551219437835e-04,-1.254345860266320662e-03,-3.635529576344244222e-03,5.155321359634399414e-01
7.502749847087855639e-02,6.126353696070738208e-02,-4.609529996698982779e-01,2.044835093184874109e-02,1.219867659603479822e-03,-2.591355697979288129e-03,5.304397344589233398e-01
6.809053674234222253e-02,6.757793382364399304e-02,-4.449207043952482232e-01,2.088174128269653079e-03,-1.592367182801067817e-03,-9.550262076675146818e-04,5.127779841423034668e-01
6.914820949244565584e-02,7.404306733086721271e-02,-4.458133984773361425e-01,-3.564065013484468366e-04,-1.690948465549010861e-03,2.797371801870915473e-03,5.174577236175537109e-01
7.339593224122858972e-02,7.005017321106055128e-02,-4.470759884271129914e-01,-5.875914925704977827e-04,-8.620434636503665265e-04,2.052821153326618412e-04,5.188103914260864258e-01
6.629499708019573334e-02,5.322413553123919727e-02,-3.552356171718849542e-01,5.856952597304131841e-03,1.040382794789333487e-01,2.650818106464964546e-04,4.526854753494262695e-01
7.372754962578750848e-02,7.652384775364981517e-02,-4.460264001233930076e-01,-3.729310209882570094e-03,-1.101419305244546185e-03,-1.142999882232732166e-04,5.212012529373168945e-01
6.357833661816925108e-02,8.034539035769405757e-02,-4.270856500580713089e-01,-4.105469731157773694e-03,-5.597487533773112681e-04,-4.894847109458534164e-03,4.993822872638702393e-01
7.455834113821843689e-02,7.514196289514696314e-02,-4.469069758186492436e-01,-4.494406318347541739e-04,-3.253969085706539198e-04,1.096558500853738339e-03,5.217617154121398926e-01
7.242057540572957586e-02,7.299467740432727392e-02,-4.461051824085630613e-01,-1.002789261620218569e-03,-1.278330533684947411e-03,2.876828801123131486e-03,5.188446044921875000e-01
9.209696391097929591e-02,7.033320619737842838e-02,-4.682063021723466001e-01,9.136364385448783685e-04,1.884776762628056958e-03,5.237274255636476666e-02,5.571902394294738770e-01
8.554112022431292761e-02,4.679377857298766541e-02,-4.446023804915283373e-01,-4.228375860665679713e-03,2.326053089240489365e-03,-4.240266893089197561e-03,5.119918584823608398e-01
7.854966625274559244e-02,6.039507769511007207e-02,-4.245801546694223383e-01,5.034630679432992514e-03,-3.541750520679195699e-03,1.552343058735415051e-03,4.944249093532562256e-01
7.734792918161556563e-02,6.877134331346212992e-02,-4.404268354583287803e-01,1.205266917636626817e-03,-1.143891749300120393e-03,-3.005449694960099331e-03,5.135746598243713379e-01
7.885823553049470247e-02,6.591403277372614999e-02,-4.479742437770149466e-01,-1.075551358308697711e-03,-3.353720001238596170e-03,1.038495459201637175e-02,5.208275318145751953e-01
1.036529500346401733e-01,1.831905327442384657e-02,-4.558457095425595407e-01,2.711557123980848447e-03,-4.714003775609174328e-05,-6.237812150472279299e-03,5.222214460372924805e-01
4.341910905955545519e-02,4.003215095171656912e-02,-3.220121977858457218e-01,-6.430167167331671610e-03,-3.652181482582116112e-02,1.527672538700360419e-02,3.703235387802124023e-01
7.568213275859686506e-02,6.923330238900188283e-02,-4.442531830116128178e-01,8.922962832873964668e-04,-1.071079626962325414e-02,-2.900404312016996531e-03,5.171006917953491211e-01
7.758095521208460688e-02,7.450032482969792813e-02,-4.408747108689199945e-01,-2.508358300261024840e-03,-1.427415715005651842e-02,1.251747125907205771e-03,5.175359249114990234e-01
5.584148629267268737e-02,3.865211459080794554e-02,-3.312512730421455776e-01,-7.666848261700493286e-03,2.236640604902847239e-03,-1.216453871255100336e-02,3.796283304691314697e-01
6.849968677236373260e-02,5.305231833971260635e-02,-3.977654232598933914e-01,-9.518479111280075261e-03,-2.752783962835867598e-02,7.530308980246968112e-03,4.616865515708923340e-01
4.789534649886187379e-02,8.869171328489020012e-02,-4.517355644731212982e-01,3.480986951059449226e-03,3.220408311551578280e-04,-5.445576201291591617e-03,5.213484168052673340e-01
4.335247408327135010e-02,4.383716070026218159e-02,-2.751091925720063336e-01,-2.616895858203439570e-04,-1.023595275482847844e-01,-7.229372504414828884e-03,3.649134635925292969e-01
6.613346285215324083e-02,7.592091782015494839e-02,-4.469690082711446077e-01,-2.623840897001766353e-05,6.032537623693484154e-03,-5.413664825044915956e-04,5.181717276573181152e-01
5.314379252772122308e-02,8.872988921956515007e-02,-4.616521355290102435e-01,-3.320122058938600532e-03,-5.762880883046220953e-03,-6.567654151936443488e-03,5.337255001068115234e-01
6.271291551074820170e-02,8.135356511840269311e-02,-4.471332788314403839e-01,-2.120762779219436040e-04,1.527261829575604635e-02,-7.417821859595977521e-03,5.202494263648986816e-01
7.710483240363419366e-02,7.130594340053250657e-02,-4.430013363706906682e-01,-2.697237831765612014e-03,3.453177395113034287e-03,-3.455463594232738192e-04,5.172871351242065430e-01
4.090946910276621606e-02,8.753465564035800561e-02,-4.723341114460495871e-01,6.741893888726953332e-02,-1.132689795440632030e-02,-7.640845921925593434e-03,5.511069893836975098e-01
6.213968529177743561e-02,6.355350169636336810e-02,-3.906612105787444778e-01,-1.338786133609003517e-02,1.524161296621771855e-02,-2.058207021719859683e-02,4.562634229660034180e-01
1.067249605434592574e-01,1.153255899360833836e-01,-6.879432830003373578e-01,-1.543087473447950775e-01,-7.791689575843877003e-03,-4.993491800983360096e-02,8.470551371574401855e-01
9.699663001764363690e-02,6.691857340491089157e-02,-5.322104618667267140e-01,-8.730630182807216921e-02,-3.420967389173765888e-02,-1.136589017476740196e-02,6.361183524131774902e-01
1.458598197704721877e-01,6.225699590963978958e-02,-5.793171696440000407e-01,-1.074954787767743447e-01,-6.368952628013165029e-02,-9.624282859748808927e-02,7.395046949386596680e-01
1.603559389473862562e-01,7.657072623883004470e-02,-7.397745366062994377e-01,-1.246603302667692870e-01,-2.300171859226758653e-02,9.325877700766546652e-02,9.034028053283691406e-01
9.119298630024980090e-02,3.828440069926761224e-02,-5.528664854211503554e-01,-1.327703539779328534e-01,1.764794311881809699e-02,3.564853578708462173e-02,6.642035245895385742e-01
2.837584172165397156e-03,1.236973176701523514e-01,-5.624454954985765864e-01,-1.101866867928696925e-01,-4.956384501554111227e-02,-2.637029906435853222e-02,6.695903539657592773e-01
9.511616525510055431e-02,5.086890619605077823e-02,-5.362280290844814168e-01,-6.342451955618615134e-02,1.789656658285277997e-03,-1.645366164539381962e-02,6.208927631378173828e-01
6.526703792995941500e-02,8.132325465587064706e-02,-4.536968220073390179e-01,3.627114374887259007e-04,-1.817795190596649055e-02,-2.314757807966953674e-04,5.281152725219726562e-01
3.364688799180545753e-02,8.699140454064024919e-02,-4.481601536070996539e-01,2.088353706311018437e-02,-4.392119339381083884e-04,-9.741551750891547928e-03,5.121318697929382324e-01
7.386104650737768118e-02,5.458936144799672596e-02,-3.959140261679835460e-01,8.493210124835948172e-03,1.380697595320328104e-02,-5.166851922221958604e-04,4.612978994846343994e-01
8.183390497823492260e-02,5.727447353574352529e-02,-4.121697903536097329e-01,3.927235100488299380e-03,-1.799792865406903836e-03,-6.606497814299673067e-04,4.822526872158050537e-01
7.618848560479440923e-02,6.334645965606242046e-02,-4.199563003710481968e-01,8.254134900931301561e-03,-3.350738527773687841e-03,8.500566208827347323e-04,4.900951981544494629e-01
1.149144807937289570e-01,1.527085537681052707e-02,-5.022630815081956523e-01,-6.682880685677471122e-02,-4.590474706925249011e-03,8.133173993601975054e-04,5.854935050010681152e-01
1.282452626154728104e-01,-2.723004213187753264e-02,-4.569479144305338414e-01,-1.410016789460012687e-02,1.246815783809442774e-03,-1.366122952879881983e-03,5.255922675132751465e-01
1.501023448767870860e-01,-3.761520877449631151e-03,-5.327659782663224375e-01,-3.154280787781330378e-03,1.809407436035965697e-02,8.512799994549194449e-03,6.214047670364379883e-01
1.317544828749218078e-01,-2.034800196955408036e-02,-4.957713697144884302e-01,-8.162919361067327850e-02,-5.445233349260617667e-02,-4.716099837864638072e-02,5.975226163864135742e-01
1.046338716819657233e-01,2.540065084518478011e-02,-4.552242409010113788e-01,-1.302880379480178194e-02,2.155776093595877015e-03,-1.274420060931897442e-02,5.257091522216796875e-01
1.237431710829822729e-01,4.471795374835230152e-02,-5.221976672281940512e-01,-1.034439326491789699e-02,-6.693072471726716280e-03,-3.617219692375821943e-02,6.138563752174377441e-01
6.537363645298563397e-02,4.348796560265075217e-02,-3.554076670136121496e-01,-5.218793344167741398e-03,-4.333761219707055884e-02,1.543029098154839046e-02,4.180397689342498779e-01
2.018759867431234034e-01,-3.449515608772379949e-02,-5.336268681607363451e-01,-4.277658415261757774e-02,-3.773704930915293410e-02,-2.044172351973575635e-02,6.587863564491271973e-01
1.165519449013391884e-01,-1.281497141082857394e-02,-4.675513719762263154e-01,-4.588086838048981847e-02,4.479735957951400810e-03,-2.058248814540102056e-02,5.385119318962097168e-01
-1.227164994021012062e-02,2.550097971968408317e-02,-2.288716443217204410e-01,6.723204313250162600e-02,-1.047286471149030534e-01,5.710972245528930097e-02,3.358171284198760986e-01
-3.768958374707569170e-02,1.473357382562223150e-01,-4.560425297992654614e-01,3.947658413961445401e-02,-1.741952475890855279e-01,-8.575448236036670516e-03,6.185363531112670898e-01
5.985420517970810317e-02,7.737417381904085345e-02,-4.398141855984371018e-01,1.358865322340294113e-02,-1.028828096559236162e-03,8.037387458940869686e-03,5.093923211097717285e-01
5.090506209741030297e-02,6.768652845298422926e-02,-4.455517428417873349e-01,1.825853262207018449e-02,-4.849882415788667189e-03,2.058776016319117507e-03,5.061280727386474609e-01
6.503447983286250733e-02,9.454590111493055282e-02,-5.041011951005461844e-01,4.327574312546313834e-02,-1.144645295911086123e-02,1.110356376504271700e-02,5.898844599723815918e-01
7.143056454382154530e-02,7.530347263929504376e-02,-4.525093524765463338e-01,1.009331419319096186e-03,-2.168944846719081447e-05,-2.209152525255519452e-03,5.259038805961608887e-01
2.953594274565790601e-02,1.407585041881017629e-01,-5.290117537104478407e-01,2.602004255732204979e-02,-5.811300564087584081e-03,-1.370944458398754527e-02,6.238312125205993652e-01
7.473452377342887365e-02,7.613856145124939245e-02,-4.463874598213615208e-01,2.467341032553828188e-03,1.591495756959836671e-03,6.263402763439718181e-05,5.218502283096313477e-01
7.034447354089751192e-02,8.316328612570467183e-02,-4.424035097274156003e-01,4.069715024297292268e-03,1.399795118698501017e-03,-6.644514724725479951e-04,5.193308591842651367e-01
7.123925555874369153e-02,8.026449853242040300e-02,-4.448797820127790015e-01,1.295832249978456788e-03,1.473260960951416204e-03,-1.883170967592230930e-03,5.207116603851318359e-01
7.196446268994957651e-02,7.844935292998872489e-02,-4.447388967473613341e-01,2.148315986281119742e-03,9.121412910897738605e-05,-5.014767714666410522e-04,5.199902057647705078e-01
7.020473574807054029e-02,7.834473747199499627e-02,-4.371538830679829180e-01,4.705604980606092370e-03,7.757279733753218946e-04,-1.050125244681075591e-03,5.115471482276916504e-01
7.234263848106856076e-02,7.599652164021569734e-02,-4.373828236754813692e-01,5.840627121918295916e-03,-1.026060218520975049e-03,9.056227511141222040e-04,5.116676688194274902e-01
6.333419019930375260e-02,8.506262931359082069e-02,-4.324359870648236681e-01,9.979305794811932362e-04,-2.585055992297652741e-04,6.090467239274115294e-04,5.069879889488220215e-01
6.816581172980540337e-02,8.085754801284045223e-02,-4.357453347506023977e-01,3.935433674626110517e-03,-1.344399066063430796e-03,-3.332144963370142765e-03,5.104588270187377930e-01
7.382438245254063780e-02,6.769966440082852976e-02,-4.417920465172193167e-01,-6.908126317627656492e-04,-3.890925063313086484e-04,6.744918021488403425e-04,5.125846862792968750e-01
7.337909293409153322e-02,6.839114099212179054e-02,-4.428933745259385213e-01,-6.844824627970722952e-04,2.297758533838159013e-03,2.509672367913756870e-03,5.138317942619323730e-01
7.256180748100329869e-02,7.795901518976733335e-02,-4.450013964370079789e-01,2.083933799594207305e-03,-3.753536509815972775e-04,-5.156048856974177700e-04,5.202965140342712402e-01
6.701353088391018287e-02,8.044791497853592821e-02,-4.323034633207166189e-01,4.177383952551478458e-03,-6.919825062765279193e-04,-4.276788728883052990e-03,5.062752366065979004e-01
7.576464230845367243e-02,7.301659452099851233e-02,-4.322517766379256887e-01,8.409379363536596472e-03,-1.020266001269476072e-02,-5.801728748527552361e-03,5.072647929191589355e-01
4.179612693207621077e-02,6.960291734910964423e-02,-3.894566044150836737e-01,-1.191931023038692375e-02,-3.443935519697807757e-02,-3.614110195262921956e-03,4.502971172332763672e-01
7.216413486585107617e-02,6.838400357005064434e-02,-4.420945870032185199e-01,-1.988937246827083270e-04,1.862162324820987053e-03,2.845524022613605750e-03,5.124130845069885254e-01
7.051026057719481099e-02,7.859649106856644862e-02,-4.414578195860562326e-01,9.362418742992525533e-04,1.201287464590408563e-03,-1.974148898394912125e-04,5.160655379295349121e-01
1.485095605843304856e-02,1.379716309548127684e-02,-2.333333113662152958e-01,1.212655099308366635e-03,-1.063277951052135455e-02,-7.831181977051423701e-03,2.487218677997589111e-01
4.234216668658385974e-02,3.666770640641166257e-02,-3.105102465336013751e-01,-7.196193069817044541e-03,-6.538360696446715581e-02,6.850684807358467521e-03,3.683150410652160645e-01
2.955396615807931449e-02,2.715919174654414514e-02,-2.630186281806069504e-01,-9.222334472745537595e-03,-1.658986088023612152e-02,2.328472904758079401e-02,2.959918379783630371e-01
1.487686387634361285e-02,1.284503355051533346e-02,-2.305182076111881584e-01,-7.907078223224276847e-04,-1.218052466390161584e-02,1.658388597153266511e-03,2.453150898218154907e-01
2.216853748890698639e-02,1.728733716734777437e-02,-2.308672372913848636e-01,-3.889122438444761465e-03,-4.767285818345547849e-02,2.079988741618587350e-03,2.639929354190826416e-01
2.182594104821319880e-02,2.251342244097295775e-02,-2.344535670680880091e-01,-1.050466519641631274e-03,1.170426848326601692e-03,3.651032728208607192e-02,2.643147408962249756e-01
2.637032003426836857e-02,1.101345429854886371e-01,-4.833791002924949787e-01,1.740030009366102387e-02,-1.200576595303827834e-02,4.809659197318294499e-03,5.576466917991638184e-01
8.405850719044785646e-02,6.318670214567878585e-02,-4.310614118604093603e-01,2.518992491901792690e-04,4.454237125373298328e-03,1.621501977985491871e-03,5.050745010375976562e-01
7.546885590956917134e-02,7.642880734566900869e-02,-4.473595481461119516e-01,-2.073649134045229235e-03,-1.085994867567408820e-03,1.028888718933730195e-03,5.233277678489685059e-01
7.419236224922942657e-02,7.592337838086757329e-02,-4.450250714621354353e-01,-1.341198396580687603e-03,-1.692011396755270123e-03,1.110875093913015269e-03,5.201020836830139160e-01
7.302308004196381153e-02,7.835442558205077401e-02,-4.451856202090844206e-01,-2.462737990407178577e-03,3.495828162845571207e-04,-7.874330178882319462e-04,5.209144353866577148e-01
7.514422835167083869e-02,7.408417975327893923e-02,-4.481903995080206426e-01,-3.054531493712853781e-04,-1.803710425070657636e-04,-4.961528688178420271e-04,5.228064656257629395e-01
8.556856143625274358e-02,6.360986768206430830e-02,-4.295929973848946481e-01,3.745037602495564395e-04,1.487375128385235367e-03,-3.697214542381877574e-03,5.045883655548095703e-01
7.549252053769292536e-02,7.444448605946593633e-02,-4.472548524333039288e-01,-1.298195363553593515e-03,-7.497915308371689040e-04,6.489838105467738002e-04,5.222318172454833984e-01
5.383952568492393620e-02,2.887159828471422274e-02,-2.506347162919151383e-01,-8.557000058027025395e-04,5.955060898543904080e-03,-6.286524505517537831e-02,3.125549256801605225e-01
2.399096920818939715e-02,3.489391198366803559e-02,-2.401731094813452094e-01,-8.109666112714965583e-03,-3.398696143594197999e-02,-3.543218988356134497e-02,2.832148671150207520e-01
3.193768960013634861e-02,5.078727758678550086e-02,-3.132925193249507800e-01,5.249233657334217941e-04,8.088493266877534379e-03,-3.084316031284659726e-02,3.593016266822814941e-01
5.377167204014385304e-02,6.867253103449885709e-02,-3.842125383089815549e-01,5.410521019944573504e-03,-2.276744801781888441e-02,-4.467665490125709293e-02,4.541029036045074463e-01
4.588565645030714957e-02,3.940909548750716473e-02,-3.270990683004056931e-01,1.007060646258025639e-02,-3.116818067632683847e-02,-1.267478896463570398e-02,3.747591972351074219e-01
1.032197417517620452e-01,-2.480296095052277050e-02,-2.947883360194767377e-01,2.799832519419717669e-02,1.030256627658680292e-02,-1.234737245038214498e-01,4.150344729423522949e-01
2.004804327807779146e-02,-1.378846345787380911e-02,-1.120525218212029966e-01,-5.429528241988263067e-03,-3.117220011108054988e-03,-3.552662988684879980e-02,1.342745721340179443e-01
7.559454910886054257e-02,7.052191218088743607e-02,-4.395477742105524666e-01,-2.671245096934667367e-03,-7.354397242674596061e-03,-3.503992291788266336e-03,5.128398537635803223e-01
8.154788174885413410e-02,5.829180787626828120e-02,-4.158563922672787738e-01,-9.925860308355129082e-04,2.592077298112435702e-04,-6.590886127161808003e-04,4.861981570720672607e-01
7.277307048768241748e-02,6.380251326765279396e-02,-4.143731809700019197e-01,2.794946011907824962e-03,-1.333648619879923905e-02,-1.584246278723865694e-04,4.833001792430877686e-01
4.753376828575922586e-02,9.073076619998274306e-02,-4.495005056072620686e-01,2.558814921426178814e-03,5.182458723917812010e-03,-7.530686412951113819e-04,5.200782418251037598e-01
4.677326239945542308e-02,6.533400483385090607e-02,-4.401478743383802628e-01,6.510573304649788437e-03,-1.721637042952776789e-03,1.500669298706226902e-03,4.966056048870086670e-01
3.836714972888485842e-02,7.793547104596984521e-02,-4.449875696207084008e-01,1.115346775679010652e-02,5.783605649737848416e-03,-3.178006913099665036e-03,5.048037171363830566e-01
6.192200698972835649e-02,6.404863702017110638e-02,-4.425011508809902350e-01,4.115437154541600438e-03,1.576564277630545640e-03,-2.261496117776992144e-03,5.055626630783081055e-01
5.823967520683109855e-02,5.935571986689958113e-02,-4.382144128478269174e-01,1.428384717716826282e-03,-1.312909784304090114e-04,-1.183656740299756554e-03,4.970234930515289307e-01
7.094353565638297776e-02,5.214875053627582302e-02,-4.463258893637657154e-01,1.604548699264042935e-02,1.169046837493372152e-03,7.982968481277439676e-05,5.088962912559509277e-01
6.935267106853559849e-02,4.270053795739731095e-02,-4.394733650083949561e-01,8.583749731167504907e-03,-9.173803405628893877e-04,-1.652779180965184298e-03,4.962708353996276855e-01
7.333149031051255928e-02,6.897911447193177947e-02,-4.374935972510837767e-01,-4.960017862648674332e-05,2.079184475510383653e-03,-3.349944762074537254e-03,5.087087154388427734e-01
8.055157191454961896e-02,6.943170557906810925e-02,-4.565982808795287506e-01,1.186381693072374906e-03,1.407108884306513391e-04,2.083415379306726919e-02,5.329043269157409668e-01
8.384448846375652797e-02,4.393873596362019018e-02,-4.406022784028278960e-01,2.395449032219320435e-04,5.534085950040912695e-04,-5.530270754690589860e-03,5.057680010795593262e-01
8.159618589951406209e-02,4.613120536065878907e-02,-4.396464568163510611e-01,-2.751740836364027429e-03,-4.752416682223603757e-03,-2.597135276873535365e-03,5.045557618141174316e-01
-1.953586662845689659e-02,1.174535830307038564e-01,-4.561662960325251204e-01,-3.958115554691810090e-02,-3.530972480768142154e-03,-3.182286355954747764e-03,5.234441757202148438e-01
2.288957599581792346e-02,8.875634277816707440e-02,-4.492936354730927007e-01,-1.502233508919829930e-02,5.220321178561853660e-03,1.839059121797739955e-03,5.090830326080322266e-01
6.995058204687373826e-02,8.403747225913663077e-02,-5.018290156775447874e-01,-3.486142800809634984e-02,1.354181063890312967e-02,-3.389840439082720397e-02,5.855154395103454590e-01
3.441731936243344614e-02,9.358809811120091804e-02,-5.529918700740750204e-01,-1.310839244114179736e-01,-1.720784975220623209e-02,-1.688598510663643151e-02,6.607578396797180176e-01
1.194371412432138624e-01,7.135869423949606216e-02,-6.098225013705244058e-01,-1.325912388316400070e-01,-2.821327623442432958e-02,-1.105043417633650576e-01,7.686562538146972656e-01
1.909531174057857439e-01,-1.910862392745765748e-02,-5.612005314696038027e-01,-1.081985326136990777e-01,1.305883768896091979e-02,-6.128232416975792213e-02,7.062303423881530762e-01
6.426764033421847322e-02,6.649376108762555804e-02,-4.474305910774832862e-01,-2.323843619605688721e-02,1.825483720512590920e-03,-1.262562046406119892e-03,5.144064426422119141e-01
6.940965073545335429e-02,7.209829928511810038e-02,-5.685407362017192989e-01,-1.061765022063349828e-01,-5.901654606193778435e-02,-1.209589721274769436e-01,7.048869132995605469e-01
6.056792431388330344e-02,6.778022594987015426e-02,-4.575351390337492608e-01,3.378422508248963424e-02,8.515894176901170343e-03,-7.969077954710612408e-03,5.254062414169311523e-01
1.366856048121065093e-02,9.665119528904567159e-02,-4.796322701898830809e-01,9.402380250697760233e-02,-8.380803575985011633e-02,3.035133510413141888e-02,5.844002366065979004e-01
-9.710655846568494454e-03,1.409873090471162049e-01,-4.807940301989132581e-01,7.294129185998548051e-03,5.857772209928803313e-03,-2.949219778754593683e-03,5.620581507682800293e-01
7.258790588894475926e-04,1.146577883238539264e-01,-4.491715391187529605e-01,3.503389516089183524e-03,-3.812077023010985131e-03,9.939257206366591466e-05,5.164555311203002930e-01
1.727816224200270923e-02,1.003944738899374967e-01,-4.408425219573948728e-01,-1.457496409622097058e-03,3.013406407969573212e-03,-1.168908508577924969e-03,5.048741698265075684e-01
2.383830997109168126e-02,9.246401789553232442e-02,-4.621640357334367288e-01,2.736076616170604603e-02,1.692114684785072515e-02,-6.422717250549219922e-03,5.267718434333801270e-01
1.630863569920290579e-02,1.006671850190494766e-01,-4.518852690239389958e-01,1.170850945472783934e-02,4.637798349815953382e-03,-1.602624171048054168e-03,5.160441398620605469e-01
2.917100434053582214e-02,9.446801103726604198e-02,-4.528909925214893994e-01,4.039913552127297885e-03,3.385244675047508270e-03,-2.145374802393012516e-03,5.179013609886169434e-01
4.724698358746953764e-02,9.323102671498642580e-02,-4.576625219676521694e-01,-9.630367522162897043e-03,-8.638270496544005542e-03,1.013243490258021939e-03,5.298783779144287109e-01
5.455549791823760541e-02,9.949524708491391811e-02,-4.990124721582872014e-01,-1.462050686160918170e-02,-1.961106946061808368e-02,-9.400992803806627537e-03,5.791324973106384277e-01
4.927161865562690313e-02,8.169681491080452163e-02,-4.473218289651313961e-01,-3.932087315069460014e-03,-5.451803586657664145e-03,2.199957170080475092e-04,5.137063860893249512e-01
1.612560680977748184e-02,1.114265380803647620e-01,-4.554624320860894970e-01,-6.648834282070786167e-03,1.035032774892737269e-02,5.465752395844852710e-04,5.261893272399902344e-01
2.044779971720289691e-02,1.008307211291816496e-01,-4.538084268227512985e-01,-1.044193199218776229e-02,1.337290429420551555e-02,2.820709318435009067e-03,5.199903249740600586e-01
3.889030976189994382e-02,1.104464008731099178e-01,-4.664165451978916632e-01,6.467408595467486962e-04,-1.047507985876761430e-02,-4.185308156245316595e-03,5.449734330177307129e-01
2.598643665606842346e-02,9.459090684473042687e-02,-4.521553682121691176e-01,-3.763424057871448541e-02,7.973127230026325887e-04,-9.608931116646296164e-03,5.202468037605285645e-01
1.005011763098633826e-01,6.864187283968681275e-02,-4.935087214629932939e-01,-2.847536352503380469e-02,1.963290264241585731e-02,2.292314420845045775e-02,5.831837654113769531e-01
1.302275608143678709e-01,-2.419416660468816371e-02,-4.368498412518933560e-01,2.816136278629124967e-02,-4.077809580134613560e-02,1.314726761207534178e-01,5.630956292152404785e-01
1.439132217265207125e-01,-1.926872214528253802e-02,-4.918472108338830528e-01,3.095650025761977758e-03,2.560414441657585943e-03,1.876304826754821020e-02,5.728696584701538086e-01
9.124081676774867256e-02,4.160348850236869622e-02,-4.471825342347189869e-01,-5.663037283606110056e-03,2.618667279250442952e-03,-6.367383837345847938e-03,5.156317353248596191e-01
9.431874669461870475e-02,2.287732965209195168e-02,-4.193340021828205200e-01,6.453015422561693415e-03,-9.257183144586624349e-03,1.357090672061883434e-02,4.828886687755584717e-01
1.892240196496954296e-01,-2.155831965911539361e-02,-5.201590704921995600e-01,1.738095958093234875e-02,5.751040729142010283e-02,4.685646110454484703e-02,6.446264982223510742e-01
9.159016134885974991e-02,5.617059570070032093e-02,-4.503395214462911911e-01,1.235519286366406851e-04,7.410413597896767929e-03,2.555192574468013317e-02,5.271345973014831543e-01
-1.033072738896680456e-02,8.345071869978704093e-02,-1.708842474758614505e-01,2.883348400878031625e-02,-7.400443132026424120e-02,1.788394951423011303e-02,2.636530399322509766e-01
7.312039081662741191e-02,6.223340312503858329e-02,-4.119510308261558618e-01,-4.527457772630616960e-04,-1.834148528132644937e-02,4.973708363271901571e-03,4.808491468429565430e-01
4.244457247588431792e-02,4.160047664183882943e-02,-3.118555436525213276e-01,-1.270267532947902227e-02,-5.420766687496898772e-02,-7.858854332557084488e-02,3.912265300750732422e-01
4.252193007000013014e-03,3.827410991062522860e-02,-2.130917798636481342e-01,-3.692927388885265672e-02,-1.191271294801158342e-01,-2.743098609387866274e-02,3.235936760902404785e-01
3.363983227395603293e-02,5.029810728701300526e-02,-2.715727562634064896e-01,-1.630921777034879949e-02,-1.253475221562673214e-01,-5.711204478807537649e-02,3.952668309211730957e-01
5.963065120536276131e-02,5.789993792191630573e-02,-4.382874466432710170e-01,-1.672059674287655270e-03,1.409700605476830624e-03,-7.389362593550348723e-06,4.970694482326507568e-01
5.988479654482353753e-02,6.183837290566296385e-02,-4.397258429467421070e-01,-5.238523111911703133e-03,1.638483683725465608e-03,5.097422083611722688e-04,5.006813406944274902e-01
7.121755990878833598e-02,5.832644960567248682e-02,-4.462894989958537395e-01,-8.711606656910220875e-03,3.691553359691222749e-03,8.540693983129321685e-04,5.114482045173645020e-01
5.956402452729103736e-02,7.190565611804450308e-02,-4.498265426274628553e-01,-1.137795627652963930e-02,5.245955747077486742e-03,6.684783001507718127e-03,5.162584185600280762e-01
4.291961133530852734e-02,6.780723081744549630e-02,-4.391146576798827805e-01,-8.241075906080986765e-03,-1.193396003691660039e-03,8.265989347948828883e-04,4.951597452163696289e-01
4.253019788799586309e-02,6.921549932996207133e-02,-4.386223416561157995e-01,-9.284517842135820223e-03,1.376611633524271044e-03,-5.944938992156693480e-04,4.953028559684753418e-01
6.139958104782139436e-02,5.723282547803695830e-02,-4.374159138923797152e-01,-1.951873292127105294e-03,-4.104055907801047666e-04,1.286594628394912773e-04,4.967572987079620361e-01
6.986207703228961008e-02,6.928362004819241249e-02,-4.458752405448962453e-01,1.556216106697343258e-03,1.348822304643701063e-03,-1.160830713851983666e-03,5.154646039009094238e-01
5.478385243418512629e-02,6.041552160342522626e-02,-4.377202418310717769e-01,-6.006410682698940136e-03,9.540782426761324668e-05,1.271714936453074768e-03,4.954580962657928467e-01
9.418262120579842800e-02,2.839533138712657667e-02,-4.523682740196726115e-01,4.085055006396540178e-03,-5.937357027330802429e-03,5.986465194364737688e-03,5.170619487762451172e-01
7.142241587304398731e-02,6.945078064269888385e-02,-4.420050979367343702e-01,4.488937252331034566e-05,-1.922936426117668150e-03,1.942553402411793199e-03,5.124664306640625000e-01
8.837294341932536157e-02,4.628399252295417599e-02,-4.722199531772685033e-01,1.236768457365481494e-02,-4.290868156140398987e-03,-1.051757734682229849e-02,5.415598750114440918e-01
7.838587629255452938e-02,4.268424866857420397e-02,-4.438516462862355794e-01,3.790479947232102895e-03,-4.130492236617277352e-03,5.025714026332038682e-03,5.055016875267028809e-01
1.116336480426743938e-01,2.264058200074656191e-02,-4.624530929202181340e-01,1.141122622683029490e-04,1.006201595355432285e-02,-1.686095665429746980e-03,5.354604721069335938e-01
1.104462684167687170e-01,6.291172780888087956e-02,-5.389031009947942152e-01,5.979393978708837099e-02,-3.556903308340508222e-03,1.046454947391285001e-02,6.357200741767883301e-01
7.569302191885543540e-02,5.780677957881397155e-02,-4.454023805773666966e-01,1.653159780708053292e-03,-4.514602338416028211e-03,5.445545350531522631e-03,5.125409364700317383e-01
2.122627033220252368e-01,1.782311612433976067e-02,-7.119877205585720681e-01,7.242230733909371665e-02,-4.283559160620397516e-02,-2.712164441491890510e-02,8.577768206596374512e-01
1.301753976296765036e-01,3.762943320760192556e-02,-4.878333111467043626e-01,1.568964806920937829e-02,3.104085314062343670e-02,-6.320299886301189440e-02,5.906930565834045410e-01
7.565643030962784787e-02,7.563660857403900484e-02,-4.489896810626617385e-01,-6.641063017461002751e-05,-6.572787055369524966e-09,5.510166431625649654e-04,5.246371030807495117e-01
7.530946622498060905e-02,7.604799226798675260e-02,-4.480196437141241717e-01,5.166581149387053079e-09,-6.753658161895132286e-05,-3.856607759391281805e-04,5.236992239952087402e-01
7.394299293946290930e-02,7.570084449389052894e-02,-4.475748884157375596e-01,3.760005642367062720e-04,-2.132028086791753910e-04,2.111139955684495620e-04,5.223996639251708984e-01
7.628391929054256781e-02,7.468018173703774854e-02,-4.466454234952260127e-01,1.289021208281704387e-03,-3.174354076839470116e-04,5.671233365005231902e-04,5.221353173255920410e-01
7.611186523947052751e-02,7.512428018482783521e-02,-4.480886954134893907e-01,1.294601389259151646e-03,7.204879406102092029e-04,4.398616209288726047e-04,5.237143039703369141e-01
7.377376633706153597e-02,7.537781918431860073e-02,-4.475054338583049351e-01,2.120236119550185892e-03,3.378200918389892278e-04,-1.520898001792155040e-04,5.220963954925537109e-01
7.815626728669280987e-02,6.970570987841306909e-02,-4.368286899870791884e-01,-3.335167259246078590e-03,1.712768712122422158e-03,-1.320869530894169678e-03,5.108584761619567871e-01
3.024569893998746428e-02,8.480446771593630473e-02,-4.069651322725105214e-01,6.032748576221142085e-03,-2.729933462320285886e-02,-2.721988822612708692e-03,4.694153964519500732e-01
7.934009889391124837e-02,6.741300392424764976e-02,-4.318441060959841149e-01,-4.559762573908773126e-03,-5.918240191957454231e-03,6.435126558435521130e-03,5.056147575378417969e-01
7.030638936974048514e-02,6.495832501363046907e-02,-4.059456693202828648e-01,-1.029254751838040542e-02,-6.058585723341566344e-03,1.135428255385906825e-02,4.744600057601928711e-01
7.279528892501124782e-02,6.799820536224115974e-02,-4.204432890167010828e-01,-8.435798185868403562e-03,-3.438725273059182151e-03,-1.282248005984360948e-03,4.911161661148071289e-01
7.009904588360649225e-02,7.204374475789554477e-02,-4.244258556087324719e-01,-6.599286189577387857e-03,-1.266883383935542545e-03,6.828906351683573794e-03,4.957779049873352051e-01
5.988167944819342003e-02,6.395429184615514240e-02,-3.888429184889669599e-01,-3.218846697009718205e-03,-3.329005381680877340e-03,1.387516137179996625e-02,4.514861404895782471e-01
7.851102503339155159e-02,6.920010845850385617e-02,-4.368709810968417484e-01,-2.921080251006846328e-03,-3.537666952418839182e-03,1.712382902119637161e-03,5.108606219291687012e-01
3.366610354034629826e-02,7.990512493007870254e-02,-4.439915976182475799e-01,6.887557519707269288e-03,-4.495663866855263355e-03,5.407781981929680321e-03,5.026649236679077148e-01
1.893755666450491759e-02,1.204489928217473693e-01,-5.055948894868238508e-01,5.678686390199756684e-02,-4.850964262609070918e-03,9.845960559633073345e-03,5.905256867408752441e-01
2.905269716398906077e-02,9.302274378964095480e-02,-4.686776950611035719e-01,2.542909439599674859e-02,2.022668826220068525e-03,6.165034841431660034e-04,5.344350934028625488e-01
8.313167611698149551e-02,3.511726719899077587e-02,-4.432511249190808078e-01,2.642663504771483596e-02,1.152910697326632247e-03,3.457108139305880602e-03,5.062066912651062012e-01
3.441569058613180854e-02,8.091879788439149124e-02,-4.225873280202857574e-01,1.608488598552971355e-02,-8.857104941198444895e-03,1.246411309046818305e-03,4.829933047294616699e-01
5.515940057801849150e-02,7.786707328942821249e-02,-4.460220279440956226e-01,7.143052728494395445e-03,6.257857234066675246e-03,7.294572447298908451e-04,5.131776332855224609e-01
7.247594529697531929e-02,6.465137863789352513e-02,-4.174490706128253792e-01,-2.798509887996973935e-03,6.531743005113342486e-03,-8.825859328403120804e-03,4.864560365676879883e-01
1.051196875144824738e-01,-1.190384040634832885e-02,-2.984586765315089263e-01,8.506882503505647231e-02,5.289102904735785982e-02,-1.166293763636855191e-01,4.474947750568389893e-01
1.110495501765692561e-01,-3.326377825812648625e-02,-3.817173985274801562e-01,-1.778040913760648573e-03,1.681916709556793149e-02,-5.724771204495469196e-02,4.508023858070373535e-01
5.401030085324004526e-02,8.172516645665459101e-02,-4.126731251221811281e-01,-5.681371120736222399e-03,5.383044401453671718e-02,-1.749541445781581037e-02,4.911250770092010498e-01
-1.952618046288513015e-02,7.496157036096784410e-02,-2.947230733730725194e-01,1.047277124082460383e-02,7.891707247196584618e-02,9.884220364559825889e-03,3.605132997035980225e-01
2.150544207150845155e-02,3.114755793442622323e-02,-2.399062037548043147e-01,-3.445081430898153975e-03,5.657421672168769233e-02,-6.239002270371503400e-02,3.037509918212890625e-01
-1.158480757507301950e-02,7.805821613413022053e-02,-3.163202636649334876e-01,4.228982631389593266e-02,8.693912763598224402e-02,-1.603018337331196114e-02,3.962680995464324951e-01
4.728414415441245522e-02,1.270076611285812229e-01,-5.015228223021998000e-01,-1.635119994632599008e-02,1.828028496319755378e-02,4.246589601275468917e-03,5.942696928977966309e-01
2.415786599202759954e-02,1.188913688503052124e-01,-4.943883882133793817e-01,5.861984915366524884e-02,-1.715685866699772494e-02,1.986046584746169446e-03,5.815429091453552246e-01
1.929820455278213887e-02,1.061022258318119194e-01,-4.584183974459161703e-01,1.388491342060240862e-04,3.702687728717815770e-03,-6.411968925738713862e-04,5.265531539916992188e-01
1.618635884611874243e-02,9.938837223239674334e-02,-4.435336879536088683e-01,1.400009429003057013e-02,-1.575560318942089907e-02,7.070179483094373753e-03,5.079344511032104492e-01
4.180417482197390511e-02,8.671184798245118452e-02,-4.674787298044598138e-01,2.796400645842925248e-02,-2.283492972736901258e-02,2.215267773657143141e-02,5.381811857223510742e-01
-1.823638103791874743e-02,1.032450459982939550e-01,-4.577800881438601199e-01,9.436565386747229611e-02,-7.858232364437861550e-02,3.946728734896724072e-02,5.579121708869934082e-01
-8.414381715004665141e-03,2.095126278075500337e-01,-6.602480525265822520e-01,2.292807983012565276e-02,-1.064679935858044019e-01,-4.894373151961856072e-02,8.106795549392700195e-01
-2.980512688573744295e-02,1.652245990207303339e-01,-4.643044779072982853e-01,7.877678813295861671e-02,-7.489665722270327786e-02,2.509909430829389970e-02,5.906795263290405273e-01
1.548568543809417108e-02,2.807891962368751215e-02,-2.251591176962817742e-01,-1.033261700880247448e-03,-1.381652228689338180e-02,5.619608310201563983e-02,2.667375206947326660e-01
4.569784157688643045e-02,3.908460594535673183e-02,-2.722696789077068136e-01,9.533082744244890340e-04,-6.132990872708944663e-02,6.248945508881732780e-02,3.493506610393524170e-01
2.938041212095632293e-02,3.823539270928623390e-02,-2.955935379407227392e-01,1.185021813249847534e-03,6.923284065919682942e-03,-7.540624473794427414e-04,3.297178149223327637e-01
3.420428794015467622e-02,5.042639005731841539e-02,-3.287957391461949763e-01,-6.062511540518367506e-03,5.436349775690288520e-04,2.897699910581527996e-02,3.749012649059295654e-01
3.278200542906228865e-02,5.497015377463784769e-02,-3.239691735150946328e-01,7.005200242302979385e-03,-9.659338875505940917e-04,2.962127630203288675e-02,3.721043467521667480e-01
8.278111689749029223e-02,6.805703347246139234e-02,-4.388154795784062756e-01,3.047701807918889224e-03,-1.012236749020189530e-03,-2.214723889102081927e-04,5.144228339195251465e-01
7.808056462576945522e-02,7.038526487793680952e-02,-4.402086006981761890e-01,1.021837235702646252e-03,7.400482409249372132e-04,-8.459100480719855845e-04,5.144913792610168457e-01
8.027353975896400762e-02,7.116263426018290539e-02,-4.450570119372088684e-01,1.735410551269966906e-03,1.636599920013325046e-04,9.058786409601099010e-04,5.208460092544555664e-01
6.895225529958595723e-02,7.202686177898753872e-02,-4.406549720356320865e-01,2.578816405297989123e-04,-2.929399899318130013e-03,1.899788255514359852e-05,5.111768245697021484e-01
7.811033025726146772e-02,7.275623934060201914e-02,-4.404921259795456789e-01,4.276310874620921007e-03,3.644865699897881142e-03,1.815882165438935771e-03,5.160475969314575195e-01
7.727463932789382928e-02,6.892825653295822641e-02,-4.352311091680783339e-01,2.286632260577254033e-03,-7.793300866428061642e-04,-2.564639144888624604e-03,5.084205865859985352e-01
6.991348703601468761e-02,7.368640719202482203e-02,-4.449233978027563041e-01,-2.843953366582939652e-04,-3.959739748589037427e-03,-3.177638435272733212e-03,5.168087482452392578e-01
5.703452720212892624e-02,6.022156106784753993e-02,-4.388245480830119116e-01,3.935049588986387799e-03,1.279497451483165623e-03,-1.364700741836759931e-03,4.975174963474273682e-01
5.500673375134298992e-02,6.708931846234600371e-02,-4.419666273897041586e-01,1.548114317046286534e-03,2.567029198061607231e-03,-2.890705978017256081e-03,5.031751990318298340e-01
1.155372247291506227e-01,2.037398070069901257e-02,-5.137187878694708942e-01,7.939078368688821941e-02,4.279886242067313523e-02,-5.364017623497142201e-02,6.149576306343078613e-01
6.387923261809322351e-02,6.819907491437260383e-02,-4.433694499132849742e-01,1.264375079338172624e-03,2.828064135613662586e-03,-2.937483042743789692e-03,5.094760060310363770e-01
6.902512866337498498e-02,7.908273702682250272e-02,-4.454470961356345460e-01,-2.207065168021687084e-03,4.213101977995545029e-04,4.780405317405768059e-03,5.196545720100402832e-01
5.969798933209055636e-02,6.103245687919411910e-02,-4.392923823849412823e-01,3.539387273741604538e-04,1.605387347281124651e-03,-1.578883026813918166e-03,4.996745288372039795e-01
6.375519942158872078e-02,6.331029720155675888e-02,-4.430282966245243648e-01,9.773273504729172376e-03,2.294202810192188906e-03,2.118361701755406201e-04,5.068596601486206055e-01
3.698234621754420415e-02,8.545881247642250766e-02,-4.527060759317181327e-01,1.358203616014230092e-02,2.810835396431281274e-03,-3.601545068090209519e-03,5.162355303764343262e-01
7.309056065349545106e-02,5.697308418523674978e-02,-4.586396405933174658e-01,1.393264577652096950e-02,5.076195093371208694e-03,-7.613844106083310359e-03,5.246524810791015625e-01
6.898011483474736361e-02,4.526335388747995681e-02,-4.401871970930665290e-01,7.638278147289696146e-03,6.662394991368835199e-04,1.367871861288841783e-03,4.979156553745269775e-01
6.762725873781227914e-02,4.779432341171052645e-02,-4.401659442127943134e-01,7.509822227573041339e-03,3.222054729729896105e-03,-2.884912631986901073e-03,4.983989894390106201e-01
3.945499681496483779e-02,7.245547236502367094e-02,-4.438584078231553320e-01,9.060063197491606546e-03,-5.470955526599217793e-03,3.378549965066712096e-03,5.009997487068176270e-01
7.224805896220856671e-02,4.741382899574439480e-02,-4.455286820960004390e-01,5.544806828980232763e-03,-3.653710638002663404e-03,5.126696096600095141e-03,5.060257315635681152e-01
3.980121919520945850e-02,8.586974261013460841e-02,-4.610584925682489899e-01,1.941843415068358197e-02,-1.346319006710228368e-02,7.730797965177890058e-03,5.271725654602050781e-01
8.391191320722143909e-02,3.629107044225551859e-02,-4.453795279156688158e-01,7.628600659235415526e-03,-3.700756135945626208e-03,3.919122638116717162e-03,5.074185729026794434e-01
1.518536658339281198e-01,-5.474607215565516216e-03,-5.113856239865222086e-01,2.941667868718575440e-02,-1.013144709429230836e-02,1.885489355286070704e-03,6.026664972305297852e-01
7.917273109909228612e-02,6.740490684698946522e-02,-4.338350176942148972e-01,3.612953629239590465e-03,1.667697539323745055e-03,1.675506389558274636e-04,5.072731375694274902e-01
2.165906792765161515e-01,1.959486984574324020e-02,-7.133033852026035015e-01,1.848999924917869159e-02,-2.996323543347779658e-02,6.615631549546818757e-02,8.585883975028991699e-01
7.697027138942871827e-02,6.903108909506835977e-02,-4.323184570840213348e-01,1.036180298924023989e-02,3.709107113610082829e-03,5.525995934547994239e-03,5.058158636093139648e-01
8.029243784883083324e-02,6.860281339835699876e-02,-4.393333565561020615e-01,3.704322914103131206e-03,1.389217478096592797e-03,-1.017763079142884608e-03,5.139294266700744629e-01
7.508296810226788853e-02,4.988424783314254762e-02,-5.387706787297672495e-01,1.027260599958263743e-01,-4.783064006462145988e-03,2.140431268579418705e-02,6.285570263862609863e-01
7.577785881322687822e-02,5.749638578467286543e-02,-4.454165430067831277e-01,2.125797609097298223e-03,4.469874779114971740e-03,-4.925496168751621745e-03,5.124410986900329590e-01
6.197676619251507590e-02,8.654562875941512745e-02,-4.336306945670398427e-01,9.925214862636776592e-04,-5.836698359752276119e-04,2.299765096788460115e-03,5.083569288253784180e-01
9.706908236913130983e-02,1.662469798204102567e-02,-4.504413059101441408e-01,4.963600420978171029e-03,-3.174604672998679062e-03,6.069238611859458302e-03,5.122591257095336914e-01
1.061348019550947264e-01,7.934464947390015843e-03,-4.453097817338247388e-01,6.317489218136178308e-03,-3.096387091185388591e-03,4.007799198004586075e-03,5.096852779388427734e-01
8.747573073334027893e-02,6.428329421534692556e-02,-4.514715565750719861e-01,2.420815062655800806e-02,-3.798355811215525096e-02,4.044871836980176716e-02,5.380494594573974609e-01
8.031479785078615707e-02,3.948914829202307408e-02,-4.442039272951900930e-01,6.486915012207123549e-03,1.064599648854656910e-03,-1.635492181315397701e-03,5.054804682731628418e-01
2.339890996181998029e-02,8.898066910225921333e-02,-4.482269786842703052e-01,2.505551561218156281e-02,-5.166387021553367313e-03,9.687950993654679448e-04,5.095372796058654785e-01
4.244480858031093873e-02,1.223237700095462510e-01,-5.418469209442111634e-01,5.856260382304415146e-02,1.145516058366792891e-02,-9.652893740307747026e-04,6.365023851394653320e-01
4.798025580105541588e-02,1.286004088364240960e-01,-5.449694176816437530e-01,5.209811613009353304e-02,1.047925533804614992e-03,-7.131190580336838405e-03,6.435768008232116699e-01
3.361468057544150789e-02,1.218568349793023864e-01,-5.290483508072194585e-01,3.389420143153504955e-02,-7.520366369946788164e-03,-1.387082039881078893e-03,6.145313978195190430e-01
4.314795186183609244e-02,2.249670288139689611e-01,-7.378949866746241648e-01,1.098280910337781913e-01,8.004807497789030724e-02,-2.547839645724712943e-02,9.178518056869506836e-01
4.933503080593926171e-02,1.782071917307710973e-01,-7.166163927707882575e-01,7.581405279246816731e-02,-1.641566106351451809e-02,1.100118813726405458e-02,8.487722277641296387e-01
9.854826674107852735e-02,2.123116868650876121e-02,-4.885980318351612617e-01,5.264432812778317705e-02,8.613975139008044069e-03,-8.316887695045533518e-03,5.604165196418762207e-01
2.714037715429162834e-02,1.593885803345061469e-01,-6.082777141553629141e-01,1.064655677686965618e-01,1.113340311834293966e-01,2.542388333770955605e-02,7.605316042900085449e-01
7.484937151909193398e-02,7.679136136459258077e-02,-4.471708851797245865e-01,1.427557960376821125e-03,-1.407734805094797148e-04,1.113984178019143554e-04,5.229998826980590820e-01
7.316671392431023380e-02,7.434760690583203102e-02,-4.474598453385128516e-01,1.691811517703226738e-03,9.880140573995208498e-04,-8.582657617612621248e-04,5.212311744689941406e-01
6.146729262932024151e-02,7.018769847070233103e-02,-3.961841114990750090e-01,2.591746727789982167e-03,2.890464476977363129e-03,-2.174861735540120980e-02,4.636550247669219971e-01
7.190897350271335808e-02,6.851075068561912618e-02,-4.454617377456234761e-01,5.013881918221528523e-04,1.679204076128420521e-03,2.351327055405051918e-03,5.157049894332885742e-01
8.824309971434449174e-02,4.416374836891287514e-02,-4.467693163089190844e-01,-4.074176966016328227e-03,6.662594871238579526e-04,4.036123890549076290e-03,5.144883394241333008e-01
7.564931044514125458e-02,7.431946640887296396e-02,-4.461988157628800633e-01,9.716834651816823321e-04,1.341918921997276590e-03,8.298395377860583828e-04,5.211943387985229492e-01
7.398583080704659865e-02,7.537794250481377745e-02,-4.478064209815917351e-01,-7.242829814774304448e-05,-7.228477618275279144e-04,-6.378223284190914213e-04,5.224924087524414062e-01
8.016120397265588671e-02,5.572489297227231630e-02,-4.475306247202647247e-01,4.074715332772800222e-03,-4.583012402347856444e-03,5.047120655829573366e-03,5.160912871360778809e-01
7.471649700537291716e-02,6.845064853541760197e-02,-4.402178433231868637e-01,3.228646207710797944e-04,-2.346634893286734299e-03,1.445740478728822038e-03,5.118527412414550781e-01
7.859889240966788648e-02,4.629008182886790168e-02,-4.484867845573646816e-01,-4.986816469914796997e-03,2.451633686845936834e-03,7.709816629182035226e-04,5.117890834808349609e-01
6.664571396139201687e-02,7.918230704398346309e-02,-4.321417997397695721e-01,5.450669781203332925e-03,-3.927450893280853557e-04,-2.349195338613148387e-02,5.068969130516052246e-01
1.057176892335719709e-01,1.449836051166811246e-02,-4.542882817480736746e-01,-2.672760275944692163e-03,1.899690336554318317e-04,8.626458127125114297e-03,5.206621289253234863e-01
8.008267815467320916e-02,6.589013304429758300e-02,-4.483092404728319380e-01,-1.425653537468277382e-03,6.014663560207214772e-03,-1.357137919603070356e-02,5.220798850059509277e-01
7.840927326797617058e-02,6.464578351494640329e-02,-4.470926690468696729e-01,9.853881658651044394e-04,-2.065311131648665723e-03,-6.322092120503833117e-03,5.188878774642944336e-01
7.538419076640356931e-02,6.574147074690642190e-02,-4.455110259213123092e-01,4.743357366723783631e-06,-2.895098456670458422e-03,-8.091132101397828513e-03,5.163559913635253906e-01
5.660226314382993396e-02,6.436984253991978600e-02,-3.859739003212460662e-01,-2.083079687894091783e-03,9.727987865113604457e-03,-3.169442195802390366e-02,4.502024650573730469e-01
8.618576802411118121e-02,4.847176367393957186e-02,-4.531711402341594419e-01,-1.985487835193156577e-03,4.185052645116238944e-03,5.601675370774258922e-03,5.216755867004394531e-01
8.743728713190085378e-02,9.104652181837155633e-02,-5.053389039861960752e-01,4.095123410575997325e-02,3.246635000108757246e-02,-4.937563196807951554e-02,6.074892282485961914e-01
1.126742671756969516e-01,5.789659241236208564e-02,-5.165870124928670926e-01,2.518570063515004898e-02,2.142873206664080380e-03,-4.190900263079636034e-02,6.096611618995666504e-01
9.021631447295144768e-02,3.769950268752128575e-02,-4.397767070339488882e-01,1.273279061191298633e-02,-7.781525260940478500e-03,-5.075140232657937740e-03,5.065198540687561035e-01
7.470787526842634363e-02,7.188692327880738531e-02,-4.486736223027165127e-01,-2.329576164255599009e-03,6.855861103999285298e-04,-8.878717115848621440e-04,5.219959616661071777e-01
9.946450736361384104e-02,4.061706045646698571e-02,-4.611598137515197648e-01,1.378501704755355842e-02,1.105935481118143493e-02,-9.331514192263086482e-03,5.347612500190734863e-01
7.443816845903733492e-02,6.898986994128977757e-02,-4.284885960732780497e-01,-1.065520343843672467e-02,5.724547112962941053e-03,-9.381506457653256831e-03,5.009270310401916504e-01
4.813961305115452283e-02,7.514069327911898633e-02,-4.616082983579624655e-01,-2.096202690797122764e-02,-6.955200021345009885e-03,-1.987060560339971166e-03,5.251770615577697754e-01
6.216505630826382744e-02,2.478715629424663169e-02,-4.452300175042174235e-01,8.928042750990716758e-02,2.405076500205812970e-02,-4.586154087710767741e-02,5.213824510574340820e-01
7.733682356256091350e-02,-4.933054599123098960e-02,-2.474446329132685141e-01,4.663578412499984338e-02,4.894491867872377555e-02,-1.405013218293126309e-01,3.915632367134094238e-01
2.400819096234088623e-02,1.012901932639176106e-01,-4.559105911355911811e-01,-6.201577357550688493e-03,7.267598712279210553e-03,2.181062790095916748e-03,5.231364369392395020e-01
2.468041404672785544e-02,8.620834361779836086e-02,-4.457648342495931226e-01,-1.417188607140318357e-02,4.056157711094652250e-03,2.220346967691010000e-03,5.046945810317993164e-01
3.147005288950460722e-02,8.416561873401443017e-02,-4.456747625982614980e-01,-1.096019551800592184e-02,3.470553327136807146e-03,1.182937408762355569e-03,5.059527158737182617e-01
2.626664634288478073e-02,9.633351273880122467e-02,-4.542019326641071331e-01,-1.485207219699139283e-02,-3.630761732260169312e-03,-1.845647773913013925e-03,5.197459459304809570e-01
5.544870545230867753e-04,1.095998105434349557e-01,-4.580528118295657536e-01,-2.637907082691173799e-02,5.245350085059366854e-03,-2.017498449859185007e-03,5.238347649574279785e-01
3.668792658989220024e-02,8.505944187245600974e-02,-4.499175324125776476e-01,-9.777799891965290036e-03,7.364086275606001285e-03,4.597800826886667622e-03,5.130062699317932129e-01
4.304141600755645447e-02,9.115116425574257275e-02,-4.620590215019447777e-01,-2.482172135954478775e-02,6.687596364250313801e-04,-9.338532121083030837e-03,5.327781438827514648e-01
2.023779271306710981e-02,9.288051014492812452e-02,-4.439788953860659970e-01,-1.262716118797410289e-02,-1.532823936529537946e-02,1.718304602044473444e-03,5.056561231613159180e-01
-2.537174550827971109e-02,1.458261455795807349e-01,-5.135945584337409109e-01,-7.374540838434914813e-02,2.783069236112067912e-02,9.320373041774219353e-03,6.084014773368835449e-01
1.043922194008639615e-02,1.487072438881717473e-01,-5.224519638430202839e-01,-9.862721287073722420e-02,2.493937554748966445e-02,-8.090355156933370928e-02,6.538019180297851562e-01
1.958458246391464597e-02,1.314382802634562752e-01,-5.012610124426460922e-01,-1.426312703655008632e-02,1.446402493549435626e-02,-8.439570700107163620e-03,5.860900282859802246e-01
-9.971197993246985747e-03,1.673003051398792573e-01,-5.023452718147907170e-01,-7.107217029978835088e-02,6.454095607047957706e-02,4.679739696872255855e-02,6.287779211997985840e-01
3.297763724024543874e-02,9.082660696838357195e-02,-4.505872009812538770e-01,2.419310366163045928e-02,1.027059552718331652e-02,-1.411775592950807214e-02,5.175185799598693848e-01
1.497194689209960239e-03,1.040462836394610568e-01,-4.487489903803160152e-01,2.595962373337987183e-02,5.682747715850258556e-03,1.906551423714587757e-04,5.113990306854248047e-01
2.457947355469156103e-02,8.852451642695649547e-02,-4.476938865755339392e-01,1.341145404604118449e-02,-3.332346470472332886e-03,2.367492158625945399e-03,5.078586339950561523e-01
3.672340708179358537e-02,8.444221378550739732e-02,-4.505372287782057339e-01,9.708771522127573536e-03,-8.292752006300882148e-03,4.977295337908959130e-03,5.133370161056518555e-01
5.473021107439487998e-02,7.791898791280565950e-02,-4.449138787512975091e-01,7.664128476999624781e-03,6.804549035410199093e-03,1.434156881794854599e-03,5.119466185569763184e-01
4.301997799105825027e-02,7.833983434617336483e-02,-4.452264776667686497e-01,3.423005952371381208e-03,-4.912354566977991319e-03,5.389567620074309229e-03,5.070222616195678711e-01
4.281975260857801002e-02,8.196948182876967470e-02,-4.511821046266012436e-01,1.911861925241534199e-02,-1.329900105902346967e-03,4.341342613081259141e-03,5.158187747001647949e-01
6.676896967978276920e-02,7.640731387442653566e-02,-4.373675963790606414e-01,5.580536053177209471e-04,4.666916249449159365e-03,9.724969450281768443e-03,5.093678832054138184e-01
6.448900140665117520e-02,7.720564409294880526e-02,-4.459141653583132414e-01,2.030156579191308712e-04,6.895102924055428704e-03,-2.073273576833063563e-03,5.170293450355529785e-01
7.981394373956085531e-02,6.322791600730773287e-02,-4.248660632741954601e-01,2.337516730148232660e-03,6.324534405594280095e-03,2.246931597733680449e-03,4.967473149299621582e-01
6.564035930242989592e-02,5.023427130641267002e-02,-4.407374495517446533e-01,-7.334010513000527656e-03,7.015900334725721360e-04,1.119984190129947460e-03,4.990201890468597412e-01
7.374610570198178450e-02,4.827388775725585668e-02,-3.817277995934737489e-01,-2.773941090332237170e-03,1.533850735981427335e-02,5.001249133285705535e-04,4.441092610359191895e-01
6.931080989430984940e-02,8.444024584244011478e-02,-4.617896621767447751e-01,-2.080206895494148044e-04,1.461764528818101407e-02,2.219600483559746023e-03,5.394328236579895020e-01
8.252317124391056469e-02,6.484807416384383294e-02,-4.335747385937651077e-01,1.982897668353601154e-04,1.849450517612435919e-04,8.326790283199321345e-04,5.074935555458068848e-01
8.185522795160904419e-02,6.721792081558178311e-02,-4.374699174490195297e-01,-1.034741086028577754e-03,2.051236463623584195e-04,-7.650767231667816165e-04,5.121683478355407715e-01
7.331110162639453698e-02,5.256534840659424224e-02,-3.838470330582051671e-01,-4.313353793321025864e-03,1.662460090050222813e-02,-6.078627157505024073e-04,4.481360316276550293e-01
8.498989263024825380e-02,3.036008242256799106e-02,-4.433156602349001552e-01,1.207710448260171029e-02,-4.840013565081305964e-04,2.246556147090454647e-03,5.036698579788208008e-01
7.824115101629483537e-02,4.208454752362167373e-02,-4.439013104570537771e-01,5.693350989121710552e-03,9.320232149904592500e-05,8.885407905317631522e-04,5.051344037055969238e-01
8.287240815413815520e-02,6.193307860497246353e-02,-5.257261198354425957e-01,7.878316229095982948e-02,2.263818708172701463e-02,-1.127943198635633290e-02,6.153263449668884277e-01
9.267816577877327489e-02,5.147534359775937651e-02,-4.715725317094098257e-01,5.275545471804973796e-02,-1.357379699133158188e-03,-1.423497750604992354e-02,5.529834032058715820e-01
2.988886224456377416e-02,6.400419931462003609e-02,-4.613991000166398071e-01,6.524618831418839415e-02,-1.135379263803606119e-02,7.980305864097411717e-03,5.221467018127441406e-01
6.922524249397329910e-02,4.244748892155317255e-02,-4.387653268067914225e-01,7.756867820768004532e-03,-1.066206073540360314e-03,-5.591188409054831539e-05,4.953307509422302246e-01
7.024579958230131593e-02,4.392858656326040223e-02,-4.435822923651120409e-01,6.522513393374925264e-03,-5.374295242970814112e-04,-1.829792906239499682e-03,5.013261437416076660e-01
4.185098707698503562e-02,7.096532581317760435e-02,-4.440910495534218239e-01,7.563407183932302838e-03,4.254510737999831795e-03,-1.250566204419386847e-03,5.013639330863952637e-01
8.389273146452552732e-02,6.897091615839320844e-02,-4.565012344940765354e-01,3.447040639403883312e-03,-1.210361702530554293e-02,6.869585424564011653e-03,5.336678028106689453e-01
8.861305287890941518e-02,3.997611701845385501e-02,-4.596770358453378114e-01,2.302893991415649877e-02,1.168187215837542285e-03,-7.414874357807768991e-04,5.271784663200378418e-01
1.136148913609162370e-01,2.258011659405179117e-02,-4.605854338561288230e-01,-2.943326502540686423e-02,3.611252392619473516e-03,2.088400644385989251e-03,5.370030999183654785e-01
7.862536000358041899e-02,3.296923233625606575e-02,-4.436218895667655149e-01,-2.670103809711720649e-02,-2.704802648221935838e-03,6.402875424531821085e-04,5.031350851058959961e-01
8.208164934581452243e-02,7.011842256202974188e-02,-4.895097027127369715e-01,-4.802003811206135425e-02,3.580339832270507117e-02,5.432492859283789138e-02,5.827853083610534668e-01
8.185104153652472680e-02,3.676387713056861184e-02,-4.459765056871971556e-01,-1.821462603664866092e-02,-1.411836702971213222e-03,9.257863083785464534e-03,5.080304741859436035e-01
9.546452564108370842e-02,1.608396143142690193e-02,-4.667397410586636708e-01,-6.908600424742164514e-02,1.003538234532303734e-03,-1.548646423119119653e-02,5.410988330841064453e-01
8.479184226761388166e-02,3.598680339456086785e-02,-4.462758271201654470e-01,-9.632770108724875158e-03,-5.039136296942154508e-03,-7.876472114223423068e-03,5.089564919471740723e-01
9.618162829630738653e-02,1.285350655041174184e-01,-7.014624348051773373e-01,-8.762002220996055468e-02,2.305070030821071425e-02,2.030725506518702220e-02,8.300315141677856445e-01
8.524156959265283273e-02,5.327373176339958438e-02,-4.534284024533384860e-01,-1.809639427464950628e-03,3.360065299105642785e-03,-1.715337939687134683e-03,5.234689116477966309e-01
3.897174254430493812e-02,6.325107797388290765e-02,-3.592437168111065615e-01,6.311100609828467281e-03,8.910252959988191820e-03,2.248276630457788500e-02,4.131676852703094482e-01
6.595836658872805680e-02,4.806354277005733810e-02,-3.483753613140663230e-01,5.717046791395637324e-03,8.746270816629932165e-02,1.665336115982072804e-02,4.341168701648712158e-01
7.003196533296124349e-02,5.058699807107255864e-02,-3.721261760291058596e-01,-6.110426090187782121e-03,5.379612141613814708e-02,-8.462347679249297705e-03,4.430497586727142334e-01
-4.816885241004601609e-03,3.227980367169445974e-02,-1.252291092221508029e-01,-5.237552316689766344e-04,1.141899420675164534e-01,-1.979667118413492438e-02,2.462452799081802368e-01
4.440903224715767039e-02,5.326194168993164668e-02,-3.180292064240825556e-01,-3.136297729194474681e-04,6.886527521915830619e-02,4.846333093950394577e-02,3.948697745800018311e-01
1.609971079392558124e-02,9.446482705744829733e-03,-1.949686098041226723e-01,5.134228421622805908e-04,3.098385633900814506e-02,1.062833950860468321e-02,2.154286205768585205e-01
8.341209860512277530e-02,2.726612959052640561e-02,-4.418581887561872645e-01,-1.047049920475723837e-02,6.168858498496219500e-04,2.105857043530012535e-03,4.999127686023712158e-01
2.029226033345485347e-02,2.571757264878471450e-02,-2.414687865614844053e-01,-5.300809429865489201e-04,8.175177620963600469e-03,2.799516562068893669e-02,2.692971229553222656e-01
1.446093077531390714e-01,2.192933164008026292e-02,-5.194946862388073461e-01,-3.998576256597714818e-02,-1.671044194420849560e-02,-1.770243734209733452e-02,6.174031496047973633e-01
1.057634157427046750e-01,1.860210110642268599e-02,-4.529206295134474702e-01,-8.289565201757630175e-03,2.248146036931453033e-03,9.831240884823283857e-03,5.210955739021301270e-01
9.312921441387037036e-02,6.331218621234424582e-03,-5.083464982978563862e-01,-1.189387755639017275e-01,-2.797899895347354116e-02,-2.991604132656735734e-02,6.037985682487487793e-01
1.219236785514163368e-01,-1.961279097017765150e-03,-4.621595422564209743e-01,-1.233156429185080496e-03,2.310848794163997480e-03,4.594658012290368104e-03,5.331280231475830078e-01
1.253276739781260529e-01,-1.884198762173351638e-02,-4.634029760834260658e-01,4.205269564646122588e-03,4.457296910461340349e-03,1.440060663841793293e-02,5.322089195251464844e-01
1.261261315607016265e-01,-1.633943922270407467e-02,-4.883254285259672201e-01,-7.405487715732528287e-02,-1.100504015824687026e-03,-6.062304283221747400e-03,5.717300176620483398e-01
1.097335717942947986e-01,7.675130464193560820e-03,-4.561648482144947669e-01,-1.800157340586039986e-03,4.409488155547435645e-03,-1.404825628965285841e-03,5.224712491035461426e-01
1.157707026232878966e-01,5.394119289083329494e-03,-4.529812400576076481e-01,3.037059426187799834e-03,-2.049544515697258266e-03,-6.255057985126753241e-03,5.225347280502319336e-01
8.753135199441275383e-02,3.696880051951256796e-02,-4.591889979753875362e-01,2.613984514016035043e-02,3.060134405060333743e-03,-3.389888582162710155e-03,5.252890586853027344e-01
1.581326519030829547e-01,-1.992573389195305411e-02,-5.067245877109993746e-01,4.914349620780619765e-04,1.315315007243095594e-02,8.044749819696536686e-03,5.967163443565368652e-01
9.001360667833302465e-02,4.246045369621603838e-02,-4.687164268950912982e-01,-2.548474198598702639e-02,4.576404256178203712e-03,4.452003487188468771e-03,5.384625196456909180e-01
1.140387664514333488e-02,4.065937350730360056e-03,-1.673738738661433578e-01,-1.332645538965194446e-03,1.837666834515047296e-02,1.912309053079381746e-02,1.811600923538208008e-01
6.484291797007668556e-02,5.901275688161436439e-02,-4.418740869312050012e-01,-1.168440004948249379e-02,1.301322388663992205e-03,-1.283716296371726923e-03,5.042434930801391602e-01
4.100247069655998944e-02,3.155969622839878419e-02,-3.120437335741166329e-01,-3.361295427910701919e-03,-1.248139939555141260e-03,-2.002070656603100775e-04,3.484763205051422119e-01
1.350733270560965094e-02,6.126601665615849512e-03,-2.139296679500968246e-01,1.903961463263481851e-03,1.075944334370065175e-02,-8.229213144444136807e-05,2.246366143226623535e-01
1.132244486287300733e-01,2.174948386902159081e-03,-4.497931862098835110e-01,1.874729065815260252e-03,9.807447036058506394e-04,3.700277743449721570e-03,5.165777206420898438e-01
1.118682488654430818e-01,3.338286020612007965e-03,-4.569318362842786363e-01,9.216145003998858776e-03,-6.648086889404770635e-04,-6.652976057824696102e-03,5.234208106994628906e-01
9.949310439950467821e-02,1.302165839380503565e-02,-4.492592644794495826e-01,1.801419976318390306e-02,8.267815103910051326e-04,-8.602793084431015203e-03,5.122037529945373535e-01
7.756246161572030728e-02,4.540770200582469607e-02,-4.457924181100389460e-01,-4.735363780096439948e-03,-9.456824348702203356e-04,-6.303655994337295683e-04,5.081112384796142578e-01
1.217278256243864987e-01,-8.849834751990803827e-05,-4.641675788614955667e-01,-2.289785068124495972e-03,1.029169453720560606e-03,-3.258971148057791985e-03,5.355294346809387207e-01
1.271793634853292665e-01,-2.080994004063405067e-02,-4.621127648895763107e-01,3.113320890318363454e-03,9.374038470319088698e-04,-8.762363116860858239e-03,5.312430262565612793e-01
9.349526915344574807e-02,1.853931948819789732e-02,-4.558891172735040631e-01,3.590472672470211568e-02,8.454073641213640661e-03,-6.506873575673004749e-03,5.200681090354919434e-01
8.812579619675484088e-02,2.500803761665607028e-02,-4.505879394580379338e-01,1.021709092812067045e-02,-1.497314242664045782e-03,4.417303367090053695e-03,5.104628801345825195e-01
1.550438337042543968e-01,-8.219505535096288673e-03,-5.051135004641127413e-01,2.234137498502657831e-02,-2.892837334263587828e-03,-3.062733872363069144e-03,5.968532562255859375e-01
1.971068131000206503e-01,-5.496366478183342674e-02,-5.496530228792926298e-01,-9.917621710606894236e-03,-1.689779665501634637e-02,-7.618467798787826976e-03,6.589988470077514648e-01
7.992268872359573062e-02,7.238870120939425168e-02,-4.450284418506468831e-01,2.306490529978100484e-03,-6.061203227857267809e-04,-3.451248805489015733e-04,5.212416648864746094e-01
7.955384665387138510e-02,7.400327207024107179e-02,-4.434948518137123430e-01,3.925825331210445329e-03,1.619505980781354385e-03,1.563874694824277578e-03,5.203546881675720215e-01
7.667317009732804722e-02,7.520560261741224273e-02,-4.486124124861280982e-01,1.379390106519614613e-03,4.241645414827337191e-05,-1.798252414556185408e-04,5.245589017868041992e-01
7.726688626074745825e-02,7.464575233459019854e-02,-4.477993513201984910e-01,7.885338857843806389e-04,2.406188890571248415e-05,-7.622270302327446715e-04,5.237640142440795898e-01
1.080054503627665974e-01,5.553307197604712142e-02,-4.585004422783443001e-01,1.241554957966328927e-02,-8.222074728058666529e-03,6.566695829857925604e-02,5.545791983604431152e-01
6.259045217499240032e-02,-5.026084105913767447e-02,-2.443439722314198204e-01,1.098858528225685888e-02,-9.994626082425692518e-03,1.090019359809028532e-01,3.295639455318450928e-01
8.703007067461535073e-02,6.594479600357996962e-02,-4.548136435612308293e-01,-1.769739497229787500e-03,-8.894056857596492963e-03,5.555213215773867341e-02,5.404804348945617676e-01
3.332458674981271518e-02,-1.791802806397092829e-02,-1.343971217346469349e-01,-9.425708129685073100e-03,4.018128746578479571e-02,8.197599102545448380e-02,2.177893668413162231e-01
3.099263366301338585e-02,4.930798229445726433e-02,-2.914184534811845584e-01,-1.207875309444274119e-02,-9.832144546391830345e-03,1.124107850449593687e-01,3.857793211936950684e-01
-2.779355026490523684e-02,2.000623826216196832e-01,-5.285348614151498259e-01,5.288315313443647803e-02,-8.700781705332272936e-03,-1.376673135254780946e-02,6.526427865028381348e-01
5.882199586931294299e-02,5.421334169381650248e-02,-3.068929556887092236e-01,7.895992890889512450e-03,-1.053167614398513724e-01,-9.171878154380749132e-03,4.071823656558990479e-01
4.261606034572262836e-03,1.538412506226640719e-01,-5.231776979415647677e-01,-1.701187744761502741e-03,-3.549435954557319996e-03,7.695091958144646346e-03,6.161855459213256836e-01
3.317666037437358439e-02,9.074107457787167208e-02,-4.309184618096346120e-01,-6.659713189237291900e-03,7.934180612619301520e-03,1.071331209122005149e-02,4.960640370845794678e-01
8.879250108157249466e-02,4.466649454371807160e-02,-3.143315993875591130e-01,-3.751757666437148184e-03,-6.814811594575928555e-02,-4.355997161060456979e-02,4.078419208526611328e-01
2.016880049019673105e-02,1.260653440068216780e-01,-4.813319756511602043e-01,1.993506104339087120e-02,-1.586936238906687044e-02,-3.248977484316573072e-03,5.637407898902893066e-01
-2.957462669279495304e-02,1.565097343804656149e-01,-4.074400348064413646e-01,1.186787682454181619e-03,1.667803925188045266e-02,-5.013794025416987155e-02,5.060678124427795410e-01
6.450799981882249234e-03,1.162146074331645296e-01,-4.615173981976454787e-01,-5.493651932104781817e-03,-7.067131986234330247e-03,1.247692601797261444e-03,5.316514968872070312e-01
2.099981634310200129e-01,4.920742381395901144e-02,-7.490685774906209460e-01,-5.140241632137128314e-02,-1.441390461628487552e-02,5.418772682277780278e-02,8.993400335311889648e-01
1.607547725413283057e-01,-1.172930061671743907e-02,-5.353778442714038910e-01,-4.729783554543875307e-02,1.031037733598406253e-02,9.957036664316550392e-03,6.337248682975769043e-01
7.957176241223579138e-02,3.927684735437061980e-02,-4.451529329798318280e-01,-2.081385328102593191e-02,-2.715672469703262534e-03,3.982703972423702957e-03,5.071344375610351562e-01
1.024440253365160036e-01,2.475101270669771703e-03,-4.850504909881907523e-01,-8.821430329858283292e-02,5.045321803307256658e-02,8.150896295801053626e-02,5.893431901931762695e-01
5.138316843238996401e-02,4.207330635169057031e-02,-3.337901500469413474e-01,7.382504243275892289e-03,-2.479946815524506840e-02,-1.324422564070442711e-02,3.839192986488342285e-01
8.651721593337441396e-02,3.474347252791162854e-02,-4.521518608684910179e-01,-7.105408792989133249e-03,-1.974950982437680309e-03,-7.762121872783458651e-03,5.150727033615112305e-01
9.868607179777397209e-02,3.646715307890024960e-02,-4.524451693841825550e-01,5.925190425618034190e-03,5.794069052207293825e-03,9.069018948468184071e-03,5.232387781143188477e-01
9.303224429087811331e-02,3.192092416454814230e-02,-4.528750436963536186e-01,-3.583656395531104565e-03,-5.589192442622054231e-03,-6.818401724899571768e-03,5.183241963386535645e-01
1.038239990350457442e-01,1.761536904744043230e-02,-4.522510296621392034e-01,-4.818390887694387267e-03,2.811813333014284363e-03,5.812386442538322075e-03,5.185630321502685547e-01
5.885347485470104889e-02,6.603251221876438315e-02,-4.431671634578349672e-01,2.737207910271899358e-02,-1.146234438631026781e-02,1.526833514042270738e-02,5.089415311813354492e-01
7.282329523891636902e-02,7.066140493977277059e-02,-4.520846606158183123e-01,1.735092701063202861e-03,-1.034593415148981211e-04,-2.700443241219264035e-03,5.238599181175231934e-01
5.414195103515254126e-02,4.941199650431951640e-02,-3.632632150453926068e-01,1.153328502252058164e-02,-3.300837905801984329e-02,4.551574745055868287e-02,4.267995953559875488e-01
6.705071146983213048e-02,3.916815140094256908e-02,-4.029600156649236764e-01,8.550905074210525536e-02,-4.264660517634422804e-02,1.430973873750350511e-01,5.453481674194335938e-01
1.998267035049650087e-02,7.155066029415552142e-02,-4.571319137378760389e-01,9.469179374217734368e-02,-4.730520299995739225e-02,5.617870290592542892e-02,5.458777546882629395e-01
1.106349313490122277e-02,1.148569065592355554e-01,-4.293900051794492523e-01,7.684212954334807000e-02,-4.484326684832693616e-02,1.289290376339885524e-01,5.693008899688720703e-01
5.149260386016971114e-04,4.546155575939488103e-02,-2.199174548831013820e-01,1.699221527246526711e-02,-9.561753231815660337e-02,8.305723365547829085e-02,3.309202194213867188e-01
4.382096651657041431e-02,4.126701458806367184e-02,-3.206661874513350163e-01,9.247360761212785121e-03,-1.203732275743838939e-02,-3.319361272961796061e-02,3.686776459217071533e-01
-2.229007134079294752e-02,-3.715550832380114243e-03,-1.195753929140292854e-01,-5.080931155469044225e-02,-5.625387566265391964e-02,-7.561836482261875825e-02,2.144974172115325928e-01
4.597959570931800521e-02,3.859612350652451285e-02,-3.095376219425934328e-01,7.026370724647280214e-03,-1.888929522939417419e-02,-2.461983644547184602e-02,3.561727106571197510e-01
4.642329284362020636e-02,5.260338392388755335e-02,-3.268471644629863948e-01,6.568482418692605379e-03,-9.188482764568711714e-02,-6.746899978062664838e-02,4.251940250396728516e-01
3.478845427928500822e-02,8.514133624199024530e-02,-4.481871232780857417e-01,9.825320397595095970e-03,1.011644162124476732e-03,1.883445579681729514e-04,5.103065967559814453e-01
1.717506550392206011e-02,1.004977050532440408e-01,-4.526682873289755715e-01,2.996938960706044264e-02,6.371898327776597502e-03,-7.756688524840802193e-03,5.194620490074157715e-01
-6.507734653673907799e-04,1.106952046551979152e-01,-4.550096617634326601e-01,2.490910058283945377e-02,3.599612011856135295e-03,3.116840120454547006e-03,5.209226012229919434e-01
3.237210779724108978e-02,2.174382666082025350e-02,-2.348075323664981784e-01,2.706064982652721124e-03,4.107443269431569621e-02,-2.548149151582201205e-02,2.751171886920928955e-01
3.297767527972771118e-02,2.473278509193319041e-02,-2.168922107117580711e-01,-4.266679779028624379e-03,5.574165164864093580e-02,-4.395860241981999067e-02,2.749834060668945312e-01
7.396985134830832975e-02,4.733759911503021556e-02,-3.787421102061755973e-01,1.683524840066603565e-03,1.623902377212240247e-02,1.604328692429352055e-03,4.409172236919403076e-01
6.467125583115107545e-02,9.057446547961661709e-02,-4.219246327887699599e-01,7.501772432855297046e-03,7.383141242517023140e-02,-1.625558038171234093e-02,5.170741677284240723e-01
5.691699393262045215e-02,6.100239657131484305e-02,-3.785142293472249508e-01,-1.131401566758791048e-02,1.299736894779313263e-02,-1.223565733624113090e-02,4.390169680118560791e-01
1.523948499712435289e-03,8.273370821888995086e-02,-2.714945076262016421e-01,-2.173296693905621413e-02,8.270574201374303325e-02,-2.679186985635078136e-02,3.569271266460418701e-01
-1.497112133625262687e-02,8.447942880614818517e-02,-1.580641779055180496e-01,4.402821824604024464e-02,7.483329563501335546e-02,1.882979278499924067e-02,2.612966001033782959e-01
-1.785757852334826645e-02,8.658435274102357915e-02,-2.966535568938136747e-01,2.657085311397724969e-02,7.720986020011003093e-02,-5.951008084749823124e-02,3.852009475231170654e-01
1.103386693941277308e-03,2.267718132728926972e-02,-1.433001953464353440e-01,2.050693067142863105e-02,4.134230179763828672e-02,-7.350236830179623926e-02,2.168642729520797729e-01
7.355119045115676712e-02,6.785956307612542315e-02,-4.276399409722134171e-01,5.038718804650337002e-03,1.500622947401478733e-03,6.201032871949475715e-03,4.985685944557189941e-01
7.446573520364810350e-02,6.506469841284293065e-02,-4.442513565362528061e-01,-2.147037025095448366e-03,-3.234040430672966565e-03,-3.201483090330407844e-03,5.141549110412597656e-01
7.364197133053987376e-02,7.423381803773132503e-02,-4.475671513001394097e-01,2.050914015206430768e-03,-1.192841503835005007e-03,7.301613510050594408e-04,5.215229988098144531e-01
6.674723937846238631e-02,7.337221912552630010e-02,-4.461287036253502869e-01,-1.064500859970397536e-03,1.493299730407629576e-03,-1.652802844388860572e-03,5.162380337715148926e-01
7.444523431183255879e-02,7.472433003033746024e-02,-4.477084273984611729e-01,-3.722372324593670433e-05,-1.074276075607717663e-03,-8.468032087532030138e-04,5.222986340522766113e-01
7.389289628953088496e-02,7.537931364932459743e-02,-4.475895002788444210e-01,8.507872936710603271e-04,2.539776165592397641e-04,-6.140135164671427660e-04,5.222305655479431152e-01
6.971464368317267790e-02,7.411247082199079461e-02,-4.465271276108195297e-01,6.859439147998056246e-04,-1.635592968048305094e-03,-7.709537664821146516e-04,5.184655189514160156e-01
5.543525752955907882e-02,7.600693752097467670e-02,-4.432131996122737894e-01,-2.492146927817506623e-03,-3.799351049834816252e-03,-5.162298257730902652e-03,5.093852877616882324e-01
2.916636033917391346e-02,9.794574408071815563e-02,-4.526114546533592797e-01,-8.979904811262061359e-03,-7.587286177779225746e-03,-3.791948064190906343e-03,5.200332403182983398e-01
7.057210028186822193e-02,5.795606747600853814e-02,-4.443681069195407618e-01,-9.400220714419848730e-03,-4.344126602768296451e-03,-5.689203652856990139e-03,5.091609358787536621e-01
6.892402352484672257e-02,5.713499799453153338e-02,-5.282341899652091000e-01,-1.057890481307196817e-01,6.381155382100131383e-03,6.817318196764016701e-03,6.193000674247741699e-01
6.152803821285224295e-02,1.166568685995297838e-01,-5.869265187323665645e-01,-1.157154091515767425e-01,1.136538797782703919e-02,-5.652102887315518104e-02,7.137385010719299316e-01
7.039042705197423588e-02,7.651480700272644819e-02,-4.416341673416993019e-01,-2.068086231576131764e-03,1.613733866343705766e-03,-7.465997770197202281e-03,5.152963995933532715e-01
7.025402912637668251e-02,8.074166219220441088e-02,-4.433263194843785060e-01,-4.013052156204145564e-03,1.337697867701466772e-03,-2.590759179314035612e-03,5.189747810363769531e-01
7.062502889832847353e-02,7.977538941885051194e-02,-4.432719816972379712e-01,-1.414341853739840924e-03,1.412333250194954589e-03,-2.378251545792900901e-04,5.185444951057434082e-01
7.298405311044275923e-02,7.904176875786747547e-02,-4.425211789790948758e-01,-4.353062405236819352e-03,2.806603476334346495e-03,-4.994787779319853106e-03,5.187103748321533203e-01
6.843870399464177523e-02,7.269140888937514200e-02,-4.203818432358914503e-01,-8.304317631104264630e-03,-1.104260149551237850e-03,-4.374283010537935619e-03,4.912335276603698730e-01
6.936792039007058652e-02,7.259886473753862646e-02,-4.241169204144569771e-01,-6.403012466874297495e-03,2.048426196500850206e-03,-6.499016233848355431e-03,4.953730404376983643e-01
6.638248370003355103e-02,8.326874604586936846e-02,-4.367147739282678520e-01,-5.606066595747282930e-03,1.228537071104821986e-04,-4.119984142480980285e-03,5.118913054466247559e-01
5.084111236946117773e-02,6.985986134570107420e-02,-3.838091059254976622e-01,-7.531233070671454824e-03,9.064030601818340652e-03,-1.180384682220629068e-02,4.454028010368347168e-01
7.294914329242369044e-02,6.976988216424298561e-02,-4.469271180517137010e-01,4.227575193746288670e-04,1.175664554437236883e-03,1.863174641133562683e-03,5.183085203170776367e-01
7.952619059666712897e-02,7.014220263845202807e-02,-4.401664298025242950e-01,-1.383070268612967939e-03,5.282935645299314739e-04,-1.526734651733940981e-03,5.150778889656066895e-01
7.340940995694381077e-02,4.709377073175211037e-02,-4.450188040531870559e-01,5.555264294392743551e-03,3.117744467311915277e-03,-5.370950809174241704e-03,5.059899687767028809e-01
9.053471534581974955e-02,5.290554592943039203e-02,-4.549692006054488203e-01,3.935791754524410081e-03,-1.250104585239763481e-03,2.548046151290844774e-02,5.295871496200561523e-01
3.144636645696102795e-02,9.511106655472068017e-02,-4.685047854806723144e-01,2.743123408106662442e-02,-1.932599729924018486e-03,-8.052512862775012409e-03,5.369327068328857422e-01
6.936837559034497724e-02,6.474303725767013851e-02,-4.450221898749044946e-01,3.185319638576305373e-03,3.444181829387727486e-03,-3.113656649789454684e-03,5.121864080429077148e-01
6.222862256928785030e-02,6.893841241566908695e-02,-4.433629151286067605e-01,3.484984550369887683e-03,1.551180193516236711e-04,-1.624222151272544440e-03,5.090232491493225098e-01
5.822625880357779060e-02,6.344208626894162761e-02,-4.396378802726677026e-01,2.633726500971825518e-03,1.352971006731001945e-03,-1.080040324230730799e-03,5.005221962928771973e-01
7.065452861505897020e-02,5.633503851230514670e-02,-4.437453858804237261e-01,4.812315522320444877e-03,2.074403569686143582e-03,2.122272167204972658e-03,5.074862241744995117e-01
2.304156888123733149e-02,2.567331418106481855e-02,-2.600943878869129700e-01,2.485645991808165412e-03,6.188944708908858741e-03,3.042942959405003922e-02,2.895329594612121582e-01
9.446396544507962290e-03,1.965415732348861633e-02,-1.972347534040228278e-01,-3.067929544339582579e-03,-1.178987508172289755e-02,8.083006238589660053e-02,2.549054324626922607e-01
2.186450565074773977e-02,2.349222168800742250e-02,-2.389971117013643676e-01,-3.545814584991699176e-04,-1.668733421621047689e-03,4.041724337589008148e-02,2.708974480628967285e-01
3.064192156012193746e-02,4.011383759979569863e-02,-2.968055812942088645e-01,3.801163086355527609e-05,-2.649870183506951738e-03,-2.328341904511882271e-04,3.323166668415069580e-01
2.147587866065774065e-02,2.814051863302617640e-02,-2.644863105509423495e-01,-4.591257371517604505e-03,-1.538517831798550881e-02,2.576450086472538425e-02,2.940908074378967285e-01
3.326151930758650122e-02,2.398476049264440524e-02,-2.712328711857465158e-01,5.724969633117198316e-03,-1.796628506590728508e-02,5.175195292199996676e-04,3.017377257347106934e-01
6.758916374340870337e-02,4.816314396508480922e-02,-3.764256533403179117e-01,9.875081186308273459e-03,-6.376249151812579674e-02,-1.353358793649608871e-02,4.493774473667144775e-01
3.298384127534086108e-02,3.045337005351231308e-02,-2.376338505960138292e-01,-6.918918882701192768e-04,-6.345589710623233959e-02,-4.257845784901510833e-02,3.001261651515960693e-01
5.038352828316147725e-02,3.313232904293793302e-02,-3.211826337731774617e-01,5.390903292783399796e-03,-2.485904374951169310e-02,5.787474660504034630e-04,3.659114241600036621e-01
