sxx,syy,szz,sxy,sxz,syz,smises
0.000000000000000000e+00,0.000000000000000000e+00,0.000000000000000000e+00,4.747783872879899473e-68,-4.385554344383897811e-81,4.747783872879360009e-68,0.000000000000000000e+00
