sxx,syy,szz,sxy,sxz,syz,smises
-6.359216938464647140e-03,-6.359216938464647140e-03,7.271843387693022187e-02,7.197676182731747670e-52,3.634826472279350763e-52,3.634826472280148242e-52,7.907765358686447144e-02
