sxx,syy,szz,sxy,sxz,syz,smises
1.335466666666529378e-04,1.335466666666529378e-04,-2.670933333333021351e-04,4.001599999999994484e-04,4.003999999999992288e-02,4.003999999999992288e-02,9.808083623647689819e-02
