sxx,syy,szz,sxy,sxz,syz,smises
9.180000000000552302e-03,9.180000000000552302e-03,-1.835999999999931784e-02,8.099999999999999561e-03,-1.980000000000000371e-01,-1.980000000000000371e-01,4.859828054904937744e-01
