sxx,syy,szz,sxy,sxz,syz,smises
-1.526441539819296117e-02,-1.526441539819296117e-02,1.505288307963862371e-01,4.399394516385116856e-37,2.191312331693064573e-37,2.191312331693229115e-37,1.657932400703430176e-01
