sxx,syy,szz,sxy,sxz,syz,smises
-3.515774864677828626e-02,-3.515774864677828626e-02,5.503154972935562217e-01,-9.404039846469071183e-53,-5.078181517093371659e-53,-5.078181517093299329e-53,5.854732394218444824e-01
