sxx,syy,szz,sxy,sxz,syz,smises
2.863527244896769790e-03,2.863527244896769790e-03,-5.727054489793386924e-03,4.184944315377498759e-03,7.984703781292307179e-02,7.984703781292307179e-02,1.959072202444076538e-01
