sxx,syy,szz,sxy,sxz,syz,smises
8.220556765932840459e-02,1.356199391657797182e-01,1.172460469848192743e-01,1.438140675834607453e-02,-3.794693231636157849e-02,6.200980208591715115e-03,8.523499965667724609e-02
8.020064518486887117e-02,1.270949241105484018e-01,1.301746956449321702e-01,3.111836213659685199e-03,-3.001462335507346438e-02,3.805717235142433755e-04,7.130988687276840210e-02
1.451756296630083987e-01,1.632624362913538685e-01,1.601842282571661058e-01,-8.166786553685130828e-04,-2.348002334182448109e-02,-8.114478533827636231e-04,4.403230175375938416e-02
1.166366052695359951e-01,1.885905599493745421e-01,1.636620010041341666e-01,1.136677306517883471e-02,-3.422443047414439748e-02,-7.733878972084082086e-03,8.992263674736022949e-02
1.186360474595745118e-01,1.187358130407937806e-01,1.031354859204092062e-01,8.663842858438866590e-03,-6.376052714921037756e-02,8.872291031904191994e-03,1.135754287242889404e-01
1.493250300667109121e-01,1.928998577600218867e-01,1.442205031908153356e-01,-2.528551440289207846e-03,-6.343300367241648530e-02,1.624876845060151814e-02,1.225958243012428284e-01
2.669925078552241593e-01,1.324639688448137065e-01,1.443238395687024556e-01,-8.090315149121170973e-03,-5.753205716853985845e-03,-1.084564691171682575e-02,1.314976662397384644e-01
2.516700878326483259e-01,1.240926049525279129e-01,1.344408370877159253e-01,-6.453746824126465644e-03,-3.271221502391669436e-03,-1.120904782575940853e-02,1.248874813318252563e-01
2.592480432597580875e-01,1.288369475137203790e-01,1.396081502143199649e-01,-9.171702644294079786e-04,-1.442538956141428338e-03,-4.776347183082466086e-03,1.256805211305618286e-01
2.576438054412454326e-01,1.236016558168673007e-01,1.273042971623320196e-01,-1.611804403467693818e-03,2.663036112394843893e-04,-8.223621286967122343e-03,1.330247670412063599e-01
2.468055040610054318e-01,1.173469788729806229e-01,1.216975065082703394e-01,-2.530642952499797399e-03,-9.177914735396735602e-04,-8.733292638008934017e-03,1.283190399408340454e-01
2.502539354094361346e-01,1.273667382550740523e-01,1.272656947920675075e-01,-3.455158954567967480e-03,-9.039742572179259835e-04,-4.851628955602927708e-03,1.233797818422317505e-01
2.419879498498290205e-01,1.147592606214682398e-01,1.215037816257990566e-01,-1.385237930699190125e-03,-1.876638845869484182e-03,-4.140970782548813837e-03,1.242670342326164246e-01
2.291671249738619909e-01,1.043764723435851582e-01,1.223197928224175890e-01,9.318803853418877736e-03,5.037948777931516506e-03,-6.362202376705228604e-03,1.188006997108459473e-01
2.390685838163605081e-01,1.408069924573117637e-01,1.171975500081955113e-01,1.167305594026768305e-03,-5.258143478720684466e-03,2.066635113134586595e-03,1.123943626880645752e-01
2.221973166706427416e-01,1.098076914397942971e-01,1.087173678947609134e-01,1.350756559923148650e-02,1.161852386458906219e-02,-1.457319210725479403e-02,1.197690442204475403e-01
2.304864917584814876e-01,1.035545865812647071e-01,1.173982249732888339e-01,9.826145220946597494e-03,8.371821430588033755e-03,-1.093469870500553623e-02,1.241159960627555847e-01
2.225986278286242737e-01,1.173177092772504509e-01,1.186329283536887713e-01,1.077175465144370251e-02,1.233188145554866763e-02,-9.929490572638340409e-03,1.097608134150505066e-01
2.255719599510511708e-01,1.048663120002439608e-01,1.213933993434182790e-01,9.480576644167957798e-03,6.700510514772770217e-03,-7.740251364929967397e-03,1.158971711993217468e-01
2.574119235990161569e-01,1.145031570148854622e-01,1.384815979425252919e-01,2.199529993987008394e-02,1.690255995191601232e-02,-1.771806766777264328e-02,1.442962586879730225e-01
2.335984344400472978e-01,1.191224916355061447e-01,1.244601488931078859e-01,1.057422677053772775e-03,9.175748207890398103e-04,-1.746902751995975519e-03,1.119697913527488708e-01
2.403965475046615785e-01,1.317559814794214690e-01,1.392771299169861532e-01,1.240672306894787143e-02,9.524397500580272097e-03,-1.013096708875677911e-02,1.099275723099708557e-01
1.799075014516628712e-01,9.673114666610610479e-02,9.755668826689294082e-02,1.538387966794172411e-02,3.470338550755841522e-02,-2.150438030112640508e-02,1.120740994811058044e-01
2.418662642074762559e-01,1.216852666684188899e-01,1.345197800724167170e-01,5.416008760349068363e-03,3.103575425623015908e-03,-5.213013140738980214e-03,1.151701137423515320e-01
2.497962002651893387e-01,1.299852566631897188e-01,1.289880882302931187e-01,7.271945255836016579e-03,6.420682746055920639e-03,-1.245582393232756539e-02,1.233810782432556152e-01
2.245839440441968760e-01,1.022556495486154904e-01,1.163948203787227020e-01,1.221821761105298422e-02,9.683634231486753369e-03,-9.418280330668979405e-03,1.201240718364715576e-01
2.320669383520529427e-01,1.103508312876610026e-01,1.155588225303709887e-01,5.196428403304206335e-03,5.000017352321335998e-03,-6.506124665999904813e-03,1.203787177801132202e-01
2.398923914044020500e-01,1.124767565785148304e-01,1.169715692459797063e-01,6.966875125830404233e-03,6.482238745464553344e-03,-9.364066038527532609e-03,1.273458451032638550e-01
2.523216463303926682e-01,1.246403538262159383e-01,1.355598925938412413e-01,6.305920495530014172e-03,1.030420506393849890e-02,-9.667681541402536535e-03,1.254820525646209717e-01
2.313898201409785305e-01,1.415258921905767631e-01,1.106037922391878703e-01,-1.357383606384178747e-03,2.432076730958888586e-02,1.996327580710151837e-03,1.166296079754829407e-01
1.859413582399275233e-01,1.111314277106520559e-01,7.090740031734293902e-02,-6.013938509411493813e-03,3.643558803488811115e-02,5.948618080300571015e-03,1.200873479247093201e-01
2.044754328121561604e-01,1.407327102680703823e-01,1.151161320719447240e-01,-9.081243294395337663e-04,2.536472726810653708e-02,4.233691294732486177e-03,9.131576120853424072e-02
2.071615989860183249e-01,1.283891854462898274e-01,1.444245499371404340e-01,3.369942018520838845e-03,-6.682674875205826641e-04,2.952800336995512441e-03,7.253032177686691284e-02
2.006781442858836528e-01,1.519194413283985468e-01,1.380669455619457642e-01,1.213879536947494453e-03,1.129887170340529608e-02,2.277618055524374945e-03,6.039626896381378174e-02
1.943743209441923803e-01,1.355560072710406405e-01,1.154330784106533531e-01,-4.304360006801875166e-03,4.120963293679084927e-02,5.659036138087843344e-03,1.014617234468460083e-01
2.269390436377580200e-01,1.457667242572215915e-01,1.018484007583689566e-01,5.051152983970130794e-03,3.083794403751246097e-02,-2.725388429326671465e-03,1.226151660084724426e-01
1.734924950895007645e-01,1.476071593378576741e-01,1.176092975905131399e-01,-2.935408044716685243e-03,2.719707492453190059e-02,-6.212181882084783467e-03,6.860826164484024048e-02
2.145382974976606238e-01,1.411329131255198155e-01,1.039689766322473424e-01,5.464311515955101901e-03,5.423174193492063394e-02,-7.233360997658728510e-03,1.362619847059249878e-01
2.443073454111162057e-01,1.236529243326238148e-01,1.225555539404224181e-01,1.110197257234174333e-03,-9.715839572308135330e-04,2.929626148906199715e-03,1.213399097323417664e-01
2.461632417112154525e-01,1.278710885361461769e-01,1.264331505749765328e-01,1.721814853928096425e-04,-3.237616663467917017e-04,6.509107609205455267e-04,1.190246716141700745e-01
2.445419922426126380e-01,1.240501027606292772e-01,1.178777419347787347e-01,4.703009686611414174e-04,-3.219315854571426499e-05,3.086565088815872507e-03,1.238117963075637817e-01
1.877143246055971160e-01,1.281821661140473412e-01,1.488980494730386961e-01,-3.595072880192835829e-02,-1.495942751050714781e-02,-1.185122405445540491e-04,8.537402749061584473e-02
2.434535341374515216e-01,1.327303571366205137e-01,7.895127534470905428e-02,-3.087644119870354593e-03,9.675224061727258351e-03,5.981645461474664749e-03,1.467077881097793579e-01
2.406577358687911616e-01,1.504265268275541689e-01,1.909936790583594002e-01,-4.806709800489455953e-02,6.725255281515291192e-04,-4.006590830043454954e-03,1.144892796874046326e-01
2.290199510522978321e-01,1.239742623952120454e-01,1.129284472161055652e-01,6.435645148865128812e-04,3.952336263796035558e-04,-1.848628502997295454e-03,1.110355108976364136e-01
1.396333955043888020e-01,1.305523415467202686e-01,1.691346908600301624e-01,-5.442900316517916559e-02,-2.767540870370019390e-02,-5.927519312420271528e-04,1.113870888948440552e-01
1.540076882486897114e-01,9.424969072104508183e-02,1.303004866791784289e-01,-6.162240693947155373e-02,-2.097886325833732413e-02,-1.435178748619694682e-02,1.266750842332839966e-01
2.751383398429375626e-01,1.152048128289805962e-01,1.403095802941872750e-01,-8.063873236962657010e-03,5.100467915998525316e-03,-1.975343710186897375e-02,1.537452638149261475e-01
2.469437498379992157e-01,1.145097448028526699e-01,1.213019709181396844e-01,1.312444372192106412e-03,-1.010370558384927805e-04,-1.127352656560101293e-02,1.306592971086502075e-01
2.705990637117257069e-01,1.346144382371889381e-01,1.404283840849973874e-01,2.861780324329469497e-03,6.139899097042637475e-04,-1.548528461316983455e-02,1.359415203332901001e-01
2.522479596919458000e-01,1.029191020073205315e-01,1.270163480570049575e-01,1.793979668664676466e-02,9.615109678658917414e-03,-1.534718659068429018e-02,1.457080543041229248e-01
2.692344483093264129e-01,1.246107785147207159e-01,1.456101561793055055e-01,6.926694802379554892e-03,3.834710381608200189e-03,-1.178764504380429290e-02,1.375676989555358887e-01
2.673039526968411517e-01,1.268669509886106161e-01,1.422219519711420688e-01,5.273531206086979652e-03,-7.885141231726432338e-04,-9.352760493831786121e-03,1.347205787897109985e-01
2.615466042512116229e-01,1.228530136771813219e-01,1.300223416521218700e-01,-7.496127018310641630e-04,9.634760006093115404e-04,-1.167669755615127238e-02,1.367716342210769653e-01
2.349879241819043396e-01,1.211217200288539214e-01,1.071439030463047504e-01,4.014964002095874895e-03,9.978765552822540033e-03,-9.526864070937899123e-03,1.239833161234855652e-01
2.539527824979359583e-01,1.266231742199711852e-01,1.169979089298061187e-01,3.008903407229515138e-03,9.546254833189903033e-03,-1.006253106664799571e-02,1.346676349639892578e-01
2.645402887825076821e-01,1.440658247426926941e-01,1.317940715613767910e-01,3.673784338573465088e-03,9.312996546839988690e-03,-1.402962353241614564e-02,1.305155307054519653e-01
2.337607254915199384e-01,1.004712619862811740e-01,7.154791964622869704e-02,8.454308988522805934e-03,1.157134632919321060e-02,-2.721331048605112740e-02,1.590459793806076050e-01
2.483277960150297448e-01,9.902610076444615106e-02,1.369020458274081420e-01,9.831684000520318420e-03,-1.403152818417748244e-03,7.199136916210496437e-03,1.360956132411956787e-01
2.450673622798701379e-01,1.377733733959921880e-01,1.213082945504298793e-01,5.023811001644308376e-03,9.622358349324766288e-03,-1.345463478572684474e-02,1.201926395297050476e-01
2.319371102835947607e-01,1.253537016200255150e-01,9.003449964407912731e-02,1.113682444150444588e-02,2.031707313933602335e-02,-1.516086015996292481e-02,1.366451680660247803e-01
2.358325371023037298e-01,1.412920490127081430e-01,1.325988520787746427e-01,-6.900879832613848047e-03,1.565871691752628719e-02,7.685099277574492828e-03,1.043598055839538574e-01
2.466993154303262215e-01,1.157309465957193639e-01,1.331778501909656465e-01,4.100305503912020887e-03,-2.605035211304330706e-03,7.797899302963150724e-03,1.241987645626068115e-01
2.441299420940383769e-01,1.408072900467053357e-01,1.244507763078716023e-01,-5.747070619509583346e-03,1.316049756451056173e-02,8.057763830308543179e-03,1.159593462944030762e-01
2.065436937980532628e-01,1.204517149042925589e-01,9.146153430731751577e-02,-1.341030918350627314e-02,2.402945753666846027e-02,1.449731213988647398e-02,1.168347150087356567e-01
2.511427462734748817e-01,1.220565446925823000e-01,1.294251265480159674e-01,5.602002921266011418e-03,-6.983332590072226405e-03,5.513243830790391480e-03,1.268778890371322632e-01
2.451720621385316545e-01,1.397916862374004032e-01,1.399245187825907122e-01,-1.283367014822046903e-02,1.098992082025520602e-02,1.438741164403547525e-02,1.121092364192008972e-01
2.360179846305373030e-01,1.243053442743349835e-01,1.163743575107577255e-01,-8.356598960082185432e-03,1.243315403490751619e-02,9.476185489001727816e-03,1.198801398277282715e-01
2.182371522461511726e-01,1.188584207088879963e-01,1.051528001498856224e-01,-2.026351505551532081e-02,1.715806327418213650e-02,1.950282792569512855e-02,1.211698502302169800e-01
1.835863546324617013e-01,1.094728552182231418e-01,1.567545498140562876e-01,3.940451536424914580e-02,-1.026309606147560302e-03,7.439455482421880421e-03,9.513937681913375854e-02
2.176574077003295971e-01,1.166553797703542700e-01,1.483280378989021986e-01,4.020627589162797250e-02,-1.776536195665418330e-02,7.595682005097794884e-03,1.182163506746292114e-01
2.438929303914050828e-01,1.249478661219204506e-01,1.255125071400775283e-01,-3.023643727363358900e-04,4.415224874800219713e-04,4.907689695617568773e-04,1.186704188585281372e-01
2.523587299091804570e-01,1.293510759616552375e-01,1.610258449621378152e-01,2.135029415182609219e-02,1.821412536665441371e-03,1.594800392377898569e-03,1.167177036404609680e-01
2.351122303656094092e-01,1.169353459115610172e-01,1.443700993606055749e-01,2.263577333992448579e-02,-4.800889814318571799e-03,1.036145505142830377e-03,1.143931373953819275e-01
1.947245755234073561e-01,1.002627460498883710e-01,1.273219005799934578e-01,1.822637725417779880e-02,-1.634522896605410157e-03,2.648580203191524141e-03,9.013789892196655273e-02
1.974213410434093596e-01,1.049924730985211385e-01,1.320400632724410273e-01,1.719290853987674381e-02,-3.120040921367049202e-03,3.991897954452536430e-03,8.796867728233337402e-02
2.042300294206459144e-01,1.240116847941220013e-01,1.417678785024494292e-01,2.743219430364914405e-02,-2.291994688203157979e-03,3.992060534376340453e-03,8.744734525680541992e-02
2.080622204992556568e-01,1.162393717017962680e-01,1.454129786125981927e-01,1.559255911521907796e-02,-6.014564983911218146e-03,6.518017610360764616e-03,8.700053393840789795e-02
2.533092540162238393e-01,1.310052006020774873e-01,1.115822458731979550e-01,-4.464237909811204046e-03,7.699341963451526195e-03,1.200450854014547229e-02,1.355765163898468018e-01
2.404712981333183008e-01,1.179115071599322884e-01,1.136259250934638088e-01,-2.662354171422598795e-03,3.464041150843797691e-03,7.608244879063140106e-03,1.256798654794692993e-01
2.416556466932374969e-01,1.195404882572188576e-01,1.151787628046095774e-01,-2.879517720256405140e-03,2.909402301682021113e-03,8.283048692100924634e-03,1.253788918256759644e-01
2.574471762043973877e-01,1.182240585544028222e-01,1.183495090007539996e-01,-6.582144163917919878e-03,7.358410006936004846e-03,1.763173084280463682e-02,1.434945017099380493e-01
2.509268970968455137e-01,1.228837013456484939e-01,1.140614219587001987e-01,-6.349503305050736672e-03,6.637767157233762615e-03,9.043778269007618845e-03,1.345400512218475342e-01
2.571601672687428009e-01,1.339155932594456866e-01,1.375969320668403162e-01,-2.612800481789282706e-03,3.096502098126260698e-03,8.345367525258488850e-03,1.225040927529335022e-01
2.325757307859139811e-01,1.324973843817583430e-01,1.149267797925381529e-01,7.082068146140420902e-04,9.735129077668509996e-04,-1.467030308187171122e-03,1.099710986018180847e-01
2.603312430916742137e-01,1.326909684677755052e-01,1.367895374600700542e-01,-2.702048698938662452e-03,1.722123508007865475e-03,9.815290017010367893e-03,1.269075125455856323e-01
2.622879361234288220e-01,1.637916345771026905e-01,1.110563746620726461e-01,1.058286177393500142e-03,-1.626639978865348710e-02,-9.261224248704048433e-04,1.359282135963439941e-01
2.510171317199896279e-01,1.519051975319248848e-01,9.787654201275386434e-02,3.431570948063873607e-03,-1.564327945488406743e-02,1.100209046942625044e-02,1.386713981628417969e-01
2.615026728095204978e-01,1.463390282237754525e-01,1.078496940304911750e-01,7.764247823987738446e-03,-2.513020509113405437e-02,1.211887421030623767e-02,1.472844183444976807e-01
2.405678740669473514e-01,1.232138209197480710e-01,1.229998668717878774e-01,-3.466143419837775311e-04,1.533489606482079369e-04,1.205906547195951579e-04,1.174631938338279724e-01
2.333066958324744311e-01,1.278155477353418445e-01,8.935981551364213793e-02,3.808602765563762465e-03,-2.360246115624246160e-02,1.295039217530668738e-02,1.374112367630004883e-01
2.362062094154905312e-01,1.309776736900145344e-01,9.856775333500704395e-02,3.357154091652560755e-03,-1.399684304216646663e-02,7.940266847827073815e-03,1.278459429740905762e-01
2.386495392379957003e-01,1.311484534945281388e-01,8.173086984995153736e-02,1.766903347513915220e-03,-1.679002150264998980e-02,7.599135918145549090e-03,1.426160782575607300e-01
2.050932288640214818e-01,1.130588215001715330e-01,6.581304072211439926e-02,9.870218501558294943e-03,3.458532364995865055e-02,-1.029715078438669072e-02,1.387426555156707764e-01
1.922476136688591186e-01,1.221594777812471111e-01,8.295226252298307235e-02,5.083972244838291105e-03,3.637848353702402560e-02,-4.532512053753013151e-03,1.153553947806358337e-01
2.400430777420641537e-01,1.525983465278620832e-01,1.323661664428628648e-01,1.081763231152226001e-02,1.811990685442003632e-02,-9.798331927651948714e-03,1.070009246468544006e-01
2.635282003615364577e-01,1.601548710400241271e-01,1.273477707181256691e-01,5.993527184167582456e-03,1.842187016360628121e-02,-6.973791171261842399e-03,1.281619817018508911e-01
2.469066122165417820e-01,1.593119640839217310e-01,1.322601901460467300e-01,2.515169783438242490e-03,2.151758259239869644e-02,-4.017253830080399525e-03,1.105921491980552673e-01
2.430532711986801431e-01,1.301652595952872138e-01,1.235745142607611036e-01,-7.108367931989095258e-03,2.703622358261578099e-03,7.260267930490617652e-03,1.177404224872589111e-01
2.359094368320757140e-01,1.284111553508801573e-01,1.262821483624819441e-01,-4.993308745209349211e-03,4.371968928468198540e-03,8.063368612080231562e-03,1.100748553872108459e-01
2.290530271232472104e-01,1.203711545567021646e-01,1.136992919127064183e-01,-4.832319134341551622e-03,3.837673011895200749e-03,5.236461590438874422e-03,1.130392551422119141e-01
2.272128589163314727e-01,1.290206155545363664e-01,1.143643136389235621e-01,-3.368708902692481733e-03,6.462451510715449231e-03,3.482190465262101006e-03,1.071978062391281128e-01
2.434892672236440569e-01,1.025708596128564465e-01,1.211539068548038167e-01,1.049880536407250126e-02,-1.119063191397288298e-02,1.950159072931029192e-02,1.393984705209732056e-01
2.279030886003538259e-01,1.285200492801850947e-01,1.068621217649231431e-01,-7.484857903230656209e-03,1.550467270295364033e-02,8.383257290664287639e-03,1.166129335761070251e-01
2.537167421239529541e-01,1.320082209723925093e-01,1.094479944144371719e-01,8.022271241961052846e-03,7.694837912628909454e-03,-9.732773423446531430e-03,1.368304938077926636e-01
2.409500621947256727e-01,1.206021464625384176e-01,1.111363277392543036e-01,6.760151540157541793e-03,7.454148968843025622e-03,-9.258388608191945798e-03,1.275670826435089111e-01
2.579163270510400618e-01,1.294431324103904046e-01,1.208195062621550686e-01,1.983497600216261106e-03,8.111209556571937276e-03,-1.006998752269730284e-02,1.349111795425415039e-01
2.551540686148364712e-01,1.393514819122749215e-01,1.259726464172935545e-01,1.695731080832163680e-03,2.384813002667120381e-03,-7.274777549108717330e-03,1.237860694527626038e-01
2.512242993622929577e-01,1.388114986110748905e-01,1.155685709742735323e-01,-1.224695458270665636e-02,-3.374287985393684131e-02,-1.308689212376854330e-02,1.420182585716247559e-01
2.486278673351076662e-01,1.354068749161395913e-01,1.210860325173402641e-01,2.481870650731568193e-03,7.087097611795676287e-03,-6.476223490990316682e-03,1.222312748432159424e-01
2.489987294044063160e-01,1.382745962152460983e-01,1.204278560617638022e-01,-1.421322606259994880e-04,4.494983488937006472e-03,-5.653957599889872405e-03,1.212888360023498535e-01
2.503743119539219020e-01,1.394740966119656922e-01,1.229138430679861671e-01,6.407749518436252172e-03,8.502486606814347106e-03,-1.274366321187410736e-02,1.234378069639205933e-01
2.357714552410093978e-01,1.219374474765277383e-01,1.373950461486725394e-01,-5.756596009066457980e-04,4.445432636605678683e-04,2.004067339956611040e-03,1.070100665092468262e-01
1.812723268014817812e-01,7.780469452345831205e-02,1.160873216166004168e-01,3.443511193481559041e-02,-4.196408161024363544e-03,3.903834001535015294e-03,1.089310720562934875e-01
2.117200187466072026e-01,9.697743867392050188e-02,1.280960034957957239e-01,1.558681565119378158e-02,1.900189729856096828e-03,-1.977757915755680614e-03,1.063720509409904480e-01
2.282092744264811457e-01,1.096887217852622193e-01,1.385026466758419450e-01,8.321501757942025360e-03,3.605088687781660833e-03,-9.427563684508259451e-04,1.082206964492797852e-01
2.269219107374392530e-01,1.048859737399068515e-01,1.352779613970738204e-01,1.210906091931071918e-02,-4.910554204028184239e-03,2.304721967101122301e-03,1.124085932970046997e-01
2.135652523093523880e-01,9.353859221425300796e-02,1.245251268674742590e-01,1.574312070861530466e-02,3.246846933138079457e-04,1.499407793461900314e-04,1.113161072134971619e-01
2.154700198603448635e-01,1.036824780239734289e-01,1.293410943482559972e-01,9.477117997991155174e-03,-2.402569028581181924e-03,1.206747679501825234e-03,1.028476506471633911e-01
2.547219104847563420e-01,1.456644462466466228e-01,1.148507981077219325e-01,-1.469636092858286024e-03,-6.815659306030176848e-03,-7.838743468863308000e-03,1.285832226276397705e-01
2.501679586595086380e-01,1.148420132017541895e-01,1.390954447967019114e-01,-2.037280395408676975e-03,9.244903742997045461e-04,8.363335028279944962e-04,1.250453293323516846e-01
2.523021396961692697e-01,1.242098293673382647e-01,9.935630869767912710e-02,2.100951780958808680e-03,-5.102467712464083677e-03,2.158479424216215928e-02,1.473022103309631348e-01
2.390294576622409295e-01,1.177608958599153377e-01,1.101521191915068726e-01,2.832941753314596744e-03,-3.102632531224277374e-03,8.643405825439454473e-03,1.263477057218551636e-01
2.609813256903720791e-01,1.390423484989604108e-01,1.378281270964657745e-01,6.248971897165941231e-03,-4.679726124840776109e-03,9.493737145125078977e-03,1.243860572576522827e-01
2.467283185908921428e-01,1.206879598090897787e-01,1.137550164973017697e-01,-4.554812258049613567e-04,2.656944280029107221e-05,8.721014373981900158e-03,1.305253207683563232e-01
2.495847220022175128e-01,1.260030949994833671e-01,1.173511720185530932e-01,6.635597083279409433e-03,-3.210230355958190122e-03,8.417834645193260704e-03,1.295842677354812622e-01
2.496027379023759152e-01,1.273957579112203753e-01,1.237159081183303866e-01,8.305148206705656108e-03,-6.588135018637698327e-03,1.328321014456824815e-02,1.275314092636108398e-01
2.149795658438770629e-01,1.251732589254815897e-01,6.392692507264544077e-02,-1.919161688809552235e-02,-4.990123966919743359e-02,-2.136691861365309225e-02,1.651108264923095703e-01
2.479034683399984895e-01,1.226637593697809669e-01,1.204003819347183174e-01,5.335384775300806501e-03,-3.357477398529959238e-03,1.454906359523215273e-02,1.293360590934753418e-01
2.327140977904669228e-01,1.450294085834278879e-01,1.301509411656826820e-01,-4.064957180237573249e-03,-8.574541958927666199e-03,-3.351115983534043267e-03,9.756237268447875977e-02
2.255489212905394947e-01,1.338038291474035746e-01,1.235366221106321549e-01,-3.965000602150835912e-03,-6.956322094579702603e-03,-8.104971703470029501e-03,9.926706552505493164e-02
2.805517038114028194e-01,1.113949166974339405e-01,2.020248688043040364e-01,-6.095762089552041185e-02,3.920264514546917961e-02,1.896943878562334929e-02,1.957924664020538330e-01
2.430176726915124763e-01,1.274456770216936263e-01,1.305202680417844596e-01,2.316050362790256223e-03,1.505605129984105865e-03,-2.937536692107810873e-03,1.142794042825698853e-01
2.361743821454919123e-01,1.215875595125994468e-01,1.246879285424859207e-01,8.816426367500824297e-04,1.625353242513432901e-03,-2.655329944932151732e-03,1.132073327898979187e-01
2.358883446131334882e-01,1.215361337731475366e-01,1.206296764237066721e-01,3.055841944376840730e-03,1.367131515367484744e-03,-3.396714899465603892e-03,1.151049062609672546e-01
2.789516953056239701e-01,5.878250693068517996e-02,7.436434142350702159e-02,1.118823298245651132e-02,2.348806144134916313e-02,-5.413641273607034538e-02,2.368743866682052612e-01
2.453947973684196815e-01,1.301749641943157343e-01,1.255259364512711917e-01,2.292687854869853142e-03,1.752509647054722921e-03,-3.467129149116900903e-03,1.178725138306617737e-01
2.359740560677278665e-01,1.184042481529658519e-01,1.169990896071830683e-01,2.651732987427032028e-03,3.179653699322286444e-03,-3.179610648795644194e-03,1.186237484216690063e-01
2.344082016213441810e-01,1.335815192347360736e-01,1.175498574539494134e-01,-3.159205787126548347e-05,2.110732351830923916e-04,-1.498991607371292448e-03,1.097557768225669861e-01
2.469364675988942603e-01,1.317689278718857382e-01,1.337337343264474454e-01,3.688458420665279448e-03,3.613114362371259471e-03,-6.122234187202585734e-03,1.150372251868247986e-01
2.412280092680587906e-01,1.192803646789039468e-01,1.227089160818344016e-01,2.521332737888484082e-03,3.497524265578819472e-03,-4.521789713077080039e-03,1.207559034228324890e-01
2.453759043744206947e-01,1.326500400628814746e-01,1.294196120788521087e-01,2.632915962532527202e-03,4.377046531147651791e-03,-5.046041357823620802e-03,1.150494217872619629e-01
2.364075188184827092e-01,1.243790950166295539e-01,1.192325362538907696e-01,2.762286803167895988e-03,2.820813114726808488e-03,-3.308551908825103569e-03,1.150348484516143799e-01
2.425992788804383071e-01,1.299524493034977801e-01,1.253865252849683531e-01,1.634199500083352141e-03,1.378271975302477375e-03,-2.477768680753608416e-03,1.151374056935310364e-01
2.397947627291589501e-01,1.210738059290074053e-01,1.225362973790913579e-01,8.258740268034672023e-04,1.507787691785493923e-03,-1.352575806805606873e-03,1.180573180317878723e-01
2.399817775055984592e-01,1.248917543884229542e-01,1.238455085521079357e-01,6.834549484538564746e-04,1.251028796331236361e-03,-2.081693344017675369e-03,1.156992539763450623e-01
2.397945748908887342e-01,1.234306408488914653e-01,1.244506025916095465e-01,1.696731793596052739e-03,1.638206836404721214e-03,-2.789408168556709554e-03,1.160299479961395264e-01
2.789624089959675812e-01,1.481975911176677818e-01,1.474487709095658461e-01,-3.001826188633555798e-03,-7.941716103658970219e-04,-1.185989914464605395e-02,1.328488439321517944e-01
2.375859960030354268e-01,1.041218339938558002e-01,1.309322314494846540e-01,2.511952147358353926e-02,-2.615990914417195071e-02,1.346521337747453445e-02,1.394388079643249512e-01
2.298165671241668706e-01,1.076049990022432401e-01,1.259781940351472895e-01,1.306307239357599494e-02,-1.348926671875299611e-02,8.107880887371219508e-03,1.195108816027641296e-01
2.314483636566072033e-01,1.251972616608127975e-01,1.290980562102612139e-01,1.396998184584578341e-02,-1.076810748359093017e-02,1.001380203821339993e-02,1.101100146770477295e-01
2.353369126380052967e-01,1.310234445965200445e-01,1.574977692474172075e-01,1.878932557776699652e-02,-6.004323011870571145e-03,7.795543980442683034e-03,1.008471325039863586e-01
2.018410266514975571e-01,8.745220738196440857e-02,1.208639690351575036e-01,2.703692440535844857e-02,-1.324734540077092751e-02,1.176877682707061674e-02,1.162505522370338440e-01
2.522978484800865173e-01,1.437744396708458550e-01,1.489361615872842881e-01,-1.008428874445951515e-02,1.232993592717104153e-02,1.316816698604174503e-02,1.119159013032913208e-01
2.346639491839578040e-01,1.095792793972644313e-01,1.299344902382661426e-01,-1.652579786254434330e-02,8.598668679113593769e-03,1.023120499304453271e-02,1.219407021999359131e-01
2.393181890495248987e-01,1.155279003489590728e-01,1.329345124795913713e-01,-1.852766854554992529e-02,8.404324610790221695e-03,1.136514683741648296e-02,1.228880658745765686e-01
1.573455455502886235e-01,9.586588489957892367e-02,1.179753866385749167e-01,-3.648459552931262312e-02,1.933998638602563505e-02,9.453200399792558578e-03,9.106516838073730469e-02
2.499305733279406083e-01,1.248650359241607333e-01,1.566110039996484460e-01,-1.965315384140434163e-02,6.242623643229409935e-03,9.593764962526906553e-03,1.192922443151473999e-01
2.002842438527053515e-01,1.143390186246985296e-01,1.368508188246619905e-01,-4.396499394382314546e-02,8.990376612527951547e-03,6.496263432058804917e-03,1.101200655102729797e-01
2.273726456333833024e-01,1.391759994328320427e-01,1.474402732413984396e-01,-2.365443981861939035e-02,1.684134982707865061e-02,6.869354430202356636e-03,9.893998503684997559e-02
2.399387429111395909e-01,9.649617141278371557e-02,1.169749381745846806e-01,4.375441633864752405e-02,3.472030372414773580e-02,-3.261324627596851738e-02,1.749524027109146118e-01
1.772543917451772366e-01,7.846038788620326998e-02,1.198238638762422897e-01,-3.726442375135555901e-02,1.042068407964471394e-02,6.238366767463641646e-03,1.095133051276206970e-01
2.886132573971783022e-01,1.540977948306648804e-01,1.313125981332408654e-01,-1.214662405702431752e-03,-5.306909906832539027e-03,-1.719587121207557037e-02,1.505142748355865479e-01
3.067749319652215423e-01,1.638026574381457601e-01,1.427894267255715999e-01,-6.249148767378088533e-03,1.206479097402532105e-03,-1.670706220610979759e-02,1.576256155967712402e-01
2.655243728923853963e-01,1.446230653324591109e-01,1.286360919319986251e-01,-6.787578040625783394e-04,5.462775078184291949e-04,-7.695114382586790668e-03,1.303283423185348511e-01
2.562181826861064105e-01,1.316792840875587456e-01,1.139209302197310147e-01,-4.557967140081331200e-04,8.742745471396024762e-04,-1.081349590509772009e-02,1.356119960546493530e-01
2.726108674177740721e-01,1.451254900088456978e-01,1.243618659127176673e-01,-4.503486843717533460e-03,2.774375056851918504e-03,-1.187544239739265518e-02,1.408464461565017700e-01
2.579239233574368573e-01,1.363816143344705190e-01,1.128423055822676130e-01,1.242636895827819348e-03,-3.034392554894765458e-03,-1.515172777041003636e-02,1.375086605548858643e-01
2.763095223871659400e-01,1.392587510760328606e-01,1.224761550401919918e-01,5.687401903740472130e-03,-2.390756315213364716e-06,-1.358360057153058624e-02,1.483752727508544922e-01
2.796884790220813821e-01,1.538069198765643353e-01,1.249224535428694050e-01,4.796571772620958872e-03,5.135504455512429796e-03,-2.201930040613712600e-02,1.480513066053390503e-01
2.603135170154306510e-01,1.364975654923402670e-01,1.404320458069143185e-01,-3.641177728673236549e-03,6.588576062520943785e-03,1.005854874937755702e-02,1.238234415650367737e-01
2.417247415197525395e-01,1.183882700263521881e-01,1.280335919850665305e-01,-9.726561301049077915e-03,6.179129458859052536e-03,1.101649554086693225e-02,1.219743788242340088e-01
2.443771064571337304e-01,1.262196276414218610e-01,1.225059268344751429e-01,-5.126817318749668680e-03,4.811567148789857272e-03,6.251264657313238861e-03,1.211582571268081665e-01
2.424663784036129588e-01,1.269778196573207174e-01,1.327907567389812193e-01,3.932336467553801049e-03,-2.301387167979670762e-03,3.188247556979574831e-03,1.131054535508155823e-01
2.443936613421580639e-01,1.230379782979233311e-01,1.257455518515234183e-01,-4.908878267940616075e-03,4.989864527586900488e-03,5.428826449993420442e-03,1.210014745593070984e-01
2.357182910799293651e-01,1.276963735073344264e-01,1.297258128158196022e-01,-1.445554525318958582e-02,8.340538690584735002e-03,1.472646405847030660e-02,1.137533187866210938e-01
2.285068341800379210e-01,1.309732321239532316e-01,1.145746992022245586e-01,8.934713501211949058e-04,3.046257661247836999e-03,-1.806270835418548586e-03,1.068697571754455566e-01
2.337693433859023839e-01,1.309106393678831637e-01,1.175198861772188685e-01,4.442025429745605366e-04,-2.419439118202485893e-04,1.753524438457239277e-03,1.102114915847778320e-01
2.595785444122506447e-01,1.356659443410160315e-01,1.365744928453270224e-01,-1.296964870124520455e-02,1.213671088336745404e-02,1.105397878496266507e-02,1.286688894033432007e-01
2.599306189358827623e-01,1.583563465795890801e-01,1.518657954198254778e-01,1.276418404956852597e-02,-1.733135720838756624e-02,1.417629235749280625e-02,1.140681207180023193e-01
2.157718398357877376e-01,1.190904771663760797e-01,1.004147187171309935e-01,8.054320814106435272e-03,-1.872867198030172056e-02,1.095474336234238642e-02,1.144927591085433960e-01
2.381122593047548530e-01,1.317561812573914970e-01,1.139021590334474282e-01,8.385042079622925110e-03,-1.998688225906757737e-02,1.063362441276988375e-02,1.236035600304603577e-01
2.504351695326525462e-01,1.425818773757985825e-01,1.234667986381124682e-01,3.198716802126490549e-03,-9.948820255048968636e-03,6.786909913043183418e-03,1.205203831195831299e-01
2.415426089353047145e-01,1.274688895343325523e-01,1.182188600982443383e-01,6.580721051632726186e-03,-9.511962370583455090e-03,5.946647530273168475e-03,1.210826113820075989e-01
2.096838417683307421e-01,1.471297270519924538e-01,1.245975602148604033e-01,-7.680324628383813391e-03,-2.760393974518502921e-02,-7.992320319869516965e-03,9.211254864931106567e-02
2.086043837854986149e-01,1.536926733648373011e-01,1.355966533034300980e-01,-3.071781100300654058e-03,-1.711975823643641786e-02,-5.079113388294668671e-03,7.294794917106628418e-02
2.285341839580675716e-01,1.530549076385898655e-01,1.117697361193263211e-01,-1.218150019151089877e-02,-2.922512699040988662e-02,-1.605994325183737401e-02,1.195785030722618103e-01
1.684813142210311865e-01,1.387969028887631739e-01,9.942599044144384557e-02,-1.652978027535922934e-02,-4.101149353769537736e-02,-5.945245878504847904e-03,9.783405065536499023e-02
1.841184521823115428e-01,1.357803772851068347e-01,1.136087585673069972e-01,-4.976759336127196259e-03,-3.005608594117174098e-02,-5.468630418180010083e-03,8.230438083410263062e-02
2.519363021374370071e-01,1.620501396068244337e-01,1.321943126840537663e-01,-4.250590395829740784e-03,-2.036545358693250818e-02,-2.749656612934677467e-03,1.139107421040534973e-01
2.196889225452883232e-01,1.386392687459785111e-01,9.576857664017504601e-02,-1.085127280413862236e-02,-3.697945446994548024e-02,-2.619116384418489121e-03,1.278978735208511353e-01
2.515088174100059693e-01,1.618559490721153127e-01,1.288211970855157595e-01,-5.149431266391727574e-03,-1.875249502930435852e-02,-3.702003520226132289e-03,1.151790991425514221e-01
2.534787935341800136e-01,1.371156980601995479e-01,9.327023465246123135e-02,3.195212542665418470e-03,8.793257642564240167e-03,-1.163548198034076477e-02,1.457173079252243042e-01
2.476112013015632773e-01,1.218942298597265883e-01,1.276544655062538669e-01,-9.402945159042584017e-03,-5.023130460189293572e-03,-9.808647503354514519e-03,1.254725009202957153e-01
2.480385744550372973e-01,1.246790998403026207e-01,1.184507234903384859e-01,-4.458005708010508855e-03,-1.012444230783404904e-02,-1.004691285976398382e-02,1.292077302932739258e-01
2.421059762243660263e-01,1.299111056579663193e-01,1.187385034660705940e-01,-4.717290999324400859e-03,-6.223937002189730734e-03,-7.816723913138694246e-03,1.197175830602645874e-01
2.488557868563661402e-01,1.375197863057633918e-01,1.242648382579223387e-01,-8.760038553437538358e-03,-1.065759051477212921e-02,-1.451614342698587766e-02,1.234920024871826172e-01
2.388744584085149558e-01,1.240179801067222976e-01,1.146200040963883116e-01,-5.645060756301655339e-03,-5.997481945973916206e-03,-6.999345048874954130e-03,1.212857514619827271e-01
2.723655174482190744e-01,1.076272343679643417e-01,1.390132973065391075e-01,1.984345593329809448e-02,6.653904154948131131e-03,-2.846407006574214887e-02,1.633953005075454712e-01
2.733259947235108234e-01,1.365240584419782632e-01,1.398049757038483387e-01,-1.976000632569924285e-03,-1.389961827426480084e-03,-1.311446866631737346e-02,1.371501982212066650e-01
2.408951203840833388e-01,1.015189766937741600e-01,1.356474120141907269e-01,-1.298678761260861278e-02,-8.610752774143652340e-04,1.321248655871747665e-03,1.278561800718307495e-01
2.581236764177864407e-01,1.319334065108637988e-01,1.349467555101100669e-01,-5.286452700791809345e-05,1.504483391687301986e-03,-5.410466556806566192e-03,1.250896751880645752e-01
2.400974196899909874e-01,1.024070368576090601e-01,1.195511019566699029e-01,-6.150868208666962489e-03,-3.723339097734353585e-03,-8.153908126247359431e-03,1.313260644674301147e-01
2.420609269103258798e-01,1.037261209467148643e-01,1.207048406219188574e-01,-5.187937846416441380e-03,-3.615873215167403343e-03,-8.286027128825004112e-03,1.319165974855422974e-01
2.404411901798331197e-01,1.116897116487474695e-01,1.147439717925089336e-01,-6.191673186219230976e-03,-4.997480591285664853e-03,-1.027976812823380194e-02,1.292284280061721802e-01
2.503292005891188943e-01,1.095536644732112708e-01,1.066856347266190164e-01,-2.522834320930144713e-03,-2.158180937360414976e-03,-2.196957252059075771e-02,1.473457813262939453e-01
2.667234646425352129e-01,1.298765627938927858e-01,1.339866162461351151e-01,2.134958472732658037e-04,-4.624322004045306779e-04,-1.307248092244710398e-02,1.367295384407043457e-01
2.371254680306064400e-01,1.113981958859509847e-01,1.167173108758425421e-01,-7.495578317166320254e-03,-3.186423521797421537e-03,-8.251078217453532843e-03,1.247803419828414917e-01
2.571336695342915091e-01,1.199690180402022271e-01,1.525272111372096007e-01,-1.047364909105433055e-02,3.310258481846659745e-03,-2.422957814661638818e-03,1.256500035524368286e-01
2.606605075633755542e-01,1.191638648789378196e-01,1.349718409728291046e-01,1.943907484678613143e-03,-8.683834676514788284e-03,-9.378077531244548640e-03,1.361463367938995361e-01
2.607674586242072490e-01,1.271243417331605619e-01,1.313889701749077488e-01,9.152686266361137728e-04,-1.027865629267636031e-03,-1.348094648478949907e-02,1.336399018764495850e-01
2.740970901994664866e-01,1.430585459890143241e-01,1.412926445858175284e-01,3.774431899421037614e-03,-5.234300364879104252e-04,-8.481003132412666748e-03,1.329096108675003052e-01
2.674633991497388785e-01,1.269226695715798825e-01,1.443665673934261262e-01,5.219440305959890773e-03,1.466839334250122563e-05,-2.676962641874086613e-02,1.408402472734451294e-01
2.510064148526213179e-01,9.978140640322266663e-02,9.752758553420723397e-02,5.443350062461053268e-03,4.217149062995581739e-03,-2.373061152965267109e-02,1.582611352205276489e-01
3.175754196384636963e-01,1.644728040112030665e-01,1.779771124544836935e-01,9.993541900267812438e-04,1.176167905774327764e-04,-2.675913905076921992e-02,1.539689004421234131e-01
2.843377179761082396e-01,1.365665360449815346e-01,1.395385769108161145e-01,9.078504014178712502e-04,-1.331396538388425303e-02,-2.545415149753517056e-02,1.545443981885910034e-01
2.353949127709111799e-01,1.190897822549636387e-01,1.113117017753096349e-01,-1.046362702492471819e-02,1.418306868108440942e-02,1.144271420664768127e-02,1.257646977901458740e-01
2.368464858978817089e-01,1.420249325766035908e-01,1.227115937091138032e-01,-7.314647207531980826e-03,1.513890659138204114e-02,1.191573677019519550e-02,1.116668209433555603e-01
2.150809701742391056e-01,1.007910937247911143e-01,1.254973962027178813e-01,-8.185792820504350989e-03,-1.346654715491694618e-03,-2.370808868690069387e-03,1.052246242761611938e-01
2.453138565203679677e-01,1.240249729768343467e-01,1.321927783341770302e-01,-7.861885150145912077e-03,3.220117437090004153e-03,7.272699215991845594e-03,1.190052703022956848e-01
2.405410765459661260e-01,1.278109920872364524e-01,1.273270862761603783e-01,-3.018964410187007473e-03,3.632570604383767755e-03,3.779635541971024422e-03,1.134576722979545593e-01
2.399945147291679681e-01,1.272091281938619312e-01,1.233252707864587461e-01,-2.503419462177509588e-03,8.112885233917822413e-04,2.977625368568253411e-03,1.149827986955642700e-01
2.547145064419161775e-01,8.865410030244802453e-02,1.411881366414861338e-01,-3.677913891664914142e-02,-2.861939244200324001e-03,-6.487638219216405877e-03,1.606891900300979614e-01
2.391112930637625256e-01,1.246730716896937430e-01,1.160103142005998456e-01,-4.746267895157064119e-03,4.928532630380027049e-03,5.591691820958277249e-03,1.199864745140075684e-01
2.348887782368337673e-01,1.364805661206678900e-01,1.161395237649179291e-01,5.860855022124300323e-04,1.093627020311764867e-03,-4.747973765386710124e-04,1.100225225090980530e-01
2.393709676450087587e-01,1.287140495077588320e-01,1.128154185128108222e-01,-1.244921420641699646e-02,2.088253404071458569e-02,1.610527983490463860e-02,1.296470016241073608e-01
2.370546053848086587e-01,1.146081526050404392e-01,1.079583720745000419e-01,-5.336080499609410256e-03,4.746259951653599742e-03,9.332227595951838456e-03,1.275377124547958374e-01
2.383346692549535573e-01,1.281594968493131037e-01,1.051876355664367879e-01,-6.983657429681466508e-03,1.146258386079754103e-02,9.881491463730030997e-03,1.266120970249176025e-01
2.578626504630766592e-01,1.273543515456513897e-01,1.200255760414557782e-01,-3.797078249216571597e-03,7.212924871941900525e-04,9.189771169871496434e-03,1.354280710220336914e-01
2.428910366213447025e-01,1.289602292387350135e-01,1.020317448994360887e-01,-5.445178160550982402e-03,8.956911938043302449e-03,9.711848740010664213e-03,1.318557709455490112e-01
2.522731081746660831e-01,1.326462066260606643e-01,1.120457336755640576e-01,-1.893757456866103361e-03,6.199287461590880476e-03,9.150116821593376470e-03,1.325766593217849731e-01
1.809188823930308054e-01,1.464233484450886413e-01,1.394702723893350704e-01,1.391669380118890683e-03,-2.521430156178310414e-02,2.354717972481627005e-03,5.837691947817802429e-02
1.555591111907941027e-01,1.350617915572262240e-01,1.280662695779981597e-01,-3.911859236547103255e-03,-1.451095791694135932e-02,-1.832303733048394308e-03,3.605759888887405396e-02
1.353824626670050713e-01,1.306685227873978228e-01,1.383244450961177707e-01,3.982336707749650068e-03,-2.043270999488275980e-02,4.321208469866566655e-03,3.742762655019760132e-02
1.271070807658465640e-01,1.299376023411169812e-01,1.209554121996924830e-01,2.964892985158915171e-03,-4.354240544846115640e-02,1.801002320967665105e-03,7.607360184192657471e-02
6.407461867955348278e-02,9.298095725139442214e-02,7.044139297232886177e-02,-1.640780684661719349e-02,-6.018250016320043916e-02,-9.878866035118626793e-03,1.125090941786766052e-01
1.328570710828824442e-01,1.311097707058376249e-01,1.392187965229757518e-01,-5.521883336804921626e-03,-2.128560342304567157e-02,-5.256545936080098472e-03,3.985271230340003967e-02
2.319461397391785473e-01,1.204992016952300127e-01,1.208219285481270944e-01,-5.436508826468355177e-03,5.018201121922721830e-03,5.406792946814452903e-03,1.124120578169822693e-01
2.442603200623741366e-01,1.346315219673012709e-01,1.411840237645359541e-01,-1.585713365821799642e-02,1.286757547481373783e-02,1.453098879653594300e-02,1.150112375617027283e-01
2.365395158216120619e-01,1.407114869278477121e-01,1.389510999400564994e-01,-1.232669287201028883e-02,1.738036980386143543e-02,1.033418602213773824e-02,1.050583869218826294e-01
3.022741464302076686e-01,1.590942482497194610e-01,1.431937767845520848e-01,6.899821476499157398e-03,1.567752487581541496e-02,-2.499192231860189461e-02,1.605736613273620605e-01
2.977106298679936813e-01,1.586779453748126678e-01,1.448187456124376549e-01,1.863900690525376741e-02,1.341290827898022897e-02,-2.498715341621227104e-02,1.578102558851242065e-01
2.861658235446944420e-01,1.639924402126387570e-01,1.344078680222148547e-01,1.407728482940158584e-03,1.089056858990993665e-02,-1.530838075044834920e-02,1.431112438440322876e-01
2.319126898107796986e-01,1.328639760449552010e-01,1.153233272692142375e-01,-8.570496202976532214e-04,6.558352914248422776e-04,7.516466011020285238e-04,1.089077144861221313e-01
2.536121681270112616e-01,7.916841604170830882e-02,2.032079390516552952e-02,2.621818805154343610e-02,3.100899220505072204e-02,-5.419462067904773361e-02,2.406601160764694214e-01
2.557360509801651638e-01,9.632685239497666696e-02,1.432679056327785250e-01,-1.044431342822195463e-02,-1.816210955881707081e-03,-3.531494944802655422e-03,1.432008445262908936e-01
2.053066757315898105e-01,1.260686023847217285e-01,1.024117004185736007e-01,7.992204660585930723e-03,1.498552921384689943e-02,-6.404618663741417674e-03,9.849482029676437378e-02
2.308471919756698298e-01,1.364180760550136595e-01,1.182527139563306351e-01,2.796906036720993912e-03,8.351255525230480772e-03,-4.112954368584996120e-03,1.060453876852989197e-01
2.104730426850336400e-01,1.303652726598208411e-01,1.126189447469635174e-01,1.443029419348342522e-02,1.524201393371604242e-02,-9.337945047641767540e-03,9.867651760578155518e-02
2.210190063261889826e-01,1.332583508055522614e-01,1.246470263796698452e-01,6.118520165552899202e-03,9.698621004064026177e-03,-5.664352952388132870e-03,9.498724341392517090e-02
2.367641402742108048e-01,1.333808518301305701e-01,1.155676380145931326e-01,5.938661128611895032e-03,1.329646593152683173e-02,-8.553165741280632089e-03,1.170583814382553101e-01
2.440929350783991869e-01,1.254443449513343301e-01,1.303743692633331508e-01,-1.495637769572635617e-03,-1.757516061333133000e-03,-3.579748731405159746e-03,1.164958104491233826e-01
2.242651977702222188e-01,1.309510725487563476e-01,1.206002473304984279e-01,8.351384676217066608e-03,8.985486686133777393e-03,-8.691853377205974174e-03,1.022675037384033203e-01
2.365951208847570097e-01,1.311028602962622802e-01,1.173785916684216557e-01,6.889665709598655555e-03,1.049122755753796078e-02,-5.416124966961219887e-03,1.154356077313423157e-01
2.413423003023545677e-01,1.246160844510436627e-01,1.303241696609571676e-01,-3.768247876020631645e-03,3.000718639785366487e-03,4.622714569704894361e-03,1.145645156502723694e-01
2.294382526796739930e-01,1.149411521102708944e-01,1.365544093306921003e-01,8.788238163171698241e-04,-2.414231377456749965e-04,-5.052444189044359496e-04,1.053817868232727051e-01
2.355347446592798710e-01,1.210878275260840742e-01,1.128555403290749382e-01,-5.776692332101065336e-03,5.321959658673725176e-03,6.525390488143766564e-03,1.200868412852287292e-01
2.445452805506758143e-01,1.309580036269108738e-01,1.274701740250510640e-01,-5.166314661213715700e-03,6.948283630594794674e-03,8.149051420856126896e-03,1.171944439411163330e-01
2.274248263486206012e-01,1.142736564321530091e-01,1.211514287529860123e-01,-7.296351578359868209e-03,6.424537109817848521e-03,8.268135980441531155e-03,1.120753511786460876e-01
2.291024628068824565e-01,1.099597837175788351e-01,1.344182173820672732e-01,2.376797328726283111e-03,5.888249451139861493e-04,-2.693155191046172074e-04,1.090749949216842651e-01
2.394815331849337592e-01,1.205072707590429532e-01,1.421513619894084757e-01,7.258346239369205602e-03,1.695162176645078397e-03,-3.320516229594463586e-03,1.106706857681274414e-01
2.276134827844171205e-01,1.010645920641035922e-01,1.314067713641517698e-01,4.672855868097917399e-03,6.526806210091413464e-04,-5.386657951939482526e-04,1.147307977080345154e-01
2.280573330551691202e-01,1.023123165784428357e-01,1.295953800079774065e-01,4.515003208266389449e-03,1.796715115293508408e-03,-1.399053128973602993e-03,1.149007305502891541e-01
2.364056832659820473e-01,1.207378105592482181e-01,1.294286555893879309e-01,1.536152053943107276e-02,-1.227438651112360175e-02,9.248559130284715254e-03,1.177533641457557678e-01
2.291965172909498083e-01,1.380959706260585507e-01,1.481177188287795543e-01,3.546416003918961141e-02,-6.254439330911801959e-03,1.949502348609726682e-02,1.118811890482902527e-01
2.194809375028827225e-01,1.046564907278618728e-01,1.273167118557363142e-01,1.327854130209395363e-02,-7.554400167905335646e-03,7.708751966459547605e-03,1.094286665320396423e-01
2.377984121675014162e-01,1.275888486694005952e-01,1.233350515487341703e-01,4.381985432585015251e-03,-9.588838194785868560e-03,9.413640508440328930e-03,1.150319278240203857e-01
2.299331535525101222e-01,1.106289475050392657e-01,1.043524807884898820e-01,1.397210595092582275e-02,-1.730495586603196176e-02,1.683847711554185833e-02,1.317434757947921753e-01
2.332826236157524991e-01,1.156096422002010626e-01,1.175639757535589247e-01,6.266293713688328958e-03,-6.024061048169524618e-03,7.235986196763331997e-03,1.183407083153724670e-01
2.333563605906444904e-01,1.135427555842437042e-01,1.160502198849641953e-01,1.004673914568107555e-02,-6.906432847579594726e-03,8.142505145588013402e-03,1.212681606411933899e-01
2.400236596810024214e-01,1.234822109277475544e-01,1.281076989324458903e-01,-2.312288821056846660e-03,-1.513958767199603253e-03,-3.436827310505692710e-03,1.145538985729217529e-01
2.394787486888330097e-01,1.289841184843388833e-01,1.276229381516737482e-01,-4.038482348884701867e-03,-3.776448954496783653e-03,-5.838869414749070161e-03,1.120504736900329590e-01
2.403909664021116055e-01,1.263310053374011588e-01,1.186140076230403073e-01,-5.521012989925278523e-03,-3.735135844287497224e-03,-4.817041129722652963e-03,1.189635992050170898e-01
2.201726535558165554e-01,1.077066664782818650e-01,1.343202180250199496e-01,-7.940442139225718440e-03,-5.900514086999700996e-04,-5.678500661460592850e-04,1.027371585369110107e-01
2.373662904142078700e-01,1.220938075289033087e-01,1.270370194574805267e-01,-1.619967585244716122e-03,-2.169127159768352055e-03,-3.252086504307926101e-03,1.131197661161422729e-01
2.408775309127630104e-01,1.206420676281753784e-01,1.306810550846606023e-01,-3.617639083415060634e-03,-2.913281014498436076e-03,-3.188308199608425649e-03,1.159548386931419373e-01
2.387762064117108785e-01,1.281222455881281530e-01,1.237583850008818348e-01,-3.279238153873024423e-03,-2.169669064024668317e-03,-3.206528024644326232e-03,1.132406666874885559e-01
2.705350034562291062e-01,1.203309378769852334e-01,1.593325559278958581e-01,-1.539839048290811419e-02,6.386358517831971712e-03,4.037562232559123616e-03,1.382272690534591675e-01
2.679204740154704223e-01,1.142033913768795428e-01,1.610952361846665903e-01,-1.814160861604140543e-02,2.666274263339911237e-03,1.618791596724827603e-03,1.401294022798538208e-01
2.679639425875035563e-01,9.260934854159935670e-02,1.473199032749606396e-01,-1.729205870061918671e-02,3.919398889159916854e-03,7.808602261254854113e-03,1.589804589748382568e-01
2.701600053191584028e-01,1.152262787217258472e-01,1.575126450071022699e-01,-9.998819922872952473e-03,7.140656313519362815e-03,8.036820140916080962e-03,1.410236805677413940e-01
2.704743098195918072e-01,1.552899129869337591e-01,1.101688083000011281e-01,-4.892372281748720575e-03,3.150551313023176869e-02,3.580272562064194027e-03,1.535860002040863037e-01
2.335551018074703278e-01,1.363583867876585753e-01,9.674056877901639206e-02,-5.404266236922270449e-03,3.300362794759953422e-02,7.081870489549138732e-03,1.355481147766113281e-01
2.543033743268113822e-01,1.640727487444223476e-01,1.076903448191338514e-01,-1.682644452965700518e-02,3.204449202613999376e-02,5.414815921910619365e-04,1.426140815019607544e-01
2.676300581007280410e-01,1.606170050256004456e-01,1.168701329340227912e-01,2.325947180837280998e-03,1.083281850366763638e-02,-4.926147787639649598e-05,1.357031911611557007e-01
2.437466507470021915e-01,1.421647919858551601e-01,1.047753889325490073e-01,-1.643797650943500501e-03,1.840582842680464626e-02,1.646926825429132759e-04,1.286057382822036743e-01
2.143385898905427744e-01,1.097613697960868884e-01,5.449992716642432233e-02,-7.997538176952789443e-03,2.738986084869229204e-02,1.510229910895020088e-02,1.513143926858901978e-01
2.322055886690832516e-01,1.347534783441499684e-01,1.233845712206331630e-01,1.097602518930172570e-02,-2.508958106683814929e-02,2.177195893460078663e-02,1.200250983238220215e-01
2.289446992565984107e-01,1.373767950388850856e-01,1.116632348552785287e-01,4.428351816490359340e-03,-1.118601492328601121e-02,3.982580787757698804e-03,1.090055033564567566e-01
2.217331552253385685e-01,1.259036864271102230e-01,1.014023635855715311e-01,5.997238689127531303e-03,-1.213467696305135617e-02,6.600521412184741886e-03,1.131896749138832092e-01
2.185508253302207993e-01,1.227895743682480278e-01,9.975240796517857722e-02,8.203747214962343881e-03,-1.236906206831842915e-02,8.386529779093557235e-03,1.130437254905700684e-01
2.241374626856666441e-01,1.177241359097348505e-01,9.649047989317886820e-02,1.388221369882278872e-02,-2.425868685600716598e-02,1.618600297890076395e-02,1.310105621814727783e-01
2.383066605532615234e-01,1.369217585318275032e-01,1.203507031484219725e-01,9.374985236227959895e-04,8.427038583670578642e-04,-1.210624865074073995e-03,1.106468141078948975e-01
2.349040330919449637e-01,1.287049796726608408e-01,9.056685237637515651e-02,1.199889179818910967e-02,-2.759520689344311523e-02,1.218009008142994024e-02,1.412248462438583374e-01
2.228267457775395255e-01,1.371079383732085599e-01,1.086827448057092610e-01,-1.205120206851436650e-03,-9.033680753102148880e-03,5.736486815431908552e-05,1.041223704814910889e-01
2.346352387492282587e-01,1.490534082814561623e-01,1.273675333398307241e-01,-9.188991701780203697e-04,-1.147302179227824119e-02,-6.334139184833563084e-04,1.002450585365295410e-01
2.214937791373305376e-01,1.266192201922704264e-01,9.674954029963885038e-02,-4.524744715744176632e-04,-1.391791866563648131e-02,-6.904018792446232813e-04,1.153708025813102722e-01
4.406555514221730530e-01,1.901600627458876758e-01,2.361758419427971711e-01,-2.449588265173284138e-02,1.199370860958912446e-02,5.655091353716209385e-02,2.552731931209564209e-01
2.205620736023422013e-01,1.208187744240507427e-01,9.154333605318426548e-02,-4.456909832200497967e-03,-1.351245401381952378e-02,-4.986734636182036350e-03,1.200323253870010376e-01
2.260211145546944245e-01,1.339386136724428078e-01,1.164119964605979662e-01,-4.581709596865037211e-03,-9.254634548748794098e-03,-6.501466037667233931e-03,1.041488945484161377e-01
2.209637138674381829e-01,1.318417577138821517e-01,1.139932746134777464e-01,-2.008651802703001477e-03,-5.010080781290184547e-03,-2.567603993962709347e-03,9.979563206434249878e-02
2.586860466315827889e-01,1.406986953105135441e-01,1.213267457460045357e-01,7.507967434484302642e-03,2.550591796757874143e-03,-9.093997370466356742e-03,1.304555833339691162e-01
2.600285815258112088e-01,1.399983086979302016e-01,1.130279827804566428e-01,3.856477150639236844e-03,4.617974393797247799e-03,-7.455469797783473122e-03,1.365550011396408081e-01
2.543221022266836107e-01,1.321554446457954834e-01,1.307833580367416815e-01,9.871370709597357407e-03,1.086315936500264860e-02,-1.257412775888663674e-02,1.273376643657684326e-01
2.482818366082170658e-01,1.398309975336347877e-01,1.250255581289851370e-01,2.354180495457831868e-03,5.456324754923926566e-03,-5.646041351526352378e-03,1.174224093556404114e-01
2.489880348996098003e-01,1.352098016163736649e-01,1.232631488706510126e-01,3.366386514097132777e-03,5.166049993926041112e-03,-6.111698640536416920e-03,1.211346313357353210e-01
2.475671950364383977e-01,1.099525645817709951e-01,1.453883294212573729e-01,-1.129119456669752837e-02,5.518459854438343727e-03,6.541012346963774246e-03,1.261712610721588135e-01
2.532949021343126605e-01,1.433172049710292051e-01,1.206053948446713792e-01,9.474116655012652932e-03,1.382793893819374287e-02,-1.313097484715781277e-02,1.283311843872070312e-01
2.468610028526874445e-01,1.004668458195693836e-01,1.344853383224430543e-01,1.593556701520121646e-02,-4.237197213586872853e-03,1.122197705764059472e-02,1.371199637651443481e-01
2.431668263360960702e-01,1.057591057973447657e-01,1.491799399861173658e-01,1.876454826413281873e-02,-3.620721258825848046e-04,1.306367973869974148e-03,1.259433627128601074e-01
2.329913449105891488e-01,1.160266528263231567e-01,1.392744450595058969e-01,8.276326385130882562e-03,-6.746111116547625665e-03,8.682021326348446366e-03,1.098643839359283447e-01
2.363550459596805986e-01,1.097435337267224781e-01,1.470849237428424883e-01,4.095765996999072012e-02,-1.351538689344192841e-03,5.604530691986801989e-03,1.335264295339584351e-01
2.573789248559982257e-01,1.253047389836025594e-01,1.604621831299962997e-01,1.214800660503530250e-02,-4.091184372913006344e-03,2.543669001348705140e-03,1.206175461411476135e-01
2.406562284173532074e-01,1.237942268415616609e-01,1.553492250627197813e-01,1.918211405755435722e-02,-3.478482584740056477e-03,4.436718627209614192e-03,1.102908849716186523e-01
2.312995132509960139e-01,1.115553113310905342e-01,1.469218672939447690e-01,1.259154854024701134e-02,-4.450138786052531409e-03,3.419254020556182667e-03,1.092000603675842285e-01
2.851790503952084110e-01,1.447024065724636932e-01,1.459223064969938088e-01,3.796114490442471963e-03,-6.430542514674340501e-03,1.263456317008988285e-02,1.421618461608886719e-01
2.639133076124008381e-01,1.247265146882696879e-01,1.213275839991933558e-01,1.075968776435688549e-02,-1.812231640576377270e-02,2.268491641068405909e-02,1.507779359817504883e-01
2.147733691451694515e-01,9.198511689413360615e-02,1.117602233498629360e-01,2.868953959254936723e-02,-1.835141415939096562e-02,1.625069112679523864e-02,1.315739601850509644e-01
2.640562624639684053e-01,1.246714255811679772e-01,1.254192419171057116e-01,1.228670322096707575e-02,-1.082101019001898562e-02,1.757517798707325038e-02,1.451044082641601562e-01
2.479481424305949866e-01,1.194939734622399718e-01,1.336513692969317491e-01,6.322388257379840497e-03,-4.006928727317569765e-03,6.310782334593255903e-03,1.231661140918731689e-01
2.496556765626255503e-01,1.217709328604446861e-01,1.338877677679809475e-01,3.755901459877609375e-03,-6.904236986254417771e-03,6.566099081097767111e-03,1.235574111342430115e-01
2.596798664654485500e-01,1.238893459274586079e-01,1.412454580412383365e-01,6.890901712979044351e-03,-8.626339030091453863e-03,1.416221983862654688e-02,1.317228376865386963e-01
2.515646071496863145e-01,1.225045687582348303e-01,1.331273160120742816e-01,6.427336362902726606e-03,-2.557441980532598400e-03,7.999675000189407012e-03,1.254348456859588623e-01
2.644309950338388226e-01,1.320878489256157029e-01,1.460842397773418067e-01,5.727495346624615277e-03,-8.274863947863198010e-03,1.015827329042904952e-02,1.283420622348785400e-01
2.312165465008552134e-01,1.138504406266642455e-01,1.417355830949435513e-01,1.079267906768888521e-02,1.632031292346534934e-03,-1.634993024858533150e-03,1.079123243689537048e-01
2.406454297723218672e-01,1.061283148700874340e-01,1.444987478512789747e-01,1.865069770473297070e-02,1.612483900652691374e-03,3.439544008597208991e-03,1.244688779115676880e-01
2.373485217031577887e-01,1.262491416649710874e-01,1.496354598860639706e-01,8.506152575510777386e-03,3.010691094680582186e-03,-3.652217170359323573e-03,1.028399690985679626e-01
2.422825966017192467e-01,1.276156575989698672e-01,1.563533350612316408e-01,2.373817172423258251e-02,3.894341102368614835e-03,-2.838685575560640894e-03,1.115314960479736328e-01
2.352506603584002542e-01,1.565629757046996529e-01,1.780633328587154229e-01,2.990954293722383403e-02,2.980550868903081643e-02,-1.188260460318645191e-02,1.036081090569496155e-01
1.967481148225045939e-01,1.444877693043805367e-01,1.582649628509353312e-01,2.022033185611010059e-02,9.285235904132584095e-03,-4.342183089514180250e-03,6.117801740765571594e-02
2.211789378492558522e-01,1.355636056843222692e-01,1.577413067542895730e-01,4.535734523560270431e-02,3.156035408254853711e-03,-2.713276296088199240e-03,1.102130562067031860e-01
2.373694702489883013e-01,1.386556942432615458e-01,1.079133799646755515e-01,-5.368676795209731357e-04,8.811742138691706569e-03,1.738841487409405889e-03,1.181823387742042542e-01
2.347667215973623656e-01,1.428643172475935752e-01,1.727054229029156840e-01,4.701486614253036489e-02,1.420796244345406793e-02,-8.925067891663104533e-03,1.186163425445556641e-01
1.940567994687255049e-01,1.023102201653940113e-01,1.368575866246306838e-01,2.196239191070942232e-02,-2.701319106899861561e-03,-3.521952061310042181e-03,8.914873003959655762e-02
2.538698566285119140e-01,1.331454355075495921e-01,1.303413227611339709e-01,1.348334889564993576e-03,-2.138947121099161932e-03,1.025579465496716074e-02,1.235131472349166870e-01
2.343462986844764839e-01,9.943406189208164880e-02,8.947305021509313616e-02,1.144595652774037589e-02,-1.027648845073296686e-02,2.033066616109673042e-02,1.469498276710510254e-01
2.515372870152196572e-01,1.245031844781734204e-01,9.266914003809374745e-02,2.426410157483038267e-03,-2.236668787719093068e-02,2.640911446793327289e-02,1.574987918138504028e-01
2.459295643453506264e-01,1.764967020150493837e-01,1.103318756015317925e-01,-1.137591921289837250e-03,3.385256084949805205e-02,6.946846095077710039e-03,1.318308264017105103e-01
2.590143324518685564e-01,1.338712428719492642e-01,1.193232317943775933e-01,-2.110799864043869881e-03,-6.772082047895726896e-03,3.003136358234065328e-02,1.433513760566711426e-01
2.736104942973817122e-01,1.412513630429144684e-01,1.378620964403853566e-01,3.393051528260424780e-03,-4.786712233300131208e-03,1.168350184739892425e-02,1.359846144914627075e-01
2.294291399966192080e-01,1.186842401800295016e-01,1.428447955264695868e-01,1.137492818092250904e-02,1.454045244190070672e-03,-2.042046401375877899e-03,1.028568223118782043e-01
2.294160435007053522e-01,1.104262915693424996e-01,1.333920360487219903e-01,-2.519894293786858076e-03,1.384530501512637977e-03,6.009644347700180030e-04,1.094494536519050598e-01
2.118793406575271154e-01,9.033933318813497371e-02,1.246839177817871541e-01,1.782112507742024399e-02,2.860118047032318180e-03,-3.406045498639390101e-03,1.130902469158172607e-01
2.427143355413310943e-01,1.194365506714334391e-01,1.476291771348123838e-01,9.679119617076891238e-03,-7.865502987633866527e-04,2.713644467470453271e-03,1.132330149412155151e-01
2.357904707818611612e-01,1.389599327198516032e-01,1.112247855424119691e-01,1.378136799111125436e-03,2.213656961901557148e-03,-1.717939723714091834e-03,1.134030595421791077e-01
2.194279888140180101e-01,9.518974367652466295e-02,1.294163896701554239e-01,1.601762694406478130e-02,-1.493343194535091002e-03,3.338190544876365809e-03,1.147351711988449097e-01
2.156692251426025053e-01,1.074163795540072908e-01,1.410082433518125011e-01,1.831908190529755315e-02,4.604643882386450643e-03,1.346955287205992219e-03,1.014223545789718628e-01
2.479941385995069192e-01,1.321611214776793886e-01,1.161408465764235121e-01,-4.226155382350561471e-03,-1.118519771420969748e-02,-8.362838070610376096e-03,1.271547526121139526e-01
2.405085202825866242e-01,1.397065179595818329e-01,1.080156606608802944e-01,-4.585363405099153510e-04,2.902759940051813283e-03,5.053372895061414077e-04,1.199438646435737610e-01
2.329528748083959377e-01,1.281933339239873237e-01,1.006986563137399204e-01,-9.847447224765217347e-03,-1.788561110058166023e-02,-1.151324476367144613e-02,1.275112330913543701e-01
2.557104939033348345e-01,1.371902766212976799e-01,1.218743050033167241e-01,-5.159433448585092410e-03,-2.581892040582862285e-03,-1.133842372897882027e-02,1.287727057933807373e-01
2.455247869008079786e-01,1.348479069437643063e-01,9.081539828804514880e-02,-1.680159084414911989e-03,-1.370209044645484368e-02,-8.254762511540615980e-03,1.408465355634689331e-01
2.405677494045252995e-01,1.386050501643263655e-01,1.090962486539440446e-01,-5.680259177016801610e-04,3.108134971624959986e-03,4.699840447658058134e-04,1.196100786328315735e-01
2.527414099128060809e-01,1.232447210563502593e-01,1.346232743349263239e-01,-6.280748484360361124e-04,1.355887186825350393e-03,1.517617387854241964e-03,1.242537200450897217e-01
2.793221010914891389e-01,1.396891058014805842e-01,9.718874011216695197e-02,-6.309779223178147572e-03,-1.387525543657303420e-02,-1.565502903459905712e-02,1.693232357501983643e-01
2.666121673933231073e-01,1.442579967951338471e-01,1.262477370934671494e-01,-2.473117639752658338e-03,1.029766229863469940e-03,-8.567659401375424255e-03,1.331926733255386353e-01
2.320868179612599613e-01,1.449415685375772256e-01,1.163417022032098291e-01,-1.444955583503779737e-03,-2.282037265755258032e-02,-3.076400980209277429e-03,1.118103489279747009e-01
2.376310089544940718e-01,1.228157358953931994e-01,1.206061214344962551e-01,4.157872711817997623e-04,1.281605513904961668e-03,-8.516270293927480925e-04,1.159687414765357971e-01
2.018337419776581321e-01,1.326120801193159116e-01,1.182617507633552667e-01,1.424923787269936556e-03,-3.190428880767326187e-03,9.923729708012074806e-04,7.765633612871170044e-02
2.493312775617419486e-01,1.663719354332571232e-01,1.342122355428906344e-01,-5.481749316163710833e-03,-2.021863188713810683e-02,-6.204403516716873977e-03,1.096196100115776062e-01
1.725641217898279123e-01,1.150280058865905675e-01,7.311223837264783920e-02,-3.175052713775552374e-03,-3.749733415870784570e-02,-5.921268712441519338e-03,1.087776795029640198e-01
2.271287235134914484e-01,1.568628602855841048e-01,1.510881831818388643e-01,-1.241973266421751709e-02,-1.286010249117814676e-02,-5.837725055298196783e-03,8.023424446582794189e-02
2.200620959405493182e-01,1.329177173298582426e-01,1.249787010968738121e-01,-1.069664519268384746e-02,-8.931485029249499816e-03,-1.089894136259215995e-02,9.637396782636642456e-02
4.150707328577200039e-01,2.496552798547472252e-01,1.778205635423015796e-01,-9.829091821056993097e-03,1.711857517714237067e-02,4.531730358519604762e-02,2.274533212184906006e-01
2.557353983832618693e-01,1.589227853518277445e-01,1.468300963425758221e-01,-8.355010689430765469e-03,-1.344828540635261381e-02,-1.277998474585746898e-02,1.092319190502166748e-01
2.066090488932449676e-01,1.309556052375448476e-01,1.178939757032454322e-01,-1.180247621444901855e-02,-1.208997140789607079e-02,-1.233449038846903476e-02,9.052637219429016113e-02
2.070297458919201639e-01,1.536358112566441891e-01,1.347757213793421838e-01,-2.744371652460734102e-03,-3.803272044625646137e-02,-1.132749272514049603e-02,9.466057270765304565e-02
1.998726508623702991e-01,1.074910952973082701e-01,8.159222721392016264e-02,-1.209596316344868638e-02,-2.809517253141241219e-02,-1.367946698249140024e-02,1.223356723785400391e-01
2.317140177986947991e-01,1.255755002292084921e-01,1.485059968721199608e-01,-1.081142059668031320e-02,-8.034480050274915889e-05,-3.190299688480464517e-05,9.852951765060424805e-02
2.221655736890779109e-01,1.102444931268948408e-01,1.389777841060896302e-01,-8.918216725846726117e-03,4.490367650757000470e-04,-1.380605219379266082e-03,1.018871739506721497e-01
2.329148938022825022e-01,1.228401590579680652e-01,1.432891760181998764e-01,-1.943132524099481021e-02,-4.808894617218125757e-03,-5.627285528878711758e-03,1.076140999794006348e-01
1.854942736739327303e-01,1.230867352961048100e-01,9.166056726144093669e-02,7.547093428714184322e-03,-3.241084144766036984e-02,9.127917972570715952e-03,1.020576059818267822e-01
2.457871337714279403e-01,1.364293988395364754e-01,1.159729118519017832e-01,1.019805244795529524e-02,-1.408799357048098541e-02,1.129752423774546023e-02,1.261149197816848755e-01
2.341188217011081485e-01,1.299951432617753866e-01,1.096271309522139914e-01,1.132204309837137046e-02,-9.600843779713600507e-03,9.579234817071565627e-03,1.196401640772819519e-01
2.500870864133482585e-01,1.447534984190512741e-01,1.189780985622868603e-01,1.685014321456519042e-03,-1.622059960506254048e-02,8.074892601517259794e-03,1.243704333901405334e-01
2.016961204880360625e-01,1.259221500644242819e-01,1.061588716083330802e-01,3.267285412479282048e-03,-1.568346303459017613e-02,4.892351338253879411e-03,9.204111993312835693e-02
2.328480547601899098e-01,1.379806372779731338e-01,1.120764900265191488e-01,2.590679701836694042e-03,-1.076209626290846114e-02,2.402241212303490164e-03,1.118625327944755554e-01
2.177720857535392907e-01,1.287658067953428853e-01,1.021028312251442416e-01,2.469214343392255127e-03,-9.001261989288539961e-03,2.443646235562065352e-03,1.062331274151802063e-01
2.260052670273187125e-01,1.394140475912744315e-01,1.206837857100273859e-01,2.518897016032296560e-03,-8.288692923945628621e-03,2.513499203414780447e-03,9.856384992599487305e-02
2.736862495151887176e-01,1.505099656978798051e-01,1.365194543629096868e-01,2.501649050238159006e-03,-3.662849027271704999e-03,9.028459825212947418e-03,1.318900883197784424e-01
2.509323095383899638e-01,1.303387007776516393e-01,1.213075464575384954e-01,-5.824662346000741928e-04,-9.414006754893758117e-04,3.404729768613954169e-03,1.255066990852355957e-01
2.491923670110849365e-01,1.299743932727315532e-01,1.139193923633084748e-01,1.533229509816724963e-03,-1.269353578051660766e-03,7.066246883629834219e-03,1.286328732967376709e-01
2.089603836447347929e-01,1.272780827420521010e-01,1.096540155295515490e-01,-8.462473537038844905e-04,6.744917887510433648e-03,4.071147743204304309e-03,9.279295802116394043e-02
2.452422622515947892e-01,1.252873837963037751e-01,1.257917194912564207e-01,2.683462061809075610e-04,4.114445719143134468e-04,-5.070978357886416106e-04,1.197097525000572205e-01
2.455537727369089263e-01,1.272519100693660088e-01,1.097687730018686303e-01,1.201756997905048530e-03,-2.635501270072667084e-03,6.224183993348925137e-03,1.284938454627990723e-01
2.437157042992034173e-01,1.255168987960583182e-01,1.084924386273578012e-01,2.800029768390253221e-03,-1.442391766466495640e-03,6.130299217790991483e-03,1.281232386827468872e-01
2.474096619481947201e-01,1.273157643305470321e-01,1.064867763811030987e-01,-2.765664373439179029e-03,-6.728662156103075616e-03,-8.175239809796905691e-03,1.331056058406829834e-01
2.510068968587044203e-01,1.339646741529108009e-01,1.169985898615985703e-01,-5.292251781018767007e-04,-1.438484049302836193e-03,-4.307519635844711189e-03,1.266301274299621582e-01
2.230681727669124037e-01,5.668683322379085288e-02,1.250249803703390450e-01,-5.002707949622141326e-02,-1.252996630056702441e-02,-2.380352880426192530e-02,1.751045733690261841e-01
2.605777384831260979e-01,1.343625087089562464e-01,1.257466211762961472e-01,1.872955233707900837e-03,-5.283903982735479316e-03,-9.693316102248775851e-03,1.321670860052108765e-01
2.461049152921828131e-01,1.257747323209686685e-01,1.193360479436352400e-01,-1.828077135816100988e-03,2.998836216952986775e-04,-2.777793408407301223e-03,1.238104254007339478e-01
2.525790700627028040e-01,1.321080277182360430e-01,1.240968558522676096e-01,3.484770847939393712e-04,-2.514340193507929623e-03,-7.097176739768115000e-03,1.253515183925628662e-01
2.492784436851220309e-01,1.311366627298061194e-01,1.285540443438361879e-01,-5.076790778979482126e-04,3.592502696170078421e-04,1.257411612370146507e-03,1.194787397980690002e-01
2.560793137442461398e-01,1.244425179428873957e-01,1.293967113966489335e-01,1.424514120532149788e-03,5.735199830242056381e-03,-1.384796910612105976e-02,1.318358778953552246e-01
2.569383490818319959e-01,1.352209212399955174e-01,1.335734286818532068e-01,4.585207266733089498e-04,6.820635735539480474e-04,-7.675523544858637442e-03,1.232766881585121155e-01
2.489296851282216394e-01,1.221683817017634038e-01,1.240348293986560380e-01,1.702163227542241586e-03,-6.710351316652047281e-04,-4.035499267883385296e-03,1.260722726583480835e-01
2.454436690905196228e-01,1.211180255376353432e-01,1.247269174461110436e-01,4.620517304195248184e-03,5.773475645071714062e-03,-6.597273840338062877e-03,1.237571462988853455e-01
2.465287022691169949e-01,1.296806854059529002e-01,1.223311645949043680e-01,1.423832760037400079e-03,3.266645493359936550e-03,-3.985457253866036241e-03,1.210454404354095459e-01
2.506534168900624859e-01,1.367763951647396614e-01,1.192394899365858130e-01,2.182887532429582736e-03,3.704947416161173332e-03,-5.984801724794634563e-03,1.242396831512451172e-01
2.410160616326181005e-01,1.228592354558540045e-01,1.473321479052935035e-01,-1.866213682170126190e-02,3.769945577760926148e-03,4.424029568897396535e-03,1.132011339068412781e-01
1.633051695560981398e-01,1.080963066024820257e-01,1.309198169706980719e-01,-3.606978302608066650e-02,-4.295039668440474474e-03,7.841971667594435343e-04,7.917793840169906616e-02
1.704935553361659473e-01,1.374741106985733763e-01,1.602872413649289451e-01,-5.838081370567451550e-02,2.632643786986696237e-04,1.409529854773628691e-03,1.053022891283035278e-01
2.283138643470927209e-01,1.372341905208898927e-01,1.163941293314966069e-01,1.683673671988868527e-04,3.221331189971392370e-03,2.366540200843563445e-03,1.033244356513023376e-01
1.876122286557626861e-01,9.441806515166753511e-02,1.231801828101023455e-01,-2.168389739604387884e-02,2.394871656628161805e-03,2.690093597511894735e-03,9.100241959095001221e-02
1.753078032128727870e-01,1.192535758609842012e-01,1.346320636846125574e-01,-3.040196295513762290e-02,4.883852808607167494e-03,3.557511084564339218e-03,7.347725331783294678e-02
1.962826140776047223e-01,1.408168853014783450e-01,1.591633727283835176e-01,-2.674746688262071015e-02,9.304542709811989415e-03,7.743495510281660221e-03,7.057853043079376221e-02
2.510562787894938253e-01,1.278726788980223961e-01,1.329076512715554326e-01,-2.380744514279737462e-03,-1.286102261798138194e-03,-3.984507957984020216e-03,1.210327222943305969e-01
3.596595777264023908e-01,2.065595701215869884e-01,2.691074332720374551e-01,-8.616653335466356589e-02,2.694206672923613391e-02,2.615459104386600245e-02,2.104271799325942993e-01
2.460582665113745793e-01,1.196542163034655659e-01,1.267015706979461309e-01,-1.555977109602621738e-03,-1.563011558685608194e-03,-2.359745069595030591e-03,1.231589689850807190e-01
2.540886896359509373e-01,1.262539707423980528e-01,1.357001979543776271e-01,-7.647069263621821683e-03,-5.181144640223183870e-03,-5.954094757850145539e-03,1.248427405953407288e-01
2.464310223143459933e-01,1.265738205996064791e-01,1.252181745644834754e-01,-4.407462498730467309e-04,-2.194100234093594379e-03,-3.484834873891747183e-03,1.207539960741996765e-01
2.183401956627197271e-01,1.365604110853427255e-01,1.142839703224180492e-01,3.538654473919884474e-04,4.218112043781289131e-04,1.017162676894671231e-03,9.492074698209762573e-02
2.447829689296775468e-01,1.121825223415337802e-01,1.193874785182075932e-01,-1.823786504926056462e-03,-3.385211262240138842e-03,-9.474861566386331285e-03,1.303575336933135986e-01
2.393174836009169804e-01,1.100968996842695280e-01,1.163068422339838814e-01,-4.958876743818391511e-03,-4.100662215737163954e-03,-8.040122799668968437e-03,1.274841874837875366e-01
2.424389216385738621e-01,9.695336935386386634e-02,1.203073539515304158e-01,-1.984461526355673147e-02,9.399690258775190987e-03,1.695918917079831251e-02,1.436075121164321899e-01
2.267342136543106235e-01,1.196229166328526133e-01,1.145412264741594854e-01,-9.073117530068241371e-03,1.147079778020804706e-02,1.236564522587343777e-02,1.146446242928504944e-01
2.572428986913871674e-01,1.219326125037495934e-01,1.272932083769934553e-01,-2.377370641394610344e-03,5.801032573442619147e-03,1.018075710888944989e-02,1.343172341585159302e-01
2.354403892451490399e-01,1.061610630856992532e-01,1.130522340509790558e-01,-5.671866319996913750e-03,5.832446062728037853e-03,9.014592734116652975e-03,1.277188211679458618e-01
2.365659405993788544e-01,1.095097282994605126e-01,1.365812954969055915e-01,2.063408790931532157e-03,5.573673787395648483e-05,2.098546733452827568e-04,1.159717813134193420e-01
2.894227393033282913e-01,1.453942034426397301e-01,1.573469845967194469e-01,-9.631265459426300787e-03,1.421467905450362994e-02,2.695467356277763543e-02,1.490961611270904541e-01
2.679932048016204771e-01,1.153615734123266678e-01,1.219121862588318922e-01,-1.134018793697148635e-02,1.376371134724792278e-02,1.521772916781067783e-02,1.548817306756973267e-01
2.355342094751294302e-01,1.151340137813669368e-01,1.232332133839275645e-01,-1.581666974605875145e-02,1.433243907529557076e-02,1.936717408829678397e-02,1.268017292022705078e-01
2.449458244813613739e-01,1.327072784828254026e-01,9.791488636033937598e-02,1.070592735718668871e-02,2.073523654495917565e-02,-1.508721152678417325e-02,1.415260434150695801e-01
2.695245460381340830e-01,1.492296126116206545e-01,1.052560484351018621e-01,1.861440191206460010e-02,1.598213480862826358e-02,-1.991475297334720229e-02,1.571302264928817749e-01
2.393764236283893454e-01,1.300508229328025678e-01,7.901633122905662998e-02,9.683069186189100473e-04,2.675843427117089585e-02,-4.822291649439538856e-03,1.495212316513061523e-01
2.496099038151026461e-01,1.449391978646372980e-01,1.236500474077375372e-01,-3.200853170191675454e-03,6.547961976937565279e-03,5.205141777334269804e-03,1.178056821227073669e-01
2.386228958581779747e-01,1.349110746058294619e-01,1.041296745286422604e-01,2.295665534401166233e-03,8.100536598485674408e-03,-5.138429127385412028e-03,1.232392340898513794e-01
2.161272563099582156e-01,1.188083916460196954e-01,7.335974213275386902e-02,6.447255891906443492e-03,2.805778661396692714e-02,-7.751426936153701062e-03,1.364779323339462280e-01
2.396754568104430827e-01,1.314355465043055560e-01,1.109401140591934343e-01,3.859778960803101049e-03,7.455473034533966620e-03,-8.612586552025723943e-03,1.216073185205459595e-01
2.597349835355577952e-01,1.564668079537298306e-01,1.221068018222197238e-01,9.389430915398366091e-04,1.025532104346367664e-02,-3.601756846740255830e-03,1.255002021789550781e-01
2.685432790221838895e-01,1.541299751374553828e-01,1.205129487838707547e-01,1.355909240356043422e-03,4.970866297255112885e-03,-8.048280273266735299e-03,1.354278922080993652e-01
2.365596157663246990e-01,1.251290547023532207e-01,1.060512159977976265e-01,4.301672134414903995e-03,7.126686935221262544e-03,-7.389821978137650280e-03,1.236054152250289917e-01
2.505982214723148083e-01,1.422654277686775937e-01,1.189555489034799518e-01,1.061971603151841761e-02,-2.415292462513109889e-02,1.538513447067075060e-02,1.326766908168792725e-01
2.469637474871370642e-01,1.128950047690818470e-01,1.372135287991818053e-01,-2.347763642951262216e-03,1.610722913870632359e-03,8.340188074012288384e-04,1.238219290971755981e-01
2.483135706370381279e-01,1.146605203653628113e-01,1.376751501342559081e-01,2.279628311619250492e-03,-1.194747365060676260e-03,1.482274233967577088e-03,1.238680705428123474e-01
2.397483342800623141e-01,1.388023282065519448e-01,1.222499591917720063e-01,1.357576149823268817e-02,-1.247285295541160528e-02,1.341215982570491405e-02,1.170224398374557495e-01
2.343515946287413887e-01,1.448364750039425886e-01,1.352051512647027554e-01,1.098548058875275547e-02,-1.341510116491977100e-02,1.513225580956452550e-02,1.027460992336273193e-01
2.590689630789085873e-01,1.362705295094985836e-01,1.250001742290788309e-01,1.746054225214234423e-02,-3.983193800969169612e-02,2.364048318405556626e-02,1.547302007675170898e-01
2.498059176884505628e-01,1.346378758569631295e-01,1.373351246990695829e-01,7.726504362511267890e-03,-4.530000558613353663e-03,8.356773776697482004e-03,1.158036366105079651e-01
2.249570791217121724e-01,1.138859552692300103e-01,1.122448338514981658e-01,1.081757268290870280e-02,-1.082423565117418204e-02,1.114857599713828078e-02,1.166070029139518738e-01
2.611773282586166145e-01,1.217160106849731471e-01,1.358250445123260763e-01,1.870978177774183793e-02,-1.886826830718503142e-02,3.418936631509889024e-02,1.526623666286468506e-01
2.541330794688884676e-01,1.330013273722091827e-01,1.382763992313260637e-01,3.933186495417853590e-02,-1.317208205873113963e-02,2.801107154963167201e-02,1.468914747238159180e-01
2.163570304646477704e-01,1.024359039663043924e-01,1.289235650335441574e-01,-9.171157416833762913e-03,4.992703652720010231e-04,5.819230793470658424e-04,1.044806614518165588e-01
2.236924481851658708e-01,1.003845021708697355e-01,1.351433886543987328e-01,-1.471142343012697001e-02,-6.530016373510467271e-05,-2.574372265962008503e-04,1.130330562591552734e-01
2.356995515963410393e-01,1.146124419204249401e-01,1.481210059548313807e-01,-2.493597352363793179e-02,-9.221022221153562203e-04,-2.944175067775299092e-03,1.167108416557312012e-01
2.278344225266245859e-01,1.206595433108501314e-01,1.420012806036908548e-01,-1.125136705557056201e-02,2.797361364230079202e-03,4.181685455553623559e-03,1.005501896142959595e-01
2.492103170964042325e-01,1.259326876207520485e-01,1.297750065005725817e-01,-2.340914994174105816e-03,-3.387311006847872421e-05,-3.636055684345422794e-03,1.216329336166381836e-01
2.437384395450148955e-01,1.275734171617443902e-01,1.212152437534510796e-01,-1.892614895794316691e-03,-1.641568118414509468e-03,-1.031408966166441924e-03,1.195631921291351318e-01
2.479876769446569540e-01,1.323180117121186550e-01,1.192072142459174311e-01,-1.921727069276768594e-03,-1.945554513780992523e-03,-1.876805908389583876e-03,1.228856667876243591e-01
2.553632007534922255e-01,1.408823780051235985e-01,1.303276941828486191e-01,-3.992910530145568626e-03,-9.089161291423215536e-03,-1.128443434598695554e-02,1.228952929377555847e-01
2.472963990931692502e-01,1.294577843306947973e-01,1.113196788672517618e-01,-4.047310788644547380e-03,-1.540679831695502058e-03,-4.631347819449180454e-03,1.283468306064605713e-01
2.389232030127740047e-01,1.252542628943323910e-01,1.074253583098629811e-01,-3.105870662455074462e-03,-2.832860935474644775e-03,-3.951181500911656562e-03,1.239553987979888916e-01
2.476453891993445067e-01,1.258218916174547175e-01,1.300504805137974729e-01,8.648027134206408327e-04,-1.318360412002317437e-03,9.383459150203026259e-04,1.198073625564575195e-01
2.402859819788641105e-01,1.469589542147777816e-01,1.181121695840284119e-01,-6.857699790817735818e-04,-9.280314907782813774e-03,-3.637681350520532308e-05,1.117767542600631714e-01
2.607804393255104825e-01,1.476774364415944507e-01,1.210554475788645223e-01,-3.501301282137944150e-03,-1.025750586769641481e-02,-1.022997027567078103e-02,1.310665160417556763e-01
2.383574438945088303e-01,1.250078897821366164e-01,1.060064358135373724e-01,-8.577203879757567401e-03,-8.935321433951736933e-03,-1.089720302729398245e-02,1.271984875202178955e-01
2.342698747973060436e-01,1.378753362025184337e-01,1.070414848098314026e-01,-5.205297064115863882e-04,1.057402162330356096e-02,7.846277476307122025e-04,1.164170876145362854e-01
2.269038067561169325e-01,1.229756264293532242e-01,1.070684307716289752e-01,-5.844502132816537833e-03,-1.153816909787809021e-02,-6.659598369110611080e-03,1.155085489153862000e-01
2.407522069195942582e-01,1.426602754053228062e-01,1.251716381311758219e-01,-4.984337773665948289e-03,-8.550369892971376035e-03,-6.424143872418808417e-03,1.098227649927139282e-01
2.380930814672483908e-01,1.239626582660619536e-01,1.065190579218370792e-01,-9.398865855561315541e-03,-9.610521647407452642e-03,-1.081829790249356701e-02,1.273345500230789185e-01
2.372252896855165938e-01,1.364053692478268687e-01,1.236440165243159472e-01,-6.162722349754906279e-03,-1.071321174116138426e-02,-9.962428137626775163e-03,1.112210080027580261e-01
2.150604446755119414e-01,1.509075886668734545e-01,1.276229196905849794e-01,1.673994297710155619e-03,3.924613059524335174e-02,-1.151069305020481146e-02,1.057270765304565430e-01
1.956115505694274448e-01,1.160803084783569583e-01,1.026690117965991800e-01,1.022013295711073945e-02,1.584393985796905824e-02,-9.251265554036505745e-03,9.431277960538864136e-02
2.124546377867373437e-01,1.413438165671978552e-01,1.330555528910280505e-01,1.132741641175554967e-02,1.477395817233325727e-02,-8.789294465892119601e-03,8.358424156904220581e-02
1.571313408449300786e-01,1.088159569493969137e-01,1.051076019400138950e-01,1.627573206684131135e-02,2.284221028576988860e-02,-1.244277360803289559e-02,7.315575331449508667e-02
2.305646377591217822e-01,1.512032158250023739e-01,1.454865904054055414e-01,1.445080872333157941e-02,1.125415944408750604e-02,-1.044181700083161163e-02,9.010069817304611206e-02
2.254876172740569451e-01,1.767035282045514577e-01,1.586151125583529775e-01,1.893623086977260297e-02,3.052244543240969360e-02,-1.493185620455766971e-02,9.016089886426925659e-02
1.543920290378653914e-01,1.098364842062849317e-01,8.797157608233759085e-02,1.064031732523505920e-02,3.265189261189216374e-02,-6.823324835673950581e-03,8.435184508562088013e-02
2.204829567941331558e-01,1.472674649624868548e-01,1.501595301087760015e-01,-2.552059105496902805e-02,-1.666544569451441568e-02,-1.084173383574696219e-02,9.108716249465942383e-02
2.407340561789254596e-01,1.321129819548406137e-01,1.595975369579138714e-01,-1.972393706349079290e-02,-6.117468446835682208e-03,-7.066464568799221864e-03,1.048699766397476196e-01
1.998573063766856672e-01,1.137019249858632064e-01,1.513283878309756858e-01,-4.716462416818620329e-02,-1.137750241916227027e-02,-4.546621060376387848e-04,1.125133186578750610e-01
1.458355481461031111e-01,1.035292137019530739e-01,1.069508109578057031e-01,-3.371093802141872375e-02,-1.998065687701703827e-02,-1.340729547639865626e-02,8.248034119606018066e-02
1.515421676435584342e-01,8.938220178423249285e-02,-1.848436684527290930e-03,2.477408381489253075e-02,-7.375827713504146121e-02,2.032056204053249784e-02,1.930250674486160278e-01
2.629048914447497109e-01,1.176783410481307690e-01,1.052233293870914743e-02,4.016239346333477095e-03,-3.764560304221601511e-02,5.210744104123235434e-04,2.289887219667434692e-01
2.522358198950802044e-01,1.546185678704534994e-01,9.707901270133496852e-02,1.521178862204915086e-03,-1.289280232387859070e-02,-1.199725332080966685e-03,1.377196907997131348e-01
2.614745243954182952e-01,1.592424075778764991e-01,1.144402678016434721e-01,3.370430057908384899e-03,-1.038784913318636580e-02,5.830100981354085186e-03,1.322823762893676758e-01
2.721440140162703636e-01,1.664847829773346555e-01,1.164312599070855964e-01,4.133113831488996470e-03,-2.512898354043013177e-02,9.312615983659787086e-03,1.454773694276809692e-01
2.804156282422367585e-01,1.810260736491323685e-01,1.207847580212722954e-01,1.631332379523375495e-02,-3.867301474865941779e-02,1.505196999332799636e-02,1.595603972673416138e-01
2.647751197123897060e-01,1.249244657112009022e-01,1.438264193422967852e-01,1.538146211104080832e-03,1.983726750783143446e-03,-9.807828151743403639e-03,1.325877904891967773e-01
2.410311764849428218e-01,1.067155899834040106e-01,1.216717086520251734e-01,1.870167210679915884e-02,1.101485244728196873e-02,-2.815787598801524488e-02,1.415887027978897095e-01
2.531146812239981614e-01,1.169699574636510753e-01,1.345732738272011619e-01,2.874769205250613923e-04,-7.649239219704452282e-04,-1.026983531148154688e-02,1.294877380132675171e-01
2.282779194600506600e-01,1.129322120076187985e-01,1.325376487573129702e-01,-5.251288184294817911e-03,-3.062279620836072871e-03,-4.082891833843269556e-03,1.076497733592987061e-01
2.491376179221478915e-01,9.307492782913906471e-02,1.176162206747452532e-01,7.384908771179042423e-03,6.001616346315476712e-03,-1.764003426605157895e-02,1.494424343109130859e-01
2.613566854021490138e-01,1.312054132226066483e-01,1.354083138034086753e-01,8.296107724064834613e-03,1.782651741726341051e-03,-1.133079063014281671e-02,1.304268985986709595e-01
3.057473617407472366e-01,1.331565668382592715e-01,1.313004477031536332e-01,7.531303782546205396e-03,1.459422266274264073e-02,-2.132831116528831686e-02,1.796808391809463501e-01
1.595676247726287023e-01,1.750389419678495262e-01,1.759533128915155287e-01,-1.229253112078132482e-02,8.857282611892695542e-03,2.079979762088657400e-03,3.091919422149658203e-02
1.814085428916971110e-01,1.576592575648330108e-01,1.569106479613015526e-01,1.924103469528197713e-03,6.535847606694599951e-03,7.274091036765274743e-04,2.689263410866260529e-02
1.018457410674902253e-01,1.104615557072901599e-01,1.157823822841982236e-01,-8.574553136692157976e-03,-1.209896071477283312e-03,-2.426524849384408943e-03,1.977400295436382294e-02
1.450217802404451528e-01,1.411038767966801000e-01,1.546424877170267387e-01,-1.023089401035217304e-02,1.043287258502085917e-02,-4.177708322461413069e-03,2.895701676607131958e-02
2.162588140190728758e-01,1.001636747354440748e-01,8.142695909001297638e-02,1.609457632663182855e-02,2.728155193263451586e-02,-2.188911099280878292e-02,1.430095881223678589e-01
2.519159710909210093e-01,1.494062412169702148e-01,1.280096260523183593e-01,1.365423710264681081e-02,1.521760948921852333e-02,-7.455362090397221059e-03,1.207485422492027283e-01
2.450234226383735114e-01,1.302070549089454354e-01,1.098618556615213460e-01,5.878733641244664708e-03,7.165794868058407777e-03,-1.206021811611337514e-02,1.289447844028472900e-01
2.580198610115166935e-01,1.501063579071637011e-01,9.403807374443312606e-02,1.227006031377727256e-02,2.878469143606818964e-02,-1.758414471573170948e-02,1.571764796972274780e-01
2.341021948797919472e-01,1.507729202751423025e-01,1.019414534821208446e-01,1.560225096184194790e-02,3.822135129210735977e-02,-1.241219648153135333e-03,1.360694617033004761e-01
2.326677214915548464e-01,1.522962363346062609e-01,1.265639406042082526e-01,9.585629907680593906e-03,2.142609154270716521e-02,-7.208633593248301059e-03,1.048744395375251770e-01
2.264778431193830710e-01,1.375628212327157929e-01,1.050116540597688525e-01,1.411674861542054626e-03,1.662847653844585008e-02,-4.683923305924041734e-03,1.129648685455322266e-01
2.871323222990685986e-01,9.665254145771862149e-02,1.454132098043671995e-01,-2.311660943952800404e-02,3.705543864222269473e-02,5.710409629324780106e-02,2.118426561355590820e-01
2.330443179418564270e-01,3.736047412331509887e-02,4.403652014821121674e-02,-1.848843728027431410e-02,1.783927637413528292e-02,5.504716855890833677e-02,2.193196266889572144e-01
2.788659358508086550e-01,9.060494923720438520e-02,1.238709145768603359e-01,2.107580627622492736e-02,-1.746174302013292837e-02,3.724804045578927747e-02,1.915612071752548218e-01
2.721178884172178458e-01,4.270953834839723295e-02,7.232706907249203399e-02,2.682104748678769066e-02,3.946412434672906012e-03,6.582565264418951956e-02,2.488267570734024048e-01
2.602566065415656271e-01,9.977260075190930166e-02,1.292720805147789809e-01,-8.743787948969324389e-03,-6.509721814267432557e-03,2.675794560724090165e-02,1.561908870935440063e-01
3.229869449904127499e-01,1.691657903830521836e-01,1.810380622674324924e-01,1.113125325232470347e-02,-7.864251927387932994e-03,2.256860693556718075e-02,1.551159918308258057e-01
3.123862513197272484e-01,1.530901258975125856e-01,1.604635182732105647e-01,-3.869997992005628270e-03,3.597682811571589062e-03,2.812206923820817148e-02,1.634361743927001953e-01
2.290649049979660845e-01,1.115427441483735488e-01,1.229684235130945047e-01,-6.770589309138357742e-03,-6.550410846013392588e-03,-7.568150291495026952e-03,1.141810417175292969e-01
2.359387429236901867e-01,1.283926170596935423e-01,1.261717243697786650e-01,-7.997389623563491354e-03,-5.887160308656700682e-03,-8.620269692372395376e-03,1.110348030924797058e-01
2.429541877555746465e-01,1.219353470111371462e-01,1.334362816341216618e-01,-3.933030744885377024e-03,-3.437965996792956194e-03,-5.061741482120674790e-03,1.163818314671516418e-01
2.483099999534059410e-01,1.336151696180961357e-01,1.389720384837342948e-01,-1.393579478198212450e-02,-5.730607226111094667e-03,-8.052485816543854952e-03,1.159519776701927185e-01
2.339721417330549724e-01,1.157867188799826669e-01,1.270730451661840621e-01,-3.048203745862515177e-03,-5.073329205020392710e-03,-4.629456575980661279e-03,1.137131601572036743e-01
2.371949253845199168e-01,1.407906787222238942e-01,1.275709589416465228e-01,8.321438450638112341e-03,-1.679775949404977917e-02,7.696006268613695550e-03,1.094298660755157471e-01
2.479339942178953038e-01,1.368347675417999065e-01,1.322120325367616700e-01,6.430908847921539342e-03,-7.752230700140116601e-03,1.052532386889111320e-02,1.162527352571487427e-01
2.539949442919418598e-01,1.598456281080401498e-01,1.455596030682092534e-01,1.217625560926889096e-02,-1.268157002727826610e-02,1.102998607408161788e-02,1.081916615366935730e-01
2.509153034123030035e-01,1.369963632000913423e-01,1.321699891711577424e-01,5.016484997515555273e-03,-7.266840070037748275e-03,1.135659849323948645e-02,1.190439760684967041e-01
2.331177808358518844e-01,1.101448164965692644e-01,1.127048479414503451e-01,1.316485324678825196e-02,-1.560993854138099761e-02,1.696326300462880701e-02,1.301087886095046997e-01
2.516846025949267540e-01,1.466517876042658930e-01,1.220020471984433058e-01,2.285131064726834277e-02,-1.425699220044386768e-02,2.040474144062360412e-02,1.328680813312530518e-01
2.626008473413641298e-01,1.299485266982556286e-01,1.229226908849141986e-01,2.077347114163052497e-02,-1.700135074776123675e-02,1.516903605701138899e-02,1.463900357484817505e-01
1.758341699874324815e-01,1.081807667155905289e-01,1.170577176817471088e-01,-3.140236452862823352e-02,1.849629664387591674e-02,8.539920806638127276e-03,9.087729454040527344e-02
2.047875745223509403e-01,1.572996314293583775e-01,1.703745732670581825e-01,-1.706809160957881849e-02,1.947665105036866040e-03,3.203917252843442066e-03,5.216600000858306885e-02
1.766869919833583269e-01,1.445763250475102790e-01,1.582171807186750490e-01,-1.744397301819285498e-02,9.135142033797167063e-03,3.299503773712872054e-03,4.444142431020736694e-02
1.844615790146127698e-01,1.306992457669949592e-01,1.532376378929124761e-01,-3.182036809346698580e-02,2.345464161638595446e-02,1.799783772678196017e-02,8.857982605695724487e-02
1.415313898636104684e-01,9.616098857705927816e-02,1.185830128374977532e-01,-3.463750309399472177e-02,2.037377945618886951e-03,1.468240052542198236e-03,7.184785604476928711e-02
2.372457647456123475e-01,1.149217863684734442e-01,1.372645237861125356e-01,-8.839716771073573981e-03,-1.526235987399764517e-03,-1.776905802844746477e-03,1.139306053519248962e-01
1.892126801740462438e-01,1.244434870665001580e-01,1.461286432596150542e-01,-2.172618073749545825e-02,7.481436885520619884e-04,2.952267166273367643e-03,6.859061121940612793e-02
1.869121256610242199e-01,9.771930244032783763e-02,1.238503516559742307e-01,1.916046223016562924e-02,-1.677376161030613060e-03,2.018951626131406437e-03,8.619471639394760132e-02
2.004767345486671293e-01,2.058430761272091181e-01,1.784815857662636618e-01,-1.549781964714206511e-02,-7.873131531135066363e-02,-1.378580457548066185e-02,1.432381570339202881e-01
2.206202020686169052e-01,1.240663435492634081e-01,1.239262114089322714e-01,1.877100615101189637e-03,-1.858165865785464969e-03,6.089256252818284892e-03,9.730551391839981079e-02
2.236733927744294914e-01,1.236562487507085056e-01,1.474971874372620340e-01,1.157904957374852363e-02,2.905687778449968553e-04,1.403519649087490127e-03,9.271301329135894775e-02
2.300224811094314648e-01,1.249552548943417551e-01,1.415545105900342104e-01,1.584545746680060194e-02,1.653812035864742980e-03,-6.512495953076512765e-03,1.022707074880599976e-01
2.344389499969440627e-01,1.174144207230708170e-01,1.404990972984877518e-01,3.397310056691559606e-03,1.007869015319025097e-04,-8.993797155074625873e-04,1.075325608253479004e-01
2.260174904715825939e-01,1.110229650136739243e-01,1.347522577883643879e-01,5.512707324168653229e-03,8.870173645647872482e-04,-1.582668901130728813e-03,1.056367680430412292e-01
2.366034142489878977e-01,1.132921025557858119e-01,1.397634488510182127e-01,1.824278938258080962e-03,1.333001720534611196e-04,4.454531352058528127e-05,1.124821677803993225e-01
2.249491658198568833e-01,1.109854650625600320e-01,1.332150546086935672e-01,5.530855624889508514e-03,2.215893358880559414e-03,-3.163268218798169149e-03,1.052854880690574646e-01
2.321480073047366144e-01,1.200947959785957087e-01,1.397051871112487131e-01,8.442446675070292353e-03,1.715354643811186318e-03,-4.156206093053274250e-03,1.049645468592643738e-01
2.272760128310107319e-01,1.256330981596094076e-01,1.132287078752061416e-01,2.246998763250613804e-03,2.165254558845000794e-03,-3.138950187660073405e-03,1.086496189236640930e-01
2.640954058214199929e-01,1.776608840265724576e-01,1.114338096738755335e-01,-2.479982041987415214e-03,-3.602823953559044362e-02,-2.030905609918563087e-03,1.466498672962188721e-01
2.611754503261406457e-01,1.264286028335293022e-01,1.035250872644463971e-01,-3.136606722264721888e-04,4.137650164807643756e-03,1.563290831390390379e-02,1.501741707324981689e-01
2.663922247636599794e-01,1.353480867141887978e-01,1.170163846203355895e-01,6.790575266102951389e-03,-4.142956930480017411e-03,1.539222659410976329e-02,1.442618072032928467e-01
2.576258597216232182e-01,1.424293027673506629e-01,1.274885107023905617e-01,3.611078443436386773e-03,8.018544097514078905e-04,1.028430995729791124e-02,1.247916296124458313e-01
2.430790857251932946e-01,1.322127019353495636e-01,9.445280368973960061e-02,7.752905678388095955e-04,-8.356613343497033483e-03,9.854624514268148228e-03,1.356691271066665649e-01
2.736723626663158382e-01,1.513532794306135243e-01,1.122974647151606525e-01,-5.442361263482682447e-03,-5.473472991321800749e-03,1.005584172409366636e-02,1.474675536155700684e-01
1.734692760979731629e-01,1.834439608948891798e-01,1.703676955858252906e-01,3.099936182726996045e-03,3.399572592265232701e-02,-8.196268174760665617e-03,6.194791942834854126e-02
1.785027286346648756e-01,1.451600262960174581e-01,1.376686599301409075e-01,1.016370738463005276e-02,1.273038240978447908e-02,-8.072038470905340893e-03,4.908363148570060730e-02
1.863495719098277048e-01,1.533108038607926826e-01,1.449860658374229894e-01,-3.066980294052865791e-03,2.572037440183782414e-02,6.482192346497242692e-03,5.978953838348388672e-02
1.735673578091622704e-01,1.558622677011923530e-01,1.294133862681504654e-01,-7.870749727611859453e-03,1.895703119955336260e-02,-2.392628523659647271e-03,5.255873501300811768e-02
1.555237613404964470e-01,1.346172689312166437e-01,1.300605572352031558e-01,1.320239187915582795e-03,1.617157696433166661e-02,4.616434511906764254e-04,3.665430471301078796e-02
2.332725163595525397e-01,1.278054111423783390e-01,1.146674769341522598e-01,2.881030170684572189e-04,9.021718684512227250e-04,-1.069502834068551374e-03,1.126395016908645630e-01
1.966784941460619773e-01,1.747527973858559736e-01,1.610765504008694893e-01,1.153108696443690129e-02,2.491239913037893161e-02,-9.017099542685511754e-03,5.892658233642578125e-02
2.395879822506364054e-01,1.231919547695345951e-01,1.245872274279389846e-01,-1.970524907235575294e-05,-1.862716898738916613e-04,-8.219466135330681482e-04,1.157139167189598083e-01
2.821316608914399282e-01,1.164446222771754469e-01,1.810304675235249738e-01,3.104349154674448941e-02,4.675238737382019991e-03,-1.044820118393622113e-02,1.555848717689514160e-01
2.492428675253966497e-01,1.212716161271796406e-01,1.553025041230159664e-01,1.709728195874451670e-02,4.759509249498383200e-03,-1.820354336830953042e-03,1.188891008496284485e-01
2.583521023491202606e-01,9.647269949769181341e-02,1.456598218476456152e-01,1.604255523195681141e-02,2.209858157772085201e-03,-1.224715202920473528e-03,1.464690119028091431e-01
2.478175711787022062e-01,1.085757427686618315e-01,1.454012934088347864e-01,1.304826618149576567e-02,5.641819451859706076e-03,-7.690894375514037602e-03,1.280642896890640259e-01
2.259561455364551275e-01,1.212451636260545584e-01,1.353202052410185097e-01,-5.769937692366991153e-03,6.578839415125289566e-03,6.355873867615016021e-03,1.001977846026420593e-01
2.252534884181999209e-01,1.190969813105107328e-01,1.189178373422059010e-01,-1.075319398891568141e-02,1.021737251052071832e-02,8.018816335973783307e-03,1.101872771978378296e-01
2.319785454730224905e-01,1.211883530715651691e-01,1.220860520530434312e-01,-3.439280166708203086e-03,6.316060278088371852e-03,4.020556073155176144e-03,1.112630888819694519e-01
2.259920814401502054e-01,1.188612835147427327e-01,1.190706013070589597e-01,-7.926097217601324116e-03,9.721664643113324400e-03,8.150479355099871787e-03,1.101177558302879333e-01
2.179851579892859714e-01,1.231074674610020819e-01,1.347026865890744718e-01,-9.588955540243020159e-03,7.347390568373886668e-03,9.317701887822105178e-03,9.345775842666625977e-02
2.116669594145618172e-01,1.140139789783485014e-01,1.199306354021238835e-01,-9.410982737124191574e-03,7.858943806129331869e-03,7.630487107064484048e-03,9.807647019624710083e-02
2.388162746306437545e-01,1.348707619964921167e-01,1.157878929974525822e-01,-4.865042286135664619e-03,6.953959132252001893e-03,4.291798688666740268e-03,1.158608719706535339e-01
2.318635742777434006e-01,1.261377832281145583e-01,1.182780518460951891e-01,-3.739266012410632188e-03,3.542351033585142486e-03,5.641232895122910186e-03,1.106605455279350281e-01
2.432198392421522082e-01,1.317681300452508419e-01,1.239316670243004043e-01,-1.261060661979459055e-02,1.080403476508583725e-02,1.268062598541110260e-02,1.211030110716819763e-01
2.356376021181231795e-01,1.162809682993856120e-01,2.685109015578590608e-02,2.060335764693978656e-03,-5.550987444382124436e-02,1.358630246575499596e-03,2.053778767585754395e-01
2.335018740382922842e-01,1.296047330085546845e-01,1.126603561301653678e-01,-4.048977717040948797e-03,6.831243075974699486e-03,5.025548441631510349e-03,1.144864559173583984e-01
2.350433206503730887e-01,1.426285567152602018e-01,1.186578615834606443e-01,-5.863070019892016593e-03,1.701582882455792561e-02,9.100041915823964961e-03,1.120290309190750122e-01
2.148984220087598040e-01,1.328423637918776934e-01,1.138796404106772464e-01,-1.407852861733709798e-02,2.469406930131791758e-02,8.575074292007090621e-03,1.062703579664230347e-01
2.548333522459618194e-01,1.133228159637932886e-01,1.501095189922367623e-01,1.604587430591877459e-02,-1.713485924462696116e-03,9.003444208488021756e-04,1.302168816328048706e-01
2.662656937710384253e-01,1.495712171811763025e-01,1.119579930753163421e-01,7.271452334188311436e-04,-1.670229988789541202e-03,-8.746249870553918010e-04,1.394053846597671509e-01
1.946319412184589481e-01,7.980125246245839410e-02,1.280085637008709920e-01,3.692214145614588355e-02,-1.464166484783460502e-02,1.479379033923347402e-02,1.239507570862770081e-01
2.346783705197087455e-01,1.397991800480644087e-01,1.096755281166782586e-01,2.808962508112313860e-03,1.388500325829201271e-02,-7.149425465246609518e-03,1.162884160876274109e-01
2.580519568872834957e-01,1.441731055908936632e-01,1.050628038866159158e-01,1.254509103752581185e-03,1.023041664784994122e-02,-2.793805104174112812e-03,1.389027237892150879e-01
2.313091613925448153e-01,1.396312602157142035e-01,1.086826667567272475e-01,1.197526317818382478e-03,2.204725698556708399e-02,-5.275424354630162821e-03,1.172433048486709595e-01
2.434632406882981659e-01,1.618287641926805520e-01,1.250674012727411855e-01,3.902995522986870639e-03,2.385303336868980356e-02,-1.126324129221473527e-03,1.130176410079002380e-01
2.386012983482969085e-01,1.388909436095590311e-01,9.300480894261246856e-02,-2.120424450019496587e-03,1.806157733441306201e-02,3.889910045539935433e-03,1.328930407762527466e-01
2.581591065828356402e-01,1.442407177589376532e-01,8.742273570726399878e-02,-1.683319601704359693e-03,1.987690468010736011e-02,1.928402827423179519e-03,1.545419842004776001e-01
2.338577650189914148e-01,1.657434605635002278e-01,1.124300015471331460e-01,7.859420400459789235e-03,2.921482622464696005e-02,6.159578586004733642e-04,1.177296042442321777e-01
2.187437532197379353e-01,1.380330415721385262e-01,1.519988223216694190e-01,-1.740289539767100879e-02,-5.213013602059390905e-03,-4.971862690201582155e-03,8.152509480714797974e-02
2.400811720327928334e-01,1.279208574728679104e-01,1.521344726922005397e-01,-1.768413547551681356e-02,-5.824084304744984661e-03,-8.353668808708020546e-03,1.081652715802192688e-01
2.272882538567252975e-01,1.090806386670872818e-01,1.373063652219846664e-01,-4.329180943126342135e-02,-7.797154151674754938e-03,-1.235512575923813743e-02,1.330267339944839478e-01
2.478264716322323147e-01,1.373766028761150837e-01,1.622435743591595647e-01,-1.850901070455338374e-02,-7.917122144820470248e-03,-4.822862076564822000e-03,1.065671592950820923e-01
2.222727354895048524e-01,1.169796118775302957e-01,1.278472374199299544e-01,-1.376049757598790148e-02,-1.400476236007275506e-02,-1.092040350715289994e-02,1.075856909155845642e-01
2.222478778363691232e-01,1.112130687549433422e-01,1.276454775077243142e-01,-1.654859971132316421e-02,-9.635208806896144659e-03,-8.933553822429949123e-03,1.100622043013572693e-01
2.284661696157226363e-01,1.012369230357287597e-01,1.413923192848925425e-01,1.491549056268681207e-02,3.978197805650944877e-04,3.653867662156523555e-05,1.155797988176345825e-01
2.309496470043312377e-01,1.289135600467706255e-01,1.516946840271233277e-01,1.007574948943010425e-02,-1.367498552523033163e-03,2.345061514555969728e-03,9.451199322938919067e-02
2.215221776923189667e-01,1.103983794479332925e-01,1.389454729389782983e-01,8.408548599063968634e-03,1.460732491526560732e-03,1.167455942569293852e-03,1.010632216930389404e-01
2.397898302186382002e-01,1.232023409789739649e-01,1.239148681339714841e-01,-5.737994746475952209e-05,-1.584832861391299484e-04,4.658355476567196170e-04,1.162360310554504395e-01
2.139868700146319025e-01,1.020293707846422204e-01,1.259564945663501079e-01,9.808506597285418863e-03,-1.502707898079309748e-03,2.425915974809055367e-03,1.036398485302925110e-01
2.480321466909337913e-01,1.329284684426888796e-01,1.214315798808700275e-01,-1.529699920371148250e-03,-1.205741758000981184e-03,-1.393360167212296915e-03,1.213324964046478271e-01
2.392513784990798198e-01,1.201932962995598403e-01,1.452463493777764458e-01,-2.246204335495181198e-02,-1.619499375183238582e-02,-2.122478351682121483e-02,1.243850961327552795e-01
2.100926915390672889e-01,1.459119495423282231e-01,1.423581263536209673e-01,-2.748459134566706014e-02,-2.168852844040632111e-02,-9.208291176094214256e-03,9.105848520994186401e-02
1.947904600395277686e-01,9.275409494536634991e-02,1.166800045861215440e-01,-3.399473176706148403e-02,-1.738677379393866254e-02,-1.193458822673808782e-02,1.155148670077323914e-01
2.420095970335646163e-01,1.153169860030392735e-01,1.546011436872554712e-01,-3.230184513390702700e-02,-2.017685841225096144e-02,-1.054163391038365379e-02,1.315377205610275269e-01
2.393091604162699282e-01,1.424254373590625455e-01,1.131831999447880238e-01,-1.018214930873626153e-03,-1.120939417014173850e-02,2.558338082411944193e-04,1.159953400492668152e-01
2.283956240459919795e-01,1.354242877140232060e-01,1.384490151307152250e-01,-2.001287525667031636e-02,-1.403380901793190375e-02,-1.517090325221292536e-02,1.041847541928291321e-01
2.059591466609785315e-01,1.032860151986503827e-01,1.222246508299200396e-01,-1.726568041661811007e-02,-9.175735485353558527e-03,-8.432321543992251853e-03,1.015684977173805237e-01
2.430399721921924217e-01,1.400089612826689311e-01,1.371585960389994641e-01,-1.904008600057812209e-02,-1.585014527127634465e-02,-1.549528428189804810e-02,1.160980537533760071e-01
2.340848287914575887e-01,1.307724641855709524e-01,1.209313697350987427e-01,1.279949482975633939e-03,1.678784746820660874e-03,-1.037068000682969318e-04,1.086296513676643372e-01
2.482155084758143060e-01,1.353870736300375466e-01,1.322771104459034841e-01,-5.294335188567845206e-03,-5.111057676610144228e-03,-7.219407344133834011e-03,1.157999932765960693e-01
2.452637507395413197e-01,1.212505410084165347e-01,1.250840230481360116e-01,-4.373934751749243045e-03,-6.480616343775373427e-03,-7.598101691384087468e-03,1.235926821827888489e-01
2.311835799647790901e-01,1.228860427646866621e-01,1.174129922442415097e-01,-3.863258322261612851e-03,-7.968573574058921555e-03,-6.700851448270611459e-03,1.127874180674552917e-01
2.396306048667284361e-01,1.200721336793328931e-01,1.199644867400700560e-01,-2.379879570626708320e-03,-3.382636227572592344e-03,-4.179794757290575431e-03,1.200451552867889404e-01
2.442369798598227060e-01,1.299596900951577039e-01,1.242078114371774483e-01,-1.312450318520559265e-03,-3.867082164931919669e-03,-3.154366473507175771e-03,1.175992041826248169e-01
2.016670263496218030e-01,1.946966038098609242e-01,1.830104469422919877e-01,6.278120238472426062e-02,5.909292892959537580e-02,-2.338182339856199540e-02,1.555863171815872192e-01
2.277679875162116896e-01,1.275208455563363874e-01,1.175953363138145386e-01,-1.379227210155547188e-02,-2.098181971821541994e-02,-1.098685080100635959e-02,1.157433912158012390e-01
2.330841666442265980e-01,1.450402104760457611e-01,1.053553652081777037e-01,-4.615862433018465792e-03,-1.289955627465438730e-02,-4.157071070441771370e-03,1.159120127558708191e-01
2.430100126679685113e-01,1.366191099874929371e-01,1.039508568429430707e-01,-1.656613626348199791e-03,-1.062500453907994427e-02,-5.799998107372558546e-03,1.277093142271041870e-01
2.668921348870114119e-01,1.552584355872586031e-01,1.265347064828992452e-01,-5.301630014659121891e-03,-1.001763633064380217e-02,-1.047008422481351432e-02,1.311789602041244507e-01
2.608612677706429461e-01,1.342320866361237930e-01,1.379190999283650410e-01,-2.390914922950801783e-03,3.464715403599571454e-03,1.115272870049746103e-02,1.265226155519485474e-01
2.487592929234480610e-01,1.151972558689182274e-01,1.249279024269246974e-01,-4.619132723519555435e-04,4.906762867532477772e-04,8.197208965468365943e-03,1.297567039728164673e-01
2.416652197863804474e-01,1.130012232465527067e-01,1.060606569035052738e-01,-5.599823224894829189e-04,6.064702981495788230e-04,1.100957423362286698e-02,1.336460709571838379e-01
2.704417793416120652e-01,1.561198398729087833e-01,1.214137553306642581e-01,-2.133035251203844757e-03,-2.619005289656909340e-03,-7.022499063503758864e-04,1.351938992738723755e-01
2.395652896113358854e-01,1.198045848684722858e-01,1.226754571358733559e-01,-1.753336393987341103e-03,-9.014632461587881486e-04,-2.308554894009410760e-03,1.184681355953216553e-01
2.545854965753281407e-01,1.208615789552885400e-01,1.294346820490419603e-01,-6.938432399772248745e-03,-9.450476649170286292e-03,-9.402275956472255433e-03,1.322373747825622559e-01
2.354382620753482647e-01,8.679609078758823704e-02,1.026661165144013982e-01,-1.294381063737952246e-02,-9.378363150642606699e-03,-2.274488823564148679e-02,1.493515223264694214e-01
2.534085616414620268e-01,1.459802616075161485e-01,1.110552282778986127e-01,-1.400575924353217056e-03,-5.139364824211820754e-03,-3.227070758002499053e-04,1.288331151008605957e-01
2.549803060574191149e-01,1.279990899034178509e-01,1.264681287007199673e-01,2.318579064327097334e-04,-2.676176902270024915e-03,-3.824485239369285541e-03,1.280097812414169312e-01
2.808217789881763959e-01,1.198438767491346590e-01,1.618948921359097404e-01,-7.625431353906191034e-03,6.589333556693050334e-03,6.611976487997796997e-03,1.461120843887329102e-01
2.685488267330000123e-01,1.142035650543723052e-01,1.483700469018750800e-01,-7.383596754524770003e-03,2.704123590243149178e-03,6.985044146429798990e-03,1.415917873382568359e-01
2.399135040887757642e-01,7.494756071383940066e-02,1.328668993431411371e-01,-3.119579240894874983e-02,3.605464665044794039e-03,1.234817780195369627e-02,1.562998890876770020e-01
2.578482825742955398e-01,1.025281156562939250e-01,1.555928067542510507e-01,-2.488872804559420435e-02,1.365915435054234489e-02,1.993249664731988960e-02,1.493592113256454468e-01
2.481176513050606380e-01,1.046494076326331402e-01,1.364345980527032764e-01,-1.353852541891721259e-02,3.303468218831469381e-03,5.026108556910471349e-03,1.330100297927856445e-01
2.318418022057499861e-01,1.546547168721357779e-01,1.295104597936987678e-01,-6.068166315579177645e-04,1.047946365434342803e-02,-2.426781973607093201e-03,9.422909468412399292e-02
2.365886028919099715e-01,1.367052553457624997e-01,1.119270115801697385e-01,2.942059902677822587e-03,1.095473731533368883e-02,-2.209824729863506428e-03,1.160440221428871155e-01
2.398352249508470813e-01,1.535854563150980678e-01,1.244512002369815296e-01,1.770988300911113767e-03,1.967014923077532382e-02,-4.908874657586268994e-03,1.097410395741462708e-01
2.548137056772786235e-01,1.449515722010628893e-01,1.112816644830769142e-01,3.882526514443248710e-04,-3.542974757161293248e-03,1.382916383866931824e-03,1.301777511835098267e-01
2.716771771982024464e-01,1.483362161962558934e-01,1.125270785812291785e-01,3.274802517429247720e-03,7.040020111045401305e-03,-9.117851846247774714e-03,1.460899859666824341e-01
2.812526158641822094e-01,1.580320151824507191e-01,9.766460581868123547e-02,9.165515444403759399e-03,1.435296057869895475e-02,-7.975986139968778768e-03,1.653086245059967041e-01
2.775073861685709020e-01,1.616398273234747052e-01,1.182798353159371235e-01,2.806297257490714212e-03,8.332759016023838852e-03,-1.293423797126165738e-02,1.451317071914672852e-01
2.396234597945580413e-01,1.076409858854867202e-01,1.241601549583575687e-01,7.666762498648176279e-03,6.921101019913534179e-03,-9.641436351777520064e-03,1.269288361072540283e-01
2.444702779035725915e-01,1.315654980772398841e-01,1.311465387567311291e-01,1.152962926376947155e-03,6.306776214402180954e-03,-6.438723028612721930e-03,1.142044365406036377e-01
2.373408592299950937e-01,1.184299477992793448e-01,1.315841398629330472e-01,6.186985413826755729e-03,3.077044709258325815e-03,-5.216440673929470528e-03,1.139014288783073425e-01
2.430081433272202607e-01,1.247553701286137073e-01,1.275068407644137924e-01,2.565952021096511940e-03,3.335717998857193767e-03,-2.935534320416314201e-03,1.172386705875396729e-01
2.408926993635113756e-01,1.232342164991872824e-01,1.256383787263424812e-01,2.753522938779755323e-03,8.179572371185155934e-04,-2.953689563743454056e-03,1.166934221982955933e-01
2.395485082103681607e-01,1.153987420203070047e-01,1.227833881979656927e-01,-1.693849991246162067e-03,-2.403975265959330983e-03,-2.407607457406537969e-03,1.208065822720527649e-01
2.378833976766571712e-01,1.225334849745033927e-01,1.245431612352019823e-01,5.791678207714167671e-04,-5.550870383776730079e-04,2.363847913232398640e-03,1.144400238990783691e-01
2.428119093498519176e-01,1.313002364318018311e-01,1.287368931648399106e-01,5.731346139886138273e-03,8.993548656830743088e-03,-8.468332660852758223e-03,1.152545064687728882e-01
2.413299464756864798e-01,1.267789611382758030e-01,1.310534818789744760e-01,4.582049306170146892e-03,5.198705520110933134e-03,-8.573761677794984257e-03,1.140839308500289917e-01
2.533710263481245284e-01,9.646513986950777664e-02,1.313792922056355450e-01,1.619739365985414445e-02,1.365949478990933184e-02,-2.438276516005000866e-02,1.532664000988006592e-01
2.540343852468008867e-01,1.165007695808757404e-01,1.354178475026090733e-01,2.372836065966945143e-03,6.807565635018836790e-03,-9.963924362052359318e-03,1.308639645576477051e-01
2.287337822622239059e-01,1.245701214249678029e-01,1.120819867406994547e-01,-5.015678757848219052e-03,-7.225634092471004688e-03,-5.803702138078073273e-03,1.124276667833328247e-01
2.425432960871809485e-01,1.324173780801299327e-01,1.165934087229706650e-01,-1.154326837832500563e-02,1.630064337240034675e-02,1.660234222100842941e-02,1.270611435174942017e-01
2.429491618017813326e-01,1.310660424533579560e-01,1.138864954428623899e-01,-3.344462760511364256e-03,7.933170668649201784e-03,6.533185046795185295e-03,1.228229627013206482e-01
2.405884249875241687e-01,1.328485759242460928e-01,9.820766644767113529e-02,-3.297336715356685884e-03,1.243576259301620510e-02,5.455786457546346092e-03,1.308660805225372314e-01
2.244873274709770772e-01,1.282192593242200696e-01,1.079833312368925352e-01,-8.064480839867695094e-03,1.160729939232194551e-02,6.254686458246516007e-03,1.110935062170028687e-01
2.462836205981996651e-01,1.529850742390997942e-01,1.169332799058472872e-01,-2.680574922564391439e-03,8.582989931994257013e-03,1.809058028321866010e-03,1.167060732841491699e-01
2.422524379670512040e-01,1.357414259878005625e-01,1.101174500846637816e-01,-4.248240523068792622e-03,9.589898196356375082e-03,1.006323199528281163e-02,1.239526793360710144e-01
2.465521930323781308e-01,1.359946781350030443e-01,1.103677931992969735e-01,-6.349416455314369628e-03,1.667378951913914970e-02,1.133087281874640972e-02,1.305875331163406372e-01
2.231666525750174990e-01,1.223264293879047504e-01,9.623843610214632971e-02,-7.388588221917269036e-03,1.315394716737478160e-02,9.071013030474332425e-03,1.200406402349472046e-01
2.555022923638658461e-01,1.425563246184356203e-01,1.081228236847375235e-01,-6.571497467177687957e-03,1.033748857488125950e-02,7.036715682104953927e-03,1.357581466436386108e-01
2.650821337452043402e-01,1.224058578616803172e-01,1.294236364682999074e-01,-8.006035814127235133e-04,-5.633436620747976587e-04,8.998198619223008593e-03,1.401794403791427612e-01
2.414982833859009581e-01,1.131187718502099371e-01,1.061119337373286620e-01,-8.977555208823010226e-04,5.322880123212060232e-04,1.109965905887073598e-02,1.334271430969238281e-01
2.490838982901061871e-01,1.286812759459222966e-01,1.270797510016104248e-01,7.289971295993362540e-04,-4.171037014101587896e-04,2.095305972593017405e-03,1.212743669748306274e-01
2.497980494624473247e-01,1.274098473395151865e-01,1.214136335352591356e-01,1.471994160398685289e-04,5.039694054186892331e-04,2.938343357165090416e-03,1.256002485752105713e-01
2.388165818081879610e-01,1.225941144780728770e-01,1.222556874224692142e-01,-3.440472396361289955e-05,-1.125032263205961379e-04,-4.560589734725897185e-04,1.163949072360992432e-01
2.595446591654646529e-01,1.301661203511984000e-01,1.262246031059374440e-01,5.131886083802063812e-03,3.494134227115016224e-04,9.503381265650418311e-03,1.327200382947921753e-01
2.447931632237692057e-01,1.140981135279050540e-01,1.190371350362582487e-01,1.637922706177479329e-03,-1.289361692970385003e-03,8.759832630145963570e-03,1.292413473129272461e-01
2.514775924253128125e-01,1.311281220803004188e-01,1.344362755353804562e-01,1.336871271603352548e-03,5.099528899379810951e-04,3.668370212554237890e-03,1.189256757497787476e-01
2.553290740048842489e-01,1.341344461409710309e-01,1.314604372796621679e-01,1.749137511035182325e-05,-1.255866734195635942e-03,4.757477115129226004e-03,1.228494867682456970e-01
2.486880424796992228e-01,1.291714440636151651e-01,1.253995273879690009e-01,3.414380248927633668e-04,-1.728482940677172376e-03,4.790237300821983783e-03,1.217678263783454895e-01
2.782835164504027792e-01,1.470238524908505373e-01,1.005585862899242289e-01,4.455074147693679175e-03,-3.588646160329789832e-03,7.175792872706135070e-03,1.604362428188323975e-01
2.518870114049986952e-01,1.387736553195596245e-01,9.735160676547879866e-02,-7.755307115141993075e-04,-4.553533876948547866e-03,-9.455887500391742424e-05,1.387798190116882324e-01
2.469791642610171811e-01,1.347064565552148485e-01,7.834538276287753011e-02,-1.546049918956362093e-04,8.643638123361651118e-03,7.197707162615469938e-03,1.499639004468917847e-01
2.615414021572224357e-01,1.521936213614939748e-01,1.156550613632659902e-01,1.524663337950605104e-03,1.345739439141394565e-03,3.909983325864730720e-03,1.317030191421508789e-01
2.375690744871327975e-01,1.259924455625117956e-01,1.220341533547095875e-01,4.781205935312059750e-03,-7.289355523686033740e-03,7.924561704663877701e-03,1.154254972934722900e-01
2.315376403434774299e-01,1.141307947804090644e-01,1.328660144284783129e-01,-5.928487506742880159e-04,1.900110533016947576e-04,7.465166041544548910e-04,1.092637479305267334e-01
2.333596140879705405e-01,1.188196679636682879e-01,1.262043349312165219e-01,7.350194042781791129e-03,-6.195077039548334448e-03,6.977474290121212647e-03,1.129219308495521545e-01
2.429654380385340706e-01,1.208446014836805776e-01,1.225342014307949784e-01,2.157846411557633615e-03,-3.006773301805210075e-03,4.230487847184162889e-03,1.216749772429466248e-01
2.454836719283641777e-01,1.242005392589037721e-01,1.268838950696387635e-01,2.218347221222330672e-03,-3.467768094588691025e-03,6.423520980478155534e-03,1.206895932555198669e-01
2.497003858982207447e-01,1.316043507796735845e-01,1.270417073005515318e-01,7.477720781105893708e-03,-1.041534841104561730e-02,1.315671184636849934e-02,1.245744973421096802e-01
2.414873855134625491e-01,1.231716776048752127e-01,1.174283577776707999e-01,5.635338377033762003e-03,-5.721001732200941235e-03,7.097447875423966608e-03,1.227016672492027283e-01
2.385279157619694668e-01,1.213601639161506346e-01,1.205201077275084021e-01,1.935722117935535433e-03,-2.436552807784847507e-03,2.697381902403955811e-03,1.178061738610267639e-01
2.423414572993281280e-01,1.289390670109464010e-01,1.251950669349152778e-01,2.022599594369471534e-03,-2.549728070161061226e-03,3.321954725397666206e-03,1.156009510159492493e-01
2.437141348059957691e-01,1.247918434729487769e-01,1.151414300063925283e-01,-7.542795286714551982e-03,6.135802844853987213e-03,7.859373087433816490e-03,1.259056180715560913e-01
2.203709999051816359e-01,1.280506632315134286e-01,1.060908953216994077e-01,8.793009892413307382e-04,-6.433126327719959625e-03,1.535751643384577515e-03,1.056700497865676880e-01
2.740156648253590510e-01,1.306546235854796345e-01,1.462078006292474586e-01,-2.767678506891328904e-06,-1.797189070370568131e-03,1.018381472404474367e-02,1.374241262674331665e-01
2.506149674086516899e-01,1.327741918648332742e-01,1.281052427013185946e-01,-2.311992200399100219e-03,2.304481457965356760e-03,4.549194320360218716e-03,1.206337139010429382e-01
2.449762428908807965e-01,1.221373339875590491e-01,1.221265429996906127e-01,-2.069835976774304573e-03,2.298216305312338840e-03,4.205000796032996868e-03,1.231765672564506531e-01
2.497759197831170286e-01,1.276315047932236602e-01,1.309619441088197833e-01,-2.031525836768471090e-03,2.175732696878319040e-03,4.534174733751760063e-03,1.208793371915817261e-01
2.498883955348408237e-01,1.283523550781058009e-01,1.322602749211856388e-01,-1.714146486452265347e-03,2.087722976808835233e-04,5.032909200399052728e-03,1.199844330549240112e-01
2.379013567013291974e-01,1.231879792151874958e-01,1.307175812814133364e-01,2.439253095203240370e-04,3.836097106249864602e-04,1.725920381098938142e-03,1.111830174922943115e-01
2.509285753254848483e-01,1.257442001514146313e-01,1.252368073560050088e-01,-2.742762081150987774e-04,7.980073872727207196e-04,4.922209740969301847e-03,1.257367283105850220e-01
2.502119122810421148e-01,1.199987255866439284e-01,1.172340004166170513e-01,-1.014857766715368537e-02,1.084040684148030766e-02,1.537606935196352692e-02,1.367256939411163330e-01
2.444826679048687779e-01,1.199772636492034139e-01,1.124723007796434582e-01,3.646161579098442922e-05,-2.194309641445161757e-05,8.905753618421210702e-03,1.293455511331558228e-01
2.290665852363060473e-01,1.132385607968930952e-01,1.535651449722691131e-01,2.644790656885812052e-02,-1.466262655330218857e-02,6.491967640710548382e-03,1.150708720088005066e-01
1.938407065183799793e-01,1.086535480801640863e-01,1.388725603576950740e-01,2.335221774823548202e-02,-3.636465428664616140e-03,-3.372947760981209308e-03,8.547250181436538696e-02
1.803230656646894470e-01,1.273543907379078854e-01,1.678099989625924660e-01,3.308147869708634448e-02,-8.453490357625390375e-03,-3.147065987992164206e-04,7.613994181156158447e-02
1.823333354274445095e-01,1.176672283556016718e-01,1.370510416304444590e-01,1.744743340112829208e-02,3.923351038253530820e-03,-3.931474678227147961e-03,6.564867496490478516e-02
2.049304693588428761e-01,1.353334684863039261e-01,1.555340262967427334e-01,1.405489916352652829e-02,-6.023128682098635375e-03,4.082018904367965798e-04,6.743783503770828247e-02
1.479838641650316200e-01,9.249632203626176330e-02,1.121331727614997970e-01,3.509924425200160181e-02,-1.068580331333009344e-02,5.239067793349575300e-03,8.059557527303695679e-02
2.261049879624252301e-01,1.431762606219598999e-01,1.620955191048982780e-01,1.453155926118319258e-02,-6.432291812297366226e-03,3.479541734423103987e-03,8.037478476762771606e-02
2.255371137366857237e-01,1.217251078980002010e-01,1.420203498616042781e-01,1.068083024998010659e-02,-1.883913755943482371e-03,3.958258931283331790e-03,9.737469255924224854e-02
2.422196825269208320e-01,1.233085004349533387e-01,1.509601684766988527e-01,1.711366912572065413e-02,-2.176026410136005628e-03,5.581464259980413456e-03,1.122616976499557495e-01
1.985462037873859942e-01,9.855411714732247030e-02,1.256948172615969528e-01,1.777200398827627134e-02,-4.085288846187803274e-03,5.942978875966404249e-03,9.552349150180816650e-02
2.133952206369673366e-01,1.337592997676035067e-01,1.201783290001540994e-01,-2.559775102763233931e-02,2.456353922496085779e-02,1.683157541043286617e-02,1.106055974960327148e-01
2.528975716211477875e-01,1.177733606805776295e-01,1.407895392793413192e-01,-2.338157054520667057e-03,-2.643268796288539713e-04,1.010803718178485654e-03,1.252913773059844971e-01
2.053765814971529602e-01,1.358830324332528372e-01,1.323341312948078663e-01,-2.143092596040803086e-02,3.144316887792195786e-02,1.202510859484957027e-02,9.932903200387954712e-02
2.032282740760339435e-01,1.019392150379719586e-01,1.025299275085891637e-01,-3.193431593280694064e-02,2.511836537860428695e-02,1.924204981928194502e-02,1.275262981653213501e-01
1.953123850228582481e-01,1.402398717490907221e-01,1.534146436613877951e-01,6.368081345059307952e-02,-3.307947982790536423e-02,2.360024373600863590e-02,1.400014162063598633e-01
2.395131523852867261e-01,1.244138103547669516e-01,1.202924869647265388e-01,-1.487854812850599806e-03,-2.857140592780537205e-04,-1.242852715748649604e-03,1.172634884715080261e-01
1.273690124140645918e-01,1.174733056156947036e-01,1.109011394964796865e-01,3.328625869435831303e-02,-5.380264395791612558e-02,1.786761875243470313e-02,1.147693693637847900e-01
3.795888005562113310e-02,8.764214664471615956e-02,7.204722679084635262e-02,2.996210972984595863e-02,-5.186060711973428106e-02,6.542695500271733175e-03,1.132563203573226929e-01
2.429808948857490880e-01,1.244125590894989697e-01,1.250834983323201866e-01,-1.187731764145053551e-04,-6.238816820862398780e-04,-5.832209939042169201e-04,1.182437241077423096e-01
1.730866061254741350e-01,1.939767296088409920e-01,1.613026875711974228e-01,3.855807587827862759e-02,-6.024538311410579383e-02,-3.986107860917254171e-03,1.273490786552429199e-01
1.926338326207566454e-01,1.701773971211748004e-01,1.662655586717155798e-01,2.838083879504000109e-02,-7.578530898438670671e-02,1.691304826646427770e-02,1.453005522489547729e-01
1.734553104677420965e-01,1.366736716846484734e-01,1.413845862608781312e-01,6.491157438268058133e-02,-3.869761679289195760e-02,1.196363519641075422e-02,1.369826495647430420e-01
2.486969396619559403e-01,1.330777447541897363e-01,1.277929735995881888e-01,-7.470933536715772434e-03,1.147146426367304413e-02,1.228315362339413297e-02,1.225626543164253235e-01
2.424873772348931367e-01,1.341413042652682130e-01,1.167869254984293670e-01,-7.960009538609666077e-03,1.439645347672753768e-02,1.479924520197909918e-02,1.240533590316772461e-01
2.454418962641622404e-01,1.453991138070541700e-01,1.167558408217883315e-01,-5.071914665658554602e-03,1.168816193384728669e-02,6.454396030165226485e-03,1.196099445223808289e-01
2.538209957784129389e-01,1.377524339080677118e-01,1.221572642143011200e-01,-3.324244945530381058e-03,6.356191101071127780e-03,6.468634049380417306e-03,1.257183998823165894e-01
2.258248753296930311e-01,1.335659205260283644e-01,1.047059541982340580e-01,-6.342592047980332576e-03,1.226325412291995147e-02,6.543073419745991381e-03,1.127274855971336365e-01
2.466227946313553909e-01,1.548824087173935882e-01,1.332211495894772557e-01,-8.431000683878666496e-03,2.089196283607933080e-02,6.583051551897890590e-03,1.119169220328330994e-01
2.590489796589678928e-01,1.419576493651647786e-01,1.286739950214175476e-01,-2.183290744021646607e-02,1.812694403937147036e-02,1.944690654035852520e-02,1.378135234117507935e-01
2.528593850785168518e-01,1.059755989251439240e-01,1.299084863382457267e-01,1.358312965870738485e-02,-6.293938258760294231e-03,1.944662147677229599e-02,1.429655104875564575e-01
2.760041251839355780e-01,1.213093063832537538e-01,1.447830742504602752e-01,1.661820188929273578e-02,-3.696061277850160032e-03,2.020647936428857094e-02,1.514748036861419678e-01
2.426024985337090212e-01,1.111484421106724574e-01,1.252254327741371132e-01,3.906391382249633365e-03,-2.970068713240171104e-03,7.520191627804239005e-03,1.259752213954925537e-01
2.876922601030079130e-01,1.164519068007223435e-01,1.481135714373892631e-01,2.895607423334706394e-03,-6.049732683896286330e-03,2.553594104246222768e-02,1.643020659685134888e-01
2.648930088543860473e-01,1.125188268794268254e-01,1.122242246891604761e-01,-7.119755520214108950e-03,2.738299308998386802e-03,2.113448264369416699e-02,1.574084907770156860e-01
2.516154081907747697e-01,1.199335868605483635e-01,1.327589814081126529e-01,3.182059545803713526e-03,-7.094426239728356554e-04,1.328142440519749362e-02,1.279718577861785889e-01
2.522030983563917084e-01,1.392941039082150612e-01,1.155823919919004572e-01,2.600234674173611260e-02,3.252248216872388742e-02,-1.944122589124969852e-02,1.494099646806716919e-01
2.625989255561275715e-01,1.356806821722465473e-01,1.237852440280016453e-01,5.616544399714047675e-03,5.389325788085815722e-03,-1.253354649370630111e-02,1.356927752494812012e-01
2.186520138524708778e-01,1.480823913833940186e-01,1.071272505968099698e-01,2.687002537938344010e-03,3.868366850893305980e-02,-1.587087240410663125e-02,1.217135041952133179e-01
2.173231577817024418e-01,1.249711990829197039e-01,8.757398301822365283e-02,5.423153872567199919e-03,3.157381409159153163e-02,-6.052657159655108927e-03,1.287245005369186401e-01
2.533136847512651446e-01,1.377294721732217619e-01,1.158311972143209606e-01,8.747729692857196190e-03,1.169799039407741666e-02,-9.477030019808674668e-03,1.314529478549957275e-01
2.393437897376896051e-01,1.264820505666503503e-01,1.077308239558123493e-01,3.540950340676759112e-03,7.852847606586194074e-03,-7.343932289030925126e-03,1.248602941632270813e-01
2.425065619282041340e-01,1.235506531370808431e-01,1.245474675820908705e-01,6.131884160269764571e-05,-6.363816825759076789e-04,-5.723575567121945819e-04,1.184699684381484985e-01
2.571361885001817171e-01,1.107311620833674876e-01,1.424011423909966045e-01,-9.320749851837942116e-04,-1.560729659441352285e-03,-2.839461673007205676e-03,1.335472762584686279e-01
2.583848171085751932e-01,1.167615034222029557e-01,1.355981955341943879e-01,-3.860381514289046214e-03,-2.008752828741078734e-03,-6.894802258323079296e-03,1.339540779590606689e-01
2.489861393828344815e-01,1.144855815703298696e-01,1.330729534808537395e-01,-7.290038449630069925e-04,-1.347661024860633081e-03,-3.217356490669546001e-03,1.263881921768188477e-01
2.444540711512839803e-01,1.255549135102255742e-01,1.258775741265463211e-01,5.193205737305792077e-05,-3.455797523317426863e-04,-3.846361478604845932e-04,1.187415644526481628e-01
2.363558707165885342e-01,1.178425102752923836e-01,1.205342850356851125e-01,-2.001507948021308183e-03,-4.329891249151172558e-03,-2.351188805426175556e-03,1.175521016120910645e-01
2.365523188208496219e-01,1.178876934471425331e-01,1.186345803496538093e-01,-2.616938236996132431e-03,-3.445856326801631075e-03,-3.367331352786567204e-03,1.186735257506370544e-01
2.435732124492996920e-01,1.266787377113689772e-01,1.247131398926484835e-01,-2.474209612717120639e-04,-9.995416973631726914e-04,-1.569006504069378862e-03,1.179343685507774353e-01
2.426112206227361845e-01,1.290554462463493757e-01,1.248647717118321482e-01,-2.893732382690403660e-03,-3.064866937349551134e-03,-4.636075015731860177e-03,1.162158846855163574e-01
2.548652792974233083e-01,1.157950212733007689e-01,9.176401057539931849e-02,1.358677144796563386e-03,-2.479781107022733036e-03,-3.189566525604611846e-02,1.622837334871292114e-01
2.478044167427944922e-01,1.315835009140688405e-01,1.199818699405939965e-01,-1.981701153614521919e-03,-1.432716241474262788e-03,-1.899711362965140690e-03,1.225521042943000793e-01
2.511363059456920843e-01,1.179522617095756232e-01,1.233784358444036666e-01,2.585665769631931548e-03,4.077698582343118432e-03,-9.769160064590651227e-03,1.319128572940826416e-01
2.389712677792157902e-01,1.163887852752959751e-01,1.243665292218549684e-01,-1.023269607596870431e-03,-1.804676396014167706e-03,-1.746820108945560746e-03,1.188875287771224976e-01
2.439941876203516047e-01,8.975087764693254200e-02,9.603347441364974701e-02,1.074484159012467112e-02,1.326182403852003630e-02,-2.757467064800429510e-02,1.612962782382965088e-01
2.897707989330273737e-01,1.561290559296355518e-01,1.429420548036350602e-01,5.599318596087525524e-03,4.525777671308910295e-03,-1.901376440629250902e-02,1.450393795967102051e-01
2.739385074590844349e-01,1.407514508594758240e-01,1.281223203744430716e-01,1.063632152934004555e-03,9.504821702752837796e-04,-2.130942998465897367e-02,1.447366625070571899e-01
2.751730616527927054e-01,1.284449160797966616e-01,1.254009645040890519e-01,6.292379640009375212e-03,3.999068220301352401e-03,-1.654967113786015923e-02,1.515700519084930420e-01
2.403849362002483114e-01,1.345851354914971432e-01,1.077241567700923386e-01,2.259471227774383431e-03,3.466603880705706672e-03,-1.973929385893463152e-03,1.217376366257667542e-01
2.392875109140575884e-01,1.307686772978400580e-01,1.291516370604883779e-01,1.769413521288961712e-03,6.393764362678641157e-03,-6.113810169534826186e-03,1.104472726583480835e-01
2.394089052588617150e-01,1.403999460222483120e-01,1.261073570582358361e-01,5.792597038470333713e-03,1.871919011933708549e-02,-1.446299736637876240e-02,1.148980781435966492e-01
2.353947001050948340e-01,1.347062199885436518e-01,1.152783413275435265e-01,6.690033054241394106e-03,8.278130262582287374e-03,-5.741755137950500278e-03,1.136245205998420715e-01
1.898045713230663289e-01,1.085292760949713720e-01,9.243846814862716199e-02,6.617434158703683171e-03,1.752017113964556699e-02,-8.358601864673177034e-03,9.712987393140792847e-02
2.307622633011275903e-01,1.342441986549613997e-01,1.205752395838393803e-01,5.473602138957917376e-03,9.505713126332611743e-03,-7.130659856059670329e-03,1.064677163958549500e-01
2.243835017825539790e-01,1.298126733313347547e-01,1.123075221892050612e-01,5.274489839815961825e-03,5.242320686168956689e-03,-5.062451483669209648e-03,1.055857017636299133e-01
2.496000225586847421e-01,1.789480105071120375e-01,1.451235995701957715e-01,1.247436831206356032e-02,3.584506316391723735e-02,-1.013356290476680709e-02,1.146955192089080811e-01
1.866397454904016040e-01,1.302560168639616267e-01,1.559230804655710734e-01,2.840693230886954038e-02,-1.652280504664810010e-02,8.102011946404818338e-03,7.633817195892333984e-02
1.497704614546461754e-01,7.797568942233255862e-02,1.089192650137131985e-01,4.116414686627245523e-02,-1.241291755201851844e-02,7.119715701717525651e-03,9.791925549507141113e-02
1.851986944287435932e-01,1.335945872967835568e-01,1.476320819131767548e-01,3.967594452221458179e-02,6.109931393021708797e-03,5.284379230322785656e-03,8.398780971765518188e-02
2.406487609915736181e-01,1.348262374346898551e-01,1.229342199442781808e-01,1.738998820584120681e-03,-4.192579440888853301e-03,3.941338297217916904e-03,1.127239018678665161e-01
2.394750693866192770e-01,1.263285292402088478e-01,1.187826768029109081e-01,2.513982547081974449e-03,-3.694281123817002004e-03,3.948518748688596182e-03,1.175565496087074280e-01
2.435587966718528730e-01,1.398570672914552504e-01,1.059358692554298320e-01,1.433619930887660918e-03,3.575352146126944269e-03,-1.530748832462890466e-03,1.243942454457283020e-01
2.514358199790552306e-01,1.440874274082648565e-01,1.152820321575720036e-01,5.752046377646061312e-05,4.768179504594889304e-03,-6.497658612738974266e-04,1.245597228407859802e-01
2.671659749086436331e-01,1.506934401592102679e-01,1.161909998846101799e-01,3.299038185134622707e-03,6.139422044318583807e-03,-5.343732652360664963e-04,1.375552266836166382e-01
2.668427857469529707e-01,1.544585836606657547e-01,1.167439176850734034e-01,5.181134851277499880e-04,7.974090593876492772e-03,-6.529750722847593161e-04,1.359557956457138062e-01
2.447761418529808553e-01,1.370819566129421740e-01,1.026678992111555999e-01,2.762659111717712980e-03,5.501720493428493251e-03,-1.730588554363662749e-03,1.288846284151077271e-01
2.441496222286646256e-01,1.347701569395355625e-01,1.009034273207765620e-01,1.519403064756054151e-03,5.715649574341577499e-03,-3.396311157706903474e-03,1.302101463079452515e-01
2.486799691301166404e-01,1.414032581041906877e-01,1.105706279107231682e-01,1.383975104827952704e-03,2.610177380638600917e-03,-1.328884287611568904e-03,1.256902962923049927e-01
2.471433760832835169e-01,1.418656880143623067e-01,1.073878752652993318e-01,1.618983295036543211e-03,6.749234148854029586e-03,-1.831402277072465869e-03,1.267140060663223267e-01
2.423215624311190752e-01,1.009451291174036924e-01,1.413004265653072522e-01,-1.759296863443551504e-02,-2.525746738499974869e-03,-5.953549861866030621e-03,1.302480995655059814e-01
1.771093170316319909e-01,7.341812753637327882e-02,1.094996208224186252e-01,-3.317555870881871982e-02,-8.722251571666495701e-03,-1.080148198389715812e-02,1.104196831583976746e-01
2.165675928680255713e-01,1.143619960977568795e-01,1.696567591064962188e-01,-3.187413059182141184e-02,-6.614561111425713846e-03,-1.509983618537725060e-03,1.050620675086975098e-01
2.479538456210211850e-01,1.061832374491743780e-01,1.451235656959307674e-01,-3.780555628055535383e-02,3.046193993308392561e-03,-6.996645520749932012e-03,1.433776021003723145e-01
2.761899230686440943e-01,1.497396195285819465e-01,2.007155512198366409e-01,-3.957616904019602838e-02,-2.726392826512538323e-03,-1.641096700623670120e-04,1.298595517873764038e-01
2.131154533733139178e-01,1.341420158013380548e-01,1.152498239662916590e-01,2.997778139153611365e-03,7.236492985487789215e-03,-3.718508497509580984e-03,9.116601943969726562e-02
2.139925012913883595e-01,1.588722345573925776e-01,1.163590830804024784e-01,2.201349261229572363e-02,4.421934864659839148e-02,-1.155295156602395394e-02,1.221032142639160156e-01
2.249457254631444802e-01,1.533583914861600672e-01,1.225080528372687882e-01,2.125046366033322368e-03,2.311447634513317390e-02,-8.423862293178215055e-03,1.005696356296539307e-01
1.946825161888197653e-01,1.267273115015198348e-01,1.243747193050346173e-01,7.251680226580712457e-03,1.281596669595857010e-02,-6.568006628122148409e-03,7.458712160587310791e-02
1.685825030874748831e-01,1.317954909985808165e-01,1.166731858497283975e-01,1.122112225753958172e-02,4.154636945337664838e-02,-4.372505463540142523e-03,8.804358541965484619e-02
1.659579783747273662e-01,1.503546726616308837e-01,1.255582413850692691e-01,2.695435673719681624e-02,2.565761379467868322e-02,-1.032227015815941756e-02,7.562692463397979736e-02
1.595662920232738535e-01,1.516136089029386236e-01,1.630848428239381476e-01,4.146384808152040607e-02,4.173751940906670135e-03,8.927566174491799109e-03,7.451660186052322388e-02
1.502312276639528321e-01,9.400485641066956555e-02,1.165771754543403621e-01,3.490338982578558569e-02,-1.121992458435844796e-02,5.136027769652471570e-03,8.070496469736099243e-02
2.417296118365921953e-01,1.217090133253049961e-01,1.151815384494838806e-01,-5.216481051891452315e-03,-4.942028711956848730e-03,-6.976824424213916125e-03,1.246271133422851562e-01
2.302936169318225701e-01,1.183802110320087697e-01,1.155755458837826738e-01,-8.493500540515241254e-03,-8.743370748433884621e-03,-1.062337180542140963e-02,1.167505159974098206e-01
2.426666082932443236e-01,1.404133193150042258e-01,1.295886881206479158e-01,-7.167539559087082734e-03,-8.844193592404585649e-03,-1.173633878047475668e-02,1.117218285799026489e-01
2.268190885262081902e-01,1.008826863957288378e-01,8.271849295127067792e-02,-1.201347968654170942e-02,-1.551439387112761061e-02,-2.163095582754252094e-02,1.450386345386505127e-01
2.402639488401803747e-01,1.237245514214457692e-01,1.056704712660975348e-01,-4.473864195968052689e-03,-1.097614014358458401e-02,-1.061574766812294589e-02,1.295026987791061401e-01
2.529264724689335164e-01,1.312819224638359650e-01,1.107511022507245702e-01,-7.830426831237075405e-03,-1.047872172871328229e-02,-1.197809199920761222e-02,1.366021782159805298e-01
2.428613642294396302e-01,1.361055171905517225e-01,1.086478243920737108e-01,2.894732057139382756e-03,3.627128867970110145e-03,-2.088323219985544106e-03,1.231247112154960632e-01
2.283971259844559953e-01,1.274803409693643641e-01,1.159573564085090019e-01,-2.085032739810134279e-03,5.263137431312724449e-03,4.711283572959013705e-03,1.079007461667060852e-01
2.319320944162610310e-01,1.254049202855772593e-01,1.232778016446676728e-01,-2.712933361943475896e-03,1.337762791573621039e-03,4.501068774511303612e-03,1.080156788229942322e-01
2.108761417505046754e-01,1.255228648990799889e-01,1.244932571702970225e-01,-3.726570507462103384e-03,3.216777143871528931e-03,7.166481751695708002e-03,8.718315511941909790e-02
2.256559608702114472e-01,1.328562646226783550e-01,1.249081163340855227e-01,-1.862924186376610719e-03,1.016668530721863591e-02,7.343162155565919821e-03,9.947263449430465698e-02
2.184083918296451099e-01,1.185370057365119911e-01,1.252915802337853102e-01,-2.928242529931863753e-03,2.717462000457515885e-03,5.549506907413004168e-03,9.739403426647186279e-02
2.171581971869409877e-01,1.312248536338774529e-01,1.057243638472397107e-01,1.403652784655796786e-02,-3.910268610141977991e-02,1.407657792106432187e-02,1.264861226081848145e-01
2.439418824537064878e-01,1.366319641230206439e-01,1.035474362925299929e-01,7.942366488031540276e-04,9.904069468694001732e-03,-5.840945561043447108e-03,1.286810636520385742e-01
2.085990186219022768e-01,1.317943814678737280e-01,1.120659838240142814e-01,4.167908904479282819e-03,-2.153480437376086715e-02,5.268553197128214398e-03,9.659205377101898193e-02
2.366987838822922907e-01,1.522776354943049526e-01,1.332154615921757879e-01,1.033633426843423922e-02,-1.574364682530458165e-02,9.896575078839991296e-03,1.022618263959884644e-01
1.554056925216322216e-01,1.187079687419757279e-01,8.078668163393984414e-02,8.456080998689129158e-03,-4.511423226041599843e-02,4.304098977272597173e-03,1.027246117591857910e-01
2.414906169645338885e-01,1.234361045773397225e-01,1.240442255913185576e-01,-2.068063741825608025e-04,-2.901836497239477218e-04,3.467085164558802199e-04,1.177547797560691833e-01
2.234224528231105178e-01,1.600576203739906000e-01,1.237410846484307547e-01,7.488484625879057027e-03,-2.210532263315875476e-02,1.755619992762321498e-03,9.632547944784164429e-02
2.410903085321517425e-01,1.298968792371156811e-01,1.113488455154976742e-01,2.544945167590529408e-03,2.363478196233986112e-03,-3.723374448117664718e-03,1.218532174825668335e-01
2.362464243644260553e-01,1.190380726309732129e-01,1.182204601039749670e-01,2.620820948279709798e-03,-2.886856052149217814e-03,3.234010280155234351e-03,1.179460957646369934e-01
2.349090844064055661e-01,1.231612627572883506e-01,1.201122399281712716e-01,1.872012678510250961e-03,-2.268242751948041334e-03,3.131334412026789363e-03,1.135471612215042114e-01
2.393168542862637860e-01,1.256723548637568577e-01,1.234496089811463887e-01,4.722895901974197763e-04,-1.289772269183673626e-03,1.571108914196262191e-03,1.148289218544960022e-01
2.322113078034489797e-01,1.153881662954916454e-01,1.158751793685279668e-01,2.171744244184012178e-03,-2.474744768989746956e-03,2.991902202857141951e-03,1.168347820639610291e-01
2.421703763405588239e-01,1.291946866564006036e-01,1.251798185121929530e-01,3.209635082819983255e-03,-2.656236307412898276e-03,4.393552707710800774e-03,1.155127286911010742e-01
2.405628473455619920e-01,1.239474748293958317e-01,1.228847937492232728e-01,4.860484942732016243e-04,-1.110868434356427877e-03,1.069199719123432738e-03,1.171837896108627319e-01
2.226718557519403729e-01,8.339874414686990201e-02,1.041797103580248546e-01,2.361378887525732856e-02,-1.756470702969428407e-02,2.200971983489930991e-02,1.448664665222167969e-01
2.507718304671625598e-01,1.333207493750813155e-01,1.241923003711855739e-01,4.625285126935488843e-03,-1.467666803210232636e-02,1.227734453863183958e-02,1.269363015890121460e-01
2.167699607493419611e-01,1.072935852477097385e-01,1.324545852436664617e-01,2.107607066170185534e-02,-1.120490643961147802e-02,1.304760145736227547e-02,1.099253818392753601e-01
2.307940245028304860e-01,1.117529600987914595e-01,1.187111973447785435e-01,5.536129214333019959e-03,-7.323642424731627472e-03,6.227627179383168378e-03,1.173033639788627625e-01
2.360940507687346313e-01,1.162718902435647406e-01,1.254011027084836472e-01,1.147712790017724367e-02,-5.555591245941893068e-03,1.232871724672876881e-02,1.195431724190711975e-01
2.443458166867927828e-01,1.184118029563283603e-01,1.378824589749923502e-01,1.356218266494219234e-02,-9.760700743263293552e-03,7.172057433272026675e-03,1.215664073824882507e-01
2.199978951777850356e-01,1.292858649798953596e-01,1.487502195938078253e-01,1.018530482075314346e-02,5.949926550987660575e-04,-2.634824181096674135e-03,8.470533043146133423e-02
2.318634674898772396e-01,1.277949729786469479e-01,1.195810554452506336e-01,8.181246928199828504e-04,1.319382798502804100e-04,-2.161645121857555963e-03,1.084832176566123962e-01
2.199955529227790030e-01,9.604481581485914410e-02,1.231847996257674216e-01,1.135705806817535225e-02,-3.529360793722969777e-03,4.292357082638911456e-03,1.149605736136436462e-01
2.306673732366843477e-01,1.143166666157439115e-01,1.150226976344192048e-01,3.593525611444319673e-02,2.710405164688046292e-02,-1.279052262212518679e-02,1.415081173181533813e-01
2.563915077450999447e-01,1.211516374518173123e-01,1.307614120895436716e-01,4.717825953978397290e-03,9.363864309125778315e-03,-1.163835458485224135e-02,1.334867775440216064e-01
2.491435915638096077e-01,1.220527496300822246e-01,1.037457255514795951e-01,5.426924846761635272e-03,5.286821160271163236e-03,-1.335981955838521501e-02,1.397195160388946533e-01
2.577777931852185400e-01,1.444817498785719856e-01,1.345178556571478834e-01,1.114830166631838350e-02,1.429428281036417524e-02,-1.609495964142803465e-02,1.258058845996856689e-01
2.674414332406153116e-01,1.493005750673162269e-01,1.350147294747675586e-01,6.876568453419124732e-03,1.508899552071852473e-02,-1.392626701885348213e-02,1.313613653182983398e-01
2.481280768240723134e-01,1.310094973016168174e-01,1.275059646310972572e-01,1.677154907765406391e-03,2.405380221604155530e-03,-4.313203965601613253e-03,1.192517206072807312e-01
2.586130168219316072e-01,1.266879855691926959e-01,1.262648437682433178e-01,2.945998078082258040e-02,1.380559727273195612e-02,-2.166588903610003683e-02,1.484718918800354004e-01
2.508096626074576285e-01,1.339239652674139858e-01,1.207606577629003475e-01,8.760558783416303938e-03,1.258694579234996731e-02,-2.305237861709501235e-02,1.329432725906372070e-01
2.306410264655231745e-01,8.994744010055744088e-02,9.421623712838524123e-02,1.445433065317584982e-02,1.212585897830649635e-02,-2.151217102960176902e-02,1.472023427486419678e-01
2.296118717823006916e-01,1.170815151289696932e-01,9.156071827309215927e-02,4.864236381286432195e-03,1.326959188813017256e-02,-9.354762013823233330e-03,1.305680721998214722e-01
1.887289298212618815e-01,1.465190707679454307e-01,1.220338673891335213e-01,1.507000413197152801e-03,1.087915461809814931e-02,-2.855611030422809324e-03,6.165273115038871765e-02
1.680578914270697000e-01,1.526679096804185176e-01,1.337865432071609351e-01,1.478678583088596440e-02,1.839346334113849124e-02,-6.540747565970564219e-03,5.179952830076217651e-02
1.893755472347910529e-01,1.424815717346080146e-01,1.403891691017482013e-01,7.344543337426057833e-03,8.869758694489329048e-03,-3.056455356807240460e-03,5.222465470433235168e-02
1.639478572787232968e-01,1.472425179540474416e-01,1.391605256156830950e-01,4.247462941953623200e-03,1.334792435492911447e-02,-2.033670038480839617e-03,3.286990895867347717e-02
1.703031875326378175e-01,1.520499414277642347e-01,1.557450417132163201e-01,-1.711281372641424705e-03,-3.153809509954620671e-03,2.449120879324008081e-03,1.833048649132251740e-02
2.004769875491434206e-01,1.581168030181371864e-01,1.454240001023798801e-01,-1.791093478596428063e-04,8.695039840156910949e-03,-1.189745819426504380e-03,5.219497904181480408e-02
2.700979308648849830e-01,1.618143716880493244e-01,1.164830639573066207e-01,-7.132845569608668897e-03,4.493076976425672969e-02,3.640437925806902768e-03,1.579164564609527588e-01
2.055119188490900917e-01,1.251144875226012365e-01,4.467867266034403206e-02,-1.291844058840082004e-03,6.559849320918939575e-02,-2.617423470323411959e-03,1.798208802938461304e-01
1.880435163206608251e-01,1.170149194021068290e-01,7.401043979852628407e-02,4.657210443620825140e-03,3.538819717890032135e-02,-5.234698952372740868e-03,1.176998019218444824e-01
1.382273064498366899e-01,2.021403915511731375e-01,1.688954861743433011e-01,1.497462066478562684e-02,-7.595664612901067980e-02,3.565601871818504815e-03,1.452047377824783325e-01
2.552226036392775677e-01,1.307715694980970955e-01,1.372878363545862734e-01,-1.211184397373494918e-02,7.567859136766622030e-03,1.618269371422588129e-02,1.269531846046447754e-01
2.681481473670487836e-01,1.363041293268796861e-01,1.445273153837899616e-01,-1.061866155042309572e-02,9.072732794193115805e-03,1.614862455542962968e-02,1.331684440374374390e-01
2.430225716821436399e-01,1.133667348026037441e-01,1.149887506225781009e-01,-1.565023746494692905e-02,1.536274752419618077e-02,1.921616203920818028e-02,1.383964568376541138e-01
2.388122916553782893e-01,1.100141075186619188e-01,1.098781884019686406e-01,-2.596391450556042452e-02,3.643408049946906396e-02,2.200170280280315180e-02,1.551238894462585449e-01
2.352581946810222979e-01,1.237946448715584735e-01,1.461244674513390018e-01,-3.853941203174226365e-02,2.580653001240028679e-02,2.540366125959353516e-02,1.371991634368896484e-01
2.495656709156975350e-01,1.286997455590283834e-01,1.430953453492558591e-01,-1.136320586468069632e-02,8.708560373870662466e-03,1.415865695734469000e-02,1.195498034358024597e-01
2.147096335441816273e-01,7.583604430069491864e-02,9.509470273571146715e-02,-2.490411066175137952e-02,1.828544784886552976e-02,2.452977615264287717e-02,1.471431255340576172e-01
1.627480077051325913e-01,1.330435817957653089e-01,1.469642731533442881e-01,-1.226829890208294346e-02,2.961899338772276333e-03,2.964780306672713892e-03,3.415924683213233948e-02
2.541551034910556894e-01,1.250433352954714583e-01,1.330197850791427494e-01,-8.203774599705962456e-03,1.363651850928906777e-02,1.330098063849087173e-02,1.303615570068359375e-01
2.380730724110655117e-01,1.260542713532987746e-01,1.182730841818532691e-01,-7.406671000404091779e-03,8.272787758170533495e-03,9.038734258230618837e-03,1.187239959836006165e-01
1.942093959240057122e-01,1.173446323214538817e-01,1.351305798569183148e-01,-1.858173930046214117e-02,3.249097610171259275e-03,8.471697121375352407e-05,7.697372138500213623e-02
2.523368320176900825e-01,1.221962733016173641e-01,1.314644187133165720e-01,-4.587699533599676367e-03,6.406373065616560725e-03,6.649865990428975408e-03,1.270245313644409180e-01
2.372880426193235415e-01,1.180017999577328419e-01,1.187863709921651023e-01,-1.799895609535162718e-03,1.910228143821884883e-03,3.426255032683634457e-03,1.191306784749031067e-01
1.498425457404144179e-01,1.430087286457411011e-01,1.604603453188822582e-01,-2.985928034966479211e-02,-6.518625567549615925e-03,-5.505580905925589255e-03,5.590295419096946716e-02
2.465718373672303454e-01,1.238548830989668892e-01,1.245754347360249481e-01,-2.631968434021074443e-03,1.526508218184539976e-04,3.882107604012206663e-03,1.226279363036155701e-01
2.198976032091193300e-01,1.364809580632320163e-01,1.576686375685725228e-01,2.477370560522477311e-02,-9.231556699885679063e-03,4.861514106063846881e-03,8.836077898740768433e-02
2.159249817307585251e-01,1.200409413459140595e-01,1.457081483029718794e-01,2.676283608533534461e-02,9.787945834515426533e-03,-5.096595366592101065e-03,9.952670335769653320e-02
2.414592325369704362e-01,1.247620764214276978e-01,1.238185813181834627e-01,1.918562709579913828e-04,-1.968363318799949390e-05,3.970729055659159238e-04,1.171742454171180725e-01
2.251956313855535408e-01,1.124902252409095693e-01,1.387247863220200661e-01,7.996406164905659614e-03,4.292959809993786291e-04,-2.513321112697155212e-03,1.031761318445205688e-01
2.226802285753307631e-01,1.090768694052191845e-01,1.349158468881913875e-01,8.471806019109483221e-03,1.865541334184749067e-04,8.792157678437183266e-04,1.041907817125320435e-01
2.250626986443291511e-01,1.195686357914655107e-01,1.420419972292730204e-01,9.905203892094321602e-03,3.326275454797373438e-03,-2.998475607773285270e-03,9.807011485099792480e-02
2.204360583653111605e-01,9.107740272678487015e-02,1.250465168395685500e-01,1.560652758218248649e-02,-1.127888905936826058e-03,1.286850090351885885e-03,1.193014606833457947e-01
2.263333710430471268e-01,1.160587368169798683e-01,1.391341491386639539e-01,1.187841652909017894e-02,1.334404002108502418e-04,-4.973052787705197668e-04,1.028222888708114624e-01
2.109242170814523420e-01,9.630469728418250552e-02,1.271257126586365638e-01,1.713498760262094356e-02,1.995319406648559616e-03,-2.385141665993626044e-03,1.070734038949012756e-01
2.418428640009370190e-01,1.286063533315091323e-01,1.125451261042298423e-01,4.249122733481341778e-03,-6.736540972481831237e-03,6.343166357469965863e-03,1.233296543359756470e-01
2.410255884777693369e-01,1.185839069669509249e-01,1.181121510697555888e-01,1.510849702880757810e-03,-1.706766636633873192e-03,4.429751432127422388e-03,1.229813247919082642e-01
1.780781198415125610e-01,1.505089799972431919e-01,1.453473038433098219e-01,2.105655457594441185e-03,3.982282594874079866e-03,1.048591622673015339e-03,3.151474520564079285e-02
2.082098048994846795e-01,1.485406230458690413e-01,1.362737478591586338e-01,1.073479095859867366e-02,1.358691188544923663e-02,-5.384142021615656928e-03,7.368397712707519531e-02
1.684650913110369574e-01,1.193584243588476645e-01,1.086769024330027783e-01,3.246552182808012856e-03,1.881567738874687784e-02,-3.731293130658217428e-03,6.469598412513732910e-02
1.612152691074001665e-01,1.241901372605214160e-01,1.198217452633325575e-01,1.020401593318506599e-02,1.125694272245037278e-02,-5.834386535277723621e-03,4.843888804316520691e-02
2.418609353195911305e-01,1.142060782925266860e-01,1.219996765694772722e-01,5.181660726559724102e-03,-5.333339030341827450e-03,6.710382942707647166e-03,1.251502335071563721e-01
2.431916221722546512e-01,1.212981521177723399e-01,1.211076924273795097e-01,1.716382212364603354e-03,-1.086810898958726589e-03,4.538514714022092757e-03,1.222924590110778809e-01
2.437327184274508673e-01,1.254981513875358390e-01,1.301584680790523751e-01,2.185137046792562203e-03,-2.993328166464360052e-03,3.758000226744698594e-03,1.163344010710716248e-01
2.273502912810707599e-01,1.080449239900697911e-01,1.217389550721142549e-01,8.527316148792086353e-03,-5.471450018421530025e-03,6.241943209110060661e-03,1.149450615048408508e-01
2.462293586942244650e-01,1.258103343118147366e-01,1.312427362443382151e-01,1.767397573837707365e-03,-2.395707546177481672e-03,3.949789055900777487e-03,1.181079149246215820e-01
2.113010836025001338e-01,1.256193206414503161e-01,1.287795620754186576e-01,2.413947080654562510e-02,2.406689902437214243e-02,-7.016389244844523608e-03,1.035087183117866516e-01
2.174254371202670733e-01,1.221133436383176063e-01,1.210247691408665727e-01,2.600048516676935206e-02,1.799426966407779646e-02,-1.321593366426732259e-02,1.127509400248527527e-01
1.934896632636448621e-01,1.260138202918982819e-01,1.399981784540589858e-01,2.235046544365568849e-02,1.471719671991794653e-02,-1.187371722196140650e-02,7.985185086727142334e-02
1.825009382354953469e-01,1.311045830757509023e-01,1.452028285737521351e-01,2.328799210392867164e-02,-2.886140427660405065e-03,4.280966156624372524e-04,6.138630583882331848e-02
1.707415659460427282e-01,1.369322736066271862e-01,1.551775171662674313e-01,-2.130880973375605739e-02,-2.378645320395253709e-03,-9.354408161830483947e-04,4.733807593584060669e-02
2.387424510308135683e-01,1.239355807293738843e-01,1.341577933741727180e-01,1.273872137717536705e-02,7.097286122983589851e-03,-6.747062878706234362e-03,1.135166883468627930e-01
2.429743377097416390e-01,1.118837141787618894e-01,1.342957309114245767e-01,1.017102125798361248e-02,5.324048049610314616e-03,-8.966513001934194732e-03,1.240388080477714539e-01
2.018625996574273662e-01,1.049774537072434288e-01,1.321960427558822315e-01,1.805676873556599435e-02,1.286086853465713206e-02,-5.965123245001598129e-03,9.524495154619216919e-02
2.398425947593431362e-01,1.252701684303013097e-01,1.234937966608805476e-01,-3.305714855186355394e-04,-1.319069613188437768e-04,1.344052799884787189e-03,1.154959723353385925e-01
2.096919205804765318e-01,1.053233172425712683e-01,1.163572207517201973e-01,9.278097722788897217e-03,6.396284220848788386e-03,-7.070892601014448775e-03,1.019506677985191345e-01
2.449100476759278333e-01,1.198700481535756868e-01,1.231851632417288733e-01,6.776072719440279224e-03,5.473745518156880596e-03,-1.030633036910730098e-02,1.256095618009567261e-01
2.459590455832648126e-01,1.267009887949204217e-01,1.181182038937658996e-01,7.545556801168193774e-04,1.232022740547465732e-03,-2.896626704690538796e-03,1.238997504115104675e-01
8.249061870659649132e-02,1.038520971498871487e-01,1.206989270871318132e-01,-4.409767898069392317e-02,3.099973940544800688e-02,1.194750139436676420e-02,1.012175753712654114e-01
2.471798559394033923e-01,1.445065977219929521e-01,1.343792824299592514e-01,7.442078812116153380e-03,8.957572338608119425e-03,-8.630227189624615353e-03,1.109706088900566101e-01
2.333081076348733351e-01,1.341848797553218675e-01,1.150508029420405365e-01,5.544252661537374741e-03,1.986751224818073674e-02,-1.306136528273318768e-02,1.177978217601776123e-01
2.776772565363187506e-01,1.683889629679387323e-01,1.349865915028356511e-01,2.083337178956773741e-02,3.565960614183161931e-02,-2.215085535457056443e-02,1.526401937007904053e-01
2.477616252142632591e-01,1.214913373391352525e-01,1.295973055728465440e-01,3.060618187762021401e-03,7.306131050602753321e-03,-7.533498883701385956e-03,1.238743364810943604e-01
2.402957884202827910e-01,1.253279660678452700e-01,1.251631881752817144e-01,6.933919654527389946e-03,7.542543126640449506e-03,-7.620360522588200645e-03,1.171566843986511230e-01
2.293984666474524203e-01,1.418664491463153543e-01,1.019875066622715487e-01,2.152883701848715137e-02,-4.280660381290544297e-02,1.321416377177173085e-02,1.419661939144134521e-01
2.130438760201444071e-01,1.413877416363797657e-01,1.196005687353097480e-01,1.211153380448680775e-02,-3.639605180526937073e-02,2.104634320601014852e-02,1.136371344327926636e-01
2.045161447756401740e-01,1.155995026126834246e-01,1.082613042328992997e-01,2.567414175368907397e-02,-2.980330627760423984e-02,1.911228620619089685e-02,1.197937428951263428e-01
1.469402337496891475e-01,1.762875564947418427e-01,1.542047786669256959e-01,-8.271241677220061636e-03,6.221357713378708465e-02,-9.311436293427758845e-03,1.130388453602790833e-01
1.756960032363420743e-01,1.433877042513855005e-01,1.518714994840975607e-01,3.656975467477906194e-02,3.008450747593495803e-02,-1.454075217677485224e-02,9.057194739580154419e-02
1.831677943840570311e-01,1.957405033537683303e-01,2.134337303309839784e-01,7.114754302047834877e-02,4.147545604276694359e-02,-1.149330558249521753e-02,1.464118212461471558e-01
1.350809416524141049e-01,1.442679715854978950e-01,1.258568889052366080e-01,7.495210538666831346e-02,4.699589217567078786e-02,-1.743877421211722026e-02,1.569899767637252808e-01
1.360521511338339817e-01,1.351775327694643147e-01,6.859820489340689997e-02,2.610431534419273281e-02,7.126777474146206437e-02,-1.371658911359137367e-02,1.494584530591964722e-01
1.394113948251702317e-01,1.109317002607232289e-01,1.035761808821509256e-01,3.929229934578113564e-02,4.149859337296654682e-02,-1.631622798882486833e-02,1.080342158675193787e-01
1.214401059073423605e-01,1.210400369890931166e-01,1.039458174710727600e-01,3.427139023344993873e-02,6.246200908475743607e-02,-1.138326326216941055e-02,1.261587888002395630e-01
1.397159690332367699e-01,1.017020091499030027e-01,1.090128395732924277e-01,6.346124837729373580e-02,6.016475660723014096e-02,-4.451852169230684914e-02,1.735156327486038208e-01
2.265784561364557748e-01,1.085909400066397829e-01,1.162562984828664492e-01,-1.223896990158186704e-02,9.717234139236809523e-03,1.149897119566807048e-02,1.191835775971412659e-01
2.405706970193484118e-01,1.192407681359372862e-01,1.190124462073691436e-01,-1.996253643925586813e-03,1.636202052450717826e-03,3.471898876885464585e-03,1.216752007603645325e-01
2.287957732015691859e-01,1.018334498022875068e-01,9.960233211895180849e-02,-1.535556268035997811e-02,1.128185785145520426e-02,1.988383824635876762e-02,1.366857737302780151e-01
2.548072019125104948e-01,1.317346936760503961e-01,1.169374519423178466e-01,-5.347240912258196567e-03,6.003599480254235773e-03,9.162962303003526973e-03,1.327882558107376099e-01
2.433080740727310010e-01,1.201863101840278253e-01,1.197926290054000670e-01,-2.166239287455090092e-04,9.525759010409863906e-04,4.302914187033080561e-03,1.235556676983833313e-01
2.498126559065581287e-01,1.315836054808199318e-01,1.276213004225348335e-01,-1.322678453137430881e-03,6.413636345845323203e-04,5.646896407524898583e-03,1.206831112504005432e-01
2.387698580363349365e-01,1.219571774751926074e-01,1.233363168024115691e-01,1.547452110095511914e-04,7.753799712330662793e-04,-7.869410948561307486e-04,1.161453276872634888e-01
2.372437782951794250e-01,1.116784027283352076e-01,1.189544902019482875e-01,-6.215455519433311406e-03,3.023129126564277121e-03,5.841157366691564733e-03,1.230920404195785522e-01
2.434007527571859231e-01,1.173072923532538919e-01,1.251861421493457305e-01,4.610379170075360920e-06,2.632699253108720244e-03,2.886004481934154216e-03,1.225314065814018250e-01
2.524767506468951206e-01,1.264129363720117027e-01,1.299280689579471737e-01,-2.899080216680360780e-03,2.484851257555199117e-03,5.837200343914304007e-03,1.249290481209754944e-01
2.458232126159257680e-01,1.272605814135867042e-01,1.269218295199034952e-01,-1.396151942236129604e-03,1.080054775999785693e-03,1.631524189642185501e-03,1.188053414225578308e-01
2.316382501028605434e-01,1.905058945238600754e-01,1.619862261615026555e-01,-5.444349724214403961e-03,-4.435165580155334825e-02,-1.735771317695317421e-03,9.837424755096435547e-02
2.002152631135449001e-01,9.680131135155822797e-02,1.257709932053153734e-01,1.860916318943287365e-02,1.944088848519296775e-03,2.313964676031499395e-03,9.800063073635101318e-02
2.266159377665364905e-01,1.440181962361849477e-01,1.609775628224650312e-01,1.517057475043109491e-02,-4.778773832836341606e-03,6.334551114353029547e-03,8.116976171731948853e-02
2.022318999048120236e-01,9.983432639882106052e-02,1.303838319618419728e-01,3.112016536081504969e-02,1.209755216916316191e-02,-7.672350331457892907e-03,1.086801812052726746e-01
2.378893074472667735e-01,1.311250948286966089e-01,1.241858367060492407e-01,1.624085047574350864e-03,1.596437010854330051e-03,-1.919005025876333948e-03,1.105179712176322937e-01
2.203715298908454356e-01,1.274460921800286695e-01,1.322200315283758310e-01,1.648627172990289533e-02,-1.383627842577054776e-02,1.483574689039186822e-02,1.013130024075508118e-01
1.896694086016764147e-01,9.951314987541284851e-02,1.257445323850774344e-01,1.926858911507919880e-02,-2.181802541496912569e-04,2.115402574320002314e-03,8.705582469701766968e-02
2.503968926611183088e-01,1.267578249312457384e-01,1.492746076484348650e-01,1.456819523211696187e-02,-7.638911102577982531e-03,9.049879490193958598e-03,1.186049208045005798e-01
2.349781498097782695e-01,1.192598957564949547e-01,1.144849057115425728e-01,6.725601949269158393e-03,-8.536738218716892132e-03,6.733193480688006057e-03,1.202347874641418457e-01
1.903040154970352116e-01,1.218486422502182698e-01,1.493706693433896338e-01,3.247738188230329254e-02,-2.035134555804897147e-02,5.947219551398239684e-03,8.984737098217010498e-02
2.398598451505404849e-01,1.265789468351466440e-01,1.238639329529533095e-01,8.311553281117357861e-05,9.876563139236548168e-05,1.426213487935334024e-03,1.146893426775932312e-01
2.484194761368563598e-01,1.446817862633855700e-01,1.286300135245733722e-01,1.060568896500355823e-02,1.473431281133613831e-02,-8.406443297180394431e-03,1.178350076079368591e-01
2.099920970395224573e-01,1.337019216244831610e-01,1.384813761042915647e-01,1.928464243812385778e-02,4.081133494278763041e-02,-2.242376442510372880e-02,1.144520491361618042e-01
2.077387424089814361e-01,1.430414417468648114e-01,1.132990753202263723e-01,4.725994109714810876e-03,1.708350152827458820e-02,-7.501626766654993783e-03,9.003313630819320679e-02
1.710482710103717052e-01,9.395325188393954807e-02,7.062264507700941052e-02,2.175688153536181266e-02,3.592374133522783369e-02,-1.850294818422334314e-02,1.208525598049163818e-01
1.874791178579179596e-01,1.282341135864699389e-01,8.952560823644301058e-02,1.035681186895313910e-02,3.771837893722116558e-02,-1.729647453447391570e-02,1.130881384015083313e-01
2.274074572896527813e-01,1.277370482778260874e-01,9.724340873726965151e-02,2.233104246158407104e-03,1.403032332973675952e-02,-3.845638146523796316e-03,1.206368207931518555e-01
2.846490249819157436e-01,1.824624514795450403e-01,1.452462564972275272e-01,9.381556473914833688e-03,3.844858057115552868e-02,-1.608849300317899411e-02,1.452775895595550537e-01
1.903892457412497130e-01,1.282609640063647749e-01,8.888085488712887949e-02,4.969914291688279188e-03,5.158808821340024608e-02,-7.933574755153690108e-03,1.269025355577468872e-01
2.270068059470581878e-01,5.101256040397585123e-02,1.096534392416080028e-01,3.279217463829534052e-02,-2.598667138452173328e-02,3.375220931926845025e-02,1.810022294521331787e-01
2.714983974524425303e-01,1.137255811951037310e-01,1.641318047075545628e-01,5.075865215981029653e-03,-1.137469814166266417e-03,6.956788389149536588e-03,1.403804868459701538e-01
2.761597627551185541e-01,1.173639471740991064e-01,1.674665047039922139e-01,6.067003177092513896e-03,-3.210378390687574583e-03,6.489760753986601252e-03,1.415556371212005615e-01
2.623268020189514771e-01,1.170222190970520437e-01,1.467450158699226959e-01,1.006012182569782087e-02,-1.962220143138178590e-03,9.528157830774534875e-03,1.351500451564788818e-01
2.908304671629060589e-01,1.273050442099323831e-01,1.895216329464045335e-01,2.021670760019769753e-02,1.726543045864841310e-03,1.101803250177412104e-02,1.484478116035461426e-01
2.561638956561075875e-01,9.491088158123109353e-02,1.411697578384102092e-01,9.413902851712374273e-03,1.425137310882112303e-03,1.779367653391506279e-03,1.447912007570266724e-01
2.944232875214245482e-01,1.190357209880275186e-01,1.635130529592674076e-01,1.605904147254094694e-02,-9.310419259818186397e-04,1.340257338214560778e-02,1.620290875434875488e-01
2.502714320789040103e-01,9.607401056421670249e-02,1.329558132751846034e-01,5.864772245831419324e-03,-2.736225127741354502e-03,7.468382529806051433e-03,1.405098289251327515e-01
2.439893356339086772e-01,7.498960621537181792e-02,1.128244570733202834e-01,2.321027664014152503e-02,-8.578034072212760083e-03,1.634594805675266757e-02,1.619776934385299683e-01
2.598852797546263305e-01,1.347454123174361973e-01,1.347003729919149517e-01,-5.903973758879818221e-03,-2.235133691013200478e-03,-1.246146226070354857e-02,1.274795979261398315e-01
2.112509211194092962e-01,1.147498793018391638e-01,1.321291001129444587e-01,4.480771173273967803e-03,-1.859867705608445445e-03,4.275364610225476300e-03,8.979321271181106567e-02
2.237736243722022178e-01,1.242462637306600143e-01,1.403035596933804308e-01,8.926561374079624439e-03,-2.296451010952037589e-03,4.247763110699437350e-03,9.420400112867355347e-02
2.191566086691595361e-01,1.325694353393790104e-01,1.410660482607856703e-01,9.223345575806864843e-03,-7.689693156055933849e-03,8.691395746380496667e-03,8.656245470046997070e-02
1.966986271855568902e-01,1.211244378432297236e-01,1.298730713167843553e-01,5.813734639729024184e-03,-3.113226188150182254e-03,5.778885091470419878e-03,7.319486141204833984e-02
2.039233208228266869e-01,1.213158914084683654e-01,1.244398831790386184e-01,5.831432240397744354e-03,-5.546920094489128650e-03,6.629164843131579200e-03,8.307731896638870239e-02
2.434195334375281461e-01,1.191817374462718071e-01,1.394840230110420409e-01,1.114594481595193240e-02,5.361471799663427087e-03,-1.384873792000982512e-02,1.198298633098602295e-01
2.611137456917247968e-01,1.373792504851675256e-01,1.504735608232792288e-01,-1.392865477273732416e-02,9.199750900260379727e-03,1.403917216126952631e-02,1.236474514007568359e-01
2.297380400551297663e-01,1.077102623460661768e-01,1.372490727665405807e-01,-1.090946706639082768e-02,4.051867686552551584e-03,3.622448580179935245e-03,1.122694686055183411e-01
2.456230725160559736e-01,1.247644537785152219e-01,1.506989641749895970e-01,-2.679099717879785195e-02,3.712913711519951875e-03,1.278280303594321252e-03,1.197686418890953064e-01
2.481863865517083545e-01,1.323937803895642584e-01,1.442976559855558283e-01,-1.089466964232854371e-02,6.026771663430439269e-03,1.194487937954831318e-02,1.142993271350860596e-01
2.351094646333346527e-01,1.101588881487425980e-01,1.292969875189491080e-01,-7.512490107519287016e-03,6.647672108205564603e-03,7.219487575315619056e-03,1.185151785612106323e-01
2.217314626950950829e-01,9.053941947961871572e-02,1.378785706183225934e-01,-3.597876770068136887e-02,8.675292341895752407e-03,8.097641592449264167e-03,1.324678808450698853e-01
2.190173476674192043e-01,1.161605930996245928e-01,7.348823060239577376e-02,-7.562068013948920059e-03,2.755722264423159790e-02,1.274115437299169068e-02,1.404505223035812378e-01
2.515191347543448974e-01,1.360299214376991250e-01,9.677206718099648497e-02,-8.576163219995176085e-03,1.377676048180487278e-02,1.029946048678190285e-02,1.432518064975738525e-01
2.817695194634189382e-01,1.531452963199277095e-01,1.116370026468188198e-01,-3.922423432315455538e-03,2.827776406837444537e-02,1.216033767942878083e-02,1.627721488475799561e-01
2.578304890777642910e-01,1.482706049604851917e-01,1.185954106663903163e-01,-6.442874005303965076e-03,1.158029652573430539e-02,8.203152403213060176e-03,1.298611313104629517e-01
2.721612365294023839e-01,1.600321525325947569e-01,1.217213846401133115e-01,-1.285985960114579109e-04,1.099163487675502461e-02,3.906764448784201711e-03,1.369112282991409302e-01
2.392442280322332748e-01,1.284377223685242986e-01,1.306134513819842136e-01,7.762927984511649483e-03,5.894964178243027909e-03,-9.513335703588046699e-03,1.122420728206634521e-01
2.009635955856989842e-01,1.445365078272036752e-01,1.266333660960773377e-01,-2.430804818438640075e-02,2.874807177027659949e-02,2.081594712568652153e-02,1.003327965736389160e-01
2.341168941745833676e-01,1.443443434503328959e-01,9.589226133912220895e-02,-3.969600868248542719e-03,1.784164889423050029e-02,2.679368748764396086e-03,1.256191283464431763e-01
2.287945052637125887e-01,1.430886479920900345e-01,9.575108596615780621e-02,-5.759040125441689147e-03,3.112136299670912112e-02,1.271070445208513080e-04,1.290294975042343140e-01
2.371313327892697054e-01,1.170913171463749264e-01,6.787418544371076612e-02,-7.506112832052648683e-03,-2.103347980716780558e-02,-1.957701303396828033e-02,1.593297868967056274e-01
2.752569957319291327e-01,1.577838831312148027e-01,1.263434747344837350e-01,-5.013732897575076675e-03,-6.052038579675093552e-03,-1.108509563738016741e-02,1.379701644182205200e-01
2.074991277203000750e-01,1.131578247608523713e-01,8.747336356126181323e-02,-1.225498417608803133e-02,-2.924375863011620391e-02,-1.241879028163770000e-02,1.243459060788154602e-01
1.818925718364379773e-01,1.130967189327967831e-01,8.486036769529611834e-02,1.097765020840594380e-02,-3.214856011321214069e-02,6.605657553656391588e-03,1.051937490701675415e-01
2.355478013140405169e-01,1.272988699189025463e-01,1.248954194439725052e-01,2.653544161462834724e-03,-4.609211678662160534e-03,4.936876846764838567e-03,1.101896315813064575e-01
2.306277264877402422e-01,1.241084184557536135e-01,1.193093531936468554e-01,2.836633553943174180e-03,-2.529611456393117061e-03,3.887016196988989439e-03,1.094040647149085999e-01
2.234107886315425118e-01,1.210292948795698986e-01,1.177021417729211678e-01,1.152683306670118646e-02,-1.036521786700575661e-02,6.467659944758488190e-03,1.080744564533233643e-01
1.950319164806392225e-01,1.229357134696286852e-01,1.377005222908706250e-01,1.415957374840152300e-02,-1.223577321205511319e-02,6.043047003085324706e-03,7.423984259366989136e-02
2.130016885380623670e-01,1.587325704886121958e-01,1.759310965790564507e-01,3.146985997100927579e-02,-2.003520739763102118e-02,1.181313460727384870e-02,8.307534456253051758e-02
2.027998621959800629e-01,1.806093989038028702e-01,1.629837334279055083e-01,-1.742585452973862206e-02,-2.860628077206137446e-02,-7.212175442734156984e-03,6.867450475692749023e-02
1.918386073416754323e-01,1.773552989350720699e-01,1.654209737211570774e-01,3.494164547732476686e-03,-3.889802870446913002e-02,2.635870502993051950e-03,7.156594097614288330e-02
2.499604221184691943e-01,1.636058125812961672e-01,1.317415724757739770e-01,-5.740727313602258033e-03,-1.916474716697702529e-02,-7.886775322125144649e-03,1.123005151748657227e-01
2.525656076229528813e-01,1.782759466761822953e-01,1.392870524054248826e-01,1.856018294964934499e-03,-2.145861849366212729e-02,3.064850477747851627e-04,1.064311638474464417e-01
2.046182912387519981e-01,1.523102501240379270e-01,1.265732035192585481e-01,1.416783279574952616e-03,-1.976179357373205464e-02,2.410963864169516670e-03,7.707027345895767212e-02
2.208722562947147972e-01,1.537893262402330041e-01,1.195538036087147316e-01,2.228221804291138225e-02,-3.866756000702320506e-02,4.246390775752928101e-03,1.183128803968429565e-01
1.606130993217159686e-01,1.157749725203396779e-01,1.186734775513943324e-01,-2.461724879336082972e-02,-3.202519879096411837e-02,-1.533628461081259532e-02,8.654113113880157471e-02
1.951210260591421664e-01,1.182781243575849045e-01,9.606600196316841811e-02,-1.799037821327140879e-02,3.159500135972439366e-02,1.402572433359660850e-02,1.125207096338272095e-01
2.176102553433169051e-01,1.653048221645559424e-01,1.180468727619176372e-01,-1.147176943227755375e-02,2.881256161895883947e-02,2.168236072371898179e-02,1.083360016345977783e-01
2.597907835352794570e-01,1.551789909335228868e-01,1.247315387606905829e-01,-6.792248318814164167e-03,1.291873138563160058e-02,8.922560737223424188e-03,1.262289881706237793e-01
2.541138687573035737e-01,1.280697533096870344e-01,1.343599646232862543e-01,-1.130944292373699256e-02,7.168078501207799692e-03,1.210033312510198043e-02,1.269289255142211914e-01
1.855391436659480364e-01,1.182768067461351102e-01,7.770950195989964615e-02,-6.216862658495621828e-03,3.703115330539205607e-02,9.063472795665388979e-03,1.156498417258262634e-01
2.647090269822804376e-01,1.697631400254509260e-01,1.209074187235702896e-01,4.573604010455480443e-03,3.172289988849399944e-02,5.113146658140563586e-03,1.385657489299774170e-01
2.361118052771135900e-01,1.266895350770892159e-01,1.302228520332352479e-01,4.220211756434239653e-03,-3.752655648751487133e-03,6.097781836515608553e-03,1.086568906903266907e-01
2.268481726556282885e-01,1.136978849899474148e-01,1.293971283951684814e-01,4.747604019544295756e-03,-2.187917044328303341e-03,3.912318833166220609e-03,1.067753657698631287e-01
2.350217028658725948e-01,1.191506292453290150e-01,1.260080421408468210e-01,9.743106848086085375e-03,-5.611759801344894105e-03,9.927647033062663232e-03,1.155572980642318726e-01
2.380579665110431620e-01,1.189116108726025745e-01,1.277452204727417551e-01,5.893498448384586023e-03,-4.762970757018300527e-03,5.074995214871915079e-03,1.160642877221107483e-01
2.146577457969813252e-01,1.159195643119103059e-01,1.255625499722134442e-01,1.097170317974591192e-02,-7.129103864532248223e-03,7.174134955037009959e-03,9.776552021503448486e-02
2.716323577720131666e-01,1.483778546333222037e-01,1.380832063215882144e-01,1.205933273152789411e-03,3.819503632663637542e-04,8.370612037042682654e-03,1.295434981584548950e-01
2.924434733395849806e-01,1.631574569192886515e-01,1.384974685061567679e-01,1.472624659729900726e-02,-1.887693372559168595e-02,1.655103639259556184e-02,1.518308073282241821e-01
2.489576480637275546e-01,1.339485890250546596e-01,1.068959524362886881e-01,7.052160557605249326e-03,-1.354170712593653556e-02,1.054713004998087018e-02,1.345484554767608643e-01
2.413220120993831430e-01,1.267621937095506912e-01,9.757997146223075513e-02,6.047074027960288103e-03,-1.051636154963587512e-02,1.176288304575655481e-02,1.348155885934829712e-01
2.769568749396799090e-01,1.590161509703259257e-01,1.091669810697182413e-01,-7.264983776465103182e-03,-4.084459054269713729e-02,3.674000208329251168e-03,1.657645255327224731e-01
2.547171486901410598e-01,1.538598573901611699e-01,1.208043329803053512e-01,6.930456017226411039e-03,-1.693064720000654610e-02,3.277663161181933790e-03,1.250400543212890625e-01
2.207946408534557370e-01,1.200005873439094761e-01,1.009065440012789500e-01,8.222659640441439682e-03,-1.834067700815120161e-02,1.185658445262336921e-02,1.186688840389251709e-01
2.483115813501323710e-01,1.501591989889693168e-01,1.138061046979559343e-01,5.175378667390022162e-03,-2.547979642235466413e-02,7.067690123686955379e-03,1.292340904474258423e-01
2.329306241698598789e-01,1.226491662255626697e-01,9.774506974109756219e-02,2.106352591413446912e-02,-2.408772094067660602e-02,2.341812350762098593e-02,1.422869265079498291e-01
2.606509896360605372e-01,1.366666130254315659e-01,1.136039370359751277e-01,8.814595292337169818e-03,-2.370909227729027166e-02,1.206943615389023672e-02,1.453268527984619141e-01
2.470919379156785722e-01,1.519805447790362474e-01,1.261299745862802801e-01,9.545863213257108071e-03,-2.653841525509982244e-02,1.222422950953838162e-02,1.225056797266006470e-01
2.381622064549142603e-01,1.180140639659970347e-01,1.242747491236851631e-01,4.512559391074615154e-04,-1.500876831938785169e-03,1.367915056548115729e-03,1.171987429261207581e-01
2.580624461467438957e-01,1.721093298048673170e-01,1.439778475006736613e-01,2.068682228264321493e-02,-3.753548808895680600e-02,1.954383078725381584e-02,1.313535869121551514e-01
2.343448866854322132e-01,1.191654511700651065e-01,1.005134504459489764e-01,1.772019900027311731e-02,-2.606784586824067301e-02,2.814074571971574359e-02,1.453232467174530029e-01
2.163670068645608402e-01,8.319130541342220631e-02,1.221402688743299797e-01,2.338142995911850555e-02,6.413661330035179062e-03,-6.539595820561904492e-03,1.263230443000793457e-01
2.461326743724739641e-01,1.137477761945102084e-01,1.465949817459659132e-01,4.969858519200032534e-03,-6.708877577223755148e-04,-3.234533264235285501e-03,1.198459938168525696e-01
2.886916659143377029e-01,1.327297500533142216e-01,1.890127572962620461e-01,2.221306172963830386e-02,5.314755468479868614e-03,-1.045199050485576611e-02,1.435500681400299072e-01
2.560524711760297500e-01,1.180913703944130866e-01,1.508387991784251869e-01,4.067188042936201696e-03,-5.576078172767657973e-04,-3.962903288551773880e-03,1.252416074275970459e-01
2.645376653469235784e-01,1.188438374837787609e-01,1.537758973865488432e-01,4.631727556252608624e-03,-1.307265865807026280e-03,-3.321511617047547688e-03,1.321368068456649780e-01
2.366429601470140531e-01,8.467874224446619857e-02,1.274619890702900771e-01,1.568821789202635639e-02,2.316799349752255831e-03,-7.240125416497800691e-03,1.390457749366760254e-01
2.783171037143319926e-01,1.137719473639427908e-01,1.744574575448321618e-01,1.305527645370706258e-02,6.803936354718194933e-03,-3.186326609246716186e-03,1.464684009552001953e-01
2.500801383598321159e-01,1.282330676350568743e-01,1.187040317559628910e-01,1.240430241332998338e-03,2.371622700248757296e-03,-5.969981565319758959e-03,1.273852735757827759e-01
2.494770298426391419e-01,1.283923282771569085e-01,1.184842995211529276e-01,7.486738532324622422e-05,-2.988145975591148442e-03,-6.440056965799910958e-03,1.269275844097137451e-01
2.454126571814996827e-01,1.322305423105294697e-01,1.230378687782574670e-01,1.907586168099867970e-03,3.418711027263483197e-03,-3.973704697819554522e-03,1.184419393539428711e-01
2.296875354941119995e-01,1.220649361689033069e-01,1.404156168356706647e-01,8.937043264213833521e-03,3.591994343531776206e-03,-6.375641152911634343e-03,1.017088443040847778e-01
2.363526318164290152e-01,1.132703166145265783e-01,1.115110362237960451e-01,-9.263110383597899719e-03,-7.979081328203555326e-03,-9.654750608574139137e-03,1.268737316131591797e-01
2.481877589805690232e-01,1.241052982612557559e-01,1.289143158530383637e-01,-1.946283073713485010e-03,-1.225743325049680373e-03,-2.333618736891374720e-03,1.218814104795455933e-01
2.391122409443108277e-01,1.241422828029966619e-01,1.279038200057551200e-01,1.306470755419049260e-03,8.028911365466413113e-04,-3.209740074229221283e-03,1.133037433028221130e-01
2.419248533562329828e-01,1.101083547964986920e-01,1.177067475085708942e-01,-1.254372380117334653e-03,-2.910074347822173748e-03,-9.756809072930376983e-03,1.294119060039520264e-01
2.441122138776564698e-01,1.008015020951028712e-01,9.723343977717474607e-02,-2.025923513590629013e-03,-3.841590134094493951e-03,-2.046121979517370737e-02,1.495814323425292969e-01
2.457854510412994242e-01,1.234156459603346495e-01,1.219168265720172728e-01,1.871292631643539867e-03,1.193213035867843460e-03,-4.065963032713847819e-03,1.233871877193450928e-01
2.248223367833592223e-01,1.103498813674955170e-01,1.252054179006411305e-01,-5.359484969219180037e-03,-4.019576317622623914e-03,-4.222574323063788167e-03,1.086840108036994934e-01
2.229994551723660512e-01,1.263332131052024576e-01,1.193526992344181581e-01,1.250547424148715572e-03,1.829567366904244876e-03,-5.587313111557082150e-03,1.008774414658546448e-01
2.161791909529513223e-01,1.134580404930206343e-01,1.193099732278421754e-01,-1.149092686666609679e-02,-7.421193868971743927e-03,-7.987518314853343793e-03,1.036219596862792969e-01
2.148280135490775455e-01,9.172378021586663488e-02,1.225787470664189416e-01,-1.478955766275648342e-02,-2.914586154399839962e-03,-3.833224325606054798e-03,1.141668185591697693e-01
2.373870942200418388e-01,1.173714446442446213e-01,1.336235371704411756e-01,-6.428134177832420942e-03,-1.803485641049568967e-03,-4.244855528964694598e-03,1.136008724570274353e-01
2.225493065486335853e-01,9.325908480590805461e-02,1.386005102627612950e-01,-3.565964802025217706e-02,3.892422581629674961e-03,3.646765934304279505e-03,1.296525597572326660e-01
2.264844799493666572e-01,9.396571868021398599e-02,1.627339100388871529e-01,-6.689107071644972979e-02,1.022351203741368383e-02,4.418100287636290979e-03,1.642332971096038818e-01
2.066979501660561325e-01,1.296998744961560535e-01,1.543270426350956126e-01,-1.725929755585703038e-02,2.755889351136211443e-04,-1.791882335291730211e-03,7.444774359464645386e-02
2.191477126684170385e-01,1.097817308633690092e-01,1.333493090742747800e-01,-6.739965148334858824e-03,-3.660104390009943573e-03,-5.025757735976846795e-03,1.009509935975074768e-01
2.276336216866234607e-01,1.079171748036615308e-01,1.171707712802577683e-01,7.127491861364892295e-03,6.192729305976187211e-03,-7.662605263086043686e-03,1.172750964760780334e-01
1.833997228015054881e-01,8.832817655332339535e-02,1.132932197683056419e-01,-2.123849701978086993e-02,2.555936477423608431e-03,4.482976339305572849e-03,9.338895976543426514e-02
2.220217508321687405e-01,1.329379118281472927e-01,1.611606016678641673e-01,-2.499967324164682411e-02,-1.633167167409924937e-03,-5.469725459844590942e-04,9.001175314188003540e-02
2.348911894228838948e-01,1.345951539473141112e-01,1.195377388760050785e-01,8.162988750733828113e-04,4.934301081972386005e-04,-6.771737650790204174e-04,1.086293011903762817e-01
2.622481858294604118e-01,1.487655022941858363e-01,1.140699687406145219e-01,-9.158358395168500151e-05,-5.940641312538404856e-03,2.403375939840423064e-03,1.346947252750396729e-01
2.251561864710074357e-01,1.271554266397256217e-01,1.190097369207998856e-01,6.459313179108077708e-03,7.917845355362076315e-03,-5.879874801273221596e-03,1.043347939848899841e-01
2.532506400312799499e-01,1.499510813308622958e-01,1.256203180147915655e-01,3.265205411447459193e-03,-9.271676691163450654e-03,1.000306451713951078e-02,1.198590919375419617e-01
2.452343873378678429e-01,1.523343260528993159e-01,1.182553546102496217e-01,1.269394607301303508e-03,-3.671440858821673620e-02,3.591401360909925351e-03,1.305569112300872803e-01
2.315077136425567894e-01,1.244797333226626140e-01,7.470541111077119711e-02,9.468989147594749495e-03,-2.412121720785563236e-02,8.461382651901600341e-03,1.465912163257598877e-01
1.987360229326350369e-01,1.477738047493097062e-01,1.104901532224202287e-01,8.045441567583347039e-03,-3.281758884884122124e-02,1.507175358917569631e-02,9.996958822011947632e-02
2.463447835239249151e-01,1.523417229415878482e-01,1.332042236683682046e-01,3.894154154568776546e-03,-1.645612547035290099e-02,4.767933781833289322e-03,1.092149615287780762e-01
2.420214340481606219e-01,1.443275920347803776e-01,1.157486297962845023e-01,1.068978931157011682e-03,-1.439878315934311342e-02,7.206551017300644700e-03,1.180425286293029785e-01
4.493550081264282570e-01,2.345738522494828227e-01,2.045588433747074775e-01,-5.979471316377217918e-03,-1.409738747723062249e-02,-6.338882168425696850e-02,2.573643326759338379e-01
2.830927410875705430e-01,1.603386728024852048e-01,1.208376493120802558e-01,-6.059563690704197411e-03,2.978157716425477303e-02,-1.477582567484105394e-02,1.578092575073242188e-01
2.743029079180614449e-01,1.431297301696733415e-01,1.288001966822643063e-01,3.235072988908379524e-03,8.304573445368780907e-03,-1.756555074777151407e-02,1.430221349000930786e-01
2.553893793043261473e-01,1.205586804422107278e-01,1.101286665755457639e-01,1.448702774922712086e-02,2.010646925161385309e-02,-1.753660200117670986e-02,1.498646587133407593e-01
2.765285117279845384e-01,1.427531777724063144e-01,1.367622456932626740e-01,7.823525387132056891e-03,2.501438765892294996e-02,-2.476058606665072423e-02,1.504433900117874146e-01
2.583477040667832569e-01,1.259693762224378122e-01,1.034758369854905380e-01,4.325625588859375800e-03,4.028568383001852188e-03,-1.394018203181815463e-02,1.472937315702438354e-01
1.681569690164390063e-01,4.475734427424397921e-02,1.130393095843795215e-01,8.700558579157571804e-02,4.460134963545178688e-03,-1.610746144717898395e-04,1.850232332944869995e-01
1.609284575883831170e-01,9.964796016741171714e-02,1.698275237965664042e-01,6.732398584997821567e-02,1.772994052701998627e-02,-1.189557119737485319e-02,1.390861421823501587e-01
2.871535033576775864e-01,1.450535265218276249e-01,1.798716706870712168e-01,3.023222205475405849e-02,-1.525593376526254187e-02,1.884771194430394023e-02,1.447858810424804688e-01
2.650465553888282644e-01,1.458274882814350193e-01,1.909305879798087191e-01,3.769744938532364892e-02,2.466506254853611559e-03,-2.457105823070965776e-03,1.231664791703224182e-01
2.058332737743488461e-01,1.221887235794646698e-01,1.410289278184715944e-01,1.943788510203045897e-02,1.349971766869118538e-02,-8.269505367542293386e-03,8.752633631229400635e-02
2.283513863252937537e-01,1.372362931153695564e-01,1.405002685019861586e-01,7.240521437499260540e-03,7.500131205844334792e-03,-6.557195514991053312e-03,9.203389286994934082e-02
1.928023429414337797e-01,9.997448316769308452e-02,1.498183181308655187e-01,3.199265658961691905e-02,3.184543192370420123e-03,-2.231195279780054212e-03,9.793095290660858154e-02
2.441569681611007736e-01,1.386122166124493793e-01,1.140119204465067232e-01,-5.626074702577327051e-03,-8.878257275261827730e-03,-1.047041781435367226e-02,1.224810928106307983e-01
2.523873135713977089e-01,1.398314275966762443e-01,9.918108622156288079e-02,-7.083880833470023765e-04,-1.189615923304627836e-02,-9.769066939175551426e-03,1.400324255228042603e-01
2.425892897698684880e-01,1.303756578842062142e-01,8.473248728933997775e-02,-1.817394788717932282e-03,-9.025966172634939180e-03,-6.496178035839343667e-03,1.420489251613616943e-01
2.516511048935963224e-01,1.277619138709731872e-01,1.213782416921616036e-01,-5.348946513768031846e-03,-4.197967973168977192e-03,-6.964292950175227960e-03,1.283135116100311279e-01
2.358900712844663183e-01,1.321582709921753085e-01,1.241448894186451823e-01,-1.608492510398860931e-02,-1.876817887079845065e-02,-1.280466867408426232e-02,1.182392910122871399e-01
2.302808567215013369e-01,1.086903601489286331e-01,9.134694657053527012e-02,-1.695768438644666698e-02,-2.082741270577014372e-02,-2.207664633314188052e-02,1.442913860082626343e-01
2.757719797045178889e-01,1.610784440199137801e-01,1.125251497385268556e-01,-1.780143696125652925e-04,-2.808757307069360137e-02,-7.817087316615640297e-03,1.537235528230667114e-01
1.218453758959714417e-01,1.468633939148529244e-01,1.559100849933531818e-01,-5.215756195766167030e-02,2.812667780773872583e-02,1.438832731919121102e-02,1.099532172083854675e-01
2.773208754239330776e-01,1.208809733331219910e-01,1.601598937236128617e-01,1.452344268050427892e-02,-1.572816798043434258e-02,1.932875497413931096e-02,1.495566964149475098e-01
1.308474475846183593e-01,1.183614002739058618e-01,1.394692723482182650e-01,-9.765092672990284550e-02,-1.080575363211495454e-03,8.073134991156725310e-03,1.707162261009216309e-01
1.369159127484636529e-01,1.233482247038522606e-01,1.427249516946909325e-01,-4.991368633933020160e-02,1.848740915885338509e-02,4.088746268601254827e-03,9.405464679002761841e-02
8.769802139693806675e-02,9.409533721536278428e-02,1.202473582199384133e-01,-6.499608560717959338e-02,-1.414145539135328380e-02,-4.755596741404266060e-03,1.193038970232009888e-01
1.726090668146811336e-01,1.446189798720498021e-01,1.687497922689397967e-01,-5.059405726703552347e-02,-1.106672361806206734e-02,-1.022981038755292659e-03,9.348876774311065674e-02
1.629049969397122211e-01,1.278613038129816637e-01,1.481407975747222050e-01,-4.994427376474661062e-02,-9.307804079330902342e-03,-6.564746531276371630e-03,9.381436556577682495e-02
2.458559374793294894e-01,8.869531223793422625e-02,1.366595218110373544e-01,1.611280480205833782e-02,1.578974156245629198e-03,5.444371441115663894e-03,1.426085978746414185e-01
2.452118043344874154e-01,9.277297388783249665e-02,1.081020471000567196e-01,-1.128672971607784861e-02,-8.605764451309175916e-03,-2.277903261673543817e-02,1.526329964399337769e-01
2.650906495990919542e-01,1.260968324747113734e-01,9.563350049167052003e-02,-3.296046255277043820e-03,-1.206604310302430982e-02,-3.107117370050330521e-02,1.668745726346969604e-01
2.551531461695194514e-01,1.376622819132315989e-01,1.231618367967383526e-01,-6.298793227268863031e-03,-7.022053239184858006e-03,-1.267171819098485488e-02,1.283226609230041504e-01
1.219336264576389578e-01,1.227632414284066525e-01,1.150498744855076583e-01,5.694997357118417557e-03,2.150283470233189595e-02,-6.506442810000274187e-04,3.923607990145683289e-02
1.180689870626932536e-01,1.278717629176078230e-01,1.300397314116940040e-01,-8.091935335001116877e-03,1.036912017589713617e-03,1.001764728920466181e-04,1.793712750077247620e-02
1.073446596558050026e-01,1.279603842708951777e-01,1.267801640643461958e-01,-1.437673697295062608e-03,1.418147012073359917e-03,2.034599037363147081e-03,2.065727114677429199e-02
1.272065220483515335e-01,1.773628941292879624e-01,1.720514482041252402e-01,-4.433387758065184849e-03,-1.872254949399047722e-03,4.228982314435207092e-03,4.899595677852630615e-02
9.995159576009418623e-02,1.396733742202778961e-01,1.230910796765396359e-01,7.655655701890056418e-03,7.499982739315867730e-03,1.055349291460579137e-04,3.922656923532485962e-02
8.422833079098331066e-02,1.234033417232737739e-01,1.148392285800353407e-01,-3.157886251933306621e-03,1.946258080154655498e-02,2.157735803588627967e-03,4.952561482787132263e-02
1.319405883377851030e-01,1.715649912909468222e-01,1.770478144745466498e-01,6.003611069045936780e-04,6.316831634554216646e-03,1.283140064780105864e-03,4.408101737499237061e-02
2.453208238564165145e-01,1.940846789216884860e-01,1.754308384978174873e-01,2.247307161514472060e-02,4.015117252984529150e-02,-1.434296912187428032e-02,1.043910384178161621e-01
1.214732122114653701e-01,1.641597134477695841e-01,1.696527165528149694e-01,5.950964891415441889e-03,4.835673056134331092e-03,2.882501679918686877e-03,4.783416166901588440e-02
3.621896943794392643e-01,1.618626600086306433e-01,2.582777219604323049e-01,-3.013801963991834254e-02,1.400732640345733575e-02,8.893617283669213604e-06,1.828271299600601196e-01
2.678749584141703055e-01,9.135832694115209041e-02,1.607279743450549248e-01,-1.484303682522377342e-02,1.720344054328191638e-03,-7.345531628671830501e-03,1.567069590091705322e-01
2.673770303748531640e-01,9.208069321101243487e-02,1.496489782835006277e-01,-1.207666003903233934e-02,3.700331539455984937e-03,-4.405114702916533911e-03,1.564871668815612793e-01
2.505139241691296537e-01,4.408261849854160086e-02,1.285298223977091037e-01,-1.543756988980525199e-02,-1.095432985581383349e-03,-8.222327312655387452e-03,1.823020726442337036e-01
2.323415865476220477e-01,3.788598819880885371e-02,1.445884755575104208e-01,-3.604909740242318028e-02,6.763073535426751201e-03,-2.095567697544886004e-02,1.838552504777908325e-01
3.238250788822534809e-01,1.229180155090059956e-01,1.809086043309119374e-01,-1.105153860855552679e-02,-7.890390072301297492e-03,-1.414760899351227667e-02,1.822895705699920654e-01
3.197265993186032551e-01,4.307846553105357246e-02,2.276787403368866203e-01,-2.078692651387845439e-02,8.652945520700247237e-03,-7.728380648889924404e-03,2.474716603755950928e-01
3.983264585783871659e-01,1.022864496451290350e-01,2.127036275319578174e-01,-3.296423572044024364e-02,-1.752341904003777359e-02,-2.809552771226149666e-03,2.671115100383758545e-01
2.593215957573055674e-01,1.246134244728233642e-01,1.040392008806471369e-01,2.731851533061758347e-03,-2.072127544204684351e-03,-1.609665736365739619e-02,1.488411277532577515e-01
2.717052632679886059e-01,1.449610092025113706e-01,1.173855778945938622e-01,-1.141773280749628413e-03,-5.427019112766219913e-03,-1.714398296298727878e-02,1.459231078624725342e-01
2.512805584277372772e-01,1.249553289576658954e-01,1.014568219989249592e-01,4.763349386475557341e-03,-2.040248494924412365e-03,-1.651502328662048102e-02,1.427497565746307373e-01
2.621342912974293227e-01,1.454448385718168368e-01,1.141501469430717397e-01,-1.956723168610244312e-04,5.703684975590400663e-03,-8.698835661390019389e-03,1.362801045179367065e-01
2.581658644428268534e-01,1.337334845800040306e-01,9.307138711230214523e-02,1.959306418680629622e-04,1.742713880702180139e-03,-1.478274661468235995e-02,1.511996090412139893e-01
2.456935980345531789e-01,1.076223550210483604e-01,7.983485344013362128e-02,9.226954591927804400e-03,1.458134632988235431e-02,-2.711292461894166880e-02,1.636186391115188599e-01
2.389745110302035069e-01,1.238675370604275794e-01,1.257409524260660327e-01,-3.216518846096159841e-06,-2.521528319489312487e-04,-1.198801747395770697e-03,1.142015084624290466e-01
2.443305695568091795e-01,1.150985073495297412e-01,1.472952932043110341e-01,-1.321956224232356987e-02,-4.136023818342075484e-03,-4.500723499708916484e-03,1.192185506224632263e-01
2.225716443193472838e-01,1.166015729237401266e-01,1.361399963082468301e-01,-1.776127522485879172e-03,1.560007234308558532e-04,4.715788154859968761e-04,9.772983938455581665e-02
2.222702291320593215e-01,1.089736388890077678e-01,1.366034186490993341e-01,-8.201421386616676579e-03,-1.744394258603279655e-03,-2.081452347195563660e-03,1.034073382616043091e-01
2.435684631874077133e-01,1.210795227337297664e-01,1.310029019641297809e-01,1.289529122284114020e-03,2.306645486636532683e-03,-1.665408288462521180e-03,1.179651692509651184e-01
2.181631139160994381e-01,1.023188039489121987e-01,1.309749497029246701e-01,-1.575254994413912563e-02,3.547911215841123567e-03,4.862560709640432501e-03,1.085106059908866882e-01
2.478233662430721629e-01,1.374510953537003144e-01,1.641374768109150339e-01,-1.953985775919969345e-02,7.071586145367197648e-05,-5.852666506217637978e-04,1.053338721394538879e-01
2.166203628987795615e-01,9.308056486749832770e-02,1.247743180345944197e-01,-1.506662096039464160e-02,2.371976820564494423e-03,1.869374101106175117e-03,1.142782047390937805e-01
2.127690225996271833e-01,9.332631148115114184e-02,1.248237763132635375e-01,-1.512929591274364376e-02,4.018088869133482587e-03,3.290071866357038508e-03,1.107434183359146118e-01
2.434632346064778685e-01,1.662436144952249006e-01,1.478692354612466398e-01,-2.803004309616181564e-02,-4.069449092359951614e-02,-2.614373084483266260e-02,1.307478845119476318e-01
2.084242974312480179e-01,1.106521021616376221e-01,1.204801093394629874e-01,-1.502422019172564883e-02,-1.113003650112203737e-02,-9.278410848372314196e-03,1.000108346343040466e-01
2.121650452880176063e-01,8.961108210099794080e-02,9.710089143011654822e-02,-2.280015067791418132e-02,-2.049113316331122037e-02,-1.925147220174526497e-02,1.344943195581436157e-01
1.783755018666167702e-01,1.106156692902337119e-01,8.104751249891170573e-02,-9.434878932811848222e-04,-2.435463067453383021e-02,-9.382573835785802067e-04,9.619750082492828369e-02
2.526592007043976240e-01,1.322624317280802764e-01,1.400420209249366166e-01,-1.403872117164169271e-02,-1.170250015971980619e-02,-1.186652059825846380e-02,1.226532161235809326e-01
2.283922416668745792e-01,1.018501579283083158e-01,1.338661577601479580e-01,-1.271040381749792558e-02,9.694232710075237867e-04,1.695333579885290650e-03,1.161148399114608765e-01
2.615568396367642379e-01,9.496418533099175441e-02,1.483427261395772745e-01,-3.557379868307376791e-02,2.942283115478820481e-03,-1.618080996304996008e-03,1.598130762577056885e-01
2.244714623412670806e-01,1.007027140897108486e-01,1.394593043108192376e-01,-1.376482350635527957e-02,-3.681565005329314171e-04,-5.005225266607952594e-04,1.122207269072532654e-01
2.406468727584457346e-01,1.069083944286248478e-01,1.455008081691335775e-01,-1.560274608341745244e-02,1.089660731944689862e-03,-2.489311045985583525e-03,1.223378628492355347e-01
2.196858865916117565e-01,9.657073375478826549e-02,1.292480292057464619e-01,-1.328014751606386955e-02,-1.047612183460333030e-05,-3.126820897480353263e-03,1.129623576998710632e-01
2.558831991627891211e-01,1.081531541745579250e-01,1.518472830323993605e-01,-1.659546179188289144e-02,-1.663814542496259942e-03,-2.814129082791243762e-03,1.346725523471832275e-01
2.336165644830154320e-01,8.809539392726299656e-02,1.244516239926519718e-01,-2.440617465884589721e-02,8.384610274057966231e-03,1.814386521290172957e-02,1.421023309230804443e-01
2.775416065655656461e-01,8.914660061666504487e-02,1.510543956067223470e-01,-3.759292281763045723e-02,-1.130884682340807740e-03,-1.258940408312292239e-03,1.786348521709442139e-01
2.616252871256340984e-01,1.183932502437088363e-01,1.525763394459873079e-01,-7.128513726461946538e-03,3.249559672725172398e-03,8.289336722222378703e-03,1.310650706291198730e-01
2.949381149126295565e-01,9.417247023802512162e-02,1.656619247087426361e-01,-1.493750119133098117e-02,2.043546451014915336e-03,1.937620236381731864e-02,1.813096404075622559e-01
2.740740677146876192e-01,8.751158134365213948e-02,1.516140689652450413e-01,-3.134328697412734621e-02,-2.582335573483479293e-03,1.186693781440630903e-02,1.741988956928253174e-01
3.054724935763476479e-01,1.300973563934485766e-01,1.477177378441769939e-01,-1.968084684893149638e-02,1.899408637501047090e-02,2.696596972425534602e-02,1.800071150064468384e-01
2.816827525799382448e-01,1.205434256595302039e-01,1.349258593559244379e-01,-1.351517685023578483e-02,-3.614885973240645600e-03,2.374484388872621227e-02,1.616595089435577393e-01
2.350843667357869760e-01,1.246136476815150329e-01,1.167633948564192614e-01,1.561643114716988658e-03,1.069922603749723887e-03,-1.122303886998123014e-03,1.146610602736473083e-01
2.805078168804392424e-01,8.661020213499427689e-02,1.448078102265590861e-01,-1.504206129064694641e-02,1.239854131581406317e-02,2.866237954296857460e-02,1.824922710657119751e-01
2.420040893730427412e-01,1.230775340997031786e-01,1.353136266422459988e-01,-3.740219071269380944e-03,-3.257692118602742611e-03,-4.323174756951432031e-03,1.138768047094345093e-01
2.046364767904605420e-01,1.197407964293897009e-01,1.338889566005679599e-01,-1.876297230596011764e-02,-1.655927579565290991e-02,-1.042851956895677473e-02,9.171351045370101929e-02
2.373728787517450645e-01,1.043380531471691519e-01,1.121132105176623067e-01,-1.385256543033572089e-02,-1.831486236915941257e-02,-2.816646516257537841e-02,1.438276171684265137e-01
2.182678062136112485e-01,1.125355945697743831e-01,1.108295483136392534e-01,-8.746841841612163632e-03,-1.085166945555936929e-02,-8.267631568715082951e-03,1.102290973067283630e-01
2.079390731838036133e-01,1.185583686143683035e-01,1.172159903598344044e-01,5.184725299672790326e-03,8.074692722020056224e-04,-6.270433337435887128e-03,9.116605669260025024e-02
2.211511875218950263e-01,1.449211603949130123e-01,1.394829764826366336e-01,7.388660178191899623e-03,8.465441855166412274e-03,-9.474094660871332230e-03,8.308541774749755859e-02
2.134163647995611646e-01,1.345507833164443501e-01,1.281141971973998872e-01,6.804781578215872082e-03,9.174350501732240343e-03,-6.062969443632218285e-03,8.526743203401565552e-02
2.294167711509643159e-01,1.365000747472921994e-01,1.370292041948019957e-01,1.054981705700090353e-02,1.026885062565505505e-02,-6.734784024595087855e-03,9.680363535881042480e-02
2.085540698528920711e-01,1.337115775280094954e-01,1.287596117443136068e-01,9.288580083887637562e-03,1.467489091489279987e-02,-5.059618481747926375e-03,8.353579044342041016e-02
2.541566965225648955e-01,1.430123981558835689e-01,9.991166510290853953e-02,-9.721742645367076633e-04,-4.632117519044796558e-03,3.567836546713880124e-04,1.380895227193832397e-01
2.841006114763795498e-01,1.634237086980715459e-01,9.892933404258336116e-02,-2.298737723530564370e-03,-7.798024546175078226e-04,1.081912847954357576e-02,1.639336943626403809e-01
2.733487953448403562e-01,1.583485048973079790e-01,1.254109808421813577e-01,2.824121173574740701e-03,-1.816766580368352809e-03,2.879110091978362689e-03,1.347459405660629272e-01
2.592839488083464872e-01,1.472996302082672793e-01,1.083982398958889676e-01,2.663528024242352058e-05,-2.128015505377308606e-03,2.128100502219798257e-03,1.357841193675994873e-01
2.878619002339486976e-01,1.551380713525047084e-01,9.814612910298814441e-02,6.279043436851151384e-03,-3.163250701618046477e-04,2.195794513834340572e-03,1.689997911453247070e-01
3.120656195673866540e-01,1.939898800625637909e-01,1.263757995801423895e-01,8.226746409214232654e-04,3.895860799166200351e-03,-5.895873988019307253e-03,1.632451415061950684e-01
3.190414139003218130e-01,1.774975734842953456e-01,1.142459957097482909e-01,-1.989334795069771459e-03,-1.058040375838136503e-02,5.719674168029787245e-03,1.828500628471374512e-01
2.624863048644711094e-01,1.491749157774361068e-01,1.015012848421236735e-01,2.953251332203787535e-03,-8.380455197816749288e-03,-1.369907450524897568e-04,1.440525203943252563e-01
2.584570962670822425e-01,1.467426769010786725e-01,9.944063771918566774e-02,3.598836439771191473e-03,-6.024149984339571134e-03,-7.709925895550306290e-04,1.419557034969329834e-01
2.606752627455779514e-01,1.482451633855209061e-01,1.083820783769974677e-01,-9.863597734501828272e-04,-1.985834444817323723e-03,1.261948055199023887e-03,1.368609815835952759e-01
3.278138785761780527e-01,1.822755021472416692e-01,6.642990169668622213e-02,-2.457302528073395179e-02,6.693610520470688607e-02,-4.288139321519382138e-03,2.583981454372406006e-01
2.462388804661694575e-01,1.424480875007300140e-01,8.867041040677940689e-02,-1.460735714156250311e-04,2.649414998013010364e-02,-2.019596986073302677e-03,1.461653709411621094e-01
2.513286959722345060e-01,1.464144193743756039e-01,1.098523501376330036e-01,3.200232354572148889e-03,6.754999436964274906e-03,-1.426986251990907404e-03,1.278803944587707520e-01
2.752762448684836216e-01,1.691647855912475906e-01,1.105260973977095218e-01,1.192489172884664272e-02,2.489105164828908645e-02,8.532852050341177899e-03,1.530493497848510742e-01
2.536427227104821602e-01,1.451952692969984693e-01,1.087060175590613686e-01,-1.172829789762506276e-03,6.330813716185382072e-03,-1.462517601033023465e-03,1.310735046863555908e-01
2.472772541803339719e-01,1.394007781235877264e-01,1.042309984298685488e-01,1.545013899517754365e-03,6.226592848838697659e-03,-6.594993228335901785e-04,1.295878738164901733e-01
2.499063251307743483e-01,1.337106265128545912e-01,1.288362967683466809e-01,-2.435764817184586043e-03,2.295079068115091474e-03,4.305077661864946566e-03,1.190830692648887634e-01
2.373971307473534686e-01,1.184838371297668030e-01,1.182634393818279284e-01,-2.478357099237649391e-03,2.421583837898968247e-03,2.898621609105233362e-03,1.192805618047714233e-01
2.474253979799639069e-01,1.274123652968001952e-01,1.306321595392908874e-01,-2.247071101203145915e-03,1.473323170451430004e-03,3.853681235074360879e-03,1.187151670455932617e-01
3.396720676307889986e-01,1.171000860302481017e-01,1.888437570138872534e-01,6.793876401179083091e-02,-2.379745042692476414e-02,-2.600679601235950794e-02,2.372601032257080078e-01
3.112878638507886042e-01,1.290205927114093931e-01,1.919007063051346718e-01,2.051828788213280047e-02,-1.363306596141815059e-03,8.379607135743386004e-03,1.649045497179031372e-01
2.513064756319173809e-01,1.341479896556196372e-01,1.224670000766321376e-01,1.595906860429322427e-03,2.631211140178299143e-03,-1.899634894495287824e-03,1.235731318593025208e-01
2.492731118126312317e-01,9.291334860434438681e-02,1.470145934595656068e-01,1.800769367235134297e-02,-2.266989068633254532e-03,1.827114644616199737e-03,1.411181241273880005e-01
2.166201778179548398e-01,6.632697625416889009e-02,1.166514417916145602e-01,2.891023079746448884e-02,8.087945039610758280e-03,-1.184174606248867244e-02,1.438106447458267212e-01
2.582935627590489114e-01,1.067830070050019148e-01,1.481583893732588142e-01,1.668822352056817046e-02,7.364904491621232681e-03,-8.542380004080809067e-03,1.400560438632965088e-01
2.297846101886165671e-01,9.015820814762461055e-02,1.408077570193686512e-01,2.424281790001173165e-02,-3.312037739858515479e-03,5.230394314419573899e-03,1.298730820417404175e-01
1.951518576204663846e-01,3.534070418242080125e-02,1.179814218677356502e-01,5.608683914640102963e-02,5.421448074211795282e-03,-1.298671787428812459e-02,1.708611249923706055e-01
2.794395180266108780e-01,1.336034473104744102e-01,1.910898357870390307e-01,4.010118916123113497e-02,3.509924982245955349e-03,-1.969808251048087676e-03,1.451281160116195679e-01
2.366979243239204778e-01,1.289202917046325947e-01,1.144786530678969794e-01,1.712574236035006338e-03,1.007717299288242181e-03,-1.449354078955554254e-03,1.157549619674682617e-01
2.050876713126935647e-01,1.533388935805907738e-01,1.615436583450966523e-01,1.671944843290831817e-02,4.821028728876759935e-03,-2.309695864880520564e-03,5.696506425738334656e-02
1.921815757513239686e-01,1.312365964652645323e-01,1.469431229826126395e-01,3.527729741103721034e-02,1.553218347219938004e-02,-1.706699436340234841e-02,9.129516780376434326e-02
2.378180834471819161e-01,1.258229315090769462e-01,1.170356406734561761e-01,2.689175358411732830e-03,1.469632860939192346e-03,-1.436205319185026577e-03,1.167845353484153748e-01
2.027521760776278548e-01,1.161609320897298570e-01,1.246682627691452216e-01,-1.689638400425068007e-02,1.093773528926372460e-02,1.068749590944961803e-02,9.160672128200531006e-02
2.424662606534897513e-01,1.243389155085252717e-01,1.225266549723683651e-01,-4.286180133684258653e-03,6.033971233408349025e-03,5.314212111967064542e-03,1.200853660702705383e-01
2.427060891857735769e-01,1.354205119565748960e-01,1.206984613758690927e-01,-1.918913115547057771e-03,4.655061089440372911e-03,3.530246004654888359e-03,1.158440336585044861e-01
2.294924234400220198e-01,1.197061667658826378e-01,1.210081968451887924e-01,-3.018155650220148353e-03,4.101603549251682003e-03,4.527613444375639361e-03,1.097773537039756775e-01
2.375451268731044729e-01,1.310954345112754216e-01,1.257977863289563292e-01,-5.445487039757950995e-03,5.713197771422316371e-03,6.961345650338744522e-03,1.107059046626091003e-01
2.385475257784223924e-01,1.277503530381215724e-01,1.264526321779847196e-01,-1.967625920366190134e-03,1.558582224006014021e-03,3.907007214676330199e-03,1.117415651679039001e-01
2.343199577025277258e-01,1.238004048890692932e-01,1.182810091124845142e-01,-1.986236134187112107e-03,2.134335440851416795e-03,3.125337640803253509e-03,1.136214807629585266e-01
2.146192320197827796e-01,1.268984161632623897e-01,8.054823321111451162e-02,3.321623018387932780e-03,-2.780487511748455307e-02,-1.331208918494632034e-04,1.275211423635482788e-01
2.175436496228407846e-01,1.357892594120766461e-01,1.288603514718428822e-01,-1.469651689262473689e-03,-2.838177254928327033e-03,-4.591883477064459713e-03,8.597767353057861328e-02
2.610318308170873070e-01,1.589683899348370011e-01,1.217454843323669822e-01,-3.838448118341953371e-03,-1.515579776203868946e-02,-3.677434807656699157e-03,1.279666125774383545e-01
2.358638263431011572e-01,1.308859929073284689e-01,8.548135209939793089e-02,-8.559603632560093545e-03,-2.823873563702112080e-02,-7.519546942663492620e-03,1.436318755149841309e-01
2.373829580543988238e-01,1.259634809465298155e-01,1.181620136165106028e-01,1.853434040005940775e-03,6.784950707486273221e-04,-1.434336933870731644e-03,1.155952289700508118e-01
2.287485019076647697e-01,1.576477675704043568e-01,9.729667063012686912e-02,1.219540479561652185e-03,-2.853537819508215195e-02,-2.768412253519063424e-03,1.243335604667663574e-01
2.587630270792212750e-01,1.510741414503486701e-01,1.130375130623141045e-01,1.540165420549767885e-04,-8.331629567233437422e-03,4.535459382245156032e-03,1.319463253021240234e-01
2.363861302104208195e-01,1.479268875918991477e-01,1.140451010369507162e-01,1.144412992314510760e-03,-2.268541467532674688e-02,-1.487719333500833263e-03,1.162954121828079224e-01
2.423047678600682153e-01,1.236350280874876639e-01,1.264011448679993044e-01,7.746233543773627410e-04,5.505713403307806175e-04,-1.398491131798321142e-03,1.173476949334144592e-01
2.562456336386971234e-01,1.256197098908218013e-01,1.458813788512128007e-01,1.358976508580355541e-02,-6.939545944430873872e-03,8.254760416252457725e-03,1.254189312458038330e-01
1.824093604296648241e-01,1.195355367062684027e-01,1.203657133858101191e-01,2.520560980472559207e-02,-1.352379852900223965e-02,1.102996271620792536e-02,8.198315650224685669e-02
1.850479026015638961e-01,1.230967904561184600e-01,1.450133321724410562e-01,1.635792498988404911e-02,-3.238761279090996564e-03,5.719212981390770943e-04,6.160938367247581482e-02
2.567739790261150956e-01,1.596489479388286115e-01,2.037693074771521895e-01,4.704949906552933353e-02,-8.503366274635585156e-03,4.560070845189361476e-03,1.183847859501838684e-01
2.478248643792377581e-01,1.195443158374603354e-01,1.267270750172795057e-01,-8.014133900213657414e-04,1.328287182752235047e-03,2.624269489982885249e-03,1.249558478593826294e-01
2.111023219513553928e-01,1.280468986332252979e-01,1.376488738652536237e-01,1.088622316120320573e-02,-3.853935489292820843e-03,5.822519318352929046e-03,8.182113617658615112e-02
1.997315087226961550e-01,1.293670102302605929e-01,1.321581081517667067e-01,3.270327582627878538e-02,-1.736202158137691368e-02,9.070053232887292580e-03,9.551014751195907593e-02
1.846639567323309916e-01,1.032272610886583869e-01,1.152201695857754532e-01,2.770017102853782401e-02,-1.690155317439641716e-02,1.310124286994309231e-02,9.732890874147415161e-02
2.276600854095421900e-01,1.093061829811537988e-01,1.341335034545369231e-01,2.669972076760726305e-03,-5.507795102088835441e-04,4.761120977612608358e-04,1.082063242793083191e-01
2.533457290516404892e-01,1.400609928926307979e-01,1.038026306431178158e-01,-3.704734986410668750e-04,1.861918054781802742e-03,-1.646689993837226987e-04,1.351536661386489868e-01
1.588056512690603772e-01,1.740310522105373015e-01,1.760198144931742759e-01,6.973281398322311777e-04,7.414029861758136136e-03,2.676266421140168265e-04,2.079963684082031250e-02
9.515032835136161271e-02,1.647709308892290614e-01,1.596384507173891909e-01,5.278627295645311329e-03,-3.151941569705733054e-02,1.339783900851878977e-02,9.010306745767593384e-02
1.008129281980018194e-01,1.418962889442671182e-01,1.679884078806380687e-01,3.256304692383853866e-02,-2.417948434025572052e-02,2.314618802061930818e-03,9.160602837800979614e-02
7.749771648175585170e-04,8.311932359567000828e-02,8.788089451262487417e-02,4.537351752713779558e-03,9.690739688615649175e-03,7.335758055297774121e-04,8.683582395315170288e-02
3.897497103515624312e-02,9.720413161385312029e-02,1.059260125798540952e-01,3.480896674682774916e-02,-5.435480464589968405e-04,1.713618896906374776e-03,8.728838711977005005e-02
2.412965419960257929e-01,1.165634240722254744e-01,1.234387334922969343e-01,-1.009972217944512954e-03,1.712517487389989684e-03,2.737693980541863661e-03,1.215828284621238708e-01
1.673965938708250611e-01,1.696900523476621292e-01,1.670863371220826510e-01,-1.834862837504975738e-02,2.212654779783447545e-02,6.101271187310822360e-03,5.095599219202995300e-02
6.009732166274099618e-02,9.950529542180919229e-02,7.913469825620532416e-02,-2.345300501869048912e-02,4.779138586828479002e-02,4.022551022711981679e-03,9.856931120157241821e-02
9.844829091732734683e-02,1.259396812582871117e-01,1.101203984326202950e-01,-4.695166772288021477e-03,6.790799536176986284e-02,-1.329959803096961461e-03,1.203206554055213928e-01
1.590535375150391728e-01,1.555337051648092994e-01,1.371797516738950951e-01,5.314079108821389598e-03,5.042244060490473634e-02,2.878043787115449476e-03,9.028119593858718872e-02
1.966723976795606288e-02,8.983982539194780570e-02,8.335895033481849348e-02,1.248518611957660611e-02,2.447685494847589086e-02,-2.446513376926630519e-03,8.242790400981903076e-02
9.541820588382243784e-02,1.552962895162963430e-01,1.640853565799441083e-01,-2.332731530164362105e-02,2.556923540055549768e-02,-7.920607489473442328e-03,8.928024023771286011e-02
2.181630030639741258e-01,1.279793046673770307e-01,1.050836353826020420e-01,2.200395246778220210e-03,-7.881056951719570339e-03,3.204454626049136820e-03,1.046603620052337646e-01
1.933122914564857908e-01,1.318602669573666064e-01,1.020930432232153018e-01,3.479798882045318387e-03,-2.172367960086741059e-02,5.118881910588365600e-03,8.956777304410934448e-02
2.218301019805945518e-01,1.314084011869079971e-01,1.067228107489220645e-01,8.078482342838157713e-04,-7.056172777552763807e-03,1.952067166888029476e-03,1.057370975613594055e-01
2.236806334035950639e-01,1.119979469461625798e-01,9.987259110888839497e-02,-1.834753703054209720e-02,-2.551937692947632216e-02,-1.905791091747434732e-02,1.342663913965225220e-01
2.380323913148709725e-01,1.150759624920118795e-01,1.201062645096865056e-01,-4.731279758688925613e-03,-4.874572394331745835e-03,-6.290915799148247799e-03,1.215822622179985046e-01
2.258500060034722146e-01,1.180830480842009478e-01,1.111258910491613044e-01,-4.508689447685071926e-03,-3.413743973678614197e-03,-3.545349272443343216e-03,1.120068058371543884e-01
2.287162997177355495e-01,1.119448584172971911e-01,1.346724072743663292e-01,-1.185404944919248547e-02,-5.268014477071723822e-03,-7.388517845749966416e-03,1.103030592203140259e-01
2.298037217747483651e-01,1.056686274726465757e-01,1.153270814274390821e-01,-9.369398259135205617e-03,-7.584304578075995971e-03,-9.434437862440874303e-03,1.225022524595260620e-01
2.410682674172318352e-01,1.256375429202952199e-01,1.289498660368041394e-01,-1.049146144206444288e-02,-7.401387701476549313e-03,-1.323551492540419282e-02,1.182073205709457397e-01
2.282779831390350789e-01,1.044527191813598987e-01,1.192303311952100375e-01,-1.139514843881141853e-02,-6.811062939500855257e-03,-1.006135871170629748e-02,1.206384897232055664e-01
2.255871060854256482e-01,1.233024564807819468e-01,1.249061732974839772e-01,-8.149583630269449652e-03,-4.163511464530726333e-03,-8.405660244297945283e-03,1.037492305040359497e-01
2.293037578771470186e-01,1.388671457781275043e-01,1.169952960165884931e-01,1.667102574678594159e-03,3.350486379125896651e-03,-5.627689221508227731e-04,1.033350825309753418e-01
2.231397462142170329e-01,1.335407589062111711e-01,1.116504589960632954e-01,2.289413325688483306e-04,2.316360925657538847e-03,1.620760965270476309e-05,1.023951545357704163e-01
2.345005994348929867e-01,1.433396067112006345e-01,1.190687143070473519e-01,-4.965767858992542949e-04,6.441736232401858164e-03,3.866620581516287680e-04,1.060077250003814697e-01
2.406032337214804029e-01,1.469705124944467312e-01,1.170403845504372903e-01,8.259958945915252563e-04,9.607275545426535723e-03,-1.723346265923709217e-03,1.129300445318222046e-01
2.034111623865455520e-01,1.277834006127157029e-01,1.054607300152223814e-01,5.318700155065070366e-04,6.826964046698362661e-03,1.069984451533672167e-03,8.972278982400894165e-02
2.110550820417419482e-01,1.270219462668764066e-01,9.762515750004882586e-02,-1.135636162637736158e-03,1.290257817251202858e-02,1.370809287909938471e-03,1.044269129633903503e-01
2.679773404723738706e-01,1.659090312087588837e-01,1.050064617152419444e-01,7.984354324077921547e-03,2.292459712355357504e-02,1.031968838267942768e-03,1.487089097499847412e-01
2.439404294371345372e-01,1.387579153697346690e-01,7.672432717088845111e-02,2.060771304896835514e-03,1.839696747300636689e-02,-4.645609878046296458e-03,1.500973254442214966e-01
2.380001207979464961e-01,1.284811221019011573e-01,1.177252374470434543e-01,2.205799227540091410e-03,-1.105855005399406822e-03,9.432636428156748873e-04,1.153646782040596008e-01
2.500955477576638497e-01,1.170459415493133037e-01,1.379340243846309544e-01,2.189943215386883427e-03,-2.171296389459411412e-03,2.861430472283436194e-03,1.241469010710716248e-01
3.035779414725163217e-01,1.825352799229898459e-01,1.255929201609255474e-01,3.411925135724057975e-03,2.582230327557837393e-02,-1.601005395759930519e-02,1.661038100719451904e-01
2.959374526343761524e-01,2.053716423663443646e-01,5.760072039190269888e-02,6.428356015808798368e-03,2.183623223861411167e-02,-7.134161237664061149e-03,2.124347686767578125e-01
2.449357989768587152e-01,1.360474268740518855e-01,7.551699276399405358e-02,5.917084548668074054e-03,1.785544977774024614e-02,-7.721882373064340062e-03,1.528137475252151489e-01
2.694518757720608670e-01,1.521138774876222566e-01,1.118372067559831595e-01,-2.343472939091616815e-05,1.193167066737209001e-02,-6.731713562810311656e-03,1.438034921884536743e-01
3.170811534263187625e-01,1.954140185395008278e-01,1.275003244740303132e-01,-1.245353874519097371e-03,1.257909933147284727e-02,-6.169591597331087682e-03,1.681415289640426636e-01
2.601647241366202845e-01,1.536345205408788939e-01,8.785692870799410858e-02,-1.010308553443079008e-04,3.841751878886251990e-03,9.122131298358058865e-04,1.507629901170730591e-01
2.689980157460663546e-01,1.681936353331321687e-01,9.903676269117070441e-02,-1.813192658775413489e-03,4.562470643629374517e-03,-5.954348246106482348e-03,1.486411243677139282e-01
1.711043305338049159e-01,1.178897305211393381e-01,9.815801860400795442e-02,-1.157233841662428341e-02,2.614577255831239400e-02,8.419320460248458371e-03,8.328484743833541870e-02
2.436985719563559138e-01,1.546251927881438226e-01,1.250435479795698190e-01,-4.529821605510479278e-03,1.418600651453180532e-02,5.317648539204956198e-03,1.104273349046707153e-01
2.414934841595758885e-01,1.352324624281466825e-01,1.031448487357642108e-01,-9.851158898081488133e-03,3.520468944063840505e-02,5.539635402359395153e-03,1.408261060714721680e-01
2.376382762514451796e-01,1.379019363316848490e-01,1.302021023839417257e-01,-4.772607618569928677e-03,8.347586003473529345e-03,6.481149988613994772e-03,1.057259365916252136e-01
2.622538011071861019e-01,1.346338516582294420e-01,1.358379064396349478e-01,-8.129739510894923998e-03,7.233799600531057999e-03,1.141832497273241251e-02,1.299270391464233398e-01
2.255294906194981741e-01,1.364476593045333974e-01,1.306223868595866311e-01,-6.556590456148775163e-03,9.331235025806171660e-03,7.627662680585357499e-03,9.514808654785156250e-02
2.662907828105565144e-01,1.405411437369136762e-01,1.402691602228549050e-01,4.228725665663927644e-03,-4.957701513001596186e-03,1.286922696424795676e-02,1.283412724733352661e-01
2.317681741759211045e-01,1.237025760959453297e-01,1.104608089642652169e-01,1.559939217218744151e-02,-1.778088414210838783e-02,1.694182812314880965e-02,1.257937848567962646e-01
2.475896958480950927e-01,1.373042831808369835e-01,1.186053387624239064e-01,2.390179337746687477e-03,-7.231506148673795022e-03,7.064348996164489247e-03,1.220593377947807312e-01
2.857615988940428453e-01,1.594283887855717785e-01,1.221109538003123524e-01,1.242706397924637010e-02,-2.542434613916501329e-02,2.188604108381921043e-02,1.609552353620529175e-01
2.556569129699873821e-01,1.488892488708319362e-01,1.111165067442269061e-01,-4.275958391673517246e-04,-8.144587289467840330e-03,4.619082728542416548e-03,1.308532804250717163e-01
2.497751829052707040e-01,1.355619400544024744e-01,1.016570023788938293e-01,2.767572143548319326e-03,-8.122147305394076047e-03,8.349703991059543445e-03,1.360023617744445801e-01
2.490531984283954059e-01,1.491397918632377251e-01,1.127941387406159179e-01,1.278047666095312278e-02,-2.668506678706426827e-02,1.774051184060089145e-02,1.360352486371994019e-01
2.524762105373090648e-01,1.242646734845987422e-01,1.329066424289064574e-01,-5.679063237327255757e-03,7.772720733017708487e-03,1.135958904265054435e-02,1.267675161361694336e-01
2.149234344685974907e-01,1.542354201179928497e-01,1.263534168545077663e-01,-1.015373387454095470e-03,2.281477537240365894e-02,2.187669725239101137e-03,8.792915940284729004e-02
2.238674926012362287e-01,1.451755785207788363e-01,1.209925079433544493e-01,-8.107619610968357007e-04,1.013050263368367107e-02,5.209674046069525874e-03,9.524455666542053223e-02
2.277292841146456026e-01,1.485113134619719666e-01,1.254338160229797605e-01,-2.478115011142794071e-03,1.112170361763960107e-02,3.491828237293386535e-03,9.519605338573455811e-02
2.550916092271461322e-01,1.462931672449413745e-01,1.159537422640584542e-01,5.640869986761722424e-03,1.329776453618439040e-02,-4.284825291881151979e-03,1.293811947107315063e-01
2.353113416920720180e-01,1.319736511438486526e-01,1.171123037400490091e-01,3.043860542022982282e-03,5.111996237181680273e-03,-5.628656489754473198e-03,1.124122440814971924e-01
2.319665941915868834e-01,1.228756881473047902e-01,1.189319831183570930e-01,1.197081661230168202e-02,1.455493962560519029e-02,-8.117947746082170360e-03,1.166608110070228577e-01
2.380113655333958023e-01,1.285620333204786636e-01,1.250668370507717619e-01,2.050146822091448821e-03,4.009503470312487071e-03,-5.139704587184027243e-03,1.118660196661949158e-01
2.459949003502228670e-01,1.288870600645142528e-01,1.193412787309127282e-01,2.785189248245197383e-03,5.186123917597852684e-03,-5.551005901042169177e-03,1.229620054364204407e-01
1.563514927862919568e-01,1.922077284161317345e-01,2.173069623533244177e-01,6.430360873601845273e-02,-2.437738950436825827e-02,3.663283718999676888e-03,1.305507421493530273e-01
2.591068118998296477e-01,1.272691945523686252e-01,1.445674832415257127e-01,-3.136041095610775809e-03,4.405126156734634479e-03,9.767741103448223869e-03,1.255936622619628906e-01
2.234337622187638206e-01,1.047029289765835369e-01,1.246456386201731659e-01,1.041774581935103923e-02,7.232484603594434812e-03,-6.325736610437140278e-03,1.128249391913414001e-01
2.322633344706612202e-01,1.200685219556469896e-01,1.247369240109914845e-01,5.206996478141895195e-03,4.921985578423029341e-03,-4.635978149478920361e-03,1.109242662787437439e-01
2.233304610660097889e-01,1.097425142493818617e-01,1.271913718241452773e-01,9.360977003204862951e-03,5.775476993057080018e-03,-9.054883693536153536e-03,1.087824851274490356e-01
2.231344318233295376e-01,1.128787684208507058e-01,1.232422206725255487e-01,9.145788527388948666e-03,5.386875965630266890e-03,-6.762699589096030257e-03,1.076860129833221436e-01
2.464303405541069802e-01,1.524756666872189026e-01,1.296689624850145550e-01,8.656373926560913257e-03,2.010301793798397602e-02,-1.240837298990480654e-02,1.157130897045135498e-01
2.278370618501030509e-01,1.230082399967242779e-01,1.210231386448382129e-01,2.937961278796560275e-03,4.444873797324440205e-03,-5.610831707868036908e-03,1.066804975271224976e-01
2.313068768733275160e-01,1.226052908691678822e-01,1.387996869721146997e-01,1.647653553223268549e-02,1.006670799214290715e-02,-5.777457065644822642e-03,1.074081882834434509e-01
2.244620899327708086e-01,1.146965488218476409e-01,1.196750691534280431e-01,3.919555929924226946e-03,3.793139215109352265e-03,-5.328986107326470593e-03,1.081722527742385864e-01
2.427124496640761242e-01,1.397959710130549094e-01,1.551322197107218304e-01,1.626351807726329063e-02,9.829963222566745137e-03,-9.770098887640266475e-03,1.030456423759460449e-01
2.501638758281703456e-01,1.138925220623572265e-01,1.313819353249045530e-01,1.584560675372398246e-03,-8.974602745496872277e-04,-9.298475161053828750e-03,1.294673234224319458e-01
2.143926755694796626e-01,7.916020401227344405e-02,1.015594805425489022e-01,2.217082432421714489e-02,1.527691798099133948e-02,-1.703601973226184091e-02,1.371346265077590942e-01
2.267396782520115783e-01,8.121145205887940477e-02,7.716301884475576522e-02,-1.152315880640574115e-02,-1.139431002729528013e-02,-2.672219725201242443e-02,1.572071313858032227e-01
2.362335415654812643e-01,9.607135906738534237e-02,8.671429430094074187e-02,-1.675152819373344759e-02,-1.199787856733536794e-02,-2.637610741190671293e-02,1.562219113111495972e-01
2.437777765887714221e-01,1.127478669811663170e-01,1.303649858576537146e-01,-4.162983800810146802e-03,4.789425282503979343e-03,4.637904955144085337e-03,1.239200085401535034e-01
2.535497006934696040e-01,1.182220704041780091e-01,1.252384012311038297e-01,4.665616238092138053e-04,-2.390903467667457490e-03,-9.517701674164935621e-03,1.330520808696746826e-01
2.463900806096013807e-01,1.208527238641980694e-01,1.112081057651025939e-01,-3.263250331204414247e-03,-3.370746234615971167e-03,-9.905678918877567143e-03,1.319992691278457642e-01
2.902067332133007049e-01,1.788419064428996286e-01,1.373809972915896460e-01,1.158974291603525643e-02,3.761101152576130924e-02,-1.800329674146468328e-02,1.560689061880111694e-01
2.350341269879184791e-01,1.363506700709394004e-01,1.149768421896213005e-01,-5.774350215429805214e-03,-1.938004579336249228e-02,-8.067649129536818425e-03,1.171603873372077942e-01
2.814096554939048977e-01,1.619557112374789276e-01,1.431628800657034351e-01,-1.661387780546761533e-02,-2.500147314846941360e-02,-1.477369599841073591e-02,1.422159075736999512e-01
2.664775785700935762e-01,1.685798971662781365e-01,1.308672771010921942e-01,-4.590940518373359813e-03,-1.305363649916350260e-02,-5.874738127034052557e-03,1.240005493164062500e-01
2.372880620691480424e-01,1.268326310017344194e-01,1.330338443875010435e-01,-1.102913259796672310e-03,-7.427919098907068574e-04,-2.891303291983412724e-03,1.076303049921989441e-01
2.374979075640710757e-01,1.458300105902382848e-01,9.628257099772653815e-02,-1.824882263888460629e-02,-2.549301995638827284e-02,-8.691518709537885551e-03,1.362909823656082153e-01
2.385610800360626338e-01,1.335946181713860703e-01,9.508035797050401472e-02,-4.195501809467149477e-03,-1.876062605119888441e-02,-8.236674233159855391e-03,1.336272060871124268e-01
1.605490598167089722e-01,9.037111425967017664e-02,1.107438942989032449e-01,-3.230649539220285804e-02,1.704876441266841777e-02,1.097754749878718412e-02,9.096650034189224243e-02
2.003437543923895225e-01,1.215218316674482185e-01,1.495567397448486213e-01,-2.766270630200816025e-02,2.686496562895777235e-02,1.374086180639186826e-02,9.907761961221694946e-02
2.533060262540627883e-01,1.589968948496527645e-01,1.579929841043707373e-01,-2.314707939344644999e-02,3.318488156765961317e-02,2.163411940041208570e-02,1.237136796116828918e-01
2.279556258344470621e-01,1.405308622984332012e-01,1.458804807427076244e-01,-1.704959123449811126e-02,8.162982832477624212e-03,7.448455370324470401e-03,9.188267588615417480e-02
2.375726683839557429e-01,1.228075954547008242e-01,1.392431450497587653e-01,-2.600688952140003604e-02,3.137774364492643825e-02,2.016480042228937716e-02,1.332574337720870972e-01
1.898675482815603555e-01,1.131773784963852336e-01,1.114196222986476997e-01,-1.237491786868483157e-02,1.607545797275429164e-02,1.085120898058587746e-02,8.721925318241119385e-02
2.205312639264456476e-01,1.297532589186160823e-01,1.316485689833960526e-01,-1.711086622291810300e-02,9.741929958321982400e-03,1.093563402758519765e-02,9.794902056455612183e-02
2.398538705875651322e-01,1.260921088596301254e-01,1.244773580545893987e-01,-1.803246793396769175e-03,1.081213216530652705e-03,2.753234689962369593e-03,1.147346720099449158e-01
2.291393081094627304e-01,1.274962125205046370e-01,1.257463734385789733e-01,-7.629209707616809409e-04,2.699654557679090957e-03,4.711930341641478587e-03,1.029682308435440063e-01
2.452493023232583114e-01,1.269455415109372876e-01,1.258067569227445115e-01,-3.336617485505690393e-04,-5.386166597385420168e-04,-1.242809559946875210e-03,1.189017966389656067e-01
2.348450646486205939e-01,1.257773293100775125e-01,1.195867412541679192e-01,-1.953283411235178391e-03,2.413892303100412771e-03,2.791946871715427717e-03,1.125237718224525452e-01
2.274114750857909040e-01,1.208159766167087312e-01,1.223075824984430765e-01,-1.596229155337182577e-03,2.828095454160494022e-03,4.751341279967024461e-03,1.063258722424507141e-01
2.553992204048320946e-01,1.047232272734520547e-01,1.499483780055838045e-01,-1.749784760072264564e-02,-5.179542434498776021e-04,2.118373843945853523e-03,1.373572498559951782e-01
2.797644775158507624e-01,1.345983348264720991e-01,1.931915507613805039e-01,-4.392432669183636562e-02,3.812177275536573519e-03,1.023889109047585594e-02,1.488178968429565430e-01
2.649817032901697900e-01,1.309640279449404143e-01,1.391412426554231030e-01,-3.167537333000461624e-03,7.302956858548409654e-03,1.199950029494058212e-02,1.324906647205352783e-01
2.311231415681649359e-01,8.852208147225187895e-02,1.355081391879744412e-01,-3.513634881097120466e-02,6.671606628533627986e-03,1.127628453938751829e-02,1.416374742984771729e-01
2.549687034945375963e-01,1.033866037847510633e-01,1.437530758783678864e-01,-1.272684378964841420e-02,-2.081790279480427383e-04,9.780951566208200519e-04,1.377558261156082153e-01
2.358911440621886957e-01,1.214432416201015608e-01,1.281818423298050902e-01,1.280473856982208792e-03,-1.852256060475601131e-03,3.288228437043071682e-03,1.114457771182060242e-01
2.688532193030069850e-01,1.509299335653318808e-01,8.595765670574401218e-02,-8.298449276499438856e-04,3.565734901584569766e-02,-1.240063206343780186e-02,1.733977347612380981e-01
2.285423428354456943e-01,1.193918713274640664e-01,1.246656232409001502e-01,6.228923729476584965e-03,-5.424958879104401811e-03,7.617458758553694378e-03,1.083732992410659790e-01
2.180793100229492798e-01,1.222540057924286355e-01,1.146270991495797198e-01,1.441386259671979461e-02,-1.826128367513777870e-02,1.431340222664754733e-02,1.104981079697608948e-01
2.349489470348447850e-01,1.224398260797182753e-01,1.318625943690430735e-01,1.681029951817649554e-02,-1.513823304948042590e-02,1.456508518900903083e-02,1.177226603031158447e-01
2.368756154237663392e-01,1.267771751628074262e-01,1.269413288068015344e-01,1.496516257811821623e-03,-2.322026893545784711e-03,3.696912517362734366e-03,1.103064641356468201e-01
2.646391448213335496e-01,1.293054889353282555e-01,1.421916397761410211e-01,-2.946181839122543993e-03,3.963492199450377104e-03,8.920823427427308425e-03,1.305727064609527588e-01
2.753530947707016341e-01,1.359593778783484419e-01,1.108775165880048486e-01,-4.579824273429389941e-03,-4.833423949492893050e-03,2.442227775431969616e-02,1.596192866563796997e-01
3.062987325488819024e-01,1.718515244762371386e-01,1.378179599945894840e-01,4.502655643017937880e-03,-5.278015367887131833e-03,2.332726405905077502e-02,1.599591523408889771e-01
2.446608231209269624e-01,1.195338352375863722e-01,1.125535483682189725e-01,-4.279772449672686503e-04,1.794790376792069705e-04,8.690672910296957585e-03,1.296384930610656738e-01
2.770217873554657317e-01,1.434562240954084800e-01,1.407787225326661562e-01,-1.434333173930337890e-03,-1.209522566927478254e-03,1.253429738543595205e-02,1.366983503103256226e-01
2.757935465466501146e-01,1.133265849801095848e-01,1.170393103507627042e-01,7.500790969604510632e-03,5.267902595067971115e-03,2.710251678658875951e-02,1.681123971939086914e-01
2.529443188066223813e-01,1.175552732620925023e-01,1.080940365490937194e-01,-3.564337114750745251e-03,6.149401040833833362e-03,1.829160090916719106e-02,1.444159448146820068e-01
2.743898926372143054e-01,1.451085116239966277e-01,1.252209876417419987e-01,3.668984986200690690e-03,8.582215275159328291e-03,2.001722496157788689e-02,1.454087048768997192e-01
2.357112285682242681e-01,1.231113686770774485e-01,1.292170695486379584e-01,-1.392451865520070130e-02,1.026706471370307343e-02,1.093540724212912520e-02,1.152613162994384766e-01
2.591540170394118769e-01,1.361078450081368296e-01,1.486718394893590534e-01,-1.840824628550974396e-02,2.018887009685766884e-02,1.620626504495553677e-02,1.295359134674072266e-01
2.544604148522231490e-01,1.424516460881365409e-01,1.428165679922367426e-01,-2.171551685199744203e-02,3.440942747354836656e-02,2.271420160153119275e-02,1.379120945930480957e-01
2.229057662722396527e-01,1.363782387474323787e-01,1.150199571082990424e-01,-1.468691352946977988e-02,1.709180717510017447e-02,9.360904728427776184e-03,1.075995042920112610e-01
2.512510712082607900e-01,1.358016605356495710e-01,1.435341096446546838e-01,-1.235506248938325093e-02,1.755056390305594766e-02,2.357965980647628787e-02,1.246822401881217957e-01
2.313298882818658475e-01,1.221139505701521744e-01,1.219003351463944784e-01,-3.790723256126605351e-03,3.437987029627083326e-03,5.737868767142136409e-03,1.101309880614280701e-01
2.668128501431866750e-01,1.472084682312423953e-01,1.324553845168030264e-01,7.529242513343284773e-03,1.012699055558362489e-02,-1.249823702294600852e-02,1.312773823738098145e-01
2.432562120416316698e-01,1.301194725816459119e-01,1.098257802071671424e-01,9.242929052222875752e-03,-9.224230968554784915e-03,9.789907919673710920e-03,1.276980787515640259e-01
1.974831889638039850e-01,1.172786936378425182e-01,1.298442419277175408e-01,-1.607219117530150551e-02,1.316933463613924153e-02,7.369769021943637852e-03,8.391079306602478027e-02
2.392931303615660199e-01,1.142518403333614430e-01,1.307470769454217585e-01,6.775581190108856747e-03,2.817359518330995495e-03,-4.068655384245421086e-03,1.185581311583518982e-01
1.866434387149630558e-01,1.118368828946848248e-01,1.254737784212664742e-01,-1.614675252216637644e-02,1.144878481707321816e-02,7.905032353845372478e-03,7.826047390699386597e-02
2.282595155712870139e-01,1.226464908826653682e-01,1.544272616902786222e-01,-2.404761581274129922e-02,6.580217771226730232e-03,4.974386244534239124e-03,1.036660969257354736e-01
1.894191866410291636e-01,1.020794613132268991e-01,1.254607417484155107e-01,-1.683130093802432184e-02,1.154310770147368810e-03,1.416122658232891497e-03,8.362229913473129272e-02
2.474195347081051821e-01,1.234667750065540359e-01,1.511924831607885100e-01,-7.891624134144487046e-03,-3.308381230427726374e-03,-1.774107209593827998e-03,1.136900857090950012e-01
2.285443457345039397e-01,1.219140771244291710e-01,1.429435774817826299e-01,-2.109925784752594152e-02,5.411709121590640992e-03,3.163027767090455505e-03,1.049918234348297119e-01
2.177084176333579923e-01,1.229742653192095470e-01,1.371857693426455360e-01,-9.781992701829559517e-03,4.584372855094503638e-03,3.015833415493234752e-03,9.059585630893707275e-02
2.140048590402836570e-01,1.145669813137002446e-01,1.364654732642148205e-01,-8.440697057034948422e-03,5.370717999667172504e-03,1.166250256001280690e-03,9.216423332691192627e-02
1.884095810817704442e-01,1.110907410984537796e-01,9.759546800358986918e-02,2.002229526532543769e-02,-3.445072102285818422e-02,1.614596111487249727e-02,1.129117980599403381e-01
2.210144297420085779e-01,1.500161329864003190e-01,1.255129766544432202e-01,6.613492561665139857e-04,-1.347104820147971074e-02,2.486916455871469953e-03,8.913539350032806396e-02
2.406213806795169385e-01,1.054461490541003660e-01,-1.280978880059124858e-04,2.787401092801744269e-03,3.513058674404060527e-02,-2.816835489214116264e-02,2.231489121913909912e-01
2.291607017561152482e-01,1.407506101025456369e-01,1.204557064705377711e-01,3.218254392670960671e-03,-1.672920172501769429e-02,7.033635378964834227e-03,1.050789579749107361e-01
1.803465263381571204e-01,1.240630766602615342e-01,1.490573933316077793e-01,-2.977655173698447871e-02,4.894689037252106592e-03,-1.035935129262654164e-03,7.155975699424743652e-02
2.056477134477368018e-01,1.321281369012966278e-01,1.499081721102799580e-01,-1.981456435227272814e-02,-3.680709605266295308e-03,3.290315765403457882e-03,7.526652514934539795e-02
2.337481673673032501e-01,1.212623908431929853e-01,1.446831882317842211e-01,-1.098775643093069174e-02,2.183560719872547611e-03,3.569206004706644043e-03,1.047940403223037720e-01
1.928076917162632187e-01,8.925461038346940712e-02,1.049398440130833027e-01,-2.512955255205761781e-02,1.442217990674477326e-02,1.497241209653986903e-02,1.119643375277519226e-01
2.512991856858822759e-01,1.433109347203317396e-01,1.740953751453839515e-01,-1.923051432868384467e-02,-6.841243703916402488e-04,6.931202929437516990e-04,1.019660234451293945e-01
2.101926895724443023e-01,1.354128266465656760e-01,1.576212318963771397e-01,-1.570436276277429113e-02,1.360290335510961951e-04,1.350650695726306324e-03,7.190208137035369873e-02
2.063153373632272691e-01,1.270528035163002167e-01,1.111978807900880911e-01,-1.715201826683434563e-03,-7.730302401454385020e-03,3.570358626717751518e-03,8.953753113746643066e-02
1.824756681125042357e-01,1.100612235154188601e-01,9.228145419051782261e-02,1.076299735995584102e-02,-1.431327426770536912e-02,5.442249714299476904e-03,8.887335658073425293e-02
2.203281313179516476e-01,1.399270124085968958e-01,1.213527274989049110e-01,1.775500173509993434e-03,-1.199523657122361642e-02,1.205981749579265478e-03,9.353189170360565186e-02
2.290056310486237312e-01,1.409041524268652978e-01,1.155484693055234824e-01,-1.104244365354908999e-04,-5.629627789041876003e-03,1.494393262664834383e-04,1.036042273044586182e-01
2.039716117358020275e-01,1.380814099430654196e-01,1.136721810844741332e-01,3.321684550185437668e-03,-1.170400942543797264e-02,1.755036605968365729e-03,8.365973085165023804e-02
2.313872927674344160e-01,1.392132752288643693e-01,1.163523528088346026e-01,6.152472037428208728e-04,-1.102079927457892336e-03,-3.772148611718445120e-04,1.055038422346115112e-01
2.438612473755633614e-01,1.406343106706803570e-01,1.298549823013950277e-01,2.683532239331658849e-03,6.578689306724934058e-03,-5.398280464545156775e-03,1.101071164011955261e-01
2.473637248749517847e-01,1.464788521769653795e-01,1.075777468899664080e-01,5.521297953772381049e-03,1.198154357906503452e-02,-7.235553972110396991e-03,1.276509761810302734e-01
2.345813471028723729e-01,1.361829025894130407e-01,1.098931501152496659e-01,2.019309346029623739e-03,3.107978700407302858e-03,-2.354119163854834218e-03,1.140969470143318176e-01
2.216530344143025910e-01,1.372501840403865525e-01,1.094425798006295053e-01,2.436579376974495371e-03,7.693366182827863185e-03,-2.800501096552985170e-03,1.022890433669090271e-01
2.202142341197597109e-01,1.272142052081166319e-01,1.052161831641373613e-01,2.413771272663445960e-03,7.300972308798545952e-03,-2.814216514500852105e-03,1.066765487194061279e-01
2.300888223334912053e-01,1.458757659298281495e-01,1.227344297113407007e-01,2.083851126290552948e-03,9.372972869724183545e-03,-3.620423345443516024e-03,9.945888817310333252e-02
1.912422470759169157e-01,1.150897331607404067e-01,6.355898326054873482e-02,6.971273119272719358e-03,-4.213799680740431403e-02,8.325798436314413992e-03,1.343852877616882324e-01
2.124125644215625608e-01,1.222713652066626661e-01,8.763010849141955605e-02,-2.135980236989933750e-03,-1.822112897304646942e-02,-5.770745378524911803e-04,1.160119473934173584e-01
2.518139388279471702e-01,1.473620732215956131e-01,1.000945051178632611e-01,3.616204572516529443e-03,-1.901327524186373699e-02,3.738764865164047931e-03,1.387345641851425171e-01
2.628133909115207834e-01,1.552734681428666330e-01,1.039501218912864677e-01,1.557580837205959148e-02,-2.983350633359015125e-02,-1.373927738149649958e-03,1.520586162805557251e-01
2.257817238807358629e-01,1.361283582007871418e-01,1.023086242279640790e-01,4.901690362871525576e-03,-1.490321820724533307e-02,3.732056888176999050e-03,1.139900684356689453e-01
2.311348527689994770e-01,9.306445423307380116e-02,1.149452030174252376e-01,-1.972480553230013950e-02,1.010121473886545912e-02,1.745213379904046042e-02,1.375069320201873779e-01
2.410478353726979439e-01,9.709585411373525266e-02,1.201667344544840033e-01,-1.851665107032763116e-02,9.576282407493384718e-03,1.737437266357066967e-02,1.419248431921005249e-01
2.651624991572311130e-01,1.165657986473438573e-01,1.626427040609353114e-01,-4.811165859493610024e-03,1.154710902098267811e-03,9.200400803928107316e-03,1.329833418130874634e-01
2.667157116559738528e-01,1.069173447251575149e-01,1.411598711624399427e-01,-3.243450700529047249e-03,-1.316609449767582821e-03,6.852927808986979813e-03,1.463346034288406372e-01
2.903671844248298939e-01,1.138228267268188154e-01,1.687524247207407291e-01,-1.281172596891391388e-02,1.088312643436956627e-02,1.445308025436691651e-02,1.611275374889373779e-01
2.838198704618254964e-01,1.039347836775176004e-01,1.477906218793942350e-01,-1.016839416984377173e-02,1.157559346989733146e-02,1.104404447975200661e-02,1.657439321279525757e-01
2.563136520690988962e-01,1.296448809796445500e-01,1.344666770388504018e-01,1.370640341824755576e-03,-1.206003948877258864e-03,-5.049729234088187399e-03,1.246754005551338196e-01
2.531525090118174615e-01,1.338690168319646712e-01,1.189760596933458620e-01,5.177146463669618850e-03,2.167027074829530348e-03,-9.679404705078026305e-03,1.288503259420394897e-01
2.583227186113180585e-01,1.118382125593911092e-01,1.302972431819905963e-01,2.484713708234386875e-04,-9.612584398547561245e-04,-1.992844561659701946e-02,1.424390077590942383e-01
2.504382366921987790e-01,1.289658188868001987e-01,1.316823802776228292e-01,5.073093455679715189e-03,5.569325800844932874e-03,-1.021283270915006834e-02,1.221315190196037292e-01
2.718179965892877359e-01,1.434108742597912933e-01,1.424214892526668996e-01,6.133670569634939833e-03,7.122467872303261255e-03,-1.240618758967935997e-02,1.316936165094375610e-01
2.900581486945977838e-01,1.435377579069291865e-01,1.294775077736990965e-01,1.469378558061667540e-02,1.856951928079264222e-02,-3.437070109089254699e-02,1.701536625623703003e-01
2.486185980149284991e-01,1.320141874759326317e-01,1.251032987365848226e-01,1.005301749781369915e-03,1.563676863474447931e-03,-4.033913561479304105e-03,1.204548627138137817e-01
2.341069044191988469e-01,1.387328541545473359e-01,1.147461602264859826e-01,1.064912173269138944e-03,9.058262553328133614e-04,-2.934195658849794502e-04,1.093864738941192627e-01
2.524514643096859579e-01,1.256940882562891104e-01,1.268320532473637408e-01,2.353993647389895677e-04,1.526323203860477113e-03,-4.686259829496727293e-03,1.264813095331192017e-01
2.713732370609810984e-01,1.255712585903137335e-01,1.665964488930604670e-01,2.715776608306669920e-02,9.237470044895539772e-03,-2.044948177983043486e-02,1.438155025243759155e-01
2.931544519058151832e-01,1.447333709553919046e-01,1.812681895423459422e-01,3.033141464509187674e-02,9.173869447661880949e-03,-1.252194351320091124e-02,1.463691741228103638e-01
2.448659750354226228e-01,1.326359595132588498e-01,1.333012708314133821e-01,9.446554792105283510e-03,5.932629050629232605e-03,-9.925255476220258555e-03,1.148485243320465088e-01
2.560921936083702666e-01,1.223612336829042468e-01,1.504475719379909926e-01,9.885975907491057965e-03,8.743014312146978745e-03,-9.230759047150876792e-03,1.252794414758682251e-01
2.563519310379348548e-01,1.173773814813512534e-01,1.498710458536758050e-01,1.057311432837526946e-02,5.756121723934741474e-03,-6.524875671070615168e-03,1.281267553567886353e-01
2.449895583472499472e-01,1.070149603857559473e-01,1.380292831231086370e-01,1.227010776725124749e-02,2.807553479677045872e-03,-5.122030484110046827e-03,1.275684535503387451e-01
2.501833271684688609e-01,1.087721189513153747e-01,1.468825492895926288e-01,1.302261104563490896e-02,6.452732790610603113e-03,-7.620446154469586765e-03,1.298775821924209595e-01
2.471080663170256986e-01,9.588676975318956297e-02,1.361340426457511299e-01,1.422004141968788785e-02,4.639099397249172620e-03,-1.086142654740238946e-02,1.393792778253555298e-01
2.623227301168953862e-01,1.195132813099390456e-01,1.490309767781178019e-01,9.072083377690420489e-03,4.139577677672817355e-03,-7.113928210487379528e-03,1.322897076606750488e-01
2.384150629479627748e-01,1.252024143474537166e-01,1.178851223695080441e-01,1.671974376881409227e-03,6.845062214328527213e-04,-1.574876063317569947e-03,1.171165630221366882e-01
2.372034249419243679e-01,1.203040303136037603e-01,1.191847517767310460e-01,1.897414641278208965e-03,1.346323712221252642e-03,-2.444064229447600375e-03,1.176083460450172424e-01
2.408173511677401402e-01,1.272356127365812661e-01,1.223901317146804391e-01,3.230832126497615222e-03,2.078167026500624733e-03,-3.512209055941671078e-03,1.164299175143241882e-01
2.413390851302164297e-01,1.238786328804347137e-01,1.274301079459261299e-01,7.309713074708534299e-04,1.508245899804808426e-03,-1.757892555047802473e-03,1.158020347356796265e-01
2.426640932486211211e-01,1.305367615996582964e-01,1.230610851843039893e-01,2.892278098477051029e-03,1.683082026666669765e-03,-2.945823415268644316e-03,1.163025349378585815e-01
2.604457256500427587e-01,1.310008017828006577e-01,1.357535060646959113e-01,9.883739987196629023e-03,9.020443095449625151e-03,-1.918915436816292022e-02,1.334361433982849121e-01
2.361698189675982273e-01,1.299959103868392474e-01,1.261275039869110548e-01,1.848948565833295147e-03,-4.280111412764870532e-03,4.217196794751025719e-03,1.087067425251007080e-01
2.334256874628100886e-01,1.351489805683159795e-01,1.202186771854318464e-01,1.213321493913915037e-03,-2.157864890824914492e-03,4.047658487639990872e-03,1.068459749221801758e-01
2.156019742663447814e-01,1.224843508598564695e-01,1.148974455163420116e-01,3.990529202367226747e-03,-4.049119065829489758e-03,5.544520373455543230e-03,9.810255467891693115e-02
2.340929479820115233e-01,1.245671652310740424e-01,1.161737303445954106e-01,1.288048591653925042e-03,-1.462967201680311254e-03,3.639812223159114967e-03,1.141787469387054443e-01
2.246438156655831131e-01,1.230724900907833597e-01,1.189904676421714713e-01,1.926003154276223657e-03,-3.425224080765653864e-03,4.257987006217408069e-03,1.041572391986846924e-01
2.538097908393592839e-01,1.442229288530633979e-01,1.198620429636510776e-01,-4.953455099955120407e-03,1.346573877835903314e-02,6.001203672215617464e-03,1.264831870794296265e-01
2.513498453669340549e-01,1.417082779615885524e-01,1.025761574931809139e-01,-1.092807595632937180e-03,1.586953299635615600e-02,2.440286862138791625e-03,1.364554017782211304e-01
2.842616028614804446e-01,1.508680785160128879e-01,1.086862784545561539e-01,-1.628883221289486455e-02,1.481587679825073674e-02,1.777652374045528630e-02,1.661398112773895264e-01
3.073598467494820241e-01,1.748875593207672718e-01,1.265982438868850368e-01,-8.350872021969870870e-03,1.724852388364970374e-02,2.175234295115881580e-02,1.697026789188385010e-01
2.571611655848199951e-01,1.343194585141768149e-01,1.016402110753653887e-01,-4.585532322465149004e-03,8.242724179917882560e-03,1.614970917362478289e-02,1.456768363714218140e-01
2.345760673735046986e-01,1.407877477002970612e-01,1.496785831843365222e-01,1.238738229718142764e-02,6.465519152360032010e-03,-5.783898284811080093e-03,9.342136234045028687e-02
2.335711544495516212e-01,1.237238027513038741e-01,1.464852827504136978e-01,-2.119569581933685581e-02,-3.815173466621017261e-03,-2.714314887700245999e-03,1.072276979684829712e-01
1.956444258649343293e-01,1.544397307173961398e-02,1.149567955770088440e-01,-6.160305631748917016e-02,-4.068599657750374132e-03,-1.535542159156320701e-03,1.894315034151077271e-01
5.594989086672647050e-02,-1.421454751665462285e-02,6.193543253025984158e-02,-9.670943148509830722e-02,5.268837835482329326e-04,-5.867696360106719120e-03,1.831423342227935791e-01
1.517513365194720631e-01,1.465244611579813172e-01,1.619998190361936485e-01,-7.168526144243565767e-02,2.157879301294203175e-02,-1.570174226423460759e-02,1.331871449947357178e-01
2.798419296361513986e-01,9.888121953596280822e-02,1.701041341102403626e-01,-9.756316604105046142e-02,-1.871150721189634991e-02,2.009682079727999858e-03,2.335575371980667114e-01
2.518611917632433417e-01,1.218186495109417344e-01,1.584289997763649316e-01,-4.128856688561775845e-02,-6.005861039127433857e-04,5.952465946852602066e-03,1.367921531200408936e-01
2.859186212063480337e-01,1.357644031047116617e-01,1.849903599040990665e-01,-3.206101876078565338e-02,-9.030670026868295105e-03,-8.984141810091992794e-03,1.454253345727920532e-01
2.066728032743286869e-01,1.551364184970718818e-01,1.547329982219975975e-01,1.293080454841734513e-02,1.411613586273907824e-02,-7.900144911950027216e-03,6.295714527368545532e-02
2.280130069805390014e-01,1.460439725053805649e-01,1.225861429444590200e-01,8.402869054197634538e-04,8.251437283887422605e-03,-3.142187275872232888e-03,9.709791094064712524e-02
2.103436464310289578e-01,1.358533675804405871e-01,1.316832957737709420e-01,5.495558416094861037e-03,7.899552311327768042e-03,-5.664470288135142924e-03,7.906258106231689453e-02
2.114667650314405734e-01,1.415753297948850464e-01,1.263458817729177786e-01,2.181366240110536175e-03,1.858390588646447947e-02,-3.747602834048734642e-03,8.528569340705871582e-02
2.116463928703346542e-01,1.358241412710689544e-01,1.119381408880342627e-01,2.846007193244260228e-03,5.168945537742640657e-03,-2.915587501091666291e-03,9.088784456253051758e-02
2.371915848290554463e-01,1.219025916621425398e-01,1.226050375842895890e-01,1.140425444522493500e-03,3.518160913055241976e-04,-1.647190164809063948e-03,1.149933636188507080e-01
2.184536782240801001e-01,1.328507696011161088e-01,1.159977637286873087e-01,4.328248485493919190e-03,4.870262948668895378e-03,-4.792075375713798421e-03,9.618107974529266357e-02
2.201934372713331145e-01,1.402471384840438817e-01,1.325869950787442741e-01,3.463955248677858586e-03,3.019783883268479466e-03,-5.455413268250407233e-03,8.494190871715545654e-02
2.473078737857465903e-01,1.252114931732615233e-01,1.315245393372200533e-01,1.622447083450662348e-03,9.009493427538430585e-04,-4.555039363045198381e-03,1.193698346614837646e-01
2.538181996214643465e-01,1.197611105311955082e-01,1.354562466572060142e-01,2.650197571433273065e-03,-1.558198323362842801e-04,-1.005147257545946880e-02,1.282101273536682129e-01
2.478761652753844746e-01,1.260841230675233959e-01,1.182943567179307598e-01,4.828831985058797127e-03,5.375226412837496269e-03,-6.453809614300821604e-03,1.269814968109130859e-01
2.500761635170543062e-01,1.279477597008056577e-01,1.301599440101430805e-01,1.328870415865175854e-03,4.742621413496774831e-03,-5.900705618707055219e-03,1.217674016952514648e-01
2.453218528483160077e-01,1.107600666335291362e-01,1.200462007599073233e-01,3.162600149021121184e-03,3.390841135818267564e-03,-9.120952629917479168e-03,1.313682645559310913e-01
2.515712708411468324e-01,1.196316104816955439e-01,1.242602529319473126e-01,8.441757856439222746e-04,3.562696698533092225e-03,-8.936290411050583707e-03,1.307615637779235840e-01
2.370297748915438651e-01,1.289848289793127378e-01,1.175340239144856413e-01,1.333391648992498591e-03,1.013047277995319899e-03,-9.101250102039372143e-04,1.142494231462478638e-01
2.616475368396101731e-01,1.335341740938043031e-01,1.268217339284930245e-01,-8.085129830286294506e-03,-9.587384852319734765e-03,-1.066983905177234550e-02,1.346530467271804810e-01
2.497508530421062301e-01,1.266343804951011731e-01,1.271519424647905572e-01,2.880337729063668227e-04,-1.928881918031741900e-03,-4.254324346720750501e-03,1.231256350874900818e-01
2.473372654747839627e-01,1.301488225108004271e-01,1.247181876780469878e-01,-1.484329978521292800e-03,-2.969844184839462876e-03,-3.998325413109196647e-03,1.203331202268600464e-01
2.344022234388660197e-01,1.061046770870187339e-01,8.905782461061784172e-02,-1.192495796718141821e-02,-1.760093507123861381e-02,-2.153800102558856705e-02,1.472602188587188721e-01
2.697105388506943480e-01,1.427606964036496617e-01,1.457445726174291245e-01,-1.033605504010147620e-02,-7.502398723243992006e-03,-1.300159992700268725e-02,1.293941587209701538e-01
2.416200620793764187e-01,1.358223690848328613e-01,1.044696610464463937e-01,-7.893342280482504650e-03,-2.666284684647354103e-02,-1.416284545198363484e-02,1.357003450393676758e-01
2.495675198362733438e-01,1.471900377252177150e-01,1.301848785272114173e-01,-7.292332720229345241e-03,-1.517111220837484911e-02,-9.430142881943015878e-03,1.167393475770950317e-01
1.839296634364686600e-01,1.333766861091724987e-01,1.480635937898315269e-01,-2.249382518264127218e-02,-1.726174475291620408e-02,-8.589789373304252545e-03,6.827895343303680420e-02
2.212312644961111630e-01,1.511511946123535455e-01,1.419870429115793198e-01,-1.122689325542628944e-02,-3.245899921306714953e-02,-1.065628480096707589e-02,9.755501151084899902e-02
2.029584884650396659e-01,9.533778811594648128e-02,9.395936581955255384e-02,-1.941385041001670447e-02,-1.935993677296888454e-02,-1.364481632763257096e-02,1.206072941422462463e-01
2.012555700734586783e-01,1.196192899300410339e-01,1.076534163888733520e-01,-3.000351595319788751e-03,-1.347200890170055336e-02,-5.455623026479328869e-03,9.189829230308532715e-02
2.292529163069075282e-01,1.409950612157539473e-01,1.255313991866370549e-01,-1.946537532702365819e-02,-1.859981779330812171e-02,-1.928214863716205818e-02,1.126202866435050964e-01
1.924242873766857653e-01,1.184774919330560256e-01,8.437002881696706313e-02,4.324815570041749130e-02,-7.628467694082340100e-02,2.347088766252555456e-02,1.840529739856719971e-01
2.316394232584990942e-01,1.628476806306143609e-01,1.252539312190701359e-01,1.006910848031126147e-02,-4.069160979526187383e-02,1.786312191054018408e-02,1.223134845495223999e-01
2.367541385162860446e-01,1.460811023159659938e-01,1.124766651548834151e-01,2.341993401973972450e-03,-2.428345100576496246e-02,8.560191406876263565e-03,1.200134083628654480e-01
2.344521178466933975e-01,1.479079165247817462e-01,1.305575810500995970e-01,1.045265846327812428e-02,-1.589691570840761486e-02,9.409221766838714654e-03,1.031698286533355713e-01
1.250121152960526061e-01,1.498113709946492234e-01,6.639507993335624914e-02,4.600650828144430687e-02,9.677644336472515652e-02,-3.120103767214604112e-02,2.070554792881011963e-01
2.465730770947470174e-01,1.722003498065970972e-01,1.242314215160956609e-01,1.846698238829501404e-02,-4.472701725739677836e-02,1.939979006268472903e-02,1.398340612649917603e-01
2.467049052569855738e-01,1.262324946532194792e-01,1.299399313355316665e-01,1.813316092699111771e-03,-4.725276025777938420e-03,4.749870556435638672e-03,1.192695945501327515e-01
2.432431472180445753e-01,1.325302618952385880e-01,1.341630220118715244e-01,8.491752390359182459e-03,-7.582138681741766757e-03,7.249815450569106930e-03,1.123642176389694214e-01
2.371394311581695447e-01,1.299409679387291960e-01,1.368211249855192657e-01,4.777488045016224996e-03,-2.653371271968832726e-03,5.132459474048128682e-03,1.047374159097671509e-01
2.284300150827552889e-01,1.225983722463923342e-01,1.300523370491985797e-01,8.568012550140387956e-03,-5.567090061789013375e-03,5.804219905846117085e-03,1.043135151267051697e-01
2.233297773464991143e-01,1.214192132953753889e-01,1.213344988263663632e-01,7.385928466205608778e-03,-3.927697734129151526e-03,7.052666091858255347e-03,1.036993712186813354e-01
2.418119898381400068e-01,1.239302498993187368e-01,1.232501275992389095e-01,5.388156502968263675e-04,7.012466496113245722e-05,-3.104994016180272968e-04,1.182282343506813049e-01
1.783344230043162892e-01,1.386644697864317932e-01,1.395345629195980097e-01,1.284872645287291233e-02,-9.246887804963360366e-03,4.000668387663584152e-03,4.837092012166976929e-02
2.297924429071580288e-01,1.425159702403607787e-01,1.414439459059225190e-01,1.391932838751132502e-02,-1.427026943104586776e-02,1.521528956529028150e-02,9.797231107950210571e-02
1.681390209658639445e-01,1.417132370008392095e-01,1.252676330312871011e-01,1.089125758217662256e-02,-2.897149320685692489e-02,1.367103671624167113e-02,6.955544650554656982e-02
1.741335273593735966e-01,1.161914444275310571e-01,1.148134890044536227e-01,2.272209700830685186e-02,-2.709073726175411853e-02,1.016079970043842068e-02,8.659882098436355591e-02
2.407181883515570608e-01,1.256380057692603192e-01,1.072736520440965291e-01,7.265149984946216860e-03,-8.956141760217696882e-03,9.425634633440852297e-03,1.279045939445495605e-01
2.393418414086782575e-01,1.219890514144171267e-01,1.283238145451643109e-01,1.424048267080222849e-02,-1.746187653643430093e-02,1.049459067486870935e-02,1.221553906798362732e-01
2.379712926871255241e-01,1.363296491079956929e-01,8.440282032937738987e-02,3.396741643663370169e-02,-3.998555501594204531e-02,2.746323667264067778e-02,1.697819977998733521e-01
2.585511650333266465e-01,1.436689698017125649e-01,1.308930625293512340e-01,8.140080086313965582e-03,-1.464785736361424312e-02,1.318199197984011931e-02,1.272502392530441284e-01
2.153996694422331826e-01,1.502098771602492222e-01,1.361948886873078080e-01,4.845974518272440877e-03,-1.428323370014600649e-02,2.823594315550753946e-03,7.788558304309844971e-02
2.420969334746868595e-01,1.271321235645755388e-01,1.211028433701827611e-01,2.228066138457990633e-03,2.741238040507903897e-03,-3.401479319821395716e-03,1.184000074863433838e-01
2.374313028929398994e-01,1.251863946760409518e-01,1.269115819243846754e-01,2.415680708954402907e-03,2.023240647494060906e-03,-3.531863020027887004e-03,1.116936057806015015e-01
2.480412137280077756e-01,1.283486126494331747e-01,1.326592995888840332e-01,2.429873642997014502e-03,2.333272629055558895e-03,-4.992453002828457949e-03,1.180583015084266663e-01
2.395260793453841131e-01,1.183036070485598557e-01,1.249971123964016689e-01,3.646934460976490600e-03,3.685384393146589384e-03,-4.983905425415890295e-03,1.186737194657325745e-01
1.928838950645836992e-01,1.176611213618017071e-01,1.255389331088951621e-01,1.063896585465460252e-02,-8.009571909613304869e-03,8.174621967785641527e-03,7.655344903469085693e-02
1.870264417079672836e-01,1.165700680750921259e-01,1.286592519981825111e-01,1.023082533704772895e-02,-8.896788147666220489e-03,7.926588937272611990e-03,7.069971412420272827e-02
2.068197552534165595e-01,1.555082168063737780e-01,1.559261294048331914e-01,1.002608456894387053e-02,-1.026274651561459583e-02,3.660005226467815016e-03,5.717806145548820496e-02
1.662064933242295706e-01,1.271980365600385854e-01,1.328572542723883976e-01,2.329170915360035364e-03,-9.736520857893681685e-03,5.023511865663894335e-03,4.134381189942359924e-02
1.857360823005078099e-01,1.245048937282894896e-01,1.195621483293372589e-01,6.973850107547427749e-03,-9.611360549670718012e-03,8.348626319531522386e-03,6.861834228038787842e-02
1.940682955759657768e-01,1.386534816626410205e-01,1.364643199127693884e-01,1.879813534553838620e-03,-3.910058081671348613e-03,4.045916773608784767e-03,5.746721848845481873e-02
1.755206923533461083e-01,1.368466010082971807e-01,1.375883907551265217e-01,-1.173613627342025810e-02,1.241494140877986291e-02,5.075264011563172632e-03,4.919781908392906189e-02
1.625143759024103574e-01,1.416861048377527910e-01,1.387521850204929130e-01,-9.652658945201571250e-03,1.164033436274199834e-02,3.004869066340487213e-03,3.488028794527053833e-02
1.737017550162448520e-01,1.225365687710048279e-01,1.126510290578088130e-01,-7.956214551735311599e-03,1.552774008195463400e-02,3.581487203904437124e-03,6.459963321685791016e-02
1.982995695737062858e-01,1.385991342465208442e-01,1.288832703081196074e-01,-4.496221000306390228e-03,8.471261622273741979e-03,2.838155644605468153e-03,6.736973673105239868e-02
1.595679491686648188e-01,1.261256707125461285e-01,1.182292768625299445e-01,-5.520434426996193890e-03,2.070584628907921193e-02,3.091192175695468575e-03,5.339569970965385437e-02
1.814830453507935426e-01,1.456873826255770943e-01,1.324224400368071985e-01,1.612977111774485965e-03,3.692940610536646004e-03,-8.024607818303258535e-06,4.450656473636627197e-02
1.642720923360083407e-01,1.431363614738273282e-01,1.371112699039137850e-01,-3.127447617129963881e-04,1.122129358162028342e-02,2.018435658254207499e-03,3.163279220461845398e-02
2.370559565658922896e-01,1.310041179971211944e-01,1.156312192600935929e-01,3.114355880386542822e-03,1.878531113439059702e-03,-2.365086410478168567e-03,1.147610917687416077e-01
2.334828527436563217e-01,1.293926461934925831e-01,1.165935401250970116e-01,1.697925978254339382e-03,3.014527537461337506e-03,-2.467483038221143180e-03,1.112880334258079529e-01
2.165831567805017177e-01,1.253936382970619878e-01,1.005566196281333924e-01,4.037128237545422639e-03,1.062923072089540406e-02,-2.513253247248961771e-03,1.077221781015396118e-01
2.396126522470285181e-01,1.403396448420289877e-01,1.193236709825749031e-01,1.054098442802045956e-03,4.150666257624147613e-03,-2.007135071307989196e-03,1.115805655717849731e-01
2.447197854833610409e-01,1.396593616410913008e-01,1.255573231661271105e-01,3.330646377027425380e-03,4.444313655546823505e-03,-3.209285667957376131e-03,1.133206114172935486e-01
2.385200718903255357e-01,1.310861518936203007e-01,1.131072732257306368e-01,4.102334064497185386e-03,3.246057678075704202e-03,-1.276881431616976210e-03,1.178296133875846863e-01
2.263372191634306363e-01,1.129296497444440411e-01,1.314232117191516669e-01,2.099305707799454124e-03,-8.704223302106855456e-04,2.948254271505543721e-03,1.055819541215896606e-01
2.424907161989753313e-01,1.184277287141975860e-01,1.271459504938083074e-01,-5.751148877756914225e-03,5.883833879472727922e-03,5.782268361628944801e-03,1.211998909711837769e-01
2.347499144706903240e-01,1.263469683260344534e-01,1.109360315116413587e-01,-4.144474950536989818e-03,-4.070452569577547898e-03,-3.731606323640922814e-03,1.174831762909889221e-01
2.380726216071892276e-01,1.143094696276592548e-01,9.528639497919529078e-02,-7.598552808531949462e-03,1.411214377675928423e-02,1.787301982651240753e-02,1.405793577432632446e-01
2.407099314925147393e-01,1.320187303067868745e-01,1.072799033777105671e-01,-4.595964785423077396e-03,9.441579221948782560e-03,9.266239353084564090e-03,1.253118813037872314e-01
2.442282082618180139e-01,1.302054165648999784e-01,1.357901834602468494e-01,-8.385907014524806441e-03,5.885740410246320838e-03,6.960077806242781148e-03,1.133835092186927795e-01
2.745166670606692394e-01,1.233154702848823780e-01,1.572082523756280492e-01,-7.361560651306074676e-03,2.501900281376077863e-03,9.456166669889810514e-03,1.390521675348281860e-01
2.236563262224809112e-01,1.045022300736972304e-01,1.241409111830981543e-01,-1.026764196476177837e-02,5.230706340401579217e-03,5.286237281526880855e-03,1.128075122833251953e-01
2.485169107369436525e-01,1.284317198182661768e-01,1.333938746354292881e-01,-2.398333963896770449e-03,2.424500086176472648e-03,3.917387846864212042e-03,1.180259436368942261e-01
2.474268359759276281e-01,1.108019528229217260e-01,1.089213251711439734e-01,-5.292712101881587132e-03,4.673685515377236886e-03,1.847510256866996201e-02,1.417758464813232422e-01
2.557758753911020255e-01,1.314349075997263139e-01,1.157551564498123242e-01,-6.754207331149610256e-03,6.987829346550327586e-03,1.560720208699277814e-02,1.366391927003860474e-01
2.503854628057885501e-01,1.325013442579280887e-01,1.276795062192592201e-01,-1.873022392566530726e-03,1.946919429937483048e-03,5.329928112627059858e-03,1.208116486668586731e-01
2.517722727573805663e-01,1.462703225382721572e-01,1.290188005390108250e-01,-7.199894593953625084e-03,1.457648893103647737e-02,1.297488812618062190e-02,1.206081509590148926e-01
2.588501532957465101e-01,1.221874279705700977e-01,1.481531837534988960e-01,-3.483177383337212468e-02,2.761412294486317170e-02,1.550112567192591870e-02,1.498352438211441040e-01
2.427449065984683685e-01,9.686998845342469078e-02,1.117131997574036528e-01,-1.149496450743989033e-02,9.207219504986598538e-03,2.428991222037838252e-02,1.474967151880264282e-01
2.759998064227534575e-01,1.443565257476746855e-01,1.438581162871061248e-01,-3.278465962792039695e-02,2.692860299352825906e-02,2.766098126841490257e-02,1.584018766880035400e-01
2.325063083808502351e-01,1.232585551676500801e-01,1.417564333798964349e-01,-9.263300562824891213e-03,2.081416546946861495e-03,2.524945296448993619e-03,1.026934310793876648e-01
2.294713791415926851e-01,1.376561030101519367e-01,1.199936395811158213e-01,-5.712742707326249909e-04,2.136351572816387948e-03,-3.142699933042584267e-03,1.020195707678794861e-01
2.555488767291222429e-01,1.107664064591179498e-01,1.500622876698887720e-01,-1.631704506187415388e-02,8.078946685250004353e-03,4.198293699972818066e-03,1.336570233106613159e-01
2.449908612032835609e-01,1.264740018825146195e-01,1.253790985836621963e-01,-4.371779907875469689e-04,8.740205485261459835e-05,2.427218341267488690e-04,1.190713346004486084e-01
2.382807083538112380e-01,1.169740664248405670e-01,1.383019879052203027e-01,-6.976010249333182076e-03,1.767458078573331615e-03,2.551149345436565154e-03,1.129506677389144897e-01
2.402875580912864628e-01,1.202992096899299784e-01,1.382110003880538673e-01,6.585648531755975560e-03,3.588942874778342559e-03,-3.846033534548226433e-03,1.130573302507400513e-01
2.307152142318324994e-01,1.237845634255815980e-01,1.397189772148810794e-01,6.568243528986598967e-03,3.350183483182815874e-03,-5.249381954289123429e-03,1.011432483792304993e-01
2.756835228396831150e-01,1.807546602866075824e-01,1.597953410163854282e-01,2.387912738484044423e-02,2.884947287076928754e-02,-2.670098270824508568e-02,1.333670467138290405e-01
2.188790060080986200e-01,9.169839628657197594e-02,1.254744903409095724e-01,1.564696497869457609e-02,2.605831398286133534e-03,-1.532490803174765479e-03,1.173966228961944580e-01
1.778207146874575817e-01,9.700155135706597931e-02,1.193822881605354352e-01,1.995059671179475261e-02,3.468112182129677850e-03,-1.392644877083523388e-03,8.037302643060684204e-02
2.269739565596236019e-01,1.205002847031071550e-01,1.389481408185237465e-01,8.184941971430608962e-03,1.672184963569916085e-03,-2.907990932850530383e-03,9.973711520433425903e-02
2.464887053778905823e-01,1.281696684822418719e-01,1.274600407845250527e-01,1.141117741635880398e-03,-1.027772867747555599e-03,1.725821655825060487e-03,1.187428757548332214e-01
2.452145529459561768e-01,1.272322232642948969e-01,1.266562581422624456e-01,8.429276067343400040e-04,-7.788635013246554811e-04,1.954961052858991775e-03,1.183365210890769958e-01
2.442715947315564351e-01,1.234174024965222771e-01,1.278627591284292320e-01,2.911521575023017622e-04,-1.154231282641407811e-03,1.027779162346039105e-03,1.187252178788185120e-01
2.440079897408398146e-01,1.258263655066948761e-01,1.195124248167392378e-01,2.780278200664156908e-03,-9.149302673387013033e-04,1.642583343808684841e-03,1.216007769107818604e-01
2.537135129189438953e-01,1.327434468344718399e-01,1.296302619476978335e-01,1.430003945291660435e-04,-4.068961684778297388e-04,4.592372064301967344e-03,1.228164434432983398e-01
2.885695820384121535e-01,1.286135243549097473e-01,1.219018484273600988e-01,8.767995405516300009e-03,-3.410941573551574523e-03,2.060956240570423897e-02,1.680605858564376831e-01
2.561559804191100853e-01,1.364154443517545667e-01,1.309291826644206902e-01,2.343684989600380332e-03,-1.662601903458504936e-03,4.798067087784476346e-03,1.229579523205757141e-01
2.459905255451278194e-01,1.273143201311528472e-01,1.268203485594294189e-01,1.239249541027949647e-03,-1.341682802104926173e-03,2.164158189530025582e-03,1.190250664949417114e-01
2.488407573631365444e-01,1.271595512539879791e-01,1.276618638119013105e-01,9.452128127949097622e-05,-9.610967749079704072e-04,1.306767164851927376e-03,1.214634403586387634e-01
2.085709867026086517e-01,9.622744025417201419e-02,9.556897190655480601e-02,2.402168556276505079e-02,2.247958411762924005e-02,-2.214671428553010787e-02,1.319622397422790527e-01
2.262620491255615540e-01,1.265287468944953364e-01,1.174072093755490487e-01,9.413252209150745542e-04,1.010074042012064311e-03,-5.009163157537334377e-03,1.049792766571044922e-01
2.398215344754729417e-01,1.212014800064757508e-01,1.235104041941448988e-01,-6.220016172305541937e-05,-1.033972195026235802e-03,1.128532026882726746e-03,1.175125688314437866e-01
2.701614528099425816e-01,1.424158616413728207e-01,1.367230669605505322e-01,-3.575979596353497255e-04,-3.883609250379411321e-03,1.478790504066540903e-02,1.333426088094711304e-01
2.820734699362384967e-01,1.334169103523734634e-01,1.330293788126932220e-01,-1.162207204144372237e-02,-1.164667175267033832e-02,2.974979808316617971e-02,1.600744724273681641e-01
2.557751511351350482e-01,1.351573436190674771e-01,1.300341627886608398e-01,-1.002191412659449079e-03,5.178945482823801892e-04,4.509758060206659099e-03,1.235219836235046387e-01
2.512712646074048983e-01,1.320914504876042617e-01,1.260299526314713758e-01,2.477813133478829269e-03,-1.144845375976545924e-03,5.719796748672388055e-03,1.228148043155670166e-01
2.600960764130848535e-01,1.438690196233521346e-01,1.289233027364189987e-01,3.228155361822843301e-03,5.717103430015094785e-04,1.023873339887787677e-02,1.257614344358444214e-01
2.504533558671691029e-01,1.259108490439009576e-01,1.257311295744346080e-01,-1.315262074683026838e-04,-1.780476273412860732e-03,5.200198207374691697e-03,1.249957606196403503e-01
2.492729247843216145e-01,1.325051593952193407e-01,1.273412676202631544e-01,3.107653418856320656e-04,5.173180808734601736e-05,3.971270181689297123e-03,1.196326166391372681e-01
2.434587879764622542e-01,1.216310123886214789e-01,1.215177006043194341e-01,-1.126727423902316544e-04,-4.133451689879693908e-05,4.429072613720987268e-03,1.221258267760276794e-01
2.456940427482280087e-01,1.261680654206614738e-01,1.383050842586733276e-01,4.200624678424561345e-03,4.031251445871017643e-03,-4.999212016589058526e-03,1.147159188985824585e-01
2.340754463640339067e-01,1.109829170927920938e-01,1.286636843771558347e-01,5.403997423107605169e-03,1.745641339463533271e-03,-3.884879419209842123e-03,1.158880442380905151e-01
2.319477322499980398e-01,1.187909261074014955e-01,1.378855316931784647e-01,7.853438368223006685e-03,1.848337515176774097e-03,-3.408132281609778814e-03,1.060118228197097778e-01
2.197340478036060585e-01,9.333690340277463193e-02,1.233959250221421666e-01,1.447620633652412642e-02,4.755925088726693784e-03,-5.655437135059867074e-03,1.177832707762718201e-01
2.345291181686995907e-01,1.226153634536824855e-01,1.329652725756888532e-01,3.168519214026335133e-03,3.805929592641871771e-03,-4.982168701468301340e-03,1.078033000230789185e-01
2.406696284160433907e-01,1.206940851856840580e-01,1.292898950415548587e-01,4.203939265902960527e-03,3.368625535574595615e-03,-5.765880774094876877e-03,1.167198792099952698e-01
2.428698768118399132e-01,1.256881076802360830e-01,1.248267526580001258e-01,3.279383599125395860e-03,1.573630790969490767e-03,-3.379052146990661840e-03,1.179287508130073547e-01
2.412196446668075089e-01,1.233453900184115215e-01,1.226439539008735702e-01,1.656624433751025319e-03,1.886180303172238721e-03,-2.053957871592843824e-03,1.183599382638931274e-01
2.298602041084027992e-01,9.816670531345561557e-02,1.298935743037741564e-01,2.782149089707211878e-02,1.113654915967839804e-02,-1.576772123673588974e-02,1.327086538076400757e-01
2.404252960565415598e-01,1.374651902593280184e-01,1.303942352417775674e-01,3.134959272141033763e-03,3.934123370278367303e-03,-5.236531661638335264e-03,1.074103713035583496e-01
2.399552694906877393e-01,1.240560938099015964e-01,1.217285526873430335e-01,4.031952564766209599e-03,2.616045011419322521e-03,-4.445928435800977803e-03,1.176282092928886414e-01
2.158971814305492565e-01,1.113065602729131631e-01,1.107779646276168539e-01,8.165548356136118763e-03,7.882820028765480033e-03,-7.671293034977070754e-03,1.075069978833198547e-01
2.286164022411157903e-01,1.233160676034560366e-01,1.090188237332939819e-01,5.602907051880580414e-03,7.929796142643833617e-03,-6.414862797586551833e-03,1.149101853370666504e-01
2.425628582700931068e-01,1.342382772890252929e-01,1.214077784190251835e-01,3.440134060530041990e-03,4.521404903717685456e-03,-4.434237440394846186e-03,1.159504875540733337e-01
2.347173326269453020e-01,1.337599724195592532e-01,1.103476204578002218e-01,7.831223452877936544e-03,-2.550148265802410288e-02,1.605837848532253725e-02,1.265414953231811523e-01
2.451676153188253049e-01,1.372079458533478902e-01,1.130925510337137535e-01,8.050611416336150503e-03,-2.085704485649114703e-02,1.634617113727544063e-02,1.309252083301544189e-01
2.457126592104221796e-01,1.289692116104999287e-01,1.185303716424896958e-01,4.668530763197066037e-03,-3.905317280581956270e-03,6.248298204929710574e-03,1.232271566987037659e-01
2.118600407729079316e-01,1.167715846094104781e-01,1.104683746363656488e-01,1.282639703439734588e-02,-1.641744446058339760e-02,1.088717575266104874e-02,1.064830794930458069e-01
2.623938513986138199e-01,1.443593585079410158e-01,1.111732870981277377e-01,1.278628610700413559e-02,-2.357671206826751631e-02,2.396278070526529011e-02,1.511001437902450562e-01
1.987570723168816111e-01,1.230683841672286644e-01,7.050056458593367825e-02,1.149300710225967595e-02,-4.002601766715507131e-02,9.306433346574919177e-03,1.339152157306671143e-01
2.405419165287382977e-01,1.315881278703482649e-01,1.134997752298378126e-01,4.972334483368554513e-03,-7.305771587462621917e-03,7.553230620419204046e-03,1.207243129611015320e-01
2.378515638343986771e-01,1.354479089024351601e-01,1.010625366259191443e-01,3.670083997544764005e-03,-1.417233435156143966e-02,8.438155122447377893e-03,1.266752928495407104e-01
2.468389952822837297e-01,1.416696126833757174e-01,1.147149944648561126e-01,3.396695148035889025e-03,-1.100875177575610410e-02,6.968418973182584526e-03,1.231495738029479980e-01
2.088156702499072703e-01,1.091682518277337088e-01,1.271476999137102215e-01,-6.354022870357054625e-03,-2.188209919676804317e-03,-2.653913243074916897e-03,9.283252805471420288e-02
2.276548958003946910e-01,1.228148588447999234e-01,1.446184418176573727e-01,-8.952046912642789428e-03,1.454829884454476169e-03,2.008741466018090088e-03,9.715870022773742676e-02
2.217125744738108750e-01,1.087565311011462338e-01,1.267682606946517743e-01,-5.542606645927721301e-03,-2.037296865265515559e-03,-3.132036656751125640e-03,1.057496964931488037e-01
2.409341932406965092e-01,1.209182945411348964e-01,1.458654633195429207e-01,-1.109866767135115652e-02,-8.655252076888667739e-03,-7.559830445585730661e-03,1.131276041269302368e-01
2.097460769212381171e-01,1.033816617499876966e-01,1.498861050493824065e-01,-3.429759155261598302e-02,-7.635613050233477830e-04,-1.110267911164851927e-02,1.114906519651412964e-01
2.225095133834881778e-01,1.011250996609562997e-01,1.255323190990384474e-01,-1.250517571261542012e-02,-4.461614750992505193e-03,-4.860865963753606238e-03,1.138726174831390381e-01
2.765194003275672219e-01,1.179946916901305487e-01,1.653452022171741365e-01,-5.062689790738288641e-03,-8.122700581433845574e-03,-6.989976708062040599e-03,1.424336135387420654e-01
3.338810886194698568e-01,1.302478313595423765e-01,1.978392375231026179e-01,-1.085852027701980811e-02,-9.428537078203737178e-04,-6.321276247018418545e-03,1.809627264738082886e-01
2.462982665021140605e-01,-4.720106839288448763e-02,1.001790394017863378e-01,-1.954570116103079153e-02,-1.778201287258380364e-02,-2.978873992014817451e-03,2.583178579807281494e-01
3.013492322662907341e-01,6.466848116659595913e-02,1.491773654443910302e-01,-3.532539181773629994e-02,8.888740669953250004e-03,-2.318132689020554332e-02,2.207956165075302124e-01
2.566784475824109846e-01,1.202977641807887188e-01,1.481775562896784915e-01,1.634982330728262587e-02,-3.254323618882082238e-03,6.958326530070515180e-03,1.286611258983612061e-01
2.637043516967066958e-01,9.796523079993460503e-02,1.391869773736518490e-01,1.256658629933175668e-02,-4.961068834610639182e-03,9.269151782193668990e-03,1.521248817443847656e-01
2.397186687569725638e-01,8.067004643827889454e-02,1.235364431528786361e-01,9.015209706117147115e-03,-2.883491527004657974e-03,1.012908095106774577e-02,1.445431113243103027e-01
2.805065466580433653e-01,9.370689671855748915e-02,1.610169537628736158e-01,2.480038425416724451e-02,-2.116040613234529150e-03,1.229956315797590440e-02,1.707738488912582397e-01
2.704444184823433517e-01,1.172635330801027748e-01,1.404317817292175530e-01,1.286180068349909549e-02,-6.127215533400400330e-03,1.345010808937014031e-02,1.469824463129043579e-01
2.593172577580113991e-01,1.118695460976052714e-01,1.375563480038583253e-01,1.010346662358433366e-02,-4.466753129512484460e-03,1.267379564052065546e-02,1.395032256841659546e-01
2.671715238541558235e-01,1.410900752430673810e-01,1.253902489083608129e-01,6.370239791821077002e-04,-4.737952414354220342e-03,7.411921833570406411e-03,1.354837417602539062e-01
2.780801058068610998e-01,1.489915997993712105e-01,1.369010881198216567e-01,5.084547999708449728e-04,2.424004317562367464e-03,1.124250653489410924e-02,1.369976401329040527e-01
2.908756548552537957e-01,1.272064956687958825e-01,1.366323706482100719e-01,5.918861458288070775e-03,-6.225428438932119682e-03,3.447608684849334110e-02,1.706484258174896240e-01
2.953017823332685921e-01,1.251109620818315893e-01,1.183553524790598166e-01,1.071333256728025825e-02,-2.189521633184024485e-02,2.783708924687477645e-02,1.851149201393127441e-01
2.056005821782294352e-01,1.402770048464855313e-01,1.125651572393089050e-01,-9.615989855345438708e-04,1.825556663583708175e-02,3.446743801013734450e-03,8.878944069147109985e-02
2.272800161458105039e-01,1.162259373604911661e-01,1.267226476879868557e-01,2.943302280788162324e-03,-1.770061421007578049e-03,4.353956227281191235e-03,1.066290140151977539e-01
1.966308550141316336e-01,1.263042352265795754e-01,1.015584674129929033e-01,2.160852883757278294e-03,1.642618728100578990e-02,-4.010060219335732923e-03,9.038905799388885498e-02
2.225998751770331130e-01,1.376003543414603403e-01,1.079188200140027698e-01,-2.086194722949475441e-03,8.266922798154018037e-03,1.964102819636323778e-03,1.042040511965751648e-01
1.941803584877163646e-01,1.266965404372965842e-01,1.051081260539859091e-01,-3.955357346545295555e-03,2.205823382767769028e-02,3.287960277839551641e-04,8.935295045375823975e-02
2.179231214393505811e-01,1.519865722434405597e-01,1.207756493077158655e-01,5.333928621097805932e-03,2.173993249962941424e-02,-2.600429704112289762e-03,9.435679018497467041e-02
2.147226191071399115e-01,1.277481348819917706e-01,9.939381077446254875e-02,-5.404591889971377882e-04,9.335526459930380480e-03,9.369020607159828150e-05,1.053422540426254272e-01
2.536209195669603123e-01,1.104996080621359344e-01,1.457102827836770920e-01,1.350991198074558662e-02,1.708761621169095808e-03,5.558528519753691555e-03,1.316552609205245972e-01
2.353130079821821319e-01,9.933295651299990647e-02,1.231610120295489469e-01,1.076960604612790286e-02,-4.083290233474862543e-03,6.912015055652202984e-03,1.279043108224868774e-01
2.384135243556592676e-01,1.037393090977543619e-01,1.328624704034949422e-01,1.171393321412277783e-02,-3.575526756683916792e-03,5.630329389357129760e-03,1.249330490827560425e-01
2.476912632143292159e-01,1.282324194010596718e-01,1.291898423039220256e-01,-5.911078779983816849e-04,3.114037539846489398e-04,1.494491752886110362e-03,1.190168038010597229e-01
3.051495872281883015e-01,1.772611705623201028e-01,1.142512636354889172e-01,-3.071924685221507755e-03,4.309366355879192673e-03,-7.548397255087850241e-03,1.692302823066711426e-01
3.177693373519088205e-01,1.919252773886520880e-01,1.266896190793929955e-01,3.897935956897514184e-04,6.000851388417220884e-03,-5.234546187358662950e-03,1.687975972890853882e-01
2.610034772696600003e-01,1.274298626269053936e-01,2.075661098375308766e-02,8.864744101883132712e-04,-6.985159590689255654e-03,-1.897786382518949766e-02,2.114214748144149780e-01
3.104735773281568356e-01,1.975970704345654805e-01,7.081316239871385254e-02,-1.916306857601308977e-02,-2.834296687209365839e-02,-8.616486532975402984e-03,2.164730131626129150e-01
2.593720416048796440e-01,1.289981398875249541e-01,2.657070212441846324e-02,2.614060976119648733e-03,-1.551128277542913360e-02,-1.806134429590783991e-02,2.063093185424804688e-01
2.693826066259701335e-01,1.393857770890020165e-01,2.253917884433649654e-02,5.725558938275269495e-03,1.308942118459775587e-02,2.044087422738752845e-03,2.153296768665313721e-01
2.407604262335012457e-01,1.263233708220878881e-01,1.229963254285373064e-01,1.184695989288158053e-03,4.353688532036643455e-04,8.741822889896950621e-04,1.161667704582214355e-01
4.638460634814812189e-01,3.017722757372451881e-01,1.668765925032870967e-01,-3.363062941532213301e-03,1.816798139956457211e-02,-1.841309102834733438e-02,2.614748477935791016e-01
2.569836513460183047e-01,1.316591412736332622e-01,1.560775043882053625e-01,1.821124874519620615e-02,-1.494110514069373410e-02,1.378994615074950920e-02,1.244082674384117126e-01
2.482726486524660103e-01,1.260735309526595238e-01,1.483358156981646747e-01,1.057106817995276046e-02,-6.485754046883206343e-03,8.410409891526304804e-03,1.156781911849975586e-01
2.190964114650899852e-01,1.034904099593003945e-01,1.224337389985379193e-01,1.381932262617350908e-02,-5.750141299377095443e-03,7.881471929340508331e-03,1.113198176026344299e-01
2.459407447052884554e-01,1.362441134628988582e-01,1.653678941233733823e-01,1.899990709339817452e-02,-3.339859481966899260e-03,1.401379643953015383e-03,1.039668694138526917e-01
2.352301748488955790e-01,1.191793435768558340e-01,1.390558520948400045e-01,4.474847628264781718e-02,-1.437906809096365854e-02,1.837916888646183231e-02,1.385536640882492065e-01
2.163218334740381332e-01,1.139007568054455771e-01,1.239524835717838308e-01,1.140141122008551944e-02,-8.812773890837602778e-03,8.218754166055036031e-03,1.019177138805389404e-01
2.030827279304892319e-01,1.114181696561321600e-01,1.256882152863809388e-01,1.266191452438279741e-02,-5.707137361459862189e-03,5.244386218839897779e-03,8.921415358781814575e-02
2.276119500558523856e-01,1.058526189555718255e-01,1.442107002486122669e-01,-1.463231366760961091e-02,8.717582382267960754e-05,-1.553399474951718646e-04,1.107638552784919739e-01
2.271379285425483285e-01,1.079602441817294339e-01,1.378779416588242490e-01,-1.266063473778319265e-02,-7.564387215402782090e-03,-5.592196025502054260e-03,1.108116433024406433e-01
1.803704281727795955e-01,1.274464298547135221e-01,1.364280119933794777e-01,-2.246169438163478707e-02,8.359669841154581879e-03,1.034008017763547380e-02,6.671030074357986450e-02
1.794717422322412714e-01,9.244037880766943494e-02,1.189532182871889110e-01,-3.224440069046685675e-02,-1.304295748366967461e-02,-8.076863408872937342e-03,9.897023439407348633e-02
2.321033733340543415e-01,1.268259821488162409e-01,1.474491391202627233e-01,-9.393518910320992205e-03,-1.732910307303498019e-03,-2.138638777423748204e-03,9.810675680637359619e-02
1.899629439385610297e-01,1.920917316005997244e-01,2.005643633139114757e-01,3.381435249640925983e-02,8.947676794345126028e-03,-4.289516478648495567e-04,6.136219948530197144e-02
2.403788975146966544e-01,1.274914112088841034e-01,1.331521636606143866e-01,-1.245338417447442846e-03,5.499642433708194908e-04,-4.487462482231150199e-03,1.104652583599090576e-01
2.377389863678229798e-01,1.234528324135813759e-01,1.250671678823368493e-01,1.060629647423285554e-03,-8.636606709597925355e-04,1.562924382623721376e-03,1.135445982217788696e-01
2.715457237650183847e-02,8.854970888952409802e-02,8.531682831758469199e-02,3.258578603680874208e-02,-4.005106805342074222e-02,7.036940280924009958e-03,1.082942783832550049e-01
2.298268751604988225e-01,1.275013939072587310e-01,1.180718363228888401e-01,9.517503909377540792e-04,-3.716599420097847794e-04,3.149638903241278390e-03,1.075044050812721252e-01
1.869855997387055990e-01,1.331716946227168297e-01,1.308431606164540406e-01,2.937642812652551012e-03,3.484185655087196614e-03,-6.005384402584067541e-03,5.654350295662879944e-02
2.318920112863471217e-01,1.230274166916313638e-01,1.153637966743504828e-01,3.399628501163206445e-03,4.033873631423458977e-03,-3.038066008128095710e-03,1.133830100297927856e-01
-5.077792451426990650e-03,9.444885248789444687e-02,9.885383389132859633e-02,2.504490222274288400e-02,1.230991784289749537e-03,5.785084019046090459e-03,1.111308187246322632e-01
3.999734386645904527e-01,1.654618893692452741e-01,2.340542931904889268e-01,-4.725166965439255712e-02,6.286369835475963570e-03,-1.659801654351076086e-02,2.264024615287780762e-01
2.344599838475223130e-01,1.283529707476616655e-01,1.169914366448223386e-01,3.138611473660450624e-04,2.002726650328422680e-05,-5.635960868076958811e-04,1.122255325317382812e-01
2.222333454895504268e-01,1.221503978958442260e-01,1.158696874715051950e-01,-9.640114573170390248e-04,1.658760018493474772e-03,4.662891609284200954e-03,1.037347838282585144e-01
8.900525405108633548e-03,7.312360003811135822e-02,8.617719359896787445e-02,5.797737763349748025e-02,2.336919907889670536e-02,-4.541871756253568725e-03,1.300681084394454956e-01
2.528156726979004509e-01,1.417554396468987121e-01,1.053073860280032831e-01,5.102325255228326107e-04,4.627663452403389015e-04,-2.835778976099411538e-04,1.330880522727966309e-01
2.370610024324726062e-01,1.285397425639235314e-01,1.225142718093507332e-01,1.537414680640819282e-03,8.005005860290892927e-04,-3.215210152928301996e-03,1.118350923061370850e-01
1.553056580706917988e-01,2.055179318645971032e-01,1.851898983814202759e-01,-1.273950430009617232e-02,6.209247666056727510e-02,-1.829051727343189090e-03,1.182249262928962708e-01
2.568610292379236437e-01,1.315470704936386737e-01,1.371428725097744994e-01,-3.374510200884759726e-04,-9.960686955902222132e-05,5.429252338776459873e-03,1.229734569787979126e-01
2.525700780292782222e-01,1.157860245101164920e-01,1.241366933852258991e-01,4.812441941690484039e-03,-5.027852887524329392e-03,1.017235544188871410e-02,1.345106661319732666e-01
2.662397060667059945e-01,1.336526917889130084e-01,1.259088089320648807e-01,5.302918988253571423e-04,-2.468557297409979586e-03,1.275700922319043286e-02,1.384679377079010010e-01
2.488380028074926864e-01,1.250161132412530018e-01,1.212461138593030341e-01,1.260148700540176430e-03,-2.532551337600384787e-03,7.008034442481159143e-03,1.264287382364273071e-01
2.470883205877541511e-01,1.236247485151252823e-01,1.197174911103842943e-01,1.510138116174493481e-03,-1.787275552181617115e-03,6.771756320843533468e-03,1.260750591754913330e-01
2.379493019122990993e-01,1.194286476396069635e-01,1.180108139747192419e-01,2.718927294807876784e-03,-3.025399166068796532e-03,3.940583930853327685e-03,1.196387037634849548e-01
2.430324914913961631e-01,1.226592257333945779e-01,1.227144113381814089e-01,1.772502867662029483e-03,-1.650464227129886871e-03,3.084487212093271237e-03,1.205372288823127747e-01
3.101219696615841181e-01,1.567840385701437245e-01,1.472388730746848617e-01,3.692302879375755978e-03,-8.804850607006127136e-03,2.864218304966041281e-02,1.667389124631881714e-01
2.355060612957632638e-01,1.201815216925221363e-01,1.178712681412305008e-01,6.749927279861868672e-04,-1.417823771396289857e-03,1.960775905661671197e-03,1.165780723094940186e-01
2.444114733689274344e-01,1.093930457275888585e-01,7.384216346614200233e-02,5.868603155516211034e-03,2.307842195087470103e-03,2.410071052310374523e-02,1.617272347211837769e-01
2.349892320644098032e-01,1.305391381738096046e-01,1.545986638790525225e-01,-1.056429992947437863e-02,1.081548048824855501e-03,1.623923365846975534e-03,9.654997289180755615e-02
2.478821996529974037e-01,1.356299486333240323e-01,1.090544544735783938e-01,-1.536322920235426394e-03,-5.433681905323812329e-04,2.300973472026172917e-03,1.277256160974502563e-01
1.523152521691094052e-01,2.164146833051106555e-01,2.145292883313892895e-01,-1.027227551800800540e-02,3.152979610876155414e-02,1.940857554168801385e-03,8.544988185167312622e-02
2.388578217810310433e-01,1.226155842799970253e-01,1.343034208087129644e-01,-1.076410037016482454e-02,1.239228319501865273e-02,1.487931181328926156e-02,1.173146590590476990e-01
2.018687040499744789e-01,1.275939142282787042e-01,1.318399884458853200e-01,-1.032860470911184381e-02,7.155761709248191493e-03,6.973256482916766197e-03,7.641290128231048584e-02
2.403326680721872277e-01,1.204584626289401106e-01,1.367132434976006117e-01,-5.979032873372800740e-03,4.116648950491628642e-03,4.485609462674508725e-03,1.135956123471260071e-01
2.517629345231739424e-01,1.443663994619451829e-01,1.101101033148602915e-01,-3.074154422921754966e-04,4.723221587468008804e-03,2.830613717652895388e-04,1.282730251550674438e-01
2.318904117485524885e-01,1.289190539756403797e-01,1.226574914070232836e-01,9.499155626871578963e-04,-3.715886111784461304e-04,3.853745058891607303e-03,1.064647585153579712e-01
2.349457055691142882e-01,1.306260717078252531e-01,1.161037494684838967e-01,1.433854768745125531e-03,-1.187115796757102441e-03,1.609557389104442852e-03,1.123682111501693726e-01
2.456943438810516578e-01,1.139512407338948985e-01,1.378117089086714764e-01,-2.269873811534026987e-03,7.213627533035031495e-04,1.071177931952117671e-03,1.216658353805541992e-01
2.479590795895708077e-01,1.471431762062577753e-01,1.501518919397726859e-01,-1.491719567675242435e-02,1.326762689881905849e-02,1.132699640177334960e-02,1.070052906870841980e-01
2.440672457530110306e-01,1.120200604881361889e-01,1.402937218738217473e-01,2.860629880263958463e-03,5.738238534129663782e-04,-5.510755802456182009e-04,1.205356791615486145e-01
2.003420651639436501e-01,1.239992150761385359e-01,1.366447617974017870e-01,-1.499824684744894589e-02,1.083126031688434049e-02,5.914200494887608857e-03,7.845041900873184204e-02
1.730886653237740103e-01,1.501692060245155558e-01,1.570653664666679106e-01,-4.638634396151385120e-02,6.611632435083449055e-02,1.268419413543474608e-02,1.430617123842239380e-01
1.806962863963547383e-01,1.295935782190745789e-01,1.353841801255001864e-01,-3.455368042188853000e-03,-6.731784968004209764e-04,3.224929714885163296e-03,4.916788637638092041e-02
1.173471912452068167e-01,9.543944051395980566e-02,7.424221312280598895e-02,-4.391037199331057628e-02,5.417652847350730438e-02,2.336822873218408550e-02,1.327461004257202148e-01
2.471592756502749011e-01,1.283799637438466368e-01,1.285660577000922178e-01,1.329877188030681933e-04,-9.276857866227141021e-05,3.595236612530551264e-04,1.186883375048637390e-01
2.120316473497713405e-01,1.449085308675085171e-01,1.380954679168883981e-01,-2.978142512677122919e-02,3.602753555731429830e-02,2.008820890054520761e-02,1.130247861146926880e-01
2.372376623004423535e-01,1.312378934447381296e-01,1.161542334611728733e-01,1.585143751956432680e-03,-1.000759732014334718e-03,1.306492448894058236e-03,1.143590658903121948e-01
2.366258853970107379e-01,1.280558962748347407e-01,1.215865127944740359e-01,5.892016269824646704e-04,-5.733452462947153695e-04,2.776282662362779350e-03,1.120572462677955627e-01
2.344749022980923969e-01,1.412231712897004388e-01,1.257408283458188447e-01,-3.627875797752701595e-03,-7.339936676058690830e-03,-5.667871488334275468e-03,1.033287271857261658e-01
2.376597219591945476e-01,1.389220282111793547e-01,1.173717387804219386e-01,-3.839611853662907876e-03,-7.508229174380911565e-03,-4.588589598230874249e-03,1.123293712735176086e-01
1.977656847898045522e-01,1.198549518894951177e-01,7.018154713018137647e-02,-7.102664090356776601e-03,-2.957847676498177175e-02,-7.904618263364754024e-03,1.239801272749900818e-01
1.824058049327251241e-01,1.165011533433257945e-01,7.449370094032707612e-02,-5.927611764502945489e-03,-3.652910727326105778e-02,-8.636370164141803432e-03,1.149296909570693970e-01
2.302441204571320787e-01,1.208691404995124591e-01,1.133319021343952848e-01,2.311407055697596840e-03,-3.726714333590355321e-03,4.007778556186595079e-03,1.137978956103324890e-01
2.584876173242952047e-01,1.840389276871013391e-01,1.577236237166741994e-01,-1.560017755625981578e-02,-4.002909483685041653e-02,-1.422935608882179744e-02,1.197445094585418701e-01
2.227925671923209339e-01,1.521159200886646190e-01,1.083241823236693324e-01,-1.887647199887829488e-02,-2.838040754650987194e-02,-1.268709097624334120e-02,1.182207688689231873e-01
1.941229023572805801e-01,1.126339938580457473e-01,9.120701092252532505e-02,-5.718086336678866906e-03,-1.868939492879997943e-02,-8.124890719706821113e-03,1.009436994791030884e-01
2.251898279733957620e-01,1.297353801564735121e-01,1.057414448218844394e-01,-5.771619824469424558e-03,-1.063062195158590711e-02,-5.926141860575222416e-03,1.119013428688049316e-01
2.118993610336693534e-01,1.422433162768425574e-01,1.296986035825830330e-01,-1.132788180828408868e-02,-1.720813522218382630e-02,-4.216952672050531051e-03,8.491066098213195801e-02
2.408496200957485900e-01,1.306468526820088183e-01,1.193150067683635684e-01,1.705299678234176684e-03,5.883257354432505724e-04,-9.154771716739842089e-04,1.163363158702850342e-01
2.328936996807441373e-01,1.241693284572373268e-01,1.159400813446328921e-01,1.734235859239876068e-03,-2.420623256093835593e-03,3.500570472764120110e-03,1.133436933159828186e-01
2.430045345238117105e-01,1.084855974371869841e-01,1.399380763705468655e-01,-1.348238085707740078e-02,-2.847596137033650034e-03,-4.867849642347591398e-03,1.244764477014541626e-01
2.342933109573782646e-01,1.302276149413484907e-01,1.159455555872196120e-01,-1.779625178274676879e-03,-1.012334685473474790e-03,-1.148793320573479821e-03,1.119663044810295105e-01
2.493847648479214918e-01,1.342472224771928402e-01,1.339955676393233819e-01,-1.133919486114979246e-02,-1.009066077666316910e-02,-8.974494645183917971e-03,1.192414090037345886e-01
2.170799841952248121e-01,1.224781714964528062e-01,1.054188933240077231e-01,4.393480617046566575e-03,-6.294188137474704403e-03,4.983934054220488970e-03,1.053832918405532837e-01
2.358926090776085616e-01,1.288842462297046243e-01,1.419154651061010908e-01,-5.441609204770331797e-03,-2.842805412090188694e-03,-4.531400896746518719e-03,1.019844710826873779e-01
2.367179555892536813e-01,1.169739418326641023e-01,1.241147330382586511e-01,7.728217833368882265e-04,1.834272247797984895e-03,-1.373891288149372550e-03,1.164134889841079712e-01
2.253442525121017725e-01,1.190987780982227379e-01,1.244993942678514487e-01,1.049459504799884167e-02,-1.179498580903784108e-02,6.816658775816142844e-03,1.078455001115798950e-01
2.447287934974087809e-01,1.219703034624503302e-01,1.609318763086316495e-01,-4.190277778895416805e-02,5.871592924142376470e-03,1.234419650671153557e-02,1.327888518571853638e-01
1.959566551335182316e-01,9.597526951429635744e-02,1.241834835770233153e-01,-1.948745408356544404e-02,-4.963391106093780402e-04,-7.626619235533361107e-04,9.546439349651336670e-02
2.428520705009353520e-01,1.142107755143069031e-01,1.359743674695280957e-01,2.782519170150150271e-03,1.592358081681817658e-03,-1.060379458386599043e-03,1.194016188383102417e-01
2.421358938551378959e-01,1.234652810254030647e-01,1.467749571137602349e-01,-7.471808521995503168e-03,-3.424976171632586330e-03,-5.085749253553055807e-03,1.101823523640632629e-01
2.276662013369739612e-01,1.207879435617248975e-01,1.411153974525962695e-01,-9.524540648443994423e-03,-4.395684208577512429e-03,-3.059522998169180406e-03,1.001089587807655334e-01
2.410679566733208157e-01,1.187573405365658918e-01,1.456348325114515119e-01,-7.871201203206366209e-03,3.283659117186738582e-03,3.157460834349519550e-03,1.124411299824714661e-01
2.399539420305052961e-01,1.515157902942406154e-01,1.250045587235458500e-01,4.852568800457852591e-03,-2.153043678450270240e-02,3.263506164643796646e-03,1.111846640706062317e-01
2.465324692782103755e-01,1.037262365512246209e-01,1.385873494612885060e-01,-3.529284395185037192e-03,-3.057442251127831154e-04,-3.927788889893175299e-04,1.291071027517318726e-01
2.120764024431726347e-01,1.530561613792238151e-01,1.364821704617655007e-01,2.692738752322685995e-03,-1.823743544603687733e-02,2.714839140163512448e-03,7.601290941238403320e-02
1.685664258178606878e-01,1.024655520872133352e-01,8.289775082896100322e-02,1.904646744145367665e-02,-3.071104353423467770e-02,1.395988360103599286e-02,1.027040258049964905e-01
2.018965664850749797e-01,1.178474989845088444e-01,8.696863705648713583e-02,-1.216306668155394365e-02,3.175399677998946846e-02,1.345849072735542246e-02,1.209349110722541809e-01
2.398032774753000584e-01,1.160259220697151261e-01,1.062137866627131388e-01,5.610805624127433722e-03,-5.423964980859441280e-03,9.634384826421297024e-03,1.307394206523895264e-01
2.308750916368619566e-01,1.315170603902703905e-01,1.135887607064140770e-01,9.651435774848665791e-04,2.879325457428128648e-03,-1.225480153123163166e-03,1.095761582255363464e-01
1.756361928631686165e-01,1.160152069597418789e-01,1.087383469842593958e-01,1.776464093253169937e-02,-2.741141101504472599e-02,1.130554405779302454e-02,8.732593059539794922e-02
2.328373735068277606e-01,1.378480134388883060e-01,1.144975289474132879e-01,3.027839601182331656e-05,-8.140174979529441737e-04,-2.101936771127360366e-04,1.085743755102157593e-01
1.957018960076746805e-01,1.456731800959514822e-01,1.297740144654453975e-01,7.361833885294722215e-04,-2.537372114566125922e-02,4.125396422593547753e-03,7.439912855625152588e-02
2.330177902125588063e-01,1.160825247547315336e-01,1.309409777610835990e-01,1.385151196536903769e-03,1.733217984800186932e-03,-1.933520149256601423e-03,1.103772446513175964e-01
2.475651553955737771e-01,1.303822069457905020e-01,1.256216673278595097e-01,1.744441694025315953e-03,6.359324393692011466e-04,-8.799661720875687340e-04,1.196871995925903320e-01
2.064220946447783145e-01,1.695296455289770354e-01,1.636893899595464608e-01,4.167874436893970018e-03,1.473627562493406117e-02,-2.048265959034497284e-03,4.823687300086021423e-02
2.090230744951791786e-01,1.376239604825749141e-01,1.157658283216899953e-01,3.322551323191008221e-03,-1.558721821461643044e-02,2.523746462986425129e-03,8.897961676120758057e-02
2.305046350458780646e-01,1.125101408179662588e-01,1.319290671736370324e-01,-1.508954741553521347e-03,1.501396022414525208e-03,1.122538758169112959e-03,1.096624061465263367e-01
2.253649703706189777e-01,1.381266924418861619e-01,1.506325293044375735e-01,1.165944800145106083e-02,7.827145841920199118e-03,-7.337915326284814681e-03,8.619211614131927490e-02
2.158529502659571886e-01,1.313869702931148298e-01,1.497371256452224297e-01,2.335480073081691761e-03,1.540795617487036786e-04,1.815583170157656745e-04,7.705711573362350464e-02
2.415082555446184664e-01,1.307603284709688840e-01,1.524950882900354410e-01,1.860692592876101586e-02,6.680927268259303359e-03,-8.392864369684262249e-03,1.082326248288154602e-01
2.673289319391429775e-01,1.381703834391753427e-01,1.704201286472896149e-01,3.248291100829098221e-02,2.740814511892289765e-02,-9.689344715215484835e-03,1.387708038091659546e-01
1.996155697512204674e-01,1.337902988049199382e-01,1.175254912426798859e-01,-6.571933315587612755e-04,2.652360779412604209e-03,-3.076579325690192556e-03,7.562369108200073242e-02
2.513894829101603334e-01,1.257995309773186077e-01,1.247846791594906246e-01,9.169860898691355221e-04,-1.577996328179084732e-03,-5.299324145887088222e-03,1.264735609292984009e-01
2.502948462412011299e-01,1.300715956395119000e-01,1.295966145701053229e-01,9.031494398816993256e-04,-9.548256529583881713e-04,2.091139582125299459e-03,1.205373778939247131e-01
2.303919014387682263e-01,1.362973647334121685e-01,1.153379360961472311e-01,3.258033011068009487e-04,8.610745097780992665e-04,3.412933083449052186e-04,1.061514914035797119e-01
2.456857157600701447e-01,1.274342831037740820e-01,1.190178596069644684e-01,5.898399021164301564e-04,-7.021047021016870089e-05,2.486590769455606330e-03,1.227562576532363892e-01
4.353598747845843775e-01,2.742206010362384649e-01,1.286411504672940465e-01,2.760809440180271059e-03,1.657354450572360444e-02,-8.940867691954372184e-03,2.677770256996154785e-01
2.346463196363967052e-01,1.171691953735704284e-01,1.272234806465156742e-01,5.771964421305344215e-04,3.653005869326460286e-04,6.132101964930835149e-04,1.127977967262268066e-01
2.180875646785443711e-01,1.351859107307591401e-01,1.383610991826831615e-01,3.638946518918267925e-02,2.044767818246196259e-02,-1.153118703754744435e-02,1.106586828827857971e-01
1.382006304700025834e-01,5.673225095283596087e-02,9.459375913708033268e-02,4.482405530869211507e-02,5.804419224853068354e-03,-4.385603131465585017e-03,1.056997478008270264e-01
2.231310026558652460e-01,1.366452508259182463e-01,1.536871406364527792e-01,1.779367682925390645e-02,1.532067418030796414e-02,-6.451674793402792374e-03,8.986221253871917725e-02
2.510114068709386470e-01,1.332727166754610615e-01,1.177763005640062310e-01,-1.316106654908626508e-03,-1.348254266815595561e-03,-7.675261190562956103e-03,1.269426792860031128e-01
2.420235941435146254e-01,1.216364174058126857e-01,1.229853869356400120e-01,5.454147391712413926e-04,-1.003983243578265372e-03,1.553323710095269811e-03,1.197649687528610229e-01
2.519905411094903736e-01,1.313929168188265051e-01,7.873464460746208704e-02,-2.621821447926967093e-03,-2.220331996747301403e-02,-1.974956576248750040e-02,1.622863560914993286e-01
2.592699129113967271e-01,1.416471455223478615e-01,1.013762578539231796e-01,-3.366071782540407901e-03,-6.136078513312564001e-03,-1.119963592422610656e-02,1.439335793256759644e-01
3.170657422926317914e-01,1.605457234909815067e-01,1.753726946209618887e-01,-9.688509519523724051e-03,5.704957112753163660e-03,2.394816536462609016e-02,1.565165221691131592e-01
2.426488130531589404e-01,7.832291225911511279e-02,1.246388602149908903e-01,-1.607097437452216504e-02,1.085161245253304235e-02,1.214260172764615626e-02,1.520121246576309204e-01
2.997514214458539827e-01,1.339388406153045885e-01,1.720010504374617777e-01,-1.962093578027851448e-02,1.134491485458671151e-02,2.353614616055298148e-02,1.607304066419601440e-01
2.319614860487771157e-01,1.176236802845280760e-01,1.397357636888273136e-01,-6.592849299474790471e-04,1.123768415948003287e-04,7.925780801830318179e-04,1.050574034452438354e-01
2.603077723444505720e-01,1.144298357792230963e-01,1.313569193530395030e-01,-1.013313320418996431e-02,6.893809891665688208e-03,1.683382267284600636e-02,1.428228169679641724e-01
2.389134943605852879e-01,1.237865091313010008e-01,1.235267634185857333e-01,-3.675990158946377943e-04,3.362532841689675530e-04,1.216338244331201506e-03,1.152795627713203430e-01
3.344375247327526779e-01,9.017307245803962701e-02,1.499249242718854735e-01,-3.358532566581830942e-02,2.429605584697280135e-02,3.172111758933795350e-02,2.383561581373214722e-01
2.292369880851902464e-01,1.207013652331223597e-04,6.801457486584028267e-02,-1.112124486891552695e-02,4.975228315561890796e-03,4.280995751146187550e-02,2.179257720708847046e-01
2.070845580861642721e-01,2.251544525311036105e-02,1.066765801523017893e-01,-4.306454777983789034e-02,-2.958194672998784667e-03,1.721542813324411503e-02,1.791489273309707642e-01
2.547615371750017177e-01,1.031202721509935083e-01,1.380639278192955510e-01,-2.827974741118576690e-03,1.197534968772024505e-03,5.007307343451276871e-03,1.379157155752182007e-01
2.728778499614128439e-01,1.025365199555995505e-01,1.477337387488582843e-01,-6.916452902734881438e-04,3.765691360491897014e-03,6.699432283947431496e-03,1.534230262041091919e-01
2.635897226080815559e-01,9.147005630347103400e-02,1.456563123119034020e-01,-2.019177636658129465e-03,7.477282336065544342e-03,9.739506883252854741e-03,1.539459079504013062e-01
2.398690532803647024e-01,1.260572980009235788e-01,1.222940949064268146e-01,9.249927908197732966e-04,4.281859339573376635e-04,-6.873891724791135124e-04,1.157588362693786621e-01
2.373176610659855634e-01,1.204595789166181818e-01,1.248670888775738896e-01,3.298094050212182506e-04,1.115357583032963170e-04,5.440255128763364081e-04,1.147233024239540100e-01
2.675903343791496969e-01,1.424678235981180485e-01,1.286476413499438309e-01,3.435120481074206353e-03,6.240776287569585294e-03,-1.589540033543504136e-02,1.359635591506958008e-01
2.617947803919578598e-01,1.417976990976182461e-01,1.473362102123512984e-01,1.023846323266668773e-02,9.659858093833456963e-03,-1.283680592554029692e-02,1.218775510787963867e-01
2.415260755383681346e-01,1.341097622339956774e-01,1.232019330113047484e-01,1.980095433546991569e-03,2.443291516592410988e-03,-3.299941039363297589e-03,1.135397031903266907e-01
2.394400692186150481e-01,1.244586458142522833e-01,1.270920850702438321e-01,3.290482932465650765e-04,1.112781792811962805e-04,1.270787658090990991e-03,1.137104779481887817e-01
2.448199303309869235e-01,1.412410484251093168e-01,1.231782693586018773e-01,6.168963396144633120e-03,6.045615558996737630e-03,-5.280245184814873725e-03,1.150357797741889954e-01
2.246367426116375188e-01,1.376470430411554646e-01,1.237751731237105302e-01,9.087670271223410705e-05,2.818858231891451394e-03,5.033359587493969542e-03,9.521666169166564941e-02
2.297431753635943430e-01,1.333215304792046974e-01,1.027847335658494676e-01,1.240995098187686856e-05,4.130489628339572422e-03,-4.913560442009640454e-04,1.150041073560714722e-01
2.455852160278714225e-01,1.233355973744456324e-01,1.282926703889664677e-01,-4.897554241085844357e-04,1.154941548059726332e-03,9.910954820837450992e-04,1.198799833655357361e-01
2.548525425038679626e-01,1.362883215471046572e-01,1.294131978601547606e-01,1.760821766668704304e-03,3.733656651906405938e-04,-4.290910895685774024e-03,1.224125847220420837e-01
2.373632754465316297e-01,1.077962248701228726e-01,1.144373923601419984e-01,5.147868839411638177e-03,4.711211232745119055e-03,-1.020119309611912557e-02,1.281777322292327881e-01
2.409984341918509076e-01,1.317750607393038398e-01,1.123653057237087027e-01,2.639223147959047795e-03,1.648387902349555175e-03,-5.997746763765037306e-03,1.206791177392005920e-01
2.426074903165199581e-01,1.210564942569102853e-01,1.191279588093963893e-01,1.621218537172744445e-03,2.823498592775869429e-03,-3.568228446814583708e-03,1.228119581937789917e-01
2.367528482179450111e-01,1.247126635590279364e-01,1.246370379198225853e-01,4.026774033740888447e-04,4.399835327768340625e-04,2.953780884335077857e-03,1.121994778513908386e-01
2.363840052148820092e-01,1.298436776071197896e-01,1.212946918842377902e-01,1.471662648821011503e-04,-9.281077836748380318e-05,1.843464075747408082e-03,1.111081615090370178e-01
2.666192339808033385e-01,1.354035265037866753e-01,1.115148865552862134e-01,-4.098429214169217088e-04,-5.439558155237229041e-03,-1.606426883042319509e-02,1.476016491651535034e-01
2.406601205502207352e-01,1.268146565085951916e-01,1.232548798104801391e-01,-1.674520060175294740e-04,1.335615882634662093e-04,6.936250569407791458e-04,1.156732738018035889e-01
2.521624343296612891e-01,1.163890822752828014e-01,8.664040766055178255e-02,-2.303488330652683855e-03,-1.211502394638314106e-02,-2.098035611044678228e-02,1.585409343242645264e-01
2.566727649069645567e-01,1.398682777143440970e-01,1.134978346337092991e-01,-1.570502374410731594e-02,-1.223794297462268629e-02,-2.838309356890655541e-02,1.449997276067733765e-01
2.839010232909776055e-01,1.382977895258498124e-01,1.220982025117759440e-01,-1.313729586581523223e-02,-1.675412721973602512e-02,-2.006559708957732918e-02,1.624475121498107910e-01
2.796751168402258347e-01,1.502719255842122348e-01,1.517579631530566742e-01,-8.570958436013570783e-03,-7.495612618573703565e-04,-1.427754613327379511e-02,1.318662613630294800e-01
2.995019980629574086e-01,1.251902090439479531e-01,1.187589906468929646e-01,-5.449686271917586131e-03,-1.189387907841239116e-03,-2.486864348551899237e-02,1.830182671546936035e-01
2.596766792718402383e-01,1.395215386023967996e-01,1.425692662030217939e-01,-8.409673525399539301e-03,-4.180188701139228753e-03,-1.486866657950552083e-02,1.225078254938125610e-01
2.534472702755627971e-01,1.369639511078824534e-01,1.352436923049204209e-01,-5.101531724791033909e-03,-4.743374997467338615e-03,-9.238687528334075041e-03,1.190518364310264587e-01
2.386165651013019973e-01,1.310337935833564560e-01,1.208554645336520350e-01,-1.744441570757708461e-04,7.316799167999465600e-04,6.172901681090738014e-04,1.130287796258926392e-01
4.222175148891382096e-02,1.028933598185124976e-01,1.105763590818710229e-01,-2.945113141557779979e-02,6.215113715729759722e-03,4.872202451326389412e-03,8.363861590623855591e-02
2.639928205037079811e-01,1.492916867710597506e-01,1.165102378913425440e-01,2.162432444694331862e-03,3.640097709933075125e-03,2.534825840680406464e-03,1.344027519226074219e-01
2.057331474792632731e-01,1.419364442327617770e-01,1.267455284233052204e-01,-1.709042674729945065e-04,3.416087232510754950e-03,-9.659458605637330757e-04,7.285471260547637939e-02
2.496607295087306388e-01,1.272458575901443678e-01,1.333922121943687533e-01,-1.821797823276510332e-03,-1.474458179833503229e-03,-4.082989407222028209e-03,1.197383180260658264e-01
2.478204660045112973e-01,1.164904367666568519e-01,1.319459798715994503e-01,1.213098043286858947e-02,4.968729840393478620e-03,-8.679765173757399838e-03,1.272722929716110229e-01
2.249387298913037292e-01,1.092715215480146995e-01,1.086781080215177830e-01,1.699206856904320051e-02,1.937838069125568177e-02,-1.796083213974440998e-02,1.280953735113143921e-01
2.440711079123939475e-01,1.140700262076113636e-01,1.288234350944432727e-01,5.693987851053133528e-03,3.853518893719635845e-03,-8.432145422608172680e-03,1.247200965881347656e-01
2.908172258165465096e-01,1.318752418274410920e-01,1.770564553374034400e-01,2.182813467606123034e-02,6.984319389082248308e-03,-9.455957117422629857e-03,1.482116580009460449e-01
2.293930725428797723e-01,1.361739179091610574e-01,1.131883168724514555e-01,2.558753311581152246e-04,-1.474291254344532167e-04,4.905893935203995771e-04,1.065918877720832825e-01
2.541124318948021488e-01,1.431240610213623532e-01,1.097836916743765018e-01,-1.350178197878164430e-03,2.129407805623740289e-03,2.010580315573098128e-03,1.310022622346878052e-01
2.485806104473402001e-01,9.475627920036955310e-02,1.345821689966304469e-01,9.118625447129871317e-03,2.307960467828520674e-03,-8.031206839616760601e-03,1.399312913417816162e-01
2.624556727538661094e-01,1.132620899310956414e-01,1.448562040443573118e-01,1.356676935775754690e-02,2.215589200110064817e-03,-8.359549537517557347e-03,1.389957517385482788e-01
2.426958437062151086e-01,1.406305336143066076e-01,1.054613990339367674e-01,2.311472904513753139e-03,5.373525922324569673e-03,-6.107059895628056279e-04,1.238850951194763184e-01
2.427956142303480669e-01,1.294735939451096551e-01,1.376983613871271828e-01,2.089871446895749316e-02,1.488834371831992964e-02,-2.439629106756683458e-02,1.254522800445556641e-01
2.663002962526327400e-01,1.247561505839909213e-01,1.391977287013900777e-01,9.870014960925136208e-03,5.330015017957401638e-03,-1.747333832626003433e-02,1.396159529685974121e-01
2.298298971161550908e-01,1.256871177462097755e-01,1.182845076647160987e-01,2.077241461419214864e-04,7.946478553627072013e-04,-4.755941527650405648e-03,1.083573997020721436e-01
2.457119372785658284e-01,1.289838171065361416e-01,1.238196065704475490e-01,5.561916352673715183e-04,1.722690412667962547e-04,-8.784469003817320203e-04,1.194079741835594177e-01
2.141356428791765520e-01,1.275734686807961371e-01,9.007052187720840375e-02,-2.364153734272790488e-03,-1.750597989833302046e-02,-1.285337063121784387e-03,1.143980771303176880e-01
2.444729080086065209e-01,1.388178796736207199e-01,1.049416656726561703e-01,-4.190833310291351352e-03,6.449813389179133785e-03,1.356483200539369740e-03,1.267784833908081055e-01
2.252514071454984057e-01,1.293547757384617969e-01,1.032300320949061934e-01,2.926583645385288143e-03,-9.308014533365943297e-03,4.293752892666806431e-03,1.128045320510864258e-01
2.319451371537203932e-01,1.377524123923701271e-01,1.160632363577887294e-01,-1.356744645301400645e-04,3.162223852825005199e-04,-4.965406317756692684e-05,1.067052707076072693e-01
2.527769621032240344e-01,1.867166623025195982e-01,1.495673323616417139e-01,1.410214515019130206e-02,-4.442485884376037170e-02,1.140012847560786455e-02,1.229037716984748840e-01
2.440003557161627978e-01,1.407711932728794024e-01,1.115002673876890199e-01,-8.538200022738319820e-04,3.617688047929079522e-03,3.508193403845512098e-04,1.207330897450447083e-01
2.597738359017988663e-01,1.581064062129172165e-01,1.174796206656351510e-01,3.651446641997096575e-03,-1.318274653765619947e-02,5.115921411911713342e-04,1.291486024856567383e-01
1.911280784201466743e-01,1.208535524253524368e-01,9.128934360233197098e-02,-2.656205815086026909e-03,-2.115101802448421386e-02,-2.922795559448341986e-03,9.632784128189086914e-02
2.089624048911233878e-01,1.107033675542862527e-01,1.281356686656848209e-01,7.530462011737989840e-03,-1.549019121475432147e-03,2.927397042827507151e-03,9.191775321960449219e-02
2.301448451800316986e-01,1.158968398508979647e-01,1.343842208601893906e-01,5.816347032423427148e-03,-2.082483272005743440e-03,5.058343848434146590e-03,1.071144416928291321e-01
2.289977991029478188e-01,1.176174522688110402e-01,1.202338706716990502e-01,2.481768150816905921e-03,-5.588845052137244446e-03,4.494942526372035403e-03,1.108774393796920776e-01
2.458940349282109361e-01,1.248949263296964263e-01,1.436366522980268845e-01,4.619322119191373276e-03,-3.303111967870146076e-03,4.933325323601221897e-03,1.135520339012145996e-01
2.317545448239568817e-01,1.120847777016821256e-01,1.304589100439299820e-01,7.273496564232308399e-03,-6.807686684778528445e-03,7.590514678196760498e-03,1.137111559510231018e-01
2.493450348500576563e-01,1.187821023926514535e-01,1.190999506362447058e-01,8.868625922039196502e-03,-4.464745545031749765e-03,1.653507321305573013e-02,1.346152573823928833e-01
7.043032681688882191e-02,1.308620585087974519e-01,1.413948546731755296e-01,-1.130464297844177915e-02,-4.515890481830086081e-03,-3.094987143060788475e-03,6.980509310960769653e-02
2.383210112600825936e-01,1.213508474484838312e-01,1.211490438372168493e-01,3.630992554904415482e-04,1.093543825163274206e-04,-6.169682632703937320e-04,1.170779168605804443e-01
6.184258841625622088e-02,1.251823936602259879e-01,1.359320696768614445e-01,-4.231791601809993530e-02,-2.313700141554471748e-02,-2.845853894692088396e-03,1.086786389350891113e-01
2.195601648994673083e-01,1.400448954045047378e-01,1.161926221903896300e-01,5.636027073265312921e-04,1.094115362976857877e-03,-5.267543194393053485e-04,9.377422928810119629e-02
2.302227213726353305e-01,1.314024731785095879e-01,1.313542688362660527e-01,7.651047192821475813e-04,9.975781319542056415e-04,-5.154285165697924768e-03,9.927058219909667969e-02
1.563976244113628455e-01,1.935735192842360508e-01,2.373112994175043955e-01,-3.484655369833093708e-02,-4.187000008464789036e-02,-4.493640738547711647e-05,1.175720021128654480e-01
8.985081111055996661e-02,1.782705407215089966e-01,1.789960584439768132e-01,-2.154977930237896369e-02,-1.937183350266688878e-02,4.679075066261519263e-03,1.023102551698684692e-01
2.519537976544837798e-01,1.598596134674370450e-01,1.042335080161136407e-01,-1.396380406269007168e-02,1.815181535762522627e-02,1.750588205436766701e-02,1.385324448347091675e-01
2.108222917897614457e-01,5.909372602114480039e-02,7.782507022182066914e-02,-4.010119610275372781e-02,-5.094138065112850666e-02,-4.089289515090702154e-02,1.953366845846176147e-01
2.352550558976485851e-01,9.882914335674197748e-02,1.347497763426324935e-01,-4.246573983799001306e-02,-1.498848049898165308e-02,-5.563601828991182607e-02,1.742753535509109497e-01
2.460534875759021189e-01,9.317661885817098144e-02,1.178581779246141992e-01,-8.169967590489490838e-03,-5.537905648340943517e-03,-1.625812972718277544e-02,1.459195315837860107e-01
2.418059377862009085e-01,1.231856661637084072e-01,1.241015714882442167e-01,3.764464210964971972e-04,4.022693830098874983e-04,-2.684750497890154739e-04,1.181697472929954529e-01
3.022268997087341758e-01,1.408881734008217701e-01,1.649374468235493829e-01,-1.281054616918543380e-02,-8.237733843668862757e-03,-2.485189166316936413e-02,1.589881628751754761e-01
2.003764703633466593e-01,1.555615977934160787e-01,1.420973156759555434e-01,-1.236987015441024483e-02,2.706006718695228366e-02,-3.283946080084816643e-03,7.403509318828582764e-02
3.097907977753978082e-01,3.807950451301385375e-02,1.202211972114591992e-01,-2.004496638048094970e-02,2.305654457480906666e-02,-6.185820523881471744e-02,2.693231999874114990e-01
2.245453887678514615e-01,1.255105426378183009e-01,1.471137990260349693e-01,1.041359493755851691e-02,3.502927306319272762e-03,-6.496116428835082808e-04,9.218748658895492554e-02
2.506054741939620079e-01,1.421885362265943309e-01,1.112243032920351982e-01,2.545623195134086737e-03,3.326453042311894488e-03,-2.563146847324143229e-03,1.270527839660644531e-01
1.445242062588671383e-01,1.345608925566746106e-01,1.484148762111588971e-01,-3.876031245249351997e-02,1.850685332583171597e-02,-8.366572987481966277e-04,7.543119788169860840e-02
2.412497153281137896e-01,1.238439044750853230e-01,1.230209814472545682e-01,4.545248803729005438e-04,7.511651809215679919e-05,-3.127460816528562196e-04,1.178233772516250610e-01
1.898759393470785817e-01,9.155665719580757811e-02,1.316671756957275563e-01,-3.575245761494458968e-02,3.762816324756986051e-03,1.159459792218426981e-02,1.077608093619346619e-01
2.336646033994777549e-01,1.266881906112641842e-01,1.148359743747010275e-01,1.063771616975682380e-03,3.023202873251358710e-04,-1.035017268913350410e-03,1.133984923362731934e-01
2.419012412545811230e-01,1.344911066644945141e-01,1.121946073493045870e-01,1.231562669440229877e-03,2.439799035556873726e-03,-1.553858113442627229e-03,1.202438846230506897e-01
1.503752970691234203e-01,1.505101479585951862e-01,1.532451642155168436e-01,-3.771914365085910631e-02,-8.365825605398233625e-03,-4.864138646804338009e-03,6.750562787055969238e-02
2.038402670697748720e-01,1.302713895009688649e-01,1.495681483095534503e-01,-1.817996901796471720e-02,3.373037850474923730e-03,3.486376309524011254e-03,7.366976141929626465e-02
2.437199144087389691e-01,1.230815308763169580e-01,1.262717678749157024e-01,4.625478241361005651e-04,1.299328714650990714e-03,-5.515388984901236280e-04,1.191031113266944885e-01
2.247791825601278548e-01,1.341212793097902312e-01,1.808646463409019911e-01,-4.135920656330041578e-02,1.041135890604784342e-02,-4.667111499440164293e-04,1.078134328126907349e-01
2.112243741962074872e-01,1.512143089421726094e-01,1.693265297587077389e-01,-3.503081381483488105e-02,6.781937606014369797e-03,1.213926450296979979e-02,8.428456634283065796e-02
2.458053637747292242e-01,1.444672220056966716e-01,1.139464858586634599e-01,1.092343682366145102e-03,3.440629573090248170e-03,-1.531250896070059792e-03,1.197496429085731506e-01
2.776794116429598946e-01,1.356094079055989166e-01,1.525636125049897318e-01,4.412127880635210650e-03,2.125801849946228929e-03,-9.554578806262125842e-03,1.356778293848037720e-01
2.624423334867689861e-01,9.243570446438120758e-02,5.609978199337929683e-02,-1.241090117007335319e-02,-5.799498478756629979e-03,-4.463773552408974166e-02,2.072208374738693237e-01
2.501816684555155379e-01,5.201840341032651360e-02,9.682035717168652189e-02,-1.095611255170332934e-02,-9.753961319290842258e-03,-4.752266788806346759e-02,1.995458155870437622e-01
3.218652819441299440e-01,1.397795104981235104e-01,1.041980033208635137e-01,1.103521632541942799e-02,-4.730691664550694397e-02,-6.178023371810656417e-02,2.437821030616760254e-01
2.440463547267065769e-01,1.280084027606110397e-01,1.231852811013102317e-01,1.235150559672507520e-03,5.662303286470314959e-04,-1.272806166418547803e-03,1.185669973492622375e-01
2.938714678621195953e-01,9.683229328809929426e-02,1.294985433115685425e-01,-3.688625587711980014e-02,-2.770494889093408786e-03,-6.309864409777633798e-02,2.224952131509780884e-01
2.800642534552231222e-01,1.495232712005256093e-01,1.236791530655357157e-01,6.601833151488363397e-04,-9.468340430724216279e-04,-1.997402122564858121e-02,1.492764651775360107e-01
2.377959575616058197e-01,1.240398997789821239e-01,1.193068650060839786e-01,3.926628435598835689e-04,2.281714118136453264e-04,-1.095943026118399591e-03,1.162130609154701233e-01
2.374686968663832221e-01,1.220400642120465368e-01,1.150843334120136147e-01,-6.001399885273987940e-03,-6.412345157561566075e-03,-6.715520136871757848e-03,1.205891445279121399e-01
2.567807611170712101e-01,1.365790562473163661e-01,1.316844900651424344e-01,-3.025157033564322868e-04,-7.424721124907145402e-04,-5.419576574970493693e-03,1.230885311961174011e-01
2.682135990084718591e-01,1.156774046009353685e-01,1.209672423451595702e-01,-1.504829236548900842e-02,-2.436838029549981410e-02,-3.071114362594549313e-02,1.666694730520248413e-01
2.419091884318332608e-01,1.324560243390498770e-01,1.124992860463278760e-01,-9.320618527932587535e-03,-1.702651310426499601e-02,-2.121328362227000580e-02,1.305485814809799194e-01
3.188402726130298848e-01,1.575195763708739372e-01,1.449001823842644976e-01,-1.032798819144753032e-03,-6.077099582256017575e-03,-3.169252210781443174e-02,1.770497858524322510e-01
2.226138039965833981e-01,1.140088123313490881e-01,1.069565993537822390e-01,-6.845445687263686414e-03,-7.142344212951658167e-03,-6.430871343017134124e-03,1.141418889164924622e-01
2.191589548427496092e-01,1.038902541049713246e-01,1.295638569678400631e-01,8.356600272353504819e-03,9.993577324018115143e-05,-4.211944359260311730e-04,1.058144867420196533e-01
1.903857906509187903e-01,9.878671184113002601e-02,1.157871033403337496e-01,2.681334622975975121e-02,1.735457797688157860e-02,-1.380134498575553807e-02,1.037016212940216064e-01
2.067352078433692952e-01,6.828827202528814366e-02,1.017764375864492754e-01,2.674757016444509472e-02,1.346417446498613356e-02,-1.243580923053017213e-02,1.371378004550933838e-01
2.311260785433313369e-01,1.198615305292012045e-01,1.513384783757436292e-01,2.603257324691134536e-02,1.379674329423640801e-02,-8.646717870701861250e-03,1.126799061894416809e-01
2.052395489729345046e-01,8.906284187672788843e-02,1.524899628118215333e-01,3.891324164684836773e-02,5.252889929415373825e-03,-5.203585784786649883e-04,1.215630918741226196e-01
2.383337503660531986e-01,1.143010426451164935e-01,1.370340163108557940e-01,9.173306768055311186e-03,3.173303718310317625e-03,-4.821047587340926942e-03,1.159036383032798767e-01
2.240677654757329829e-01,1.256480818117022835e-01,1.383387743557227267e-01,3.373714346860591518e-02,1.431551967245318219e-03,-1.989973104670246518e-02,1.149225980043411255e-01
2.203064697877726297e-01,1.040569532563691835e-01,1.287303517147355136e-01,2.372683439870705568e-02,1.295953616158781324e-02,-1.445750650432173733e-02,1.186349466443061829e-01
2.123125492733861919e-01,1.140642857883373273e-01,1.358550573906651959e-01,1.224670788315250849e-02,5.072303468127809314e-03,-4.849853624711389713e-03,9.265175461769104004e-02
2.235595007915556764e-01,1.007164104268077759e-01,1.339058439893515418e-01,1.516968297770798953e-02,7.658315710714723792e-03,-6.995630466219818905e-03,1.145774573087692261e-01
1.594700885146813074e-01,1.696790664876659249e-01,1.644173965879981991e-01,1.188118309208502929e-03,-1.944190360466099138e-02,-1.906251712625768591e-03,3.503271564841270447e-02
1.984355169307457922e-01,1.699505024796718611e-01,1.535997107233228465e-01,6.115435518794346686e-03,-3.694187612902099377e-02,1.544336827809092861e-03,7.588118314743041992e-02
1.196591573969799926e-01,1.342330506654766664e-01,1.378285149449682834e-01,6.161433505453696273e-03,-2.771237601352043167e-02,2.949909743725527469e-03,5.216942355036735535e-02
1.558868636545108488e-01,1.666302775473350040e-01,1.044916296797925859e-01,-1.530677306562464556e-02,-5.979636303535009606e-02,-6.253814796034086639e-03,1.218855530023574829e-01
2.406792686203633735e-01,1.238251455832327652e-01,1.234247383148581456e-01,3.759030857891581894e-04,-2.452574386897363656e-04,-4.665509357412630500e-04,1.170602142810821533e-01
1.776506899345682844e-01,1.673110946801078247e-01,1.525636355880300166e-01,-1.861127058733430539e-02,-7.875869973738058860e-02,-7.614749738968610779e-03,1.424737423658370972e-01
1.383224492413659690e-01,1.325257533450589220e-01,9.174321880329845691e-02,-1.983337311517505142e-02,-5.912822611773980302e-02,-3.556005657064308014e-03,1.167890653014183044e-01
1.222203444479487561e-01,1.297896201883483869e-01,1.407399820698024273e-01,-3.825213868782107590e-02,1.898800045014854831e-02,1.950829287948458324e-03,7.578139007091522217e-02
2.067072761352357069e-01,1.618685574535772553e-01,1.262477744962720583e-01,-1.111088209593210849e-02,-4.633018427953987384e-02,-8.026220058033890770e-03,1.089936420321464539e-01
1.821621326071959923e-01,1.446168239408344713e-01,1.529631064556295494e-01,-1.519152459223663612e-02,-6.115755806178083120e-03,-1.562458453331293804e-03,4.447275027632713318e-02
1.499380081099403461e-01,1.499669228041292934e-01,1.514065963359468026e-01,-3.343470010866542164e-02,-1.899947899129723200e-02,-4.910237195597319179e-03,6.716416031122207642e-02
1.400089783554869238e-01,1.338242055028601163e-01,1.429986253851665556e-01,-2.997670419227969549e-02,-6.271186643711647128e-03,-6.767595951388928957e-03,5.492606386542320251e-02
2.387530743215347528e-01,1.297700465424063976e-01,1.186878950815453554e-01,-2.021492782338487997e-03,1.310183554399794222e-03,1.241568750187326074e-03,1.150213629007339478e-01
1.838641850317598858e-01,1.326038309210352262e-01,1.572553697543507267e-01,-2.598308654849025914e-02,-1.389145679012748855e-03,-3.710046188146395862e-03,6.359340250492095947e-02
2.023432604023809034e-01,1.418483707046032660e-01,1.386398437971275155e-01,-1.445571993657839872e-02,-1.400819312563286387e-02,-7.066175858580261634e-03,7.231466472148895264e-02
1.868788006015055791e-01,1.213040649568870588e-01,1.174356678468708448e-01,-1.614742171942405713e-02,-1.574170263395064176e-02,-1.325414146640358469e-02,8.137147873640060425e-02
1.916397355970525518e-01,1.180682112976065012e-01,1.177971123924030361e-01,-1.923435163984624566e-02,-8.853892283515216871e-03,-1.011333533676710313e-02,8.417055010795593262e-02
2.549671415522720697e-01,1.415859537782989952e-01,1.063616894533676582e-01,-6.469183784142192896e-03,1.312989187913437064e-02,7.501326207741807264e-03,1.374821960926055908e-01
1.873205181369597683e-01,1.275886851352852902e-01,1.291016306815924441e-01,-2.783248307092413276e-02,-3.240213270305546123e-02,-2.025552514531706039e-02,1.009173169732093811e-01
1.901975628941378615e-01,1.372925221370408788e-01,1.335726788340589333e-01,-2.644612712093684023e-02,-1.198279809062724986e-02,-1.439457035283208362e-02,7.848659157752990723e-02
2.262362284022160219e-01,1.259848785757687051e-01,1.245391265840873618e-01,-1.104721212354761945e-03,7.561268780464933462e-04,3.863267552991833838e-03,1.012300029397010803e-01
2.115560527365905608e-01,1.385538792011041243e-01,1.438628858378948050e-01,-2.386021627436787224e-02,-2.452546049580780693e-02,-1.325633073087044943e-02,9.491864591836929321e-02
2.305222024088738331e-01,1.141962776649961681e-01,1.306550373254347086e-01,-5.111826751643258789e-03,4.868692093052104201e-03,4.324136019745600246e-03,1.099710464477539062e-01
2.304961927958794343e-01,1.280326241529956832e-01,1.217244245474114750e-01,-9.529455209589382921e-06,8.072381157247041777e-04,3.601533157032126529e-03,1.059518977999687195e-01
1.846399574100750784e-01,1.604418663804440259e-01,1.345683060605999404e-01,-1.587975012724252358e-02,-3.897805776795160854e-02,-1.080003865673496641e-02,8.686407655477523804e-02
1.709933580019587507e-01,1.514021042576508269e-01,1.263165347613118272e-01,-2.713844234462520905e-02,3.337431794357374748e-02,5.063500442756877461e-03,8.445411920547485352e-02
2.448713675587865790e-01,1.298415292322400161e-01,1.040889829396516864e-01,-7.792217809256376040e-03,1.451106644125241610e-02,1.769348771233570164e-02,1.364199966192245483e-01
1.045149321334043202e-01,1.037880399001556569e-01,9.533779103713038716e-02,-3.419213547970449685e-02,7.119536479974382381e-02,1.738872300184301362e-02,1.403525024652481079e-01
1.140654078910324776e-01,1.546691616452111340e-01,1.397784836507276474e-01,1.210807899542416625e-02,3.573929429079234638e-02,6.032086912170623628e-04,7.442163676023483276e-02
1.550101336147978182e-01,1.559161159663068896e-01,1.570406938724178414e-01,-7.259312316527680338e-03,3.095414763544183934e-02,3.034952369065462702e-03,5.534715577960014343e-02
1.533475338669060550e-01,1.470244750140462797e-01,1.328121689544324857e-01,-2.229066371653793885e-02,4.010390780372272146e-02,7.364461043973674625e-03,8.252353221178054810e-02
2.404123350984226082e-01,1.198354179806484510e-01,1.233130711195281892e-01,-1.336998529186438859e-03,2.418850851873958693e-03,1.574192309829366239e-03,1.190038323402404785e-01
2.565222640455112613e-01,1.091673580343856254e-01,1.559629313625477132e-01,-2.972635609586224067e-02,2.318350857827169292e-02,1.573418421549691720e-02,1.483705639839172363e-01
1.386606227424030113e-01,1.381658756019094880e-01,1.094987785730808932e-01,2.830888389507344068e-03,3.992841081358321220e-02,5.284161048117457828e-03,7.567610591650009155e-02
2.255798752153373998e-01,1.354773722004960212e-01,1.134171317528883394e-01,1.701671317411409512e-05,2.574208597999587487e-03,1.700787464896873864e-03,1.030599698424339294e-01
1.556636514225693546e-01,1.242142569546480363e-01,1.247066994673036999e-01,-1.756868724403213081e-02,1.502196522706405676e-02,8.113481174028871687e-03,5.267124623060226440e-02
2.804918886635230368e-01,9.364883432039158850e-02,1.318340275539311157e-01,3.893759400813494309e-02,-1.516083782066762406e-02,3.542609395483364149e-02,1.955422759056091309e-01
3.667315095759124954e-01,1.226824039342111344e-01,1.860034668511571232e-01,3.162178548394012356e-02,-2.901411808524097594e-02,4.550949146367438275e-02,2.446521669626235962e-01
3.824401506793551064e-01,1.864344247232739837e-01,1.947262533407346785e-01,3.996699185563974688e-02,-1.169404973258719033e-02,5.683971685078943042e-02,2.275002151727676392e-01
4.400187507222131922e-01,1.851354681189689988e-01,2.083814369505193331e-01,1.706379993326476510e-02,-1.113197723543209172e-02,4.468808054159353893e-02,2.584902644157409668e-01
2.809158265979105340e-01,9.736938800117624082e-02,1.296577547901225647e-01,3.401818691027994751e-02,-1.435576391972124936e-02,4.276472293239648448e-02,1.959128826856613159e-01
2.348244428063109845e-01,1.349495451020614467e-01,1.095188762511384306e-01,7.539071204707496450e-04,4.389538812115729820e-03,-2.574661076872010283e-03,1.150695234537124634e-01
2.329587137155899879e-01,1.339992558443753312e-01,1.042334996482126436e-01,-1.275081490420454638e-03,3.815709189195315692e-03,6.677105667300265845e-04,1.169378980994224548e-01
2.502740607979006549e-01,8.247869175426858490e-02,9.335955279759017289e-02,2.890494190111085951e-02,-3.007287038324426079e-02,4.482074496841937511e-02,1.941500455141067505e-01
2.458039888675934703e-01,1.406676552379311218e-01,1.084325169650226656e-01,8.341941765648972678e-04,3.592687479219582210e-03,-4.300916858711602807e-04,1.245921403169631958e-01
2.585884846904303869e-01,1.451296905554083361e-01,1.349533467775730633e-01,-1.950013997796020554e-02,-1.980874695943057873e-02,-2.714024993769183214e-02,1.365970671176910400e-01
2.489390865580803913e-01,1.228123081855500009e-01,1.189237170077463573e-01,-4.750081483094356800e-03,-5.011992399072819765e-03,-9.627163515273394478e-03,1.297483593225479126e-01
2.282621026121850749e-01,1.206613457469546402e-01,1.173848875582387125e-01,-6.694345214492755138e-03,-7.755558145731797359e-03,-7.264282897050567886e-03,1.114199534058570862e-01
2.440793601168019245e-01,1.266800257817017328e-01,1.269857753710799397e-01,-6.836648098214751293e-04,-1.344123516223527269e-03,-1.703552259559035827e-03,1.173129603266716003e-01
2.322617300526060302e-01,1.185600962201085184e-01,1.265631272788473594e-01,1.084352403309602961e-03,9.993199617321442581e-04,-4.609941202970299634e-03,1.102380603551864624e-01
2.411311792515839492e-01,1.198148414808839907e-01,1.204610420767348589e-01,-1.966864268860073987e-03,-2.105480351825088445e-03,-3.349758560318982174e-03,1.212363168597221375e-01
2.729949751678520942e-01,1.370473603168715915e-01,1.400173321812895888e-01,5.626862971410742913e-04,-7.728877264975727007e-04,1.305425107614490050e-02,1.363847404718399048e-01
3.028257656975413270e-01,1.432057004746357387e-01,1.414195289647088849e-01,-6.254412003079576517e-03,2.004597654861110106e-03,1.851729176971718752e-02,1.640882194042205811e-01
2.551300090218422412e-01,1.199600950491378076e-01,1.203564692387165957e-01,-8.074273870172012438e-03,5.506105749289630195e-03,1.456401357655501619e-02,1.383486539125442505e-01
2.610404937329984798e-01,1.266009749933007245e-01,1.400810758501936371e-01,1.507928485324674505e-03,-4.789835720528888281e-04,9.877438482712353265e-03,1.293972134590148926e-01
1.668887864888107531e-01,1.301851599126159498e-01,1.067378444302819196e-01,2.288779352438195108e-02,5.479591634320787885e-02,-1.365323714435220416e-02,1.178817078471183777e-01
2.362211676919584447e-01,1.167324702123727354e-01,1.356141481924378056e-01,4.744843603031290808e-04,1.262715948235891257e-03,-8.996815768451674926e-04,1.112915351986885071e-01
2.621672051442596185e-01,1.124028299307432421e-01,1.351709217687852849e-01,-3.516141991275385965e-03,3.415739664025801894e-03,1.027702421139148163e-02,1.411624848842620850e-01
2.550343710631179373e-01,1.230296140570529273e-01,1.304141282248862665e-01,-4.818355106899148248e-03,1.585937793926198158e-03,8.210059365354653235e-03,1.295546442270278931e-01
2.343227169043624603e-01,1.204256621116421705e-01,1.234483651624892486e-01,1.241285039667885471e-03,1.126630153741115534e-03,-2.632722194292249924e-03,1.125460937619209290e-01
2.173509137154954196e-01,2.114905331651096565e-01,2.068470055847512756e-01,5.178756534117503335e-02,5.229519259907383644e-02,-1.001767192384296103e-02,1.289744079113006592e-01
2.669494815392977061e-01,1.337452784536643235e-01,1.414199343589793434e-01,-7.106496210026837408e-03,6.915401671994459050e-03,1.725452139279581507e-02,1.340451240539550781e-01
2.501413484212832161e-01,7.910949832255412262e-02,1.142700842250611304e-01,-1.595125168300364502e-03,1.959362708081166971e-04,2.273593187623294820e-02,1.613477468490600586e-01
3.096782651400720177e-01,1.132242222494147244e-01,1.654254581914525180e-01,-2.292761816984646012e-02,9.896257284751500474e-03,3.050985662780985111e-02,1.890169382095336914e-01
2.209162517586306662e-01,1.037160112344046176e-01,1.391817448898804710e-01,1.516232873265542166e-02,5.013148310007440982e-03,-1.863253530516962870e-03,1.077618747949600220e-01
2.204220446998179095e-01,6.958627501552507033e-02,1.436855082763408564e-01,2.899202596670935259e-02,-1.067898491334549286e-03,2.723983341513348984e-03,1.400450170040130615e-01
2.472366812466741948e-01,1.258164541379294399e-01,1.286568140383869963e-01,2.986135735659544788e-04,8.015946090696635020e-04,-6.980378752295966814e-04,1.200404912233352661e-01
2.189718341878460761e-01,1.158672956034015739e-01,1.336811419993114147e-01,9.274220791254771459e-03,6.055410242236556120e-03,-7.115506725818014806e-03,9.813826531171798706e-02
2.265331268365153583e-01,1.450084515862373469e-01,1.786746609240358052e-01,4.664981524024070653e-02,2.190042456097535291e-03,-3.378673915650407499e-03,1.077604293823242188e-01
1.857240185542187449e-01,4.708342345904956150e-02,1.239307228795275828e-01,6.328649748406756093e-02,3.773176592716473172e-03,-4.260543913154412644e-03,1.630499213933944702e-01
2.125198095370209317e-01,9.233906673528791131e-02,1.213334161691420748e-01,1.471073975199887508e-02,2.388709254137943473e-03,-3.908030971276641417e-03,1.118555963039398193e-01
3.296105209837678629e-01,1.624427061868528310e-01,1.762537923574095389e-01,1.634047218286137707e-02,-1.230496092950889193e-02,3.354298539025424297e-02,1.745214015245437622e-01
2.266872202392973268e-01,1.212565093624060480e-01,1.434632865381118283e-01,-1.749531450086318175e-03,9.128498290170778328e-04,1.884187527661800379e-03,9.638378024101257324e-02
2.601689050161590799e-01,1.321294525328198244e-01,1.029160337376321815e-01,8.827566845477341148e-03,-4.495508275806207356e-03,2.672233118931422596e-02,1.530511379241943359e-01
2.463621744632529253e-01,1.301880503372188913e-01,1.178968903902563869e-01,-1.487824665310428932e-03,4.914941410520197625e-04,-9.597394348687728624e-04,1.228232234716415405e-01
2.334896739387381515e-01,1.302830788745391044e-01,1.159637931170526409e-01,6.083750121253882551e-03,-7.441871005907743121e-03,7.035621028318264983e-03,1.129609122872352600e-01
2.493561698706651675e-01,1.455419867940100920e-01,1.178432287609556817e-01,2.790870435402104978e-03,-9.903123121882705104e-03,5.721778481260666148e-03,1.218028292059898376e-01
2.286801127093930353e-01,1.430360436186147166e-01,1.233252028391901289e-01,3.093435726185553812e-03,1.038694669744625459e-02,-6.196058003353920388e-03,9.939359873533248901e-02
2.450180737213342730e-01,1.207771663884449065e-01,1.346740247658213818e-01,7.378408564380679706e-03,-7.730414845389703242e-03,1.035653504375855932e-02,1.206927597522735596e-01
2.832271726261538225e-01,1.110901937323222899e-01,1.440079469096922082e-01,1.514809094440181837e-02,-2.582339461985259411e-03,2.019917812222948167e-02,1.642582565546035767e-01
1.223079132855985907e-01,1.329043041479369969e-01,1.293111618888995173e-01,-8.608673951008689179e-03,-9.367642990472055961e-04,2.133035780549350554e-03,1.804798468947410583e-02
2.052805319274471074e-01,1.290570308971854263e-01,1.191461182177996347e-01,-4.762643135880568947e-04,3.963486561087413949e-03,4.700691165345093417e-03,8.232733607292175293e-02
2.339799244233808917e-01,1.192366452715920982e-01,1.276894276444714427e-01,-3.786427663566492531e-04,4.535676030762762442e-04,3.127560338537368860e-03,1.108961775898933411e-01
2.623932429281706225e-01,1.224869629006049288e-01,1.414079588296639489e-01,7.419928198199705026e-03,-6.051513547299476256e-03,8.301987553599210132e-03,1.332906633615493774e-01
2.533625536471565409e-01,1.328684722074559843e-01,1.180847353651152953e-01,2.102590537779517200e-03,-5.998031465211901142e-03,7.882234835283443222e-03,1.297162920236587524e-01
1.748537832779679113e-01,1.436731795469714523e-01,1.284832039321627539e-01,-8.977744140768503366e-04,4.293749152266821897e-03,3.024563438832676872e-03,4.197343066334724426e-02
2.560611439733886385e-01,1.259434556325683130e-01,1.427915748077545899e-01,6.478605611807526643e-03,-3.906061963984018646e-03,1.118315562316662785e-02,1.247762441635131836e-01
2.477859888481803163e-01,1.313834058838305174e-01,1.261514062804443559e-01,1.957776743338794211e-03,-1.418446171151179240e-03,5.003599012546697256e-03,1.194930821657180786e-01
2.392700152361660337e-01,1.166622799601994831e-01,1.311159235991625205e-01,1.566177676372780894e-02,-7.943727386166049911e-03,1.396453779730604146e-02,1.223913505673408508e-01
2.434776873070023662e-01,1.199268014833685253e-01,1.304969071747090481e-01,-1.396369829988613380e-03,1.954422443606521672e-03,1.104961288217961007e-03,1.187079399824142456e-01
2.289568245403295899e-01,1.291694622454851449e-01,1.292715650009346740e-01,-1.104217227283755404e-03,7.260746690281820849e-04,4.793064134317788320e-03,1.001074388623237610e-01
2.424457745180874646e-01,1.303863439196790430e-01,1.197936299261472132e-01,-5.105151800172270070e-03,-6.161478675896706406e-03,-6.397548680476153153e-03,1.190436929464340210e-01
2.419468474267614799e-01,1.391745037000000074e-01,1.078990718355741507e-01,5.119238322646500576e-04,3.969672862010988242e-03,-1.740417205503902377e-04,1.216663792729377747e-01
2.471261212754680414e-01,1.281366807125878804e-01,1.263129281153829997e-01,-2.787944575439594945e-04,3.233419079109918774e-04,-1.498416152618223208e-03,1.199420839548110962e-01
2.507952070668059696e-01,1.296542892921959400e-01,1.034743969998924429e-01,-3.124590752815540814e-03,-3.224674724988554723e-03,-1.049547972878502738e-02,1.375605911016464233e-01
2.121455612491756071e-01,1.235888254927006574e-01,1.310450345207444800e-01,-2.052953265143026181e-03,7.810985670247820893e-04,4.298617255766368390e-03,8.548392355442047119e-02
2.042599271717799037e-01,1.276839673199273162e-01,1.175921451422957953e-01,-3.772518622144878462e-04,4.132591783180573040e-03,4.350516654508080998e-03,8.274633437395095825e-02
2.477307483683873213e-01,1.300469995182599592e-01,1.261163273518940142e-01,-1.167875942936542644e-04,3.525683448625224260e-04,-9.261780381146530843e-04,1.197099760174751282e-01
2.443864258935154465e-01,1.206402434556323039e-01,1.228017540282399789e-01,-1.287447475228473050e-03,-2.093260192234283178e-03,-4.352372125276031053e-03,1.229847893118858337e-01
2.540570844787718441e-01,1.316814234836106989e-01,1.364262880035527203e-01,-4.199921104308407954e-03,-2.614941051538166930e-03,-5.367160156172064156e-03,1.207373663783073425e-01
2.083315298777999591e-01,1.481157933756314382e-01,1.280894748349957757e-01,-2.972972953375454912e-03,4.070643832864513124e-03,3.168988341419453226e-03,7.307011634111404419e-02
2.764871226693758066e-01,1.396169854956621492e-01,1.500957829129397902e-01,-4.888120095766970881e-03,-5.291190566078986073e-03,-1.126972302278831002e-02,1.339615434408187866e-01
2.497496579170886410e-01,1.303419434071833860e-01,1.292224937384822969e-01,-2.094086112022722635e-04,9.196301307490976950e-04,-1.908433722338128509e-03,1.200280040502548218e-01
2.451119545852251669e-01,1.290363094382503406e-01,1.206349527237407793e-01,3.190414839216629381e-04,-1.520849785992960720e-03,-2.590848804181135941e-03,1.206097528338432312e-01
2.392063628687068622e-01,1.215033221146376019e-01,1.251039823895332415e-01,2.510745951041341590e-04,9.726680004287246474e-04,-7.119087808952132132e-04,1.159642636775970459e-01
2.070982997926136826e-01,1.308974395407640767e-01,1.220945126487887750e-01,1.033486766609241709e-03,2.723242639804006066e-03,-6.062998720459934765e-03,8.179599791765213013e-02
2.483268185630999048e-01,1.296831968572797478e-01,1.287845089367268270e-01,-1.936526111245018018e-04,3.386691450176509293e-04,-1.816064174559100727e-03,1.191389560699462891e-01
2.461771111376211407e-01,1.350971217466823138e-01,1.517669295387280570e-01,1.348140211528733694e-02,6.756360504713425016e-03,-9.442251826050882674e-03,1.082341074943542480e-01
2.263582369940324024e-01,1.102043346376766209e-01,1.168100315946560691e-01,4.711857692990806083e-03,2.700218546625781854e-03,-4.884515076926261232e-03,1.137019842863082886e-01
1.317591683767070365e-01,1.519190644604815621e-01,1.428634680369752219e-01,8.816534191197517457e-04,4.021610173062253012e-04,6.032779788993844483e-04,1.760040782392024994e-02
1.667371831246433622e-01,1.527310571120356897e-01,1.547598063463743456e-01,8.982069455424703018e-04,5.296848962438223136e-04,-2.507994513365171055e-03,1.392855402082204819e-02
1.403104971510843180e-01,1.486312009385796218e-01,1.458205664022274584e-01,8.007943974422983280e-03,8.753489374292071010e-03,-8.770797091012978719e-03,2.658533863723278046e-02
1.824020333045429654e-01,1.579402203585458797e-01,1.620518252463703512e-01,-5.770957420376073531e-03,1.017170628602662294e-03,-2.200664873984401089e-03,2.514463849365711212e-02
1.715499594126288219e-01,1.548143161030891002e-01,1.500530605514574234e-01,2.581648081926382534e-03,6.383193997999719871e-03,-1.569128508170644165e-04,2.290716208517551422e-02
2.347682617402771232e-01,1.073168793668795584e-01,1.376976826274908527e-01,3.365327767849004854e-03,-9.070891930874383198e-04,4.384194071670634708e-04,1.154633909463882446e-01
2.261725716893633609e-01,1.248453475716350958e-01,1.262045903731041918e-01,1.293315689423274939e-03,1.170349503704797489e-03,-6.549230395576834812e-03,1.013367176055908203e-01
1.752040194701457443e-01,1.374142118265171963e-01,1.247621954636258246e-01,2.078291759495625964e-04,2.175677570897745217e-02,4.442771014746917102e-03,5.954558402299880981e-02
1.660799162338086887e-01,1.444367517220839225e-01,1.359449421654339019e-01,3.540542934080411798e-03,8.651653755983212263e-03,-2.576449902069692568e-03,3.172382339835166931e-02
1.831529188169205846e-01,1.548949403978487904e-01,1.544302286710185490e-01,8.123798652990862987e-04,5.712377729594848332e-03,-4.897375815947026994e-05,3.019506484270095825e-02
2.258308986909278726e-01,1.288160756873610036e-01,1.282084327037726901e-01,1.488540045016199971e-03,-9.888452831312501308e-04,4.674162601219522886e-03,9.770526736974716187e-02
1.609421521079608119e-01,1.416021491724343273e-01,1.412746691421272738e-01,-4.198583863409686610e-04,1.307633815645534506e-03,-1.010645005035292398e-03,1.972813159227371216e-02
1.462683440978108096e-01,1.567791219858456209e-01,1.749980443663894381e-01,-9.913597091937533662e-03,-6.271825537696207840e-03,2.493504030492072095e-03,3.264044970273971558e-02
2.184542172319720310e-01,1.284619192161919332e-01,1.033430277857061430e-01,-1.443706574130255169e-03,-8.504847398329387978e-03,-2.421945549600859181e-03,1.059760674834251404e-01
2.345019783253035894e-01,1.494439890651632075e-01,1.280644065971496826e-01,6.294952729621819051e-03,-8.803099114586791438e-03,8.367391010636796413e-04,9.931724518537521362e-02
2.159297949248353832e-01,1.504398220957726129e-01,1.357081425801164587e-01,4.353178189243884534e-03,-1.279567883093498358e-02,-6.708535279509955391e-04,7.758946716785430908e-02
1.967873544144844167e-01,1.038696596497204749e-01,1.253924228178346922e-01,-1.761427365558389593e-02,-7.036861799875187076e-03,-6.989738577387155996e-03,9.123042970895767212e-02
2.395075038610859353e-01,1.195579111949857942e-01,1.259767344460511751e-01,-7.092837668316052729e-04,1.206305408574643266e-03,9.122241231157551117e-04,1.169082671403884888e-01
2.147885729937853150e-01,1.591830502741375941e-01,1.407229737360887467e-01,-1.965630483025132807e-03,-1.725700624817633894e-02,1.255406231874206828e-03,7.327320426702499390e-02
2.328237766507959550e-01,1.390715325376227773e-01,1.244441779125797509e-01,5.574184320954194034e-03,-6.402393996322919278e-03,7.325504057777634283e-03,1.036916822195053101e-01
2.163782565574830230e-01,1.637975446306594030e-01,1.041598809276768900e-01,1.481162852099053920e-03,-3.077862024821956255e-02,7.025653491427783642e-03,1.115966141223907471e-01
2.279777755283638463e-01,1.256349972033775630e-01,1.478783285410812387e-01,1.701340894037523671e-02,2.123548802844361580e-03,-7.004576420012497209e-03,9.859743714332580566e-02
2.315316630954796229e-01,1.219297889628872256e-01,1.159269608558651243e-01,4.393508385503719187e-03,8.069964831799912586e-03,-6.198753195809559961e-03,1.143463253974914551e-01
2.429859852607336723e-01,1.280800533799605345e-01,1.332595389365918148e-01,4.037665769663501512e-03,8.735371761794626100e-03,-8.203591282057135989e-03,1.145197451114654541e-01
2.498555345731370281e-01,1.476725520838698680e-01,1.140467597719079795e-01,5.324142188727639877e-03,9.242739159895003304e-03,-7.817040716214359447e-03,1.246301829814910889e-01
2.337871571667061443e-01,1.193233149834653783e-01,1.352533885478505726e-01,-1.253460400684844106e-03,-1.810766043159854220e-04,-6.873214899857649218e-04,1.074176430702209473e-01
2.442665764988077859e-01,1.232603086608598797e-01,1.185580837727331915e-01,9.542243485422310587e-03,1.396492967956364066e-02,-1.214931111898083158e-02,1.285871863365173340e-01
4.263474702727209076e-01,2.266684959877029448e-01,1.876826853507604087e-01,-3.283597606496026222e-02,-3.187851859055802761e-02,-7.161119602417610752e-02,2.661654353141784668e-01
2.506239240604802854e-01,1.289037864692865465e-01,1.379357981298723612e-01,2.272362785916328884e-02,2.916744249828084196e-02,-1.483033259762998012e-02,1.362318545579910278e-01
2.299822153863735896e-01,1.215284634499367578e-01,1.362838134990607131e-01,-1.645185625662219913e-03,3.548163171331775601e-04,4.092250144531430628e-03,1.021684929728507996e-01
2.558585517436670065e-01,1.481776864901452051e-01,1.112224246158298874e-01,-1.296735640367788558e-03,-2.228464576089289866e-03,2.006999729053505262e-03,1.302776336669921875e-01
2.097404558976279643e-01,1.364394660645830981e-01,1.248491286289094560e-01,-2.459023973243798337e-03,-3.540639146438394336e-03,-5.378627524497555171e-03,8.061942458152770996e-02
1.682420119240929934e-01,1.316371582704043419e-01,1.220658596207793573e-01,-1.968224573498241706e-03,4.430230266391217524e-03,7.218424964723304691e-04,4.305748268961906433e-02
2.604445910211037329e-01,1.408344684129329560e-01,9.709463190605736871e-02,-2.053624517545895979e-05,-4.594098759235709477e-03,-4.639028063237626842e-03,1.468991637229919434e-01
2.547726162528698435e-01,1.438796456390857570e-01,1.079679360586091874e-01,-4.028166432099706509e-04,-3.341973916158673050e-03,-1.947131712319588462e-04,1.326776742935180664e-01
2.412666785643941547e-01,1.084515624522644356e-01,1.386051745749036779e-01,-3.854983749354106305e-03,-7.358965885273185568e-04,8.251942814769028895e-05,1.207910105586051941e-01
2.571766851617255378e-01,1.479937346909853124e-01,1.123923781602087224e-01,1.093336858293282240e-03,-1.840531821353043806e-03,-3.550802395937093479e-03,1.308701932430267334e-01
2.636835899746222123e-01,1.508925312762186277e-01,1.154107838344364256e-01,1.837908991800048415e-04,1.158705893124854780e-03,-1.794900572397742800e-03,1.341513842344284058e-01
2.308229207640235259e-01,1.227460127517328442e-01,1.115698270532158864e-01,-4.977525529872507855e-03,6.386929838681283667e-03,6.030278340951175306e-03,1.154088899493217468e-01
2.047996527715152948e-01,1.353256433901307287e-01,1.349276346785709957e-01,-1.515026204064989562e-03,2.626928254770020347e-03,4.266583708808149335e-03,7.026127725839614868e-02
4.455244785307589384e-01,1.699091101396017212e-01,2.728028716690649169e-01,-3.194932054979317954e-02,2.015311421151335693e-03,4.103871259121499859e-02,2.575244605541229248e-01
2.410213242760300689e-01,1.432696456519998163e-01,1.233972930253358774e-01,-2.012969626039282436e-02,3.566881308699976216e-02,1.210370236162806867e-02,1.317754238843917847e-01
2.273675660083560313e-01,1.536077438469040102e-01,1.439891394231216093e-01,-8.270721551664814500e-03,1.108148116825040386e-02,7.635711464666509150e-03,8.361232280731201172e-02
2.504750432780749048e-01,1.303696222107982028e-01,1.308690892551379881e-01,-2.805596678881317309e-04,-2.787997483473140265e-05,-2.185658194977308649e-03,1.199172362685203552e-01
2.148924279025602735e-01,1.236260239378029618e-01,1.397999787872966082e-01,2.951463876773798619e-03,1.295609403230611528e-03,-2.511020542714268149e-03,8.464691042900085449e-02
2.118001136790285399e-01,1.561672435192835995e-01,1.367194017404601558e-01,-4.060758370991947482e-03,1.596355578986357812e-02,3.427153169522716668e-03,7.351452112197875977e-02
1.817432824360700749e-01,1.493422927097473041e-01,1.575799047318999779e-01,-1.772056973360596616e-02,1.012049635974651869e-02,7.178025262815433682e-03,4.748343676328659058e-02
1.872959749381893635e-01,1.474587915749020484e-01,1.352645307612213854e-01,3.091629837020800037e-04,4.815925267786784481e-03,-1.260024741218736992e-03,4.791779816150665283e-02
2.483408787036118504e-01,1.633093959521254024e-01,1.373384748148681334e-01,-4.063349091769067993e-03,2.029645689488085783e-02,7.052625030573551369e-03,1.074605807662010193e-01
1.655828494649070615e-01,1.450375284502012918e-01,1.436968697859699329e-01,1.844378032718045320e-03,2.943973596679791849e-03,1.071494560786352533e-04,2.208375930786132812e-02
2.659655019879847981e-01,1.188307422272595337e-01,1.465417767640409819e-01,3.251185207214331296e-02,2.217194129919948173e-02,-1.490230391842673960e-02,1.537899971008300781e-01
1.924013510671477023e-01,1.221233669202863303e-01,1.002233471386869967e-01,-5.032460386003285643e-03,1.902986229630406964e-02,5.139235401848880370e-03,9.055006504058837891e-02
2.003183311282227541e-01,1.581623677871085709e-01,1.375437538559450557e-01,-1.522605005424852893e-02,2.521850243049769680e-02,1.421114723235009092e-02,7.925109565258026123e-02
2.366496419767524784e-01,1.241275417099839129e-01,1.159264466425193874e-01,-2.093350377001127263e-02,-2.067377375665517547e-02,-2.076815791478600279e-02,1.324465274810791016e-01
8.285720605767071811e-02,1.215990190342318977e-01,1.155678618207406638e-01,-2.397258031953481208e-02,-1.432059210359129878e-02,-5.847075692447463273e-03,6.120050325989723206e-02
2.436213289815104543e-01,1.239949379205918800e-01,1.250707187314373248e-01,4.191402785588413870e-04,4.066486843802837947e-04,-2.658819351137516073e-04,1.190973296761512756e-01
2.374153767206721999e-01,1.183082473996720924e-01,1.292505339492270588e-01,1.799051074355963414e-04,1.259549072465022262e-03,-1.041521253753283039e-03,1.140659824013710022e-01
2.246460192907489828e-01,1.186098309051220462e-01,1.373695121514177941e-01,2.032826519392604610e-03,-4.820224765068051109e-05,-1.691092890222938927e-03,9.811919927597045898e-02
2.322923887479389771e-01,1.358079259852138787e-01,1.173627877974041389e-01,-2.532242317193714523e-02,-4.274682517514624691e-02,-1.636885214507479563e-02,1.401374638080596924e-01
1.700451564369318824e-01,1.010194437790934707e-01,8.072381327930294725e-02,-2.567465161119038969e-02,-3.916879034018540262e-02,-1.628366396214275466e-02,1.181228235363960266e-01
2.297665552092849062e-01,1.218924510749259948e-01,1.363907011548666504e-01,1.743089485358409029e-03,1.371541490036349057e-04,-2.745313238192417706e-03,1.015618890523910522e-01
2.195263979022652467e-01,1.218356574949598092e-01,1.083968545114522286e-01,-2.946743583492931421e-03,-9.563140919476508309e-03,-4.962155542039163765e-03,1.068232581019401550e-01
2.193778950974348829e-01,1.247943041605990289e-01,1.145529905137944726e-01,-3.379860839734156498e-03,-7.457617828611648632e-03,-5.912061601823896846e-03,1.016148403286933899e-01
2.428864403998310939e-01,1.226753171862705327e-01,1.242222134648300752e-01,6.557067348624835137e-04,9.193489439042459507e-04,-7.953029023396836683e-04,1.194691434502601624e-01
2.316054930260069422e-01,1.192114726603415442e-01,1.363434403144414553e-01,-1.788781348732351034e-02,-6.540439698093016875e-03,-1.062552925317192254e-02,1.114780157804489136e-01
2.397207838733054763e-01,1.260819633632009329e-01,1.280078069164298782e-01,2.869735104392915313e-03,1.242137731926286218e-03,-4.269852812031188147e-03,1.130604669451713562e-01
2.333502960190864672e-01,1.246981825783376602e-01,1.169141813676191632e-01,-2.091737128373197252e-03,-2.600434580267837678e-03,-2.302906473621251556e-03,1.129643470048904419e-01
2.288067089738016757e-01,1.338122729970693259e-01,1.107272927154044351e-01,-1.043558881488439519e-02,-1.860366964452409358e-02,-7.323402466054804681e-03,1.152202039957046509e-01
2.229746328896416441e-01,1.292438467694241866e-01,1.207755554853323088e-01,-4.844488282080231661e-03,-6.975202091131363531e-03,-7.307077445614980175e-03,1.001372039318084717e-01
2.428629216174370831e-01,1.531697266294460846e-01,1.334287136530578621e-01,-9.356414707788736004e-03,-2.056371467617795074e-02,-1.263907150115076497e-02,1.105245500802993774e-01
2.327291873238426234e-01,1.166963920491706774e-01,1.175150993198133126e-01,-1.973830939395668227e-03,-1.852062048566757843e-03,-2.852235759807855361e-03,1.158260181546211243e-01
2.235199004535761147e-01,1.183754305623902214e-01,1.177215328064512151e-01,-1.947555138624175626e-03,-4.712127677791133097e-03,-5.589956613739802127e-03,1.062839329242706299e-01
2.338583594822892797e-01,1.302049694605736108e-01,1.171640708841997502e-01,-4.879622458678669825e-03,-7.884370837010795663e-03,-5.823818747760386300e-03,1.123632341623306274e-01
2.933465393691009337e-01,1.818624506535218843e-01,1.224209810884892280e-01,-1.193932769594337022e-02,-2.898713361865947954e-02,-1.270481890066810574e-02,1.613115370273590088e-01
2.782912836086612884e-01,1.604368620480044472e-01,1.137667625261497423e-01,-7.806903230984959911e-03,-2.906937695464019769e-02,-1.912033544498728706e-03,1.558747440576553345e-01
1.676286530538587949e-01,1.068090686607250372e-01,3.290810132799608378e-02,-8.391697223440278477e-03,-6.258869942546339826e-02,-7.673721939431605091e-03,1.606080830097198486e-01
2.631684233165085263e-01,1.261637205553120256e-01,-9.450625279959962155e-03,7.622512518951698145e-03,-2.197072724097522481e-02,7.730015397203999529e-03,2.398813217878341675e-01
2.531463356690061839e-01,1.550346806899685903e-01,9.413335241702272538e-02,-5.397569991142605120e-03,-2.217544730974954983e-02,4.493746143046172849e-03,1.446832120418548584e-01
2.943010667429911131e-01,1.851534176747559879e-01,1.213560588703808396e-01,2.610459497946288239e-03,-1.499375151723305287e-02,2.291977361857755729e-03,1.538092494010925293e-01
2.404611842980029501e-01,1.116531320233544733e-01,1.435932854855671847e-01,-1.304294139605005100e-02,8.533496819075165121e-03,3.897342042888335498e-03,1.194651573896408081e-01
2.419546786093742519e-01,1.090391820718765170e-01,1.453742934401104636e-01,-3.382451607909931629e-02,4.766475037329210955e-03,1.357153492473526721e-02,1.349454820156097412e-01
2.093498771329455610e-01,6.812641181461225048e-02,1.136085794114053971e-01,-2.575337941516433679e-02,9.880801139623756821e-03,8.215844579427719271e-03,1.344419866800308228e-01
1.560682971559845533e-01,1.513414501440364102e-01,1.523483183037931121e-01,2.604815268488940624e-03,1.536776597381728920e-02,2.652992414093882298e-03,2.772314101457595825e-02
8.150081417899372738e-02,1.485360128838018878e-01,1.508861676398264018e-01,-7.084742310086596800e-03,4.838363888152318049e-02,-7.897566116501353664e-03,1.096239462494850159e-01
2.016783251057693294e-01,1.223858742476820610e-01,1.369793037844583283e-01,-4.851317878924173849e-03,9.592181338704942970e-04,-2.736354645588853080e-03,7.374917715787887573e-02
8.560213893717916189e-02,1.714990301660964112e-01,1.345452006665705247e-01,-1.624179933231042583e-04,5.131549542879672993e-02,7.318774504600909780e-03,1.167486831545829773e-01
7.972694592110821099e-04,6.428837989889588100e-02,4.462041693358079208e-02,-2.900631283944810762e-02,4.994519931725675127e-02,1.013634724915938624e-02,1.161254197359085083e-01
1.003210962643590609e-01,1.182579537446853124e-01,8.695527136019573500e-02,-7.224947549545460146e-03,6.294379781150492847e-02,7.012142586776926381e-03,1.137101203203201294e-01
2.061734845810707373e-01,1.222852222785737741e-01,1.368818362700447433e-01,-3.529403649029717090e-03,1.258965585155283297e-03,7.278516831377261371e-04,7.790719717741012573e-02
2.253680821431169323e-01,1.204249979845312957e-01,1.385352383583621227e-01,-2.435466550862052000e-03,-4.134113274737907903e-04,-1.803556069529966633e-03,9.730648994445800781e-02
2.172732949556328008e-01,1.839469341833597227e-01,1.576201541890431268e-01,-1.860099175149523886e-04,5.073714132032488416e-02,3.489761371396626205e-03,1.021789237856864929e-01
2.097295063956414185e-01,1.151191307889486426e-01,1.441103236546762700e-01,-2.056704081246756716e-02,1.119050233560916390e-03,-5.416258418298840194e-03,9.170342981815338135e-02
1.873125837821533746e-01,1.759904107953005892e-01,1.698665638153494528e-01,-2.015753029364462240e-02,7.373417040847070336e-02,1.135277668877448382e-02,1.347250789403915405e-01
1.445082234593662862e-01,1.366309775188229991e-01,1.104436560123539662e-01,-2.809336529842029057e-02,5.765144705829135935e-02,4.611505259008291495e-03,1.155711412429809570e-01
2.266876945174639002e-01,1.187755972332090182e-01,1.335593477712541388e-01,-1.803082643297923733e-03,-5.354747345113838880e-05,-3.916470650052478880e-03,1.016071513295173645e-01
1.891493285753576836e-01,1.325341190068816954e-01,1.399385653322195167e-01,-3.972972642636840405e-03,9.888387488404465960e-04,6.005032917595832425e-04,5.377985164523124695e-02
3.605392035429887398e-01,1.609758571429498741e-01,1.639975872093284159e-01,-4.848353486413647939e-02,1.221251481168963982e-02,5.319543128758930095e-02,2.349899858236312866e-01
2.641154523902168316e-01,6.142124295193665540e-02,8.736663678821379730e-02,-2.297301307174327845e-02,2.660152740970079047e-02,4.633192741279366228e-02,2.159751653671264648e-01
2.427387698323980048e-01,1.195386032243994923e-01,1.301918341987708116e-01,-1.420301484904914298e-03,2.093851242448656943e-03,1.100328943883305743e-03,1.183305904269218445e-01
3.629815298312311089e-01,1.359500322540139750e-01,2.546976220979537686e-01,-7.289240906156997657e-02,5.529549117722467981e-03,-1.072205429470655599e-02,2.346515953540802002e-01
2.640725307945699929e-01,1.124319770317758205e-01,1.479365115346706061e-01,-1.600605329627775159e-02,2.317292333482703296e-04,1.339024142143404976e-03,1.401628404855728149e-01
2.141687210594868385e-01,1.330422362387124746e-01,1.316956775709277327e-01,-1.029213292593640292e-02,-1.195699602149937271e-02,-9.064525407123113360e-03,8.766841888427734375e-02
2.565951667562238470e-01,1.059189265104251154e-01,1.523895691990351797e-01,-4.426461514758116278e-02,2.403223371964774858e-03,1.573285837659860534e-02,1.565209031105041504e-01
2.954488732614750646e-01,1.213515368727406951e-01,1.401934027922148440e-01,-1.724193859338878088e-02,2.072934127789982303e-02,2.575207544230540338e-02,1.776374280452728271e-01
2.789207996166937487e-01,1.186612697598719984e-01,1.442346157639199933e-01,-1.839440807029251715e-03,1.711677986842794754e-03,1.319813350613193402e-02,1.509312838315963745e-01
4.034597543762817873e-01,1.138303835120853813e-01,1.882999395146122135e-01,-3.471854276968290576e-02,2.613166463231867461e-03,4.590342699096600781e-02,2.789629101753234863e-01
1.507300892292763872e-01,1.165658743894111976e-01,8.764387900298915846e-02,1.407197361218804873e-03,3.377019404355716126e-02,-1.733108483119975363e-03,8.017482608556747437e-02
2.290503550682942424e-01,1.395977246231139557e-01,1.033890981018888156e-01,2.691995956748606100e-03,1.483526349153515764e-02,-1.430863817545455696e-03,1.150649040937423706e-01
1.476130571308366113e-01,1.347246390749804734e-01,1.321060669072283422e-01,-4.242091580674175978e-04,2.831172842240237911e-03,1.042795491099526720e-03,1.531555503606796265e-02
1.986761524202010354e-01,1.296187211656124327e-01,1.025286125856387787e-01,-1.732596995172324631e-03,2.184438723255363937e-02,-4.298898418605220581e-03,9.417831897735595703e-02
2.338263343860113030e-01,1.369266158387907051e-01,1.173031631279868175e-01,-3.829442888893824174e-03,6.054952882173450339e-03,4.961525884960648648e-03,1.091053336858749390e-01
7.755906045894900291e-02,1.049779032290221181e-01,1.453585018319329403e-01,9.118133055434533840e-02,-1.640233471094385692e-02,-1.139135002100657296e-02,1.721280813217163086e-01
2.436819921729264093e-01,1.370544909463267680e-01,1.077513303881305617e-01,2.659760161443212260e-03,-5.154567658767489867e-03,3.098368543945667804e-03,1.244281083345413208e-01
2.405061818356723502e-01,1.319877295542594420e-01,1.283466616675756344e-01,-7.413791576784881446e-03,8.612052233984927169e-03,7.421184872975970098e-03,1.128594353795051575e-01
1.705037496408220443e-01,1.448760284541321941e-01,1.499602966104682245e-01,3.118500569304163018e-03,-1.686425276209222671e-03,1.545042662082653836e-03,2.443768270313739777e-02
2.127423483961375927e-01,1.533226255444967157e-01,1.092743983984100775e-01,7.321583901602161416e-03,3.750934247591627274e-02,2.926380901845866342e-03,1.117839142680168152e-01
2.114064274857941073e-01,1.256339741347848038e-01,1.015349177169087014e-01,1.668251354390960523e-03,1.002302491202910519e-02,-7.038978862422085123e-04,1.015673801302909851e-01
1.955543834993139773e-01,1.353121161606385403e-01,1.346830264366851437e-01,3.926284695684310010e-03,-2.681552574977665547e-03,4.570423110095738622e-03,6.162718683481216431e-02
2.052935096186946917e-01,1.226513342482026953e-01,9.488297958726835124e-02,-3.242757014101844883e-03,1.264843224153342285e-02,1.935234442976532495e-03,1.020704582333564758e-01
2.077656889351308100e-01,1.307942791518850456e-01,1.210209799615750426e-01,-2.120915838698824579e-02,2.388460687598760110e-02,1.210902864430652391e-02,1.013566702604293823e-01
2.469773699769391706e-01,1.521700874417691862e-01,1.102565324492237181e-01,-3.224178242084354152e-03,1.351408041932108429e-02,1.411480570843354687e-03,1.237090602517127991e-01
1.970742055144701077e-01,1.186180949789355787e-01,1.329994473446591274e-01,3.457235512998252294e-03,1.581248822054333997e-04,1.060138112264391976e-03,7.261668890714645386e-02
2.314794552371208514e-01,1.145164903239080934e-01,1.362149957894756569e-01,3.602518739339735567e-03,9.181909866041246130e-04,-1.435920006970577362e-03,1.079855933785438538e-01
3.256295471406002173e-01,2.141082624094001186e-01,2.201378459747311833e-01,6.407357028934919374e-02,5.492885928710668220e-02,-3.975740411210028358e-02,1.947066634893417358e-01
2.280405622358657736e-01,1.121978904804032118e-01,1.305830026353064777e-01,-3.854769131834897026e-05,-4.468684569219703168e-04,5.379875668257306370e-04,1.078388988971710205e-01
2.219530985400872680e-01,1.069974960831288346e-01,1.038149154399751056e-01,1.072639521008302357e-02,1.238407619581575678e-02,-1.248154762465174608e-02,1.219155639410018921e-01
2.566120783128911786e-01,1.371746941852680091e-01,1.260216900154919328e-01,9.273417848454482181e-04,6.250378971286924597e-04,-1.426105426545514615e-03,1.254257410764694214e-01
2.352075045097048456e-01,1.455431305518114227e-01,1.136204913509338138e-01,-2.632285405181862071e-04,2.458644789075306591e-02,2.324806950631300249e-03,1.172645762562751770e-01
2.321758111278344194e-01,1.144549485749243867e-01,1.322365843625951387e-01,1.309966940240936189e-03,-8.108561554269192633e-04,9.377137204554681369e-04,1.099585220217704773e-01
2.286575621950558412e-01,1.127376561799980359e-01,1.343682533175517280e-01,1.441374035815216285e-04,-5.863110029190098191e-04,-2.021811094858362850e-04,1.067665964365005493e-01
2.484297803722044506e-01,1.312225148291946142e-01,1.259596589629818908e-01,2.123005082399914874e-03,7.957608132128814312e-04,-4.317075067160452626e-03,1.202223673462867737e-01
2.454146516566602099e-01,1.266257189004847683e-01,1.253556067613895986e-01,1.475471975612085919e-04,-1.644591633782399110e-04,-1.210876017547627900e-03,1.194480806589126587e-01
2.102702082025398600e-01,1.301804613589842563e-01,1.075474223665774942e-01,5.566760466597451239e-03,2.269105141512193016e-02,-5.811015377108143427e-03,1.023631691932678223e-01
2.374032403914984046e-01,1.337668059456230685e-01,1.139793240072669023e-01,2.074722759755282323e-03,2.426954165659280828e-03,-1.031739130330462835e-03,1.149631962180137634e-01
1.801716054677424961e-01,1.077121349380778109e-01,1.197250460247109571e-01,-1.043065142088675859e-02,-5.277823587818882174e-03,-5.303254597770853951e-03,7.084187120199203491e-02
2.394940546350374233e-01,1.184670392824797858e-01,1.081702785898201180e-01,3.409040059369320124e-03,8.326488143621631893e-03,-1.017920290349478944e-02,1.286602169275283813e-01
2.200669687157889021e-01,1.357926700256342767e-01,1.206099500476050801e-01,1.365493527499461388e-02,1.045141410975367058e-02,-1.222393971135521742e-02,9.973729401826858521e-02
2.238745762627153968e-01,1.148217195253586342e-01,1.314013697090825605e-01,1.145251811116864988e-03,-9.802536690603769198e-04,2.807159125454563448e-03,1.019304171204566956e-01
2.196664864273547013e-01,1.354701050470599188e-01,1.325376429119236310e-01,8.403978643272533647e-03,-1.328588957942053624e-02,1.254790215310611079e-02,9.251111745834350586e-02
2.383042347648914316e-01,1.164670946661425788e-01,1.201009432957985262e-01,3.222013728316766839e-03,2.848470562369732895e-03,-4.139292616457098187e-03,1.205057799816131592e-01
2.766786635815910445e-01,1.350912112841484713e-01,1.419546832504344214e-01,8.440029349666170952e-03,6.200156860589191993e-03,-1.638228951958535864e-02,1.423253268003463745e-01
2.374910464712735869e-01,1.242181815368832015e-01,1.189619521720742951e-01,8.829350860249790805e-04,-1.980615320869696992e-04,1.143721422209828401e-03,1.160178408026695251e-01
2.355308427516477066e-01,1.449545001331714600e-01,1.636573358521592192e-01,3.614509575571120403e-02,1.339533639542798971e-02,-1.255600859559253060e-02,1.085840910673141479e-01
2.421099448785608010e-01,1.362607724459554137e-01,1.290752185239494587e-01,3.434268117585544469e-03,6.344492935618811780e-03,-7.064732580636773687e-03,1.110051199793815613e-01
2.311782128998393637e-01,1.161006650412343688e-01,1.386518059791967128e-01,-9.177258227935082254e-04,-1.437043834704523914e-04,-5.187792493938254301e-05,1.056355163455009460e-01
2.376285299800218465e-01,1.143284744227114347e-01,1.366368365391120998e-01,9.197775451877039307e-03,1.109084085455938748e-03,-3.116010375574434620e-03,1.150502488017082214e-01
2.444999594149498412e-01,1.349383395625522175e-01,1.379831414803633360e-01,1.315435979912185464e-02,1.114266357302680713e-02,-1.157597736105473764e-02,1.138991862535476685e-01
2.052319506676938410e-01,1.077619264680193534e-01,1.024973637756705497e-01,1.031630424976978481e-02,1.136671121412370818e-02,-9.307430868824366835e-03,1.049191504716873169e-01
3.124578521905897466e-01,1.529976330266967222e-01,1.840068316399804393e-01,-1.260937795990260159e-02,-9.984438915802276021e-03,-2.771006166077352381e-02,1.566013991832733154e-01
2.795140153295476160e-01,1.404010816862995004e-01,1.254329669395450320e-01,-1.667003196180050564e-02,-2.331770087503115887e-02,-3.369812363108925374e-02,1.659223288297653198e-01
2.463511789774519012e-01,1.208154320231190348e-01,1.075172816846149126e-01,-1.403800716194601381e-02,-1.497729830869487001e-02,-1.844395810673519348e-02,1.410324424505233765e-01
2.443531063296566219e-01,1.269761725233812255e-01,1.194067200658991967e-01,-1.135959236707922548e-03,-6.264011106419621264e-04,-1.294772411201886367e-03,1.213803887367248535e-01
2.457984910518717925e-01,1.272629400348477269e-01,1.230060563959693432e-01,-5.779571806046873185e-03,-3.950555700477867242e-03,-6.600175268744811787e-03,1.218651235103607178e-01
2.079512620999283412e-01,1.110593186375306018e-01,1.185690274643060316e-01,-1.096219118049030633e-02,-6.272997330413175761e-03,-6.950666749569518743e-03,9.664528071880340576e-02
2.533364052853119830e-01,1.326449758942576107e-01,1.126475907541482635e-01,-1.138198735131980971e-02,-9.203903656407601275e-03,-1.736493616072013607e-02,1.375762969255447388e-01
2.489764659806613101e-01,1.361878038416616532e-01,1.092199670856665861e-01,-6.874114938552793388e-04,2.708690383806854497e-03,-1.283491290025391175e-03,1.285246461629867554e-01
2.238312666643704762e-01,1.259136848758345140e-01,1.268941188817434840e-01,-2.095846615475994122e-03,-2.045183701593615566e-03,-5.150839032852076900e-03,9.797005355358123779e-02
2.400584275146634972e-01,1.245479502888963419e-01,1.273474643022316499e-01,-5.327611157001439952e-04,-4.384899233872938422e-04,-2.669226857408372186e-04,1.141436696052551270e-01
2.473624196677098874e-01,1.273931434250310524e-01,1.291961558801894561e-01,7.313488373251328866e-04,-3.921669364958234880e-04,-1.804498350402793669e-03,1.191276907920837402e-01
2.350553083080614836e-01,1.269327912056530949e-01,1.166911190802825682e-01,-5.392351142660998338e-04,-1.027402621767058372e-03,-1.895969192541344149e-03,1.136553958058357239e-01
1.898085737147255647e-01,1.224522004043599871e-01,1.451243591341936090e-01,-1.103319382515004742e-02,-6.793777535479504897e-04,-4.457405472641495607e-03,6.284884363412857056e-02
2.737747020930687558e-01,1.332640403495472525e-01,1.597700421751211131e-01,-1.106966361164373608e-02,-2.866670106337924993e-03,-2.764203142153829479e-02,1.393052339553833008e-01
2.490737034508357373e-01,1.132879514158197654e-01,1.341303674189632811e-01,-8.660948876253946049e-03,-9.103014561155774176e-03,-1.633427690680866809e-02,1.315907686948776245e-01
2.051678115177487660e-01,1.010863362318418918e-01,1.105430075932990058e-01,-2.961494162763886329e-02,2.302204526718459529e-02,1.758567329929240294e-02,1.228294074535369873e-01
2.569747728025366107e-01,9.154572690071620389e-02,1.397752574281654336e-01,5.645451387325185061e-03,4.257987796676183001e-04,1.236882648693485342e-03,1.476991474628448486e-01
2.389997711775037059e-01,1.474268781214676804e-01,9.658690796941363232e-02,-2.104131503002064710e-02,4.060915612936411012e-02,1.270089311286363813e-02,1.496172398328781128e-01
2.611407932224095174e-01,1.477699310494989815e-01,1.162320549393651425e-01,-2.235687239353005389e-03,1.568355242293015261e-02,1.995656949627508392e-02,1.391789317131042480e-01
2.616222060272517802e-01,1.463433671008352865e-01,1.218152670327491138e-01,-4.636602136010636865e-03,7.607128178075548558e-03,1.039701860658232002e-02,1.314564645290374756e-01
1.739788387835783656e-01,8.973419193422865758e-02,9.476809967774244003e-02,-2.944643623679272723e-02,2.673781508972484372e-02,1.630766078676435665e-02,1.106447055935859680e-01
2.688250740929409299e-01,1.297242647133548810e-01,1.508509241257192934e-01,5.381837271154338125e-03,-5.142473369707523112e-03,9.830784186208047642e-03,1.315781027078628540e-01
2.458125135519476645e-01,1.110918565854028539e-01,1.331169166013415894e-01,2.638008400712815206e-03,-4.130109073314182713e-03,3.997876197527248064e-03,1.256484240293502808e-01
2.601012482421394267e-01,1.227931688427768564e-01,1.492865824883554682e-01,2.209468432221843841e-03,7.154207354821256462e-05,3.529131972577792195e-03,1.263711750507354736e-01
2.417521463529051506e-01,8.944025294314451868e-02,1.320671570894308700e-01,9.311001938543393350e-03,1.042755564501886235e-03,3.460994760637387067e-03,1.371957063674926758e-01
2.469477135735695661e-01,1.097509144294635253e-01,1.396967844898036326e-01,4.036316629815323020e-03,-2.157107079532746829e-03,2.696431554733298361e-03,1.252832263708114624e-01
2.522340348537673860e-01,1.138040927794445184e-01,1.470389600816611742e-01,1.145592804124697175e-02,1.029423390713412592e-03,6.230107117191058426e-03,1.272007972002029419e-01
2.485350966823529628e-01,1.339473816261791683e-01,1.209691477949627614e-01,2.142591896638753809e-04,-2.456226226749644065e-04,1.855303367304510578e-03,1.216411516070365906e-01
2.473103554956836425e-01,1.075998361784122337e-01,1.389459723186948492e-01,-3.797795692593549429e-03,-3.782404023708099130e-04,-3.091440805413558858e-05,1.271452903747558594e-01
1.467720084355406129e-01,1.152763166050187332e-01,1.259652392187455283e-01,1.039739702220034839e-02,1.246110558963978111e-03,-2.895830505047913925e-03,3.352178633213043213e-02
1.988021352453353818e-01,1.334250085529197216e-01,1.340616998482624944e-01,-2.826858955962194622e-03,2.070023349220479186e-03,5.333617807715821009e-03,6.599333137273788452e-02
2.536776699087314180e-01,1.356637484324718645e-01,1.232443166045624205e-01,3.828086587360185304e-04,-8.903200254296374542e-04,2.442978876529292454e-03,1.247714534401893616e-01
1.810884785052049861e-01,1.368670663932741172e-01,1.300455734474157132e-01,1.627491604973744285e-03,-4.206192838313637349e-03,8.571762513183407792e-04,4.865129664540290833e-02
2.498614678192795646e-01,1.215196475409089094e-01,1.180357850112743190e-01,-2.367352068547088663e-03,3.879692082376554486e-03,9.876326185664781668e-03,1.314742565155029297e-01
2.437845738144581720e-01,1.210312082822541796e-01,1.217780423149223135e-01,-8.060661483148883963e-04,1.440026250909568362e-03,3.923385942493146615e-03,1.226035058498382568e-01
2.184972801517539864e-01,1.356292941233440130e-01,1.270250988221243993e-01,-1.375082998880379145e-03,2.486537333559542869e-03,5.467715125728133362e-03,8.813657611608505249e-02
3.327623942289435477e-01,2.608907775079272184e-01,1.941191053942399325e-01,3.535111276965384464e-02,8.713439382993552751e-02,-3.714450183090102497e-02,2.123403549194335938e-01
2.559592979422187775e-01,1.322213709310318674e-01,1.346844788497722212e-01,7.724187468346358583e-05,3.621008332700364866e-04,4.748436401692571543e-03,1.228023469448089600e-01
2.664315619879052965e-01,1.308624104987277659e-01,1.230002626520851489e-01,3.627864308835586620e-03,-2.838773591570131153e-03,9.055306903330539656e-03,1.407704800367355347e-01
1.725048076461834223e-01,1.279111071637692165e-01,1.292115518751701386e-01,-2.374063529991648266e-03,-5.428621118008148186e-03,-3.635650497416452898e-03,4.557707533240318298e-02
2.580758738469280944e-01,1.317753749659296703e-01,1.360587805015815444e-01,-5.534560749544858906e-04,3.619537499965814770e-04,1.156928497747490570e-02,1.258253753185272217e-01
2.540192149831633772e-01,1.085879760448967557e-01,1.103606681216163787e-01,4.060839342293710852e-03,-4.305047467832007722e-03,1.996255336305650940e-02,1.489837765693664551e-01
2.480778659808250131e-01,1.034896174595841684e-01,1.328087559230874681e-01,1.031857331588218428e-03,-1.250379102473467893e-03,2.001104296024672734e-03,1.324615776538848877e-01
2.575463351252760269e-01,1.405848694197552873e-01,1.311963230425358395e-01,2.181145223576701209e-03,-2.405657507664577324e-03,8.356951917390845197e-03,1.229120716452598572e-01
2.349492614858953998e-01,1.133294854168737376e-01,1.337213734273089705e-01,1.748345517004252668e-03,1.585700601858478203e-03,-7.405667414804563637e-04,1.128959730267524719e-01
1.580885159555036612e-01,1.306337736318899656e-01,1.257289529220126933e-01,-8.598848723084343351e-03,-1.304645542012069712e-02,-3.722213495973495604e-03,4.106697067618370056e-02
2.276524665477149822e-01,7.073306337802372223e-02,1.203386872746289027e-01,2.742604134410581498e-02,1.748809091474030214e-03,1.311294032857396839e-02,1.485998630523681641e-01
2.415210505509853833e-01,1.205951938528610212e-01,1.380122559712158858e-01,1.321498081172982992e-03,-1.004576006296156168e-03,1.303964596325414733e-03,1.132855266332626343e-01
2.382602207790742721e-01,9.795088180346150919e-02,1.239376481613726488e-01,1.473930867566362185e-02,-9.263728970655905198e-03,1.430901320700418700e-02,1.350528448820114136e-01
2.258453179615968753e-01,1.157428186766357725e-01,1.093070855721176154e-01,6.256716402748496719e-03,-5.987710111192955272e-03,6.596218755513951794e-03,1.150134652853012085e-01
2.393822279399882569e-01,1.004936454194659268e-01,1.079475537719594980e-01,1.181061515010752190e-02,-1.248266032722432015e-02,2.099637034587159903e-02,1.432438492774963379e-01
1.591223485477498700e-01,1.722839697088869859e-01,9.493418909346539036e-02,2.162786361869816279e-02,-6.480525147121854457e-02,2.393932408394086955e-02,1.444295644760131836e-01
2.804300893571985975e-01,1.347279898086346517e-01,1.649727199172102976e-01,2.865156444659838417e-02,-1.406392433865839668e-02,1.753924681403763730e-02,1.473639011383056641e-01
2.317468356455196221e-01,1.100241909292386938e-01,1.261060932650493183e-01,8.714028102887926008e-03,-5.665299313161378282e-03,7.504947025116618514e-03,1.166643053293228149e-01
2.551305979584914119e-01,1.277409225080467781e-01,1.429259665351043929e-01,3.344814937039369915e-03,-2.155119909172708084e-03,8.802616483589457627e-03,1.216727271676063538e-01
2.536823413893013468e-01,1.308176275228029040e-01,1.357090225252507998e-01,1.138388735847360419e-03,-1.160236508434636226e-03,5.164236823059218870e-03,1.208578422665596008e-01
2.495749284235338206e-01,1.257020900716502299e-01,1.245905011488075975e-01,6.684442803863931658e-04,-2.692155626640002478e-04,3.372720398189437210e-03,1.245756596326828003e-01
2.321937117197558353e-01,1.432552889977124488e-01,1.177002285335440740e-01,5.673043943332308978e-03,-1.912925376843122027e-02,3.060860555718334514e-03,1.098106205463409424e-01
1.549433311197197793e-01,1.920191888755433396e-01,2.065493390350706115e-01,5.742077396398029970e-02,3.625191172423176955e-02,-5.658522258422574169e-03,1.267065852880477905e-01
2.347680413676082045e-01,1.129379873915292987e-01,1.257514976796660910e-01,1.391730100141396571e-03,-2.421318759532844166e-03,1.414647371599849195e-03,1.160822138190269470e-01
2.395493099941248816e-01,1.453537658846099923e-01,1.227032788134019281e-01,1.783597079460632999e-03,-6.805159872013805643e-03,4.410389853075590005e-03,1.082878038287162781e-01
1.935538453658603719e-01,1.203600407609728418e-01,1.004596181162153157e-01,6.965866644223231430e-03,-1.613816312292690180e-02,6.097758187491926496e-03,9.082062542438507080e-02
2.283785685144969491e-01,1.349802720207224360e-01,1.059916452461865111e-01,2.082488855957720895e-03,-1.011294686266733800e-02,6.010405428590275163e-03,1.126910448074340820e-01
2.332667631732695257e-01,1.168837478725129608e-01,1.396905925777895685e-01,-4.388722361390517621e-03,-2.479841152651247860e-04,5.925337659993339633e-04,1.070973798632621765e-01
1.722886752212129946e-01,1.144682066242829616e-01,1.134211899787850586e-01,2.224424839365393008e-02,-2.696080080523371308e-02,1.032822921750501007e-02,8.596471697092056274e-02
2.334925740217841661e-01,1.345770195885249987e-01,1.145192927046757569e-01,4.441122506499539831e-03,-9.481498407144543436e-03,7.438078774640483580e-03,1.125409379601478577e-01
2.379049887794385532e-01,1.315822045126683326e-01,1.166836711798645287e-01,3.955719878333549891e-03,-6.642751364853516013e-03,4.934472819878505008e-03,1.155981123447418213e-01
3.638806689810162864e-01,1.402426992471024758e-01,2.730744814311382718e-01,-7.639483429470270148e-02,1.435540045407277497e-02,3.804206315987405593e-03,2.369011491537094116e-01
2.263798508751309613e-01,1.313946442454749230e-01,1.255979680886975536e-01,5.335702607191823189e-03,-7.009163681190293954e-03,7.462461378026028977e-03,1.000312417745590210e-01
2.320529414472540797e-01,1.278124171358210048e-01,1.170426700534607789e-01,1.004484911714214040e-03,-1.230362031392700757e-03,3.068517429213964056e-03,1.101840957999229431e-01
2.318692922774420184e-01,1.295992411491776741e-01,1.342244238681506996e-01,7.648657044941143367e-03,-6.069275961647976371e-03,6.467223983543600972e-03,1.020736396312713623e-01
2.227648791610166157e-01,1.176765270896396043e-01,1.368015076273445818e-01,1.793256591169636047e-03,-6.571035899261382671e-05,1.432597069226663545e-03,9.703262895345687866e-02
2.370186736739411382e-01,1.243644793807034549e-01,1.149695488778401525e-01,5.334824165384743390e-03,-4.674013728515090567e-03,6.410498017641918025e-03,1.187931597232818604e-01
2.368956755297727812e-01,1.117616934940484918e-01,1.386079670180805357e-01,-1.893020539656986882e-03,-6.587776929924323574e-04,-6.945267480782210028e-04,1.141637191176414490e-01
2.343576084736220810e-01,1.172328525202671334e-01,1.310094176907563024e-01,3.661455560431366770e-03,-1.011816062825107981e-03,3.293992794887912797e-03,1.112217009067535400e-01
2.377291376699349201e-01,1.264505452672309016e-01,1.257314394557304815e-01,3.147938950248811794e-03,-1.115239569287354311e-03,4.419066089509651567e-03,1.120513603091239929e-01
2.152332787167000328e-01,1.418757109980045839e-01,1.427685763012479792e-01,-1.770467644022909398e-03,-2.844465671821969598e-03,-3.674295270586624019e-03,7.342213392257690430e-02
2.357084095470212137e-01,1.106891218342550970e-01,1.370945784293641778e-01,-1.950055775949725932e-03,-2.917963996658936242e-04,-5.810108559755798813e-04,1.141864955425262451e-01
2.406692480497519271e-01,1.286240140711448487e-01,1.286333464414727290e-01,3.458716581549954160e-03,-2.227458198774362724e-03,4.357601427729377967e-03,1.125203445553779602e-01
2.558427937548654052e-01,1.241639207801535222e-01,1.353881044384944166e-01,-7.432850029022186090e-04,-1.737195228363905774e-04,-2.010290333393941874e-03,1.264958232641220093e-01
2.483747323613831881e-01,1.299244029845567083e-01,8.059161984206524021e-02,-1.037439362875135999e-03,-3.596001197791683351e-03,-8.870057697982795461e-03,1.502855420112609863e-01
2.290257781495770861e-01,1.135014714552326220e-01,1.255784187839751043e-01,-6.361329603674905839e-03,-6.217946932032441913e-03,-6.697185932640627518e-03,1.116623580455780029e-01
2.125300155531823221e-01,1.386586569399061997e-01,1.383341977056352368e-01,-1.886617254769137365e-03,-3.411514236770552856e-03,-4.598894914028713032e-03,7.476693391799926758e-02
2.429462988773035126e-01,1.205186779668646346e-01,1.311087235311486077e-01,4.616487416201740454e-03,-2.254034262238768273e-03,3.489137995652100491e-03,1.179824471473693848e-01
2.149896442862652413e-01,1.115637856994282640e-01,1.219285590343683057e-01,-3.944236715857782176e-03,1.568746067481737849e-03,4.208541878882865461e-03,9.919445961713790894e-02
2.399047687759583991e-01,1.275883949626651359e-01,1.276500677769208947e-01,-9.458528262328218890e-05,-5.664815143343484129e-04,-1.885198005095069370e-03,1.123374179005622864e-01
2.542109581401851837e-01,1.160731614450962179e-01,1.398719893123718527e-01,-2.331707189110124659e-02,1.534855134142675860e-02,1.322999498986348124e-02,1.386499404907226562e-01
2.317483259094547110e-01,1.156657582590354949e-01,1.337510651473765577e-01,-7.870482378246390631e-03,6.124131844844366880e-03,7.564397860896055446e-03,1.103306859731674194e-01
2.583630213310555979e-01,1.292062838360057142e-01,1.446389430636592921e-01,-7.757571221880026069e-03,5.051211827410924393e-03,1.131643442649067285e-02,1.247704550623893738e-01
2.372947006852244300e-01,1.189418692608288641e-01,1.239812197539198746e-01,-8.124281800141320078e-03,5.428806269415679432e-03,7.939093932618664085e-03,1.179486364126205444e-01
2.646654524538920028e-01,1.388978931553481178e-01,1.280943479809370233e-01,-2.135716597834918032e-03,1.063894019034866906e-03,1.076887208448103379e-02,1.328830868005752563e-01
2.390760061867744368e-01,1.306203744825132629e-01,1.225935291103175950e-01,8.375415730471342905e-04,-2.009316978981591693e-06,-1.112220964733752005e-03,1.127094775438308716e-01
2.347420745568840617e-01,1.156998531896070159e-01,1.263626574756074872e-01,4.486349759207003407e-03,-2.078562055257644325e-03,3.446874007182584333e-03,1.145618110895156860e-01
2.197769917049927080e-01,1.150598253592002573e-01,1.154666076703086408e-01,5.658275885053625810e-03,-6.575064934385728768e-03,5.269952403090660299e-03,1.059826090931892395e-01
2.308063003928721990e-01,1.316518864747113216e-01,1.142516862297290881e-01,-1.112941757527445200e-04,-5.803825433032897821e-04,-1.703961113370905476e-03,1.089469119906425476e-01
2.472586871302813183e-01,1.318065428790509419e-01,1.181677832376184234e-01,-6.957291537297018939e-04,2.148095645816813695e-03,-1.105193741911743386e-03,1.229178458452224731e-01
2.444688534199457308e-01,1.170900831463083935e-01,1.325694294020096364e-01,1.122732998921222632e-03,-4.023759883275137075e-03,3.055988149721602237e-03,1.207211315631866455e-01
2.467700777895021069e-01,1.273564811330132884e-01,1.281336122640360231e-01,3.549157842415391400e-05,3.540847553708334082e-05,-4.640938188351687271e-04,1.190296784043312073e-01
2.409470357175192978e-01,1.168673069657290842e-01,1.238378950919046817e-01,1.169405592772988995e-03,-2.766970362384139296e-03,2.209294064803716314e-03,1.209180429577827454e-01
2.230492471909098495e-01,1.277507894890742568e-01,1.181710131281301090e-01,9.438562108352210184e-03,-1.593770454681124257e-02,1.089038847400035544e-02,1.071055456995964050e-01
2.102861682345671668e-01,1.216980971388812033e-01,1.370963650528142508e-01,-1.924935728450723801e-03,-1.724926098872413835e-03,-3.797412138360216089e-03,8.236597478389739990e-02
2.212271768966659058e-01,1.339646386935226807e-01,1.105210361626291771e-01,5.797812608858335772e-04,-3.828540027852914054e-03,8.329840988731643681e-04,1.012776568531990051e-01
2.394085437678110939e-01,1.186789869132242325e-01,1.182667479128753363e-01,1.937318325607470830e-03,-1.800453553827983293e-03,4.450957440864093673e-03,1.212682276964187622e-01
2.109680775159363808e-01,1.106016587716358024e-01,1.130941998227442680e-01,1.290038105156314507e-02,-1.427554176757267132e-02,1.014446252217292808e-02,1.060604825615882874e-01
2.420645276753125019e-01,1.292375143679554139e-01,1.218129249560988836e-01,4.888830608124683681e-03,-9.327851025635762461e-03,8.499988471693784714e-03,1.190471798181533813e-01
2.362152356256996266e-01,1.182597595860354900e-01,1.223591756692594262e-01,-3.927954464877623261e-04,-3.917391775907057023e-04,-1.586403255833343344e-03,1.159966588020324707e-01
2.097590295435685925e-01,1.406311450878060254e-01,1.265973770486709671e-01,-2.055241077734233570e-04,-4.237116065139507476e-03,-3.076909262856371285e-03,7.764099538326263428e-02
2.256487919032494349e-01,1.087709065122781232e-01,1.319953725281528545e-01,-5.760784103605710513e-03,2.214314613029588676e-03,2.776713715376175930e-03,1.078090444207191467e-01
2.117136027784198293e-01,1.028427799772486245e-01,1.367354254288458693e-01,-2.067575559609884789e-02,2.793808214375610201e-03,9.157655293701993937e-03,1.042550355195999146e-01
2.388300910965434620e-01,1.262764787515276987e-01,1.191478490564474441e-01,2.041692973111721744e-03,-7.756066801570767923e-04,8.869305847568331996e-04,1.163535863161087036e-01
2.447958547905342008e-01,1.309904151959784269e-01,1.169607270087312106e-01,1.512904749926182379e-03,1.208120420232912948e-03,-1.303969412923745201e-03,1.214969605207443237e-01
2.407988320576517627e-01,1.170328468048051074e-01,1.435401032140752875e-01,-8.795283380744114282e-03,6.047809345306879355e-04,4.506434517338972251e-04,1.139023005962371826e-01
2.399914350015143194e-01,1.205515787979377779e-01,1.383233926484387644e-01,-9.082833148322208908e-03,3.512511261054678154e-03,9.162647755191264884e-03,1.139974668622016907e-01
2.357650575372924884e-01,1.250891921328513012e-01,1.395435480763531910e-01,-8.793300663345949772e-03,5.452937692162857994e-03,5.541722173890221460e-03,1.061679273843765259e-01
2.349053518606272206e-01,1.367105583164631155e-01,1.203184331150078112e-01,5.373833798777852624e-04,-4.990003916617451228e-04,1.840315898251196434e-03,1.073886156082153320e-01
2.235335598860261341e-01,1.316995522476140934e-01,1.153590335363361835e-01,1.050897386995443793e-03,1.347186267926510621e-03,-2.322749724240382330e-03,1.011239662766456604e-01
2.179347052107312166e-01,9.988772424136238559e-02,1.401674356332233973e-01,-3.467652614980962222e-02,1.583278490689407972e-02,8.656239677365101109e-03,1.240437552332878113e-01
2.318076529164698751e-01,1.042604500310935489e-01,1.308043487387947068e-01,-9.551202370391422350e-03,3.443404252382484872e-03,5.330298871955055709e-03,1.182444542646408081e-01
2.432737565311361427e-01,6.704341149059231397e-02,1.311677844526983328e-01,8.340153049006907363e-03,-3.342206883730415579e-03,6.800570063339545987e-03,1.557219922542572021e-01
2.129574270807466085e-01,1.229626501771417385e-01,1.249398956024474205e-01,2.263224974175023513e-03,-4.331242530857904414e-03,5.648553562030964037e-03,8.995772153139114380e-02
2.680849858621385806e-01,1.188675962370521755e-01,1.587617805872351129e-01,-1.152901357729059712e-03,1.561080971360572444e-04,1.049349887115869247e-03,1.338350921869277954e-01
2.434844607489441703e-01,1.244230798844690872e-01,1.226930257428306970e-01,7.791758129669758628e-04,4.788845343446512131e-04,-1.220538008980353315e-03,1.199648529291152954e-01
2.667841692412655785e-01,1.170848668059250169e-01,1.572168412981667096e-01,1.952285507579901126e-04,1.034347823642935886e-03,7.232787651126611032e-04,1.342297345399856567e-01
2.631449916640231645e-01,1.129051741351233262e-01,1.498506663395689220e-01,9.675949364005811048e-04,3.774533631020428239e-04,-3.754489053942614875e-03,1.357638090848922729e-01
2.675785072386572816e-01,1.172991435216497735e-01,1.551199610188193911e-01,4.884820481251621674e-03,6.715624836369695622e-04,1.205704106359309098e-03,1.356757581233978271e-01
2.327654901551004518e-01,1.202104117783079212e-01,1.278917422103730273e-01,1.066687521580312551e-03,6.064523742761741268e-04,-2.614289558349916325e-03,1.090325489640235901e-01
2.626888860355136024e-01,1.109256645502211397e-01,1.483029994021013709e-01,-1.508248253254061396e-03,2.497845304306731454e-04,-1.064378706876246061e-03,1.369928717613220215e-01
2.606082978182546750e-01,1.518730693759252903e-01,1.162414739758094034e-01,-1.355797416277370595e-03,-2.974228164781967786e-03,8.583814096608518652e-04,1.303903162479400635e-01
2.512605863672267570e-01,1.438823757759221111e-01,1.122677966078907269e-01,-4.618843720191627878e-04,-3.314390086062111388e-03,1.568875514495317834e-03,1.263536959886550903e-01
2.503809212768409731e-01,1.548630446886083145e-01,1.409895753025905418e-01,1.200666789490491618e-02,1.424225357634604193e-02,-1.246835496137588088e-02,1.102210879325866699e-01
2.211998619925718557e-01,1.334287747808582114e-01,9.872306961384018364e-02,-8.563962633358141374e-04,1.443871483651162045e-02,1.947630003671735983e-03,1.122203916311264038e-01
2.412430580378423783e-01,1.781635416801357896e-01,1.302584472691645789e-01,-2.022122931747154587e-03,5.154361952406266711e-02,-4.365356992459880695e-03,1.316640526056289673e-01
2.257665554311879541e-01,1.290080164712876232e-01,1.293860357405386408e-01,-1.938784809413813138e-03,-1.984225113341654256e-03,-4.484907103199597955e-03,9.700109809637069702e-02
2.312517973977818442e-01,1.416486900871068433e-01,1.052852153976170380e-01,2.242195734352204692e-03,1.274117486431718821e-02,1.676573993918226580e-03,1.145418137311935425e-01
2.371655580522656348e-01,1.224821831811923473e-01,1.313768210156826821e-01,-9.720534389325543234e-04,-3.744019675788882225e-04,-5.998474539888891573e-04,1.105244681239128113e-01
2.404820398233002976e-01,1.457102967099285773e-01,9.424458112453859560e-02,1.337437036514578168e-02,2.105102255422880778e-02,-1.290020077848001538e-02,1.373797804117202759e-01
2.328739145194440585e-01,1.203997309664162352e-01,1.280095900719057656e-01,1.072702392188335224e-03,7.665068538568136193e-04,-1.727899766944580948e-03,1.089339777827262878e-01
2.020576049283681619e-01,1.283621699141525296e-01,1.041823397708295518e-01,3.110975552345986855e-03,1.657403751821807936e-02,-4.283351503707113692e-03,9.330485761165618896e-02
2.254166771084962217e-01,1.493603859735450901e-01,1.464851007515150794e-01,1.405741658017550973e-02,8.510664649652281005e-03,-9.014448108383739042e-03,8.405604213476181030e-02
2.420711133383970370e-01,1.160570714255638736e-01,1.212085518603319145e-01,-5.248892321391548585e-03,-4.893634115528107918e-03,-6.874029823829904719e-03,1.247123479843139648e-01
2.353135458163093663e-01,1.283623239136902905e-01,1.264629903961107804e-01,-2.815797222341220180e-03,-3.247033071935076249e-03,-5.891585968283621216e-03,1.086501553654670715e-01
2.622930718155581098e-01,1.491948219099607231e-01,1.120371474723246275e-01,-7.806959597188219699e-04,6.886300351352039623e-04,8.758032230626473227e-04,1.355725824832916260e-01
2.177458335171623682e-01,1.120507562585806027e-01,1.205002847188866022e-01,-8.056547278080031932e-03,-4.638649557750654587e-03,-7.405676533240842900e-03,1.037958487868309021e-01
1.844173395407850413e-01,1.237278419980789579e-01,1.444516665457619975e-01,-3.051301939837036681e-02,3.694388824620884653e-04,1.494139962424087488e-03,7.520115375518798828e-02
2.411660985462086293e-01,1.228812515507636816e-01,9.933887872548397002e-02,-3.624905465991533002e-03,-6.264947641690044727e-03,-7.769502600690486246e-03,1.329229772090911865e-01
2.340725707555718627e-01,1.178380898967654883e-01,1.257008981166800599e-01,-1.827159743697407118e-03,-1.862111763699310883e-03,-2.669723128431927568e-03,1.126949414610862732e-01
2.463608433053071645e-01,1.357392352324512386e-01,1.233905275827583137e-01,-3.356335160739450183e-03,-8.595767345552783253e-03,-6.061776932746921857e-03,1.188333183526992798e-01
2.429996456714137720e-01,1.369721856190183329e-01,1.160721095658360652e-01,1.508545755162642946e-03,2.454339976191541057e-03,-1.454938959140117394e-03,1.180079057812690735e-01
2.440905096526689855e-01,1.265289263893603078e-01,1.242478102477526936e-01,-8.657774504861539969e-04,-4.515030950718107385e-04,-1.494305297801270865e-03,1.187588348984718323e-01
2.331254169537202436e-01,1.356279684770871352e-01,1.131622053988543819e-01,-6.803644346944470733e-03,-7.549338901148553403e-03,-7.987021669161381218e-03,1.127033308148384094e-01
2.337337472611890343e-01,1.363539280970287593e-01,1.312657548798861484e-01,-4.357887877318712862e-03,-6.088926022497986694e-03,-5.707813459740712463e-03,1.013417020440101624e-01
2.401660301967599720e-01,1.225425263693534772e-01,1.216996866446331538e-01,-6.747302441445607009e-04,-7.173873229115218433e-04,-1.087361328125506163e-03,1.180745288729667664e-01
2.413603700364989890e-01,1.014500243835026461e-01,1.562735784320518628e-01,-2.184783204318402339e-02,-7.523500753485320384e-04,1.899368797901099812e-03,1.278852969408035278e-01
2.170181644071407512e-01,1.343408981050824846e-01,1.268821326648468806e-01,1.514708428843297922e-03,-2.453639727778341145e-03,4.308795207767218173e-03,8.711185306310653687e-02
2.151901866121165574e-01,1.030414945128872439e-01,1.301901879311739840e-01,-8.956840505047750783e-03,5.286895021247499209e-04,4.734026061569317147e-04,1.025274395942687988e-01
2.814127828853943969e-01,1.409958165926122331e-01,1.790812496484832927e-01,-3.912672229319245909e-02,1.140170770301370505e-02,9.081726453483304762e-03,1.450852006673812866e-01
2.365958503989925021e-01,1.039134408164998774e-01,1.221936883334061308e-01,-6.663691721547544168e-03,6.032680967361832465e-03,7.227139893846173772e-03,1.261444091796875000e-01
2.156966747335313239e-01,1.328288294738182163e-01,1.420607527818340265e-01,-1.742712650642035815e-02,-6.693142391553067762e-03,-4.975594480597134855e-03,8.548132330179214478e-02
2.503936776772798245e-01,1.230265199709884155e-01,1.388496068425848218e-01,-9.284501647907115671e-03,3.947947339990157817e-03,1.074062804430069192e-02,1.229181438684463501e-01
1.921719426608409220e-01,7.458876281798966501e-02,9.933393947180545192e-02,-3.082355411273968518e-02,8.990182769371213647e-03,1.229243849372826068e-02,1.227785348892211914e-01
2.528158431002879847e-01,1.398458025733282373e-01,1.456006273002751483e-01,-3.476117066108505571e-02,2.243747229065841398e-02,2.262028716055882599e-02,1.371699422597885132e-01
2.292457001407608164e-01,1.168647890875574580e-01,1.225493515205508532e-01,3.670933506072599113e-03,4.269577440712955807e-03,-4.725819370810309568e-03,1.103859692811965942e-01
1.875963224890616898e-01,1.489894384416592665e-01,1.372215127139418955e-01,-1.614001435179304429e-04,-4.525261138640354446e-03,-1.372570615336302785e-03,4.637308046221733093e-02
2.491602469890629168e-01,1.300167149663420951e-01,1.271499959502025434e-01,2.178725741297647244e-03,-2.752354672180433440e-05,4.514802695591050088e-03,1.209146156907081604e-01
2.291001037282390240e-01,1.230044443330274156e-01,1.160796169598104222e-01,2.452301698210009387e-03,2.502032941151472248e-03,-3.642163177860237300e-03,1.100706756114959717e-01
2.320873398002916421e-01,1.220203727163109014e-01,1.326580478457749512e-01,1.489889989631842070e-03,1.328531861330892443e-03,-3.263063150670702985e-03,1.053609848022460938e-01
2.124836107050533662e-01,1.238953714900307146e-01,1.293127018885667778e-01,1.123181230183945001e-02,9.843774788130530903e-03,-5.267124632340972751e-03,9.027568995952606201e-02
2.168776730746649339e-01,1.156774480265032601e-01,1.271624153523441825e-01,3.321257932298090059e-03,1.686277825094236339e-03,-4.321084591912103742e-03,9.648184478282928467e-02
1.791097930106990699e-01,1.214940711966385617e-01,8.840196197083219354e-02,1.251625037213598135e-02,4.764074807055630051e-02,-9.810000712224068928e-03,1.178511157631874084e-01
2.593643112881176549e-01,1.446326483891750003e-01,1.096103175402271535e-01,-6.284525110036195657e-04,-1.653166887184263738e-03,-2.618499919985786163e-03,1.357867568731307983e-01
2.373240925429384585e-01,1.267952862443914586e-01,1.346412914489655832e-01,5.733650920352237855e-04,1.153641481613853137e-03,-4.171728184986119720e-03,1.070894747972488403e-01
2.577551099029538606e-01,2.194055929847296138e-01,1.748405002802544961e-01,-3.719902568658274566e-02,9.293401213029099661e-02,2.314887291506541322e-02,1.919241696596145630e-01
1.644823855431594428e-01,1.622159901156738637e-01,1.575985290100594682e-01,-2.353094103294615588e-02,1.006286305292220873e-03,-2.914235543334007823e-03,4.155182465910911560e-02
2.620885249789975946e-01,1.467501578061707335e-01,1.143445406820464971e-01,-1.985584462112701819e-04,-3.213366458247418037e-04,-3.147183528260340431e-03,1.346135884523391724e-01
2.583824692808254775e-01,1.453731647659355364e-01,1.120173070342027205e-01,5.274048247240622437e-04,-2.323865551638131053e-03,-1.179820465266205815e-03,1.329452842473983765e-01
2.518109554182911269e-01,1.428468741696159172e-01,1.089513025897527465e-01,-4.657583949827752011e-04,-1.439920626818019279e-03,-7.362929188441560795e-04,1.293212175369262695e-01
2.691913994583295389e-01,1.555816094768992519e-01,1.155739816745520870e-01,1.126600155698338155e-04,-1.537371940517100882e-03,-7.514024930056520087e-04,1.380647569894790649e-01
2.592206529598015674e-01,1.441648321335223804e-01,1.088129905218841453e-01,4.255362571483877745e-04,-1.590845230025449554e-04,-3.334619651923142677e-04,1.362203508615493774e-01
2.415676599934151736e-01,1.244382351299504197e-01,1.243660533393150802e-01,1.443719884744960880e-03,-1.944867623247393444e-03,2.476035105415007147e-03,1.173190325498580933e-01
2.438226825760911876e-01,1.368923927634434490e-01,1.161618384802428072e-01,1.509700185638450463e-03,-2.166135717642109389e-03,1.014078955305727173e-03,1.187626421451568604e-01
2.372521214784462928e-01,1.157486097320291341e-01,1.310853160772567638e-01,-1.555778442062510361e-03,-1.852460694482549160e-03,-1.530009996469980024e-03,1.147145703434944153e-01
5.038339265796445282e-02,1.465426244090374808e-01,1.397524670016451753e-01,-3.158447342683919079e-02,-3.828503836122013667e-03,5.336820385799744514e-03,1.084523946046829224e-01
2.579843784405747575e-01,1.433313075048330276e-01,1.125640534454014630e-01,4.699116758768795768e-04,3.082524355808830864e-03,8.801523385372338540e-03,1.337201595306396484e-01
3.018431619042287739e-01,1.260929460774517508e-01,1.875612688532715955e-01,-9.778385550777106763e-03,-3.655316143134680791e-03,-1.554224060810839537e-03,1.555557847023010254e-01
2.501039713783545504e-01,1.163354589416839419e-01,1.394666007283494602e-01,1.714134847066264757e-03,1.600044290444423405e-03,-1.835325900348503065e-03,1.239413022994995117e-01
2.434432865305727889e-01,1.325217093753427444e-01,1.172156405303229898e-01,-2.037148981554176390e-03,7.028098913746348535e-03,5.715300817765610851e-03,1.203921586275100708e-01
2.522049309940578299e-01,1.380847150027003090e-01,1.205610425237474415e-01,-1.715550359568163586e-03,5.096783510857657087e-03,6.802888233166998720e-03,1.247233226895332336e-01
2.493870830119984672e-01,1.196664677860946879e-01,9.591010722848691827e-02,8.889511490357686644e-04,-3.239968847078974427e-03,2.288105794105049426e-02,1.485866159200668335e-01
2.573545992518381231e-01,1.127258066715233209e-01,1.357955608113289026e-01,-4.920264977287518854e-03,3.651081927001101346e-03,1.326381689309014469e-02,1.369436234235763550e-01
2.441432863375348206e-01,8.951008308910481104e-02,1.019588475415523221e-01,3.499685829857611223e-03,-4.704716196365106747e-03,2.761663067315004577e-02,1.566288173198699951e-01
2.377575088773312695e-01,1.244402605872701878e-01,1.209420786947751625e-01,-7.950405051787496399e-04,-6.064613312522792749e-04,-8.817570633648203838e-04,1.151293739676475525e-01
2.519625675421680588e-01,1.327757283969190905e-01,1.293050685469472882e-01,1.056488108395053905e-04,3.038700308867992787e-04,-1.039840046086079823e-03,1.209742128849029541e-01
2.456736586919763266e-01,1.269903414305660339e-01,1.266610888905550514e-01,-5.058803919274540341e-04,-6.432392794214032098e-04,-1.792789323873845205e-03,1.188972964882850647e-01
2.296612572721091483e-01,1.073319440740687220e-01,1.027189859141465211e-01,-1.178060990319656706e-02,1.619188451874049861e-02,1.530112910807338369e-02,1.321184784173965454e-01
2.364775440473209644e-01,1.315060484678881036e-01,9.415514824161538843e-02,3.103424552242382926e-03,1.389862664133746997e-02,-4.430111729329963208e-03,1.303923726081848145e-01
2.726123674812946374e-01,1.578107692553171737e-01,1.238762453448659651e-01,-2.538784834574769195e-03,7.403534447365923629e-03,9.237745515826231019e-03,1.366253197193145752e-01
2.470570639281443881e-01,1.279896397165912192e-01,1.286499849860457956e-01,2.397810383296311088e-04,-2.822256451026948303e-04,-2.854497017037736025e-04,1.187413930892944336e-01
2.042774935197995412e-01,1.220244900855091824e-01,7.850576292702191039e-02,-7.501951250514399781e-03,-3.367261995317361728e-02,-6.000664788269361415e-03,1.261640936136245728e-01
2.393359721188538514e-01,1.306568335580023110e-01,1.152939880828119934e-01,-3.245720801489765731e-03,-1.748913083132358362e-03,-2.173822690997838543e-03,1.173530966043472290e-01
2.387313850230359247e-01,1.395077518689403218e-01,1.188972372551338197e-01,-8.258545607361167384e-03,-2.102604526550900729e-02,-8.586209506795162288e-03,1.186053827404975891e-01
1.864244228154851857e-01,1.395446087947360414e-01,1.402413237691576831e-01,-2.807771926952293620e-02,-2.982710024270516028e-02,-1.462298734312459693e-02,8.854986727237701416e-02
2.429923486918322273e-01,1.316599318239157212e-01,1.033659233960961543e-01,-7.471522871015351397e-03,-2.603222963569400139e-02,-1.365957884567615271e-02,1.382235586643218994e-01
2.481570952902862337e-01,1.296559330213246375e-01,1.260700097323989577e-01,5.638595022535168762e-04,-1.666270384920331580e-04,-8.520562917974719430e-04,1.203475594520568848e-01
2.310684969656502941e-01,1.295923410718574920e-01,1.169147963908809540e-01,-1.899023780899010503e-03,-4.567592237283191019e-03,-3.080985747377744388e-03,1.088415533304214478e-01
2.400316663229181691e-01,1.267601144001944680e-01,1.241927514609111605e-01,-5.401478642010294675e-04,-6.581676175700267766e-04,-4.845484781744277439e-04,1.145893707871437073e-01
2.331831028430693120e-01,1.334900069788198806e-01,1.203509289186627251e-01,-2.956070388798910046e-03,-3.511282648551678626e-03,-4.024480433170263098e-03,1.073918789625167847e-01
2.159038000146853431e-01,1.013884858614036155e-01,1.272427377033584495e-01,-9.155083349450759619e-03,-3.144971262041204585e-04,-4.486473435680737192e-04,1.052323132753372192e-01
2.241108855137247668e-01,1.375478606867141518e-01,1.182055133979884043e-01,-1.109926709570396267e-04,-2.932252526855393723e-03,-1.403387671348681805e-03,9.784352779388427734e-02
2.166503740510130616e-01,1.298837223117474959e-01,1.629539030111767650e-01,-4.926416811732176049e-02,-1.244066002497569955e-02,-5.670488069670587446e-03,1.165948063135147095e-01
2.285562130635596101e-01,1.370537719094478135e-01,1.217100659807729135e-01,7.427010916099553153e-04,-1.907673292039268557e-03,3.630178658426841658e-03,1.003205850720405579e-01
2.389184244238425348e-01,1.218950495686563218e-01,1.406514365432788571e-01,-7.657574406915436567e-03,-5.581855804261868191e-03,-6.090325068827294290e-03,1.105983704328536987e-01
2.315787507314119309e-01,9.313771325864986239e-02,1.387511083055041616e-01,-2.256416698964929662e-02,1.533890872979704143e-03,-6.455181704048348207e-03,1.288069486618041992e-01
2.327560564443907631e-01,1.411415455630467275e-01,1.182875343183242278e-01,6.950819539395121892e-04,-1.309521101063159266e-03,9.307659613707781887e-04,1.049689278006553650e-01
2.328702976504232192e-01,1.157053433480317584e-01,1.314127575892445332e-01,-1.099723000069457177e-03,-1.698225910800414294e-03,-1.404092820196118068e-03,1.102369502186775208e-01
2.556241616332591282e-01,1.253857755091060400e-01,1.527839513387760639e-01,-1.015076406551288293e-02,-5.476375685646830450e-03,-8.875991365054836796e-03,1.215723603963851929e-01
2.368642090197421168e-01,9.721655507926080242e-02,1.510216076701084431e-01,-2.260403167319431986e-02,4.314885651562346902e-04,-1.243167632486547221e-02,1.299220025539398193e-01
2.432816145934000862e-01,1.221528133276456318e-01,1.278102035197327402e-01,4.539043131124847618e-04,-1.392402347156087997e-03,6.103956344596002132e-04,1.184334084391593933e-01
2.381007044435277387e-01,9.391345129189113128e-02,1.358501369132584513e-01,-1.849254716572155260e-02,5.070334660179559366e-04,-1.937941683839775270e-03,1.324381977319717407e-01
2.566480415616133604e-01,1.140252515710402648e-01,1.494287373728367951e-01,-1.349855047529503575e-02,-1.708626050579239650e-02,-2.489533830943039053e-02,1.408087760210037231e-01
2.748708980897640597e-01,1.183417179114473333e-01,1.442372118114389479e-01,-1.171199122686158653e-02,3.798730381063568015e-03,-2.555303239437000176e-02,1.534022092819213867e-01
2.568388590092983148e-01,9.862764764058437605e-02,1.223111755378238630e-01,-3.001750080682618217e-03,-1.015251621299168580e-03,-1.844262214464695987e-02,1.513116359710693359e-01
2.328138244091927656e-01,1.228385810439858450e-01,1.205699160826361471e-01,-8.328727969728952699e-03,-9.240606453017417149e-03,-9.028092179647072973e-03,1.142715513706207275e-01
2.608301355677114519e-01,1.204649240877412320e-01,1.379413735013279019e-01,-9.755049033671114520e-03,-3.679471730039237092e-03,-7.995980447385595338e-03,1.344345211982727051e-01
2.405610814070681391e-01,1.032624650636775610e-01,1.068903153409229978e-01,-1.562485855286543414e-02,-1.240684777864211295e-02,-2.156290322846725338e-02,1.447585821151733398e-01
2.736139848844748590e-01,1.228270687303375797e-01,1.314276568668599210e-01,-2.750321837727171675e-02,-2.392186687877972256e-02,-1.930676528075426709e-02,1.631505787372589111e-01
2.376480801699646372e-01,1.191905873838748631e-01,1.243607385877750354e-01,-3.132448474736973499e-04,1.161635687718107289e-04,8.765119232212796553e-04,1.159702762961387634e-01
2.081747042205548126e-01,1.293870271743899625e-01,1.257044529206471917e-01,-6.788161023297959069e-03,-7.333149021442676371e-03,-5.869118439058835721e-03,8.315108716487884521e-02
2.426204858155622257e-01,1.176080947628015683e-01,1.224957677976053760e-01,-5.190265091650854770e-03,-5.216842017887374054e-03,-6.384694269956629753e-03,1.237971037626266479e-01
2.431755144348959896e-01,1.476562746395542747e-01,1.355955954694557930e-01,-2.364768264007228310e-02,-1.772828005491627890e-02,-2.746692509035859875e-02,1.237142756581306458e-01
2.320884995539451712e-01,1.330119854626618248e-01,1.139858594927767310e-01,6.461758709553242722e-04,-2.352129932334101202e-04,6.170318607550573809e-04,1.098442152142524719e-01
2.218529102640351691e-01,1.160172015072178098e-01,1.246827609407191312e-01,-3.064959395711974732e-02,-4.382475364246829486e-02,-2.359915685808536973e-02,1.435616314411163330e-01
2.354571840351475376e-01,1.242170055515712523e-01,1.218626757290764417e-01,8.714952517991824332e-04,-5.490236845613227128e-04,2.597626892451994698e-03,1.125399544835090637e-01
2.581813503586273817e-01,1.486184220285796942e-01,1.181052548457342533e-01,-4.638354537712659036e-03,-7.048091543266363571e-03,-1.094007437179662229e-02,1.298107355833053589e-01
1.285743590169387829e-01,1.541376499224322572e-01,1.420572450308903445e-01,-3.619526437787268236e-02,-1.365930304114107950e-02,-3.265324997477326435e-03,7.079979777336120605e-02
2.961069028270254533e-01,1.096239578551356092e-01,1.694678719625869745e-01,2.833668667831389792e-02,-3.668804362196202012e-02,6.925397589678267130e-02,2.191634029150009155e-01
2.666726753447911102e-01,1.401018089122688381e-01,1.212342563182103039e-01,-3.288019978575161106e-03,-3.028035659877855151e-03,-8.310221956373660401e-03,1.379542350769042969e-01
2.153290195658419393e-01,1.288735613921336010e-01,1.043197513781120578e-01,-1.295680736120721939e-02,-2.846443142521292574e-02,-1.703531015857270500e-02,1.183433979749679565e-01
2.486816187005159162e-01,1.257370486321833236e-01,1.310410467928826705e-01,1.643251981435358362e-05,-4.929879325013758820e-04,1.030302050119530789e-03,1.203964948654174805e-01
2.581110789428726626e-01,1.082447422849110164e-01,1.428625333633755934e-01,1.405632993138529289e-03,-2.370869149865351740e-04,1.249252920888889624e-03,1.359450072050094604e-01
2.457441094423961636e-01,1.586158405298998264e-01,1.408910751865396493e-01,-1.022203510194002844e-02,-2.278384928052115677e-02,-1.085746925855313530e-02,1.080475151538848877e-01
1.474911460361624793e-01,1.581152064384852007e-01,1.648907337393003547e-01,8.021717623278839387e-03,-1.170973356440153240e-02,5.721749782692394336e-03,3.055118210613727570e-02
2.477010082552204562e-01,1.065678175700049968e-01,1.469953346606621136e-01,1.786473176011030284e-02,2.640363848630518893e-03,1.433479603055740634e-03,1.297375112771987915e-01
1.391983697357863370e-01,1.074361177333174600e-01,1.241108074391649857e-01,3.012994178498989636e-02,1.369988880016186072e-02,-7.890126201944208661e-03,6.504247337579727173e-02
1.577532300441253366e-01,1.625492145971111635e-01,1.533941478530497504e-01,3.518672151585758301e-02,1.588521654367352695e-02,-1.182791605065429495e-03,6.736796349287033081e-02
2.068820803550735221e-01,1.230536897926652190e-01,1.232758259109196786e-01,-9.682166823010714130e-03,-6.536057194416745354e-03,-7.481769904748404761e-03,8.709736168384552002e-02
1.171156521231008357e-01,1.280901992652963561e-01,1.264224927305639679e-01,2.121627364920542283e-02,3.551051566962041498e-03,-1.689022617750871817e-03,3.875175863504409790e-02
1.544529289961055485e-01,1.269344942066338577e-01,1.311871782547666121e-01,1.562237903275780215e-02,3.914721381599386985e-03,-5.240413092366978838e-03,3.897254914045333862e-02
2.960964747774443295e-01,1.051519360616864629e-01,1.576800622050352485e-01,1.685576251219099778e-02,-2.622057412430553805e-03,8.848357292591514656e-03,1.740601062774658203e-01
2.277608806807685515e-01,1.401857063231222444e-01,1.366930511001415716e-01,-7.447331366362389821e-03,-9.030955922796068958e-03,-6.180152836145991375e-03,9.226659685373306274e-02
2.514335264514592216e-01,1.222588208478337102e-01,1.318207751919059090e-01,1.202650518274840999e-02,-6.153214670375186518e-03,1.097094815821949426e-02,1.282612681388854980e-01
2.310400203296898436e-01,1.029482619973163537e-01,1.318264119198388207e-01,2.681531129780533040e-02,-8.248993060830702925e-03,9.931903980124282688e-03,1.272778064012527466e-01
2.158165580852412502e-01,5.553477745856869041e-02,1.047028647651801758e-01,3.036614086474184737e-02,-6.317458309764233115e-03,1.186731742700673428e-02,1.534129679203033447e-01
2.060651250028709969e-01,8.921428345817329630e-02,1.181530469355713125e-01,2.583272557964303232e-02,-8.018688917536173286e-03,9.640777897137615612e-03,1.165494471788406372e-01
2.252016930760442903e-01,1.360998048949181305e-01,1.301195036058450660e-01,1.388388948797974511e-02,-1.429563829971869371e-02,1.578962644606255253e-02,1.022109910845756531e-01
2.457848278348602755e-01,1.236002306064862000e-01,1.292886569299794008e-01,5.014537477892707295e-04,-1.135969693051607117e-03,1.231962899378955065e-03,1.194804385304450989e-01
2.296163093104516828e-01,1.195372926004001080e-01,1.309927146619873362e-01,8.484571381747057790e-04,1.114648359823979841e-03,-4.389725564385245707e-03,1.051252186298370361e-01
2.531980771682074138e-01,1.383541435682968668e-01,1.191018943783973133e-01,-7.995528157820532694e-04,1.652509381655891275e-03,2.513165008169998896e-03,1.256974190473556519e-01
2.350041615964792996e-01,1.195406835545846508e-01,1.065402506208830979e-01,6.588059331446665529e-03,-6.966343390982001824e-03,7.717857301063777049e-03,1.243237480521202087e-01
2.120447837017071513e-01,1.544283902748656012e-01,1.566679685503846176e-01,1.223952347486266870e-02,-1.185764267432217779e-02,4.709234931378058521e-03,6.429142504930496216e-02
2.400663837404243828e-01,1.386580775673897925e-01,1.237638185595093671e-01,2.499104749046352110e-03,-1.268641014689999473e-03,3.833820030957236277e-03,1.099251806735992432e-01
2.375061674380558319e-01,1.137781106996848118e-01,1.387754472907306302e-01,3.237801063136999755e-03,-2.123012350988040574e-04,8.122072335908779887e-04,1.134644970297813416e-01
2.307006186476110998e-01,1.153051003429409194e-01,1.361800806199801595e-01,5.182881543851258592e-03,-5.366183251086194868e-04,1.036152193274424062e-03,1.069003418087959290e-01
2.442290415608655563e-01,1.318610410128736588e-01,1.195829122267935141e-01,-1.352598817828281870e-03,-1.422830636095323911e-03,-1.525899273288799192e-03,1.190610602498054504e-01
2.101378317474353885e-01,1.267476572132955892e-01,1.302687668418581746e-01,2.563022501228476996e-02,-2.897605817947130832e-02,1.883077416218650185e-02,1.105714663863182068e-01
1.730107796427738098e-01,9.525474955248955378e-02,1.027909986855760766e-01,3.463308046813348695e-02,-2.586241973625734089e-02,1.709065556773605929e-02,1.095354855060577393e-01
2.152624639712074628e-01,1.320366967853807416e-01,1.402248057446050244e-01,1.502700530121909607e-02,-5.194637525674951697e-03,9.580495696479054621e-03,8.570796251296997070e-02
2.306029964229728280e-01,1.368232175358706226e-01,1.163952230805607585e-01,6.409663191797828393e-04,-1.118650334397353887e-03,-6.521022336908379466e-04,1.055175140500068665e-01
2.654733426334873192e-01,1.310535518044093073e-01,1.607500933347573435e-01,4.193547155693579803e-02,-2.314968292752957180e-02,2.120989894438358656e-02,1.522886008024215698e-01
2.426401560451373340e-01,1.403635988079145192e-01,1.216312985544154152e-01,3.493557344818783768e-03,-6.485888414036015091e-03,4.151295565514489562e-03,1.137619614601135254e-01
2.383295564649542952e-01,1.305474647027785595e-01,1.372696106636693836e-01,-3.133960558309771115e-03,4.645644572826358384e-03,5.361165402170530586e-03,1.054422929883003235e-01
2.216111265134992347e-01,1.333703136573459735e-01,1.021903487526186483e-01,6.490331646987177600e-03,-1.351671098245325192e-02,2.940699483489460451e-03,1.105006709694862366e-01
1.815451669303699833e-01,1.395609178258917504e-01,1.298031212491339847e-01,-8.001639555959414634e-04,-4.769969862025966872e-03,-3.457253393699044261e-03,4.871962592005729675e-02
2.069075949501086031e-01,1.209895795648786715e-01,1.083090310084876551e-01,1.009780791011967611e-02,-1.162375937143073426e-02,9.492421257055396952e-03,9.804967790842056274e-02
2.472162255121284069e-01,1.233133793592887939e-01,1.453858259140976272e-01,1.684845716327419349e-02,-8.032232831774880136e-03,9.914963842124013479e-03,1.201846525073051453e-01
2.529484351841114753e-01,1.226172303072909364e-01,1.391552005532962211e-01,1.624439256828479755e-02,-1.149791135938597365e-02,1.057581258089066410e-02,1.289499998092651367e-01
2.162925064010890464e-01,1.464636108039858997e-01,1.385941908089101116e-01,9.808132433459307298e-03,-1.256804527103072555e-02,8.702316220411093761e-03,8.048088103532791138e-02
2.743193320372950272e-01,1.173367676601274334e-01,1.794969440281487805e-01,4.106575329151354592e-02,-1.365674472003524959e-04,3.430086232790696167e-03,1.544146686792373657e-01
2.370071089293568911e-01,1.316814823686070779e-01,1.221489886348568754e-01,3.413717083915706447e-04,4.437486161696014468e-04,1.854453955466599767e-03,1.104519292712211609e-01
2.365945464914918084e-01,1.034053420572600690e-01,1.314190385488194224e-01,1.648687547703212020e-02,1.156252737622508880e-02,-9.681708946080343214e-03,1.276351958513259888e-01
2.399351238091182725e-01,1.072134983726362317e-01,1.681184327531640710e-01,3.068854354393980507e-02,3.191638869383858421e-03,-1.111716622449325812e-03,1.268884092569351196e-01
2.049730739359313103e-01,1.188277371546295896e-01,1.216238080784576708e-01,3.294879986207237266e-02,2.400697331611033325e-02,-2.628669183647490762e-02,1.193600147962570190e-01
2.566311162188238959e-01,1.279896051553188474e-01,1.182301786993178450e-01,-7.135901783722177700e-04,5.549870904447561266e-04,-7.797888815519416102e-03,1.344776004552841187e-01
2.445561933760899698e-01,1.347313414582024249e-01,1.311803391702258126e-01,1.489667049085615855e-02,2.830427651564523805e-02,-2.805178285925952544e-02,1.337682008743286133e-01
2.406232233724999170e-01,1.091520101601246850e-01,1.322504538113614680e-01,9.508491400704055865e-03,4.252490412089942294e-03,-9.811942617052519036e-03,1.240795925259590149e-01
2.247104626096643187e-01,1.147759748887310499e-01,1.270740761268047136e-01,2.977026757775646723e-03,2.879846366024087917e-03,-3.409921876567639440e-03,1.047435030341148376e-01
2.960933078871363922e-01,8.978286836168755669e-02,1.709147553756034665e-01,6.133332349461570465e-02,4.226547234443536055e-02,-2.146685832697167035e-02,2.245772480964660645e-01
1.955327749007452764e-01,5.001933318177137489e-02,8.224214018067532717e-02,4.864377917334539864e-02,4.071264380438826408e-02,-4.724826725157443841e-02,1.905046552419662476e-01
2.577038123275085524e-01,7.865827286050385003e-02,1.205371469168942666e-01,4.284386967747019770e-02,2.480973266544028721e-02,-3.639878551006947571e-02,1.940126121044158936e-01
3.150471377929924266e-01,1.418909568652231001e-01,1.865433703728174020e-01,6.858782687526124300e-02,1.194876140225308719e-02,-2.809390210144986286e-02,2.028646171092987061e-01
2.653731855423518970e-01,1.085298542168046387e-01,1.554025455164183556e-01,5.601856501475519640e-02,5.915291891064340668e-02,-3.669208780548211674e-02,2.083160579204559326e-01
2.341138867958432179e-01,1.189845887708576855e-01,5.855872008364093606e-02,9.492902792319190403e-03,3.332259730626416228e-02,-1.084811312877260493e-02,1.667855083942413330e-01
2.345027883413126069e-01,1.273009337518456463e-01,1.228617436951689179e-01,1.987113264476091622e-03,-8.562080127920486828e-04,3.169593012687764964e-03,1.096905544400215149e-01
2.398170208882348942e-01,1.219215793653228852e-01,1.230025323997479825e-01,-1.254759060896362916e-04,-1.433302266061524266e-05,4.087318869324091494e-04,1.173610389232635498e-01
2.591745579282435097e-01,1.482224811920815899e-01,1.183461213986940902e-01,3.525132432832767723e-03,7.162407163735167760e-03,-1.424872854004447138e-02,1.315981149673461914e-01
2.044858707894437466e-01,1.425747415189221046e-01,1.279705294507859081e-01,-1.401740844981643440e-02,1.703956963222138035e-02,8.976369036753353500e-03,8.156386017799377441e-02
2.698004087235743587e-01,1.555165035604646473e-01,1.152009177156946979e-01,4.036815864766307195e-03,1.003035773376833618e-02,-6.196857040396805752e-03,1.405684649944305420e-01
2.397706415710994243e-01,1.227959745835549565e-01,1.223892161427272002e-01,-2.975906995261144716e-04,5.830924896957522847e-05,5.069695913249914858e-04,1.171830445528030396e-01
2.338708415805173524e-01,1.189607776179071041e-01,1.253795967025593261e-01,1.815007222564105809e-03,-9.527767377210066922e-04,3.159580938449368069e-03,1.120289787650108337e-01
2.545240602830613486e-01,1.444433402353453300e-01,1.052096291453503141e-01,1.130418182224153089e-03,8.362457560813286658e-03,-6.930057216296644541e-03,1.354017257690429688e-01
2.469578972708014741e-01,1.425612635582286791e-01,1.014705171073124190e-01,-1.066560156292841116e-03,1.340843041555351590e-02,-2.650809441232058333e-03,1.320632100105285645e-01
2.454793632094980360e-01,1.424882193628942695e-01,1.106946710591681371e-01,-5.646900745912235677e-04,1.066752061204134620e-02,1.718845540060105455e-03,1.234652474522590637e-01
2.881291471591025388e-01,1.848914725954459715e-01,1.189232683199678842e-01,-1.611837631687362653e-03,3.618743591708777768e-02,-3.025994291844834490e-03,1.605742275714874268e-01
2.307405473575219468e-01,1.135467223864178310e-01,1.310929183351197402e-01,-2.254659619527099763e-04,-5.021776189120747205e-04,-4.586155472169128953e-04,1.094874218106269836e-01
2.136996355376051260e-01,1.164927630813793469e-01,1.241773621748943346e-01,-1.161954007750876268e-02,9.059102776111700381e-03,1.054120488974719452e-02,9.872096031904220581e-02
2.525993349453998227e-01,1.399761240523637040e-01,1.443696583299512171e-01,-6.297486399753859931e-03,8.936661079611290040e-03,1.136697437020887241e-02,1.138185709714889526e-01
2.615178712401570182e-01,1.476960627087338940e-01,1.635520828429439799e-01,-3.099735761033460199e-02,2.543618894405916264e-02,2.586556287636330304e-02,1.350283175706863403e-01
2.328926466984961863e-01,1.182364800432760682e-01,1.351143675672010769e-01,1.003126704207899693e-03,2.335468815322093200e-04,-7.739512744824227292e-04,1.072414368391036987e-01
2.581305935062782608e-01,1.320319989829552565e-01,1.263720032223782930e-01,-6.435473750429067559e-03,6.112760218899565209e-03,1.201899946525194357e-02,1.315914988517761230e-01
2.308978296557833709e-01,1.141308566436272098e-01,1.334570598375814099e-01,8.908448257276893600e-04,2.671250887810742904e-04,-1.454009479758316221e-03,1.084449291229248047e-01
3.411896009526258489e-01,1.658546668306002392e-01,2.224347535362444783e-01,7.595231501413772512e-02,-3.992615227235431913e-02,4.878610489816494200e-02,2.307639271020889282e-01
2.325514917355086253e-01,1.137935075780392158e-01,1.372126285290501957e-01,1.123852201107398367e-03,4.059278669899083511e-04,-1.835389480961832848e-04,1.089728921651840210e-01
2.398336998323421509e-01,1.259510382371771264e-01,1.216708188308234379e-01,1.268946522898198228e-03,8.114257160494606420e-05,-8.451492300432544196e-04,1.161120906472206116e-01
2.253819627723671060e-01,1.416272528779296547e-01,1.328778219143517125e-01,-3.913907374834613324e-03,9.525314075380533416e-03,8.156939029685644771e-03,9.133437275886535645e-02
2.330989841956735975e-01,1.156326515445356973e-01,1.340232558976864885e-01,6.517626199543805084e-08,2.633563422698288704e-04,-2.825224158690191833e-04,1.094382181763648987e-01
1.549087353433651060e-01,1.132501768955519184e-01,1.117929034242962361e-01,-2.449610182413584913e-02,2.185586122013082402e-02,1.090044597541062893e-02,7.340258359909057617e-02
2.394133953894093669e-01,1.216381355700899558e-01,1.232174109184813737e-01,3.173665362023934369e-04,2.992206751250351933e-04,-4.727727038108423354e-04,1.169989183545112610e-01
1.964825644846740216e-01,1.286210399013134054e-01,1.013735625149019548e-01,-1.113805287746286697e-02,2.915197497116298747e-02,7.335681535642412515e-03,1.013892740011215210e-01
2.415213752597683283e-01,1.235351777570991155e-01,1.225455346239187060e-01,9.353868702943415490e-04,1.462702044096706378e-05,-8.441581339365221556e-04,1.185042187571525574e-01
2.334986001615756424e-01,1.315692716360080117e-01,1.116650857225211790e-01,1.259791651308575337e-03,2.257604297224118876e-03,-1.026950365541516976e-03,1.133040189743041992e-01
2.319497096424853466e-01,1.188291866906081434e-01,1.297320339279856849e-01,-2.572772279333645704e-03,2.394503114348205900e-03,3.992775794706789581e-03,1.084742993116378784e-01
2.341223657026711424e-01,1.153545777391583593e-01,1.201429857484204999e-01,-3.337024021123434665e-03,3.403144660756718745e-03,3.775855625437248269e-03,1.169227510690689087e-01
2.310212437545777209e-01,1.128059765024857219e-01,1.361702580088396952e-01,9.612707163227013135e-04,6.026539601394654292e-05,-2.047164255771854948e-04,1.084510609507560730e-01
2.355905956247342226e-01,1.156438317245052916e-01,1.336181288776984166e-01,-1.358171954540802551e-03,-2.784206137562291968e-04,-6.903020189097464412e-04,1.120782718062400818e-01
2.398982563724578465e-01,1.284882351696388092e-01,1.299605977958073477e-01,-2.212076589870327382e-03,3.393448836947796522e-03,4.649567458715346373e-03,1.111953556537628174e-01
2.348457049661651364e-01,1.158004148092588448e-01,1.312320462266405585e-01,-8.632051199740145824e-04,-1.015388343898500269e-03,-9.057140526607164541e-04,1.121634617447853088e-01
2.395744126900329896e-01,1.207677333762067207e-01,1.225620858087931864e-01,7.985642118944085745e-04,9.628608419379217857e-04,-8.251367153826881691e-04,1.179483085870742798e-01
2.353819031137237561e-01,1.241824869168898227e-01,1.289224757977227021e-01,-4.089847379606896885e-03,1.903366302942101611e-03,3.641728648299172050e-03,1.093687787652015686e-01
2.014235604913251210e-01,1.058358932580135831e-01,8.584511936338098947e-02,-2.039788752869595156e-02,2.845508771053586322e-02,1.787734184085956399e-02,1.268211305141448975e-01
2.364754518733476751e-01,1.030067362498761213e-01,1.232773732979364073e-01,-1.177154718115411974e-02,6.200338346455417857e-03,8.222887200866368582e-03,1.274880021810531616e-01
2.467608194134416066e-01,1.201481385714202182e-01,1.281895320145549633e-01,5.653157430982717630e-04,1.324984816215068160e-03,-1.555489511947485233e-03,1.228445246815681458e-01
2.428353575270437159e-01,1.316872915132461519e-01,1.157215224542524623e-01,-2.606961032114725896e-03,6.832622582631411867e-03,6.143514022971136371e-03,1.210662350058555603e-01
2.457429625464159495e-01,1.239340953230990416e-01,1.288959633270123362e-01,-8.150726646471814947e-04,-7.984160307077029081e-04,-1.211737248027689590e-03,1.194400712847709656e-01
2.383777496216884506e-01,1.215260877565749742e-01,1.331157760564752046e-01,-5.751511830436545868e-03,4.205233947192527598e-03,8.209049249483331076e-03,1.130876392126083374e-01
2.335988749265828224e-01,1.196693501959158745e-01,1.203991856720376535e-01,-7.986872738488999882e-03,8.633060988481334672e-03,6.091561162962911072e-03,1.158602610230445862e-01
2.522452983973584306e-01,1.244924681336815053e-01,1.311902006542666477e-01,-3.022812997932165389e-05,1.747360118128633930e-03,3.194309176000375509e-03,1.246986910700798035e-01
2.452059082431430059e-01,1.265524178085888352e-01,1.269520641161782093e-01,2.106866713501330058e-04,3.075407647736510641e-04,-3.471817588265064679e-04,1.184574589133262634e-01
2.505691268042241071e-01,1.167454473887930833e-01,1.342737813054433182e-01,-1.540994903353282543e-03,1.946209912485587700e-03,8.230784306042352588e-03,1.268544048070907593e-01
2.679899734261290689e-01,1.263324337354297389e-01,1.346587186392852742e-01,-4.051852069746829724e-03,1.353670175775975419e-02,3.004756075197912574e-02,1.492121070623397827e-01
2.323345874310958070e-01,1.138622047541684862e-01,1.253929286141992894e-01,4.563408806013326421e-04,6.317462712835908390e-04,-2.281428169203984866e-03,1.132255569100379944e-01
2.369231278572839217e-01,1.263647049756391194e-01,1.323280012554473029e-01,5.268418917938260749e-04,8.725519145555295621e-04,-3.008383296046030463e-03,1.078410893678665161e-01
2.960893082054164016e-01,1.505138940577791518e-01,1.345583035828398499e-01,-8.445898086404404759e-03,6.147250678539666231e-03,1.741579776638385937e-02,1.581354439258575439e-01
2.723849981401332276e-01,1.552742609307949939e-01,1.313596704516984959e-01,4.725312049474758125e-04,2.773087029747892552e-03,6.960945096996040173e-03,1.313643455505371094e-01
2.508473858436982562e-01,1.431497434631793242e-01,1.103597839701110639e-01,1.176265416014418350e-03,3.649628645778659527e-03,-2.573316794659805703e-04,1.274742037057876587e-01
2.661105789583850245e-01,1.382023022242679922e-01,1.215242570094814401e-01,1.091223172262476308e-03,3.229654048057198617e-03,6.057802751213552453e-03,1.375387161970138550e-01
2.097233039129247079e-01,1.389134295555316256e-01,1.123479033855447340e-01,8.917354067584837632e-03,1.763285212301775318e-02,-7.138841561276838311e-03,9.447257220745086670e-02
2.372880900122006365e-01,1.140731920592685245e-01,1.399795802763917907e-01,2.068570278524914981e-03,8.597250943076822005e-04,-2.633901410455057979e-04,1.125889047980308533e-01
2.432478821157107451e-01,1.124612206394551006e-01,1.312184768420557868e-01,2.170203672648883531e-03,3.239472730635370966e-03,-3.048192209662644366e-03,1.227895468473434448e-01
2.977003777557853392e-01,1.494223423707057297e-01,1.512325756937162868e-01,-1.368534025336443256e-02,1.553845512858101525e-02,3.070076545286110070e-02,1.607328355312347412e-01
3.042576245814408997e-01,1.420348088567023048e-01,1.868615384158081316e-01,-3.579787276129924728e-02,1.273443731920628069e-02,2.018902534874777652e-02,1.631180942058563232e-01
2.475401505865173490e-01,1.283235919151191617e-01,1.288768649357606433e-01,1.028195367105623790e-04,2.324333507149052124e-04,-2.637123921486131547e-04,1.189425811171531677e-01
2.493323704147281661e-01,1.068078346168013781e-01,1.407323022830185566e-01,3.488425255918871024e-03,-1.556778284349499602e-04,7.869977073086517529e-04,1.291026026010513306e-01
2.454952739007419393e-01,1.269196505271085740e-01,1.275699307752418410e-01,2.187323863711018528e-04,4.300646858037247030e-04,-4.097221068219214848e-04,1.182569041848182678e-01
8.418219186587101721e-02,9.903967843150314476e-02,1.131196734447764141e-01,5.628541441268421208e-02,-2.376023889977221110e-02,6.144331423128657384e-03,1.092668026685714722e-01
2.544771725603854895e-01,1.410371416330649386e-01,1.209491960255392184e-01,-4.667421128595962052e-04,1.725438586353782947e-03,1.001964752066112491e-02,1.259432733058929443e-01
2.511051890079754600e-01,1.369232440093959557e-01,1.243950784842123292e-01,-2.210595558160008325e-03,5.488189027947118666e-03,9.303837429287106428e-03,1.224322915077209473e-01
2.500857655715093553e-01,1.350383245312553049e-01,1.246808617803855379e-01,-3.037539464645111140e-03,2.798650178879174676e-03,6.739817616923817964e-03,1.213352531194686890e-01
2.617669719748764168e-01,1.448822661251121802e-01,1.177558042697302576e-01,-2.964970334782947824e-03,7.845614124374757775e-03,8.690706766637539341e-03,1.341870576143264771e-01
2.443373459648214008e-01,1.241215700930242694e-01,1.281801554116492325e-01,5.418300374588302893e-04,1.643115470600996653e-03,-8.043805182326107346e-04,1.182849109172821045e-01
3.047270053003938717e-01,1.761905765861815354e-01,1.404619484066299551e-01,-1.440524051601817235e-02,2.131599525512432869e-02,2.008252782595375610e-02,1.599567085504531860e-01
2.293011341952083393e-01,1.275267616305458818e-02,3.233035152330426126e-02,1.354758986014459841e-02,1.188096937762506480e-02,-5.843769643002188346e-02,2.329291403293609619e-01
2.368619030168320205e-01,1.055783447641211181e-01,7.219763679590783523e-02,-2.387548544792378064e-03,4.247017969503883057e-03,2.233111049971422263e-02,1.558821052312850952e-01
3.147359999237180350e-01,1.872843559950668757e-01,9.533036586880498653e-02,-2.917841616174816910e-03,-1.262726290457017592e-02,2.707808630528048092e-03,1.922108978033065796e-01
2.441767830049915433e-01,1.082798525747970114e-01,-1.214437805241380675e-02,1.233493596889733606e-03,2.689148774335245462e-02,7.274413941490051258e-03,2.273060232400894165e-01
2.361057127825241797e-01,1.166157024877725740e-01,1.319616961292087720e-01,1.229894448960471703e-03,1.875809680765771646e-03,-1.470285618994272934e-03,1.126998141407966614e-01
2.378537657724342225e-01,1.165904629834486894e-01,1.323067544908131388e-01,1.207811550329297365e-03,2.380072555247054935e-03,-1.037231654427346736e-03,1.143266335129737854e-01
2.447399742597309857e-01,1.199542833993777202e-01,1.327254009730831075e-01,-1.049072329468575321e-03,-1.617158490627638610e-03,-1.233510622601132704e-03,1.189816370606422424e-01
2.288563923446509385e-01,1.204837721690988628e-01,1.130394319808735032e-01,2.743233991388680220e-03,3.578912872632805924e-03,-3.275597247360949316e-03,1.126942560076713562e-01
2.484073667736090840e-01,1.231473055903625491e-01,1.307833560883776558e-01,8.020775696629243610e-04,1.087501353064841301e-03,-1.282911680877438709e-03,1.216647699475288391e-01
2.291428960339528254e-01,1.198874502233044093e-01,1.366339082931758153e-01,2.105754686016342737e-03,-1.149667466696960262e-04,-2.955672214517446241e-03,1.021131947636604309e-01
3.945973553381132426e-01,2.030717306339282213e-01,9.718099889169701244e-02,-1.139321722812718964e-02,5.787648474416516760e-03,9.482570769768761815e-03,2.625554502010345459e-01
2.409835025094356764e-01,9.130807172879534805e-02,1.125933082242948219e-01,8.478657302226787554e-03,8.379576300653987508e-03,-1.782566470288243776e-02,1.450844407081604004e-01
2.325321474491829354e-01,1.188301232365581439e-01,1.343419371249635064e-01,-2.486277516918725117e-03,-8.605489515687137327e-04,-3.180190781845525661e-03,1.070334017276763916e-01
2.479237278272152512e-01,1.278805938797942798e-01,1.293253072380666224e-01,1.862403993936585051e-05,1.420836824964777237e-04,-4.332124027289324360e-04,1.193299517035484314e-01
2.477995438124914740e-01,1.300706544906247153e-01,1.250075086929651191e-01,9.743040869005728391e-04,4.069581163016813548e-04,-9.010151006251572057e-04,1.203643828630447388e-01
2.460471144531640730e-01,1.276970375379010980e-01,1.286068574116934760e-01,3.894200669907718659e-05,3.348120745180467935e-06,-2.371890389457952737e-04,1.178985387086868286e-01
2.422945324148910728e-01,1.169770724793973427e-01,1.303422521911387355e-01,1.548986262795344973e-03,1.946483971878222802e-03,-1.388783491663642296e-03,1.193002685904502869e-01
2.543487665554483579e-01,1.383694773964815605e-01,1.231269059585829162e-01,-1.493173903077444188e-03,2.084046762946632509e-03,-7.721163912408847765e-03,1.250996440649032593e-01
2.370264733480496044e-01,1.249318670032424083e-01,1.242080921329499210e-01,5.852376574010013412e-03,6.592304200026921461e-03,-7.195143956487323571e-03,1.141722053289413452e-01
3.011651814619027423e-01,1.574358059069654869e-01,1.269104992801095289e-01,2.479674776114038776e-02,2.334869951169254304e-02,-3.308407034945596431e-02,1.809450238943099976e-01
2.469397165447334563e-01,1.277641529742136184e-01,1.285809620592238967e-01,-2.648491695140235301e-04,2.639224997100763221e-05,-4.871929051407573289e-04,1.187731549143791199e-01
2.382014537132445264e-01,1.102742863977612398e-01,6.609762161743200359e-02,1.448919794221879657e-02,2.875465612197506196e-02,-2.466243369005409469e-02,1.700098216533660889e-01
2.642217270026298581e-01,1.425149631743447276e-01,1.280557046055982306e-01,1.557505560049636485e-03,2.607552522331360416e-03,-8.194338330774127502e-03,1.304243505001068115e-01
2.480431182300137372e-01,1.269520640946587842e-01,1.060829740642622310e-01,5.568795514219194651e-03,7.432076115610074599e-03,-1.102805597576354650e-02,1.350896656513214111e-01
2.437974272546662990e-01,1.247955512339542633e-01,1.253240418497883479e-01,-1.378794512660197090e-04,-4.849868798765870305e-04,-5.767223213145178514e-04,1.187459230422973633e-01
2.304867473061327499e-01,1.281823200302403543e-01,1.384268765144155422e-01,2.327687537202206489e-02,-3.559736878183748093e-02,1.210995433658674375e-02,1.240564137697219849e-01
2.302181866274890520e-01,1.234311433641222255e-01,1.342296124129643553e-01,7.901256758061974902e-03,-4.976435712526269296e-03,5.222869747852890501e-03,1.034908816218376160e-01
2.536090289556759414e-01,1.242811520788346946e-01,1.354675513256029806e-01,1.014958709149702172e-04,-7.080479893637566706e-04,-2.354960037567970562e-03,1.241865307092666626e-01
2.425833319419078982e-01,1.127959050383529616e-01,1.349769839713644559e-01,1.727594399505700921e-03,2.031074038520983178e-03,-1.136632353867514551e-03,1.203459873795509338e-01
2.215731234233107028e-01,1.209180953931415503e-01,1.365256930199508500e-01,9.226370654247043057e-03,-2.013130469991285601e-03,3.369752573627828995e-03,9.542352706193923950e-02
2.325541605097873887e-01,1.056042011913685408e-01,1.318707358715730527e-01,1.134712914484925506e-02,-4.424521716950661002e-03,4.746094072941510651e-03,1.182550862431526184e-01
2.396802107107293411e-01,1.204983438039366195e-01,1.410971205536143414e-01,8.540539556257263978e-03,-4.100202195108387619e-03,4.548645639909107939e-03,1.118255555629730225e-01
1.513760636591742481e-01,1.051527576124308416e-01,1.234744886974059735e-01,4.170128409740125885e-02,-1.558243462222986750e-02,1.482817062020261485e-02,9.072177857160568237e-02
2.328325961316261850e-01,1.336326247447011673e-01,1.590606746111185854e-01,2.383887219966157600e-02,1.734744209556547115e-03,-1.899969067502476749e-03,9.843521565198898315e-02
2.143736107143147107e-01,1.231147702991295806e-01,1.275097388084943384e-01,2.652770065781102395e-03,8.559956291697159124e-04,-6.173936920519607248e-03,8.991148322820663452e-02
2.326601830064216614e-01,1.201125106896682726e-01,1.210943189055387614e-01,4.306737220822128530e-03,7.952575592861700626e-03,-7.954978841753427080e-03,1.139853596687316895e-01
2.479783453900535894e-01,1.291974441174746913e-01,1.283128745241994273e-01,6.371408369063402819e-06,-4.427366019877155805e-06,-6.074135888590889926e-04,1.192302927374839783e-01
2.057862118793615525e-01,1.102715550446052156e-01,1.122261765679007373e-01,1.225267187390108835e-02,1.055333612449336697e-02,-9.640621475426150097e-03,1.000175103545188904e-01
1.933871897078992819e-01,1.157451171660606182e-01,1.243811153786144319e-01,9.622783242873524448e-03,4.772569780176425143e-03,-7.779950046814053388e-03,7.720144838094711304e-02
2.398700244933178738e-01,1.321351587980260089e-01,1.268899559001951949e-01,3.576652129547514469e-04,2.237834781419811413e-03,-4.062445029007742854e-03,1.107444018125534058e-01
2.387935993439902482e-01,1.228176995779445835e-01,1.234274402054869602e-01,1.379889212252722588e-03,1.284979487449672535e-03,-1.485583748672593711e-03,1.157469302415847778e-01
2.329109217687523326e-01,1.156528464490400032e-01,1.268665700168432886e-01,-1.938244030443295391e-04,1.148766178209839639e-04,-1.156212029988451170e-03,1.120913326740264893e-01
2.461869034240342091e-01,1.278045809701796875e-01,1.264989995060372130e-01,-1.046991518094045603e-04,-2.988204145995106359e-04,-3.297807523529435120e-04,1.190431192517280579e-01
2.461128818961653697e-01,1.005315624198253321e-01,1.284313920170435108e-01,2.768552239512620666e-02,1.824538577738060025e-02,-1.823063842486727718e-02,1.490162461996078491e-01
2.431288809500986026e-01,1.254114697786826438e-01,1.245303027906237286e-01,-6.224795236646086388e-04,-4.739581029734211493e-04,-4.788688529654949711e-04,1.181711405515670776e-01
2.146801976933487843e-01,1.176951994699946269e-01,1.051853358601161359e-01,1.440812410038838816e-02,1.588399325259149189e-02,-1.374871805547275491e-02,1.127946078777313232e-01
1.895539400051701462e-01,1.144756135981559730e-01,9.354750098192315955e-02,1.941911149056532379e-02,3.308826164797941394e-02,-1.384052268809382417e-02,1.124120727181434631e-01
2.453855575511225129e-01,1.306697887000908276e-01,1.214446023721753865e-01,-3.857495752330035357e-03,-4.575238295273095605e-03,-4.941122349645399488e-03,1.203485354781150818e-01
2.484746772271412552e-01,1.267416607407534646e-01,1.191097721074425575e-01,2.392385454721192902e-03,2.384145180472621930e-03,-7.388544587679465349e-03,1.265077888965606689e-01
2.616734541756670640e-01,1.533425333068657859e-01,1.179757096281814910e-01,-7.612415546688860828e-04,-1.475134615900317719e-02,-5.228378956713982013e-03,1.324925422668457031e-01
2.501732687073900396e-01,1.176232852249843586e-01,9.497452375448367512e-02,1.363870813063701622e-02,2.640720000134944706e-02,-2.112212383991868975e-02,1.583447307348251343e-01
2.282452628119058247e-01,1.268132192648844248e-01,1.067259197820479288e-01,5.470047220359352744e-03,1.072314236028846374e-02,-8.860695035532328845e-03,1.157571226358413696e-01
2.254872900330037178e-01,1.241942234196820039e-01,1.105330797230618944e-01,5.186182934131700062e-03,9.064049138104922701e-03,-5.556488319355175169e-03,1.106818690896034241e-01
2.714004551992562631e-01,1.568970341366532073e-01,1.290092044160936202e-01,3.786926171053443032e-03,9.915086078054509075e-03,-1.394334185998914212e-02,1.341760605573654175e-01
2.414450612298798815e-01,1.225341223688726222e-01,1.236391293455588736e-01,-5.340735030035797951e-04,-2.934044344831501804e-04,-5.295004550652326978e-04,1.183705627918243408e-01
2.399937842725044790e-01,1.217161491711713367e-01,1.228958003709014202e-01,-3.844249833061035514e-04,-5.842228356595504735e-04,-5.466408884110672984e-04,1.177022829651832581e-01
2.334268942341166109e-01,1.246040610748408162e-01,1.258290445977137961e-01,4.653232497589713558e-03,2.563662909193501708e-03,-6.187487905807016395e-03,1.091335564851760864e-01
2.285908560193841144e-01,1.301739593555000518e-01,1.001907943115593475e-01,2.488386674361499351e-03,1.093112596717024654e-02,-5.011266602184887356e-03,1.182713359594345093e-01
2.408651533354368990e-01,1.138409001239056306e-01,1.341595237468379276e-01,-2.795631838107516358e-03,-2.300639767443276185e-03,-1.332088983697392358e-03,1.183710172772407532e-01
2.396824040728535721e-01,1.222643559529727475e-01,1.261896303362854133e-01,-3.997952413172481292e-04,-7.377106904421661506e-05,-6.899532121863621078e-04,1.155137717723846436e-01
2.474179241752115788e-01,1.529841958737330476e-01,1.285337822444296285e-01,1.088825581440660759e-02,2.221487106992180507e-02,-1.094080282325753627e-02,1.184050813317298889e-01
2.346127758634243832e-01,1.194515402880928223e-01,1.316809864338439884e-01,4.571094793491714547e-03,4.147193966370582921e-03,-5.024245950817076214e-03,1.104233786463737488e-01
2.395479913828404417e-01,1.216630651250405898e-01,1.256398013066311881e-01,-8.112949004794165657e-04,-1.180426334045313807e-03,-7.650079080260263880e-04,1.159818246960639954e-01
2.207975030711701314e-01,1.548647244781123922e-01,1.418568245786661353e-01,7.912938084706812314e-03,1.465240510096720017e-02,-6.510690384460162024e-03,7.958061248064041138e-02
2.385793383696024894e-01,1.219261984673428167e-01,1.232779415752261742e-01,-1.211201927668808598e-04,-4.348888597035616230e-04,-6.304240771058340674e-04,1.159909516572952271e-01
2.426958966707724596e-01,1.069723451159165506e-01,1.275392897079255516e-01,-5.676333793546408692e-03,-3.635195821214445757e-03,-7.579676363617616520e-03,1.279106140136718750e-01
2.522694880913600723e-01,1.274418417308794127e-01,1.407730558158473144e-01,-6.154636573922143104e-03,-2.141059041525953093e-03,-6.211937186613902991e-03,1.197443678975105286e-01
2.431247667643451349e-01,1.185470794428241936e-01,1.307790873156860767e-01,-1.127367828317522424e-03,-2.097980989776611956e-03,-1.358943882926112257e-03,1.190291717648506165e-01
2.384037208764286375e-01,1.188254339121825320e-01,1.298075382861265670e-01,-1.932010820281682975e-04,1.235526235853154960e-03,-1.152505332142753037e-03,1.145208626985549927e-01
2.399589378772180315e-01,1.213652122126600008e-01,1.211084050755044106e-01,-9.519694784692521667e-04,-1.932823956642093467e-04,-1.886102177829895952e-03,1.187791898846626282e-01
2.364771901858387093e-01,1.124517556626968839e-01,1.323077202381355288e-01,-2.572206460185073700e-03,-1.846065227395058111e-03,-1.201735263557635568e-03,1.155349686741828918e-01
2.315484972929620078e-01,1.169905130067081661e-01,1.306779439155135725e-01,-2.296754322518737654e-03,-1.521947522224507618e-03,-3.368822492234584305e-03,1.086263954639434814e-01
2.322503478913139907e-01,1.168137745595103916e-01,1.333811933207482980e-01,-8.930773282384407014e-04,-5.940059812935983424e-04,-1.597654662862906276e-03,1.081605479121208191e-01
2.301300707403233226e-01,1.119181549935155395e-01,1.273340420405330020e-01,-1.667130718177681995e-03,-1.882261074413198784e-03,-1.339979116667064938e-03,1.114168688654899597e-01
2.387356486899984143e-01,1.229840303312802891e-01,1.222874179492894342e-01,1.357978480672389736e-05,6.997503565373981434e-05,-2.420712097494333510e-04,1.161023154854774475e-01
2.276621342429537287e-01,1.224691261464264103e-01,1.368695446826212192e-01,-7.459036356498791043e-03,-2.086399877577871115e-03,-6.639931935088072036e-03,1.003511548042297363e-01
2.370149516405226642e-01,1.204587343613234274e-01,1.240348213946855932e-01,-2.353901221824562990e-04,7.242845947337146480e-06,-6.174142048568776039e-04,1.148156598210334778e-01
2.336807107749017121e-01,1.185809883684126875e-01,1.346200999190628467e-01,-4.815153551868949378e-04,-4.609238077682099237e-04,-1.464376293297691128e-03,1.080132797360420227e-01
2.268283050717199711e-01,1.328217976511359144e-01,1.066189438751481700e-01,1.180815844198896975e-03,-2.430046479838222917e-03,3.017671001171425352e-04,1.095866039395332336e-01
2.250490622743486768e-01,1.176510013046376257e-01,1.192682888644255451e-01,2.498175655342863791e-03,1.070901164873127708e-03,-3.544899535196822851e-03,1.068790331482887268e-01
2.360562669918940537e-01,1.415548740329461985e-01,1.171918728222666878e-01,-5.567676326572433294e-04,-3.955991986910887062e-03,-1.213604108036372888e-03,1.089894697070121765e-01
2.509288797918082237e-01,-5.061415922155143576e-04,1.161057160967445129e-01,-8.061903853134952044e-03,4.327562201327012428e-03,-1.570864517195260865e-02,2.202022671699523926e-01
2.266934145979185300e-01,1.334663808746242297e-01,1.075661999592020801e-01,6.345405290464539499e-04,-2.291826131835791695e-03,-1.905122596677073885e-04,1.085991263389587402e-01
2.466677650150194689e-01,1.269205988115690020e-01,1.242754551716668682e-01,-2.751968068187251779e-04,-9.073837349808445464e-05,-1.093050872023087995e-03,1.211072504520416260e-01
2.336332333942705564e-01,1.378852739214568301e-01,1.169995229306681206e-01,-1.026901505436599298e-04,-2.234630147046234221e-04,-1.133037709503712876e-03,1.077389791607856750e-01
2.455218695713190236e-01,1.253983488441071936e-01,1.290425651685514208e-01,2.987568005563032798e-04,6.362506583950019176e-04,-6.983738956279882939e-04,1.183559447526931763e-01
2.214961617652683734e-01,1.325315181307447632e-01,1.084529045813171222e-01,-2.352984064129194002e-04,-3.467889610146423444e-03,-1.177529448239068117e-03,1.033297479152679443e-01
2.463978229306121037e-01,1.248847810212224407e-01,1.289642147417469353e-01,4.103232418736703249e-04,-1.378900864554836103e-04,-5.918922996557676513e-04,1.195322945713996887e-01
1.819882647616408167e-01,1.306492777972699249e-01,1.364898116221010260e-01,4.841103267564455213e-03,-1.809365652037909404e-03,1.007531871191412508e-03,4.952910169959068298e-02
2.245639740008861795e-01,1.320971712367521034e-01,1.112385130304193032e-01,9.085003597166386568e-04,-2.832122497757715105e-03,1.865185261681131081e-03,1.046465560793876648e-01
2.251849557561004800e-01,1.293000697884466865e-01,1.106559704854733206e-01,6.341922676377120165e-04,-3.451599477505645341e-03,1.994276017250782955e-03,1.066680848598480225e-01
2.379932395361472053e-01,1.397831170479908180e-01,1.194655049477150455e-01,1.670951171062475980e-03,-2.297905035160936922e-03,2.135729717585536404e-03,1.099605858325958252e-01
2.270471639601565061e-01,1.268245365461378726e-01,1.104924996672914106e-01,7.401865383311639250e-04,-2.847625414149112470e-03,2.090678208513230014e-03,1.094862222671508789e-01
2.333170355895999859e-01,1.304130416141656423e-01,1.141686324511301948e-01,1.565332050166449995e-03,-2.569728090742911739e-03,2.019118116423245044e-03,1.120897829532623291e-01
2.402234391730597718e-01,1.268424837118316550e-01,1.264651285699200656e-01,-1.790342224918772948e-03,-2.520588894875883720e-03,-4.250847458056950315e-03,1.139344274997711182e-01
2.411856980093474434e-01,1.200235223281706787e-01,1.321747307102020819e-01,-1.002208207604712810e-03,-8.463736788410976828e-04,-9.752895002807334584e-04,1.156013533473014832e-01
2.329939971373219398e-01,1.154138494697878603e-01,1.278121880057716542e-01,-2.941113581740837930e-05,-4.820496455549352650e-04,-5.927256128448369450e-04,1.119051650166511536e-01
2.308858217854059258e-01,1.232218973272729279e-01,1.327590080033257125e-01,-5.470366255936612125e-03,-3.861759881767577989e-03,-4.521726995050468455e-03,1.041706576943397522e-01
2.178663824516074154e-01,1.150336500090892444e-01,1.248553926753758481e-01,-3.415745399231457768e-03,-2.334046995347951840e-03,-4.646648604365530462e-03,9.887952357530593872e-02
2.507765458928783442e-01,1.284504104351859577e-01,1.320055949889366309e-01,1.595673101627445806e-04,2.321958823255859883e-05,-1.657325735225984985e-03,1.206223368644714355e-01
2.293141960175588689e-01,1.208851066168294686e-01,1.312489462082840896e-01,-1.149581476023940965e-03,-1.212251135301491492e-03,-3.594804104640213650e-03,1.038637384772300720e-01
2.499188222424609807e-01,1.270941742227537641e-01,1.312702886028158655e-01,4.004188629094361670e-04,6.345628455536641687e-04,-5.912442711823427417e-04,1.208020746707916260e-01
2.323778193898493050e-01,1.232160211150242352e-01,1.243985958886735799e-01,-8.103217569111777468e-04,-8.305850950378071635e-04,-3.686415893780215381e-03,1.087814942002296448e-01
2.350706995477070405e-01,1.249397899876479590e-01,1.260566544462202176e-01,-2.387988187435233743e-03,-1.726607015408123140e-03,-3.661210405940909171e-03,1.098786965012550354e-01
2.294184167622795867e-01,1.171914509275778782e-01,1.297011676125620072e-01,-1.930296791723517440e-03,-1.594049668215417838e-03,-2.898627165316682193e-03,1.067308038473129272e-01
2.482117480093644635e-01,1.216325000415352520e-01,1.338294386447691220e-01,-1.987656857839937077e-03,-1.465352479152327251e-03,-1.905555317998768126e-03,1.210635378956794739e-01
2.529552144589543583e-01,1.097356459162369402e-01,1.375114379050592917e-01,1.261552286840062105e-03,1.225499703410891502e-03,-2.239192512772415766e-03,1.316420286893844604e-01
2.442816666028828632e-01,1.231802025870293305e-01,1.280716799261404915e-01,-4.902021037224139248e-04,-1.160193017049335586e-03,-8.367012910939895408e-04,1.187601983547210693e-01
2.380152511431195272e-01,1.230754635846685180e-01,1.250552143668316463e-01,4.949237320355432307e-05,-5.925393984610400960e-04,-1.843292855440957501e-03,1.140121743083000183e-01
2.372788439609163080e-01,1.198171515524837638e-01,1.266723901016498233e-01,-3.431307299654352415e-04,-9.176264909180821723e-04,-6.862820898055265947e-04,1.142073050141334534e-01
2.483254028380315614e-01,1.254358135272760633e-01,1.303113002649538554e-01,-5.285497384644487814e-04,-2.678402833411894159e-04,-1.229524679758856476e-03,1.205490082502365112e-01
2.264383575011416627e-01,1.193384670542000925e-01,1.419242029196018939e-01,2.378836875000806244e-03,-7.462573199425406216e-04,-1.069451055051815012e-03,9.789612144231796265e-02
2.403553957740010572e-01,1.234863931373740426e-01,1.228982718719998646e-01,3.398452087087989646e-04,-1.250744731058774204e-04,-4.358293365492981863e-04,1.171682775020599365e-01
2.443433794506107981e-01,1.263631279137093499e-01,1.264561501508667252e-01,6.327730628019538443e-04,9.850920923107615943e-04,-1.217210392837008836e-03,1.179700419306755066e-01
2.418695273923196221e-01,1.241546027166402777e-01,1.237213115849339629e-01,6.529696723072912073e-04,-2.375205765118326468e-06,-4.137946778755703355e-04,1.179397702217102051e-01
2.424559882869217475e-01,1.194170257287290454e-01,1.199152126491198345e-01,1.310208513190346978e-03,1.145620029483404622e-03,-4.669976278525781593e-03,1.230936720967292786e-01
2.358820665441224151e-01,1.177051582546690400e-01,1.253031054042386128e-01,-7.163285421869866219e-04,-1.354500013617600989e-03,-1.132033450623256979e-03,1.146145537495613098e-01
2.327213097030236266e-01,1.396396797886009233e-01,1.185242784689632262e-01,-1.803215380803912621e-05,-3.667464469512732891e-04,-1.181359220368230923e-03,1.052620410919189453e-01
2.382440091488204625e-01,1.236381188569400935e-01,1.194976695408761502e-01,-1.377374183168692239e-03,-6.957367806821618955e-04,-1.090838680291773225e-03,1.167770847678184509e-01
2.398661805065309127e-01,1.221423151192709555e-01,1.206476476184900615e-01,8.886471776881180217e-04,4.945096269966110618e-04,-7.983575933484227767e-04,1.184994354844093323e-01
2.509244109178796478e-01,1.119317810075521613e-01,1.380724473361244764e-01,-2.483485569412596187e-03,2.053179970394824420e-03,1.754868069453843424e-03,1.280988454818725586e-01
2.592200644490440520e-01,1.129112654060952514e-01,1.448016338031519468e-01,-3.303546708479289645e-03,1.289808424136954000e-03,3.387478408846573107e-03,1.335274279117584229e-01
2.441701808629196391e-01,1.151038829910163985e-01,1.337327219485869023e-01,-2.181712513103408867e-03,3.093497930395159527e-03,3.017700852540639543e-03,1.211242973804473877e-01
2.474461374577286432e-01,1.161052822624538405e-01,1.352985037837888815e-01,-1.859265290212111640e-03,2.648795001189694406e-03,3.151521478590265952e-03,1.231225430965423584e-01
2.447780543166865330e-01,1.128455802015941728e-01,1.389476396411531145e-01,-1.009031526562453526e-02,1.606980537488748645e-03,4.152069435075505556e-03,1.225099787116050720e-01
2.426127473058727890e-01,1.098893234244196493e-01,1.365178823198229252e-01,-3.087908291371078626e-03,2.289343639432881751e-03,9.570857528368362623e-04,1.218089908361434937e-01
2.332816591721352251e-01,1.169579003152646790e-01,1.393784348902237791e-01,-4.246749311957517294e-03,1.819842854915955203e-03,8.393986075982302897e-04,1.072007939219474792e-01
2.330280370893678676e-01,1.153473667667064967e-01,1.367115201068771213e-01,-5.202424873037227344e-04,9.064597076834055587e-04,4.065983614820602534e-04,1.086038351058959961e-01
2.368731455240820627e-01,1.201540686243325468e-01,1.264089152250354453e-01,2.567701913751649790e-04,1.550305528811784459e-05,-1.530073677318734152e-03,1.137524843215942383e-01
2.337713385655735554e-01,1.228889076993755769e-01,1.163967747049749479e-01,-2.007336471907779103e-03,-1.125508443459216070e-03,-2.036390437381551885e-03,1.143907979130744934e-01
2.323103514043124151e-01,1.143260347936547877e-01,1.382920250328751044e-01,-6.985272161128947260e-04,-6.656923863186153714e-05,7.443641612952474936e-05,1.080210655927658081e-01
2.301827210238097110e-01,1.105126361291898646e-01,1.348742735754468458e-01,-2.682692440360288574e-03,8.392151537264469713e-04,3.649595231320722612e-04,1.096501797437667847e-01
2.354958029351059412e-01,1.185563296918925036e-01,1.254510150603699858e-01,-9.116540129380540803e-04,1.197224556816279054e-03,8.128313380778895468e-04,1.136876940727233887e-01
2.309363160759754785e-01,1.074280733535663973e-01,1.244843394676401760e-01,-2.411124137723156396e-03,1.842805953330214561e-03,1.888839914834715807e-03,1.160902455449104309e-01
2.476817193933159578e-01,1.201526296252794779e-01,1.316659022022334535e-01,2.274543290061408450e-03,-6.087711989661285421e-04,-7.813953409342931080e-04,1.222555190324783325e-01
2.489516534999068054e-01,1.279851467011818011e-01,1.158613375006463247e-01,-1.620777413832114752e-05,1.982803219369263636e-03,-5.770827003210485771e-03,1.278990209102630615e-01
2.342069156271873731e-01,1.141899770840351380e-01,1.285014552854013559e-01,-1.292144431589670748e-03,1.711443576270709746e-03,1.833541253190784041e-03,1.136448234319686890e-01
2.396867958102004703e-01,1.204467401922623832e-01,1.284759490788011937e-01,-1.701864509443398689e-03,1.430295349166146998e-03,2.477955918975848545e-03,1.155789867043495178e-01
2.406936888132746311e-01,1.246372788498600059e-01,1.351840685858499425e-01,-3.641721246001288891e-03,1.612737051994034884e-03,4.220190008206915581e-03,1.116123721003532410e-01
2.489056352121589710e-01,1.217113278794529907e-01,1.333021874239186944e-01,3.753115488374914304e-04,-1.623925558080669155e-03,-2.406901608999035148e-03,1.219186708331108093e-01
2.417131170006169283e-01,1.119840935183766678e-01,1.338088732634836742e-01,1.726143230890112446e-03,1.753955920301386714e-03,-1.144725789391150186e-03,1.204023733735084534e-01
2.425520738687032551e-01,1.242123594948019161e-01,1.223512619256414691e-01,8.760931469737571553e-04,3.521906873270771988e-04,-1.268295932941925332e-03,1.193125918507575989e-01
2.524029004362990936e-01,1.172034810842609576e-01,1.396191317224409478e-01,1.905374493135583843e-03,1.918365449698826355e-03,-1.928823573700753219e-03,1.256338059902191162e-01
1.908507639439681047e-01,7.326249196444320488e-02,1.149088932244667627e-01,-7.004334007303548992e-02,-2.565969753627022482e-02,-2.912656576029518801e-02,1.729243695735931396e-01
1.990772644425894133e-01,1.200697514327167537e-01,1.297065093847109274e-01,2.993472746006936840e-03,-7.437071934478016412e-04,5.435673532741062443e-03,7.543778419494628906e-02
2.442162101308450461e-01,1.197584593721834345e-01,1.306547116601939618e-01,1.365344630890986694e-03,-3.022383541488425727e-03,1.766373300104517310e-03,1.195604205131530762e-01
1.910726947809136544e-01,1.267717750243604891e-01,1.305743367976605063e-01,4.343747825263226045e-03,-2.764102358353041737e-03,3.029407505366681682e-03,6.333732604980468750e-02
1.771373178040109853e-01,1.185292206931209957e-01,1.362095339433650465e-01,2.592644575160534676e-02,-2.050901720151189923e-03,2.423361981236443839e-03,6.897877156734466553e-02
2.459336770442908937e-01,1.264664383379986989e-01,1.269768973374044985e-01,2.000519072150838717e-04,1.261245545204786296e-03,-1.555826032826064954e-03,1.192637979984283447e-01
1.881906190460629069e-01,1.375723248701231638e-01,1.469106057891833295e-01,4.820168029653720994e-03,-1.691340519290381256e-03,3.146814311192288900e-03,4.779873043298721313e-02
2.441392543536418658e-01,1.250238958681714196e-01,1.229231600883514686e-01,1.065737129610249160e-03,5.109543457033576376e-04,-1.310466958916806134e-03,1.202183589339256287e-01
2.433778647340186230e-01,1.242688913664348888e-01,1.247141743017378679e-01,1.007245849858479499e-04,5.365585503350500142e-04,-4.458630763533854300e-04,1.188932284712791443e-01
3.455654183731711182e-01,1.831906282254905094e-01,2.250450689822580397e-01,-5.651522278563557433e-02,3.144742583259566709e-02,3.559575905605562307e-02,1.940906196832656860e-01
2.658037333503699973e-01,1.368287121104166393e-01,9.299044363569476668e-02,5.850283369759599200e-03,-9.050938616001374601e-03,1.048368746218576383e-02,1.577610522508621216e-01
1.762052907604906293e-01,1.407800371852763466e-01,1.356132462117269344e-01,-4.222800493646207756e-03,-4.971608197544066798e-03,-4.096626335030143298e-03,4.052990302443504333e-02
2.256359958309303027e-01,1.288744237842193163e-01,1.275849227491994697e-01,1.493188576605054396e-03,-9.955222948889060324e-04,4.607690879175297023e-03,9.778851270675659180e-02
2.370214731003684183e-01,1.171696598641928239e-01,1.289244427922087155e-01,-1.556455288027716252e-03,-1.840403026254336383e-03,-1.135329813179282834e-03,1.145211607217788696e-01
2.505998074079009985e-01,1.373803806423070928e-01,1.040709371487652524e-01,3.959469756824979605e-03,3.576836051753029717e-03,-4.922097657104117056e-03,1.336320638656616211e-01
2.240029949825716460e-01,1.208187732175316498e-01,7.118073413334491395e-02,4.568789115365429199e-03,-2.505380028695513434e-02,5.533416890640868550e-03,1.423739343881607056e-01
2.978060909864662653e-01,1.312794971779349673e-01,1.560450879419121306e-01,-1.003647542334789623e-02,-8.054243196016983020e-03,-2.848405679249385244e-02,1.647760272026062012e-01
2.357284784876813588e-01,1.281527222840634916e-01,9.501098310592527574e-02,2.982121825493117342e-03,-1.154221455304591838e-02,4.838533237572976813e-03,1.293551176786422729e-01
1.949436918493724080e-01,8.934536270145572445e-02,1.232421531650259305e-01,3.437406100646564489e-02,7.026473846329817953e-03,-4.578082102863243776e-03,1.116972416639328003e-01
2.152810817465573567e-01,1.146673219796002646e-01,1.220081308156733824e-01,1.109134681376857008e-02,5.174655662582127412e-03,-8.188295479190102477e-03,1.004438102245330811e-01
2.271087390948747509e-01,1.136287237822009022e-01,1.059160490773246033e-01,6.030287375851152779e-03,6.388391192857060391e-03,-6.507977716282331918e-03,1.190421059727668762e-01
2.381815285549079286e-01,1.215773116763907147e-01,1.273626596475083972e-01,1.763166366971925325e-03,1.122752299025508646e-03,-2.916689814950924105e-03,1.139914318919181824e-01
2.364448713148700476e-01,1.176707505737041581e-01,1.286486368691784898e-01,-2.998423407128901741e-06,1.159012249163876226e-03,-1.118921188327035108e-03,1.137176454067230225e-01
2.387444275060787158e-01,1.150265042878974436e-01,1.317017267508199529e-01,1.728081520873547003e-03,2.683842449377549146e-03,-1.465149471574842986e-03,1.164395585656166077e-01
2.371589673433316392e-01,1.257327620632954501e-01,1.520703094163740055e-01,-1.607929178856766159e-02,-6.008802052120598355e-03,-7.217547665126334590e-03,1.059008985757827759e-01
2.500418350248941324e-01,1.047016169031688010e-01,1.433255803839798004e-01,-1.404596409770645336e-02,-4.501768657155744494e-03,-9.927649593430433461e-03,1.339787840843200684e-01
2.493902307388827788e-01,1.309525321298252165e-01,1.493624351414473417e-01,-1.770023072731554542e-02,-9.721308882804669330e-03,-1.051286803850011442e-02,1.172218173742294312e-01
2.077277485751424235e-01,1.451111618049349128e-01,1.251945366351170652e-01,1.203441942272453694e-04,-1.762176144741357201e-03,-3.426513613332854945e-03,7.489460706710815430e-02
2.334510269259421622e-01,1.153400851270765803e-01,1.275488276203645410e-01,-9.594089078200266447e-04,-1.136692473875216972e-03,-9.723803372853932021e-04,1.125465929508209229e-01
2.127759332009545035e-01,8.746867862964446960e-02,1.171109792895414087e-01,-2.999795072278941405e-02,-1.240576089493113446e-02,-1.511900530881576075e-02,1.292798221111297607e-01
2.210986296141179419e-01,1.225051530192642901e-01,1.482669058268207274e-01,-4.020889535053797509e-02,-1.650114489236130522e-02,-2.024980268132901134e-02,1.214153766632080078e-01
2.437441898842775956e-01,1.098364333320660802e-01,1.372654648473617678e-01,2.798068902840064338e-03,-2.222922385859725253e-03,1.716771265724780036e-03,1.227103620767593384e-01
2.337688205489885651e-01,1.173919514778106465e-01,1.317806025438043038e-01,-4.948947193672557140e-04,-8.248966533523825967e-04,-1.443418363110368944e-03,1.099323853850364685e-01
2.459568064276527188e-01,1.043563951557878178e-01,1.261930237787865505e-01,-1.378735715279846494e-02,-1.639637911521063529e-02,-1.768134495750374804e-02,1.405351459980010986e-01
2.399588405793207369e-01,1.329928206408594327e-01,1.074957163276475114e-01,-1.923581319796892255e-03,-2.420923802661724585e-03,-9.384251053437544458e-04,1.218625456094741821e-01
2.311745537772201819e-01,1.206021479221142667e-01,1.277410756082687227e-01,1.222904018914313610e-03,-1.217690497234175931e-03,-4.268534299548500631e-03,1.074776649475097656e-01
2.351132631054526079e-01,1.182893478976033974e-01,1.329439983180536744e-01,5.859306286641852938e-04,9.950330429855762382e-04,-1.601063354422843730e-03,1.102826520800590515e-01
2.830726144773930697e-01,1.259791784919669921e-01,1.561599020087753587e-01,-1.011256962565850598e-02,-5.182692629814581592e-03,-1.205004833237331707e-02,1.472107768058776855e-01
2.572477533103548208e-01,1.213179043216620623e-01,1.481399645979376845e-01,2.033424878683609636e-03,-9.377834275203852531e-05,3.631157218091462732e-03,1.249096244573593140e-01
2.463570823996681092e-01,1.160330539180003673e-01,1.408430936773084619e-01,4.457949818606485662e-03,-1.301391927998982612e-03,2.032997260696893255e-03,1.201817244291305542e-01
2.380407736946544006e-01,1.143093652435324403e-01,1.376188456238705005e-01,-1.161516916645657189e-03,-1.098735032993656841e-03,-2.028656145085458722e-04,1.139143109321594238e-01
2.304732883054287917e-01,1.118590582040846215e-01,1.315952571342386690e-01,1.767484032832765525e-03,1.272725192723176985e-03,-9.060573565960915654e-04,1.101569458842277527e-01
1.716891914147098686e-01,7.197313497737416188e-02,1.004232930086761399e-01,3.337238223171722779e-02,9.959440614675046932e-03,-1.387702455151852352e-02,1.101462692022323608e-01
2.570334151258327759e-01,1.131364490400914719e-01,1.452874542342438013e-01,1.120025055225825402e-03,-1.515588983160754419e-03,2.948206876779319377e-03,1.309592425823211670e-01
2.360321239731602572e-01,1.243130066300332237e-01,1.299021541057680529e-01,6.867781597878687850e-04,7.525467576446135927e-04,-4.043097850903687625e-03,1.092709451913833618e-01
2.418872236217676497e-01,1.295984055680120817e-01,1.220541157021566847e-01,2.367726443788331289e-03,1.465970894634089066e-03,-3.293831539868216640e-03,1.164845377206802368e-01
2.356359864963686601e-01,1.124989839604774444e-01,1.376803103603697342e-01,2.037220077686721816e-03,3.224202626893169334e-04,-3.715859186287256738e-04,1.127352863550186157e-01
2.277009889388069697e-01,1.091271498205940160e-01,1.325760393962602812e-01,2.464176543178883162e-03,1.183161004384701218e-03,-6.411642731870965907e-04,1.088707074522972107e-01
2.392694876935408388e-01,8.872726888679516311e-02,1.148973394665158132e-01,4.826254133154688104e-03,-3.941103332252818628e-03,1.790825808592241136e-02,1.431318372488021851e-01
2.347680962487134204e-01,1.317708663291236593e-01,1.113754726262328465e-01,-6.432915411466521433e-03,8.104170710878400366e-03,5.787700892485269505e-03,1.163904741406440735e-01
2.587578608539543579e-01,1.180050872708942877e-01,1.370252681457867494e-01,3.022888999520678948e-04,1.345857018058639869e-03,5.259383994515090359e-03,1.326071619987487793e-01
2.494452338746406816e-01,1.065884019527018334e-01,1.413008101917110626e-01,4.026609644080876745e-03,9.003552590561786709e-04,-6.497742227041666211e-04,1.292534768581390381e-01
2.533883569970087901e-01,9.639679371609224945e-02,1.218001556603758861e-01,3.332965296868412898e-03,-3.462369228447475210e-03,1.704653831666431626e-02,1.491462737321853638e-01
2.361491141803342408e-01,1.116991665474612594e-01,1.369083614031513518e-01,2.401767718630908651e-03,-1.073731531083021388e-03,3.502311356712992292e-04,1.140488609671592712e-01
2.734652784954499372e-01,1.145561012188692634e-01,1.359793242105923894e-01,1.197808185409562909e-02,-1.394333366968718855e-03,1.934793134459067074e-02,1.544862985610961914e-01
3.794855038773600198e-01,1.557607185351437828e-01,2.209852654487005907e-01,-3.740853740400912342e-02,1.537378174450276108e-02,4.452408732549337222e-02,2.248757630586624146e-01
2.389068918964933341e-01,1.224052567500699407e-01,1.248343104914073631e-01,-5.964736961281673914e-05,-1.618373853471719124e-05,1.307550099650481214e-03,1.153285875916481018e-01
2.337184902982729073e-01,1.280477004202240088e-01,1.161795679872443809e-01,3.425928187104800688e-04,4.453379460861218476e-04,7.298240930921930363e-04,1.120884865522384644e-01
2.397405470957064688e-01,1.184204643720520728e-01,1.250523753232689605e-01,1.289385463746284526e-03,1.307334231283474851e-03,-1.210244008784832313e-03,1.182052046060562134e-01
2.454231384765533652e-01,7.860147016437317447e-02,1.338797761573209399e-01,1.906754946300030090e-02,-5.980991512532125853e-03,3.250907340299204976e-03,1.513052433729171753e-01
2.464598585544753861e-01,1.132389703700195510e-01,1.357572263406892077e-01,-9.617561201598604946e-04,-1.908847568012399026e-03,-1.558755175749776054e-03,1.235959976911544800e-01
2.406872484532126544e-01,1.289238037801312964e-01,1.243495820290772408e-01,-1.530543213390559874e-03,9.517587628881994753e-04,2.250367802203245317e-03,1.142285391688346863e-01
2.541951767565098219e-01,1.116272007353299456e-01,1.388214776961233521e-01,-4.787559764751584150e-04,3.071729319758397425e-04,-2.563660703522876397e-03,1.311823576688766479e-01
2.348556665195605797e-01,1.231278295738892081e-01,1.198466996726170325e-01,-7.063039252216135469e-04,5.754004421227336061e-04,2.196685808448467329e-03,1.134787872433662415e-01
2.179745897805862864e-01,1.238110303011244195e-01,1.268118797926220953e-01,-2.120487053533026429e-03,1.724128757120539342e-03,6.366664742697361254e-03,9.347309917211532593e-02
2.409032261778349393e-01,1.217100504019263119e-01,1.317130865350555347e-01,7.271084171350548691e-04,1.082050239441750047e-03,-1.285981869456045198e-03,1.145636960864067078e-01
2.394572659525271985e-01,1.246639444103125050e-01,1.227238357523319501e-01,-6.249181183187563996e-04,1.196453070195475997e-04,2.207332236862412985e-04,1.157814413309097290e-01
2.546702628490442599e-01,1.307211648732818365e-01,1.392046241598921541e-01,-4.470583366759455467e-04,2.656971075999052696e-03,-4.268508972477381459e-03,1.202508583664894104e-01
2.458420664939336697e-01,1.118264226296475650e-01,1.219285230710086265e-01,3.625384079258802371e-03,4.508363961778525351e-03,-8.881423408757948765e-03,1.305582225322723389e-01
2.422040690253605411e-01,1.082174121239529163e-01,1.390583101619719819e-01,3.871806884613876714e-03,2.671355494094998788e-04,-4.628474471972134053e-04,1.217257007956504822e-01
3.001764039115979443e-01,1.350759595817600245e-01,1.317253417854991615e-01,-2.367424112597843293e-03,9.426671336332929571e-03,-2.482837246680919679e-02,1.730760484933853149e-01
2.514539572977555482e-01,1.167384402785863196e-01,1.397616214325674289e-01,-5.693309859605171679e-04,-6.919429771084267995e-04,-1.426100438835451074e-03,1.248409673571586609e-01
2.584472445396439610e-01,1.271725368917451526e-01,1.383565545221655813e-01,4.835777410686681500e-05,1.075547747636611522e-03,-2.187439096001195064e-03,1.261260658502578735e-01
2.543674251449831725e-01,1.059014384143115994e-01,1.413447418446125425e-01,6.983984180747054198e-04,-8.413838284647157930e-04,1.144535635449344096e-03,1.343270987272262573e-01
2.422695300649054528e-01,1.107857021265172409e-01,1.406150652374464072e-01,2.630528912193582855e-03,-6.196672506932187491e-04,5.103523732357947507e-04,1.194922626018524170e-01
3.251210101004035069e-01,1.600601265629289227e-01,1.734671283177560697e-01,8.017645095377947187e-03,6.778474254911188990e-03,-2.459757906646943201e-02,1.654015928506851196e-01
2.280458400053746448e-01,1.235648618683306832e-01,1.487271137726542680e-01,-6.805572204475297815e-02,-4.039176488535774212e-02,-1.908436863274445144e-02,1.697124093770980835e-01
2.533688559929662687e-01,1.244792011003583165e-01,1.329594112630911873e-01,8.494284195231633868e-05,3.241938294952319277e-03,-3.093675567286130555e-03,1.251067966222763062e-01
2.440590235892375892e-01,1.159010013442999115e-01,1.363233603185950160e-01,-2.515496638016746084e-03,-1.578454413187624491e-03,-1.298092617004455813e-03,1.193975508213043213e-01
2.411669619421633048e-01,1.237685094545664666e-01,1.221894955353219625e-01,-1.486463892951759777e-03,7.360013518235691008e-04,6.988717446605538118e-04,1.182369738817214966e-01
2.394608089426760733e-01,1.221349810416575976e-01,1.209421558712555078e-01,-8.855432354697430168e-04,4.435871137212285130e-04,1.056752969333696855e-03,1.179534420371055603e-01
2.422877521663836520e-01,1.246189227403843858e-01,1.236862474363802367e-01,-6.493944495100363676e-04,1.874196607229273548e-04,2.781837603566100748e-04,1.181447133421897888e-01
1.903092415507130208e-01,1.751575125847808501e-01,1.638718333882742406e-01,1.940854483322538779e-02,-3.787518204473391825e-02,3.161056920256670975e-03,7.740528881549835205e-02
1.896021248377136037e-01,1.116964455935986755e-01,7.972617804894011062e-02,1.502883114215360083e-02,-3.213848658608321751e-02,1.408177474459766307e-02,1.181236281991004944e-01
1.614797681909026505e-01,1.274763215904145819e-01,1.285711951062429304e-01,1.075453839616523181e-02,-1.674278033406205804e-02,5.948614757168356297e-03,4.913556948304176331e-02
1.294294196727257540e-01,1.419611495944579638e-01,1.406424797988632958e-01,9.828791692926767964e-03,-7.446984447932640874e-03,1.758789587455110567e-03,2.465210109949111938e-02
1.526767146425613286e-01,1.744263926744943904e-01,1.739261459062372006e-01,-9.166395659301932418e-04,-2.667464324339508322e-02,1.221181053301112292e-05,5.098577588796615601e-02
2.320425098049881674e-01,1.139600533746261274e-01,1.325977320799630044e-01,-1.556266757847154332e-03,-8.859265503049002692e-04,-6.264462868403761165e-04,1.100038364529609680e-01
1.164320470838105664e-01,9.881997816624256414e-02,6.352055651066462749e-02,-2.575470866122848632e-02,-7.015686466399569110e-02,-1.523832920098799545e-02,1.401086151599884033e-01
2.222261650221606655e-01,1.287342354468496430e-01,1.210445736601451633e-01,-2.341142063797386694e-03,-6.192788199213401269e-03,-6.638298403453903040e-03,9.890646487474441528e-02
2.339760942992321902e-01,1.359011249014904221e-01,1.202180959174633385e-01,-5.640433975729539084e-04,-3.904160607069934522e-04,-1.812285165724033739e-03,1.068364828824996948e-01
1.700022004954403199e-01,1.481173586450739155e-01,1.471782203747318274e-01,1.355889334145669997e-03,-3.151055097084094758e-02,-4.574402886104625421e-03,5.956019088625907898e-02
5.300687165810928636e-02,1.160676202553911213e-01,8.678512239605779000e-02,-4.207468305928882719e-03,-4.868395895383913208e-02,-2.445033711494558250e-03,1.008413285017013550e-01
5.987590189005127794e-02,1.251099109675488930e-01,1.220310564256807118e-01,2.476875352379839107e-02,-3.067164852642136758e-02,-1.495464566537679568e-03,9.345342218875885010e-02
2.376452847179669758e-01,1.098318901670204684e-01,1.328759130880236006e-01,4.872217265807764555e-03,-3.676109300314359205e-03,2.169581767234898730e-03,1.185235604643821716e-01
2.232002217160264368e-01,7.443558330779691257e-02,1.076892481495176634e-01,4.259930834571062919e-02,-2.580639868253432889e-02,3.082049085682734765e-02,1.690605729818344116e-01
3.093471208082130830e-01,1.218659146660867193e-01,1.908929071426344881e-01,4.305236851789813468e-02,-7.107709782174277853e-03,4.411631041775174178e-02,1.962740123271942139e-01
2.371852730753481464e-01,1.376318249235342905e-01,1.109520188991565542e-01,2.794572078852178743e-04,-2.158050315378932070e-03,6.348325880862581809e-05,1.152952089905738831e-01
2.331138494365958269e-01,1.138226399869663175e-01,1.359676490015198913e-01,-8.587383775938156475e-04,6.485141504999746974e-05,-4.431920608265786589e-04,1.099177151918411255e-01
2.259056696815064935e-01,1.304265994187440991e-01,1.056832218162647441e-01,1.177042055495532537e-03,-9.045105605244633390e-03,-1.263684766538165785e-03,1.111096367239952087e-01
2.138465543533040192e-01,1.114882977678503251e-01,1.200977615915894692e-01,4.929840422506697600e-03,1.411524442543076342e-03,-4.432587758959347611e-03,9.903492778539657593e-02
2.609857252281339024e-01,1.205776250002552064e-01,1.584358155839044047e-01,1.545767945024529091e-02,-3.508992104868261051e-03,4.458936690416896546e-03,1.290173828601837158e-01
2.446943178782715056e-01,1.137045708045107406e-01,1.360580885255213701e-01,2.727310424183149694e-03,-2.065123972967195399e-03,1.141195007337277066e-03,1.215274780988693237e-01
3.009707928944306277e-01,1.406734557027726762e-01,1.732327755039347883e-01,1.121608627457881119e-02,-9.165085998517589691e-03,1.952950466332640383e-02,1.526753902435302734e-01
2.364424788628714524e-01,1.083377333075498661e-01,1.310368459166955935e-01,9.242736644251349845e-03,-4.776634862646997326e-03,9.938912693289643843e-03,1.209929361939430237e-01
2.450056457147373745e-01,1.023931841166576123e-01,1.641371444363655119e-01,2.535148695835568247e-02,-5.708886052426965368e-03,1.003355461455845109e-02,1.329400539398193359e-01
2.347547353300258322e-01,1.173880677393460137e-01,1.309892674975028926e-01,-2.872194187702776938e-04,1.310244768816262294e-03,1.224160986977811724e-03,1.112362071871757507e-01
2.180032346043118685e-01,1.124717297600838634e-01,1.328013337250127934e-01,9.934208651296901754e-04,-1.632784883624663428e-03,3.905055653334966255e-04,9.703707695007324219e-02
2.371313249845045101e-01,1.202679076015346626e-01,1.262304391993742669e-01,-2.679460653265866685e-04,6.336415266097308657e-04,5.295513731335601409e-04,1.140090748667716980e-01
2.391485260281817626e-01,1.230932628012225416e-01,1.340029859710373250e-01,-1.070327480437937955e-03,1.748255499444324648e-03,3.393173214609972784e-03,1.112153902649879456e-01
2.251254793704585699e-01,1.319280658220914615e-01,1.168561941883672350e-01,3.802099309336369319e-04,-2.196119777343703578e-03,2.456318068422064758e-03,1.017378047108650208e-01
2.581838818805277103e-01,1.361608722361922763e-01,1.091592004141725969e-01,-6.346627686747577726e-03,8.253001912123348466e-03,1.055182319896821354e-02,1.399025619029998779e-01
2.377803464330199290e-01,1.248710694895398543e-01,1.194745268953912587e-01,-4.788415396916522132e-05,5.280448819165503961e-04,7.146714630542359619e-04,1.157122403383255005e-01
2.342429251093415543e-01,1.180893193897448040e-01,1.272826049903033607e-01,-7.423567270285373132e-04,7.883060335482447055e-04,2.519994600327117237e-03,1.119415536522865295e-01
2.458254013686010098e-01,8.257095628924265851e-02,1.015012320066978335e-02,-2.789765382023310161e-02,-4.393703609607631233e-02,-4.744233665672111661e-02,2.420709878206253052e-01
2.005001336216204466e-01,7.980679041633020887e-02,2.696492831839676640e-02,-3.100870922999807502e-02,-6.409959511380848574e-02,-3.963169707656785667e-02,2.089490741491317749e-01
2.835907587674532104e-01,1.745555339038495357e-01,1.126218659576795761e-01,-1.116048635769896664e-02,-2.616187200908583546e-02,-1.321943985611334464e-02,1.594637036323547363e-01
2.388674345630967533e-01,1.016552171317872677e-01,1.358983060439221957e-01,4.213803482784089956e-03,-2.406777576706214603e-03,2.387819731629800372e-03,1.240522563457489014e-01
3.292891939364107623e-01,1.755625640699025880e-01,1.221408258442030909e-01,-9.053302948675234774e-03,-1.909634015058258791e-02,-2.050842642024139351e-02,1.931315213441848755e-01
2.607662546812388737e-01,1.155413586164281969e-01,1.476851296648329925e-01,-5.688287926067576994e-03,-1.897435058546937531e-03,6.032788838414864310e-03,1.329378485679626465e-01
2.471916615669418893e-01,1.297526680078508465e-01,1.290325774933273051e-01,2.635407255668645391e-05,-9.714400672985219352e-05,-4.147877193946925911e-04,1.178030073642730713e-01
2.337097759803957175e-01,1.180120185162819857e-01,1.316049938257886076e-01,5.060552135554601460e-04,7.616194509780370599e-05,1.637761037137795824e-03,1.095759794116020203e-01
2.400104644732523884e-01,1.239997766235377136e-01,1.231488567487346586e-01,-2.538939006905005795e-04,-1.276676152225135985e-05,-2.921963751400221744e-04,1.164404153823852539e-01
2.392875302300229712e-01,1.226927150110468101e-01,1.214563775064648188e-01,-3.886061657331673150e-04,-2.555001702740554111e-04,-6.725625528701842338e-04,1.172264292836189270e-01
2.392825320905120345e-01,1.208995661096895630e-01,1.284073240238753633e-01,-1.384179590630798531e-03,-1.196619103077687122e-03,-2.618970374703532503e-03,1.149466112256050110e-01
2.389169933661253187e-01,1.212569596405432271e-01,1.227949509327260769e-01,-4.600974663674996007e-04,-7.268450507314841696e-04,-7.461884165590316857e-04,1.169152632355690002e-01
2.407457217852415343e-01,1.248975367003434256e-01,1.243976382700635597e-01,-3.132017051545169027e-04,-4.397384762060267704e-04,2.152381211564710731e-07,1.161027103662490845e-01
2.169670629265763595e-01,1.349564614161506693e-01,1.261320038543139455e-01,1.462216179912292002e-03,-2.398925583826631239e-03,4.291889000030145278e-03,8.721380680799484253e-02
2.463498534825865338e-01,1.275007618982912927e-01,1.268364994918172728e-01,3.258921618969256510e-04,1.515373053530371631e-04,-4.268844369575899985e-04,1.191865280270576477e-01
2.442766860542883722e-01,1.343835726832395272e-01,9.542650812581703057e-02,1.956998954814500192e-03,8.275281874075226043e-03,-7.719808565445341036e-04,1.345138698816299438e-01
2.385474096792889187e-01,1.214479505086064198e-01,1.213835447346793134e-01,2.339785161184103338e-05,-2.548782036023607687e-04,-7.544804776871221440e-04,1.171398013830184937e-01
2.521745956626469942e-01,1.049733988546735497e-01,1.422989463091444140e-01,-1.264694155114116014e-03,2.147420101661987187e-05,-5.039750555199909877e-04,1.325616240501403809e-01
1.806974322792212484e-01,1.311117411295570634e-01,1.360122980900763112e-01,4.369488483092020745e-03,7.032415812929518817e-04,-2.326290908135104397e-03,4.811189696192741394e-02
2.373583498830671434e-01,1.204475364420998507e-01,1.393922834267604660e-01,2.551004937462507741e-03,1.425156645978374863e-03,-3.181918173364865592e-03,1.089412048459053040e-01
2.331690742077487111e-01,1.152403702894766457e-01,1.361778816276885962e-01,7.933688149219839765e-04,8.962207259973774308e-04,-4.909608875620118714e-04,1.090020462870597839e-01
2.279933797675953722e-01,1.117400307065294085e-01,1.267672371581424762e-01,2.589228997865640220e-03,1.008717735402666401e-03,-2.637333388115927803e-03,1.097165718674659729e-01
3.287804715043826098e-01,1.676536526195443466e-01,1.812652422864657886e-01,-1.317316224406466299e-02,4.292064968229990056e-03,2.318543773082047676e-02,1.616863906383514404e-01
2.311319051672394709e-01,1.135490792460704113e-01,1.284310032621436282e-01,2.519327418265576279e-03,2.300519388426380471e-03,-2.644670313231707506e-03,1.111451089382171631e-01
2.257390395389761162e-01,1.117570396102941510e-01,1.295212383298386116e-01,3.390707928703296740e-03,8.058409348569401743e-04,-2.556330310997803786e-03,1.064833700656890869e-01
2.534426073584855610e-01,1.352179841188068388e-01,1.308748656423266710e-01,-3.421122856351316213e-03,1.208107540066873315e-03,4.162566570595682171e-03,1.208340153098106384e-01
2.507388264366385844e-01,1.066697054790274601e-01,1.419000117693376972e-01,-3.158819840523279226e-03,7.190108079764666186e-04,-2.813086410674434036e-04,1.302044987678527832e-01
2.261121828277024848e-01,1.101501030108497647e-01,1.332212843065886387e-01,-6.139738813212235885e-03,2.231948179193510382e-03,3.364202846137658368e-03,1.070798262953758240e-01
2.335739327070486815e-01,1.101503140306752948e-01,1.358960830266905950e-01,-1.855035668459029553e-03,5.001730774450320735e-04,3.436155317095240889e-04,1.128274202346801758e-01
2.342709835245561367e-01,1.153750107513234757e-01,1.353461122936545913e-01,-3.519699058007047521e-02,2.334468644815794469e-02,1.657814995348737969e-02,1.354124248027801514e-01
2.588771951530394744e-01,1.078142926775756405e-01,1.423911024658827962e-01,-8.946825233639913236e-03,8.679703397920463057e-04,5.929823041468339044e-03,1.383479982614517212e-01
2.420042017465023898e-01,1.132090191167824389e-01,1.311372807212582703e-01,-2.023422992089313026e-03,2.413361937693907916e-03,3.155604316120746555e-03,1.210792213678359985e-01
2.450699387694040832e-01,1.199810524369701314e-01,1.311662932659762026e-01,-1.650343036281987476e-03,2.529958978583491704e-03,1.303358884097505178e-03,1.200235784053802490e-01
2.497530757351165698e-01,1.150209860318445465e-01,1.334894518818615927e-01,-6.355365981017539094e-04,1.942984477384383140e-03,4.173867093905599818e-03,1.267687827348709106e-01
1.828076431699769411e-01,1.447038343530679672e-01,1.337248072830343470e-01,-1.190854172535789129e-03,-2.459997886522867060e-03,-2.552494280222752758e-03,4.508588463068008423e-02
2.372749653757594834e-01,1.208586298034464990e-01,1.203035645094996664e-01,2.250127087328487093e-03,1.820510671979660077e-03,-2.115894791855316235e-03,1.168599724769592285e-01
2.407728192494808794e-01,1.092287864719347773e-01,1.388021658269498748e-01,-2.456846258521409952e-03,-1.726472487760858125e-03,3.443031845355452782e-04,1.196479052305221558e-01
2.402511202036492488e-01,1.236075101912870455e-01,1.242009230742121828e-01,6.766417378301467674e-04,-5.009323746282230533e-06,-1.722029901867306234e-03,1.163921654224395752e-01
2.376484805075632645e-01,1.198212596407104147e-01,1.265511248473585593e-01,2.957725083412189723e-04,7.394308513229454205e-04,-8.903253549445167827e-04,1.146292462944984436e-01
2.385122790906039070e-01,1.222226203008394546e-01,1.230095186350009390e-01,4.400595203435423656e-04,-1.257859886137504635e-04,-6.913784138935033258e-04,1.159071102738380432e-01
2.375681706765465084e-01,1.223168770713648906e-01,1.244695625505583825e-01,5.698004105007379748e-04,4.956065430934968215e-04,-2.264124761637745665e-03,1.142649725079536438e-01
2.430653185279024742e-01,1.256766802408214312e-01,1.234306447249650662e-01,9.959828484371814790e-04,5.795265924120598586e-04,-8.648824207845195100e-04,1.185538843274116516e-01
2.375226034788258112e-01,1.284804255114816995e-01,1.168973573968330043e-01,1.966596351292491766e-03,1.308377965471402803e-03,-1.132948867405957332e-03,1.153602898120880127e-01
2.347287357643007555e-01,1.241138293236105500e-01,1.163184501305649377e-01,1.404300166964184702e-03,9.946654803700057546e-04,-1.940166631338222265e-03,1.147993355989456177e-01
2.360196970818115025e-01,1.155539741478753824e-01,1.267859347876448828e-01,2.270569205260262839e-03,-2.612733809902039427e-03,2.080736303698242900e-03,1.154730021953582764e-01
2.331245115334071305e-01,1.234931773521282944e-01,1.157604106409304556e-01,7.636276322311463544e-04,1.456642338157683025e-03,-2.102519712619191697e-03,1.137890815734863281e-01
2.120796317237138850e-01,1.158430831214946749e-01,1.369681891915902339e-01,7.334711897652014187e-03,-4.324558647652185049e-05,8.117796005215705078e-04,8.853311836719512939e-02
2.387533297024854728e-01,1.324177728881903993e-01,1.211898546221915618e-01,1.665991728129841490e-03,7.457767605160135239e-04,-2.328037818972358494e-03,1.124877706170082092e-01
2.478516723795177734e-01,1.277867873656989839e-01,1.280377973502964395e-01,-3.527057677228984697e-04,1.720589353632335074e-04,1.708153623659211312e-03,1.199779883027076721e-01
2.444357388856094326e-01,1.260909711764675034e-01,1.262394452640662745e-01,-1.057931607807433309e-03,-1.435097717761943555e-04,1.308298863191466061e-03,1.183067560195922852e-01
4.355797700419775653e-01,1.889350468419281615e-01,2.519091074979494249e-01,4.236118426456056754e-03,-1.627556320148308960e-03,-4.804583195031419951e-02,2.371795028448104858e-01
2.476928400672648301e-01,1.412073711209115567e-01,1.079209117392697370e-01,-3.571651329319264255e-04,3.574513111444100125e-03,-2.241362547054030871e-04,1.266117393970489502e-01
2.449718401462859796e-01,1.265762735110774195e-01,1.256283655751125605e-01,-2.890024730884967175e-04,1.192403106265162930e-04,3.764043162544409259e-04,1.188753768801689148e-01
2.442845071205262952e-01,1.246573970871942827e-01,1.241348666505226739e-01,-5.997233652454586920e-04,5.900720482586807678e-04,8.764249413149098047e-04,1.199076920747756958e-01
2.426072725148520903e-01,1.396934477852416201e-01,1.061996517357754743e-01,-1.150240925183491442e-04,3.538020844544690485e-03,-4.361689711645885966e-04,1.232810914516448975e-01
2.418841086090590675e-01,1.309545637354116721e-01,1.254666799644788278e-01,1.760183227283278369e-03,1.391686797424494977e-03,-1.443191036915335941e-03,1.138665974140167236e-01
4.302860905623000498e-01,2.358850443220818771e-01,1.970185559950229925e-01,1.524918184825887861e-02,-6.563985969078708384e-03,5.859447791998372013e-02,2.408004701137542725e-01
2.304901445413578553e-01,1.251407994786577493e-01,1.402909885406600776e-01,1.734449677808566756e-03,-6.480626503000522275e-04,5.066990762662962680e-03,9.909217059612274170e-02
2.392713218947480347e-01,1.239023593539792661e-01,1.225794192863915721e-01,2.634707693890037572e-04,8.386881644889500662e-06,-4.567960970742524266e-04,1.160396859049797058e-01
2.355898927989405478e-01,1.266129262756493234e-01,1.213722261932434349e-01,8.028680711391202951e-04,7.380247155022619243e-04,-1.749460010976440884e-03,1.117466315627098083e-01
2.554284298569568512e-01,1.125498219682947998e-01,1.441189152615260927e-01,-1.265070358723350804e-03,6.920331465018592478e-04,9.917171446863165627e-04,1.300367116928100586e-01
2.557236603758723525e-01,1.405050050786939564e-01,1.102000928570026628e-01,-2.052127441416200953e-04,8.176900569088185180e-04,4.062014399850689093e-03,1.331805139780044556e-01
2.373129815244151009e-01,1.246715050550156190e-01,1.211445880674775488e-01,7.996168930422573951e-04,5.677870215214523078e-04,-1.685099938086987229e-03,1.144955158233642578e-01
2.358808949636042596e-01,1.234762892648910981e-01,1.198147984910923336e-01,8.383893679029680041e-04,-1.175852226866885321e-03,2.654612942227415218e-03,1.143991574645042419e-01
2.465618075301489465e-01,1.279106114662334759e-01,1.269443168140245159e-01,2.631391053482134046e-04,-1.847602894844951177e-04,-4.053531913680747680e-04,1.191406548023223877e-01
2.327528787357624473e-01,1.288479383246889931e-01,1.165824103443078158e-01,1.954942099289310863e-04,6.927183163093033388e-04,-1.423205534308028030e-03,1.105837225914001465e-01
2.393297317321744222e-01,1.406219949241604150e-01,1.215076521891426120e-01,2.620414251759372194e-03,2.620747466135438936e-03,-2.986073099572882170e-03,1.098328903317451477e-01
2.518012304405558011e-01,1.417204763508715659e-01,1.095929307894114302e-01,2.547076547203889194e-04,4.106600262515036799e-03,-4.672234471756177786e-04,1.293754875659942627e-01
2.308515859338159393e-01,1.348411229363438990e-01,1.148392000864600082e-01,4.165348645307413006e-04,6.063101021634905450e-04,-1.657932547058748544e-03,1.074632480740547180e-01
2.497554933682779588e-01,1.439541953576324029e-01,1.111914831017201816e-01,1.224563944236460198e-03,5.945651832846477261e-03,-1.245257048194123219e-03,1.258922219276428223e-01
2.405257841735505275e-01,1.222474452617805379e-01,1.238404808795654094e-01,-6.421247645283623779e-04,7.921438479474946989e-04,8.983081653597213643e-04,1.175135001540184021e-01
2.346913917262557492e-01,1.329586606847231733e-01,1.152594377709377504e-01,1.929208710151761362e-03,1.332118772971350312e-03,-1.040462666292557830e-03,1.117279678583145142e-01
2.286515396480142126e-01,1.225671045047184715e-01,1.396863561832438760e-01,9.402453480424528137e-03,-1.231001293470407277e-03,3.139491424151488134e-03,1.001510024070739746e-01
2.103225373701928524e-01,1.335102628134744729e-01,1.155763721021873802e-01,3.322605566354257071e-03,-5.115178371753278941e-03,4.315242785295268432e-03,8.812928944826126099e-02
2.561661778385315724e-01,1.203474263936778199e-01,1.440557299796512980e-01,-2.261569401783201060e-03,6.192094301752877660e-04,1.064600863906802180e-03,1.257325708866119385e-01
2.221450945267978705e-01,1.296904436344142320e-01,1.188343580558972462e-01,3.684925334690139238e-03,-7.479126867086614318e-03,5.462287685479559098e-03,9.983722120523452759e-02
2.113332001545790151e-01,1.357051537140871733e-01,1.349607470546352328e-01,1.948822755354445019e-03,-5.073287749704581510e-03,5.000658534196432588e-03,7.707192748785018921e-02
2.135929601700707892e-01,1.316116276236859173e-01,1.343440530910492980e-01,3.654711672696887934e-03,-4.002810746392038328e-03,4.732953519985774737e-03,8.160721510648727417e-02
2.159925432089833952e-01,1.221127631586702289e-01,1.237035665870522411e-01,1.034446013806943586e-02,-1.140297916628572883e-02,9.457829465693885426e-03,9.821435064077377319e-02
2.525784198737262565e-01,1.110703632145731978e-01,1.430369498379067128e-01,-1.266964450069484483e-03,1.639366345853208930e-04,9.932019655491325979e-04,1.285718381404876709e-01
2.356727692763476156e-01,1.399906366051876516e-01,1.118172564404146530e-01,3.940825565463894039e-04,9.800934545057340269e-03,2.833070646326035801e-04,1.137250214815139771e-01
2.470687730079491884e-01,1.007034621274536246e-01,1.361987064887609511e-01,-4.234910163865855497e-03,4.532457462324970886e-04,1.318913096449504316e-03,1.324654072523117065e-01
2.553684582167826123e-01,1.190954947381132334e-01,1.418813600852717183e-01,-4.590976155216711097e-03,2.537425929461651145e-03,1.537772560168522429e-03,1.267835199832916260e-01
1.944990650294318446e-01,1.438961267472737282e-01,1.345455911029462548e-01,4.658347344499984277e-03,-2.443528971983977005e-02,7.142983880405283717e-03,7.162870466709136963e-02
2.395150827674475957e-01,1.410456883687115082e-01,1.142251830077583435e-01,-1.037662780716213859e-03,-9.321813028813217411e-03,-1.911973917408125133e-03,1.154618784785270691e-01
2.003929293337140816e-01,1.503936292142287467e-01,1.409499244252885308e-01,-1.806053310550113629e-04,1.291919871003546945e-02,2.889359875012093362e-03,5.989284068346023560e-02
2.377952882205983942e-01,1.297799459572611114e-01,1.192407385666796327e-01,-2.235103903727233838e-04,4.603355809254616824e-04,4.571223992997821141e-04,1.136582493782043457e-01
2.267450786525557205e-01,1.390969016317127049e-01,8.163262766295455164e-02,3.088927241277221458e-02,-3.768305328636786800e-02,3.040512932201554566e-02,1.609871983528137207e-01
2.361681077664516126e-01,1.361988670940222634e-01,1.014806633857400081e-01,-1.256201408361702285e-03,-6.018837036816223653e-03,-2.974056462834889000e-04,1.215879693627357483e-01
2.348891087682985490e-01,1.507506953583827580e-01,1.279289675768627843e-01,-2.989235795050001337e-03,-9.845315125575170370e-03,-2.352550429986935941e-03,9.926977753639221191e-02
2.366857550544350652e-01,1.408802160823291183e-01,1.135990285359373964e-01,1.159005811622659463e-02,-9.208835002978794579e-03,4.178856550879732346e-03,1.150931715965270996e-01
1.315165199182913303e-01,7.743144651490174724e-02,7.693774525286420363e-02,-4.271622984626309572e-02,4.931261054919808956e-02,2.467986457113479498e-02,1.324713528156280518e-01
2.357948641629850628e-01,1.373671513247617382e-01,1.113377419742889451e-01,1.089783794533539423e-03,-4.429621479941340048e-03,1.744634158724193409e-03,1.140136793255805969e-01
2.412981158363377288e-01,1.165806512483509028e-01,1.421685911918232903e-01,-8.041284898174546128e-03,-1.677759938373499368e-03,-2.770811406924580163e-03,1.150799244642257690e-01
2.484674502038592137e-01,1.257021992815613443e-01,1.477668390026475875e-01,-9.835838256559753870e-03,-7.445230979006243859e-03,-8.235785543855404095e-03,1.162299215793609619e-01
2.310953310744214839e-01,1.363350178683926661e-01,1.126535420146278360e-01,3.368141715589280925e-04,6.449552860252800741e-04,-3.807981701052267883e-04,1.085652634501457214e-01
2.315402588850357657e-01,1.128732884722856850e-01,1.358656196659447923e-01,-7.449321335515838704e-04,-1.275323794796210983e-05,4.325325931053898999e-04,1.090151071548461914e-01
2.365133090051452225e-01,1.207082835641367924e-01,1.445103385892179959e-01,5.185837955336491771e-03,2.085055918802257630e-04,9.130663685302650365e-04,1.063214689493179321e-01
2.381491286735717139e-01,1.184609939884721519e-01,1.358073063056664254e-01,1.748710730908272599e-03,-1.751270540567179210e-03,1.340156335130116482e-03,1.121327728033065796e-01
2.320305075505451065e-01,1.156532090798646634e-01,1.354567784723978985e-01,5.626085199342969502e-03,-2.877244100386860005e-03,4.838425374898740888e-03,1.087253242731094360e-01
2.306833180584314524e-01,1.158303164768261367e-01,1.381843317831556450e-01,6.984158523185474187e-04,-9.017168194872031374e-05,-9.574586385185101264e-05,1.054751351475715637e-01
2.317601272486115582e-01,1.163905548294850156e-01,1.367916786811117502e-01,3.721606042452743819e-04,-1.226850823669788874e-04,1.173869706550019140e-03,1.066642850637435913e-01
2.333451393868443691e-01,1.246319534963806208e-01,1.290092747682645424e-01,3.345757858977772359e-04,-5.409948084648775546e-04,4.108840367304365630e-03,1.068349480628967285e-01
2.291809416413826961e-01,1.088861886711504634e-01,1.338617794534648908e-01,3.310725909142224217e-03,-4.652522182234627074e-05,1.652586783915661439e-04,1.101051568984985352e-01
2.531889703138527903e-01,1.329752317621974711e-01,1.086990211957744867e-01,-1.662883696184580778e-04,3.162244394803154831e-03,8.532968939666261618e-03,1.349352747201919556e-01
2.415887046946353922e-01,1.261445532133719238e-01,1.259319764690915999e-01,5.924198931886034362e-04,9.510629516618609915e-04,-9.971315521460453069e-04,1.155797839164733887e-01
2.383778003565618087e-01,1.241861084075150390e-01,1.239568401826573046e-01,4.765036281575395216e-04,5.551032006138997745e-04,-1.012697022811944510e-03,1.143269762396812439e-01
2.384731016237726375e-01,1.236018830276967018e-01,1.226116599184857298e-01,3.608030017302404436e-04,2.678293252829265438e-04,-7.484202992507774446e-04,1.153794229030609131e-01
2.514776812157544783e-01,1.284653533129649361e-01,1.325600843392331640e-01,-6.386337052076540956e-04,3.468168865109585086e-04,7.675934165589373085e-04,1.210307776927947998e-01
2.389226260493272080e-01,1.235009167439724553e-01,1.220250725391016366e-01,3.882046503779668805e-04,2.449426254513695700e-04,-7.234721990207993673e-04,1.161761432886123657e-01
1.520838706611941649e-01,1.469486699645973504e-01,1.653381458435441709e-01,8.659123739617378968e-02,5.606326061911736823e-04,1.294436507595670728e-02,1.525380313396453857e-01
2.390973875260060111e-01,1.233576455511925102e-01,1.214937574753543054e-01,6.117367401009618380e-04,5.569610275642347718e-04,-8.084880172078960257e-04,1.167000532150268555e-01
2.323920236888997182e-01,1.372375947730911927e-01,1.164880533774040605e-01,1.077802460755830345e-04,-8.309352578716404760e-04,1.377655580762009212e-03,1.070846393704414368e-01
2.307510970471627898e-01,1.382047419786520404e-01,1.147126187976845457e-01,-7.976312275074274552e-05,3.542860035216466677e-04,-1.878255325451342911e-04,1.062606200575828552e-01
2.307880745141732692e-01,1.349493149867569408e-01,1.122630054239893149e-01,-1.115896788955153280e-03,1.474501217513153996e-03,7.988537783698115066e-04,1.090235635638237000e-01
2.316047699445436814e-01,1.330303479258045096e-01,1.144062136991502721e-01,5.429240745204247376e-04,-2.149782517750338734e-04,7.137296550988897091e-04,1.090971529483795166e-01
2.325729494719262491e-01,1.367127385590829469e-01,1.162845873054584589e-01,-5.470976964456299364e-05,1.443983162890673472e-04,1.028233285775544646e-03,1.075545400381088257e-01
2.394367445893376134e-01,1.221991050743863605e-01,1.228080319520853808e-01,-3.181846104897825074e-05,-3.619204116653267230e-04,3.731242826578382303e-04,1.169378459453582764e-01
2.487401746407034153e-01,1.203540206441175708e-01,1.330392175779216146e-01,5.051623821330287513e-04,-1.102354698635033990e-03,1.948936334028762403e-03,1.226014718413352966e-01
2.298721480944243001e-01,1.343097763963779223e-01,1.104370914991950753e-01,-5.452269810035469512e-04,2.048657012710286551e-03,5.117941544374087024e-04,1.095338836312294006e-01
2.490485879111123124e-01,1.280882293296085883e-01,2.782346992017345477e-02,-5.860136547787471797e-03,-5.506966909381721953e-02,-2.411634333415567724e-02,2.185367643833160400e-01
2.985194134272690647e-01,1.720839868162288011e-01,1.174612642343042523e-01,-5.517265222817055101e-03,-1.766331321362318504e-02,2.124600234266877524e-03,1.640629321336746216e-01
2.306947893097979208e-01,1.251268444428420001e-01,9.067529404878679755e-02,5.230758826523640610e-03,-1.002514006302644353e-02,4.110451656166222260e-03,1.280732601881027222e-01
2.619918888545859081e-01,1.477181454108822678e-01,1.143067764714151002e-01,1.740318030101101763e-04,-5.578858216762514095e-03,-6.160607041329538552e-04,1.344895958900451660e-01
2.413408383869708462e-01,1.351949152424364864e-01,1.089803657293870187e-01,2.472945632407172467e-03,-5.635239511551524451e-03,1.659023883095818615e-03,1.218958497047424316e-01
2.453236608501456195e-01,1.272378151207629871e-01,1.275886785377081112e-01,-2.751021750496358072e-04,4.315792556951839076e-04,-4.691473928317094080e-05,1.179141625761985779e-01
3.172321509212891466e-01,1.294281092470103145e-01,1.915692693286571158e-01,-6.552988968356234650e-03,6.376632191570849595e-03,-1.134553511415789182e-02,1.676260530948638916e-01
2.434808050479441432e-01,1.266644865444518930e-01,1.223813507074335005e-01,1.534543646827776645e-03,-5.841161261015520275e-04,8.546693708820154870e-04,1.190588772296905518e-01
2.523916602900752038e-01,1.443644399164423775e-01,1.134127752039195691e-01,9.603281582038988590e-05,-2.671846517394251431e-03,1.372206713840481681e-03,1.264855712652206421e-01
9.123907233719691368e-02,1.327119380204681842e-01,1.316068065295518952e-01,2.132227484343848442e-03,-1.382172907739512117e-03,-4.782783286601583264e-03,4.199264571070671082e-02
2.490610233390451733e-01,1.398977579706106866e-01,9.294955550893391205e-02,-8.498176720027273074e-05,-1.021393496287726840e-02,-4.448501265517937819e-04,1.398547887802124023e-01
2.790091327771886398e-01,1.590992272769899130e-01,9.680998131570382748e-02,5.770260401788674526e-03,-2.001977371691781519e-04,1.970700669942461458e-03,1.607454270124435425e-01
2.348504257047767108e-01,1.132553016817894609e-01,1.337010809649848420e-01,-1.887296024231798321e-03,9.559797991709322604e-04,1.538996293703181291e-03,1.128619983792304993e-01
2.646770472248209938e-01,1.496009265730808280e-01,1.128949489529277456e-01,-8.982224972468473827e-04,-3.296636255898933695e-04,-1.303414946153445223e-03,1.371920853853225708e-01
1.887428121888855836e-01,1.341076875616823427e-01,1.301641361768889338e-01,-8.351072791798233932e-03,-4.057299866877668928e-03,-5.215703278395962018e-03,5.963406711816787720e-02
2.586472734638513016e-01,1.454991101110612306e-01,1.066028278638685434e-01,-1.561986471603314522e-04,-2.283637846006893700e-03,1.375896680157645199e-03,1.368863284587860107e-01
2.610475571099005743e-01,1.472452322223529730e-01,1.089288664100427767e-01,-5.295652603992119208e-04,1.154443642931074704e-03,-1.149065785500108646e-03,1.370708048343658447e-01
2.499304042490831934e-01,9.955941470529021398e-02,1.391967507181245678e-01,1.577332159583545029e-03,-9.899638634261413565e-05,-7.877386281882738182e-04,1.350244581699371338e-01
2.314297248747444746e-01,1.375825752110897138e-01,1.148892759851894152e-01,2.845283694565943705e-04,3.367296358548724114e-04,5.117464087897234150e-04,1.070202961564064026e-01
2.372798933149558032e-01,1.429019624198966665e-01,1.221235950597225339e-01,1.620391518085466777e-03,4.620830544487576803e-03,-7.045399039937029310e-04,1.066460311412811279e-01
2.310820874493982879e-01,1.350241130310112780e-01,1.154846932134819537e-01,-8.068584649414199781e-05,5.016222714853466437e-04,-1.153180500156012703e-03,1.071942374110221863e-01
2.286125533643146579e-01,1.320138760457328364e-01,1.077260856434515274e-01,1.980463506030547775e-03,2.683171245836875416e-03,-6.012426933894722374e-04,1.109135672450065613e-01
2.312632701377431987e-01,1.281449519194750863e-01,1.174277627002982272e-01,2.630526922045887776e-03,2.290316141629781827e-03,-3.159912901830621863e-03,1.091779991984367371e-01
2.383494078018275064e-01,1.170689595813810269e-01,1.247066326514073842e-01,8.698087339598735814e-04,1.940061695826931967e-03,-1.434778569608222186e-03,1.177315488457679749e-01
2.368970721003207935e-01,1.274087149856558132e-01,1.209799944264862703e-01,1.301605329744480639e-04,5.312978992939582220e-04,-1.195201961395936287e-03,1.128631085157394409e-01
2.326234049667700865e-01,1.261690435436947366e-01,1.168017250401491292e-01,9.572664524423519410e-04,1.342416228472863163e-03,-2.383567127512960324e-03,1.115467101335525513e-01
2.461155453903483559e-01,1.280537210419585015e-01,1.287445961456294696e-01,-2.108831123744502739e-04,-5.984154371773617207e-06,2.256608494981213740e-04,1.177191212773323059e-01
2.335277593600678103e-01,1.303930419143723429e-01,1.183436728570605584e-01,6.460905978363028039e-04,7.216302099913213296e-04,-2.267773281786201415e-03,1.097401827573776245e-01
2.443094982087879730e-01,1.267209612730610391e-01,1.184953826108984670e-01,3.087871687456603858e-04,-1.499591545626932939e-05,2.382062100265194046e-03,1.219806000590324402e-01
2.527562833891506822e-01,1.368364521255529820e-01,1.187885543495568741e-01,1.103359470533602687e-03,-3.004153718293540391e-04,3.001456139657048949e-03,1.260404437780380249e-01
2.318671072473783012e-01,1.168125785813031725e-01,1.278762637726981455e-01,2.729433432689175689e-04,2.315916831109211945e-04,1.119810117262335855e-03,1.099598482251167297e-01
2.363354218887145086e-01,1.372413472999301776e-01,1.122586724873043951e-01,-3.033220713945263252e-04,1.589279493712608855e-03,6.174468538795165832e-04,1.137031316757202148e-01
2.445685154778846904e-01,1.242315960451978174e-01,1.254084291941887364e-01,-5.238834193094718539e-04,3.424608054547988840e-04,1.698736708764210903e-03,1.197938844561576843e-01
2.469641270996831561e-01,1.284804022574916327e-01,1.279456014497280802e-01,-1.586874323005452083e-04,-1.831325241335401391e-04,2.469861866038377792e-04,1.187535375356674194e-01
2.446212827301326720e-01,1.262768441962453803e-01,1.252533899657414795e-01,-4.612975779273608052e-04,-1.336521530135752265e-04,3.261290103584875400e-04,1.188637241721153259e-01
2.444188648543612064e-01,1.241409300338504468e-01,1.254667997982997496e-01,-4.514690507205913251e-04,5.518495769492331613e-04,1.531542890581473037e-03,1.196562945842742920e-01
2.473130204382395780e-01,1.297937819769530710e-01,1.290320185373060591e-01,5.299897899801108651e-04,-1.240678923443056013e-04,-1.879250436391872623e-04,1.179061830043792725e-01
2.504768579726175948e-01,1.312413900831972124e-01,1.310643600872597458e-01,-3.419487296546680792e-04,-3.678214256368137185e-04,2.391850260614483605e-03,1.193991452455520630e-01
2.454537506071785558e-01,1.269594055682145006e-01,1.250061817575826295e-01,-4.379548651621363239e-04,-7.036852188818913266e-05,1.540135080726221049e-03,1.195151731371879578e-01
2.439622755957867595e-01,1.258743334010860582e-01,1.247208133391189133e-01,5.219668434159474438e-04,-2.427615038320093727e-04,4.941937657977965711e-04,1.186761856079101562e-01
2.432771131262456421e-01,1.198578871838028304e-01,1.303815825359241898e-01,1.294464299527041569e-03,-2.574993765008897189e-03,1.484302684237177612e-03,1.186412870883941650e-01
2.446680694699174541e-01,1.213603203364870681e-01,1.327270530771031409e-01,1.279745147206443100e-03,-2.069370806475528349e-03,1.302682300416234526e-03,1.181323379278182983e-01
2.475768142485921253e-01,1.290986984440766205e-01,1.285807636857543568e-01,-7.936363205482901300e-05,1.838007850126089488e-04,3.291610259448628640e-04,1.187398061156272888e-01
2.458791703412331608e-01,1.260115225470794798e-01,1.276406885807472857e-01,3.212895228726571383e-05,-1.964594823649327298e-04,1.248583824579164656e-03,1.190815642476081848e-01
2.201273335396845277e-01,1.064984447463954709e-01,1.277536138234987850e-01,-6.505286969215732726e-03,2.402928040191091696e-03,2.418614327893256737e-03,1.054036691784858704e-01
2.338057037340273703e-01,1.124528271722834566e-01,1.348977171886711623e-01,-2.169683327261969635e-03,1.808191013371755317e-03,9.859832490372436899e-04,1.119526252150535583e-01
2.478152428173873156e-01,1.197924974013582361e-01,1.324847031447846379e-01,4.392051654651467590e-04,-1.146714266813821754e-03,1.936862258047394349e-03,1.222366616129875183e-01
2.488309301212772717e-01,1.313708958753361800e-01,1.101194127979981396e-01,7.792140917877651840e-03,-1.294584243029286985e-02,1.316097675722993111e-02,1.339748352766036987e-01
2.284773051367830210e-01,1.242098889593872130e-01,1.340391920206994159e-01,-7.737499330357581681e-03,1.975422994925785103e-03,5.264808448943565644e-03,1.010836362838745117e-01
2.043908450030947899e-01,1.015128015005309636e-01,1.162696745126492875e-01,-1.452578771685102479e-02,7.686403337667822161e-03,8.951614398751559648e-03,1.016569286584854126e-01
2.342456344738524932e-01,1.163313112549248518e-01,1.326627278497499729e-01,-3.068481264873920613e-03,2.367041621782440489e-03,3.260318116310042657e-03,1.110033318400382996e-01
2.364264597702381288e-01,7.489593677920750037e-02,5.987600980651458515e-02,2.483507159285569185e-02,4.400179096910386556e-02,-5.676645497214202057e-02,2.146392166614532471e-01
2.144254817703059035e-01,5.848338490567981524e-02,4.375015258034629234e-02,4.732858197725060834e-02,4.529375615512482023e-02,-5.722041654856700049e-02,2.225525081157684326e-01
2.479043665983766687e-01,8.738764211046608221e-02,1.144523738706879068e-01,1.804638990831702828e-03,5.284597184895702517e-04,-1.892536901415809575e-02,1.524430811405181885e-01
2.997098938463756967e-01,1.697747958642609467e-01,1.669241278963913833e-01,1.781255888392586570e-02,2.098152881288003688e-02,-2.766595968610539164e-02,1.477511674165725708e-01
2.039885081544840495e-01,1.253465552562563479e-01,1.415485454432894585e-01,2.472476998659243336e-03,-1.549383542328863989e-03,2.511805785887640755e-03,7.223138958215713501e-02
2.465950780839142875e-01,1.207836131272395086e-01,1.333926055839231850e-01,-1.554081662813149760e-03,1.536045526612052564e-03,2.037226893143120714e-03,1.201163232326507568e-01
2.441256319796806240e-01,1.237257316914223970e-01,1.280949266167847878e-01,-3.982199398891390690e-04,1.297180030343982309e-03,1.269547355642101482e-03,1.183196306228637695e-01
2.460041220998434586e-01,1.206793282680577450e-01,1.321018170333335962e-01,-2.033360770550567478e-03,1.130838083062264644e-03,2.166361103922227922e-03,1.201481372117996216e-01
1.491619339858400173e-01,1.354997906151027554e-01,1.459550464375498069e-01,-2.598033207872966349e-02,-1.945097726606874466e-02,-3.876108874755493372e-03,5.794956907629966736e-02
2.438004241292915930e-01,1.224612812619643720e-01,1.281097307637793226e-01,3.977597701034386174e-04,-1.283375551738106385e-03,6.119911140859323135e-04,1.186433881521224976e-01
2.462620829855971527e-01,1.279063449097543881e-01,1.268304588388802778e-01,2.093910736379484287e-04,-1.710299281303865704e-04,-1.068431199490761912e-03,1.189126521348953247e-01
2.361327996525412476e-01,1.190927662800384534e-01,1.198548450492842032e-01,-2.733166415199293330e-03,-2.420101079764762093e-03,-2.358748585614389368e-03,1.169034987688064575e-01
2.431530277915722738e-01,1.260975917930707291e-01,1.245336610482867673e-01,1.049224417130143871e-04,-2.371235307142259563e-04,-6.621435096030134533e-04,1.178516224026679993e-01
2.444015093918247006e-01,1.202704413910916093e-01,1.324343774502967919e-01,-2.038028713688090285e-03,9.715132748821325931e-04,2.169785641014154113e-03,1.186422258615493774e-01
2.355767488702915635e-01,1.101492829960066255e-01,1.259459073923013817e-01,-2.666946343364948353e-03,2.681369443543305236e-03,5.876750434092458840e-04,1.185082048177719116e-01
2.546796414414773113e-01,1.140987321054473813e-01,1.418240405489208378e-01,-2.287619013786262173e-02,-9.565933012421531240e-03,-1.168846286423741963e-02,1.374349892139434814e-01
2.347926369788523870e-01,1.283918422898581713e-01,1.173239398349330276e-01,1.172099313377476760e-03,-7.288433139819258146e-04,7.888525599379480474e-04,1.123781278729438782e-01
2.438116502190807167e-01,1.109648554664765668e-01,1.403267761680921100e-01,-3.078425406776670158e-03,2.517622396355299452e-04,3.001490952812219744e-04,1.209902763366699219e-01
2.393708358102870359e-01,1.223393139222012649e-01,1.228483780052481156e-01,-3.020672071825371784e-04,-5.849255927992712874e-04,-2.839604760328400305e-04,1.167844235897064209e-01
2.404023633605158194e-01,1.218044246741667724e-01,1.240107540873482406e-01,-4.911748637416440012e-04,-8.079267055367958051e-04,-7.749716123346416007e-04,1.175293847918510437e-01
2.401470134229916897e-01,1.210800862200282213e-01,1.229524835437179608e-01,-4.771695457585830723e-04,8.140768870856048998e-04,1.289870141828253821e-03,1.181742846965789795e-01
2.429727388328315474e-01,1.248943879928849088e-01,1.244511717045354293e-01,-5.313025103293349868e-04,2.196275533864906060e-05,3.111044267098144367e-04,1.183053925633430481e-01
2.471043950057557614e-01,1.262821438220768089e-01,1.309848379532427831e-01,-8.555587942721970280e-05,-4.327755873503406079e-04,6.200802263839933241e-04,1.185482144355773926e-01
2.463433635621291307e-01,1.222314630098099986e-01,1.347084515064267962e-01,-6.434690842413265735e-03,3.306019474326760479e-03,5.631569845372595175e-03,1.194279938936233521e-01
2.462424101269143351e-01,1.195478315968345195e-01,1.308341924636167719e-01,-1.505078533600203274e-03,1.134087564945805834e-03,1.938030104595434618e-03,1.215355917811393738e-01
2.552840737711378205e-01,1.327327723180391494e-01,1.344636343642980347e-01,7.201151893172565458e-04,-5.394938303533919273e-05,4.777780256529700828e-03,1.219825595617294312e-01
2.510131223796292499e-01,1.299205270724831107e-01,1.330236782296721210e-01,-2.419582059867983383e-03,4.551732675741298161e-03,8.104216093052490216e-03,1.207229495048522949e-01
1.333792154727119206e-01,1.659854774116664711e-01,1.753754856002059936e-01,-3.101324415708926058e-02,-3.409799774302936515e-02,-2.678907708400005225e-03,8.861448615789413452e-02
2.329738882417903278e-01,4.279590696711021991e-03,1.258162222999490709e-01,-4.964659839391479673e-02,5.628352685668534632e-03,7.014825281748256376e-03,2.165975868701934814e-01
2.634440530503007194e-01,1.285329851181137018e-02,1.170718204754146868e-01,-1.844965777498873763e-02,-7.623359042659102504e-04,2.873627555827631269e-02,2.259231358766555786e-01
1.608787781975015152e-01,1.623485164107661138e-01,1.710583500041554794e-01,-3.621065142638524997e-02,-6.269495640492162708e-03,-2.222062506543079959e-03,6.447626650333404541e-02
2.217032816237540782e-01,-4.360514777521112828e-03,7.581854771110679847e-02,-5.571138781241968124e-02,1.936010101462230792e-02,4.690996419222565744e-02,2.375821769237518311e-01
2.295428234342881402e-01,1.151136872222283253e-01,1.242063272067786550e-01,-2.648511300649066934e-03,-1.817627283295370063e-03,-2.828196313877149367e-03,1.104137301445007324e-01
1.905550025879014231e-01,9.834561318072407299e-02,1.208764697381312647e-01,-1.831191100458094689e-02,4.433658256208527527e-03,3.488620585963398465e-03,8.963323384523391724e-02
2.202976206044553742e-01,1.184779513154340796e-01,1.328346723928887640e-01,-6.484087336086134974e-03,-1.425307682026333853e-03,-5.058808268224737267e-03,9.654306620359420776e-02
2.258324668887218833e-01,1.183617382170721599e-01,1.368057247412569621e-01,-1.203956488525540500e-03,-8.424243881485756012e-04,-2.731743387288894116e-03,9.968356788158416748e-02
2.328396081183103372e-01,1.144487961568743106e-01,1.381019233488231801e-01,-5.533240915609905636e-04,-3.166749895166365140e-04,9.467794660689348525e-05,1.085209101438522339e-01
2.407742210396081883e-01,1.220428524957917343e-01,1.328460501615276179e-01,-2.216918557980411184e-04,2.071187913324014449e-03,1.139448056770227128e-03,1.137896329164505005e-01
2.514639347858806939e-01,1.125787700365471211e-01,1.318123108530946386e-01,8.040004954890933586e-04,4.682862610748373083e-04,-6.621304682557910097e-03,1.308506280183792114e-01
2.622830461777507782e-01,1.164135619877620098e-01,1.435668613604402510e-01,-7.035011526606584596e-04,9.162384840410617813e-04,-2.486617139150112000e-03,1.344504505395889282e-01
2.582352052094105677e-01,1.085634841988793176e-01,1.455166343278258001e-01,3.393865302812323643e-03,2.204499958669421580e-03,-2.156303304915878349e-02,1.402866542339324951e-01
2.477081454568254015e-01,1.246795042257528574e-01,1.302513370706979423e-01,2.870869558939678572e-04,-7.527822829590415229e-04,1.257253187970795889e-03,1.203672960400581360e-01
2.469587127549083827e-01,1.300196298186195309e-01,1.247341388022372988e-01,2.756227210073961247e-03,-1.515973051622622947e-03,4.306923733121397618e-03,1.200254112482070923e-01
2.387289426172948814e-01,1.261982940924005758e-01,1.189941733488474596e-01,1.727092903802055065e-03,-7.271345232334840408e-04,1.107401072162000812e-03,1.163612678647041321e-01
3.162832808793432093e-01,1.389246718963624838e-01,1.863282982245467179e-01,1.441774047055380086e-02,3.112428055137047688e-03,-1.468419455793986902e-02,1.630806326866149902e-01
2.803135257113068546e-01,9.321364190117581439e-02,1.526667423234019383e-01,4.692175636006094830e-03,1.133151929882619639e-02,-7.483557581329346696e-03,1.674414575099945068e-01
2.374032432922628111e-01,1.190168771058249253e-01,1.246793689596722432e-01,9.728054543352146130e-04,-1.556707285896875240e-03,1.113581004976022405e-03,1.157188937067985535e-01
2.629241222370093389e-01,1.129206882837454351e-01,1.489129459959371571e-01,1.157279416926602363e-04,3.590078181194782098e-05,-4.390494166382073044e-03,1.358505934476852417e-01
2.687420937163444434e-01,1.740825426903358786e-01,1.523591322861233555e-01,2.286560996549611910e-02,-3.143957278956977658e-02,1.718198966895326599e-02,1.300314366817474365e-01
2.502697508571183338e-01,1.270464358920088133e-01,1.323897487606305878e-01,-3.354499820892288217e-04,1.194721920250836432e-04,9.250843014771946166e-04,1.206526532769203186e-01
2.178410847449452070e-01,1.381737193638110373e-01,1.237046561572477110e-01,9.334980124330328685e-03,-1.108694827985874133e-02,1.130888242106809632e-02,9.339600801467895508e-02
2.337291140296244019e-01,1.445695511364937236e-01,1.238084676608465218e-01,3.056055304568683351e-02,-2.630871457155800272e-02,1.440599655961473380e-02,1.254288107156753540e-01
2.409548209158554610e-01,1.373325890191746113e-01,1.068863856257736278e-01,1.408320546483715716e-04,-4.229749986133517388e-03,4.636579148063875119e-04,1.219582632184028625e-01
2.468086535862394626e-01,1.248223782831721640e-01,1.300086904665703758e-01,-2.922934499016771397e-05,-6.575826398544850227e-04,9.650627959513991211e-04,1.194947063922882080e-01
2.313779185510396741e-01,1.297877782225989041e-01,1.170021724204218794e-01,2.694859559528191978e-03,-2.732596295106494693e-03,4.331062589042279469e-03,1.090109273791313171e-01
2.423551729029700674e-01,1.378296255857295316e-01,1.098121108220858066e-01,2.478536239337541039e-03,-3.195583816901926850e-03,2.533738677446426436e-03,1.212742403149604797e-01
2.334891773367809287e-01,1.324263251185905377e-01,1.051837314321333733e-01,3.824713938741115642e-03,-3.166203177249185628e-03,2.735558605989068734e-03,1.174967363476753235e-01
2.483594884745898290e-01,1.260934949852900999e-01,1.304618199106796494e-01,-7.218238183601619886e-04,1.140718307320571535e-03,9.270869285880604287e-04,1.201748847961425781e-01
1.688388597657057011e-01,1.495303274075537037e-01,1.505446360154874541e-01,-1.994693491472654748e-03,6.361702728462010660e-04,2.064059662741717332e-04,1.917137950658798218e-02
2.569687291955372044e-01,1.403719647219565658e-01,1.138589661826872601e-01,9.517309462704886397e-04,1.954632978253287388e-03,-1.210277187334428189e-03,1.319380402565002441e-01
2.374385855816467106e-01,1.306996476468981205e-01,1.143934829664879360e-01,2.382941676096791798e-03,-1.843699029626611570e-03,2.036562073390803425e-03,1.159278675913810730e-01
2.441218441943223127e-01,1.236719432903860966e-01,1.279742289873786187e-01,-4.081360348899844260e-04,1.279845356446121475e-03,1.286345800666387727e-03,1.184012517333030701e-01
2.469065231308722463e-01,1.279652338482776819e-01,1.282138613184813924e-01,1.513289440363536182e-04,3.121839194111397534e-05,3.582887022892326367e-04,1.188190951943397522e-01
2.247755315798661280e-01,1.308954566798923302e-01,1.075318402646783522e-01,-1.490477551681383770e-03,3.365784222099867714e-03,7.512323396310396613e-04,1.076803058385848999e-01
2.323798927141860760e-01,1.395565424939963772e-01,1.195376184036474332e-01,-1.304351107387964007e-03,5.949856565925321257e-03,2.432801892485999228e-03,1.049009859561920166e-01
2.384628446169554383e-01,1.330156401611685968e-01,1.069135080859979492e-01,-4.137046342744152630e-03,2.882780610486913777e-03,2.445429176153520855e-03,1.210249885916709900e-01
2.309072262811969756e-01,1.367806159835943114e-01,1.165126023689249807e-01,-1.321202033685721583e-03,6.058059476117314164e-03,1.621209770856805663e-03,1.063089519739151001e-01
2.248636905140778963e-01,1.114167142964048174e-01,1.342941836680809076e-01,2.410105540430614816e-03,-7.645876213033408098e-05,-6.976706816344798237e-04,1.040053814649581909e-01
2.303023519139239528e-01,1.110654501682728224e-01,1.367406569268796168e-01,2.100640988485746354e-03,2.997361966059898888e-04,1.853139850718940021e-04,1.087604388594627380e-01
2.431472811486427854e-01,1.245108983109849410e-01,1.221277687143885043e-01,-1.191746687215634480e-03,6.777126223254105160e-04,7.403134692610559417e-04,1.198761016130447388e-01
2.235603146399831598e-01,1.106305393547441784e-01,1.336138711655620592e-01,3.030711228001312010e-03,1.797492786652361396e-04,-1.270868079259583356e-03,1.035295277833938599e-01
2.456866753438076978e-01,1.244839849313822411e-01,1.288647068685097319e-01,-4.396480554982935178e-04,5.771994587312472436e-04,9.272778564491233238e-04,1.190902441740036011e-01
2.371256216993586075e-01,1.199283396300531712e-01,1.242080676090786817e-01,-1.263317293278669871e-04,1.199817833778993081e-04,5.800353189331885735e-04,1.151218786835670471e-01
2.323970132886717110e-01,1.148665886318941121e-01,1.381215874538350707e-01,7.356732657790349041e-04,-1.531000588599289018e-04,2.650077471433602474e-04,1.078096926212310791e-01
2.518008805871189137e-01,1.979608485181982569e-01,1.699754347835415458e-01,2.829930832216375814e-04,-3.497342297060855587e-02,-7.497828537429091574e-05,9.411878883838653564e-02
2.457853496985209496e-01,1.270634890907836045e-01,1.277741547754590590e-01,-3.144901782755677626e-04,2.936274042716137162e-04,5.213351018805015887e-04,1.183739155530929565e-01
2.374523228858074209e-01,1.228003440591912271e-01,1.203408456342403288e-01,-1.040789910519400625e-03,7.144849139648404811e-04,5.526238217101544798e-04,1.159258782863616943e-01
1.774120321371303044e-01,1.832462421337973657e-01,1.688696479790879612e-01,-4.396514137147032597e-02,-5.475789661463734137e-02,-1.469785356069724588e-02,1.248960047960281372e-01
1.742891033890071051e-01,1.524424721665169902e-01,1.486401977974913802e-01,-6.433002588688088025e-03,2.281505508248187972e-03,1.565224410198100789e-03,2.686848677694797516e-02
1.515684554723286670e-01,1.155887067734479717e-01,8.298680650199391495e-02,-3.812935899814091922e-02,-6.011081668519460686e-02,-2.815817470921877508e-02,1.452947258949279785e-01
2.124753479674707513e-01,1.250299635556224032e-01,1.128269994738618220e-01,-1.175283204800369082e-02,-1.801259455853145355e-02,-8.441332450683909638e-03,1.022947505116462708e-01
2.526159888589723512e-01,1.775888399775006621e-01,1.445297405676630176e-01,-6.369187008085161125e-03,-4.427140957876146699e-02,-1.235343160397640166e-02,1.251467168331146240e-01
1.838999259206792747e-01,1.387490738020366876e-01,1.248410071547577521e-01,-6.679964585684816658e-03,-3.085628854881974220e-02,-8.093319768427184591e-03,7.776051759719848633e-02
3.209697966067397434e-01,1.716402746717455852e-01,1.645447019761667462e-01,-3.039320588830226634e-03,5.382420430952107072e-03,2.738580100815216078e-02,1.605422049760818481e-01
2.676911464509272309e-01,1.488699047803991593e-01,1.288092137850748164e-01,-1.927012654313454249e-04,1.549132763935786965e-03,9.948216239267382993e-03,1.311821937561035156e-01
2.512625740201754332e-01,1.289975665211940403e-01,1.208916819974646395e-01,4.861099551044010354e-04,1.154472818724691261e-03,3.539195739003015220e-03,1.266798675060272217e-01
2.555632407112956028e-01,1.380595962380480601e-01,1.243573575036835133e-01,-2.450299077880688518e-04,1.696775259435439904e-03,2.187395243339919360e-03,1.250123679637908936e-01
2.440747891909427758e-01,1.256428678354043205e-01,1.184089510406847734e-01,-1.585320957194972624e-04,-2.861248124324397503e-04,2.893942256199424565e-03,1.223136186599731445e-01
2.449191349552917729e-01,1.258034143700747509e-01,1.083646059762247704e-01,2.616398496078889586e-03,-1.640349396237647224e-03,6.175852975519660615e-03,1.292785257101058960e-01
2.507601371519455613e-01,1.345897775316153844e-01,1.142408624478869344e-01,5.668102441749352108e-04,8.630751303768962766e-04,4.925529146380116900e-03,1.278653740882873535e-01
2.549436605388537003e-01,1.367043363711218651e-01,1.166913358839033743e-01,-1.474110291626236227e-03,-3.880071914591356553e-04,4.289650044906457779e-03,1.296516656875610352e-01
2.378905051985338581e-01,1.309449854220436638e-01,1.167424208869994873e-01,3.434247215131736291e-03,-5.893874360766214113e-03,5.159097768828150091e-03,1.156607195734977722e-01
3.083373771150900722e-01,1.587394540705159840e-01,1.307882921849569668e-01,1.135193099625147854e-02,-1.865513238891294140e-02,2.730002512846085513e-02,1.760930418968200684e-01
2.412523664496601383e-01,1.400914036969386212e-01,1.336696073794472472e-01,6.581610044045374877e-03,-1.078256244162046143e-02,8.593060317398244427e-03,1.078178137540817261e-01
2.460777257021841691e-01,1.345406289766047647e-01,9.594735576353817519e-02,2.331128119286269684e-03,-9.471550498042829655e-03,9.833119252772656513e-03,1.371497362852096558e-01
2.513158560563359956e-01,1.410050261304851005e-01,1.080461345065298340e-01,3.020690671174943234e-03,-2.936520016647735896e-03,3.956286608635576664e-03,1.303483396768569946e-01
2.509835023697199463e-01,1.356402622373050759e-01,1.177143997446088719e-01,5.022455753262140919e-04,-3.641325640073784283e-04,2.826635697428694742e-03,1.253720521926879883e-01
2.576075621495216295e-01,1.329026975757202078e-01,1.088883355995098612e-01,9.220321085395175378e-03,-7.359080843122441052e-04,1.338196249072214766e-02,1.411261856555938721e-01
2.432156699232841390e-01,1.315661600194027447e-01,1.195367266896281283e-01,1.848290843500170798e-03,-1.116881461520794578e-03,1.069624665472679488e-03,1.181982383131980896e-01
2.538470093275881356e-01,1.405860809102579267e-01,1.082796639030802199e-01,3.265385906537368816e-04,-1.227517980655759523e-03,4.514855961317048444e-03,1.326528936624526978e-01
2.397220785005830246e-01,1.222831050059208224e-01,1.230675044124609763e-01,2.356870249807918442e-04,-6.173534600382054021e-04,3.420137347870587331e-04,1.170558407902717590e-01
2.444366786026534177e-01,1.256613615951963914e-01,1.230261809099028880e-01,-7.356596792736577739e-04,-7.071738378543080284e-04,-1.647505259947234808e-03,1.201614812016487122e-01
2.478341132950390713e-01,1.283697424875832604e-01,1.294672590561353198e-01,6.179727547269563040e-05,2.881417546935985266e-04,3.401431028298968319e-04,1.189219653606414795e-01
2.478195157060665288e-01,1.332707980459730546e-01,1.233400798296530598e-01,-2.093231221711395421e-03,-5.142216734621950095e-04,-1.426862653817974032e-03,1.199067309498786926e-01
2.471916538291802079e-01,1.289321724937338987e-01,1.283188571952222079e-01,1.177693766496541099e-04,-1.049443751703154449e-04,-5.074169297884760380e-04,1.185709014534950256e-01
2.460101678007249326e-01,1.268601230561934856e-01,1.274275182417712038e-01,-6.742304068121465957e-06,-2.280326077421142305e-04,2.585593264823205103e-04,1.188688650727272034e-01
2.471486737382845300e-01,1.284914581529694455e-01,1.273255044730937646e-01,-4.373434593423030487e-04,-6.463551159080000363e-05,-4.803937409130181867e-04,1.192498281598091125e-01
2.449594751394099101e-01,1.237474920679854651e-01,1.247277466087707010e-01,-2.804244229318545605e-04,-1.564710099741612674e-04,-1.448296196681648140e-03,1.207521781325340271e-01
2.498258549786073202e-01,1.301559320356801552e-01,1.290819122546944531e-01,-3.250006557963171379e-04,-1.062569799386163137e-03,-2.330100219902731754e-03,1.202936545014381409e-01
2.470943783174372188e-01,1.284148877516424203e-01,1.288074534204425858e-01,-1.182417593351205198e-04,1.285757039327877871e-04,1.795291066735944590e-04,1.184844896197319031e-01
2.481499982041565078e-01,1.289906108541025997e-01,1.277407430357824225e-01,-2.369753984206413142e-04,-1.414161433926840140e-03,-2.290283241208261860e-03,1.198806017637252808e-01
2.444981883020513336e-01,1.258383328636390741e-01,1.234972949003581011e-01,-3.941202611098395614e-04,-4.324778160741549345e-04,-1.517814461672921172e-03,1.198806390166282654e-01
2.447724620674039397e-01,1.263708425738011842e-01,1.254509887264376733e-01,-3.552954038452270000e-04,-1.561314396073340690e-04,-2.505685921848788285e-04,1.188669055700302124e-01
2.391474451020546843e-01,1.263891808442390297e-01,1.220979613940609693e-01,-1.636351969392646532e-03,1.235342317823997322e-03,2.526465434134325151e-03,1.151020079851150513e-01
2.457709843436595154e-01,1.266809649593967912e-01,1.269059264890296801e-01,-2.770097061061643599e-04,1.718019661481312967e-04,4.595200133564310242e-04,1.189816966652870178e-01
2.329037583394612532e-01,1.236124750737816191e-01,1.160854858654151445e-01,-1.967668854357792953e-03,1.177946403646880922e-03,9.411198417926358410e-04,1.133239120244979858e-01
2.432409493771755249e-01,1.243651380789512206e-01,1.246830266507596707e-01,-3.194152156937481038e-04,2.429630440193452821e-04,4.573843453366672725e-04,1.187218651175498962e-01
2.386712278476117166e-01,1.254075837134375759e-01,1.216156462106474240e-01,-8.764835404732190804e-04,8.498860059121152264e-05,5.790655277951109198e-04,1.152208894491195679e-01
2.365229219968102425e-01,1.262492253316000734e-01,1.194633857989414738e-01,-1.124991878307002964e-03,1.196067254248586850e-04,5.835277418162053854e-04,1.138397827744483948e-01
2.685492621522852508e-01,3.089443592978613484e-02,1.751744759243075156e-01,9.030074901798539402e-03,1.752232566573112132e-02,3.307651347162486599e-02,2.178430408239364624e-01
2.373513149493228780e-01,1.336527191443255824e-01,1.129374082907079191e-01,-1.390988634169131391e-03,1.444271189633014596e-03,9.472653715234884923e-04,1.155224069952964783e-01
2.381470181721885293e-01,1.200903695979245178e-01,1.278026309926919846e-01,1.910100586674911964e-04,-6.457902320492121297e-04,9.211676741475717219e-04,1.144127324223518372e-01
2.401258952990086293e-01,1.227087722895338073e-01,1.289162825750353736e-01,2.210712828816301274e-03,-1.917690994227634572e-03,3.073389757610893447e-03,1.146755293011665344e-01
2.401029286987412248e-01,1.245179993301576138e-01,1.237883018613810671e-01,-3.734698035671128323e-04,1.654010698572382098e-04,-9.653023617713879647e-08,1.159536615014076233e-01
2.355507359001721146e-01,1.184329459678916119e-01,1.209946623507409114e-01,9.366261847627054341e-04,-7.237522802877007421e-04,7.464200633623403573e-04,1.158835217356681824e-01
2.416008332937049641e-01,1.250779201149617992e-01,1.281310755264689349e-01,1.074951258443943534e-03,-2.140779432005115480e-03,2.804409222270129714e-03,1.152039840817451477e-01
2.379207700293427818e-01,1.224899048793688106e-01,1.242311839911881266e-01,1.290229339619010590e-03,-7.809112400591254827e-04,2.180468734786923223e-03,1.146621406078338623e-01
2.399113195591380809e-01,1.351705724858505708e-01,1.253514910048076081e-01,-1.882161123247840353e-03,2.445271921144715789e-03,2.763933786950519174e-03,1.102133393287658691e-01
2.323176100451424531e-01,1.281853702036984677e-01,1.152295605667652822e-01,-1.368937069881013277e-03,4.580276042218552317e-04,9.958841111754066031e-04,1.112192422151565552e-01
2.343571070820815172e-01,1.289831845221517115e-01,1.153674519554865885e-01,-1.908860672246763968e-03,9.942059744401138439e-04,1.167595201375869326e-03,1.128794997930526733e-01
2.362180594775312170e-01,1.230973361536300270e-01,1.167893009600694254e-01,-1.645442915407723363e-03,8.549284787671101830e-04,1.415384528593681412e-03,1.164731010794639587e-01
2.329648801564617733e-01,1.244882308475757648e-01,1.182210946460184320e-01,-8.142502284215103088e-04,1.642687468414094284e-03,2.898976688787028005e-03,1.118999347090721130e-01
2.310946346099613802e-01,1.278244603915689726e-01,1.155451214299136609e-01,-4.066244576150021680e-04,3.212352745995646140e-04,1.898169913601262032e-03,1.099782511591911316e-01
1.739439234511314936e-01,1.033830348648873132e-01,1.061156897927438558e-01,2.254459030704554154e-02,1.515441037339498170e-02,-7.442387125825631992e-03,8.469592034816741943e-02
2.819693473086519186e-01,1.441330059933603747e-01,1.673896379001812429e-01,2.736785027731529138e-02,2.332066381295895205e-02,-2.093418178208665548e-02,1.467221677303314209e-01
2.219765856632540946e-01,1.323801187447242178e-01,1.319761811316795541e-01,6.590858878398974004e-03,5.211516950287637014e-03,-6.803875045079260664e-03,9.173090010881423950e-02
2.398750989701241565e-01,1.147841879333683923e-01,1.317930637335846256e-01,6.315358262960034039e-03,2.552660184316025115e-03,-3.693739744867275635e-03,1.182772740721702576e-01
1.828214808393552882e-01,1.096992397011003068e-01,1.193789069716100493e-01,9.872490591565998702e-03,3.782430318382652961e-03,-6.663411606201373114e-03,7.211990654468536377e-02
2.121347146699663344e-01,1.197133771588734519e-01,1.327764430268103812e-01,2.672138611673852745e-03,2.620903964126311721e-03,-3.719372140425591597e-03,8.711240440607070923e-02
2.091415163168953428e-01,1.112682505043170178e-01,1.276145237166409763e-01,5.016055828010524895e-03,2.913252319018966481e-03,-5.152439931127766014e-03,9.179923683404922485e-02
2.459249981255724471e-01,1.273044197616089446e-01,1.260018929204290705e-01,1.017529495570510553e-04,4.424957410135933657e-05,-9.018053140225465621e-04,1.192875578999519348e-01
2.041152573137821891e-01,1.029030811916962496e-01,1.217891044173985693e-01,6.325401618114574742e-03,1.703594899825214672e-03,-3.529391246152481856e-03,9.410206973552703857e-02
2.161044193248959078e-01,1.113325891773730286e-01,1.226160925343786345e-01,3.824560975710867856e-03,2.282155645103119048e-03,-5.170572938215320553e-03,1.003093793988227844e-01
3.237806654345371515e-01,1.561855780650152070e-01,1.594933206322749208e-01,1.397897785561691766e-02,-7.248462603619161386e-03,3.260151568676434436e-02,1.774179339408874512e-01
2.411943409984023123e-01,8.622685944203495323e-02,1.155367578352736735e-01,3.991127711901910381e-03,-2.299111251354366958e-03,1.662888235529670980e-02,1.456884145736694336e-01
1.928161534931858989e-01,1.371276812024707914e-01,1.481039174576918860e-01,-4.270744088971775189e-03,9.773289436649209086e-04,-9.557396632313819697e-04,5.167937278747558594e-02
2.560239765900787501e-01,1.210725353318557740e-01,1.371534165527810711e-01,2.183041689437872825e-03,8.779181923185781561e-04,8.479440822510755232e-03,1.285793930292129517e-01
2.980941798785826102e-01,1.291696228000510649e-01,1.496239957527782938e-01,1.302760621899223814e-02,-1.763027583782359950e-02,2.097839951749815718e-02,1.681087613105773926e-01
2.704716428290553365e-01,1.288626097420098870e-01,1.382976601307516484e-01,8.818094744709956958e-04,-2.553271227578077229e-03,1.474461566515278613e-02,1.395713090896606445e-01
2.485614337656955053e-01,1.367853776840741720e-01,1.048157790406943624e-01,-2.704020644873850621e-03,4.594020392677197924e-03,6.087208207258771979e-03,1.314754337072372437e-01
2.754134385789739348e-01,1.548264315072520325e-01,1.266272481916907722e-01,3.986120430454661613e-03,1.750856947475304057e-02,2.038630569127578354e-02,1.447445899248123169e-01
2.349258205942027777e-01,1.354102651174819150e-01,1.036771383204043995e-01,-1.070642147752512430e-02,2.383846038397259906e-02,1.501016329016790531e-02,1.295873820781707764e-01
2.488367769780929772e-01,1.351342269236205929e-01,1.161194636026935956e-01,-1.586597570652208784e-03,1.363414808915560262e-03,2.401542492905351951e-03,1.244278475642204285e-01
2.401025027204229390e-01,1.278057765714466776e-01,1.249892546867921173e-01,4.262484021874812378e-04,3.479514568841485863e-05,-1.170169995063111536e-03,1.137516200542449951e-01
2.452981298064772497e-01,1.252605188605235287e-01,1.260713019854233785e-01,2.497285942766568068e-04,-2.868536337895663470e-04,1.171248479477730257e-03,1.196532920002937317e-01
2.308551281727557192e-01,1.135009549412997198e-01,1.310756128031484169e-01,9.292040889872095174e-04,1.075329702614119098e-03,-8.333260972719715208e-04,1.096656471490859985e-01
2.469722931071372529e-01,1.285019450961820131e-01,1.276756566784539304e-01,7.541210416281063562e-05,-2.174737364288590658e-04,2.483923480808524474e-04,1.188870891928672791e-01
2.471588797683983429e-01,1.282236996437119969e-01,1.284977876103656769e-01,7.994451690626379673e-05,-1.889312421450122230e-04,3.003608462884666095e-04,1.188000440597534180e-01
2.413718013087615133e-01,1.237899338142109673e-01,1.226917675515907941e-01,4.211812833745068210e-04,1.629986682164279101e-04,-3.160935005838711592e-04,1.181386336684226990e-01
2.393783778856818090e-01,1.230484819797838525e-01,1.234389019343155036e-01,1.668226015591771827e-04,2.802717963487329558e-04,-2.869274290463262708e-04,1.161376163363456726e-01
2.477344665704772075e-01,1.287915410273331174e-01,1.293237968391532100e-01,-3.302105279847897571e-05,5.285701208136136191e-05,3.340588340468706634e-04,1.186791509389877319e-01
2.367627967951261569e-01,1.414779461244437542e-01,1.188805267271249855e-01,-4.100834308877786879e-04,-3.514842741948508500e-03,-1.619426946291926310e-03,1.085747331380844116e-01
2.333838028103391027e-01,1.359862771869443931e-01,1.153805649798408661e-01,-1.383443738151347163e-03,-3.503154578507376195e-03,-1.279804605849439898e-03,1.093859672546386719e-01
2.241888400084008359e-01,1.335585986122473090e-01,1.109804580826623116e-01,-3.418919150498554238e-04,-2.880561136795917708e-03,-1.622810539886264955e-03,1.039375737309455872e-01
2.322845071755561541e-01,1.359673594397385055e-01,1.156006607362982663e-01,-2.485481867056961707e-04,-3.813047153043413735e-04,-7.063548252442550593e-04,1.079609915614128113e-01
2.350608667143675445e-01,1.196896881209197072e-01,1.279589664991166997e-01,-2.249121329752276893e-03,1.855352127794406567e-03,2.867343394836340334e-03,1.116916313767433167e-01
2.394455917907482578e-01,1.218628614145178812e-01,1.285118500014620635e-01,-1.332620802718756988e-03,1.418229776642883268e-03,2.564981593102013714e-03,1.145390793681144714e-01
2.457536523369150960e-01,1.262308436005009638e-01,1.289036089013196329e-01,1.569063502586919351e-05,2.451340858327540756e-03,-3.118679334083739041e-03,1.184085980057716370e-01
2.334342978687977688e-01,1.181710766820209951e-01,1.332353656611408588e-01,-1.779211723122921674e-04,1.417331596194193867e-04,1.765697027269533519e-03,1.085619330406188965e-01
2.449931678924523459e-01,1.250250061148890646e-01,1.254511266839120620e-01,-5.825594038045409968e-05,-9.188769708805020813e-04,-1.115679088468829981e-03,1.197818741202354431e-01
2.334886313181696593e-01,1.182856193902216413e-01,1.249552350058288352e-01,-1.138535042903701623e-03,1.519625997502027084e-03,2.581006708722696254e-03,1.121546253561973572e-01
2.329131566080359927e-01,1.192690356667040208e-01,1.285580585234245010e-01,-4.782113641149332247e-04,1.109900550636716597e-03,2.792269160973569544e-03,1.094230413436889648e-01
2.394065800885044615e-01,1.239589679743191147e-01,1.226262354705646151e-01,2.228958390998354313e-04,3.878936860811505041e-05,-5.001606852608611120e-04,1.161236092448234558e-01
2.438638327267074191e-01,1.263787302289434700e-01,1.248751963393524289e-01,4.463408437029718926e-04,1.201577142083682905e-04,-5.773850942838274110e-04,1.182509809732437134e-01
2.406729274793773521e-01,1.231170264498324118e-01,1.239995429706269303e-01,6.599989781522093413e-05,3.000100734026259056e-04,-3.069899209468294012e-04,1.171195507049560547e-01
2.405956456685421352e-01,1.230574353142418198e-01,1.239473004986803850e-01,8.164414586676882468e-05,1.621298268054850852e-04,-2.222652748277422971e-04,1.170968711376190186e-01
2.401184381337950757e-01,1.237914326655288055e-01,1.239939940467988111e-01,4.535901382757299765e-04,2.894150233387033180e-04,2.050640471188412380e-07,1.162295937538146973e-01
2.372009854270940576e-01,1.224307736487031950e-01,1.201937215755639610e-01,4.909554807184748513e-04,7.855262893512216264e-04,-6.129740039189139839e-04,1.159208938479423523e-01
2.393881523306670700e-01,1.222818219586434135e-01,1.221666421731099350e-01,7.135848402929299275e-04,1.197061813506078822e-03,-4.297522472993664110e-04,1.171911880373954773e-01
2.028546772793240471e-01,1.156591999258091419e-01,1.433006245987553662e-01,1.970735804761935758e-02,-3.864957368565390908e-03,-1.914793906292963123e-03,8.472216874361038208e-02
2.430255874407702410e-01,1.272904693519837094e-01,1.226092616634245902e-01,6.924081524177015494e-04,7.468765499113628071e-04,-8.995235207983404884e-04,1.181687340140342712e-01
2.406129119390943150e-01,1.046472368578536677e-01,1.312195883308642508e-01,4.628434863575466192e-03,3.999395166108538589e-03,-3.105579452155598358e-03,1.253834664821624756e-01
2.359085518066954268e-01,1.218901204659487980e-01,1.196071946972633027e-01,5.075195607657987090e-04,1.057955171435285419e-03,-8.912434907492473423e-04,1.152051389217376709e-01
2.350638921135094761e-01,1.211982349040006957e-01,1.328607286456652270e-01,-1.249067107072367004e-03,2.233730789312039083e-03,3.345838518379962070e-03,1.087505295872688293e-01
2.522172030270460885e-01,1.426532524017973813e-01,1.103704349181681837e-01,5.156726559818085510e-05,-9.067262098256739311e-04,-6.884776630134672093e-04,1.287919580936431885e-01
2.348361251183844201e-01,1.191470218869647713e-01,1.399256177739894857e-01,-3.488090306135194565e-03,1.790458067952942732e-03,2.640625431647920709e-03,1.071396172046661377e-01
2.273474716115642669e-01,1.139064746868986289e-01,1.319032208310000065e-01,-2.098641494670726304e-03,8.237920243345677298e-04,2.629217447790244654e-03,1.057693734765052795e-01
2.321633811264737224e-01,1.170437474329813765e-01,1.376673756037575802e-01,-5.888640065019921195e-04,-2.095192475761956395e-05,1.274811522704037865e-03,1.063465848565101624e-01
2.586992957430048756e-01,9.583558317868584586e-02,1.376780799861257731e-01,2.262614355226428599e-03,-1.749573616420418542e-03,-9.394110044052675357e-03,1.474789828062057495e-01
2.385471477581179167e-01,1.309383210078040594e-01,1.228875994143703299e-01,-5.419726547981386106e-04,-1.127703246988524333e-03,-6.993292054991028135e-04,1.118792444467544556e-01
2.390562801961903794e-01,1.219657578891076427e-01,1.207975197720839999e-01,-8.672578249360819768e-04,5.072728080281543872e-04,1.013663058413048854e-03,1.177049502730369568e-01
2.456279060414537918e-01,1.274256554625819438e-01,1.265169816318849616e-01,-1.127594394725922947e-03,1.194601582330495019e-03,1.319827534555983442e-03,1.187153160572052002e-01
2.464562746169045859e-01,1.293881976912499288e-01,1.287702950616710362e-01,5.799582664088641457e-05,8.676749034036991526e-05,-4.502706735082144334e-04,1.173809766769409180e-01
2.326892912776543365e-01,1.377867102455143100e-01,1.213313998388564074e-01,-4.262689042415932156e-04,-1.691503263626226768e-03,-2.913146458984775672e-03,1.042761579155921936e-01
2.453859052673527941e-01,1.268184285328696481e-01,1.258722760621632242e-01,-1.133958700031058309e-03,7.314129869404224771e-04,1.872389461547289231e-03,1.191104725003242493e-01
2.279530037047685642e-01,1.449333428663303058e-01,1.220182650298842209e-01,7.454955272240479380e-04,-3.049341998297151659e-03,-8.342031828866595608e-05,9.669204056262969971e-02
2.331642511863173395e-01,1.154433344630774183e-01,1.267360932824158071e-01,-5.420262410063749359e-04,-3.457044818515711852e-04,-1.972214528713077571e-03,1.125577911734580994e-01
1.801062054686461411e-01,1.277851379926867315e-01,1.555293543303168380e-01,-2.963692816831151045e-02,-8.806081487311533465e-03,-5.319854161241818237e-03,7.076874375343322754e-02
2.335914493319638519e-01,1.345325441255132981e-01,1.194516570537869915e-01,-5.576894929791834148e-05,-1.149532619178077718e-03,-7.514055887272505637e-04,1.074228286743164062e-01
2.425452128103929850e-01,1.245083915121266982e-01,1.225916752095998208e-01,-1.217858017965427154e-03,6.915631094210365412e-04,7.640945958326059032e-04,1.190388351678848267e-01
2.202573764357716735e-01,1.282335552386796862e-01,1.353569627014592769e-01,-2.026850547713801576e-03,-1.293580219638487423e-03,-4.636091551042040293e-03,8.913712948560714722e-02
2.102922953059045419e-01,1.465060884051037071e-01,1.285517827309549110e-01,7.477771130707171025e-04,-3.312796990995799974e-03,3.903527198553253218e-03,7.494390010833740234e-02
2.281871578383712074e-01,1.363778305188966533e-01,1.142421411985896917e-01,1.267562196690686163e-03,3.052490756660248931e-03,-2.080350021200294032e-03,1.048663929104804993e-01
2.324154397531759120e-01,1.361532796444707150e-01,1.167002619427710552e-01,1.692647657244149978e-03,3.599008914757436360e-03,-2.681087280507085408e-03,1.076402887701988220e-01
2.329222858368238669e-01,1.362958868023630143e-01,1.234322390063823244e-01,-7.906231714862751135e-04,-1.300923554374494714e-03,-2.838003198221377213e-03,1.038085594773292542e-01
2.340377795549722639e-01,1.414369184275205971e-01,1.163060420860978772e-01,6.450271035475760610e-04,4.548024959726995262e-03,-9.746072231238483378e-04,1.077022403478622437e-01
2.234805811966173450e-01,1.339534584822612839e-01,1.104243481305237640e-01,2.416432342787361851e-04,4.303593346315975551e-03,-1.463709733624823971e-03,1.036213487386703491e-01
2.444094861166236088e-01,1.239856210079943732e-01,1.253629057452617102e-01,2.625176891197394426e-04,7.512420229563968217e-04,-7.079447506729061703e-04,1.197553724050521851e-01
2.444764243336892129e-01,1.244456584268315014e-01,1.260244137581177926e-01,7.051276680418818495e-05,6.922578311374026584e-04,-1.036827956188692609e-03,1.192688345909118652e-01
2.452867287609205027e-01,1.266595338801285719e-01,1.261937768232991863e-01,2.801719299386998415e-04,1.022197788096104081e-04,-2.844492225429329072e-04,1.188629046082496643e-01
2.382570618700519949e-01,1.325318418073089255e-01,1.271641448782036554e-01,-9.029116160273780367e-04,-1.339243128626643568e-03,-2.868836980930477079e-03,1.086584180593490601e-01
2.344859424228785960e-01,1.282061576694671912e-01,1.205148749086045606e-01,-9.411556232564018349e-04,-2.036399365600486018e-03,-4.161220420557980131e-03,1.106301099061965942e-01
2.458065659614142306e-01,1.273760591809507681e-01,1.274672067604417092e-01,3.231434068742521798e-06,-9.819280426535717770e-05,1.451637875237735111e-05,1.183850839734077454e-01
2.166763357802931056e-01,1.353399516045184492e-01,1.268450619051568473e-01,-1.348365761026529578e-03,-3.107893858961682625e-03,-4.888740831827623201e-03,8.651499450206756592e-02
2.419617347450255807e-01,1.230476865348559268e-01,1.219964857728435131e-01,1.106905565750901897e-03,6.348543363160547752e-04,-1.660251136790081173e-03,1.194981709122657776e-01
2.380324193733260318e-01,1.191161147029935752e-01,1.421714536854113420e-01,-3.901182012722236025e-03,-8.387270517978675849e-04,-1.006484536854163536e-03,1.094613522291183472e-01
2.322836470180098534e-01,1.163955834355490937e-01,1.388279160305292415e-01,-6.665056321938978880e-04,-3.475224707121781225e-04,-1.775036557556933692e-04,1.064678505063056946e-01
2.365180528540500315e-01,1.169032925388647781e-01,1.380851693784993506e-01,-4.074970449590324846e-03,-5.396852036359588243e-04,-1.068429189044612510e-03,1.108007803559303284e-01
2.224411029064033707e-01,1.091783204383869471e-01,1.319333505886502445e-01,-4.024684067121480843e-03,-4.519300045215640768e-04,-8.695158637204783436e-04,1.040212810039520264e-01
2.280459492355067230e-01,1.397339430373243374e-01,1.141518782102007301e-01,-7.439431342615150482e-04,-3.316512550739966411e-03,8.416859291058713432e-05,1.036693528294563293e-01
2.229103236051623027e-01,1.303315759232499538e-01,1.075016132057707019e-01,4.351764836049048829e-04,-3.789484060966711362e-03,1.810797886929894820e-03,1.061088442802429199e-01
2.039900076399557838e-01,1.235325477044624393e-01,1.058201857337142116e-01,8.441795873592116382e-04,-6.092679391788040529e-03,3.170341726735233755e-03,9.141048043966293335e-02
2.154201618625887493e-01,1.764735819143423423e-01,1.325954682675953011e-01,-9.019101190711050972e-03,4.913876720921095398e-02,2.383616287008674499e-03,1.124987155199050903e-01
2.162307069979061691e-01,1.304293028696610346e-01,1.017448448388696136e-01,-5.330373152496660927e-04,9.397270971414226071e-03,7.423776518730863371e-04,1.044666320085525513e-01
2.413888914166436028e-01,1.299483855155985079e-01,1.214450014726267263e-01,-3.861192823983486313e-03,3.431350801045608863e-03,4.790115664228337435e-03,1.165667176246643066e-01
2.165081896893306657e-01,1.512633304462150663e-01,1.302945889394779011e-01,-7.944414455027038954e-03,4.300667411521187644e-02,4.585125119483882648e-03,1.089303269982337952e-01
3.962725479749753532e-01,2.044149714946347784e-01,1.299400108315633684e-01,-1.461689955279610797e-03,-9.687214901953161011e-03,-2.749014489718464363e-02,2.433094680309295654e-01
1.843640891021608996e-01,1.330865197134030731e-01,1.219277337705044206e-01,2.778673192587336545e-04,9.066651646029207784e-03,-2.823531688309696783e-03,5.997386202216148376e-02
2.033269027189301137e-01,1.277437967158877030e-01,1.055479331557881706e-01,5.230834597653829165e-04,5.772020401610979817e-03,3.675982284916659630e-05,8.935249596834182739e-02
2.151760895918888306e-01,1.517880967818223958e-01,1.309829799495228486e-01,1.146648839888600186e-03,-4.603244833426256219e-03,-1.215457038851744821e-03,7.643056660890579224e-02
2.405749819487741914e-01,1.237554820733664657e-01,1.234527669316188292e-01,2.242502035850307265e-04,-3.763273955382906281e-04,-1.906626535885235516e-04,1.169740781188011169e-01
1.847213367001244166e-01,1.322107717747889044e-01,1.224743035622408160e-01,2.155914963255873217e-04,7.539319464000644386e-03,-1.310302774621954151e-04,5.944863706827163696e-02
2.437843052606447070e-01,1.272691322399516212e-01,1.250071705478948136e-01,4.527884980320483893e-03,-2.109495632225688328e-03,5.837872977892124941e-03,1.184126362204551697e-01
2.390900834228281424e-01,1.209888390273357456e-01,1.219789307892697183e-01,2.189272963439597552e-03,-1.827555624696093053e-03,2.208811667863345984e-03,1.177751570940017700e-01
2.385224626873700959e-01,1.254835031154397651e-01,1.176496656624351489e-01,2.668983346982440382e-03,-1.330095731441712425e-03,1.247412444525734408e-03,1.172861903905868530e-01
2.405187915308022728e-01,1.201290874557807697e-01,1.259886107962501778e-01,-1.383165151972102331e-04,-8.628501248226822136e-04,8.039320468029791762e-04,1.175874918699264526e-01
2.393853838962752001e-01,1.254582228784591469e-01,1.265523386079107637e-01,3.522720979644955886e-03,-2.421819195117566170e-03,3.731527901426793126e-03,1.138092353940010071e-01
2.411698919791044338e-01,1.220754802890707397e-01,1.243921860486612019e-01,7.603710811479056980e-04,-9.744333872515330590e-04,1.245330034029365918e-03,1.179922670125961304e-01
2.416985783511109709e-01,1.244921933392900554e-01,1.242587752314203986e-01,-4.356344257611401128e-04,-5.582426604755845153e-04,-3.917841134993983038e-04,1.173316389322280884e-01
2.390403824375992858e-01,1.247796684475452750e-01,1.216884858317994478e-01,-1.755797664223496864e-03,-6.368446510602786227e-04,-8.186545166473664214e-04,1.158910840749740601e-01
2.477525097841959678e-01,1.287907302051162772e-01,1.292550338081541739e-01,-3.802488805265558255e-04,-1.110665930803953112e-04,-3.427619647986582626e-05,1.187323033809661865e-01
2.438875450367648801e-01,1.128584146649839748e-01,1.401908351032085387e-01,-3.216143532520193606e-03,7.899978948919197550e-04,5.822840559782611674e-04,1.198677271604537964e-01
2.364709479565144656e-01,1.205432532621615316e-01,1.447951860296549098e-01,-4.004903013514441931e-03,3.392896149190274238e-04,3.539725976541379087e-04,1.061355471611022949e-01
2.288652839791669447e-01,1.097209073009102476e-01,1.348029565329305624e-01,-1.930309080602685395e-03,-1.870771686466761441e-04,9.212518130437971566e-05,1.088458299636840820e-01
2.256089541421106293e-01,1.135059688182133986e-01,1.343322780450962595e-01,-3.137390087895893572e-03,1.062645008188425064e-03,2.673409222696014262e-03,1.035397574305534363e-01
2.312889079348574017e-01,1.140550251613621224e-01,1.358858870095240035e-01,-4.057165847176334890e-03,4.438009949245772402e-04,1.706648745200212798e-03,1.082578599452972412e-01
2.458706220957653510e-01,1.270370829978949290e-01,1.278317674071609289e-01,-1.239192779769416026e-05,-4.069971598581300222e-04,-3.429489751806556654e-04,1.184417828917503357e-01
2.440489013199099166e-01,1.253789424827149723e-01,1.244585230673045106e-01,-2.180869810838053269e-04,-4.091952319857807387e-04,-2.802482259890116609e-04,1.191365346312522888e-01
2.281776035502284250e-01,1.085746867860257481e-01,1.334274032860804371e-01,-2.210870220148248785e-03,3.412385297419045322e-04,4.165974889325144257e-04,1.093873456120491028e-01
2.358298566452989298e-01,1.443066328002166610e-01,1.188013028857003717e-01,1.495158992684941367e-04,-4.588770147288932615e-03,9.852478747607028059e-05,1.068860068917274475e-01
2.319197913771214314e-01,1.353006906254210773e-01,1.121939134583953834e-01,1.348770031403564431e-03,-2.141825451250739445e-03,1.164876831589566541e-03,1.101136729121208191e-01
2.452625401881712575e-01,1.203273127914203378e-01,1.335065185083616768e-01,-1.551917265834305403e-03,-2.809534856771593592e-03,-1.380256433646015208e-03,1.190486326813697815e-01
2.337390327271922363e-01,1.393909220322118725e-01,1.166795492909250553e-01,1.468409431039942835e-04,-4.052188831975008822e-03,-1.276762056509856986e-03,1.077699586749076843e-01
2.317591580481042635e-01,1.368765010918701897e-01,1.158888517786640093e-01,2.421461188679401716e-04,-4.627536639383185955e-04,1.384148028196558779e-03,1.069632172584533691e-01
2.434010612856610245e-01,1.264546426648951727e-01,1.221395229643381375e-01,-1.438538604453298885e-03,-4.050391903171290226e-04,-6.182691450729477537e-04,1.191955134272575378e-01
2.531871873638028569e-01,1.237148438006760165e-01,1.361100615915026846e-01,-1.001847543699015434e-03,-1.687619630944327178e-03,-9.588353889265040708e-04,1.237990483641624451e-01
2.289016266988982973e-01,1.337237087510867173e-01,1.085381652663232471e-01,7.205217323584061056e-05,-2.749262845420836349e-03,1.264288056769327108e-04,1.100590452551841736e-01
2.393988810994671923e-01,1.225930284799310599e-01,1.225476437181730188e-01,-1.017353041306843825e-04,-2.024292627052215454e-04,-8.486650194684072399e-05,1.168293058872222900e-01
2.449871207405317497e-01,1.268622386008100844e-01,1.273313549714480131e-01,-1.097773415971741882e-03,-9.473266956730057092e-04,-1.710884479565395831e-03,1.179549992084503174e-01
2.459422379787713497e-01,1.268438740742831028e-01,1.266332261573966389e-01,-1.045443727888771893e-03,-1.200820826845788031e-03,-1.877400137408342289e-03,1.192800551652908325e-01
2.401279499713971921e-01,1.208115912141208836e-01,1.233219025655000189e-01,-7.072567560993797946e-04,-8.999514730030480419e-04,-9.952984039586149686e-04,1.181104406714439392e-01
2.452785932149268988e-01,1.266230665503630393e-01,1.264038172087076917e-01,8.966460652096295734e-05,-4.280850093675560254e-04,2.864251737000216881e-04,1.187687516212463379e-01
2.415018830224490709e-01,1.258515959329895295e-01,1.257419763621774877e-01,-1.151072697400732162e-03,-1.283973056300751056e-03,-1.214780751835514358e-03,1.157627999782562256e-01
2.411739741706273588e-01,1.229532411290207849e-01,1.212271283945913769e-01,-1.284704966587800045e-03,-1.097961826570415141e-03,-1.174408441212853628e-03,1.191465035080909729e-01
1.526693724292310927e-01,1.449831747438456997e-01,1.365991750519968961e-01,-5.529865485252637852e-02,-3.517195246739935471e-02,-1.885852399744053498e-02,1.189359650015830994e-01
2.521488916228059596e-01,1.346359225559797257e-01,1.182615347793883609e-01,1.463560286308118090e-03,-5.317640550879124649e-03,8.344807067908240755e-03,1.276784539222717285e-01
2.431929281375693752e-01,1.244682388274392371e-01,1.071994860180169595e-01,3.490207803761860399e-03,-1.271987962723350072e-03,5.895232284485534338e-03,1.288008093833923340e-01
2.401902364322706096e-01,1.239381859664414054e-01,1.228658813765919067e-01,-1.295385785999488286e-04,-1.285720863344820455e-04,-2.180644765911979484e-04,1.167929321527481079e-01
2.446986388537751855e-01,1.275383245477730576e-01,1.227902476897239081e-01,1.880071571086623606e-03,-6.381083611123071269e-04,6.311562735588140691e-04,1.196594759821891785e-01
2.495729523966547514e-01,1.302105020214826547e-01,1.265915778791578128e-01,4.678623982831324273e-04,3.645956811061567193e-04,6.522292321471771792e-04,1.212220564484596252e-01
1.161941595837462093e-01,1.385050702397927214e-01,1.473429177439445903e-01,-5.502578824431106352e-02,-2.816371736148829893e-02,-1.951616252355424519e-02,1.156667768955230713e-01
2.398778625752492621e-01,1.242691001443020360e-01,1.266565322536691018e-01,6.665645983680718034e-04,2.419918240432220534e-04,-4.083816346479829081e-04,1.144425049424171448e-01
2.367431601159932786e-01,1.226296090196194732e-01,1.186739148671089872e-01,-5.515326820109470434e-04,-7.000100656859318876e-04,-1.613180079563246482e-03,1.161857917904853821e-01
2.407158893484141471e-01,1.243850942771881074e-01,1.232392101731806661e-01,6.891030694399227726e-08,-1.568683938113306353e-04,-2.298063152120451201e-04,1.169089451432228088e-01
2.390836698086515333e-01,1.279114896441654325e-01,1.206543398785196869e-01,1.853964067451944033e-03,9.038796715482874753e-04,-7.530330430322196723e-04,1.150355488061904907e-01
2.361135548213544877e-01,1.181737325052000936e-01,1.252936553178979340e-01,8.474848004698615298e-04,1.281872851792465644e-03,-1.132857960076537069e-03,1.145936623215675354e-01
2.346151146948953770e-01,1.192980289303974678e-01,1.251742799602792722e-01,1.335501086795392927e-03,7.918329834711936065e-04,-2.958382322798030779e-03,1.126428693532943726e-01
2.362770658207383190e-01,1.181380745362940465e-01,1.222216083495219763e-01,3.529693199788015538e-04,1.838602238060351108e-04,-1.644838530720061026e-03,1.161880493164062500e-01
2.402377470946704396e-01,1.241266888260062207e-01,1.234660612186194301e-01,2.197154292435443473e-04,2.149773079617308221e-05,-2.899109728187492701e-04,1.164444908499717712e-01
1.500014813535095748e-01,1.362384950668932559e-01,1.329950808966448295e-01,-1.718753242881027954e-03,-2.688259674784212582e-03,-3.691639678802352575e-04,1.659909635782241821e-02
1.466442548842565585e-01,1.412432054002321913e-01,1.655630056773307324e-01,-8.386587563511371801e-02,-3.856746934037222352e-02,7.878410857317427740e-03,1.619823575019836426e-01
2.332958681714060734e-01,1.213145982491196651e-01,1.234906721089474163e-01,5.287912284205639572e-04,9.241875648123428714e-04,-3.014774783757225365e-03,1.110474169254302979e-01
2.365879699825373939e-01,1.289569539168908263e-01,1.174395974110885033e-01,1.414357639069043979e-03,6.063201036604642545e-04,-8.277980155653022259e-04,1.138677746057510376e-01
3.649746392898277625e-01,2.643787569344595578e-01,1.841881598113934149e-01,2.397816831772154114e-02,8.367638589851636444e-02,-2.774034650835813590e-02,2.228352725505828857e-01
2.447396038847981792e-01,1.258734635163307192e-01,1.250081596970687992e-01,-2.778634955352382693e-04,-1.432951351720334080e-03,-1.613691935694872492e-03,1.193606629967689514e-01
2.380871487277249343e-01,1.225019138495802573e-01,1.231431721687799991e-01,2.949594594850173828e-04,4.427134911763799113e-04,-8.337381778153385090e-04,1.152786687016487122e-01
2.439236892456381200e-01,1.269693185155347515e-01,1.260763521770200957e-01,1.311482190674386969e-03,9.883665700917405959e-04,-2.287758808812490920e-03,1.175046861171722412e-01
2.407884251180103796e-01,1.244268625015073765e-01,1.219871963571161066e-01,1.233380856132445602e-03,6.937840236415158523e-04,-7.965055120840831230e-04,1.176340058445930481e-01
2.511320144834747747e-01,1.320497921446928680e-01,1.292474239562246274e-01,5.080017473339695604e-04,6.521084059098715630e-04,-8.991479776266628806e-04,1.205264106392860413e-01
2.393648209047974096e-01,1.220671374334545978e-01,1.234278453499258466e-01,4.823824725802241978e-04,9.396342856757683697e-04,-8.408219079988651749e-04,1.166467219591140747e-01
2.381901711768563135e-01,1.297397559813296963e-01,1.180022269321864548e-01,1.235845596020992065e-03,5.542358250581508501e-04,-9.067950953873158380e-04,1.148049309849739075e-01
2.349277869125936391e-01,1.190408550249242581e-01,1.298910593705280836e-01,3.965182300294035553e-03,3.857658857239670662e-03,-4.201766737574411277e-03,1.115118265151977539e-01
2.360381597092811035e-01,1.217867108209097771e-01,1.247053834980430959e-01,1.393646762907287812e-03,1.126459555247745362e-03,-2.467306053375304450e-03,1.129439920186996460e-01
2.352422704135606057e-01,1.239734557003968618e-01,1.199472367235666359e-01,1.029655484320360489e-03,1.680509732558619620e-03,-2.270239468157877333e-03,1.134551316499710083e-01
2.521255029771957146e-01,1.397858026605327819e-01,1.143946908697289211e-01,-1.129948997624671868e-03,-2.596384734446135611e-03,-2.055145927770714396e-03,1.270986646413803101e-01
2.372874934695070326e-01,1.268879884074167186e-01,1.195232865631798147e-01,8.032678286800898045e-04,3.755804044214314350e-04,-5.840977958136442600e-04,1.142748072743415833e-01
2.304148959524210116e-01,1.354577644173175499e-01,1.109551285769315165e-01,4.849267605923921268e-04,-7.615406356322044264e-04,2.895655961616720947e-04,1.093006506562232971e-01
3.200563500739707079e-01,2.034370576690371635e-01,6.675635829541959332e-02,2.332116238595377186e-02,-3.061690205715778771e-04,-1.208342537672313366e-02,2.242570370435714722e-01
2.374512478726570897e-01,1.249247963190178168e-01,1.200958642334852000e-01,4.013199608164995207e-04,-4.924623530118738988e-04,-2.633820979424367605e-04,1.150231361389160156e-01
2.435821094520947139e-01,1.244343475958240852e-01,1.243663058010080480e-01,-2.184287333224322139e-04,-7.716054360691704879e-05,-4.094040176710505891e-04,1.191845834255218506e-01
2.300127607010964415e-01,1.442630069689828376e-01,1.235207260543639551e-01,3.649487302523773155e-04,-1.205548814743715932e-02,4.117184232710492637e-05,9.999158233404159546e-02
2.500115852218512957e-01,1.341609537944290220e-01,1.279359324761904504e-01,2.038261281214213353e-03,2.583625326806349327e-03,-5.102349817187176381e-03,1.195486634969711304e-01
1.736260749010676285e-01,1.753267906568640733e-01,1.603896646024225159e-01,-3.971853657891414972e-03,-3.160555885221833644e-02,-2.171453518638793100e-04,5.696322396397590637e-02
2.341749463198848358e-01,1.216730117046873338e-01,1.291360123092063772e-01,-1.569529206131659331e-03,-8.641599340413914096e-04,-3.958514287193013077e-03,1.092218831181526184e-01
1.945773098492318276e-01,1.478547120384862690e-01,1.320065511542579950e-01,6.274503705283901878e-04,-1.121313821977847069e-02,-7.371116601829006808e-04,5.962086096405982971e-02
1.978199604623136487e-01,1.192667470262067653e-01,9.915508574985795742e-02,-7.708838818843617019e-03,-1.675033388412622976e-02,-5.837258556442008472e-03,9.631792455911636353e-02
2.475760156766221853e-01,1.194871986122668372e-01,1.300958584957227215e-01,-6.831837279362769789e-04,5.786996873176150641e-05,1.498146780281785911e-03,1.231607943773269653e-01
1.978000729304083549e-01,1.273464700656987691e-01,1.053563935658682338e-01,2.608142162777883112e-03,-6.555636864492024943e-03,1.676217352995028852e-03,8.458320796489715576e-02
1.830759727323626185e-01,1.310471860059680971e-01,1.179728315678832684e-01,-7.864872269409750117e-04,-1.228119156306120389e-02,-4.168400752156526355e-03,6.375454366207122803e-02
2.521435686489433281e-01,1.396080937159490110e-01,1.139676930878214395e-01,-4.344919555782353121e-04,-1.939145577428595365e-03,-2.181448678571729517e-03,1.274097412824630737e-01
2.398327804213389869e-01,1.204968923912805578e-01,1.287947032039442052e-01,-3.055830267775836925e-03,-2.106938878889273031e-03,-3.073523188041150239e-03,1.157123669981956482e-01
2.360067701601056833e-01,1.458940241303256502e-01,1.222748767173279516e-01,-1.043260983095873002e-03,5.979006397943536881e-03,1.172891471798854232e-03,1.045045256614685059e-01
2.368350454143607897e-01,1.381780001792671519e-01,1.199737109816623043e-01,-2.286965562716052319e-03,5.078134635576405514e-03,3.835514153711289294e-03,1.095343604683876038e-01
2.316988918979970280e-01,1.371988457052969734e-01,1.163315645179398561e-01,6.821386656903296762e-05,-9.601178628245885674e-06,9.481066667079251879e-04,1.064911857247352600e-01
2.290939384639261167e-01,1.353795930199008513e-01,1.127430769841364644e-01,1.064527731810172066e-04,-4.958178468142287239e-04,1.691412109204200038e-04,1.068504303693771362e-01
2.521986575990390334e-01,1.425605606163547479e-01,1.103231945557342775e-01,3.608199123309091728e-05,-9.077281996220638947e-04,-6.863047345368743528e-04,1.288335770368576050e-01
2.264203684795537130e-01,1.398430276013342688e-01,1.155769786710105357e-01,7.270275934757422813e-04,2.159018356656703264e-03,1.313095158051058153e-03,1.010252907872200012e-01
2.330682667464037960e-01,1.398720294634154260e-01,1.173672976513478600e-01,3.048346498838692964e-04,3.158244749009358815e-04,-4.959187446919056117e-05,1.062541455030441284e-01
1.897475808033591560e-01,1.296755804720762795e-01,1.341718628313659512e-01,-3.022055033305243166e-03,4.604253128941705395e-03,5.762059319923874649e-03,5.957651510834693909e-02
2.336002497153845114e-01,1.218055860006909685e-01,1.200823633980217381e-01,-1.300622756236100843e-03,-1.208365281206305944e-03,-2.192832216223749436e-03,1.127720922231674194e-01
2.390922626962957986e-01,1.233904621118466355e-01,1.260122694767378260e-01,6.892211744682586946e-04,1.755341999917215106e-03,-1.715185029070965834e-03,1.144985929131507874e-01
2.390670176785971990e-01,1.221970246689085549e-01,1.233752719891284544e-01,3.475337913980608754e-04,6.362533699811008048e-04,-7.047761290893040818e-04,1.162985339760780334e-01
2.446368301980686444e-01,1.289361040443882112e-01,1.236432049125213983e-01,-9.362448078013371365e-04,-4.021841232871656703e-04,-6.439316737715258072e-04,1.184543147683143616e-01
2.383908227225343679e-01,1.252785717861275017e-01,1.183066362446669878e-01,-1.803413258824453861e-03,-9.169073156077957656e-04,-1.962787550951436508e-03,1.168564781546592712e-01
2.434504402364717213e-01,1.294821623314094672e-01,1.251260277351360639e-01,1.235074115942116706e-04,-1.459682848445152366e-03,-2.273805226039305599e-03,1.163019910454750061e-01
2.334639410034125839e-01,1.274582174151275560e-01,1.175567850609213899e-01,-1.387290928852379568e-03,-8.783882696218626171e-04,-9.423795058401235021e-04,1.113355904817581177e-01
2.422824979803437639e-01,1.235951074725073900e-01,1.216999000034171829e-01,-8.907797244231070765e-04,-6.811624614818297683e-04,-1.032448533816930376e-03,1.196753755211830139e-01
2.411731533151629248e-01,1.209258159983528924e-01,1.258404852217989700e-01,7.597117853656975965e-05,-1.653493363966622703e-03,-6.557253125163198032e-04,1.179072111845016479e-01
2.216689710055967932e-01,1.298146944256407531e-01,1.378301455101025308e-01,-2.016200652777593808e-03,-1.060138723421073445e-03,-4.150642673692648936e-03,8.850114047527313232e-02
2.387126833336777887e-01,1.255767951058089915e-01,1.216537498314080590e-01,-3.042874335451670881e-03,-2.504000036526282148e-03,-3.701529234269907570e-03,1.155276969075202942e-01
2.327136889952954313e-01,1.253477745805851029e-01,1.169490366089553646e-01,-1.278163749328371400e-03,-2.439424239228516270e-03,-2.666911901517494011e-03,1.119991391897201538e-01
2.357694240000932084e-01,1.240577721684456985e-01,1.185744062847626928e-01,-3.802551583091386090e-04,7.132471465068091496e-05,-8.646752659455529851e-04,1.145635545253753662e-01
2.277922286922035577e-01,1.192677027855334748e-01,1.362026020739052767e-01,5.891679867069547598e-03,3.126692698118518215e-03,-6.308421709950973698e-03,1.023687645792961121e-01
2.416705546658752812e-01,1.178197421858773880e-01,1.250030662240530221e-01,1.048604831594297402e-03,1.954335280237896877e-03,-1.150418861501704016e-03,1.204976812005043030e-01
2.383409423712866126e-01,1.300067993478052908e-01,1.220309179045873660e-01,-4.292990749418285784e-04,-3.090181283478824403e-04,-1.759956411611918832e-03,1.125792786478996277e-01
2.007720340679224336e-01,1.316507942440431900e-01,1.078762525160647801e-01,3.905980467112434240e-05,1.579057570994879534e-02,-3.841117401831153433e-04,8.794756978750228882e-02
2.558054062861141453e-01,1.618820441612143224e-01,1.609840343310343369e-01,2.888239636181382658e-02,3.246759811925562650e-02,-2.096894331503287162e-02,1.260589212179183960e-01
2.338008456641985089e-01,1.177375531771756439e-01,1.169571718942426508e-01,1.137620615691391094e-03,1.215171821358270376e-03,-2.589007681344673330e-03,1.165774092078208923e-01
2.061524928365285891e-01,1.246655513174671215e-01,1.425316421420223800e-01,-1.507960494180893458e-02,-2.069130167357648761e-03,1.897389180011615020e-04,7.873119413852691650e-02
2.337153077942286661e-01,1.324542820313454883e-01,1.187643853261316773e-01,3.578916881655175644e-03,2.393291045349005882e-03,-3.198663105845051934e-03,1.091501936316490173e-01
2.303378156755813144e-01,1.137875719671440911e-01,1.282491906311912788e-01,-1.292135661426280528e-03,-1.502492205866931812e-03,-2.150734110591056344e-03,1.101510375738143921e-01
2.127227403834892061e-01,1.362318811199421387e-01,1.282787462221507135e-01,2.029154000687399817e-03,2.386084848886346321e-03,-6.060993720570530957e-03,8.162160217761993408e-02
1.749203603354314851e-01,1.333064070816022129e-01,1.307616175170653039e-01,6.398029261206360967e-04,3.281844053924758663e-03,-2.216997801991314136e-03,4.350150004029273987e-02
2.373721927848346236e-01,1.318675242088829247e-01,1.608352979664059712e-01,4.406042699797384221e-02,2.011122441202852634e-02,-1.386003636147851471e-02,1.285604238510131836e-01
1.950424078467479228e-01,1.403813911596811792e-01,1.417256954766864807e-01,1.801379457449516983e-02,7.961789252200849112e-03,-5.077683310069422765e-03,6.447605788707733154e-02
2.338885722178111748e-01,1.286211066527643554e-01,1.150800213374188197e-01,9.323871903598127814e-04,6.144592948642916544e-04,-7.847475426980256514e-04,1.126748621463775635e-01
2.350200158906542991e-01,1.192122066161519778e-01,1.257541645949662168e-01,3.238486888675514959e-04,-1.680825799562721962e-04,1.480150878437964035e-03,1.127102822065353394e-01
2.390668817606715624e-01,1.220329678069669299e-01,1.234681535484785098e-01,2.344409917546221500e-04,-3.807857151493295876e-04,2.258555596295188446e-04,1.163261979818344116e-01
2.749936804863423179e-01,1.472914752950906236e-01,1.326727936188528967e-01,1.308991038535270261e-03,-1.549553646558019101e-03,-8.911411055691976363e-03,1.365246474742889404e-01
2.476241205975486526e-01,1.315883749807136294e-01,1.178042401265710637e-01,-1.354779815604955067e-03,-9.551408796967736706e-05,-1.978058645005949679e-03,1.235759705305099487e-01
2.357168727964908395e-01,1.193038727531634813e-01,1.232848683274447577e-01,6.685592986616302512e-04,-1.261551411803221376e-03,8.695528530118305484e-04,1.145110428333282471e-01
2.002538974623592205e-01,1.062712346574030825e-01,1.248197502650273544e-01,1.434388025915112747e-02,-3.681825322226495167e-03,5.617509938228910926e-03,9.047722071409225464e-02
1.781203609981752978e-01,1.126443424186819586e-01,1.286794222144238276e-01,1.311901585884772334e-02,-3.635325926415887161e-03,4.312156964628809271e-03,6.407867372035980225e-02
1.608312772833327686e-01,1.114809690672439180e-01,1.304038438298070202e-01,3.042743113721936912e-02,-6.088505093551659607e-03,3.747970859827205736e-03,6.921355426311492920e-02
2.436571354568936032e-01,1.234127925925484759e-01,1.243595610256334194e-01,-1.353080049719001426e-04,-6.717529721605141604e-04,-1.206224292955877320e-03,1.197978630661964417e-01
2.530975968731649095e-01,1.028940130008586529e-01,1.347083097279498098e-01,-6.718842092349732072e-03,2.005476053744374796e-03,1.080226452697216968e-02,1.388963907957077026e-01
4.294688476499666785e-01,2.352190246532264994e-01,2.202149589110430350e-01,2.032367048954077451e-02,2.866218166379451079e-02,-6.327542530504588758e-02,2.378817051649093628e-01
3.077117919675533275e-01,1.256695419035268602e-01,1.551529082945015958e-01,2.955381064966133148e-02,4.521597037170601435e-02,-3.917437288823421432e-02,2.049367278814315796e-01
2.482183182930649545e-01,1.355711303370338294e-01,1.129254011328311297e-01,9.950595347516812648e-04,-2.677509734734482682e-03,1.496103238603793554e-03,1.256359368562698364e-01
2.075738259023850452e-01,1.374705574239999395e-01,1.221864105313676951e-01,5.903185301699860870e-04,3.221677747697827745e-03,3.190660309004448875e-03,7.926074415445327759e-02
3.395049522745985371e-01,2.324967081853973050e-01,1.129190464053425602e-01,2.274236351337531603e-02,-9.085977885649464125e-02,4.083246512679241519e-02,2.643206119537353516e-01
2.364115339062582422e-01,1.525892448130130585e-01,1.764991416789428724e-01,3.778701418417229618e-02,-2.111774215662797285e-02,1.684405693784722657e-02,1.098466962575912476e-01
2.414157521034899223e-01,1.227052698587354634e-01,1.287426233134802978e-01,-2.101419237476073731e-03,-2.398635631243557949e-03,-3.952032976261807794e-03,1.161434277892112732e-01
2.528827907475945103e-01,1.050400000489906532e-01,1.418816823314811570e-01,-1.339860494860991820e-03,5.650258230255667983e-05,-4.434056495089249567e-04,1.333191990852355957e-01
2.204677784544572527e-01,1.204079101913253097e-01,6.365500613725001700e-02,-4.929107343730121035e-03,2.624887469861732214e-02,9.312539933661248895e-03,1.459850221872329712e-01
9.384361897406336139e-02,9.177846293529809407e-02,1.123821604643967242e-01,-6.627696984907277544e-02,-2.540865732979439434e-02,-8.137045477003456567e-03,1.252979338169097900e-01
2.681509561849631518e-01,1.520195294604559655e-01,1.083201453165782563e-01,6.150237416875692191e-03,1.391682499337190335e-02,1.440008666985860553e-02,1.476062834262847900e-01
2.570841233728553554e-01,1.378987653652200829e-01,9.848245914176842475e-02,-1.532341495391602087e-03,-2.976028735148797226e-03,-4.611053453825676197e-03,1.433668136596679688e-01
2.503610745641631219e-01,1.330358237784529107e-01,1.279489697727591302e-01,3.915628829758783700e-04,-4.834695229473194426e-04,-5.597811931752494016e-03,1.203456446528434753e-01
2.309348959280940750e-01,1.312727096207683131e-01,1.175526088955943238e-01,-1.615545318013399817e-03,-3.744452656056435416e-03,-4.298544164481533057e-03,1.076730862259864807e-01
2.522485487510854330e-01,1.408665841239165606e-01,1.037706721812496902e-01,-4.023008987444112706e-04,1.874344894052775833e-03,-1.751141801788740494e-04,1.338842064142227173e-01
2.620225282706874492e-01,1.496907173411061442e-01,1.166477505175461393e-01,-1.073795680808761798e-03,-7.227329350409798293e-05,4.055767005663219946e-03,1.321925520896911621e-01
2.411139673323266508e-01,1.282259461745894891e-01,1.169226302528063310e-01,-2.263902180038160523e-03,-1.482548183027987930e-03,-1.609208329686616108e-03,1.190681234002113342e-01
1.540617330905706406e-01,8.094185964169636760e-02,5.742136953689738754e-02,-3.875355888042662095e-02,-6.442519823192768835e-02,-2.441720973665963482e-02,1.623744964599609375e-01
2.306940087214276458e-01,1.140083697391051087e-01,7.923877720296969296e-02,-4.896391353944777938e-03,1.381228813447825041e-02,1.374205289930165511e-02,1.417475491762161255e-01
2.450318317584387617e-01,1.383119035825295662e-01,1.160756772581799934e-01,-1.233912288488518433e-03,-1.988921717043179004e-03,-1.104357807571285923e-03,1.194852963089942932e-01
2.486550425220712679e-01,1.387178627796278874e-01,1.142641442307392313e-01,-8.561475004871655194e-04,-2.763120324633713126e-03,-1.307501828739695551e-03,1.241079047322273254e-01
2.524300429044973315e-01,1.394163287760640801e-01,1.139837004814606702e-01,-4.235775615603947701e-04,-1.857668836206853797e-03,-2.248906924768907887e-03,1.277466863393783569e-01
2.544045266350719592e-01,1.359421650673532378e-01,1.049480994201348466e-01,-1.399081076836157598e-03,-1.532035724136035807e-03,2.373096500905790256e-03,1.367311328649520874e-01
2.530359141104228105e-01,1.443613491584861130e-01,1.199555839109349709e-01,-2.678567738459154799e-04,3.927242202557346823e-03,6.821359757736888789e-03,1.234672665596008301e-01
2.032060494093609893e-01,1.275930739565411254e-01,1.194683865040382792e-01,-1.784863967140815164e-03,-6.106618780945100543e-03,-5.380760247462683214e-03,8.127700537443161011e-02
2.405802512554797712e-01,1.504833450561709196e-01,1.318911465374755787e-01,-5.337269684161228926e-03,-7.502313619569118269e-03,-5.266952849798520707e-03,1.023511514067649841e-01
2.526545884310041346e-01,1.448341591086775848e-01,1.092575931389538901e-01,-1.354775484627818464e-03,-1.530807798709788066e-02,-3.821408222205775361e-04,1.320445835590362549e-01
2.525415320503643923e-01,1.456484145736423597e-01,1.198147617828514977e-01,8.264030263157668083e-04,-9.437454400584611991e-03,4.403703682115444121e-03,1.232168003916740417e-01
2.367253604476595719e-01,1.274069477882939228e-01,1.151312435236476056e-01,-2.261734289883159197e-03,-1.173049222107917572e-03,-7.951213660162804141e-04,1.160368025302886963e-01
2.008951242389822589e-01,1.181520444887404209e-01,1.143162879043441160e-01,-5.413214058151897753e-03,-6.996491801173100600e-03,-6.514563371308315816e-03,8.683658391237258911e-02
2.366175997363798023e-01,1.324929090963020417e-01,1.099484779388898714e-01,-1.551006864293298128e-03,-2.029985590535531709e-03,-1.124250242216437478e-03,1.171366944909095764e-01
2.380509553543019852e-01,1.376340747049070168e-01,1.126811367754996102e-01,-4.678265343944532388e-04,-1.269784170972489135e-03,-7.062305640896250191e-04,1.149734109640121460e-01
2.490521854808442070e-01,1.110553126201460350e-01,1.368792812493275501e-01,-1.131350098018949228e-03,-6.787679665517787602e-04,-1.423671620560553299e-03,1.271128952503204346e-01
2.111429006737450265e-01,1.177243592392096805e-01,1.075936681545762025e-01,-1.597909518638548562e-03,-5.599983233433113335e-03,-3.856161721833763212e-03,9.961123764514923096e-02
2.403835250739893015e-01,1.386669277783738052e-01,1.306702743511602427e-01,-3.387442660857882364e-03,-4.815268550246980077e-03,-5.512818523453032714e-03,1.068586111068725586e-01
2.069665535044875604e-01,1.298086978230997834e-01,1.111274770786479377e-01,-2.968008219295612329e-03,-6.473976145233293483e-03,-5.570335550427415496e-03,8.938106894493103027e-02
2.360694574840245530e-01,1.200865243882901223e-01,1.211810693777983228e-01,-5.719349785626667328e-04,-5.492202254455389766e-04,-2.086452106304696741e-03,1.155042722821235657e-01
2.441237543543340049e-01,1.258013356423031415e-01,1.235745030738696071e-01,1.411943080098557266e-03,2.940548593141241712e-04,-1.374350013176445923e-03,1.195012331008911133e-01
2.422264580263488454e-01,1.241220427986631514e-01,1.248753060624497868e-01,4.102088857637245880e-04,1.729899217085001796e-04,-6.086345966301830168e-04,1.177368387579917908e-01
2.515675981185033216e-01,1.504064069282869121e-01,1.198994742828915910e-01,6.199564946575721741e-03,2.197179760413586758e-02,-6.228553424368584931e-03,1.262154728174209595e-01
2.436084518294805434e-01,1.295531948121465271e-01,1.220626322800246188e-01,1.701983735946733037e-03,1.319066720691870580e-03,-1.480837326783171959e-03,1.180658191442489624e-01
2.447728183669360402e-01,1.268682199657826803e-01,1.266603455015531399e-01,7.952464181821184861e-04,1.666181454474433866e-03,-1.479464629173205502e-03,1.180797964334487915e-01
2.323507571041057984e-01,1.327953818390995300e-01,1.153913624948768035e-01,5.303362306603801859e-04,-1.692318842658326690e-04,-7.297780436655725055e-04,1.093131452798843384e-01
2.440426465034886139e-01,1.262998572610439796e-01,1.245537843206517142e-01,5.256929122022750006e-04,1.473195327807539257e-04,-6.470198440221471827e-04,1.186345294117927551e-01
2.209139664038912987e-01,1.288813767493408313e-01,1.250206365593824753e-01,-4.786935081798297277e-03,2.158345521799668893e-03,6.138355844029860613e-03,9.505774080753326416e-02
2.429384563456439272e-01,1.241361554488322333e-01,1.243919169241078232e-01,1.677480296014551106e-04,3.894840318217686359e-04,-2.910518413179891952e-04,1.186779737472534180e-01
2.453095289943737489e-01,1.252975693178718097e-01,1.281561342866686104e-01,5.575826255926341624e-04,2.563941488886292697e-03,-1.554494158156369526e-03,1.187260821461677551e-01
2.228848378133478914e-01,1.089500771307257421e-01,1.309633778555484018e-01,-3.656732121128706235e-03,5.415417599740857081e-04,1.737785883551754050e-03,1.049175336956977844e-01
2.365800235421822162e-01,1.188119317983453438e-01,1.345173718979429667e-01,4.079294101612610923e-04,1.338073355088037269e-03,-1.263832588833654251e-03,1.108018383383750916e-01
2.471509926117098077e-01,1.360111931673533836e-01,1.112504062148184092e-01,1.367399287947543675e-03,2.702448228014920836e-03,-1.577373392063280899e-03,1.255071461200714111e-01
2.350621621111543269e-01,1.184004991372168414e-01,1.337300403962554396e-01,1.671744201936629275e-04,7.734237866099938005e-04,-1.755874648693082256e-03,1.098530665040016174e-01
2.282002304970991435e-01,1.120030295345485760e-01,1.285043770983060052e-01,2.366698347495917436e-03,1.296393222393305228e-03,-2.289948860471969268e-03,1.090607643127441406e-01
2.365492139802089500e-01,1.334875351950337297e-01,1.150399983796564496e-01,1.392718857617018455e-03,8.027031958211008596e-04,-1.280944388993880516e-03,1.134721562266349792e-01
2.248285794350373679e-01,1.126954159351145068e-01,1.329349543901830188e-01,2.480074136891952281e-03,8.931105303219119464e-04,-1.987847329342640450e-03,1.036661043763160706e-01
2.820185302035170816e-01,1.441044975570797970e-01,4.011056785632445554e-02,-1.426068108372424356e-02,-3.463963400303508161e-02,-4.056229815462122912e-02,2.309176325798034668e-01
2.868427954371235433e-01,1.397145459084807861e-01,1.314927061140845344e-01,-1.404365875505796633e-02,-6.822393221891182242e-04,-2.075780805049495456e-02,1.575109958648681641e-01
2.893603442239259804e-01,1.367601216565743905e-01,1.202152320562357019e-01,9.229152305661486588e-03,2.246867197948909482e-03,-1.952328691678765354e-02,1.658296436071395874e-01
2.393744551275596433e-01,1.233235918959819377e-01,1.222921829986128306e-01,3.900455571579881995e-04,4.324677934515221145e-04,-3.743081035220156209e-04,1.165761575102806091e-01
2.440924899092008493e-01,1.367166906467910392e-01,1.163434131237597313e-01,1.614287308221836782e-03,2.421614510554799277e-03,-1.433261811602695116e-03,1.190117746591567993e-01
2.554096511754277987e-01,1.232285328243633016e-01,1.343596523129204634e-01,-5.736275562098140483e-04,9.952742385874772610e-05,2.298109474530713771e-03,1.270483583211898804e-01
2.498421088078067731e-01,1.422340936189389893e-01,1.088867487626632991e-01,-1.871652682441380441e-04,-4.540839519818589722e-03,-3.641789342894034332e-04,1.278371363878250122e-01
3.151628186497265061e-01,1.608136164997044926e-01,1.348068122840928029e-01,-2.104705959543518110e-03,3.541413383230906844e-03,-2.719848144466377807e-02,1.754546761512756348e-01
2.901642577570859305e-01,1.400663495933078262e-01,1.095516813974166115e-01,-4.649736911598829209e-03,-4.374261518372851536e-03,-2.989941639961641792e-02,1.756271719932556152e-01
2.452526190648994797e-01,1.409122155484279770e-01,1.148227436179853900e-01,-1.707445056023055479e-03,2.367658725614243086e-03,7.738331124171873507e-04,1.196541935205459595e-01
2.370400103976215700e-01,1.193678186977123468e-01,1.241197345867844637e-01,-8.358013895785296491e-04,-1.027449182820645282e-03,-6.395589353986516883e-04,1.153977736830711365e-01
2.517340404701891021e-01,1.403908849545809912e-01,1.160764265401104112e-01,-2.169026948010710791e-04,-2.296551960940110011e-03,-1.336887485874123198e-03,1.253677159547805786e-01
2.823233062439834962e-01,1.524676541120875417e-01,9.205996952435135938e-02,5.099252524562416372e-03,-1.365447380107794213e-02,-2.421381222355873178e-02,1.753628402948379517e-01
2.595281111326950274e-01,1.234697611365607045e-01,8.233884303494046208e-03,-9.583960901075723460e-03,-1.421175008828941960e-02,-4.315350691978097480e-02,2.322458624839782715e-01
3.133948426086142214e-01,1.918481815659990875e-01,8.412972321544004428e-02,-6.022505747369517881e-03,-4.579239822885257383e-02,-5.788099109493287375e-02,2.364739924669265747e-01
2.450108375555775653e-01,1.259688431618649629e-01,1.254393333174633196e-01,-2.117081720079015607e-04,2.247097623072203041e-05,-1.705843295390226078e-04,1.193085685372352600e-01
3.265790491305087251e-01,1.773636716585537954e-01,1.359857050810313606e-01,-1.868033377246748616e-02,-1.550690333326696160e-02,-2.691827181485118015e-02,1.846446096897125244e-01
2.339414250617273261e-01,1.352729666061359692e-01,1.059476370752881896e-01,-1.012017835483759688e-03,-3.719204667714555781e-03,-2.399271839149553088e-04,1.163342893123626709e-01
2.533181237665521057e-01,1.414034968650445534e-01,1.082836153410793312e-01,-3.258281881378600120e-04,-1.035173447630266313e-03,-5.204844719909112929e-04,1.316539198160171509e-01
2.653106505264306580e-01,9.664505633302546139e-02,6.691407609442071025e-02,-9.576357438320045809e-03,-8.828465338396197098e-04,-4.445809561636540619e-02,2.013793289661407471e-01
2.676797963585754725e-01,1.490375514436747262e-01,4.543899666354865585e-02,-5.499272274409288189e-03,4.673311564469074392e-02,-1.420177904335382518e-03,2.091615051031112671e-01
2.429031024266002370e-01,1.305462751284467426e-01,1.133853673414853824e-01,3.403795802911957231e-03,-1.856140026951713911e-03,2.787037553954473026e-03,1.221273690462112427e-01
2.482565172930489006e-01,1.023179174752248816e-01,1.389162631160094641e-01,-4.227003421832696388e-03,9.954173552088241197e-04,1.307906750084619806e-03,1.317501813173294067e-01
1.863254247386348650e-01,1.452475389350699753e-01,1.362984401866111916e-01,2.186949504199839963e-03,-4.037613502732172524e-03,2.660902434779968684e-03,4.711247608065605164e-02
2.695707013873020474e-01,1.589974427354969022e-01,1.258916216692970713e-01,-6.111737777932780592e-03,1.154532161610655888e-02,8.862448092926912893e-03,1.331564188003540039e-01
2.064262004450584387e-01,1.251476784048112245e-01,9.711033863376572484e-02,1.842037354454854935e-03,-1.039764247562761923e-02,1.336099316111291537e-03,1.000549420714378357e-01
2.908874235262164931e-01,1.666495607510913024e-01,9.073094992183899921e-02,2.731155035335411981e-03,-7.804081493485734086e-03,4.473946639453211215e-03,1.757719665765762329e-01
2.422036223758598505e-01,1.215561293538435783e-01,1.097733132430707970e-01,6.363404043065068461e-03,-5.635257907704964431e-03,8.414688933210288588e-03,1.286288797855377197e-01
2.588098820446365078e-01,1.481438560105443614e-01,1.119176927460057841e-01,-1.928882015991099756e-03,3.067590532667642013e-03,-2.064232152159837727e-03,1.327421814203262329e-01
2.431565418451889227e-01,1.240849144475875965e-01,1.245772587934016323e-01,3.722291141065766891e-04,-4.270319805167863874e-04,3.228692868683491046e-04,1.188315898180007935e-01
2.516775857363466873e-01,1.421004646646864822e-01,1.097907808343226432e-01,8.891096788642001935e-05,-3.385782223439619612e-03,6.448694930473704637e-04,1.289462149143218994e-01
2.474604425605244074e-01,1.072378108080819237e-01,2.113969984668839786e-02,-2.665299517049128219e-03,6.188632085267493921e-03,3.316204580292572007e-02,2.063578218221664429e-01
2.311932409517810094e-01,1.328104174264308213e-01,1.148765087632257209e-01,-6.217040886931349177e-04,-4.822332861998200170e-04,-1.082367740007744846e-03,1.084922328591346741e-01
1.625017045510341596e-01,1.536415780717924062e-01,1.596852955894262349e-01,9.286644898007932053e-03,-2.474594244207271171e-02,1.103326591354995096e-03,4.648593813180923462e-02
2.471326501781486162e-01,1.190616205574360903e-01,1.302379106562595312e-01,-4.707382658066545781e-04,-8.766657873154429259e-05,-1.342918997466189309e-03,1.228895336389541626e-01
1.813690031455888474e-01,1.527169815150788146e-01,1.515332028957878108e-01,4.267439578262349070e-03,-1.621885155317335592e-03,1.499671983957263270e-03,3.042250871658325195e-02
1.702282026708953344e-01,1.430514293437236406e-01,1.414724633510592300e-01,-1.961109570980511675e-04,-8.231346484703227703e-03,1.050973050251907204e-03,3.147500008344650269e-02
2.384381610152639386e-01,1.285567056670803843e-01,1.162238991193066118e-01,-1.877008004821039506e-03,-1.171766332281448317e-03,-7.942515955666643946e-04,1.166094318032264709e-01
2.346782436460770338e-01,1.314959954739806647e-01,1.088358986321211475e-01,-1.947349430120156200e-03,-1.818859184705816758e-03,-1.147237994530060905e-03,1.162902638316154480e-01
1.855976423879422965e-01,1.584804798439611306e-01,1.586820981726351776e-01,-5.233989186659802721e-03,6.869781004357156280e-03,3.560905927761660850e-04,3.088785894215106964e-02
1.296633497306464988e-01,1.267851036035206325e-01,1.235723907400868710e-01,1.075302454731776047e-02,8.518335574393076648e-03,-9.877456970760595777e-04,2.439976297318935394e-02
1.175823705178318107e-01,1.681939157475659252e-01,1.576362721092094132e-01,1.234615555879470597e-02,-2.058365370005196815e-02,7.500250795623022299e-03,6.352761387825012207e-02
1.620608647524003354e-01,1.427686493905213905e-01,1.463848008103690035e-01,-1.050801980584959664e-03,1.354891988453124684e-03,3.822996223538917358e-04,1.802111975848674774e-02
1.604814330592045091e-01,1.511329361883171352e-01,1.516133519947257258e-01,1.470132369541850108e-03,4.793367124182456619e-03,-4.311827686351047892e-04,1.261367369443178177e-02
2.409438238873453653e-01,1.229080474826293040e-01,1.313573930531314327e-01,-9.057571691837626839e-04,1.620007247638812799e-03,1.729843664467636084e-04,1.140917837619781494e-01
2.411283091525208144e-01,1.238874633868869146e-01,1.242897617023625140e-01,1.349095850024284275e-03,6.940599301134491679e-04,-9.816092852314142660e-04,1.170820593833923340e-01
2.326001910630127179e-01,1.364205161889053552e-01,1.139011456552367352e-01,2.276013348885467082e-04,9.551727958522347088e-04,2.504163850472563364e-04,1.092091500759124756e-01
2.262419358315533313e-01,1.239008210076603389e-01,1.469020897674921111e-01,-9.854106933753929709e-03,9.358580840181426191e-04,5.391561401422404224e-04,9.457059204578399658e-02
2.353873727698594376e-01,1.279083223533149516e-01,1.248475670158194772e-01,2.629591889503255907e-03,3.811449041848187416e-03,-4.038147793889673362e-03,1.095596998929977417e-01
2.280424849111355734e-01,1.257411881994213998e-01,1.332958195115781785e-01,8.052024093360301768e-03,7.892680437518076464e-03,-9.589044298137248956e-03,1.020147874951362610e-01
2.360002613169149277e-01,1.250508969656643488e-01,1.191264873364829002e-01,5.811658448116280122e-04,-1.165331922335096243e-06,-8.758817250291542388e-04,1.140415892004966736e-01
2.363713020370169504e-01,1.240783834124010443e-01,1.211715289409222018e-01,-2.183497418607191563e-04,-8.492066356455638815e-04,-8.445355069465911415e-04,1.137937381863594055e-01
2.384187859515687347e-01,1.406259676558553329e-01,1.136036420815009496e-01,1.467421042940454147e-03,1.801624391278467243e-03,-7.281491737594154769e-04,1.138157248497009277e-01
2.897049747656923468e-01,1.563728741673135192e-01,1.069562639025467971e-01,3.956556039411824460e-03,2.140837734763369540e-03,-5.395184235662620412e-03,1.641837656497955322e-01
2.404523857245936813e-01,1.226105029837016580e-01,1.215761460639713520e-01,1.193608871147518570e-03,4.967563647563662775e-04,-1.447155045646214338e-03,1.184101626276969910e-01
2.386121305607927234e-01,1.256216426197125924e-01,1.218676253392806247e-01,1.164642928019827455e-03,3.270318170883839662e-04,-9.016591215119908664e-04,1.149432063102722168e-01
2.412307060784020241e-01,1.275890532705429847e-01,1.243564463223700983e-01,8.925338366013178858e-04,-3.942602227811393034e-04,-7.599691840938197114e-04,1.153118461370468140e-01
2.539516168297020760e-01,1.415056351532970880e-01,1.080475720926478145e-01,3.100597809830541677e-04,3.032235131970045664e-04,9.272065938152249370e-04,1.323967874050140381e-01
2.450407278512436171e-01,1.229848333012444894e-01,1.521528884850478769e-01,-8.931046823298566251e-03,-9.636324826859839210e-04,-1.101048371441318546e-03,1.115078330039978027e-01
2.326792648276032049e-01,1.263439001627910674e-01,1.499947634155215370e-01,-9.467713933300554024e-03,-1.075928830733044071e-03,1.611083715339016020e-04,9.810256958007812500e-02
2.417048214241651338e-01,1.380348336295770806e-01,1.051524227760476660e-01,1.622982682079394294e-03,3.972620701297560446e-03,-5.165350237021284086e-04,1.236676424741744995e-01
2.399235038051860669e-01,1.440653383729704751e-01,1.242183473414925909e-01,-1.677129886765561882e-03,3.764425064677618359e-03,3.200801561364562987e-03,1.075493991374969482e-01
2.183543398817971992e-01,1.350479151627836938e-01,1.468494759275935369e-01,-1.106410323526546384e-02,-1.280951542114419292e-02,-9.130370424653583630e-03,8.488626033067703247e-02
2.000789567672214553e-01,1.281794351432760937e-01,1.391944071379105918e-01,-1.105818428641562427e-02,-9.892053110809631913e-03,-7.314069649909663712e-03,7.293692231178283691e-02
2.506984742675212874e-01,1.386049812809935777e-01,1.222455615036716070e-01,-3.865281181195430980e-03,7.257007402665606802e-03,5.367851336344403590e-03,1.222931817173957825e-01
2.486715555385576593e-01,1.064547795701754063e-01,1.404607939753607648e-01,3.557078022764526351e-03,-2.819337041859376418e-04,7.730082217087656544e-04,1.287858039140701294e-01
2.526873509481510904e-01,1.416544335939972643e-01,1.076674758598559073e-01,1.635333036931594546e-04,2.778952945608084246e-04,9.428455061592812530e-04,1.313775926828384399e-01
1.936376352995647920e-01,9.301767889653309029e-02,1.348029383600627129e-01,-3.271280452828827234e-02,-6.486873000996843004e-03,-8.738670281817116983e-03,1.059795618057250977e-01
2.336230561151587393e-01,1.302999202290615055e-01,1.176430317134454784e-01,4.516838585635074847e-04,-3.967330432816176269e-04,-1.470381151480604090e-03,1.102324202656745911e-01
2.056507871959346589e-01,1.093543922867729057e-01,1.332224313279553318e-01,-7.853317762225539914e-03,1.132847889359934850e-03,-2.018846372141398185e-04,8.793900907039642334e-02
2.054858651363078159e-01,1.107462612782520589e-01,1.362058561149386560e-01,-1.687418573590778251e-02,-9.131244266435481483e-04,-2.217365712704746569e-03,8.990671485662460327e-02
3.026670836162130840e-01,1.335935099618547617e-01,1.850283552226459072e-01,-6.153537877343344398e-03,-6.113341269829125190e-04,-5.902213488525205436e-03,1.508455276489257812e-01
2.330690070810449432e-01,1.357405023672764444e-01,1.121207832873458154e-01,-1.089729009468333183e-04,-8.791969015803842999e-04,-9.900327566350994746e-04,1.110625788569450378e-01
2.435015913680187993e-01,1.248466750825949073e-01,1.240404047644522445e-01,-3.623133494324723902e-04,-3.714549130265808923e-04,-2.534720834307810301e-04,1.190643012523651123e-01
2.534833608481277256e-01,1.008182005314324781e-01,1.397289337740814652e-01,-4.561116569109684334e-03,4.176032671942641705e-04,-5.733438546947291700e-03,1.379925161600112915e-01
2.508195692112193953e-01,1.376113596468759026e-01,1.137893438711645999e-01,-7.526229251140408114e-04,1.883975050240288248e-03,1.137296095565581587e-03,1.268726289272308350e-01
2.879820474022065091e-01,5.516017196190600713e-02,1.984732771719058264e-01,-5.399655882233016235e-02,1.080316190606011618e-02,-1.474855677334872134e-02,2.261146008968353271e-01
2.598513465218788010e-01,1.127995364467181127e-01,1.443468936919269918e-01,-1.426618182677006708e-03,-2.237396124103954330e-04,-3.453793517631319893e-03,1.342476010322570801e-01
2.515232822042005600e-01,1.298856799868955691e-01,1.223657068488526733e-01,-1.035766705178612582e-03,-4.512875216261036707e-04,2.731952436819331306e-03,1.256709545850753784e-01
2.507081420607926159e-01,9.905410993521773788e-02,1.374273097588886994e-01,1.343990534427013262e-03,-2.462109440355930950e-04,-5.184963711140713489e-04,1.365957707166671753e-01
2.438575340434318006e-01,1.407666859333671083e-01,1.099793229000170791e-01,-3.202037779330475938e-04,-3.494803641538949887e-03,-3.711512116360103771e-04,1.216011568903923035e-01
2.422971706685252413e-01,1.245798014693737799e-01,1.239912363048638611e-01,9.841380262934438378e-05,-6.083226935922846339e-04,-1.198853758241861144e-07,1.180175766348838806e-01
2.432598991938251243e-01,8.231962073365253763e-02,1.228439373851818450e-01,-9.523385241586105818e-03,-9.904035631166990469e-04,-1.045305825558343060e-02,1.470538228750228882e-01
2.494908995272377972e-01,1.040064196879854630e-01,1.343703381811240938e-01,1.163678873324274030e-03,-2.789765295224743997e-03,-1.162521797639675574e-03,1.330476850271224976e-01
2.596825490230898481e-01,1.260367942432049082e-01,1.490270356222667958e-01,-1.283597437609347016e-03,-3.237459521101287052e-04,-5.509023204021503729e-03,1.241511031985282898e-01
2.571250270273597316e-01,1.078367637130791673e-01,1.483543121686258237e-01,-3.225607505504584499e-03,-1.350451542116864545e-03,-1.151023987294932808e-03,1.338675618171691895e-01
2.011061776288216030e-01,9.218502728680691427e-02,1.121578252077186921e-01,-4.936190135534193613e-02,3.820430525808169581e-02,3.114344928461554307e-02,1.571162343025207520e-01
2.317457814218173984e-01,1.361418456182593717e-01,1.140864818960299065e-01,3.831400538439386607e-04,-7.382432775478783155e-04,-5.590565929244746502e-04,1.083427146077156067e-01
2.237618982751587715e-01,1.409061485022936600e-01,1.201787058053042784e-01,5.001637559527641200e-04,-2.424248451110966665e-03,2.036463888883906226e-03,9.509423375129699707e-02
2.332527903563267890e-01,1.376519619019955787e-01,1.129000170503302175e-01,1.162893430289518122e-03,-7.600708713732929169e-04,2.890071684039165504e-04,1.101114153861999512e-01
2.616059983640005582e-01,1.096577613885544866e-01,1.508869079545009928e-01,-1.693041316255444739e-03,-2.263948582477117322e-03,-1.260596714064950944e-03,1.362062990665435791e-01
2.709133195251863802e-01,1.413623602893050168e-01,8.532260474896036229e-02,2.745754794412997093e-02,-4.639532299461611442e-02,4.028263160097942525e-02,2.019190639257431030e-01
2.542777759104106750e-01,4.470365071891883868e-02,9.952946917767921398e-02,3.300564782418916737e-02,-3.141850969986026421e-02,4.545267811103260308e-02,2.187794297933578491e-01
2.655922006711340932e-01,1.297376830613685694e-01,1.515118511822258762e-01,-2.358544278451493378e-03,-1.655341976547333943e-03,-5.139170304505429748e-03,1.267934888601303101e-01
2.366175416948267940e-01,1.385664999917348705e-01,1.115234110082612973e-01,-2.216822842387565918e-04,-2.459480467973227877e-03,3.903154011469292788e-04,1.140863299369812012e-01
2.454852337349502922e-01,1.201183872841062872e-01,1.270254730776820273e-01,9.694534589307692582e-04,-1.571673504572562762e-03,2.242519498630191933e-03,1.221636235713958740e-01
2.460307221474823391e-01,1.127663169632059093e-01,1.252151810487664718e-01,2.148714749577991176e-03,-2.388734846998208979e-03,8.924075157086973700e-03,1.285506635904312134e-01
2.358791121949795899e-01,1.187683754859808483e-01,1.390498125242769223e-01,1.367017127132547291e-06,-7.663431751050791500e-04,-1.339508217078623845e-03,1.084353849291801453e-01
2.367401812386445703e-01,5.401977230906973571e-02,2.454284271753481850e-02,-7.607125486679350637e-03,1.008350491625171520e-02,4.885378066841863931e-02,2.174405306577682495e-01
3.078785270170339983e-01,1.569925838375718641e-01,1.421804023871107159e-01,-4.389119660362744875e-03,4.682178486568611304e-03,2.327143890080883570e-02,1.642228960990905762e-01
2.381106130925230713e-01,1.312932841360392455e-01,1.225014802936032210e-01,1.023338398300201678e-04,9.826188247515632579e-04,7.446636234978783360e-04,1.114941537380218506e-01
2.414198961075817995e-01,1.238723509142051898e-01,1.238483019741948299e-01,-3.123099558822025278e-04,3.802778254246936477e-04,1.470180824664540020e-04,1.175629347562789917e-01
2.587916103271881152e-01,1.078008058690380355e-01,5.798763992737651640e-02,1.758400612643832781e-02,-3.319423829066125986e-02,5.110134581572416818e-02,2.118209451436996460e-01
2.314064554894752490e-01,1.372670476041132070e-01,1.120164829375587812e-01,-2.133561163148041645e-04,1.879566631013015110e-03,3.649911300340802941e-04,1.090322285890579224e-01
2.706142845092593396e-01,1.439896936975523789e-01,1.326025486385037089e-01,4.752623849386202089e-04,-3.917604941484251549e-03,8.987974617451844131e-03,1.337700188159942627e-01
2.095091654682810778e-01,1.072176964678040190e-01,1.257568303725073444e-01,-1.434684029189370151e-02,7.912104997201655984e-03,8.168456504957760655e-03,9.958072006702423096e-02
2.481404926629588725e-01,1.269343079797136398e-01,1.284851868591855295e-01,-3.622899088860068346e-04,-3.672689718562970117e-04,1.555817069423126022e-03,1.204716935753822327e-01
2.270422847798398702e-01,1.255227094757685458e-01,1.098217311332623236e-01,-4.999580243445966507e-03,6.285535619925447862e-03,5.827084436562235750e-03,1.115440577268600464e-01
2.477639724706790225e-01,1.221178506124709906e-01,1.281637201154518235e-01,-4.603916531100704103e-04,6.985275740912499638e-05,2.220458414786111515e-03,1.227978095412254333e-01
2.435850996779976574e-01,1.248294982297345479e-01,1.300553867492537652e-01,-1.591284846227537146e-03,2.829535608017016285e-03,3.768426285612746195e-03,1.165496334433555603e-01
2.411955229610662776e-01,1.317044642614393080e-01,1.208166962350704920e-01,-1.059969223016107116e-03,1.229331809103628888e-03,9.976058753037441319e-04,1.153682768344879150e-01
2.927179263656596309e-01,1.530991988424645622e-01,1.039123739296182874e-01,7.441697025851781375e-03,2.059155287553846719e-02,4.690079740787779852e-03,1.740238368511199951e-01
2.425785585408152811e-01,1.306750292655037005e-01,1.126482871969604754e-01,-3.752306918291098067e-03,2.797176576602939616e-03,4.017467439199420148e-03,1.223877072334289551e-01
2.475194462068610601e-01,1.351590944368537828e-01,1.115618523300201670e-01,-1.532726522287022539e-03,1.563773827903502554e-03,1.067941341778650939e-03,1.259002685546875000e-01
2.346542078463769165e-01,1.210530510243681968e-01,1.139153504236248282e-01,-2.838854957253111010e-03,1.563586185965647451e-03,2.122325599363802072e-03,1.175246611237525940e-01
2.284953957528386426e-01,1.273960550426361804e-01,1.131540268056510090e-01,-1.239257011863961972e-03,4.731913753119125141e-03,3.760421214626044270e-03,1.094439327716827393e-01
2.594365200412157568e-01,1.234520064801205852e-01,1.941000276266088842e-02,-2.448869385307830173e-05,-3.344006702352995963e-02,8.174264217213293021e-03,2.168404906988143921e-01
2.518780332814350986e-01,1.287858084847296192e-01,9.275945202050009386e-02,-4.577202279089349554e-03,4.787873630453523370e-03,1.551463609236041451e-02,1.474377661943435669e-01
2.509286252241119120e-01,1.053141038246624833e-01,1.346828477749952013e-01,1.235669606804238587e-03,-6.071549655396373327e-04,2.015552204242776653e-03,1.334446370601654053e-01
6.745412893493188400e-02,1.143899314403824530e-01,1.197809744763199541e-01,-1.567139060830020220e-02,-1.133341664295815614e-02,-1.668805513195181214e-03,6.012933701276779175e-02
9.059303260385603851e-02,1.074561083224432473e-01,8.683708681634635940e-02,-2.635295382124991370e-02,-5.823047896207564356e-02,-1.206339347082351077e-02,1.142549067735671997e-01
2.426933812953663561e-01,1.390475741225226103e-01,1.082477453889926500e-01,6.104751561461084931e-04,-4.109224717442336305e-03,5.517045679747186642e-04,1.222131103277206421e-01
1.611999772046625590e-01,1.399324090466394221e-01,1.413349510052345492e-01,-2.381192623105631706e-02,-7.509946707508402541e-02,-1.338957553979280672e-02,1.399396359920501709e-01
1.095979085014663207e-01,1.099266765031203241e-01,1.084905085772375072e-01,-5.064330570474604755e-03,-2.138840798777235166e-02,-2.754315782560404300e-03,3.838999196887016296e-02
3.928196714518555899e-02,1.053017079308028320e-01,1.279843865401863179e-01,-3.232876158687895268e-02,-2.352938421030278254e-02,-8.505499436112557224e-03,1.066957712173461914e-01
1.695661627024064588e-01,1.302372036178179593e-01,1.377865486323453237e-01,-2.724509791072487423e-03,-1.139043973039261535e-03,-2.845971166113157175e-03,3.684170916676521301e-02
1.119433197393581991e-01,1.175144750727316612e-01,1.067473178891880925e-01,-4.001120509550148106e-03,-2.024197489994203000e-02,-4.912907528636888382e-04,3.694519773125648499e-02
2.523187991463817226e-01,1.171637137311725418e-01,1.401915776412782921e-01,1.905740798003927863e-03,-3.159351731573080890e-04,1.463048728779728618e-03,1.253094673156738281e-01
2.438012385391184755e-01,1.827978374206898349e-01,1.577002597696434416e-01,1.880067838326918844e-02,-4.250763395294374775e-02,1.123846595551139006e-02,1.128819882869720459e-01
1.490641068971255145e-01,1.529296454905139102e-01,1.608845930264136137e-01,-5.665092840347140009e-03,-9.751694440909265682e-03,-5.543376762203738525e-03,2.413974516093730927e-02
1.649478447189982599e-01,1.777415748767146864e-01,1.766041610216325664e-01,-2.299804599595882404e-03,-9.137680630107581151e-03,-1.319585872866881277e-03,2.054274454712867737e-02
2.673351331925352126e-01,1.550719988505691038e-01,1.190959236017739842e-01,-1.203606998798100944e-03,-7.339982296518263389e-04,1.548176335302379244e-03,1.339747309684753418e-01
1.337479044061480049e-01,1.707547837629502518e-01,1.610930875672474116e-01,-2.395447172817612852e-02,-3.093238630861585084e-03,-1.294182167684246754e-03,5.348352715373039246e-02
1.808820940427058876e-01,1.827156158763807436e-01,1.896902336300191338e-01,2.401296806026925051e-02,-8.238080877690683642e-04,1.786348903258811816e-03,4.250026121735572815e-02
2.334266103688627525e-01,1.366198822966049331e-01,1.143673583618499551e-01,1.204752903618877980e-03,-7.192943177486481278e-04,3.415240864523305425e-04,1.096684485673904419e-01
1.426557767083059258e-01,2.147988372935649426e-01,1.913505114933702067e-01,1.034017155307715395e-02,-4.664807332153095981e-02,3.993913340160570695e-03,1.046878769993782043e-01
1.684931897930586620e-01,1.518904044918419904e-01,1.515103836854953534e-01,1.750539868294113651e-03,3.434672562018412870e-03,1.584593945684873101e-03,1.828177273273468018e-02
1.465857544690989944e-01,1.261830029328147307e-01,1.200058097467874285e-01,4.158988493048599959e-03,-1.681040414000513003e-02,3.153351571985414312e-04,3.847623616456985474e-02
2.660559685249538897e-01,1.499153254573921679e-01,1.111359839082741996e-01,-8.568083679628803531e-04,3.016267080465003577e-03,7.719803255633610108e-04,1.397412866353988647e-01
2.551195952016360180e-01,1.427102652323344045e-01,1.099542061092082523e-01,-3.777068855742475757e-03,-4.016322284477603054e-03,-3.104835902372757913e-03,1.323291957378387451e-01
2.808222495271953112e-01,1.621872545310968916e-01,1.097104335442037337e-01,-8.929347885450111474e-03,-9.173660973061900301e-03,-4.670617986252406303e-03,1.536579877138137817e-01
3.034383061040831220e-01,1.807357992457716278e-01,1.294850115299255866e-01,-4.278227089731198932e-03,-1.322631457863190051e-02,-7.027063222395881284e-03,1.571591645479202271e-01
2.359843070662114295e-01,1.380758832053486651e-01,1.110850253888763378e-01,8.875531538894484030e-04,-2.906436752743594108e-03,4.956364145171645533e-04,1.139545515179634094e-01
1.497977449413619710e-01,1.304986481869518100e-01,1.170312368229703553e-01,2.910298258305912822e-02,-3.992311782469543796e-02,1.597819151444302213e-02,9.435125440359115601e-02
2.223114184127213400e-01,1.825487981055567976e-01,1.256542078299433818e-01,-1.563661130745806760e-02,-9.922641027278812642e-02,1.227799416309673271e-02,1.944318413734436035e-01
4.129751439347479902e-01,1.833714542178833673e-01,2.642530494359769389e-01,5.870320095789480913e-02,-1.965990363776562444e-02,2.523515839460278506e-02,2.325879335403442383e-01
2.384688888231116521e-01,1.226175213510201090e-01,1.218634334482736614e-01,-5.685587912143626231e-04,8.415558414041482752e-05,3.155142376385268867e-04,1.162357926368713379e-01
2.344396644552278197e-01,1.157963986861020173e-01,1.376088512015614940e-01,1.261899300086530415e-03,-1.303580615007152881e-04,2.006298499161876601e-04,1.094031780958175659e-01
2.707386254418512328e-01,1.412566980314548803e-01,1.051380120616287051e-01,-3.641780825398018440e-03,-4.498523647710476331e-03,-1.415006805340997265e-02,1.531274467706680298e-01
2.345562572684013469e-01,1.276479742911660609e-01,1.157791354347425528e-01,7.101431283205501431e-05,7.155949158953202587e-04,1.961951341916172865e-03,1.133676618337631226e-01
2.597331349940282808e-01,1.479567375403444962e-01,1.130931002702718624e-01,9.687786828463001206e-04,-2.043414042941486212e-03,-8.545458895356827008e-04,1.327550411224365234e-01
2.626803668414168791e-01,1.515237956977544542e-01,1.165859674954491665e-01,-3.623121231349536731e-04,-3.238247685934079155e-03,-1.760077027414214481e-04,1.322571337223052979e-01
2.629505046085394149e-01,1.413508388310403541e-01,9.844415626652261442e-02,-2.097658892951624610e-03,-1.234200793679180765e-02,-2.996155800050208286e-03,1.494724303483963013e-01
2.397935265276644745e-01,1.235173892961842768e-01,1.217356572317700447e-01,1.670622991618431056e-04,-2.781504984797199156e-04,7.227266384835424363e-04,1.171851977705955505e-01
2.394272853534584189e-01,1.238049030726218330e-01,1.225135415859642529e-01,6.209552636111027749e-05,-2.810113448947764857e-04,9.189376870742069778e-04,1.162854060530662537e-01
2.359071082615072368e-01,1.339301858246786936e-01,1.171810652467283193e-01,-1.846864691183678633e-04,1.058548373583819129e-03,6.088957116978935746e-04,1.113212704658508301e-01
2.337915611856087872e-01,1.251521759226947306e-01,1.171101847081771757e-01,1.182473238272626747e-03,-1.106892990342998959e-03,5.363582602836008961e-04,1.129141300916671753e-01
2.370716103676698827e-01,1.275632779898155933e-01,1.203942959717919925e-01,-2.220750504895664570e-04,-1.187458845752190247e-04,1.340880899163360111e-03,1.132877618074417114e-01
2.548648839228401242e-01,1.332840045436418652e-01,1.313127626345054200e-01,3.795638289925204879e-04,-2.328116503880148409e-03,-5.641140012587075696e-03,1.230350434780120850e-01
2.455297502709299640e-01,1.187524584691972696e-01,1.263559078577294603e-01,-5.887810554736162870e-04,-1.617531783867152571e-03,-2.873065021125876389e-03,1.232882887125015259e-01
2.075722337985226595e-01,1.251482872575793714e-01,1.429922382009793380e-01,-4.832611051105940338e-03,-5.694199167664519686e-04,1.591587249703995755e-03,7.563054561614990234e-02
2.416414070136815306e-01,1.352571400215079045e-01,1.110901785951977361e-01,-1.794926866710500751e-03,2.642963024820989357e-03,1.898342056022157311e-03,1.204743608832359314e-01
2.437655875594438859e-01,1.240307629820097124e-01,1.246412414108279965e-01,-3.370083866108256249e-04,-7.583653729869380957e-04,-1.039021562580516676e-03,1.194529607892036438e-01
2.385214948919820999e-01,1.316414815672761196e-01,1.260879760428003094e-01,-5.260560585492024717e-03,5.685792972874977903e-03,6.954222650090913747e-03,1.112332046031951904e-01
2.460978815293954902e-01,1.271949452508936151e-01,1.268369687211675090e-01,-7.002736903481751726e-04,-7.701263696930671669e-04,-1.549335305166105702e-03,1.191262081265449524e-01
2.501380167899134865e-01,1.155202890775901686e-01,1.391707549545036504e-01,-2.289090573102611943e-03,-1.285809687946332667e-03,-2.618609326802007371e-03,1.246545463800430298e-01
2.620052101206953310e-01,1.468409595566433079e-01,1.105911120514246199e-01,-5.249306987609350227e-04,-1.399609489820443221e-04,-5.529257383824034066e-04,1.369428485631942749e-01
2.287638678476401066e-01,1.147245551298978067e-01,1.202575911070491860e-01,-1.198272815978526813e-02,7.879028365138813009e-03,1.280823676455603022e-02,1.162486225366592407e-01
2.419150223958400070e-01,1.177561871137843275e-01,1.250468989716006507e-01,-1.142823590328171605e-03,-2.426972004229355044e-03,-1.795903779564833429e-03,1.208082363009452820e-01
2.466458826523700021e-01,1.279434554913773114e-01,1.269607775522346438e-01,-1.899625758145995420e-04,1.121498289603108491e-04,2.671993461337885973e-04,1.191983148455619812e-01
2.002953407292180910e-01,1.053492692157316779e-01,1.257973917822710341e-01,7.382232178916021612e-03,-3.156613717793627333e-04,7.874876127480009026e-04,8.750465512275695801e-02
2.513155225042563168e-01,1.379078866671897552e-01,1.140929952518250634e-01,-5.068900059970768250e-04,1.863558760538489359e-03,1.095285534170385754e-03,1.270591169595718384e-01
2.282870254875597749e-01,1.212886009660919251e-01,1.397765212535948542e-01,1.974192319987786749e-03,5.556198497101802903e-04,-2.674373691357776004e-03,9.922884404659271240e-02
2.279846524972604094e-01,1.136828241162061159e-01,1.364323895711822554e-01,3.315848903959684162e-03,1.191845579931053237e-03,-1.520284974351034969e-03,1.050062552094459534e-01
2.273633666521377994e-01,1.151110832461587907e-01,1.391060019998642538e-01,3.880858885482976056e-03,4.453213794410015554e-04,8.731303984648634917e-04,1.026202291250228882e-01
2.963264889103549571e-01,1.466715472953256105e-01,1.102548867958000056e-01,-1.324305465359406492e-02,-3.490282993290968073e-05,-2.237164413039140903e-02,1.766361147165298462e-01
2.520557361542000718e-01,1.391805339471997860e-01,1.174273835022112550e-01,-5.812126547470198440e-04,-8.059081144813395924e-04,1.434712033279438980e-03,1.252139806747436523e-01
2.345997049856947125e-01,1.172207700520729312e-01,1.403914442034904231e-01,4.475606843424787505e-03,4.198266577470612321e-04,-7.825694830983279376e-04,1.079694628715515137e-01
2.361717319948430927e-01,1.126906006599950466e-01,1.280519944690747258e-01,2.237851719458177398e-03,-2.266216347275625074e-03,2.911047156524668167e-03,1.168014258146286011e-01
2.290498927662755202e-01,1.097903396107081653e-01,1.324601983185841603e-01,2.939269979443468600e-03,1.084280184246112040e-03,-5.678087257025943128e-04,1.098343208432197571e-01
2.307235041686952204e-01,1.102142292152436254e-01,1.361577534287821967e-01,2.738964121210350766e-03,3.665486819056386868e-04,-2.915296101068650465e-04,1.099649071693420410e-01
2.339553876135338495e-01,1.172264440686205667e-01,1.399350553989733292e-01,4.544309155401535238e-03,1.143956584700133589e-03,-1.513470124501601352e-03,1.075329035520553589e-01
2.297891590781062088e-01,1.097666955336442651e-01,1.343717257630079875e-01,2.871050102620538794e-03,7.591789803783420944e-04,-3.532420334333333896e-04,1.099294126033782959e-01
2.137329340743034933e-01,1.424303620662923375e-01,1.321422254080268921e-01,-5.564452492318899303e-03,-9.861137952939373966e-03,-4.566138501580985914e-03,7.981627434492111206e-02
1.769411102576833317e-01,1.213029655705641224e-01,1.359250053187631702e-01,-2.484118021499416920e-02,-5.662345004563466844e-03,-1.835531310092869840e-03,6.673388183116912842e-02
1.718185444224905600e-01,1.319664279881136160e-01,1.311878766410055630e-01,-1.461955607143490543e-02,-9.461886729015083625e-03,-6.189866250187012198e-03,5.142512917518615723e-02
2.219758493349756057e-01,1.050293649705172083e-01,1.105203523617576955e-01,-5.909048049893880772e-03,-6.568449560856442528e-03,-6.462669601581927381e-03,1.158618256449699402e-01
2.180406972974708313e-01,1.226878957853111407e-01,1.415466644396921048e-01,-1.216247782215340752e-02,-1.294567551344713921e-02,-9.549288071437263617e-03,9.417902678251266479e-02
2.380656969265853573e-01,1.223331976147983557e-01,1.259223402666488356e-01,1.880865859072745026e-03,-1.954904136841697625e-03,2.629748482835353191e-03,1.141680255532264709e-01
2.494307837406970485e-01,1.331925396769405578e-01,1.187101090889763483e-01,1.718317980083390551e-03,-1.514754983697611749e-03,1.617016378451599685e-03,1.242097765207290649e-01
2.389649083131861751e-01,1.519103408071997285e-01,1.395398236159159089e-01,-3.105553052573306605e-02,-3.964302779043658159e-02,-1.572792952263483979e-02,1.309907883405685425e-01
2.331524483650400936e-01,1.271624415278801434e-01,1.106700673436024907e-01,2.095238580141134486e-03,-2.295239253576796413e-03,1.922620833475006561e-03,1.152994856238365173e-01
2.416768907806552957e-01,1.296047674507559422e-01,1.244844923543422521e-01,1.580751042916255650e-03,-3.726738976918282762e-04,3.047001336013800254e-03,1.148737743496894836e-01
2.709935572722926844e-01,1.279999904254854048e-01,1.598793841003432470e-01,-2.906500875837472048e-02,-1.955266624716095816e-02,-1.913228635697250199e-02,1.472558528184890747e-01
2.353242258332243209e-01,1.338887026505429789e-01,1.154970039021557537e-01,1.190771152602996836e-03,-4.750952452404783467e-04,6.990865229161655767e-04,1.118006631731987000e-01
2.566234175723003386e-01,1.313992046490993770e-01,1.366876067493572044e-01,2.327261336081491694e-04,-3.143921627124220217e-04,5.492134938820787682e-03,1.230357065796852112e-01
2.556353329803146002e-01,1.352366230886672405e-01,1.301069543061518508e-01,-5.946686765395899944e-04,4.988330936068458661e-04,4.833782029610526713e-03,1.233356073498725891e-01
2.386979290794342123e-01,1.351526082563058173e-01,1.165893094723477741e-01,1.870915627237875476e-03,-8.600128217219178911e-04,6.316402118688161553e-04,1.140275821089744568e-01
1.909037125698754278e-01,1.287207762865074101e-01,1.426728477737070344e-01,2.446520168497002060e-02,-9.926485235745860849e-03,4.971571544568647270e-03,7.320649176836013794e-02
2.389063729014321846e-01,1.219070901246913641e-01,1.194725714205150946e-01,7.719089121230288770e-04,-6.821319402361348183e-04,1.778402201610772239e-03,1.182889193296432495e-01
2.403152790470581834e-01,1.305023794720731600e-01,1.193333416876423414e-01,1.890429870801970356e-03,-8.814851360396527358e-04,6.912111047028000931e-04,1.158646196126937866e-01
2.452310501124566611e-01,1.206835077433381781e-01,1.277014024336351472e-01,5.000936202638728573e-06,1.151202167599348530e-04,2.119755823261015425e-03,1.212468519806861877e-01
2.317348631786682045e-01,1.144131471671498840e-01,1.366093394625604585e-01,1.025727439315376978e-03,-6.245666519561501005e-04,2.621699513488875565e-04,1.079698726534843445e-01
2.488687684213075901e-01,1.292751943417639604e-01,1.298057828189217722e-01,-1.322112454753167484e-04,7.894631719772090173e-06,2.544512037781236982e-03,1.194107457995414734e-01
2.382707201607520142e-01,1.255141832333864504e-01,1.183688171376094389e-01,-1.658399676478310939e-03,9.359599382325088169e-04,1.149202291966271248e-03,1.165573671460151672e-01
2.304067525467416999e-01,1.142072355671247819e-01,1.304422788564630342e-01,-3.081259835809437974e-03,2.135953261817375402e-03,3.127091255225323326e-03,1.093202009797096252e-01
2.409613892550980241e-01,1.245098424284541150e-01,1.251375626814783260e-01,-8.456611459351085543e-04,5.154787994194020813e-04,1.368644985409580564e-03,1.161758154630661011e-01
2.363745813301505183e-01,1.177546507164063117e-01,1.230825741955609287e-01,-5.104741561616734551e-04,5.273802353725296627e-04,7.505441623762349780e-04,1.160619780421257019e-01
2.507144835291054696e-01,1.296212422871456660e-01,1.349352230559017207e-01,-1.303861518719556258e-04,6.159450765124462935e-05,4.803023029200162268e-03,1.188174784183502197e-01
2.718531961708376965e-01,1.545584214196125405e-01,1.548144046144015462e-01,-2.358414245650329588e-02,3.073930277370311506e-02,2.326103302792159599e-02,1.409066319465637207e-01
2.298235080570502076e-01,1.143034514444146860e-01,1.370652005241448923e-01,2.979300032226422749e-04,-3.458846878361850063e-04,2.114090815745322123e-05,1.059913635253906250e-01
2.551122449523476887e-01,9.897746825808159676e-02,1.232754378302005765e-01,-5.093931910984426242e-03,-5.403166235527796964e-03,-1.563316279297027878e-02,1.485709100961685181e-01
2.391315368207674041e-01,7.859309075709391967e-04,1.177358656723153235e-01,-4.793438009613919248e-02,-4.190345491855967247e-03,-1.122043035663033810e-03,2.226229608058929443e-01
2.397988423048949269e-01,1.215773420597124344e-01,1.258989054982362354e-01,-1.261213870621805187e-04,6.995270882546175076e-04,5.790710720720010493e-04,1.161319017410278320e-01
2.405310541466078589e-01,-3.249762205435130502e-03,1.102953277596349785e-01,2.701505476352572890e-02,-3.441847577717973769e-03,6.920365185949634533e-03,2.168181538581848145e-01
3.002196772244798972e-01,1.343868950960607767e-01,1.717842112063922566e-01,-8.983737198299883778e-03,-5.516963170465793986e-03,-1.331281187207427989e-02,1.535007953643798828e-01
2.427680856032485845e-01,1.302593606460975550e-01,1.172976634301104437e-01,-1.609655025557308423e-03,2.055022999694827886e-03,1.587970011505686341e-03,1.196349859237670898e-01
2.408737699764504359e-01,1.239593563310402019e-01,1.232757587579536851e-01,-5.429026631039743454e-04,2.861333418063274295e-04,2.061612784143059126e-04,1.172630712389945984e-01
2.896656195884113605e-01,4.290576478188487530e-02,1.478036158820275892e-01,7.555064191260036678e-03,-1.544856206533663442e-02,-4.234973412664527759e-02,2.286418974399566650e-01
3.079962733497839666e-01,1.418889211608644896e-01,1.756476345798135275e-01,1.670351862409483927e-03,-2.886274492523204383e-03,-1.545854711558945771e-02,1.545121222734451294e-01
2.632999125428377996e-01,5.704685306322883342e-02,1.358783014801298039e-01,2.965633562461873415e-02,7.754631329324675713e-03,-2.271980428449865350e-02,1.919972896575927734e-01
2.464760199947650665e-01,1.320590200474068832e-01,1.182977769210981356e-01,-1.548730630756881520e-03,1.269461582031808540e-03,1.470427307453407847e-03,1.219576075673103333e-01
2.432513676615360165e-01,1.252417786683917011e-01,1.239445306903136645e-01,-5.123016899732928554e-04,2.232874085800723278e-04,3.720919132854299876e-04,1.186692267656326294e-01
3.059152144882081314e-01,1.295886984462912284e-01,1.815304927469790774e-01,2.185344196442206427e-02,4.371745821023837256e-03,-1.096610582088760472e-02,1.627301275730133057e-01
2.482419720419362097e-01,1.279507013352840228e-01,1.264756829375044689e-01,4.897392172775269113e-04,-5.607677266875514890e-04,1.682768904424275774e-03,1.210774779319763184e-01
2.494902512263460215e-01,1.315780028811174285e-01,1.265352835271795762e-01,1.079774091614636592e-03,-2.661394187663068765e-04,8.779827926082734183e-04,1.205377504229545593e-01
2.449550929906199048e-01,1.246877428940019739e-01,1.258385085372538681e-01,-2.749710931830589189e-04,4.871351865179003853e-04,1.511114794661789964e-03,1.197286471724510193e-01
2.440739316056796115e-01,1.223911516654442450e-01,1.221269410934262001e-01,-3.227357402081330070e-04,-1.336290119106217037e-04,4.526623715027811717e-03,1.220686510205268860e-01
2.479648875575022338e-01,1.290081742922501162e-01,1.298282669410761314e-01,-1.475947541625490303e-04,2.306810464447317912e-04,2.458488845218858871e-03,1.186261922121047974e-01
2.449870623592709240e-01,1.266534899531907565e-01,1.258336609908279335e-01,-5.821602615499657908e-04,2.821752055542878392e-05,2.446272143562189466e-04,1.187506541609764099e-01
2.452411811296847377e-01,1.178524444513209257e-01,1.248030564901983774e-01,-6.078641802901259879e-04,3.178677053088575398e-04,2.901746166251117660e-03,1.241669952869415283e-01
2.487834928650639599e-01,1.265167175669107136e-01,1.307988349521683469e-01,-2.579254855029617280e-05,3.083992496676612734e-04,8.049272522546908632e-04,1.201922297477722168e-01
2.482475303796433386e-01,1.329106984427833593e-01,1.197193299542775868e-01,-5.949451442395271589e-04,8.589159057610992873e-04,1.614893053459181800e-03,1.225118190050125122e-01
2.523860109204857927e-01,1.334238533756403333e-01,1.280370574269357187e-01,-1.523497200637964101e-03,1.821080190211826419e-03,4.854316339454269394e-03,1.221042275428771973e-01
2.252838802668296059e-01,1.127926312404220199e-01,1.333447433720298392e-01,2.828638747739824991e-03,-2.881165931778439655e-04,1.606483127412059982e-03,1.039073243737220764e-01
2.473343429204546973e-01,1.264575285621975520e-01,1.280955471786094646e-01,-1.217525019689435936e-04,3.223620546993451115e-05,1.461145903156933420e-03,1.200930550694465637e-01
2.309658922594118868e-01,1.284981059191194763e-01,1.143319184062847327e-01,1.915528396087662778e-03,-3.154751858728588581e-03,3.621690763576853114e-03,1.105989217758178711e-01
2.356840347221065557e-01,1.318283433495459900e-01,1.181314868435025811e-01,1.254090538360356317e-03,-1.890734499834380083e-03,2.894328882995636509e-03,1.115198582410812378e-01
2.478774121713921419e-01,1.292384773137664200e-01,1.283440844458860752e-01,3.991294331676356784e-04,-8.094312002015947459e-05,4.368451353399708343e-04,1.190931424498558044e-01
2.463230169988434581e-01,1.297869505218126052e-01,1.248836304174145845e-01,5.633221344991173538e-04,-4.605505529573664732e-04,6.468050004814287785e-04,1.190754175186157227e-01
2.283197852923699589e-01,1.226903799477776502e-01,1.198400870836212051e-01,4.948506251359337076e-03,-6.156201799459973950e-03,6.911639946092947712e-03,1.086151078343391418e-01
2.422974043081177475e-01,1.277452533375389165e-01,1.249408990664996610e-01,1.622783548617774945e-03,-1.861134179416887020e-05,8.138310924259915509e-04,1.160223782062530518e-01
2.276782889107109853e-01,1.225150499582477043e-01,1.126625111806372204e-01,2.474752255282769518e-03,-3.203501220036280087e-03,3.209745602565469702e-03,1.107816398143768311e-01
2.450937856899799150e-01,1.258724555652956933e-01,1.260142955388672825e-01,-1.133285462298803069e-04,-4.010940877451822195e-04,3.053159255250198641e-04,1.191538348793983459e-01
2.321326606614567689e-01,1.175421833414937722e-01,1.397019913213153608e-01,2.268003427814652237e-04,-4.468484031816569667e-04,9.910900502978505465e-04,1.052921265363693237e-01
2.439938995871457628e-01,1.319161879448703667e-01,1.199575814134914015e-01,1.997025885306150800e-03,-1.127416100064726479e-03,1.071112973214776061e-03,1.185914576053619385e-01
2.400455460955831510e-01,1.290372658654062032e-01,1.215687073411724217e-01,1.210434747573225578e-03,-8.180382066416712122e-04,2.323346741348683402e-03,1.150229796767234802e-01
2.377049513403544090e-01,1.278796190399894284e-01,1.204482048792402116e-01,8.685651497781962096e-04,-1.754055480346037330e-04,3.907249828178482724e-04,1.137356609106063843e-01
6.362052734892739703e-02,8.205821168668528398e-02,1.010263659046500978e-01,-5.969752042718136364e-02,1.729410760840073254e-03,-6.827778146364151327e-03,1.090397983789443970e-01
1.928417579453985953e-01,9.846009211983328124e-02,1.221836822554120683e-01,-1.893531643791952768e-02,-2.296937728868478790e-03,-3.031211587726187831e-03,9.138198196887969971e-02
1.847586603263962624e-01,1.310311109082188674e-01,1.526952752884120912e-01,-4.524703927070267140e-02,-1.331921234319610910e-02,-6.021957298546783306e-03,9.473596513271331787e-02
2.206552747722091146e-01,1.046330754962089132e-01,1.274246196166714806e-01,-7.744183859922847309e-03,-1.406389383147108518e-03,-1.778462007782691126e-03,1.073853820562362671e-01
2.371721222351950153e-01,1.293819414789658118e-01,1.177611336608042486e-01,1.329265721695807980e-03,-8.325728724386589246e-04,6.787299747620889568e-04,1.140839084982872009e-01
2.085057722288525817e-01,1.238861146441412736e-01,1.523971160570054828e-01,-4.379056219386489451e-02,4.616516371117681053e-03,1.353132303878808998e-03,1.066913381218910217e-01
2.394474915931109615e-01,1.112468777583656976e-01,1.181705918017353640e-01,3.424020982866956067e-03,-4.150852044260681072e-03,7.750903111344539451e-03,1.259476095438003540e-01
2.309601833026124207e-01,1.157614764489904302e-01,1.365059920087055567e-01,2.179831925137385286e-04,-1.006592206691187909e-06,1.002239934838547323e-03,1.063695996999740601e-01
2.397895754511719935e-01,1.478664249589639046e-01,1.637346239365719269e-01,-2.640159806356318084e-02,8.214956667879540556e-03,5.916335208293684381e-03,9.819169342517852783e-02
2.728978454285508337e-01,1.511726271854906545e-01,1.190746922344891601e-01,1.524150028746958964e-03,3.231474384605324390e-03,-1.031253020933781128e-02,1.418159902095794678e-01
2.401879686831814298e-01,1.234526274396165468e-01,1.220780017122107403e-01,8.386347517551560578e-04,-3.010785492021156017e-05,9.756797814829786105e-04,1.174498423933982849e-01
2.405100418082057601e-01,1.241907577749479241e-01,1.232466158996315397e-01,3.376217400787535146e-04,-8.397735873464100449e-05,4.393728888723760339e-04,1.167982518672943115e-01
2.368150503896266912e-01,1.247862068005385350e-01,1.212951252634889843e-01,-1.014603610005950472e-03,4.951752232309359486e-04,6.155407752429528732e-04,1.138363406062126160e-01
2.253727656370210775e-01,1.382445238246572394e-01,1.479142739336585799e-01,-8.791795264711896318e-03,6.809695729934438571e-03,7.309404636329269039e-03,8.586973696947097778e-02
2.434220572504475211e-01,1.347840702753230757e-01,1.166551746196142630e-01,-2.196244979474217419e-03,2.268922420273853085e-03,2.696957602870233162e-03,1.189625635743141174e-01
2.358442881802816082e-01,1.262603526477115989e-01,1.325544221855812776e-01,-6.891018751325841442e-04,1.258038978335861494e-03,2.508972602977820390e-03,1.066938713192939758e-01
2.366388547481821369e-01,1.141851251011770652e-01,1.293155127542995886e-01,-7.539873478908691237e-04,1.757361375083263963e-03,1.811057031856728007e-03,1.157233044505119324e-01
2.396908586660656260e-01,1.262046965132883058e-01,1.242434573110648699e-01,-2.970446792695479853e-03,1.234326691042434213e-03,3.449648658082594098e-03,1.147705093026161194e-01
2.377457936783220482e-01,1.206719739115810486e-01,1.207036630012597311e-01,-1.833897486748649981e-04,9.719664190162844494e-05,8.094190493448736971e-04,1.170669272541999817e-01
2.391819153488818350e-01,1.244694231051026168e-01,1.228396540438691509e-01,-1.412041370739604165e-04,8.431962207017097244e-05,7.855614341069975777e-04,1.155443638563156128e-01
2.355609033012937559e-01,1.197031124707235994e-01,1.198363072521430317e-01,-1.604985807113353761e-03,1.452624772118423901e-03,2.578724094809572206e-03,1.159380078315734863e-01
2.399600360966569479e-01,1.230851015185453617e-01,1.227368018731500726e-01,-4.566556966691844564e-05,2.585539697494762122e-04,4.265687159745251635e-05,1.170503795146942139e-01
2.292370934259334581e-01,1.147740643606954269e-01,1.227970922148966249e-01,-2.575832488337323825e-03,1.989760321925447811e-03,3.441737904558809201e-03,1.109735667705535889e-01
2.816124643659125848e-01,1.611287187750853611e-01,1.765773643376566115e-01,-3.294937670090423987e-02,2.706004880965836787e-02,2.501968937289357486e-02,1.422158926725387573e-01
3.978737142262013526e-02,1.549301471203654579e-01,1.416386969641997284e-01,1.674566192906305068e-02,5.477538636369231294e-03,-7.197363788198395465e-03,1.139770820736885071e-01
2.388407667290005920e-01,1.185426605144498657e-01,1.237563227174010572e-01,-3.639828274656939887e-03,2.461794618455494937e-03,3.940151428126589979e-03,1.182206571102142334e-01
2.310819950254666133e-01,1.189412066542506335e-01,1.260081731437293628e-01,-1.242691022408862504e-03,1.607698888326126703e-03,4.144238103724651005e-03,1.090729758143424988e-01
2.417449392920465456e-01,1.270811885574993083e-01,1.227267857257345329e-01,-8.228618841345490282e-04,4.742253734020348177e-04,8.489730473494267252e-04,1.169226095080375671e-01
2.081072932973078993e-01,1.835232723440769487e-01,2.013627437982798973e-01,4.344551773596611738e-02,-6.554823372876095872e-03,7.272971126778556873e-03,8.021333813667297363e-02
2.401635759795842096e-01,1.199297640077577054e-01,1.251026286141613264e-01,-1.579171757001174997e-04,1.296503710543594947e-03,7.192429230350745172e-04,1.177609637379646301e-01
2.476439740867333872e-01,1.356550340430142387e-01,1.338315346505307146e-01,-3.842787123006836773e-03,-3.348691682746149541e-03,-5.781723825178218187e-03,1.136982291936874390e-01
2.444973407288288658e-01,1.284683369687057708e-01,1.243865210539131239e-01,-1.238694410256055726e-03,6.799546274119427957e-04,7.863429031320067755e-04,1.181560233235359192e-01
2.364377012307320447e-01,1.198579641038498567e-01,1.221843602222034697e-01,-1.027029991070872120e-03,-6.253472385118918246e-04,-5.843605941785695417e-04,1.154573485255241394e-01
2.337023192309575781e-01,1.222737345204775727e-01,1.211814912739114097e-01,-6.135174445323152018e-04,-1.056046658012015256e-03,-3.458668341617874859e-03,1.121587753295898438e-01
1.741548383099805475e-01,1.222924994352814765e-01,5.344932819247552591e-02,-3.093646625586007545e-02,8.735638044062310481e-02,5.250144721003770915e-02,2.122104316949844360e-01
2.525196517281138586e-01,1.393509168935859188e-01,1.093542246044880983e-01,-5.114237485113377630e-04,1.030902019253635053e-04,4.387013158167570558e-03,1.309969723224639893e-01
2.572659424877457024e-01,1.410307097481325322e-01,1.185340945035527338e-01,-8.461705166059644255e-04,-9.004367439054006142e-04,2.625835167085762301e-03,1.290615797042846680e-01
2.471990209302241670e-01,1.273452866870364020e-01,1.191623619253995570e-01,-1.718136406443488990e-03,4.865132655270178489e-04,2.427283908739159574e-03,1.242572888731956482e-01
2.369645475048638150e-01,1.216458383955127120e-01,1.211013040439763017e-01,-2.963779457957499983e-04,-8.126823812325919454e-04,-1.019414420992283523e-03,1.156151294708251953e-01
2.420710701637234230e-01,1.267092893318237934e-01,1.265450042356918159e-01,-2.512988851713893169e-04,-8.817606579768608090e-04,-1.883678768841597333e-03,1.155010238289833069e-01
2.461793651675945049e-01,1.292651374369787609e-01,1.248028978627128971e-01,-7.166971691990377822e-04,1.889164145629331816e-04,5.446030292242014584e-04,1.192186474800109863e-01
2.375989529680428425e-01,1.244587104032101044e-01,1.222285560855008030e-01,-3.634397929583305770e-04,-3.741804816441211779e-04,-1.401927134096405932e-03,1.143010109663009644e-01
2.513117801090958281e-01,1.332671396510049511e-01,1.283049905564740412e-01,4.993273561197966682e-04,-2.739213570865275515e-04,4.143969465765338250e-04,1.206084713339805603e-01
1.868906108025605861e-01,1.170179824526634826e-01,7.412457571211977791e-02,-6.316552380375424318e-03,-3.396386569486296858e-02,-4.130272676202209614e-03,1.155448406934738159e-01
2.427268780303185602e-01,1.117651206837410316e-01,1.153403851159113536e-01,-2.390342279574489588e-03,2.611287540362018048e-03,1.028692735659817066e-02,1.305779516696929932e-01
2.459944195797600930e-01,1.247583150813886821e-01,1.290815207995613390e-01,-2.349914354326843350e-04,9.246892026999717394e-04,1.125418205918423363e-03,1.191607564687728882e-01
2.466324912633499067e-01,1.205359797291663537e-01,1.300944414524453918e-01,1.037252739852273856e-03,-1.650077333598115072e-03,5.388838463715225902e-03,1.220037713646888733e-01
2.469260650294925474e-01,1.301815671541448616e-01,1.246227110358874152e-01,2.178243973065915233e-04,1.263826384186003985e-04,1.190288016713578071e-03,1.196393966674804688e-01
2.001901784086201896e-01,1.167173081342850749e-01,6.963608147831794326e-02,-7.755681459170549186e-03,-3.134251985204918045e-02,-4.751691897579133142e-03,1.277091056108474731e-01
2.461534928740709005e-01,1.405398789962345463e-01,1.105265289430507614e-01,-1.353210839037456356e-03,-3.561707243178410028e-03,-7.898773114293563971e-04,1.235729679465293884e-01
2.494205545679016867e-01,1.303305166798683357e-01,1.261792470124916965e-01,1.033701218868595924e-03,-9.012507668938403481e-04,8.317124193807858175e-04,1.212508231401443481e-01
2.418176311223954045e-01,1.403946997832210553e-01,1.136403373816984863e-01,-1.927681291764737903e-03,-2.812114695487511438e-03,-1.062177637978732646e-03,1.172781735658645630e-01
2.472002099390899210e-01,1.415156470889194218e-01,1.114925339017861089e-01,-1.584013197551818438e-03,-2.475234468825610479e-03,-1.908915789862179095e-03,1.236140504479408264e-01
2.377269319021852456e-01,1.432772106164493797e-01,1.049989163814765425e-01,-1.093766738709863167e-03,-1.085163931745635781e-02,-5.359316065987078034e-03,1.201847791671752930e-01
2.452702879599261698e-01,9.661959478111735444e-02,1.065667533037678999e-01,4.738318041878486616e-04,-1.750113875534450034e-03,2.823988299090863380e-02,1.520514935255050659e-01
1.283901610760480316e-01,1.816006402501322281e-01,1.372777939877435627e-01,1.594575445369857949e-03,-5.508799574869315679e-02,1.912170596113001858e-02,1.124546080827713013e-01
2.312062486133582562e-01,1.455819032528526125e-01,1.288809982283459776e-01,4.501864251109415765e-03,-7.639278457815598146e-03,4.198011882789266791e-03,9.658777713775634766e-02
2.397999350730834200e-01,1.227083951004811907e-01,1.221649400751858155e-01,-2.017572903438394924e-04,6.308358893252365813e-05,4.028104520981318540e-04,1.173668578267097473e-01
2.373088433178413004e-01,1.202349731569417601e-01,1.251742627916228034e-01,2.328196549576116319e-04,-7.015169586055993150e-04,7.545557903614135385e-04,1.146986186504364014e-01
2.437867615254503684e-01,1.254652340471350824e-01,1.244831163544287550e-01,4.427926088412871314e-04,-2.386899350621867421e-04,4.718929292888722677e-04,1.188216358423233032e-01
2.406517949343684459e-01,1.219982737867282008e-01,1.265949379710146205e-01,4.584185488189783148e-04,-7.077132123025172599e-05,7.068189415970414476e-04,1.164324730634689331e-01
2.402450532853100951e-01,1.232090551694002417e-01,1.220618464508941292e-01,8.439828743301765754e-04,-1.640920265510496215e-04,7.990893789951028850e-04,1.176313683390617371e-01
2.390933767072029315e-01,1.218982194480518755e-01,1.213722107102007397e-01,4.302396999899567439e-04,-1.509833545322830217e-04,8.827585308058942277e-04,1.174716502428054810e-01
2.417616368895166290e-01,1.244782075211978978e-01,1.237983001551166140e-01,5.387492917901550143e-04,3.020897136466917771e-04,2.924975643669913065e-04,1.176308095455169678e-01
2.266709120322559223e-01,1.147034567060559174e-01,1.366561982190730995e-01,2.775360065597419577e-03,-6.469860210883335554e-04,1.388858960890553083e-03,1.029115691781044006e-01
2.409927793062369150e-01,1.232353808359532010e-01,1.239729407337026024e-01,2.165715817431998469e-04,1.771741462627405104e-07,4.280314838379870859e-04,1.173932999372482300e-01
2.415776689289750867e-01,1.243839391427128821e-01,1.249531923549349333e-01,5.714171173012213157e-04,-2.935543386298102974e-04,1.946147481051433347e-03,1.169640198349952698e-01
2.731978337311672389e-01,1.510842109727066895e-01,1.162133468933405495e-01,-1.354986476687996058e-02,-1.060202001540726940e-02,-2.671427871790862593e-02,1.530192345380783081e-01
2.460485655440092789e-01,1.388797476080711468e-01,1.052059188402811596e-01,1.502235613780650422e-03,-2.772087682786427126e-03,-3.447105894881002854e-04,1.275070458650588989e-01
2.628632133115214042e-01,1.562682965150837266e-01,1.173340818259300533e-01,1.736112882401584685e-03,-1.052464631815401910e-02,-4.005707540316025272e-03,1.319773495197296143e-01
2.515351753957429382e-01,1.391209302954674043e-01,1.033702111517836864e-01,-3.123175708885622247e-03,-1.042583664631766514e-02,-5.047238041137090160e-03,1.355202794075012207e-01
2.599552885719259021e-01,1.519855128596377669e-01,1.158985836710826611e-01,1.753189419127696683e-04,-3.513352979120520740e-03,-2.328634857975761183e-03,1.300362497568130493e-01
2.495674764808542556e-01,1.410381925146947379e-01,1.106722949142039808e-01,6.729278045957658031e-04,-4.674664502795616156e-03,4.972649207150851410e-06,1.267406791448593140e-01
2.436397515613711873e-01,1.164933592299214615e-01,1.298926037361353980e-01,2.004715379500855883e-03,-1.643737934681940502e-03,1.597655935346568553e-03,1.211193576455116272e-01
2.372121671923308195e-01,1.247677577902144286e-01,1.204487291012851236e-01,8.052955821682480236e-05,3.227555888858732610e-04,5.933979849003704178e-04,1.146709993481636047e-01
2.460111582926093332e-01,1.270026533115126144e-01,1.247195819291914143e-01,-1.942360851943157694e-04,-2.045903689282648548e-04,-1.279823278389734470e-03,1.201877444982528687e-01
2.442522286450579672e-01,1.235317233674692872e-01,1.248958732473011424e-01,-7.262028360875897974e-04,-9.743406158809989493e-04,-1.924829905108654989e-03,1.201089769601821899e-01
2.445675956789363226e-01,1.230929120401215160e-01,1.206051624810597633e-01,-3.706577926324418175e-04,-1.929496482392816555e-04,-4.527297092903531661e-03,1.229898333549499512e-01
2.472710839057903898e-01,1.296221504051279783e-01,1.249291193292392521e-01,-9.772332613863579653e-04,-6.028517897537655906e-04,-8.957156727503486461e-04,1.200907528400421143e-01
2.404537555097685797e-01,1.298447753138113336e-01,1.196604126435235338e-01,1.960575830976286037e-03,-3.727626099868075558e-03,3.361026633652220135e-03,1.164115816354751587e-01
2.442037751954330149e-01,1.264675469676015407e-01,1.193190915180101508e-01,-1.611041051272007812e-03,-1.216409024905397516e-03,-2.091660015233155409e-03,1.215726211667060852e-01
2.448080407495482891e-01,1.242595005691411458e-01,1.247155200253252799e-01,-5.395756284974551802e-04,-4.018380158078816529e-04,-1.430710063467641050e-03,1.203523352742195129e-01
2.405071262286717082e-01,1.233225871194534168e-01,1.233057570841175482e-01,-6.928608493941598831e-05,-3.793779322729675611e-04,2.762204131997236583e-04,1.171958371996879578e-01
2.314788464851158800e-01,1.293470571640848443e-01,1.162485774653739673e-01,-2.463185122370893480e-03,-3.880908023480388828e-03,-2.849588059126371455e-03,1.096721962094306946e-01
2.365596875855867365e-01,1.155289230145501722e-01,1.284931195873587617e-01,1.179853702496879916e-03,-1.394487183893970824e-03,1.098155112141683057e-03,1.151567548513412476e-01
9.394516193122090519e-02,1.145917630355270667e-01,9.553255822308151513e-02,7.869096944876525015e-03,-5.860444561773379968e-02,6.056230810102858179e-03,1.048583462834358215e-01
2.325826372777380913e-01,1.560087406460334003e-01,1.315580739224011531e-01,-1.905220283355711294e-03,-1.156409264996278823e-02,9.302500991295568639e-04,9.353261440992355347e-02
2.393854204468064961e-01,1.233007286948821501e-01,1.221211120064043254e-01,7.946051728191867627e-05,-5.476745817081335411e-05,2.328381964939682817e-04,1.166797876358032227e-01
1.143477398931217748e-01,1.241012471740066403e-01,1.157181292550262947e-01,6.296155642065430665e-03,-1.817802695042371880e-02,-1.784784439588500563e-03,3.469071537256240845e-02
2.534502107795937320e-01,1.452450619451878255e-01,1.097325646805983462e-01,-1.221663084683493510e-03,-1.524330703872437895e-02,-3.531671970285989908e-04,1.323406696319580078e-01
2.296333667921857391e-01,1.311390645822214651e-01,1.058614069962489912e-01,2.654747273261430680e-03,-3.571445222054694425e-03,9.131010700882720302e-04,1.135416328907012939e-01
2.314496955155218028e-01,1.360951042778419939e-01,1.153998754929296544e-01,1.012072716385944635e-03,-3.050310047717941231e-03,1.847282016317672478e-03,1.074029728770256042e-01
2.450069595980371995e-01,1.246953244377772413e-01,1.253407128816735050e-01,6.691538728301112690e-04,-1.025960135974493407e-03,1.270912309259564048e-03,1.200291812419891357e-01
2.321967044416120562e-01,1.377504740835942265e-01,1.113885915807973637e-01,-7.716111909264416037e-04,-2.514229158034415185e-03,-4.836741088166830179e-05,1.101161986589431763e-01
2.442895905666158662e-01,1.257359231868234173e-01,1.256719155648497732e-01,1.931028165749375594e-04,-5.641904278485559586e-04,4.952222587436304942e-04,1.185932829976081848e-01
2.440529561580083162e-01,1.254349657249944905e-01,1.251649187422541609e-01,1.886423892431829473e-04,-4.636981622193966251e-04,4.610034178851791825e-04,1.187590956687927246e-01
2.322084726027172086e-01,1.338754177896559483e-01,1.042490857175620844e-01,8.439685654439141923e-04,-4.487178489509609583e-03,4.575296477506493186e-04,1.162906959652900696e-01
2.237303279038800885e-01,1.315641276180122277e-01,1.093377505823124596e-01,2.132386960334272611e-03,-4.028241540946366807e-03,2.151694159763390020e-03,1.054198816418647766e-01
2.340754897171452020e-01,1.354990046174502638e-01,1.127528846104542681e-01,1.838641849021476621e-03,-1.637228605724550283e-03,6.285245022272839457e-04,1.117868945002555847e-01
2.483113033071898124e-01,1.272652680544157644e-01,1.289246573958612585e-01,8.959711824872337025e-05,-8.728610487635537997e-05,-2.366818084531221566e-03,1.202949956059455872e-01
2.442185018671838570e-01,1.252566426898656105e-01,1.175783141930020759e-01,2.759194640119185275e-04,1.320254107231346992e-04,-3.077429073681966359e-03,1.230975240468978882e-01
2.417386399729134494e-01,1.246369754773903604e-01,1.239085441689236344e-01,4.785914257291245871e-04,-2.347394212475123259e-04,1.612641989244052070e-04,1.174715310335159302e-01
2.338464930868985048e-01,1.275748933418592024e-01,1.175875204775440608e-01,2.510297410546996990e-04,3.534151286066014325e-04,7.553424338850409526e-04,1.116111576557159424e-01
2.452447764876161673e-01,1.246532832884450354e-01,1.224872023151563766e-01,1.966373918193640904e-03,1.095670743134983431e-03,-4.419665351706500434e-03,1.219918578863143921e-01
2.402542211530022953e-01,1.276437447696985861e-01,1.192304608820163730e-01,2.299758384922872493e-03,3.798626751712709266e-03,-3.339625366555472753e-03,1.174390986561775208e-01
2.267363373702359630e-01,1.225236577041717428e-01,1.194079321091485735e-01,1.334429044043054617e-03,2.252707732392975320e-03,-4.151140377375325645e-03,1.061458960175514221e-01
1.871911554838008307e-01,1.107614286822091593e-01,1.128263651643990478e-01,9.633371020266326759e-03,-9.623342644721094227e-03,7.106822053767989679e-03,7.997310161590576172e-02
2.282721323234827571e-01,1.219797085124792457e-01,1.266676510524707422e-01,1.893624817441698967e-03,1.167977608176775381e-03,-4.820714868733855935e-03,1.044333800673484802e-01
2.361071595309657822e-01,1.134152365653088856e-01,1.037679968645828094e-01,4.677102952877577879e-03,-5.214663705350485075e-03,9.789127306934297321e-03,1.294785737991333008e-01
2.276821150195822985e-01,1.184796455641121543e-01,1.294656153670551424e-01,4.928598333892726148e-03,2.594864013545267883e-03,-5.166825292138160775e-03,1.049730330705642700e-01
2.344915183015052751e-01,1.198520789791398117e-01,1.287026455530243529e-01,4.574348522831241733e-04,9.556134232637738700e-04,-2.871381013729463420e-03,1.106074675917625427e-01
2.376974776769226472e-01,1.181617387326869550e-01,1.245018763510844506e-01,8.917127965206422119e-04,1.630002261180681436e-03,-1.509561712182633155e-03,1.165689080953598022e-01
2.417952269533756859e-01,1.252294171709656123e-01,1.284325453738335565e-01,2.929287881130061746e-03,2.337859189432437475e-03,-3.533153264411472566e-03,1.153432354331016541e-01
2.393164575283260875e-01,1.232764551127990410e-01,1.224489099468276943e-01,-5.794929169181750004e-06,-2.377757006178842305e-04,3.036308834035805304e-04,1.164578944444656372e-01
2.522814122585151919e-01,1.806056369775252413e-01,1.368783895664238137e-01,1.632674579223982597e-02,4.764240052843417977e-02,-1.082855549187398611e-02,1.347016245126724243e-01
1.987755650389062267e-01,1.335009067372138758e-01,1.223679793347348110e-01,-4.855235044363009206e-03,1.623809874707306256e-02,5.403298760156861023e-03,7.785085588693618774e-02
1.647851450091496195e-01,1.044109022598656289e-01,9.771503401192149774e-02,2.352638783067307476e-02,3.030438230777566383e-02,-1.313361819769074713e-02,9.501135349273681641e-02
2.175332005513996303e-01,1.191450493060971783e-01,9.867984104134466805e-02,9.760942336458576160e-03,1.320360125676224398e-02,-8.549000234776459733e-03,1.146327927708625793e-01
2.551170219761429436e-01,1.478513325839507231e-01,1.108298962594619769e-01,3.438168888336636149e-03,1.336583529919439448e-02,-7.084482313550003255e-03,1.325504183769226074e-01
2.767942248789254656e-01,1.701675467271906161e-01,1.667986331896275376e-01,2.829850427958021525e-02,2.614527584966315141e-02,-2.338944010840171908e-02,1.335445791482925415e-01
2.503243499241925574e-01,1.302713938992970943e-01,1.302992003195371784e-01,4.852393184426250731e-04,-4.121834959588655499e-04,2.604017546494879001e-03,1.201288178563117981e-01
2.559401124414555917e-01,1.341056194024489723e-01,1.311847398349960669e-01,1.510087751708232787e-03,-1.769238689339010370e-03,5.184362796650692981e-03,1.237129867076873779e-01
2.455961393778881285e-01,1.276455520224280549e-01,1.267837322066005523e-01,1.364150965196798634e-04,-3.966093723933502842e-04,2.761273145197616695e-04,1.183870434761047363e-01
2.878361041736624548e-01,1.205681111565436170e-01,1.444456034477757667e-01,-1.791651608149818706e-02,2.229727334940839311e-03,1.952965964337260996e-02,1.633307039737701416e-01
2.434290210517643382e-01,1.205012134787782907e-01,1.208187204822148697e-01,1.391503890886706084e-03,-9.793389711290475738e-04,4.637565902835357433e-03,1.230671480298042297e-01
2.502395438432840069e-01,1.311335764909593027e-01,1.315178800789700286e-01,-7.975945907703450724e-04,3.438545416650367085e-04,2.411563586704844678e-03,1.189971268177032471e-01
2.291646910333562104e-01,1.350100702040334388e-01,1.101962459486693358e-01,9.715572313454413477e-04,2.034263238128822780e-03,3.211339733415374993e-04,1.087782606482505798e-01
2.525990297579845389e-01,1.258440213155007648e-01,1.322813873205063162e-01,-1.190474035023354618e-03,-7.227902689698762753e-04,2.402944189586264830e-03,1.237555816769599915e-01
2.484426134540957121e-01,1.302517883017639821e-01,1.299545230676780461e-01,1.124391271176508307e-03,-2.571506716608704113e-04,2.099863103808243675e-03,1.184124723076820374e-01
2.495960438317625929e-01,1.301807100986916710e-01,1.293952969328552582e-01,8.624355982474974855e-04,-4.820683986498231605e-04,2.537977193579342948e-03,1.199028044939041138e-01
2.462207323920060364e-01,1.285108344485956788e-01,1.274944570794175891e-01,-5.064074840249564594e-05,-2.742875982855477973e-04,3.345264096587376797e-04,1.182237714529037476e-01
2.314170478563116196e-01,1.142837919716369055e-01,1.323861229095441572e-01,-1.071085781977284027e-04,4.785363914672528200e-04,5.181593423208316444e-04,1.092201247811317444e-01
2.482220363644057626e-01,1.206586908821559445e-01,1.286239118202515130e-01,1.772448338591920813e-03,-1.613027273082791356e-03,5.905408418570131691e-03,1.242643669247627258e-01
2.394678590489206504e-01,1.227700656400290968e-01,1.211591498494874464e-01,-1.070549101217596220e-03,5.718396947970521248e-04,1.128372547226414455e-03,1.175465807318687439e-01
2.487891907433499028e-01,1.157658028262717048e-01,1.362976123184029553e-01,1.567737648264655968e-03,-2.541500598931999838e-03,2.725292220444258586e-03,1.242360621690750122e-01
2.367735552610832905e-01,1.270832484525847850e-01,1.076584647686752161e-01,-3.088614604716668609e-03,-3.513322463367642146e-03,-3.192803897029284320e-03,1.209802776575088501e-01
2.537584761403085531e-01,1.055043618707671160e-01,1.054147241696334891e-01,-2.319974542775483668e-03,7.403512025823317556e-04,-2.262417343318329221e-02,1.534468382596969604e-01
2.455159276867573959e-01,1.270640777314713532e-01,1.198762212737649047e-01,-2.411600985777729265e-03,-4.131214087496962173e-04,-2.363017390252322020e-03,1.223463639616966248e-01
2.469466824638449354e-01,1.387793301360547293e-01,1.074372558327505445e-01,-1.453308688228160928e-04,-3.452563743967807137e-03,3.396442389603276566e-04,1.269206851720809937e-01
2.441835078401569381e-01,1.402790286024547250e-01,1.116155834102439959e-01,-1.887438401246817636e-03,-2.492701409502676938e-03,-8.939952480748065413e-04,1.209451109170913696e-01
2.465450823457698837e-01,1.287306864899512571e-01,1.280396609058612190e-01,-3.178251831520927627e-04,-1.162572345581622219e-04,3.332443451097555614e-04,1.181642860174179077e-01
2.341959981142042735e-01,1.316968959946260842e-01,1.163035605533634109e-01,1.485581403057480328e-03,-1.129734476567314117e-03,1.662896281143326147e-03,1.110836118459701538e-01
2.499656973719318054e-01,1.365459617173282736e-01,1.657672127519978500e-01,-1.616249512655578216e-02,6.699564966560026327e-03,8.018241475293350420e-03,1.073073148727416992e-01
2.263588322973768274e-01,1.266542014373563951e-01,1.027353760987348985e-01,4.107753101768088326e-03,-1.119434066354151394e-02,4.765376027043566158e-03,1.157265231013298035e-01
2.498318134515018496e-01,1.264386550056402214e-01,1.311977722513423261e-01,3.217218039269382763e-04,3.533554392082341477e-04,8.196428218542893595e-04,1.210949197411537170e-01
2.192167623575730917e-01,1.296507915650511600e-01,9.811909201987979723e-02,6.755496435248728275e-03,-2.252420319692512510e-02,7.051825468461153830e-03,1.168271899223327637e-01
1.950354358700372992e-01,2.457631116584810260e-02,2.302340387388829290e-02,-4.401071900356607475e-02,-4.024195898589556092e-02,-6.212649199798232769e-02,2.270938307046890259e-01
1.489442945351394654e-01,1.188605842998445850e-01,1.235408341588276893e-01,1.918386284386097707e-02,-1.629040287964962988e-02,1.021573439030566341e-02,5.476688966155052185e-02
2.233270763547732796e-01,1.349006292580398336e-01,1.174815900738700181e-01,1.945588968569912040e-03,-2.215740367905930444e-03,2.514770037726459483e-03,9.852928668260574341e-02
2.383764964820404564e-01,1.341282461497756706e-01,1.221183984972062098e-01,1.389729367943508265e-03,-2.417668066043918585e-03,3.190152111354718333e-03,1.109855845570564270e-01
2.328100572181768801e-01,1.290109070173672268e-01,1.163181367583043385e-01,3.363401715431129507e-03,3.853586086774308216e-03,-4.177276956193040278e-03,1.112820953130722046e-01
2.138282219900103365e-01,1.366378168324967335e-01,1.181629027247205477e-01,5.882256767913801544e-04,-8.291343376523582775e-03,2.275195745069745305e-03,8.915477246046066284e-02
2.754513411652224630e-01,1.422704153612687483e-01,1.285277908642047662e-01,-8.490942677491593229e-04,1.592557156832708626e-02,2.609862717933342929e-02,1.502089351415634155e-01
2.342454271571683677e-01,1.311957096077560614e-01,1.256162395639641716e-01,1.216847718132181230e-04,4.490269192724767643e-04,-3.237946857951632708e-03,1.061010807752609253e-01
2.376973942035943144e-01,1.130467533270916869e-01,1.406081551723002698e-01,-1.595827784016191344e-03,4.256730926123433604e-04,-1.647635084093008865e-04,1.134466007351875305e-01
2.338842366421823582e-01,1.091057846746091853e-01,1.316426648181193704e-01,-2.257968008987698994e-03,1.924729756774114751e-03,9.132402434931935487e-04,1.153011992573738098e-01
2.433975942876737131e-01,1.356140534294912048e-01,1.130606707563749924e-01,-1.425911919423364675e-03,2.535091620816878107e-03,1.799973684967479505e-03,1.207970604300498962e-01
2.272857976878215336e-01,1.125074024636239234e-01,1.335724918577723130e-01,-2.393555118497491668e-03,5.808092586388916099e-04,1.628965186175837781e-03,1.059535816311836243e-01
2.256997673064805032e-01,1.011278682222919723e-01,1.315103236627185035e-01,-4.743127201768790671e-03,4.219605570831414226e-04,-1.731536738804685715e-04,1.128032207489013672e-01
2.180912194218002642e-01,1.070028259028446560e-01,1.329891803509131998e-01,-8.547190010463058887e-03,3.287836334159635870e-03,3.036207748947446997e-03,1.020215079188346863e-01
2.135359129884810969e-01,1.100960245629367118e-01,1.135655156630530072e-01,-9.243748056012671480e-03,4.842863460265812645e-03,6.852612136058347861e-03,1.040218248963356018e-01
2.039513376991278493e-01,1.292086881771661588e-01,1.696242759704194303e-01,-5.551858045028652128e-02,5.310028622235462431e-03,-8.873093787628263040e-04,1.163314431905746460e-01
2.418758815825775843e-01,1.238305364089917482e-01,1.245472321044271552e-01,-3.012368908412873755e-04,3.266283269281784621e-04,2.954491160932368405e-04,1.176922619342803955e-01
2.439223001458211137e-01,1.254505487578476408e-01,1.249868045852997461e-01,-4.563385862659800787e-04,1.793278300135751901e-04,3.664399846408122777e-04,1.187090352177619934e-01
2.370327947432800952e-01,1.328817198492826812e-01,1.194569040829573103e-01,-7.981190128726431843e-04,2.385349367535093655e-03,3.065857365472988635e-03,1.116828545928001404e-01
2.413580399114085839e-01,1.236298607461452370e-01,1.236792579424362409e-01,-7.327662798049761018e-04,-4.923736065533211841e-04,-6.164967372512040024e-04,1.177182644605636597e-01
2.343308589530266606e-01,1.303214675482476936e-01,1.163890875311428541e-01,-1.326777075724492987e-03,4.990999472553990382e-04,4.651866272964383462e-04,1.116594821214675903e-01
2.354981516439331179e-01,1.186440285713220022e-01,1.422660160786939354e-01,-4.503055613642116886e-03,5.163860431628909849e-04,5.932228022751952993e-04,1.073091104626655579e-01
2.294933831218994857e-01,1.148041627147914218e-01,1.371986355783667011e-01,-3.091224821821973376e-03,1.253622960620579636e-03,8.234614075524482194e-04,1.054615601897239685e-01
2.339163451441025332e-01,1.163226427170271360e-01,1.325553250113350734e-01,-1.519538457274008554e-03,1.845792987942945296e-03,3.244557184382584197e-03,1.105967760086059570e-01
2.340577030724595442e-01,1.265291772466895504e-01,1.235488588811812227e-01,6.101326225358753809e-04,4.728811641794920242e-04,-3.202218804050927133e-03,1.091983765363693237e-01
2.362344878101372836e-01,1.261776363913889865e-01,1.196611020721241592e-01,-9.225467083243817058e-05,1.227611107115178740e-04,1.530105013827299685e-03,1.134868264198303223e-01
2.352961272652982494e-01,1.209250740312317884e-01,1.326571623798716570e-01,-6.704356692341277915e-04,9.142282259193215558e-04,3.061754003425354049e-03,1.091262921690940857e-01
2.444791737613400406e-01,1.324340405350539762e-01,1.192230386163903727e-01,-1.696747430349542646e-03,1.919781254740426414e-03,1.483671994780423825e-03,1.193112209439277649e-01
2.443570041972081830e-01,1.235417113581533249e-01,1.283260973743823308e-01,-4.732108089110617817e-04,1.137051363079985816e-03,8.456086325505071709e-04,1.185238137841224670e-01
2.387348544232049952e-01,1.240433912331934396e-01,1.294726225764242511e-01,-8.424483854328904467e-04,1.182622261848924848e-03,2.053178215771677990e-03,1.121601238846778870e-01
2.369791806349995367e-01,1.182338887665546345e-01,1.384398568208093372e-01,-2.740639673788711466e-03,1.819652323487915436e-03,1.878848467936509873e-03,1.102380082011222839e-01
2.272695821661491755e-01,1.117948098941030366e-01,1.301849678450092973e-01,-3.256646937042508884e-03,5.626691211456456149e-04,2.248028755883071852e-03,1.076891347765922546e-01
2.380784775785244056e-01,1.212319560082888714e-01,1.235875939212893737e-01,-1.115289146448920476e-03,1.128083981623832126e-03,1.586678182173406355e-03,1.157519444823265076e-01
2.378350822802939857e-01,1.238738545628029764e-01,1.173206537730150933e-01,-1.853637993315357261e-03,7.865703775756304828e-04,1.319675092998697907e-03,1.174491569399833679e-01
2.386761171731968112e-01,1.221354175209717341e-01,1.227220161318034880e-01,-1.759801403001522797e-04,4.625112861042649307e-04,2.819233835752087635e-04,1.162526980042457581e-01
2.372633432142539356e-01,1.194603289000561869e-01,1.224257027623678051e-01,-8.899792776074744952e-04,9.138155243547810627e-04,4.440381539334987125e-04,1.163721904158592224e-01
2.081580221585346835e-01,1.238324603117664097e-01,1.228082483485899573e-01,-6.137701865444363490e-03,6.824402283512104664e-03,7.170497525963764364e-03,8.720777928829193115e-02
2.367769181755218222e-01,1.170445350416872143e-01,1.434324560147366145e-01,-8.929090893436117393e-03,2.200189219977107240e-03,1.831476380062028357e-03,1.101655513048171997e-01
2.695342723834247001e-01,1.731225667582092231e-01,1.380824710254226206e-01,-1.579831766775761578e-02,3.766813844102488706e-02,1.277043617286967130e-02,1.392694413661956787e-01
2.470679837320895467e-01,1.245319314806674349e-01,1.298715835914139860e-01,-5.028035029508581702e-04,7.442490221874682212e-04,1.003493623028258591e-03,1.199780702590942383e-01
2.799931933630936953e-01,1.600380188368705214e-01,1.413130366955349104e-01,-2.690196938041541225e-02,5.251397771036361156e-02,3.029609022598377457e-02,1.737351119518280029e-01
2.371546834830184913e-01,1.213874471147301792e-01,1.251635168959975286e-01,-5.430331607238414113e-04,9.078769994834299997e-04,5.228041796283047207e-04,1.139444783329963684e-01
2.309097992329550708e-01,1.272352950430376550e-01,1.237148180452177781e-01,-2.885709851669908833e-04,1.148109437426007330e-03,3.743274576038967821e-03,1.056977808475494385e-01
2.438794826131712168e-01,1.267342120202252509e-01,1.231499564232574340e-01,-1.412931493680472236e-03,5.343102592611012744e-04,1.194682759018493535e-03,1.190246492624282837e-01
2.389945453864237013e-01,1.233091707663106495e-01,1.149823872349175907e-01,-5.282954518217542091e-03,5.610788683706373868e-03,6.666551437244016762e-03,1.213557943701744080e-01
2.676232280470985381e-01,1.343803861313272452e-01,1.234686064051851440e-01,-2.493237451956075920e-02,5.525410318323398240e-02,2.638008340416075556e-02,1.801063120365142822e-01
2.415200571158820364e-01,1.236531999293027234e-01,1.244183838850163593e-01,-2.633318240804596367e-04,3.904630731568480570e-04,3.056444561265489013e-04,1.174901574850082397e-01
2.408135723285808050e-01,1.112893131368480060e-01,1.356267197125617108e-01,3.105211986369496580e-03,-1.799156955816548845e-03,9.869149477276773462e-04,1.194073632359504700e-01
1.275445375921177849e-01,6.820817412520811807e-02,5.863090602891490172e-02,-4.209336533242521300e-02,5.424502652187718210e-02,2.774381710113085070e-02,1.436422318220138550e-01
2.385016354730803978e-01,1.166380902064724778e-01,1.295005894221742393e-01,9.608562425455958620e-04,-1.786517827776517089e-03,1.075434552373917768e-03,1.160366833209991455e-01
2.370612525773989065e-01,1.374072115334683264e-01,1.108113415380924394e-01,1.722978833398050233e-04,-2.116096751992797061e-03,8.075850274780813477e-05,1.153351515531539917e-01
2.416215239755065136e-01,1.214371899721197190e-01,1.258112357007635240e-01,3.255877024539125951e-04,-1.749338863743019187e-03,8.414834638892270194e-04,1.181073114275932312e-01
2.323485190091533759e-01,1.380817951407687094e-01,1.139639557338534004e-01,4.216225605111837684e-04,-6.992735109249537508e-04,-3.731130290910305864e-04,1.083688735961914062e-01
2.362294504149008434e-01,1.334000826785846916e-01,1.185652721430869444e-01,1.258753635996486204e-03,-4.210650793551434768e-04,1.515654988559580725e-03,1.110476553440093994e-01
2.355285112879895726e-01,1.371300434508554156e-01,1.151273700370328834e-01,2.438939681016037610e-03,-5.457917855424387205e-03,1.978580469640969092e-03,1.115811914205551147e-01
2.350081455114051976e-01,1.330324678802838889e-01,1.187754767382853127e-01,6.105685341214245245e-04,-2.981029829318446547e-04,2.091972203891386516e-03,1.098666489124298096e-01
2.146215305812873564e-01,1.174115011664224328e-01,1.047487913168027585e-01,3.386750826120622782e-02,-3.897726407466197557e-02,2.056758431064525244e-02,1.418057084083557129e-01
2.327901676118740437e-01,1.304738909155831461e-01,1.060407932150726484e-01,3.945512438833241424e-03,-3.593683467633085760e-03,1.811411883422436517e-03,1.168793737888336182e-01
2.071224311776340421e-01,1.336146599681470870e-01,1.109731828964388572e-01,7.152369481036840570e-04,7.014866026295366735e-03,-8.068324487526367782e-04,8.792875707149505615e-02
2.294539702249451252e-01,1.416414985795617365e-01,1.241560387531735754e-01,1.510034138744888524e-02,1.621523540483587114e-02,-9.194721717880912151e-03,1.062012463808059692e-01
2.287554906869661842e-01,1.340077616291728002e-01,1.214673728340968234e-01,7.263567627291128562e-05,1.616683562233323102e-03,-3.395783813529508824e-03,1.018087342381477356e-01
2.402079820257771448e-01,1.447965255079341484e-01,1.172337853728884355e-01,2.678281428571311924e-03,1.038599514530936380e-02,-8.236782128769631244e-04,1.133137866854667664e-01
2.500645839190464015e-01,1.327543049138074638e-01,1.292231529560382286e-01,-2.317922135687880403e-04,-1.385230918616716864e-03,4.420959203843084252e-03,1.193857789039611816e-01
2.471458986834260130e-01,1.265705629404763888e-01,1.303465523195756481e-01,4.514095187082001453e-04,3.807460411195978558e-04,9.918004324487379904e-04,1.187492161989212036e-01
2.399529626248464442e-01,1.412091657735026762e-01,1.235229568567945413e-01,2.730762287649648751e-03,3.204807851056346978e-03,-2.461475536083473047e-03,1.089995577931404114e-01
2.445218268419993013e-01,1.317698310003021511e-01,1.269636432163162298e-01,2.705496880578065269e-03,-2.048346509754459498e-03,4.140933181317429240e-03,1.156027987599372864e-01
2.529377294385645736e-01,1.363688564906923861e-01,1.228161679520823613e-01,7.116084527846191186e-04,-4.775556593329256089e-04,2.264068163031613540e-03,1.239733025431632996e-01
2.252125741816567162e-01,1.317640168974597015e-01,1.142984362269647003e-01,1.153447991314114499e-03,2.973556444321207460e-03,-2.545911290379652709e-03,1.035363450646400452e-01
2.518105308057829728e-01,1.287894827755651783e-01,1.317791421871656043e-01,4.503744747292242690e-04,-4.164974930983423164e-04,9.895235549757324355e-04,1.215705201029777527e-01
2.497328377661880983e-01,1.479380364361599642e-01,1.170457278831598669e-01,1.032896557474490863e-02,1.572551773153455651e-02,-3.114574494223288758e-03,1.247085928916931152e-01
2.352528056350091379e-01,1.353637542931204474e-01,1.157352037282459445e-01,2.442362705738578693e-03,3.596766023093942062e-03,-1.022680598009945369e-03,1.112817302346229553e-01
2.297903106309431287e-01,1.095878336447487222e-01,1.352187527453759808e-01,3.189110406310044846e-03,7.844676902536671672e-05,4.147791154609745698e-05,1.097962409257888794e-01
2.461938258228918153e-01,1.244738803673340055e-01,1.295494081488913207e-01,-1.100076684484674956e-04,1.052448686296803557e-03,7.448719917605702923e-04,1.192842721939086914e-01
1.849159077296006759e-01,1.138841307798011265e-01,1.778941534867245489e-01,-8.167441031034447518e-02,2.018964252757783975e-02,1.243791874626033050e-02,1.621577888727188110e-01
2.479053748391904788e-01,1.184075326034975950e-01,1.307372937382824951e-01,8.609131258398146315e-04,5.573478937058496969e-04,1.856730989997238280e-03,1.238488405942916870e-01
2.089888285459914619e-01,1.255101399678273388e-01,1.099259120927582323e-01,1.281090746898078028e-03,7.086288044055262525e-03,-4.597518794174696583e-03,9.344245493412017822e-02
2.409509300103130358e-01,1.178906265943912013e-01,1.250525000329922864e-01,-1.287155021796694120e-03,2.238677167523664326e-03,1.671007505695199435e-03,1.197587996721267700e-01
2.105915670280566476e-01,1.991413047599384367e-01,2.544358731333105084e-01,-8.852278874754614113e-02,-1.779546086523801571e-02,-3.349465859399234757e-03,1.644627749919891357e-01
2.419716448535781106e-01,1.225882966300175791e-01,1.243644710281741617e-01,-6.691555350366568513e-04,9.473091720270351065e-04,8.282558944255210241e-04,1.185309514403343201e-01
2.346135658357016984e-01,1.170843199869630868e-01,1.238178971599314948e-01,5.266256405573611346e-04,9.304780312115344329e-04,-1.396306453077163614e-03,1.143518760800361633e-01
2.181790280857155984e-01,1.165898352075301625e-01,1.273281621637131211e-01,-4.375385317261367216e-03,1.909598198578944285e-03,5.310045254027970750e-03,9.745634347200393677e-02
2.458311632358001764e-01,1.195639910015353774e-01,1.312453617078248036e-01,-1.220343021589043305e-03,1.663598512724181544e-03,1.672982799716835663e-03,1.209381967782974243e-01
2.294767676995818351e-01,1.142879316879533702e-01,1.358205551379682852e-01,-5.684581231595608759e-04,3.103565306530408447e-04,-6.084635965135225830e-05,1.060805022716522217e-01
2.504961621023770735e-01,1.304310771263633151e-01,1.307242196933763867e-01,3.735373426515662038e-04,3.569077401025311301e-04,1.836237880759480651e-03,1.199642866849899292e-01
2.429540570665150445e-01,1.230590296179321086e-01,1.158788895672654418e-01,-1.193456949676380795e-03,1.159460735089774168e-03,3.729072525104070411e-03,1.238436847925186157e-01
2.418951632684920305e-01,1.226103405536877189e-01,1.153467491106555665e-01,-1.212110010134134601e-03,1.050908887331423102e-03,3.789691037031820732e-03,1.232836991548538208e-01
2.466092482700295574e-01,1.243896450530456443e-01,1.263270008587241144e-01,-2.509793797151024298e-04,4.868494061398678037e-04,1.359349987154364258e-03,1.212890967726707458e-01
1.526874749097123229e-01,1.474051778669488721e-01,1.483643778768703181e-01,-4.784909783730737810e-03,-3.605926016684598656e-04,8.478516779294949278e-04,9.746213443577289581e-03
2.357319507223510913e-01,1.230604101982750165e-01,1.289785036162630627e-01,1.319232165285505053e-04,2.712108071829406322e-04,3.725513837697204313e-03,1.100227758288383484e-01
2.462108221053937451e-01,1.408801612443573992e-01,1.112663395887903139e-01,-1.644419210788092105e-03,2.443883534174163229e-03,2.785388388595481067e-03,1.230450123548507690e-01
2.433931876745592526e-01,1.228860886877230774e-01,1.250442628878754014e-01,-3.315283951581716342e-04,9.835835470293826256e-04,1.013021143553021267e-03,1.194690540432929993e-01
2.472960762274273860e-01,1.199197615145427553e-01,1.309024609702416908e-01,-1.100952191014735806e-03,1.517645922547730675e-03,1.750547736741718281e-03,1.223362088203430176e-01
1.900540655073962859e-01,7.686571999953012435e-02,1.765985792529760345e-02,-3.182394958095650928e-02,-6.933540898527623675e-02,-3.767347844705154492e-02,2.115105390548706055e-01
2.421689411318921625e-01,1.251444487641776293e-01,1.178412547231043744e-01,-2.474661250621201704e-03,1.171834829272367425e-03,2.309346546539748236e-03,1.210008785128593445e-01
2.359848535450935758e-01,1.208474121518785527e-01,1.243577510184016577e-01,-6.109080431664050881e-04,9.638113748197754422e-04,2.046256373944982387e-03,1.134955883026123047e-01
2.443721123261537731e-01,1.229757019824893882e-01,1.277245957118520181e-01,-5.705883331935181517e-04,1.448840282397135908e-03,8.624695041694692334e-04,1.191328987479209900e-01
2.385738768277324284e-01,1.179796603825256085e-01,1.280023208971470261e-01,-1.344270973354922977e-03,1.980871917546431129e-03,1.098538422994475849e-03,1.159980893135070801e-01
2.354890503595105100e-01,1.361544805632065036e-01,1.130009776867375304e-01,1.322739660956524831e-03,2.275576186853523614e-03,-1.604430296329771924e-03,1.128356829285621643e-01
2.425097948395671388e-01,1.179439758299995339e-01,1.255854558343716121e-01,-1.566069194138850623e-03,2.565392470451765324e-03,1.832679311656337925e-03,1.210799142718315125e-01
2.449259255067162688e-01,1.073869588933378250e-01,1.311393354903794550e-01,-1.124320125397213800e-02,9.397687255827411393e-03,9.596767562963685189e-03,1.308997273445129395e-01
2.390373246332085366e-01,1.140427766396008291e-01,1.395017272726652990e-01,1.570465929407110790e-03,-5.775250250378856755e-04,1.046848313493641165e-03,1.144607067108154297e-01
1.774631996217400920e-01,1.073427521632147330e-01,1.254143498842360260e-01,-1.354841993005176208e-02,4.052411289373600615e-04,1.170686109745011329e-04,6.728658080101013184e-02
1.942458699379893128e-01,1.385577375740267014e-01,1.503731772949123968e-01,-4.321225615629385730e-03,-5.307379992611175202e-04,1.063121107783803138e-03,5.141057819128036499e-02
1.904216218891765511e-01,1.380821448038107857e-01,1.366583058086858760e-01,-3.906307386488788030e-02,1.729016636192470813e-02,9.932232361039136995e-03,9.266358613967895508e-02
2.319804270045025540e-01,1.149101648822359878e-01,1.265533417854802223e-01,6.107458527590397005e-04,-4.637682856106689405e-04,1.997135208968003200e-03,1.117661371827125549e-01
2.134966833893945370e-01,1.027790798983666820e-01,1.261245367733031530e-01,9.604235186113873474e-03,-2.199926438692000313e-03,2.915845822901079985e-03,1.026420667767524719e-01
1.934103565051036866e-01,1.431052161407965206e-01,1.410200961544425535e-01,-9.514419047160294421e-03,1.109664589548580230e-02,7.302368534735564909e-03,5.865833163261413574e-02
2.481412012773495657e-01,1.052571359624956127e-01,1.393163675208921870e-01,4.013910434042545702e-03,4.474053915695886058e-04,-7.385638284777003119e-04,1.294601708650588989e-01
1.630736938317687568e-01,1.447053155114268186e-01,1.338719773937964430e-01,-2.026465605737811509e-02,1.727537140975128616e-02,6.399452238726469934e-03,5.388777703046798706e-02
1.731836480631020192e-01,1.327952523229949111e-01,1.288656247794601750e-01,-6.209978256622466011e-03,6.981403237196599776e-03,7.164952228612166130e-03,4.713063687086105347e-02
1.986572083898842656e-01,1.260923521234998401e-01,1.295340226127030259e-01,-6.084333515703814650e-03,3.971100150525871259e-03,7.172210218977150692e-03,7.307836413383483887e-02
2.217616721745800656e-01,1.516540111616135611e-01,1.394950517922795841e-01,8.260288617995161300e-03,-9.565202076504358483e-03,9.044891261459830564e-03,8.148599416017532349e-02
2.332489611598737855e-01,1.172568767758948166e-01,1.371113464771429868e-01,3.994539353466015214e-03,1.045036861254197355e-03,-2.357812201764465741e-03,1.077646762132644653e-01
2.445592855574575952e-01,1.165984559367055085e-01,1.302850363885613150e-01,1.311935535427814900e-03,-1.044366669700873447e-03,1.494221842735103060e-03,1.217583045363426208e-01
2.300986786955368513e-01,1.142478688393436526e-01,1.314014470301975157e-01,3.312579801134685241e-04,5.364844123379387993e-04,-6.086335559386048559e-04,1.083083748817443848e-01
2.430330305292490167e-01,1.081677001900051005e-01,1.277999032631029763e-01,1.737182607412515343e-03,-2.916481013448683855e-03,4.666528537412201194e-03,1.265949308872222900e-01
2.249097931519488669e-01,1.164791395537283364e-01,1.312602702646403496e-01,2.012270250506571680e-03,7.149797731520788442e-04,-2.727698330526938907e-03,1.020243242383003235e-01
2.381151700813646244e-01,1.203615007193634123e-01,1.245568099804016948e-01,7.125701742749996400e-04,-1.217667847793186533e-03,8.873312605252375515e-04,1.157490685582160950e-01
4.587260130116856405e-01,2.776307197372690494e-01,2.184621922019762963e-01,-3.602305409404315661e-03,1.852996746973601012e-03,5.110493850168757596e-02,2.342988252639770508e-01
2.130899424173729739e-01,1.147630579802781381e-01,1.367672318978817303e-01,5.680333913218144418e-03,5.712609880995904053e-04,-1.436268951647070267e-03,8.995956927537918091e-02
2.080613544710970819e-01,1.106889483849833600e-01,1.265122367834155548e-01,5.802243428319898109e-03,3.146051893073473649e-03,-5.406022707537034948e-03,9.170265495777130127e-02
2.319975131349985564e-01,1.109924047454131091e-01,1.337257448402755511e-01,1.632010341442729053e-03,1.543707454266212385e-03,-1.543658457261899838e-03,1.114920601248741150e-01
2.166799316662742503e-01,1.143719832282247412e-01,1.247389204674066582e-01,4.188541343110899554e-03,2.776458407527900192e-03,-4.864062258792076036e-03,9.828786551952362061e-02
2.338011520786886510e-01,1.204615858425777397e-01,1.359642790429588799e-01,6.454978366510866032e-04,4.637160403305047541e-04,-1.874972876875698928e-03,1.064967811107635498e-01
2.766224755035889271e-01,9.178207709950689241e-02,9.680445802853354653e-02,-8.054521775014825136e-03,-6.167012988741640139e-04,4.815149385041302132e-02,2.010331451892852783e-01
2.480826865931102798e-01,1.209238727960093018e-01,1.316025636930102938e-01,7.601097667145727136e-04,1.616581032253217856e-03,1.375015323610580004e-03,1.222323775291442871e-01
2.452476099858389991e-01,1.257359576612288588e-01,1.241114741189082715e-01,8.639895780035916151e-05,6.136926693430189367e-05,1.949705732981217533e-03,1.203796342015266418e-01
2.577436745254211292e-01,1.137079983843846398e-01,1.368393686184524449e-01,8.015877480604376853e-03,-3.639608157895695122e-03,6.613971437084480327e-03,1.353267580270767212e-01
2.450021299327388435e-01,1.299856952077803607e-01,1.142774103963136029e-01,1.345503591110465543e-03,-1.583432170764067885e-03,1.800134908292594675e-03,1.237130388617515564e-01
2.455691120382073045e-01,1.250338597701448062e-01,1.267161313924649313e-01,3.351998239685655785e-04,-2.545176091689260798e-04,1.571266457520484588e-03,1.197361350059509277e-01
2.554923128196757154e-01,1.255811005081407528e-01,1.364113307822688026e-01,3.393808325929024115e-04,-1.673780411836054378e-05,1.396329739162332009e-03,1.248737126588821411e-01
2.559229661632314579e-01,1.111353482032619855e-01,1.439268187245595354e-01,1.436750218509484254e-03,8.001198144427921664e-05,1.008598569262868705e-03,1.315302252769470215e-01
2.493812423104109222e-01,1.219824535616301497e-01,1.295418049706057728e-01,1.241224492702610455e-03,-6.071482442891953804e-04,2.672580749934798210e-03,1.239019706845283508e-01
2.431522707043471399e-01,1.257495387472890858e-01,1.175683576628126226e-01,1.672271775602402746e-03,-9.469417910362325826e-04,2.005271412156016658e-03,1.217947825789451599e-01
2.072210139882312563e-01,1.272458505115964256e-01,1.479762842574923465e-01,-5.092966100674048945e-03,2.119007967061896716e-03,-8.265720778198507425e-04,7.253408432006835938e-02
2.302309998582249273e-01,1.150183620374186089e-01,1.369596043904623694e-01,-9.158671471822620426e-04,-3.510332359674197828e-05,-3.786005936476286005e-04,1.059736385941505432e-01
2.450087677486746940e-01,1.265118836091072008e-01,1.242765864490356087e-01,8.107680681090228842e-04,-3.364744569978577599e-04,1.085187066241564361e-03,1.196546182036399841e-01
2.431358341854477634e-01,1.067108761324190025e-01,1.400091759535368185e-01,4.913416063141986742e-03,3.506036020940994083e-04,-9.392501263173731003e-04,1.235041171312332153e-01
2.524734819537229891e-01,1.001400134138892700e-01,1.396213482719838583e-01,-2.201744516923856854e-03,6.259776372859082900e-04,1.075330602688992672e-03,1.370004415512084961e-01
2.296927229788368607e-01,1.048555429262800487e-01,1.302598873334990803e-01,-2.978417919271588235e-03,2.037487145509408494e-03,1.207108561843244160e-03,1.144628077745437622e-01
2.465388221400454105e-01,1.285321695293749622e-01,1.242915138911442757e-01,1.166967284552362233e-03,-2.728727614759689354e-04,7.163546449662096640e-04,1.202074363827705383e-01
1.864685362799492485e-01,1.392342668769994130e-01,1.205118178791950156e-01,1.049933140713829645e-05,7.306439328888662474e-03,6.145074106928214699e-04,6.022651121020317078e-02
2.368991674801803615e-01,1.162497618295181834e-01,1.139782350814293882e-01,-1.452501634270262319e-02,1.441967851136199442e-02,1.941954096831857018e-02,1.312385648488998413e-01
1.852584578136982629e-01,1.565533195830185742e-01,1.435556762732868585e-01,-6.225774810002892776e-03,1.711548793062974555e-02,1.033950892725387337e-02,5.178648233413696289e-02
2.358374213300225564e-01,1.185356820002820832e-01,1.266523933158642257e-01,-1.210410270984795889e-03,1.175793961737195588e-03,2.691574425133042448e-03,1.135946810245513916e-01
1.655150238829495857e-01,2.086048465496091464e-01,2.490977795748272328e-01,-6.001231273748963008e-02,4.612033489080077410e-03,5.097164033489044385e-03,1.272298395633697510e-01
2.383599218774605788e-01,1.197505602016754322e-01,1.286969492049256647e-01,-1.128959073794928410e-03,2.119633489069713654e-03,1.226497019041139329e-03,1.144941374659538269e-01
1.706940371214212548e-01,1.393244291500309040e-01,1.430814750797078649e-01,-1.361597679399275708e-02,1.238250987090722295e-02,3.606626802381462417e-03,4.399429634213447571e-02
2.478939450588487914e-01,1.455921815981367218e-01,1.066061311900402403e-01,-7.491855021104466220e-04,1.215961347480145477e-02,4.047665805899850963e-03,1.283289045095443726e-01
2.316522067372886462e-01,1.133378872081253486e-01,1.364260119595216980e-01,-1.904582026795480698e-03,-1.221758062849829162e-03,-1.175343128017851445e-03,1.087160930037498474e-01
2.319798717862884829e-01,1.163752173689891478e-01,1.368018295832880149e-01,-5.095635590903223105e-04,2.619889463468982513e-04,9.991032815432018301e-04,1.068842858076095581e-01
1.575168903989256908e-01,1.252377921712571895e-01,1.211413923682510552e-01,-1.402927387791213891e-02,1.380162913221019173e-02,5.998738709073233276e-03,4.960665106773376465e-02
1.728201407117904709e-01,1.323086766801320757e-01,1.354611644946545623e-01,-7.192070920379456736e-03,5.370535720655634192e-03,4.271455890864349694e-03,4.265965893864631653e-02
1.915915573034915054e-01,1.406187830608629508e-01,1.375496049596353632e-01,-4.543706397627325817e-03,2.415690224492295698e-03,4.372820579332595270e-03,5.385996028780937195e-02
2.276072303329181312e-01,1.302842124834176774e-01,1.130635196176875690e-01,7.655633597523037138e-04,3.489231784759025314e-03,-2.597586307669917140e-03,1.072511821985244751e-01
2.391975028586740826e-01,1.264115311339437386e-01,1.186597590568946453e-01,1.414809948486025560e-03,7.157121153984423965e-04,-1.756987850555270098e-03,1.169267296791076660e-01
2.350959576927551531e-01,1.281410808034010307e-01,1.139177188210347275e-01,1.891072802011591406e-03,1.060569582944188502e-03,-1.370378189208518432e-03,1.148156970739364624e-01
2.363181695283731454e-01,1.182299237999618335e-01,1.360752478079647609e-01,3.616048752572810021e-04,-1.221993448433853413e-03,8.527923696748825055e-04,1.102860867977142334e-01
2.364651338251140267e-01,1.358208296107145663e-01,1.125676738942574528e-01,2.107529147441330759e-03,1.491727319912201965e-03,-1.299779010862844300e-03,1.141724660992622375e-01
2.327769141140323406e-01,1.307712484346418291e-01,1.155792721570482184e-01,2.114001667011697946e-03,2.186448592635760035e-03,-2.508906924500748942e-03,1.105995103716850281e-01
2.344062415526619592e-01,1.339776136309193955e-01,1.098835632695964737e-01,2.504454649410939229e-03,2.116920325390654091e-03,-1.655425664703439074e-03,1.145715788006782532e-01
2.311935199447189837e-01,1.145973002424573173e-01,1.330697664469956687e-01,6.401342758605631190e-04,-3.526417203248657819e-04,1.485709335715092649e-03,1.085832193493843079e-01
2.329328582829872651e-01,1.274661378713482507e-01,1.123999467602075641e-01,3.171478538207427554e-03,2.206774158537315976e-03,-3.328384118625951713e-03,1.140930280089378357e-01
2.361731939031881389e-01,1.247638537737489339e-01,1.192944666554989208e-01,1.928385762266974710e-03,2.742184802143814853e-03,-3.599689584927854083e-03,1.145595237612724304e-01
2.264606162756137020e-01,1.333902629370323778e-01,9.955928281119155732e-02,2.550345269142388367e-03,1.329153243813305588e-02,-2.709856986109088119e-03,1.163048744201660156e-01
2.347536145001051233e-01,1.319322592874103695e-01,1.167402768966685489e-01,2.839668900336943507e-03,2.538172023441647059e-03,-2.522506978104811001e-03,1.114795729517936707e-01
1.911774721135712229e-01,1.343163982416801239e-01,1.248891820287128529e-01,1.466964348021935777e-03,8.761719859196834617e-03,-3.044134039902362220e-03,6.420790404081344604e-02
2.337484373136943239e-01,1.339363705872780863e-01,1.221801801944919497e-01,1.579485026905038140e-03,1.416599332460186707e-03,-3.469193729535555853e-03,1.064127683639526367e-01
2.137337855768466355e-01,1.227484452945642457e-01,1.119017285316053212e-01,3.542322638047731929e-03,5.395464181824433103e-03,-5.314711236912472887e-03,9.794177860021591187e-02
2.429878201992874132e-01,1.261371789198412197e-01,1.252035732202157747e-01,1.006041534719693924e-03,-1.392895447536328423e-03,1.836640575368519166e-03,1.174010783433914185e-01
2.080600639137863417e-01,1.276830539504948403e-01,1.097632748569045275e-01,2.357927686867801464e-03,5.268612197749367003e-03,-3.653486738788960624e-03,9.144352376461029053e-02
2.362240980231785081e-01,1.184794067011139262e-01,1.329050087592132390e-01,-3.135197220080522540e-03,-1.602587167711989197e-03,-2.371299134979739515e-03,1.114784032106399536e-01
2.381280486846907296e-01,1.132382340514508229e-01,1.355874677808817652e-01,1.591295774528656655e-03,-1.502408397705149194e-03,1.131402147225909734e-03,1.154295057058334351e-01
2.436379728071741968e-01,1.310076912375334746e-01,1.371533720259251188e-01,-5.114408395920759694e-03,-4.542136224141321392e-03,-5.995233930877574662e-03,1.108122393488883972e-01
2.469455227237183359e-01,1.038971455649606301e-01,1.332550903782607765e-01,-1.302557721515214251e-04,9.051049111812704091e-04,2.020290977279233340e-03,1.309193372726440430e-01
2.344501105972922050e-01,1.212196278971417879e-01,1.242462859253989083e-01,-1.059311405494170206e-03,-1.157136535475618505e-03,-2.769399574799170146e-03,1.118838042020797729e-01
2.479162948963908875e-01,1.047990249562193443e-01,1.385470329508443899e-01,2.747034658347697299e-03,4.894636359027564358e-04,8.156549824881358449e-04,1.296800374984741211e-01
2.339701935144688494e-01,1.175083653123983052e-01,1.255236722740213362e-01,-6.526948441073397939e-04,-1.828990944697069659e-03,-1.009770798669347349e-03,1.127319708466529846e-01
1.698529049965126214e-01,1.174222782111282726e-01,1.369766045717234204e-01,3.118590958989589726e-02,4.160893268664793789e-04,3.917591094683666939e-03,7.120633125305175781e-02
3.107360437003987008e-01,1.741933411520454889e-01,2.627134365587706633e-01,9.141631510583110576e-02,-3.311058025765735435e-02,2.042746656529921545e-02,2.097726166248321533e-01
2.462177156940277833e-01,1.032287663209370959e-01,1.337126832426916712e-01,9.370541334854529331e-04,-8.317436430548430125e-04,3.140213645454305118e-04,1.304655224084854126e-01
2.596291957187795152e-01,1.084380067761117755e-01,1.450826900268042952e-01,-2.284820993177551392e-03,-1.497510514040460011e-04,4.138127054757322933e-03,1.368515789508819580e-01
2.626377385851412782e-01,1.210003716552246478e-01,1.452507846940733760e-01,5.459146042200453859e-03,-7.410016779147383719e-04,2.357841776258190383e-03,1.316138058900833130e-01
2.487368915015161774e-01,1.091101551605661302e-01,1.364063241378173641e-01,2.539955633744954075e-03,-1.357318375469877565e-03,1.553766405448579269e-03,1.283025890588760376e-01
2.637325054398305668e-01,1.260733455018254734e-01,1.436093546025430379e-01,4.340373355854734369e-03,-1.298016639332969305e-03,7.702900114903240940e-03,1.307024806737899780e-01
2.482623061009547882e-01,1.049507399706657990e-01,1.359985486244241759e-01,6.839371209503215029e-04,-1.423910250557587935e-03,6.159218317305347737e-04,1.306188553571701050e-01
2.493065256455926637e-01,8.758885177660998000e-02,1.135792304523576962e-01,-1.689705088007346532e-03,5.420979776420335825e-04,1.917346193185017617e-02,1.540691852569580078e-01
2.955579033142194945e-01,1.280771685318902176e-01,1.790395140428422960e-01,-4.193248497226224718e-03,-5.887885316159482095e-03,1.155047203222379047e-02,1.505614072084426880e-01
2.624025283414757048e-01,1.148754348656642055e-01,1.477219091731142575e-01,-9.382782883770263236e-04,3.234279268978378801e-04,2.052415645238801767e-03,1.342124491930007935e-01
2.127916072681130810e-01,1.306270410749860722e-01,1.474426410206131910e-01,-3.632460169730105087e-03,8.655205309633102594e-04,3.000259903356471136e-03,7.563709467649459839e-02
2.641168748512603415e-01,1.196270447206013443e-01,1.517431682964013873e-01,4.698038688257209772e-03,-1.035979519585081580e-03,3.241492055489026466e-03,1.317924857139587402e-01
2.532213412686113996e-01,1.351768762049685990e-01,1.213094424147695694e-01,-1.255322299133788120e-04,4.119317530347311259e-04,-1.942154213484950827e-03,1.256011426448822021e-01
2.468068727364344794e-01,1.277068428851732274e-01,1.274445783410551591e-01,1.013061882835342668e-04,-2.668120656779704469e-04,-1.374737094205667688e-04,1.192326396703720093e-01
2.493442991777692352e-01,1.105047236556539192e-01,1.431564723303555553e-01,-3.436458668844077653e-03,4.835289926943404080e-04,3.791096919148658753e-04,1.258799880743026733e-01
2.375825491753980057e-01,1.079163461166423449e-01,1.384587250766382283e-01,-5.287244658302140202e-03,1.291768744228462707e-03,1.023091286569120274e-03,1.178043186664581299e-01
2.251838769378026184e-01,1.135123261868939692e-01,1.380950654216910323e-01,-3.201301693557092546e-03,-2.163583932756786153e-04,4.895879854171630028e-04,1.017902642488479614e-01
2.311060520225478587e-01,1.158675829112276734e-01,1.385639369967633927e-01,-1.196665967052462165e-03,9.791370316878045652e-07,4.925783841778591477e-04,1.057570800185203552e-01
2.307526005392157575e-01,1.162894566078963299e-01,1.370629122083627527e-01,-1.383252034525664191e-03,-2.460169724323981117e-04,6.190611447839743748e-04,1.056533232331275940e-01
2.366997471679224696e-01,1.138731286287716360e-01,1.346382573740921296e-01,-1.249648721329254045e-03,1.809404148890487313e-03,8.135993821791230119e-04,1.139453873038291931e-01
2.238568052940694830e-01,1.086652310003104888e-01,1.353400866756973853e-01,-7.792259965115442590e-03,3.202701012479180088e-03,1.650427705163962045e-03,1.054942160844802856e-01
2.424218295532620804e-01,1.129289156528158339e-01,1.361267365969061061e-01,-2.206340125552670901e-03,1.710196626815899514e-03,9.907859213499493455e-04,1.197034791111946106e-01
2.623942748224623034e-01,1.140803311757320609e-01,1.502927085481593206e-01,1.626673215387195413e-03,-1.832251995328378546e-03,1.054633084094245806e-03,1.340108513832092285e-01
2.151104092119137667e-01,1.284494192815135438e-01,1.133883800312197876e-01,-1.694555018149231400e-03,-5.177449472368394166e-03,-4.153034839573153947e-03,9.582766890525817871e-02
2.315546659955648456e-01,1.060758615436128149e-01,1.344392523505047177e-01,-2.599576726015184747e-03,-8.524721952534578852e-04,-4.204849632052359973e-04,1.140762567520141602e-01
2.560231720570840253e-01,1.149375742972939818e-01,1.408679708463766722e-01,1.771778301079921793e-04,-4.178171632062712120e-04,-1.816950132757809856e-03,1.301139742136001587e-01
2.422699695149402310e-01,1.126236991961363093e-01,1.355478472037078275e-01,-2.183564720595220898e-03,1.810434762888088510e-03,1.052713782637985495e-03,1.199545860290527344e-01
2.505518772058523691e-01,9.097098698082412005e-02,1.388620271624804725e-01,-1.228097773978902019e-02,-8.777440556462947187e-04,-3.022672129912498847e-03,1.435245871543884277e-01
2.325855212277128103e-01,1.061000426433752197e-01,1.345314361056711427e-01,-2.891247198973420206e-03,6.984884378178462519e-04,9.653279809644495994e-05,1.150536015629768372e-01
2.391353278963809781e-01,1.152054177841314031e-01,1.357405372831071988e-01,-9.621768908231195057e-04,1.334781744433957565e-03,8.620916765663580016e-04,1.150901839137077332e-01
2.466947207304277523e-01,1.105767860638286609e-01,1.425706205858217057e-01,-7.787475009060410708e-03,3.331445692049291290e-04,-1.060414362514299587e-03,1.240258216857910156e-01
2.236767097424363637e-01,1.105023800490217700e-01,1.332420837736465191e-01,3.958291555627676747e-03,1.909535579528056747e-04,-1.033635408960592150e-03,1.039340719580650330e-01
2.298305217342331286e-01,1.104854025757445735e-01,1.358183557519865026e-01,-2.349435367932434498e-03,-2.601739725394149310e-04,-3.851087740994612620e-06,1.089881360530853271e-01
2.338271674069594686e-01,1.160943480812563350e-01,1.376575423525039366e-01,-7.062907218418336365e-04,4.107540720072311150e-04,7.443272094377774819e-04,1.085861772298812866e-01
2.176533752748556205e-01,1.322853407972562345e-01,1.049097168929602752e-01,2.911686656998724657e-04,-9.133832467689770307e-03,2.490274053508563143e-04,1.030769124627113342e-01
2.422807920758843769e-01,1.398132626640043452e-01,1.082949532502067991e-01,6.453335015745538051e-04,3.970446710507207627e-03,-2.306943474179860192e-04,1.215372532606124878e-01
2.265417738716408447e-01,1.413606192594182853e-01,1.191614091152693455e-01,-3.226454054928270718e-04,-1.518762934621535870e-03,-6.721356423316243332e-04,9.822513163089752197e-02
1.759808884927789308e-01,1.167238016418618435e-01,1.015822396042180276e-01,2.549449218481283919e-03,-1.177151246547081427e-02,5.632037278955565572e-03,7.189074158668518066e-02
2.429375547415230652e-01,1.248448865815812298e-01,1.238926577043370503e-01,1.148970638017135677e-04,1.322922301511396013e-04,-4.493834774387140286e-04,1.185745969414710999e-01
2.072755056896019021e-01,1.330822224116434138e-01,1.111456100277151138e-01,4.559747870164154119e-04,-6.666420586922908002e-03,1.699035923426083861e-03,8.806823939085006714e-02
2.860987184906708669e-01,1.930044132327919937e-01,1.386850627468745600e-01,-1.711433800505762206e-03,4.015667420244645874e-02,-1.386442735683007018e-03,1.467180699110031128e-01
2.317507002544328676e-01,1.136581828316399062e-01,1.366977387541984390e-01,1.083566283636760779e-03,4.683987130346998302e-04,-2.331716229629700625e-04,1.084444969892501831e-01
2.314868705689469008e-01,1.134727834111677880e-01,1.361048730165993759e-01,8.215891929345268182e-04,9.245590163193626184e-05,3.055637640332884201e-04,1.084940657019615173e-01
2.256062204523813230e-01,1.351302977792990245e-01,1.180129310036756307e-01,3.102990525496867615e-04,-1.319128007105561939e-03,-2.918938357169308714e-03,1.002929508686065674e-01
2.104193388529895237e-01,1.350388350444480523e-01,1.157975889636980033e-01,-2.864528254718165805e-04,-4.778176572783628985e-03,-1.826558877658406932e-03,8.707243204116821289e-02
2.293107051850655220e-01,1.367219140487475615e-01,1.183340432352393834e-01,-2.843610307478976196e-04,-2.511299766452331113e-03,-2.586010523059747990e-03,1.032111123204231262e-01
2.402953968365368898e-01,1.036382949593707692e-01,1.371605776157984180e-01,4.151025596232020380e-03,1.008968591541526977e-03,-4.518214574590933208e-04,1.235848218202590942e-01
3.025939618143324017e-01,1.304224574570771455e-01,2.294734345914398177e-01,1.023179734455008372e-01,-1.849924197386293087e-02,6.743761329582011015e-03,2.344576120376586914e-01
2.343585217813347610e-01,1.549063789899959576e-01,1.260366809830509027e-01,3.225351943939183327e-03,-2.126560634628871238e-02,5.434037459320588577e-03,1.044812649488449097e-01
2.315803101424144250e-01,1.360806499314671791e-01,1.105276640596910831e-01,-6.328064718999057339e-04,-2.239492023643099676e-03,-4.770793645176639279e-04,1.105910092592239380e-01
2.337970201383182955e-01,1.371591373061092078e-01,1.184272659539124667e-01,-6.245569442838223850e-03,-1.261508459870543976e-02,-9.696482088113897446e-03,1.112496256828308105e-01
2.348313718650634208e-01,9.472569807159812727e-02,1.289048526325254906e-01,-5.968539782832718923e-03,-4.488121660680194878e-03,-4.306015318923916632e-03,1.274050474166870117e-01
2.490308849389281654e-01,1.061881939891039239e-01,1.408146327835232969e-01,2.744434085335390686e-03,2.163184994313321853e-05,8.267214349138956838e-04,1.291570365428924561e-01
1.550365634945159443e-01,4.783153909344448756e-02,4.831116429943126123e-02,-6.187232900433250332e-02,-6.404518358253877275e-02,-4.218408487196130541e-02,2.014202922582626343e-01
2.605979916383205364e-01,9.418377292790316990e-02,1.558904787708080553e-01,-7.686782453152716382e-03,1.710982005968213876e-04,-8.099617779325671632e-03,1.469921618700027466e-01
1.152346274604194448e-01,4.513248934794037576e-02,8.042397709426851726e-02,6.499790685896357501e-02,-4.037500489335824755e-02,2.958487655771174091e-02,1.545192301273345947e-01
2.072788835451958855e-01,1.284951158835038743e-01,1.203869411341556284e-01,1.478981018402370862e-03,3.002547949128678804e-03,-4.196293468761714586e-03,8.365316689014434814e-02
1.942923019377356952e-01,3.314721291382707880e-02,1.152191098893588783e-01,4.630273451472292912e-02,-1.117213735800066943e-02,1.879994517578722005e-02,1.653621643781661987e-01
2.835443548342908571e-01,1.054437609065509013e-01,1.574515451824252676e-01,-1.066486742582256966e-02,-9.254114098896946972e-03,-3.298437020359037790e-03,1.606013327836990356e-01
2.476497061582373926e-01,9.242849050512212672e-02,1.724680946036938334e-01,3.642179038573127581e-02,-2.485656199390020096e-02,3.563779933427448782e-02,1.664916276931762695e-01
2.437146245173195391e-01,7.280291410620653991e-02,1.243068610132829904e-01,-8.083950318397870038e-03,-7.249416563776935139e-04,-1.135439915122585935e-02,1.537700742483139038e-01
2.985368861038646959e-01,1.319607684960656113e-01,1.846871874880050834e-01,-1.856831100568156340e-02,-2.050328617941040918e-03,-1.077140047254968730e-02,1.521175354719161987e-01
2.406624584019838586e-01,1.270314808727124045e-01,1.228458761778262465e-01,-2.414588462563348366e-03,-2.080036505637837974e-03,-3.089610840550453905e-03,1.160355135798454285e-01
2.408430025716793432e-01,1.079746101469602759e-01,1.378443178278762338e-01,-3.275558591996985749e-03,6.988843369182669253e-04,2.224244404840760366e-05,1.208764836192131042e-01
2.424100520479018916e-01,1.292695860300573374e-01,1.244098794254867718e-01,-1.918707393862686787e-03,-1.879165744440350208e-03,-2.791906281438217164e-03,1.158414185047149658e-01
2.429241915740107394e-01,1.216524126070976097e-01,1.202010649351076960e-01,-1.647013106119771296e-03,-3.009469498516445431e-03,-3.980136837456238474e-03,1.223429292440414429e-01
2.597140675517477515e-01,1.143619270060334397e-01,1.523771650770498198e-01,2.072169938473998173e-03,4.074013703299159280e-04,-3.913599432414501477e-04,1.306164115667343140e-01
2.471566317556601611e-01,1.278272697040729322e-01,1.259977272925371372e-01,-2.562227958157538049e-04,-1.114735674736545877e-03,-1.633776151872704278e-03,1.203041747212409973e-01
2.410912908874248972e-01,1.216852293460189416e-01,1.234910269046420872e-01,-3.011174967397435196e-04,7.526275636384870821e-04,1.302823567902425001e-03,1.185432747006416321e-01
2.413952666956151738e-01,1.255302265869237544e-01,1.189793831362861709e-01,-2.002581932209605755e-03,-1.361248195841291983e-03,-1.995928450223758560e-03,1.193992272019386292e-01
4.430881008187427250e-01,1.740457519085286398e-01,2.568143746043991538e-01,-2.353726399156436805e-02,2.764369060560670005e-04,-4.442106688088477695e-02,2.540631890296936035e-01
2.322551956510218174e-01,1.126075692372239812e-01,1.386122834937441317e-01,-2.571129021543576074e-03,5.033082708955922534e-04,-2.015022217497616699e-04,1.090922132134437561e-01
2.404002088602689713e-01,1.204485479399151487e-01,1.202172703220254490e-01,-2.204686677896046994e-03,-2.261121593783865444e-03,-3.251830346781749842e-03,1.203238964080810547e-01
2.420375193601519981e-01,1.215826039785621870e-01,1.239293124013702008e-01,-7.376081209110798165e-04,-1.092443510333750752e-03,-1.240772464227947978e-03,1.193400695919990540e-01
2.433859305188600386e-01,1.258975478706718942e-01,1.266978999195682576e-01,-1.203369787852182722e-03,8.259305334428308169e-04,1.470470343996679863e-03,1.171452328562736511e-01
2.908012341602030926e-01,1.563704728026247548e-01,1.305614035233794712e-01,5.350666032331622096e-05,1.915517669063782069e-03,1.306891062800879036e-02,1.507669538259506226e-01
2.059666132056346688e-01,1.109763533895961607e-01,1.366442540734358058e-01,-6.736644858560378139e-03,5.177945912777418523e-04,1.790250299035365004e-03,8.596718311309814453e-02
2.260494673684057265e-01,1.518254195930326678e-01,1.420966423586063343e-01,-8.139680863455643622e-03,3.793075811108958389e-02,9.491386927884617325e-03,1.054097563028335571e-01
2.355929171014012335e-01,1.108391236792348883e-01,1.365849103869759551e-01,-1.989321577855620617e-03,8.225230339017769194e-04,5.629143847018532433e-04,1.141460537910461426e-01
2.370672259983926111e-01,1.219226051535548527e-01,1.337051397660901364e-01,-1.769546590505394028e-03,1.744767444840012414e-03,3.063905991581533910e-03,1.099413707852363586e-01
2.130620613631762916e-01,1.059774861349158381e-01,9.890741323466573087e-02,-1.182531134370467737e-02,1.524584850777499327e-02,1.180496760519752879e-02,1.175120472908020020e-01
2.293137555341806522e-01,1.235685824792566029e-01,1.469222378261011708e-01,-2.768990362409298571e-03,6.841928981275498950e-04,-4.419155248394126797e-04,9.634775668382644653e-02
2.243432515833727048e-01,1.109266305963870075e-01,1.341519100839340672e-01,-3.769258547926598781e-03,-7.334970266352344379e-04,-1.216036928869355114e-03,1.040061712265014648e-01
2.312220146890895944e-01,1.210820701176029968e-01,1.193594154202679836e-01,-2.165255563427402868e-03,1.365273588044605161e-03,2.738602625260895280e-03,1.112010106444358826e-01
2.823830177996805024e-01,1.879031139382907889e-01,1.478367678633638882e-01,-1.533783758993845052e-02,-3.450937301683518893e-02,-1.321960111735262164e-02,1.382748782634735107e-01
2.544257184257300852e-01,1.095752482028320568e-01,1.408932901681717864e-01,-5.951172075666732010e-04,-1.196932359850080233e-03,-2.881393650627067302e-03,1.321223378181457520e-01
2.399545985273484616e-01,1.181857212786046191e-01,1.361384083829288438e-01,1.662005680702613236e-03,1.272736777432476041e-03,-1.048628833074220952e-03,1.139312312006950378e-01
2.391848808680759331e-01,1.230672667469416282e-01,1.273888545269500627e-01,-1.333379789108896703e-03,1.386977362236484256e-03,2.021174182456538307e-03,1.141206547617912292e-01
2.318009622610656129e-01,1.155043657067244267e-01,1.259614763704363927e-01,7.277332450013203856e-04,1.344942266236149892e-03,-1.035605631969011616e-03,1.114825382828712463e-01
2.411911937846556442e-01,1.235619041611667190e-01,1.225447840953120815e-01,-9.868181792521797061e-04,-6.056492491157140475e-04,-1.213707440686100092e-03,1.181768551468849182e-01
2.425091776194826521e-01,1.213703178244562308e-01,1.226224114114245478e-01,-6.258580818875530234e-04,-1.051778670205288360e-03,-9.516521708646676720e-04,1.205476000905036926e-01
3.045922277332863137e-01,1.759903742930084836e-01,1.450337494092449886e-01,-1.775645599124100679e-02,-2.019067411675846621e-02,-2.331999950674583724e-02,1.589910686016082764e-01
2.272566817453198773e-01,1.385043306908116667e-01,1.199645755659922153e-01,1.070781758998001851e-03,1.424536487197419028e-03,-2.440387260097101000e-03,9.946629405021667480e-02
2.479679522253510626e-01,1.357332812923870702e-01,1.226074848302123599e-01,-2.935575201225154324e-03,-5.007541445481394730e-03,-6.525840822727915942e-03,1.202951222658157349e-01
2.260504407584451314e-01,1.309931079796451681e-01,1.479092411036301569e-01,1.045823434842979051e-02,3.147466009503697331e-04,-2.158684292064727128e-03,8.975773304700851440e-02
2.408634616893366442e-01,1.164417975822016338e-01,1.243666469080403486e-01,-1.596711214678191680e-03,-2.710256602620956471e-03,-1.902785169831303254e-03,1.208225041627883911e-01
2.442421194357012881e-01,1.239074223780624734e-01,1.247298386013689642e-01,-3.583245330988491157e-04,-7.986919255132456054e-04,-9.728103982902461125e-04,1.199470236897468567e-01
2.307926163046687407e-01,1.398782287373584454e-01,1.289346081987508552e-01,-2.887260664952933167e-02,-4.163271469325599550e-02,-1.328986487785336831e-02,1.327053606510162354e-01
2.407644774240839669e-01,1.037137269188274091e-01,1.370437352765934147e-01,4.165580079362357288e-03,-7.255785591446021988e-04,5.871724481032173553e-04,1.240184083580970764e-01
2.410072259665780869e-01,1.212962416661289289e-01,1.233348476352020828e-01,-6.150565470493696719e-04,-1.386883155002557660e-03,-8.421753172074664768e-04,1.187428534030914307e-01
2.478870624559573466e-01,1.039809341113666630e-01,1.396616900009349793e-01,3.320838506828569132e-03,2.861309286467512395e-04,-7.612799443652102857e-04,1.299325972795486450e-01
2.365617486235190026e-01,1.144520534792853039e-01,1.220598833866731459e-01,-1.430233772352857823e-03,-2.806191164776643265e-03,-1.846987596123260585e-03,1.186577528715133667e-01
2.487740688674387468e-01,1.292588109809060248e-01,1.296317236321758437e-01,-9.948265474586913144e-04,9.396464436865055404e-04,-1.435807916254511381e-03,1.193786785006523132e-01
2.511062502304778343e-01,1.020055773146053696e-01,1.389292965889673825e-01,1.684852309406832324e-03,3.040899560263758575e-04,-4.691194746965495301e-04,1.345305740833282471e-01
2.502014053397350057e-01,1.169457757335716219e-01,1.371838941969709402e-01,1.949265767318888272e-03,-2.309356605660328569e-03,2.785993486807827619e-03,1.245812401175498962e-01
2.432364718970218553e-01,1.170098300567476990e-01,1.231864381151183407e-01,-2.004587654220787031e-04,5.131777870105885039e-04,-3.292540690613550772e-03,1.233900189399719238e-01
2.451794987522331049e-01,1.264244534324312219e-01,1.249197090725555070e-01,2.171547617662336984e-04,2.232913441924158040e-07,-1.199995247774387954e-03,1.195331886410713196e-01
2.465740153306413274e-01,1.262915604040043549e-01,1.263536203114868639e-01,3.102656841703011403e-04,7.785182905678841414e-05,-1.267012387026844687e-03,1.202727332711219788e-01
2.432751684268386616e-01,1.141891941925047560e-01,1.355836429995000980e-01,2.689343273521637052e-03,1.590581224693063617e-03,-1.144858449905389102e-03,1.199683621525764465e-01
2.611174112770057176e-01,1.348544300172210830e-01,1.383587641475673147e-01,4.558005022261821574e-04,-7.851929565306757248e-04,-5.649993062522385562e-03,1.249415576457977295e-01
2.464256119743070683e-01,1.273463927888627278e-01,1.310806610608356293e-01,-2.199422155366589308e-03,-2.213103870237044871e-03,-3.903587510637032687e-03,1.175757274031639099e-01
2.453105004997668814e-01,1.187858286340005426e-01,1.255870405807201773e-01,-1.032998314630319308e-04,-2.316661567766548644e-04,-3.466897538286657903e-03,1.234118267893791199e-01
2.450428381791616428e-01,1.174308010041989619e-01,1.263227926458906358e-01,-2.258136594319046231e-03,-3.295375192654918621e-03,-3.695110099246237678e-03,1.237659528851509094e-01
2.476191608561104096e-01,1.292030304893084791e-01,1.290862527230567380e-01,1.816035144705082304e-04,1.569738202637224267e-04,-4.939632382798823029e-04,1.184783801436424255e-01
2.485241754010503457e-01,1.094288445852521496e-01,1.370265767439129423e-01,4.139742984480871899e-03,2.283302277067260702e-03,-2.999427671645240549e-03,1.279236972332000732e-01
2.009390236091272430e-01,1.241999342319875660e-01,1.383486293734026984e-01,-1.544141579988688416e-02,1.438375771155028923e-03,5.496165836873147942e-04,7.566862553358078003e-02
2.417141985670288595e-01,1.404002349375816361e-01,1.169176716697793716e-01,-1.458514377041212435e-03,-7.888580920849286651e-03,-3.149099841703765969e-03,1.158355847001075745e-01
2.015986418191073049e-01,1.472265703816557636e-01,1.755152669683918976e-01,-4.246503699624838007e-02,1.863429256743623103e-03,-3.883200189725954845e-03,8.765814453363418579e-02
2.577061931083938218e-01,1.112901823295785325e-01,1.448391323514747198e-01,2.368812314730507369e-03,8.051293902481017600e-04,-2.994613643047074492e-03,1.330291628837585449e-01
2.470626290124763591e-01,1.311652394825330303e-01,1.269265518870542342e-01,-7.502887431118261934e-04,-3.314291921055138434e-04,-8.531404062514320787e-04,1.180915981531143188e-01
2.516178866344359610e-01,1.028166012836464471e-01,1.403576302992068925e-01,1.720614638546582881e-03,3.440544600241102858e-05,-3.275609746734081326e-04,1.340679079294204712e-01
4.002280170264487791e-01,1.304204015390710847e-01,2.618832674252380976e-01,3.071677450229054127e-02,-8.931259676091986635e-03,1.551912651122906023e-02,2.416637092828750610e-01
2.462055488070615250e-01,1.097880856196181976e-01,1.292225003370595926e-01,-2.251133996295137749e-03,-2.858773653896694820e-03,-2.336299681190634296e-03,1.280325055122375488e-01
2.459749980180932771e-01,1.274150247959217330e-01,1.252827143324981574e-01,-1.080490580286241073e-03,-8.351069657150278665e-04,-1.241564690367104535e-03,1.196830794215202332e-01
2.501841132090803499e-01,1.391693720742487594e-01,1.270376698863220077e-01,-2.586054394000610740e-03,-4.800606178204736355e-03,-5.641984703769344946e-03,1.183340400457382202e-01
1.800847947177541264e-01,1.148541850728722197e-01,1.450140296350850289e-01,-4.182833341049158743e-02,2.425946584294216141e-02,1.607058831178051483e-02,1.048164516687393188e-01
1.914166515547814917e-01,6.708315098030540047e-02,7.686113942778098618e-02,-5.008784626966952119e-02,4.890053210614898893e-02,4.409303679033432094e-02,1.867389827966690063e-01
2.758834706350910548e-01,7.695430597011994334e-02,2.034936578654523431e-01,3.744938629355565318e-02,-7.682191297314970059e-03,1.447316307365601427e-02,1.882165968418121338e-01
1.234957613179381991e-01,1.122298475661122341e-01,1.297976686626448606e-01,-2.195377544907855735e-02,1.688833821907253022e-02,1.357377487581031645e-03,5.044513568282127380e-02
2.395466467474099970e-01,1.123337780966209842e-01,1.299430763947314049e-01,-2.038672432317626196e-03,-2.800093485275669501e-03,-3.060970032602455988e-03,1.196543797850608826e-01
2.253818493361511299e-01,1.098490339143543271e-01,1.263706289620671608e-01,-5.566027453966062091e-03,-3.413534771480133002e-03,-3.970668723291540490e-03,1.090284585952758789e-01
2.366448487254833588e-01,1.159509194892225925e-01,1.257506662961073718e-01,-1.840300193488258410e-03,-2.486740544355896601e-03,-1.463613559406699242e-03,1.162558719515800476e-01
2.539820446779937346e-01,1.359062007470359101e-01,1.223960165182399196e-01,-8.520565266629941830e-05,1.612364923230991576e-04,-1.855757271465548371e-03,1.254196465015411377e-01
2.307875419987558963e-01,1.133331848627902871e-01,1.325629485353767012e-01,-8.093030304425910884e-04,-2.874433079867250098e-04,-1.712006688769887553e-03,1.091682016849517822e-01
2.401038239156372822e-01,1.079070573682494455e-01,1.382999771162995994e-01,-3.970910884045908765e-03,-5.394835795506755689e-04,4.274951581264044390e-05,1.201251521706581116e-01
2.285942066613558810e-01,1.155451183542577503e-01,1.327681747145411095e-01,-2.640243710046180723e-03,-5.617077303141113174e-04,-2.258538740070676221e-03,1.056732758879661560e-01
2.338580282794951448e-01,1.186025503151898891e-01,1.283324057906111704e-01,-8.646650880823343165e-04,-7.830661694004942969e-04,-2.830314596041419353e-03,1.108385771512985229e-01
2.288826814712092983e-01,1.227304266358330703e-01,1.359323497934148417e-01,-1.383784268000515759e-03,-6.472147653046591773e-05,-3.164149181761599476e-03,1.003841161727905273e-01
2.183889220877007209e-01,1.236819493978881107e-01,1.268267849817324155e-01,1.532483957727285564e-03,1.272020264444032652e-03,-5.157977780029267094e-03,9.366523474454879761e-02
2.185183495268862575e-01,1.251534419384480734e-01,1.139335546374320440e-01,-2.415750772227662387e-03,-5.994382326598628706e-03,-5.615882598830754940e-03,1.005502641201019287e-01
2.235675449678191928e-01,1.173763556725519186e-01,1.328565508736973266e-01,-1.466273583658441598e-03,-5.607512553188158519e-04,-3.615513089370655728e-03,9.959394484758377075e-02
2.378092043107373765e-01,1.147697753426321632e-01,1.357056672443635037e-01,-1.222974661600381187e-03,-1.506754050446730032e-03,-1.213898266915476847e-03,1.140911504626274109e-01
2.226244456173204211e-01,1.140477151073092110e-01,1.237307329058006944e-01,-1.404809021540447079e-03,2.150849348873306254e-04,-4.225541446186051840e-03,1.043596714735031128e-01
2.307621173258227465e-01,1.231404642815349393e-01,1.383895188279150312e-01,-1.360983363024207337e-03,-1.066886230371821625e-03,-4.263897758226918751e-03,1.011797413229942322e-01
2.229080578391190448e-01,1.175022279260399261e-01,1.235112215893172105e-01,-3.592027399908903542e-03,-1.823845680793145102e-03,-4.873197909961941854e-03,1.031166613101959229e-01
2.257596756837810803e-01,1.138069242067151765e-01,1.320706442899190480e-01,-3.344510166365630231e-03,-1.111184581082087482e-03,-2.605081356044870212e-03,1.043068990111351013e-01
2.408144879706668462e-01,1.239312372455956823e-01,1.225629472054781538e-01,3.687848140734889426e-04,2.637378292972214423e-04,-3.835201893655111063e-04,1.175778657197952271e-01
2.396439129246545896e-01,1.228841854603257844e-01,1.234584470625089275e-01,3.080818203281025726e-04,5.809318192422138066e-04,-4.253393122097247629e-04,1.164815574884414673e-01
2.479370187214297028e-01,1.133420449531839791e-01,1.367617716752808910e-01,2.499692067034607005e-03,9.581823293538848990e-04,-2.166689483215801862e-03,1.246903985738754272e-01
2.365221447803950716e-01,1.193923357287064585e-01,1.243821200001546806e-01,1.727028038254709323e-03,1.659192025302817872e-03,-9.875280677812024125e-04,1.148040518164634705e-01
2.412356271630000104e-01,1.262128804886033795e-01,1.215270435619475176e-01,1.243852657284537713e-03,6.846448850765016582e-04,-8.178093589384508640e-04,1.174700856208801270e-01
2.344530400241268964e-01,1.158201809138817567e-01,1.335366772673489688e-01,1.105680643756564710e-03,2.619158986651570894e-04,-8.543112251817689155e-04,1.108689904212951660e-01
2.354277108717925393e-01,1.181895166469984493e-01,1.206032753118334577e-01,-2.362909284196273996e-03,-2.443650279138802252e-03,-3.153954748708845401e-03,1.163277402520179749e-01
2.147311617278227502e-01,1.156667713160258182e-01,1.291288272158405415e-01,-2.827591341968620046e-03,-1.672035846664761622e-03,-4.661065585496980586e-03,9.358909726142883301e-02
2.349411944055542767e-01,1.105302520962785084e-01,1.382508330746130831e-01,-3.079360446452134113e-03,-1.345879032593418111e-03,-1.209535802649878283e-03,1.132962480187416077e-01
2.336768989991756529e-01,1.094026253898301160e-01,1.264124210559285644e-01,-2.177309497564448078e-03,-3.647609618754252703e-03,-2.996967915558839367e-03,1.170496940612792969e-01
2.249934432477334600e-01,1.203030294646921516e-01,1.417481935677493698e-01,-1.034986688093957746e-02,-4.481637543055047232e-03,-3.861061842071226383e-03,9.798577427864074707e-02
2.752124691214377084e-01,1.604608833764556708e-01,1.694486694721138442e-01,-2.622659518994069350e-02,-2.524981850745465842e-02,-1.910660912245675663e-02,1.314864754676818848e-01
2.298375111067961218e-01,1.278152867149295324e-01,1.405594401114400593e-01,-1.695129538095184810e-02,-2.441538956904761720e-02,-1.983337991179684109e-02,1.144605726003646851e-01
1.730154219389866688e-01,1.369014425944523050e-01,1.384920232053995504e-01,4.860171898123983973e-03,-9.159231164100837402e-03,4.862837279379910761e-03,4.053131118416786194e-02
1.949584318562315177e-01,1.255427933541181096e-01,1.284435077331312069e-01,2.297466982478367503e-02,-3.239412636987458460e-02,1.117651373195074904e-02,9.865079075098037720e-02
2.223224095382907717e-01,1.766387887584432714e-01,1.589872523420844397e-01,1.931513541502419620e-02,-3.217142177287183463e-02,1.245567133949698237e-02,8.885163068771362305e-02
2.456742134824745349e-01,1.271761949944863190e-01,1.252942998186960810e-01,5.561020585812975238e-04,2.248101273068973754e-04,-6.308427913266580114e-04,1.194595992565155029e-01
1.921938628480344136e-01,1.372003199021708808e-01,1.212396709765263120e-01,2.667412122236969760e-03,-1.023030064577492605e-02,2.803561657712914067e-03,6.719871610403060913e-02
2.166762852947529128e-01,8.859896332092995208e-02,1.057224892533356192e-01,4.483067973153101460e-02,3.377001818062135702e-02,-3.270458659469308027e-02,1.648128032684326172e-01
2.361633344761095432e-01,7.131064722917519749e-02,1.305511740742666682e-01,-3.544473650799786352e-02,3.474372349888110115e-03,9.497966824621147455e-03,1.581003665924072266e-01
4.002787899353974499e-01,1.007066495043150711e-01,2.414764903046577871e-01,8.888253989573985728e-03,-2.945651358305234092e-03,2.266939588816849552e-02,2.630468308925628662e-01
2.415695734031714226e-01,1.171123491765542896e-01,1.500610865394854110e-01,-2.468262516582670971e-02,5.678773855330939563e-03,-6.440767300764309962e-04,1.200008243322372437e-01
2.854794380450510483e-01,9.253164508442551783e-02,1.649173436380685642e-01,9.401907077107658078e-03,7.523876629381810212e-03,-1.404358136004408425e-02,1.718387603759765625e-01
2.494659212630975231e-01,1.212623915979547384e-01,1.331181378513223712e-01,1.188934875014537170e-03,1.493857494904871118e-03,-2.357122663759921282e-03,1.228183954954147339e-01
2.455443523798035987e-01,1.222180278079375570e-01,1.320497109643713474e-01,1.062404740437290340e-03,1.903477744782847798e-03,-1.683861089167230278e-03,1.188120394945144653e-01
2.210218771142326566e-01,1.219204593780806867e-01,1.148854833839144662e-01,2.354057372606917567e-02,2.466632241111130566e-02,-1.443187962583327918e-02,1.211625114083290100e-01
2.447013149355773964e-01,1.133277223718697768e-01,1.391894803137645742e-01,-9.462000473596691302e-03,1.745739109920247875e-03,3.408594781456798176e-03,1.218313872814178467e-01
2.528374445748043930e-01,1.174205270655219596e-01,1.413586797656062599e-01,-2.341595747939901120e-03,-1.943068298580535348e-03,-2.593901824894213285e-03,1.253678798675537109e-01
2.455020659893967783e-01,1.212176595180179672e-01,1.281694229852020916e-01,3.818066269599660906e-04,8.931830508492430865e-04,-1.291283046670325865e-03,1.209908202290534973e-01
2.411855959222692913e-01,1.130898076134735919e-01,1.360968697531932114e-01,-2.665128854325465521e-03,-1.344956038965605064e-03,-1.428287842888237595e-03,1.184212937951087952e-01
2.580972143428528209e-01,1.376052327753898297e-01,1.364676465711808506e-01,5.093375937264066518e-03,1.187525910861173851e-02,-1.141412364512647826e-02,1.246933117508888245e-01
2.403473018534393324e-01,1.039180658436062443e-01,1.339804014162306600e-01,3.498695506209942036e-03,3.583873018107064899e-03,-3.310723070859355067e-03,1.245930865406990051e-01
2.454173821705900593e-01,1.088641614348502262e-01,1.385002994766813544e-01,1.018420640872721820e-02,2.615938912684622700e-03,-6.911408042700491541e-03,1.263058185577392578e-01
2.419006825723483689e-01,1.078218688016552851e-01,1.501531626054044832e-01,3.007958773303491540e-02,7.035746716224744284e-03,-2.112785382093508926e-02,1.352602839469909668e-01
2.426520098760681643e-01,1.274679259835848621e-01,1.240928785625216024e-01,-9.154061586953481057e-04,-6.353128742581051107e-04,-8.166850938280570231e-04,1.169326379895210266e-01
2.280730378921697055e-01,8.982710650261034602e-02,1.006369795586342791e-01,1.691891906281792202e-02,1.396883184833725040e-02,-2.444280314402246662e-02,1.448131799697875977e-01
2.358302633701878648e-01,1.165520445815794170e-01,1.349025174928870363e-01,-4.712210509289283043e-04,-1.019404961494037396e-03,-7.453811569071940903e-04,1.112684682011604309e-01
2.443199885857695319e-01,1.142758501538417848e-01,1.311716527820765421e-01,4.203913852376295508e-03,2.929725454914190296e-03,-1.391096296847438643e-03,1.228182390332221985e-01
2.408871887695058223e-01,1.197642640131517944e-01,1.321691386956683756e-01,5.623631242340625461e-03,-2.469823307442364432e-03,4.238491486656929645e-03,1.161430105566978455e-01
1.664879325292408507e-01,7.511284469092861793e-02,1.106058145159496409e-01,-3.461483787423218911e-02,1.198328353077575924e-02,1.181745177562589476e-02,1.039725914597511292e-01
2.440095544819112505e-01,1.146269176718968108e-01,1.430170510441955978e-01,-2.891818417067496851e-03,-1.706099973519835042e-03,-1.354757335900786622e-03,1.179491505026817322e-01
2.401275403862209168e-01,1.183923041473005366e-01,1.303779180440919061e-01,-2.830566932900905469e-04,-2.428427264151661845e-03,-9.111933070071490072e-04,1.162947714328765869e-01
2.363150793399861893e-01,1.200485761780722832e-01,1.264170849576930489e-01,-2.565765497734573408e-04,-7.342862901927731415e-05,-1.447216314965682959e-03,1.132453531026840210e-01
2.383253347249457699e-01,1.152262969066747827e-01,1.413869940927114932e-01,8.708991553315927059e-03,-2.642829246774701987e-03,5.440115115108855749e-04,1.134318262338638306e-01
2.382579732792506344e-01,1.121552427176528144e-01,1.385161301464953587e-01,4.811618597384755523e-03,2.341930704378924425e-04,1.767956116357729222e-03,1.155491769313812256e-01
2.378090678932638646e-01,1.180521357795622367e-01,1.356730350407544250e-01,6.283065828964446787e-04,-1.252461669713265816e-03,1.130718124219024347e-03,1.120344549417495728e-01
2.376047023142702774e-01,1.193989251725029038e-01,1.303244676636490240e-01,9.912302877276503617e-04,-1.717486012750804483e-05,-1.094449995028692630e-03,1.131682470440864563e-01
2.415894339469069063e-01,1.283634549246741863e-01,1.241111170894021454e-01,1.199132475389961660e-03,1.308810363471090994e-03,-3.219393969132530384e-03,1.155864447355270386e-01
2.566339454861006342e-01,9.456128552114612118e-02,1.517981889658491512e-01,-3.857988873549992453e-02,-6.178855341131160236e-04,-8.528918712826537296e-03,1.579609662294387817e-01
2.586227943823724562e-01,9.659722301636142205e-02,1.738887089858080770e-01,-3.488568368945348108e-02,3.179720245324715866e-03,6.722921907461620362e-03,1.533623784780502319e-01
2.376848063122110610e-01,1.257452591969268341e-01,1.218093035212413078e-01,1.961095278985406655e-04,-2.264372619573679481e-04,-4.485173556473209485e-04,1.139623448252677917e-01
2.302783041283436583e-01,1.149231624875308305e-01,1.259240664311646885e-01,-2.301715961150043528e-05,4.259778365335794583e-04,-8.411899125466034939e-04,1.102791279554367065e-01
2.751377848007781624e-01,1.135593910621642000e-01,1.519736673381135161e-01,4.786830610463037490e-03,-1.429802405972811948e-02,-1.148255911493730602e-02,1.498462706804275513e-01
2.627567898967464455e-01,1.044530385048524634e-01,1.591579713722201250e-01,-1.268272009545895473e-02,1.826306482268449981e-03,-5.339165462417765420e-03,1.413180530071258545e-01
2.256781950191441566e-01,1.204883311732667661e-01,1.408269127052851344e-01,1.910054610794493764e-03,2.653888408248243993e-04,5.510789741965057848e-04,9.670170396566390991e-02
2.292322662070419292e-01,6.095234453031821154e-02,1.236619559704660587e-01,-3.915090200210153554e-02,-1.497636692853372004e-03,-1.476339987365701259e-03,1.622020453214645386e-01
2.475902587900087604e-01,1.279758223880997359e-01,1.296038853875385310e-01,1.939952099253237352e-04,5.755049202266767445e-06,-1.923820777574608348e-03,1.188559681177139282e-01
2.379337786223237605e-01,1.266623220347627421e-01,1.189785569655148478e-01,1.774855608775185306e-03,2.225735201481681552e-03,-2.947321551891945047e-03,1.155237331986427307e-01
2.437916965842021333e-01,1.280545313393805229e-01,1.232036501796709149e-01,8.969961571712633652e-04,6.676672388965336751e-04,-9.608908125972660027e-04,1.182648316025733948e-01
2.398521491503387559e-01,1.166335106549079015e-01,1.301976315957333041e-01,6.782940792147661158e-04,2.591869129752562111e-03,-1.619913800449972316e-03,1.171531975269317627e-01
2.513804029507932247e-01,1.299452383291825330e-01,1.323558275147701524e-01,1.875304433995132313e-03,2.470683306886098775e-04,-4.689465355921733358e-03,1.205665245652198792e-01
2.512721720424326288e-01,1.298910904548030154e-01,1.218782002700847522e-01,1.205266614338928663e-03,1.852961866297171830e-04,-3.047061348118246683e-03,1.257079988718032837e-01
3.758991250723168198e-01,1.190384639935308797e-01,9.213495633306637012e-02,4.278917048169105126e-03,2.811556939240338060e-02,-6.425278658773440899e-02,2.973605394363403320e-01
2.498975891000423388e-01,1.281802872138028959e-01,1.295693409620282399e-01,5.118724228651407113e-04,3.527401511228606319e-04,-1.889023968584901828e-03,1.210777610540390015e-01
2.713869272544421896e-01,1.321193547926182432e-01,1.489506224131410539e-01,-3.738702068871062063e-03,-3.241916981355388080e-03,-8.241637254690561618e-03,1.327099651098251343e-01
2.451908165389906080e-01,1.263688798363180044e-01,1.264071966721025952e-01,5.856693501276391545e-04,7.736271974701210228e-04,-6.045129705883203015e-04,1.188192814588546753e-01
2.442543779124935199e-01,1.233177101299228057e-01,1.250045549536207001e-01,8.759318893274505892e-04,1.150881333235490283e-03,-1.394995411531834871e-03,1.201525479555130005e-01
2.481852856596459267e-01,1.201270267681070203e-01,1.321917497259301189e-01,1.169438098649832572e-04,1.265434008763380606e-03,-1.836200389254638360e-03,1.225334554910659790e-01
2.498602165211006865e-01,1.260168035438397338e-01,1.311744183543123721e-01,1.566838088567619686e-04,-3.839405724189413893e-04,-7.686001235533556231e-04,1.213562637567520142e-01
2.476173524188960973e-01,1.201114877444784124e-01,1.319463471647774888e-01,1.359842530663008539e-03,1.898241975627524896e-03,-2.367484361100586059e-03,1.221555098891258240e-01
2.454510168775279055e-01,1.266894717740087994e-01,1.250063554783438224e-01,4.600906397259967528e-04,2.184558465872047392e-04,-5.860138967323127827e-04,1.196195408701896667e-01
2.449152709203764045e-01,1.184684893553528684e-01,1.251952007372682529e-01,-1.011396946457303325e-02,1.134577816092682302e-02,1.266148695256534909e-02,1.278962939977645874e-01
2.492086999682726900e-01,1.292956423906190255e-01,1.295227379616967489e-01,4.982016780353274105e-05,-2.530626891996566792e-04,-3.738673065982550344e-04,1.198022514581680298e-01
2.283063714963519675e-01,1.345527258306959406e-01,1.008503935433483351e-01,-7.259853719079042977e-03,2.951844494852156470e-02,1.157443892418330220e-02,1.275121420621871948e-01
2.365025016906196487e-01,1.126913437944682128e-01,1.359734247697056975e-01,1.633566435720600150e-03,1.359960654913359122e-03,-1.544046567428451104e-03,1.140586808323860168e-01
2.348198584289059032e-01,1.136919466929793565e-01,1.244665914823153557e-01,2.670436419762074916e-03,-2.659065269817061875e-03,2.405151069363092864e-03,1.163740232586860657e-01
2.310364442338626867e-01,1.073739663518908372e-01,1.280856093589353151e-01,3.825853196785999541e-03,-2.225470593028022314e-03,2.038374776064042371e-03,1.150276586413383484e-01
2.395053577630057995e-01,1.247219380995330251e-01,1.271520838964734224e-01,9.198486749500582116e-05,4.318286064455769020e-04,-1.200618323341772278e-03,1.136094555258750916e-01
2.395032158212884732e-01,1.233070842794959654e-01,1.357318060716269370e-01,-1.705506146281435612e-03,-2.590184113211823312e-03,-2.914199742562848579e-03,1.107544153928756714e-01
4.420746148087096872e-01,2.541640558664409744e-01,1.850910550313219216e-01,-1.555327704453287989e-02,-1.365181856227190398e-02,-6.301157640745867761e-02,2.574047446250915527e-01
2.506433946007410318e-01,1.315244233151564857e-01,1.318343387814115975e-01,7.362747581520260546e-05,4.014259631239573906e-05,-1.869005520468207567e-03,1.190084442496299744e-01
2.450450502685567744e-01,1.261059292293407741e-01,1.263378199776193367e-01,-1.241512195186163627e-05,-9.437161249474605154e-05,-3.380252582383008503e-04,1.188248991966247559e-01
2.365024686693237566e-01,1.308965940262787897e-01,1.125901259488004402e-01,-2.772098466860577291e-03,-2.070692479100719012e-03,-1.893978558579608937e-03,1.160503178834915161e-01
2.473291921759854517e-01,1.290946329976810358e-01,1.283540940179005163e-01,3.265013164160935049e-04,-9.980419265779300725e-05,-4.334346878660484746e-04,1.186104118824005127e-01
2.454973629241506416e-01,1.245969971284765776e-01,1.265920866658843402e-01,1.825562137404713992e-04,3.155164611320875447e-04,-9.810704641967792246e-04,1.199289709329605103e-01
2.506846444926513207e-01,1.263472570107725124e-01,1.276168075895780518e-01,4.204675502769005956e-04,-2.108600013923649964e-03,-5.702572275880731824e-03,1.241570487618446350e-01
2.378202550542438121e-01,1.281999974819236776e-01,1.205731252053682256e-01,-4.184220365327519751e-04,-8.314865577349222527e-04,-2.384315373977058655e-03,1.137122884392738342e-01
2.442493561943079317e-01,1.230064324113614438e-01,1.277864090991063239e-01,-3.686738365345817569e-04,-1.461474307440131445e-03,-7.393765662103256179e-04,1.189605444669723511e-01
2.354793636694709758e-01,1.156667846831574420e-01,1.277970075673340311e-01,-7.911577232663050433e-04,-1.468561426111557886e-03,-9.412365948091023886e-04,1.142796948552131653e-01
2.479942088634751185e-01,1.298974029650529216e-01,1.251400869432326979e-01,-8.722663581437737658e-04,1.949824009986076486e-04,-8.672053238308194889e-04,1.205651834607124329e-01
2.334653463661994777e-01,1.170552658445221106e-01,1.321838312464073961e-01,-3.545021792203106262e-03,-1.713642971013440257e-03,-2.419549758260219809e-03,1.099233254790306091e-01
2.102553205857394525e-01,8.671786498442124458e-02,1.140403631136615997e-01,-5.256974662817199412e-02,2.947217062796772882e-02,2.603430823295627486e-02,1.598830372095108032e-01
1.935751638927344920e-01,8.311010715975999941e-02,1.305315898463542956e-01,-6.040773842435241681e-02,1.038660570980548190e-02,1.375034336258246399e-02,1.450898200273513794e-01
2.398855148249892655e-01,1.233771151866959181e-01,1.248866830718064758e-01,-4.187992232032195379e-05,-5.552396121083405913e-04,-5.320420133817512593e-04,1.157686859369277954e-01
2.355859904449898456e-01,1.212226660534130585e-01,1.213715615147991367e-01,-5.147085260686620539e-04,-9.648405669041553584e-04,-3.368624831740601924e-03,1.144534572958946228e-01
2.494951595960218649e-01,7.390078556697492196e-02,1.242614613014655367e-01,-3.800493213941981419e-02,2.153430021276988432e-02,3.063441579141800569e-02,1.818412393331527710e-01
2.317703058220496604e-01,3.256624704368710210e-02,1.766491421480489710e-01,-5.651994018573991418e-02,-8.390580121112985873e-03,1.037114495089205314e-02,2.045913934707641602e-01
2.263708982791432234e-01,1.198037936806470999e-01,1.321433349280354275e-01,1.544844906728024122e-03,5.180397402378288021e-04,-3.225749461215915697e-03,1.011583134531974792e-01
2.366535101474948888e-01,1.215180911363460681e-01,1.253470006208663445e-01,6.124942264867777857e-04,1.011590581712543948e-03,-6.966718712367285385e-04,1.132944524288177490e-01
2.680856900120261455e-01,1.116033381190692786e-01,1.683082830098220906e-01,-1.265547428571949656e-02,-1.772380737776572740e-03,3.971985573886528502e-03,1.391621083021163940e-01
2.382161185569324768e-01,1.144153857494378396e-01,1.418408160030664167e-01,-8.115901071799061506e-03,2.898318840444713052e-04,-3.060146589210874235e-03,1.136197000741958618e-01
2.404620745926413783e-01,1.226671055292868351e-01,1.229108277782157976e-01,4.107981384231738898e-04,6.721946517233295818e-04,-6.095088323646858904e-04,1.176859438419342041e-01
2.325648200937898702e-01,1.218522077533178288e-01,1.525375218037122171e-01,-2.026103834265114909e-02,4.559564853104694851e-03,5.790144860766951312e-03,1.058116033673286438e-01
2.393103455828611281e-01,1.250271209414940410e-01,1.203533328109147316e-01,8.320058573334369097e-04,3.863288121136683787e-04,-8.253045811695029418e-04,1.167099103331565857e-01
2.411650705420387564e-01,1.240726267043740366e-01,1.276711912491322043e-01,6.109043169190175090e-04,1.056173772677932473e-04,-6.948645692884702126e-04,1.153465509414672852e-01
2.007617170223963687e-01,1.044873831470661818e-01,1.264452107844399875e-01,-7.086264389870693993e-03,-2.910182629858004927e-04,7.284383413076367560e-04,8.825763314962387085e-02
2.270192575776398547e-01,1.144310572544425947e-01,1.395021253546810946e-01,-3.552157701125322094e-03,5.778673334451775315e-05,-5.785190142691453222e-04,1.025710627436637878e-01
2.257662706363963434e-01,1.199769335188944075e-01,1.414366935786949830e-01,-1.780222026215944487e-03,-5.339011833091374375e-04,4.899177231310315956e-04,9.691632539033889771e-02
2.123081749804706653e-01,8.546829530778084216e-02,1.289454102913792921e-01,-3.724770860714805842e-02,-3.195339553563719768e-03,-1.858739844906206291e-03,1.291013360023498535e-01
2.363187713084784480e-01,1.202128448312935749e-01,1.383593894749433340e-01,-3.235471325960449784e-03,-1.438526789204843922e-03,-2.599295396342865810e-03,1.084474250674247742e-01
2.352953256686424743e-01,1.029414309187777210e-01,1.307915905707283666e-01,4.677785531986842008e-03,2.625441580982362539e-03,-2.419446518515936360e-03,1.212888807058334351e-01
2.405020524607976995e-01,1.247843854867562718e-01,1.278468874622595564e-01,-9.705700957503816083e-04,-1.311682698542020664e-03,-2.743209516278275265e-03,1.143509298563003540e-01
2.447966662189068887e-01,1.284498925543353653e-01,1.194344808218948534e-01,1.965029706818890824e-03,8.433461176518214711e-04,-1.825896581113205328e-03,1.212043017148971558e-01
2.053664750952234330e-01,1.665569922038399875e-02,7.951498738060042148e-02,-6.069295961267931472e-02,2.891556159152250047e-02,4.074533505914805509e-02,2.150362879037857056e-01
2.429486370019046104e-01,1.242039035544266756e-01,1.245397228537177547e-01,1.671817670972363691e-04,3.678024889496631198e-04,-2.920160048386265467e-04,1.185803264379501343e-01
2.176949833402273549e-01,1.170263394749589680e-01,1.297622254291870281e-01,-3.189503617329871466e-03,-1.141469602133174475e-03,-4.944263274672684727e-03,9.550936520099639893e-02
2.471444213493419195e-01,1.274426069677930262e-01,1.252972829538651633e-01,-6.349667424780864374e-05,1.458038386781642835e-04,-9.613299400855695271e-04,1.208005547523498535e-01
2.007834596449782349e-01,1.304259163362013196e-01,1.243167282781708904e-01,2.403629353696865641e-03,5.334239704006259707e-03,-6.561744243430991073e-03,7.516114413738250732e-02
2.193016978518257942e-01,1.559216522116161074e-01,1.339964251003097073e-01,4.890564021831268586e-03,1.874596747640193406e-02,-5.762316137535056226e-03,8.433841168880462646e-02
2.488445764778433045e-01,1.255907050896113708e-01,1.300245637904778317e-01,6.706781428935942738e-04,7.327681552431388346e-04,-1.402807641859759192e-03,1.211344301700592041e-01
2.460861021275039251e-01,1.262915851301696368e-01,1.274373746848762590e-01,2.684272772293307564e-04,7.578335584017961766e-05,-5.011510578413566229e-04,1.192298904061317444e-01
2.437135276417019825e-01,1.082978326298875693e-01,1.410837526631501249e-01,-3.911482761665466788e-03,4.953213188720490554e-04,3.574944754445746366e-04,1.225545480847358704e-01
2.365152892266141893e-01,1.201128847961144552e-01,1.211656745039417366e-01,7.680643924387148226e-04,1.621441457326628548e-03,-1.100903779388281208e-03,1.159369423985481262e-01
2.369599321060215091e-01,1.215491730546939542e-01,1.195471029710785393e-01,1.909561965725075153e-03,2.745597942314888674e-03,-2.728749430181704426e-03,1.166644915938377380e-01
2.248484526067612288e-01,1.348816760284061445e-01,1.117279424852290759e-01,-5.015471862268433816e-04,3.381947706148694371e-03,1.082197517866593595e-03,1.036907136440277100e-01
2.266278724768414077e-01,1.392142095152095749e-01,1.141316213892238918e-01,1.622801163017205986e-05,3.541642995811666427e-03,6.442937374881622199e-04,1.024779081344604492e-01
2.348744842307692315e-01,1.376313846380514960e-01,1.162614543635450970e-01,-8.802076593623902462e-04,4.649824340471185417e-03,1.581770963303639685e-03,1.098438203334808350e-01
2.492174841093862947e-01,1.302096636573759625e-01,1.212955051214928692e-01,8.413288453157961129e-04,2.021862939376884143e-03,-3.189544478503049570e-03,1.238873898983001709e-01
2.264910201745479190e-01,1.163330695641139334e-01,1.073270610561403993e-01,5.031922074512383547e-03,5.002290920652326459e-03,-5.533513713106690338e-03,1.159778162837028503e-01
2.422853889900904445e-01,1.217556847884117555e-01,1.232226361655729546e-01,-5.906582180064294052e-04,-6.813063987883535887e-04,-1.287855920449662746e-03,1.198339089751243591e-01
2.480485902985612168e-01,1.269958195793005618e-01,1.299425692207991367e-01,-6.391585426456314681e-04,-9.105007544804872687e-04,-9.314053758043124237e-04,1.196330189704895020e-01
2.425652437262905692e-01,1.493993731803061886e-01,1.197860396800831673e-01,-1.013305992781377007e-03,8.783218791037881654e-03,2.104046491505359023e-03,1.120873615145683289e-01
2.382573907446899897e-01,1.195891717316243108e-01,1.299026415329075645e-01,1.681715760077285204e-04,1.447676920972414821e-03,-1.055535048279958180e-03,1.139049902558326721e-01
2.434750436469033663e-01,1.264746400233953127e-01,1.188865101391768098e-01,-1.320623016236861617e-03,-5.056651975523404575e-04,-1.300083022969866732e-03,1.210188344120979309e-01
2.384702682715216238e-01,1.231444353104695771e-01,1.240385785561543275e-01,-3.835166974204239076e-04,-7.312527530649951804e-04,-1.519772199823530515e-03,1.149204224348068237e-01
1.885988911642038912e-01,1.261589998897784670e-01,1.324227053639260021e-01,-3.320303570743950161e-02,1.637228671634890012e-02,1.415201306553748144e-02,9.088007360696792603e-02
2.236676516696717854e-01,1.399957778798030794e-01,1.184525205428936245e-01,-8.359041476114383159e-04,8.991688932771628451e-03,-4.754856544044771188e-05,9.753108769655227661e-02
2.475682450646383148e-01,1.304722675918626451e-01,1.249408357350320076e-01,-5.997111734146874000e-04,8.516530063813514606e-04,-9.187024787054554574e-04,1.199814975261688232e-01
2.460426775689962264e-01,1.260468920727433884e-01,1.293365543324436207e-01,-4.191482485375761457e-04,-5.707326586803705649e-04,-8.614809897068068231e-04,1.184009909629821777e-01
2.433804036946786709e-01,1.220157074182263712e-01,1.261915898779770728e-01,-3.690267045001078281e-04,-1.128062097583181758e-03,-7.400840295362062825e-04,1.193561553955078125e-01
2.412083575868127494e-01,1.205022622895094986e-01,1.256684263069419161e-01,2.200110824572105319e-05,-1.573784204498849875e-03,-5.834402161201186114e-04,1.182434633374214172e-01
2.406002220445699058e-01,1.397903484385926987e-01,1.160359253131531820e-01,-1.434001681533351525e-03,8.168943608976540760e-03,2.447193380939416581e-03,1.155245155096054077e-01
2.276512458219372426e-01,1.327108458286720694e-01,1.008829349592025026e-01,3.290560642294156654e-04,4.209993037475662746e-03,-2.378030352673459553e-04,1.144644767045974731e-01
3.186484609876727436e-01,2.150832002521722019e-01,2.297310815197271816e-01,6.546467929010271747e-02,4.607311269241537444e-02,-2.611086812176307420e-02,1.751962155103683472e-01
2.404963447986848135e-01,1.231382280154318387e-01,1.269257438614580513e-01,2.171083924112592847e-04,-8.676317479006234864e-04,-5.376784097625750920e-04,1.155250817537307739e-01
2.428849397754490047e-01,1.259014221225416286e-01,1.252753570576519704e-01,-8.810802124417849894e-05,-5.573666517456493143e-04,-3.909111986769631445e-04,1.173038259148597717e-01
3.847469155285107023e-01,1.693110631883416317e-01,1.185166197423455497e-01,-4.360100078243450000e-02,-7.589434954012653535e-03,-5.677837863904812432e-02,2.747415602207183838e-01
4.297401697203515614e-01,1.571437138366446329e-01,2.854960854101757373e-01,-2.881037867075934497e-02,9.671465884343399474e-03,1.955700727197946104e-02,2.443622499704360962e-01
2.328247308646482494e-01,1.389480314062587762e-01,1.148664132783406566e-01,-1.923148714627050744e-04,4.478563897163969493e-03,-7.410432690531203181e-04,1.082376688718795776e-01
2.368674148837781879e-01,1.452581315996644695e-01,1.202960486418683805e-01,-4.371114631215437286e-04,4.227942481177239704e-03,6.507207436367575632e-04,1.065720170736312866e-01
2.419739982552185364e-01,1.263981622300005547e-01,1.225974724120352799e-01,1.605502583484201464e-03,1.255938040180994554e-04,-8.619505177941599785e-04,1.175648570060729980e-01
2.443750874155159458e-01,1.260879316124037253e-01,1.255932200517434760e-01,5.950830735960603926e-04,2.954019492726906587e-04,-5.572431564541416521e-04,1.185448020696640015e-01
2.389903164342498942e-01,1.360700305602870197e-01,1.122455505415799748e-01,2.472539214962923056e-03,5.489735757955127408e-03,-1.857437312536532222e-03,1.171806976199150085e-01
2.405043311616550661e-01,1.303289207949702155e-01,1.193180670523667219e-01,1.970150013602701370e-03,5.819047733025020609e-04,-8.049811765492040447e-04,1.161360815167427063e-01
2.241290700099839439e-01,1.401340868328889711e-01,1.182647111749011437e-01,-3.693150490828022727e-05,1.384995838022119990e-03,5.490819376984418807e-04,9.683495014905929565e-02
3.066389855598490310e-01,1.519403371659480972e-01,1.429992514973361106e-01,-2.456310765549343279e-04,1.292417345113455046e-02,-3.355548237397747158e-02,1.710964143276214600e-01
2.352340497483147996e-01,1.211889363818410420e-01,1.216514206525670383e-01,1.190064299158438048e-03,9.248080832079770205e-04,-3.607112050012912640e-03,1.140158176422119141e-01
2.403881723355238420e-01,1.267533868939301755e-01,1.241964078870413934e-01,3.978338193524846205e-04,1.654924401147910950e-04,-2.065579271552497724e-04,1.149375885725021362e-01
1.872503153420516375e-01,1.358653516068308864e-01,1.252686281611470331e-01,7.679134140103340174e-03,1.440023226907001345e-02,-5.940595677284648407e-03,6.482358276844024658e-02
2.303264467052308084e-01,1.381129062294322862e-01,1.143506299731049947e-01,-1.355439300480332839e-04,1.036552128900489721e-03,-6.039082720439676536e-04,1.061299145221710205e-01
2.282486351652480150e-01,1.370953717488891943e-01,1.170665965074094150e-01,-1.019808790871090491e-03,2.635396327454518281e-03,3.235847751237054797e-03,1.029131934046745300e-01
2.298765098553305908e-01,1.354169595165609641e-01,1.125305753052317226e-01,3.221676465326958096e-04,3.721135404562736265e-04,-2.501831431902293404e-05,1.077448800206184387e-01
2.369106382209891504e-01,1.365843424807149653e-01,1.113315175415083569e-01,-1.517620022315246779e-03,1.428478984868490750e-03,1.472142322366283259e-03,1.151352524757385254e-01
2.160520651795944935e-01,1.328189295421223493e-01,1.131860706493106605e-01,-2.706517660906847668e-04,1.322380579763617276e-03,-1.742837791866092131e-03,9.466724097728729248e-02
2.081563712795014565e-01,1.358017572633414827e-01,1.114435283116529118e-01,5.767464556605403836e-04,5.771223606269084219e-03,1.695742596771945094e-03,8.775243163108825684e-02
2.263483377571294253e-01,1.252833497941290564e-01,1.201110959077902329e-01,6.959921946637996062e-04,1.467358974220261958e-03,-5.306556312082288430e-03,1.041921749711036682e-01
2.451551719705412635e-01,1.228360129390047295e-01,1.275737053870120152e-01,-3.523696820505968822e-04,7.239983554375162278e-04,-6.429842076512118539e-04,1.200337335467338562e-01
2.918039440551612462e-01,1.635042493209458714e-01,1.127868109742264507e-01,6.150226883551247531e-04,2.627572047713338382e-02,-1.682074931238605395e-02,1.687047481536865234e-01
2.320422262725376494e-01,1.393303367051133834e-01,1.173645834652054520e-01,2.965394513955163036e-04,-1.341707289146240243e-04,1.178519975509548408e-03,1.054464802145957947e-01
2.038998169807589855e-01,1.236632977095386554e-01,1.047690393734955761e-01,-4.859600154837709655e-04,5.531976912742038281e-03,2.624686798659502454e-03,9.178281575441360474e-02
1.676005842166387039e-01,1.455289460725975037e-01,8.832151984244676624e-02,2.574644885831755756e-02,8.322967992474290810e-02,-7.595536035406206567e-03,1.672296673059463501e-01
2.604322101805759404e-01,1.779810803242737327e-01,1.566200499608440821e-01,2.078765426667088245e-02,-4.227453595776897027e-02,1.921067883865393289e-02,1.295402050018310547e-01
2.244303863151169143e-01,1.296811177312895413e-01,1.094716659610061593e-01,2.363795659535545667e-03,2.468271038769603160e-03,-1.369232446479470757e-03,1.064957305788993835e-01
2.056761374174994328e-01,1.355635058433780904e-01,1.150131164311904708e-01,-5.042991533351194947e-03,2.284710405547150588e-02,5.446619002190953782e-03,9.225077182054519653e-02
3.700157424274955753e-01,1.645806338873221364e-01,1.340113201927942144e-01,-3.140903698863153903e-02,-1.714934978187101567e-04,5.403014919858577930e-02,2.472559809684753418e-01
2.318838033013597144e-01,1.371930394625816008e-01,1.164194738167354387e-01,-6.649070117408922842e-04,5.649168523731891851e-05,2.646148544608112807e-04,1.066137552261352539e-01
2.396888258665659799e-01,1.284498373773647895e-01,1.106359780561511214e-01,4.230478882520026865e-03,-2.909301851280586375e-03,4.009538623035599665e-03,1.216567084193229675e-01
2.578201858241696010e-01,1.374077682002766976e-01,1.319349992035969699e-01,-2.669079406399514393e-04,6.591889199341528392e-04,4.041529650273065731e-03,1.234447658061981201e-01
2.252938232819053366e-01,1.333572369653050205e-01,1.124836436561082731e-01,-3.172747946401246826e-04,2.753786613900823226e-03,1.531129721879037880e-03,1.041017547249794006e-01
2.436559765052435655e-01,1.243039257538313402e-01,1.254923261517109923e-01,-1.681637403124648504e-04,4.092907677335883248e-04,4.356187077384143444e-04,1.187671795487403870e-01
2.413638381712840120e-01,1.235929147853706833e-01,9.986012172212586913e-02,6.898238983036814390e-03,-9.688338601363191346e-03,1.489428518851965838e-02,1.353445053100585938e-01
2.526307323273810912e-01,1.443998147453293412e-01,1.161416660076270285e-01,6.136112850500341585e-04,4.217603034152492790e-03,-1.603343695623108290e-03,1.250322610139846802e-01
2.481841887334896302e-01,1.336035870892231248e-01,1.146998046920035819e-01,2.869058572029983996e-03,-2.041417925638512685e-03,3.897343387130157953e-03,1.254385858774185181e-01
2.458429555970713110e-01,1.239991763120364687e-01,1.233851244082140725e-01,5.822316108666375500e-04,-4.995028952629669257e-04,4.178829821900567794e-03,1.223734244704246521e-01
2.423509963025527458e-01,1.218007126103407833e-01,1.241509500420538703e-01,-6.090414035240990622e-04,8.662492845720294946e-04,9.012829645226168264e-04,1.194168031215667725e-01
2.404306625113530882e-01,1.224333899042897300e-01,1.213268415991643756e-01,-1.200718249712900672e-03,6.970128451287867233e-04,9.824615156399081704e-04,1.185910180211067200e-01
2.405657045242044212e-01,1.326665239058725798e-01,1.421183615039231241e-01,-5.973214319482655736e-03,4.221024338730102431e-03,6.148482236729996969e-03,1.048123314976692200e-01
2.503439885600556303e-01,1.342532748730655423e-01,1.140537504550606374e-01,4.865228127517441138e-03,-2.069596209358843999e-03,5.407868487971175323e-03,1.280689239501953125e-01
2.168248326657853109e-01,1.220320224083691618e-01,1.345901479203497064e-01,1.176897842728280921e-02,-9.057525535750692372e-03,1.077452763758176765e-02,9.467247873544692993e-02
2.272037717843450599e-01,1.165919385076689407e-01,1.365259898066310262e-01,2.690770003774720000e-03,-1.166263664583724706e-03,2.912824005310640438e-03,1.023653149604797363e-01
2.327850918230934263e-01,1.274524947475762782e-01,1.172886584714742386e-01,-1.430738669839568770e-03,5.149013881215489061e-04,6.149436343829078151e-04,1.108012348413467407e-01
2.386538201828334871e-01,1.227622080834124552e-01,1.219998461362477027e-01,-1.617482542977922392e-04,2.232823481142101141e-04,7.192062341274293698e-04,1.162823215126991272e-01
2.297712178046920073e-01,1.173917357180046528e-01,1.289176757685155383e-01,1.866216951406649612e-03,-1.366443498992893834e-03,3.010700383625406450e-03,1.072844788432121277e-01
2.416583842446302643e-01,1.318807619471970560e-01,1.206103873208406729e-01,-1.349421077095393391e-03,1.033503395141758142e-03,1.187295620187879238e-03,1.158804520964622498e-01
2.810384867065232606e-01,1.512640375460447273e-01,1.232329082202028581e-01,6.101817695807336406e-02,-4.544941098014446818e-02,3.710599197458622905e-02,2.067898511886596680e-01
2.399000859101316219e-01,1.227519191166307477e-01,1.234062847914849381e-01,6.869930189191058656e-05,4.055167659582769733e-04,2.300107080686891595e-04,1.168252080678939819e-01
2.540514519150035566e-01,1.448935487926825416e-01,1.134885085878150207e-01,2.849718723565593075e-03,-1.304976438222542681e-02,1.046210140487604384e-02,1.311237961053848267e-01
2.387692653516350350e-01,1.240269634183464587e-01,1.232333193617927425e-01,-4.485775264415148094e-04,1.065475738616881605e-03,1.812026307260943469e-03,1.152013465762138367e-01
2.396650578186346747e-01,1.205492848928983729e-01,1.254373568121450178e-01,-7.269879225203235975e-04,1.221258843833521960e-03,8.597943554231859877e-04,1.167839542031288147e-01
2.361517348591311016e-01,1.240789594425919240e-01,1.205238163734512202e-01,-1.129946667544822749e-03,1.273702056678918920e-04,6.954923358457682165e-04,1.139153689146041870e-01
2.359787167064622548e-01,1.267260710896608855e-01,1.144069914212466066e-01,-2.207380347430179350e-03,2.335229081329602205e-03,1.378266573460813728e-03,1.160623505711555481e-01
2.492414251196186648e-01,1.253405510923558397e-01,1.301118869358662555e-01,-2.909796175996875577e-04,-6.580601096429517525e-04,-9.613087192517104015e-04,1.216032281517982483e-01
2.442655216496533721e-01,1.273389055557518357e-01,1.229689440138175827e-01,1.169480277276914622e-03,6.322505229544813678e-04,-1.353455488776276116e-03,1.192170009016990662e-01
2.389128961345264868e-01,1.335988917583650348e-01,1.182951569978023809e-01,-2.603195338807070928e-03,5.298813231935244755e-03,3.664887975779082888e-03,1.143756881356239319e-01
2.309795441915562519e-01,1.287741354244645031e-01,1.143921264366370427e-01,-1.439411134924593666e-03,1.913546925159167935e-03,1.144171656661593624e-03,1.101990714669227600e-01
2.443792368252971636e-01,1.306663327467069702e-01,1.263447076034620586e-01,-2.979431281007622820e-03,2.167462213141670320e-03,4.153535928897608004e-03,1.163323074579238892e-01
2.249560165710429438e-01,1.272092636300288793e-01,1.086139271418233160e-01,-4.180768335446895592e-03,7.351264486746213363e-03,4.575931642504725734e-03,1.095227152109146118e-01
1.866188083043437973e-01,1.606051469914569763e-02,1.017530716837689031e-01,6.293279415465541371e-02,-1.369785709707890126e-02,1.504896442200059394e-02,1.869269609451293945e-01
2.393801622446717348e-01,1.297828904680282114e-01,1.215531685291617453e-01,-1.582512947269693786e-03,2.493389196188190195e-03,4.112982283553482180e-03,1.142723038792610168e-01
2.422611521881672392e-01,1.239248635623058925e-01,1.245777100407866878e-01,1.874237924126405884e-04,4.956892495483748067e-04,-3.381340061524445734e-04,1.180162429809570312e-01
1.850720670769922527e-01,1.535379619141446217e-01,8.996710864846285682e-02,7.862085535196071048e-03,-8.571880437214622617e-02,4.760865689250566579e-02,1.899174451828002930e-01
2.460348486959760828e-01,1.265474978419197927e-01,1.277433186554553513e-01,1.864907056539846859e-05,-3.196801278010266267e-04,-4.337885337348727603e-04,1.188976168632507324e-01
2.429020209105603734e-01,1.233455475532018036e-01,1.224796386014680993e-01,9.962174032236918286e-04,4.335071542622010170e-04,-1.519544891909473637e-03,1.200353801250457764e-01
3.847974875057121880e-01,2.371421055866761440e-01,1.224834202485708401e-01,2.784163378164048602e-02,5.911752657457065852e-02,-4.295434646290093722e-02,2.649981975555419922e-01
2.482670218932663819e-01,1.271764334834555588e-01,1.310517204033828653e-01,-1.681780889836103851e-04,-4.316688005394726173e-04,-1.577357972597807131e-03,1.192342042922973633e-01
2.521825655140695344e-01,1.338718930954245767e-01,1.300134845962269969e-01,1.138529188530226690e-03,4.540358145882222732e-04,-8.263402841901325334e-04,1.203135475516319275e-01
2.378068857657028856e-01,1.252836681032297728e-01,1.181994534758292192e-01,-2.024483590388385847e-03,9.476290566051039218e-04,9.846702305655278143e-04,1.163043305277824402e-01
2.056941741825663583e-01,1.225744318977875225e-01,1.079599303098372765e-01,7.001377849837167253e-03,-1.385010331817394975e-02,7.930537552942477919e-03,9.616882354021072388e-02
2.160524334278479675e-01,1.291228299561822945e-01,1.139800873020871130e-01,1.694204452563154422e-03,-4.089776946255435815e-03,4.382950745163117015e-03,9.601474553346633911e-02
2.303884850956835484e-01,1.283668085160433181e-01,1.170624461541783790e-01,1.627147244676205523e-03,-1.401992047153970741e-03,2.998913113999526585e-03,1.083066090941429138e-01
2.498466438038342563e-01,1.339834373111045418e-01,1.296708603094443579e-01,2.280241753799184222e-03,-2.943663525495833055e-03,4.334933297114488410e-03,1.184926927089691162e-01
1.961443887794880048e-01,1.352712686236048900e-01,1.260269516641224496e-01,1.090044912729109215e-02,-1.018602872910271198e-02,8.852610589695712739e-03,7.250210642814636230e-02
2.314421569623038022e-01,1.360654432927108637e-01,1.145890130023846376e-01,5.385512672376625148e-04,3.509930278455779783e-03,-2.297734241049030190e-03,1.079813539981842041e-01
2.146947789977788623e-01,1.299251135135807422e-01,1.129838641239256647e-01,-3.317449978280730388e-03,9.528748451088546803e-03,4.228588917676617126e-03,9.627074748277664185e-02
2.478695694763957125e-01,1.273019762091121554e-01,9.458754632684610031e-02,1.663903673064332303e-02,3.128699526821986099e-02,-3.229024903128097784e-02,1.626230627298355103e-01
2.469329157345683812e-01,1.299475115884686782e-01,1.265084662130999127e-01,-7.802687044898870040e-05,-6.264272330015547478e-05,-9.436456020575369717e-04,1.187536567449569702e-01
2.421434499392753625e-01,1.332837863395271993e-01,1.225661287380248737e-01,2.152667231395158712e-03,-4.044935870824778110e-03,4.573891143997237813e-03,1.151423603296279907e-01
2.125826876415193856e-01,1.186003698663706946e-01,1.083495049065059807e-01,2.138191268550162366e-03,-4.331992276889438248e-03,4.205078246530790688e-03,1.001210212707519531e-01
2.425131020531505754e-01,1.357073263540684582e-01,1.129374742681437949e-01,1.482410118761390023e-03,2.433155972483401746e-03,-1.484444736742130538e-03,1.199535578489303589e-01
2.302914693617044428e-01,1.307306147444905753e-01,1.111905620386061944e-01,1.534743399033976522e-03,-2.607020647808989001e-03,1.009549096115401438e-03,1.107705533504486084e-01
2.396922225250620597e-01,1.261790557845158811e-01,1.233278301157207796e-01,8.633764467993187974e-04,-1.191271539076789107e-03,2.189613767786063002e-03,1.150560602545738220e-01
2.262941298536141899e-01,1.369475855209871806e-01,1.197939500406691588e-01,2.232110416462779884e-03,-8.703533208464573137e-03,3.032972886730321213e-03,1.003965586423873901e-01
2.374672753314593099e-01,1.326121953190488867e-01,1.213720129932599756e-01,1.662196658925715973e-03,-1.034795157491598351e-03,2.986999317906481686e-03,1.110755950212478638e-01
2.387397402875320318e-01,1.349767942497313022e-01,1.136373385371329953e-01,-1.642577552886062119e-03,2.181065934926331058e-03,7.933266694515458614e-04,1.160199120640754700e-01
2.363454483871151868e-01,1.362338106505297242e-01,1.064009163674935754e-01,-5.132239216738817894e-04,3.754809244047943757e-03,6.612463543303597488e-04,1.180820018053054810e-01
2.420357312239388436e-01,1.400128490202228737e-01,1.324667862811579611e-01,3.516009265007819570e-03,-3.925668800316399303e-03,6.125864731937077749e-03,1.069176346063613892e-01
2.357448088600667124e-01,1.324319058233561774e-01,1.223415084297965333e-01,2.877981075640118677e-03,-4.784684439833087471e-03,4.090611086562305140e-03,1.093689501285552979e-01
2.364497948646971937e-01,1.287708900373490950e-01,1.132233562976670271e-01,2.214828753206989249e-03,-1.620412883113377892e-03,2.439992552285039085e-03,1.164090558886528015e-01
2.237476377306195918e-01,1.194713604343539126e-01,1.424861021250476978e-01,1.129798703901061354e-03,-8.294403969622228317e-04,2.368999019596072265e-03,9.500557184219360352e-02
2.575952349889135129e-01,1.458423780809647852e-01,1.111794297472416815e-01,-4.232319418860154580e-04,3.822699208179392277e-03,-1.902137121633929308e-04,1.326966136693954468e-01
2.496756600328120523e-01,1.464080590464126586e-01,1.173919027865296671e-01,-9.496408028656552411e-03,1.190500606483457097e-02,8.527551994422302717e-03,1.241630166769027710e-01
2.493037663051092812e-01,1.445953268590286500e-01,1.127632626922501491e-01,-3.346980652677944944e-03,6.295319261973617887e-03,4.831630830293915171e-04,1.243520155549049377e-01
2.294169242456281232e-01,1.205807354971801526e-01,1.203478435081139775e-01,-1.115043461418662634e-03,1.192558167611174318e-03,3.656904921844057570e-03,1.091734096407890320e-01
2.354418231238868398e-01,1.118302681824164257e-01,1.377919894091672037e-01,2.401560672127304400e-03,-1.044712909965176935e-03,3.502012479801624089e-04,1.129849702119827271e-01
2.519146679615835716e-01,1.389717585192334348e-01,1.022236775261547576e-01,-1.331309438321823420e-03,6.902860075947103019e-03,6.274015936827597242e-04,1.356701999902725220e-01
2.473314573072993294e-01,1.280327794571756161e-01,1.287305261627187669e-01,-9.061558131457094173e-05,5.070803626321809874e-05,5.253506339882806596e-04,1.189549565315246582e-01
2.528701429788015043e-01,1.365817443084974547e-01,1.053040389301811708e-01,-1.949594779949426031e-03,1.588357190322769140e-03,6.083064165926179052e-03,1.351610273122787476e-01
2.419889612792915923e-01,1.272173932244594630e-01,1.231935112874784355e-01,-9.745475447231919872e-04,2.082573885128285931e-04,5.326138994773665361e-04,1.168518811464309692e-01
2.639133931264293076e-01,1.537891853532745157e-01,1.141013455598488963e-01,1.086479559867102986e-03,1.043152858942254964e-02,-5.024175270253034009e-03,1.359366625547409058e-01
2.268891200550913756e-01,1.398599234163146743e-01,1.162336675349427279e-01,3.770133937559804263e-03,1.080305989871263410e-02,-6.048925991791184904e-03,1.033972129225730896e-01
2.543952484316680529e-01,1.536527797153282027e-01,1.148065525987002344e-01,1.650794709976517922e-04,1.255068829703575271e-02,2.147004985759975483e-03,1.267202049493789673e-01
2.436620653405886239e-01,1.348447010910604482e-01,1.206099034872795545e-01,1.424983550718106340e-02,-1.596311842216515536e-02,2.621009272287536801e-02,1.304890215396881104e-01
2.399862155385472651e-01,1.256728136760838499e-01,1.218361290120886231e-01,-1.448079684807345282e-03,3.910077545143539552e-04,5.813544446904500085e-04,1.163126006722450256e-01
9.632121732178305917e-02,1.336176672634361573e-01,1.560651890053274260e-01,-3.110371956223772702e-02,-1.879720935508397833e-02,-8.333780132095146287e-03,8.308317512273788452e-02
2.418186514410978760e-01,1.219661581233472958e-01,1.269977472679021391e-01,-5.212786718393407981e-04,7.256719427624181524e-04,8.211079730154518044e-04,1.174363940954208374e-01
2.381948730069457509e-01,1.243754779680524003e-01,1.195562754150668039e-01,-7.253529981528300194e-05,-6.952846359185756164e-04,7.803824319596566663e-04,1.163180619478225708e-01
2.449054880187310768e-01,1.257704118293360707e-01,1.265551968618808532e-01,1.861669328800880173e-04,4.665121537286836271e-04,4.966757539518959486e-04,1.187509298324584961e-01
2.467151101280255499e-01,1.331407005372261532e-01,1.191103344958563126e-01,-1.457151425892605099e-03,9.644139518536103736e-04,2.235684367331087791e-03,1.212998107075691223e-01
9.555765677830577176e-03,9.187292354735328292e-02,9.364226206522734131e-02,7.442206525001286190e-03,1.041768564908692775e-02,9.241241755617404015e-04,8.613476902246475220e-02
1.976598133731943263e-01,1.461888069872694096e-01,1.398635242315481308e-01,5.231223198963672050e-03,-4.392991904041902707e-03,1.702340709979548346e-03,5.624525249004364014e-02
2.563971392819395234e-01,1.257574652337053456e-01,1.376071766567538157e-01,1.475308042442762240e-03,1.346928475061385903e-03,-8.680821846342773231e-04,1.251931786537170410e-01
2.465328053875404379e-01,1.120240914325166814e-01,1.268673046168297680e-01,-1.387801119665221230e-03,-2.949394063254452171e-03,-5.668085611049668987e-03,1.282366216182708740e-01
2.430899378376064623e-01,1.310828473479684342e-01,1.190460653341685604e-01,1.624660450431248716e-03,1.308580195081986532e-03,-1.630086840415244549e-03,1.185736283659934998e-01
1.884011027991782661e-01,1.342958187083404253e-01,1.192316600360129597e-01,2.306609081230761964e-03,-1.171706850134376400e-02,-2.221869557264945845e-04,6.631243973970413208e-02
2.440137749590555183e-01,1.305070963889477520e-01,1.191146786170998173e-01,1.662207885498940630e-03,1.328922435499407546e-03,-1.646656356615578461e-03,1.197012513875961304e-01
2.061710276459934599e-01,1.339879998552253593e-01,1.163109695852417164e-01,-3.534813223856224720e-03,-2.524134586324113666e-02,-1.084599879171845027e-02,9.539715200662612915e-02
2.074163308395804983e-01,1.214931797013110576e-01,1.237993460546249341e-01,6.567358592435281958e-03,8.881578340042833516e-03,-6.926396165385672633e-03,8.774916827678680420e-02
2.362631460907889669e-01,1.292899313806069872e-01,1.203950472575970876e-01,1.336866833819603780e-03,8.216204306280044034e-04,-1.660159194394548879e-03,1.117566898465156555e-01
2.452974726962171004e-01,1.260998138012535130e-01,1.267861916564525515e-01,-4.947439742516218441e-05,4.300527831458336595e-04,-2.913123454049730207e-04,1.188593953847885132e-01
2.491434071931906691e-01,1.300034597731957176e-01,1.288240425856681248e-01,-2.955513119576923882e-04,-1.893021694959022018e-04,-1.684399276010825359e-03,1.197710931301116943e-01
1.845563923177697130e-01,1.356011590597485661e-01,1.209339414240380717e-01,1.435808919797258438e-04,-1.000020207670594512e-02,3.374907939882120823e-03,6.053117662668228149e-02
1.931896762716347471e-01,1.095304215526688718e-01,7.298032671893089907e-02,1.607773569939138433e-02,3.672637072564324812e-02,-1.544916548174358507e-02,1.301173418760299683e-01
1.737248162074333524e-01,1.362871289227829130e-01,1.357090579731173308e-01,2.430547488731314449e-03,-8.168919824784053735e-03,3.373070389669384581e-03,4.093416035175323486e-02
1.621661123592221532e-01,1.367421360661355834e-01,1.323768329794414722e-01,-2.743136771768245850e-04,-6.369875626781307081e-03,-1.605419035515314938e-03,3.010152094066143036e-02
3.063572379680689073e-01,2.155238990197300419e-01,2.301277028367408883e-01,-8.297805522653486920e-02,-5.382031985923098338e-02,-3.015554748970793522e-02,1.980188786983489990e-01
2.310070638861534409e-01,1.165920432528366468e-01,1.368791019882295013e-01,4.346625511395033753e-03,-4.679305821694972620e-04,1.582927771691557475e-03,1.060474961996078491e-01
1.727061095648227407e-01,1.466438063041033690e-01,1.449944446008334387e-01,-1.684130662884272692e-03,-8.584393303814318379e-03,-3.372702372605411360e-03,3.144296258687973022e-02
1.627106033384248529e-01,1.405894953403230840e-01,1.402908312809213742e-01,2.189091077606830464e-03,3.058101236472043037e-03,-8.821854873201261582e-04,2.325524576008319855e-02
2.393846554190766640e-01,1.205996019502997563e-01,1.432618299073479262e-01,7.640874166785497495e-03,6.588106932365141079e-04,-1.655092016577205689e-03,1.100736111402511597e-01
2.470947689934840930e-01,1.297752992248024928e-01,1.248737436992016225e-01,7.977932594103694704e-04,2.980569558383407624e-04,-1.060966077528525909e-03,1.198686137795448303e-01
2.291804101553019946e-01,1.174667485175549392e-01,1.411748759469607373e-01,2.841770713796665411e-03,6.074060623255653001e-05,1.320625613332438841e-03,1.020929291844367981e-01
2.909424254661187592e-01,1.686469163601930499e-01,1.281582043137410865e-01,1.311464698316815516e-02,-2.638673056621114107e-02,1.897623809000349021e-02,1.588463634252548218e-01
2.472787935582726471e-01,1.356346342963264395e-01,1.122329067571270905e-01,7.811421884133499952e-04,2.907305423098011706e-03,-1.325019235241200414e-03,1.251286566257476807e-01
1.737366839006055652e-01,7.813586736628388985e-02,1.162963826268225837e-01,3.655554600670997412e-02,-4.471724088502564490e-03,1.631377803777915147e-03,1.049974337220191956e-01
2.307825625166204653e-01,1.441184528548317412e-01,1.099632053416803729e-01,4.922675268682505335e-04,1.814347220691868087e-02,-9.032768550809125788e-03,1.134475171566009521e-01
2.142493827368266435e-01,7.689377952323020460e-02,1.239660833359276099e-01,3.226521835978407582e-02,6.259949244921104994e-03,-6.118502893293934972e-03,1.340511888265609741e-01
2.261761562838350559e-01,1.099805021645383213e-01,1.333580637654102619e-01,3.624907113957354533e-03,-6.587107249761527464e-04,6.596107041710509320e-04,1.066470667719841003e-01
2.417407389708781107e-01,1.326459915639605636e-01,1.208430172434618866e-01,-8.752342785789297974e-04,-1.373318824460785775e-03,-1.579396752197427881e-03,1.155164763331413269e-01
2.323857336178651867e-01,1.073667476377716534e-01,1.300564108746530279e-01,3.909070464403969873e-03,-3.309907815393235524e-03,2.479601179943332050e-03,1.157803237438201904e-01
2.484643535960628369e-01,1.412019464945392100e-01,1.089726666595934867e-01,-2.915729199975937653e-04,2.653966507675520337e-03,8.246517550781052143e-04,1.265873908996582031e-01
2.352566038686324523e-01,1.213896583156373471e-01,1.448156269609035540e-01,4.241137709160246877e-03,-4.376341129994191798e-04,1.333821779697452444e-03,1.044360473752021790e-01
2.453682285599030899e-01,1.264762995802414525e-01,1.259401975380869954e-01,-6.558577352766381107e-04,2.981516471944708926e-04,1.819275941855376865e-03,1.192090734839439392e-01
2.455636685773056049e-01,1.324344458763835053e-01,1.073289298314839685e-01,-8.290962892452404323e-03,1.545800438876056802e-02,1.672547319641693939e-02,1.342794448137283325e-01
2.412824736214425059e-01,1.330798596085333019e-01,1.012461541410710208e-01,-2.377213387322905935e-03,8.368245635871645119e-03,6.748217311654381920e-03,1.285664439201354980e-01
2.426489243553480446e-01,1.245572275679048824e-01,1.252002728970346423e-01,-1.122975424911758354e-03,7.831166668697523868e-04,1.854553430227712284e-03,1.178391501307487488e-01
2.492326953871945583e-01,1.290065769037110066e-01,1.284238352954714946e-01,3.705160841477033330e-04,7.334034025524919760e-04,1.526556053791037039e-03,1.205559447407722473e-01
2.454550740019586508e-01,1.249870147648990404e-01,1.268560202625746147e-01,-3.835382611738092501e-04,5.008723394416100989e-04,1.631109757192699761e-03,1.195828840136528015e-01
5.749259237964952224e-02,1.000741365821252588e-01,1.016511764403906642e-01,-3.065966522127422725e-02,-2.858022408793010546e-02,-5.858880043660697791e-03,8.518415689468383789e-02
2.439226444655979986e-01,1.314729686406465592e-01,1.186115987616660483e-01,-1.902542576324908275e-03,1.921764958671946149e-03,1.502170038966592043e-03,1.195211708545684814e-01
1.471854962388239596e-01,1.315018693339297939e-01,1.476703618565405329e-01,-2.614338877237786657e-02,5.060228389813715109e-03,6.689038453738166412e-03,5.015270039439201355e-02
2.170343713677467534e-01,1.306145240106836303e-01,6.379559040033655481e-02,2.078046027035760149e-02,5.968977191180176861e-02,-2.813713255474662583e-02,1.790721267461776733e-01
2.445685272486269046e-01,1.281736295287049798e-01,1.240127617017008771e-01,-1.125291071447535440e-03,5.505324334175773883e-04,1.049185862830878148e-03,1.185639053583145142e-01
2.790364469481440568e-01,1.445037385734555535e-01,1.253932637542422568e-01,4.311517016388642133e-03,-8.355476246909205457e-03,1.508151637951161278e-02,1.482660025358200073e-01
1.168816086147208694e-01,9.324240616998745457e-02,1.172875028342598158e-01,-5.585002926505302362e-02,-2.302293742439444693e-02,-1.396320180781084573e-02,1.100060418248176575e-01
1.118905761490374823e-01,7.642532013614122821e-02,1.025129190049133138e-01,-6.471921916045879353e-02,3.426301712513438180e-02,1.481524839332691405e-02,1.332636922597885132e-01
1.712076536247263969e-01,1.263402668803207674e-01,1.494398491356192515e-01,-4.282709972056345654e-02,9.777415253594818126e-03,-5.073860428301910780e-03,8.588808029890060425e-02
1.746529859796277506e-01,1.072124361439606571e-01,1.221183618064700105e-01,1.407724239691527345e-02,7.149377461211348789e-03,-7.054994508877490689e-03,6.828115880489349365e-02
2.474212058689009563e-01,1.285240501429623927e-01,1.291006605087655912e-01,-1.071751185140044536e-04,-6.740222529801225058e-05,2.764724466399195936e-04,1.186110675334930420e-01
1.129039329802931785e-01,9.735781595575260239e-02,1.058443342683590416e-01,2.985674893699003310e-02,8.554573248617695219e-03,-3.446449926833867333e-03,5.577833577990531921e-02
1.425383414765371837e-01,1.117376726871865539e-01,1.173541356116747231e-01,1.108161344457483585e-02,1.383965422794419125e-04,-2.902439922357995684e-03,3.465503454208374023e-02
1.839081070917152894e-01,1.290350987297738117e-01,1.374597610454405539e-01,3.547495541542388959e-03,6.010348700476721324e-03,-6.537506091069441704e-04,5.260365456342697144e-02
2.444644305110934279e-01,1.229580083759734682e-01,1.253624515725287880e-01,-7.189340421823980486e-04,6.812097732133816710e-04,1.507157081884205217e-03,1.203627586364746094e-01
2.203374190400537447e-01,1.336283040763115437e-01,1.458835857608415387e-01,3.562616359143332481e-03,1.207750495587785883e-02,-4.941799077824787605e-03,8.458697795867919922e-02
1.682932375736263531e-01,9.442495760603125676e-02,1.165317092684550471e-01,1.734405678821857380e-02,2.648004516445689408e-03,-3.486987510016712442e-03,7.260995358228683472e-02
2.045684658892285013e-01,1.387999034758277683e-01,1.442904804126278473e-01,3.620809493817448311e-03,2.562405177507804700e-03,-5.121596177604412041e-03,6.428268551826477051e-02
2.502056637201895417e-01,1.351559443913448733e-01,1.250235268177062320e-01,-3.107016764176064212e-03,1.314836476798922175e-03,3.943594349668019285e-03,1.207710132002830505e-01
4.090560230386858787e-01,2.094949620157922077e-01,1.365737785730621323e-01,1.777170000090725135e-02,-4.387720961124147445e-02,6.560650288144916076e-02,2.816560268402099609e-01
2.416316238110861603e-01,1.252582697261696576e-01,1.250360211531897914e-01,-1.049928891224411213e-03,1.074304547556302700e-03,1.889935635581883704e-03,1.165596693754196167e-01
2.229009038206219984e-01,1.181536607180235926e-01,1.226654953103359091e-01,2.776980476859906236e-03,-1.014974408671662351e-03,4.619463096028699617e-03,1.030047684907913208e-01
2.378434431215407097e-01,1.198326248520537179e-01,1.300799728606859829e-01,-5.126926931559170264e-04,-1.352527884602047498e-03,1.002255398142618556e-03,1.132764443755149841e-01
2.439367489707245651e-01,1.228812138511940072e-01,1.276565835485279077e-01,-5.087273763366703195e-04,-1.262285204560977892e-03,-8.662227538013208845e-04,1.187727600336074829e-01
2.216320807028756001e-01,1.150530184161845243e-01,1.160082644520280259e-01,3.334656535709986866e-03,-2.158306683522590117e-03,3.740633972402507192e-03,1.065246984362602234e-01
2.482779918759596138e-01,1.212409621563098894e-01,1.328809497447678289e-01,-1.910104219417183133e-03,-1.586944439158712505e-03,-2.023225787954554492e-03,1.217619329690933228e-01
2.331534015802271265e-01,1.199690142136338455e-01,1.230266408096288289e-01,1.325191057850682664e-03,-1.667619734904216867e-03,2.810642027659279729e-03,1.118538752198219299e-01
2.310648092209904303e-01,1.111418655094338070e-01,1.231242346526697506e-01,1.108211430483449890e-03,-2.280704765408763431e-03,2.319074080614867174e-03,1.145580708980560303e-01
2.463163091889230549e-01,1.309921763851142895e-01,1.197688435671291768e-01,9.213036221959093218e-04,1.594189320517275677e-03,-1.430912096593667205e-03,1.213929727673530579e-01
2.608825062034529907e-01,1.237937401478153288e-01,7.991406700592713908e-02,1.215376735567207274e-02,3.052990507668841558e-02,-2.504030438159403349e-02,1.784785240888595581e-01
2.346181486406259675e-01,1.186524007846534029e-01,1.196423140570608001e-01,2.105215415655337530e-03,-1.255732006021410873e-03,2.438983743075389451e-03,1.156291961669921875e-01
2.675500886065894646e-01,9.014084209430348049e-02,5.523347492222246968e-02,-1.988540342597041460e-02,-3.354725985311277775e-02,-5.067862614529135973e-02,2.261702120304107666e-01
2.512012374013257721e-01,1.317169387850164186e-01,1.262652964625694818e-01,-1.562332706146456456e-03,-3.074486144155559424e-03,-4.291306565904172421e-03,1.226724460721015930e-01
2.480968398437072286e-01,1.297583014668688972e-01,1.247415842970854560e-01,-5.276230481643799956e-04,-8.138418709207049281e-05,-7.283271679280085972e-04,1.209350824356079102e-01
2.251689172926334415e-01,1.259721825876716494e-01,1.399061726672327088e-01,7.066218487569692931e-03,-2.851900819444728313e-03,4.720588121195939957e-03,9.430263936519622803e-02
1.747509848454254222e-01,2.219395115746773395e-01,1.897721999994381181e-01,-8.981614312513722109e-03,6.084060486399849726e-02,1.344854315289486070e-03,1.144366040825843811e-01
2.877400688301897658e-01,1.508049608062160263e-01,1.442340888512382291e-01,-1.730730295682480005e-02,-2.294387699780232187e-02,-3.349842318362184629e-02,1.598077267408370972e-01
2.353182761548075208e-01,5.611400005771027821e-02,9.884223230656929982e-02,-3.047262344349075877e-02,-2.220176875175900594e-02,-4.004309788386975488e-02,1.880362778902053833e-01
2.241087600152674164e-01,1.359193122399408038e-01,1.141074719219238032e-01,2.838117520600735291e-04,3.005583474775171474e-03,-1.149132488517654689e-03,1.010347083210945129e-01
1.862366258220423121e-01,1.380065072318528707e-01,1.339308554227217063e-01,2.922097943104105030e-03,3.097222973045904004e-03,-5.636102251481872258e-03,5.185572057962417603e-02
2.565514860662443941e-01,1.072421908867024765e-01,1.298164836407756373e-01,1.785114490727239523e-05,2.369702124138465572e-03,-1.757335671466837140e-02,1.427432298660278320e-01
3.393315642437404467e-01,1.749027058889543740e-01,2.007760124378536459e-01,-7.164185903226360022e-03,1.621333321855269408e-03,-2.594237881880173680e-02,1.601026058197021484e-01
3.296751008779762460e-01,1.826692289586667739e-01,1.579182401041358819e-01,-6.634860823986212831e-03,-1.132031733214359549e-02,-2.774995470371364320e-02,1.693770140409469604e-01
2.377529773121223877e-01,1.317168522044068757e-01,1.159409849506039814e-01,-1.585387497673603234e-03,1.252867843865133543e-03,1.073982146514044621e-03,1.148087978363037109e-01
2.403284271012000040e-01,1.239474384136306506e-01,1.163485691936693711e-01,-2.335920677370393293e-03,1.650397097256396575e-03,2.217351679834306255e-03,1.205235719680786133e-01
2.468430570358216558e-01,1.325055185124499324e-01,1.190428433213262249e-01,-1.585630054650954968e-03,1.629443518225673479e-03,1.455349377316818944e-03,1.217188015580177307e-01
2.420338966445697015e-01,1.282371255972433177e-01,1.118835763151607293e-01,-2.580472639116126662e-03,2.990464831314653803e-03,3.068426305888949119e-03,1.230982393026351929e-01
2.360809061707255241e-01,1.252397423029814882e-01,9.955838512068074242e-02,8.825330860574387079e-03,-2.675904774702131741e-02,1.512524621679393715e-02,1.373315900564193726e-01
2.589550391292438913e-01,1.485437096650612798e-01,1.194967101512911384e-01,-8.136037828875437297e-04,-1.338654906298936825e-02,-7.344091103510270307e-04,1.295481026172637939e-01
2.588556559142481395e-01,1.503082460294501987e-01,1.309112137849514357e-01,-2.399924422699186224e-02,3.724504820724919285e-02,2.645040638191205329e-02,1.491731405258178711e-01
2.524582258435110194e-01,1.407264797354932651e-01,1.192050287859564017e-01,-1.502854294448841260e-03,2.360851352255704822e-03,2.442457626629907126e-03,1.240692511200904846e-01
2.508853044147436595e-01,1.284025420186665212e-01,1.316300894166332058e-01,-2.203696203432761302e-03,1.752416186495260771e-03,4.222433163737355534e-03,1.212204322218894958e-01
2.425725884222910966e-01,1.384205779022001925e-01,1.087085145736711167e-01,9.065235249438909082e-05,-4.445992930726966157e-03,-3.466582617516801319e-04,1.220028921961784363e-01
2.523533547040596736e-01,1.417070395109545355e-01,1.195979691932708838e-01,-1.381935417343728087e-03,2.503539022922540540e-03,2.234006628612931859e-03,1.233580559492111206e-01
1.755247768083925686e-01,1.161280654224349507e-01,1.097849310076486479e-01,-1.691794442737300924e-02,2.514730312328948211e-02,1.296778356433926117e-02,8.488384634256362915e-02
2.473146055418942169e-01,1.299579701685841804e-01,1.150652962350643405e-01,1.641064679682017503e-03,-1.269119946308097614e-03,1.628950814693441718e-03,1.255507767200469971e-01
2.461327039605773481e-01,1.278660304482401588e-01,1.263745034862844840e-01,-9.777469514968514558e-05,8.731656065887308975e-05,2.424845729699617370e-04,1.190204024314880371e-01
2.468648665429548084e-01,1.294138186768080678e-01,1.269785173442800619e-01,-1.057912831728944226e-03,3.598180623609766558e-04,1.259400059558423010e-03,1.187232583761215210e-01
2.529259124470160103e-01,1.256890266329920292e-01,1.261300313818020102e-01,3.665254593645899100e-05,-6.151418119549892849e-04,4.366606459339759244e-03,1.272464096546173096e-01
2.348429570481749551e-01,1.322328330401232876e-01,1.093017964177459000e-01,-2.331476838856169284e-03,1.836929694031970515e-03,1.487544858394427086e-03,1.159340143203735352e-01
2.431298511430635689e-01,1.225397745084772505e-01,1.244543091802298856e-01,-7.645682134619062207e-04,1.098346720632169867e-03,1.404657584725051492e-03,1.196914762258529663e-01
2.444682667627335049e-01,1.110805328314490303e-01,1.217537550088746701e-01,-1.791004479617298254e-03,1.398105880337149279e-03,8.584970029511978726e-03,1.293024420738220215e-01
2.426075081606225148e-01,1.224058701404111410e-01,1.272401485934634147e-01,-9.261184316683898610e-05,1.172978586126770468e-03,8.157877367861947728e-04,1.178849712014198303e-01
2.368002928623721415e-01,1.183032754701847794e-01,1.144952171148025527e-01,-6.603597587963150502e-03,8.484674236715611731e-03,9.232795299451113449e-03,1.229219809174537659e-01
2.518601970438008042e-01,1.305007352926960684e-01,1.283118370008589915e-01,-6.676759334360652656e-04,8.972289277378137865e-04,4.188218922660640227e-03,1.226985305547714233e-01
2.492921987241236703e-01,1.323438230926764492e-01,1.243590659312370506e-01,-4.874120602620153771e-04,-1.667443078870555601e-04,-2.919743559446918730e-03,1.212470754981040955e-01
2.442096634577948788e-01,1.195294206743836851e-01,1.264521728408220802e-01,-1.043608394572598458e-03,2.061370656023372647e-03,3.146747489637645619e-03,1.215552464127540588e-01
2.495778588695844458e-01,1.308876236086231049e-01,1.266101035398592145e-01,-1.916700267470957894e-04,-4.640242411523225316e-05,-9.479720548282444259e-04,1.208974048495292664e-01
1.706247305599356834e-01,1.450413292867928639e-01,1.569554496797898602e-01,2.018849270585580669e-02,-2.176083172546945579e-03,-3.651670282062211676e-04,4.158106073737144470e-02
2.440007677280948972e-01,1.252234755678862388e-01,1.231298700763548554e-01,7.322178102056184834e-04,4.643591267082442290e-04,-1.758779270166173532e-03,1.198859289288520813e-01
2.439055086323786425e-01,9.120396655367132843e-02,7.918309310181533001e-02,-3.100924128307745373e-02,3.378487168943952040e-02,4.371221104864447121e-02,1.932333111763000488e-01
2.527997435719974151e-01,1.217195027499544530e-01,1.289388930225127128e-01,-1.165435143866867460e-03,-2.097352417385020833e-04,-4.019350826005810284e-03,1.278299689292907715e-01
2.521386294883897206e-01,1.346955164439484764e-01,1.323854337741463272e-01,-1.173683282382771524e-02,9.409878897863814540e-03,1.335537673906128826e-02,1.236265376210212708e-01
2.460835450283916648e-01,1.331149750199280835e-01,1.170390439126712118e-01,-3.724730027275252250e-03,6.866976342448284469e-03,6.596886615134783111e-03,1.230855509638786316e-01
2.470448706332706579e-01,1.295937078274380094e-01,1.251789833496070037e-01,-6.985508496026405579e-04,5.612349559543833614e-05,-9.609550910674869838e-04,1.197373121976852417e-01
2.470795851865393022e-01,1.446000447428534841e-01,1.269989449490872002e-01,-2.039486944589674611e-02,3.619325526939100313e-02,2.546027960704074639e-02,1.404919624328613281e-01
2.112817913387981528e-01,1.131948214753982496e-01,1.280173733718763251e-01,-6.067372842204815132e-03,2.568947487994274140e-03,5.650918111572342944e-03,9.280570596456527710e-02
2.487420500477430241e-01,1.336309977910151991e-01,1.202237730189888443e-01,-1.308163380534272812e-04,-1.434344295484328569e-04,-1.279462809761375015e-03,1.223873049020767212e-01
2.078015715517169404e-01,1.051820050804794793e-01,1.249249084399756404e-01,-6.302744437786286270e-03,1.685782244754095065e-03,3.743774798442434625e-03,9.520659595727920532e-02
2.508011144585883256e-01,1.364393089827972416e-01,1.001304014352170924e-01,-1.520589055116738355e-04,3.239086317644560464e-04,5.829648801402618303e-04,1.362010091543197632e-01
2.342338775411709206e-01,1.163382989295472930e-01,1.385823842903693148e-01,-3.730997497358842698e-03,1.172051541159439001e-03,1.970090545279400487e-03,1.087621897459030151e-01
2.392781697475283575e-01,1.338637794548940552e-01,1.121833874296254974e-01,-2.740124788621861856e-03,2.796463852840558924e-03,1.142404532505614332e-03,1.179727017879486084e-01
2.577300322817824840e-01,1.781882767745933682e-01,1.265895276112406487e-01,4.166487651668812305e-04,-3.620751147507200729e-02,-2.604846654600011420e-03,1.305657178163528442e-01
2.502053774554411358e-01,1.340019892396312196e-01,1.105025330435418646e-01,-1.249178878186120000e-04,1.470609930051533509e-03,-1.957572720700170854e-03,1.296310126781463623e-01
2.297951853384125331e-01,1.136142051524468011e-01,1.300966636640135954e-01,-1.730873784398021973e-03,2.246069830642061921e-03,1.540483077883753093e-03,1.090228632092475891e-01
2.427683878759528402e-01,1.217404735639972813e-01,1.232863973229219867e-01,-3.340294733556038557e-04,-1.294613590474613879e-03,-1.619778245041730716e-03,1.203174144029617310e-01
2.346360117061773443e-01,1.234131423958378382e-01,1.336553256238776632e-01,-4.258535246833481530e-03,3.487756851005562302e-03,4.017858596096044940e-03,1.071241870522499084e-01
2.481124106863118461e-01,1.332963343184696559e-01,1.191466165544650402e-01,-4.093126548199155224e-04,-8.784834847907585335e-05,2.044207118870178599e-03,1.225586533546447754e-01
4.178559003181536724e-01,2.158248071262599543e-01,2.238372898769676045e-01,3.863974690264870143e-02,-3.715193881702333334e-02,5.424059024959117237e-02,2.381344288587570190e-01
2.538580267212744990e-01,1.402945170926732377e-01,1.297586238783924317e-01,4.714970424560315475e-03,-1.055567229009878732e-02,5.196907755888722016e-03,1.211864352226257324e-01
2.257994925615537385e-01,1.195642775692567217e-01,1.369592194078620151e-01,-1.879145122132705459e-03,9.009519327724596280e-04,2.827826022969072255e-03,9.888158738613128662e-02
1.593209567491631617e-01,1.305326367988788316e-01,1.434731452178771294e-01,-2.164641189295484977e-02,5.548431642615458612e-03,4.303606306368322823e-03,4.666163772344589233e-02
1.214733113621373206e-01,1.590412424469697661e-01,1.624035941698558638e-01,-6.223220234015079677e-02,-2.098823211673205708e-02,1.713370742323368917e-02,1.239746809005737305e-01
1.623932818396145450e-01,1.541526732145874490e-01,1.643028951348230737e-01,-2.638024643447391820e-02,2.214432228887367599e-02,1.659621462457539290e-03,6.045179069042205811e-02
1.855013004048290115e-01,1.343840713433787915e-01,1.180027606162853543e-01,5.002731119188704107e-04,-1.138343003856792483e-02,-2.872510456995048568e-03,6.428793072700500488e-02
2.545132371276054850e-01,1.332432396724962387e-01,4.365166344415109811e-02,1.540213825121379033e-02,5.105078780995030152e-02,-2.057900704359287916e-02,2.083231806755065918e-01
7.236045131702717459e-02,1.173191734074706255e-01,1.204480924264905717e-01,-5.461719886576932997e-02,-3.134996822385113704e-03,3.430653706106673653e-03,1.057622656226158142e-01
2.505122915168427333e-01,1.241653714795968866e-01,1.193930220221057215e-01,6.515563889916725637e-03,-1.901663214306616168e-02,2.672793296228283613e-02,1.412256807088851929e-01
2.292214318730407263e-01,1.326951815254316935e-01,1.164768769081153815e-01,-7.216702921109238765e-04,-2.219260395951978479e-03,-2.108046068283089391e-03,1.057142913341522217e-01
1.012159791986179946e-01,1.240344879801875688e-01,1.397963460269511793e-01,-4.708587132665901370e-02,2.639945227158285723e-02,1.699421520950571834e-02,1.036205738782882690e-01
2.463622591688150454e-01,4.671925476956409473e-02,5.401747336459737647e-02,-1.682133175255142929e-02,2.070597543773455146e-02,5.527735185778594185e-02,2.230591773986816406e-01
2.244142432007076027e-01,7.791730439575177136e-02,7.615883893066319188e-02,-3.730996212652677724e-02,4.058992724622709214e-02,4.662499886413334210e-02,1.932936906814575195e-01
2.590926435002736117e-01,1.436797849062835808e-01,1.165192444269813332e-01,1.075314436595503414e-03,-4.992093560148149156e-05,2.372008508199514691e-03,1.311977654695510864e-01
2.425709827505038718e-01,1.477257289715347421e-01,1.200800423944834161e-01,1.963249610681247568e-03,8.341725692766394085e-03,-1.967874423776849215e-03,1.123116314411163330e-01
2.339180763494831394e-01,1.397419897710529546e-01,1.176401843497635047e-01,1.966786313830892145e-03,3.922537257871212477e-03,-2.088640293448674329e-03,1.072843745350837708e-01
2.479364103678600162e-01,1.297270983258926591e-01,1.289477655775517484e-01,-1.165913780092673388e-06,7.678367369808756102e-06,3.535514501020968329e-04,1.186024770140647888e-01
2.464803942842833662e-01,1.272885130491138161e-01,1.270937273966744607e-01,2.923621738676542188e-04,-2.675205736515179301e-04,3.239225232846822209e-04,1.192926838994026184e-01
2.514328309480940993e-01,1.326516795533412008e-01,1.294521557235016052e-01,2.275694405567887794e-04,-3.859330701367855729e-04,8.550582595077169763e-04,1.204244047403335571e-01
2.459025435397441950e-01,1.290824528641328905e-01,1.104402301431825772e-01,-1.445656547452885132e-03,1.552450592850449537e-04,2.243257297571955595e-03,1.272544264793395996e-01
2.363043306054229964e-01,1.324529798301664618e-01,1.202934559561139316e-01,1.480957243242842078e-03,1.089262830792123811e-03,-2.138038540757354784e-03,1.105422675609588623e-01
2.407817251971307859e-01,1.284445361435273270e-01,1.223314768099471872e-01,3.583413547996429187e-03,-3.122358647933530171e-03,5.003002141378447461e-03,1.161318123340606689e-01
2.322242990550671404e-01,1.322445438230777370e-01,1.142070453519945239e-01,5.146193526874739662e-04,-3.442217609543365129e-04,-7.444233116373040948e-04,1.101249307394027710e-01
2.065648325559252818e-01,1.317006603530603837e-01,1.091733060882489892e-01,-1.300299741050984072e-04,5.865181259573447499e-03,1.711597133772291886e-03,8.894187957048416138e-02
2.406946255466435036e-01,1.182989359492136183e-01,1.188981124158589586e-01,1.574633650785338141e-03,1.023304937932098362e-03,-4.680912196559847138e-03,1.224093139171600342e-01
2.484813402246335290e-01,1.309851432798888049e-01,1.262645591058816630e-01,9.073497601969485789e-04,-5.351642860716008436e-04,-1.035481971701183047e-03,1.199534758925437927e-01
2.948473058275056791e-01,1.353796356603760576e-01,1.004123121282223530e-01,-1.853808264766081126e-02,1.902628000631874719e-02,-6.400508068219987190e-02,2.159530967473983765e-01
2.513323880561959545e-01,1.322793677000154156e-01,1.261458828162014822e-01,2.331563001088879025e-03,-6.267901349343678319e-04,-4.243300259446885180e-03,1.225273683667182922e-01
2.456200539165588614e-01,1.264870833696685182e-01,1.266798995987357124e-01,-2.220481002030528042e-04,-4.057251744835839490e-04,-3.316916719910183381e-04,1.190407648682594299e-01
2.224871148649336106e-01,1.210869943357595485e-01,1.126798080906307176e-01,1.649368720605088462e-02,1.305491993379103571e-02,-1.560362949766349629e-02,1.151650696992874146e-01
2.362991701305084957e-01,1.221591305708100150e-01,1.158210757268477997e-01,-2.678700802902276787e-03,-7.794868939994424248e-04,-1.840853523095037705e-03,1.175800189375877380e-01
2.723003713178923646e-01,1.495340781284514586e-01,1.347104966097791012e-01,-3.695857339612714128e-03,-5.237961848589311846e-03,-1.209510759171070725e-02,1.329409629106521606e-01
2.415387615275622901e-01,1.230836996493699514e-01,1.159112629485346685e-01,2.072009629393011323e-03,1.566182513478783312e-03,-2.914422416856332285e-03,1.223861798644065857e-01
2.452593895359192755e-01,1.248022656349734305e-01,1.264552423286965377e-01,2.431238214892291361e-04,4.785868748199902404e-04,-1.028915856625409967e-03,1.196560859680175781e-01
2.009049319968603808e-01,1.327196576687418861e-01,1.180336112778084395e-01,-8.774971282582497015e-04,-1.828038991838542866e-03,-1.068316168023682785e-03,7.669447362422943115e-02
2.370497753816039332e-01,1.151975585317148165e-01,1.336864768832732864e-01,-2.015334456039368730e-03,-1.926196780671417946e-03,-1.270436158694954968e-03,1.138641461730003357e-01
2.448842241790502861e-01,1.211828275747923317e-01,1.287445244415902912e-01,5.664523676371785704e-04,1.086904320953949047e-03,-1.304304871922873582e-03,1.201392188668251038e-01
2.507781145378702448e-01,1.398318885721767935e-01,1.016747870383889751e-01,3.189505250741024437e-04,-1.359733092833101138e-03,-5.992307496161098203e-04,1.341840028762817383e-01
2.463733230259856355e-01,1.252680614538011494e-01,1.292744708664613773e-01,2.074026373757559109e-04,5.579377477544990478e-04,-6.273458065441971706e-04,1.191620007157325745e-01
2.403966865471773018e-01,1.190780722915373013e-01,1.193431623231141492e-01,2.522562953919508816e-03,2.123085323473548110e-03,-3.324954076420513771e-03,1.214573755860328674e-01
2.408767631231371054e-01,1.158897478366281431e-01,1.236649813888712479e-01,1.293904939707672805e-03,2.440502570968275040e-03,-1.958516327178825688e-03,1.214281842112541199e-01
2.378588709199646045e-01,1.182110880399483421e-01,1.306554049975645060e-01,-1.597961793907808591e-03,-1.290153672527462640e-04,-1.070936586383519412e-03,1.139853894710540771e-01
2.442160793391071616e-01,1.315368909240750284e-01,1.211767657380907470e-01,-1.833031326937269731e-03,-1.465160297839643213e-03,-1.697447286293487330e-03,1.183066591620445251e-01
1.255457610538948943e-01,5.788036637942896301e-02,7.272393134302329587e-02,-6.606084301859951879e-02,-3.892784356558485342e-02,-2.381344124981043739e-02,1.520987153053283691e-01
2.437811464465968747e-01,1.247726674006457148e-01,1.233026618439218985e-01,1.393696188203759692e-03,-4.462576885654223786e-04,1.162859351008143152e-03,1.197940036654472351e-01
2.498202645385873000e-01,1.293144791961058637e-01,1.284114924430909688e-01,7.622715877898872047e-04,3.965984566300645572e-04,1.226868028811741720e-03,1.209876239299774170e-01
2.498671814545028180e-01,1.272246160068504217e-01,1.304367430814875051e-01,3.564457853139038922e-05,-6.673843147957961254e-04,8.782756001003712808e-04,1.210835576057434082e-01
2.549049465534779513e-01,1.458768113294687530e-01,1.106002801277646691e-01,8.123347997008102976e-04,-2.648079334249049243e-03,8.827406570163977978e-04,1.303957700729370117e-01
2.609315315232486054e-01,1.662489904822254394e-01,1.239221329762345558e-01,-1.090358516278484673e-02,-2.587406615402108520e-02,-1.845154468535730244e-02,1.347234398126602173e-01
2.463705045765866297e-01,1.279960947568516971e-01,1.265957870517109285e-01,2.309209080453017296e-04,-3.715226986673873973e-04,6.162118897442296541e-04,1.190879344940185547e-01
1.403972877557883303e-01,7.993008688609076762e-02,9.098423073135045169e-02,-5.247537780172464861e-02,4.108497546729404648e-02,2.535120427052092729e-02,1.355102807283401489e-01
2.049838771230290124e-01,8.241223445708292794e-02,-3.946026689282543243e-02,-5.583574799948720982e-03,4.209478339211135400e-02,1.671762412098282483e-02,2.259705811738967896e-01
2.451793781783854487e-01,1.251064041543785699e-01,1.260141933473437059e-01,1.806628752453138598e-04,-1.632663299876672557e-04,1.228759688475185557e-03,1.196413412690162659e-01
2.392774068116391151e-01,1.217533263412924616e-01,1.232272520671232885e-01,-6.326885877687528966e-04,-1.271120326092916491e-03,-7.055792330668275714e-04,1.168263778090476990e-01
3.212454839760275904e-01,1.833912194069121648e-01,1.773753016350083922e-01,5.699883527156760638e-02,-6.467541696418979691e-02,4.636169768135751934e-02,2.204832434654235840e-01
2.457361797114486490e-01,1.272510544200116667e-01,1.275900984536504912e-01,2.923851510836294803e-04,-2.407095557649038809e-04,3.239479332153690698e-04,1.183191165328025818e-01
2.483027126080522007e-01,1.311585405234022561e-01,1.257985770463984354e-01,-1.674304259768328153e-04,4.560615088973955333e-04,1.015990300702005432e-03,1.199298948049545288e-01
2.427696427741524166e-01,1.162630452085651883e-01,1.233409239080613673e-01,-3.005603575499228380e-04,5.898277462255734288e-04,2.866179148892627777e-03,1.232257187366485596e-01
2.477664647002081888e-01,1.286650603655311309e-01,1.295727984121622933e-01,-4.467805153967890506e-05,2.191138989507055422e-04,3.821078884065502767e-04,1.186526194214820862e-01
2.620414016705401861e-01,1.166197874240625376e-01,2.491164805691682693e-02,4.774272753308521008e-03,-9.003710983489622913e-03,2.341524930360707607e-02,2.117795497179031372e-01
2.509359225366307178e-01,1.377096041262994008e-01,1.081583153068531866e-01,7.975444767696641870e-04,-6.810254646997898577e-04,1.952755786701169949e-03,1.305917352437973022e-01
2.472688454980583317e-01,1.418113711026543489e-01,1.059946314972293469e-01,-4.147409685502599630e-05,-2.457220438534046293e-03,1.079481471300398855e-03,1.272905170917510986e-01
2.178101277190612195e-01,1.139533730330271472e-01,4.119095141894457690e-02,-1.495416992475001074e-02,5.054547365140628357e-02,2.906146312162922324e-02,1.857594847679138184e-01
2.469169252604432319e-01,1.284438241561299265e-01,1.272694399347830130e-01,4.672526616124846109e-04,2.078980267328447052e-04,3.891296392524393340e-04,1.190698370337486267e-01
2.505612388459823592e-01,1.314892001639670349e-01,1.287553116343713722e-01,5.304123754272587962e-04,-4.399205328257827928e-04,6.195050462939824401e-04,1.204729452729225159e-01
2.534016326950003783e-01,1.370707402427321919e-01,1.227302849178299460e-01,-1.547984549691652247e-04,5.982441090635650234e-05,2.234595434509612996e-03,1.241846457123756409e-01
2.464670149473523753e-01,1.282149620628940112e-01,1.274178023357224188e-01,7.648774282919802931e-05,-1.431253243548897310e-04,4.259180628678663053e-04,1.186552643775939941e-01
2.475619454467691272e-01,1.248884547509722526e-01,1.371994764389240506e-01,-7.208768872315788993e-03,-4.494815496926426318e-03,-6.813212595488387681e-03,1.185153126716613770e-01
2.790155859952368478e-01,1.492828108075974214e-01,1.629022345041557240e-01,-7.645444332757317385e-02,-1.840428293844278279e-02,-2.429997515339757733e-02,1.886071562767028809e-01
2.470999137325585182e-01,1.300987034734138181e-01,1.269667300895298001e-01,-1.063914854446030726e-04,-5.064258506165983343e-04,6.357340029784706555e-04,1.186067163944244385e-01
2.493490039181756046e-01,1.306510703783717586e-01,1.297813193706627288e-01,5.649666994233267349e-04,-3.326823129006208296e-04,1.299064755263157084e-03,1.191618442535400391e-01
2.325352529555871350e-01,9.509752795024656313e-02,1.217785581438300402e-01,-2.193623114028676532e-02,-1.022257167661119043e-02,-2.679266016494580988e-02,1.408710926771163940e-01
2.482137918164807611e-01,1.293608436987506716e-01,1.242442367408918280e-01,1.548642810217892808e-03,-8.771279350422461112e-04,8.220303581811338025e-04,1.215395256876945496e-01
1.864316875289314390e-01,1.236585416914418034e-01,9.635375834342364831e-02,3.930416562558344470e-03,2.089853822189700894e-02,-5.293506314043872410e-03,8.854761719703674316e-02
2.558607153464326212e-01,1.320402608225864360e-01,1.358354412323832250e-01,7.293669875252947830e-04,-7.727852342687148955e-04,-4.841097784341888248e-03,1.222689002752304077e-01
2.366086983674226263e-01,1.203361258627471675e-01,1.187755081027520171e-01,-1.785870964698913366e-03,-1.265796300174536508e-03,-1.993547749061809569e-03,1.171729564666748047e-01
2.367875076871843176e-01,1.207511377121087692e-01,1.215745110594749212e-01,-1.138383237908445304e-03,-8.076496073737477778e-04,-2.132418318145235057e-03,1.157111153006553650e-01
1.617827320812204872e-01,7.041918886657630439e-02,9.074850927503010090e-02,-6.019744522285666588e-02,-4.124440873758790371e-02,-2.250926433377969244e-02,1.561976969242095947e-01
2.247540023904057160e-01,1.126572237353752060e-01,1.353338115278825138e-01,3.851460152159529460e-03,-3.390397910745825399e-04,9.283318995302274447e-04,1.028852462768554688e-01
2.404448562901259911e-01,1.105552353035695046e-01,1.408773230332545090e-01,1.052199423279076042e-02,9.615502374845398808e-04,-3.189306528661642174e-04,1.191110163927078247e-01
2.286566689970356836e-01,1.233377474985154210e-01,1.483220835980764429e-01,2.255348371388822548e-02,1.125640887052155141e-02,-2.695411809992167944e-03,1.049421951174736023e-01
2.438219053021840055e-01,1.266612645630721401e-01,1.253101613453592167e-01,-3.605928012303608867e-04,-4.732243760572829236e-04,-4.018458664770663789e-04,1.178485602140426636e-01
2.373228576800736067e-01,1.091362976771980686e-01,1.383013843070722282e-01,4.493740013406194965e-03,1.851236911748602209e-03,8.963655076824827376e-04,1.166923195123672485e-01
2.490428548658454311e-01,1.429060268012541657e-01,1.099826330430096755e-01,7.100444141832407173e-04,-3.466826128671187963e-03,7.085783601868591436e-04,1.260255426168441772e-01
2.372110092646124158e-01,1.090048466762362500e-01,1.378133952739214463e-01,2.427682191414314537e-03,8.906064298887018699e-05,-9.490656922369406152e-05,1.165806651115417480e-01
2.301206773422768137e-01,1.305085977689496024e-01,1.184636125943087925e-01,-1.629489360824436760e-03,-2.168367543048920106e-03,-3.032550834907006988e-03,1.063820198178291321e-01
2.555814939022369447e-01,1.440352714030398995e-01,1.131496358779277150e-01,-6.053706795331513599e-04,-1.129366113520585213e-03,1.837464825880951542e-03,1.298334002494812012e-01
2.331618219764083622e-01,1.159177573371937275e-01,1.390242649711340428e-01,4.941495370336789622e-03,1.117324742600155844e-04,-4.395981261335492178e-04,1.079113185405731201e-01
2.360353344121351171e-01,1.269494807320512841e-01,1.163958830608090300e-01,-2.408661439516281751e-03,-1.741132281055104590e-03,-1.874747820294244815e-03,1.148886159062385559e-01
2.196660243841708493e-01,1.185942125598477281e-01,1.380541820629120620e-01,1.113919783305003346e-02,1.775236639553309098e-03,1.157438639090309753e-03,9.493716806173324585e-02
3.639606056764508324e-01,1.209728827912040922e-01,1.629520845581718669e-01,2.024776161611417657e-03,-2.690803037050246496e-02,-5.163635436158212078e-02,2.465526759624481201e-01
2.443765116301039320e-01,1.319267054914811943e-01,1.214018969251304675e-01,-1.758369246009148677e-03,-1.471317780585819053e-03,-1.666076264205566988e-03,1.181665807962417603e-01
2.387774078053030435e-01,1.236371193984197592e-01,1.435270818193032927e-01,3.576695661922824239e-03,-2.325807428564808689e-03,2.867772610312008166e-03,1.069674715399742126e-01
2.377728394123869993e-01,1.240309210742736035e-01,1.331450738839070613e-01,-3.453816035651583751e-04,-4.786018427826282387e-04,-2.225046117428489730e-03,1.095423549413681030e-01
3.257701377942034959e-01,1.611482447980343014e-01,2.355980347936281472e-01,-8.796781076980381142e-02,-2.364729425857015760e-02,-1.278654941069885982e-02,2.139395922422409058e-01
2.375980927464133585e-01,1.334827234967181919e-01,1.125894013609892580e-01,-2.000876332572455642e-03,2.194244784454378767e-03,8.193829939207035624e-04,1.161048039793968201e-01
2.467957515826612047e-01,1.237726471061733197e-01,1.506794865923071769e-01,8.803393161424413402e-03,2.395917512090380962e-03,-2.973867013660776767e-03,1.132464185357093811e-01
2.082515936429251979e-01,1.084014588976081328e-01,1.275331890381898314e-01,6.289354017550166653e-03,1.008635936634164239e-03,-3.127818093471431207e-03,9.261120855808258057e-02
2.656626764329823587e-01,1.525729358410801706e-01,1.576005511478045240e-01,-3.920989358970800032e-02,-3.614632372503399915e-02,-2.599812052647704555e-02,1.510152965784072876e-01
2.532419552793183648e-01,1.419430974883175711e-01,1.108307479555998842e-01,-8.641248934536432860e-04,-6.084201296834201769e-04,1.912857557556513557e-03,1.297401636838912964e-01
2.404271513540233995e-01,1.330354990142418592e-01,1.076786198272756401e-01,-1.855175680190037247e-03,-2.494154632649752193e-03,-9.031419926928050106e-04,1.221903860569000244e-01
2.339736554627198650e-01,1.171898226654732589e-01,1.391437158063081325e-01,5.383322309749242161e-03,-5.541710079182269504e-04,1.612442265479534361e-03,1.079455390572547913e-01
2.309788299321504090e-01,1.118858778057068293e-01,1.346345730649671224e-01,2.478327944021777637e-03,-1.139157428572455102e-03,8.173607029085941172e-04,1.096163690090179443e-01
2.330107377082956954e-01,1.160704045897909126e-01,1.370683569258651091e-01,5.141032790483641458e-03,-1.187610157979566245e-03,1.553742494554640179e-03,1.084030047059059143e-01
2.302270916154905978e-01,1.158025210202666133e-01,1.366798706904319982e-01,9.481988499970796973e-04,2.886785054565661995e-04,4.875167600037659879e-04,1.055633649230003357e-01
2.116156186314426257e-01,1.162007964806504035e-01,1.352209244692051948e-01,4.666529383910302843e-03,-1.214419513585737308e-03,2.042724652079098719e-03,8.793874830007553101e-02
2.132622825632684294e-01,1.250671825909998314e-01,1.363491665704064659e-01,2.401996129327990150e-03,-9.415601883980090304e-04,4.787174866076425797e-03,8.366219699382781982e-02
2.189720951068039323e-01,1.304517169688872436e-01,1.163073757417741466e-01,-6.976896394886591100e-04,-5.466910502068395711e-03,-5.351704641579058640e-03,9.728836268186569214e-02
2.424660508766791622e-01,1.391438826263921569e-01,1.089034743067993638e-01,-1.075984450376315333e-03,-4.052831133671399265e-03,5.167733221817698633e-04,1.215236932039260864e-01
2.327015150480798433e-01,1.370656930378233440e-01,1.133731614245731267e-01,3.514911347657667965e-04,-8.860186722068484795e-04,2.427194279330135605e-04,1.094363033771514893e-01
2.312836443148342802e-01,1.164559087071257298e-01,1.391497984490895068e-01,8.556335591686177250e-04,6.983211073375374155e-05,1.204579467719952776e-04,1.053412929177284241e-01
2.470900729847322896e-01,1.364248787169923260e-01,1.074272109497039634e-01,1.059360532652347869e-03,-2.649929425336947173e-03,2.171354602340141646e-03,1.278094649314880371e-01
2.432916759757764447e-01,1.217800007913094618e-01,1.283459818772103855e-01,-2.215093751940102641e-03,1.303153621546014997e-03,2.521944500466439480e-03,1.185295358300209045e-01
2.495942225515493662e-01,1.023705031148071098e-01,1.370575002026962474e-01,-5.564421303884273598e-03,1.385580675893679321e-03,7.593021999513409684e-03,1.343237608671188354e-01
2.356342254753137910e-01,1.271616457635869890e-01,1.330556184854818913e-01,1.226090733555785335e-03,-8.148168326502166787e-04,3.086222006167286310e-03,1.058148443698883057e-01
2.676114625254800705e-01,9.390350891754634111e-02,1.238501599593297003e-01,1.820067431066437272e-02,-1.774393319317281448e-02,3.470091737763955630e-02,1.772571057081222534e-01
2.470975960253248560e-01,1.279292634326347211e-01,1.274188720935958419e-01,3.684274903476527827e-04,-3.963437546799727126e-04,2.759425046633329280e-04,1.194289773702621460e-01
1.891441448972921713e-01,1.681571815466154640e-01,1.523811061502214625e-01,7.395225383684442266e-02,-3.875618896754227244e-02,1.945549974193508391e-02,1.518845409154891968e-01
2.692678471822707031e-01,7.175425726387164860e-02,1.596226573107355495e-01,2.975805370793689272e-02,4.191614900968310999e-03,5.627723983725040069e-03,1.793923527002334595e-01
2.403201591321969532e-01,1.225501312177890434e-01,1.234516184944846051e-01,7.061946583213185146e-04,-1.395811607204206894e-03,6.474056861666605857e-04,1.173585206270217896e-01
2.422768209982803234e-01,1.309431303967596438e-01,1.200863336742817034e-01,1.947589805248135970e-03,-1.482129100485180288e-03,1.064129808975009406e-03,1.172311976552009583e-01
2.470757717219730365e-01,1.295388515128170215e-01,1.266059492086331062e-01,-7.647095184061027942e-04,-3.870366113704528516e-04,8.575017871010195492e-04,1.190489977598190308e-01
2.446718140175558887e-01,1.264461109426699426e-01,1.217626989129911574e-01,6.887982897551867640e-04,-9.709587644053186209e-04,7.909159253629805767e-04,1.206610128283500671e-01
2.794488412805153366e-01,1.405112000802426486e-01,1.795963796689263314e-01,8.082831374931337409e-02,-1.350328823314840727e-02,2.865711157482563054e-02,1.949647963047027588e-01
2.410178668632565468e-01,1.213876814562832862e-01,1.231417905842056293e-01,8.071823818244532782e-04,-1.718719983699341231e-03,9.636196051767917945e-04,1.188201010227203369e-01
2.434041548017054080e-01,1.275814306253356123e-01,1.227831081626808429e-01,1.607342977916960619e-03,-4.476672255079992726e-04,3.868262182606901196e-04,1.183320879936218262e-01
2.580425392498129633e-01,1.283443547041391297e-01,1.447108693946592139e-01,2.025220483854785116e-03,-1.234661745345698534e-03,8.551401737884102919e-03,1.233005747199058533e-01
2.361817274645242049e-01,1.205487755988072229e-01,1.243326466410899500e-01,-4.201047136747599426e-04,-2.121541093622203043e-04,6.677387458789311786e-04,1.137970089912414551e-01
3.110666478304835447e-01,1.298746809406033931e-01,1.627642656320155701e-01,-1.945910932314035696e-02,1.614629561481846845e-02,1.691181087816863091e-02,1.752969771623611450e-01
3.213802248622676383e-01,1.249529706153225811e-01,1.848610449301743008e-01,6.703628292052468685e-03,1.291763645027349701e-03,6.877627109662359794e-03,1.751764565706253052e-01
2.357505936246429012e-01,1.206813284077413173e-01,1.232656613980151472e-01,-1.000907621697877089e-03,-7.179622407635355679e-04,-1.893262226655828811e-03,1.138663366436958313e-01
2.434020983164956187e-01,1.274545982151420176e-01,1.229590092438511972e-01,-1.404070278792495050e-03,-8.724481285105473161e-04,-1.106357737594668156e-03,1.183095723390579224e-01
2.418354574330789097e-01,1.269687670276299363e-01,1.221758308604080079e-01,-4.507487238183260241e-04,-3.569647271541550649e-04,-8.874482886276970376e-04,1.173508912324905396e-01
2.426331978165435221e-01,1.262939034028999763e-01,1.221905284685534110e-01,-1.664224226914046319e-03,-8.710208489401925769e-04,-1.097155412032844741e-03,1.185042187571525574e-01
3.439847753882534498e-01,2.595610219045384470e-01,1.915028837176840359e-01,3.323753543767939134e-02,-7.849675265345283648e-02,4.089485188738893606e-02,2.105269432067871094e-01
2.359161782967389986e-01,1.201319741388698348e-01,1.284457545547035839e-01,-1.172730150635430861e-03,-1.509647461724882532e-03,-2.767830164156860184e-03,1.120109036564826965e-01
2.256773101759386724e-01,1.213741780047078167e-01,1.255026407558248180e-01,-4.427138059272505907e-03,-1.078460013018803752e-03,-6.191077666506603940e-03,1.031642034649848938e-01
2.033963584851155304e-01,1.327690207890362406e-01,1.228192051527719764e-01,7.429944823960254151e-03,-1.555206018992840236e-02,5.636836820904833796e-03,8.231939375400543213e-02
2.107294927080316516e-01,1.441418660314977562e-01,1.426799371327750476e-01,2.739753215240960452e-02,-2.972886610791556153e-02,1.319212416022783746e-02,9.979370236396789551e-02
2.396322498531972822e-01,1.640222784123534228e-01,1.617630214723472792e-01,3.842386676282612268e-02,-3.927562710919298844e-02,1.129174169674835963e-02,1.238233000040054321e-01
1.958366822240807659e-01,1.356992094755455625e-01,1.385717995343664077e-01,5.145835424155670301e-02,-4.601059022946243221e-02,2.142230241273528762e-02,1.382880061864852905e-01
2.390122858384061688e-01,1.350559716735088567e-01,1.231905468036067763e-01,-1.406187288083299985e-03,-2.785541569998454137e-03,-2.715468877571538403e-03,1.106007248163223267e-01
2.557798249893066256e-01,1.949115380771756501e-01,1.546951999942919043e-01,1.608854117399067044e-02,-8.681598561900834288e-02,3.662996490852768461e-02,1.875714063644409180e-01
2.299409537207388610e-01,1.384004178617137260e-01,1.151112738430972032e-01,-2.287127825171796254e-03,-4.433951581257169344e-03,3.612025330049446260e-04,1.054941639304161072e-01
2.342079057226282846e-01,1.278647266367057833e-01,1.168444929590223558e-01,-4.776166248402247431e-04,-1.579692581901942863e-04,-8.126820227226028885e-04,1.122719198465347290e-01
1.742846442531975071e-01,1.111175506930836276e-01,8.292772266628439803e-02,4.422394003120680428e-02,-8.109052759144766420e-02,2.376573351480913004e-02,1.839949488639831543e-01
1.840112964395306527e-01,1.309461214868221091e-01,1.340882685727096957e-01,4.327904755311849129e-03,-4.798597983383891610e-03,5.068453164035616361e-03,5.349193140864372253e-02
2.275440061888462928e-01,1.384402157726655758e-01,1.244464510097904736e-01,-2.915683091394265930e-03,-9.358854727482698865e-03,-2.158812164584455844e-03,9.840964525938034058e-02
2.540596958484037104e-01,1.390315441707990762e-01,1.097088099749742862e-01,-2.544884075626498848e-03,-7.238382204049993501e-04,-5.157725096693137161e-03,1.325331926345825195e-01
2.364149538183140664e-01,1.146317091885581674e-01,1.396998331671106819e-01,-1.524630550291482863e-03,-1.026252684594534340e-03,1.592599373310594232e-04,1.114311516284942627e-01
2.409728362695070236e-01,1.311987289688202885e-01,1.222262759988362035e-01,1.820193791511141466e-03,-6.506235541679771537e-04,1.073357309504116390e-03,1.145882532000541687e-01
2.938845232926008411e-01,1.322801452246265552e-01,1.622954656024031272e-01,-1.465222262014507365e-02,-1.188347036136741357e-02,-2.639999029887556484e-02,1.591379195451736450e-01
2.440137315305473398e-01,1.368313805940452599e-01,1.155284833999082883e-01,1.404088112351852165e-03,-2.273603232168724259e-03,1.648410795025376588e-03,1.193932071328163147e-01
2.345453086820011857e-01,1.256560848136216990e-01,1.182216036028199552e-01,8.479627083258244914e-04,-9.873012886590188872e-04,2.303135291250059218e-03,1.128834113478660583e-01
2.402225596354652937e-01,1.231108531947120999e-01,1.212729739479700142e-01,6.881961726484785982e-04,-5.288562526681309583e-04,9.079066707145672099e-04,1.180614233016967773e-01
2.404861661191090572e-01,1.257411079507743390e-01,1.208155320455100434e-01,1.118951898666574072e-03,1.988140775916843095e-04,8.309224331477325226e-04,1.173107922077178955e-01
2.262889598016043224e-01,1.181513131276244882e-01,1.232406634878378815e-01,-2.806673600140858864e-03,1.296469053290750465e-03,3.766258640910775599e-03,1.060213670134544373e-01
2.373048697843508636e-01,1.228443772663952160e-01,1.282840927279245147e-01,-3.682737064063050492e-04,6.673251194759990523e-04,2.189096165385412147e-03,1.119119375944137573e-01
2.443710467546702514e-01,1.403093384557721202e-01,1.100844853465508533e-01,-6.606149701814182902e-04,-4.070555960526397142e-03,5.156082709450741843e-04,1.222270280122756958e-01
2.377798382729360838e-01,1.192604707336910458e-01,1.252625578676125340e-01,-9.289039050599168972e-04,1.466740403026098186e-03,7.958859034486121193e-04,1.156825199723243713e-01
2.246611087230997450e-01,1.163429289680404655e-01,1.223261307043946450e-01,-2.217612494974940257e-03,9.175257476610577207e-04,4.347788431925002708e-03,1.058041900396347046e-01
2.403827371234039667e-01,1.240744113610416088e-01,1.282316124309180738e-01,-1.041189886669803425e-03,1.223419636566744958e-03,1.872331961202366047e-03,1.143663004040718079e-01
2.391447887897523716e-01,1.217228941113457780e-01,1.307088394933728082e-01,-6.225813677763150254e-04,1.524280286405525200e-04,8.010117146199278136e-04,1.132106855511665344e-01
2.337498459378435367e-01,1.182884204690084484e-01,1.270769859367171239e-01,-3.257817485410773517e-04,1.357546171335876966e-03,7.721476875960763681e-04,1.113619133830070496e-01
2.448106950116255565e-01,1.262232620288900875e-01,1.252872307189955847e-01,5.312073571341069129e-04,1.916974173800803990e-04,1.303047613422877483e-04,1.190624386072158813e-01
2.317349971875821146e-01,1.137546026314812386e-01,1.366215364767938978e-01,-4.267232460646756126e-03,-1.238666257042597739e-03,-2.254041223684744369e-03,1.087147295475006104e-01
2.396829689695247345e-01,1.229922265407232818e-01,1.228814933654718278e-01,8.278037127548007663e-05,-2.690956753501249558e-04,1.765451532860278167e-04,1.167475655674934387e-01
2.420754627459928421e-01,1.320476751614056143e-01,1.152829503467112937e-01,-2.483925338927110010e-03,6.410165589513276523e-03,6.024274368618768791e-03,1.203428953886032104e-01
1.502905569913686457e-01,1.158108636172367201e-01,1.374722727413914825e-01,-2.985931104655623752e-02,-1.629661872915348642e-02,-1.207193248231101974e-02,6.942518800497055054e-02
2.453758356046288336e-01,1.704274098329607856e-01,1.817535437486966499e-01,-2.985821673516036306e-02,-3.348828976148662123e-02,-1.658162182046480151e-02,1.084456443786621094e-01
2.520402955815574386e-01,1.664400926361825628e-01,1.631182337311519182e-01,-3.346722291108331776e-02,-3.061788407165460038e-02,-1.667555320075548436e-02,1.209526062011718750e-01
2.411489680835282590e-01,1.227469073181509385e-01,1.221120055450369279e-01,-6.046508733910722260e-04,-8.099762094244322350e-04,-2.445421770348457039e-03,1.188092157244682312e-01
2.066196131780519696e-01,1.236469492719662472e-01,1.300554764055063817e-01,-5.175778957937771443e-03,-3.060010545197138897e-03,-6.237580933614847271e-03,8.135710656642913818e-02
2.353102066405895476e-01,1.384484645215069698e-01,1.215778816923509392e-01,-4.281685446234272325e-04,1.665557261678629088e-04,2.200042307029170460e-03,1.063770726323127747e-01
2.392490913451020274e-01,1.227031987250056244e-01,1.221472538547296594e-01,-4.892242782316874898e-04,-3.894397654226001352e-04,-2.478490856673200987e-04,1.168306693434715271e-01
2.089655366864041075e-01,1.256188356154743502e-01,1.385368094899353808e-01,-3.431411715873526787e-03,-3.203987318333603989e-03,-5.672395763635323593e-03,7.873705774545669556e-02
2.380975168108235285e-01,1.075450420788936073e-01,1.264386766351396352e-01,-3.169029961228449557e-03,-4.604416674947833799e-03,-4.526785597308148439e-03,1.228393763303756714e-01
2.561374012658527155e-01,2.115041200777065811e-01,1.490489641050329883e-01,-1.956372457566598472e-02,1.053223009597547000e-01,2.188157315189268731e-02,2.110529392957687378e-01
2.338503330180164430e-01,1.280751957779387162e-01,1.164171283619840624e-01,-1.137578578839005790e-03,-5.197458433983124029e-04,-9.081051465570364519e-04,1.120918840169906616e-01
2.043266425773686557e-01,1.322559463484501430e-01,1.496948495239289467e-01,-1.277780161472568017e-02,-4.133049926997760422e-03,-3.333124938430705349e-03,6.939639151096343994e-02
2.379322731513160705e-01,1.286933563799401992e-01,1.203271393527565736e-01,-9.422363443371301484e-04,-2.734379185063755225e-04,-1.033142615620835474e-03,1.136799901723861694e-01
2.000536172863899842e-01,9.788073257273401107e-02,1.386970923147263224e-01,-3.140644110919697113e-02,2.215156761283315276e-03,-3.387564302775952340e-03,1.046096980571746826e-01
2.411398754881567963e-01,1.157605758348518171e-01,1.233331687219309664e-01,9.833571831594078039e-04,-2.739927343973659959e-03,3.145313289201360617e-03,1.219957694411277771e-01
2.398497836549892681e-01,1.133753786321354540e-01,1.217474143947727128e-01,1.692383096145830225e-03,-2.618799440312886192e-03,2.853821070609286956e-03,1.227217093110084534e-01
2.253511256320894218e-01,1.111450544414278041e-01,1.322653476826063934e-01,7.079107777423440141e-03,-4.769785586697700315e-03,4.440338345605051792e-03,1.065587699413299561e-01
2.401728544370072549e-01,1.207093022221706613e-01,1.217865786256273619e-01,4.526817019968666948e-04,-1.429728689087380808e-03,1.392475215206442300e-03,1.189813837409019470e-01
2.347254015045780462e-01,1.114986933181402462e-01,1.191140552455857149e-01,2.156046249690709952e-03,-3.115941426861809898e-03,2.813584420883800518e-03,1.198800280690193176e-01
2.431529085981082028e-01,1.258728183696785630e-01,1.291941331503949908e-01,2.828810724042373978e-03,-2.826474598659487695e-03,4.648793286995416170e-03,1.161418706178665161e-01
2.358609389465810557e-01,1.377056526757209354e-01,1.105149591490910271e-01,5.471753591571460184e-05,-2.323874704568007314e-03,2.200597266204763953e-04,1.142762452363967896e-01
2.356821371094487694e-01,4.556358308199780910e-02,3.540488742432694458e-02,6.326954979959589255e-03,-1.261421968230021055e-02,5.808332607455871099e-02,2.211291193962097168e-01
2.324800914986204226e-01,1.261953885243402573e-01,1.142071525855989367e-01,3.571387386799898620e-03,-6.412427043362022364e-03,5.887534058661204189e-03,1.139295101165771484e-01
2.451054248365645838e-01,1.264843936940571456e-01,1.191920774471381395e-01,-1.695981815423974921e-03,-1.130983904479892794e-03,-1.867268378500655133e-03,1.225237771868705750e-01
2.321183734121883835e-01,1.113093430807018391e-01,1.238946140405103313e-01,3.407877402514933318e-02,-5.423340787708116895e-02,5.403094251737839554e-02,1.851990818977355957e-01
2.329399264786387869e-01,1.267649204191836076e-01,1.339878435019755121e-01,5.544667562181879693e-03,-2.143711346948407037e-03,4.629527668855352648e-03,1.035795509815216064e-01
2.611670545665970566e-01,1.327400167085729943e-01,1.264388892274306286e-01,4.157292329989852216e-03,-2.747074110574607587e-03,1.283575553831971423e-02,1.338327378034591675e-01
2.479936459301327056e-01,1.418437579336202792e-01,1.273082450295990875e-01,-1.155325384201796477e-03,-5.006099482395535809e-03,-4.833857350342108186e-03,1.147663220763206482e-01
1.703803364060234027e-01,7.200135523602689547e-02,1.101238081258405221e-01,-3.830746682485490495e-02,6.346094963930811080e-03,4.697322566484163700e-03,1.094106808304786682e-01
2.373708803822266178e-01,1.373219788498557248e-01,1.132094916040045918e-01,-4.222126902304725385e-04,-1.468009410657098324e-03,-8.081181605042543408e-04,1.140727028250694275e-01
2.098804133693239482e-01,8.862807293443339396e-02,8.382366558112511190e-02,3.623750218129105638e-02,-3.701443181076103511e-02,4.002997487937839244e-02,1.678232103586196899e-01
2.671266337777277733e-01,1.484185786256731476e-01,1.294421458266039049e-01,3.784875739762494796e-03,-2.586657076468340359e-03,9.964421135143064490e-03,1.306341439485549927e-01
2.591391121985109902e-01,1.168876440531039507e-01,1.358101175232431512e-01,3.708227466361887830e-04,2.644604429040613418e-03,-6.405591835121518356e-03,1.343364417552947998e-01
2.322909279057915888e-01,1.358379311027394787e-01,1.131320858815605124e-01,1.332754225017405330e-03,-4.377504785187957131e-03,1.824629692379784503e-03,1.099162697792053223e-01
1.774685967026498057e-01,1.376134955495948997e-01,1.410061917646148466e-01,-6.117921056688177713e-03,7.255597083353490691e-03,6.514502115331451994e-03,4.315388202667236328e-02
2.454429921240505186e-01,1.262338845879578397e-01,1.270781030726322869e-01,9.865733971020256617e-04,7.087264899595012652e-04,-1.882788494861892389e-03,1.188526302576065063e-01
2.495376212072544786e-01,1.278420793924774646e-01,1.309733897164559180e-01,-1.035817057036853396e-03,7.356401445439377700e-04,-4.981931390878509454e-03,1.204900220036506653e-01
2.471745484502371193e-01,1.154540867110019631e-01,1.306661544278624743e-01,-3.028703420494520816e-04,1.957118248352029358e-03,-2.509099066381549441e-03,1.249343827366828918e-01
2.476676322636959249e-01,1.294908483246426101e-01,1.299161660396213058e-01,7.922089958002428035e-04,3.785287104364307587e-04,-2.203343018197257037e-03,1.180362105369567871e-01
2.443843335642880144e-01,1.248967505433548342e-01,1.261910910736042390e-01,3.312186450763472505e-04,5.701443760273581986e-04,-1.093799928240004075e-03,1.188662871718406677e-01
2.388628486140863538e-01,1.231240293769362837e-01,1.225375119398672691e-01,2.731751383753968268e-05,-9.535067768001885872e-06,-2.160644807082525245e-04,1.160338073968887329e-01
2.390678667917285061e-01,1.232606486461466921e-01,1.226913899245124645e-01,-5.077899483187662058e-05,3.814585411010721987e-05,-2.866617327856526990e-04,1.160940080881118774e-01
2.303908316585895344e-01,1.336833238039924487e-01,1.169221578910246279e-01,9.600976601307626953e-04,-1.551549509820122907e-03,2.673946508424281804e-03,1.062339246273040771e-01
2.385528834135295373e-01,1.290805025871464840e-01,1.192680973476177853e-01,2.392513585994351325e-03,-1.361454770808794837e-03,1.584254007354702351e-03,1.148256734013557434e-01
2.420604795903645301e-01,1.242789569036863717e-01,1.232781245216672678e-01,4.177568155166560800e-04,-6.727262322027933731e-06,-3.129990075317042129e-04,1.182885691523551941e-01
2.420551049418079304e-01,1.236119571004710427e-01,1.238634205207053696e-01,7.484191499038671833e-05,3.439933506582689804e-04,-3.125998947858205719e-04,1.183204278349876404e-01
2.404860830009762918e-01,1.209920965581448710e-01,1.218067210862767563e-01,6.683597795716079938e-04,1.555408175329832995e-03,-1.216130179995015582e-03,1.191434785723686218e-01
2.426833752970117830e-01,1.244391961327571822e-01,1.276751537012449922e-01,7.708772764961119208e-04,1.699303153000065189e-03,-1.793635735510689050e-03,1.167459711432456970e-01
2.237638262645924025e-01,1.103393474297620358e-01,1.315108220943445594e-01,3.744731054419810513e-03,-3.485522553223389204e-04,1.597891250524457454e-03,1.046999245882034302e-01
2.389195247153400314e-01,1.224729020859504358e-01,1.225943533935971441e-01,-6.934645554859240229e-05,-7.647120595034219578e-05,2.764610905973051381e-04,1.163870692253112793e-01
2.397345196454035710e-01,1.230253369928514667e-01,1.214554016994865565e-01,7.202107967446403063e-04,-5.648922829860304404e-04,9.410372621533885521e-04,1.175240129232406616e-01
2.404783734159022801e-01,1.238585305481290227e-01,1.244415319339923776e-01,2.395389359258414893e-04,-1.496891248853939687e-07,-3.271639726201183945e-04,1.163315549492835999e-01
2.402337736713457406e-01,1.255008216037559465e-01,1.204584169587914200e-01,1.414606216908781628e-03,1.169418277123213215e-04,1.091892376919402280e-03,1.173764318227767944e-01
2.361902674006633451e-01,1.178527484455264424e-01,1.251731350203320325e-01,8.384276612085554518e-04,2.100670797700878237e-03,-1.665266990639871231e-03,1.149554103612899780e-01
2.332567566298344719e-01,1.352274518315148277e-01,1.194809706664942128e-01,-5.728054385483770557e-03,-3.958778894071179541e-03,-4.223061953387365758e-03,1.077045202255249023e-01
2.368719272748272264e-01,1.303607877176571617e-01,1.252246229293396129e-01,1.585129431744148742e-04,1.132315138329132928e-03,-4.255691793096740873e-03,1.094363555312156677e-01
2.017925201931050905e-01,1.164894514651574897e-01,1.222828420790265519e-01,7.207512534476849184e-03,6.670010163001427114e-03,-5.687047594072840162e-03,8.486649394035339355e-02
2.372899485667144537e-01,1.205484978722856371e-01,1.248293353891112567e-01,-3.718465045837343911e-04,3.877032453453047121e-04,-4.424789521584070249e-04,1.146673187613487244e-01
2.658674156742997230e-01,9.138669637795077128e-02,1.444777368755957025e-01,1.655284107804728608e-02,-5.129605643737526581e-03,2.727427184382173742e-03,1.578672230243682861e-01
1.982520836584132917e-01,9.524674555213002991e-02,1.250580330409094831e-01,1.904059926832671681e-02,-1.171964616476094730e-03,7.539690319117682083e-04,9.757842868566513062e-02
2.317144458483221259e-01,1.362204209116363030e-01,1.167064130141697992e-01,1.732372801804936283e-04,-4.448550233205457666e-04,-1.077760297366639648e-03,1.066186875104904175e-01
2.353069734013847336e-01,1.230473588246507877e-01,1.182350867827204055e-01,-1.275360433930413642e-03,-4.532701270970271052e-04,-9.419414808751563851e-04,1.147770062088966370e-01
2.400230781668717672e-01,1.267465608458029636e-01,1.214560977532312402e-01,-1.495574837816383439e-04,-1.173037010438573871e-03,-1.148361480558573490e-03,1.160473823547363281e-01
2.390128160290220793e-01,1.227584868054673317e-01,1.224606056229824436e-01,-2.927567396811701288e-04,-1.675611512835050549e-04,-1.596558019027807796e-04,1.164053529500961304e-01
2.930195199261138583e-01,1.099079457476921373e-01,1.632290103044325147e-01,1.082197646287980791e-02,-8.401166454636887007e-03,4.264409992795696602e-03,1.650058180093765259e-01
2.308654851016196663e-01,1.123522264869166731e-01,1.343891299477613654e-01,-6.582254817588338016e-04,-4.501363559406640564e-04,-4.115130634153673739e-04,1.091868504881858826e-01
2.375072876531432176e-01,1.250947266900261923e-01,1.237440649052983233e-01,-7.284706043145149296e-04,-2.860985125093138347e-04,-2.198800519433115764e-03,1.131661683320999146e-01
2.614165266412261657e-01,1.067990968033936117e-01,1.482265533205072705e-01,5.468522981685012760e-03,1.312113182724655887e-03,2.501325645974015154e-03,1.390360593795776367e-01
2.323298057532163230e-01,1.362342267535285312e-01,1.145840159897990873e-01,1.642873400352563482e-04,-6.844615237015638093e-04,-3.883412185733481153e-04,1.085611358284950256e-01
2.201743861739189345e-01,-5.517998894151304734e-04,1.078583214384629396e-01,4.291260467686764529e-02,1.147037136133955294e-03,-3.410546751819858082e-03,2.052003145217895508e-01
1.901152193996578088e-01,7.734901498295532196e-04,1.000448087661260227e-01,5.243535191513139931e-02,8.848874243220561375e-03,-1.361119038313730184e-02,1.895995289087295532e-01
2.315214469222072746e-01,1.334183946931704612e-01,1.158401707168714156e-01,-1.245719939331401457e-03,-1.366057238409532732e-03,-9.767600623194266571e-04,1.080314591526985168e-01
2.295875471626019348e-01,6.153460613102633425e-02,1.378186431569657922e-01,5.285861878110500317e-02,-1.239710622593839968e-02,1.754596754470732350e-02,1.760909855365753174e-01
2.512064335405361781e-01,1.621825671951351300e-01,1.785183310537387658e-01,-3.570495339422766895e-02,1.599322430299416134e-02,1.545485175066461415e-02,1.097555086016654968e-01
2.333310977522579377e-01,1.349157255114834530e-01,1.190876743212018890e-01,3.876782443709872830e-04,-1.112334304409067810e-03,7.185803791650484471e-04,1.072359457612037659e-01
2.321281046105220236e-01,1.365162494808749571e-01,1.146337639837638755e-01,1.768856569595132365e-04,-6.790972586351176968e-04,-3.937912723796494320e-04,1.082341820001602173e-01
2.038748734407146435e-01,7.851550317071524787e-02,-3.714001617332236826e-02,-8.348154975361296928e-03,4.181740378437754507e-02,2.045402001426992189e-02,2.242764681577682495e-01
1.129876836808273860e-01,8.160010107463123996e-02,1.161919797441963026e-01,-6.654951565873733210e-02,1.276945424929225130e-02,8.079879882532855486e-04,1.219576671719551086e-01
1.049979641319141316e-01,1.434300917824520571e-01,1.794949137176867771e-01,-4.931722309780529195e-02,2.256120598441431480e-02,5.792317168139495334e-03,1.144027560949325562e-01
2.349249694940017119e-01,1.213491417327958732e-01,1.232749362227866657e-01,-4.220335928485314863e-04,-2.982815535386651126e-04,-2.660843019776942212e-03,1.127230897545814514e-01
1.297643472787431973e-01,7.726307574951657431e-02,1.035530355266704866e-01,-5.835589032869099163e-02,2.508884160279823555e-02,1.736293425975372895e-02,1.227855160832405090e-01
2.529255880963358627e-01,1.645354418220669190e-01,1.882137691666008472e-01,-3.290243514773735084e-02,2.097719846654291093e-02,1.469453269785720405e-02,1.072202324867248535e-01
2.373028046384045853e-01,1.219199404227519073e-01,1.334080214227580663e-01,2.012849241912571720e-03,-1.788185820250944719e-03,3.010851710037051876e-03,1.103113666176795959e-01
2.315219169741292160e-01,1.360077851671849802e-01,1.125024622911326710e-01,4.953847192151439148e-05,-8.294809478036096377e-04,2.743052341842729634e-04,1.091917455196380615e-01
2.312902733100541952e-01,1.363281121444935851e-01,1.224018751467539912e-01,7.689244417827331571e-04,-9.579152196677342447e-04,3.018446240861752568e-03,1.027914285659790039e-01
2.315954654008636204e-01,1.169411443460257605e-01,1.247075170890097756e-01,1.668458761079630575e-03,-7.764825322629396662e-04,2.674758528589186481e-03,1.111175268888473511e-01
2.323305742320611045e-01,1.182729979403000509e-01,1.281194249826488329e-01,1.187027023203338560e-03,-9.229249968022054358e-04,2.901971980321941397e-03,1.096132770180702209e-01
2.347133781325565771e-01,1.279782671975282504e-01,1.188351627549200373e-01,8.570135916859871004e-04,-4.439547961998606927e-04,2.738990726167258444e-03,1.117012575268745422e-01
2.330741782829667263e-01,1.173973795356710592e-01,1.314533130923069004e-01,2.795799653635748462e-04,-3.262301937938487514e-04,1.550190168080301098e-03,1.093641072511672974e-01
2.332593907664352040e-01,1.172784690892482995e-01,1.254928095912772879e-01,2.190241395336056315e-03,-1.855504439947758136e-03,3.292717974409223574e-03,1.123547479510307312e-01
2.394014786032572228e-01,1.351539850766171613e-01,1.248612442672253631e-01,-1.162375891779271735e-03,2.662118710954777898e-03,3.905996376472648315e-03,1.100797802209854126e-01
2.372887905554162402e-01,1.332646021629523836e-01,1.124537516276557236e-01,2.006211458007454811e-03,-1.079945640040628910e-03,1.034629919339439012e-03,1.159212663769721985e-01
2.303524178676774059e-01,1.295910862291855259e-01,1.189893420091292370e-01,-1.596159116563969187e-03,1.507430524777238516e-03,3.882240081845129975e-03,1.067387685179710388e-01
2.395820401747610351e-01,1.238697526702483009e-01,1.268565404938906405e-01,-1.474547092274056332e-03,1.337075332641749718e-03,2.604542907519106793e-03,1.143891736865043640e-01
2.379975314140354015e-01,1.211597150998047490e-01,1.206291374168061703e-01,3.375206137880972326e-04,-3.825533888275775519e-04,7.334888717931437735e-04,1.171142309904098511e-01
2.361170424014188418e-01,1.281520748568481805e-01,1.224126997922994065e-01,-1.187423460009518709e-03,1.241061003016793313e-03,2.315606225086318509e-03,1.110583767294883728e-01
2.149809101970892034e-01,1.198890706176368448e-01,1.100680708528136015e-01,-3.304062874067842815e-03,4.723146442726932487e-03,4.166173798814088239e-03,1.011165305972099304e-01
2.313750256975151687e-01,1.202745922228564690e-01,1.222021573637619429e-01,-5.385007011906608977e-04,8.646668786258296900e-04,2.797231618558075270e-03,1.102699190378189087e-01
2.234646982640829116e-01,1.085211690654945410e-01,1.305658729294734144e-01,-3.470244665535069262e-03,-8.347641162056501293e-04,-2.145789195519217513e-03,1.059061810374259949e-01
2.291332814825823017e-01,1.091833034806807823e-01,1.342641614775567371e-01,-2.606454866817270542e-03,-7.217634893262569714e-04,-3.908979584633354132e-04,1.096859201788902283e-01
2.312514982647666528e-01,1.149322926989149452e-01,1.359180187862962519e-01,-3.366628813984494481e-04,-2.921754958699527790e-04,-1.069967009694241297e-03,1.073943451046943665e-01
2.361317573951816629e-01,1.198827772720633400e-01,1.448660159494907229e-01,-4.240737474341923878e-03,-6.279366627869785661e-04,-5.970408077899643298e-04,1.062540113925933838e-01
2.371743857727346416e-01,1.243827666700839524e-01,1.223603129891145669e-01,-4.181182035720892366e-04,3.280993419831888383e-06,-1.345219919794253061e-03,1.138424724340438843e-01
2.326927660735299275e-01,1.300955650659394724e-01,1.172776158773497224e-01,-9.980105242404526105e-04,-6.160547107710875967e-04,-1.402166288079212007e-03,1.096156761050224304e-01
2.419420354984797572e-01,1.231584134050601187e-01,1.271931965495629868e-01,-5.666465519279828859e-04,-6.549944075468265786e-04,-7.478990369898381703e-04,1.168353110551834106e-01
2.345086007199494171e-01,1.481675158821803007e-01,7.491093262935670516e-02,-2.396542320787359986e-02,-5.947981441695804339e-02,-8.839918434719831741e-03,1.780937016010284424e-01
3.361122397859648836e-01,1.871344450921663682e-01,1.016029145613293050e-01,-1.399263779703747296e-02,-7.677118739877471232e-02,-1.780705175745695909e-02,2.479363381862640381e-01
2.359889087768604066e-01,1.327043689312785990e-01,1.107215061692638225e-01,-2.105468241697659813e-03,-2.364831840441704476e-03,-1.110350749560582622e-03,1.159965842962265015e-01
2.577766862717404406e-01,1.494299377186368294e-01,9.120625438508882243e-02,-1.064189026492224320e-02,-2.218736093240971513e-02,1.019947905260077618e-03,1.525026857852935791e-01
2.310112182682640403e-01,1.281673772797598532e-01,1.197307734007219127e-01,-2.689096030244504795e-04,-8.920244250470692063e-04,-3.103231979766848080e-03,1.074578016996383667e-01
2.530911091544905123e-01,1.336919639583783181e-01,9.020824486768257156e-02,-2.048955016089307711e-03,-6.711338460314629148e-03,-7.633023605031979443e-03,1.471781879663467407e-01
2.271332099169925955e-01,1.215040231791805064e-01,1.385277255481964231e-01,-9.342291503057566920e-03,-2.721146066959232238e-03,-2.527983242166862658e-03,9.976147860288619995e-02
2.295741204047816453e-01,1.447995856334018949e-01,1.235171870301691038e-01,-1.536106979671151250e-03,-1.274424176791238029e-03,-2.938899868883227112e-03,9.737417846918106079e-02
2.371350866898733201e-01,1.354935369844045556e-01,1.187005898256347503e-01,-2.213551191660613341e-04,-1.362077079415463738e-03,-9.739141637452098689e-04,1.110334470868110657e-01
3.111925872344303845e-01,1.841299749032437039e-01,1.207538717461874855e-01,-2.121816140780081929e-03,1.289223655388448304e-02,2.648798234987979438e-04,1.694889813661575317e-01
2.244341830539110239e-01,1.378039556439790703e-01,1.185091959268931849e-01,1.020518598414628169e-04,-2.609669302242182461e-03,1.524126852403043979e-03,9.785716235637664795e-02
2.335902045920932035e-01,1.231610334985077104e-01,1.211496178202516871e-01,5.382110092770746741e-05,-5.644224021871430434e-04,3.389990760170942096e-03,1.116073802113533020e-01
2.330164099976005931e-01,1.140472804959884040e-01,1.373866408111305004e-01,-7.240971922756601724e-04,3.922707527201521691e-04,4.504706138931009198e-04,1.091987192630767822e-01
2.460854809270744958e-01,1.275497837954975289e-01,1.316220851878653342e-01,-2.345980619954588647e-03,-3.809509591472736226e-03,-5.265452108120301233e-03,1.171657145023345947e-01
2.253476665324294914e-01,1.426738128524879523e-01,1.324022301715638283e-01,-1.045702231475225622e-03,-2.294760537039893748e-03,-6.035269186598696788e-03,8.898322284221649170e-02
1.710698076258735101e-01,1.366794506654933072e-01,1.415166968950906101e-01,1.389767018990935299e-02,-2.713425828686656834e-03,1.900637269486561047e-03,4.064605757594108582e-02
2.302149232683270985e-01,1.311566397931669958e-01,1.140089917934550973e-01,-7.247714866560471970e-04,1.554246857132980002e-04,-5.258145598136295795e-04,1.086631491780281067e-01
2.394000057787506464e-01,3.000771435853151481e-02,8.486882279139917884e-02,-1.500610866520771421e-02,-1.048769905179124974e-02,-4.532636971349719018e-02,2.062434107065200806e-01
2.200603877473108483e-01,1.345921431911013544e-01,1.252226121084412114e-01,-1.093968031453037507e-03,-2.282804369691776147e-03,-4.232099917805471831e-03,9.091953933238983154e-02
2.325791007232682617e-01,1.328152016154531545e-01,1.136186503482118637e-01,-1.903232534442036127e-03,-2.787745315282638432e-03,-1.270575002590004516e-03,1.107948124408721924e-01
1.440068741141219133e-01,1.068830355726329562e-01,1.043702699215929008e-01,3.678462566105838299e-02,-3.679539718966259865e-02,1.244182636636033748e-02,1.003155186772346497e-01
1.517256095949192085e-01,1.471250224397579187e-01,1.370879059025851554e-01,8.092048278465628630e-02,-3.536371239492751284e-02,1.616242975063515372e-02,1.560381650924682617e-01
2.324411816325256952e-01,1.376720304064811828e-01,1.133644418045890306e-01,7.539080712341603542e-04,-1.982308813263330277e-03,1.129360476221374660e-03,1.090549454092979431e-01
9.537725194068021051e-02,1.058111035933472083e-01,1.173838839321321853e-01,2.947257193851230903e-02,-6.799922933372115619e-03,4.468042155751339971e-03,5.628541484475135803e-02
2.309344401693390614e-01,2.175428700382064651e-01,2.046590775675342366e-01,-3.755434032386512772e-02,-5.979730780053478523e-02,-1.561590315400608088e-02,1.273089498281478882e-01
1.998601264771661112e-01,1.703215051142569769e-01,1.810442571841857085e-01,4.012254795073222358e-02,-2.019355479102366221e-02,3.214684278507692373e-03,8.218619227409362793e-02
2.291336546127687446e-01,1.343552558728922097e-01,1.091488747041114149e-01,-6.662348899046553958e-05,-2.705835712533018449e-03,-8.644652282947709165e-05,1.096782907843589783e-01
1.624826831470627675e-01,1.472010037039989117e-01,1.538865641085739311e-01,7.990805682795103226e-02,-4.637889666023332219e-02,3.782673521449165816e-03,1.607105582952499390e-01
1.115724316170295521e-01,1.423574980383180144e-01,1.357174110880075835e-01,1.974185162973667723e-02,-2.213641859952121885e-02,-3.390788142167833544e-03,5.883173644542694092e-02
2.390448969525200140e-01,1.301419449517040583e-01,1.204942042442786743e-01,1.279782545089604888e-03,4.892182636743819068e-05,7.923428532360454269e-04,1.140631586313247681e-01
1.468551673006930902e-01,1.303060468354185764e-01,1.303253933821127974e-01,-1.029903829299814565e-03,-3.327911095811821062e-04,2.369641387209833229e-03,1.714390702545642853e-02
2.306793653146585188e-01,1.367462744196671354e-01,1.202605873801824848e-01,4.727187035551446543e-04,-1.361763863257566117e-03,3.224287542284001284e-03,1.033497750759124756e-01
2.242805797724827799e-01,1.306931786045671950e-01,1.097685865870282051e-01,-1.706454232060781767e-04,-2.749254414709189319e-03,-1.369748807501097948e-03,1.057502254843711853e-01
2.425429368792878237e-01,1.166944638423533520e-01,1.240493984268912220e-01,-7.469729521768547677e-04,-1.028890506372018721e-03,-2.803560494878964277e-03,1.224530711770057678e-01
2.507173983648823823e-01,1.332435040255544878e-01,1.286163473823820347e-01,-4.719588139586215563e-04,-7.517421290145031958e-04,-5.563800291731709792e-03,1.202511042356491089e-01
2.439452550552482779e-01,1.247585334772945281e-01,1.232009864927796627e-01,-7.817673362718858231e-04,-2.237830055900504446e-04,-1.002368867755192581e-03,1.199939027428627014e-01
2.334753860673090542e-01,1.372199253178396083e-01,1.154273398161116126e-01,7.434496918662539342e-04,-6.263836616272414884e-04,9.057027840063452875e-04,1.088254675269126892e-01
2.314917121102270103e-01,1.204389772547561632e-01,1.206579686260307871e-01,3.974205939518808857e-03,-4.801387457353993929e-03,4.917727054707805336e-03,1.117923632264137268e-01
2.454130241683197822e-01,1.260818750990044812e-01,1.264524112010439461e-01,-5.020093788302586098e-05,-1.683456284066237767e-04,-2.731449124248943325e-04,1.191476434469223022e-01
2.482099461223263581e-01,1.490524229509030130e-01,1.109433702335179406e-01,-2.669050139895698826e-03,-7.466142173962910314e-03,-4.914915605100601739e-04,1.235015764832496643e-01
2.335640460200505697e-01,1.260960817405241408e-01,1.153747695326630684e-01,4.060468501475455365e-04,-3.297319003885210023e-04,1.862095118443037522e-03,1.132595688104629517e-01
2.673476411719624135e-01,1.572762150617458554e-01,1.148869673667375496e-01,1.716368792448040481e-06,5.710294493895836862e-03,1.887838335891425540e-03,1.367001384496688843e-01
2.454126023234367016e-01,1.264241608689605501e-01,1.253791303172039073e-01,-5.768962187637775201e-04,-5.311567639690413165e-04,-9.717893885735264664e-04,1.195339560508728027e-01
2.372407971687910955e-01,1.259898728445322247e-01,1.193246338034183868e-01,7.514367697640512945e-04,-3.439008509909282892e-04,5.822497420570621343e-04,1.147422045469284058e-01
2.345037980427072677e-01,1.282681686891975203e-01,1.200738390473342770e-01,8.110500787835227916e-04,-1.531613114170795893e-03,4.194855940826186860e-03,1.108399182558059692e-01
2.391103821932613616e-01,1.242529607804282732e-01,1.223498770555246917e-01,-2.332953468099364361e-04,-2.662692189961924044e-04,6.285888736593394461e-04,1.158274337649345398e-01
2.149435530312971410e-01,1.436146551827385265e-01,2.166505397667445043e-01,1.094419589395212028e-01,-3.397300911918475774e-02,2.073641129658265747e-02,2.142372578382492065e-01
2.451247244689169769e-01,1.263793999306878912e-01,1.262939182397016524e-01,-2.986119227322509093e-04,-1.171474555591148811e-04,-9.365546190728226328e-05,1.187895014882087708e-01
2.465439663188145059e-01,1.276438984449413949e-01,1.275054808800213935e-01,1.520608442878472672e-04,-1.824917709114506545e-04,-1.138267590808390156e-04,1.189702153205871582e-01
2.408122152291422291e-01,1.217733332046567613e-01,1.256828031094332221e-01,3.835651374291511122e-04,-1.720696895986385637e-03,8.164527882977283720e-04,1.171814128756523132e-01
2.305232623633077793e-01,1.312862408510905854e-01,1.542278800283430895e-01,9.461219420360961196e-03,-3.190397134739297608e-03,3.669993471594761806e-03,9.185386449098587036e-02
2.371091874917178599e-01,1.198031462771420169e-01,1.271278679833007519e-01,2.942360706252073084e-04,-1.583371308355629309e-03,9.962245498972603034e-04,1.138678342103958130e-01
2.408028971467306711e-01,1.286653473684418181e-01,1.221269930577791180e-01,-2.420121005418854505e-03,-1.045987165321126755e-03,-2.624315340376193705e-03,1.157250627875328064e-01
2.350837391145143007e-01,1.197849700048065902e-01,1.254516422450906721e-01,-6.823412415437732012e-04,-6.029121464655887250e-04,-1.588142972484068820e-03,1.126170977950096130e-01
2.357550580961415010e-01,1.241415381963650866e-01,1.229180635178665076e-01,8.670872030710155976e-05,5.382458365248931996e-05,-2.945346010685261865e-03,1.123462840914726257e-01
2.366288948482503929e-01,1.178386506734428463e-01,1.254655313008676554e-01,-9.350427151875291771e-04,-1.307063876139378297e-03,-9.946859862301103087e-04,1.152128875255584717e-01
2.428535294706076209e-01,1.232443340291519973e-01,1.239676176534464241e-01,2.170868611669082794e-04,-8.805601760028069049e-04,1.441401504830838731e-03,1.192856729030609131e-01
2.334805538724301632e-01,1.164064282579508891e-01,1.162106638556577171e-01,-2.117357307233278581e-03,-2.530318147440612821e-03,-3.318704965483443639e-03,1.174521446228027344e-01
2.536294810226259466e-01,1.350831294637973301e-01,1.235223960888087308e-01,-6.416335545971334773e-04,-1.337791188653617317e-03,-1.801266181580119365e-03,1.247946694493293762e-01
2.227928195978115811e-01,1.133149000487449071e-01,1.199943982620508554e-01,-7.945756540420855635e-03,-5.418066038070065357e-03,-6.853818476512379271e-03,1.082458719611167908e-01
2.432412607491890866e-01,1.381714517019194122e-01,1.088352800558703010e-01,1.427708845745753621e-04,-4.554797066884708895e-03,-2.671911004118507739e-04,1.226586103439331055e-01
2.110966439496222424e-01,1.190034166500981427e-01,1.299331545980928482e-01,-2.151760357007516822e-03,-2.096914295494302274e-03,-4.018229257302576712e-03,8.757617324590682983e-02
2.419585554064198618e-01,1.262673364467797044e-01,1.232324650564978474e-01,-1.195051869076570373e-04,-6.606362034617464015e-04,-1.001307266814720816e-03,1.172567158937454224e-01
2.088919450802002864e-01,1.415335414750263643e-01,1.123156832085543261e-01,-9.594220007603966593e-03,-1.620250210831070820e-02,-6.050988385861949363e-03,9.237131476402282715e-02
2.395778961369316451e-01,1.290580211740551819e-01,1.185114901209043947e-01,-2.043019916528867642e-03,-1.036369401415882180e-03,-1.560062215278597763e-03,1.162519603967666626e-01
2.218218352163506268e-01,1.249944869677326320e-01,1.257239872728992403e-01,-1.314637254117183469e-03,-1.394319112115242204e-03,-5.621331162412698985e-03,9.701158106327056885e-02
2.332025573079088976e-01,1.359258786460389168e-01,1.131847249554159690e-01,-4.739620577575608595e-04,-1.239473056096183955e-03,-7.702914568709914389e-04,1.104498058557510376e-01
2.285892800320755702e-01,1.362974467489534158e-01,1.223582716691905270e-01,-4.924930940237581286e-05,-1.462605325664965115e-03,-4.093850944210119386e-03,1.002759113907814026e-01
3.457149323981224542e-01,1.700277434968188173e-01,2.662858353997226146e-01,-8.495354949702914327e-02,1.267343658060742992e-02,8.328551231268712524e-03,2.134515196084976196e-01
2.479665085773235522e-01,1.283353278444548662e-01,1.288412673939008379e-01,3.600947250676641512e-04,8.031321880191069238e-04,-1.977263891383638280e-03,1.194378584623336792e-01
2.290585947395346322e-01,1.317690672464621737e-01,1.205927379869445454e-01,-1.432980733318814240e-03,-1.492458312747952645e-03,-4.031270433113675992e-03,1.036296188831329346e-01
2.388472779164799165e-01,1.253099435468385536e-01,1.179870655653491307e-01,-1.926888182709383729e-03,-8.264985394282214383e-04,-1.896089080605910075e-03,1.174723133444786072e-01
2.324488340672720699e-01,1.133394153019920969e-01,1.324677402674543092e-01,-1.644182243769509895e-03,-1.406386983809456998e-03,-1.046312805816675953e-03,1.108688935637474060e-01
2.440008427785675671e-01,1.596170953421323646e-01,1.495946618685153329e-01,-2.773138179888626903e-02,-4.388872322058087749e-02,-2.301163064341658210e-02,1.331959068775177002e-01
2.455163138250700539e-01,1.255514062040479495e-01,1.243398340508490574e-01,3.469190446189506817e-04,5.855804595570503332e-04,-1.653373833833582992e-03,1.206150203943252563e-01
2.084075595102772849e-01,1.123633120321516909e-01,1.326032019325226463e-01,-5.511525793304822632e-03,-5.901983573697274551e-04,-1.167271623833670809e-03,8.824108541011810303e-02
2.487011815702135087e-01,1.133831748965129088e-01,1.300593781933022108e-01,1.609279181101411996e-03,4.776453497925553385e-04,-6.007881814447591472e-03,1.282544583082199097e-01
2.303664872742606784e-01,1.219209520220440879e-01,1.201168829002619287e-01,-1.080176710837956605e-03,-1.049165981046029910e-03,-4.068974467878338878e-03,1.096166223287582397e-01
2.243950691418280796e-01,1.419615005209312608e-01,1.218494606658106216e-01,3.185573679932538903e-04,1.375710767967378966e-03,3.634603364298613117e-03,9.435734152793884277e-02
2.371269940532327869e-01,1.415310872835769396e-01,1.141054523724357311e-01,-1.480807101525755576e-04,1.210676457433591379e-03,1.887418453417026988e-04,1.118798032402992249e-01
2.180532766450036242e-01,1.077070413368935164e-01,1.294658701403214041e-01,-6.974514410601776772e-03,-2.260462646020429400e-03,-3.365057801026026616e-03,1.021957173943519592e-01
2.277844500781894821e-01,1.042962548695594155e-01,1.299380664183588108e-01,-4.427340438219021061e-03,-1.164291607483871824e-03,-1.252116028761113015e-03,1.131722107529640198e-01
2.332357871788657555e-01,1.301830580763128908e-01,1.477463774013407782e-01,-8.517098595783338319e-03,-4.009981709490570596e-03,-4.769625163369073037e-03,9.722395986318588257e-02
2.335703827117187603e-01,1.304667918754918443e-01,1.248883299881301812e-01,-3.128120090860214177e-04,-1.078613276908220713e-03,-3.977416567212726552e-03,1.062444001436233521e-01
2.377809924841882694e-01,1.139892398115681937e-01,1.398442015674710714e-01,-9.239630748727644532e-03,-9.073291218042895409e-04,-2.646068118447507346e-04,1.142411381006240845e-01
2.149002520151366280e-01,1.512743845222966343e-01,1.294671136009225287e-01,-1.967914257019168830e-03,1.881086479256509694e-02,3.796073282259075665e-04,8.357577770948410034e-02
2.286719362732980154e-01,1.951474840243569708e-01,1.798761328828336059e-01,5.029704260384454742e-03,4.172092065161882996e-02,1.438277354461301632e-03,8.469399064779281616e-02
2.512223220259882650e-01,1.386017786268887442e-01,1.158896209071694217e-01,-7.058667661867428292e-04,-9.187746635421625363e-04,-1.803949452370034665e-03,1.255821436643600464e-01
1.727326447694342293e-01,1.085512706032890629e-01,1.249695471319648699e-01,1.637924726968199851e-02,-2.745924631640717876e-03,4.113028541346149675e-03,6.490971893072128296e-02
2.102625835870274018e-01,1.336967425871753434e-01,1.139891561021791899e-01,2.206129418226425963e-03,-4.705910645000878009e-03,5.352835943720948841e-03,8.903168886899948120e-02
2.105684211314780285e-01,1.155804010881942429e-01,1.390407591181499758e-01,-5.883117638964039872e-03,9.090506583054712029e-05,-9.671701995307836579e-04,8.632104843854904175e-02
2.329790870361951316e-01,1.122962094818049233e-01,1.375802535986445918e-01,-1.648340638055662000e-03,-1.023674989252820310e-03,-1.629394307322428891e-04,1.102889999747276306e-01
2.264937673280657537e-01,1.204199592791790341e-01,1.192405949832905099e-01,-1.237486865950001907e-03,2.724076916429735672e-03,3.869574370819152485e-03,1.070042997598648071e-01
2.321517682906776570e-01,1.829689053673078936e-01,1.609481551497866092e-01,-2.141693044644372643e-02,3.058770844816740414e-02,1.133564898429744242e-02,9.249475598335266113e-02
2.319141011824955856e-01,1.237977234127348725e-01,1.239625392751031729e-01,4.001721396768386885e-04,-3.946476539594062443e-04,3.710608687098456478e-03,1.082294434309005737e-01
2.383632815617570400e-01,1.326842750329329523e-01,1.268915849825796027e-01,7.764668251775644781e-04,-8.381830581327325089e-04,2.871873349388475664e-03,1.088229417800903320e-01
2.376488311180651181e-01,1.285889522502994264e-01,1.179944817508133126e-01,1.369224818217786542e-03,-9.706274061056664043e-04,4.908180551247650659e-04,1.147645637392997742e-01
2.389034286344754454e-01,1.326253382695451732e-01,1.177047255211836341e-01,1.868353396195954414e-03,-1.207006857284510576e-03,1.574007098413638664e-03,1.145673021674156189e-01
2.237089185296008420e-01,1.282369603057304241e-01,1.286660889568775890e-01,1.841910432802459441e-03,-1.801421645828294371e-03,5.023237141026248680e-03,9.575866162776947021e-02
2.473348083492067362e-01,1.299878318536303867e-01,1.221994320681007440e-01,1.744593535119435320e-03,-1.960690449164822699e-03,2.960267719370085569e-03,1.216218322515487671e-01
1.745290370304939942e-01,1.346989828830963132e-01,1.190422040243430124e-01,8.234206396344350180e-05,1.913596941742132934e-02,3.341777794925040058e-03,5.989371612668037415e-02
2.373997733984208880e-01,1.234458582884588596e-01,1.218298768456817921e-01,1.030015252052495205e-03,-5.118147749401507620e-04,8.670223925830523913e-04,1.147975474596023560e-01
2.025123646564846447e-01,1.185565424005721596e-01,1.198612570617797191e-01,-7.613935089291762846e-03,6.549156045578127631e-03,7.489622993629898445e-03,8.609075099229812622e-02
2.307933965367121032e-01,1.352162901712569698e-01,1.224746142188977011e-01,-3.972793384175680488e-03,6.738613682096336079e-03,5.419553989216032569e-03,1.038597002625465393e-01
2.339748581083697099e-01,1.242231635928009864e-01,1.177666094384508255e-01,-1.257074446312995194e-03,1.452249592309400386e-03,3.489210809410120927e-03,1.133284196257591248e-01
2.331049853446473530e-01,1.167774569812177476e-01,1.280128392951653260e-01,-5.915314210255452027e-06,-2.664670308822177851e-04,8.506524888190987238e-04,1.111473217606544495e-01
2.380838271864531563e-01,1.197113470914519390e-01,1.308131619236815313e-01,2.435348644426403564e-04,-1.300246802232862516e-03,8.596172419934201142e-04,1.132634580135345459e-01
2.332394054951602569e-01,1.207136438634023867e-01,1.199751835071898587e-01,4.358588222030412873e-04,-7.914020714753178211e-04,3.595251681072821667e-03,1.130792424082756042e-01
2.114384208521283837e-01,1.351748347552337581e-01,1.151827192130298882e-01,-1.854551846684522045e-03,4.143501844277986887e-03,5.241293038043602290e-03,8.879598230123519897e-02
2.468047964340779055e-01,1.277944132835625857e-01,1.283962342384054878e-01,-6.181441264107754522e-05,2.475271356549509669e-04,-2.507437074943843071e-04,1.187122315168380737e-01
2.086884158030680170e-01,1.354162742140282705e-01,1.125984425710261222e-01,-1.073759899477886789e-03,1.477795012719151056e-02,6.678598712817404711e-05,9.066425263881683350e-02
2.999893789486793305e-01,1.910000381415551396e-01,2.356663178855339935e-01,-9.306065880275797564e-02,-3.329722407667540240e-02,-2.010093543006681929e-02,1.988082528114318848e-01
2.216041119110927771e-01,1.260191023311111880e-01,1.240690975920877848e-01,-1.344238953806995611e-03,-1.427462587007174207e-03,-5.545394115454285386e-03,9.711063653230667114e-02
2.457550394081218781e-01,1.298282522497266056e-01,1.159704736564482336e-01,7.724135292037942902e-04,-1.761488182018159298e-03,1.483380980744482009e-03,1.235121265053749084e-01
2.303830216258627162e-01,1.320247416041727129e-01,1.136516285642470425e-01,-6.773656515492249225e-04,-4.461292681095323210e-04,5.157086646954322975e-04,1.087282896041870117e-01
3.735472492439750880e-01,1.516699026057773680e-01,2.480053575656173404e-01,-5.323297646254269988e-02,-1.583598609274957172e-02,-1.909059759808835049e-02,2.179044783115386963e-01
2.216234670469967027e-01,9.039121125291446623e-02,1.331930166436555985e-01,2.330970197335243896e-02,4.463469313512457605e-03,-4.429454184279175456e-03,1.232297718524932861e-01
2.248379869569359091e-01,1.197035214397346309e-01,1.380833642718921617e-01,-2.390513287252908885e-03,4.032612383403430810e-05,1.792996465553419209e-03,9.739359468221664429e-02
2.231638511792855550e-01,1.107427395632403361e-01,1.337135391032434617e-01,-3.548676985815559133e-03,4.215050673775078941e-04,1.038580741722126529e-03,1.030791401863098145e-01
2.224108068628018464e-01,1.430049731465043161e-01,1.385142979027115806e-01,-1.897978021433113782e-02,-1.689146001733504363e-02,-1.289192717636476054e-02,9.548457711935043335e-02
2.545138130814555422e-01,7.540941178099341835e-02,1.421979414564289723e-01,1.654461135136530683e-04,2.407150375784426408e-03,-1.800447089517446392e-02,1.598965972661972046e-01
1.524509561102405097e-01,1.361144505262826543e-01,1.360590557821950985e-01,-1.791749465355749193e-03,1.538543500724973926e-03,1.184491423595658739e-03,1.699208468198776245e-02
2.350107297538436280e-01,1.334680213794274817e-01,1.120355490292345296e-01,-1.727144103751958749e-03,1.445641202152016811e-03,9.481625498175671324e-04,1.138617545366287231e-01
2.290501517987037217e-01,1.205503791005197028e-01,1.365750346319594688e-01,-2.138367596762879522e-03,5.267164168929340095e-04,3.055817415853068729e-03,1.016507893800735474e-01
2.719266650056332835e-01,1.094957995384788496e-01,1.424324933267098470e-01,2.229219428943329459e-02,7.702936616531888547e-03,-1.143948071505268387e-02,1.554994881153106689e-01
2.246623247177750027e-01,1.246523133576363102e-01,1.194537314580944032e-01,1.778717379754999987e-03,-2.886455578134129556e-03,5.117505275356768260e-03,1.032569184899330139e-01
3.630423457839633272e-01,2.007850903316732716e-01,1.722932767854513103e-01,-3.613697370904166151e-02,6.911400964828806615e-02,6.146915666346025597e-02,2.476801574230194092e-01
2.736241946071570341e-01,2.179877390497939604e-01,2.589502439445571236e-01,-8.766323001962991746e-02,2.870155277220521814e-02,1.385551413697265304e-02,1.691038757562637329e-01
2.827003024017683552e-01,1.294165352306291261e-01,1.762514330723307376e-01,2.230641331098869723e-02,5.417459169319155388e-03,-8.196969049919688305e-03,1.424525827169418335e-01
2.631851373644196190e-01,1.160763920005240257e-01,2.370510684366446130e-02,1.088864339206848525e-03,8.342438606844618807e-04,-2.873831550086859352e-02,2.150473892688751221e-01
2.855682944750560504e-01,1.602013984943720937e-01,1.150801421491858129e-01,8.760589140733632263e-03,4.830877039435677728e-03,-1.289094629043645128e-02,1.555901169776916504e-01
1.886970595103616699e-01,1.922042611312060889e-01,2.322620852093555399e-01,-8.300803012015992022e-02,-3.052504176631025499e-03,-1.863263582215663253e-03,1.498892605304718018e-01
2.488034812664633444e-01,1.382534576933211745e-01,1.002801644231302303e-01,-1.672016644033717705e-04,-1.404907246037314815e-03,-6.143772817974440387e-04,1.336726099252700806e-01
2.191765819134515458e-01,1.363380240260874121e-01,1.285859954782561654e-01,1.397250715143522580e-03,-2.330456342891307209e-03,4.972580883722058954e-03,8.752609789371490479e-02
2.598620397826842399e-01,1.445475363240391609e-01,1.116297015596244835e-01,8.305279840176263461e-04,-7.244067591549686273e-04,-9.531792092809668673e-03,1.358423084020614624e-01
2.522362881673876345e-01,1.279932914403845712e-01,5.781753954942789320e-02,-1.003057656979747247e-02,-3.939027202825817059e-02,-1.570822778501062764e-02,1.864850372076034546e-01
2.356101833344542151e-01,1.196428158731945302e-01,1.261659446181441491e-01,-2.058270210821470480e-04,8.914106707536553417e-04,1.363032478600469501e-03,1.128831058740615845e-01
2.455346364201858034e-01,1.278072071869290893e-01,1.267986792684630826e-01,3.094625371539534643e-04,3.395969812959044576e-04,-4.189670685201174927e-04,1.182398274540901184e-01
2.682829777603057964e-01,1.310793294500558204e-01,8.113415337566784458e-02,-2.914719537223151025e-02,-2.942459867770361864e-02,-2.945241916335968393e-02,1.895269304513931274e-01
2.052654945244872242e-01,1.469778244468492867e-01,1.536165936978652891e-01,-1.117177291742050931e-02,-2.409919189458056832e-03,1.064204294217461013e-04,5.870647355914115906e-02
2.131883869125453801e-01,1.489461609698672639e-01,1.291497991087376118e-01,-1.461960835930894379e-03,-4.105910425191051580e-03,1.645331653911830810e-03,7.652340084314346313e-02
1.538218349493458981e-01,1.266553153223681782e-01,1.343700172494267930e-01,-1.007124354083987171e-02,-2.592557062822864206e-03,-3.101872764280542809e-03,3.068018145859241486e-02
1.729394196063515077e-01,1.321210141281815298e-01,1.391646728791240128e-01,-7.939250246787219259e-03,-7.777599465590952568e-03,-6.387572339042627521e-03,4.383167624473571777e-02
1.627924411857822884e-01,1.314003652864703386e-01,1.380816103591203936e-01,-9.122108654896111599e-03,-7.495472629581493261e-04,-2.134339555832035201e-03,3.294470533728599548e-02
1.697762686151510492e-01,1.446514013066914073e-01,1.584762377730221661e-01,-4.201129248594857174e-02,-2.631311768325180975e-02,-5.838076662792747971e-03,8.915869891643524170e-02
2.460664141294900964e-01,1.271408652181846843e-01,1.266902036164059830e-01,2.856557322506591439e-04,1.992402762889157876e-04,-2.817167508387475108e-04,1.191540434956550598e-01
1.921585294559127743e-01,1.200025891059276345e-01,1.305424783076245820e-01,-1.326183239635718783e-02,-7.686112743444818013e-03,-5.803555700275227734e-03,7.323219627141952515e-02
1.750507559766515397e-01,1.048802795583874403e-01,1.214895664024291388e-01,-1.356971456544317674e-02,2.835600156050404122e-03,-2.638061723283417022e-04,6.790452450513839722e-02
2.434015323048459578e-01,1.263991626377136968e-01,1.190558288944694731e-01,-1.595268067906878418e-03,-1.434806950945209355e-03,-1.925953943870649821e-03,1.209446340799331665e-01
3.068660677311909613e-01,1.736231090526040022e-01,1.383537950872788247e-01,-6.954868246636041786e-03,1.710766294670468257e-02,1.932501936886386190e-02,1.607497930526733398e-01
2.023569409436330735e-01,1.372412812604888455e-01,1.379228652791169019e-01,2.437629198957329095e-03,-2.687546070360694560e-03,4.204779076290876896e-03,6.548791378736495972e-02
1.823448055230058040e-01,1.442278264055488757e-01,1.332241509356421327e-01,3.980406910684680796e-04,-2.967638670945903310e-03,1.951602563793775318e-03,4.507476091384887695e-02
2.398783981073485949e-01,5.048277947847219088e-02,4.625657346510342327e-02,4.827886932345367560e-03,-6.615471355962383206e-03,5.934279988349758922e-02,2.178414762020111084e-01
2.308563957150125134e-01,1.191091793781440811e-01,1.272273753775254312e-01,1.982339305062127098e-03,-9.614594436853780542e-04,4.725954024379742241e-03,1.082946285605430603e-01
2.503422543512175968e-01,1.157013337078446752e-01,1.338509878070649473e-01,7.583388807108065862e-04,-1.302359312415517396e-03,3.934015826373361141e-03,1.267562359571456909e-01
2.395570564634241784e-01,1.175686145810124483e-01,1.353374134311078614e-01,1.344839553830316260e-03,-1.749610009590390515e-03,1.610727066650683836e-03,1.142441034317016602e-01
2.400477329624554068e-01,1.211573229662258749e-01,1.294653015055176604e-01,9.766105341611134964e-04,-1.763672995814763531e-03,1.599468960513163304e-03,1.150481700897216797e-01
2.313913064828208299e-01,1.150161246784408842e-01,1.326139876160736808e-01,7.094862866427157245e-05,-9.993112445362945212e-05,9.018770221313325043e-04,1.086618527770042419e-01
2.581733339798292226e-01,1.317870409446736391e-01,1.359187749546386104e-01,2.553592765074615459e-04,-1.430642169843249147e-04,5.033952428144405737e-03,1.246781870722770691e-01
2.319823257826503782e-01,1.132555414703090568e-01,1.368150267099835782e-01,2.695318462871951638e-03,-5.390332044464827069e-04,1.052278667643911318e-03,1.089951545000076294e-01
2.441993014362029146e-01,1.249500059546175407e-01,1.233872886594623436e-01,3.977707405442126843e-04,2.496992165888153327e-04,-1.582241236562274616e-03,1.200723201036453247e-01
2.167866789043741971e-01,1.280732823647489915e-01,1.372280910866733872e-01,-2.673132867258878366e-03,-1.875038329371973801e-03,-5.964538369280191626e-03,8.532546460628509521e-02
2.048914443385757567e-01,1.085960750634214489e-01,1.290723472078021683e-01,-6.229487650871911621e-03,8.681056327178619195e-04,4.558435022305446340e-04,8.854156732559204102e-02
2.399052890507574198e-01,1.177346948961650597e-01,1.402220744112285533e-01,-6.763699788345805056e-03,1.490174796048570954e-03,3.256462848426438378e-03,1.134008765220642090e-01
2.449971391378191754e-01,1.247141458416822779e-01,1.264624150556795112e-01,2.683596165132352894e-04,3.866434857255668009e-04,-1.033764085021881629e-03,1.194346621632575989e-01
2.282075730094719201e-01,1.123677653443245494e-01,1.265686801011921270e-01,-8.302272386430142523e-03,5.666827231235295817e-03,6.715075939447471241e-03,1.114176586270332336e-01
2.275829767680364046e-01,1.270277428695806565e-01,1.265623525908771696e-01,-1.279181360585174461e-03,1.971116382794346755e-03,5.742866967520990525e-03,1.013601273298263550e-01
2.368489911155196026e-01,1.147900472054297627e-01,1.381248508621843174e-01,-5.483711551146864746e-03,1.533777553059009454e-03,2.878207545092441484e-03,1.127687916159629822e-01
2.813245443817716240e-01,1.437344560952832084e-01,1.272883573433901960e-01,-1.289098783396819964e-02,7.763002192463537912e-03,1.839158120017769793e-02,1.521788537502288818e-01
2.065994206668004818e-01,8.994894089664953740e-02,1.274765789706257257e-01,-2.976058520778443114e-02,9.282171273714704199e-03,1.062697913004147926e-02,1.178659945726394653e-01
2.386795026086994120e-01,1.224374703977034184e-01,1.228551671711751170e-01,9.889129934155956557e-04,-7.880178692673829154e-04,9.316690998193306308e-04,1.160656362771987915e-01
2.403799339143614378e-01,1.236452099660753368e-01,1.226099678253715491e-01,2.554241652882296358e-04,-5.474028546359479365e-05,2.327206715745036710e-04,1.172573417425155640e-01
2.442667852792453909e-01,4.630262476095509117e-02,1.943975544738024142e-01,-5.711436290586482251e-02,1.706577866710938876e-02,9.249775353872487259e-05,2.060687392950057983e-01
2.320597539970062073e-01,1.118259865080118709e-01,1.345611221839681237e-01,-1.052802172454736507e-03,-5.563698199132104854e-04,-4.667709696346058752e-04,1.106545180082321167e-01
2.401347408013521367e-01,1.242804756221746326e-01,1.237923792486093494e-01,3.367346759111655707e-04,-3.816625591784959933e-04,-2.007949158421514981e-07,1.161024272441864014e-01
2.397127644834913252e-01,1.233834599198345705e-01,1.225302339463799073e-01,2.136047739804373003e-04,-1.519215451376768457e-04,1.950158430136231984e-04,1.167596280574798584e-01
2.924546726789040707e-01,1.387058088323221416e-01,2.362407617697906692e-01,-8.752169042336885307e-02,2.963673940154984768e-02,1.352335923333848611e-02,2.105224132537841797e-01
1.494746460189812776e-01,1.438759782407307564e-01,1.326135253393250502e-01,6.131902532041480156e-03,-4.341334180857694264e-02,1.450971450659089591e-03,7.742425054311752319e-02
1.899910176513922577e-01,1.398471931625852038e-01,1.510630297124098131e-01,-3.299427256623947962e-03,-2.219309573142551253e-03,2.450181316759885716e-05,4.610021412372589111e-02
2.039911061485746024e-01,1.217105676874605524e-01,1.361821894891734885e-01,-4.753238961334805938e-03,5.204919229448999910e-05,2.827673780321551030e-03,7.668478786945343018e-02
1.898587844891070908e-01,1.346408873485445412e-01,1.304378189124915932e-01,-3.990720126486152833e-03,-2.426938647398795175e-03,-5.204971179511007698e-03,5.869828909635543823e-02
2.432053822320768832e-01,1.016428869503469279e-01,9.080935673278778264e-02,-2.085045469869659801e-02,3.718686781874546571e-02,4.273346825356443696e-02,1.806161403656005859e-01
2.311270664187449753e-01,1.358957705045207853e-01,1.131561488335005861e-01,-3.912832278681310219e-05,7.714403106534043408e-04,3.002933618822575378e-04,1.084143668413162231e-01
2.386943775317790783e-01,1.226978383876321799e-01,1.236297723887018474e-01,2.781063843042294679e-04,1.213894200730945269e-04,6.802619969326076854e-04,1.155405938625335693e-01
2.395520417787149192e-01,1.241492643192198819e-01,1.217648084974153888e-01,2.677426425700488318e-04,-2.424305256117093162e-04,1.755177673053224770e-04,1.166153624653816223e-01
2.547250624585923884e-01,1.137856241172414823e-01,1.401030519657363027e-01,-3.002712144344365716e-03,1.535198831753669237e-04,-4.906966770088337301e-03,1.301795840263366699e-01
2.551631271294937942e-01,1.214758740980264595e-01,1.430655685744842698e-01,-1.511236079435994461e-03,-1.237768340353671229e-03,-2.766778341270515005e-03,1.244449391961097717e-01
2.801258496413530086e-01,2.371727029974320666e-01,1.815457620283178475e-01,-1.016500755110457017e-02,-7.634264356574958776e-02,-8.322633265068841296e-03,1.591573506593704224e-01
2.544341226576681825e-01,1.077005450722371971e-01,1.438481773297805855e-01,-3.792971233747771480e-04,4.640793446851982436e-04,-4.319375678424363860e-03,1.326286941766738892e-01
2.827279150508448247e-01,9.497776298441652776e-02,1.457895921376768933e-01,-4.002528349298624735e-03,-1.004563433773422981e-03,-1.029409571729703737e-02,1.692956835031509399e-01
3.122703910191864662e-01,1.377210296909398557e-01,1.757764936672365219e-01,7.971950645108284716e-03,-6.215602713900690194e-06,-2.054281185248481301e-02,1.634925603866577148e-01
2.374620803592096263e-01,6.937850692740055170e-02,1.217529324836028465e-01,-7.379934114374534469e-03,-2.805659731690921671e-03,-1.141369331363163535e-02,1.508963555097579956e-01
2.257108266605183655e-01,1.210071006305688812e-01,1.420288616580050178e-01,1.776015723277966744e-03,3.855766136127408554e-04,4.178430927372302661e-04,9.599041938781738281e-02
2.348244164250537502e-01,1.191816168447733248e-01,1.317475061773326073e-01,-5.471256264235259837e-04,3.938451230929758970e-04,2.044325254878757905e-03,1.099632009863853455e-01
2.345491247310751426e-01,1.352944313862542991e-01,1.128283438700615482e-01,2.594581868015029963e-03,2.059099707761755018e-03,-1.081196579458786489e-03,1.123499274253845215e-01
2.165548613296499614e-01,1.177562366330707488e-01,1.301101513124727771e-01,-3.885147199951497019e-03,6.710458148884742950e-04,4.428383479636900655e-03,9.380140155553817749e-02
2.514843955642029338e-01,1.419511395650529528e-01,1.093443906229610851e-01,-7.667572784916850938e-06,-4.276306206820415512e-03,-5.291627207514039942e-04,1.291818767786026001e-01
2.379701530627699735e-01,1.119379541457054400e-01,1.382521432709495346e-01,1.820168298678909342e-03,2.668907985575467360e-04,-3.401919919270302559e-04,1.151981651782989502e-01
2.230433189905677016e-01,1.104225434906465630e-01,1.331471682799341416e-01,-6.449232104539098787e-03,2.520721413813535594e-03,1.475112859529568825e-03,1.038794964551925659e-01
2.461934118768055180e-01,1.268324266482139806e-01,1.370919720570791256e-01,-3.570928250776700744e-03,2.686585018547135630e-03,4.829506685077668109e-03,1.151416227221488953e-01
2.035242322194996123e-01,1.049075499325666794e-01,1.242441297974853226e-01,-6.848978908990544651e-03,1.275691264233389313e-03,2.753886905217025130e-03,9.143633395433425903e-02
2.328904313989791364e-01,1.145874407060258615e-01,1.375481773178765521e-01,8.643132629098552533e-04,-2.921356620977678411e-04,2.652075230584581425e-04,1.086700409650802612e-01
2.359289669824435332e-01,1.113376028101560056e-01,1.329743930735970969e-01,1.713243150001536727e-03,-8.506716235290683308e-04,9.491230823430655932e-04,1.153649911284446716e-01
1.584368627349749259e-01,1.613987751591867414e-01,1.550076156439835484e-01,2.468253855532365204e-02,-4.934118165919729702e-03,2.296573753059768727e-03,4.412745311856269836e-02
1.690456410552005628e-01,1.478483193057541500e-01,1.466033061600650333e-01,-5.673016794080246346e-03,2.240690949897847055e-03,4.097873281289901777e-04,2.427720464766025543e-02
2.524708219071643001e-01,1.122698517417311526e-01,1.376262755137124816e-01,1.563449561706923392e-04,5.038852761700002032e-04,-1.809697813844960692e-03,1.294408142566680908e-01
1.739072254770243631e-01,1.410236305504712628e-01,1.407282934679667252e-01,-4.636484044145256205e-05,2.088043312770834336e-03,-3.664974877553957766e-04,3.323580697178840637e-02
1.677383379554248655e-01,1.268870203523648488e-01,1.379086372285968365e-01,1.016431023338042888e-02,5.703383379623764085e-03,-1.871173065494131232e-03,4.192955791950225830e-02
1.532048516522687420e-01,1.328830977420283055e-01,1.432142792997436742e-01,1.476004971547185962e-02,-7.519615183846028138e-03,2.022594851173491019e-03,3.384143859148025513e-02
2.308535601735252907e-01,1.212419433129680313e-01,1.384586203907430813e-01,1.696870150432421140e-03,-3.071184713164277764e-04,3.090555957267096358e-03,1.022817119956016541e-01
2.236919364320520964e-01,1.102722400204369374e-01,1.334596054592241676e-01,3.575573237129404947e-03,1.074331790464317060e-04,-4.585381875857866187e-04,1.039749830961227417e-01
2.575250443396595590e-01,1.424498934765375535e-01,1.207680968993326831e-01,1.921564716824215771e-04,-4.316131534629036423e-04,1.652072018385028398e-03,1.273431777954101562e-01
2.423412178713137410e-01,1.307518224624915071e-01,1.281211848126754538e-01,6.057428404880148623e-03,4.906268924770727964e-03,-7.655789856189444513e-03,1.145023554563522339e-01
1.032351580183210327e-01,1.106491633450479156e-01,1.164864988096521309e-01,8.702304680874763804e-03,-4.741497183233822112e-03,3.766333524376346345e-03,2.166821435093879700e-02
2.147097769262859002e-01,1.289801432315948182e-01,1.372115278247192371e-01,1.171936974587220286e-02,4.780951469017510891e-03,-7.638925839786626058e-03,8.583306521177291870e-02
2.476549288434626850e-01,1.391848034623295316e-01,1.011900577917652227e-01,6.352551965297546441e-04,1.069306975553500211e-02,-3.154292250164402161e-03,1.330591887235641479e-01
2.098136549704283649e-01,1.238060407034701216e-01,1.378587224546594103e-01,-2.583096752154020927e-03,-1.140485562329992359e-03,1.718841049868713520e-04,8.006346225738525391e-02
2.519948951924880776e-01,1.232333274049636218e-01,1.456457033780311772e-01,1.041058607515893929e-02,1.154640932632493549e-03,-5.202270011684882386e-03,1.208566725254058838e-01
2.433753449227879506e-01,1.133188023415118151e-01,1.318085161957926466e-01,2.901334938786195253e-03,3.795747550162725630e-03,-4.488645951154216461e-03,1.223960220813751221e-01
2.084108970016096962e-01,1.363466194989368385e-01,1.236748467153574449e-01,3.542872535080880507e-03,-2.948381829972360722e-03,4.986330972053502550e-03,8.003337681293487549e-02
2.454168588578227728e-01,1.071542207992171314e-01,1.379975437475990385e-01,8.728727476426799414e-03,1.718178294463093342e-03,-6.702349814016158973e-03,1.271832585334777832e-01
2.159634098605148211e-01,1.291675505534350399e-01,1.501868443585225865e-01,-2.513635625989008634e-03,-9.157911442021108650e-04,-1.943039028802797307e-03,7.863677293062210083e-02
2.141537969908327010e-01,1.692007010180383575e-01,1.461526464179300211e-01,1.006724101349664238e-02,-3.318376453231699358e-02,9.365935875734402241e-03,8.636417984962463379e-02
2.337797155050254094e-01,1.352509145581743955e-01,1.104978709031216311e-01,-9.177953853250041131e-04,1.592056802611432724e-03,6.185257845056198406e-04,1.130079850554466248e-01
3.274047358717085965e-02,8.450301912181930331e-02,9.358834103341817645e-02,-3.888309808377534565e-02,9.120393645766302921e-04,-1.552461890782268900e-03,8.819067478179931641e-02
2.720415347291625929e-01,1.094932081136183871e-01,1.663605500124402392e-01,-3.786156041469178335e-02,2.458130951967747377e-02,4.448537353601610123e-02,1.801727563142776489e-01
2.161011297632153827e-01,1.295095616242903369e-01,1.144294991150058283e-01,-1.665571501173577487e-03,4.156894890369573596e-03,4.896075368655872055e-03,9.572560340166091919e-02
1.847517288568827909e-01,1.285960269273709877e-01,1.168351206176480028e-01,5.101582076283560536e-03,-9.575622244463585439e-03,9.303825870127358996e-03,6.756525486707687378e-02
2.184272265816339376e-01,1.458609296731755711e-01,1.351930386740996248e-01,9.739788931623442544e-03,-9.347072391814825049e-03,7.662255565223691396e-03,8.292541652917861938e-02
1.841908454942986495e-01,1.415154224168446717e-01,1.238370208410235901e-01,2.516740775101538458e-03,-3.236821078326777151e-02,1.084716705889877258e-02,8.002024143934249878e-02
1.627763275690494726e-01,1.209377819342704191e-01,1.282433273960849607e-01,-2.127878977235303677e-03,-1.841781191343291489e-03,-4.889657744320384134e-04,3.902126103639602661e-02
1.698467968409869411e-01,1.308655562660623051e-01,1.315948299956859746e-01,4.290592062812086452e-03,-8.559100094234502187e-03,6.120190283614108072e-03,4.334758594632148743e-02
2.423186986208824001e-01,1.312646880002414362e-01,1.196025409792210448e-01,1.694934465927957828e-03,1.648839798322987611e-03,-1.239281186368502291e-03,1.174117103219032288e-01
2.438321309959330940e-01,1.265441278357064547e-01,1.262969295165370098e-01,1.173365552029524521e-03,-1.728463722641109673e-03,1.474060997557408116e-03,1.174952834844589233e-01
2.369484682441699852e-01,1.348441426576237334e-01,1.178812779427984431e-01,1.413191679084918563e-03,3.729001669002162604e-04,-8.256598883107672468e-04,1.115951091051101685e-01
2.090952526050279259e-01,1.241290255617548410e-01,1.376647306028424000e-01,2.326530241459608215e-03,-9.439839739926830743e-04,2.507913713220978873e-03,7.931064069271087646e-02
2.441750591781468860e-01,1.255330186080442223e-01,1.235698415115081827e-01,1.238387205026375299e-03,-1.461290687884537977e-04,7.792988616298452634e-04,1.196628212928771973e-01
1.516638943407165596e-01,1.357520079100732469e-01,1.379957786275292364e-01,-8.109422957993849207e-04,-1.398494568229024940e-03,6.938603798923597852e-04,1.522513013333082199e-02
2.020567338916487987e-01,1.340842343973908946e-01,1.349202872782333806e-01,3.105182970314505127e-03,2.717802920261761825e-03,-4.314064124635153159e-03,6.834508478641510010e-02
2.359632460587843816e-01,1.262608614099584581e-01,1.318245746671222463e-01,1.073528433022438548e-02,9.332030815556778200e-03,-1.299617705546610678e-02,1.121111810207366943e-01
2.421217196960368800e-01,1.240556425656447193e-01,1.216721614965206866e-01,1.160251374989036081e-03,-6.808636254955614635e-04,7.016296043190962299e-04,1.193046271800994873e-01
2.420887711645523521e-01,1.245480161823264709e-01,1.234294251496007022e-01,4.898501105117821332e-04,-2.556761223819518317e-04,1.712939760598272698e-04,1.181082725524902344e-01
2.479463618342667153e-01,1.313378517505238430e-01,1.255694857956273780e-01,2.442213967314258143e-03,-2.023310173255100756e-03,3.797274433430670917e-03,1.199036762118339539e-01
2.367884112401180685e-01,1.098397862106376133e-01,1.371631994439772850e-01,2.077312658543305820e-03,-5.468614333536329068e-05,2.706611469783406338e-04,1.157887205481529236e-01
2.430235985212973182e-01,1.138496065296732140e-01,1.178593633884018055e-01,2.565221623023079215e-03,-1.965556258469367684e-03,8.962491405639627304e-03,1.282823085784912109e-01
2.092316997695013170e-01,9.615050145048614771e-02,1.281392448158286124e-01,2.892263021457389810e-02,-1.450644239715274779e-02,1.032152022433395315e-02,1.168493852019309998e-01
2.373304332802958494e-01,1.248999262117316267e-01,1.417324831206365765e-01,1.836723636178887176e-02,-7.963383875828842703e-03,6.773874719928124101e-03,1.112269312143325806e-01
1.874107795124243525e-01,1.338525737065182075e-01,1.462967729034423958e-01,3.568195389336109059e-03,2.045412788950111424e-05,1.059954953353622930e-03,4.897364974021911621e-02
2.038129760618030972e-01,1.401893653995060218e-01,1.472793633719906570e-01,4.058015360407943826e-03,1.042289816920354125e-03,-1.230863197910088934e-03,6.086334958672523499e-02
2.328047877265133625e-01,1.139299233402293610e-01,1.364635554446380072e-01,1.197213002003278542e-03,3.625197809213303170e-04,-1.576044952672018607e-04,1.093850284814834595e-01
2.625623373668731220e-01,1.519640568507888145e-01,1.255299685144716793e-01,-1.047831026780040551e-04,-2.087099457614023743e-03,5.077530034236490616e-03,1.262725293636322021e-01
2.060721955267303673e-01,1.324803452914040391e-01,1.020246249460489141e-01,4.543665535194788344e-03,-2.695799786214082144e-02,1.010376273119574378e-03,1.040663346648216248e-01
2.009450841239913688e-01,1.230501471271698982e-01,1.312326885729594439e-01,6.176785867308761876e-03,-2.067644926817983463e-03,6.344048825184170695e-03,7.579723745584487915e-02
2.682733040071640374e-01,1.601751989514323959e-01,1.224422099747826953e-01,-4.769075474452776878e-04,-5.767059612127446548e-03,5.698133544985287992e-04,1.314886957406997681e-01
2.189686598265450090e-01,1.300873307025467995e-01,1.149158212580926597e-01,-2.923155316064529456e-04,2.100400493150014845e-03,3.091764347237001623e-03,9.757406264543533325e-02
2.360808286327881755e-01,1.106628807079151344e-01,1.368471209633241314e-01,1.965812243748245921e-03,7.117407679085253815e-04,-3.735100524647001394e-04,1.146509200334548950e-01
3.702712709297923399e-01,1.263378480263954717e-01,2.064597398537319495e-01,-2.346473281071229794e-02,1.360064222200408832e-02,1.689571553078529978e-02,2.223549783229827881e-01
2.481230855977626382e-01,1.350268301423455941e-01,1.135413916363854081e-01,4.215898671934809050e-03,-1.812652424390339160e-03,4.918214218116548873e-03,1.257698535919189453e-01
2.205905497941151316e-01,1.426020151440340333e-01,1.807575331864410551e-01,-4.382635666354779691e-02,4.518735864243166901e-03,-3.661647127733850052e-03,1.021082326769828796e-01
2.358391777316933557e-01,1.119053344364079328e-01,1.381113635450678112e-01,-1.689416771692729257e-03,1.106324981541339418e-03,4.659727639778738460e-04,1.131875663995742798e-01
4.252468632990174524e-01,2.244720332722225653e-01,2.377008038799859058e-01,-1.820593567868463922e-02,2.083056435193536907e-02,5.283332019104646643e-02,2.202265113592147827e-01
2.638029669321097503e-01,1.210981971828455905e-01,8.744486950879939990e-02,4.065755516747867476e-03,-2.126053210095209256e-02,2.186778766113420258e-02,1.707041561603546143e-01
2.670012454139318869e-01,1.535102610726007677e-01,1.265946860197751933e-01,-8.144425459828325865e-04,-1.116023467349950681e-03,4.943114615755456361e-03,1.293767988681793213e-01
2.656063782722249966e-01,1.380656235899421214e-01,1.374067270266985941e-01,-3.319703912757487885e-03,5.562347470960009310e-03,1.099947377426602375e-02,1.297688782215118408e-01
2.578624113531693962e-01,1.424534787696895566e-01,1.146493478315530334e-01,8.262580087342098235e-04,1.353751904202034253e-03,2.429948208105666297e-03,1.316297650337219238e-01
2.281180193194984884e-01,1.225695465613675095e-01,1.447897455419270285e-01,-2.582339504920533237e-03,-7.361315880347555490e-04,6.629983902392721411e-04,9.649797528982162476e-02
2.308875486142297206e-01,1.317364570144016478e-01,1.314091478747957398e-01,-9.546837192631372300e-04,1.602066130982991894e-03,4.607536195147548912e-03,9.968762099742889404e-02
2.300366246424647154e-01,1.231741604641493487e-01,1.367623666135559246e-01,-1.716083095367789595e-03,7.697673326993692252e-04,2.721520784061574189e-03,1.009207069873809814e-01
2.541448751664406314e-01,1.399303755474072819e-01,1.108364810341651990e-01,7.115934026106768414e-04,-1.401508944682128624e-03,2.009204734761150038e-03,1.312778443098068237e-01
2.559324749396106879e-01,1.461847223379163507e-01,1.110147980702556741e-01,7.177130922323817028e-04,-2.762596623194828183e-03,1.011732911132115931e-03,1.310298591852188110e-01
2.439987917731745726e-01,1.243834250923238072e-01,1.350014389761212685e-01,3.955348610553540908e-03,2.581357744748915151e-03,-4.210958009831154009e-03,1.151981875300407410e-01
2.616962778541212509e-01,1.162761252739841766e-01,8.513925602390669256e-02,4.661316967485941605e-03,-2.155814685818954399e-03,2.303394728986453074e-02,1.682714074850082397e-01
2.286991578334779951e-01,1.198828046960318805e-01,1.301420240852480259e-01,-1.040037262829516564e-03,1.348137520492408625e-03,3.974602093088167205e-03,1.043358519673347473e-01
2.225714392460557689e-01,1.303333284875483888e-01,1.410742117693376818e-01,-3.080021377014612299e-03,1.201585257697874998e-04,4.049339927580445503e-03,8.780781179666519165e-02
1.637386178246488799e-01,1.371878470533874905e-01,1.282130757690093104e-01,-1.613626551772857172e-03,3.884727199937354145e-03,-2.740209753649865945e-05,3.281560540199279785e-02
2.918384867205342514e-01,1.680888866665484205e-01,1.177877654124579870e-01,1.015837209860472740e-02,-2.228470801922478872e-02,1.542296602970081622e-02,1.630396097898483276e-01
2.398733007088656444e-01,1.356587559809072641e-01,1.171391360672660309e-01,2.126373869401879460e-03,8.010174569822358032e-04,-1.278255626281317881e-03,1.146911159157752991e-01
2.056866546492435166e-01,1.224003276938606943e-01,1.221627064040147204e-01,4.237999562399736263e-03,-5.280532771824745716e-03,6.834973262507188126e-03,8.505377173423767090e-02
2.418229908164813424e-01,1.298442793266053608e-01,1.167895316555410956e-01,-1.791671173254467519e-03,2.081206581229813786e-03,1.584045732072723043e-03,1.191707327961921692e-01
2.710562827706738398e-01,5.473869181596281719e-02,1.431081800871972787e-01,-1.074441852757455733e-02,3.658630164082880484e-03,2.100030986968836819e-02,1.928629428148269653e-01
2.344598201229609602e-01,1.371051983260003493e-01,1.106862148841064875e-01,4.571590293046485566e-04,1.806816233619472009e-03,-7.302475002266739425e-04,1.129597947001457214e-01
2.694042525462584381e-01,9.487256625815582156e-02,1.464567779003739523e-01,-1.263146045953607820e-02,5.590406150516334660e-03,1.985014507835487860e-03,1.571731567382812500e-01
1.425337112611077262e-01,1.257243944407889225e-01,1.488394116236227971e-01,3.055666949421604467e-02,1.838413239745910737e-03,-7.087240609058268956e-03,5.822598934173583984e-02
1.833460760225490427e-01,1.402064770858732490e-01,7.555039053076897937e-02,-1.786993384496836715e-02,7.805514768189672492e-02,4.123696130981426705e-03,1.676827669143676758e-01
2.583937722300798656e-01,1.032159886546717420e-01,1.459384054734356728e-01,-9.446471707253307690e-03,1.393295142257021607e-03,2.188299380244024576e-04,1.398193687200546265e-01
1.662609732243659766e-01,1.387104181480454668e-01,1.419410065626762474e-01,5.695662721616109305e-04,1.084810871255534803e-03,2.575883572014003495e-04,2.617571316659450531e-02
2.643380682158034678e-01,1.125713347212682902e-01,1.513734521933918498e-01,-5.657682183509886789e-04,4.874352478466346928e-04,2.166106255582226931e-03,1.366221904754638672e-01
1.565887115992242729e-01,1.263514205575460014e-01,1.192735088327794429e-01,-6.796164049445643915e-04,3.498339874312603268e-03,2.472863140960845918e-03,3.514048084616661072e-02
1.910052013609768728e-01,1.128527382197444390e-01,9.465518927312815967e-02,7.401134453681018285e-03,1.752313215988253459e-02,-8.318853886157166061e-03,9.567791223526000977e-02
2.380594367448937154e-01,1.173491881294407846e-01,1.357398946834331432e-01,1.854845079514480435e-03,1.576974997124876892e-03,-9.737609355644369575e-04,1.127380207180976868e-01
2.643203439694898349e-01,1.138676662905552944e-01,1.525084967189567764e-01,-8.393529612760988919e-04,1.694015617318621672e-03,2.027148962609554884e-03,1.354199200868606567e-01
2.234928350435167188e-01,1.177934655384478141e-01,1.362816626796402864e-01,2.411941428330797825e-03,5.561078956814506863e-04,-3.678784322518144508e-04,9.787116944789886475e-02
2.124537384435695453e-01,1.491125477741275518e-01,1.627362302542717520e-01,4.147881755888083860e-03,3.677967161175093973e-03,-4.161322580984259251e-03,5.898234993219375610e-02
2.382997342439164834e-01,1.302725547509209492e-01,1.191508718248577847e-01,1.078517463982728514e-03,1.510041292604998389e-04,-5.783086045913910910e-04,1.140156537294387817e-01
2.198608340659936877e-01,1.074160728788416952e-01,1.310082272075619170e-01,7.856930858302338741e-03,1.866153221550790687e-03,-2.225577995227695678e-03,1.037212684750556946e-01
2.487587566592313615e-01,1.606788415517031443e-01,1.338614002555328364e-01,1.188733553136625890e-02,2.030906651806679841e-02,-1.275018406280270349e-02,1.139663383364677429e-01
1.197025578158482789e-01,1.242390317322548260e-01,1.212845281876335085e-01,3.530158212080869180e-03,1.217524612040435557e-02,-6.459440755477684204e-04,2.234397642314434052e-02
8.365123675862964903e-02,1.157485051494283324e-01,1.072700219420604922e-01,4.616364260867518443e-02,3.698605822582053115e-02,-8.706419564425357110e-03,1.074920445680618286e-01
2.241891078004570048e-01,5.142706316667094990e-02,7.508268062597564518e-02,-3.963016023029802826e-02,2.746397032874867486e-02,4.265722480238112041e-02,1.968575417995452881e-01
2.730000768275727685e-01,1.212407996658683151e-01,1.408708267691126392e-01,2.311740389282546104e-02,1.888354709628143648e-03,-1.940840147960892423e-02,1.522536575794219971e-01
2.951254208737689178e-01,1.189983503315366897e-01,1.572773662254229043e-01,-3.201092053198148577e-03,-9.703236035740679362e-04,-8.393542889864765572e-03,1.612109690904617310e-01
2.315809463643023203e-01,1.169060209772676828e-01,1.363885261387170755e-01,8.187463759649407907e-04,1.177295809592447792e-04,-1.212274901325917278e-03,1.063118651509284973e-01
2.538024922434680697e-01,-1.651293910653370278e-02,1.072960008479469651e-01,1.349796450376550445e-02,-1.402547351933709904e-03,9.448969252684100845e-03,2.361185252666473389e-01
2.415225081684418962e-01,8.217824706893421538e-02,1.245566993197211592e-01,3.803577138617152825e-02,2.892000466949182572e-02,-2.988815972295228232e-02,1.730980277061462402e-01
2.323251407022990933e-01,1.179569100464417652e-01,1.313260528929278137e-01,6.602063969869856981e-04,1.043965020898731852e-04,-1.860649431264959101e-03,1.083584204316139221e-01
3.697086359670919142e-01,1.352069739658228742e-01,1.882752890964938808e-01,3.566802772034639163e-02,2.188707731292482278e-02,-3.044828348374179275e-02,2.310794591903686523e-01
2.442638914933719652e-01,1.117358215439444163e-01,1.417335469430033024e-01,-3.140603218058855752e-03,5.071787997868222207e-04,5.074759781791994941e-04,1.204954236745834351e-01
3.236271120200464591e-01,1.507970305543741008e-01,1.755318180410428419e-01,7.939381617483380962e-03,-8.195726296645546201e-04,-2.481999726691396652e-02,1.680664867162704468e-01
2.525316896237148612e-01,1.058473882868440075e-01,1.324039354522719980e-01,-5.946355201809271074e-03,-3.490515822346495177e-03,-9.480089498665963260e-03,1.368881016969680786e-01
2.400587875161786788e-01,1.946507689421105025e-02,9.052552205726029089e-02,4.513742159201913212e-03,2.342335617398056367e-03,-3.132010248859429941e-02,2.026230841875076294e-01
2.707834818204514216e-01,1.296187244753923273e-01,1.475550000756231661e-01,-1.960921178576244088e-03,-1.696946940104912928e-03,-8.812585498372356788e-03,1.340536773204803467e-01
3.887369612537880936e-01,2.176859700696496813e-01,1.882980905694667528e-01,-2.926992588282816693e-02,3.879412706711621306e-02,6.315104308818590695e-02,2.328051030635833740e-01
2.372319410034306741e-01,1.223505021297450618e-01,1.312094743888936876e-01,1.273856720325746176e-03,7.248551866125824269e-04,-5.994823491023510082e-04,1.107520535588264465e-01
2.311457564940104237e-01,1.137965905048828608e-01,1.302534937084969813e-01,2.513594470413527647e-03,1.363389521141248001e-03,-2.287012663395228667e-03,1.102300956845283508e-01
2.665037201544487311e-01,1.264252087544884551e-01,1.432722994531071548e-01,-1.115319403751350311e-03,-2.966677626011171316e-03,-8.328056731607557869e-03,1.333570480346679688e-01
1.504688462030798202e-01,4.053868377834797532e-02,-2.212965942790634521e-03,4.204892138696633003e-02,7.009903365075129122e-02,-4.571906097751578940e-02,2.119639068841934204e-01
2.364039947789548513e-01,1.507955593055303467e-01,1.589541635768646488e-01,5.596461297873298740e-02,6.649173647149077271e-02,-1.971365500128369544e-02,1.747065335512161255e-01
1.550073690614484634e-01,9.626244079723388081e-02,1.062048790596629710e-01,4.459850141462849693e-02,5.392193557667347009e-02,-2.505285442832687684e-02,1.397801488637924194e-01
2.433326693848282263e-01,1.130221402947131359e-01,1.225007141312368653e-01,-6.295756105963994965e-03,8.647618953428394539e-03,8.512190393021005705e-03,1.280474364757537842e-01
2.471568689362279025e-01,1.402941258224821575e-01,1.008224999917536474e-01,-1.542596590203662880e-03,3.801042721228105586e-03,-1.950413356656713077e-03,1.313681751489639282e-01
2.403399202338035723e-01,1.305402483511652612e-01,7.021762377844313618e-02,-3.562462906214119117e-03,1.561222969497423445e-02,6.796092279646781314e-04,1.519502401351928711e-01
2.311832367060591142e-01,1.364104177466478329e-01,1.250583816538176629e-01,-1.241243025841507483e-03,9.110663539062188732e-04,3.268007529230300932e-03,1.011225581169128418e-01
3.274117062915319343e-01,2.105513431249492751e-01,1.407459759299777291e-01,-4.615123690264986284e-02,8.728702163527633784e-02,4.334744008327800352e-02,2.481340318918228149e-01
1.682393680986082607e-01,1.457199599494092834e-01,1.429027250253603054e-01,3.147808903502473561e-03,-1.723284935109412703e-03,7.623524361691476695e-04,2.487733587622642517e-02
2.272727832500404110e-01,1.123806041603074846e-01,1.285950133656205696e-01,-2.393868602083073886e-03,8.806727249177489711e-04,3.102033010580683165e-03,1.079286709427833557e-01
2.562293147782929159e-01,9.121713776667816909e-02,1.378338304552706450e-01,2.883367244004262503e-03,1.742494630898194395e-03,6.819640725972369970e-03,1.479303389787673950e-01
9.641834735383469912e-02,1.119211929015289098e-01,4.610282130680068424e-02,-4.141646255424876258e-03,8.328408369866291405e-02,9.548653840143476318e-03,1.571169346570968628e-01
2.172667509263787322e-01,1.400546558177715173e-01,6.483384220877064230e-02,-7.815988702463014248e-03,6.585535990422876351e-02,-2.737457406028041156e-04,1.749917566776275635e-01
2.347522611208225918e-01,1.901800436113045278e-01,9.934144839670600025e-02,2.996571644366727294e-02,6.162102783061096378e-02,-2.902992285428257838e-02,1.757859587669372559e-01
2.379407098580011981e-01,1.307450165590662849e-01,9.561221690877536039e-02,3.532602903657051235e-03,1.128475284046531919e-02,-3.782033695920957329e-03,1.302063763141632080e-01
2.284034948005155274e-01,1.316563511593672464e-01,1.093247696199220742e-01,1.662645026941741077e-03,2.340107212989358913e-03,-7.905833509128769657e-04,1.097534596920013428e-01
2.864686819002812967e-01,1.761815847486279119e-01,1.261547655367037390e-01,-1.897826439934262310e-02,-3.021795618714026230e-02,-2.103679259041570451e-02,1.591564565896987915e-01
2.526396772998283913e-01,1.450730835329947788e-01,1.216741300674685916e-01,-1.749142634571982172e-03,-2.617728375678559597e-03,-3.381953714717269785e-03,1.212397515773773193e-01
2.459825994142371686e-01,1.327291148407460097e-01,1.014951987610187706e-01,-2.805835916715153453e-03,-1.589585518587421616e-03,-4.944059804747362279e-03,1.320749372243881226e-01
3.232361872818902970e-01,1.466494671088230117e-01,1.644752339323730106e-01,3.907251967297752787e-03,1.117533664171397809e-02,6.382443774180929230e-02,2.024696916341781616e-01
2.382291367415766692e-01,1.117039505277977601e-01,1.392863411040964061e-01,1.904336418980246727e-03,3.641415974404744885e-04,-3.036929367989689562e-04,1.152870208024978638e-01
2.482146220043690010e-01,1.334879229345967422e-01,1.169114511658360112e-01,-3.304767398139406114e-03,-1.012458499740895084e-03,-3.809915348498629350e-03,1.241698190569877625e-01
2.122615475585084011e-01,1.176344936784908812e-01,1.100798486085252520e-01,1.755168029601149532e-03,6.253718972761635256e-03,-5.751225821376206200e-03,9.975983202457427979e-02
2.033282713821912835e-01,1.362616251467495820e-01,1.363500546251150414e-01,3.089831929390952133e-03,2.715056467319995614e-03,-4.750206795327225825e-03,6.790037453174591064e-02
2.538784601767067883e-01,1.401616809693114751e-01,1.174617578566165277e-01,-1.786471810014105032e-03,-9.551003628571625706e-04,-1.612857981943097456e-03,1.266817599534988403e-01
2.492955572131591857e-01,1.286788088796674001e-01,1.199373420873024038e-01,-1.278000620557335175e-03,6.542524873551679642e-04,-5.666742552387874811e-03,1.256252378225326538e-01
3.049927361872111220e-01,1.231837766102325815e-01,1.998195911137250758e-01,-3.252119726253736853e-02,4.275777185306572740e-03,6.216427558887960281e-03,1.683393418788909912e-01
2.742855770579104568e-01,9.967326025943587520e-02,1.938562264269622637e-01,-4.093156349160333857e-02,-2.183957926099776552e-03,-4.548768922492912696e-03,1.673826426267623901e-01
2.895216327741212403e-01,8.917032867570326427e-02,1.944585709553014463e-01,-6.631618271713883572e-02,-1.617552439666387551e-02,-4.273131983792395096e-03,2.101543545722961426e-01
2.241398559411072189e-01,1.309666367924656183e-01,1.361028374198600954e-01,1.642999724777900045e-03,1.905188321315868594e-03,-3.154217278391164680e-03,9.098301082849502563e-02
2.280783481925158229e-01,1.343501704219535464e-01,1.441132467019634045e-01,1.632355715731067993e-03,1.882881786872830443e-03,-4.497047695652327953e-03,8.969121426343917847e-02
2.094084154206186654e-01,1.212089610407322687e-01,1.208602655970938689e-01,1.827228312453391687e-03,3.058395562288143341e-03,-5.654220598261512978e-03,8.912916481494903564e-02
3.033176630137485175e-01,1.110933529794529973e-01,1.790585000498864376e-01,-2.490507364580343136e-02,5.270838114859592236e-03,1.475520871985904620e-02,1.763580888509750366e-01
2.406104175135980183e-01,1.271569584696575494e-01,1.236235171947956818e-01,-1.954115610569790232e-04,5.467378419106888902e-04,6.157850075023924659e-04,1.152701303362846375e-01
2.745738096030831965e-01,1.040680981872068173e-01,1.601476433867538851e-01,-1.804894115298213975e-02,2.869679781134771429e-03,3.221758527924127938e-03,1.539102643728256226e-01
2.307876712720626777e-01,1.129451451857461097e-01,1.255497785275747069e-01,-3.013344825734628075e-03,2.007204057151423630e-03,1.113375841968513138e-03,1.122649610042572021e-01
3.882856706907255040e-01,9.621664684504196985e-02,1.990242718891081508e-01,-3.718232766662627614e-02,2.243469360370459534e-02,2.280362566025917470e-02,2.703041732311248779e-01
2.211574427542414567e-01,1.816400060021296781e-01,1.739211357929920099e-01,-9.718311466527013512e-03,2.755649830778438350e-02,8.006367527792488878e-03,6.841025501489639282e-02
1.499756192036705016e-01,1.736814139321891381e-01,1.263331308557758270e-01,-2.773224951122913243e-02,5.917470471818702532e-02,8.630399557436054317e-03,1.213137134909629822e-01
2.632136505063590315e-01,1.007222207893991861e-01,1.315071262159181464e-01,6.759843672254496616e-03,5.226803236613945802e-03,2.597917624374929818e-02,1.568205654621124268e-01
2.593123762999204329e-01,2.030088039085170548e-01,1.808583229469473419e-01,-2.186461303015827667e-02,4.780930256411367735e-02,4.673318382004528794e-03,1.151728257536888123e-01
1.929248606588391257e-01,1.162243752840163846e-01,1.139884902798335847e-01,-1.076728510291014886e-02,1.741849365440068312e-02,1.122655876856362873e-02,8.772444725036621094e-02
2.338172983016577888e-01,1.210480679948602034e-01,1.220491013732067503e-01,-8.440430342819914668e-04,5.684419113081359831e-04,3.067812722223115136e-03,1.124115511775016785e-01
2.526197973164645005e-01,1.351569136344787925e-01,1.229062104206860295e-01,9.078631918993021856e-04,-7.375506197754831163e-04,2.011090271135724215e-03,1.241082176566123962e-01
2.216947128420315993e-01,1.337642294592114312e-01,1.377754447663798454e-01,-2.424392204906649501e-02,3.103348607705362985e-02,1.148668562846629979e-02,1.115505173802375793e-01
1.207132499250720414e-01,1.210149302361380463e-01,9.638450627760591916e-02,-6.958919273513095895e-03,3.504817241540161832e-02,3.903988908274989237e-03,6.689876317977905273e-02
2.185255398249556225e-01,1.369152721177829268e-01,1.258510398346048553e-01,-1.068943792955185604e-03,2.783947737836596666e-03,5.456865607360921952e-03,8.832677453756332397e-02
2.433025548339668165e-01,1.371965214817650880e-01,9.860495219016328361e-02,2.075523141180078712e-05,-1.062574663917510535e-02,4.366980527546896265e-03,1.312955766916275024e-01
2.306384504654809264e-01,1.308138341991470499e-01,1.115491646113971336e-01,-1.320860310156479799e-03,2.183923464585456851e-03,9.847293935930127255e-04,1.108224764466285706e-01
2.419143226897852161e-01,1.253540266781696944e-01,1.256059501716235705e-01,9.945066613483355064e-04,-1.537669462828879143e-03,2.136658117294294983e-03,1.165365129709243774e-01
1.951547108281571907e-01,1.610936983500662889e-01,1.175570130203630881e-01,-5.098190540962528085e-03,4.696507916165813812e-02,4.113224885432313800e-03,1.062279865145683289e-01
2.424985757328042280e-01,1.215110333414703425e-01,1.227556135850421809e-01,2.628548106467689782e-04,-1.215152456175027382e-03,1.943839998277163781e-03,1.204364076256752014e-01
2.427625261675558088e-01,1.225171308261323588e-01,1.249884109997534964e-01,5.863657155563670219e-04,-9.022558053220716429e-04,1.358124449307118904e-03,1.190668269991874695e-01
2.452170399794246225e-01,1.266490714291930719e-01,1.255207863566639992e-01,2.721623947343023743e-04,-3.553482183610184625e-05,3.292672158053674492e-04,1.191384345293045044e-01
2.247122327052863411e-01,1.304093632945323711e-01,1.156271105218193845e-01,8.629752966202741161e-04,1.428646948848480468e-03,-2.431831349523764282e-03,1.026238426566123962e-01
2.316992429132065379e-01,1.270328444906109189e-01,1.123364848459820764e-01,1.394452384428818007e-03,1.609597117513411266e-03,-8.731042840019722024e-04,1.128057911992073059e-01
2.635077692105931568e-01,1.440116013588940147e-01,1.151393629242042915e-01,-2.999996780455513041e-04,6.438706648251212245e-04,4.745743792535275438e-03,1.364995986223220825e-01
2.214200384798407639e-01,1.345159218432820658e-01,1.215815058629150791e-01,1.726073363515509551e-02,-1.629479507647010883e-02,7.177479483841119577e-03,1.033856198191642761e-01
2.919519709429699295e-01,1.640887870069667187e-01,1.297682212838816573e-01,1.360667252457148640e-04,-1.474654914641535626e-03,2.323831459696945601e-02,1.534335911273956299e-01
2.048226342801612310e-01,1.346307078292460213e-01,1.197003668770841300e-01,6.998411288608407093e-04,3.985670760197942974e-03,-1.568343991130455957e-03,7.908423244953155518e-02
2.327061171172651877e-01,1.398515821990412300e-01,1.136120433660008922e-01,6.175678650566924751e-04,1.929451417349560939e-03,5.353769071830034735e-04,1.084440425038337708e-01
2.973547696093435944e-01,1.662314425132070950e-01,1.272968431074742168e-01,7.994368253420616049e-03,1.114338951169943246e-03,1.046204696855864563e-02,1.560073196887969971e-01
2.337061390845159847e-01,1.308912962432605132e-01,1.108695177301094181e-01,2.140322643411020700e-03,2.443978868437147144e-03,-1.287967298681302235e-03,1.143107116222381592e-01
2.365850746239199220e-01,1.262602911117009508e-01,1.191719503062486918e-01,-6.774907093447167473e-04,2.205987488472215007e-05,8.141658508104897914e-05,1.140404343605041504e-01
2.530574807755886502e-01,1.443947034993357803e-01,1.106792761704985528e-01,6.893563026065428149e-04,4.510501919106768218e-03,-4.183830122536491135e-05,1.291139274835586548e-01
2.379401273488682134e-01,1.211569572690444768e-01,1.198306972250553354e-01,-9.165855908598547841e-04,1.594211931041348185e-04,1.056127365934743031e-03,1.174772158265113831e-01
2.385113240842164362e-01,1.270476601397387273e-01,1.316384478567212413e-01,1.585008962389603503e-03,9.192967717997826147e-04,-4.095102548894614426e-03,1.095166653394699097e-01
2.391952078041369445e-01,1.225247716270662368e-01,1.222329225188291540e-01,-1.812547377420499007e-04,2.676237674574199164e-04,4.689590022358659051e-05,1.168180033564567566e-01
2.390305421781220296e-01,1.218525235043890764e-01,1.233545584547462715e-01,-2.801959740391734384e-04,5.450260905553795969e-04,3.143721428257770754e-04,1.164403781294822693e-01
2.378481418641923417e-01,1.175136546381598257e-01,1.243393282140991818e-01,7.957467018079057968e-04,1.503822575937971071e-03,-1.484989989441820287e-03,1.171363070607185364e-01
2.148692863774194772e-01,1.234867716734517895e-01,1.280745291448957546e-01,1.489866563734381678e-02,1.145473383452312935e-02,-8.524504272324333679e-03,9.607349336147308350e-02
2.371529763786839051e-01,1.294759784175403550e-01,1.155002253597242623e-01,2.003965408132829529e-03,7.906456134343088594e-04,-1.692853290773364393e-03,1.153995022177696228e-01
2.407390110476657630e-01,1.246109918160895058e-01,1.235028346764073665e-01,2.600496052694452560e-07,3.185426794359343269e-04,4.271018279621782991e-04,1.166896969079971313e-01
2.379530470033409117e-01,1.222777350734550877e-01,1.222004036282803296e-01,-7.982164487447845251e-04,7.735449474040781816e-04,1.550135097181213392e-03,1.157611533999443054e-01
2.391286943309719748e-01,1.227886051297774894e-01,1.227063771269739090e-01,6.208437718396663365e-06,1.471334370141033469e-04,1.597608458698832060e-05,1.163815110921859741e-01
2.612359551912333266e-01,9.704628400055914650e-02,1.407109011870000814e-01,9.075053315720196107e-03,2.411619716911307925e-03,-6.600599562325768811e-03,1.486297100782394409e-01
2.632380114622600020e-01,8.987698717945911964e-02,1.482741884053310200e-01,2.048934889869036269e-02,-6.202798798049956666e-03,-4.054294908725698809e-03,1.573679000139236450e-01
2.685956055686583022e-01,9.293613098795595884e-02,1.433678680255006943e-01,1.267102575042030645e-02,-5.828560331402393366e-03,9.296921355819279947e-03,1.593225598335266113e-01
2.680066179501721657e-01,9.156821490585390078e-02,1.467521989991116826e-01,1.410902455882278791e-02,-3.470145746683380925e-03,-1.552846076889380540e-02,1.606111079454421997e-01
2.177643201091696290e-01,1.371965287971688152e-01,1.610712859650509921e-01,2.648286815197640684e-02,1.706118317354698250e-03,2.445117893351792405e-03,8.525451272726058960e-02
2.363056865957083863e-01,1.229367324509103854e-01,1.182680659884937924e-01,-2.599504319705893472e-04,5.361457640630124281e-04,1.769885434132952582e-03,1.158190891146659851e-01
2.349012304492230085e-01,1.173095324235143844e-01,1.213292223329654196e-01,-2.775714567978421763e-04,3.357460740259970771e-04,1.489316384910668086e-03,1.156654953956604004e-01
2.351093594836753398e-01,1.251741859096212051e-01,1.200632456248334895e-01,-1.797191049719287130e-03,2.259171317261096656e-03,2.497077049214597565e-03,1.127716451883316040e-01
2.263549957124858791e-01,1.276665751959122352e-01,1.223224659478855114e-01,-1.363170187686940996e-03,2.443967238688573261e-03,3.236693170535395823e-03,1.017363667488098145e-01
2.370819758064516281e-01,1.265725435288819756e-01,1.260725649266527248e-01,-8.410543374922193260e-04,5.664284462192950261e-04,1.944784559515430481e-03,1.108253970742225647e-01
2.346700792388819456e-01,1.192644364262992474e-01,1.277079361979700234e-01,-1.444330657483157074e-03,1.938512665779728531e-03,1.694284770656157057e-03,1.115413457155227661e-01
2.448484033860099385e-01,1.258605470766275547e-01,1.262346738482645891e-01,-5.493449032610109810e-05,3.029034633930553560e-04,3.712307552492297006e-04,1.188041716814041138e-01
2.371458424891812466e-01,1.244978498860737082e-01,1.258436822629058205e-01,-1.491018678227539872e-03,2.149890710157557980e-03,2.861187381499066991e-03,1.121823117136955261e-01
2.382955266215063539e-01,1.230500665855075726e-01,1.235894963659788515e-01,-2.802422400836668053e-04,3.871934869602941141e-04,1.477933343167906269e-03,1.150081679224967957e-01
2.424018304600710771e-01,1.253197092975086857e-01,1.244578819438920264e-01,-1.511718149908602028e-03,9.240497107788047662e-04,1.228279151607514826e-03,1.175747141242027283e-01
2.315183565154096401e-01,1.277725238663137974e-01,1.184453920600281734e-01,-1.182723128449264137e-03,1.305387819264812108e-03,3.357058232908293784e-03,1.089080423116683960e-01
2.335357932665509950e-01,1.273501083024171920e-01,1.167151537439732600e-01,-1.115698295029187966e-03,3.234969304225912882e-04,4.634011653069541100e-04,1.119038611650466919e-01
2.333051952158349263e-01,1.482721634732234450e-01,1.289449150653925180e-01,-4.814621649267921376e-03,6.727491610896127461e-03,4.959544410986433879e-03,9.760493785142898560e-02
2.377624929335233617e-01,1.290961561807613123e-01,1.184966863523148201e-01,-1.869226319461183292e-03,1.546874454414955916e-03,1.077604793059704731e-03,1.144275814294815063e-01
2.322222890850148547e-01,1.298169448036653462e-01,1.158566236539433913e-01,-1.222855440840687211e-03,3.880626175506605210e-03,3.736715555104267936e-03,1.104667782783508301e-01
2.322112583872314173e-01,1.366632440751617550e-01,1.151885289416740288e-01,-1.121102701414807001e-03,4.588704505050271443e-03,1.327326484064005876e-03,1.082343608140945435e-01
2.290689780146100696e-01,1.360228653883703287e-01,1.194133439111975115e-01,-7.157112954741649434e-04,1.821151568842735956e-03,3.985766314929357727e-03,1.026550158858299255e-01
2.279770000377585870e-01,1.276452261004935862e-01,1.139951560359071248e-01,-1.188781565316573150e-03,1.906184294411020956e-03,3.090800711758192633e-03,1.080098375678062439e-01
2.308884562332924884e-01,1.313114062168268814e-01,1.133760041630628157e-01,-2.946323963727257326e-04,3.285732519431191177e-04,1.290970298348715966e-03,1.096759140491485596e-01
2.320132526296330711e-01,1.352646529584855539e-01,1.035867173181081458e-01,-1.478902853263576803e-03,3.436153387957783037e-03,1.085259074084761856e-03,1.160779744386672974e-01
2.288471676337517913e-01,1.316325679324758247e-01,1.157158956422268958e-01,-1.390678107607942098e-03,1.489038352468543755e-03,3.005408270967852968e-03,1.062586605548858643e-01
2.439031108258939151e-01,1.243549693931862987e-01,1.271854348282515645e-01,8.454480565443683090e-04,1.754341528752352639e-03,-8.395845705700344603e-04,1.182154193520545959e-01
2.307820514998544792e-01,1.381411470124435104e-01,1.146974249358389264e-01,-5.101494265311114397e-05,5.661764878671580710e-04,2.016991618032449912e-04,1.063244268298149109e-01
2.542754590432251827e-01,1.312284159310540266e-01,1.342200464551043804e-01,1.310382267388248822e-03,1.150799653080480413e-03,-5.464247747146953882e-03,1.219840645790100098e-01
2.266874893771981259e-01,1.432861456229063968e-01,1.205112554726934376e-01,7.316804499862033162e-04,1.762203728634258778e-03,9.031286255601972878e-04,9.688811004161834717e-02
2.454120003246706982e-01,1.189148367344151636e-01,1.257232667538660809e-01,4.807283037972292714e-04,1.885151690033130465e-04,-3.071011994186778268e-03,1.233520731329917908e-01
2.321624062087664087e-01,1.398679461678689895e-01,1.174528247906507089e-01,1.559614734180470399e-04,8.097016369375657514e-04,-1.280424254437420193e-03,1.053397133946418762e-01
2.253442057799937004e-01,1.421111023044424604e-01,1.208131610030088315e-01,1.315549419371378828e-03,1.753014009956189306e-03,-2.131110962962687316e-03,9.582317620515823364e-02
2.208661418697736856e-01,1.349984410251621747e-01,1.149360752361696936e-01,7.234196859751773710e-04,2.006086575705292273e-03,-5.940739896417853794e-04,9.753549098968505859e-02
2.705737104179323227e-01,1.530926386046203569e-01,1.369010277778328621e-01,5.729564557249333841e-03,1.018420068397266239e-02,-1.321767212696478046e-02,1.299997568130493164e-01
2.219077072963551722e-01,1.313386196189155475e-01,1.074144975016367298e-01,2.127613943186429987e-03,6.855499970230214887e-03,-2.240189287290439771e-03,1.054112836718559265e-01
2.360584507644621355e-01,1.365572809365155904e-01,1.210496552102369588e-01,4.952435510502572113e-04,3.429803882020974201e-04,-2.052732358203198260e-03,1.081560254096984863e-01
2.435014536786907768e-01,1.167844369728392728e-01,1.230752947748292858e-01,1.381413172102760817e-03,1.835023069819478186e-03,-3.805550480932434927e-03,1.239309981465339661e-01
2.373666686846507279e-01,1.136385234223139251e-01,1.188477863297597303e-01,2.209559800651929133e-03,3.412938972604092659e-03,-3.774994278622355922e-03,1.215878278017044067e-01
2.296211706727200874e-01,1.282019667746462088e-01,1.144541470270598882e-01,1.022303687731783428e-03,-1.991737424069715909e-03,2.897568365014946759e-03,1.091300770640373230e-01
2.287163449152354311e-01,1.362750697874392514e-01,1.214155928731671386e-01,1.251483129480814374e-03,1.062694341605154415e-03,-3.803263171194504189e-03,1.009519845247268677e-01
2.351267213171856496e-01,1.314021977723578705e-01,1.175616308240324676e-01,1.344916956364049839e-03,-4.224999860531075549e-04,9.342386893063296758e-04,1.113307029008865356e-01
2.364946214265828683e-01,1.296328000963188620e-01,1.218008934699292972e-01,1.729133581748047732e-04,2.350609306358812536e-04,-1.514683282082512255e-03,1.110173761844635010e-01
2.355555153118678025e-01,1.219807952629998471e-01,1.325302686338145075e-01,4.000148806407768064e-03,3.582744799441396448e-03,-3.214616015805924279e-03,1.092239320278167725e-01
2.333033781254719718e-01,1.274507083239612149e-01,1.192419796751423844e-01,5.521569623551401745e-04,1.234029627500203260e-03,-3.115152673120201009e-03,1.103434711694717407e-01
2.388310145080896896e-01,1.275093830973799969e-01,1.202723133882219186e-01,1.553480736855198914e-03,-2.979654666246921439e-04,9.927037643920710690e-04,1.151563525199890137e-01
2.343321600368343249e-01,1.230083301074065827e-01,1.202133632345412928e-01,6.931405725179327687e-04,-1.143204045034649499e-03,2.227852744788033548e-03,1.128370761871337891e-01
2.373262619706341114e-01,1.305958079279074813e-01,1.218684390231815073e-01,4.502431297071883142e-04,-6.762785155278904425e-04,5.713342571111549055e-04,1.113642305135726929e-01
2.361456596126288721e-01,1.256078399083627450e-01,1.193076569247168151e-01,1.191112831563794796e-04,-2.008562531923990563e-04,1.154718780740268983e-03,1.138370484113693237e-01
2.615993837123672949e-01,1.128649377410725352e-01,1.435061689705042498e-01,4.413810328305006227e-03,-2.169492156702755017e-04,-2.184667036846598201e-03,1.362949758768081665e-01
2.394060730473372978e-01,1.273052435701007290e-01,1.357997082762060770e-01,5.154195564062939022e-03,2.944880761365910836e-03,-4.492823184428705770e-03,1.088704988360404968e-01
2.454456318773024504e-01,1.134225333987791268e-01,1.359698494845578420e-01,2.734646935739314891e-03,2.078085744518848831e-03,-1.515055679997338780e-03,1.224907711148262024e-01
2.402981029763519571e-01,1.265280935503920734e-01,1.230442707585862883e-01,6.413035594061993914e-04,1.187645837615076695e-04,-5.593623154327958657e-04,1.155608966946601868e-01
2.327586021234836489e-01,1.201682773528640891e-01,1.228929328020686718e-01,2.954502787958237738e-04,7.495622099002495833e-04,-3.008290837283457246e-03,1.113837137818336487e-01
2.320837514173412219e-01,1.162491777235721419e-01,1.299507195846456575e-01,-2.475630337351683412e-03,-1.049214939308720134e-03,-2.903673418501746990e-03,1.098419353365898132e-01
2.421002616213371317e-01,1.183488262164349436e-01,1.300291822753168458e-01,-9.471199862051829033e-05,2.866516984599557644e-03,1.759245460690491173e-03,1.184877604246139526e-01
1.704453636237694414e-01,1.010024196423467135e-01,1.515373341832204623e-02,2.463846081628100898e-02,-7.809818328499359974e-02,1.978298044221985658e-02,1.986130475997924805e-01
1.868108648060754495e-01,1.367411322753731284e-01,1.474529743514958746e-01,4.346185998160742234e-03,6.694976603321417400e-04,-2.029490536333206693e-04,4.629814997315406799e-02
2.185130358639233439e-01,1.273919912999820492e-01,1.214025415511217343e-01,7.024201696617734733e-03,-7.113103171757928153e-03,7.972555406086647908e-03,9.682548791170120239e-02
2.292857935985088691e-01,6.121497512480747472e-02,1.688246477400999757e-01,5.026263406167837122e-02,7.426528371857497000e-03,-2.842777340031962113e-02,1.786350160837173462e-01
2.432332266656228037e-01,1.115388293573278955e-01,1.415603657970999074e-01,2.364083565481591136e-03,2.908052402277761395e-04,1.014922724149098674e-04,1.196164265275001526e-01
1.593042783937730078e-01,1.399514556189810077e-01,1.401589501357730638e-01,-2.367266596924132334e-03,-8.658595693745768564e-04,-1.834143642903930714e-03,1.999280974268913269e-02
2.406247260686132927e-01,1.196244276264085971e-01,1.260343364779870634e-01,5.661093052378796467e-04,-9.357237951707687070e-04,1.385091155607065831e-03,1.179656833410263062e-01
2.070474277720863454e-01,7.070730311104052312e-02,1.101865545007243152e-01,2.475682412315924341e-02,1.392173378138033407e-02,-1.360079962231903507e-02,1.331905573606491089e-01
3.496727860775349361e-01,5.919086135460183140e-02,1.507987813809693878e-01,1.329739740186777243e-02,2.336964091514450934e-02,3.440619956849322314e-02,2.681073546409606934e-01
3.005356213939129328e-01,6.171100932774978287e-02,1.928480257131437725e-01,3.362845565169251833e-03,-2.339762751920966555e-02,2.941770192842122628e-02,2.172276228666305542e-01
2.616202489015703181e-01,1.446486171743658622e-01,1.122207387142257068e-01,4.945852272873989394e-04,6.985055637810870901e-05,-5.836703955513912294e-03,1.364918351173400879e-01
2.379997504753280091e-01,1.068463989061548963e-01,7.351288601833011471e-03,4.087545705897341168e-03,-2.369784558199633864e-02,2.640063295215086883e-02,2.097032815217971802e-01
2.406380448355815438e-01,1.086216736610930156e-01,1.339664250938938928e-01,-3.850927817240392629e-03,2.049629579871593311e-03,6.436821609710396876e-04,1.215857341885566711e-01
2.419636954109893323e-01,1.229924441035732396e-01,1.246124592460367414e-01,-4.305860280531415159e-04,1.376153396950856702e-03,1.304550338688945836e-03,1.182175576686859131e-01
2.562782169812058419e-01,1.392714638615825951e-01,1.179440389861506067e-01,4.918467510742639874e-05,6.901970598441343736e-05,-2.241738457058480103e-03,1.290580928325653076e-01
2.196450016930739380e-01,1.378887087647427123e-01,1.283950222546032249e-01,1.140157262540401678e-03,-2.504457498687756752e-03,4.809402461119985893e-03,8.742137998342514038e-02
2.118050473331805350e-01,2.040652985109107920e-01,2.193700615759323069e-01,-7.362928004559111950e-02,-2.105770339338673691e-02,-9.425934989669848205e-03,1.342993825674057007e-01
4.849376947857473447e-02,1.027650366529585524e-01,9.717502176468584274e-02,-2.656221145714563261e-02,3.028195791793466402e-02,6.233787749472557982e-03,8.750694990158081055e-02
3.118512032222816033e-01,1.527432993378564641e-01,2.385029774902979460e-01,9.213440852746644649e-02,-3.343174285984697267e-03,1.016060636713035214e-03,2.110162973403930664e-01
2.506450540799980975e-01,1.124054982089692373e-01,1.319384568503404742e-01,-3.807582855660327642e-03,3.462051983402273953e-03,6.401880187617784573e-03,1.303606033325195312e-01
2.275274872799483150e-01,1.221995571459517788e-01,1.563241728325073243e-01,2.530865471863640026e-02,-1.129452637636867976e-03,-3.345657759424437976e-03,1.030688062310218811e-01
2.442007518141960931e-01,7.577277801125874290e-02,1.373631082929114566e-01,3.317180344057515939e-02,-2.413532629079077896e-02,3.925448066177705808e-02,1.773674339056015015e-01
1.928202359519296805e-01,1.905135614965776103e-01,1.828951314795896621e-01,1.876692173759172966e-02,1.932777356558935261e-02,-3.317166099421777099e-03,4.786675050854682922e-02
3.288130011223854843e-01,1.115755976986405884e-01,2.600604112760090958e-01,1.615933733758520910e-02,1.315029574455827376e-02,-1.500667531859435459e-02,1.973857581615447998e-01
1.545712225558709962e-01,1.398542980169548422e-01,1.381045926755044007e-01,-2.200169384610794684e-03,1.506352312467717147e-03,4.462058479146117072e-04,1.635012030601501465e-02
3.138720744241566551e-01,2.091089820702757285e-01,2.136434557922231581e-01,-5.998993107778508027e-02,4.922176859569386137e-02,3.298370754734736982e-02,1.784637719392776489e-01
2.460057613137377475e-01,1.156099866090867095e-01,1.372708066995098342e-01,-4.673075300588285658e-03,2.103734623023776566e-03,1.731391211789460845e-03,1.213900893926620483e-01
2.443436204638201881e-01,1.115764871507178152e-01,1.413001252645388894e-01,-2.906730220169476131e-03,-9.036730809011337935e-04,2.721154197425921031e-04,1.207986101508140564e-01
2.363500077049301429e-01,1.186625777281957034e-01,1.234662747131999166e-01,-9.406839221239702729e-04,7.888701576830334065e-04,6.198451932858835538e-04,1.153852045536041260e-01
2.210935352133538701e-01,5.530749545439633819e-02,1.233324397246423065e-01,4.676494255484881651e-02,2.073016136110407415e-02,-2.423661635246270735e-02,1.744911372661590576e-01
2.752282435346918854e-01,1.162091747948621329e-01,2.205410296997968311e-01,5.012722090185701279e-02,-8.622094293868710901e-03,1.024281591181855702e-02,1.663052290678024292e-01
2.552793745248629342e-01,1.393114805178875537e-01,1.146061341256627147e-01,1.285763197234731032e-03,1.275712108224651056e-03,-2.126938915680691954e-03,1.301819831132888794e-01
2.476274036133271350e-01,1.271566634638606197e-01,1.210276731240475523e-01,2.007477547617869153e-03,3.289748072104875781e-03,-6.962757360927520484e-03,1.244151294231414795e-01
2.469859333081787511e-01,1.284766353791633453e-01,1.274518358193668655e-01,-7.813253617897597493e-04,-3.632135131722886057e-04,-1.855663750280727321e-03,1.190777495503425598e-01
2.450514757380274078e-01,2.063734871568566054e-01,2.004676022199875784e-01,-7.338351498666288719e-02,5.590965405846213404e-02,2.099447807610684349e-02,1.691587567329406738e-01
2.566194319351549624e-01,1.085666875144548904e-01,1.446349012047407345e-01,-2.287375554298731826e-03,3.279740853101777327e-04,-6.017403790630107118e-04,1.337820589542388916e-01
2.397586858580863511e-01,1.235615245188734501e-01,1.154655905480712202e-01,2.594962164053846599e-03,2.025130399295999896e-03,-2.724987591551130892e-03,1.206765547394752502e-01
2.472038676008883051e-01,1.279661822181188680e-01,1.291177675966728722e-01,-6.227024884069290922e-05,1.988574350713491023e-04,-3.823091847835096758e-04,1.186684817075729370e-01
1.509778514260795568e-01,1.345765262325050171e-01,1.373038471048604325e-01,-8.439635623582137985e-04,-1.590263722792328773e-03,-7.110854125265020798e-04,1.558687351644039154e-02
2.461947708369639498e-01,1.285399422550406734e-01,1.281979891184132359e-01,8.839874657758948009e-06,3.982895001235676487e-05,-4.096694783421427348e-04,1.178283318877220154e-01
2.311554307204859438e-01,1.139737877553981399e-01,1.325448248592118461e-01,-7.458978148856235287e-04,1.195357733078183850e-03,7.326337255768325613e-04,1.091228798031806946e-01
2.560711993811660703e-01,1.028019230421723385e-01,1.427967804319601741e-01,1.291860429648676763e-02,-1.246170239279208430e-03,-2.232128465215532220e-03,1.395756155252456665e-01
2.721085472176953957e-01,1.542573072942187984e-01,1.054754339486209808e-01,6.762197386003053587e-05,2.588171829619407682e-03,-1.320654329887020577e-02,1.502029895782470703e-01
7.420381670192577328e-02,1.095957586623803465e-01,1.131437661470828526e-01,-4.878682701780721193e-02,1.729397669508116187e-02,8.291422027552763571e-03,9.815651178359985352e-02
2.477161413606927542e-01,1.295811369349449682e-01,1.291694668813094526e-01,3.479565100323126219e-04,3.064295551946081859e-05,-4.103358987612006699e-04,1.183450594544410706e-01
2.464548142797828301e-01,1.273719072534700014e-01,1.275328815178349007e-01,1.550395982554839613e-04,4.269113336216181576e-04,-6.271051815451036916e-04,1.190100610256195068e-01
2.492364183211858153e-01,1.270572490513761921e-01,1.308743032100444514e-01,-2.233370538204525906e-04,5.868364564989946150e-04,-1.188726761589935840e-03,1.203385889530181885e-01
2.465451441762592233e-01,1.283413048641780518e-01,1.274514498055419887e-01,-2.963927501617494276e-04,-4.430982200090893652e-06,-6.079431902214749682e-04,1.186570525169372559e-01
2.287191046050598975e-01,1.111627866577194479e-01,1.837777802735293398e-01,6.800113292084872252e-02,-1.041808284925216377e-02,-2.329572358641054941e-02,1.624260395765304565e-01
2.673118798058307100e-01,1.232215725280264712e-01,1.642571290660593264e-01,-4.494132371286833905e-02,5.668906720668832888e-02,3.299351839905129841e-02,1.884116381406784058e-01
2.348664593209540130e-01,1.288986569415031258e-01,1.430946256886293511e-01,7.948945932808877679e-03,-4.298741401291508724e-03,5.589898425612643482e-03,1.013169288635253906e-01
9.493164639280581019e-02,7.975629601604938834e-02,1.020198499308210827e-01,-4.797404850820519845e-02,-3.397139847313342120e-02,-1.341295308212364125e-02,1.062756702303886414e-01
2.617423905334573808e-01,1.429142965641608531e-01,1.836280754663976444e-01,3.790999474105902212e-02,9.682137999199673037e-03,-9.136368737014097935e-03,1.256301701068878174e-01
1.388031597256109140e-01,9.742951231704438664e-02,1.274824524029967432e-01,3.743462117808642187e-02,2.692759332369159403e-03,-2.951368007941997541e-03,7.498996704816818237e-02
2.450321584608947112e-01,1.279893979242196500e-01,1.229205123135647393e-01,-1.170949774123357552e-03,-4.495584036002044125e-05,-7.308477674687711154e-04,1.196816563606262207e-01
1.580573569731250627e-01,1.145926454333824479e-01,1.200770723279277752e-01,-4.984814468989498537e-02,-5.644263571069565999e-02,-2.379768675738525713e-02,1.427994966506958008e-01
2.437050798719595235e-01,1.227447901692766685e-01,1.276873173593796873e-01,-6.239997162195927210e-04,-1.318831352686333823e-03,-9.797730962236956501e-04,1.186053827404975891e-01
2.473041124299348303e-01,1.230870586692827950e-01,1.230968451636805239e-01,-6.153331622788243017e-05,5.853457872753184237e-04,-3.957291163749266684e-03,1.244053095579147339e-01
3.127802920825314414e-01,1.668134081668142255e-01,1.619125629785825859e-01,-9.328293924953550906e-03,-8.825740642725590085e-03,-2.637462069997611666e-02,1.569308936595916748e-01
2.578966637005661311e-01,5.969533246360050893e-02,1.041655368781938262e-01,2.297482909968980719e-02,1.591038734082115061e-02,-4.488045005884097605e-02,2.020718306303024292e-01
3.109279126510146041e-01,1.871668953807244240e-01,9.726485387424989304e-02,4.248327864303828860e-02,-6.652714675400135669e-02,1.894094328730007090e-02,2.330104857683181763e-01
2.378400583722332651e-01,1.645434011977543187e-01,2.032614620855001386e-01,4.146436651693789083e-02,-2.969908167542723021e-03,2.407250866502362585e-03,9.610052406787872314e-02
1.715886205568154799e-01,6.471355476992622646e-02,2.952189439326065312e-02,5.199835437698770851e-02,-6.588731628303733101e-02,5.388707034841495186e-02,2.151004225015640259e-01
2.361413143861207375e-01,1.331725207902800245e-01,1.127923146364541857e-01,-4.566099456917149628e-03,-5.893594463159474578e-03,-3.232675271894518143e-03,1.153886988759040833e-01
2.420554518539629607e-01,1.100627380465134947e-01,1.392059568240533451e-01,3.041851676613790099e-03,-1.477391581446047333e-03,4.751965920490600548e-04,1.202484741806983948e-01
2.414342924929805401e-01,1.221909930868196603e-01,1.243779595238410918e-01,6.050606003372509777e-04,-1.018901873027804137e-03,1.396919962492630674e-03,1.182075813412666321e-01
2.362852986879553918e-01,1.279614154184651464e-01,1.215378907598485825e-01,1.024861302414588555e-03,-1.306785533738884231e-03,2.728005887923450404e-03,1.118112131953239441e-01
2.877306087265816270e-01,9.695786804048391050e-02,1.660228116444540936e-01,2.604299609930935469e-02,7.264319425174031383e-03,-6.555776275785672215e-03,1.740989834070205688e-01
1.490415992794187905e-01,1.497713973426193779e-01,1.462357778304795297e-01,-6.130946212352614624e-03,2.452593226493594847e-02,3.930695757609982237e-03,4.443122446537017822e-02
1.923048548676727365e-01,5.396541854781675140e-02,1.282234700844184783e-01,6.503131200750131291e-02,4.109923823332092309e-03,-3.883966408505730526e-03,1.648101508617401123e-01
2.730635427187202424e-01,1.072549787821640566e-01,1.329934347099979430e-01,2.072764661643568956e-02,-6.857414433089473182e-03,2.395625807007092586e-02,1.644353270530700684e-01
4.072182167338561087e-01,1.102127623384178412e-01,2.394686391270853532e-01,-8.461648788920268088e-03,1.075358790859621497e-03,2.586676709925827405e-02,2.622120380401611328e-01
2.490304735673932734e-01,1.285509656025022318e-01,1.319910932466485942e-01,-2.248211595751568263e-03,1.843665286366794401e-03,3.849313766126253190e-03,1.190902739763259888e-01
2.115077394499315644e-01,1.023040142833784305e-01,1.293949535945520812e-01,9.439823165464947263e-03,-2.196207616299959025e-04,1.114786767977855994e-03,9.986062347888946533e-02
2.732972494523054907e-01,8.342292175296407708e-02,1.476885413729390195e-01,-5.690310188689908823e-03,1.203060523647762545e-02,9.176129901156153054e-03,1.695992052555084229e-01
3.918264279021850816e-01,1.228662929358611544e-01,2.404910979140194582e-01,-2.659787748998337226e-02,-2.654347165745012376e-03,2.457546940437181290e-02,2.418555468320846558e-01
2.448943027768651359e-01,1.257958373429723109e-01,1.239460138350230722e-01,-1.157598784815566835e-03,5.603897201784394577e-04,1.413739155671559205e-03,1.200797036290168762e-01
4.475837404407604359e-01,1.757578498265851275e-01,2.969417648230058826e-01,3.252480801376438774e-02,-3.672143557661256257e-03,1.430183506088283062e-02,2.438474893569946289e-01
1.655379926485120723e-01,1.478319823809806366e-01,1.492745889397889825e-01,-1.890370608796369594e-03,-2.604024319911749940e-05,3.167781701427516486e-04,1.735121570527553558e-02
2.439724619332764299e-01,1.367109242443682315e-01,1.161352815329167176e-01,1.503543948462887419e-03,-2.184319234650012199e-03,1.031881562993660706e-03,1.189943701028823853e-01
3.792727352659307494e-01,1.029279073520057708e-01,2.062060123791217281e-01,3.429544250367054514e-02,-1.984775944589276669e-02,6.142836307794115325e-04,2.514038980007171631e-01
2.563644523584217572e-01,1.211772410018364665e-01,1.011554204911997989e-01,-4.856138757235333760e-03,-5.797932901537602816e-04,1.514664774705957485e-02,1.488057971000671387e-01
2.426368696774147127e-01,1.148556614725858849e-01,1.358776384587860320e-01,2.584943045406962181e-03,-2.045610631080649333e-03,1.129919429472151047e-03,1.188283488154411316e-01
4.246276627598691844e-01,1.617091922538107795e-01,2.819539917095031378e-01,3.699198993147492093e-02,-1.003057328475734540e-02,1.423398019336990367e-02,2.387157976627349854e-01
2.550911164055150726e-01,1.314296442553156141e-01,1.353889567825002638e-01,-2.281659028585990030e-03,8.782685653641979229e-04,4.687620946259904615e-03,1.220740526914596558e-01
2.409663998130071039e-01,1.100481755111615695e-01,1.175432758561245628e-01,-5.888923590523426066e-03,4.487287382890874782e-03,9.157716031926005015e-03,1.289594918489456177e-01
2.563909385831408816e-01,1.813690709128761014e-02,1.217652300947345417e-01,1.652273477201580271e-02,8.334513193440223899e-04,1.601797404591675036e-02,2.107243686914443970e-01
2.502015513274362113e-01,1.458339187615855792e-01,1.170603947803030842e-01,-2.504843724539704795e-04,-1.261361930632753231e-02,-6.155557866635457710e-03,1.237526312470436096e-01
2.654918924960253390e-01,1.829714400504223737e-01,1.354594337155266559e-01,6.911365504819502736e-02,-7.650672156660427714e-02,2.699638347028889343e-02,2.169425487518310547e-01
2.144255300691459420e-01,1.087398790481805266e-01,1.176501318852661016e-01,-6.423684589455707153e-03,-3.362677894943808844e-03,-7.842857660654284704e-03,1.031959727406501770e-01
2.574042791130000118e-01,1.099509971302544964e-01,1.447262696773182200e-01,2.815242406670284171e-03,-4.183983844679881004e-04,9.495934112630951803e-04,1.336078941822052002e-01
2.431162801043792454e-01,1.397199520094163649e-01,1.092613085041190257e-01,-5.642465853161383492e-04,-3.519052642663881257e-03,-4.429690301216536864e-04,1.216821148991584778e-01
2.323016066052323025e-01,1.365662596843703891e-01,1.144645849555424588e-01,5.149519306104323934e-04,-7.229427344369144604e-04,-5.548395756088086691e-04,1.085031777620315552e-01
1.321667508396804913e-01,1.256681199131733928e-01,1.139205936048425238e-01,4.452404004633105095e-02,-5.865394089030161878e-02,1.162439296215405683e-02,1.301152706146240234e-01
2.275597141877795382e-01,1.323799367381246483e-01,1.090268893116992655e-01,1.388816459010054107e-03,-2.148794052084339757e-03,4.654186763886509755e-04,1.088465899229049683e-01
4.104201223356253592e-01,2.314176821122699290e-01,1.324805035186621405e-01,1.109041364344063273e-02,-6.191042708133474501e-03,4.973668382601546811e-02,2.597029507160186768e-01
2.224246517215791585e-01,1.201999641647911038e-01,1.270954320320364095e-01,3.258146559787604250e-03,-9.270897518673936214e-04,5.550836379456951936e-03,9.959622472524642944e-02
3.212320170250037576e-01,1.401890891358334446e-01,2.052928187637023116e-01,1.465583022240850818e-02,9.820724631524942877e-04,1.861179397146558827e-03,1.608916819095611572e-01
2.087725648104259701e-01,-9.053837894031080413e-04,1.061135139995615234e-01,5.137776518421049987e-02,-3.642687593266566437e-03,1.068777703340927088e-02,2.031745612621307373e-01
3.218871325180162613e-01,1.282057729048566852e-01,1.945010025138837750e-01,3.145285960148503073e-03,-1.421677200816761754e-03,1.017642018160098277e-02,1.715045124292373657e-01
2.681821573707858231e-01,1.485665631933722475e-01,1.939032378994522965e-01,3.807520532616226472e-02,3.192958781689815822e-03,-2.078876224803028524e-03,1.238266751170158386e-01
4.044270380434819012e-01,2.502795909697009824e-01,1.275459863085872669e-01,1.067372934021844876e-02,-2.457774438121210561e-02,2.720502121468219153e-02,2.492355704307556152e-01
2.264495345144760807e-01,1.119864694110104808e-01,1.270303155747484480e-01,3.093684509361882291e-03,-7.674099153100110912e-04,3.275503503873483224e-03,1.080222725868225098e-01
2.433310012193645178e-01,1.369914422688985889e-01,1.149042735369128210e-01,-1.641794703411125159e-03,-2.129754269441140168e-03,-1.144586907396525277e-03,1.190391033887863159e-01
2.608874943632796817e-01,8.751254613539342919e-02,1.579556743278711928e-01,1.056757200657278649e-02,1.675047263043526885e-03,1.038373863889093321e-02,1.532153338193893433e-01
2.113900291672411169e-01,1.649631232883531917e-01,1.788881280008425001e-01,-2.726317054330766251e-02,-2.205615066863885615e-02,-8.038676904960306152e-03,7.473949342966079712e-02
2.468009089758655683e-01,1.356336636551750963e-01,1.206273238947281612e-01,3.132630268563220671e-03,-5.004207908195997673e-03,5.176159712139288133e-03,1.201520040631294250e-01
2.613548238921908906e-01,1.368200635144484201e-01,1.361932232255047281e-01,9.771415523093568336e-04,3.468699391214866926e-03,-1.098621361491991001e-02,1.264452934265136719e-01
1.503480739717255044e-01,1.080047771008922630e-01,1.060439883327654598e-01,-2.036676916569396534e-02,-2.337674635099268663e-02,-9.387031021174524481e-03,7.090844213962554932e-02
3.253488302140751243e-01,1.045861046374120112e-01,1.701103774442405681e-01,-5.991673705779876347e-02,-3.322576138269711654e-02,-2.061599329578317485e-02,2.322095036506652832e-01
2.273182104512502799e-01,1.090845145354136236e-01,1.328491521248147955e-01,2.965094183045458714e-03,-9.576572540052108494e-04,4.055526973176677968e-04,1.084610745310783386e-01
2.271118339636256089e-01,1.112836229792346643e-01,1.328437364186442482e-01,-3.660816301742417407e-03,-1.321873277000416846e-03,-9.657795439393601850e-04,1.069204807281494141e-01
1.822299863285208321e-01,1.289312291523611043e-01,1.399213145390334201e-01,-4.637272302512405325e-03,-5.659655468974911403e-04,-3.015410247274341246e-03,4.968433827161788940e-02
1.877023391048620871e-01,1.354790034812027311e-01,1.486335125473907670e-01,-4.420183413340464558e-03,1.680044972753899732e-04,-1.130391674797584902e-03,4.770616069436073303e-02
2.518740578436751143e-01,1.106039666772164476e-01,1.401772260581982121e-01,-2.603617645799495822e-03,3.257418652683817788e-03,2.681483671139089746e-03,1.293357610702514648e-01
2.032320464152276296e-01,1.183419498123813030e-01,1.204467492236796500e-01,-6.148984024797196982e-03,-5.983221637501246609e-03,-7.009246904822156662e-03,8.602498471736907959e-02
2.343151127147075075e-01,2.152451845859419122e-01,1.983224124938589850e-01,-5.610395284352704542e-02,-5.232517032972120591e-02,-1.909655736107467375e-02,1.404404640197753906e-01
1.929547810462463320e-01,1.271967617039966025e-01,1.288663783200603152e-01,-2.510337757150489513e-02,-1.907702960236104875e-02,-8.293299986932973350e-03,8.605688810348510742e-02
2.421385042389343212e-01,1.221311923743149813e-01,1.236385214368702634e-01,7.592966041831655365e-04,1.676285366404821429e-03,-1.195967672567647012e-03,1.193213611841201782e-01
2.880057915405240809e-01,1.759684573444916522e-01,1.626817090405209831e-01,-1.662277309846597884e-02,-2.338776785576109074e-02,-1.887001721510571384e-02,1.332503557205200195e-01
2.793781778505884938e-01,1.501923598053318265e-01,9.305009871963469681e-02,5.831886492645646167e-03,2.489863582565901914e-02,-4.792518076798986393e-03,1.713678687810897827e-01
1.507308556204517425e-01,1.018613463873415670e-01,1.215931251639742749e-01,-3.202032828104175305e-02,-5.759163882919464406e-03,-3.282683166934404016e-03,7.085920125246047974e-02
2.572508086157536122e-01,1.163031905438662583e-01,1.423084914562345038e-01,-1.647491556820598153e-03,-2.511149671549720193e-03,-1.366646713580358004e-03,1.300376355648040771e-01
4.372153414753569001e-01,1.983157469848857435e-01,2.055320225080407570e-01,1.147799666571481907e-02,9.031353435429446616e-03,-7.113422375693223554e-02,2.668731808662414551e-01
2.424915847731284879e-01,1.374368534223271432e-01,1.096088976949053662e-01,-2.438878549739895759e-03,-3.025133542920591459e-03,-2.268371499952465641e-03,1.216350495815277100e-01
2.554535388247349270e-01,1.494546646482540486e-01,1.652103218474574031e-01,-9.649758243650187473e-02,-4.590784678158987830e-02,-1.680899681918346031e-02,2.119421809911727905e-01
2.516371131574435260e-01,1.418655753544979525e-01,1.089674948009064503e-01,-6.761265909693483112e-04,4.759524184468706155e-03,2.281564273068548870e-04,1.296643167734146118e-01
2.443913143195667603e-01,2.349723597154833865e-01,2.010117114370721658e-01,3.590949038472204813e-02,-7.474285692474884335e-02,1.748582714680187514e-02,1.520103216171264648e-01
2.172494954735754435e-01,1.365699628572627777e-01,1.425006980990107808e-01,-1.229496533854617171e-02,-1.119373514305533300e-02,-5.200543333093151331e-03,8.352488279342651367e-02
1.883777407879982102e-01,2.078243536742328257e-01,2.315600178296843281e-01,-6.374375035183441063e-02,2.279188013646015615e-02,4.595196594480422531e-03,1.233478188514709473e-01
2.091696850117930051e-01,8.868544491116978068e-02,1.205401219935908069e-01,-1.709638896034988351e-02,-2.677528327592953398e-03,-1.994120621631398967e-03,1.122652366757392883e-01
2.503187277251435749e-01,1.340914105750449226e-01,1.224993403355753574e-01,1.867722610342200220e-03,1.924281073871076265e-03,-1.335222138714668933e-03,1.225455105304718018e-01
2.628691317122185955e-01,9.543992489298104565e-02,1.439986147732199295e-01,3.167132504354324557e-02,6.406298250539356996e-03,-1.178788899765196088e-02,1.606535017490386963e-01
2.352632573180410691e-01,1.156055631817131113e-01,1.312033553417301934e-01,-2.180595259746260541e-03,-2.266674936286338597e-03,-2.348147447651589056e-03,1.128763854503631592e-01
2.210395318013393118e-01,1.294088326038629333e-01,1.375794842015507502e-01,-2.898031746664989517e-03,5.662305544987512006e-04,4.577622008473546458e-03,8.833619952201843262e-02
1.599329204692396256e-01,1.437785705040430795e-01,1.415705860226546264e-01,9.012381928695749724e-04,1.352605777067854070e-03,-2.419328584541530734e-05,1.759073138236999512e-02
1.732514457670468466e-01,1.345827391899332703e-01,1.249011084859364407e-01,1.275735298845738150e-03,4.161450138653228353e-03,-1.638504940780184053e-03,4.503630474209785461e-02
2.588333597976423261e-01,1.502039250294938677e-01,1.126240953032374981e-01,-1.594574699571888561e-03,4.804065384016048719e-03,-4.731760025278759232e-04,1.318044364452362061e-01
2.514227291923726848e-01,2.164082451934516982e-01,2.290404236372288183e-01,-7.649052616341521504e-02,4.877047367685925089e-02,1.641337292494730177e-02,1.626024395227432251e-01
1.749070839507166908e-01,1.745415701926479324e-01,1.787019228403385063e-01,-2.195095486214009017e-02,3.518352773240972751e-03,-5.901416602042762038e-04,3.872513398528099060e-02
2.260084512497246845e-01,1.371647125676137835e-01,1.451679780782020313e-01,-9.495350311937980278e-03,6.845888873582359722e-03,6.426778822987553284e-03,8.821120113134384155e-02
2.650301000828578779e-01,1.536789966755489900e-01,1.154643444156554372e-01,1.494515468726920855e-03,-7.193146053468759023e-04,-1.883986104956679019e-03,1.346609592437744141e-01
3.703438682770899826e-01,1.660864991728669138e-01,2.164471070141683606e-01,-4.703926434557012537e-02,-2.690238985971761879e-02,-5.093762791823410602e-02,2.248643040657043457e-01
2.490955695743490850e-01,1.400138289815478776e-01,1.068071484945045391e-01,-3.610139532952446120e-03,-3.548312747723952280e-03,-2.505391738888474752e-03,1.293037235736846924e-01
2.720841812428513862e-01,1.561615986885087348e-01,1.200872978756889475e-01,-1.300074367948989441e-03,5.848463027733234905e-03,-1.434561998046363866e-03,1.379676908254623413e-01
2.975516871049074807e-01,1.630299666940671077e-01,1.136417343417377851e-01,6.241370036843326558e-04,-6.952484136643143943e-03,4.938649516983592037e-03,1.655247211456298828e-01
2.848882756388795290e-01,1.595784387984668651e-01,8.921543965323716630e-02,-2.266438849582846742e-03,-5.450843069724812216e-03,-5.416004682456227251e-03,1.722301542758941650e-01
2.319531228852949045e-01,1.087148616297017589e-01,1.373291688828090218e-01,-4.173574356462857703e-03,-3.685356510445136229e-04,-8.707038924170431649e-04,1.119598522782325745e-01
1.423127179540471243e-01,1.996350171067031720e-01,2.022154248039406965e-01,-2.371395652354940653e-02,-1.558087119901646091e-02,2.688825607621392159e-03,7.666455954313278198e-02
1.780730471031801154e-01,1.365828142087981145e-01,1.289594408043037432e-01,1.527227701789506099e-04,-2.998691170204791177e-03,3.433465598109208556e-03,4.645711183547973633e-02
2.515594207785686320e-01,1.392307964701319511e-01,8.569350891803877157e-02,2.190973259521252284e-03,1.113076306829481957e-02,-4.530110612976633597e-04,1.479338705539703369e-01
3.038114160882965931e-01,9.816807267276168869e-02,1.600504070945061308e-01,-5.353925821121306196e-03,-1.989204735434694918e-04,-1.157458009163419253e-03,1.829837411642074585e-01
1.831663885544786707e-01,1.303659080448544005e-01,1.378930249468516001e-01,3.297913542349968728e-03,-1.107984602733816642e-03,2.526970582017743806e-03,5.002580583095550537e-02
2.694265339085891720e-01,1.208522997477858019e-01,1.554795415799027081e-01,2.477232493428240326e-03,8.970345255128910197e-04,-3.314898318304566015e-03,1.348422169685363770e-01
1.705060036969631154e-01,1.458808185368700716e-01,1.464106954558273832e-01,9.150243805450639523e-04,1.065413576973713462e-03,-1.203920639182967005e-03,2.457432821393013000e-02
1.887040291222414345e-01,1.165293079700389367e-01,1.258466030391006962e-01,-9.489300581190183645e-03,4.383865703176223656e-03,7.592453816550777390e-03,7.158394157886505127e-02
2.056660408482251512e-01,1.245742080692944648e-01,1.391690025906731076e-01,-2.011120472909110404e-02,2.375963157030576076e-03,8.380765013750273579e-03,8.394286036491394043e-02
2.438470419137231393e-01,1.393312151007959909e-01,1.165565942111185804e-01,1.735251157849330332e-03,-2.073070925613083350e-03,1.343889485836782718e-03,1.176855713129043579e-01
1.900081247679389906e-01,1.400025131585179161e-01,1.514726203786500025e-01,-3.772676913108608671e-03,5.184928900604028092e-03,-2.365265203203863100e-03,4.689016938209533691e-02
1.729134191015418431e-01,1.551482552235232959e-01,1.527833754651544973e-01,2.494746882671267183e-03,5.845425507674632815e-03,4.595603861763529105e-04,2.202312462031841278e-02
2.677836328640886832e-01,1.231314550389629586e-01,5.527795365899856872e-02,-5.164154823870516740e-03,-8.623934468282721394e-03,-4.022729141675095849e-02,2.012494355440139771e-01
2.034540785391466822e-01,1.285066198330939435e-01,1.061135240429467164e-01,6.953099722612002265e-04,6.544192369039811621e-03,-1.588252362350451577e-03,8.907511085271835327e-02
2.120624026090115188e-01,1.457745069895386991e-01,1.292484445639447421e-01,1.546697935097568477e-03,3.528330400827553101e-03,-4.048413511221055777e-03,7.652690261602401733e-02
2.302248583423228134e-01,1.126675975189082857e-01,1.345036813967723510e-01,-1.535373659204373195e-03,-4.434087056344182542e-04,-1.008798980955166692e-03,1.083524301648139954e-01
2.544398424657864921e-01,1.063555381552293982e-01,1.452910778798189029e-01,-1.504261955281579307e-05,-1.484107522778973457e-03,-8.646649079390519724e-04,1.329964101314544678e-01
2.480779209673205643e-01,2.206781776846500898e-01,1.967216772304156702e-01,-4.709252960807910199e-02,6.945919400036199010e-02,1.764495167508361995e-02,1.550546735525131226e-01
2.383230184791218786e-01,1.341292371909303949e-01,1.022551498961710437e-01,6.285209333767198059e-04,4.197548049743896233e-03,-2.235123327746629796e-04,1.234810799360275269e-01
2.712401744892546929e-01,1.200241484154759425e-01,1.568500401628266372e-01,-4.324567139785738187e-03,4.259575160341372703e-04,-1.408318420450989329e-03,1.368077844381332397e-01
1.759199594015553592e-01,1.188335423268097740e-01,1.054209566759394950e-01,-2.823844788135994668e-03,1.070671892522810295e-02,5.911013729504021978e-03,6.838915497064590454e-02
3.077620249247989825e-01,1.386190231650002991e-01,1.733237935590953849e-01,1.032289807272082551e-03,-2.553900476197335911e-03,-2.001919071193304991e-02,1.586467027664184570e-01
2.473085539616301509e-01,7.852713686857365483e-02,1.279556383274126075e-01,-6.744896359784523579e-03,-5.519425236879645568e-04,-6.750447862187175518e-03,1.512012928724288940e-01
2.341264925274298969e-01,1.184836669219103550e-01,1.398281299182954629e-01,-4.795092600839297951e-04,-4.144672708728117170e-04,-8.115384840635183217e-04,1.066006347537040710e-01
4.259388939987244216e-01,2.641993550213422859e-01,1.838682613166612301e-01,-3.031811372111609462e-02,6.663714084672348048e-02,2.855516371092439373e-02,2.532405257225036621e-01
1.180519774279984724e-01,1.730954656301134376e-01,1.349985411437932825e-01,-9.298878122617856845e-03,7.162849283894615060e-02,-1.021528767275083245e-02,1.354568600654602051e-01
2.660769854862267136e-01,1.480338620623972423e-01,1.123609731580574866e-01,-3.048656211953634614e-04,2.411029148560694425e-03,5.363057640787735007e-04,1.394139677286148071e-01
2.537768696824264092e-01,1.531551582431671110e-01,8.256834775740370946e-02,1.169045698905201575e-03,1.426754479911015484e-02,-5.659708457014299941e-03,1.513957679271697998e-01
2.376865442637099424e-01,1.144349750003881422e-01,1.340599412472710250e-01,1.535078510490886375e-03,1.988690155999266011e-03,-6.428917177266777134e-04,1.147930920124053955e-01
2.677271039238475758e-01,4.965562332678663537e-02,1.465136288669352804e-01,-3.550105720606287762e-02,9.245242507631869569e-03,1.733723721877613450e-02,2.018757313489913940e-01
2.458198388812018464e-01,1.269247173304628440e-01,1.273686227571616258e-01,-9.071529724111724625e-05,4.333705235728907510e-04,5.259296865978378959e-04,1.186797618865966797e-01
2.391724108460947518e-01,1.191942161748817397e-01,1.203273095601581910e-01,-1.598572430729160599e-03,1.259137667404054998e-03,3.050868312598372517e-03,1.195844933390617371e-01
2.446488837704226260e-01,1.243442941035108606e-01,1.184958595788061231e-01,5.061953657395312995e-04,-4.169204014601431640e-04,3.157876522040166736e-03,1.234593018889427185e-01
2.315441233347572680e-01,1.148786196382836494e-01,1.358960154814121968e-01,-4.971476818113608172e-04,-3.908127781857639134e-04,7.407110265797831234e-05,1.077115684747695923e-01
3.855205672036216558e-01,1.317091889975933183e-01,1.761023479670018599e-01,3.545624642751499245e-02,-2.630761276013686770e-02,6.926306226715331360e-02,2.745237648487091064e-01
2.334048614119087761e-01,1.053239434175418099e-01,1.122028879767446030e-01,6.414629663153652468e-03,-7.294486053829199110e-03,1.004140224807859895e-02,1.271083801984786987e-01
2.559903300538149962e-01,1.099764423817462533e-01,1.398612851653528166e-01,-8.083597323112595148e-04,-1.224007354093412841e-03,2.145541056661556898e-03,1.336780488491058350e-01
2.558027377910948585e-01,1.411989256406909476e-01,1.072718435327476294e-01,-2.095477863651537542e-03,-2.747464796690518053e-03,1.323689980784023947e-03,1.349604725837707520e-01
2.621653304338594781e-01,9.345113346581526703e-02,1.339446000905666345e-01,2.428156593193263671e-02,-1.499393146182359700e-02,2.714400063076647870e-02,1.671107560396194458e-01
2.462916525440373983e-01,1.355881664221298688e-01,1.067803693004480692e-01,8.365323122099709496e-04,-2.709380433695947159e-03,2.117743445670556938e-03,1.277178525924682617e-01
3.386883367449466387e-01,1.890706871785962639e-01,2.258044957587881929e-01,6.774578475871344263e-02,-2.946382670727714856e-02,3.585533544922392402e-02,1.961337029933929443e-01
1.518201094877813795e-01,1.200211161663428810e-01,1.212615618202764339e-01,-1.119666781160682210e-02,2.230025212791957295e-03,3.552310225402264925e-03,3.744518011808395386e-02
2.530387859139692219e-01,1.236181190333528190e-01,1.344428535785791579e-01,-2.227336418217973118e-04,1.316975504296408628e-03,1.627539766409841085e-03,1.244155839085578918e-01
2.465482492849347396e-01,1.086215361240769894e-01,1.370475255324032915e-01,2.853523018021574421e-03,-1.160824122025617662e-03,1.769528442852986300e-03,1.262892484664916992e-01
2.519848705836771341e-01,9.957288943614267529e-02,1.387303540784251832e-01,-2.202924495863418670e-03,8.173765828735536513e-04,1.075154503713356656e-03,1.371666193008422852e-01
2.389797918958556089e-01,8.378356258769745213e-02,1.217481855062940710e-01,8.444197710282732444e-03,-4.287008041718168988e-03,1.059928991463951128e-02,1.422719210386276245e-01
2.356877866462603333e-01,9.690439879646767229e-02,1.329959027677783678e-01,1.922535543470743971e-02,-1.056804904019198119e-02,2.052812293944323782e-02,1.351393014192581177e-01
2.912550548619691204e-01,1.929592573081440610e-01,1.304780870701697792e-01,4.407372495136401697e-02,-6.817389388087025104e-02,2.409249600265075830e-05,1.986910104751586914e-01
1.984024268184666484e-01,1.324725659966249358e-01,1.170405542224093598e-01,2.669382469819979887e-03,-3.421211162135629098e-03,9.088530489711057559e-04,7.524156570434570312e-02
2.426111049045864276e-01,1.243208239555552985e-01,1.293771042481750844e-01,-2.580677853650738610e-03,-2.432241379364060482e-03,-3.787322486531647086e-03,1.161929666996002197e-01
2.473955062300217111e-01,1.364440328797582591e-01,1.115252254566328483e-01,1.460322315077043891e-03,2.702250890165360485e-03,-1.560017392477604584e-03,1.254255175590515137e-01
1.698213840180101408e-01,1.311269529448545745e-01,1.314938019451969697e-01,-8.182967151766818922e-03,-7.518906166597468139e-03,-4.923436075338790546e-03,4.389081895351409912e-02
2.551778325204792086e-01,1.106308705173256191e-01,1.424902270931268367e-01,-2.678772464830920987e-03,8.482408573991441925e-04,3.362885532885381140e-03,1.317622214555740356e-01
2.415861637169129383e-01,1.183859655364470354e-01,1.263706022527714690e-01,8.167520211311101157e-04,1.776936829753441747e-03,-1.498964154430800378e-03,1.194845139980316162e-01
2.472691906722078170e-01,1.036648306430429517e-01,1.394392799418882334e-01,3.274412892657186866e-03,3.997054627630063366e-04,-7.738422196247252615e-04,1.296113282442092896e-01
3.428614298684226069e-01,1.626194335186794127e-01,2.437033008327143258e-01,8.456460377201639733e-02,2.491073299648100328e-02,-2.056253293382250338e-02,2.214286774396896362e-01
2.614058343331258083e-01,1.121297320884969417e-01,1.478978624850421641e-01,-3.973766020556468090e-03,-1.727908118747436151e-03,6.072632825294594500e-03,1.356110125780105591e-01
2.563076374433773674e-01,1.151102710675372398e-01,1.412268865285214170e-01,-2.786772841850144577e-03,1.227745488177666398e-03,1.685762774670767575e-03,1.302594393491744995e-01
3.821641773151990273e-01,1.353767881162035169e-01,2.042372299336936980e-01,4.710989794129894631e-02,-2.083220658735049705e-02,5.328823516361880924e-02,2.552073001861572266e-01
2.305023044960884115e-01,1.029760327250045238e-01,1.321283738472176783e-01,-4.686485512214532724e-03,-2.607707133443543449e-03,-7.986926756191061686e-04,1.161177158355712891e-01
2.865071242689676834e-01,1.379618744934086871e-01,1.382871620969899351e-01,-1.619143977896478001e-02,3.265208331998640297e-03,1.940348632756347391e-02,1.548077315092086792e-01
1.511068436822493033e-01,1.184512294579678909e-01,1.057516655339348632e-01,7.970673144432718557e-03,2.863808222035364726e-02,-3.392181755825344775e-03,6.578689068555831909e-02
2.483045728335142865e-01,1.115214971168287661e-01,1.312926201846527641e-01,1.709831544205925964e-03,-2.194476473818221963e-03,4.655110677135382985e-03,1.283915042877197266e-01
1.914695156442821344e-01,1.186027351001869429e-01,1.341992622210057828e-01,5.056211250041829815e-03,1.400853569106941775e-03,-2.775593998573924748e-03,6.724615395069122314e-02
2.414446071475126465e-01,1.207599574167993739e-01,1.316976498818981378e-01,5.617967852074706985e-04,2.117571926139571667e-03,-1.033906459027857192e-03,1.156806498765945435e-01
1.831123082722135864e-01,1.179140385168015309e-01,1.338167478446101732e-01,1.260602883478872081e-02,1.430887101453847971e-03,-6.061509321057680468e-05,6.284719705581665039e-02
2.004442424627352337e-01,1.341587075387157546e-01,1.356202843483392262e-01,2.694318814899662306e-03,-2.755863199276058217e-03,4.862433671360917586e-03,6.644184887409210205e-02
2.126110244292272466e-01,1.255019263503921456e-01,1.340207923368875731e-01,2.229576722037988467e-03,-1.186102162029197861e-03,5.015351963754225220e-03,8.374419808387756348e-02
2.432469321770702186e-01,1.122986146073706726e-01,1.359873963403211705e-01,3.141591480012482455e-03,-2.166368370371092849e-03,1.003249049054851221e-03,1.210509091615676880e-01
2.144830987623012886e-01,6.345263715206132804e-02,1.151230257772398319e-01,2.812555823357880402e-02,-1.701248417245927085e-03,6.214076417588915071e-04,1.416305303573608398e-01
2.543309586939087041e-01,1.442073844169876884e-01,1.066348726037065903e-01,-1.279748178667093747e-03,1.685791518044934493e-03,9.910891205551111520e-04,1.330146640539169312e-01
2.635831133824986239e-01,1.495699497021100999e-01,1.086017667741727283e-01,-2.402368088932513041e-03,-2.886997387255334224e-03,5.445353252713088302e-03,1.395692676305770874e-01
2.713462599754226101e-01,1.580911194577432621e-01,1.187500853556276992e-01,3.213553930460347294e-03,1.272514730341802423e-02,5.988760066310106584e-04,1.390966027975082397e-01
3.059801229599985462e-01,1.943683195549323339e-01,1.244787466359139894e-01,9.582424812097473880e-04,2.259042029949178548e-02,3.644897996639604419e-04,1.633290648460388184e-01
2.638809338801869631e-01,1.208555463434517196e-01,5.326502765467766576e-02,1.200069290066915241e-02,2.697199513672974419e-02,-3.833972897429574478e-02,2.042454928159713745e-01
1.813945972361296344e-01,1.351372753562681828e-01,1.310730972098143043e-01,1.202708411287690786e-03,4.550073449705809014e-03,-3.308942340773943398e-03,4.943229258060455322e-02
1.492770187218116218e-01,1.367975358010573572e-01,1.345676145069590046e-01,-5.200220354451630562e-04,2.632892289490686155e-03,1.620906901023100180e-03,1.476577017456293106e-02
2.553331993652537268e-01,1.074344588467972261e-01,1.405918294721953399e-01,-7.820931934918389601e-04,-1.266047024173746734e-03,2.973009937980587714e-03,1.345461755990982056e-01
2.842530538962355635e-01,1.729020141503188612e-01,1.176534999822903410e-01,4.799488100958523851e-03,-9.186991143639810370e-03,1.722705151303037313e-04,1.480737328529357910e-01
2.316815506397426616e-01,1.151816907366245701e-01,5.243962451831123139e-02,-2.098381498431881997e-03,1.016056039458035527e-02,6.438481845329552256e-03,1.589512825012207031e-01
2.563745174278325156e-01,1.480732348124246534e-01,7.956551087855179283e-02,9.592770353178790496e-03,5.851871681356794752e-02,-1.023420198001286432e-02,1.862942576408386230e-01
2.370772502117469704e-01,1.210559953753444773e-01,1.248236012391283345e-01,3.319628614653597582e-04,-1.357507803573759330e-04,-5.410312366460750004e-04,1.141896173357963562e-01
2.541873108261686331e-01,1.075297399532844644e-01,1.423575373350208784e-01,-8.798537070734683456e-04,-4.860079122523073289e-04,-1.017203473775156420e-03,1.327395737171173096e-01
2.278038128151409492e-01,1.133993298006575612e-01,1.278899002002698571e-01,-3.089958850341017940e-03,-5.500116373159852400e-04,-2.348536211658455546e-03,1.081049218773841858e-01
2.537535923392335024e-01,1.227475468693659533e-01,1.360439591448311947e-01,7.770838189009204085e-04,-9.407539947065385018e-04,1.892640994498310863e-03,1.249507144093513489e-01
2.435657442888714552e-01,1.178948765150595462e-01,1.259987343942910731e-01,1.043019667079964682e-03,-1.614570161749463500e-03,3.358007248602072614e-03,1.220054626464843750e-01
2.586299920578041811e-01,1.107118901694557345e-01,1.457898507892475271e-01,5.746417709398410215e-04,-3.979192375659988787e-04,1.642891507085566952e-03,1.339071542024612427e-01
2.460426493107109591e-01,1.367873995552449096e-01,1.150413682507388513e-01,-2.554976127427900298e-03,1.732631896456467103e-03,2.227088033833977618e-03,1.217741221189498901e-01
2.506532781911964269e-01,1.084155365767404400e-01,1.323746192138698652e-01,-4.018499519582136026e-03,2.965028730996318359e-03,1.131401950898706411e-02,1.336284726858139038e-01
2.487895806133701426e-01,1.006168579720907313e-01,1.393586688958787789e-01,-5.118791374080826351e-03,9.646964541589643635e-04,1.029573301121302796e-03,1.334173232316970825e-01
4.006883149036352121e-01,1.294475060836331182e-01,2.572591971305925873e-01,2.858527276771346062e-02,-8.820935658095781229e-03,1.798829847220306463e-02,2.426832765340805054e-01
2.416949657821747532e-01,1.094435042570306854e-01,1.371507409363686703e-01,-1.609868323455518682e-02,-9.570641333230892056e-03,-1.056392244254530238e-02,1.264155954122543335e-01
2.694476933394768237e-01,6.099683969952099383e-03,9.900966118429221918e-02,-1.892336655503945066e-03,1.914744641935645433e-02,4.638407351384595673e-02,2.471474111080169678e-01
3.881703888190593532e-01,1.956394305545683943e-01,2.209581996117626068e-01,-4.805415007653806442e-02,3.303049277457361516e-02,5.352191035832341154e-02,2.272201329469680786e-01
2.337979593275773815e-01,7.084936800899782616e-02,1.297190666900868150e-01,4.554438001312784839e-02,1.157620299615392395e-02,-1.949127572277018980e-02,1.678981184959411621e-01
2.267374021039915422e-01,1.164008835864211860e-01,1.319780223522566964e-01,-2.063082129887611020e-03,1.585097796410374219e-04,2.983965516492185707e-03,1.036225035786628723e-01
1.758665003552577766e-01,1.615009578934960832e-01,1.497527662375990054e-01,-3.908186742237669022e-03,1.385507132705814971e-02,3.818626322412659816e-03,3.433095663785934448e-02
2.457150087693933393e-01,1.067582014646747401e-01,1.436785990786518807e-01,-1.479043844022140224e-02,2.967611735662835544e-03,-4.061343292989482421e-04,1.273772120475769043e-01
2.142479790924793903e-01,1.262236790913695283e-01,1.344647667809978631e-01,-2.116338770750111897e-03,5.487034751029293235e-04,5.020029679049244423e-03,8.473912626504898071e-02
2.562033410301788328e-01,1.084557357910034547e-01,1.410999014128824780e-01,3.024728085322773443e-04,-2.306870277886743491e-03,2.884944796333187723e-03,1.345849484205245972e-01
2.521590244801057978e-01,1.094622323333469815e-01,1.431402513980932767e-01,1.062284451437663872e-03,6.888666749786782027e-04,8.634062411084606099e-04,1.292202919721603394e-01
2.462414063127073005e-01,1.196801609648251996e-01,1.320286985154544845e-01,-8.439449212284262343e-04,-7.115880011999683790e-04,-1.335250002196687776e-03,1.208982765674591064e-01
2.495736885398993354e-01,1.166531872053899049e-01,1.310154375709073893e-01,-1.902596348309931078e-04,-2.092545987726646475e-03,-3.261799739375426891e-03,1.265316605567932129e-01
2.482445580958812514e-01,1.096081219285246489e-01,1.481429966442373292e-01,-1.485143214576706977e-02,2.539513784902761896e-03,-1.528615533327598868e-04,1.266640126705169678e-01
2.574712310198606913e-01,1.236165981537786784e-01,1.384393264493971598e-01,-4.750188284913699210e-03,-2.318149897392379408e-04,-7.755114383929252557e-03,1.280662566423416138e-01
2.458073138248411116e-01,1.096724104034955960e-01,1.353776303363017353e-01,-3.513722287143277584e-02,-1.272532862500706102e-02,-1.473376383882282065e-02,1.433004438877105713e-01
2.012919965576903114e-01,1.340728667704738641e-01,1.219350471979832595e-01,-1.851692686069438725e-04,3.447180058449202718e-03,7.494833069438095689e-04,7.429043948650360107e-02
1.972505829667622057e-01,1.506850847753720690e-01,1.082844572843877085e-01,-1.464274416452581752e-02,3.219441924876028510e-02,7.953853743857326741e-03,9.941342473030090332e-02
2.729076754896929136e-01,1.849546942761209622e-01,1.693120522720272247e-01,2.380477820962979135e-02,3.049260919644076681e-02,-2.444721782480783340e-02,1.250545233488082886e-01
1.477228693177806695e-01,1.182165324300129272e-01,1.531432710750247894e-01,-6.159058682632279763e-02,3.978514326335964163e-02,3.943191956342182933e-03,1.312835216522216797e-01
2.386890064512763310e-01,9.233464032569244084e-02,1.311745574842125839e-01,-1.805175444138185786e-02,-4.837296739847673187e-03,-6.398575321139394687e-03,1.356995552778244019e-01
4.067519608278143961e-01,2.156938999091398412e-01,1.986845653796464051e-01,-2.850424874621457216e-02,2.988427108978387522e-02,6.235298280989234887e-02,2.383749932050704956e-01
2.449283060112511512e-01,9.996025673512418108e-02,1.288908744676020290e-01,-8.198654737086115765e-03,-4.129105897364248982e-03,-9.342401450296945742e-03,1.348085403442382812e-01
2.499033641583302545e-01,1.255262604085549405e-01,1.334433788300933565e-01,-7.534202718587921848e-04,-3.882036386323755271e-03,-4.231414913072700963e-03,1.210300177335739136e-01
2.789087356892123726e-01,1.150327418200810387e-01,1.673586108747815993e-01,1.236275005190809982e-02,-6.801403835374241272e-03,7.562092226129664765e-03,1.476049721240997314e-01
2.328908772597092780e-01,1.158887658294067147e-01,1.390224669121541134e-01,-4.225077959596437727e-03,1.171261128978659858e-04,-8.534053573223878298e-04,1.075813621282577515e-01
1.975491719713293459e-01,1.111615522641437176e-01,7.964758447760114657e-02,-4.569694325128032669e-02,6.088959246921276519e-02,2.918491428410921462e-02,1.764111816883087158e-01
2.435917683887339757e-01,1.406104135029009328e-01,1.112855943702720507e-01,-9.305003778273910221e-04,3.664341167113966107e-03,3.402417302866660165e-04,1.205331534147262573e-01
3.200235252289969079e-01,7.690202233110451924e-02,1.908026371074130756e-01,3.426475700132480817e-02,-4.627513806204376634e-02,1.054736724830961092e-02,2.338158488273620605e-01
2.577369417418644004e-01,1.128881787321557306e-01,1.476414520884226922e-01,1.356656375361077428e-03,-6.047401447383013819e-05,1.892272883896511720e-03,1.310391575098037720e-01
2.381816067345898236e-01,1.145790803858299511e-01,1.413571191087507339e-01,-9.564181842059291810e-03,3.955107979441667415e-05,7.091231116233332778e-04,1.138452813029289246e-01
2.517788602353502325e-01,1.357705865977403559e-01,1.220112358706529898e-01,-4.261948972853601275e-04,1.448495516276837418e-03,2.180592735016335850e-03,1.235497519373893738e-01
2.637200102860349227e-01,1.312993616987090106e-01,1.360009219167397920e-01,6.295934149112608104e-03,8.735291389263438386e-03,3.106219120855907220e-02,1.420463323593139648e-01
2.443211848296172328e-01,1.157471368344445695e-01,1.349900243560011315e-01,-8.063117237143355154e-03,5.674046967279293419e-03,7.402651675701189121e-03,1.219977959990501404e-01
2.418840129666874894e-01,1.340104700537851079e-01,1.118318539067788553e-01,-1.849315529889424686e-03,2.553714204799354889e-03,1.817632136709498771e-03,1.206681951880455017e-01
2.425500171576449038e-01,1.225932193499594952e-01,1.319116153866498886e-01,-7.449922417065269571e-04,1.128536101908583214e-03,1.124411876259403869e-03,1.156198084354400635e-01
2.342113008630064552e-01,1.180873753493236755e-01,1.335240351803789749e-01,-2.580645039377185007e-04,9.799979617219876666e-04,9.986981712227008517e-04,1.092545837163925171e-01
2.405190237155618027e-01,8.586938651764197683e-02,1.355868214500856594e-01,1.493290614702458968e-02,1.782131103539432511e-04,-1.093767116590151859e-03,1.391840875148773193e-01
2.475144346271834217e-01,1.168956388758270182e-02,1.124837842745531058e-01,2.364442663415806944e-02,-2.926708099058160199e-03,1.887231398434693203e-02,2.115996927022933960e-01
3.344234768942285774e-01,1.139748249110597161e-01,1.415012951928228957e-01,-2.569353015393372602e-02,-1.620960611798528961e-02,6.252063092937604205e-02,2.403796017169952393e-01
3.139528379956110782e-01,1.080439582059523201e-01,1.838868950501883481e-01,-4.159634764060094435e-03,1.777900955608639809e-04,-3.527356446588337103e-04,1.805166453123092651e-01
4.321535535800151151e-01,1.338647762666376750e-01,2.527425606254589674e-01,-4.325395814999518501e-02,4.440667416932764060e-03,3.496703833531197153e-02,2.774674296379089355e-01
4.330890576250069346e-01,2.284611070297750679e-01,2.103886632971771475e-01,-2.003648733073497279e-02,1.919491087605411719e-02,6.319287140703339078e-02,2.453305423259735107e-01
3.010733913759796043e-01,5.011904016568471953e-02,2.098759765224610940e-01,-7.116628281034610357e-03,-1.387947131473971953e-02,-2.655887959173909574e-02,2.263948917388916016e-01
2.413414486144638826e-01,1.738216692647194528e-02,1.288835600420707439e-01,3.987332569282064226e-02,4.768535378745965975e-03,-4.341913290786899096e-03,2.061867266893386841e-01
2.346086347426505070e-01,1.221686495269492245e-01,1.278783661687306061e-01,-1.140350092619103577e-02,-1.527506773839461263e-02,-1.153134719893841344e-02,1.162857189774513245e-01
3.808766301090390494e-01,1.034606580305307000e-01,1.942594732774436950e-01,1.903865014241502146e-02,6.825090599988567312e-03,-1.430636298783031536e-02,2.487090229988098145e-01
2.499509664319125024e-01,2.078673345146576923e-01,2.031612939881450308e-01,6.485790276057908088e-02,-5.727297628896672183e-02,1.935706625884752938e-02,1.599235385656356812e-01
1.684864123410358405e-01,1.361716777019376656e-01,1.504499445664275181e-01,2.035960399307999019e-02,9.457564146277885539e-03,-2.841477580875563600e-03,4.819555580615997314e-02
2.432762366697020784e-01,1.169523930481253804e-01,1.312360952844438267e-01,1.986928287579159923e-03,-1.785462894027930927e-03,1.575377474472456751e-03,1.199425607919692993e-01
2.464374746494248924e-01,1.285784253104141350e-01,1.198256292458149408e-01,1.928180856188027635e-03,-1.069728903114495339e-03,2.733654184022393536e-03,1.226212382316589355e-01
2.315602306948122968e-01,1.213528701925874198e-01,1.227907929182629476e-01,7.813535182806825158e-04,-6.202703006695582839e-04,3.917313898399748216e-03,1.097191050648689270e-01
2.308947091542677410e-01,1.231296287234316389e-01,1.366179912213562886e-01,1.187972258678331389e-03,-8.193268920229283912e-04,3.082617012963397018e-03,1.018647626042366028e-01
2.440518382616912452e-01,1.314062762039218402e-01,1.208994089264184280e-01,2.239613295124128801e-03,-1.590628186192725047e-03,1.102034676630024579e-03,1.183606758713722229e-01
2.437641180981603983e-01,1.224767717581502213e-01,1.272817341609133734e-01,4.857946083008983723e-04,-1.125424503352410186e-03,1.001476429838678382e-03,1.189892590045928955e-01
2.532420539632529444e-01,9.570065094285258589e-02,1.413028584431455237e-01,1.202838262523566078e-02,-4.250330111526192875e-03,-4.829808431296684452e-04,1.421392261981964111e-01
2.702818410420327888e-01,1.218540701908160107e-01,1.560784605095753563e-01,-6.326172310410547008e-04,1.208509517500858110e-03,1.410490124988436188e-03,1.346618384122848511e-01
1.094948085702220075e-01,5.218492626729251405e-02,3.229683397077674073e-02,5.041471441923339042e-02,-6.649536153376189862e-02,3.343591390502836935e-02,1.704800724983215332e-01
2.338711977839811329e-01,1.316581303587109064e-01,1.105619144956682398e-01,1.335920545670764206e-03,-1.477561960829092570e-03,1.096692390231152753e-03,1.142995283007621765e-01
3.132435599586717023e-01,1.941964475857513028e-01,1.964316280039907492e-01,5.916154910875637274e-02,-4.765651642784836384e-02,3.897921999743669125e-02,1.891638338565826416e-01
2.300550823053062188e-01,1.142938754771527649e-01,1.329778050821775470e-01,-7.299831937045515515e-04,2.186086942914020038e-04,1.529217183383047062e-03,1.076830029487609863e-01
4.297802139466487814e-01,1.770176513543841590e-01,2.098247642443346050e-01,-1.634599332660541943e-02,-1.142272693979927943e-02,-6.289149756240269840e-02,2.640678882598876953e-01
2.363133672371250937e-01,9.112820356312140158e-02,1.068333692240301946e-01,1.200344808765937271e-02,-1.133180977333645735e-02,1.813834231805510483e-02,1.443942636251449585e-01
2.046072244179300004e-01,1.002760732662855980e-01,1.318214274732490976e-01,2.643601137091421832e-02,-1.262047957628492124e-02,1.459895104346703790e-02,1.086404174566268921e-01
1.997546968395237377e-01,1.485971864484655902e-01,1.520917231603985675e-01,1.841844115146870631e-02,1.313192189658382667e-03,-2.133394570793876836e-03,5.905146151781082153e-02
2.378655626082397667e-01,1.272009935704516703e-01,1.270177753764752671e-01,7.569964515681601306e-05,-2.769012419177104434e-04,2.004553953571792772e-03,1.108118146657943726e-01
2.467655863390617044e-01,1.191312817243271455e-01,1.274564281735127980e-01,6.139933966509666984e-04,-2.183318206381634503e-03,3.840867366636933032e-03,1.239231154322624207e-01
2.924933531562711186e-01,1.092536751822227314e-01,1.595015400592285637e-01,2.287384128671933817e-02,-2.132176498838648723e-03,1.370175988336375366e-03,1.687694638967514038e-01
2.659770826681621680e-01,1.166597472379942574e-01,1.490344011989443718e-01,-1.172184511575425411e-03,3.910315803504566738e-04,-2.813341281884029158e-03,1.361543685197830200e-01
1.419566481001521829e-01,5.539677697898565123e-02,1.004240325708404269e-01,7.233353906588642357e-02,-2.468051268442799512e-02,2.725290191222317498e-02,1.592936962842941284e-01
2.462680084000672953e-01,3.459552634583760999e-02,9.553381220906427551e-02,-2.143613406683063730e-02,-1.650542765566292633e-02,-3.278713348422904877e-02,2.025846838951110840e-01
1.278620949462521694e-01,8.640197040336838885e-02,1.232974428525878824e-01,8.249768698050996552e-02,-2.385386425778897312e-02,7.582036008352606264e-03,1.544267237186431885e-01
1.840417253298628208e-01,1.288790448642156139e-01,1.187228845796582527e-01,-8.850211561457028628e-04,-1.129863021283020533e-02,2.850287673090593204e-03,6.415612995624542236e-02
4.304052328671779115e-01,1.850224370454519041e-01,2.058500750233209220e-01,1.528125101956061792e-02,9.499048833599484098e-03,6.883459737505973064e-02,2.659353613853454590e-01
2.399733110342976428e-01,1.302688869097303470e-01,1.140761068439813120e-01,2.392140591970938045e-03,-1.799385929678576227e-03,2.606392749553566261e-03,1.188315898180007935e-01
1.362146911706194619e-01,1.513144900569424744e-01,1.779517888879677823e-01,5.071477308503168774e-02,-2.410537915761045563e-02,1.108100259125931533e-02,1.056754738092422485e-01
2.598829557519277689e-01,1.192914521550761109e-01,1.431418963077680517e-01,2.036274984011646715e-03,1.630170411890140335e-04,-2.086303179922420134e-03,1.304117441177368164e-01
1.112909872038727460e-01,7.572504339526278661e-02,1.432308467416008313e-01,1.079205945384061893e-01,-1.423774273559815125e-02,2.799724857034276843e-02,2.032764256000518799e-01
1.953596148456857029e-01,1.903212755630361019e-01,2.063226692259160500e-01,7.422108415152220418e-02,-6.268446501050574382e-02,1.202652794625151331e-02,1.701442152261734009e-01
1.313116604195604109e-01,4.534369131134285275e-02,6.043404608993933197e-02,5.919047792629580917e-02,-4.818999066466300718e-02,2.942398058989008705e-02,1.624672263860702515e-01
4.043455854297197116e-01,2.369345562737676936e-01,1.872613526692249175e-01,3.371780521830334415e-02,5.728937434848735410e-02,-5.302455697077815971e-02,2.459703683853149414e-01
4.267294754692373959e-01,1.557631713204457313e-01,2.067702641250110940e-01,1.268557010594831974e-02,1.476020013707012024e-02,-6.242421539771824540e-02,2.739159762859344482e-01
2.270408531165426513e-01,1.436417862904380560e-01,1.203149522764168228e-01,-7.017513167752885330e-04,-2.905462005749383323e-03,6.239855883437749268e-04,9.732909500598907471e-02
2.410714038804525061e-01,1.230023982936483545e-01,1.381649476961762657e-01,6.291326124908146189e-03,-1.642429600919704776e-03,4.012730793848817354e-03,1.120495721697807312e-01
3.423774336225179349e-01,5.446895670877618945e-02,1.636375099572222325e-01,4.299076700729589223e-02,1.839715969938431755e-02,5.220466936337890898e-03,2.646134197711944580e-01
2.250018218115144020e-01,1.183520322964998900e-01,1.365336221923355020e-01,1.159617443730001900e-03,-1.342142420191353228e-03,2.607812780970507598e-03,9.897234290838241577e-02
2.033592475279858980e-01,1.246477362219214902e-01,1.442847531054866628e-01,4.001982802208876866e-03,-2.678986237375644702e-03,-2.200777611830397225e-04,7.145053148269653320e-02
1.500945384476339295e-01,2.098805275437269913e-01,2.089947471234719356e-01,2.070558109813240566e-02,-2.181670245491889454e-02,2.161971934768299928e-04,7.897088676691055298e-02
1.921752440066648859e-01,8.168124423920265775e-02,1.164846646712923844e-01,5.419185992697738569e-02,2.120418878069303681e-02,-2.087703865773214013e-02,1.450562328100204468e-01
1.851489243363473591e-01,1.335194552688920844e-01,1.893206414502218160e-01,8.274681988883601791e-02,-4.926520349683100736e-02,-8.123904187860225357e-04,1.752787977457046509e-01
1.747174421186064308e-01,1.612388348048050812e-01,1.438022273890053881e-01,-1.014236861177176575e-02,-1.496654601979550449e-02,1.766584096640678178e-03,4.136045277118682861e-02
2.605813708196833001e-01,1.042695592397689802e-01,1.537910546625863295e-01,1.382068027214748522e-02,1.139673080070391017e-02,-7.340004222557843482e-03,1.423702389001846313e-01
4.262606693683715919e-01,2.522666288572838478e-01,1.486949469463871853e-01,-6.375269688746840191e-03,1.997709577077698070e-02,3.249570939985677032e-02,2.520098686218261719e-01
3.981441891501681374e-01,2.481524778595576297e-01,1.711956517645525366e-01,-1.765825307247323103e-02,4.934118696442829632e-02,3.481139708754029533e-02,2.276781797409057617e-01
3.892115164138060801e-01,2.614685088731030782e-01,1.486875763188504895e-01,1.339982406333471883e-02,-6.186854733173607901e-02,4.743766028477946345e-02,2.494345605373382568e-01
2.543173944533091424e-01,1.370358036153600800e-01,1.236207931671224058e-01,7.674538113308588053e-04,3.923622033657041003e-04,1.555898581748837257e-03,1.245702952146530151e-01
3.156260799640580039e-01,1.723119745269638403e-01,1.257607759117483348e-01,7.830024805132356283e-03,2.598801159574631262e-03,-1.991867035472131772e-02,1.754190474748611450e-01
1.760180516774474124e-01,1.814705689357864749e-01,2.204418131219566257e-01,9.155739435631021772e-02,-2.352776726157253685e-04,3.195861511654322570e-03,1.641342639923095703e-01
2.589415347793986855e-01,1.184309390520383726e-01,-1.452550215488265795e-02,9.035708594091744483e-03,-1.222372610768725394e-02,-9.799971981092557224e-03,2.389220446348190308e-01
3.124109202791944817e-01,2.380512565695070970e-01,1.834784498494448357e-01,8.392320683938131812e-03,9.345015513212431846e-02,-5.346866006038284921e-03,1.976396292448043823e-01
2.010943169179007228e-01,1.239893554912899487e-01,1.041405537560881334e-01,6.594876600360594088e-03,1.688587283813683740e-02,-8.042889312043053837e-03,9.512902051210403442e-02
2.690835211818169981e-01,1.534974303215097535e-01,1.200081383897111109e-01,1.862095324173639347e-03,5.899777771347901496e-03,-8.450459422350974081e-03,1.366807520389556885e-01
2.504004360605771584e-01,1.428151744196478334e-01,1.100556110121797132e-01,1.070348236662836943e-03,3.621095101834834358e-03,-2.644941149557509109e-04,1.273389458656311035e-01
2.710316263728103081e-01,1.433522260223659417e-01,1.017198882859767506e-01,-2.720329621460090483e-03,1.386661110843817601e-02,-1.956616593038803045e-02,1.584248244762420654e-01
2.605187404826171393e-01,1.535982713954274770e-01,1.246442979519707950e-01,1.609964015765474182e-03,5.687397030178759083e-03,-9.107728198637055420e-03,1.253784596920013428e-01
3.467939650284802000e-01,2.199036330525273586e-01,1.892548403190408846e-01,-4.724250569501412672e-02,7.646478682461010923e-02,3.609179780594971160e-02,2.215255051851272583e-01
3.261470464544354853e-01,2.468084536857206857e-01,1.705567617642662070e-01,-3.709734750469725201e-02,9.231173831504908833e-02,3.500819056176403266e-02,2.269985973834991455e-01
2.211408473757230930e-01,1.156230315171011269e-01,1.342381353009341749e-01,-2.059434620135791420e-03,-6.448911585315638285e-04,-5.185368472131258229e-04,9.762727469205856323e-02
2.685001301188172373e-01,1.551957361131708901e-01,1.161750631786788723e-01,9.936329144945746199e-04,1.794656394188224105e-03,-2.030819052985973362e-03,1.371375620365142822e-01
2.569881996334314467e-01,1.388716375528508684e-01,1.035368180359152457e-01,4.007668812118845951e-03,3.144766813939836331e-03,-5.404342657900785413e-03,1.397825926542282104e-01
1.555480656367780601e-01,1.242959816441993187e-01,1.328456623120566615e-01,-2.019340424591615363e-02,-1.245307073201555766e-02,-1.123305796872489139e-02,5.338255316019058228e-02
3.876805696654112565e-01,2.356414289550941288e-01,2.005061356517547633e-01,-3.258187418038299699e-02,5.454652663328979356e-02,4.114076588896447423e-02,2.165195643901824951e-01
1.228864496212338925e-01,1.933437830252720258e-01,1.972923502863675183e-01,-3.338500144021535471e-02,2.586491282896104249e-02,3.186751556621659608e-03,1.031462773680686951e-01
2.512076598910246150e-01,1.396233448212647055e-01,1.153504306709600136e-01,1.853087962454297039e-03,2.853067901194226812e-03,-1.359478652589512278e-03,1.256541907787322998e-01
2.551271303829187875e-01,1.428365533670540310e-01,1.066004409572352679e-01,9.691236897000996692e-04,4.715265545474492457e-04,-2.846121745506026554e-04,1.341451853513717651e-01
3.822268314701742220e-01,1.822747543567735384e-01,1.084779533321102718e-01,3.727827618179889620e-03,-4.282313513724640697e-02,1.344581628876039513e-02,2.574259936809539795e-01
2.515537540212613443e-01,1.372611073886275401e-01,1.052643056537545252e-01,2.725761940945567278e-03,2.148497541642960165e-03,-3.987592565701364097e-03,1.335194557905197144e-01
2.675965946110252514e-01,1.634157316785663228e-01,1.002611542719801241e-01,-1.035929797398489095e-02,2.497972423793619334e-02,3.899747795077814633e-03,1.538219153881072998e-01
2.503016170275920160e-01,1.419535898471242508e-01,1.099515076770493510e-01,5.789765792722705398e-05,2.422883795429908380e-03,8.728020450583549384e-04,1.274782270193099976e-01
2.919949078033095002e-01,1.735034353129189522e-01,1.218587075580163798e-01,7.750551638411907161e-03,-4.758261457027553563e-03,6.582986614764438880e-03,1.523319035768508911e-01
9.372665292371133716e-02,1.008560976001823262e-01,1.212091382934130379e-01,6.666272583099669413e-02,-6.913809543834285691e-03,-1.279542544604503253e-03,1.187023669481277466e-01
2.486464366947034321e-01,1.369453228417102930e-01,1.140539519799787516e-01,-1.953725418662781432e-03,-1.976569076514212570e-03,-1.749026931714090091e-03,1.248619034886360168e-01
2.985587934406482846e-01,1.158947036986665985e-01,1.770984698389988787e-01,-3.730399900625140132e-03,-1.715808219726430286e-06,-7.394448921950443586e-03,1.616728901863098145e-01
3.672683185574144304e-01,2.441460854041942463e-01,1.433711105388215667e-01,-6.206105287879139752e-03,7.716448176065045239e-02,1.265068227232066169e-04,2.360105663537979126e-01
2.501192470548886382e-01,9.300774607580737652e-02,1.394320490267938195e-01,-1.240613827753705989e-02,6.350164699191175816e-04,-1.804441385998619514e-03,1.414855569601058960e-01
2.588037120768088561e-01,9.071896918068103610e-02,1.429024145234275289e-01,-3.168593107348348890e-03,2.515084125845112872e-03,-2.940828188722962970e-03,1.492628306150436401e-01
2.588628487395444044e-01,1.084265748876021979e-01,1.459723930310093121e-01,-6.336924123191156350e-04,-9.040796505374822968e-04,-1.012907797549879177e-03,1.356438100337982178e-01
2.527947569610664580e-01,1.430830741962642594e-01,1.075148418834929731e-01,2.742867485400457203e-03,5.495925988793259540e-03,-3.202347051145014792e-03,1.317116320133209229e-01
2.598705605550708508e-01,1.450486162696437986e-01,9.436026642889000504e-02,-1.002438840883573817e-04,3.500688634705666994e-03,4.137087833236879138e-04,1.470062285661697388e-01
2.724892336340707377e-01,1.549617939643567754e-01,1.195636989858966243e-01,7.313297692080303510e-04,1.190873134489569283e-03,-3.036217075296947406e-03,1.387785524129867554e-01
2.676335185956369433e-01,1.618545870163005662e-01,9.558180209851706299e-02,-8.158407855004134665e-03,1.514329128997512867e-02,2.287113510891353868e-03,1.532803177833557129e-01
1.177154713516685020e-01,1.249694634221411166e-01,1.244744528914501908e-01,5.238563916635474021e-02,-2.448242384042153066e-02,1.190774267917097534e-02,1.024967804551124573e-01
2.122009179124791922e-01,1.372514667041131453e-01,1.571509059925881580e-01,-1.537356227432645425e-02,-3.169578057399484623e-03,-4.418025801712911239e-03,7.293620705604553223e-02
3.010099882196174415e-01,1.863185443685736187e-01,1.215086176856440270e-01,-1.605043744879128438e-03,2.234973670012551164e-02,4.295432656122016163e-03,1.623243987560272217e-01
2.547947941056438736e-01,1.436225670866384807e-01,9.784480949233659297e-02,1.815945043721838232e-03,1.453397719727600977e-02,-4.404445717786356282e-03,1.422880291938781738e-01
2.486262517018828500e-01,1.289950310197844896e-01,7.958361476223137221e-02,-1.215461681856532075e-04,3.267759529054323642e-03,-6.410195596611456895e-03,1.510616242885589600e-01
2.527543829692628363e-01,1.344090425752096640e-01,8.439925687352202444e-02,9.418602721430587238e-04,4.320273226345080174e-03,-5.275690160855561056e-03,1.502237617969512939e-01
2.331003100935636341e-01,1.231508211339948367e-01,1.165455326329484093e-01,5.893392506793346339e-04,7.838580862678603840e-04,-8.116840960629472185e-04,1.134179458022117615e-01
2.746438289134795485e-01,1.467402934362403988e-01,1.076462611359195742e-01,-2.655888973674083980e-03,-6.138828462254209556e-04,-1.103871343265155555e-02,1.525640040636062622e-01
3.814478437248194909e-01,2.584274533370976568e-01,1.572470308138091688e-01,-3.022904823455156015e-02,7.286073727074672546e-02,2.541734582287873134e-02,2.417112290859222412e-01
2.410858638865588377e-01,1.333664042806994854e-01,1.035110380772523431e-01,3.935910775436906456e-03,-4.520906952928472992e-03,4.218119068719369813e-03,1.259841173887252808e-01
2.557925696906397373e-01,1.445410642703164050e-01,1.069412048134892046e-01,1.856801130210931940e-05,2.210067434047118310e-04,-9.909146390987024194e-04,1.340775191783905029e-01
2.377977034760031527e-01,1.034447440938083690e-01,1.335940840734256008e-01,5.277426190126886102e-02,3.622985999922808537e-02,-2.860066062877825166e-02,1.722097992897033691e-01
2.653099164960368572e-01,1.651777566916451945e-01,1.082925244347930360e-01,-6.982845787368478253e-03,-3.354198606388786048e-03,4.309130656086769540e-03,1.385429799556732178e-01
2.693129275282985513e-01,1.537375143632505881e-01,1.179761959301945662e-01,1.374556424724023235e-04,2.181376707230800460e-03,-2.139983547779879432e-03,1.371048837900161743e-01
2.567833933418197101e-01,1.470174127522362040e-01,1.117664182645060761e-01,5.306960423280722428e-04,4.430814754394523020e-04,-1.769553331705274457e-03,1.310396492481231689e-01
2.586674303493206595e-01,1.435542192697626951e-01,1.245675840697020031e-01,3.211300025959632713e-03,-6.139268388494390112e-03,6.864074864584040168e-03,1.268168389797210693e-01
2.661778145228286818e-01,1.528909486566307485e-01,1.176217117099358223e-01,8.109735875621535426e-04,3.520991977003097952e-05,-3.190739193595641416e-03,1.345581412315368652e-01
2.463558161905695654e-01,1.378690013741794007e-01,9.048240889706921086e-02,1.799903042122478840e-04,-9.563424079273581679e-03,-6.159726786809164830e-04,1.393962353467941284e-01
2.838190974775993691e-01,1.578180266517086872e-01,1.098814446831368891e-01,5.817786803690473685e-03,-2.119113354589141629e-03,3.262396425346114322e-04,1.559794098138809204e-01
1.905291214190083238e-01,1.575630058566849789e-01,1.294001189411164154e-01,1.092938892000855713e-02,-2.948699764705595833e-02,-1.834956828941112367e-03,7.606075704097747803e-02
2.407352080832403929e-01,1.226335259894108520e-01,1.261130521120181203e-01,-2.210600496667408004e-05,7.745704767859135174e-04,-6.276110350948713775e-04,1.164137423038482666e-01
1.749509715961601597e-01,1.261110823589824126e-01,1.039920703507552502e-01,6.184182603027029226e-03,-2.756583882426049889e-02,5.997972887768659653e-03,8.035646378993988037e-02
2.396014788199182233e-01,1.427667749554348553e-01,1.160635849118961116e-01,-5.163547053088329543e-05,-9.618939608743708181e-03,2.584042442476171416e-04,1.138138622045516968e-01
2.402938313664561287e-01,1.350417351280364386e-01,1.018101105218248703e-01,-1.753410411809021513e-03,-7.376615364801073459e-03,-1.382852462896609885e-03,1.259295344352722168e-01
2.350634042730191942e-01,1.369053630573296987e-01,1.039449679070458266e-01,1.881471699220881293e-03,-1.290795266217168065e-02,8.974505834301581839e-04,1.202896460890769958e-01
2.131508683391779568e-01,7.110554807516925035e-02,8.423548807260491933e-02,-4.719426333377854665e-02,3.902066525441899580e-02,3.786919597480355865e-02,1.844889819622039795e-01
2.447103166011772579e-01,1.115332732250183811e-01,1.274410909668947656e-01,-4.275616473986712171e-03,-2.325321109823511381e-03,-2.562884123421331397e-03,1.263384222984313965e-01
2.320209737821984641e-01,1.410046264684473305e-01,1.106219167732029052e-01,-3.603567062024899768e-04,-2.220741647856925086e-02,-9.228738723720943202e-04,1.159950867295265198e-01
2.260278643260305309e-01,1.304433979948577405e-01,9.384374920951721322e-02,2.185878957569292996e-03,-1.005655601699662234e-02,1.056612854350826589e-03,1.195632442831993103e-01
2.329036495192045586e-01,1.371777785673516659e-01,1.068266309480451204e-01,-8.168716748839503121e-04,-3.794111309840214000e-03,-7.045603567677012277e-04,1.141783744096755981e-01
3.941152099171407186e-01,2.360550367062909660e-01,1.944564029052384124e-01,-3.708316085827578074e-02,-5.828561117955667614e-02,-5.400180326087998528e-02,2.373905181884765625e-01
2.638242580046508690e-01,1.309370241093398002e-01,1.426507412706805034e-01,9.587988463700592226e-03,6.783709041664160583e-03,-1.557339195794654567e-02,1.318372488021850586e-01
2.547979124462929623e-01,3.843421286724565955e-02,1.218863295581095185e-01,5.070958363752671623e-03,4.401348686454083052e-03,-3.149904680981274741e-02,1.970617324113845825e-01
4.037785583495402397e-01,2.060363693657774053e-01,8.998402613288061791e-02,9.491127418177622982e-03,1.959253319226206616e-02,-9.328093353971294091e-03,2.778514921665191650e-01
2.533164142172773525e-01,1.410890857635753448e-01,1.065699780808610081e-01,-1.380656274158759134e-03,-1.193973452796274169e-02,-5.708660996654507137e-03,1.348765641450881958e-01
2.367897533593793791e-01,9.950779034532758471e-02,1.289430576016051544e-01,-2.727205231277499489e-02,-8.977296580416620209e-03,-1.528563390541401619e-02,1.372802406549453735e-01
2.789061340390596166e-01,1.667412987261706059e-01,5.047358720286915235e-03,9.061137088994555139e-03,-2.186667784931020306e-02,7.306110073184550642e-03,2.422873526811599731e-01
3.474875148400916602e-01,9.893376032724786329e-02,1.192886113894208316e-01,-6.184563013334819226e-02,-3.981178834007950001e-02,-5.609715407537364112e-02,2.877573072910308838e-01
4.552563542798105933e-01,2.952122730550293950e-01,1.696822158885338272e-01,4.878081361000830181e-03,1.986129565001115010e-02,-2.783251338132993261e-02,2.550313472747802734e-01
1.624280123493091199e-01,4.425818932794219063e-02,3.740164238180268552e-02,-4.820356450051316299e-02,-5.238284267187277854e-02,-4.677993442292459336e-02,1.912827193737030029e-01
3.425141306336751401e-01,2.185968636179667079e-01,1.837416777942343094e-01,-5.075308257100112630e-02,-5.684426648707745222e-02,-4.428063973748807419e-02,2.102220207452774048e-01
2.779023038681929236e-01,7.136814620489202732e-02,1.772728471023669594e-01,3.983748168257399830e-02,-4.527167749718138067e-04,-3.109286247831933442e-02,1.991512328386306763e-01
1.911916783946825682e-01,-2.938193498411580118e-02,1.531852696242473610e-03,-3.263708507546848880e-02,-2.002284581738995525e-02,-7.474032230162488966e-02,2.528759539127349854e-01
2.487506814786484832e-01,1.325725246052214257e-01,1.215239922560408803e-01,-1.484328292561211621e-03,-1.075523897949648335e-03,-1.492941441540655834e-03,1.221466287970542908e-01
2.799196986203187909e-01,1.059036607573856370e-01,1.448473743297594707e-01,-5.395428140692604992e-03,2.159455900853644080e-03,-1.000555265633975600e-02,1.594459712505340576e-01
2.626386898607376286e-01,1.229269397746987069e-01,1.367825888381132560e-01,3.140627139164535366e-03,-4.721667968390663370e-03,-1.101693386610976856e-02,1.350412815809249878e-01
3.649783152359734606e-01,2.508287791753855966e-01,1.400029499821361378e-01,-1.503404028145617806e-02,-7.727792608611659675e-02,-3.367288272774310309e-02,2.448642253875732422e-01
2.485826010475056247e-01,3.922941681143510273e-02,9.866490111672737706e-02,8.961956321249674520e-03,2.888157786973556337e-03,-4.017611097447289920e-02,2.000666409730911255e-01
2.254901488783201124e-01,1.155934439811260594e-01,1.305855048733666202e-01,-9.311701944961015606e-04,-1.594269662481765997e-03,-2.459751982636789250e-03,1.033578589558601379e-01
1.851280715036490720e-01,1.434260753218619122e-01,1.390343173150339895e-01,5.547167539520519997e-02,-7.358748960888795987e-02,8.909870155145752438e-03,1.663019061088562012e-01
1.274040704361748266e-01,1.337069269168011942e-01,1.171574995618560877e-01,-2.717713994199305941e-02,-7.213847015707436361e-02,-5.156113496603467912e-03,1.345983892679214478e-01
1.385445047184502287e-01,5.529938133154270463e-02,4.119220249050866561e-02,-5.215840610720236942e-02,-7.161501979441332877e-02,-4.032603269998596279e-02,1.916489303112030029e-01
2.532225631767955898e-01,1.086216803888264693e-01,1.336210099641015892e-01,-5.900495237563909041e-03,-7.314240395420472905e-03,-1.709010716634964608e-02,1.380601823329925537e-01
3.769657935162505913e-01,1.488879321969962255e-01,2.499204821948078359e-01,5.233874499891401355e-02,1.298149415670675835e-02,-2.366085544943322475e-02,2.226811498403549194e-01
3.045613564066642631e-01,2.355839907964697444e-01,1.752314672767303350e-01,3.578598271916436785e-02,9.528653472963403981e-02,-2.901782913546515838e-02,2.148716896772384644e-01
2.426319866791809554e-01,1.181700911839108081e-01,1.387752836740200890e-01,-2.643575102034799885e-03,2.673149766139264541e-03,1.468515707580750167e-03,1.157568469643592834e-01
2.742559665166028893e-01,1.386639526980168735e-01,1.783967248671844419e-01,-3.434918727749167872e-02,-4.748621828272641190e-03,-1.491401915898708623e-02,1.372988522052764893e-01
3.975877179975496056e-01,1.972897672739618580e-01,2.374819714322142783e-01,3.793436048236460689e-02,2.116575552115432593e-02,-4.282765671388651108e-02,2.117732465267181396e-01
2.451982552454175512e-01,1.438840764320908905e-01,1.190570687403672695e-01,-1.791626055904851217e-03,-7.378567183468721924e-03,-2.295224699077198696e-03,1.165548563003540039e-01
2.178029525658329579e-01,1.161903990479233872e-01,1.244992730740312192e-01,-1.840165094719371786e-02,-1.851658374123696382e-02,-1.556548985310103259e-02,1.110007613897323608e-01
2.311064061736241015e-01,1.160674017296064314e-01,1.386341221666884393e-01,-7.577462702833962557e-04,-1.677168434941902575e-04,1.672435178719956913e-04,1.055891439318656921e-01
2.399553303111956470e-01,1.164026077206259252e-01,1.407521317172543140e-01,9.179254927230613009e-03,-7.239698679174157592e-04,2.567623383840920634e-03,1.145593822002410889e-01
2.552215974590087422e-01,1.461021524446269315e-01,1.157311564164299478e-01,3.295144449666991644e-04,-1.207038112392806121e-03,-1.608802194013561832e-03,1.271061748266220093e-01
3.174980916615959270e-01,1.660260777922019648e-01,1.272643084656024381e-01,3.575300304297771015e-03,-5.581372315667654585e-03,-2.329072239939473932e-02,1.790998280048370361e-01
2.848427703380691511e-01,1.621797190836037350e-01,8.975824597594349308e-02,7.846917996627780648e-04,-6.044569450666149868e-03,-3.100740099724707925e-03,1.712157577276229858e-01
2.309112658598833634e-01,1.124418382747030126e-01,1.360853301351289957e-01,-6.797015871179894284e-04,-3.703037613883730395e-05,-3.761670133415891777e-04,1.086038872599601746e-01
2.504614021285084813e-01,1.290201824957037113e-01,1.212517260215205950e-01,-6.519820294006876743e-04,4.528392974211970651e-04,-2.999953349403135412e-03,1.256209313869476318e-01
2.322375327313142557e-01,1.062406552202504739e-01,1.419791545149808043e-01,-1.412373036848354850e-02,3.722720505268943113e-03,1.055817996711855104e-03,1.152947247028350830e-01
3.978861320132973667e-01,1.918221679350815001e-01,2.390865099672586924e-01,5.938351200613944253e-02,-4.269475946419573620e-02,5.773036393544326433e-02,2.469876855611801147e-01
4.591808685266317580e-01,2.171480016995178119e-01,2.742278514458033056e-01,2.686178921523248164e-02,-1.003238470365806594e-02,6.396772604381839589e-02,2.505295276641845703e-01
2.513007471567170747e-01,1.224242949756405019e-01,1.337849519318704550e-01,-6.288703499554302093e-04,7.549566391226506228e-04,1.641349563373990100e-03,1.236327663064002991e-01
2.294386970834011441e-01,1.162732695847654152e-01,1.239891557552311591e-01,3.896624619340105684e-03,-4.015791239500560335e-03,4.177750099703969947e-03,1.101774424314498901e-01
2.360421852600818327e-01,1.339808300976647604e-01,1.151548247027893712e-01,1.362654984703579562e-03,-8.612654200769811769e-04,6.325602323249424888e-04,1.127002313733100891e-01
2.684220073552245900e-01,1.532462273221139593e-01,1.372509593019946572e-01,1.188940373769024027e-02,-1.432343475698334180e-02,1.215973062431816715e-02,1.297948807477951050e-01
2.417720206732919541e-01,1.204431839069737553e-01,1.194556721501274926e-01,1.356153203732214391e-03,-1.634128503730009193e-03,4.337496548227048540e-03,1.221124306321144104e-01
2.475515901395729523e-01,7.970896094747324800e-02,1.680900185528961810e-01,4.944737543590152495e-02,-2.911704187773249755e-02,2.685585712279691534e-02,1.821825951337814331e-01
2.495789836047264398e-01,1.342346892434043149e-01,1.042376555272505334e-01,1.848180841446967924e-03,-2.330658959525170031e-03,5.462983163813385848e-03,1.333423852920532227e-01
1.516421607362603285e-01,6.649932287704792000e-02,1.008500265593741535e-01,4.132489803020953506e-02,1.419792772561837176e-02,-7.667578428211748592e-03,1.068125367164611816e-01
3.422101004228327303e-01,1.501815755159918719e-01,1.137399088683044707e-01,3.877108018232870018e-02,6.833446104153098610e-02,-4.109408701080394938e-02,2.622696161270141602e-01
2.330516717550349393e-01,1.111707963861002235e-01,1.267704141257711692e-01,2.756148869161932895e-03,3.286112548648832416e-03,-2.685645009143697044e-03,1.152120828628540039e-01
2.312865625024093652e-01,1.121431173197763170e-01,1.314844817447208825e-01,-1.907608452911658354e-03,-1.302262446541764497e-03,-8.612344146069829702e-04,1.108290627598762512e-01
2.243498473556784223e-01,1.115585595387499629e-01,1.344401966653367975e-01,-3.721597900835359098e-03,5.350743427008471722e-05,6.053666542993448247e-04,1.034758612513542175e-01
2.066291938287295182e-01,6.253792201044899857e-02,5.726967668337472339e-02,-4.830687167086383793e-02,-5.424500038494332183e-02,-4.812293171299948658e-02,2.105346322059631348e-01
2.336410955244419552e-01,1.141918053347836526e-01,1.379158321382174535e-01,-8.021552882848401525e-04,-6.495442884619081689e-04,-3.617335143710391845e-04,1.095478534698486328e-01
2.420306895525309865e-01,1.172947210125604295e-01,1.288424710606866086e-01,2.098966304192847847e-03,2.959856945587363477e-03,-2.198786967592321687e-03,1.196076720952987671e-01
2.111514436386326410e-01,1.483410986806232845e-01,8.504460490408068118e-02,1.306497427347744905e-02,6.376478204708733999e-02,-1.166118225868731546e-02,1.582565456628799438e-01
4.239457865762414346e-01,1.469322529711100112e-01,2.410081074173163196e-01,-3.192214916357930671e-02,-7.936816760546333560e-03,-4.422990179072995576e-02,2.619950175285339355e-01
2.310718581053166076e-01,1.044028716897633519e-01,1.335084749262948067e-01,-3.634073636954980764e-03,-1.356834775487283126e-04,-2.248337417123298947e-04,1.150878667831420898e-01
2.384821360914490262e-01,1.153655766024434814e-01,1.395715006162339400e-01,-1.474372104512276056e-03,-1.085460110616458598e-03,-1.230737670686519753e-03,1.130400970578193665e-01
1.768584249787678586e-01,1.505788575568663412e-01,1.483079404841612936e-01,-5.635234820223734668e-03,-7.834972963095298334e-04,-1.812628892464004113e-03,2.936694584786891937e-02
2.647709497613474627e-01,1.612109101332152850e-01,8.028349657020164565e-02,-4.553201751950243167e-03,6.130262140381188135e-02,-2.899355007208589789e-03,1.923960000276565552e-01
2.483770037473378711e-01,1.091527338669597280e-01,1.284729405054727269e-01,9.681967761123324667e-05,7.587006531691669296e-04,-4.907336077378886274e-03,1.309229880571365356e-01
2.431377792430914897e-01,1.269156911122551468e-01,1.223733342730161655e-01,1.525907091878056336e-03,-5.172768371832757190e-04,7.978737766139379220e-04,1.185994371771812439e-01
2.473332732430342795e-01,1.302787842790264494e-01,1.271780449659929424e-01,-2.235097588863792922e-04,2.066447097773619615e-04,-8.280391376747398046e-04,1.186450943350791931e-01
4.204117686755793337e-01,1.316230819933460194e-01,2.708367422936629465e-01,-5.494290513693649014e-02,-6.975509389674706094e-03,-1.618872946464735424e-02,2.693777680397033691e-01
2.950184221485528946e-01,1.292636464417499520e-01,1.232446428238501979e-01,-1.730340286856851817e-02,-6.749437788937651117e-02,-5.120187979598742056e-02,2.256948053836822510e-01
1.063477156592804451e-01,1.141870320568592057e-01,1.188851752807384560e-01,-9.861344400442968033e-03,-1.141118368655558358e-04,-2.791860584582480254e-03,2.086907997727394104e-02
2.056255394555067673e-01,1.743364130960725622e-01,1.808549134430028904e-01,-3.917762137156206859e-02,1.672844296330013372e-02,2.344384562509439340e-03,7.923515886068344116e-02
1.721739687360857862e-01,1.486897557238165968e-01,1.501349195414210247e-01,-1.916297646306682834e-03,6.501592167791253596e-03,1.001076826074085921e-03,2.570006623864173889e-02
1.122292189279832930e-01,1.224860708527808206e-01,1.255534843382327959e-01,5.658746685932649310e-03,9.924513947180216571e-05,1.520838775605794484e-04,1.556397229433059692e-02
2.491506537132560650e-01,1.424771492615535262e-01,1.132721186675655911e-01,1.139037147113449973e-03,1.289129706857285998e-03,-5.945530383714521180e-04,1.239254251122474670e-01
2.625337835093983219e-01,2.009500109815278712e-01,1.851409606266336272e-01,6.801248477890857458e-02,6.564458156895332241e-02,-2.585766468078896929e-02,1.839202344417572021e-01
1.996917717522234681e-01,1.174744559428631818e-01,1.272378783884282050e-01,8.201250941330465172e-03,2.409563083761954820e-03,-5.148486336817752369e-03,7.969322055578231812e-02
1.572075042284027668e-01,1.249269531341900830e-01,1.334398608342312609e-01,-1.025300760445467356e-02,1.847831828010934423e-03,4.343958522642339323e-03,3.495608642697334290e-02
1.439664037129612939e-01,1.559627794387483113e-01,1.432513194036828252e-01,-1.134782706214889497e-02,1.018867554124905199e-02,7.223280171549301999e-03,3.173762559890747070e-02
1.693931771802537622e-01,1.497586957922903972e-01,1.539450477294108666e-01,5.105615048027033719e-03,-3.100094629918336096e-03,3.295138398147270768e-03,2.145807631313800812e-02
2.370692968027095504e-01,1.222592257876583682e-01,1.200406715065810009e-01,-7.053249263827358331e-04,6.198494236965962616e-04,1.428865703215457519e-03,1.159730851650238037e-01
2.403039492212124262e-01,1.197314150108558101e-01,1.299114653259276775e-01,1.116829560655880618e-03,-2.570737447151467785e-03,2.039903459552360604e-03,1.159740760922431946e-01
1.544321996355936810e-01,1.452967200341981069e-01,1.318833340626258399e-01,-1.741333533076742934e-02,3.680611484273539624e-02,-6.669985912000794782e-04,7.321879267692565918e-02
2.614118158879649712e-01,1.434479108191495933e-01,1.222161046147579033e-01,-1.898292954816872130e-02,1.609319753224325300e-02,1.886596430936440805e-02,1.407006084918975830e-01
2.514597007050865529e-01,2.436029527064136890e-01,1.741510556355388706e-01,7.555716566172956256e-03,1.039095654229036381e-01,-5.817698939079425820e-03,1.951803267002105713e-01
1.551813543156636555e-01,1.491731856586362981e-01,1.354977954927339412e-01,-2.976217987418336777e-02,7.209896025030063105e-02,1.991391797751914522e-02,1.405244171619415283e-01
1.316976383528705719e-01,1.278489488457806023e-01,1.301999660678078152e-01,-2.628151773948513015e-02,1.672874237935143699e-02,-2.331730241160009237e-03,5.421539768576622009e-02
1.323907527717748944e-01,1.246536224257537434e-01,1.262505744916498363e-01,-1.093103026249292974e-02,7.410402235073797195e-03,4.236296413120076414e-04,2.395413257181644440e-02
2.265955630415077415e-01,1.327307501812540758e-01,1.132511471108570145e-01,9.320321195834780584e-04,2.750711128366572448e-03,-2.673639659648978460e-03,1.051915287971496582e-01
2.188418379090911192e-01,5.933153873074618889e-02,1.446579840988813925e-01,5.695767239924948849e-02,8.718562773094658616e-03,1.393085468964839471e-03,1.705288290977478027e-01
3.596125993148531208e-01,2.307785270828744684e-01,1.110677082472213834e-01,-5.849917308807168689e-03,9.203575042731930445e-02,1.129663820359791404e-02,2.687917053699493408e-01
3.517525565152572753e-01,2.183153241924831178e-01,4.676462129121852773e-02,1.289611034224364631e-03,7.036952535010440601e-02,-1.006109300329222078e-02,2.920456528663635254e-01
2.433559991529416489e-01,1.238874638271490747e-01,1.336930034623613484e-01,4.529015967073388334e-04,-1.514436403649840630e-03,9.249413572662324194e-04,1.149238348007202148e-01
2.949635373224147594e-01,2.412683909470181021e-01,1.751768541977501425e-01,-1.459795724691974675e-03,9.619953495070296401e-02,1.079753168221711003e-03,1.964000910520553589e-01
2.698298774678014045e-01,6.531164515478571353e-02,1.151272643292117481e-01,2.032664762675930048e-02,2.963359537470843050e-03,-4.284271375290012174e-02,2.022213041782379150e-01
4.009345708444906897e-01,2.227314504300681730e-01,2.096083674588699319e-01,4.157240183645957016e-02,5.406907159047846106e-02,-5.238483544512596846e-02,2.376022785902023315e-01
1.401008892686556040e-01,6.869560121996579061e-02,1.340155349456291500e-01,7.589832364049951818e-02,3.396454489716767278e-02,-3.775062985996399667e-02,1.723919659852981567e-01
2.534866360140063390e-01,1.361979580567929671e-01,1.222430719064033500e-01,7.267347748807195243e-04,1.102443981353946282e-03,-1.259206602574934088e-03,1.248923987150192261e-01
2.202742834548196971e-01,6.611277135098279911e-02,1.282278056040521697e-01,4.667960326885274569e-02,9.278835718197053078e-03,-1.778216957533246961e-02,1.605993956327438354e-01
2.209840555630161740e-01,9.195167179054132556e-02,1.400328571299938318e-01,2.102089138079372282e-02,1.088082582588579747e-02,-7.449991864009575249e-03,1.208488494157791138e-01
2.938492425712913581e-01,1.470901408276481248e-01,1.839528260614177180e-01,3.930040111666784769e-02,-6.260840918415400309e-03,-1.351207665288714846e-03,1.491435319185256958e-01
2.538132051482145934e-01,1.448062278573687411e-01,9.767603392101027737e-02,3.286361700166705226e-03,1.529625870917527240e-02,-3.505727030030286132e-03,1.414655148983001709e-01
2.294102346548301530e-01,1.191950425824955112e-01,1.457044530746966216e-01,1.215509138405845325e-02,-5.985947699918714058e-04,2.557113171423019407e-04,1.018474698066711426e-01
9.743890019736373143e-02,1.339368885779726182e-01,1.034287469101214246e-01,1.286077126095760449e-02,-5.449903394687960478e-02,2.012480999413654784e-03,1.028014943003654480e-01
2.179456110684965253e-01,1.035295703364627895e-01,1.256079156572125766e-01,7.805591890725744643e-03,1.948335800825944011e-03,-3.422192917550771155e-03,1.062152087688446045e-01
2.327641740989028762e-01,1.148583734504806803e-01,1.384735452917826293e-01,8.272310514877476541e-04,8.162698930958170549e-05,2.532194597087195464e-05,1.080609261989593506e-01
2.289512741516628869e-01,1.139328726303661804e-01,1.351773830911413843e-01,7.424295062952651148e-04,3.677660400461907038e-04,-1.530268872397622451e-04,1.060150042176246643e-01
2.318417939133480266e-01,1.182369339174318690e-01,1.392864224835188847e-01,8.747333382688735667e-04,2.507352695475349854e-04,-1.143721851142325777e-03,1.047102138400077820e-01
4.476158895013961914e-01,2.637067540276533117e-01,1.880210797763965103e-01,1.259423800810978910e-03,6.276876439254447729e-03,-6.133103443626432977e-02,2.547108530998229980e-01
2.072592809116667045e-01,1.122906454628770645e-01,1.273855433361958944e-01,-5.844317335801760445e-03,3.085370765103168361e-03,5.780430410956861886e-03,8.969181776046752930e-02
2.417062142465920549e-01,1.178722572810675107e-01,1.306841557562316292e-01,-1.479069954922710740e-03,-1.959228180692333416e-03,-1.407699061714378285e-03,1.180528253316879272e-01
2.313696361863328277e-01,1.615662466249792595e-01,1.902251210191967801e-01,-3.828312634410959564e-02,-1.637046401781972957e-02,-9.534986500055084649e-03,9.574379771947860718e-02
2.434603498377466979e-01,1.242869337058880863e-01,1.226164250397500238e-01,1.283468596836697317e-03,-4.896108177227254934e-04,1.373035369526412605e-03,1.200645267963409424e-01
2.459603388938880197e-01,1.267643823593457009e-01,1.245244494880279329e-01,5.660657125253834576e-04,-5.036488285098391715e-04,1.346337729411171405e-03,1.203613057732582092e-01
2.437312934806867837e-01,1.228613690030577327e-01,1.239667605826079710e-01,5.958911723188357185e-04,-9.360896507740521346e-04,2.148798164229467639e-03,1.203939318656921387e-01
2.458703837273792381e-01,1.273792956089320749e-01,1.252534169990872082e-01,1.124981395854425352e-03,-8.816303715207712605e-05,1.279795190964561243e-03,1.196047216653823853e-01
2.660769512677521598e-01,1.322346846853910685e-01,1.232708096349031945e-01,-2.817855667838314784e-03,-1.090642771372416419e-03,-9.520131109966795471e-03,1.396178305149078369e-01
2.235018756111891713e-01,1.298944858297105820e-01,1.100239667801690413e-01,7.866247807536726330e-04,2.869108349714399354e-03,-2.126216931904098811e-03,1.051538065075874329e-01
2.697730416835731337e-01,1.958603561967297846e-01,1.908233282881540982e-01,-6.228071372414180351e-02,-5.108921443079941088e-02,-3.249224950058277744e-02,1.688045710325241089e-01
2.155919580491196252e-01,1.581516998170658939e-01,1.100753456695373750e-01,6.789844149329848574e-03,-4.157017957458102042e-02,-4.074857373296658647e-03,1.172373518347740173e-01
2.717537568317466290e-01,2.439550074126455581e-01,2.012936674480166610e-01,-2.339909289220027874e-02,-8.895613506333720222e-02,-7.162219249890177178e-03,1.712154150009155273e-01
2.083981155836968913e-01,2.115960773637163006e-01,2.303658057898851641e-01,-6.756160045539699732e-02,-4.790260406144015298e-02,-5.958415093416821046e-03,1.452816277742385864e-01
1.783299380489331565e-01,1.358180625898091354e-01,1.493733499023609801e-01,3.025506289195582441e-02,-1.296914266997580868e-02,1.287526753200427324e-02,7.185237854719161987e-02
2.319075359095570665e-01,1.171732507272365831e-01,1.216297280986473189e-01,-3.127246073377300522e-03,-1.863313961528394571e-03,-3.254551517475781468e-03,1.128894910216331482e-01
2.434362955657254635e-01,1.402349851912576273e-01,1.174718823604096601e-01,-2.207109870877104005e-03,-7.241155932111070608e-03,-2.579260849798530476e-03,1.170885413885116577e-01
2.539375131562633392e-01,1.455456500588445667e-01,1.796409089473285092e-01,4.195731466614127658e-02,-8.461742729928984838e-03,1.328748101942872975e-02,1.234558895230293274e-01
2.897293374459310455e-01,1.563563349344717635e-01,1.167042118026837966e-01,-5.587830025615773619e-03,-1.563163104733080941e-02,-2.010596367442527357e-02,1.633665710687637329e-01
2.088086154212080991e-01,1.220986356177197335e-01,1.077014496702922430e-01,-1.525880160066559084e-02,-2.258800142662627242e-02,-1.675646224929835948e-02,1.097531914710998535e-01
1.682095908549042507e-01,1.065432122843308765e-01,1.717679862211888842e-01,6.395096104675075666e-02,-2.194898937950515855e-02,7.805561393373192450e-03,1.339106708765029907e-01
2.523789622486558026e-01,1.175140202246799659e-01,1.546735547746219686e-01,2.401897086096194817e-02,-2.146916647253079014e-02,1.562403871427006825e-02,1.356602609157562256e-01
1.595516354450574048e-01,1.620136663961335155e-01,1.558064906264547689e-01,-2.221877422273977817e-02,1.802057462533992668e-02,7.229128300191628095e-03,5.139391496777534485e-02
1.973533419346046036e-01,7.630496440467807173e-02,1.152500437529040272e-01,6.980746437600232612e-02,-4.052447766487189684e-02,2.800913520521822880e-02,1.826326102018356323e-01
1.627707980735205451e-01,1.305913984221644120e-01,1.359650306649731744e-01,-1.070495569288641181e-02,2.102390197095403788e-03,3.686732709650902568e-03,3.590673580765724182e-02
2.364092295822536327e-01,1.366673728399404597e-01,1.136349225433065657e-01,2.134347105619897357e-03,-1.607446003245873410e-03,4.996841863039718380e-04,1.131300032138824463e-01
1.517773136361732778e-01,3.879083386883692974e-02,9.421304071976330241e-02,7.071271597892031524e-02,-1.903750815094370011e-02,2.299075880243912212e-02,1.650741547346115112e-01
2.343787742614172609e-01,1.322680394096676926e-01,1.120926199309309756e-01,-5.068464430183980407e-03,-7.291740480554302628e-03,-3.193505539813407210e-03,1.147211790084838867e-01
1.953523708078347687e-01,1.494424466486340974e-01,1.274814451747463551e-01,3.319532543418125207e-03,-1.366410247434394869e-02,1.811206948270287264e-03,6.481710076332092285e-02
2.138393390812247385e-01,1.388393936665138217e-01,1.575421718470311483e-01,1.486865539597702519e-02,3.090806924351684908e-04,-7.935507826059461567e-04,7.237046957015991211e-02
1.905850561441572721e-01,1.326836750150897637e-01,1.264725936463710343e-01,1.694061196897987459e-03,3.898753482181071574e-03,-7.342534038001670774e-03,6.298195570707321167e-02
2.434053909994216003e-01,1.242326399388483382e-01,1.247219459537435571e-01,3.869541701014290991e-04,-3.748747992794198062e-04,3.224132017530302076e-04,1.189338266849517822e-01
2.174041194204933691e-01,1.208309533788062828e-01,1.322503579496977499e-01,1.322992730945135760e-02,-1.366008237851905165e-02,1.017813568899274962e-02,9.874027222394943237e-02
2.403829160234278728e-01,6.751229254910270927e-02,1.268175088167002862e-01,-1.078856388053669492e-02,1.391990105633851994e-03,9.738943529505640628e-03,1.542360633611679077e-01
2.502025629666012052e-01,9.527425007315512562e-02,1.331800571084940099e-01,-2.219133656393817294e-02,6.282165870989190638e-03,1.659318694944710015e-02,1.482859253883361816e-01
2.314679322011092277e-01,1.415485140844504053e-01,1.399839681790904511e-01,-7.203673344726289896e-03,7.433971461359127272e-03,8.055389411140109410e-03,9.351348131895065308e-02
1.204209539465830037e-01,6.503569684152026020e-02,4.108700837949335466e-02,-4.432489496020467629e-02,-6.630316165148403273e-02,-2.264768301455031760e-02,1.599645018577575684e-01
9.807238112401232832e-02,1.837560725631428582e-01,2.111858036131610272e-01,-3.374714075662443857e-02,-1.801001560194942855e-02,5.889838698270699613e-03,1.222216263413429260e-01
2.556421477615770654e-01,1.001831061667003697e-01,1.413780008102944741e-01,-1.121959804578843110e-02,1.616401837666919718e-03,4.931752255111563135e-03,1.411341875791549683e-01
2.150548389366518376e-01,7.920821586832302308e-02,1.027563043696827771e-01,-2.522374290262643926e-02,1.797487938881126013e-02,2.462289585895933997e-02,1.432017832994461060e-01
1.865771709536972467e-01,1.326636946713128651e-01,1.204143357130219028e-01,1.447651104405137199e-03,8.078881797609410373e-03,-2.865758788297848372e-03,6.280004233121871948e-02
1.834705641522594299e-01,1.244255880013419580e-01,1.111228519649446606e-01,-7.977166975784308334e-03,-1.368189096620302074e-02,-4.940849168639534390e-03,7.262545078992843628e-02
2.646938268497381341e-01,1.193939861231947536e-01,1.529096468156117272e-01,-1.339059874810169049e-03,4.087147238467624295e-03,4.891276734733826688e-03,1.322603076696395874e-01
5.234153401981941900e-02,9.670793480416561838e-02,1.009073001484922655e-01,-2.670270236938604783e-02,-3.080415145976851329e-02,-6.858691519960085498e-03,8.543557673692703247e-02
2.578767065171030382e-01,1.139370114875862539e-01,1.477522306665144392e-01,-3.228975828513561391e-03,3.072895892812229929e-03,4.043169142927370563e-03,1.307799667119979858e-01
2.321690372297260663e-01,1.184562773888086090e-01,1.349304075118635537e-01,-1.162945991085955139e-03,1.264359462405604531e-04,8.075357239855039931e-04,1.064646989107131958e-01
2.368249228352110047e-01,1.225667593819532442e-01,1.242572377960947660e-01,-2.571283672750923057e-04,5.804995747392816116e-04,1.934608296453056969e-03,1.134771853685379028e-01
2.355961630747741009e-01,1.125341443533121460e-01,1.365074562106065592e-01,1.921666903642116906e-03,1.907460583856801159e-03,-1.499676660204421648e-03,1.131261065602302551e-01
1.615439208079027245e-01,1.898401466148054162e-01,1.651452748405823623e-01,-2.903445121667068071e-02,7.586446514683704845e-02,8.503742636510300962e-03,1.439580917358398438e-01
2.073260540251153361e-01,1.320962592775496991e-01,1.120423965503155594e-01,2.033778868848791065e-03,-8.085977841294928956e-03,2.740526915586895436e-04,8.819926530122756958e-02
8.658809012742273159e-02,1.245275908092335765e-01,1.403272844565627842e-01,-1.648252355689625720e-02,-1.298274004408642591e-03,2.693085422464197749e-03,5.594911798834800720e-02
2.258715979938218654e-01,1.277299393944641148e-01,1.195077280081357496e-01,-7.181622130041589070e-05,8.812757566933933232e-04,3.348666528514939421e-03,1.026757881045341492e-01
2.939351121890726448e-01,2.513830035896220116e-01,1.749775618983228087e-01,2.877328122456641185e-02,9.636487305695004557e-02,-2.984067022716518219e-02,2.095551341772079468e-01
1.344508397616446804e-01,8.884178733325273636e-02,-6.749670369867732944e-03,-1.331957185607350776e-02,9.123421544519590143e-02,1.899781471610377526e-02,2.053382098674774170e-01
2.320276173294291699e-01,1.410341157046952343e-01,1.306410308356429906e-01,6.399176925144540312e-03,7.325300444161807027e-03,-7.904381672735497771e-03,9.901920706033706665e-02
2.387405727770104680e-01,1.233880949570085733e-01,1.184275663721888194e-01,-2.453828248246469300e-03,1.435516667773605688e-03,1.556695153296288074e-03,1.180445924401283264e-01
2.316393315725637780e-01,1.267367818360135567e-01,1.250722641096502219e-01,-8.627084823704932529e-03,1.441206381980842353e-02,1.069691719585311521e-02,1.112277060747146606e-01
2.524738610257840632e-01,1.514149698333223104e-01,1.000984274327019752e-01,-2.267862985452533207e-03,-1.439937273319895350e-02,-7.338908415300331341e-03,1.372272372245788574e-01
3.238329536132465991e-01,2.108578421866438291e-01,2.094445527138747154e-01,-6.047697937552855285e-02,6.908357050499139285e-02,3.642742939840351579e-02,2.054164707660675049e-01
2.932815300552547022e-01,1.728700656392134494e-01,1.041650334116347443e-01,1.247347396641223334e-03,1.042393187082372346e-03,6.134936145392502413e-03,1.661716401576995850e-01
2.361146699772052049e-01,1.236022785490480252e-01,1.244027552395026714e-01,4.998111920418550364e-04,-5.359485594607203170e-05,2.822355624491507901e-03,1.122241988778114319e-01
1.940220019487639280e-01,1.246556702697701469e-03,6.808321536878264579e-02,4.674419416559686541e-02,-2.420968004804401053e-02,4.369393385985719663e-02,2.068475484848022461e-01
1.150487999029423253e-01,9.687250353302821748e-02,6.656776737855821247e-02,-2.869820135006155570e-02,5.971142700620835075e-02,1.566892136581720177e-02,1.253126114606857300e-01
3.532001187079863991e-01,1.778209123413603820e-01,1.075446955598284710e-01,1.398471783830352970e-02,-4.077203437910492667e-02,-2.442208228012994475e-02,2.353395521640777588e-01
2.380221488065002999e-01,1.209613131403882713e-01,1.281565565000067353e-01,2.952033820175426122e-04,1.605774467844447724e-04,1.645640595045230400e-03,1.136714220046997070e-01
1.984210889937165490e-01,2.201807456161666843e-01,1.754529685753414281e-01,4.177143113567224897e-02,7.388009626906642813e-02,-2.027234456090795320e-02,1.560226380825042725e-01
1.203075349734057387e-01,7.700003302251240411e-02,1.268464908965850069e-01,6.593542600056703784e-02,-3.586400883864783451e-03,2.321181646307151746e-03,1.236878111958503723e-01
2.695804638613389370e-01,1.478119449714562217e-01,1.108392022603359867e-01,-2.678953290147975935e-03,-1.251925644317561891e-02,-9.715557437812256600e-03,1.465318202972412109e-01
2.390310366693797484e-01,1.297822075838429567e-01,8.455530373015933410e-02,-2.741053974006006731e-03,-1.524134578206408526e-02,-2.826681735962214507e-03,1.402325630187988281e-01
2.241066897188587759e-01,1.187336008417638061e-01,4.713756110267075528e-02,-1.541900165929542023e-02,-4.432127266783137537e-02,-1.302910434505319751e-02,1.757538318634033203e-01
2.548753436987800103e-01,1.294397394832068615e-01,1.422475138242392800e-01,5.972537082735443481e-03,3.555490067928781649e-03,-5.054725581759169847e-03,1.204706132411956787e-01
6.209738781394684437e-02,1.434567609348527395e-01,1.796919861634079241e-01,-5.635734723267261936e-02,-2.789769291050332722e-02,1.114632178626664624e-03,1.508225351572036743e-01
2.481927256055289077e-01,1.157334355376355289e-01,1.135717726637583691e-01,5.363942973020495572e-04,3.792807668115925901e-03,-1.437550289528457918e-02,1.360163688659667969e-01
3.659132171971630765e-01,1.565853711312879259e-01,1.136154547658660974e-01,1.357640926025796904e-02,-4.097810108275179962e-03,-4.925352486907256383e-02,2.500808238983154297e-01
2.213802835265998303e-01,1.328045111620432817e-01,9.921233616157572321e-02,-1.250114849930011656e-03,-1.438523374484146182e-02,-6.162707068030912408e-04,1.121435984969139099e-01
2.485727843842410190e-01,1.085945815097837663e-01,1.396037307876492328e-01,-2.387061043944472410e-03,-2.882875726035310452e-03,-2.987239155019148600e-03,1.276074349880218506e-01
2.424260443026193257e-01,1.239443507817620110e-01,1.206115503371753550e-01,1.408984360120293456e-03,2.933920831429064936e-03,-2.596153933819005544e-03,1.203988939523696899e-01
2.194669920373855942e-01,1.182874923017957075e-01,1.252794830944785331e-01,3.102197625984375994e-03,2.857990028774149652e-03,-6.033694121077677434e-03,9.869814664125442505e-02
2.038412159680871305e-01,1.333725542730928859e-01,1.190425811499095377e-01,5.211196144590915166e-03,-1.406207526115092581e-02,4.966159870062466890e-03,8.324468880891799927e-02
2.309477085353621173e-01,1.141684801408817118e-01,1.306228163303594647e-01,1.636785044270081934e-03,1.460083310737916775e-03,-1.341755286322976644e-03,1.095739156007766724e-01
2.272434309271981756e-01,1.131693694892922514e-01,1.318176723142523987e-01,2.105424057672803436e-03,5.991846416975236782e-04,-1.909815097108821021e-03,1.061069294810295105e-01
2.586797824570123971e-01,1.054133422045960139e-01,1.470271845601255345e-01,1.322134590160192573e-02,-3.244433316070046563e-04,-1.986511891442758419e-03,1.392152160406112671e-01
3.939048724755634390e-01,1.686106490964229820e-01,2.604917196543590774e-01,5.888440510164083541e-02,1.556143242011726914e-02,-2.146801851646416501e-02,2.258551865816116333e-01
2.421716227596708015e-01,1.346170902642288281e-01,1.106948690599465768e-01,1.474464611820219687e-03,3.053610941831567602e-03,-1.477506639993649180e-03,1.214670240879058838e-01
2.390517078936220674e-01,1.323540093913999072e-01,1.003529448618909609e-01,2.208495992739426244e-03,1.109253910986012295e-02,-7.141613601759641029e-03,1.279049664735794067e-01
3.249902890270257583e-01,2.061905664155737894e-01,1.901241278491240805e-01,5.630233351729165003e-02,7.298970438842078412e-02,-4.552539338755246662e-02,2.190667241811752319e-01
2.419901567520391650e-01,1.247742306631600823e-01,1.226226442014793361e-01,1.339618937232178904e-03,4.637363910424480086e-04,-7.523029262994679507e-04,1.183390468358993530e-01
4.243436488651027849e-01,2.880607160219201823e-01,2.063312285453953177e-01,2.832300534702308567e-02,6.010483717187702773e-02,-4.911087141424998886e-02,2.384765595197677612e-01
2.646915994208133283e-01,1.351090172110189225e-01,1.347944420049615177e-01,7.704228348097660645e-05,-8.956856607835497449e-04,-8.271668657324520585e-03,1.305380910634994507e-01
2.426330301183709515e-01,1.142133785953977909e-01,1.314068716339874543e-01,1.934529636973323198e-03,4.348317245360791561e-03,-3.535431298878480462e-03,1.211804002523422241e-01
2.457858810322443022e-01,1.206709862075287659e-01,1.398641953496645995e-01,1.884495116878280585e-02,-1.190756970728670816e-02,1.288135161273588729e-02,1.249372437596321106e-01
2.527750480168549641e-01,1.366367672883221918e-01,1.222193439518035885e-01,6.641284911731777001e-04,3.067406272618751527e-04,2.106010886915955348e-03,1.240374445915222168e-01
4.105200380162866702e-01,9.314818555764889374e-02,2.716163647800328707e-01,-4.662916194420075461e-02,1.258900970070396053e-03,-7.903208494999707998e-03,2.874890863895416260e-01
2.394343294418672108e-01,1.074129819616082976e-01,1.273380370402691086e-01,8.118154453994160663e-03,-4.628141268402404147e-03,8.501364046758250886e-03,1.251994520425796509e-01
2.479815468751552787e-01,1.269974434446613509e-01,1.282490005520282583e-01,2.661044389077518030e-04,5.448212313174417842e-04,1.702052773191843355e-03,1.204038858413696289e-01
4.162080184234118740e-01,2.439086643028086365e-01,9.519115783400519670e-02,5.441564142152472382e-03,3.179885121889151466e-03,7.690914799248322123e-03,2.787911593914031982e-01
2.506793762157943917e-01,1.400770348669251320e-01,1.072343382538812062e-01,-2.769274091462563172e-03,3.307157724910580587e-03,4.474847229981737326e-03,1.306135207414627075e-01
2.491467291956913910e-01,1.357964555629126435e-01,1.147887900568324709e-01,2.140163027511509612e-03,-1.484420930930179915e-03,3.252719186558606940e-03,1.253910809755325317e-01
3.860366811393481923e-01,1.858184717552729959e-01,1.104218153679248082e-01,7.498070282993207769e-03,2.002536477122730807e-02,3.462884977027614469e-02,2.565871179103851318e-01
2.672032621185069234e-01,1.518150494407043416e-01,1.151723797826291473e-01,-3.307537343959219764e-03,4.303288660171659258e-03,8.287305560301876095e-03,1.384906768798828125e-01
2.991868046472171971e-01,1.601344740066138472e-01,1.334501503894073571e-01,7.992744173390136861e-03,-2.140950128604028006e-03,1.404413786776926611e-02,1.567011028528213501e-01
2.793590045731088045e-01,2.312133229499808706e-01,1.239150777528065100e-01,-1.596251477924243850e-02,-5.802495362146396080e-02,-2.218642196701553840e-02,1.770273149013519287e-01
3.720897013205044512e-01,1.507941353242780447e-01,8.287253441514251528e-02,2.031934767233279857e-02,-1.173140708828243313e-03,4.408143736288160780e-02,2.751146852970123291e-01
2.517805924821814867e-01,1.344682819192211387e-01,1.219703477505200695e-01,1.877019364779166028e-03,-1.694422564836534160e-04,2.376191045320245540e-03,1.241456121206283569e-01
2.607001028115907837e-01,1.422668985203943970e-01,1.239487520651721408e-01,-6.340791299857601775e-04,-5.153055529102124879e-04,3.084662497956246717e-03,1.286934465169906616e-01
3.281385308859582350e-01,2.326757010264240144e-01,1.583521878162389152e-01,5.672793157257895701e-03,-7.653513616997939528e-02,-2.179255485741589046e-03,1.985344737768173218e-01
2.532539794377584030e-01,1.342569862638354206e-01,6.242799207704084752e-02,1.550099022493862250e-02,-5.526289868658372517e-02,2.149465111685553917e-02,1.978281736373901367e-01
2.168358383528805611e-01,1.260838073640750956e-01,1.141974057948071664e-01,2.820656452122901996e-03,-4.849458045589762935e-03,5.521967360615931235e-03,9.819281846284866333e-02
2.511496235086689843e-01,8.939319670758365255e-02,1.098449209264595883e-02,1.230254123819715835e-02,-1.138539696313986549e-02,4.355275385266441091e-02,2.270014137029647827e-01
2.684223949928964958e-01,1.761458143993982484e-01,1.374609378239546598e-01,-3.998313676780804182e-02,-7.987299496397164134e-02,-1.731121659459883277e-02,1.959981322288513184e-01
2.485023840997999112e-01,1.388093873493310149e-01,1.148195324079905322e-01,-1.713772900300718216e-03,-2.139441369101142618e-03,-1.502131208307552930e-03,1.235673800110816956e-01
2.392587586748505246e-01,1.170808311180115829e-01,1.296394981891784426e-01,-7.982813756871678674e-04,-1.850188428027908045e-03,-1.144812847219089198e-03,1.164769828319549561e-01
2.255842237451102517e-01,1.089144186436822453e-01,1.191436493183571504e-01,-7.579447231808038483e-03,-6.062366102952305123e-03,-6.495336617596433187e-03,1.137198656797409058e-01
2.511093802007250408e-01,1.424986432878741771e-01,1.132033116441689968e-01,5.505457986118615643e-03,-1.530394373594761055e-02,7.279455241542109878e-03,1.295717209577560425e-01
2.403567036418786385e-01,1.142234161202511922e-01,1.298849731473123992e-01,-1.752011789580622822e-03,-3.873463958241512781e-03,-3.052120352859875613e-03,1.194219961762428284e-01
2.580697701282328449e-01,1.464855647869450495e-01,1.129694868174004746e-01,-1.265582789520013724e-03,-2.642671297610111117e-03,7.896487550408178040e-06,1.316813677549362183e-01
2.386397059113932184e-01,1.193152346363719196e-01,1.300580536541651178e-01,8.483910588775232884e-04,1.138927238946946756e-04,8.891469563835623525e-04,1.143522039055824280e-01
2.470322483214414944e-01,1.339939852797153441e-01,1.305400553958338816e-01,-5.026847959255308085e-03,-4.255137475707459517e-03,-7.582255669071414142e-03,1.161146089434623718e-01
2.486976699914208999e-01,1.411619106964218939e-01,1.098581950624833992e-01,2.297901227251160469e-04,-3.124965269128453411e-03,5.304856703405433013e-04,1.262554079294204712e-01
2.770228194029806801e-01,1.467295226712172496e-01,1.447705927671546766e-01,3.199888601397772418e-03,2.677562564391875767e-03,-1.136944920930030994e-02,1.329489946365356445e-01
3.500322328530771632e-01,1.954104000484032100e-01,2.202091610863589899e-01,-6.359081615016497213e-02,-4.075620422328561643e-02,-4.762155302170015259e-02,2.112024575471878052e-01
2.691801392621691047e-01,1.923289655113344931e-01,1.407535387422068351e-01,-3.226633475237760621e-03,-4.052070436621596494e-02,-5.648687001374325459e-03,1.325990110635757446e-01
2.464253381882947069e-01,1.265435989450738596e-01,1.244150176964925331e-01,1.202673709953814890e-04,-1.177744861879892561e-04,-1.111846765946891301e-03,1.209757551550865173e-01
2.054202157520469696e-01,1.390449580002393049e-01,1.597314388412943154e-01,3.589785635665829200e-02,-2.425037401022467690e-02,1.728776928369721300e-02,9.993670880794525146e-02
2.449835294383215789e-01,1.393805503845081117e-01,1.092573144348052416e-01,7.758630942205851184e-04,-5.126297908180111988e-03,2.363370011850949529e-03,1.238462775945663452e-01
2.632447607310589577e-01,1.524385118230214275e-01,1.152440329484749615e-01,4.268050664961000121e-04,-6.282886950853060030e-03,1.086896878867467907e-03,1.338108777999877930e-01
2.517312507229073626e-01,1.432389674292524062e-01,1.087347207297160445e-01,2.984768305942650177e-03,-5.911217921194970859e-03,7.428643933258464831e-04,1.297604441642761230e-01
2.507600087418205281e-01,1.111767956999751700e-01,1.374180590758962428e-01,3.421334122130718133e-03,1.922976283900081681e-03,-2.025906630087652687e-03,1.287158131599426270e-01
2.504036608000765329e-01,1.231332027956965891e-01,1.344956224121531263e-01,-2.651732378566934271e-03,-2.057127256974334347e-03,-4.672972045139336776e-03,1.223931163549423218e-01
1.904950161769204675e-01,1.645349085284191770e-01,1.506026649383513660e-01,2.289604786553802330e-03,-2.489221136646353055e-02,4.085204707240120033e-03,5.616384372115135193e-02
2.904525506165507864e-01,1.633461165236542723e-01,1.183045964664868333e-01,8.324567215681928645e-03,-3.184827222449810626e-03,6.564659225512929977e-03,1.558122634887695312e-01
2.703959462412715009e-01,2.250380627586650029e-01,2.040504998899061173e-01,-6.786881366029053064e-02,-7.242005780091229084e-02,-2.425003947990113720e-02,1.864577233791351318e-01
4.040695437532919043e-01,2.697274007235984650e-01,1.740507401155090006e-01,-2.074913347220760235e-02,-6.256187828909962056e-02,-4.316393394395752481e-02,2.422357648611068726e-01
1.296783122014147638e-01,9.861042948879955583e-02,1.177324596420733088e-01,-4.206815902128077655e-02,-5.601934822840978073e-02,-2.297448736755201837e-02,1.305525153875350952e-01
2.346774186831449560e-01,1.240901486126337883e-01,7.431286686404792174e-02,2.386118162341076786e-03,-1.395976388369614234e-02,4.234197631816673073e-03,1.444560438394546509e-01
2.037214209806985643e-01,1.419953929319567598e-01,1.266933297022226623e-01,-2.738367800557681142e-03,-1.782195777709739970e-02,-2.286546062924954721e-03,7.732941955327987671e-02
2.422876045311878057e-01,1.418083610389811733e-01,1.304097951851401760e-01,-4.918608006915466124e-03,-7.493881570450027473e-03,-8.909708832136910284e-03,1.088601276278495789e-01
2.535849260901214541e-01,1.433265912860995916e-01,1.079660972497054616e-01,3.081503835014015157e-03,-7.007930899371416639e-03,1.815219454480573478e-03,1.322564184665679932e-01
1.731133381040050601e-01,1.913240048314484854e-01,2.028947582692735285e-01,-5.047932914615773509e-02,-2.872755488298468080e-02,-5.184189871472121534e-03,1.042935997247695923e-01
2.476488400803072143e-01,1.382139187822102322e-01,9.758600171207057472e-02,-3.666440093393009449e-03,-1.827129732294794501e-02,-2.024320277457462847e-03,1.382999867200851440e-01
2.586631534683337952e-01,1.104912431834745301e-01,1.600333860053274604e-01,3.783423235932201201e-02,-7.921044628204875621e-03,2.211707824173545639e-03,1.468529105186462402e-01
2.394134884114643702e-01,9.362871323964769288e-02,1.338869162717611361e-01,5.865298795936418202e-02,2.733317310387045618e-02,-2.514908912413937880e-02,1.773813664913177490e-01
2.418632026321568540e-01,1.192592846608715035e-01,1.492954292274805694e-01,3.979619372303585395e-02,7.876452520530190932e-03,-4.720921320272406137e-03,1.313603073358535767e-01
3.805056693150181690e-01,2.488659149875629417e-01,1.557549305286453079e-01,-1.983983531266028492e-03,-6.856279866424118408e-02,-7.267470546766846042e-03,2.291912287473678589e-01
2.937891247826376895e-01,1.358874432404978405e-01,1.770378507519755062e-01,2.317357212991724008e-02,1.051215056890077680e-02,-1.878080461571008178e-02,1.520831733942031860e-01
2.351622915053429019e-01,1.788289847331420712e-01,8.726948838213624549e-02,2.463113030474254131e-02,6.290712940954457100e-02,-5.463202753181009563e-02,1.983945667743682861e-01
2.493705980278047019e-01,1.393192928246838602e-01,1.463684891328267679e-01,1.058164149551761926e-02,8.209455806093682306e-03,-9.317052912075480392e-03,1.103799268603324890e-01
2.475607173664030325e-01,1.164317300638568198e-01,1.409207670931680034e-01,1.944778728973468179e-02,8.889592497844538144e-03,-1.301234598001193947e-02,1.283081769943237305e-01
2.509452677349837679e-01,1.445169378962559981e-01,1.093112800555917502e-01,2.479979410571603836e-03,4.936715341669857711e-03,-1.837015607405010514e-04,1.280819028615951538e-01
2.581653728639058398e-01,1.483793858618178974e-01,1.126321736673307067e-01,-1.491889245969127160e-03,-4.230149023971533848e-03,8.222842345964604793e-04,1.315969526767730713e-01
2.551808628143487079e-01,1.062129536962558990e-01,1.976491059808595241e-01,6.725606292390913510e-02,-1.531461733250161217e-02,-8.529191964274263071e-03,1.772651821374893188e-01
2.362004488714992412e-01,9.649456483900602233e-02,1.658165740740618066e-01,9.321299613228031800e-02,1.918585099017764209e-02,6.239114916545072942e-03,2.047575116157531738e-01
4.296275836286429506e-01,2.965558585647749545e-01,1.821419453819861922e-01,5.996081692865615903e-03,5.142340957040838351e-02,-7.348590920633196744e-03,2.328665852546691895e-01
1.939702381204551629e-01,8.390893672411503523e-02,1.491899956905693991e-01,-6.421735148773782820e-02,1.611721110017617919e-02,7.094157788439667094e-03,1.499735563993453979e-01
1.595974340208437536e-01,5.916855579316640523e-02,1.099078015166670835e-01,7.057765444955868550e-02,1.840135405410277605e-02,-1.518118199757046219e-02,1.556136161088943481e-01
1.224349206802586021e-01,1.153085359047100744e-01,1.190101246434241006e-01,-2.855288398689008120e-02,-9.922125343822420576e-03,-2.617603210484316205e-03,5.291324108839035034e-02
1.417439402504744594e-01,1.463559712006589075e-01,1.590324249478559659e-01,-3.184827385714521231e-02,-7.717449541022793763e-03,-1.693061507780177976e-03,5.891215056180953979e-02
2.486494713783864441e-01,1.276866891446573615e-01,1.285987518914263883e-01,-2.305866098770074208e-04,8.270527714835951023e-04,-2.211481467939205563e-03,1.205793693661689758e-01
2.317221153546489276e-01,1.061662249742534314e-01,1.332874400909421775e-01,-3.117477485813557794e-03,8.368303853288966074e-04,5.747619988895742672e-04,1.145725175738334656e-01
2.725616902521144636e-01,1.845604557248479993e-01,2.428409967561332150e-01,-9.991877418889102969e-02,-6.838283324536734631e-04,2.017838987084444313e-02,1.928374171257019043e-01
2.401939642377806106e-01,1.242854450738887229e-01,1.180840250067178160e-01,-2.313125623680749917e-03,-1.910374514365950713e-03,-2.089978552152942440e-03,1.192985475063323975e-01
2.298278191411442517e-01,1.288885419787439424e-01,1.193423555843544925e-01,-3.031343936800772517e-03,6.221760604576749565e-03,4.184789929843688548e-03,1.069564744830131531e-01
2.330578197846812083e-01,1.269218020980068251e-01,1.160942026092644797e-01,-1.547539282986114045e-03,4.836760385363995983e-04,7.851531452211426426e-04,1.119867190718650818e-01
2.375911110617494326e-01,1.507092678210043835e-01,1.604111498766942479e-01,-3.320419132934735590e-02,2.470872174391602200e-02,1.409867587091871537e-02,1.119602620601654053e-01
3.220064204919765305e-01,1.932157768331147496e-01,2.405418654177771121e-01,-7.036220102163567858e-02,-2.755844800301985795e-02,-2.358471228817636892e-02,1.775704622268676758e-01
2.411797676388309219e-01,1.210594577686175538e-01,1.219146286776188748e-01,-6.695126658911936760e-04,7.580547121087572457e-04,1.322898712327265401e-03,1.197297573089599609e-01
2.496155576617896943e-01,2.000600406186797131e-01,2.601881597278344893e-01,-1.042478497664710707e-01,-3.078618313380335897e-02,1.008024637583767279e-02,1.970850229263305664e-01
2.564134757998222103e-01,1.157600154236512885e-01,1.349041523289592481e-01,-2.232105724173035193e-03,-2.848137205692075069e-03,-4.300178346880134846e-03,1.324838250875473022e-01
2.392794861028922637e-01,1.231078088936607279e-01,1.223575963962875435e-01,-3.886924427978255851e-04,-3.620439610404640768e-05,2.034194387679940633e-04,1.165510863065719604e-01
2.402521852987660189e-01,1.231525355224201562e-01,1.149837193938381963e-01,-1.699798665798092851e-03,1.191493204039095364e-03,2.256129703401451615e-03,1.215064600110054016e-01
2.449435599503318461e-01,1.261975396389972415e-01,1.186364135295039368e-01,-4.108740401278898179e-04,-1.034723311569167147e-03,-3.239773117811116376e-03,1.228448152542114258e-01
2.489932200680919916e-01,1.095142453044079256e-01,1.411768017922985785e-01,-3.353382878455084086e-03,8.054388384572535057e-04,5.668949998721623581e-04,1.267962455749511719e-01
2.365423934245457493e-01,1.209679783846211443e-01,1.218207870676955851e-01,-5.177918351806811001e-04,1.281382105267248874e-03,7.341520027978720286e-04,1.151822805404663086e-01
2.926659612904861651e-01,1.021013384785828121e-01,1.643040077454817338e-01,-6.494552968018089956e-03,2.799299041443794028e-03,-1.694863101588843166e-02,1.712957471609115601e-01
2.579400993324377778e-01,2.266098040935911884e-01,1.718244079165435478e-01,2.884098330248792419e-02,-1.018063003473790862e-01,2.875844073667883916e-02,2.043761014938354492e-01
1.850360649178893757e-01,1.532554752537674259e-01,1.352669037251520434e-01,-7.406796344166213970e-03,-3.037451872082726212e-02,-1.275909656098195982e-02,7.298000901937484741e-02
2.447679527047359471e-01,1.278715068141489941e-01,1.235500189048333308e-01,-1.178232341255867942e-03,6.838196900120755871e-04,7.062106214147845142e-04,1.191456466913223267e-01
2.602674865209748667e-01,1.053728488726894119e-01,1.434657096959666145e-01,-3.413511142003112977e-03,1.126759122232352242e-03,-5.635970900112107808e-03,1.402750611305236816e-01
2.346504267532255605e-01,1.323701553916070695e-01,1.101068476212392899e-01,-2.329627013399808086e-03,-2.193736594579409095e-03,-1.173526276969342032e-03,1.151905208826065063e-01
2.404212641303590803e-01,1.050124456288104163e-01,1.371423771360216759e-01,-4.710180469440309985e-03,-8.512473819162181231e-04,-1.743816162393756186e-04,1.228251904249191284e-01
2.842574037832706901e-01,1.517210068969648828e-01,1.251783050842576739e-01,-1.684542679647478135e-04,1.032782093039637510e-03,-2.113061077061174908e-02,1.520890444517135620e-01
2.671379503749647943e-01,1.342240492822286690e-01,1.034617116264749531e-01,2.943243161113415045e-03,7.068067037976070999e-03,-3.224282323768601355e-02,1.612322181463241577e-01
2.588039652787055278e-01,1.269461022652860760e-01,1.242542938936054830e-01,-5.190534062696519103e-03,-6.382262353191520826e-03,-9.958370930722333647e-03,1.350896358489990234e-01
2.665701156403334493e-01,1.471135305843186414e-01,1.087261970802927136e-01,-4.377426447874047978e-03,-9.356072556116590277e-03,-1.092849709408035171e-02,1.449395418167114258e-01
2.235367144201641509e-01,1.352686522763317523e-01,1.155130345788114021e-01,-7.571018015345368094e-04,-1.631826281283434111e-03,-8.703680033901171247e-04,9.968603402376174927e-02
2.555136577672637577e-01,1.227017006396017018e-01,1.395375215731670115e-01,3.232365795750446937e-03,2.956743025379228625e-03,-5.592283990521684615e-03,1.258485466241836548e-01
2.511586212741089286e-01,1.431444897362246782e-01,1.154049152272645373e-01,-3.631685817483301486e-04,-1.291772563162670376e-02,-5.149164934817110351e-03,1.265438348054885864e-01
3.107285787358304296e-01,2.512792201327453956e-01,1.894265147430212459e-01,-4.731055639514174932e-02,-7.109280060744842256e-02,-2.684940733309214636e-02,1.872890442609786987e-01
2.318832699396000119e-01,1.275528966817316978e-01,1.176206706819429848e-01,-7.371206433524230559e-04,-1.830749073614607253e-03,-2.219272533426778875e-03,1.097550392150878906e-01
3.078252431227521124e-01,1.811489792670858689e-01,1.461842104111010232e-01,-1.287913441067344532e-02,1.825395285756295158e-02,2.438857072196699491e-02,1.580514460802078247e-01
3.730467726830590247e-01,2.267104452480618870e-01,1.439589037165286967e-01,3.573532609048855196e-02,6.881656130881499966e-02,-5.665404245845211129e-02,2.608427405357360840e-01
4.142747594619969331e-01,2.344994173090269307e-01,1.038806328248308153e-01,1.199409940905529944e-02,2.686973225587823561e-02,-5.319953333152854097e-02,2.897422611713409424e-01
3.577713485955520412e-01,2.091904373200433320e-01,1.562516565338742947e-01,-2.228726154735839043e-02,3.521276716806948093e-02,-5.811610554076404589e-02,2.192873060703277588e-01
2.601501961488644765e-01,1.330541039959781124e-01,1.225034908522185384e-01,4.903688372313939892e-03,7.752896566615104235e-03,-1.534227651880363738e-02,1.362508386373519897e-01
2.392510593736724145e-01,1.902958691661986723e-01,1.520888487483871010e-01,6.365851578696782830e-03,3.911784176967413040e-02,-7.635745631547447357e-03,1.030238866806030273e-01
3.084554500390425669e-01,1.678743874781103429e-01,1.289677050421411120e-01,2.022680579951198140e-02,1.773142007886980426e-02,-3.041484919238006054e-02,1.780226826667785645e-01
2.006149618556658520e-01,1.182285005294759495e-01,1.139945140861815948e-01,-4.474326846052219427e-03,5.245458026605836176e-03,5.619572518682478673e-03,8.597453683614730835e-02
2.741714234622201762e-01,1.964567670398628396e-01,1.541743523924083981e-01,2.374879697239500737e-02,9.358902222688651740e-02,-6.476984798659862937e-03,1.980098932981491089e-01
7.352942306665019578e-02,1.774091111217485639e-01,1.454462171186191866e-01,2.426326054085070280e-02,-3.085251757326844604e-02,3.333199416023032227e-03,1.146621257066726685e-01
2.413100061424928167e-01,8.284957239569212817e-02,1.247703936894000720e-01,5.708488027850940581e-03,1.070398634855495397e-03,-1.090998463292495134e-02,1.438143104314804077e-01
2.187019672277732696e-01,1.944496811352224575e-01,1.972184345684349638e-01,-5.437047036600241995e-02,5.600798100625727083e-02,1.901177742121372069e-02,1.410395652055740356e-01
2.219913858516959493e-01,1.947382843232327299e-01,2.230912249144553494e-01,-7.965232027290951311e-02,1.814652666257637534e-02,1.747660026517099119e-02,1.473484784364700317e-01
2.548123344149648140e-01,1.145324199443073648e-01,1.324354109733327789e-01,1.730423425267815568e-03,8.114668475715168224e-04,-4.987085754646116906e-03,1.325636208057403564e-01
1.060246402862572990e-01,1.948663543487752503e-01,1.812031928755579169e-01,1.880232688617726336e-03,5.153820078809296518e-02,1.604932349362581069e-03,1.218710988759994507e-01
2.504827810403703059e-01,1.750950627039605523e-01,1.323243747179322083e-01,1.096226755220823870e-02,4.475958817502503212e-02,-7.994352140309069626e-03,1.315276771783828735e-01
2.442553793122967387e-01,1.103615716804396407e-01,1.287598414867677232e-01,2.158527971633753418e-03,3.101462583904183393e-03,-5.876508083776491725e-03,1.262896209955215454e-01
2.340468750884539817e-01,1.240493372316214399e-01,1.315491242411655493e-01,-5.408880979293350863e-03,5.085525217865443162e-03,4.107481097543786916e-03,1.074556484818458557e-01
1.355694548650402398e-01,1.656269278851540960e-01,1.923051467441289908e-01,-4.497819698624329343e-02,2.437198305520508687e-02,5.222592259146945949e-03,1.017348542809486389e-01
2.422016465385197215e-01,1.065066837678588507e-01,1.376487671780447231e-01,-3.639945304054433006e-03,1.256976105185867538e-03,4.123250102831461949e-04,1.232969015836715698e-01
2.530604463720098618e-01,1.232219138240887857e-01,1.351767594339190193e-01,6.649425983539392765e-04,9.310404913845066015e-04,-1.964390037019401753e-03,1.243554055690765381e-01
2.417428725925386268e-01,1.178019937981919507e-01,1.448028203656937241e-01,-8.507886483807586969e-03,1.043699368132553667e-03,2.264818056669789560e-03,1.139284372329711914e-01
2.308870675299152797e-01,1.140052682060903599e-01,1.256081879590815187e-01,-4.648546152502329269e-04,7.725572164062087044e-04,2.132430617471774929e-03,1.116059720516204834e-01
2.076609966523543793e-01,1.819640647972380065e-01,2.376522233662682615e-01,-8.689819603305244666e-02,-2.267221194943908405e-02,4.116133155301541710e-03,1.630254387855529785e-01
2.382137182185457558e-01,1.251923040229484529e-01,1.211343095780970935e-01,-1.130800548441993373e-03,3.911022204590083049e-04,7.125390506700507182e-04,1.151293441653251648e-01
5.813960270605671166e-02,1.731515817845244443e-01,2.011779876866416350e-01,-1.482899447856859433e-02,-2.513090704671476494e-02,-2.276302114999949680e-03,1.407357007265090942e-01
2.490287463678159674e-01,1.255556750768411778e-01,1.317114671088129019e-01,2.371014071899166589e-03,-3.115630123667553503e-03,4.397292438720856213e-03,1.209438443183898926e-01
2.354787024937641249e-01,1.217805200789306153e-01,1.312321875756914669e-01,-8.645848386500599352e-04,8.465650354765312958e-04,5.554616358973545618e-04,1.093036681413650513e-01
2.044509036419829839e-01,1.575952295620651755e-01,1.728357022613812022e-01,3.188183203552869688e-02,-1.573314497106610005e-02,8.767927156586734910e-03,7.573772221803665161e-02
2.380519377775326961e-01,1.217460935260306909e-01,1.229412278541132525e-01,-1.604528767819549833e-04,3.356313723314412139e-06,7.826858536898259481e-04,1.157211810350418091e-01
1.846570829263893820e-01,1.113923262093316213e-01,1.211488985459050899e-01,1.024605826822767504e-02,3.134586564800236064e-03,-6.958468317686539173e-03,7.237254828214645386e-02
8.715583192667625267e-02,9.011550868248174861e-02,1.210938737862764791e-01,6.893963249336666765e-02,-5.954883205593847727e-03,7.191079214529211630e-03,1.248184293508529663e-01
1.101957545788006809e-01,5.144075181219805865e-02,1.003745958150470130e-01,7.365640570410904309e-02,5.308391790669379773e-03,-6.195351275716153884e-03,1.394526660442352295e-01
1.649452437132687688e-01,1.414181852195910416e-01,1.493224378302302202e-01,1.723112108003546986e-02,6.009391709594451118e-03,-9.972726931475814349e-04,3.784299641847610474e-02
3.301857216393730421e-01,1.713925818891216257e-01,2.281474145656094965e-01,8.399294777457835814e-02,-3.137601841227811994e-02,2.629082149868870039e-02,2.135779112577438354e-01
2.344970519226918793e-01,1.320884070278991462e-01,1.012614078988082200e-01,-3.631390127294856045e-03,9.380425824674555602e-03,5.398487130655880636e-03,1.224163174629211426e-01
1.069340967616036753e-01,2.129151203067881082e-01,2.049855329166515305e-01,2.225703553175930813e-02,-2.881963498715639158e-02,1.257214638738833080e-02,1.220921277999877930e-01
1.354829702061339791e-01,2.318247195716753584e-01,2.541638567704334606e-01,9.860031940312926485e-03,-1.672137610363531174e-02,3.252066962102517517e-03,1.144341006875038147e-01
2.496452851038500897e-01,1.132948572371434703e-01,1.302694072240195011e-01,1.222435277773635271e-03,8.316406663396451633e-04,-5.845780984032205620e-03,1.291284859180450439e-01
2.368138586021044656e-01,1.213142254693847649e-01,1.215560049372410439e-01,-1.474105138969779771e-03,8.964687928107339292e-04,2.267489632182025181e-03,1.154844239354133606e-01
1.032879955228918900e-01,1.816073540466923708e-01,1.973097605036545632e-01,4.381240642174488720e-02,3.264896876997236408e-02,-2.686230101031666820e-04,1.287126690149307251e-01
1.675159810945748284e-01,1.397717512649001292e-01,1.337985966115452785e-01,1.492268063986955861e-03,8.890137834032606212e-03,-2.615402994480230548e-03,3.514892235398292542e-02
2.374853894265565035e-01,1.218652427606307376e-01,1.227491018628909247e-01,-1.638488023864521047e-03,1.073334991392650706e-03,1.855158232934949521e-03,1.152755096554756165e-01
2.335902146325793405e-01,1.202595245009274172e-01,1.232575999319953514e-01,-1.222319570053795107e-03,1.434402737245498360e-03,2.614123334242873711e-03,1.120009645819664001e-01
1.472537596878076005e-01,1.590428953656149447e-01,1.979276115643107126e-01,9.914474527699672357e-02,-3.254887527926858624e-03,-3.689515426052511395e-03,1.779637187719345093e-01
2.386150889948893128e-01,1.233457089394299766e-01,1.261917494071700674e-01,-7.872952700631721595e-04,5.245391472056429392e-04,2.127472102101204705e-04,1.138854250311851501e-01
2.375364507048191576e-01,1.427700539987938055e-01,1.459930611072624840e-01,3.323413381009231865e-02,-3.573203066861637550e-02,1.824327033899256906e-02,1.297225207090377808e-01
3.054746294074067170e-01,1.596442264133065558e-01,2.325101696019736541e-01,9.004766997304493314e-02,-1.949426216201598921e-02,1.376641456046072409e-02,2.049005925655364990e-01
1.860264025808572863e-01,1.760703052403686242e-01,1.784576346663876711e-01,7.311246048095491890e-02,-5.491111395701799014e-02,1.983554035983964639e-02,1.623064577579498291e-01
2.377493553759655598e-01,1.398568501917703266e-01,1.146263807681046631e-01,-4.084118663099141214e-04,-7.910154763384405138e-03,-2.266683821661370259e-03,1.135474294424057007e-01
2.482458147037694685e-01,9.904312706979248593e-02,1.469530237803940154e-01,1.681489006937484168e-02,5.582887324456210082e-03,-1.500457912234440250e-02,1.379335075616836548e-01
1.267905054419484201e-01,1.126546261648538050e-01,9.999668209611016489e-02,2.823619865120140932e-02,-6.147363627122112012e-02,1.126889199013017193e-02,1.210322827100753784e-01
1.565317016798024596e-01,1.242566601598884407e-01,1.227675708816065858e-01,1.301399457817234602e-02,-1.272082869291165166e-02,3.968083073727383427e-03,4.618163779377937317e-02
2.368548989467906818e-01,1.164272984211389278e-01,7.452637443268746165e-02,4.028079034864687799e-04,-3.873630836621724458e-03,1.237723786786733803e-02,1.476807743310928345e-01
2.437575196678537504e-01,1.154663695862404721e-01,1.363782439658550172e-01,2.464292163194054495e-03,-1.827977543124093386e-03,1.150681369754034001e-03,1.193538084626197815e-01
2.205089504012428536e-01,1.254638985154715447e-01,1.393987124160912805e-01,3.123829091186646183e-03,4.727447144897784165e-04,-4.184146055940722239e-03,8.936315029859542847e-02
3.250443321250276463e-01,1.773935362938703908e-01,1.512133822921969961e-01,1.118406852539529338e-02,-6.330858952623810536e-03,3.073570200225751725e-02,1.722823828458786011e-01
2.008702379164795104e-01,1.227313876543595361e-01,1.397146988089406905e-01,3.507663379340394440e-03,-1.295548101871379324e-04,7.572844022597912273e-04,7.145445048809051514e-02
2.351054851705101090e-01,1.319476052267098964e-01,1.119450063731152467e-01,2.059793500550602136e-03,-1.951206653258729480e-03,7.973856983953358764e-04,1.145911663770675659e-01
4.244546114286001370e-01,1.777583091129225357e-01,2.688425145813856942e-01,1.848986085567553422e-02,8.521856677225653556e-03,-3.094293786292853440e-02,2.253911048173904419e-01
2.059643552753825657e-01,1.862110123487869251e-01,1.668971876105925789e-01,-3.816853841606631433e-03,-2.282270239049941432e-02,-2.793581735423709619e-03,5.267329141497612000e-02
2.519033244686897932e-01,1.117556612636736446e-01,1.402286129802394476e-01,-1.425294691947398161e-03,-2.289403871682141149e-04,2.480853621702183969e-03,1.283992826938629150e-01
4.393833273705338716e-01,1.747617968786640830e-01,3.064431166985034372e-01,2.067485249617198595e-02,-4.103009983225796263e-03,-1.971229616868498333e-02,2.345578521490097046e-01
2.599677410424239277e-01,1.107911463018704523e-01,1.453041116235960772e-01,-1.536683253255073439e-03,1.195410809115642455e-04,9.553408546081614168e-04,1.353001892566680908e-01
2.597692152828580126e-01,1.113565713994051493e-01,1.521915245575111986e-01,8.070934666240688581e-04,-1.335649745996481770e-03,2.386867359347890835e-03,1.328825801610946655e-01
3.512611476201223382e-01,1.808974508899412470e-01,2.278879779439300923e-01,6.676165808755543662e-02,3.829682534556867746e-02,-4.325196888142559398e-02,2.158932983875274658e-01
2.407067274485961694e-01,1.227789025491660413e-01,1.060813547527352796e-01,-3.016228854510289489e-03,3.743538611072838411e-03,5.953042331247855069e-03,1.277909874916076660e-01
2.024941029740474352e-01,1.467629560759881602e-01,1.353519549551285839e-01,-3.214225532914564282e-03,8.556697631564516224e-03,5.053553068911540228e-03,6.480262428522109985e-02
2.463969468785621453e-01,1.081627557917625160e-01,1.440009838288366373e-01,5.781456223557500558e-03,2.197247629555037270e-03,-1.239810516364688953e-04,1.247149035334587097e-01
2.687854331478850556e-01,1.671821178274651154e-01,1.113400314498393245e-01,-7.859239010155413471e-03,1.026813325035703765e-03,4.887878301300181867e-03,1.391957402229309082e-01
2.494057120158539864e-01,1.076028238190574193e-01,1.354864687593271833e-01,1.412564892365143418e-03,4.735231374617671204e-04,-2.248581632644192606e-03,1.302052289247512817e-01
3.024405677584167118e-01,1.810358810500231896e-01,1.293932539464495157e-01,-3.355163088604119683e-03,9.092481429574099730e-03,1.689773808435052552e-02,1.575249433517456055e-01
2.123295579357543372e-01,5.108095941009400953e-02,9.464584355740551791e-02,-5.274005137735238852e-02,-3.231824416382259729e-02,-3.726928079271735889e-02,1.910999119281768799e-01
4.364692089015189680e-01,1.775045425686064549e-01,3.037475250499676593e-01,-3.733896501856315275e-02,-6.905974326342738043e-03,-2.845279450694128062e-02,2.388762682676315308e-01
2.340537978071397518e-01,1.357134180322502881e-01,1.153482400556982701e-01,-5.500648437528996015e-03,-1.153949308875344172e-02,-7.860738030682714109e-03,1.129774972796440125e-01
2.573613591334656947e-01,1.126720134668132423e-01,1.479667317798772086e-01,9.547669696808834539e-04,5.718319305471664159e-04,-3.417877759224184544e-03,1.308155804872512817e-01
1.572818187618098551e-01,1.437877723666549645e-01,1.381009985918561500e-01,-5.103759861284980215e-03,-1.056707329026940548e-02,-2.767080244629053012e-03,2.696795575320720673e-02
1.265309100221097549e-01,1.691979074972705388e-01,1.412974686380569778e-01,8.243953047325816921e-03,-5.827010423199410760e-02,-8.324119307368940679e-03,1.095739752054214478e-01
2.044380638150553875e-01,1.273064019595943341e-01,1.424871443989630393e-01,1.519083909061185421e-02,-4.947311181980739315e-04,3.274800633538539358e-03,7.572334259748458862e-02
1.002273646041802607e-01,1.619462528696218040e-01,1.497058710127989467e-01,-7.870393980597944691e-03,-1.301570871903958218e-02,-5.702256127678110437e-03,6.320749968290328979e-02
4.241810192987591766e-01,1.668721392433490103e-01,2.381103684944202992e-01,3.393508515634995472e-04,3.626412525320605890e-03,-4.355024317801271111e-02,2.422440648078918457e-01
2.513508488118956219e-01,1.142455598005377299e-01,1.308456476260176637e-01,1.477533113904848502e-03,-1.354764233191886862e-03,-2.615788845503427655e-03,1.297306716442108154e-01
2.540213003095694866e-01,1.210851341984635343e-01,1.381271671729015771e-01,2.659519904780669169e-03,1.009466811705996269e-04,-9.764276550688235148e-03,1.265078037977218628e-01
2.044492213778622003e-01,1.898931353717456805e-01,2.160939791867756421e-01,9.136936391042142780e-02,2.234362465833461889e-02,-6.742950679979577144e-03,1.649126410484313965e-01
2.308317189930808033e-01,1.149767597833804694e-01,1.378083125735502512e-01,3.747349681734443282e-03,-6.005654227709978504e-04,-6.949761592135283560e-04,1.065042763948440552e-01
1.423376124761869255e-01,1.447544440044183922e-01,1.436492670471162802e-01,6.657849185004790539e-03,-4.401192786315425917e-03,3.963088285640518210e-03,1.557568740099668503e-02
2.225683073726741901e-01,1.075507371348403685e-01,1.265769097877378346e-01,4.821254113702841924e-03,6.730905115182787921e-04,-2.371437844189572090e-03,1.071944758296012878e-01
2.441471335430983602e-01,1.117036805957869749e-01,1.412762531260415566e-01,2.900574293330914193e-03,-9.115281160510564510e-04,3.677878165325979996e-04,1.205290406942367554e-01
2.245011535377509637e-01,1.170825088852793794e-01,1.262859005963192227e-01,1.799258247172010050e-03,-1.600652456807638525e-03,4.912597221695386325e-03,1.035598888993263245e-01
2.849149732408567393e-01,1.692543786506266468e-01,2.360539219221438889e-01,8.629995177082838698e-02,2.036831556874631882e-02,-1.044419657550325897e-02,1.844678074121475220e-01
2.617405852938098909e-01,1.205313390289432796e-01,1.387192433583244455e-01,3.378398154890656629e-03,-6.558966286305540749e-04,5.115560368840341848e-03,1.334787905216217041e-01
3.256052180764777426e-01,1.379956686351553052e-01,2.057876628018183440e-01,7.487132091906958942e-02,3.706970490833819826e-02,-3.790267015890617930e-02,2.287447154521942139e-01
2.452111851072948656e-01,1.216582057963254415e-01,1.220374141862968498e-01,2.360032270155995853e-03,1.687226724940668263e-03,-4.326261357644961905e-03,1.236932873725891113e-01
2.264790744957116131e-01,1.151225276442871814e-01,1.358718201891312427e-01,2.204882988665367912e-03,-1.220952225285698058e-03,2.298732630919906542e-03,1.027382761240005493e-01
3.954242787458510100e-01,1.993245342125899711e-01,2.910450062068011823e-01,7.119531523647509852e-02,7.077491776034889118e-03,-4.213288567675748351e-03,2.104548364877700806e-01
1.894893185868399554e-01,1.792921295534075088e-01,1.793393864516261149e-01,-2.019833807183749746e-02,-1.788993933098532302e-02,-2.762706669358616033e-03,4.806733876466751099e-02
2.086072524262630179e-01,1.985807998867359925e-01,1.908662606439337772e-01,6.540365072166855198e-02,-5.494843941924636849e-02,2.143629535191673638e-02,1.533194184303283691e-01
6.193729990478177155e-02,1.293412146226357029e-01,1.031623093491745580e-01,1.614601964977458630e-03,5.270492317480939687e-02,-2.925118896768353575e-03,1.087703034281730652e-01
1.764066033089465857e-01,1.496529854688160854e-01,1.463238237894070037e-01,5.933219002250128549e-02,4.155507792857127125e-02,-1.651622117284444816e-02,1.318167746067047119e-01
1.422584202881069515e-01,9.718942912969397163e-02,1.114947994444297485e-01,3.002032921579923797e-02,1.400109746172261728e-02,-1.363766671924859265e-02,7.376204431056976318e-02
9.498800501479530423e-02,1.621384794278811214e-01,1.559756934391987593e-01,-6.376002656036313353e-03,-4.518903934308929338e-02,1.485681316327756331e-02,1.050886064767837524e-01
1.710333446894310439e-01,1.423931338684525927e-01,1.344333005357586375e-01,6.357983538978624095e-03,2.907442416878537259e-02,-3.171477622368302097e-03,6.163606792688369751e-02
8.499373626391279468e-02,1.564178282021129185e-01,1.409048326110468874e-01,-2.690196293995495216e-02,3.823947355243933945e-03,6.380140880404991388e-03,8.106284588575363159e-02
1.673144177155299339e-01,1.422077834120070439e-01,1.394077830577566401e-01,6.125947518584940604e-02,-5.091877432675030041e-02,3.588009705674371358e-02,1.536455601453781128e-01
2.355821947446590514e-01,1.795172124375589429e-01,1.323874023537872646e-01,1.683416778477521891e-03,-5.087729136371769989e-02,2.561510240876306663e-03,1.257001012563705444e-01
1.528850493732842597e-01,1.224484372014744832e-01,1.157335576521924952e-01,1.296170202769672194e-02,1.831676377112559026e-02,-2.769935328980618200e-03,5.205190926790237427e-02
2.378753359204658913e-01,1.212629083343672171e-01,1.205457358174061161e-01,-8.118154356425181725e-04,-4.736992241220647714e-04,-1.006263397962344798e-03,1.169969737529754639e-01
2.416495331548286774e-01,1.320746759814312721e-01,1.147565048174312430e-01,-2.614698149092466173e-03,-1.702825227867043201e-03,-2.511708148813220076e-03,1.193831637501716614e-01
3.341711387456845761e-02,9.755665455675463504e-02,8.156777991582797593e-02,1.485447232129074452e-02,5.328227018007224147e-02,1.100971535310898974e-03,1.119223386049270630e-01
1.969348409137453848e-01,1.455541635308355286e-01,1.377964512156037991e-01,6.057501000684534752e-03,1.980763356303961997e-03,-3.767481475777050177e-03,5.712429061532020569e-02
1.996771653764071175e-01,1.235290108253360164e-01,1.378016859787753456e-01,-1.680949757123306396e-02,-1.079459923293543677e-03,-7.000409972125280203e-04,7.594772428274154663e-02
3.627162457895174441e-01,2.332991678713382533e-01,1.934528853872192200e-01,-3.416345088780047001e-02,-6.377585041883644668e-02,-4.583947868897241679e-02,2.133086323738098145e-01
1.784453590115436528e-01,1.345876442516379390e-01,1.430085802965410935e-01,2.026690763585278776e-02,1.344382320733348256e-02,-7.952564558385246535e-03,5.991051718592643738e-02
2.460270338763175246e-01,1.236987232515418256e-01,1.288684236203093691e-01,2.988884848648272995e-04,-7.282165872080522382e-05,-8.194345023994340817e-04,1.198367178440093994e-01
2.454777933507943932e-01,1.296654301103019602e-01,1.578382875032017796e-01,2.077454776867472888e-02,-6.852047155882467523e-03,4.849600259197993715e-03,1.115777790546417236e-01
2.522859440003759612e-01,1.369341041104669698e-01,1.264810502363791223e-01,-1.004456815162891323e-03,-2.093977869798093355e-06,-1.240788366120071156e-03,1.209493204951286316e-01
2.624301044647038839e-01,1.555285067112405772e-01,1.400350000887940483e-01,9.063476009115983140e-03,1.375536382041245634e-02,-1.509034006813916341e-02,1.217436045408248901e-01
2.407172588446191697e-01,1.235467554151335468e-01,1.231167675842493869e-01,-4.807309055140234779e-04,2.729211757980695404e-04,2.862177218549213377e-04,1.173910424113273621e-01
3.949347358733971691e-01,2.491760181696083820e-01,1.788480725958261353e-01,-1.442389128736104760e-02,-4.288061783846624370e-02,-4.876708454806405468e-02,2.229744642972946167e-01
2.537297355086581829e-01,1.715165097044873965e-01,7.338256311848226354e-02,-2.358841961141962609e-02,-6.548190705962080027e-02,1.774272715424244848e-02,1.998361498117446899e-01
1.960960652336951049e-01,1.211008330193447113e-01,1.348246975170276918e-01,1.087526195322501867e-02,5.953951090658990593e-03,-6.195866412159068554e-03,7.321020215749740601e-02
2.168618691341005489e-01,1.433479084251141900e-01,1.187397943902791519e-01,3.265189388406313994e-03,6.259625139806954640e-03,-1.454957042471013030e-03,8.930165320634841919e-02
2.265793734560527517e-01,1.340548512156657379e-01,1.088407583413368018e-01,-7.872220004044123629e-04,3.457386306515202769e-03,4.403892398409378151e-04,1.075535267591476440e-01
3.041213740980798219e-01,2.283996670619491687e-01,2.266602337421760038e-01,7.332175006503514891e-02,-6.418732555255383943e-02,2.901957602164674521e-02,1.920499950647354126e-01
2.467639945898111031e-01,1.935821452073046567e-01,1.062337924669591871e-01,4.930958141030109682e-02,-1.229365065039826344e-01,3.378976684232067040e-02,2.667641043663024902e-01
2.347139298642340610e-01,1.371673308354686982e-01,1.149880409210276011e-01,1.198277310666264828e-03,6.650544744251725340e-04,-1.025917990300323187e-04,1.103469058871269226e-01
2.234114485658599825e-01,1.172970029954479854e-01,1.396657876659715691e-01,9.062286478380489644e-04,-3.694274246451581198e-05,3.038648514398126330e-04,9.690062701702117920e-02
2.520428363508204761e-01,1.585983781849382435e-01,1.264648314165706666e-01,7.087172499980703977e-02,-1.088387772556119182e-01,5.793165591205187703e-02,2.710007429122924805e-01
2.313932878125405102e-01,1.201307766887599049e-01,1.278260912209790989e-01,2.225326883699039690e-04,-4.943480954980605541e-04,3.441740156337809876e-03,1.077904552221298218e-01
2.372713686486124796e-01,1.280536573239395293e-01,1.123234970482535483e-01,3.082312760330181006e-03,-2.171544604328701309e-03,2.341782644954043882e-03,1.181230694055557251e-01
3.431892687316269730e-01,2.559203660940964631e-01,1.578368344334628581e-01,1.451260981732385887e-02,-8.941838912372342130e-02,3.411754926333535835e-03,2.246098667383193970e-01
2.270589966188224784e-01,1.454507869743997261e-01,1.237971052569034891e-01,-1.346557010813532811e-04,1.061794088783340334e-02,-1.600863081953883245e-03,9.613461792469024658e-02
2.308014889588639318e-01,1.373766724115303983e-01,1.163932115164236364e-01,-1.645054679793885694e-04,1.071684101474653815e-03,-4.469944952426259171e-04,1.055130511522293091e-01
3.191182553126987176e-01,2.645854067659322295e-01,1.934480068856995749e-01,9.854307297285357439e-03,-9.251040433945585673e-02,9.017216062481599528e-03,1.952523142099380493e-01
1.458299128959525126e-01,1.188759942949967202e-01,8.024008978610429332e-02,1.454709211206571193e-02,-8.140263607023562331e-02,1.150346000590442112e-02,1.554723381996154785e-01
2.355068566709266065e-01,1.414417399821731869e-01,1.203179234843726048e-01,8.152144123547956861e-04,5.087533052784368008e-03,2.271449601890853656e-04,1.065892726182937622e-01
4.045407991619188737e-01,2.798100682534877537e-01,1.787313185561140438e-01,1.501564269959651185e-02,-5.736895569669632489e-02,1.371184521667194629e-02,2.224777340888977051e-01
2.343164255467185264e-01,1.438499496447451786e-01,1.153716612871032998e-01,1.003479179441668992e-02,-1.841280521152804592e-02,9.830026987154351706e-03,1.148067936301231384e-01
3.004598211839750177e-01,2.508808768265203826e-01,2.059732503375910906e-01,2.480436574878207637e-02,-9.298474045554437628e-02,2.164371507835437247e-02,1.894487887620925903e-01
2.468595906447489385e-01,1.418459634594800844e-01,1.188922917577993899e-01,-1.275634162788692348e-03,-3.024281984276057985e-03,-3.290816397660094317e-03,1.184482574462890625e-01
3.653038812665594937e-01,2.401858277115669071e-01,1.548336166451629303e-01,-1.326775685738954685e-02,-8.101471243578094172e-02,-2.201120135365470035e-02,2.351390272378921509e-01
2.333997680032922906e-01,1.360282606753876189e-01,1.072031637821184713e-01,-1.263825490762579985e-03,-3.940882884676699671e-03,-8.308409698183626688e-04,1.147706136107444763e-01
2.334611123514778730e-01,1.198227988571747421e-01,1.283931121309309087e-01,1.264549142889296327e-03,-6.997993884000051640e-04,3.086205615494734891e-03,1.097635701298713684e-01
2.295014740976384360e-01,1.192806451571835902e-01,1.104486440182368412e-01,7.605580816553251904e-03,-1.255882001172856088e-02,1.147061075301415191e-02,1.193379089236259460e-01
7.876394080115423080e-02,1.137779338009313052e-01,1.114785502713515897e-01,3.356613762862297595e-02,-2.518416393032534700e-02,3.596160325692395517e-03,8.045083284378051758e-02
2.325538333171068284e-01,1.156692894007447237e-01,1.264995002067380858e-01,5.684027455422482411e-04,-1.174581215492974439e-03,8.975694734973088239e-04,1.118969619274139404e-01
2.845474157786018754e-01,1.464317165771575613e-01,1.237129306623341862e-01,-2.771798675198977949e-02,-1.930265929408439204e-02,-2.027468086749055140e-02,1.654863655567169189e-01
2.383173178945025561e-01,1.369633101747214921e-01,1.300977077291413098e-01,7.149006663975865893e-03,-1.456422250008015257e-02,9.466385556660629821e-03,1.098823919892311096e-01
1.807335235484280322e-01,1.129147508195564309e-01,1.288497444623706856e-01,1.232198241359888473e-02,-9.795526663863682489e-04,3.520791716704893895e-03,6.533129513263702393e-02
1.479747648657779857e-01,2.120286443225036510e-01,1.796086066679365156e-01,9.412109644577533810e-03,-5.702782682563951183e-02,5.165335192347083638e-03,1.148026734590530396e-01
1.504736455401115836e-01,1.724489389413368379e-01,1.507453397148545149e-01,4.564074420435292739e-02,-7.519813923720099214e-02,2.019135689234926104e-02,1.578404307365417480e-01
1.633715942732398008e-01,1.469936139080927906e-01,1.180261797909659960e-01,3.728086498865306516e-03,-4.053708567560371928e-02,-3.654500536004615888e-03,8.119917660951614380e-02
2.336475972910195820e-01,1.261135859076870924e-01,9.715309486612777601e-02,-4.872423442195588164e-03,-1.078253005024571581e-02,-6.508009948040746097e-03,1.267421990633010864e-01
1.337805317556904627e-01,1.069959194184194606e-01,7.523873667838416879e-02,3.661107734227256501e-03,-4.188870914956039498e-02,6.981733211793156313e-03,8.959338814020156860e-02
2.434003094735702200e-01,1.403176083662345530e-01,1.181305565274772817e-01,-7.026039921856877708e-04,-3.997104819490231338e-03,-2.654830738306004391e-03,1.160860285162925720e-01
2.824448861318771264e-01,1.888827901185994584e-01,1.301655276147514195e-01,1.899913735680271566e-04,-2.744167682645762274e-02,-2.824145348862285541e-03,1.413452029228210449e-01
2.576867018863081560e-01,1.128741737043217203e-01,1.474920435242269012e-01,1.354328755957778276e-03,1.457683698237988677e-04,2.255077611054768279e-04,1.310026049613952637e-01
4.118933901864106906e-01,1.549945192200272714e-01,3.005453927536645420e-01,4.455606502921614226e-02,9.954507073764702271e-03,-1.333200305376617753e-02,2.378580719232559204e-01
2.559392681606896813e-01,1.079477459472839018e-01,1.419075456032752036e-01,-1.101942533772496107e-03,-6.540404574799670414e-04,-1.165395904856607020e-03,1.343056112527847290e-01
2.459477337561463695e-01,1.194173788205021153e-01,1.313443685661978000e-01,5.631602330955924650e-04,6.891174655127498168e-04,-1.123061175513079182e-03,1.210339516401290894e-01
2.508369706926961706e-01,1.352728328378658695e-01,9.108070897101236407e-02,2.610963435350358193e-03,8.225797085782431475e-03,-1.189012556394775100e-02,1.451296210289001465e-01
2.409542210048303823e-01,1.211441114271122887e-01,1.233820450171304733e-01,-4.469997341826687691e-04,-1.035706662304909220e-03,-1.233427151703356739e-03,1.187422648072242737e-01
2.352012614018350600e-01,1.207511879744078975e-01,1.240505685305609007e-01,-2.071039212117331020e-04,7.575800986246455536e-04,2.422685965333180522e-03,1.129227578639984131e-01
2.417547758905676525e-01,1.242467079308349348e-01,1.237744718081350281e-01,-2.499168587558332462e-04,3.818030081153623895e-04,2.972339256464913058e-04,1.177486777305603027e-01
2.433552324323915439e-01,1.227426977111745476e-01,1.272791438250945872e-01,-4.735839981546168171e-04,1.411864479217614246e-03,8.462754695570908663e-04,1.184466630220413208e-01
1.646913933806040675e-01,1.636057970712827547e-01,1.636780244974503640e-01,-1.374480578684555976e-02,-2.312854262884975198e-02,-2.357497427147706593e-03,4.679023474454879761e-02
2.500791770110311618e-01,1.348191390898237918e-01,1.111004622561206218e-01,-1.006777911660858803e-02,1.123299200864008411e-02,9.995997054289705933e-03,1.325279176235198975e-01
2.420552624396556107e-01,1.258203762971753514e-01,1.172297334566117788e-01,1.956895095622733418e-03,-1.469255775137509124e-03,1.769955371093704516e-03,1.208728402853012085e-01
2.386883037638809490e-01,1.218024601144097607e-01,1.205273162795750530e-01,9.264884895011200275e-04,4.110674980403189872e-04,-9.523946736424518953e-04,1.175532862544059753e-01
1.921000636761840685e-01,1.460244793049995382e-01,1.465832125395565844e-01,-1.573885207721786514e-02,5.159523617251378542e-03,2.472295428105657483e-03,5.421126261353492737e-02
2.485863136700550147e-01,1.278566485636416228e-01,1.287844295727368360e-01,-4.987820510174469091e-04,2.150857785874187174e-04,-1.687594191566170639e-03,1.203076541423797607e-01
2.391705986338704404e-01,1.208991063317548104e-01,1.248305084011698818e-01,2.371211927458361326e-04,8.606499447991723889e-04,-8.452379815700186098e-04,1.163750961422920227e-01
1.857866042676921126e-01,1.335365697810887153e-01,1.389619461304764381e-01,-4.356111548020395741e-03,-3.411842971322144136e-04,1.061324591710328729e-03,5.036546662449836731e-02
1.806686887153667598e-01,1.119457292362739109e-01,1.261138355000853695e-01,-1.339079096386923580e-02,-8.262206040595783049e-04,6.684156451626996343e-04,6.701666861772537231e-02
2.379717418555695185e-01,1.287473336503224264e-01,1.298854263161007272e-01,-1.199333231697207597e-02,7.080486573787559551e-03,8.896535355404787751e-03,1.123669147491455078e-01
1.194959523026484921e-01,1.159411430336244608e-01,9.714337877340382954e-02,-3.713702546025754447e-02,6.226093604791187175e-02,1.040856091908225201e-02,1.285479664802551270e-01
1.302512652520534941e-01,1.165619885977032116e-01,1.210369861298037086e-01,-5.866335606654773244e-02,3.571260706830714504e-02,1.904970000250512038e-02,1.240369901061058044e-01
2.389081789407053180e-01,1.383154952645284652e-01,1.312319716322727925e-01,5.433265632627913219e-03,-3.562227211693548817e-03,6.312849026090083804e-03,1.054883897304534912e-01
2.732187803853235453e-01,1.271716522483851142e-01,5.076997481797315692e-02,-7.222287279358877155e-03,2.618974103499116871e-02,3.243385340062507338e-02,2.090341597795486450e-01
3.039781935600469054e-01,1.850330628046389925e-01,1.347861460005290724e-01,2.140853073293829192e-03,2.856319516969355737e-02,-1.303619800048624010e-02,1.600639522075653076e-01
2.488448515631726254e-01,1.323924945234358774e-01,8.005140173584346375e-02,1.375991428352252776e-03,6.793593576405750067e-03,-4.814343257617240482e-03,1.503650844097137451e-01
1.976872783992701943e-01,1.022774472852405608e-01,5.170392095032134983e-02,-1.262065309160492060e-02,3.113357293012108951e-02,1.395783293530033012e-02,1.430249363183975220e-01
2.411932075581717516e-01,1.349376503629111379e-01,1.029518793515322161e-01,-1.662865814509407536e-03,3.909279621277658538e-03,5.097269928129018711e-03,1.258732974529266357e-01
2.387266763553388405e-01,1.368318144794807012e-01,1.025384621602762475e-01,-9.200293845494520112e-04,4.510525521061352523e-03,1.424294598547965634e-04,1.229493692517280579e-01
2.677404567681018754e-01,1.470322383171080716e-01,1.149332750377428103e-01,-4.130783285347982073e-03,1.181019773277323850e-03,5.570900869213570201e-03,1.400853544473648071e-01
2.337255672176179744e-01,1.065613373589342217e-01,1.313927931120870141e-01,-4.037135443993949968e-03,-3.333136791594576778e-03,-2.367774688983279290e-03,1.171695962548255920e-01
2.392100803647285723e-01,1.293883403723411762e-01,1.188801386162005314e-01,1.681904432209974749e-03,-7.936111417111584888e-04,4.713933132385562594e-04,1.154829338192939758e-01
1.331187610625201578e-01,1.465632057123959775e-01,1.603051319777424877e-01,2.237416303429214104e-02,1.120020862647524377e-03,-4.672150139723382084e-03,4.610212519764900208e-02
1.335226578947003861e-01,1.440411709247529926e-01,1.377184197669616417e-01,1.642597492651562754e-02,2.986429303658471104e-02,-5.989288480246201260e-04,5.975158885121345520e-02
6.142296427798641517e-02,1.182093455131999482e-01,1.563305654569464576e-01,5.154228393248812962e-02,3.478499771990917200e-02,-1.189711693088505579e-02,1.373576372861862183e-01
2.397205851707598367e-01,1.224721792036456147e-01,1.232865091963126075e-01,7.793589110048858282e-05,-4.207288094011280856e-05,-2.232761913443785282e-04,1.168441101908683777e-01
2.324660063424347778e-01,1.234848691541231558e-01,1.173465933259278393e-01,-2.338262345379118340e-03,2.520606633262023003e-03,3.365460715905000452e-03,1.124854013323783875e-01
2.452380245291561345e-01,1.232098706030833324e-01,1.278077821807504233e-01,4.854280699395552745e-04,-1.387137253214260416e-03,1.000719999714868571e-03,1.198349669575691223e-01
-8.060000894089175416e-03,9.795610058555231925e-02,1.059442912478762433e-01,4.115320567782640784e-03,9.180338528339861137e-03,-3.345645448372778965e-03,1.117466986179351807e-01
1.909685912795529850e-01,1.554921000222695970e-01,1.529837836839219312e-01,-3.587025418924968956e-02,-5.994818904923239489e-02,-2.988432245850453084e-02,1.366545259952545166e-01
2.679599909404086766e-01,1.656273712216147775e-01,1.305955544437170657e-01,1.151795480164571244e-03,-1.331965023159420621e-02,-2.610986031578088271e-03,1.258600950241088867e-01
2.310887661446227592e-01,1.360370720705996184e-01,1.040655049201856530e-01,5.732088935070069535e-05,4.113770693474475861e-03,-5.060589405540671243e-04,1.146625727415084839e-01
2.335188994869014933e-01,1.476612718398338797e-01,1.286025985012050898e-01,3.782097094142942463e-03,-7.270997436691278154e-03,5.171190259824884686e-03,9.824884682893753052e-02
2.374522597489604203e-01,1.409235308062570247e-01,1.168505241700750485e-01,7.107251313429644411e-04,-8.607741590587166328e-03,1.957183505125648700e-03,1.116079241037368774e-01
2.923046604161762541e-01,1.704254962416999475e-01,9.504063117736469279e-02,1.746119732231245225e-03,6.055519756325435793e-02,3.473725283992480650e-02,2.106067985296249390e-01
1.619702132385706927e-01,1.194661581224164271e-01,1.227763080592162298e-01,-1.512852816906687207e-02,-1.206758663398563823e-02,-3.615228870653726476e-03,5.328755825757980347e-02
2.258443494186010980e-01,1.362397072120839492e-01,1.183411487950281060e-01,1.176852775787975026e-03,-1.574377329075768222e-03,3.437935846267056034e-03,1.000009700655937195e-01
2.388604311614684339e-01,1.226401661748780236e-01,1.229979299460672304e-01,1.617224531675628564e-05,7.301798688833528977e-05,-2.848408364126507456e-04,1.160429194569587708e-01
2.371548930654685805e-01,1.467077599242295471e-01,1.110038617349751872e-01,3.448519997079083511e-03,-1.557527010048442330e-02,-2.239919844611392482e-03,1.160313040018081665e-01
2.180729426656968228e-01,1.221772575451673254e-01,1.445745829765962553e-01,8.255967405308822435e-03,1.365917775286333742e-03,2.132960433817069658e-03,8.816770464181900024e-02
2.086280234413950829e-01,1.086458395858468651e-01,1.313957904291576106e-01,6.093682991049692403e-03,1.221068752086053007e-03,-2.891850999318821766e-03,9.154435247182846069e-02
2.391978379959296963e-01,1.231356052995939976e-01,1.231056895263210604e-01,1.517453079268611248e-04,-1.509088059137927041e-04,-2.171170692617236774e-04,1.160783916711807251e-01
2.026038418212630365e-01,9.851646355716711656e-02,1.380421092018415674e-01,3.179869590131065987e-02,-8.556215279207939799e-04,-3.631507157829437851e-03,1.065718978643417358e-01
1.571619713962507103e-01,1.290298277572020091e-01,1.456312584525626674e-01,-1.529441933834372637e-02,-1.634503605066753643e-02,-9.339497312221251013e-03,4.863032326102256775e-02
2.295435781301456146e-01,1.184965503347332749e-01,1.315234866393461544e-01,-1.684125832027162650e-02,2.001107542200851117e-02,1.686025239064775985e-02,1.181505769491195679e-01
2.385908121337812493e-01,1.207783605468159688e-01,1.276701728478309428e-01,-7.443280055347764601e-04,1.368321576657695153e-03,9.307429897477413660e-04,1.145652979612350464e-01
2.380033789501385111e-01,1.141962633700636942e-01,1.304766279425832454e-01,2.181631399833988249e-03,2.945809097635843175e-03,-1.872248209517950049e-03,1.167409718036651611e-01
2.215230217845872152e-01,1.203797415173233354e-01,1.418771956202743156e-01,8.851071628238130207e-03,-3.965139527093073627e-04,-1.861824884796392391e-03,9.361450374126434326e-02
2.434035363383553752e-01,1.269844052584035432e-01,1.225234011337391349e-01,1.524064099606697127e-03,-4.995191654333382787e-04,4.711766279784482844e-04,1.187478154897689819e-01
2.392850858986218521e-01,1.231674057377794562e-01,1.237353326071528870e-01,9.237211712928812679e-06,-3.971136078794482795e-05,-3.608051990507084371e-04,1.158364713191986084e-01
2.386878761325646470e-01,1.173483780924432646e-01,1.292905127219380335e-01,1.819146030384696930e-03,2.352814513355796187e-03,-1.135423626525180682e-03,1.159622296690940857e-01
2.410879785648357143e-01,1.237618898426847414e-01,1.218400748129859490e-01,1.041590793192625521e-03,-6.630921676734854477e-04,6.495621514160274069e-04,1.183233857154846191e-01
2.438700969058759660e-01,1.246967765361590152e-01,1.339070641236562165e-01,-3.522420494658241516e-03,4.421377355490175264e-03,4.560772033721435630e-03,1.155325025320053101e-01
1.772658639602325004e-01,1.099380315024166554e-01,1.306635145601594827e-01,1.825717634694221797e-02,4.444175772801173610e-03,-5.535212376659724536e-03,6.869004666805267334e-02
1.543734644768176567e-01,1.534899721924096738e-01,1.491903317746644253e-01,3.151605422656986871e-02,1.556146893228763442e-02,1.047334399579326222e-04,6.106850132346153259e-02
2.024654882965030156e-01,1.392221549285485305e-01,1.212903814665526880e-01,-2.763690211776187606e-06,-3.291962059794100500e-03,-2.604166362355189463e-03,7.421717792749404907e-02
1.202141323952213292e-01,3.813169088768663534e-02,7.278509946111881568e-02,-8.039798380328221084e-02,5.367469888767260194e-02,2.661981802425507707e-02,1.877610683441162109e-01
6.670917789751604210e-02,1.307084675716130018e-01,1.119868623941677604e-01,-1.056219775954478010e-02,4.605618669325965003e-02,5.424149125637399210e-04,9.973624348640441895e-02
1.909956316440126201e-01,1.544877074376950210e-01,1.377049619504538414e-01,1.460639741985938003e-02,2.616756818400084797e-02,-1.720159946475829579e-02,7.621773332357406616e-02
2.243943986538608493e-01,1.307470856700067574e-01,1.157219489698307624e-01,-2.337608123443594076e-04,-1.078347464434569695e-03,-2.658379635744695380e-03,1.021150872111320496e-01
2.215497276865308063e-01,1.088314520879224701e-01,1.319544537152717578e-01,-3.893973798485550475e-03,-8.893372684809668690e-04,-7.956504089641858266e-04,1.033608168363571167e-01
2.112721895028895347e-01,1.521176725086342829e-01,1.196652821333776817e-01,1.911969542493140856e-02,3.210663249042376016e-02,-8.357789592543790960e-03,1.042634844779968262e-01
1.061541128543525003e-01,1.042092770942036339e-01,4.267476184515595072e-02,1.404631740101256084e-02,7.667920832099549278e-02,-6.630734467912693941e-03,1.492409259080886841e-01
2.202633442145179865e-01,1.568225946522178726e-01,1.319410697134384969e-01,2.296870214022814910e-02,6.363617034478713519e-02,-1.065320612521633570e-02,1.424575895071029663e-01
8.126617778077037391e-02,1.310631030590219959e-01,1.164376842901909681e-01,9.236095894807704433e-04,1.974874315127882543e-02,1.015035844185278391e-03,5.604484304785728455e-02
9.302080301495244119e-02,9.918412476994421800e-02,5.707858652614104106e-02,-8.527088503315249229e-03,-7.735545579760101653e-02,-1.595906491565643676e-03,1.404589861631393433e-01
2.248723191562046475e-01,1.836581990257114272e-01,1.562049498392704128e-01,-9.260489027106936707e-03,-4.526349385593281260e-02,-3.381669823927061901e-03,1.001083180308341980e-01
2.407527444661474725e-01,1.237204078541155050e-01,1.235619019437980415e-01,2.427430090168965400e-04,-4.822091419374490351e-04,7.811660219707609529e-05,1.171154826879501343e-01
2.375123861710511375e-01,1.225527160628250567e-01,1.231643262138941153e-01,3.637641681494093089e-04,-1.157628831861782538e-03,9.309090548908225196e-04,1.146856844425201416e-01
1.564953260576470995e-01,1.387937527896414280e-01,1.339965693348958431e-01,2.070891698499104311e-04,-1.333877669365170042e-02,-8.959943806503277734e-04,3.094482794404029846e-02
1.840045134771056967e-01,1.327796386326807188e-01,1.131135266537402762e-01,2.030025463518380768e-03,-1.465226551742150607e-02,-1.856619258996548925e-03,6.844639033079147339e-02
2.411579169460993100e-01,1.280826184353104913e-01,1.163535120030064346e-01,2.372725637552425791e-03,2.089721723643749203e-03,-1.719403339462427125e-03,1.195354610681533813e-01
2.478727560794217188e-01,1.310722693959721352e-01,1.180565562068053576e-01,1.919279281792656130e-03,1.661758286129013653e-03,-1.538577026582216636e-03,1.239291802048683167e-01
1.992500337148714606e-01,1.308227630863159630e-01,1.195321565364464711e-01,-2.573179334221246256e-03,-6.318665817060879243e-03,-6.054336829768722054e-03,7.636726647615432739e-02
1.544580899880513281e-01,1.251108516709484031e-01,1.069140155652229807e-01,3.132013504546511239e-03,-3.902725169918373760e-02,-2.670392775888672052e-04,7.953259348869323730e-02
2.408873896297210049e-01,1.259649501664696913e-01,1.239911060857645519e-01,-1.079021617706112709e-03,-8.749675963050932348e-04,-2.246550944566597617e-03,1.160122081637382507e-01
2.445354649316209827e-01,1.254091427894597766e-01,1.258609249214565906e-01,-2.205061929500492547e-04,-4.065271252972133117e-04,-3.946140971085798578e-04,1.189057379961013794e-01
4.103417935622919455e-01,1.360876722354057433e-01,2.453342307869476324e-01,-3.842714304949496756e-02,-9.464336064256494499e-03,-2.227495473890175881e-02,2.517458796501159668e-01
2.426491343943662227e-01,1.297625206976853185e-01,1.190655355606385080e-01,1.528145704542389557e-03,1.482650144957908594e-03,-1.019175818815807244e-03,1.186679229140281677e-01
2.614733012434723447e-01,1.331130305140290626e-01,1.574998424222881499e-01,1.263242519543107331e-02,3.479774893089688289e-03,-2.456970666135984208e-03,1.203077286481857300e-01
2.543678987915068967e-01,1.142526404381631472e-01,1.435446020043969206e-01,-1.213572876898176382e-02,-3.436872264412353661e-03,-5.905600201875714494e-03,1.302610635757446289e-01
2.397949599631944984e-01,3.972354239345372851e-02,9.942121187527636073e-02,-2.338013896850080209e-02,-1.433048077255878044e-02,-3.912409769735388648e-02,1.962056308984756470e-01
2.532020508934709757e-01,9.568629269516502889e-02,1.394656953630639962e-01,-1.095974893347812298e-02,-1.800451422383489083e-03,-4.702349064578963470e-03,1.423668265342712402e-01
2.696481868444219887e-01,1.181373431042555544e-01,1.532031757424530960e-01,-3.822897176106803199e-03,-7.603925737572837698e-05,-4.403823148133615036e-03,1.377473622560501099e-01
2.291246409168680165e-01,-2.280722577605968915e-02,9.736514201985141392e-02,-3.015875923066874131e-03,-2.964583410020995690e-03,-1.053074699188085231e-02,2.191395908594131470e-01
1.564629932855634287e-01,1.137300057496892225e-01,1.172844266568195126e-01,1.168217329521543772e-02,9.987240241058641457e-03,-4.231249099266906621e-03,4.948955401778221130e-02
2.463635179698727140e-01,1.259836230364002885e-01,1.275631048323372096e-01,1.881534561198544911e-04,7.303831363582255498e-05,-1.423035043695055181e-03,1.196238845586776733e-01
2.022978137976048640e-01,1.095684016479293865e-01,1.378507139876060661e-01,-1.488908323141155225e-02,1.153583745717106507e-02,8.824314148237597313e-03,8.985497802495956421e-02
2.723599071506869751e-01,1.209327804974428267e-01,1.602010340420334245e-01,3.265642220807985201e-03,-7.851254178432705245e-04,2.470666137809215263e-03,1.363013088703155518e-01
2.201799269075018495e-01,6.385704530238200949e-02,1.390103403539021398e-01,-7.808754635984349601e-02,1.973841073734406565e-02,1.225288365287981011e-02,1.955732405185699463e-01
3.087534693245409523e-01,1.229994964470608881e-01,1.850761352735505461e-01,-3.102243679848828983e-02,-7.935874755640203934e-03,-6.667800170862185280e-03,1.733105629682540894e-01
3.160637576573176455e-01,1.896104833204009799e-01,2.829496485034982967e-01,-1.015717224444887545e-01,1.965581881450634630e-02,1.396725008421106570e-02,2.135283052921295166e-01
2.335290987136519891e-01,1.239913365026810987e-01,1.213309025114678447e-01,3.751086342558355969e-04,8.144393468801099491e-04,-3.272156985376282762e-03,1.110475137829780579e-01
2.328849666205365376e-01,1.143726790726381920e-01,1.321310111057165393e-01,9.419550229031663051e-04,1.417649339766282809e-03,-9.755509445599715211e-04,1.107586845755577087e-01
2.031685919518167460e-01,1.455390061794722689e-01,1.279247491431699801e-01,6.520366549616445333e-04,-2.210510877953328346e-02,-7.127281999013167831e-04,7.820000499486923218e-02
2.648146476101768121e-01,2.769485456830039771e-02,1.192787289747070101e-01,-2.076795123549237884e-03,3.920521248929927614e-03,1.848372532969261642e-02,2.097165882587432861e-01
2.573203239425436717e-01,9.181190885400976331e-02,1.412523902487613781e-01,8.691054429944340687e-03,9.228659631620208777e-04,3.758608859961106319e-03,1.480747163295745850e-01
1.809119156488976921e-01,1.401212888017500380e-01,1.470050886058409945e-01,-2.676357931573834781e-02,-2.764139776097070816e-02,-2.095375977834489437e-02,8.478593826293945312e-02
2.807051164618087347e-01,1.047080634096420326e-01,1.616609885775859290e-01,-2.620659698268848568e-03,9.005960679011826286e-03,1.400888403673134115e-02,1.582647264003753662e-01
2.947258632810475509e-01,1.341946015718678831e-01,1.739845470812705908e-01,1.845488072387988995e-02,-1.199249482320203716e-02,2.072632204782862489e-02,1.539738476276397705e-01
2.042672668979598760e-01,1.407400509056669358e-01,1.421238476770857739e-01,-2.487387145824216609e-03,1.570105692854619189e-03,3.453831484503704172e-03,6.333606690168380737e-02
2.480905542802410713e-01,1.080958464439614464e-01,1.420517414912543519e-01,1.563305219691594420e-03,-7.851401309162311243e-04,3.751967156966196267e-03,1.266857832670211792e-01
2.834482022784344246e-01,9.935944012311441476e-02,7.824248002101356902e-02,1.698181213782908473e-03,-2.834422038493308871e-02,-8.422707631279176266e-02,2.488441914319992065e-01
3.509451320827474685e-01,2.400542514710955200e-01,2.037755517212095635e-01,-3.574456158991873994e-02,-7.094979682323604431e-02,-3.931734481064363962e-02,2.029978036880493164e-01
3.068600513733363289e-01,1.935114299771799884e-01,1.081860295054786619e-01,1.585682909500217563e-02,-9.165142014232152690e-02,-9.525597695913573526e-03,2.366988062858581543e-01
2.354997367903196859e-01,1.128841036042109724e-01,1.332121307902022767e-01,-1.371584000865745320e-03,-8.580945215911884270e-04,-1.057844681310067449e-03,1.138705313205718994e-01
3.368382148229098760e-01,2.388108173817988511e-01,2.024704883360682051e-01,-3.368929340232570957e-02,-7.690173548513433432e-02,-2.935803226775205582e-02,1.955110132694244385e-01
2.382089942157963880e-01,1.195913544125803279e-01,1.270741841632558600e-01,-6.434139500156738902e-04,-1.429285749899138419e-03,-8.590272938758155554e-04,1.151005029678344727e-01
2.334905031201644499e-01,1.383573502845992786e-01,1.180690846739793354e-01,5.067263572400272870e-05,-3.757673737916872141e-04,-1.333655751935807670e-03,1.067604050040245056e-01
2.354584659333724961e-01,1.340712983145239956e-01,1.169134412834259562e-01,1.144668904495375216e-04,-1.030826120789188859e-03,-9.015079449362027033e-04,1.109910011291503906e-01
2.430210684760608086e-01,1.090378090011985823e-01,1.402800050502348850e-01,3.870991926539021563e-03,5.464587374969241988e-04,-4.522886984033478667e-04,1.216064170002937317e-01
2.403685866305218521e-01,1.034663872134311269e-01,1.385658115909558508e-01,4.183412295992905601e-03,6.859869433996001672e-04,-1.593674084102155364e-03,1.234120205044746399e-01
2.546307181500045425e-01,1.203501413162031408e-01,1.500868876424063802e-01,1.306473737189466945e-02,-2.008854449792044777e-03,3.318554909652987085e-03,1.244173869490623474e-01
2.323795259692388870e-01,1.142166200437124135e-01,1.362495006056746172e-01,8.697641829204710634e-04,8.810087668014081417e-04,-5.543014578330401334e-04,1.088575720787048340e-01
2.575651851464237918e-01,1.088797325141008243e-01,1.424080849357777789e-01,-5.092670341843168885e-03,-3.637290510362109399e-03,-5.938251603723824698e-03,1.359029859304428101e-01
1.865053012838573387e-01,1.313118159881323244e-01,1.313563190448835960e-01,2.853871554962364269e-03,3.550436607263980551e-03,-6.172512403739904147e-03,5.674871802330017090e-02
2.160010875797565011e-01,1.197732477279623009e-01,1.432241305986489688e-01,7.195034425864646824e-03,-1.261427922307841723e-03,1.743980128015266366e-03,8.787671476602554321e-02
2.326375771982970020e-01,1.290979494890988899e-01,1.117120839756291784e-01,9.318939620385610981e-03,-1.001416473179781753e-02,5.917768350330700547e-03,1.161433905363082886e-01
2.371091007394693639e-01,1.079967527014437240e-01,1.350317654390433830e-01,3.471143255749062871e-03,4.361819366189480934e-03,-2.502889596283283495e-03,1.184160187840461731e-01
1.622440077419438076e-01,1.292509118637093224e-01,1.387030353368455815e-01,4.949855140690064687e-02,-2.541608121352188776e-02,1.454237082027102189e-02,1.038687899708747864e-01
1.960641439686030274e-01,1.163610256745054583e-01,1.247861841307236069e-01,3.184975375239020891e-03,-5.920938675104600579e-05,4.398732776928427658e-03,7.642348110675811768e-02
2.150707662226658823e-01,1.186633854928605125e-01,1.322296351040492257e-01,9.650677421248985213e-03,-1.639497239092278216e-04,4.178397776770292546e-03,9.220848232507705688e-02
1.606647550669372260e-01,1.343645334152336335e-01,1.452780075949879623e-01,9.678484972597246883e-03,4.556548524477997165e-03,-1.241822608605211648e-03,2.952474914491176605e-02
2.310721259973235742e-01,1.102387219835357091e-01,1.340353248321087820e-01,1.753434192398749389e-03,2.077658668223734181e-03,-1.572332997912017413e-03,1.110007017850875854e-01
2.201596710738100426e-01,1.271514979212210184e-01,1.366419004137862658e-01,2.583942319298003932e-03,1.084792525401328568e-03,-4.307983814647073362e-03,8.909063041210174561e-02
2.171302496272234650e-01,1.150840936654269481e-01,1.305231809048139902e-01,4.291457927952951716e-03,1.154238564316012244e-03,-4.147989334683416761e-03,9.584961086511611938e-02
8.274766859386242790e-02,1.517168708407369837e-01,1.727282424751850898e-01,2.280382697373297546e-02,-2.854258947384027620e-02,3.685520280573885595e-03,1.034030839800834656e-01
1.570093742378232404e-01,2.047018492263352751e-01,2.184651239790961208e-01,4.881763235493516428e-02,-1.577396730122035060e-02,5.614096448886965636e-03,1.054082363843917847e-01
2.367670860895775831e-01,1.140717403374225530e-01,1.334453678934570675e-01,3.448371372226291011e-03,-1.596006482585105631e-03,1.255729650260009817e-03,1.144573166966438293e-01
1.722810826211336466e-01,1.421713830840488357e-01,1.414194244889767915e-01,2.603089595376900829e-03,-8.074451645340773726e-03,3.275840099420572818e-03,3.432073071599006653e-02
1.821348538962079266e-01,1.161041072637643834e-01,1.304190842409357620e-01,1.188323393871399541e-02,1.022688975302800656e-03,-1.369141645670646223e-03,6.365645676851272583e-02
7.026741373994636886e-02,1.649520253163424821e-01,2.049061378568039771e-01,-9.004452602464570882e-03,-2.837779559978840377e-02,-4.186610176025036892e-03,1.305996477603912354e-01
3.971055268177404729e-01,1.612431304213185479e-01,2.149799515616690471e-01,-5.944238974703987960e-02,-3.032148905766673605e-02,-5.045848276327050130e-02,2.585358023643493652e-01
2.342107748068514572e-01,1.181051896146940172e-01,1.320748578125103823e-01,-3.681960832558286057e-04,-2.463319513100585838e-04,-1.740097090925089851e-03,1.098333969712257385e-01
2.413483670415881022e-01,1.126804585061778052e-01,1.350216488842815588e-01,-2.646823306290022829e-03,-1.215480209128771494e-03,-1.401673423532167218e-03,1.192111894488334656e-01
3.259419702729926538e-01,1.904539455979079587e-01,2.208573995744379515e-01,-6.451798767405454715e-02,-3.096291362192829522e-02,-3.471071234968482744e-02,1.847711801528930664e-01
2.408233483126297481e-01,1.250807065487732628e-01,1.254133421204425280e-01,-6.367432411536527639e-04,-9.113119556309772808e-04,-1.911108170143667939e-03,1.156401038169860840e-01
2.398588105676122406e-01,1.257510804958199557e-01,1.223199180235889361e-01,-8.030251459248889971e-04,-2.107404554091078905e-04,-8.869354507933730532e-04,1.158805266022682190e-01
2.382746682730214893e-01,1.189229735578341274e-01,1.243459444028901240e-01,-3.265932605734034799e-04,-1.012050201797800924e-03,-6.461247999767277470e-04,1.167546138167381287e-01
1.948399167038374902e-01,1.380417331334877484e-01,1.504157080317934936e-01,-3.972369215865358474e-03,1.180438382742874737e-03,2.557114103337143184e-03,5.241627246141433716e-02
2.318171629810278078e-01,1.302536074771355745e-01,1.204608870632311035e-01,-1.014642083544004241e-03,-1.037093478196103591e-03,-3.259354065055255784e-03,1.069758012890815735e-01
-9.373101778337306067e-04,1.090317648975663856e-01,1.171882424998414718e-01,-1.179544916920861539e-02,-9.263736620289399551e-03,5.442020213757061417e-04,1.171854212880134583e-01
1.936038525475694272e-01,2.130749068753780007e-01,1.786521549162877476e-01,-2.360607481660129819e-02,-6.829996815508432295e-02,-9.145820572604391671e-03,1.296577602624893188e-01
1.740115838481081645e-01,1.751667876629501575e-01,1.699638767606350409e-01,-2.048222205619586178e-02,-2.007698528660411055e-02,-5.604702281627714673e-03,5.083751305937767029e-02
1.933470013620941785e-01,1.332126227784765915e-01,1.406828114128946816e-01,-3.401667879981102021e-03,-7.231610112873582304e-03,-5.546591652966070991e-03,5.921679362654685974e-02
2.415134765944211281e-01,1.240905861783844211e-01,1.230987799059766602e-01,3.448639845421487570e-04,1.108018547531608135e-04,5.365091377713684332e-04,1.179272532463073730e-01
2.405601833253866451e-01,1.266310428306550162e-01,1.238638191220671203e-01,1.246420184303880787e-03,2.315474899491715090e-04,8.288386692634233622e-04,1.153674870729446411e-01
2.199133606022804777e-01,1.182470795484404785e-01,1.275918685732528868e-01,-3.174648660638882108e-03,-2.565459529863081331e-03,-5.349599691052061949e-03,9.802623093128204346e-02
8.816544650892498003e-02,4.476383673496611010e-02,9.703032325838614747e-02,-7.271043025376985880e-02,-2.775184456777827005e-02,-1.349020072001168996e-02,1.451341062784194946e-01
2.335215523773046531e-01,1.168176088820555847e-01,1.389994058926718179e-01,-8.875017434543559791e-03,-7.059203734270793479e-03,-8.486165442002993609e-03,1.101134866476058960e-01
1.729740211559573360e-01,9.236037594349361113e-02,1.263020372715250306e-01,-4.505020995169916470e-02,-4.251564082603647224e-03,-3.003932182403612570e-03,1.052819937467575073e-01
2.352507925101349762e-01,1.232248740198771120e-01,1.221355398404007087e-01,-9.408321627635215373e-03,-1.317728213789992088e-02,-7.983790044448654116e-03,1.168363019824028015e-01
2.298173938621661805e-01,1.076766615499562679e-01,1.269282044118427710e-01,-3.379911278795220183e-03,-2.500238341537186666e-03,-1.994312478190546443e-03,1.140286773443222046e-01
2.427002915927944926e-01,1.206537519284840987e-01,1.245785218833578289e-01,3.592961071375629784e-03,2.681383769414655976e-03,-4.912674407395042735e-03,1.206832975149154663e-01
2.390242810862338030e-01,1.340570765088412997e-01,1.201493510953466209e-01,2.240988291788366654e-03,4.152159767858886602e-03,-5.028787837263389536e-03,1.131991520524024963e-01
2.510301163899895660e-01,1.323399385672862361e-01,1.171405029327712427e-01,-3.732244087044659037e-04,1.048474387470598118e-03,-8.497328337507404142e-03,1.278387010097503662e-01
4.024089838242846939e-01,1.667373087371446794e-01,1.317645909426616302e-01,1.115572683831019332e-02,1.693936159736492142e-02,-7.584901191209299232e-02,2.889631390571594238e-01
3.031550274632149322e-01,1.396987438921183933e-01,1.642528019207292189e-01,5.536352356609417803e-03,-3.227676023699200115e-04,-2.560448058682203085e-02,1.592682600021362305e-01
2.508903991267376066e-01,1.150622572952869904e-01,1.383308907957169209e-01,2.277371767187002551e-03,3.504495700503431569e-04,-2.181044269865978994e-03,1.259379833936691284e-01
2.496093616287949346e-01,1.050577521385650803e-01,1.348620937190891933e-01,-5.095612582441551817e-03,-2.309534233746078017e-04,-1.278159950457436779e-03,1.325072050094604492e-01
2.299685766714963386e-01,1.168350942639491963e-01,1.337607829973468665e-01,7.868603879827034200e-03,2.328951355833132602e-03,-4.642576083603158939e-03,1.069461479783058167e-01
2.460589023588127533e-01,1.243300615824709521e-01,1.293215085417686872e-01,8.483086607596905439e-04,1.192745299156009039e-03,-1.340801667596650676e-03,1.193609759211540222e-01
2.354370571512519605e-01,1.225902711505893472e-01,1.142221450501857277e-01,-1.121675965093792658e-02,1.570490926016194361e-02,1.877060255633641872e-02,1.261868625879287720e-01
2.390108606629935128e-01,1.251086783438755123e-01,1.209325089611724691e-01,-1.450583231333108349e-03,7.361383036911735593e-04,8.968767960972828324e-04,1.160912290215492249e-01
2.232245708457012423e-01,1.026498949979731817e-01,1.188156104801974533e-01,-5.319404247109596473e-03,6.217002362194301579e-03,3.787989017365087519e-03,1.144303083419799805e-01
2.451681206166006488e-01,1.243682064363581530e-01,1.266759198922265128e-01,-4.131703525556039251e-03,4.494516691328805449e-03,4.659216202028346188e-03,1.203998029232025146e-01
2.443301528293138070e-01,1.279673536525675892e-01,1.241112047654532174e-01,-1.329274142255312862e-03,6.627932633267385153e-04,8.430605349116654943e-04,1.183749735355377197e-01
2.609333070028468926e-01,1.675404053491005574e-01,1.575260496412049793e-01,-1.964963938996175039e-02,3.379625003030454350e-02,1.900393628595573384e-02,1.242019534111022949e-01
2.585471399881495436e-01,1.585905028957041996e-01,1.046138067182211251e-01,3.720094583522968405e-03,-4.128952227032729044e-02,-8.001220975644456794e-04,1.531602293252944946e-01
2.226402883712953473e-01,1.329429201419691231e-01,1.087485026874819571e-01,2.060952519646225311e-04,3.763013766529696436e-03,-7.548651611966564635e-04,1.041416376829147339e-01
2.908003826584469875e-01,1.135646379495435093e-01,1.762157460198418013e-01,-1.369865774253406325e-02,-1.375473156041431833e-03,3.811531287619924352e-03,1.576257348060607910e-01
2.295432777189688467e-01,1.115913317626437973e-01,1.343211108943073162e-01,-2.077355703711808790e-03,4.553562827038160001e-04,8.863671458144797323e-04,1.084629371762275696e-01
2.259164755167412109e-01,1.159607539819556971e-01,1.256480969519234159e-01,-7.711202564914546032e-03,-6.185288628678029497e-03,-7.789331851342689954e-03,1.076759472489356995e-01
1.411573279794472724e-01,1.467745562828424444e-01,1.503746139146996397e-01,-5.611599936966808061e-02,-2.925275146943404070e-02,-1.565675393697370243e-02,1.132003739476203918e-01
2.417079691911959149e-01,9.646483475884543024e-02,9.576127679209439636e-02,-4.431697330908911450e-03,6.275577437448656357e-03,2.042834368088559949e-02,1.504236310720443726e-01
2.252478225379867249e-01,1.201974543825222452e-01,1.416227340433885151e-01,-2.050561988530378438e-03,-1.404588733676614704e-03,-1.929515832676166652e-03,9.629948437213897705e-02
2.345858481502413051e-01,1.094183095706230957e-01,1.380675870307004338e-01,-4.061114154679670331e-03,-3.696265166656594893e-04,1.001520268045741086e-03,1.138184145092964172e-01
2.725320599110763742e-01,1.352393282481751946e-01,1.240528332297320124e-01,2.145679495173957382e-02,1.427228058497138387e-02,-2.783733821138024631e-02,1.575667560100555420e-01
2.480741640392802316e-01,1.289720045048280694e-01,1.274118364660692948e-01,-1.269888774296510855e-03,-1.710372288712005788e-04,-1.301675086836104681e-03,1.199315935373306274e-01
2.499321574356925257e-01,1.110637230825409494e-01,1.443726714170908976e-01,-3.170681139275825094e-03,1.339246388865482666e-04,2.541156343536345240e-04,1.256931722164154053e-01
2.405669565676460397e-01,1.240987280651069391e-01,1.164925504111855303e-01,-1.786848563448225962e-03,-1.241909008287420037e-03,-2.038382769698976471e-03,1.205622255802154541e-01
2.385326328319210543e-01,1.284609308701555874e-01,1.161617458867557906e-01,-2.478305307404664315e-03,-7.986246787058913499e-04,-9.906684438661880494e-04,1.168080717325210571e-01
1.731286924187167287e-01,1.194199993108443353e-01,1.258143413537746447e-01,-2.375293916743682204e-02,-8.219932766517510161e-03,-4.196424383783576781e-03,6.730689108371734619e-02
2.371338460922264579e-01,1.331456014468348770e-01,1.107654934033502347e-01,-1.812725345557695145e-03,-1.328652199737209456e-03,-1.083997309880703518e-03,1.168775931000709534e-01
2.486404598698058743e-01,1.376753617131395158e-01,1.056117286740785033e-01,-2.286187181731548067e-03,-3.213911403809917647e-03,-3.780007642399749006e-03,1.303411126136779785e-01
4.122485634691427370e-01,2.250840671315642583e-01,1.943011530710723744e-01,-4.676144895230411463e-02,-3.715080678369681727e-02,-6.525700110521433228e-02,2.553732097148895264e-01
2.301444865893190195e-01,1.245915483094365006e-01,1.281098649161222514e-01,-5.900049136845127986e-04,1.828552916596628891e-03,4.359938539608232931e-03,1.041659042239189148e-01
1.302059013583619640e-01,1.002631906022993930e-01,1.140591557847419613e-01,-2.298179089253402779e-02,-6.542815158162910288e-03,-3.240919483617219279e-03,4.917550459504127502e-02
2.319754211629567742e-01,7.034597997006025727e-02,1.156170557727300013e-01,-2.090260893551728130e-02,1.328088448300093413e-02,1.452668619485626873e-02,1.527395993471145630e-01
2.900112009396470514e-01,1.345808988441362652e-01,1.837592766233983599e-01,-6.922221170296208315e-02,2.348470322482932790e-03,1.643872234017887055e-02,1.847583949565887451e-01
2.456019643449643963e-01,1.281932934283422088e-01,1.236405547088791357e-01,-1.183492986014689783e-03,5.494062005232750725e-04,7.031274206170459729e-04,1.197774782776832581e-01
2.483573957196065496e-01,1.303091606258973134e-01,1.255069287408029366e-01,-5.335892014106007660e-04,2.968169596360561513e-04,6.375898555694510441e-04,1.205308288335800171e-01
2.239191709446822220e-01,1.211818641720779077e-01,1.407789252542068492e-01,-9.348735657339646635e-03,5.552672418334612644e-04,5.615387474197360094e-04,9.586301445960998535e-02
2.401403823122419401e-01,1.315934392512744244e-01,1.089686942525798785e-01,-2.505929786799063023e-03,2.720817875171172451e-03,1.548283823229451095e-03,1.216486915946006775e-01
2.290239360511992506e-01,1.175138776068230667e-01,1.292371675008324172e-01,-1.678852339980384115e-03,1.693687147015036573e-03,3.344974936209909634e-03,1.063733622431755066e-01
2.334612611473403376e-01,1.153520834754093172e-01,1.341376196663391362e-01,-6.146029445141700095e-04,6.181022022678384770e-04,7.434870150382014023e-04,1.099448427557945251e-01
2.467171566692673568e-01,1.306937819073417106e-01,1.264808210820642376e-01,-1.600869855855044377e-03,2.367414126579901051e-03,4.244571030474332193e-03,1.185180395841598511e-01
2.449305385585429096e-01,1.256019719167797144e-01,1.242947173726716703e-01,-1.477755502135123930e-04,2.153363307071533392e-04,1.876008401572399654e-03,1.200323775410652161e-01
1.731800961262751626e-01,1.337556921028910939e-01,1.309707523715183397e-01,-5.103720484186155537e-02,3.934879150848298590e-02,3.757867486512002364e-02,1.355274021625518799e-01
2.425546888920455946e-01,1.201951067750279961e-01,1.194737057317943607e-01,-1.433564319182355478e-03,1.359323738249151653e-03,4.477716227167131968e-03,1.230142936110496521e-01
2.500767898472506801e-01,1.337703088362205972e-01,1.202916204546261025e-01,-8.390063188935345138e-04,9.064135307938006331e-04,1.521682114670785567e-03,1.236448734998703003e-01
2.235063813047915848e-01,1.354983862361027191e-01,1.171956070748251255e-01,-2.888468325972217039e-03,8.476605422568702156e-03,2.429294380773381820e-03,9.974709153175354004e-02
4.702052103053039334e-02,7.538764376100605402e-02,1.016343970073648184e-01,6.044786188315608155e-02,1.379279364915407188e-02,-6.702183505240338294e-04,1.173543110489845276e-01
1.954427760366559408e-01,2.346002162657985224e-01,1.894588368393900768e-01,8.125137297842211989e-03,7.638795197811573678e-02,-2.488920403017406708e-03,1.397334039211273193e-01
2.153241870378916067e-01,1.514373297403017182e-01,1.304035850378097716e-01,1.972247822125775766e-03,3.254891251404430034e-03,5.256192729484158868e-04,7.688959687948226929e-02
1.622091826239616952e-01,1.239798856573263025e-01,9.664121443468681738e-02,-2.970955266048201215e-03,3.816377035604757301e-02,7.821081087763472398e-03,8.850665390491485596e-02
1.263604137774864411e-01,1.967536851677636478e-01,2.041574657173904350e-01,2.622048410642382338e-02,1.380130598636239783e-02,-7.559941995157201742e-05,9.036144614219665527e-02
1.360320970964568055e-01,1.973220270150343458e-01,2.111982225116085243e-01,-2.905726099107722171e-02,1.707245788518716237e-02,2.511205637079049965e-03,9.069605171680450439e-02
1.623598696069060987e-01,1.481026522681105906e-01,1.522974445298813928e-01,-1.796712789590933224e-03,7.028914412000138905e-04,-5.011126457236554903e-04,1.315212901681661606e-02
2.814359500925926461e-01,1.685441821460761380e-01,1.381347530634116638e-01,-1.513595597723465039e-02,1.980985933151026973e-02,2.502588607781881108e-02,1.443804949522018433e-01
2.450471508741026150e-01,1.417404042805512632e-01,1.144357126382849477e-01,6.639119574886805661e-04,-3.744360859755626030e-03,1.960369526403669786e-03,1.195554286241531372e-01
2.441959336758511845e-01,1.188473394277629047e-01,1.331324666551088609e-01,1.580164857310326900e-03,2.581891961281084901e-03,-1.249041947569114316e-03,1.189869046211242676e-01
2.542059128109105948e-01,1.335673119215844695e-01,1.258239777647600643e-01,1.006236638475297785e-04,1.327096077574074599e-03,-2.750219788319255721e-03,1.248029693961143494e-01
2.438329959494659194e-01,1.254328634156706701e-01,1.251238021345091878e-01,4.348612534991209825e-04,3.238539768731011595e-04,-5.117669925942092786e-04,1.185619980096817017e-01
2.492793657839167398e-01,1.023241141199207893e-01,2.426841819993891258e-03,1.665035898934310102e-02,4.076677540481187662e-02,-3.256430256139095786e-02,2.350628376007080078e-01
2.397497620665554607e-01,1.230063256805102589e-01,1.246633485196505797e-01,7.257869817598598975e-04,4.617526635089527027e-04,-1.212250970584480845e-03,1.159523949027061462e-01
2.414326615852587232e-01,1.223689127582706648e-01,1.264344199360070975e-01,5.882864941295008103e-04,1.373308981996765321e-03,-7.876520731415475197e-04,1.171204820275306702e-01
2.421243531007420402e-01,1.244324632738444125e-01,1.244478440055851731e-01,1.172866679033608911e-03,1.461464176235841017e-03,-1.672584717303132002e-03,1.177645847201347351e-01
2.436267652345511514e-01,1.241213473712514392e-01,1.253571804115986288e-01,4.432385913921040033e-04,4.469669061710432345e-04,-3.058532430277827673e-04,1.188984960317611694e-01
2.398547477393528360e-01,1.284572236129469525e-01,1.279024415040296569e-01,6.099282061775274490e-04,6.268977129108952058e-04,-2.020137007129141002e-03,1.117410212755203247e-01
2.582304786280469888e-01,1.388926112784847622e-01,9.905672321424942306e-02,1.675799108878908445e-03,3.006989826500599140e-03,-9.864123826753196100e-03,1.446022391319274902e-01
2.548397876816760887e-01,1.391770522393755982e-01,1.146332651005337322e-01,1.814478298464275007e-03,2.095995205048396034e-03,-2.074347708804657152e-03,1.298269331455230713e-01
4.335105559047830459e-01,1.992991401789609429e-01,2.126437919095146012e-01,5.292839745857024283e-03,-9.887306024451121902e-03,6.508138085131207062e-02,2.549346387386322021e-01
2.488242451964002289e-01,1.346271445062503513e-01,1.206325646312057243e-01,-6.374415447539547930e-05,-7.314057720966759494e-04,2.320919250585789378e-03,1.218718290328979492e-01
2.550909971740806248e-01,1.392324677212876671e-01,1.148067097526281333e-01,3.140813341982824549e-03,1.419210133890725072e-03,-4.722036909574790255e-03,1.302009224891662598e-01
2.663417916563366461e-01,1.229227456570675392e-01,1.519176528580263030e-01,1.163301079639786784e-03,-1.210684804721066325e-03,4.355254949970860032e-03,1.315928101539611816e-01
2.487843989600840855e-01,1.191400541581976585e-01,1.327656847535858553e-01,1.173130263623451720e-03,-1.936788463308561055e-03,1.488469439634926630e-03,1.234862580895423889e-01
2.455315028426302004e-01,1.240194632290661375e-01,1.275702512276231937e-01,8.914896184427185608e-04,-7.029842691011504649e-04,9.037668617215523703e-04,1.198024973273277283e-01
2.437962698282889196e-01,1.236308575417005978e-01,1.244216231307044840e-01,3.924441014543123842e-04,-1.143622698135376287e-03,1.198375860842388479e-03,1.198082789778709412e-01
2.517497056957439527e-01,1.317314477363196179e-01,1.236452406291611017e-01,2.505665753971257625e-03,5.966982171090444588e-05,3.200406002845692689e-03,1.244581639766693115e-01
2.373068845210424549e-01,1.158826879444519731e-01,1.245191601901908252e-01,-1.214483757801513089e-03,-1.610649402944811437e-03,-1.575660638370544138e-03,1.174282878637313843e-01
2.377489308026438652e-01,1.151682732103502527e-01,1.282953322617394754e-01,-2.654229674624321821e-03,-3.976454922298216892e-03,-1.461664276473150685e-03,1.168939471244812012e-01
2.377192861158766712e-01,1.151225063448896302e-01,1.324035130342203770e-01,-3.195541853892591710e-03,-1.335884221766651773e-03,-3.242356365128503445e-03,1.152281835675239563e-01
2.675565690874939229e-01,1.456508741187762523e-01,1.594328494729998769e-01,-4.185416269259320532e-02,-2.854077906836697751e-02,-2.045172427637266879e-02,1.494145244359970093e-01
4.526069323912725872e-01,1.710300512630784364e-01,2.837534542157601480e-01,-2.284118433411237020e-02,1.606625259597019859e-03,1.117817355507414422e-02,2.493983954191207886e-01
4.000423589464097707e-01,1.549400464727253013e-01,2.519368132117865700e-01,5.154846340506351321e-02,1.259580240175370985e-02,-1.988331200430215953e-02,2.352511733770370483e-01
2.605873806255266656e-01,1.141551995575695033e-01,1.493214640130912652e-01,-1.231949982128287095e-02,-6.484367699355487308e-05,2.165165674361330811e-03,1.341602206230163574e-01
2.403121672845658363e-01,1.076424943459747541e-01,1.387649740058315428e-01,-4.717934854030189466e-03,-1.926535959851249750e-03,-1.507979549948703767e-03,1.205220967531204224e-01
2.490964113031200466e-01,1.005970654268003445e-01,1.387207694921903656e-01,-5.332691297468892914e-03,1.217881376299881531e-03,9.566974229730331770e-04,1.339277327060699463e-01
2.416822383863235224e-01,1.168024213042472559e-01,1.404053251340447173e-01,8.765104785920234398e-03,-1.665013843529380587e-03,2.359889120054286388e-03,1.160174310207366943e-01
2.617829086327045918e-01,1.142348418683285377e-01,1.491508550312073134e-01,1.068085901738991287e-03,-7.052040519658680975e-04,-2.078846963612738239e-04,1.335769891738891602e-01
2.491152762906934659e-01,1.198072896321615149e-01,1.332092418247421417e-01,3.937558823059606329e-04,-1.441893450691871708e-03,1.794099990969275343e-03,1.232215389609336853e-01
2.529683019475031380e-01,1.236592587640582552e-01,1.347269046318821106e-01,-5.209635639092288209e-04,9.670037403023229406e-04,1.532868606291767823e-03,1.241887435317039490e-01
2.348596221977621579e-01,1.044690251664630587e-01,1.130546436600839144e-01,6.324541546733730701e-03,-6.346875734316622351e-03,1.051398747036707410e-02,1.285628825426101685e-01
2.415655063058889662e-01,1.184766808331987886e-01,1.179165656772209608e-01,2.277242581333010444e-03,-2.404335005344252884e-03,4.615333253946890535e-03,1.237615495920181274e-01
2.249828936711125715e-01,1.113035600121168867e-01,1.246786426854122887e-01,5.051665497592902100e-03,-2.521178728342194069e-03,3.693138008984101113e-03,1.082495152950286865e-01
2.467532726749654959e-01,1.284083005733283045e-01,1.276315263374799558e-01,3.831984260082290926e-06,-2.119202531368668727e-04,2.945731342548452646e-04,1.187369301915168762e-01
2.458156217515561348e-01,1.256844753985175422e-01,1.264787731346481148e-01,1.864336682301783059e-05,-1.937111268455895088e-04,1.256440240672243797e-03,1.197562217712402344e-01
2.465011696272457753e-01,1.281884350629695080e-01,1.286415010724920593e-01,1.935497271283410719e-04,-1.851462437579316648e-05,3.959777349652612247e-04,1.180893257260322571e-01
1.967421361117518974e-01,1.102284952996108736e-01,1.427352924338026741e-01,-1.778451824649711008e-02,3.024755612589426082e-04,5.096247044568487285e-04,8.172479271888732910e-02
2.497774770679675460e-01,1.167533603014857257e-01,1.383814022324721116e-01,-2.252901604294151906e-03,-2.380726127926929576e-03,-1.376865631363660908e-03,1.237903609871864319e-01
2.126822572985339610e-01,9.047318817253938161e-02,1.926230934748424939e-01,-7.364777122173803148e-02,3.737308660366920471e-02,1.315882451351330779e-02,1.840317994356155396e-01
2.600918754727879478e-01,1.114573374528981392e-01,1.500204972086864597e-01,-2.629981026643897143e-03,-8.711049255203408542e-04,-3.646029397525366966e-04,1.336822807788848877e-01
2.532581884544495843e-01,1.117290109200595322e-01,1.379786550988121863e-01,-3.677386645867817064e-03,1.263687050612427327e-03,2.846354432876808775e-03,1.306679993867874146e-01
2.284098409150627784e-01,-5.064262327037261091e-02,8.862717804032362034e-02,-1.411897102447539146e-02,-1.812292843516086693e-03,-7.143793923836337136e-03,2.432360202074050903e-01
2.319182307335846405e-01,1.148050337100551266e-01,1.280231242511089829e-01,-7.277947279548721733e-03,4.982551500648055992e-03,5.915591107816029100e-03,1.126080453395843506e-01
2.364407663083507583e-01,1.116070141275801730e-01,1.259094881516085174e-01,-2.552879162964483573e-03,4.791796101407360883e-03,2.502687877833525889e-03,1.187847703695297241e-01
2.430815974646406141e-01,1.150219954730810068e-01,1.403544615849752208e-01,-2.919996247694181795e-03,2.428929273866647920e-03,2.666079976535322242e-03,1.177350059151649475e-01
1.961548144441883079e-01,1.481654098041241541e-01,1.421384364440827774e-01,-1.022188598941576980e-02,2.391852071521668663e-03,3.593944481252471426e-03,5.475318431854248047e-02
2.360782571452828549e-01,1.163057392965089476e-01,1.268593069462652934e-01,-2.664871713093360916e-03,3.435320147752708025e-03,1.447672017316271572e-03,1.151338443160057068e-01
2.416036963333623722e-01,1.214146661913817066e-01,1.262348510647187116e-01,2.431219381622391708e-04,1.642150912006725772e-03,9.635923874752458851e-04,1.178997755050659180e-01
1.864042568943288514e-01,1.272536082220971920e-01,1.280540230289997361e-01,-3.163624243326119967e-03,-2.143345421763303161e-03,-4.017686032478500271e-03,5.953425541520118713e-02
1.954137238006789790e-01,8.275918933397999333e-02,1.330462313597065571e-01,-5.867163940700820951e-02,1.179995819070660604e-02,1.435351651937610308e-02,1.446293145418167114e-01
1.909436662495435089e-01,1.309927293123452907e-01,1.201659702853536266e-01,-3.278333452726547251e-03,-8.589224103851636830e-03,-6.882088928470750551e-03,6.896422058343887329e-02
2.008104217103222622e-01,1.442989281406965030e-01,1.390076468115692965e-01,-3.725528714978822153e-02,-2.729951560573991645e-02,-2.069325860186222582e-02,1.058529987931251526e-01
2.361715123633297830e-01,1.320820297394164622e-01,1.185684844642363872e-01,-1.638957842690974206e-03,-2.183428555938532033e-03,-1.707060566711261296e-03,1.116017773747444153e-01
4.253634885516002218e-01,2.178785828588548912e-01,1.782425568278418471e-01,-2.281271970843916017e-02,-3.343568290763962447e-02,-6.831736177435120128e-02,2.678838670253753662e-01
2.442946076588141668e-01,1.262398025086118869e-01,1.307403040455426269e-01,-3.069433369757260284e-03,-2.176776419339584382e-03,-3.377596736003112693e-03,1.162006407976150513e-01
2.581912287923544547e-01,1.240772520406077384e-01,1.288941320354830833e-01,-3.801596261884877901e-03,4.183750445531012985e-04,-1.352060797147713010e-02,1.340001970529556274e-01
2.448858772884805468e-01,1.251282340865853548e-01,1.178225175297877292e-01,-2.386792915080813635e-03,-1.295755953580931229e-03,-2.504194222795856368e-03,1.237381175160408020e-01
1.748516353835232739e-01,9.528780075381333703e-02,1.115233699207738571e-01,-3.449746907406295998e-02,-2.976626766418725631e-02,-1.918801533908796528e-02,1.124059185385704041e-01
2.555566487899939565e-01,1.325460248389654372e-01,1.304314122614347593e-01,1.506837139254668797e-03,-1.691519448605662218e-03,-7.907309380290874698e-03,1.248966678977012634e-01
2.375433144135320473e-01,1.149713326314511230e-01,1.234246529867724512e-01,-1.867907927028535347e-03,-2.514997614186506927e-03,-2.506757917112396091e-03,1.187750101089477539e-01
2.563011632127079609e-01,1.396337834638322617e-01,1.187526677110955220e-01,1.443981829381953087e-04,1.774985196346022477e-04,-2.156968428410328906e-03,1.284428238868713379e-01
2.353888904993005626e-01,1.286419288210325362e-01,1.128730601953998602e-01,-2.970305768553251763e-03,-2.260406576237559799e-03,-2.164027069785959788e-03,1.156836003065109253e-01
2.394317901401150639e-01,1.354810800794978287e-01,1.159951666726012076e-01,-2.243591436966798757e-03,-4.419878199149240849e-03,-3.004555831814734613e-03,1.153768375515937805e-01
2.406864251295774693e-01,1.277795235387237660e-01,1.102473399853738933e-01,-3.094806352213233698e-03,-2.950120859554165344e-03,-3.648275572565958923e-03,1.230025365948677063e-01
2.329963585261048409e-01,1.180945267065010573e-01,1.176526895278714735e-01,1.272156555219046067e-03,1.826913006449576654e-03,-2.149174019040421806e-03,1.152480766177177429e-01
3.727797977927378437e-01,1.894730616305429216e-01,6.695934046455329081e-02,-1.256800345287669742e-02,-1.174005789301460446e-03,-6.305649320353499954e-02,2.889202833175659180e-01
2.417704888845312594e-01,1.260531709560044900e-01,1.219618543148129758e-01,1.694362760600404095e-03,2.577341516277189756e-04,-9.348485229329676037e-04,1.178647801280021667e-01
2.419607471779225139e-01,1.220947473131942795e-01,1.236657824631405000e-01,5.732420084149884984e-04,1.028442123393535045e-03,-7.766097431735672187e-04,1.191133111715316772e-01
2.478886751819302514e-01,1.294487439818574059e-01,1.293049819430897585e-01,9.847199659635207623e-04,4.354320874489294195e-04,-2.145340201402735555e-03,1.185847818851470947e-01
2.371563728601276122e-01,1.261499733932108791e-01,1.203385162858880419e-01,2.831362097254583213e-04,-3.905619608708163883e-04,-1.381875166040951244e-03,1.140514314174652100e-01
2.399558721747819812e-01,1.306873147703527527e-01,1.211999449576111887e-01,-9.361317921057618814e-05,-5.213723299542640877e-04,-9.835593289729341326e-04,1.143242865800857544e-01
2.320969496053109926e-01,1.302363925154345625e-01,1.153134138850732404e-01,-1.381260571578504402e-03,-3.300186485157485892e-03,-3.465771602997410120e-03,1.104208454489707947e-01
2.385705078711487792e-01,1.324940057603424537e-01,1.155531093822668165e-01,-2.366671716791656291e-03,-1.213031897456695813e-03,-1.748848155656044156e-03,1.156141981482505798e-01
2.299995142739859333e-01,1.286673957031741755e-01,1.147490286126749415e-01,-4.052198107393065380e-04,-1.763663514410625591e-03,-2.919043532389464617e-03,1.091223359107971191e-01
2.341610468772064579e-01,1.220976292648065231e-01,1.245275955616459429e-01,-7.346511850001757795e-04,-7.135773550495290180e-04,-3.575750139363003278e-03,1.110554337501525879e-01
2.232431414528016078e-01,1.232242545349069157e-01,1.178330533449422346e-01,-1.744785437071307097e-03,-3.979834462628967923e-03,-4.957822998003067090e-03,1.034526675939559937e-01
2.771037963597963727e-01,1.519037659593038270e-01,1.210584948680567541e-01,-3.320446027136159974e-03,-4.714819368572022162e-03,-7.451918494267305987e-03,1.440647989511489868e-01
2.485875483806896935e-01,1.256884794152791085e-01,1.182278863063841445e-01,-8.553636902859774668e-03,-5.074268028592962901e-03,-9.695670055826173528e-03,1.290561854839324951e-01
3.941428753031425147e-01,2.607159587267428580e-01,1.443311890211680937e-01,7.775920356821937850e-03,-5.110626156091163663e-02,7.118235788962987490e-03,2.346187829971313477e-01
4.657077749576480352e-01,2.852246956238067011e-01,2.020055804376983399e-01,-4.039519778576515854e-03,-1.495045462168506298e-02,-5.430184583343862503e-02,2.531497180461883545e-01
2.770052072239082563e-01,1.321854196642328616e-01,9.409748121370413443e-02,1.824042644906410937e-03,-1.142536188720017463e-02,-2.807675572367523270e-02,1.752308756113052368e-01
2.473295863271388062e-01,1.279965875509418149e-01,1.122521477554442038e-01,-6.388487515422648557e-04,-7.028293441519779415e-05,-4.434542247995430266e-03,1.281691044569015503e-01
4.017322135571265163e-01,2.071237252855798183e-01,1.678659190459567130e-01,6.176212954765697427e-03,7.153990437222555732e-03,-6.898362324569580484e-02,2.481889128684997559e-01
2.504224533784127904e-01,1.428153432276920154e-01,1.130637357458808834e-01,-1.187910673334880395e-03,2.295706881487978752e-03,3.055319088134606301e-03,1.253554224967956543e-01
2.525314661460187349e-01,1.391596657207180843e-01,1.019426273763107543e-01,4.631557479221423842e-04,3.647613095932533364e-04,8.285357774722485087e-04,1.358702927827835083e-01
3.158288801987583216e-01,1.764950018728999037e-01,1.410450131391049466e-01,-8.087109071831495924e-03,3.158019179756724128e-04,-2.646573298968336180e-02,1.670563519001007080e-01
2.386497303938897030e-01,1.262955813457078691e-01,1.183292866166305440e-01,-2.828698717584446441e-03,-1.560011734819627058e-03,-2.016165729141082465e-03,1.167281568050384521e-01
2.438854375791213724e-01,1.122943820073846466e-01,1.356977164520317691e-01,-2.718691320439378233e-03,-2.572171232055167883e-03,-2.350699089059253392e-03,1.218312457203865051e-01
2.319048619347006679e-01,1.157505402605708000e-01,1.240668988196912959e-01,-2.391920771738398083e-03,-2.262264174652016749e-03,-3.033954767526888998e-03,1.124950647354125977e-01
2.376386228445061533e-01,1.078740935114388538e-01,1.255225929377133121e-01,-5.921423644884710180e-03,-4.156125365198611032e-03,-2.062331916002614618e-03,1.225965842604637146e-01
2.483682699911885505e-01,7.673552064108039861e-02,1.366616424785651041e-01,-1.559827954520280960e-02,-1.026491980845378564e-02,-1.518844461457946604e-02,1.565303355455398560e-01
2.311239888694464895e-01,1.166260460832716228e-01,1.277051231999701830e-01,-3.170728598244743936e-03,-8.072939135406573437e-04,-3.166021516947852346e-03,1.096639409661293030e-01
2.390707326920014641e-01,1.231039560119300824e-01,1.213280411149155052e-01,-1.156612073582020256e-03,-7.188070625040092563e-04,-8.058494921694963221e-04,1.168969869613647461e-01
2.193113182981351883e-01,1.292916130005541953e-01,1.246572993836890381e-01,-1.881745849425614254e-03,-2.185361178634780827e-03,-6.467260601127049029e-03,9.323427826166152954e-02
2.102163730957192500e-01,1.254391844402976963e-01,1.230789669368355377e-01,-2.943713094539320962e-03,-4.293323214825160196e-03,-7.654343264758870294e-03,8.746368438005447388e-02
2.338604670293503995e-01,1.279966738078404387e-01,1.162243346304649150e-01,-1.650079999501367130e-03,-5.846017636883817613e-04,-1.223562522336056873e-03,1.122750192880630493e-01
2.336333531251896245e-01,1.297464532547696059e-01,1.171521372343428402e-01,-5.193368863892759701e-03,-8.575603299803924093e-03,-6.074509493854998200e-03,1.125687509775161743e-01
2.236246210278164948e-01,1.552514696139001837e-01,1.382780396181664817e-01,-5.892141998661518110e-03,-3.793007479133072429e-02,-7.177161995810795413e-03,1.034324467182159424e-01
2.553470216400872683e-01,1.249352593811206419e-01,1.479654473762331834e-01,3.559497508101010232e-02,-5.349883832898766171e-03,1.503633535243039179e-02,1.382004171609878540e-01
2.308205367566160127e-01,1.355802872309226637e-01,1.363744101220384086e-01,1.353573136286778840e-02,-8.535078555503644582e-03,1.165009701830111745e-02,1.008517146110534668e-01
2.453653892454200625e-01,1.376232890039681689e-01,1.135032284980009853e-01,3.970794247329125642e-03,-8.945297032064127019e-03,4.596018277547976247e-03,1.230431199073791504e-01
4.253724155658367145e-01,2.439856728654219431e-01,2.132328067093648138e-01,3.155051446949078825e-02,-5.300468255238383053e-02,5.690359944863981195e-02,2.460770308971405029e-01
2.505184584808995973e-01,1.386278975197567098e-01,1.150655434816937606e-01,1.723725887516312566e-03,-2.648400429706262299e-03,1.549785563961482470e-03,1.254920214414596558e-01
2.465231139572019448e-01,1.308132680444737128e-01,1.254209244676158241e-01,1.950061023403127638e-03,-2.122461111499028292e-03,4.700798138597285514e-03,1.188823282718658447e-01
2.547473875756535167e-01,1.276222215094238999e-01,1.340797658051213759e-01,-3.217191436449540865e-05,9.845094938512830040e-05,4.680976015594102285e-03,1.242874041199684143e-01
2.405541747908079842e-01,1.302790218513666942e-01,1.186336484836540972e-01,2.238584448128458880e-03,-1.176043421381917737e-03,8.869462490371169934e-04,1.166274547576904297e-01
2.238880391912306811e-01,8.162385723337001187e-02,1.447791172910831980e-01,6.503553360588881782e-02,-6.118160925916166226e-02,4.647392184989733444e-02,2.136372178792953491e-01
2.312312235359475499e-01,1.315989974058277834e-01,1.120323146970181871e-01,-1.267758423622108435e-03,-2.162770067259024362e-03,-1.353066528700227252e-03,1.108298450708389282e-01
2.378945817351351966e-01,1.329941776728391090e-01,1.221680522544398712e-01,-1.258198328264365862e-03,-1.408091583946518731e-03,-2.934429041252981617e-03,1.108760312199592590e-01
2.310694068959729952e-01,1.290131731763901335e-01,1.182275853171048663e-01,-1.131676412212571231e-03,-1.048630845518873714e-03,-3.014009145054282607e-03,1.080135852098464966e-01
2.318530541677771839e-01,1.343069067720265575e-01,1.117634661677842367e-01,-6.679115678583178589e-04,-1.715539720988061003e-03,-2.203916890362738606e-03,1.106671690940856934e-01
2.340407070812756396e-01,1.313259798330522754e-01,1.214296566605201633e-01,-2.264791875224478768e-03,-6.223304831161903007e-03,-3.756621974608370922e-03,1.088056266307830811e-01
2.316657764405766207e-01,1.297196566092386760e-01,1.149762568057184908e-01,-1.526459830660023814e-03,-1.803977099292782991e-03,-1.527698575131025997e-03,1.101688072085380554e-01
2.269424017954585759e-01,1.347961648893308273e-01,1.143624012978318588e-01,-1.486017055369892549e-03,-2.977529660747801118e-03,-3.548338345437164389e-03,1.042226254940032959e-01
1.852127326708817301e-01,3.703629767950472607e-02,-2.884343634090132114e-02,2.434968330086475369e-02,-6.301871041973437781e-02,5.673162463820695389e-02,2.437343746423721313e-01
3.692415033959371429e-01,8.748419008843554001e-02,1.745804142792834190e-01,2.391266892224358509e-02,-1.690734522525696656e-02,2.284763449542565050e-02,2.580155134201049805e-01
2.149837591412368520e-01,1.097208931317433384e-01,1.897024999954666225e-02,7.302665545924917970e-03,-5.052591790663614468e-02,8.167638274492770162e-03,1.920607835054397583e-01
2.437104317349557125e-01,1.211276611646112944e-01,1.199925783755853154e-01,1.684000093220054022e-03,-1.511228187907841941e-03,3.819314833299405042e-03,1.233940273523330688e-01
2.443765596061783230e-01,-4.721691632278635087e-02,4.200338773914048807e-02,9.214168439115955414e-03,-1.796179573615735645e-02,5.560694726555724665e-02,2.783342301845550537e-01
2.461409833969187000e-01,1.250265254991158592e-01,1.248045501182937500e-01,1.099120434115495159e-03,-3.308914834365896834e-04,3.059040385718426232e-03,1.213576197624206543e-01
3.090514149341013206e-01,5.829202920035883584e-02,1.849850121253724666e-01,3.849936493600252560e-04,1.844849840274179545e-02,4.219950831123728263e-02,2.313564568758010864e-01
2.203301615005584246e-01,1.357383362436356822e-01,1.154117407401909490e-01,5.660966202770295911e-04,-2.389731051205855068e-03,8.586268039430705644e-04,9.648168832063674927e-02
2.494389853270990165e-01,1.419073848018560235e-01,1.089170448067737773e-01,-2.338236350501902777e-04,-3.177908887831756152e-03,5.445095481598570108e-04,1.273980438709259033e-01
2.362212592551659052e-01,1.378429387139231688e-01,1.110687280410074529e-01,8.867184336724313973e-04,-2.845760807968632667e-03,4.392426065654982483e-04,1.142645478248596191e-01
1.933730067118937523e-01,1.395201213118604233e-01,1.042133586335896728e-01,1.872219097079463879e-03,-2.146391515914607487e-02,2.414437943552846712e-03,8.636072278022766113e-02
2.402223461200329591e-01,1.293578466880070665e-01,1.129899369572851253e-01,2.748295758295025287e-03,-1.857720752685500503e-03,2.448038899588464955e-03,1.201018616557121277e-01
2.417660239101283581e-01,1.247492915437846961e-01,1.282442401322419767e-01,2.287353669250476000e-03,-1.639326639635010300e-03,2.708890669062049509e-03,1.155072972178459167e-01
2.296395322755365453e-01,1.446013464796090664e-01,1.389725519889438987e-01,1.471935470172536405e-02,-1.672149399178949475e-02,1.218176040900095097e-02,9.836578369140625000e-02
2.280237811669475201e-01,1.255455701690389725e-01,1.105599391288263622e-01,4.611591651203861622e-03,-6.177668426552939546e-03,4.889194976169553529e-03,1.118573099374771118e-01
2.515958901712864182e-01,1.158563758830484791e-01,1.495217170471098700e-01,-1.316380295926690078e-02,1.319826794490336656e-03,-1.930855172707820469e-03,1.245998442173004150e-01
1.942403912475623162e-01,1.267702844754310665e-01,1.202221033234384256e-01,-1.777698309606290990e-03,-9.895595751326351913e-03,-7.054557345937980881e-03,7.409082353115081787e-02
1.548068793277581623e-01,1.261909264535076847e-01,1.236170081138113913e-01,9.727424246772982397e-03,-1.504799035971949792e-02,4.901471673995155820e-03,4.398204758763313293e-02
1.591680931207153094e-01,1.316392267461848620e-01,1.436113053179166599e-01,7.541035169003978099e-03,-2.762105884312154262e-03,3.711854567705022423e-03,2.839743532240390778e-02
2.597679368466669358e-01,1.373419926546010361e-01,1.197534380105517993e-01,3.495186255633366424e-03,2.472577967388035237e-03,-9.588088526791988322e-03,1.333474665880203247e-01
1.492162295263751992e-01,1.524688476443320784e-01,1.619170113973375791e-01,1.013893645533079681e-02,1.055522955872797985e-02,6.664524569309792680e-03,3.010745719075202942e-02
1.135770717714577049e-01,2.004296044056422255e-01,1.812369494561292260e-01,1.423607940492582248e-02,-4.009903341126257875e-02,4.193150705230808302e-03,1.083020418882369995e-01
1.460697407412804849e-01,1.267136851606316950e-01,1.201343052415605739e-01,3.499746531467649163e-03,-1.707168067956908383e-02,5.192343817130183267e-04,3.817297890782356262e-02
1.776070794652993556e-01,1.357516167287230180e-01,1.281454747880499123e-01,-4.206695540127155662e-04,-2.497770364605943379e-03,-7.564341731304017810e-04,4.635791108012199402e-02
1.493944242689451418e-01,1.801765530089780576e-01,1.567674689995099124e-01,1.728699365009477712e-02,-6.778486604365653589e-02,-9.572345790951678618e-03,1.254221498966217041e-01
2.634824459589367174e-01,1.414015010375181958e-01,1.296371821824691684e-01,-7.625318730527041490e-03,-1.191608532794366862e-02,-1.374169280560556990e-02,1.328355073928833008e-01
2.214543105783409738e-01,1.224299746376989739e-01,9.759996062027057051e-02,-2.770914925219733135e-02,-7.070310400080945246e-02,-4.308870581170643616e-02,1.890799105167388916e-01
2.395916183171900027e-01,1.179490405904139866e-01,1.361373512099809668e-01,-6.213820687385649376e-03,-3.678418212531320373e-03,-2.216102382890543232e-03,1.143958866596221924e-01
3.242264281700247830e-01,1.134798301543467614e-01,1.563583903112393259e-01,-6.625457874583116913e-02,-1.627953706367247719e-02,-3.374197196699523643e-02,2.336575090885162354e-01
2.263565708299928314e-01,1.244480521036279153e-01,1.101571916765238662e-01,-3.133087946711488828e-03,-2.577336115650502579e-03,-2.059510869699404580e-03,1.100365221500396729e-01
2.513727543406023557e-01,1.264799637415670863e-01,1.304983972031395489e-01,1.967602446682298074e-03,-6.887536904771975911e-05,-5.461994080630022154e-03,1.233434751629829407e-01
2.501723167753738819e-01,1.430195510603115838e-01,1.127162234229249077e-01,-2.465681427086321986e-03,-2.406828337068604544e-03,-1.543556950561960055e-03,1.252591609954833984e-01
2.178963882843974187e-01,7.887370792468577363e-02,1.081266109567617512e-01,-6.690243520712414738e-02,-3.335987007153897593e-02,-3.355311076760923022e-02,1.904208660125732422e-01
2.481173434931469024e-01,1.118609954998791567e-01,1.384753958152301623e-01,-2.752090513124480844e-03,-3.014738623657137531e-03,-2.294930730976658256e-03,1.253536045551300049e-01
2.439992652662492378e-01,1.080361346093510200e-01,1.270161364149578198e-01,2.984277160883759897e-03,2.541176003041484190e-03,-5.202678543852918072e-03,1.280348598957061768e-01
2.373743554497035058e-01,1.187990745711138274e-01,1.278133388653554803e-01,1.037827229885126623e-03,2.080635038957211538e-03,-1.648855019155235843e-03,1.144415140151977539e-01
2.449342163406651174e-01,1.224378342826037691e-01,1.281153214093718185e-01,-6.139414855204685924e-05,1.871607939855481594e-03,-1.085095761515747492e-03,1.198172718286514282e-01
2.517896494542503638e-01,1.175469673858816622e-01,1.505805056269432507e-01,1.399918685939241167e-02,6.040735809192570790e-03,-6.593356852188913923e-03,1.245215684175491333e-01
2.447471547740140974e-01,1.242925268196475308e-01,1.243071685573413632e-01,1.653140325583115364e-03,1.704140249195733531e-03,-2.634535923222972378e-03,1.206038445234298706e-01
3.592981517591776752e-01,1.906152030971372258e-01,1.984404272879206343e-01,5.764130613074164994e-02,4.116318181279189636e-02,-4.658332091079576270e-02,2.208075821399688721e-01
3.166049563463957939e-01,1.630452311497222195e-01,1.671684428465814443e-01,-1.495013300641709168e-02,2.015454225004800065e-02,2.897631647105887442e-02,1.654462069272994995e-01
2.448160302366726992e-01,1.256422429863863210e-01,1.261723321903885919e-01,-1.044012726049584798e-03,8.568172098783638805e-04,4.068323951527866148e-04,1.189347207546234131e-01
2.515623551795291846e-01,1.298658836489217094e-01,9.647976277545387835e-02,2.514507232475345425e-03,2.931033285627239731e-04,1.616715586544876029e-02,1.441908180713653564e-01
2.602672632195080493e-01,1.220898232339907435e-01,1.522235547555364776e-01,-1.138498650881016906e-02,4.844396001996149718e-03,9.887183812351632919e-03,1.288012862205505371e-01
2.549806014551740940e-01,1.181550385404403769e-01,1.344899822158037439e-01,-2.607496150336807619e-03,1.509846160324674778e-03,9.190598311736394854e-03,1.305130869150161743e-01
2.479951419785493272e-01,1.325935031669722985e-01,1.275680984449082400e-01,-2.381065242849077571e-03,1.482284431413433134e-03,4.535016469312573399e-03,1.183555349707603455e-01
2.159635363592483648e-01,1.269113679040970166e-01,1.216961794989285528e-01,-5.740871127485351957e-03,4.875786309800478682e-03,5.733117589838290437e-03,9.322397410869598389e-02
1.960506909418629207e-01,8.946018786269420431e-02,1.119121331960178656e-01,-1.916691523982548204e-02,8.609291624918342586e-03,8.763611065243573708e-03,1.050111204385757446e-01
2.031027038507703941e-01,1.542246196298921734e-01,1.467291327626850383e-01,-6.658522245070597201e-02,6.621852044032920659e-02,8.176240205064808433e-03,1.716613471508026123e-01
1.404070971497508036e-01,1.655747396327147958e-01,1.404840770320846532e-01,-2.745630898728974260e-03,5.678345634361366828e-02,1.508907358015521873e-02,1.049295812845230103e-01
2.419366178416784141e-01,1.412724627493449625e-01,1.098234295788825532e-01,-9.185234899111292166e-04,4.572727436263647992e-03,1.154085224058772194e-03,1.198222041130065918e-01
2.307999983270553335e-01,1.134288426980673697e-01,1.323527790162387086e-01,2.020423544656579039e-04,1.026954575839565843e-04,-9.051025881716701907e-04,1.091585606336593628e-01
1.198585979128177353e-01,5.391797411394978062e-02,9.300429559178546857e-02,7.023047285368028136e-02,2.432713241844416951e-02,-1.376976485503641871e-02,1.429675966501235962e-01
2.402538921904758262e-01,1.282773734298403578e-01,1.205953374643569942e-01,1.875349125170392827e-03,6.736044440425969192e-04,-7.157570847966560502e-04,1.160664111375808716e-01
2.097974905865423734e-01,1.379027805134534490e-01,1.228717421069077942e-01,1.589398489359070956e-03,2.415597110787860886e-03,-5.119352420056923897e-03,8.111190050840377808e-02
2.181455876437826125e-01,1.153585778327886890e-01,1.131292341823421643e-01,-6.511832284298996187e-03,-6.720052059466429840e-03,-6.767167509464323306e-03,1.058270260691642761e-01
2.410353259716626340e-01,1.258595248726647187e-01,1.305207842850605870e-01,-7.906694378515417279e-04,-1.183879048416254607e-03,-2.528751887502394147e-03,1.130291670560836792e-01
2.415350234901031401e-01,1.201549162004011406e-01,1.451406613124152090e-01,-8.582489658488130779e-03,-1.245468928075718932e-03,-7.995680365723950274e-04,1.120365783572196960e-01
2.111595045967110951e-01,1.242174685417244684e-01,1.363245216149407968e-01,-2.601436375511559373e-02,-2.338406387511750284e-02,-1.703713282995577769e-02,1.058034151792526245e-01
2.420666811673905516e-01,1.295796145251139619e-01,1.341750064318936175e-01,-3.763708992871233738e-03,-3.085482724780354725e-03,-5.335407600410286069e-03,1.109684333205223083e-01
2.250713894512716973e-01,1.197239376925157417e-01,1.406390754257977882e-01,-1.841191314477555376e-03,1.954163634880545840e-04,-9.206761010765426899e-05,9.665651619434356689e-02
2.563681896111668079e-01,1.111410750531109798e-01,1.483952799899465325e-01,-4.313109257685450969e-03,3.234115223778186166e-03,-1.772833231479939734e-03,1.310155987739562988e-01
2.396709967522263340e-01,1.173867036780453510e-01,1.366237268055545406e-01,-1.886096462857123589e-03,-1.174754012076740291e-03,-1.112889309125112379e-03,1.139721572399139404e-01
2.423259549380254729e-01,1.247902636866037307e-01,1.301579854830589578e-01,-1.750861963493198026e-03,-1.489934018595536402e-03,-3.310158979054368938e-03,1.151576340198516846e-01
2.304416896602816678e-01,1.127336188368366632e-01,1.317779355748693315e-01,-7.013097106818526718e-04,-3.278707041720547218e-04,-8.218535048649907356e-04,1.094533279538154602e-01
2.343029151980183244e-01,1.149497863062306363e-01,1.365137052027923792e-01,-1.689047173782263047e-03,-1.976887128070291494e-04,-1.105155982941963093e-03,1.102215498685836792e-01
2.343230144492952360e-01,1.159151931367510546e-01,1.311808776427114132e-01,1.317162084791408897e-03,-1.530628935063384818e-03,1.127034586656070576e-03,1.116329729557037354e-01
2.364208323612883578e-01,1.219606406380344815e-01,1.154790107829135604e-01,2.491244647098940935e-03,-1.107163743343110573e-03,1.936805798606850565e-03,1.179770529270172119e-01
2.380716422467643589e-01,1.190358206308219091e-01,1.195597121249566824e-01,2.497471772696001173e-03,-2.923933144776679881e-03,2.922445997479744713e-03,1.190689802169799805e-01
2.533762227796067523e-01,1.300702309076533503e-01,1.349638395306228533e-01,2.363182191038537550e-03,-1.833555825115752583e-03,5.419567635299907433e-03,1.214078217744827271e-01
3.716781858392663729e-01,2.182172908212624551e-01,1.415088688296200492e-01,3.870185231018836297e-02,-2.664692533530567051e-02,2.988048720267932543e-02,2.247406840324401855e-01
2.621091576891997899e-01,1.395956278730383082e-01,9.313227085373308733e-02,-1.294274053064313674e-04,-8.804911220835289626e-03,9.693743608083917745e-03,1.528899371623992920e-01
2.953133654587798973e-01,8.376662603683253383e-02,1.549627388480522006e-01,2.025707089023824972e-02,-2.895168511305288087e-03,1.419142413484015923e-02,1.913634985685348511e-01
2.636094089775012361e-01,1.346727184503940800e-01,1.142731281998595749e-01,4.861001935527234016e-03,-5.384829022777284230e-03,1.523460392899420729e-02,1.432662755250930786e-01
1.342877435766585414e-01,9.526252962329892493e-02,5.846521709754567281e-02,-3.435947288128806537e-02,-7.637056982287863949e-02,-1.644165346193616345e-02,1.617501974105834961e-01
9.458602105612753941e-02,9.418903379806231602e-02,5.127710262673259439e-02,4.468036734589661552e-03,-6.717324851136520503e-02,1.916134792503636176e-03,1.243634521961212158e-01
2.384999347820623838e-01,1.374407064861981054e-01,1.160241436743989080e-01,5.386193531814442367e-03,-7.593110416514225157e-03,5.940627494624532712e-03,1.148993074893951416e-01
2.647734043072326737e-01,1.467788064429887962e-01,1.566567668947012881e-01,2.192617149236577440e-02,-7.816988167086261902e-03,1.893073311819445936e-02,1.247215196490287781e-01
2.082976122426939969e-01,1.391668623856993914e-01,1.249071205800867113e-01,-3.416407079841864559e-04,-3.852174081580155268e-03,3.330407725754864698e-03,7.775814831256866455e-02
2.075378635712359365e-01,1.354162619265943945e-01,1.211158195671123428e-01,-3.624466695305029931e-03,-1.686493666711475154e-03,-3.641123967549792905e-03,8.077818900346755981e-02
2.131499878406020176e-01,1.366323250542777756e-01,1.168652615089954550e-01,-1.521681505257882396e-03,-4.152592652423565782e-03,-3.924795290243835930e-03,8.867418020963668823e-02
2.086879374244759444e-01,1.340815416447364572e-01,1.123717439672610729e-01,-1.594532104770402707e-03,-2.233236626765810681e-02,-6.586519609960889837e-03,9.639033675193786621e-02
2.305406877019589573e-01,1.280605893457231748e-01,1.322771604900402076e-01,-8.353946941362332818e-03,-5.680007252645020294e-03,-8.198998002665425916e-03,1.029352173209190369e-01
2.586127367822828593e-01,1.419757461549311928e-01,1.288761060435731909e-01,-2.303397747517678396e-03,-5.132822911628845755e-03,-6.394479317258825769e-03,1.245845630764961243e-01
1.993068345807507136e-01,1.462473448751197003e-01,1.291090690068824320e-01,-3.426188404510119995e-03,-9.022389234006774478e-03,-4.202819875980500809e-03,6.596056371927261353e-02
2.259356286296995975e-01,1.791877854442634199e-01,1.269503603945228432e-01,-7.131449300677729364e-02,-7.278713085161188368e-02,-2.452386710148681329e-02,2.007773071527481079e-01
2.239805764270679234e-01,1.198521985270752377e-01,1.491410821052102376e-01,-6.718415717711583024e-02,-3.885068762349489641e-02,-5.116992392765186415e-02,1.859437972307205200e-01
1.869436627880775581e-01,1.271214417978115685e-01,1.151783283894893123e-01,-5.967039295508441872e-03,-1.525707480221355668e-02,-7.430342365456896886e-03,7.352945953607559204e-02
1.880296591188939936e-01,1.188879337968697103e-01,5.071314498838518092e-02,-7.024995788129298827e-03,-6.735441248956951232e-02,-8.164394221038661498e-03,1.676304787397384644e-01
2.392311414453024143e-01,1.196319003798519409e-01,1.208158394213734166e-01,-5.694495444639485109e-04,-8.772519349617869267e-04,-8.744518005054262083e-04,1.190351098775863647e-01
2.409546328557032324e-01,1.227554052450859079e-01,1.227412317115569307e-01,-3.261720015121737483e-04,-3.663528429325099440e-04,2.199721688566910001e-04,1.182099804282188416e-01
2.443385455515559024e-01,1.258090539290417920e-01,1.252211990643451733e-01,-5.112313522527705840e-04,-5.389829038545093827e-04,7.934789130200822608e-08,1.188314780592918396e-01
2.440773831958880091e-01,1.275827347509533582e-01,1.242066049202166927e-01,-1.354787242091745831e-03,-7.398863616685138599e-04,-6.966579480339944556e-04,1.182552650570869446e-01
2.387245623815942297e-01,1.246292359412439210e-01,1.170620551677871435e-01,-3.104808424011289755e-03,-4.199624110547183278e-03,-3.889279963368423056e-03,1.185984611511230469e-01
2.342049900143262642e-01,1.204142244445195048e-01,1.201637808291616955e-01,-5.191258874219540319e-03,-4.183482504242965611e-03,-5.528707652480034304e-03,1.148997470736503601e-01
2.500431028231890895e-01,1.325882427506716033e-01,9.829445890778931716e-02,1.548766739381771985e-03,2.799199205979773647e-03,-5.999918360969001135e-03,1.383415311574935913e-01
2.414150654607705171e-01,1.232502842487653433e-01,1.235195823040808327e-01,-3.218504108761949820e-04,-5.332084730274488839e-04,1.612082217163872259e-04,1.180356219410896301e-01
2.343797871902925101e-01,1.142116091632484204e-01,1.337247498828456893e-01,-1.481203126851997603e-03,1.425513160641802592e-03,8.248182286161443019e-04,1.117632091045379639e-01
2.382531094247712089e-01,1.176260145572823879e-01,1.340460698417153262e-01,-9.428212035286383241e-04,-1.789907033487698812e-03,-1.357246563048746836e-03,1.133914217352867126e-01
2.482854122312185274e-01,1.090476829419245730e-01,1.414688602944669804e-01,-3.825186558319720268e-03,-8.605225772195510860e-04,-1.724339392538723177e-04,1.263733953237533569e-01
1.342720479737304629e-01,2.775177509498964745e-02,1.027894072487813837e-01,-8.741770472093139677e-02,-1.141731002480149415e-02,-3.465391367216205535e-04,1.797252744436264038e-01
2.507665223015025924e-01,1.119213079628108010e-01,1.418857676784567590e-01,-5.502048639986947820e-03,-1.682083288543022824e-04,3.232477185171567734e-04,1.269119977951049805e-01
2.591848242944735925e-01,1.228492577965504262e-01,1.404128747269492994e-01,-3.063152058412453235e-03,2.763347513659027512e-04,-4.525392913960380945e-03,1.288065910339355469e-01
2.369875019936663607e-01,1.118109362134595969e-01,1.376935143806494177e-01,-1.865456079541712988e-03,4.842250726021928324e-04,5.229337651839671350e-04,1.145039349794387817e-01
2.578728734022754931e-01,1.133749115126375662e-01,1.620433211260187689e-01,-1.628518809619696958e-02,-5.227849844058077245e-04,-3.400366393503927078e-03,1.305638551712036133e-01
3.299884608512111961e-01,2.009075283839501513e-01,1.647370433443327009e-01,-4.458204399214661662e-02,3.789747814205798870e-02,3.613094872602252289e-02,1.919030547142028809e-01
2.543914274479955329e-01,1.394283411448350163e-01,1.073523331027709526e-01,2.205151042271961785e-03,2.570035317347784797e-03,-4.181942994929867784e-03,1.342378705739974976e-01
2.370635571422140542e-01,1.365962469904194176e-01,1.110903985446930059e-01,-1.387743937306118013e-03,1.092112380145318553e-03,1.038368486716039667e-03,1.154093742370605469e-01
2.540368051538036132e-01,1.340684305846090718e-01,1.085124574865628799e-01,-7.423680307888451055e-03,1.500535713125388838e-02,1.621130108791563745e-02,1.405014693737030029e-01
2.512979974561471153e-01,1.458521151620217338e-01,1.137646021771742399e-01,-6.719291473566364791e-04,1.273669109112702570e-02,2.762256474035541549e-03,1.266603916883468628e-01
1.536520341072646900e-01,1.596853480509395629e-01,1.398739631916675608e-01,-6.883231940624885692e-02,-4.292130986958240385e-02,-1.626236716999397702e-02,1.443715244531631470e-01
2.354633270640402176e-01,1.313727586014776239e-01,1.012178481037509514e-01,-2.090468708373720199e-03,-5.288444138811509813e-03,-1.853725478500356603e-03,1.224349960684776306e-01
2.368895635609060690e-01,1.349809580799498088e-01,1.019340653649042638e-01,-2.878200559453872038e-04,-5.754050950316587712e-03,-3.521537786752652324e-04,1.222504451870918274e-01
1.850542438391852562e-01,1.255597582055193173e-01,9.519377750978516572e-02,7.124688769608269372e-04,-2.186937510655138917e-02,1.416694086450227645e-03,8.781029284000396729e-02
1.758566332977599678e-01,1.352567606170965997e-01,1.426120057196751112e-01,-1.823163992765283042e-02,-2.663073963436782352e-03,1.021383282673077927e-03,4.924846068024635315e-02
2.359299564708413066e-01,1.394337192452961838e-01,1.121785508733388753e-01,-3.455304883507335297e-04,-2.303714596024188013e-03,-6.768952874666294426e-05,1.126973032951354980e-01
2.474362972240359282e-01,1.268908477797973944e-01,1.320256300766818325e-01,-1.896112973363312188e-03,-2.196211292800619684e-03,-3.896367551339897754e-03,1.183613017201423645e-01
1.950637045788669588e-01,1.623131568412014558e-01,1.356148720087786141e-01,-1.452904943415630340e-02,-4.032835010382455204e-02,-6.835857414827237535e-04,9.040790796279907227e-02
2.629697295002747515e-01,1.376339986155587780e-01,9.839636813407552640e-02,1.133329690636556168e-03,-1.372221713694186246e-02,-2.212928291066009953e-02,1.555775701999664307e-01
2.055050664478625944e-01,1.358727184453542014e-01,1.363837487858345909e-01,-1.483162421468675390e-03,2.522766141189658126e-03,4.508326547133680376e-03,7.000005990266799927e-02
1.882484237678200834e-01,1.319870581790561215e-01,1.306216039116747940e-01,-5.561598258216291640e-02,5.259267560994746599e-02,4.054712149149138772e-02,1.604793369770050049e-01
7.075781817377438387e-02,1.201599121971184542e-01,1.218357399770145233e-01,-5.334721869336093297e-02,-3.504238320193373783e-03,2.186444369907998390e-03,1.054282784461975098e-01
1.880177295112201441e-01,1.314286800814842560e-01,1.160048713422562189e-01,-1.530354593874302645e-03,1.184966856734932621e-02,1.615100501821584243e-03,6.891392171382904053e-02
2.048427114679434446e-01,1.205743893068950134e-01,1.299777412384987563e-01,-3.027603790669959865e-03,2.244416864896417885e-03,5.358911653168219220e-03,8.078324794769287109e-02
1.466029708634413176e-01,2.242084423798482717e-01,2.294958025773328469e-01,1.815762878316576692e-02,3.270581569328932792e-02,-5.676978833081608965e-03,1.037096306681632996e-01
1.960094427545210349e-01,1.370858761084789712e-01,1.301745775213523082e-01,2.844320719103782258e-02,-2.482869124309521405e-02,1.111373701753906075e-02,9.259577095508575439e-02
1.801118779917081913e-01,8.166280734710315570e-02,1.255784604270324123e-01,-3.779524520238032592e-02,3.099923560882941742e-03,5.289501095393862352e-03,1.081459894776344299e-01
2.511911025845060541e-01,1.122809635116943788e-01,1.330376880155260122e-01,7.937607053884203259e-04,-1.583681260551098252e-03,4.651170581014075003e-03,1.300686895847320557e-01
2.351224110044732862e-01,1.256336384256760974e-01,1.418325350433482790e-01,-7.562437353623126420e-03,-4.800182006627101705e-03,-7.657085848225231479e-03,1.043704375624656677e-01
2.402016397714796248e-01,1.147990445849258329e-01,1.297757555320881162e-01,-3.499003189118003038e-03,-2.836174350177475025e-03,-2.626431620875007474e-03,1.189686879515647888e-01
3.076960207918948975e-01,1.320704702817687703e-01,1.871596505301296731e-01,-1.702509376329681967e-02,6.524756473942858745e-04,-7.958963868919330040e-03,1.589495390653610229e-01
2.743857941912503096e-01,1.367992594352798186e-01,1.919646240231190348e-01,-3.776236929179249691e-02,-3.000232824654312964e-03,-3.941081335892421440e-03,1.368753165006637573e-01
2.405043596163305986e-01,1.126954209104867183e-01,1.289527706017447317e-01,-2.089347079780744156e-03,-3.194982986742536061e-03,-2.459937355438792696e-03,1.207620203495025635e-01
3.426598256994761171e-01,1.050104343583226213e-01,1.769841378995943570e-01,-1.380108652288151994e-02,1.868268069331370865e-02,-3.975358336336164145e-02,2.256380319595336914e-01
3.100109368495730933e-01,1.820240848383819776e-01,1.733463799887610679e-01,-2.403932445345341451e-02,-2.240703658705304330e-02,-2.793494721428840810e-02,1.521431803703308105e-01
2.410453617927499903e-01,1.093349389132506067e-01,1.266178404140777536e-01,-1.030775279482646668e-02,-3.683673798023919671e-03,-8.293410851454068033e-03,1.262370645999908447e-01
2.732281419329566363e-01,6.635913333620799270e-02,1.522318356353792590e-01,-1.505417354645706592e-02,2.611047255926951527e-03,-1.676328811954892750e-02,1.842494755983352661e-01
2.330906111566077854e-01,1.211763922014983813e-01,1.404732774429356124e-01,-3.389636401781559102e-03,-1.404746538334311059e-03,-2.758090974669302666e-03,1.039267852902412415e-01
1.857152484092483291e-01,1.107266430140219776e-01,1.257322658888551659e-01,4.539502092588568703e-03,2.177003053706333055e-03,-7.771527559257882488e-04,6.928968429565429688e-02
2.385424967705596089e-01,1.088255850982516593e-01,1.380702931598636329e-01,1.042808071063205597e-02,3.290733324822405631e-04,-3.368759627652603535e-04,1.192270815372467041e-01
2.076056394028679142e-01,2.010212949532673155e-01,2.219797777364887759e-01,8.163765002842379714e-02,3.190388691081149503e-02,-1.032179672926349968e-02,1.539867669343948364e-01
2.310984317887583295e-01,1.058821840047877993e-01,1.333528941989807481e-01,3.690397424141453071e-03,-9.710096176829661899e-04,1.403643550204471818e-03,1.142084300518035889e-01
2.371702014763178712e-01,1.378488312947809824e-01,1.140642284536173556e-01,-8.792775662437816043e-04,1.025927774695148571e-03,9.009132273417248035e-04,1.131400614976882935e-01
2.069053876412979831e-01,1.230728075613154310e-01,1.077509909622317297e-01,1.522045358871562323e-03,5.732911930222164311e-03,-4.112165356209531580e-03,9.329204261302947998e-02
2.432648791064275229e-01,1.394279212831303905e-01,1.158238671891372307e-01,2.077316291889676984e-03,8.536521273549242325e-03,-2.933542514415915167e-03,1.185226440429687500e-01
2.544431861405299089e-01,8.745264430234143960e-02,1.355825844075859987e-01,8.252877412081473588e-03,1.177341038319654242e-03,6.685282989331900981e-04,1.495824754238128662e-01
5.135216958090306483e-02,5.816371230629062417e-02,2.082602665433155864e-02,3.825976402191408332e-02,8.982960869871105258e-02,-2.295035366680752212e-02,1.771040111780166626e-01
2.624039829798606172e-01,1.251412997170612273e-01,1.401564674784392950e-01,-1.748913193865975083e-03,-7.414994431587170354e-04,1.123597112325722819e-02,1.318902671337127686e-01
2.909933793751806608e-01,1.735006100550275931e-01,1.451057425840567572e-01,1.603381323309949202e-02,3.520459934674208952e-02,-2.091860470080389792e-02,1.541074812412261963e-01
2.473595510808313525e-01,1.116874392544005001e-01,1.427644467512168558e-01,-1.438146368032968726e-02,2.017645642486407161e-03,1.910175252690620015e-03,1.256982833147048950e-01
2.352096527491135958e-01,1.124411562588134711e-01,1.384020838147758115e-01,-1.249870428468696434e-03,-7.334342564019523348e-04,-2.706149308361895079e-04,1.120955348014831543e-01
2.392452958707661503e-01,1.090241531755569426e-01,1.343272912296832322e-01,-3.370309581099571825e-03,-2.999075601418608409e-03,-2.217003362126059550e-03,1.199107840657234192e-01
2.100613077624678970e-01,1.130958624354037045e-01,1.368007913483915150e-01,-6.384074459725290820e-03,-6.046025228715720852e-04,7.905731707353125335e-04,8.826608955860137939e-02
1.745498954839215522e-01,1.162221960926695663e-01,1.277538258316338327e-01,-1.471665117326852873e-02,9.197008044092427198e-03,3.590723132436930438e-03,6.168192252516746521e-02
2.153349710128980576e-01,1.184531479720502267e-01,1.369489770165890075e-01,-6.338125798785184707e-03,-1.913679588307366742e-03,-5.238963928695913701e-03,9.027799218893051147e-02
1.906378335303781646e-01,7.001058088375411437e-02,1.029584288031465955e-01,-2.540786711267563336e-02,-1.405525257564522665e-02,-1.426385440795786136e-02,1.216626018285751343e-01
2.501482600398591827e-01,9.806973040952278453e-02,1.339735982546644277e-01,8.053479050086088595e-03,-1.404177154890102639e-03,9.009040137505171589e-03,1.392865329980850220e-01
2.308445102414896366e-01,1.289738138805182621e-01,1.514232621752719388e-01,-8.788955431344459487e-03,-6.820148149169785083e-04,-8.881376916061035475e-04,9.396900981664657593e-02
2.434273905662406867e-01,1.176572033907734155e-01,1.243645210646149579e-01,-1.253970140773092920e-03,1.683583544718895856e-03,2.617565722402308195e-03,1.226919814944267273e-01
3.030767900845774410e-01,1.182835569578913615e-01,1.691154524364250067e-01,-7.126658693879643104e-03,2.912734757249944330e-03,1.091695719023513984e-02,1.669562458992004395e-01
2.585699497189925533e-01,1.354464692631683065e-01,1.304704992196049074e-01,-1.338735911433294734e-02,-1.265615730267719181e-02,-2.655906134016446790e-02,1.375905573368072510e-01
2.473933857237560208e-01,1.034757097234254852e-01,1.342366458450332534e-01,-3.770903333637621799e-03,1.735327759881961441e-03,4.203742722721056507e-03,1.316670030355453491e-01
2.426566218792961527e-01,1.082811487698025210e-01,1.256396778238680345e-01,3.168400794592154263e-03,-3.842935472123941952e-03,4.951225543025994900e-03,1.271750330924987793e-01
2.467327282819487544e-01,1.210935863600198364e-01,1.335747997935203268e-01,-1.777980554189308995e-03,9.992090715038122375e-04,2.186215662974877287e-03,1.199985966086387634e-01
2.464516890666511029e-01,1.353505329322748085e-01,1.237172775740135178e-01,-3.165320515452941727e-03,-7.119701333155284591e-03,-7.320200111702754482e-03,1.188029944896697998e-01
2.415267988963506474e-01,1.353001857908010808e-01,1.103874716420196467e-01,3.270110338595047083e-03,-3.782693571702171013e-03,2.011819874005172683e-03,1.209887564182281494e-01
2.130395519660964188e-01,1.396757104384764026e-01,1.189826439817084358e-01,8.915592079539936448e-04,-8.836598469997944405e-03,1.969656456411769240e-03,8.704515546560287476e-02
2.410581163892508982e-01,1.346188434648088461e-01,1.106109563575443516e-01,-1.340820632953820596e-03,-3.315185944610160931e-03,-1.189391852237975649e-03,1.204312592744827271e-01
2.382915090677135139e-01,1.375447395343865342e-01,1.028271222204099611e-01,-7.880291668096853002e-04,-5.808715639946721368e-03,-2.826616575861474502e-04,1.222957000136375427e-01
2.410051574348880676e-01,1.233359516826579017e-01,1.242076624419218289e-01,1.374722182298654405e-04,2.828421845009648533e-04,-3.219704587560441480e-04,1.172383725643157959e-01
3.776089952654982929e-01,9.351712000651932200e-02,2.091407799142395996e-01,-5.235534827484113196e-02,1.126063738281517582e-02,-1.834944252405917506e-02,2.661635577678680420e-01
1.467628402779097840e-01,1.403843876098221644e-01,1.385542380921113148e-01,-5.314698363182946902e-03,-1.280831545164638329e-03,-9.030727450086906876e-04,1.215787418186664581e-02
2.331672956428389454e-01,1.135589534379863735e-01,1.359669546580248023e-01,-1.637232176291140507e-03,-1.342977040037523183e-03,-8.759259279188963973e-04,1.101991087198257446e-01
2.089039908004245438e-01,1.098330039482423304e-01,1.319350201502688946e-01,-7.239772834731438705e-03,-4.084939832883141032e-03,-3.990601160591017785e-03,9.148206561803817749e-02
2.296675830873917135e-01,1.084669466987253916e-01,1.404295400734593413e-01,-2.576759213034198262e-02,6.242884023207101365e-04,-1.845228258675772615e-03,1.176460981369018555e-01
2.357504382899761886e-01,1.165632367747149040e-01,1.348167290538132002e-01,-9.853881778433388160e-04,2.768225121753636170e-04,7.001344724470365049e-04,1.112106516957283020e-01
1.859310725726822655e-01,1.373232086705781785e-01,1.215820016615902777e-01,-3.360814804241088385e-03,1.566603762570528344e-02,2.487703195760074780e-03,6.453201919794082642e-02
1.325850325584919942e-01,1.427153072177515802e-01,1.485782482609866451e-01,-1.098873806829706555e-02,-5.570431121233901210e-03,3.615833503647815882e-03,2.628609351813793182e-02
2.296292244672342997e-01,1.229781910004018319e-01,1.439373338512216494e-01,-9.743204565206199652e-03,-1.098853228423950440e-03,8.961703401640002190e-04,9.934403002262115479e-02
2.406852127299022315e-01,1.241507741267861009e-01,1.224204577945488259e-01,-6.687983093833155864e-04,3.604847133523854624e-04,8.345381601213018629e-04,1.174254342913627625e-01
2.307494865543544271e-01,1.772838276305237770e-01,1.723488521039971688e-01,-2.675914911792014184e-02,3.268931096930831337e-02,1.173787464578372047e-02,9.441421926021575928e-02
2.533619376205212825e-01,1.228114170314244802e-01,1.339628569308560224e-01,-2.878973979442742246e-04,-8.493445224218601442e-04,-1.458094435493122090e-03,1.253824383020401001e-01
2.351000136202738844e-01,1.386457950110340509e-01,1.075591928813549730e-01,-4.011651664087375235e-04,-3.998593656190746644e-03,-6.825147123587057738e-05,1.153979673981666565e-01
2.614409622102556452e-01,1.334441207066652813e-01,1.344809572339170645e-01,9.778054175556105242e-04,-2.775006481526539129e-03,-1.057576552165123869e-02,1.288916766643524170e-01
2.566946321238219308e-01,1.126880961496466160e-01,1.463940464353780668e-01,-2.875627500020623388e-03,-3.101145803496639479e-03,-2.998274673883672813e-03,1.307697445154190063e-01
2.440493784467829830e-01,8.491655498267051960e-02,1.298574031684470165e-01,-1.382526909274770822e-02,-2.830569343795097219e-03,-7.233170129876293451e-03,1.447265595197677612e-01
2.540617961075261610e-01,1.289236760935055515e-01,1.299407656419623025e-01,-2.304067643796335932e-04,-1.609572871110537522e-03,-5.978769461158431851e-03,1.250938624143600464e-01
2.313737101107860294e-01,1.211313616902055523e-01,1.224392460443688713e-01,8.254285268435536047e-04,-9.377001934557601705e-04,3.128915926249809399e-03,1.097495034337043762e-01
2.381110855395149883e-01,1.191316102961208351e-01,1.269933953780211788e-01,4.913369163188572577e-04,-1.860035915937444497e-03,1.582379205372163146e-03,1.153305992484092712e-01
2.406009306421900973e-01,1.225332247940523339e-01,1.230289048586856587e-01,2.701680982063160642e-04,-4.992017813863252251e-04,2.573085249856661423e-04,1.178255900740623474e-01
2.419407018338924908e-01,1.233437126422849694e-01,1.238370508393431269e-01,1.577571007704305073e-04,-4.829681075271263779e-04,2.515439279644427688e-04,1.183551624417304993e-01
2.423634428524917284e-01,1.237744294162673453e-01,1.219758663314164659e-01,1.354422073597564983e-03,-6.634177985163016052e-04,1.445628136632441923e-03,1.195532158017158508e-01
2.417363563011146743e-01,1.268810987172685756e-01,1.233883752281223906e-01,1.553933399338334282e-03,-6.171999504257746731e-04,7.769518518994723063e-04,1.166845560073852539e-01
2.506839032352891072e-01,1.150707123061664727e-01,1.433592171657056269e-01,1.300163979538521489e-02,-3.709327087301014943e-04,6.105014841539651953e-03,1.263892352581024170e-01
2.466246666778220686e-01,1.184614352915780155e-01,1.364265489255276631e-01,2.082911301530889457e-03,-2.977496575811209526e-03,3.779969485311356417e-03,1.205345094203948975e-01
2.330463084755344805e-01,1.300759089144540304e-01,1.181147566017316936e-01,2.317591209477794408e-03,-3.498199649215927992e-03,3.812881526823346402e-03,1.098820120096206665e-01
2.481028205213909044e-01,1.122582326606153535e-01,1.414241379359511830e-01,-4.918153542929963769e-03,-7.065454855521140784e-04,-1.377068003063132439e-04,1.241631656885147095e-01
2.380035579907233689e-01,1.304795877511702173e-01,1.131041618917192765e-01,-3.138774116270893512e-03,1.827893038991771539e-03,2.241779369883246595e-03,1.174148246645927429e-01
2.447742471937447706e-01,1.272472244460214619e-01,1.261873625277207811e-01,-7.913167676730489819e-03,6.671460414034758452e-03,1.150125415011222542e-02,1.210640445351600647e-01
2.060666801763993417e-01,1.365670203557040052e-01,1.247508697558780688e-01,-1.242867573400331833e-02,1.630174126993650524e-02,6.358585488296947079e-03,8.469352871179580688e-02
2.486630401418979119e-01,9.286250495247302950e-02,1.394964527137684818e-01,-1.560329695976946963e-02,2.137816244038560855e-04,1.066958324964862540e-03,1.411271691322326660e-01
2.598820528035855060e-01,1.207513081243448694e-01,1.496054500553008759e-01,-6.109946708992990139e-02,2.616995984614305104e-02,5.304971701348025481e-02,1.946080178022384644e-01
2.485717653675582062e-01,1.029221452025799594e-01,1.276335762459851475e-01,-7.427808941204078370e-03,3.009007568048360694e-03,9.037276980173807039e-03,1.366124153137207031e-01
2.369403017424248636e-01,1.232280920566332927e-01,1.185520451684739240e-01,3.435996741153482742e-04,-5.682966336538599955e-04,1.486349905145445014e-03,1.161550953984260559e-01
2.402377185359872436e-01,1.273689292293435082e-01,1.240855796164853087e-01,3.423677450144421166e-04,-5.662599932183922432e-04,3.548470683487297108e-04,1.145531460642814636e-01
2.407664895981252440e-01,1.268992611168189288e-01,1.225908985845139409e-01,8.344192191145671832e-04,3.220573126346936831e-04,5.921141784083308905e-04,1.160962581634521484e-01
2.359373983680898568e-01,1.218903515632284718e-01,1.240685227411720548e-01,6.505339971546901859e-05,-4.608507519799862626e-04,1.675618709984496137e-03,1.130138561129570007e-01
2.496481148148571028e-01,1.306646718827965958e-01,1.334574090143121339e-01,1.364253505860225186e-03,-2.563957211889305969e-03,4.837929779869487058e-03,1.180173382163047791e-01
2.358112285942516873e-01,1.180137301039627107e-01,1.223498297021707037e-01,6.143160884277583389e-04,-5.341666665965096343e-04,1.740638577919997312e-03,1.157382726669311523e-01
2.443349912937621271e-01,1.242775362980097914e-01,1.380070725609081617e-01,5.617527018143012897e-03,-2.965927785231960330e-03,4.715165822100391563e-03,1.146373301744461060e-01
2.352764574937491471e-01,1.280079816610848187e-01,1.193630510923890387e-01,1.472353014671939041e-03,-1.313476187430136135e-03,2.294733219348271940e-03,1.119645759463310242e-01
2.568668958490805676e-01,1.288312798540842963e-01,1.353037510314544778e-01,1.303930252638657410e-03,2.162284617318694854e-03,-5.554749433906868220e-03,1.253714412450790405e-01
1.976400636605442629e-01,1.051631244139213245e-01,3.158238054759253399e-02,2.736719364538987148e-02,6.413891250286243850e-02,-4.181435960293058973e-02,2.015049457550048828e-01
2.425475940835309929e-01,1.714259336280175294e-01,1.626681655421933770e-01,3.496927811850036871e-02,3.619479449804215154e-02,-1.458151474272818479e-02,1.182981729507446289e-01
2.538843427052877577e-01,1.837067370607037009e-01,7.550478585637633577e-02,-4.544501022456215455e-02,7.534270672162864113e-02,2.851242021956024164e-02,2.233609259128570557e-01
2.559467834354035021e-01,1.410925915965387523e-01,1.269746342834320030e-01,3.841930128229681992e-03,5.685218339157814375e-03,-7.280061359889728259e-03,1.237438991665840149e-01
4.080053450260046066e-01,2.035751660932733076e-01,2.308032872917498701e-01,4.307762854854389756e-02,2.635974448805218640e-02,-5.262098733302447706e-02,2.300549447536468506e-01
2.445188091781912432e-01,1.359210078186958992e-01,1.153218249138758672e-01,3.965719217379301553e-03,6.859245031979556081e-04,-5.082205337957210189e-03,1.207514554262161255e-01
2.333584993884505465e-01,1.161826362055441014e-01,1.372693370636500210e-01,5.371277641050019097e-04,-7.169625636161993092e-04,6.535781439778169015e-04,1.082019805908203125e-01
2.285392609235160077e-01,1.191677358204592807e-01,1.292642637131695416e-01,8.561085858178469872e-04,-9.878390459963704625e-04,3.706513170150225328e-03,1.049101427197456360e-01
2.334016298733923855e-01,1.190408883996677269e-01,1.350136896107297091e-01,8.892734287364508503e-04,-2.891210011803848224e-04,7.321860258373416109e-04,1.072897017002105713e-01
2.346616001104100679e-01,1.174365592369287781e-01,1.319592549626396882e-01,4.996176954824870821e-04,-1.015052208275074065e-03,9.085343361625198167e-04,1.107091307640075684e-01
2.318053128273899199e-01,1.281388436674340547e-01,1.214295137100331184e-01,5.505697540820899717e-03,5.063056631923698071e-03,-6.489575509741240568e-03,1.085424795746803284e-01
2.298408539198855682e-01,1.164843829198638492e-01,1.334241988703984416e-01,1.929061651694183137e-03,-9.909715566461137475e-04,2.771519882160052971e-03,1.060828119516372681e-01
2.322095167842171404e-01,1.070276240377942278e-01,1.309374729916076285e-01,3.193789473128181428e-03,-1.473037161110963287e-03,1.103903919310969843e-03,1.152817159891128540e-01
2.526890549670235409e-01,1.359973612123369369e-01,1.226222584793285192e-01,1.460528513869542675e-04,3.629829338380697978e-06,-1.232741043654428685e-03,1.239404305815696716e-01
2.535450515717911912e-01,9.694379299289122842e-02,1.494353186451208571e-01,-3.715454269365353612e-02,-4.185493361820222247e-02,-5.578715530043892867e-02,1.944031417369842529e-01
1.913072238648681478e-01,2.897875881316740870e-02,2.294309543689619646e-02,-4.237397408663075987e-02,-4.707858261555688401e-02,-5.366464594684054734e-02,2.191854119300842285e-01
2.460935226033070244e-01,1.343738301130849300e-01,1.049932487885175958e-01,-3.117443052511506660e-04,-1.155595607408082962e-03,1.894495922914069550e-03,1.290037333965301514e-01
2.442721351708067035e-01,1.254223140110798662e-01,1.082102981095286326e-01,2.446246458062730118e-03,-1.628791145707064562e-03,6.149594546876518443e-03,1.288663744926452637e-01
2.386542381554680459e-01,1.247261579025125411e-01,1.648115785731030236e-01,-3.873618365020136539e-02,-8.875040066839774873e-04,-1.053293415750445466e-02,1.218862608075141907e-01
2.095474110532691836e-01,8.944273691327281339e-02,3.113019336638814250e-02,-2.601744348456292572e-02,4.723359544511487179e-02,3.196949831851578910e-02,1.913609206676483154e-01
2.873291159808021855e-01,1.671244793013267060e-01,6.072751401328112253e-02,-2.473118265942728794e-02,1.852404811341155574e-02,3.608121108668795041e-02,2.129055112600326538e-01
2.563478014289317097e-01,1.399565769540057070e-01,1.082746473915349728e-01,-1.158069966246554191e-03,-3.228441760067274173e-03,-8.148804189299117123e-03,1.359141618013381958e-01
2.532510880771310369e-01,1.238351250368488338e-01,5.614634910713497962e-03,-2.985971182123287829e-03,1.999992522624131214e-02,-1.207416078162662845e-02,2.183764874935150146e-01
2.354650018743221218e-01,1.013131996940391799e-02,1.131226998762153158e-01,3.910656187316490645e-02,2.614454618922743348e-03,-7.626751732900142675e-04,2.068460434675216675e-01
2.295924455168472655e-01,1.512371725614635731e-01,1.293370203080005110e-01,-3.221961291415315672e-03,-1.097438667073525817e-02,-2.966357796423773046e-03,9.356287121772766113e-02
2.562915643465475402e-01,1.478199193752951224e-01,1.216162240536143579e-01,-1.019442168733605825e-03,-2.062659092398514294e-03,5.059536622779302849e-03,1.240474432706832886e-01
2.488926978107011134e-01,1.419476003819054866e-01,1.104865630293619533e-01,-4.387491331788926068e-04,-1.838307552063522463e-03,1.570230964720550990e-03,1.257368922233581543e-01
1.982216677727484111e-01,9.391203538300840759e-02,2.824404339550232179e-02,-3.128449471291859518e-02,-6.863139846708495029e-02,-3.830284584180340679e-02,2.085926085710525513e-01
3.275094550437883112e-01,2.705825580176414169e-01,2.012468943194110071e-01,-2.683050754119612608e-02,-7.452772757086469080e-02,-1.395455357445530599e-02,1.772064715623855591e-01
1.045988471541250131e-01,7.427227606623636180e-02,3.941734610371720043e-02,-1.846624632734830684e-02,-7.535875695877428115e-02,-2.115356661301794061e-02,1.503125131130218506e-01
2.638164431016594147e-01,1.452018494059939824e-01,1.321630040040832621e-01,-8.183158844328564802e-03,-1.086888542064426422e-02,-1.491187169251806388e-02,1.304163038730621338e-01
2.460082854960457532e-01,1.432327270423623400e-01,1.119949562524598652e-01,-3.788798273313347500e-05,-4.595624901707913608e-03,1.226484460966930956e-05,1.217064410448074341e-01
2.502362216599427480e-01,1.353699626149029445e-01,1.042468551885807893e-01,-2.370321686949275562e-03,-1.961099072271340390e-03,-4.992845417020243086e-03,1.335705071687698364e-01
2.949499552008882364e-01,1.626074752091955788e-01,6.978522025758945868e-02,-7.980343763035633795e-03,-3.822183534073021749e-03,9.432292570527116976e-03,1.972729563713073730e-01
3.295870251679018370e-01,1.638444564805879855e-01,1.028455449797014837e-01,-4.009267672777046265e-02,4.586448472354930084e-02,2.895201222192225407e-02,2.344123721122741699e-01
2.795224244502845234e-01,1.208187959500803543e-01,8.273756125521601612e-02,1.600372450924269010e-02,-1.501341778410639552e-02,4.889493024910789021e-02,2.032175213098526001e-01
2.399142815205489443e-01,1.197852958470947693e-01,8.550557400577704636e-02,-5.313534455996372571e-03,1.225402343778323258e-02,1.374742806764021885e-02,1.443129181861877441e-01
2.844966775181573815e-01,1.139778343735906307e-01,1.674650032491754870e-01,4.641461885851739556e-03,-6.920630487842904625e-03,4.021099253470210300e-03,1.519006490707397461e-01
2.368893004070866670e-01,1.201593861239983047e-01,7.089460590419272012e-02,2.291509640384157328e-04,6.681668488684468742e-03,8.348478839067943053e-03,1.488178372383117676e-01
3.037335337114853706e-01,1.387555350113528485e-01,1.405218302973307298e-01,-5.202957505063691632e-03,5.108901513266394384e-02,5.526827387909780120e-02,2.097729295492172241e-01
2.908493715363987819e-01,1.199426364870908313e-01,2.639532091918356249e-01,-6.829147991164290221e-02,9.486388403911801687e-03,-7.064858987532503069e-03,1.993656754493713379e-01
2.079105403060570456e-01,1.272190536829504726e-01,4.736176835459600387e-02,2.883503556318214173e-02,-4.548815030523858244e-02,2.597367720350126502e-02,1.733721196651458740e-01
2.489032866019760259e-01,1.272917883278050777e-01,1.262682050780729870e-01,5.925262794999787939e-03,-9.418048640539562408e-03,8.541673828654842288e-03,1.245198324322700500e-01
2.637466624356686884e-01,1.272545445369474004e-01,1.445605116963611658e-01,5.027611252784887179e-03,-3.080007455496009457e-03,1.017627035717838350e-02,1.303166449069976807e-01
2.151975992156958395e-01,1.316945129717508878e-01,1.252753734174167355e-01,2.885598041444291210e-03,7.882737430043925287e-04,-8.172807887045760444e-03,8.818852901458740234e-02
2.106638160865135501e-01,1.281855458806162307e-01,1.127457451749936390e-01,1.292019206540333601e-03,7.308357183667534875e-03,-5.463174601201700731e-03,9.257042407989501953e-02
1.622000449380235354e-01,1.312834243516635413e-01,1.364680922954471243e-01,9.011546298617147122e-03,2.723669575861200915e-03,-2.396992030246047987e-03,3.324968367815017700e-02
2.351065240989141658e-01,1.256112038558905852e-01,1.209473265324417512e-01,1.125048902657626616e-03,1.383476439532395959e-03,-2.175025835345424912e-03,1.120061650872230530e-01
2.278443349107266425e-01,1.377815193127267246e-01,1.265048513323556167e-01,5.793491642053996346e-03,2.973428392542277511e-03,-8.275624947950850283e-03,9.791199117898941040e-02
2.468351460915844120e-01,1.402049939720383942e-01,1.107407568441906714e-01,1.458687316007812543e-03,4.091371601323254108e-03,-2.629983114605601285e-03,1.243272200226783752e-01
8.891037956995867519e-02,1.258308633108146668e-01,1.315941943729617147e-01,-2.775122092740664806e-02,2.284871719479124666e-02,9.778871660095363530e-03,7.597752660512924194e-02
2.297078904294406199e-01,1.393472849638711097e-01,1.127393176852260481e-01,-3.705426600924861141e-04,3.035648931915097340e-03,-6.392121178775077815e-04,1.063325852155685425e-01
2.488861589241140870e-01,1.451845458954455492e-01,1.134764686581107018e-01,7.009361037663014177e-04,4.303319098191877266e-03,-2.107411232300766737e-03,1.229551061987876892e-01
1.738738979033554455e-01,1.187513982942808577e-01,1.040607503675776285e-01,-1.923619826572980224e-02,2.264315605786673680e-02,1.181673658887158647e-02,8.444659411907196045e-02
2.352856044286389947e-01,1.146368111495151693e-01,1.220725779733644045e-01,1.985233067450568444e-03,1.780561582199136289e-03,-1.865014505001251228e-03,1.172436550259590149e-01
2.708688178582064898e-01,1.229161530524089940e-01,1.402065365719686318e-01,6.164666190733086859e-02,-5.055786031737296432e-02,2.617707412838280942e-02,2.018804848194122314e-01
2.416869920505346492e-01,1.097670392348586710e-01,1.387420937956538591e-01,2.560344251771148189e-03,-2.825140206958912754e-04,2.852710879838846365e-04,1.201673373579978943e-01
2.024485290568533991e-01,1.108677401172317722e-01,5.696913196388737888e-02,1.283991205021760632e-02,-5.957489610699574084e-02,1.671062691967681660e-02,1.679524034261703491e-01
2.390206011435336009e-01,1.200568231864766466e-01,1.510934796148436232e-01,1.885535309146757835e-02,-6.000717106071033931e-03,6.022278788736075417e-03,1.127245277166366577e-01
2.018707441326714480e-01,7.142567732082663601e-02,8.994662999081211308e-02,3.910468509309939639e-02,-3.742090971530764865e-02,3.424369192603283346e-02,1.650738269090652466e-01
2.405420036175243137e-01,1.094401950871951440e-01,1.308065228320675344e-01,1.702894578228455330e-02,-1.113441729222758476e-02,1.194159254135146626e-02,1.285018473863601685e-01
2.226298533313729733e-01,7.767566167373476937e-02,1.183171802351197510e-01,2.264427405027882173e-02,-1.604642212346538838e-02,1.766905676872082206e-02,1.414907425642013550e-01
2.334991283108743265e-01,1.286939403586228603e-01,1.605347448976590374e-01,4.793065890159706882e-02,-1.381706537734809885e-02,1.463470705031322608e-02,1.294920295476913452e-01
2.322615131702535640e-01,1.178903139024038704e-01,1.282113466823622261e-01,3.303697986323611731e-03,2.945160515230376645e-03,-4.178365619039988398e-03,1.100818216800689697e-01
2.458436984260297942e-01,1.319104393145989207e-01,1.207798571235122048e-01,-1.468910385194638476e-03,-1.482384264864778332e-03,-1.418846748198177542e-03,1.199663504958152771e-01
2.419972524052547702e-01,1.269596556998566494e-01,1.169674269604381728e-01,-4.703095197152628443e-03,-1.130073756039631956e-02,-1.006391500839576986e-02,1.234354078769683838e-01
2.581449027306685906e-01,1.098938393951696818e-01,1.573609519662889922e-01,1.392171118498289166e-02,1.517096416921760900e-03,-5.340267463516361682e-03,1.336725801229476929e-01
2.927671054054450384e-01,1.293879771684728897e-01,1.285987672794884351e-01,-6.109253291517405954e-02,-5.795149119783787883e-02,-3.940868187836975289e-02,2.296811938285827637e-01
2.536111136662150822e-01,1.319979706324874436e-01,1.325312635685351459e-01,4.397442209175328530e-04,7.846159700323504873e-05,-6.998647178084508279e-03,1.219537928700447083e-01
2.535441567226338622e-01,1.330689452715585197e-01,1.258084095893899634e-01,-6.438288502090464655e-05,-1.013959606867196293e-03,-3.731536717358127902e-03,1.244450733065605164e-01
2.640962154145778951e-01,1.415706539276280485e-01,1.019951842285128224e-01,-1.240852927642115480e-02,-3.246227803808421353e-02,-1.600233958834157075e-02,1.606837809085845947e-01
2.502178113888086086e-01,1.586655932899277421e-01,1.291322488411396907e-01,-2.185431035580791270e-02,-2.482366793710569924e-02,-1.776123014987683602e-02,1.272231489419937134e-01
2.569566072012964830e-01,1.516756870517503852e-01,8.961626889687958342e-02,-4.783101407403512334e-02,-3.422245759621753147e-02,-5.597210222536423002e-02,2.030878961086273193e-01
2.426796059535981653e-01,1.474718351368261016e-01,1.114219831745742184e-01,-3.744862618048452971e-03,1.276009215192060522e-02,4.471693980906153720e-03,1.199452280998229980e-01
1.803632561666972944e-01,1.009756755419110447e-01,5.982744218374641543e-02,4.047333153441672743e-02,5.588827249661754148e-02,-3.806399815690044569e-02,1.728976517915725708e-01
2.459196395945408287e-01,1.430490193577359237e-01,1.148366062601195864e-01,-2.442703500572787276e-03,2.900949466904602109e-03,1.661086517023299160e-03,1.197161525487899780e-01
2.178162977307507298e-01,1.324168879379892527e-01,1.123504274096022715e-01,-2.906727274755380999e-04,8.122616232158877446e-04,1.377497229088550526e-03,9.704282879829406738e-02
3.007512460082751860e-01,1.923028454832454714e-01,8.360704473952541849e-02,-2.407925429543591317e-02,5.837778240128104618e-02,-6.703840382696868092e-03,2.178574502468109131e-01
2.226740304889745503e-01,1.263233969949807967e-01,3.505540896798808870e-02,-1.067147492146805791e-03,5.903686459212922205e-02,-4.590269098597883450e-03,1.921710222959518433e-01
2.662570233584879986e-01,1.143489680010093823e-01,1.488225490696230835e-01,2.951873778665390236e-03,-1.525713852529465148e-03,7.630117897303913960e-04,1.380671560764312744e-01
2.309914167505705829e-01,1.543475917700359579e-01,1.062278534372822492e-01,5.236451105748679558e-02,4.178115334590318947e-02,-4.595530475704243806e-02,1.779793649911880493e-01
1.114784342009861456e-01,1.326508678149640186e-01,5.534764763404849408e-02,9.021419053592846446e-03,9.992785938863503470e-02,-1.608953001984129993e-02,1.891160309314727783e-01
2.449805218005573215e-01,1.241475067439036239e-01,1.276612587219202455e-01,1.302649008659563208e-04,-1.144256025464754399e-03,-7.552775106279854779e-04,1.191388964653015137e-01
2.462772442766500980e-01,1.273596752722910008e-01,1.269307600420226667e-01,-5.717668229887567068e-04,-9.074567081082557949e-04,-1.502658248738731467e-03,1.191755160689353943e-01
2.448634422428458413e-01,1.253226702247965951e-01,1.061579358128736383e-01,-1.010761307694670383e-04,5.012701294205205819e-04,-6.673233850885942203e-03,1.307005435228347778e-01
2.507656846546589269e-01,1.205366553147505376e-01,1.197775130715378056e-01,-1.469995112931387661e-02,-1.685141095830882535e-02,-1.461825394673341681e-02,1.385651230812072754e-01
2.457790630409273647e-01,1.249580356259602648e-01,1.268337084831966943e-01,2.570459590847889260e-04,-1.351837769433980824e-04,1.591252558118235252e-03,1.199269220232963562e-01
2.472137972489549251e-01,1.277335599726491244e-01,1.260060817571057035e-01,-7.964122492028573828e-04,1.422270814139584797e-04,1.913728420571362198e-03,1.204070672392845154e-01
2.477605658233736907e-01,1.294550221926205891e-01,1.292561228724806721e-01,1.278910723367861506e-04,5.923266203059641295e-06,1.823360757275784342e-04,1.184057444334030151e-01
2.464591289586403611e-01,1.261941278106887276e-01,1.282029582656624145e-01,-4.852779010623792065e-05,2.273853334098090986e-04,1.434135609929667547e-03,1.192998141050338745e-01
2.470985978788721171e-01,1.281459416157411657e-01,1.286921901302871263e-01,-2.484741655174807907e-05,-5.776591058671058058e-05,2.928332565502701160e-04,1.186816096305847168e-01
2.537405285110297393e-01,1.356676150056000396e-01,1.137298706968426915e-01,-1.041426878327559799e-03,-1.865048893509814920e-04,6.116372231819340761e-03,1.308752000331878662e-01
2.493321098951689629e-01,1.312556496857729960e-01,1.259148543729802505e-01,6.758998677320367113e-04,-1.602044635406382734e-04,1.241187884024594779e-03,1.208605244755744934e-01
2.459386979936276640e-01,1.281920056251743267e-01,1.280857606530257653e-01,-2.806961469802194829e-04,-7.672601166347507360e-05,1.718073976998578856e-04,1.178013011813163757e-01
2.500241074405512576e-01,1.086994963219866106e-01,1.408402977818737634e-01,2.247155042299535214e-03,-8.063314321999154799e-04,2.714766764305797872e-03,1.284624487161636353e-01
2.461039283779114517e-01,1.197427496499773314e-01,1.269214201891733507e-01,2.522336019364519993e-04,4.259268165276858253e-04,2.093982769795583922e-03,1.229856312274932861e-01
2.788845860298273527e-01,1.704161412673975418e-01,1.546905194534597683e-01,1.985555133796484614e-02,-2.214646886075615981e-02,2.223382833434072586e-02,1.336248070001602173e-01
2.588560149749499217e-01,1.428820563023419088e-01,1.568401862261273316e-01,2.666639260026811009e-02,-2.570189266097452907e-02,2.017146739104692943e-02,1.317638903856277466e-01
2.723118241784731608e-01,1.307768352655570565e-01,1.458573572736507618e-01,2.716638690729874617e-04,1.004876478812619794e-03,8.896539224796308487e-03,1.355206668376922607e-01
2.498457184984239632e-01,1.199589111334890823e-01,1.334787455608941187e-01,1.403322813456523745e-03,-1.614534617591284688e-03,1.579058003731366282e-03,1.237680464982986450e-01
2.364873669851389748e-01,1.129626966300072699e-01,1.378228650904747277e-01,-8.458907532341328889e-03,-4.254450787650857521e-04,-2.567466095470957981e-03,1.141950339078903198e-01
2.047062773338952368e-01,1.223747655752680796e-01,1.383663819569467823e-01,-3.749335934725343041e-03,8.758629656883130986e-04,6.474867989628012603e-04,7.591658085584640503e-02
1.105838094940860827e-01,7.226764514513320248e-02,9.102873419626442142e-02,-6.324659185113273852e-02,4.322964480389505232e-02,1.757985779259335982e-02,1.401256918907165527e-01
2.280780635970032222e-01,1.263191622273885373e-01,1.143728698402295546e-01,-2.320925418175509135e-03,-3.699739916879975221e-03,-3.886005515907837386e-03,1.087003052234649658e-01
2.309001608190379695e-01,1.525912544736510168e-01,1.085471330217576691e-01,-6.158579175824489826e-02,-5.372779531176332529e-02,-3.389113780591578029e-02,1.870975643396377563e-01
2.490078065056104684e-01,1.229230123606890601e-01,1.252897132508884182e-01,-7.614766927611558989e-03,-3.595564909659761457e-03,-8.657915616078686732e-03,1.266577541828155518e-01
2.209731268766855772e-01,1.118075479303171083e-01,1.120867251389759400e-01,-3.596427398835942268e-03,-3.852018000074934004e-03,-5.713466837988941636e-03,1.098543256521224976e-01
2.686242654233668703e-01,1.482686356727206944e-01,1.378556766536387923e-01,-4.599747007438966494e-03,-6.362101828609186688e-03,-1.209808371810619856e-02,1.283400058746337891e-01
2.459599608736961762e-01,1.286083245431337563e-01,1.273551167780994364e-01,-7.853021853540713762e-04,-1.088909231697760688e-03,-1.926694186193609855e-03,1.180533245205879211e-01
2.729766879774053190e-01,1.165357537054409476e-01,1.439144624288146712e-01,-3.209766142754428252e-03,-1.224650393636429919e-02,-2.041672512900159081e-02,1.505708247423171997e-01
1.764957319794415447e-01,1.131036631525745295e-01,1.626832112388313378e-01,6.460146879512519702e-02,3.361188149695042843e-02,-2.003408439666789012e-02,1.429935544729232788e-01
2.457551382359634551e-01,1.440833255896581677e-01,1.069506390138655616e-01,2.544753330998370325e-02,2.863450681236719489e-02,-1.990193896421128122e-02,1.451968997716903687e-01
1.790497792691673751e-01,1.738938986253427688e-01,1.549319012142012508e-01,2.011543727489187999e-02,7.053920028497699668e-02,-1.926401987286373643e-02,1.331857442855834961e-01
2.502572298616034252e-01,1.225719431701534634e-01,1.042723686018173224e-01,5.352318760152780137e-03,5.888346707354865685e-03,-1.360887229159445620e-02,1.404298990964889526e-01
2.627754631585901279e-01,1.140206013882567593e-01,1.478167595842829196e-01,3.473822991715485664e-04,-1.111473722618507107e-03,2.295579954263378668e-03,1.351396441459655762e-01
2.201621699064205406e-01,1.640904175569754542e-01,1.446225412018213585e-01,-6.566744753760474403e-04,1.635092844257330161e-02,4.405995202803850326e-04,7.361095398664474487e-02
2.457006810634999594e-01,1.264683499932374722e-01,1.269717133486427119e-01,1.216816153054524471e-03,7.508842570965574247e-04,-1.628735549756740644e-03,1.190406531095504761e-01
2.507077456417085015e-01,1.439307903476060302e-01,1.475127024810503895e-01,3.207780211712339680e-02,2.641528719989097093e-02,-2.646755261882172139e-02,1.353275030851364136e-01
2.196719075063656712e-01,1.233274187696165869e-01,1.196335987286154673e-01,3.553273428357889979e-03,3.434599925014237502e-03,-5.393997741177492845e-03,9.905723482370376587e-02
2.181208256612522656e-01,1.338563710786912497e-01,1.492243713745245171e-01,4.459906644564624878e-02,6.854157476504926273e-03,-1.021408491523295541e-02,1.116371303796768188e-01
1.558973082046864189e-01,1.809714536317445777e-01,1.880942058839754072e-01,2.532437332627703389e-02,3.829792366286051668e-03,3.197993928931954898e-03,5.344809219241142273e-02
2.097638779395694375e-01,1.218269999340311494e-01,1.232617855801800832e-01,2.850752686286657078e-03,3.367326098019918050e-03,-7.470423907239780170e-03,8.851328492164611816e-02
2.338448514973711367e-01,1.242186533099354784e-01,1.276682080314243406e-01,4.385900121891083900e-03,2.816220956471908107e-03,-5.737313010110840945e-03,1.087745055556297302e-01
2.539147573811320058e-01,1.068584283524772194e-01,1.422415846954171725e-01,1.821256331552748410e-03,-9.902219493870673388e-04,7.631153248913426440e-04,1.329994499683380127e-01
2.362115340709348699e-01,1.361594236280914416e-01,1.187305671379338540e-01,-2.008495403397594957e-04,1.026921033294432399e-03,9.753797621485883404e-04,1.098368018865585327e-01
2.203138865477597963e-01,1.375438931866404257e-01,1.152529739261153041e-01,-1.231295488750120326e-03,1.235240105295670049e-02,1.051287026478641036e-03,9.827708452939987183e-02
2.339088240158814502e-01,1.275217213763290003e-01,1.163931387719898680e-01,2.289561374666612584e-04,-4.888495235219105775e-04,9.967269785223983880e-04,1.123826205730438232e-01
2.298156163491856530e-01,1.325583075346327688e-01,1.149393576034142411e-01,-1.538926081996328920e-03,9.186751106937510224e-04,9.840389241746764701e-04,1.072171851992607117e-01
2.401530812985723240e-01,1.206448289474265634e-01,1.246272657676312234e-01,-1.994154613364401349e-02,1.868907647232971245e-02,2.824393804138135983e-02,1.358534097671508789e-01
2.448605074036147022e-01,1.269409868273315145e-01,1.197066248747184342e-01,2.180525631107928068e-03,7.351481988135812962e-04,-2.258033240628581732e-03,1.218261197209358215e-01
2.420500204888934581e-01,1.256326343648143384e-01,1.181581930752540338e-01,1.857951923264088709e-03,1.232046745967096566e-03,-2.299326955619926047e-03,1.204566359519958496e-01
2.422511100930220262e-01,1.361146038782395651e-01,1.156933527528582473e-01,2.166139719725640716e-03,3.831119257537424997e-03,-1.045987177912307024e-03,1.179441288113594055e-01
2.443762731564284585e-01,1.262959161982169509e-01,1.186928928988957993e-01,1.776915251539339276e-03,1.196861444421596981e-03,-2.074153494347846533e-03,1.221688166260719299e-01
2.462253665396869073e-01,1.201534582612276136e-01,1.294755276045057579e-01,4.939594545377972226e-03,1.190794360504058040e-03,-6.051739055470778568e-03,1.224463135004043579e-01
2.452538652294192767e-01,1.244626717795615511e-01,1.273930709186703314e-01,5.860285113984458248e-06,1.255801591785257266e-03,-4.950134577403702239e-04,1.193758770823478699e-01
1.871034670499262254e-01,1.613674753677021012e-01,1.518473696145512530e-01,1.219839527307703397e-02,-7.862439297577396291e-02,1.845872842169214711e-02,1.449549794197082520e-01
2.683686070633097831e-01,1.517230341167406793e-01,1.444125161305992999e-01,1.785173869180759626e-02,-2.260560394120328040e-02,2.283247636207881570e-02,1.362550258636474609e-01
2.435956410467152167e-01,1.372576761198644468e-01,1.247954293019570560e-01,2.186435407066221470e-03,-4.016231555060472726e-03,4.472371265672546621e-03,1.136266663670539856e-01
2.499810500369837318e-01,1.817919663155221355e-01,1.265472980440438266e-01,2.278850905215045082e-03,-4.107616449733435954e-02,3.583934404167458173e-03,1.287814974784851074e-01
2.583125834256572162e-01,1.462860772978606394e-01,1.234633435762141906e-01,6.515506930998674756e-03,-1.009588417227609038e-02,6.579158481747063997e-03,1.272421181201934814e-01
2.455597636251211080e-01,1.349445334270210073e-01,1.156544575409474834e-01,2.678749116893030646e-03,-3.115884549304906870e-03,3.115497438227011161e-03,1.217431128025054932e-01
2.465054580122122974e-01,1.310262235905895190e-01,1.181548858199120144e-01,2.570834405920110598e-03,-3.397062204568889344e-03,1.254662520644034317e-03,1.226648613810539246e-01
2.342066080897763358e-01,1.363340267324977817e-01,1.091601093458909044e-01,-5.180942303922976642e-04,-3.199381621670528697e-03,-1.027466974788138762e-03,1.140689551830291748e-01
2.323463863799035689e-01,1.472391769064409217e-01,1.293318923839733015e-01,-4.386833503242397111e-03,-7.588723624311752812e-03,-3.706656734950413909e-03,9.674535691738128662e-02
2.201264920417350668e-01,1.301603887948059590e-01,1.178788078810823897e-01,-1.720736596566864798e-02,-2.034800278150208225e-02,-7.989820508224098131e-03,1.080350801348686218e-01
1.854998361178019639e-01,1.362334711034434154e-01,1.293575173886803709e-01,-7.450065656208133477e-03,3.023885022420082745e-03,5.299955031682080861e-03,5.560051649808883667e-02
2.323289935294224617e-01,1.327270848201558273e-01,1.153013186450333183e-01,-1.018727167084512112e-03,-2.932754030052528698e-03,-2.021874934184848729e-03,1.095491573214530945e-01
2.394867109353769896e-01,1.279420598100985962e-01,1.109247510983369933e-01,-3.350572058133974643e-03,-2.659064568890519807e-03,-4.022059358079674123e-03,1.213812604546546936e-01
2.462165584026194676e-01,1.369694901882447802e-01,1.123276516045449425e-01,-2.512842461239374759e-03,-1.269259860001085982e-03,-1.177928602652875047e-03,1.235399916768074036e-01
1.729238129328264650e-01,1.437415655028252970e-01,1.341178481199357952e-01,2.941306875171498941e-03,3.093802624178684096e-03,-1.980068759500895094e-03,3.593733161687850952e-02
1.651707886022894534e-01,1.191705001539229564e-01,1.077311568664430369e-01,8.031364314383208089e-04,2.024960138683743957e-02,-7.046310359653641198e-05,6.328655034303665161e-02
2.152574020202120686e-01,1.444777588184178729e-01,1.298531810264803854e-01,1.939472358185287881e-03,3.057295019619881045e-03,-4.521169050725301793e-03,7.974588871002197266e-02
1.725218322462483966e-01,1.406996809871820797e-01,1.280957640948054421e-01,-3.999514946391623076e-03,1.970496063376326462e-02,6.848057722871037610e-03,5.409366264939308167e-02
1.235838919987188034e-01,1.513667591720493366e-01,1.145248919499931295e-01,1.716349891571120577e-03,6.102037278097237338e-02,2.294597590024474373e-03,1.109086498618125916e-01
2.141487024911095383e-01,1.271260292014806392e-01,1.352658467365207562e-01,3.641112683240453531e-03,3.727519680245823096e-03,-5.239839631088556889e-03,8.422990888357162476e-02
2.118356798497105231e-01,1.423132306822282866e-01,1.247019461546162444e-01,2.684752959897574387e-06,1.863263729667506349e-02,-5.060068823596680036e-04,8.608252555131912231e-02
3.475474940638458715e-02,1.035663320653332914e-01,1.073457015161083244e-01,-1.287324274685337951e-02,9.434233011397643448e-03,2.146941211443484116e-03,7.607486844062805176e-02
2.381592725594369742e-01,1.337641099123594302e-01,1.271324204252366197e-01,7.945221910069857072e-04,5.584949093476850252e-04,-4.772731281269355572e-03,1.081933975219726562e-01
2.483673334651793074e-01,1.460642099806499505e-01,-1.412386587656011550e-02,3.858557635618021370e-02,6.800326926496622071e-02,4.490175804993249906e-03,2.662972807884216309e-01
1.925045370071828132e-01,1.451134650703421181e-01,1.452207947803229593e-01,8.681354630281230486e-03,1.935679788929958040e-02,-7.391634660242417387e-03,6.127725541591644287e-02
2.027742755391104823e-01,1.976284671477661348e-02,1.186097845186938338e-02,-2.969695269002175023e-02,-3.549131332708335695e-02,-6.067896351456537885e-02,2.290681004524230957e-01
2.994855301203813713e-01,1.630876685307638962e-01,1.614677276541727768e-01,-2.161293016816841911e-02,-2.553045406805085765e-02,-2.419325560987328760e-02,1.547277122735977173e-01
2.435376883275072180e-01,1.197677764079679436e-01,1.092674244863835464e-01,-7.462863036338060084e-04,-1.341765205696684917e-03,-7.903888205567841801e-03,1.300898194313049316e-01
3.356966668235046858e-01,1.521247491371963689e-01,9.416895451334186817e-02,-3.810809851057157110e-02,-6.428815838077737987e-02,-3.704891693990961660e-02,2.618587911128997803e-01
1.297184586251388938e-01,1.251968077444237937e-01,1.303543883960414373e-01,-1.487876591224713586e-02,2.180887090380627391e-02,2.638623575840154736e-03,4.621282964944839478e-02
2.216867056079487308e-01,1.179282049990214576e-01,1.235950640372937281e-01,3.324015251187521780e-03,-1.636845762153575331e-03,5.381679403624151786e-03,1.016760915517807007e-01
2.234195391595210078e-01,1.212936526072660587e-01,1.276861661396496150e-01,1.622010802440377111e-02,-1.461047270704928479e-02,1.391140714738809368e-02,1.087564975023269653e-01
1.972297129754798095e-01,1.238980559915701524e-01,1.012374402257678885e-01,4.361991742347937095e-04,-7.720021302059397114e-03,2.178862556601841180e-05,8.793260902166366577e-02
2.428492105797618039e-01,1.386112509433662376e-01,1.516033561081747416e-01,1.407181938233333096e-02,-1.199337652893575461e-02,9.928962852614419549e-03,1.048875600099563599e-01
2.243352957489884725e-01,1.377248874638889176e-01,1.186661828859419954e-01,7.410223806587034646e-03,2.079733448914783400e-02,-7.998812450749504671e-03,1.056860610842704773e-01
3.051015494434460851e-01,1.838198980526060400e-01,1.267728836630369338e-01,4.149096885518551402e-03,2.619824511757099655e-02,-1.589147643241971622e-02,1.665852963924407959e-01
1.953313477642837082e-01,1.180082251589791575e-01,9.603374042516221731e-02,1.592789101348467476e-02,3.478629598230979780e-02,-1.331388503590275572e-02,1.143853589892387390e-01
2.390930479474673853e-01,1.225091205253495824e-01,1.220805028864917208e-01,-6.520012404535955458e-04,-8.224937843463719098e-04,-1.254896027439887521e-03,1.168331950902938843e-01
1.904566649219952834e-01,1.253962499253883367e-01,1.194775163506538729e-01,1.923954940026008711e-02,-3.478588370462706164e-02,1.061982536808456917e-02,9.865070134401321411e-02
1.885160127347122738e-01,1.319178852360320398e-01,1.370228827571614016e-01,2.540269737078395228e-03,-5.430550119363873954e-03,4.380864046986418167e-03,5.573045089840888977e-02
2.400335973607085893e-01,1.108856136036878437e-01,1.403704128050153876e-01,1.036133248291766680e-02,2.560378659600461037e-04,2.290544015052700232e-04,1.185878515243530273e-01
2.611183317290878270e-01,1.515063422392678161e-01,1.646746741238354073e-01,7.954712673213772123e-02,3.546954023992042460e-02,-1.393017876328274049e-02,1.846197098493576050e-01
1.573680629417699706e-01,1.274036194829979429e-01,1.252278275385559081e-01,-1.697690714308488363e-02,1.716541387610317007e-02,5.539677004022695167e-03,5.299493297934532166e-02
1.704225139925943655e-01,1.347949718342134617e-01,1.405884045552192874e-01,6.319392855013244298e-03,-1.777296673431443680e-03,2.967611356179633304e-03,3.538616374135017395e-02
2.608482130927882725e-01,1.485551541634617667e-01,2.067281001357072212e-01,8.898866069007778379e-02,4.274923762364420121e-02,-3.040301973423416293e-02,2.036513537168502808e-01
1.331229081899928945e-01,1.395411882249676105e-01,1.268455333085820869e-01,2.906973612960961351e-02,6.659217070221586099e-02,-7.352628377489930749e-03,1.269715428352355957e-01
1.818378702289241144e-01,1.628728226239760379e-01,1.354788669550165969e-01,2.574261227519972911e-03,4.000530576508692926e-02,3.152254902466327096e-04,8.031862229108810425e-02
2.035683029476306471e-01,4.345647737360112256e-02,6.363509096139141619e-02,-3.768551623906981479e-02,3.447887540894493952e-02,4.516891068440801599e-02,1.917284578084945679e-01
2.414504849175079237e-01,1.256222610751249191e-01,1.227875763269741793e-01,-3.512723195610355318e-03,2.050714923485305510e-03,3.410903733101305207e-03,1.176311448216438293e-01
2.551556488413815327e-01,1.553025367622775377e-01,1.299666158476678601e-01,-6.306982700493565797e-02,2.969885911167813655e-02,4.003580781735078392e-02,1.803621202707290649e-01
3.389410439576174827e-01,1.470184440570600493e-01,1.420633994329850158e-01,-8.160547390762492442e-03,4.640707148935208082e-02,4.751381953918056011e-02,2.263694852590560913e-01
2.514072477685893592e-01,1.206955105006850271e-01,1.358157717817496390e-01,-5.748560611022138049e-03,2.203965518417346815e-03,7.491661120822574321e-03,1.249794811010360718e-01
2.286391425264157617e-01,9.635891038573657363e-02,1.267291801783814176e-01,-7.924622860781460956e-03,4.687114367410236820e-03,4.529650254203828642e-03,1.213214173913002014e-01
2.248150463338546567e-01,1.774619614574560189e-01,1.522526201117389566e-01,-1.390157451308444113e-02,3.775727624836083124e-02,7.905393522411402474e-03,9.547590464353561401e-02
2.351056017169292078e-01,1.170969356511600001e-01,1.352329712057941113e-01,-7.067523315086743189e-03,4.817129727224952855e-03,6.149734427606837542e-03,1.115691438317298889e-01
2.524055518729693137e-01,1.959741020864956829e-01,1.687899314521062732e-01,-1.524329521469431313e-02,3.678992504499998401e-02,1.185064585705747527e-02,1.031329855322837830e-01
1.052790677044212614e-01,9.705041722090208822e-02,4.747179886599828952e-02,-3.077216959693104131e-02,7.711684758007275597e-02,1.527944443030244785e-02,1.559355705976486206e-01
2.587652446764469039e-01,1.444126279576066207e-01,1.111131778222543554e-01,1.243476029866261243e-03,-6.476909410369012087e-05,7.620747375083510022e-04,1.341627687215805054e-01
2.354657166783017397e-01,1.333341375204067369e-01,1.189891863815911166e-01,2.316555871278520341e-03,3.110928406424187057e-03,-3.602450607030542248e-03,1.103892028331756592e-01
2.419469188715623886e-01,1.287572705634395243e-01,1.166886284567871801e-01,2.313114475431221097e-03,2.056207009253155100e-03,-2.013187736718848736e-03,1.198519393801689148e-01
2.138636276865940600e-01,1.430253913980014391e-01,1.298927969164365148e-01,-7.985325323947552525e-03,1.711484973799158593e-02,5.973855604213111972e-03,8.542787283658981323e-02
2.647494666441077005e-01,1.232041633961030308e-01,1.305740794937941818e-01,6.823487435868526210e-04,-1.939862567211799328e-03,-1.174198301025638699e-02,1.395439654588699341e-01
2.086702369243795818e-01,1.499817667046557945e-01,1.339627060358198896e-01,-4.357503730713587278e-03,1.784174338246592717e-02,1.671122322603251333e-03,7.524231821298599243e-02
2.540345704940449867e-01,1.420825948173065623e-01,1.085084790740122040e-01,1.284285569501639776e-04,4.379220508322023112e-04,-3.904157854006873579e-03,1.321571320295333862e-01
2.475881796837480775e-01,3.567170940673823620e-02,9.340484732262124834e-02,2.606060508918293939e-02,1.153494571106568854e-02,-3.886096671180831047e-02,2.073023319244384766e-01
2.474721207983586746e-01,1.347334900036555871e-01,9.838905394493764611e-02,3.601776178937650397e-03,8.777770411384715199e-03,-7.298745595418230925e-03,1.362285614013671875e-01
2.619562189369597505e-01,1.442722541994972407e-01,1.306688261203284296e-01,2.845315749724137543e-03,8.793768874085299784e-04,-7.664161309381877819e-03,1.258503049612045288e-01
2.320011811945895119e-01,1.091402274596335459e-01,1.398844271416645191e-01,-1.219258405162566665e-02,3.218557391733573893e-03,4.904154128966136360e-03,1.131899505853652954e-01
2.085633692946096407e-01,1.314359573896491662e-01,1.472123424099237576e-01,-1.652598984699116952e-02,7.843379833882106744e-03,7.078714217417137952e-03,7.832589745521545410e-02
2.490295858226820314e-01,1.144891207251603482e-01,1.461583163341042546e-01,-3.197140204840405280e-03,3.300505338517535636e-03,1.864985373713741587e-03,1.221354380249977112e-01
1.868092803645067801e-01,1.170359780349615603e-01,1.272840019944838641e-01,-8.273624550169019973e-03,-3.155587649947372460e-03,-5.899851159835274583e-03,6.780821084976196289e-02
2.313250185536150083e-01,1.036932619097438724e-01,1.345646431133028509e-01,-4.523293320310985480e-03,2.330439013079122542e-03,7.425042054958816548e-04,1.156808808445930481e-01
2.193684730580964248e-01,1.022034351146921538e-01,1.300988293623270287e-01,-1.332686680297657557e-02,-4.614241870610413451e-03,-6.235483052342038687e-03,1.093195676803588867e-01
1.402653816536699183e-01,1.287152441346300635e-01,1.433977154895942907e-01,2.837227963138731074e-02,-2.746643648993002396e-02,1.800481338668885730e-03,6.976600736379623413e-02
2.066599660767723390e-01,1.530353775730271260e-01,1.292246088707247331e-01,2.354157730495313496e-03,-2.072574632608844419e-02,1.057128325505608883e-04,7.761907577514648438e-02
2.266177012675278934e-01,1.323935249344994902e-01,1.106467687779015274e-01,-4.050113788491645390e-03,-7.211582147227971369e-03,-4.602754637320273512e-03,1.080230250954627991e-01
2.252405871024814876e-01,1.607513849629245428e-01,1.431358277249951128e-01,-7.234258029488032163e-03,-1.807696998809167621e-02,-6.518443353955573685e-03,8.288535475730895996e-02
2.355021709750225734e-01,1.501319182173156130e-01,1.127287848166787787e-01,-7.089979714294998743e-03,-1.310896373165177341e-02,-5.769156496122958798e-03,1.124561131000518799e-01
2.261124461556186238e-01,1.375878958761370119e-01,1.144657760580239103e-01,2.480809081603155709e-03,-5.995032257643315501e-03,4.316440183298271040e-03,1.029576733708381653e-01
2.264459908006708766e-01,1.364517915334130249e-01,1.185634221492935236e-01,-1.591676229135529112e-03,-1.958675806314991771e-03,-3.197696625646566978e-03,1.003921553492546082e-01
2.549115400515369889e-01,1.103385531316850854e-01,1.291567823309560104e-01,-2.034059351653545646e-03,-2.786973633669589338e-03,-2.198250957734770167e-02,1.414930075407028198e-01
2.303233611227992750e-01,1.372073694374846276e-01,1.151186944749233859e-01,6.969190771760281006e-04,-1.312984150164180899e-03,9.570606209311123286e-05,1.059337630867958069e-01
2.161191619370919914e-01,1.306901271983655632e-01,1.166726990683955717e-01,1.447619726808172923e-03,-4.183236941966790925e-03,4.316459105477282211e-03,9.384446591138839722e-02
2.339212551996424916e-01,1.328688859248754184e-01,1.142185695739330181e-01,1.203123148869463801e-03,-8.278530037404243421e-04,7.057912906764840684e-04,1.115883812308311462e-01
1.677045691493293800e-01,1.706956781357328590e-01,1.703044863583684509e-01,2.328254292990995442e-02,-2.790545968951649650e-02,5.889565098626050287e-03,6.383075565099716187e-02
2.452695606115785909e-01,1.257950668915741033e-01,1.179770242725029922e-01,-6.272069035573194038e-04,8.446894671605011768e-04,2.483064107600033588e-03,1.236573904752731323e-01
2.556605111597888280e-01,1.421800643497869721e-01,1.214764885871302130e-01,-7.493780643692729126e-04,3.853466457188534696e-03,1.877475692223392516e-03,1.253503412008285522e-01
2.397834118941552517e-01,1.395036464124039532e-01,1.083105791469018975e-01,-1.921937197306506284e-03,4.765920016990090637e-03,1.614772000432748884e-03,1.193487271666526794e-01
2.484153916542236051e-01,1.118563257243604114e-01,1.365852719902534429e-01,3.170578153768144770e-03,-1.372052598795260678e-03,2.340711637507935424e-03,1.262346208095550537e-01
2.441445199681977485e-01,1.132513289616392249e-01,1.338897072100620755e-01,-2.029266010152745020e-03,2.255813303793715186e-03,4.351456069284135794e-03,1.222373619675636292e-01
2.917828002530297171e-01,1.143388881832291676e-01,1.396663754718644457e-01,8.030639588817830438e-03,5.633109581099158235e-03,-1.857004024634367062e-02,1.701670438051223755e-01
2.590330213937817039e-01,1.376032793165513912e-01,1.334142402261914995e-01,3.635938526669624677e-05,-3.894259826760275108e-04,5.059110323903566638e-03,1.238896548748016357e-01
3.048028646718354828e-01,1.759787921869759020e-01,1.068140869552887673e-01,9.459983137227803707e-03,-1.936329978558524317e-02,5.961641683988778279e-02,2.057792842388153076e-01
2.628950867722459894e-01,1.180903596956913992e-01,3.216681872614005067e-02,3.179556253689595855e-03,-4.184228824338526165e-03,3.063025249238245790e-02,2.090236544609069824e-01
2.903728364724107447e-01,1.800496737922082091e-01,1.202700209598084602e-01,-4.034599129045807718e-03,3.130765909335011393e-02,1.675757670350621481e-02,1.617766320705413818e-01
2.491125120475967680e-01,1.346073834205000486e-01,1.058685842603716287e-01,-1.565329165522340695e-03,5.752648703641081995e-03,2.362678305159685282e-03,1.317249387502670288e-01
2.627956010141088150e-01,1.289651554401332334e-01,1.704867324861712718e-02,8.809746880548394860e-03,-1.711724425957676654e-03,1.561123078348329585e-02,2.153751999139785767e-01
2.664457894860294829e-01,1.568408547903850092e-01,8.106104465814677196e-02,-3.969770881853922767e-02,-7.419865962192788433e-02,-1.648727025133891327e-02,2.193654477596282959e-01
2.639679817346326507e-01,1.504532514831593282e-01,1.155781484806970294e-01,1.972430647716222948e-03,-4.257702392784550906e-03,4.521471510658262092e-04,1.346379369497299194e-01
2.190828069310723492e-01,1.291298243253596045e-01,1.019730777201497129e-01,-1.534683171780699918e-03,-8.766700025221011577e-03,-2.007177159030417487e-03,1.073385998606681824e-01
2.233883263193816582e-01,1.367804157113004238e-01,1.053828774674844398e-01,-3.284370419812970843e-03,-1.057531701889669572e-02,-1.730378922206544175e-04,1.075824052095413208e-01
2.493288690303225308e-01,1.401274606176114157e-01,1.093744606026506444e-01,-2.081856960546820887e-03,-4.044466069529457745e-03,-2.230502316335876423e-03,1.276948153972625732e-01
2.512374701576399194e-01,1.341597632091068859e-01,8.378971459967733681e-02,1.051713225630406494e-04,-3.343222918517838906e-03,-8.009216025194779848e-03,1.495578438043594360e-01
2.325201660463332431e-01,1.170260108117123637e-01,7.963580258657500244e-02,-3.489138347523243391e-03,9.167371947974664592e-03,1.450914862816575675e-02,1.413345932960510254e-01
2.638452857620627867e-01,8.122174340226846756e-02,5.502254294785713373e-02,-1.636361723290630232e-02,2.153979257795637578e-02,4.340037193682157179e-02,2.160285115242004395e-01
1.583930007792305472e-01,5.347205991213542509e-03,1.263183260509497668e-02,6.513917028670195009e-02,-5.673347149393239558e-02,5.797078614880529085e-02,2.341547161340713501e-01
3.488902050107619557e-01,1.956783356174676969e-01,1.345416535419113879e-01,4.463634390777095756e-02,-7.448144260606569256e-02,6.699086913689682177e-02,2.695578336715698242e-01
2.436219513398422687e-01,1.253119243573236063e-01,1.170626827361089528e-01,-2.421742264339976723e-03,1.401778123343531794e-03,2.048720402045621589e-03,1.227899119257926941e-01
2.481425961208217901e-01,1.303580428259047685e-01,1.257856733039284802e-01,-5.246758443679142925e-04,2.861909028171793828e-04,6.297405495083556459e-04,1.201454252004623413e-01
2.428525926387406497e-01,1.242499619986514592e-01,1.163229003005193107e-01,-7.459801972162316639e-04,5.002370159469275365e-04,2.442581634730289688e-03,1.228410005569458008e-01
2.291782187809312532e-01,1.446328655094839544e-01,1.136948408724885173e-01,-2.151683254692461980e-02,6.344861812792329525e-02,2.509402809707233367e-02,1.614805757999420166e-01
2.383348860783268686e-01,1.199938170921704406e-01,1.272611286083614734e-01,-1.128540588717590661e-03,1.609577522698462911e-03,1.024953953298252509e-03,1.149441003799438477e-01
2.473474776074242598e-01,1.290668434346384230e-01,1.284953444231874409e-01,-4.514355514439290164e-04,4.775928141143712851e-04,2.414712202119983359e-03,1.186466217041015625e-01
2.344520034242190687e-01,2.424647918383369960e-02,9.934959438806401089e-02,3.839256403892758740e-02,1.261065918305934869e-02,-2.983300152164155422e-02,2.039824128150939941e-01
2.404286440351895426e-01,1.214028321914518288e-01,1.220428254209675323e-01,-6.293907567084555156e-04,1.006641788458080902e-03,1.001959380616635397e-03,1.187376007437705994e-01
2.428385586556669751e-01,1.225239440249739353e-01,1.230631206498020713e-01,-2.540836489581560389e-04,8.110165759751278508e-04,1.365638511230778595e-03,1.200782582163810730e-01
2.492614011053142786e-01,1.297997144116261881e-01,1.296279698103762201e-01,-9.057191570329815953e-04,8.336949111994222889e-04,2.173647201486526587e-03,1.196259260177612305e-01
2.385006838989671141e-01,1.422267347491793787e-01,1.123109640031642875e-01,6.311779354735196296e-04,1.970724997789273601e-03,-1.235917779550037591e-03,1.142854541540145874e-01
2.146093668895768802e-01,1.269365382048286139e-01,1.059870545777741591e-01,-3.458356310417138712e-03,1.051012008534137586e-02,4.237906601597399986e-03,1.018982529640197754e-01
2.441963041564160775e-01,1.416834503974760961e-01,1.128459992440527526e-01,-2.208448284426344898e-03,2.199098645784536982e-03,1.727872593109687320e-03,1.197279840707778931e-01
2.089818820641182739e-01,1.118297039752432498e-01,1.284790639619709240e-01,4.437538211897003836e-03,-1.989680767776625444e-03,3.556455198893570049e-03,9.059316664934158325e-02
2.308122614637534153e-01,1.276657954082900948e-01,1.132636407852825322e-01,-3.206332621137824874e-03,5.189355753692303543e-03,4.516500048129093274e-03,1.118256375193595886e-01
2.286543800066149768e-01,1.289639813529316614e-01,1.057177627383030089e-01,-2.622637755819990073e-03,3.212019973118918764e-03,2.614827051837281986e-03,1.134375780820846558e-01
2.337733362622147482e-01,1.371829755494882452e-01,1.165159465835152175e-01,-4.084138359560960069e-04,3.537984310439896756e-04,6.817281784870694600e-04,1.084219962358474731e-01
2.255098051625094302e-01,1.367711464205479677e-01,1.184669298220740463e-01,-1.083016006311830412e-03,8.884937699702696911e-04,3.137853435363346846e-03,9.934440255165100098e-02
2.365573934940976009e-01,1.319982247916169082e-01,1.143828697835975322e-01,-2.146852981221545730e-03,2.100300691446871804e-03,2.145043233806322516e-03,1.145671457052230835e-01
2.325848536724333671e-01,1.354825639715616092e-01,1.132453559855318148e-01,-1.094475272597346741e-03,1.816701324537701827e-03,9.139222819637859334e-04,1.099937856197357178e-01
2.329548438876765104e-01,1.331048583305391442e-01,1.175678238012694971e-01,-2.118944930684158367e-04,6.419118650557456779e-04,5.849996386575889457e-04,1.084674596786499023e-01
2.347720276558651342e-01,1.306549013358274114e-01,1.170760307975667325e-01,-1.045122762923250724e-03,2.637385615558851407e-04,3.131958127374847873e-04,1.115452125668525696e-01
2.443966158553099177e-01,1.327649964929847048e-01,9.988320308050535612e-02,-3.357843942158029223e-03,3.512953025267646998e-03,5.450040001145422912e-03,1.318083256483078003e-01
1.664750285897411697e-01,1.197928462579594122e-01,8.289753324781577726e-02,-3.538532855089205655e-03,3.611821561743889381e-02,3.097744883400659413e-03,9.613933414220809937e-02
1.939252139475581282e-01,1.366228230559291268e-01,8.521506344924399678e-02,-9.902373012033803545e-03,6.948603331676704575e-02,2.319243752652797377e-02,1.589492857456207275e-01
2.405690805308647873e-01,1.332299919157492463e-01,1.102261286471364898e-01,2.226531488779181535e-03,-3.911633363151068542e-03,1.460907172564243715e-03,1.207776814699172974e-01
2.579929025604817960e-01,1.422705973047053152e-01,1.208508911313488504e-01,6.218407007848572501e-04,-1.414826191281832275e-03,1.488636280270039160e-03,1.278397738933563232e-01
2.399132306439457074e-01,1.326591255283729731e-01,1.059174804584821217e-01,4.175849650016921939e-03,-4.938235595051852431e-03,2.722928723784274595e-03,1.234278082847595215e-01
2.432088053920243298e-01,1.301553511765541349e-01,1.165175834933705468e-01,2.410709400278777167e-03,-2.010619196087231036e-03,1.362273836779856993e-03,1.205985024571418762e-01
2.590559961653892684e-01,1.457455200958878982e-01,1.123779021788314236e-01,-1.031778486123684831e-03,-3.556022740131758227e-03,-1.193423224128774014e-03,1.333377808332443237e-01
2.548639190729635740e-01,1.376139437790457332e-01,1.245196525056737474e-01,3.291546863898350654e-04,1.743378558107944317e-04,1.893781865459659213e-03,1.243603527545928955e-01
2.519336936106364999e-01,1.447845287899146849e-01,1.186632379710592378e-01,2.001243211566033561e-03,-9.628486601371936959e-03,5.429536558633374366e-03,1.238576471805572510e-01
2.459771491761594819e-01,1.273848686544726272e-01,1.189941385475012381e-01,1.389009752525995154e-03,-1.242132234209787590e-03,2.010271749115164971e-03,1.230940669775009155e-01
2.457447624335961089e-01,1.219815212688298151e-01,1.143794786257502361e-01,3.422134221237547666e-03,-3.921384265930897943e-03,8.374255558374980521e-03,1.288706064224243164e-01
3.899383772291953321e-01,1.094328095625682479e-01,1.734978541383813966e-01,-1.951493299568207718e-02,-2.183848501344066995e-02,-2.969648600684396747e-02,2.646431624889373779e-01
2.336403739022697712e-01,1.146498674200613355e-01,1.365857635679720294e-01,-3.772152609528752962e-03,-1.363350309079859515e-03,-2.149594050841697936e-03,1.099631115794181824e-01
2.402804254485059465e-01,1.203130979436616010e-01,1.288685849943278505e-01,-7.761379866377983569e-04,-1.925605915183516148e-03,-9.602098850650014937e-04,1.159942820668220520e-01
1.825281694260721677e-01,1.368063056147684753e-01,8.841685911544992782e-02,1.032647641559717930e-02,1.135944350260073982e-01,-2.724638953588164395e-02,2.188665717840194702e-01
2.302563051398929805e-01,1.471686661542613295e-01,1.245257592993980755e-01,-1.898034245218644701e-03,8.316270683271943104e-03,2.120339921510913314e-03,9.761853516101837158e-02
1.735030827360987682e-01,1.051346810973080581e-01,1.113850287279354451e-01,3.025833556574732131e-02,1.994472421501045784e-02,-1.209032984699022484e-02,9.308374673128128052e-02
1.989560846332790178e-01,1.396004754127248004e-01,7.404344578492991213e-02,-1.688226348737923875e-03,6.776361249832753286e-02,-7.077898344409159180e-03,1.601454019546508789e-01
2.235380818696995897e-01,1.308691057973917771e-01,1.094086907191550995e-01,-1.835008667667486679e-04,3.498009279761487688e-03,1.619191607895180667e-03,1.052685976028442383e-01
2.624584947261164869e-01,1.447628367622058876e-01,1.186667924249366207e-01,6.220785572424165737e-04,-1.652601407005374569e-04,-2.354102199675758410e-03,1.327498853206634521e-01
2.296826774902570034e-01,1.287987041303665092e-01,1.186220695057945279e-01,1.371430671650637756e-03,-7.170193048595808853e-04,3.467612216646481695e-03,1.065413430333137512e-01
2.133908401247894271e-01,1.145694232657340494e-01,1.297025857917984970e-01,4.845231272341930448e-03,-1.568519376282540272e-03,4.295889834066013088e-03,9.291059523820877075e-02
2.168262946782697487e-01,1.252048037424404736e-01,1.167351954862949903e-01,-3.527669186340296695e-03,-3.608987800618788846e-03,-5.811749876997228913e-03,9.705651551485061646e-02
2.438490713838105672e-01,1.389974869215526154e-01,1.250886050755882772e-01,-2.525025467182938355e-03,-4.112618437577237641e-03,-4.304049413075973496e-03,1.130093932151794434e-01
2.193331348803871650e-01,1.304286946172744932e-01,1.272323524265703276e-01,-3.839480341594627300e-03,-2.334045231153298195e-03,-5.594975099449668414e-03,9.139400720596313477e-02
2.335831844340631180e-01,1.461865694710250130e-01,1.283166995265033750e-01,3.092987393621014422e-03,-7.788375793458990511e-03,3.198623038781083210e-03,9.879593551158905029e-02
1.772317575466628159e-01,1.303290990026715890e-01,1.108579465842280121e-01,-7.365570608674856280e-04,-1.505867103741443877e-02,-3.628229582979944010e-03,6.491258740425109863e-02
2.070959966676552966e-01,1.432666644036324211e-01,1.245361602146682900e-01,-1.083546469598330609e-03,-3.050480702238653023e-03,6.218935375083870735e-04,7.518756389617919922e-02
2.238510859114054563e-01,1.405198087924632300e-01,1.186831608394027238e-01,-3.981996232019338112e-04,-2.269019265241137805e-03,6.535204822808281114e-04,9.621755778789520264e-02
2.334314745062165686e-01,1.357059927911602737e-01,1.137705207927513784e-01,-1.091031041772185439e-03,-4.574901085561357619e-03,-2.094940860952698887e-03,1.107005700469017029e-01
2.833853166976302296e-01,1.558227525018522630e-01,1.489583813507691645e-01,-1.600390314166643541e-02,-8.596143863570746002e-02,-2.793270187328484103e-02,2.060877382755279541e-01
2.504836667700660047e-01,1.428300741821885156e-01,1.119612652493227195e-01,-8.243340611625791505e-04,-3.976447374487321502e-03,9.116961349531492757e-04,1.261637210845947266e-01
1.798764958255332225e-01,1.334798284671101232e-01,1.099514481685331946e-01,-6.553248853118291521e-03,-3.153197391177126746e-02,-9.289687923519106272e-03,8.466640114784240723e-02
2.677877337550431669e-01,1.688571821914278681e-01,1.368412690000584131e-01,3.193953616936832940e-02,-4.308161108318179361e-02,2.975885202762357934e-02,1.589492708444595337e-01
3.085956319945110105e-02,8.790932259194021714e-02,6.765298373969320933e-02,-1.750875681319950805e-02,-5.083211269088378642e-02,-5.915087253313734868e-03,1.062342748045921326e-01
2.181874089471415035e-01,1.289135063414393323e-01,1.251208246346459108e-01,2.794043240869252456e-03,-1.818949617260261394e-03,6.073148357030048322e-03,9.201519936323165894e-02
2.405852877703067993e-01,1.163857129170239313e-01,1.248819018071817694e-01,1.506672083040023341e-03,2.763956697145796958e-03,-2.382997148616542230e-03,1.203713491559028625e-01
2.744512215668221122e-01,1.497431259239460355e-01,1.646595875251253838e-01,2.593318279635082463e-02,1.817703175261482090e-02,-2.555525623230111079e-02,1.374133229255676270e-01
2.271708989603928308e-01,1.193775588252788816e-01,1.415933622845564066e-01,2.042209898111062988e-02,1.940673944338629177e-03,-3.896185981656852737e-04,1.047910824418067932e-01
2.371229983289470100e-01,1.182758105392654746e-01,1.226565320277510363e-01,4.586774911911470007e-03,4.443946335037204411e-03,-6.382077164401108067e-03,1.177614629268646240e-01
2.920282261596313100e-01,1.635097816210704380e-01,1.824662067132534482e-01,2.577254113501772914e-02,2.297926522355134282e-02,-2.495554334681514622e-02,1.410150229930877686e-01
2.065047660458425305e-01,1.509833907734919045e-01,1.726277365231396188e-01,-8.452117493083322053e-02,4.846781395901945955e-02,2.247368021338536862e-03,1.756228953599929810e-01
2.181132241038478692e-01,1.166675000232939019e-01,1.312120934075746426e-01,-4.063157892122495202e-03,1.081768879467708824e-03,3.591597261743575357e-03,9.549361467361450195e-02
2.054873044793358861e-01,1.206855865016126794e-01,1.324398437718103949e-01,-4.082614173833639358e-03,3.862911836527250804e-03,5.120783756681501590e-03,8.066070824861526489e-02
1.727542395221297322e-01,1.018757074653279665e-01,1.195224583436000493e-01,-2.867511846121711255e-02,-1.041129080310555441e-02,-9.668044556279726046e-03,8.459777384996414185e-02
1.643807356824391053e-01,1.338182095658556336e-01,1.430374696562004277e-01,-1.052573960054880957e-02,1.354955050412736837e-03,9.483175800718071646e-04,3.283105418086051941e-02
1.385227986261332589e-01,1.126611362422539619e-01,9.108074154194500949e-02,9.338386677872918123e-03,2.675981453294924359e-02,-3.755314546774941777e-03,6.438035517930984497e-02
2.438137471939846035e-01,1.138641460747951695e-01,1.259049427074931948e-01,-4.858708218105557697e-03,-3.872435337972471216e-03,-8.043464839354714374e-03,1.256068646907806396e-01
2.434104413454736549e-01,1.091280484223627334e-01,1.367109030684938165e-01,-3.554655338120487652e-03,1.763826665990410195e-03,1.668450209891058885e-03,1.230620741844177246e-01
2.284774698725429154e-01,1.115439176453235093e-01,1.212633628290655380e-01,3.600648144344503060e-03,-4.210459668020362714e-03,5.342342859116091559e-03,1.131772696971893311e-01
2.391959300254099530e-01,1.016493474722668516e-01,1.373755829439656795e-01,-1.313243001709734487e-02,1.724485405944055165e-04,1.415933424546572889e-03,1.257175058126449585e-01
2.965506721859857420e-01,1.775000363865433528e-01,1.250205117781854058e-01,-3.287507277792181461e-03,1.977195397898875041e-03,1.568398922707589516e-02,1.547804474830627441e-01
3.494390996560376994e-01,1.415545268677328439e-01,1.303309532040379803e-01,-4.489950908154419218e-02,2.077860426872042005e-02,5.091012945754142677e-02,2.465640753507614136e-01
2.449101917855944777e-01,1.252910220440525413e-01,1.187185164403501553e-01,-1.963423372156400046e-03,1.836591549722178199e-03,3.031238434035828880e-03,1.232371330261230469e-01
2.897364915297612198e-01,1.384480058630638277e-01,1.666203070858195967e-01,-7.106649588790883709e-02,7.475263836284533336e-02,2.769596224961163103e-02,2.315948009490966797e-01
2.303839913696614783e-01,1.277876059742419079e-01,1.157186482270570332e-01,2.894988041459304121e-03,-2.711636188817908698e-03,4.115650142737473961e-03,1.095806881785392761e-01
2.457833349923604360e-01,1.283210100583208058e-01,1.253134920028750598e-01,-1.272272011936638816e-03,-8.161263054283883223e-06,1.068121250124979974e-03,1.190293729305267334e-01
2.348679687769776314e-01,1.344261972037075481e-01,1.000933192619733458e-01,-1.060594473062073011e-03,5.982538491021386663e-03,7.240959608133359145e-04,1.217705681920051575e-01
2.693481352932989292e-01,1.860579157134295558e-01,5.443077432868501098e-02,-4.563947642085188459e-03,-2.474699483691165589e-02,2.330616869471945074e-02,1.968641132116317749e-01
2.478888805265259399e-01,1.291513839331507318e-01,1.262198735976563235e-01,8.533696891260060232e-04,-1.369359265577946251e-03,5.305551409668263219e-03,1.206131130456924438e-01
2.301082427867876257e-01,1.201073321464374288e-01,1.191206278866107637e-01,6.846189472275416611e-03,-1.096733920140877637e-02,5.391987970470101844e-03,1.131299734115600586e-01
2.361667203062847720e-01,1.176372668989644765e-01,1.328722384800482270e-01,3.253942391819746906e-03,-2.185188538548904057e-03,2.953861859680200624e-03,1.120169982314109802e-01
2.438786078646318356e-01,1.224663658112984249e-01,1.281487948132011279e-01,3.329994422721606817e-04,-1.789741389066679773e-03,9.684021324586279851e-04,1.187268346548080444e-01
2.178574992237263253e-01,1.387869569628001898e-01,1.433033048190375247e-01,3.462307327722198309e-03,-4.074061528221605694e-03,6.823951779095458262e-03,7.836385071277618408e-02
2.225908256554960940e-01,1.337568992845711846e-01,1.426481282842361198e-01,2.216320935268140634e-03,-3.820886896186834712e-03,5.842320661964443135e-03,8.568318933248519897e-02
2.452037474798886840e-01,3.252762298362220361e-02,1.056828224489463619e-01,2.585212541291101798e-02,-1.333343042285699970e-02,3.511785127166305864e-02,2.031319290399551392e-01
2.346610304884542419e-01,1.162943717297908186e-01,1.315317017932997046e-01,9.042260807165516598e-04,-2.490151815872353527e-03,1.332805484405425334e-03,1.116496101021766663e-01
2.383902004853530876e-01,1.121576228567660871e-01,1.333079805966859155e-01,2.002561621795624462e-03,2.393657002265155067e-03,-9.477074000127023220e-04,1.172350272536277771e-01
2.415350487151999292e-01,1.135999170315521167e-01,1.315789465438867989e-01,1.581758968078219967e-03,2.009666252924131955e-03,-2.246628384117055951e-03,1.201051995158195496e-01
2.074154569897593836e-01,1.253132150929049116e-01,1.431411004180864754e-01,-3.748727650553907494e-03,6.924226448768893479e-04,1.003128257840091341e-03,7.511004060506820679e-02
2.206536277317471539e-01,1.347797704725876011e-01,1.522487632812415947e-01,-2.193268378880480762e-02,1.013962146756920875e-02,7.713902368459031426e-03,9.005238115787506104e-02
2.285944462925004195e-01,1.201122380232144682e-01,1.391668234210072241e-01,-1.560157279069452176e-03,5.691435960677710239e-04,2.069288819821656165e-03,1.004266068339347839e-01
1.656531597975881565e-01,1.774849906598452431e-01,1.856085532723651954e-01,-1.869363960156735643e-02,-2.408275301611305895e-03,2.750443803856349526e-03,3.729010373353958130e-02
1.954153801392780332e-01,1.001101452192053320e-01,1.214853967138414259e-01,-1.780516817272603802e-02,-6.662582514076888056e-03,-5.727068196839523936e-03,9.319579601287841797e-02
1.421909631325911638e-01,5.384215417810243876e-02,8.366465538757669740e-02,-7.417867446021778055e-02,5.537468211720385919e-02,2.906340073889804310e-02,1.852043420076370239e-01
2.370627345292568300e-01,1.288360260157426218e-01,1.228253203483395395e-01,-1.897972821837369203e-04,2.495443370502845276e-04,2.320142987680036580e-03,1.114276051521301270e-01
2.342371516035366974e-01,1.217595125741942619e-01,1.202746560972557943e-01,-1.611717920358188456e-03,1.765337437366090462e-03,2.391770250775736642e-03,1.133787482976913452e-01
2.334833056866005285e-01,1.297778101369363446e-01,1.163217177599914220e-01,-4.134789488158578734e-05,2.648462519359820843e-05,1.220320644603691820e-03,1.110668331384658813e-01
2.378177637599810657e-01,1.281635109655488436e-01,1.210477527237508039e-01,5.735614515264364586e-04,2.050958617099160424e-04,1.454774074066757759e-03,1.134126260876655579e-01
2.191307831436199449e-01,1.312438408585931415e-01,1.219695372334511640e-01,-5.550448815632691088e-03,1.015805792325330699e-02,7.768727821454057131e-03,9.595967084169387817e-02
2.427101518915943945e-01,1.220708291723892058e-01,1.220698385570303801e-01,-2.300711347111687906e-03,1.345096347029612564e-03,3.347822555006059204e-03,1.208672672510147095e-01
2.435331960424022280e-01,1.166608803652470355e-01,1.247067689376992194e-01,-5.030358268390769209e-03,5.583359939001762175e-03,6.766950406424847644e-03,1.242872923612594604e-01
2.717925385245494874e-01,1.469261321180002633e-01,1.547471078607094985e-01,-9.147187860551478367e-03,1.489924294986354203e-02,2.385826032205753608e-02,1.315326392650604248e-01
2.480508407631368262e-01,1.306048215147878055e-01,1.253153331970892348e-01,-6.099818091483635461e-04,1.714852656531930166e-03,4.934802601939315518e-03,1.205229088664054871e-01
2.353546624785927688e-01,1.280685572435925346e-01,1.193755390820694373e-01,1.443440964693016920e-03,-3.535844575018144221e-04,1.249081705092911117e-03,1.119366958737373352e-01
2.471287418265422642e-01,1.274381003200761864e-01,1.257068177768316530e-01,-8.902056553689182382e-04,1.019997627974541995e-04,1.261125277296396225e-03,1.205953806638717651e-01
2.023557515601381307e-01,1.206660058228966048e-01,1.199360052972975044e-01,5.086476202036628244e-03,-6.198806842941591809e-03,6.241639039178799309e-03,8.392345905303955078e-02
2.405922600470123129e-01,1.165915541914129827e-01,1.387114513479267841e-01,8.606470429466415301e-03,1.671293588151732089e-03,-3.275886429638970657e-03,1.156951561570167542e-01
2.296148333984773804e-01,1.109663282563130987e-01,1.307047358502243517e-01,2.911317182324597765e-03,-1.146321206844386729e-03,8.213020853515903700e-04,1.102566719055175781e-01
2.285826128818713443e-01,1.140442161402458604e-01,1.285252203507395996e-01,2.194831911220788880e-03,-9.549841401304796787e-04,2.828463097911083999e-03,1.082187667489051819e-01
2.397872440293619123e-01,1.246797377563590714e-01,1.273446641849777516e-01,6.116606166796385424e-04,-5.318580141175486718e-04,3.756007553472778034e-04,1.138089671730995178e-01
2.326259059464776124e-01,1.168445067009625249e-01,1.326948937327138700e-01,3.576621816138708145e-03,-1.490647388761904505e-03,3.267214344004688506e-03,1.090800315141677856e-01
2.359405489073363449e-01,1.218591600429650701e-01,1.311567263106337977e-01,1.033338257219684319e-03,-4.941618325303555413e-04,6.383595023537246092e-04,1.097519323229789734e-01
2.361797923651482445e-01,1.188740904889325767e-01,1.260216456802089879e-01,4.267910264217897104e-04,-1.065127643661328578e-03,6.669341391520152091e-04,1.139234453439712524e-01
2.322132962650675925e-01,1.157505994115432951e-01,1.320919593613907317e-01,1.990694291923154370e-03,-1.435854552833318266e-03,1.760801498573118544e-03,1.093380823731422424e-01
2.341596268011639781e-01,1.187534628201310782e-01,1.264346937429316475e-01,9.773058037981291121e-04,-1.820392281166625242e-03,1.580944536614936006e-03,1.118544936180114746e-01
2.358888756533392139e-01,1.240062065623733778e-01,1.211770925548434075e-01,3.558957489558256960e-04,-3.431521693052055400e-04,1.499520208570969152e-03,1.133567094802856445e-01
2.355033782892642091e-01,1.181843415138286169e-01,1.326124953817610641e-01,2.661079101469945082e-03,-1.548731633838604238e-03,2.833816065993764993e-03,1.110484674572944641e-01
2.176571463831342146e-01,1.144926154312055355e-01,1.262146582620553015e-01,4.655607594650322013e-03,-5.059074359922456632e-03,5.099024659016811352e-03,9.894864261150360107e-02
1.800215148472663895e-01,1.121646895341904815e-01,1.279105473053967768e-01,1.207322866705226247e-02,-1.176358768042762596e-03,3.265813138071923041e-03,6.524916738271713257e-02
4.826429923056613225e-02,1.364656082918681013e-01,1.370004757527681916e-01,-1.288488317879293507e-02,-1.216788857143721002e-02,-5.994080718835215031e-03,9.421758353710174561e-02
1.831191172023051983e-01,1.181153549263833785e-01,1.184061753207430179e-01,5.666337427118822712e-02,4.428975991825518516e-02,-2.958619268463668836e-02,1.494980305433273315e-01
4.885385314608409885e-02,1.337244312529345946e-01,1.324317879605102222e-01,5.175320876870669745e-02,2.111478913301469140e-02,9.325528303863885038e-03,1.293389350175857544e-01
1.979070451345820714e-01,1.462628903937398528e-01,1.408745691507311826e-01,4.956549158407020338e-03,-3.818435485697761322e-03,2.900557613155391266e-03,5.583109706640243530e-02
1.845040577749096911e-01,6.131424181425035314e-02,1.167987827769072090e-01,7.305463993121065480e-02,-1.168610328505979151e-02,2.394143074758440723e-02,1.719283163547515869e-01
2.039812020669934667e-01,1.476119258748597451e-01,1.707940019086504613e-01,2.150450083793373213e-02,4.345044942063201916e-03,-3.637852235503107479e-03,6.238443776965141296e-02
2.465286335334006540e-01,1.224201185641868583e-01,1.450158063988186974e-01,7.055754462542068034e-03,3.634850101979000565e-03,-4.468994582622425570e-03,1.155771389603614807e-01
2.092285389269388507e-01,1.139757709954871967e-01,1.436666717763303847e-01,1.940532732236051328e-02,-5.672878144416595991e-03,1.599506536312197665e-03,9.143532812595367432e-02
2.360451114188946153e-01,1.274694396898993498e-01,1.436923469505173301e-01,4.846436842546687773e-03,4.755224435203059957e-03,-5.199724237781176879e-03,1.025175973773002625e-01
2.625326177438976893e-01,1.431541630590342784e-01,1.803206155943254951e-01,3.519069353373225489e-02,-8.285448937505093467e-03,1.310230958112365909e-02,1.250271946191787720e-01
2.415461340013062563e-01,1.246817706650143465e-01,1.236001154060101803e-01,6.677063605540814982e-04,-1.055157283875675714e-03,2.132032887009200749e-03,1.174868941307067871e-01
2.425184842658899831e-01,1.573932076113134237e-01,1.843881220446509095e-01,4.100906265094905745e-02,-1.097870994526128734e-02,7.711150925190941169e-03,1.061239838600158691e-01
1.776015957971334713e-01,9.273900808163043630e-02,6.502348336092250713e-02,4.178497963621094491e-02,8.286640170490783275e-02,-4.146969591376076236e-02,2.032719850540161133e-01
2.523747603522438210e-01,1.324203711647018722e-01,1.140318359805073817e-01,2.784596242574073535e-03,1.771880623038651903e-03,-4.184715826272793551e-03,1.304538100957870483e-01
2.625312947284599852e-01,1.431925062722715913e-01,1.160224060545245184e-01,5.041380079488488875e-02,9.294031629954685458e-02,-3.728009965601519066e-02,2.364956438541412354e-01
2.295352787394921157e-01,1.681747947480503602e-01,1.208809356726325834e-01,-1.473692116980424710e-02,1.122972485693792266e-01,1.389119249285353415e-02,2.190119475126266479e-01
2.391204771093650983e-01,1.227830747769656783e-01,1.220976300980184392e-01,-5.918291647945499558e-04,-4.986920464645262525e-04,-9.441157118848124202e-04,1.167007908225059509e-01
2.198280647062490212e-01,1.359322680361207958e-01,1.165597617446495066e-01,1.428449092699053853e-02,4.337308286840327320e-02,-1.633484815754446956e-02,1.268675178289413452e-01
2.303938665110778494e-01,1.263297012411471743e-01,1.113898141911061623e-01,5.926068653622923628e-03,8.134276441092984367e-03,-5.841994207832101015e-03,1.140767186880111694e-01
2.484399195371696234e-01,1.323312104588711957e-01,1.198758010281155140e-01,6.848891442245877252e-04,1.297455027075700281e-03,-2.322684364707775471e-03,1.229031831026077271e-01
3.526965593651355535e-01,1.362190159486913466e-01,1.255447426431693936e-01,5.270280296458011715e-02,1.157203865532442297e-02,-4.827886634023716844e-02,2.549789249897003174e-01
2.546653241130393264e-01,1.362037523542043438e-01,1.241177978531068510e-01,7.781550015797145418e-04,1.283171498139899173e-03,-1.280527594460923032e-03,1.249904409050941467e-01
2.446113301687867225e-01,1.100258319336737678e-01,1.294251341345449835e-01,1.548826272361180159e-03,2.632424198191194754e-03,-1.515457807312234426e-03,1.261491179466247559e-01
2.531145495071472906e-01,1.365734703417879059e-01,1.188115646650372698e-01,-2.067746977271027204e-03,-1.213548257424168194e-03,-4.240667991141588121e-03,1.266431808471679688e-01
2.486150292413694673e-01,1.285113117687709527e-01,1.111463999686804482e-01,1.282600127620942302e-03,9.268512914255195873e-04,-4.471599828716352198e-03,1.299212574958801270e-01
2.516740567383496385e-01,1.265687691456721664e-01,1.377096888964971511e-01,4.340046124792474279e-03,2.438871854710417900e-03,-8.211403841803389947e-03,1.210714653134346008e-01
2.153263273286074586e-01,1.216268706858642801e-01,1.154616179332666470e-01,7.498415585816088809e-03,-9.776454268863771918e-03,8.101588391677485429e-03,1.002377271652221680e-01
2.919795730859233163e-01,1.723573046262344977e-01,1.351301923068757294e-01,-1.816904593916341196e-02,-2.543529413553368909e-02,-2.137111115858528546e-02,1.563646793365478516e-01
2.398901669305144313e-01,1.272896350404280064e-01,1.109563685793759497e-01,-2.722574733647926005e-03,5.092956747357125016e-03,1.974405334317988047e-03,1.220513656735420227e-01
2.185444245929916707e-01,1.064556334224127931e-01,1.231315872535318767e-01,-6.446448336313820998e-03,2.675684544666647943e-03,3.558673434735722292e-03,1.056264042854309082e-01
2.528235042818866019e-01,1.358914415206349535e-01,1.218217799492273545e-01,1.619347680628027177e-03,4.322816030122862262e-04,2.019008973414593809e-03,1.246471554040908813e-01
2.485854942971153503e-01,1.256643644831096363e-01,1.308784170923770751e-01,-2.240055756019039980e-04,5.968072554378837154e-04,9.475572452008499888e-04,1.204150542616844177e-01
2.329478150046168095e-01,1.169343264134060784e-01,1.205215838147594420e-01,-4.921218345350532666e-03,3.954104300450587105e-03,5.237374662391789358e-03,1.151419878005981445e-01
2.299658929207466507e-01,6.203078279726195049e-02,2.524330696720188116e-02,-1.338516641567538516e-02,2.717834334010638120e-02,5.034951528243421931e-02,2.146907597780227661e-01
2.484408786488857546e-01,1.333006979284124538e-01,1.129252194533333087e-01,5.008697696328407801e-04,4.148762039078132181e-04,4.999874231170828645e-03,1.268649846315383911e-01
2.550430263346369353e-01,1.512194279542084241e-01,1.267934488304370277e-01,7.962145813461708049e-03,2.427475281289488349e-02,-2.270362288016158220e-02,1.319708377122879028e-01
2.456227075268299642e-01,1.010728611833677099e-01,5.491132562379748283e-02,2.237977631153053107e-02,3.244106214109845898e-02,-4.234470272969736299e-02,1.993420124053955078e-01
2.430071326054571712e-01,1.351702781175996015e-01,1.119307915217002958e-01,1.588735334175897431e-03,3.660838084939136046e-03,-1.503727027307873035e-03,1.213651299476623535e-01
2.237497467245043725e-01,1.371908113825724973e-01,1.180231371130411044e-01,-4.418873675611856771e-05,1.550819563650114152e-03,1.917388967365463246e-03,9.765875339508056641e-02
2.322271198415553628e-01,1.425433231528410727e-01,1.256901796425454187e-01,1.977693238005653800e-03,7.169577076043868145e-03,-5.345169240947015253e-03,1.004505902528762817e-01
2.325901277754007235e-01,1.350345131544168353e-01,1.139350094257599311e-01,1.462521575848298562e-03,7.105143511996384704e-04,-7.076837119037928270e-04,1.096817925572395325e-01
2.326683888257728150e-01,1.388542803142013560e-01,1.147359283713637046e-01,2.949592979310155442e-04,6.046989417146019993e-04,1.523016651432683758e-04,1.079205796122550964e-01
2.294490158357238296e-01,1.360806587971963022e-01,1.133433733618812445e-01,3.701261716696755181e-04,5.241181277931528625e-04,-3.509042515983646737e-04,1.065794602036476135e-01
2.291937890060700145e-01,1.320874535003107864e-01,1.008740280180942250e-01,1.367887172907776778e-03,4.705503694925990653e-03,-6.314784171628896143e-04,1.162246763706207275e-01
2.299322931070442722e-01,1.353686837455356784e-01,1.101475307683665028e-01,1.257398100347420110e-03,2.526826736106330216e-03,-3.717842404690719586e-04,1.094883456826210022e-01
2.367871909098092364e-01,1.305085946605897274e-01,1.138983136316692457e-01,-2.413924674889286401e-03,1.651544018277586925e-03,1.819204807707640835e-03,1.156371533870697021e-01
2.423609721480708135e-01,1.373288935783536779e-01,1.096668246880137532e-01,2.312440709569392201e-03,4.729421170074598647e-03,-1.844575599626508159e-03,1.216375082731246948e-01
2.416926150439517307e-01,1.276295595921715653e-01,1.326069535277260569e-01,1.133224254439656794e-03,2.106654963678948177e-03,-3.510029140188906504e-03,1.118997111916542053e-01
2.478768094715441128e-01,1.325670706852914160e-01,1.318512566289587740e-01,3.271438618795231412e-03,-8.935183216480483033e-04,4.402756041773156839e-03,1.160691305994987488e-01
2.290319999131719131e-01,1.222208995713735258e-01,1.134003332029066696e-01,2.004432495403911038e-03,-3.397631442312371106e-03,3.958690463361848842e-03,1.119028478860855103e-01
2.374098796471944828e-01,1.039596944463901107e-01,1.244458551286946046e-01,8.993121089795736572e-03,-5.029801988895131123e-03,7.456583535650458151e-03,1.264123469591140747e-01
2.389780782664613079e-01,1.231575771851028955e-01,1.248405488970543015e-01,8.334278895664687468e-04,-8.832962043154414045e-04,2.134317269305046304e-03,1.150668859481811523e-01
2.455564039814879251e-01,1.269497020156835632e-01,1.262067977257284035e-01,1.214203299815179264e-03,-1.175192593523544798e-03,2.611418850144660731e-03,1.191018074750900269e-01
2.419576912116500333e-01,1.078415882883775601e-01,1.355499506908928176e-01,1.118462088392456477e-02,-2.443510072661520330e-03,4.492838347648711768e-03,1.244688779115676880e-01
2.411853585832856584e-01,1.226734695254099450e-01,1.246098756100441352e-01,4.149699141715304171e-04,-1.057993923520818107e-03,1.124202256169643151e-03,1.175882518291473389e-01
2.469729159172390776e-01,1.280803518664449248e-01,1.276709649732439278e-01,2.849998803537595908e-04,3.672521504759069491e-04,-4.620729620506052533e-04,1.191031932830810547e-01
2.521247834594292359e-01,1.315225656239525087e-01,1.327670095142719220e-01,2.887445012058482887e-03,-5.386009501975118352e-03,7.735008322911495100e-03,1.211936101317405701e-01
2.471517169512351675e-01,1.520160453857822558e-01,1.132401709320161320e-01,-3.042448091720395889e-02,5.231525218873481903e-02,4.501872476968036413e-02,1.769491285085678101e-01
2.932600123365456946e-01,1.418528286441715358e-01,1.266957737507528603e-01,-5.195848389645172337e-03,1.153473735568732832e-02,3.265139094693008531e-02,1.706670373678207397e-01
1.898822218695871977e-01,5.994926313429755488e-02,6.142359498862563771e-02,-5.111873638769210554e-02,4.935260801568221861e-02,4.432009586753694885e-02,1.942483186721801758e-01
2.451475983553958737e-01,1.316466955221161361e-01,1.275967853043661893e-01,-2.752643700716000778e-03,1.713885908009478865e-03,4.311322103594849957e-03,1.159561574459075928e-01
2.278982191790578371e-01,1.165665814887516805e-01,8.036921396093883729e-02,-2.474576992779520604e-02,5.523386481715834850e-02,3.424168597316750579e-02,1.795599460601806641e-01
3.578312635939731035e-01,2.022939408688899654e-01,1.704528938796986970e-01,-4.816375590065791884e-02,7.125464384098353920e-02,2.534384475466997313e-02,2.329721599817276001e-01
2.547330170578695485e-01,1.028816974793965860e-01,1.431858399874219312e-01,-1.152574853587865801e-02,3.353723964694026345e-03,7.089434232497043679e-03,1.383692920207977295e-01
2.348672614933146885e-01,1.164255829234734085e-01,1.282587993029603302e-01,-6.513342100633539786e-03,3.880829568769984805e-03,5.671092342555167365e-03,1.141746342182159424e-01
2.368101603373344299e-01,1.111348217688154227e-01,1.283224637255046818e-01,-1.280736828264395204e-03,3.142832517816595943e-03,2.902023180772520753e-03,1.182770505547523499e-01
2.361602845719847077e-01,1.116672446145410141e-01,1.353444938963729305e-01,-1.226522568935959397e-03,1.794130532283712883e-03,9.915261604791121564e-04,1.145800799131393433e-01
2.296626859692646461e-01,1.164047453553889166e-01,1.289780601907546953e-01,-2.942306663905396805e-03,3.169607899192857826e-03,4.728859532747627450e-03,1.080954149365425110e-01
2.142539707875638078e-01,1.431097699814686541e-01,1.371094637320916521e-01,-1.192197805843994186e-02,9.420432207444807277e-03,7.157920049927316529e-03,7.981684803962707520e-02
2.337554754640066845e-01,1.190664863237599902e-01,1.395177761435752173e-01,-1.091793211909041113e-02,2.208126530687026801e-03,3.526541399694194199e-03,1.078694686293601990e-01
1.871626785694061046e-01,9.827996694618357232e-02,1.241838188923219954e-01,-1.818961764736619011e-02,-2.292460770573338824e-04,-1.606493494768744057e-03,8.525976538658142090e-02
2.129653877176899690e-01,9.137153969966586853e-02,1.260119720040592806e-01,-1.659162466526907520e-02,-4.054385429095076938e-03,-2.383370731435805259e-03,1.125395968556404114e-01
2.124068959888346930e-01,1.394921318857463288e-01,1.247439857716945710e-01,-1.957820261775982274e-03,2.335891362431830303e-03,5.040879090036991597e-03,8.193612098693847656e-02
2.060622350007104975e-01,1.095256889065019668e-01,1.318155680650187622e-01,-7.577925137181399165e-03,5.536477205388315014e-04,1.970148479006804832e-03,8.859568089246749878e-02
1.908665704120413031e-01,1.269456309577898512e-01,1.378336747050416256e-01,-1.082971233541604565e-02,-2.078993928004458660e-04,2.134649704681667367e-03,6.224234774708747864e-02
2.547266392746231345e-01,1.084204532534496779e-01,1.465255349173209820e-01,-2.000066710221819546e-02,1.257229357234851755e-02,2.363043508818347613e-02,1.436382532119750977e-01
2.447226245733299665e-01,1.015971137561944987e-01,1.478626051961083043e-01,-1.865248589736045667e-02,7.460664489697426587e-05,4.666178928736779965e-04,1.305681914091110229e-01
2.643328047900960209e-01,1.172962752764622474e-01,1.462062562234726637e-01,-3.138883839315293237e-04,-5.906965020048102769e-05,3.139267988974165854e-03,1.350354552268981934e-01
3.760592282758197236e-01,1.162784330293558654e-01,2.079383825682251663e-01,-5.382764706605361847e-03,-2.035041943605883294e-02,2.288533681008222964e-02,2.344710379838943481e-01
2.322638621109457957e-01,6.738627414251217862e-02,1.754230282123560580e-01,-5.400392668032433924e-02,-6.603776148378014306e-03,-1.843251570586360022e-02,1.759064942598342896e-01
2.451063018747912103e-01,1.132866167542569968e-01,1.354988768570627999e-01,1.541556891693136562e-03,2.635232237866044075e-03,-1.651194351848026334e-03,1.223844066262245178e-01
2.324411711790254631e-01,4.657585752223275533e-02,1.095255643389724254e-01,5.469805796068241688e-02,1.939885857980811271e-02,-2.535956401715117395e-02,1.970845460891723633e-01
2.578728143996093514e-01,1.119594146270403989e-01,1.430066003493485061e-01,1.971803826233547996e-03,-2.395730491904429511e-03,3.334928470497916693e-03,1.333667635917663574e-01
2.423521720911471777e-01,1.096029599510789515e-01,1.376073909709907284e-01,2.869831813268038621e-03,3.781309721240252910e-03,-2.339573260690387853e-03,1.215444728732109070e-01
2.365737055299841907e-01,1.195815656649660691e-01,1.401830604779752965e-01,2.425086537661030623e-03,1.891613396223945035e-03,-2.468924358384839545e-03,1.083883494138717651e-01
2.542298320969440528e-01,1.128943491288780243e-01,1.330202945793966807e-01,-6.801479223937020001e-03,2.746452950443987540e-04,-8.942410152951904209e-03,1.338475644588470459e-01
2.353501914329718392e-01,6.301972047738595151e-02,1.173536610163306293e-01,1.934362819826896491e-03,6.791292156310040420e-05,-1.077244772513965415e-02,1.537723988294601440e-01
3.210950220312323578e-01,1.312755548425235674e-01,1.926629359719032597e-01,3.831998571803268451e-03,2.309199942164775945e-03,2.487228557951930066e-03,1.680057495832443237e-01
2.513516507525573318e-01,8.185628427199763413e-02,1.466674701288863680e-01,2.511671006180265370e-02,1.393626231467173966e-02,-4.098162799983418730e-03,1.564275026321411133e-01
2.083903448501089051e-01,1.337896691037784858e-01,1.366236229060869278e-01,-7.929112290614511935e-03,-1.763836616187313159e-03,-5.877438387604178374e-03,7.525593787431716919e-02
2.522679714731720924e-01,1.051862397629348134e-01,1.381476943995458007e-01,-7.681787083500263812e-03,2.507644121545014784e-03,5.010808402711773926e-03,1.346947848796844482e-01
2.955031347180088197e-01,7.611723367780585947e-02,1.886190088456398406e-01,-4.859700919368120653e-02,-1.889865838884158657e-03,3.433478113173884377e-02,2.161894440650939941e-01
2.192162623240071495e-01,1.806271756115473970e-03,8.157204594091731209e-02,-5.493632520938750846e-02,1.864882503328300911e-02,4.983567179841491557e-02,2.320256978273391724e-01
2.617379898218207268e-01,1.088226418169985915e-01,1.487108156372255185e-01,-6.248449853826601105e-03,2.713246870266478560e-03,7.787554482107253775e-03,1.385489404201507568e-01
2.719528582090511293e-01,1.172642463064443585e-01,1.443617834152633173e-01,-3.962014635445531945e-03,-4.754800791831138092e-04,1.191271365977257350e-02,1.447227448225021362e-01
2.913658213573895317e-01,8.022170428228311834e-02,1.494713555578933983e-01,-3.679972787446538201e-03,9.098980214706195099e-03,4.269498467072515256e-03,1.873482912778854370e-01
2.565468069092197156e-01,1.101435961210411318e-01,1.401162883792780867e-01,-9.963266302473198967e-04,-2.875493442261318078e-03,1.802749487321504088e-03,1.340958476066589355e-01
3.852591896030193586e-01,1.781570691885197288e-01,2.721472152666102318e-01,-6.622587993713069388e-02,1.508112684052169070e-02,1.781514371264972946e-02,2.169145941734313965e-01
2.767027439388806687e-01,1.025093034871668585e-01,1.336178612158860912e-01,-7.713440165355952248e-03,-1.636029411304004959e-03,2.340170036940230486e-02,1.664981395006179810e-01
2.606717858518757813e-01,1.134404091348893834e-01,1.458564870501979915e-01,-2.554544132287906062e-03,-4.784464490836682488e-04,-1.279269751594685773e-03,1.340909749269485474e-01
1.828097188698789288e-01,1.841521434018925374e-01,1.940311454792236212e-01,-5.927148434226942736e-02,3.770989031711270006e-02,1.220345227766393877e-02,1.239550933241844177e-01
2.347097664448323795e-01,1.292536736596203994e-01,1.182028660465610920e-01,3.171019572707276099e-04,4.120988769458864426e-05,7.520076335200810789e-04,1.114023625850677490e-01
2.387449800004028400e-01,1.310409182541914519e-01,1.203726746880187659e-01,1.088180858276115767e-03,4.111737363210319534e-05,7.503472222899654643e-04,1.134382486343383789e-01
2.242579931288440354e-01,1.248451132677517450e-01,1.192289625545166210e-01,1.481850124306397691e-03,-2.938456946427820543e-03,4.635827100897768789e-03,1.028092578053474426e-01
2.408800709816956709e-01,1.260887845876693947e-01,1.223607403623161866e-01,8.261770717061258339e-04,1.427049324545546854e-04,6.848069747142477258e-04,1.167150363326072693e-01
2.366833141314476641e-01,1.249022983403557940e-01,1.204077291514632775e-01,1.213441187804892784e-04,4.843989825770216788e-04,5.710764430324478643e-04,1.141022816300392151e-01
2.379908239427024064e-01,1.359090750187544328e-01,1.285139179130494747e-01,3.848175816131395657e-03,-4.921125459492220466e-03,5.484876311064424727e-03,1.069467738270759583e-01
2.383808856181278690e-01,1.143770767137893413e-01,1.305013879471857985e-01,1.041280190632067060e-02,-5.599463548671005167e-03,1.005308832694405685e-02,1.198332086205482483e-01
1.898770942683782881e-01,1.392588586232686443e-01,9.204172233131455161e-02,1.660618172336895178e-03,-3.518513225752077644e-02,-1.299336084029521299e-03,1.044463068246841431e-01
1.967973798362762650e-01,1.499094769309917141e-01,1.269527754542386644e-01,-6.563448379446781659e-03,4.297211466470012009e-02,-6.536557649588162038e-03,9.797500073909759521e-02
1.015762298263670621e-01,1.470701439682046696e-01,1.743059609962022138e-01,-2.941005836606241236e-02,2.522712850661757225e-02,3.557939920814462420e-03,9.269630908966064453e-02
2.394811782980397208e-01,1.245159079477994313e-01,1.247953319774958714e-01,2.786460742959950509e-05,5.830500223472783209e-04,1.575842188592108334e-03,1.148626953363418579e-01
2.019233697286018925e-01,1.303084090578877086e-01,1.259154518591916738e-01,-1.228231667909539075e-03,5.033473095231480801e-03,5.488658776112553990e-03,7.505672425031661987e-02
2.267848305852883939e-01,1.346645813700372563e-01,1.284232102303677348e-01,-7.220160379280668493e-04,1.890589474312604412e-03,5.192728920549782856e-03,9.588134288787841797e-02
2.264180948941882376e-01,1.320107071297057233e-01,1.135356490541935132e-01,-6.586970125357453085e-04,3.594078970308094406e-03,2.680108256741182624e-03,1.051659062504768372e-01
2.358520233598315752e-01,1.330875056191649364e-01,1.218122470038848354e-01,-1.838244605173831132e-03,3.706671086292728529e-03,2.958647623416626495e-03,1.091970279812812805e-01
2.313521906252578586e-01,1.705128431201240469e-01,1.290026071685098363e-01,-1.163138644669622565e-02,3.492480205462068776e-02,7.802802975416882857e-03,1.104433164000511169e-01
1.515421639869886372e-01,1.591620116640936333e-01,1.536405992411813137e-01,1.246748486760955628e-02,3.326483716146220321e-02,-2.985100551168733997e-03,6.212222576141357422e-02
2.330833974119608798e-01,1.294037975875225177e-01,1.035033415305753324e-01,-2.969493847751761284e-03,3.210145245515761553e-03,2.145316513409635962e-03,1.190664395689964294e-01
2.427234878004797536e-01,1.319734421221727405e-01,1.145972034704536013e-01,-2.091788441234150586e-03,2.159879336490682939e-03,3.039838806396097902e-03,1.206099912524223328e-01
2.379428856414504134e-01,1.283914384937377140e-01,1.161334349584024622e-01,-2.174142838720698797e-03,1.763154233942741981e-03,1.376161516607391725e-03,1.162920817732810974e-01
2.192494493812493506e-01,1.236709864714451712e-01,1.085217051406534017e-01,-1.220908308190619268e-02,1.467216383547818512e-02,1.144195672467268436e-02,1.108983606100082397e-01
4.229309173979148850e-01,2.778695122701454467e-01,1.501955818839041390e-01,6.726761932171896469e-03,-1.477387806100483904e-02,-6.202767401668727448e-03,2.382645159959793091e-01
2.510781096550582792e-01,1.419202107287364512e-01,1.077198908628323459e-01,-5.496114558060675656e-04,-1.404056265282858278e-03,-2.785313833228618354e-04,1.297127455472946167e-01
2.539388474785527761e-01,1.389676730793561465e-01,1.163487103227596742e-01,2.723599228824543240e-03,-1.634912820934894583e-03,2.828144563994168959e-03,1.280030608177185059e-01
2.583522569230789490e-01,1.501765847315745805e-01,1.145117680383504338e-01,-1.726503046606573093e-03,-2.276094219980020084e-03,1.104078504368923019e-03,1.298466920852661133e-01
2.400728282336334896e-01,1.622488622008182724e-01,1.664270094395497723e-01,-2.526800672060634800e-02,2.757137720943575107e-02,1.516425841348659556e-02,1.031246334314346313e-01
2.079607566121656759e-01,1.246347922196037183e-01,1.414449425970076835e-01,-3.388261843757535679e-03,-1.269027164385446490e-03,-7.192044154392925395e-04,7.658915966749191284e-02
1.981720092522896992e-01,1.428466398707715912e-01,9.392190216358786703e-03,4.642356000212359037e-03,8.446214768568255371e-02,1.249471274562823954e-02,2.240289598703384399e-01
2.418904268660840573e-01,1.370036089250432909e-01,1.097922523262899741e-01,2.074677111333295479e-03,2.690935790149348930e-03,-3.722060353827590616e-03,1.211280822753906250e-01
2.417103127440563548e-01,1.261795317611112688e-01,1.243703193028137532e-01,-2.262422323158768019e-03,1.618091096381510949e-03,2.517654255790958105e-03,1.166270971298217773e-01
1.787223633914960808e-01,8.521305918563408521e-02,8.309251625214669756e-02,-4.240755737425328659e-02,4.702682565396681252e-02,3.096344945990505901e-02,1.544433683156967163e-01
1.436022528335320070e-01,1.125517549316105009e-01,1.072652560660703608e-01,-5.604661387828698688e-02,5.427300739425144904e-02,1.316527249876383275e-02,1.411968469619750977e-01
2.854168918056373960e-01,1.229354442294418037e-01,1.615804395645829838e-01,2.891097385107196591e-04,1.704854155892914251e-03,6.557751735690234111e-03,1.474874317646026611e-01
2.475414695670575815e-01,1.237793406802852186e-01,1.373232128096507354e-01,-6.415450805925717280e-03,3.949667927766582765e-03,5.600057942942716395e-03,1.186955720186233521e-01
2.593736421295252392e-01,1.375613084507308070e-01,1.335409339244654769e-01,4.484247317647369687e-04,-4.636303388496033559e-04,4.981934602605191803e-03,1.241766735911369324e-01
2.487324914100653150e-01,1.106817787411747550e-01,1.391256380647941104e-01,-2.826194470634933124e-03,1.855850221939032508e-03,1.582673971767686871e-03,1.264205873012542725e-01
2.485155459269921541e-01,1.173119185628468814e-01,1.250849105996257871e-01,-2.206414318162609398e-03,3.148094489521250511e-03,5.305935838599840949e-03,1.279990673065185547e-01
2.505916527219101408e-01,1.284189295236982109e-01,1.341112714132396966e-01,-1.058564972656558063e-03,5.003220238146689714e-04,4.444067266965851665e-03,1.196933165192604065e-01
2.569420438269112705e-01,1.204298943680867928e-01,1.376211220822688985e-01,-2.306169542467214652e-03,9.470510707055942350e-04,4.977680474426629011e-03,1.291405111551284790e-01
2.131286874632923323e-01,1.107776100422229459e-01,1.189051363970408809e-01,-3.297315449727875481e-03,4.271142680667720445e-03,4.265309528531669066e-03,9.925654530525207520e-02
2.386882340617688114e-01,1.242131161956533253e-01,1.174395655990550236e-01,-2.094834872887136983e-03,6.589001016563021066e-04,1.536939420922348596e-03,1.180990710854530334e-01
3.033561937814106546e-01,1.835469967899980015e-01,1.584247128095319646e-01,1.631480172168067386e-02,2.690038560629535308e-02,-2.096111711344322143e-02,1.492741405963897705e-01
2.494370376403216572e-01,1.206786524226841212e-01,1.265219867390667829e-01,2.121951477417104235e-04,1.120588263991229320e-03,-3.189760384841962369e-03,1.260750293731689453e-01
2.432542827095668936e-01,1.235825093524677842e-01,1.197760205005120038e-01,-7.137623018340160178e-03,-8.653789746977919028e-03,-1.252426627462354530e-02,1.250576823949813843e-01
1.838300384799156639e-01,1.118656147854672767e-01,9.985895335674734030e-02,2.156580823897028681e-02,3.168962536200293362e-02,-1.446410310460989265e-02,1.059371083974838257e-01
2.452489421501695688e-01,1.276032942296338180e-01,1.236198000795892399e-01,1.061908639703946795e-03,5.127848289147488676e-04,-1.077549072574219115e-03,1.197190955281257629e-01
2.384985967410385155e-01,1.232118954236427200e-01,1.212255739938000731e-01,7.097059907184508900e-04,4.010557509263520124e-04,-6.676119244802339314e-04,1.163069084286689758e-01
1.797796380396819438e-01,1.116347465991780752e-01,1.261191216906534240e-01,-1.316360828356738163e-02,9.570991268288735676e-04,-7.393802101104406414e-04,6.626248359680175781e-02
2.399055285126676651e-01,1.165918676465378112e-01,1.288507496560463983e-01,-1.742659491418484816e-03,-2.599731788326318377e-03,-1.768361727357681008e-03,1.178287714719772339e-01
2.476801113824463330e-01,1.172462282987049992e-01,1.352827282457741143e-01,-1.445113238551715964e-03,-7.784561901992153882e-04,-4.160073902202045953e-03,1.226610913872718811e-01
2.473975943494887697e-01,1.257940118540274710e-01,1.263595091811010318e-01,6.406684395148631156e-05,-1.069837877267372592e-03,-2.085432643073202672e-03,1.213897764682769775e-01
2.444278155223231219e-01,8.479649966126291682e-02,1.297137300451359221e-01,1.175567368244075789e-02,3.593150790704145638e-03,-7.068350933048905653e-03,1.446814537048339844e-01
2.329047281836515437e-01,1.072958903153967553e-01,1.353758968887426306e-01,-3.073455126076068532e-03,-1.135929700772622371e-03,6.954699610931817293e-05,1.143293231725692749e-01
2.806063620565183991e-01,1.184853203664878452e-01,1.469540536036565981e-01,-5.423283432873310861e-04,-1.031028444719770537e-02,-2.224285377523351967e-02,1.558279246091842651e-01
2.321369753377006129e-01,1.150240521135607458e-01,1.290709982824990998e-01,-7.715860793877405387e-03,-4.203323803073144571e-03,-6.526440333420075075e-03,1.123702153563499451e-01
2.497777593144830388e-01,1.192625459241515307e-01,1.370959640044190631e-01,-2.167082387242641028e-03,-1.194348897102733920e-03,-3.905184734491533478e-03,1.228366345167160034e-01
2.313886693921066717e-01,1.388317139531555777e-01,1.367278077113576462e-01,-4.674729189981719456e-03,-6.709874524447431016e-03,-7.220058127560623207e-03,9.551420062780380249e-02
2.430220938977446787e-01,1.146445496938761355e-01,9.674999544149145980e-02,-7.010323303025711890e-03,-1.305132369445251989e-02,-2.122945352925207155e-02,1.452886164188385010e-01
2.407758558672256632e-01,1.368571466560270511e-01,1.020976394408443094e-01,5.412427648102053832e-03,-6.989044651329618524e-03,1.770194375695095801e-03,1.259496212005615234e-01
2.602208242843869757e-01,1.424506691531056135e-01,1.205447136913469497e-01,8.908504845396672837e-04,-3.155231141772801601e-04,8.986377231882897252e-04,1.301331967115402222e-01
2.488227414112001712e-01,1.394696907211035453e-01,1.094084151183116749e-01,2.735217551888243295e-03,-3.359863436807803729e-03,3.087686921959039137e-03,1.274126172065734863e-01
3.039681208856492844e-01,1.850517581575209791e-01,1.353806090597195477e-01,-7.939701655588930762e-03,-2.191840314478715745e-02,-5.360575296768108587e-03,1.556650549173355103e-01
2.907252016166007591e-01,8.075844384388229658e-02,1.440679217323492245e-01,-8.545485419876900843e-04,-1.151814430469005369e-02,-3.670008074474843170e-03,1.877281069755554199e-01
2.601027269943178566e-01,1.100920722001759861e-01,1.525237347183234782e-01,-1.645612408748596458e-03,-1.626241661492981976e-03,-1.795075157395612311e-03,1.340304613113403320e-01
1.668695246354960915e-01,1.404404478871307538e-01,1.360808428027528161e-01,2.426667236145371893e-03,-7.207581202218697747e-03,-2.551947484369202022e-03,3.202770277857780457e-02
2.356289809770244492e-01,1.310317535445339743e-01,1.173679460971027572e-01,-3.784507496304828286e-03,-7.076908854445303383e-03,-6.157478107631651071e-03,1.134170815348625183e-01
1.969575391238282125e-01,1.445083179100332682e-01,1.267091122833670092e-01,-5.981941809923076690e-03,-1.552510208191461467e-02,-4.126419732785734963e-03,6.987708061933517456e-02
1.843746974400338468e-01,1.524043321122169892e-01,1.462066235709280904e-01,-5.013727995752125660e-03,-5.623413965840292142e-03,-1.393518281979733891e-03,3.787829726934432983e-02
1.932190022028267007e-01,1.481063249578805641e-01,1.388503962490280075e-01,-3.715180730691646296e-03,-1.756308430908339220e-03,-3.347697072657502583e-03,5.121199414134025574e-02
2.371499662931128571e-01,1.744158446862826839e-01,1.271335537500216106e-01,-2.029076234650462138e-03,-7.363902147293781286e-02,-2.186202851983992321e-02,1.638649106025695801e-01
2.216563221276431628e-01,1.191891150161576846e-01,1.249402758654247769e-01,-3.403622059902727988e-03,-1.266591037587003459e-03,-6.376753705151166386e-03,1.005229055881500244e-01
2.152255788816203053e-01,1.172313757997568429e-01,1.233738513237578605e-01,-3.303477299794597283e-02,2.326228885828105636e-02,2.328435159807151419e-02,1.247495114803314209e-01
2.567467150493170092e-01,1.212396099514959913e-01,1.548809666458131340e-01,-1.305484226920838528e-02,5.019524543260602337e-03,3.386928707218546733e-03,1.247259452939033508e-01
2.296085212250758845e-01,1.159575192206717120e-01,1.249510163403234342e-01,-3.987502457061140211e-03,3.036086504685690281e-03,4.564207513389663060e-03,1.100598201155662537e-01
3.021456206908864073e-01,2.012168272346862574e-01,6.134535671112437138e-02,3.163427557045982164e-02,3.374376282032440222e-02,-3.509788468388024690e-02,2.323389798402786255e-01
3.677945918671171599e-01,1.915385699579790213e-01,1.013608402013629339e-01,1.965570542610308238e-02,5.868874536442432455e-02,-1.984785978815185176e-02,2.603200674057006836e-01
2.446637500491804229e-01,1.829359532247455122e-01,1.547100065884413067e-01,1.213329647849095867e-02,4.172758572332998378e-02,-5.767690956355817251e-03,1.100653186440467834e-01
2.671644527674324476e-01,1.570385935266287725e-01,1.146698722027932327e-01,-2.458056083734338603e-04,3.821982725927992874e-03,1.614109951319352577e-03,1.365303099155426025e-01
2.339057881831105579e-01,1.390028236147326235e-01,1.098219973988889958e-01,1.109665507405033918e-03,3.162947684120138731e-03,-2.071821500859208874e-03,1.125789657235145569e-01
2.847862335614661511e-01,1.690133059795054238e-01,1.154063656900617824e-01,4.010101799398161498e-02,3.772378577138526395e-02,-5.371268576639807307e-02,2.005791366100311279e-01
1.906837956817601376e-01,1.375646117378255262e-01,1.444602749503005601e-01,1.766618017645647798e-02,-1.370069195099750219e-02,4.939562343303750651e-03,6.383974105119705200e-02
2.202153108447142127e-01,1.378888823421856313e-01,9.530396636031494839e-02,4.612039842915856974e-03,4.079340598008700941e-02,-1.737642772506542421e-02,1.343834847211837769e-01
2.186578795334027103e-01,1.224383229505776050e-01,1.266854865003259889e-01,1.367853885295594032e-03,2.452427609410868202e-03,-6.677691591847396968e-03,9.500006586313247681e-02
2.219242481672558387e-01,1.480780124353613947e-01,1.593292201948733888e-01,3.083405788648446375e-02,2.126429091034468324e-02,-1.749289328832619866e-02,9.937670081853866577e-02
2.291873650254728778e-01,1.243611615713284824e-01,1.462747482306552549e-01,2.335720876076229253e-03,1.562370112899186519e-03,-2.319810851898954432e-03,9.597632288932800293e-02
1.334757563838929739e-01,1.166354216125249643e-01,1.217284783339034754e-01,5.316684967292572422e-02,-3.269699051037506382e-02,1.996395230552883496e-02,1.144852265715599060e-01
1.880258450651686175e-01,1.355434499061908271e-01,1.499800809060148343e-01,3.861194004899453757e-03,5.022452063364523864e-04,1.376409351163605235e-03,4.750069230794906616e-02
1.888049140139995696e-01,1.189549464181752642e-01,1.352101930815026998e-01,1.100670606048035488e-02,-1.233212082524814479e-03,2.168618561161280833e-03,6.625659763813018799e-02
2.037069002999342404e-01,1.040867078583491701e-01,1.218029508232955499e-01,1.542390640618035956e-02,-6.429934100629789220e-03,7.574461956776577451e-03,9.738066047430038452e-02
2.435084768270783795e-01,1.249532387527779453e-01,1.165742827829979872e-01,-1.530746072819132598e-03,1.278953813738145217e-03,2.300540737556369068e-03,1.230720728635787964e-01
2.437781782394312091e-01,1.348729297600035348e-01,1.154109464308152588e-01,-3.701276437435169122e-03,2.982023872302835745e-03,3.384675368367559729e-03,1.202529743313789368e-01
2.489103935438730097e-01,1.349460069872657209e-01,1.157775173399442636e-01,-1.574373783525466735e-03,1.527955988323192712e-03,2.289778654422877126e-03,1.247798353433609009e-01
2.406264109846065202e-01,1.199943370817838362e-01,1.191931979522704299e-01,-2.127309551048250404e-03,2.194857077717785043e-03,3.039935346380961360e-03,1.212647259235382080e-01
2.406860245309180857e-01,1.233981492844363204e-01,1.261865940699740118e-01,-2.097912827574596045e-03,3.224121353789943887e-03,3.822639668757278793e-03,1.162987351417541504e-01
2.498196373925183067e-01,1.337758480402004568e-01,1.205005511996950079e-01,-8.357288073215439180e-04,8.904354429493764730e-04,1.519534910417205936e-03,1.232652068138122559e-01
2.467960411102821938e-01,1.129289330279064502e-01,1.314196336456685543e-01,-2.236065767248284625e-03,2.295383842294156096e-03,3.804218310605117850e-03,1.259413957595825195e-01
3.014204076814329669e-01,1.283320455780131431e-01,9.372353301483134225e-02,-2.673799254639544487e-02,8.707028916191905665e-02,5.106664304378339542e-02,2.643095552921295166e-01
2.585018640564882841e-01,1.307220758570750152e-01,1.127656534131316335e-01,-2.074144577671187262e-02,1.950512279779463218e-02,2.274239194616443568e-02,1.514205932617187500e-01
2.921979798823584051e-01,1.742857824584496118e-01,9.138963325895037293e-02,-8.294900230228665142e-03,1.489463454725508664e-03,4.928869726765375964e-02,1.950659453868865967e-01
2.404854719259588991e-01,1.165682423707457560e-01,1.088011135007050378e-01,-4.197091453867213794e-03,3.883073549707317332e-03,9.469845688769374173e-03,1.294040381908416748e-01
2.506807512003360605e-01,1.366948216407729566e-01,1.190630400041742115e-01,-1.431087242677432344e-03,4.481042924322504138e-03,7.091574479071906072e-03,1.246222332119941711e-01
2.347807250774723575e-01,-3.930067562449771068e-02,9.239310551629875690e-02,1.778563852749633209e-03,-2.018439411270827634e-03,1.339851108075160169e-02,2.385986596345901489e-01
2.658149227022818528e-01,1.544085294492705540e-01,1.134415989943509118e-01,5.256903420199159592e-03,1.159328034291556321e-02,-8.237117386419350040e-03,1.390802562236785889e-01
2.403994692650136822e-01,1.300238286630251983e-01,1.122794133511463288e-01,2.739741523673145177e-03,2.032530850944077629e-03,-3.745666387882974364e-03,1.205537244677543640e-01
2.049915154611368084e-01,1.370935069271394524e-01,1.342887109840632531e-01,1.679100208511165662e-02,3.174481979292063938e-02,-1.194354647738407084e-02,9.542224556207656860e-02
2.499828414343491234e-01,1.398251498882654986e-01,1.050894385992481028e-01,3.953252742442525842e-03,5.418699568246344855e-03,-2.933662067931029800e-03,1.316376924514770508e-01
2.576813542787702582e-01,1.305003750884808911e-01,1.372354042230773674e-01,1.363457469205919337e-03,2.493058291061139419e-03,-5.141819271197407143e-03,1.243677288293838501e-01
2.243485144289540378e-01,1.321908076090773931e-01,1.326763686587184576e-01,-3.613820514039686044e-02,2.033931034058260312e-02,9.941726061724380503e-03,1.179152950644493103e-01
1.945043243755643081e-01,1.386963746374537121e-01,1.457765130922852870e-01,-2.962097436415516479e-03,5.450526879678548563e-03,4.226796904068033656e-03,5.420859530568122864e-02
2.021337753436232010e-01,1.750228344052194851e-01,1.852963943525712809e-01,-3.933074066195194063e-02,1.043679996631242946e-02,3.297388324239469964e-03,7.457978278398513794e-02
1.759358175047144868e-01,1.174494929702082358e-01,1.294609802304493851e-01,-1.513004016946776012e-02,5.012073363450891481e-03,3.637725259832444262e-03,6.053292006254196167e-02
1.960335442534182904e-01,1.186838440285641616e-01,1.270112836615742147e-01,-9.303474960343038544e-03,1.858084951889664828e-03,6.053578222579409328e-03,7.607993483543395996e-02
2.032242317439883761e-01,1.315232460835318029e-01,1.256659863464422711e-01,-2.088658816553512921e-03,5.742044476936365369e-03,6.619901128543401701e-03,7.641191035509109497e-02
1.772095077748630509e-01,1.174685885553670012e-01,1.134988055050430572e-01,-1.719241920984264371e-02,2.586336421497251875e-02,1.330447220447641445e-02,8.512579649686813354e-02
2.263642128862026759e-01,1.544225956146280387e-01,1.570540767027397422e-01,-2.372182150035075793e-02,2.529783544674530510e-02,1.596865027090205169e-02,9.677973389625549316e-02
2.127798576852256707e-01,1.257993789668171436e-01,1.275152641031417899e-01,-9.683810942161624052e-03,1.071224272728851790e-02,6.845545358795406335e-03,9.047358483076095581e-02
2.471058370727164943e-01,1.109541458180833273e-01,1.366684099378568384e-01,3.690187371016599108e-03,-2.309711484336395525e-03,1.090446676489477840e-03,1.255304366350173950e-01
2.532694079211661453e-01,1.098022990222467243e-01,1.397572454259464469e-01,2.092638349696512162e-03,-3.723850816039304609e-04,1.124390465918387056e-03,1.311484128236770630e-01
2.753129613971713185e-01,1.271492492632584903e-01,1.833748960390361171e-01,3.716751437487154225e-02,-5.759640001601551255e-03,1.130993148422651355e-02,1.463241130113601685e-01
2.345337697559003176e-01,1.093496410592160323e-01,1.290952720244719631e-01,2.916775223588113659e-03,-3.494659823105665877e-03,3.163369697344198522e-03,1.169670820236206055e-01
2.424814053324417795e-01,1.416343095249148476e-01,1.183785907656765279e-01,2.842293333743664292e-03,-7.394136856981078053e-03,4.128140486046690504e-03,1.153066232800483704e-01
2.201122614235895003e-01,1.171994561643752431e-01,1.255570166221079420e-01,2.207469653102620694e-03,-2.037752695498716224e-03,4.693479356312766151e-03,9.946837276220321655e-02
2.509987109332294519e-01,1.082102155948012900e-01,1.420901112318165849e-01,1.622867124600300623e-02,-1.735826120663913315e-03,1.670203811947148283e-03,1.323112249374389648e-01
2.428685100113654460e-01,1.134449668106558839e-01,1.336398617142290912e-01,2.811613640981093423e-03,-3.201921150267649386e-03,3.242078460817001545e-03,1.209570094943046570e-01
2.598255739341099324e-01,1.743134016171769274e-01,1.708660169902220805e-01,2.914833774618248025e-02,-3.067569715907543862e-02,1.859146412632528902e-02,1.184390485286712646e-01
1.838724020866231434e-01,1.192036814377244458e-01,1.224901576633438405e-01,-8.896733016873915878e-03,-7.443766675973777919e-03,-6.653374500366219906e-03,6.720713526010513306e-02
2.471502604449922480e-01,1.305049999767763924e-01,1.136570517826359372e-01,-1.703502738415825632e-03,2.343975811253485274e-03,4.371629403578491946e-03,1.262447088956832886e-01
2.274683532125919283e-01,6.533555804080906637e-02,7.374847104926987584e-03,-1.758821510337387969e-02,3.043736235060735124e-02,4.556344013736641357e-02,2.213125228881835938e-01
2.492016534830917840e-01,1.121752710822520038e-01,1.314192961019713113e-01,-2.024422610561163103e-04,7.746294498577628975e-04,5.173381441976646587e-03,1.288093030452728271e-01
2.506450977187468787e-01,1.226543613298979873e-01,1.277829521768053811e-01,-1.287683722467895375e-03,7.719486314951019270e-05,3.080235329468463106e-03,1.256382763385772705e-01
2.566223407732634021e-01,1.109362727018932682e-01,1.440661197285052486e-01,1.222706484355379425e-03,1.259191895456767600e-04,1.030095492775244190e-03,1.322995722293853760e-01
2.411714064590506079e-01,1.103400744052138449e-01,1.377172120753113460e-01,3.337552909059599872e-03,-2.122314181939816656e-03,1.243189905995225686e-03,1.197335571050643921e-01
2.319118181734355078e-01,1.065076322761923100e-01,1.429998687485080910e-01,1.434599090739568233e-02,-6.662883892959878436e-03,5.515350588157371357e-03,1.154273599386215210e-01
2.691269762445492875e-01,1.118386245870672396e-01,1.504476670315327280e-01,2.223565096462561466e-02,5.838229391645021436e-03,-5.115022578952528598e-03,1.477211862802505493e-01
2.536951914817748843e-01,9.288047788695544260e-02,1.347032817365255986e-01,8.004619743030986709e-03,-8.666728193110470602e-03,1.021266422298740262e-02,1.470212638378143311e-01
2.548916080878721457e-01,7.749572054669084942e-02,1.523676864743546966e-01,-8.460386690192030126e-04,-5.134171153842304221e-03,8.780808834235230564e-03,1.552599966526031494e-01
2.526226716227765734e-01,1.136543356951404266e-01,1.609987167759192039e-01,3.904510043532253422e-02,-1.374314413666717985e-02,1.449881631382319604e-02,1.440317630767822266e-01
2.179641828708382689e-01,6.393362451884104791e-02,2.859415653691846360e-02,-2.541891628019247312e-02,-3.775278062392779105e-02,-5.070260374229448169e-02,2.105803638696670532e-01
2.431004430995017396e-01,1.273113772025100121e-01,1.090690400300142887e-01,-3.033446162191261262e-03,-2.331396457890375692e-03,-3.784350139718830382e-03,1.262498646974563599e-01
2.445604718873219396e-01,1.243075894802939257e-01,1.263442643221895922e-01,-3.060969758134891427e-03,-1.401284014510575287e-03,-4.143367684159368278e-03,1.196055561304092407e-01
2.374342799517755731e-01,1.296572826992815342e-01,1.126246836718102218e-01,-3.110503298883105904e-03,-1.557883770553330702e-03,-2.363972450551309577e-03,1.174511983990669250e-01
2.564602850486338292e-01,1.399376793820070741e-01,1.203111181213617348e-01,5.479030022256028152e-04,7.878151839130029688e-04,-3.625220434439811127e-03,1.276395171880722046e-01
2.504139323363489544e-01,1.233724733465422357e-01,-1.140517123916184872e-02,4.190349131870680505e-02,3.731442252639967372e-02,-6.085758551162886304e-02,2.682957947254180908e-01
4.193762844345130247e-01,2.051824685981761542e-01,1.504272124429626989e-01,-2.720112455285898616e-03,4.175620479697732951e-02,-3.470961129588220895e-02,2.635765075683593750e-01
2.393494231347690904e-01,1.166244177675822696e-01,1.391142258331393711e-01,-1.257657825740001682e-03,-9.073903881736090308e-04,-1.024531380481675863e-03,1.132144927978515625e-01
2.436239844502882113e-01,1.245867694654849700e-01,1.054047590696608611e-01,-6.370802725376897824e-05,4.354130809679620986e-04,-6.679554241048534305e-03,1.302137076854705811e-01
2.448259056499110242e-01,1.269671128110756997e-01,1.031280683408117294e-01,-2.751361427890535848e-03,-6.893699276896688398e-03,-8.442346455516894915e-03,1.328447759151458740e-01
2.766183966713874343e-01,1.504417872519329957e-01,1.115122210840295836e-01,2.420887283359021008e-02,1.955101401058803243e-02,-5.993900559751140500e-02,1.898184269666671753e-01
2.347754662936791248e-01,5.724339437344745651e-02,6.099258468192776672e-02,2.418631248365286576e-02,2.571644079410599637e-02,-5.149948833854069846e-02,2.063046842813491821e-01
3.618612322971042072e-01,1.275158942386106775e-01,1.937728893338205582e-01,4.449217018581979460e-02,-1.803530092298272561e-03,-2.387696365676195490e-02,2.268026769161224365e-01
3.007834154125376136e-01,1.081259745214692425e-01,1.410626758148529059e-01,1.869226693439749939e-02,-1.293175427374727675e-02,2.865690023057845467e-02,1.893931478261947632e-01
2.431291287265743561e-01,1.427295332577681319e-02,7.563639344867492675e-02,-3.207201940732449640e-03,7.862222222076312508e-03,5.022943786857144571e-02,2.233439236879348755e-01
4.021685156973336950e-01,1.390377023321791028e-01,1.850939167786077033e-01,5.763942141657827506e-02,7.168748258595645725e-03,4.295913724952764301e-02,2.736745178699493408e-01
2.756185377879185605e-01,1.338069381756971099e-01,1.727478990307981799e-01,9.285599143029651947e-02,-1.402758334094494040e-02,1.854817826585595034e-02,2.087912261486053467e-01
2.424510147602957633e-01,1.057215205558342530e-01,1.358465673323405731e-01,4.045851190581471225e-03,4.089680001458256310e-03,-2.731462097065880112e-03,1.249205991625785828e-01
2.270458117151677446e-01,1.128835870112174788e-01,1.337477408422718395e-01,4.723848421233969690e-03,1.977961247443628823e-03,-2.842938199813932910e-03,1.057797521352767944e-01
2.000879435763493197e-01,1.029467722459338486e-01,1.454282581309777056e-01,3.400280602354480847e-02,1.501503312055834857e-02,-8.521468918666104050e-03,1.071314811706542969e-01
2.545244818208975413e-01,1.091029087877041226e-01,1.413151623621910491e-01,3.354488564194427810e-03,4.995694297700461681e-03,-4.029884246816546438e-03,1.328836083412170410e-01
2.472333503066568294e-01,1.123980849739830840e-01,1.197521927461353830e-01,2.337039749327786748e-05,-7.123672621993757011e-04,-1.178513906898431308e-02,1.328955590724945068e-01
3.359347971319199266e-01,1.561740063699928738e-01,1.232504833062713356e-01,1.445096808193924338e-02,5.492610850344895046e-02,-6.244620975470888125e-02,2.463573962450027466e-01
2.454942571770514226e-01,1.301806163547507555e-01,1.122790100821613735e-01,2.316942350879464593e-03,2.300670355522079977e-03,-3.296478732041018770e-03,1.254854053258895874e-01
2.482589399986296352e-01,1.303441260261137824e-01,1.220234380914497901e-01,2.779296064177775400e-04,-4.147889286361762843e-04,-2.142786514890446508e-03,1.223470121622085571e-01
3.003093095432646242e-01,1.570483653096008125e-01,9.955384587232848914e-02,-4.421037046128805802e-04,-1.137255243588028604e-02,-2.248192418884064833e-02,1.843120753765106201e-01
2.313646433334713426e-01,1.390355604027478931e-01,1.159189219668498305e-01,-3.626207538289252065e-05,-1.068393670266158712e-03,1.819601463986752186e-04,1.058154255151748657e-01
2.316977358318136060e-01,1.292321568730642189e-01,1.154517279022171106e-01,1.874711284793429767e-03,-1.585326676141512970e-03,1.578826244998012300e-03,1.101211905479431152e-01
1.957078860322994940e-01,1.427613321912468980e-01,1.378116591667662427e-01,3.025681696701565913e-03,-4.421012718241986057e-03,6.058835957408742826e-03,5.732480809092521667e-02
2.248343360176189853e-01,1.340710687426828474e-01,1.110749359123825442e-01,-4.324403255332762250e-05,-2.724260986734712651e-03,-1.332962984914232022e-03,1.043148934841156006e-01
2.304851411296421348e-01,1.372281857467995969e-01,1.148336230090719751e-01,2.322033396174392865e-04,-5.404775046368077464e-04,-4.403942161532060505e-04,1.062470898032188416e-01
2.295183292623344529e-01,1.352141737041172298e-01,1.136299968110304204e-01,-1.508377623633079458e-04,-1.730372574658885785e-04,-8.445876008768187838e-05,1.067464649677276611e-01
2.004827435899583787e-01,1.273007558500575120e-01,1.072149895250618934e-01,4.710930221605755773e-03,-1.577656878264745502e-02,6.217188635628731301e-03,9.032274037599563599e-02
2.305085274379675142e-01,1.369411717925985705e-01,1.154758914896771571e-01,-1.806005742705433896e-04,-1.136121424668895454e-03,4.799733392877790993e-04,1.059656515717506409e-01
2.334885244814328131e-01,1.387145246218627337e-01,1.148512867358616740e-01,6.144317899749523419e-04,-4.272459610126943912e-03,1.592948941571490111e-03,1.089802086353302002e-01
1.897092046198797233e-01,1.816642524698344197e-01,1.784712210740638794e-01,2.349296500617329558e-02,-1.561295657181087371e-02,2.759487929269200789e-03,5.010489374399185181e-02
2.352807925643984333e-01,1.313152930086449732e-01,1.172443154637574925e-01,1.211834787362975991e-03,-6.530571919462290582e-04,8.771090413477365894e-04,1.117036566138267517e-01
2.575093624536637371e-01,1.707425996994093031e-01,1.419506190601436124e-01,-1.474284288003317039e-02,-4.309055879666789934e-02,-1.805495664627129043e-02,1.343727111816406250e-01
1.675191649600550892e-01,1.393258128685535835e-01,1.541735173755416355e-01,1.457997392162341949e-02,-1.411837136008880882e-02,5.273798488412306806e-03,4.377058148384094238e-02
2.692966300187004114e-01,1.600124289329770966e-01,1.683480767230725039e-01,3.054796006396006194e-02,-2.631803286523111754e-02,1.809122691432095420e-02,1.302339881658554077e-01
2.172646657422102612e-01,1.258600134686047312e-01,1.310038999307966412e-01,1.766988237667572407e-03,-5.033920525880529115e-03,5.961899500273515860e-03,9.001730382442474365e-02
2.016281537834033188e-01,1.295360378903842036e-01,1.233639088498315606e-01,2.140659306132484865e-03,-6.309009403924266401e-03,5.948893469942570338e-03,7.693929970264434814e-02
2.136051671246098349e-01,1.463367548487840009e-01,1.277115339164433816e-01,2.779547344819752012e-03,2.055103229966310716e-03,-3.432043073738631593e-03,7.871475070714950562e-02
1.912295168272676871e-01,1.456491978381835861e-01,1.230070134118329828e-01,1.731400839071493836e-03,1.166686478885066262e-02,-3.012945433909517204e-03,6.377182900905609131e-02
2.023696369481239876e-01,1.282794376546735893e-01,1.194548841442475001e-01,-3.141666093466002289e-03,4.394751872345658943e-03,8.017272085076789997e-03,8.063141256570816040e-02
2.146605215884027362e-01,1.458918595169613752e-01,1.294544039245033862e-01,-2.142809957336913596e-03,3.889774894803707615e-03,3.307076120455287611e-03,7.887760549783706665e-02
2.211119267640960784e-01,1.354528182102020806e-01,1.179382518213969444e-01,5.218565686915083938e-04,1.737466479076647721e-03,2.710784992341226055e-03,9.579375386238098145e-02
2.240661417253788368e-01,1.415590260899018960e-01,1.215649386939361420e-01,9.350448527176738163e-04,1.094320050180613672e-02,-4.778003712244602991e-03,9.637019038200378418e-02
2.286148461487635397e-01,1.412305739580551056e-01,1.211955528830528095e-01,2.665759967418984515e-03,1.310948394112059975e-03,-1.731391707497540247e-03,9.911420941352844238e-02
2.013426118317713787e-01,1.052675391411264927e-01,1.255144458582406197e-01,-1.595283688330480926e-02,-6.685034554553538795e-03,-6.354886991480526715e-03,9.334792941808700562e-02
2.064295175304187713e-01,1.234033350898506992e-01,1.397911372093874616e-01,-3.567158517872163950e-03,-3.768918293590259614e-05,3.153249308719437822e-04,7.641837000846862793e-02
2.583436200450504039e-01,1.188401954125269250e-01,1.406622945052399543e-01,9.683201394377647514e-03,-3.192664515715889703e-03,1.450739897254357466e-02,1.335530579090118408e-01
2.369477809519869860e-01,1.345701302321204162e-01,1.194284054111226789e-01,7.176710290400241388e-03,1.281779593219894119e-02,-1.115956036033828591e-02,1.152459979057312012e-01
2.455105280142672042e-01,1.291232992832058168e-01,1.243207469455060166e-01,1.228309449609014644e-03,1.931168238547523077e-04,-1.347969583287324333e-03,1.189037263393402100e-01
2.404528184693648929e-01,1.228648153397638720e-01,1.191880531412603528e-01,3.770272368410293017e-03,2.186706464612785377e-03,-2.292319308946666554e-03,1.197729259729385376e-01
2.444870532621133408e-01,1.176933849966145945e-01,1.228119852894214992e-01,5.829557479225346873e-03,5.454800981864124827e-03,-6.281362393360745422e-03,1.255524158477783203e-01
2.406219723068925009e-01,1.296098807107427808e-01,1.109371297187822514e-01,2.879617255178242800e-03,3.374640693553527474e-03,-3.077572129669676245e-03,1.217896267771720886e-01
2.415671619418799931e-01,1.322427505218086441e-01,1.164845138038561462e-01,2.550629971135788109e-03,2.024087979278244801e-03,-3.300700049372205271e-03,1.182683408260345459e-01
2.171269285116366188e-01,1.363232682084604963e-01,1.257992765933431678e-01,3.211636800089425620e-02,1.991797501028948550e-02,-1.637013258076708277e-02,1.121555492281913757e-01
2.357724149510694311e-01,1.141667908656794073e-01,1.277990123218203378e-01,1.306090107248111852e-03,2.283320313560738713e-03,-1.399164155528225982e-03,1.155103519558906555e-01
2.408819942240337242e-01,1.245379688116837746e-01,1.241279884122204746e-01,1.159360728232492380e-07,1.967643010823708560e-04,3.084488663613701889e-04,1.165512800216674805e-01
2.392590037757955646e-01,1.230248144058289778e-01,1.229181193491560853e-01,-4.182196618492165473e-04,1.981456920225102808e-04,3.095142665492716869e-04,1.162915751338005066e-01
2.405745366395073137e-01,1.234660096633807130e-01,1.242962324289348108e-01,-2.312465796623454416e-04,-1.335682650219805352e-07,3.022894317400403306e-04,1.166974902153015137e-01
2.394722198613340458e-01,1.236032837734227785e-01,1.250908856352713483e-01,-2.878387168915658091e-04,-1.617188046110594327e-04,7.115183820046760066e-04,1.151403561234474182e-01
2.400095939258191924e-01,1.234557115848658737e-01,1.217154447811586437e-01,-8.258341449885504707e-04,2.184340596475020690e-04,7.122291527390634631e-04,1.174494847655296326e-01
2.362698021322029995e-01,1.206225415433598014e-01,1.192473020770462855e-01,1.997857222860042532e-05,5.503602812137783473e-04,4.229300074243603526e-04,1.163471937179565430e-01
2.706025129320587252e-01,1.779219557564449550e-01,1.389374435563916488e-01,-1.270078103408587948e-02,-3.367379966502351274e-02,-1.409372991474137048e-02,1.349228918552398682e-01
1.273861728692527451e-01,9.164845037746549572e-02,3.830917878103842766e-03,-1.912328805187107775e-03,-8.060871937751133698e-02,-7.025984442006512863e-03,1.782690733671188354e-01
2.036621340939193670e-01,1.495155442688813341e-01,1.189082664756180019e-01,-1.247397870147820900e-02,-8.712372381135037591e-02,-2.829771797529062952e-02,1.765407919883728027e-01
1.300331428082887875e-01,7.423266823092877775e-02,2.919866069181126234e-03,-1.903206296084229698e-02,-7.613838617193828540e-02,-1.638356000850712743e-02,1.773741245269775391e-01
2.452426868166210916e-01,1.435745099173503514e-01,1.112996565219513956e-01,-4.965246252669728872e-04,-3.644868217356746209e-03,5.985439259802859704e-05,1.212436184287071228e-01
3.893267788169408883e-01,2.581218103687160093e-01,1.567214145110918944e-01,-8.785753000852892722e-03,-4.843280250793190883e-02,-1.812785182745804344e-02,2.214851081371307373e-01
2.558219489110220568e-01,1.341260459452657261e-01,1.131540589928938523e-01,-3.666420057157796387e-03,-2.386885237710299681e-04,-5.387138892618444953e-03,1.339010298252105713e-01
3.786367859511443057e-01,1.859750604149503772e-01,1.277323475757834448e-01,-2.628349373513902063e-02,-2.392320747943570830e-02,-2.903455171751869943e-02,2.409363687038421631e-01
2.623963544969078465e-01,1.216753513277786386e-01,9.814179601768328876e-02,-1.560142858617738146e-03,7.446461516784573173e-03,-3.269555247496912231e-02,1.644644141197204590e-01
3.342765777695806406e-01,1.732259543607643781e-01,1.592059189248093143e-01,6.256196575610783323e-03,1.453637396256443094e-02,-3.148287439442377933e-02,1.792111992835998535e-01
2.542068838596355795e-01,1.359914489528152304e-01,1.093669515335881359e-01,2.898841280651001662e-03,5.137743304601979227e-03,-7.336864229243704981e-03,1.345253437757492065e-01
2.596281755588144557e-01,1.193313270135116233e-01,1.375147054196224627e-01,1.373913723141189877e-04,-8.305009495713587932e-04,5.072048360964401606e-03,1.324464976787567139e-01
2.414856159679714120e-01,4.666386153365495448e-02,1.462440299133209443e-02,-6.728130343804428204e-03,-7.041285826199388843e-03,-6.588194051774660942e-02,2.419294565916061401e-01
3.355007339565148072e-01,1.783592893887183672e-01,1.446751344324336275e-01,5.318537026074948541e-03,1.918241390587606399e-02,-5.974307965278730093e-02,2.074070721864700317e-01
2.211680856038625020e-01,5.231226517145481231e-02,5.087297772321951184e-02,1.850011542135446274e-02,3.323300834327692910e-02,-6.240983095666228359e-02,2.116185575723648071e-01
2.807223692813118898e-01,1.667506092582822230e-01,9.586455828285893321e-02,-4.076757227270987743e-02,-3.449249380487025285e-02,-4.824914109102588361e-02,2.040404975414276123e-01
3.024863169675733321e-01,1.421031854570070918e-01,1.157372884040751698e-01,8.942592851679089308e-03,2.397146291449674463e-03,-2.658465833360144914e-02,1.817248910665512085e-01
2.418548953309902771e-01,8.761204331248320654e-02,1.121186341928906705e-01,-2.136516053993262694e-04,4.739458455858742460e-04,2.058312213002612065e-02,1.479299515485763550e-01
2.314023245735871703e-01,1.322118219502426695e-01,1.142889676650781505e-01,1.623090987100196984e-04,-2.378597825458560373e-04,9.273480372987621002e-04,1.092730090022087097e-01
2.304344653772926188e-01,1.321975733491985161e-01,1.134184420837332230e-01,4.707856575592543743e-04,-7.027489282080216218e-04,1.708598489774635753e-03,1.088983491063117981e-01
2.364763912690255876e-01,1.355107326537414170e-01,1.174850670893557714e-01,1.281659452346802040e-03,-4.719829953909697039e-04,9.061749651069334315e-04,1.111171543598175049e-01
2.381792369310611335e-01,1.420910238033345208e-01,1.223383574033679866e-01,2.248342691451042218e-03,-2.959201043984066668e-03,3.225681528170743894e-03,1.076743304729461670e-01
2.380200840730671841e-01,1.400101971835081838e-01,1.144969131939475304e-01,1.076818645671232411e-03,-1.342050351536545113e-03,9.722076434649259795e-04,1.130006089806556702e-01
2.372023365536787831e-01,1.329753507200809870e-01,1.118512361661905263e-01,2.110281014903938636e-03,-1.172558125790894388e-03,1.127360116320461937e-03,1.163292452692985535e-01
2.223974672225417226e-01,1.142161290150950081e-01,1.142004447725881999e-01,2.900356287504833944e-03,-2.946645399244904404e-03,5.310546780155659015e-03,1.088153868913650513e-01
2.319484748626441384e-01,9.800404596135488255e-02,1.249234634602935240e-01,-1.027624194479757717e-02,4.459874429523710826e-03,2.958889756002517236e-03,1.243495047092437744e-01
3.518924452891076249e-01,1.104892384920963810e-01,1.818340886212564678e-01,1.058996789021655373e-02,-3.195216007426494864e-02,3.709574438508386751e-02,2.316684424877166748e-01
2.253137542749840128e-01,3.267716817527414885e-02,1.155076272202432142e-01,-4.388572340554557777e-02,4.482671496502750076e-03,1.435611518857686855e-02,1.856610029935836792e-01
2.607816283281513270e-01,1.379969932382907882e-01,1.746983528746925141e-01,-3.554482743732279015e-02,8.439426573103704990e-03,6.022308154955691162e-03,1.266075521707534790e-01
2.668739365741158442e-01,1.325800868094735574e-01,1.618173272480638858e-01,-2.650187303782667800e-02,1.313154721547156630e-02,2.026222898011006968e-02,1.371834725141525269e-01
3.247636030424764231e-01,1.492209235039899384e-01,1.790865946906091410e-01,-5.968790305734095192e-02,2.191179418060597989e-02,2.539460710902040688e-02,2.013143450021743774e-01
2.835217557195709448e-01,1.612162765176374246e-01,1.616628262344477762e-01,-2.777207026580050253e-02,2.624566814570045495e-02,2.294978332858842868e-02,1.444460451602935791e-01
2.326316387341537673e-01,1.197064946675444747e-01,1.364366243789585931e-01,-4.178644642114627326e-06,-4.334763025320188270e-04,2.109722795539220076e-03,1.056250408291816711e-01
2.577068030400045950e-01,1.101059813462449549e-01,1.461805763012169190e-01,3.425994742112340244e-03,-1.048485202935333293e-03,7.963388957231187825e-04,1.334284543991088867e-01
2.360737086456715372e-01,1.171883887840403371e-01,1.354160847694123315e-01,1.629608827752000895e-03,1.415509399467429963e-04,1.052462405441967211e-03,1.109518483281135559e-01
2.277371554304509771e-01,1.105651086006295830e-01,1.331986992080884391e-01,3.305776138932456538e-03,-4.552011657297923243e-04,7.269260403664425281e-04,1.078171357512474060e-01
2.395374075927609314e-01,1.215772016330922967e-01,1.237287343152044250e-01,9.614777053716121635e-05,-5.586017019352359971e-04,6.714518413901324721e-04,1.169091984629631042e-01
2.356510239619735714e-01,1.179242649767543727e-01,1.390001274458933234e-01,1.079624916655189202e-03,-3.518624412804396387e-04,6.865527025168899258e-04,1.087560132145881653e-01
2.214413941105073946e-01,1.151916997510335078e-01,1.343015705190900577e-01,9.972574939744087777e-04,-1.406898806015774049e-03,2.651777870533258454e-03,9.825367480516433716e-02
2.653200814913416750e-01,1.222398027803300036e-01,8.614609119646564339e-02,-3.262370675261989234e-02,-3.310571666753815007e-02,-3.264232349806080874e-02,1.913543045520782471e-01
3.284557037977982041e-01,1.849513792154335867e-01,1.239454690790581515e-01,2.850614022634874022e-03,-3.685569031098030746e-02,-5.721401519133454544e-02,2.167707532644271851e-01
2.618472138268992389e-01,1.881999372933833570e-01,7.595481104981187392e-02,-4.039225405709304388e-04,-4.203739675927072039e-02,-1.933311871328378950e-02,1.808664202690124512e-01
2.834076035386368653e-01,1.316361475877489140e-01,7.059274024254397206e-02,-9.307734179782339856e-03,-1.497816688980186522e-02,-3.914114479918919670e-02,2.038493156433105469e-01
2.526889285069526814e-01,1.339772770684425907e-01,1.193085235307882463e-01,4.358381943218110535e-04,-5.092375229849273842e-03,-9.652518341463609680e-03,1.280892640352249146e-01
2.596622469701553859e-01,1.222131839282178667e-01,1.296318578000774102e-01,-3.317850054318903768e-03,-6.863211013248050364e-03,-8.341770437255086393e-03,1.353169679641723633e-01
2.536303627614093226e-01,1.303265579604949431e-01,1.271694077642959164e-01,8.465946845192257996e-04,2.990886930342984400e-03,1.064145914015308600e-02,1.263795644044876099e-01
2.435759534031212148e-01,1.416771775636139208e-01,1.102625878159155248e-01,-6.638479156664378166e-04,3.417275874446889464e-03,4.210928500551451700e-04,1.208645179867744446e-01
2.502358423957623534e-01,1.895907274259349129e-01,1.383471997478636917e-01,-3.213804433138120215e-03,3.503827438870759509e-02,4.683847453147072480e-03,1.148531287908554077e-01
2.016500680471245421e-01,1.178138385711256508e-01,6.055494466301193646e-02,-5.983885063160950847e-03,2.989065259438578384e-02,5.755907932817256809e-03,1.341440677642822266e-01
2.492666571400801168e-01,1.416810068663876543e-01,1.070784596416278489e-01,-3.238400353438092381e-03,5.464315047554174111e-03,1.294590716451016763e-03,1.289217323064804077e-01
2.345545113883666377e-01,1.349018369450027399e-01,9.882293583064835629e-02,-2.037038435145712215e-02,2.082913184845224322e-02,2.165563328664397297e-02,1.370438486337661743e-01
2.491681909270182793e-01,1.446932071239036277e-01,1.131749684181257432e-01,-2.338826088882509785e-02,2.525605231167670633e-02,1.695148104640228914e-02,1.400642096996307373e-01
2.020516956907822681e-01,1.338922497971263836e-01,1.124498317770604716e-01,-3.608934494315512841e-03,2.379447935610359485e-02,4.251864842516497704e-03,9.142664074897766113e-02
2.537755180051705639e-01,1.465879087757130661e-01,1.109835738336815980e-01,7.879236375327183795e-03,-1.506268668648582873e-02,8.555036562561471603e-03,1.328896582126617432e-01
3.880069075154608527e-01,1.348450141717227602e-01,1.388723349731606771e-01,7.035556972971659072e-03,-2.585952810578756329e-03,5.452888434337974100e-02,2.686565816402435303e-01
2.890030821598983946e-01,1.505236939756610104e-01,1.053859813161973080e-01,2.126148549129010593e-02,-2.399951533631324019e-02,6.740818955322622208e-02,2.101910412311553955e-01
2.520727077116891035e-01,1.399789949766291342e-01,1.080435384865469500e-01,3.167444515859472055e-03,-3.582411075497035895e-03,3.274157041984645990e-03,1.313978582620620728e-01
2.565516724230582635e-01,1.322798732616653761e-01,1.357886419340873785e-01,-4.359612186701412482e-04,4.101427842598098761e-04,5.455353187755902430e-03,1.229231804609298706e-01
3.584110852747171005e-01,1.750138306380540631e-01,5.766018385948393221e-02,1.696229423868863065e-02,-2.178690021236309032e-02,1.168915821506716357e-02,2.676300406455993652e-01
3.029002569756422680e-01,1.757339422936773921e-01,1.216068042810345279e-01,8.518911325244442377e-04,-3.006619632983461741e-04,1.975995183844760777e-02,1.647967994213104248e-01
2.165858139650582159e-01,1.336248783644326810e-02,2.153562637201691249e-02,3.416742775073660504e-02,-2.570601982799203267e-02,6.545742232944967709e-02,2.409236580133438110e-01
2.423515078393357891e-01,1.219837684233873593e-01,1.150817364700795070e-01,1.862585523594731743e-03,-1.035926867110899523e-03,3.325879051913791309e-03,1.241516172885894775e-01
1.849238196561591718e-01,1.134995962386263352e-01,1.655924242532126889e-01,-8.227610623026707093e-02,-9.106654819298154110e-03,-1.859765558950808931e-02,1.602775007486343384e-01
2.200152224267054590e-01,5.662533868822748617e-02,1.086634179337343103e-01,-4.515098761812764983e-02,-2.392325549792987532e-02,-2.893293743905948900e-02,1.767650097608566284e-01
2.131333512446530465e-01,1.065241542088423699e-01,1.367613878416299167e-01,-5.130876677648802536e-02,-5.604144927003355120e-02,-3.090692817384000160e-02,1.710019260644912720e-01
9.483921926821890780e-02,4.820799591761196906e-02,7.715440444352140992e-02,-6.516266229071569771e-02,-4.308397338920307018e-02,-2.287955984030521153e-02,1.467657536268234253e-01
2.216753904235282402e-01,1.272774111677226205e-01,1.319125038027525454e-01,-1.888921508623166590e-03,-2.976397722139730809e-03,-4.904470749935887879e-03,9.275969862937927246e-02
1.746258322107640815e-01,1.305551245629071599e-01,1.597944507395373248e-01,-3.146603005732222236e-02,-2.975066851930913570e-03,-8.729024686844598716e-03,6.880436837673187256e-02
2.236068342531242759e-01,1.305036974511173120e-01,1.254390042857040366e-01,-1.978120414434161780e-03,3.654260790645232331e-03,6.233470572221921392e-03,9.661134332418441772e-02
2.215397753606774267e-01,1.180323207269497465e-01,1.266815981268052116e-01,-9.030360615496472662e-03,6.606634559688941144e-03,6.897021632521837566e-03,1.020374000072479248e-01
2.363249759267321837e-01,1.443659204025000975e-01,1.358572662143219811e-01,-5.106529090171233604e-03,1.495286404373512507e-03,6.162610127515028707e-03,9.752017259597778320e-02
2.128817675980472779e-01,1.212481950894920973e-01,1.237489480032227807e-01,-1.881556995032789611e-03,4.671400466055190999e-03,5.740296232410062316e-03,9.137150645256042480e-02
2.358555328774415427e-01,1.236091830080331966e-01,1.363387742501646904e-01,-1.139612722670037227e-03,1.122711857570992495e-03,4.538691157575882110e-03,1.067797392606735229e-01
2.214691327354443295e-01,1.264617661449231878e-01,1.179267471967933162e-01,-1.956763610317816936e-03,2.636246905467233385e-03,5.583328202829722017e-03,1.001797989010810852e-01
2.312425554424571983e-01,1.297438665201990360e-01,1.197655691690434898e-01,-8.720137405652175896e-04,1.214486116106640659e-03,2.892573165975258122e-03,1.069866418838500977e-01
2.326444964400261051e-01,1.139228074961968346e-01,1.287942105192698417e-01,-1.803512614864766477e-03,1.713962505053801379e-03,1.380217786212153313e-03,1.121370866894721985e-01
2.088536973472308877e-01,1.411947542189710691e-01,1.238473911073923739e-01,-1.114606140469818070e-04,3.094489061964583385e-03,3.307071862577101728e-04,7.798372209072113037e-02
2.405600695205377948e-01,1.398138120708808385e-01,1.150628094080297370e-01,2.428377321073073736e-03,9.479197735746370049e-03,-3.850037414578179242e-03,1.165663599967956543e-01
2.066610649411611267e-01,1.768899652053312899e-01,1.573759148744626746e-01,1.850192899367549687e-02,3.435322249193836081e-02,-1.252348671948294058e-02,8.298180997371673584e-02
2.214561467810283735e-01,1.094933732305621576e-01,1.045477685114735295e-01,1.031310654200214526e-02,1.278243425936980912e-02,-1.223051120762123738e-02,1.198826655745506287e-01
2.260802981018623092e-01,1.047188608023474354e-01,1.289731801192673388e-01,-1.046183619783656524e-02,3.335237757391647673e-03,3.377995516312848334e-03,1.130012646317481995e-01
2.335772013872277619e-01,1.070952660043765770e-01,1.322859227589752440e-01,-3.016695553321059337e-03,2.882824010361410057e-03,1.212069640158834876e-03,1.162012368440628052e-01
2.424236419586903168e-01,1.115231481743741704e-01,1.371544520141131929e-01,-2.805342148269184856e-03,2.531066972075570864e-03,1.139616461931406083e-03,1.203473210334777832e-01
2.424203187729087883e-01,1.109673126671544413e-01,1.348763021210598323e-01,-2.488004297218563820e-03,1.566310223370987950e-03,8.553196062198487352e-04,1.213950142264366150e-01
2.481331840467282390e-01,1.311293923284780893e-01,1.141037876641280563e-01,-1.108678278652610412e-03,-7.804213941617631255e-04,-3.778715194086450235e-03,1.265708059072494507e-01
2.571160144633219957e-01,1.357925280072938834e-01,1.195512805673528134e-01,2.484142550315844491e-03,-1.214173654138712630e-03,-5.381021963157267204e-03,1.306270062923431396e-01
2.518007046869353283e-01,1.307451688359273778e-01,1.150013127748449326e-01,-9.372342864078348455e-04,9.755493011641967307e-06,-4.435303049441138498e-03,1.298839598894119263e-01
2.455201633385222793e-01,1.310913128786954096e-01,1.135725800171434596e-01,-2.410553013216314069e-03,-1.840859854259085156e-03,-3.087826770343926348e-03,1.243451610207557678e-01
2.522575437076859384e-01,1.277462227427395847e-01,1.005956929934885558e-01,-3.914826492127511208e-03,-1.361690921061602631e-02,-1.905298410218336444e-02,1.459864974021911621e-01
3.710974170322671739e-01,1.460439803781968804e-01,1.000421084372604130e-01,-3.630944884272876289e-02,-1.374946165534126664e-02,-5.222339824575986111e-02,2.753583490848541260e-01
2.952433173449078296e-01,1.598192362927599308e-01,1.158184577400050430e-01,-5.599478600545008435e-03,3.795885772396894852e-03,-1.206465765969519030e-02,1.637329310178756714e-01
2.475498792191934694e-01,1.156908401657225083e-01,1.342697392947311275e-01,1.647145305586701809e-03,-2.522114384204452754e-03,2.906979029005089202e-03,1.238335967063903809e-01
2.536839356713297411e-01,1.123083230556185252e-01,1.481506961961255309e-01,4.297998659234809025e-03,1.279713319530739789e-03,6.991901799996349132e-04,1.275394111871719360e-01
2.393752289683307166e-01,9.281806317199588208e-02,1.346128145120652209e-01,1.454831436609894772e-02,2.484670496931589648e-03,-2.405246586027609892e-03,1.333091109991073608e-01
2.530435459630727135e-01,6.846863954227959403e-02,1.326569816780535094e-01,-2.067660904023955332e-03,-2.548905536852404726e-03,2.599258885982638073e-04,1.623976677656173706e-01
4.237818112875401111e-01,1.638693223619326067e-01,2.326820743838853012e-01,3.996324667350714677e-02,-1.855567670024770369e-02,4.449328643996725702e-02,2.572304010391235352e-01
1.912571206021899672e-01,1.207848650958138204e-01,1.362986282488259648e-01,-5.882949587285259650e-03,-5.518595829438624825e-03,-7.430657117466123868e-03,6.689216196537017822e-02
1.180219056865080413e-01,1.697525995322177739e-01,2.034093824494525304e-01,-4.066010713036918162e-02,-7.743450741369854208e-03,-4.034668644846199810e-03,1.036261767148971558e-01
1.006221055075216114e-01,1.196548453921088967e-01,1.786651641935896040e-01,-7.168294606880896980e-02,2.661573693665260192e-04,-1.307624259780740608e-02,1.445548385381698608e-01
1.599605230849372450e-01,1.922560246699891451e-01,2.086044859824634501e-01,-5.247740044037462609e-02,3.015825432672051415e-02,8.892349292982409297e-04,1.132732033729553223e-01
1.715419848967088823e-01,1.282026403732789421e-01,1.293064585071902750e-01,-4.671703802356871188e-02,-4.855391370278762386e-02,-3.667209059293018852e-02,1.395926177501678467e-01
2.987218962494939678e-01,1.885227546138265042e-01,1.277952493925201549e-01,5.452179653994509295e-03,2.644986372940719838e-02,-1.416956097765998670e-03,1.572189182043075562e-01
2.320924794043761619e-01,1.232250990170555283e-01,1.154418396530002555e-01,-1.465159788832770538e-03,1.087003901142656387e-03,7.114353827601970805e-04,1.130112037062644958e-01
2.355842242785156360e-01,1.244491666291490661e-01,1.180089724420943786e-01,-2.644142042187010329e-03,1.330132357654405370e-03,2.043494457060490450e-03,1.146604493260383606e-01
2.171789535289813666e-01,1.264307393989632933e-01,1.030577868327247348e-01,-2.174567469581639278e-03,8.183473383841342527e-03,2.294058551148820454e-03,1.055152565240859985e-01
2.182670348722143827e-01,1.270040056759983160e-01,9.447687210431063298e-02,-1.333626787517710631e-03,1.532319046022560458e-02,3.386319371608792397e-03,1.144535616040229797e-01
1.103418282007526119e-01,1.144386674410163146e-01,1.196193182058060966e-01,-1.584216549390657369e-02,7.872219714346368261e-03,3.232887583933900626e-03,3.217204287648200989e-02
2.455171672815647521e-01,1.356959104879588707e-01,1.142974692935925241e-01,-2.792401519606821456e-03,1.021156526814085037e-03,1.672553404144440153e-03,1.220799684524536133e-01
1.297229238004418694e-01,1.584109650311204542e-01,1.593943395602054891e-01,1.754979531943057225e-02,-2.613555710860082995e-02,6.650374631586999192e-04,6.186030060052871704e-02
2.088371725507222054e-01,1.733015177080897418e-01,1.140013881298193449e-01,-5.048371445520446338e-02,7.313268198430464273e-02,1.370148536157039104e-02,1.764673739671707153e-01
1.800416063574190040e-01,1.249243082676029376e-01,1.145721441492771192e-01,-6.650951188958671191e-03,7.464279248509107269e-03,8.265319319258550290e-03,6.496510654687881470e-02
1.860897154832571732e-01,1.362974094071201236e-01,1.182234918437060078e-01,-2.069462160797597779e-04,9.567042164853482855e-03,2.826802805798676703e-03,6.328165531158447266e-02
1.487337807010818969e-01,1.181274635925006200e-01,1.248394643243300600e-01,-1.307093071781456096e-02,8.056665017435548195e-04,-5.110553648290142807e-04,3.593948483467102051e-02
2.410328636102652133e-01,1.441349445146702102e-01,1.167706631867357348e-01,-9.667398290202851340e-04,9.316782399381686591e-03,3.109021586852640708e-03,1.143755316734313965e-01
2.466100242968245482e-01,1.251679949060273134e-01,1.120944637370840796e-01,6.670783777159819579e-04,5.103811736861896351e-04,-5.476598795833031476e-03,1.288365423679351807e-01
2.489969633938968752e-01,1.287428274678757423e-01,1.281361830149712333e-01,-2.736156027572247767e-04,2.283609924818183706e-04,-1.424525180907645037e-03,1.205854266881942749e-01
2.455785494928729995e-01,9.722743783656695449e-02,1.216401990103660735e-01,3.414731764213788014e-03,4.277330154069683421e-03,-1.835925102291710923e-02,1.417160183191299438e-01
2.826999921085108780e-01,1.123139778375718822e-01,1.176464623145389438e-01,7.961521119883298650e-03,1.214661505590876496e-02,-2.747010025411562167e-02,1.762039959430694580e-01
2.527417229600854021e-01,1.351591985469335344e-01,1.216348190102630039e-01,-3.309160896227710110e-05,3.788804550388820674e-04,-1.857570577343200385e-03,1.249382868409156799e-01
2.287749239380518773e-01,1.135317722209965019e-01,1.154145540547695525e-01,4.105390585761264574e-03,3.780765082920188678e-03,-4.061854241488684243e-03,1.149369031190872192e-01
2.480486746778446938e-01,1.301801493324352132e-01,1.220654657566986601e-01,8.083157873178857880e-04,9.414384570073206122e-04,-1.953037416273600141e-03,1.221939623355865479e-01
2.582732768263846790e-01,1.361169925690550730e-01,1.344546475456096513e-01,7.792843023679529293e-04,3.244176352329238467e-04,-7.702619290075129674e-03,1.237259730696678162e-01
2.372210702943360339e-01,1.200653626046505607e-01,1.244019936595007481e-01,2.212882253708639926e-04,-1.753999259485468061e-04,-5.986440096169027159e-04,1.150544211268424988e-01
2.415043421355720366e-01,1.236915286469458808e-01,1.226556219239667289e-01,-1.396518280941292333e-04,-6.838068194403944646e-04,-5.397192640837928388e-04,1.183440312743186951e-01
2.420760761149410023e-01,1.245416018996273327e-01,1.248187446441488824e-01,-5.990840156279386665e-04,-2.139048913590492484e-03,-1.421458842729521159e-03,1.174849793314933777e-01
2.415084201296954780e-01,1.249628577339199770e-01,1.232091551999477952e-01,3.608461648540644753e-05,-5.862606018757433781e-04,-6.971958160819463320e-04,1.174428537487983704e-01
2.390814939068496570e-01,1.191152054753982642e-01,1.268452186142450810e-01,-7.802744857364774791e-04,-1.156484021838367644e-03,-9.233212080592437211e-04,1.163302138447761536e-01
2.415634093404289140e-01,1.219254689394632662e-01,1.264375248040068012e-01,-5.149925795197050427e-04,-1.284826359392292599e-03,-8.582285947956036628e-04,1.174808070063591003e-01
2.380350762260831643e-01,1.235578864511157338e-01,1.236223339637152197e-01,-6.959790448797448844e-04,-4.992986995650661565e-04,-1.296737485779117516e-03,1.144766286015510559e-01
2.362434827128966353e-01,1.201096731749169283e-01,1.239378203832783576e-01,-2.832043407327798352e-04,-8.309691195320306279e-04,-6.825734320345113685e-04,1.142840683460235596e-01
2.333010305819970265e-01,1.242556599316839427e-01,1.204150902504939058e-01,-2.264299110047316745e-03,-1.809443115531051294e-03,-3.284045027836313309e-03,1.112744212150573730e-01
2.440016993058694572e-01,1.058699751095355801e-01,1.392154382789176359e-01,4.794048629696853227e-03,8.715841225426138690e-04,-6.652193461362110446e-04,1.251350492238998413e-01
1.904316186334755190e-01,1.534209177211599551e-01,1.400024411298007310e-01,4.891406433272732848e-04,-3.780405503943150367e-03,-1.392591420697893395e-04,4.571788385510444641e-02
2.595901689415888169e-01,1.129266741389407663e-01,1.508813654975667273e-01,3.496965083724392753e-03,-2.019079535162262120e-04,4.026963191873958827e-04,1.319904029369354248e-01
2.524036870500514507e-01,1.108397729043592017e-01,1.457792226990780593e-01,4.329494708996612859e-03,-1.274371218191201055e-03,-1.650806276738741240e-04,1.279692500829696655e-01
2.413689085273894586e-01,1.039393647268412602e-01,1.383383691475021937e-01,6.157979860814002601e-03,-2.993511201227287786e-03,4.819977892365491750e-04,1.244350224733352661e-01
2.185489942406106945e-01,8.136208698255181782e-02,1.303637682238859008e-01,3.409132327883954844e-02,-7.338397583519865866e-04,4.420103236350810330e-03,1.343350559473037720e-01
2.400260410719505799e-01,1.034540615402503028e-01,1.363333417053024244e-01,4.734197731935870304e-03,-1.097382736695508678e-03,5.143314797685956527e-04,1.237505897879600525e-01
2.390780606842148603e-01,1.112566985049844859e-01,1.407437116525369625e-01,4.664060789942850102e-03,-1.338068864319467326e-03,3.138898289869700826e-04,1.162309870123863220e-01
1.735850826559350857e-01,1.139227364413094024e-01,1.144413577377839941e-01,5.469681608911849263e-02,-4.732682649829847432e-02,4.292580476492367791e-02,1.573261171579360962e-01
1.321001073404057258e-01,1.059659274615283586e-01,5.092598744566783492e-02,1.577355296993554132e-02,-7.344993141587374819e-02,7.116807407543353399e-03,1.491101980209350586e-01
1.416985141812115989e-01,1.103336584885653143e-01,1.078563863951432777e-01,4.186476123476685907e-02,-5.551263908978663203e-02,1.501423230179009007e-02,1.274629533290863037e-01
1.603172482047799663e-01,1.419898864225689061e-01,1.300998862057280436e-01,8.232391798433991159e-03,-1.732261395614478894e-02,-1.109142711829533496e-03,4.245471581816673279e-02
1.658659436496689177e-01,1.306118392175700527e-01,1.111726118089275683e-01,2.197189127026138739e-03,-2.978621864473887659e-02,5.168976476340385144e-04,7.059028744697570801e-02
1.850671729280973232e-01,1.213589043249913985e-01,9.252148520365380269e-02,-3.540416660345611748e-03,-2.160261700076625269e-02,-3.829838482712339190e-03,9.060434997081756592e-02
1.863247803305719541e-01,1.340958362313339480e-01,1.187063170071069595e-01,3.885772545197401667e-04,-1.076337675548597397e-02,3.520196262790178682e-03,6.444887071847915649e-02
2.490162938374485546e-01,1.482676151281489829e-01,9.362893654008538902e-02,7.616285295423443936e-03,-3.565286343851292727e-02,1.870229201326138388e-02,1.538739353418350220e-01
1.467805388504368758e-01,1.408550853531722047e-01,1.397170536174499600e-01,-5.229232849180542181e-03,-1.394266203177702869e-03,-1.045365529490527518e-03,1.158854644745588303e-02
1.582867828677035349e-01,1.569892295923306369e-01,1.384177850362270923e-01,-2.231044537814355980e-02,-1.913332308016267233e-02,-1.998052409794913442e-03,5.453601107001304626e-02
1.362604890034826155e-01,1.548277823655488938e-01,1.361046128469985406e-01,-8.176032867498897547e-04,-1.988140931894001248e-02,1.016558011845224759e-03,3.922473266720771790e-02
1.419968346727894237e-01,1.123232915027302103e-01,1.136861068139348452e-01,-1.501583436746700695e-02,-1.828734711695614162e-02,-7.653502147797785690e-03,5.193623155355453491e-02
1.667530649076062743e-01,1.863081720973131516e-01,1.752083158091634341e-01,-7.251753153387664221e-03,3.123616502883364704e-02,-2.321512397921844315e-03,5.822006613016128540e-02
1.856851012039201498e-01,1.222182390852975531e-01,1.391322637936069917e-01,2.693092614681298624e-02,-6.350889425553412140e-03,3.164580294006809520e-03,7.461579144001007080e-02
1.630701337896131031e-01,1.590414340532365634e-01,1.579179310117995449e-01,1.860718405376224479e-03,1.695760892803799789e-03,2.991103523910344959e-03,8.238486945629119873e-03
2.299094464157156459e-01,1.241701001730709103e-01,1.049321239158222396e-01,1.509118234162254435e-02,2.209396604638585657e-02,-2.030325669985185918e-02,1.302668303251266479e-01
1.481973284211356712e-01,9.872057783539982256e-02,6.931322285862068222e-02,-2.764264149815258420e-02,6.007740096936026175e-02,2.628355901121110297e-02,1.412813812494277954e-01
2.945908682285803826e-01,1.741018629900949466e-01,1.238707779327795633e-01,4.437221507532148994e-03,1.360783516554929518e-02,-1.893625120832543099e-02,1.574274003505706787e-01
2.487939634586073812e-01,1.311107083457077604e-01,1.119203641994784698e-01,-3.425224774855701888e-03,-1.771807002135769452e-03,-4.941977205006574392e-03,1.288172453641891479e-01
2.490704319702402580e-01,1.325712162828276419e-01,1.089659891610588460e-01,6.186714754894760259e-04,6.196165295442692018e-03,-5.659015831766488897e-03,1.307350844144821167e-01
1.377309505454250294e-01,9.047476025106972186e-02,7.770753592583962144e-02,-2.540807654420417297e-02,-3.211978990318132415e-02,-1.206661004798828367e-02,9.202197194099426270e-02
2.454241565957012150e-01,1.304177084431661915e-01,1.115967478682398928e-01,2.943232989345484930e-03,2.172273487843192231e-03,-4.482493384923319502e-03,1.258795708417892456e-01
2.531543658345070114e-01,1.386555774440175748e-01,1.127926507886866242e-01,8.594153541507542791e-04,2.453940978566631747e-03,-1.250050653641565082e-03,1.294801384210586548e-01
2.405801720312371605e-01,1.021696603785813284e-01,1.374850896112009280e-01,-1.054027744834182094e-02,9.474215917724308029e-04,2.016016783124063676e-03,1.259555518627166748e-01
2.563803600087128931e-01,1.023656284361551816e-01,1.537080935848769703e-01,-1.478002155557296693e-02,1.367954224353045475e-03,2.806136590820261945e-03,1.383245289325714111e-01
2.513940904428524359e-01,9.878254396773226975e-02,1.431239052122338928e-01,-1.717432505689703987e-02,5.507694966116867758e-04,4.959286506510345418e-04,1.391975432634353638e-01
2.320875344079609270e-01,1.230483005642030864e-01,1.696333555482053279e-01,-5.518196638000665705e-02,-6.015467249228191940e-03,-2.269233228302982696e-03,1.350528746843338013e-01
2.089923759296657413e-01,1.027539703888968037e-01,1.269351620765243327e-01,-2.463833143135474302e-02,2.073763934733142966e-02,1.347266846510175413e-02,1.138340309262275696e-01
2.779045226470492347e-01,1.177410362206818134e-01,1.890061459020287438e-01,-3.969683557331559615e-02,1.004240256157305647e-04,9.627451629027890950e-03,1.559570431709289551e-01
2.440015105575508991e-01,1.076784653372924450e-01,1.387230762365410930e-01,-1.374121795719297073e-02,-2.819461492993180236e-03,-4.237903864747128400e-03,1.263322383165359497e-01
2.641415786023491585e-01,9.321500747752872740e-02,1.705044816560614407e-01,-7.463087878971709499e-02,-3.016176554199932053e-02,-9.974250164888879069e-03,2.042441815137863159e-01
2.305831862313529046e-01,4.160366424107907191e-02,1.206087215519346251e-01,-4.640871355736193166e-02,-8.136418765111737283e-03,-1.715621538989770684e-02,1.859237402677536011e-01
2.528576398384476676e-01,6.386102592952458412e-02,1.574321065695944988e-01,-5.657355192826217516e-02,-2.307994715743205000e-03,1.246417034954479079e-02,1.920270770788192749e-01
2.603915317054316114e-01,1.329817692188845490e-01,1.374770169683794951e-01,5.518470962294012416e-04,-7.598903237134120234e-04,-5.270199706039025572e-03,1.255654692649841309e-01
2.454493046016492097e-01,1.188123176569645667e-01,1.253847431730628070e-01,5.480571294830873528e-04,3.164776255535618169e-04,-2.961145314997186417e-03,1.235933601856231689e-01
2.484559969639037469e-01,1.278010238512247709e-01,1.296916917746601672e-01,1.477714665824388660e-03,2.946931341641316222e-03,-5.140681704792788610e-03,1.201872006058692932e-01
2.661127707843425894e-01,1.241981618646274682e-01,1.861361393405441544e-01,4.052151027811227990e-02,6.460132032496737446e-03,4.416448108069634415e-04,1.422600746154785156e-01
1.811153962288938879e-01,1.402794240336802667e-01,1.641035478279491144e-01,-5.089151062742656995e-02,-1.973901684114222690e-02,-6.528911734231650395e-03,1.016311347484588623e-01
2.436612343623645871e-01,1.205131877865037449e-01,1.206707433800708607e-01,-4.170184588811707573e-04,-1.121327779575562883e-04,-4.842089760398935600e-03,1.233570426702499390e-01
2.491882196222340307e-01,1.255714971509578892e-01,1.301317245436163783e-01,6.517991608088030122e-04,3.105706203078955740e-04,-1.066295280166849446e-03,1.214213520288467407e-01
2.492683882773202575e-01,1.290371758177757955e-01,1.295879687971795702e-01,-6.329706190852534995e-04,2.325177979680685312e-04,-1.950089240661813730e-03,1.200099885463714600e-01
2.488483316050843774e-01,1.205458862599592396e-01,1.282995269915804537e-01,-8.478301348399339696e-04,-3.342269583802262752e-04,-2.656070152741319985e-03,1.247015669941902161e-01
2.495820658390628943e-01,1.274429277583181697e-01,1.311442809665044895e-01,-2.948893014446987942e-04,-6.875000401812228924e-04,-9.219253761510539692e-04,1.203487366437911987e-01
2.456578237490598116e-01,1.283928817261221766e-01,1.199949017979600463e-01,1.091352960073888522e-03,3.475079271024120848e-04,-1.707952676929887356e-03,1.217335909605026245e-01
2.371379499746482933e-01,1.216302102299129106e-01,1.304137731057240512e-01,4.441546266623072002e-05,1.402907388216315598e-04,1.903089408665223359e-03,1.114250868558883667e-01
2.292460527848388385e-01,1.177519608675269280e-01,1.286095501349099890e-01,3.073639338995525199e-03,-3.082391615890165554e-03,4.140804418276540673e-03,1.069885343313217163e-01
2.342719637560957135e-01,1.163578451505522249e-01,1.273094025785334316e-01,-1.007602129972862896e-04,1.473701992723737419e-04,9.222868832899797044e-04,1.128493696451187134e-01
2.400053761353033166e-01,1.226871799802879276e-01,1.246189434123032846e-01,1.705495311138900466e-04,-3.253019739506027926e-04,1.028038647370354804e-03,1.163797006011009216e-01
2.347037963852656728e-01,1.170164264267332110e-01,1.315072389717704959e-01,4.791185540891389400e-04,-1.062314073058024007e-03,6.260701741103614918e-04,1.111762821674346924e-01
2.348241499155958589e-01,1.243652422880389130e-01,1.260332689672946649e-01,4.647737240959104107e-03,-4.666977097212781332e-03,6.100004062518840815e-03,1.107315719127655029e-01
2.172130028924809386e-01,1.160174023794674214e-01,1.234433880500192815e-01,7.524263579215276221e-03,-4.234578737330837138e-03,5.800927560561624889e-03,9.934187680482864380e-02
2.397610478893825725e-01,1.173667660298756688e-01,1.293468663902279658e-01,1.692648556779938716e-04,-2.157606605277244839e-03,1.275596438729826275e-03,1.169466599822044373e-01
1.587064750437775507e-01,1.466580735384463707e-01,1.387203792082192799e-01,6.249847902016508576e-03,-1.147758815996146112e-02,7.515085450874269251e-04,2.859875373542308807e-02
1.473214566141723969e-01,1.434808803107848474e-01,1.408862574940602241e-01,6.892578280181657288e-03,-1.447728591934430414e-03,1.357337925528904945e-03,1.363028585910797119e-02
1.987646007746103061e-01,1.281854369443956587e-01,1.329200308624602922e-01,3.857408939369317679e-03,-1.182077645497740890e-03,6.123033965273700328e-03,6.950522959232330322e-02
1.680560429248652010e-01,1.347196521278167247e-01,1.385282302984091329e-01,8.543440602875736548e-03,-1.142746503530840761e-03,2.629796704543432059e-03,3.524900227785110474e-02
9.116325622237940463e-02,9.876272608252587015e-02,1.107945626808775480e-01,3.075338874031955175e-02,-3.840305189163964461e-03,1.585533810790959409e-03,5.641853436827659607e-02
1.824484568026090991e-01,1.212070945625560725e-01,1.090872630674182275e-01,4.358693380536142817e-03,-1.100765059193876960e-02,5.770628003551549548e-03,7.183334976434707642e-02
1.497607718706580882e-01,1.384224898882793209e-01,1.416051667633287936e-01,2.580205589548096017e-03,-4.629024063394224578e-03,2.252895307914102186e-04,1.367509458214044571e-02
1.874069131861504089e-01,1.370941510417315878e-01,1.477995589693394118e-01,4.138396334292334180e-03,3.172671010863371464e-04,3.615624096539341525e-04,4.646971449255943298e-02
1.894529680439859254e-01,1.238751685987389273e-01,1.430705810351669272e-01,1.175810137365535489e-02,1.383838786611675401e-04,-8.850859081285550756e-04,6.186505779623985291e-02
1.677278235515674426e-02,9.989134909000281504e-02,9.839989699491039077e-02,9.470824570704607787e-03,-3.250518974741034572e-02,3.753115357750226155e-03,1.013314500451087952e-01
2.460072387229856050e-01,1.275484142468792936e-01,1.260084075126226832e-01,-5.063255465400630590e-04,2.923050126427769358e-04,1.565106795867630182e-03,1.192713975906372070e-01
2.538640932501081693e-01,1.249836295102283168e-01,1.346068593198848640e-01,8.209263186771982709e-04,-5.062788881905343381e-05,1.406273485180731730e-03,1.243804469704627991e-01
2.485651676718182990e-01,1.137136021605215375e-01,1.319099292210696162e-01,-1.846320691304788623e-03,2.912532929692979514e-03,3.688586175691834553e-03,1.270383447408676147e-01
2.438875259248171612e-01,1.215461766154513207e-01,1.213451266221183544e-01,-1.594194729929294691e-03,8.785978041448907084e-04,4.655653689407429630e-03,1.227477416396141052e-01
2.586352485217625619e-01,1.125959428893415770e-01,1.403967151491475329e-01,-1.496064960390585926e-03,4.199232288850708334e-04,1.698088491933760161e-03,1.343735456466674805e-01
2.665473146209094701e-01,1.230522261651422755e-01,1.329081022990096228e-01,-7.071983808674878853e-05,-3.243328822817857868e-03,1.012115025442608153e-02,1.400449723005294800e-01
2.084150727061429842e-01,1.328552028678668395e-01,1.131861463446798277e-01,9.409425107519922993e-04,7.971029092932671242e-03,2.598581394788064200e-03,8.829429745674133301e-02
2.340566173195712252e-01,1.342300910716137385e-01,1.155254344217036544e-01,-1.467444820131091118e-03,1.894136524466854318e-03,9.547943695930653741e-04,1.104643791913986206e-01
2.348533669814597546e-01,1.282620765307445343e-01,1.175461581137561690e-01,-2.052111280399448144e-03,8.868112590995199870e-04,8.771793272314608531e-04,1.124102249741554260e-01
2.411304790051772007e-01,1.286650222595259463e-01,1.242717399730511596e-01,-2.324363055438995705e-03,2.584125922358064108e-03,4.083181126965424249e-03,1.151005253195762634e-01
2.474101765448183110e-01,1.278228892861042187e-01,1.287664676329887403e-01,-3.338656429104230080e-04,-1.636933254764409576e-04,-5.736650883600151636e-04,1.191241890192031860e-01
2.446205116784779254e-01,1.186122407133612944e-01,1.262020198471021926e-01,-1.912751669422715255e-03,-1.664275629945162005e-03,-2.500061743671305129e-03,1.225453019142150879e-01
2.498983965410036534e-01,1.275586367430435186e-01,1.317702523802478654e-01,-3.455545481655267562e-05,-5.774962883366109231e-04,-1.507426637680089800e-03,1.203217655420303345e-01
2.462567153326355174e-01,1.076900965772037977e-01,1.039126961656130499e-01,-1.589597759046576346e-03,-9.418361972657684307e-04,-2.203239402040915729e-02,1.456190943717956543e-01
2.438838136358117692e-01,1.244599151965044004e-01,1.230741602144562463e-01,-1.107011138689377233e-03,-5.553193049938614113e-04,-1.003268387371436879e-03,1.201544925570487976e-01
2.453744318548711778e-01,1.267021793048770384e-01,1.257421027701082494e-01,-3.616228399658715713e-04,-2.670223044863370828e-04,-2.448411485140857230e-04,1.191584914922714233e-01
2.415511055847039956e-01,1.175024534987862135e-01,1.257264385487293912e-01,-1.014758555823447100e-03,-1.696964975567163102e-03,-1.772194240205127429e-03,1.202359274029731750e-01
2.423616823877557391e-01,1.218327200734036497e-01,1.240578260030396340e-01,-6.273178242803021743e-04,-1.024882958631176573e-03,-1.149445704786243930e-03,1.194666773080825806e-01
2.481508004878967277e-01,1.320624876367456346e-01,1.275848025363700566e-01,-1.528999045052263422e-03,-2.590591739510535868e-03,-3.648653573547219232e-03,1.186736598610877991e-01
1.506483392065346705e-01,1.711230546936822750e-01,1.065307041095111262e-01,-2.479236529316150572e-02,-6.790141512412405100e-02,-7.516106704626235660e-03,1.382538974285125732e-01
2.489494079719232755e-01,1.262647845198811292e-01,1.297162018123253768e-01,2.490904558320698216e-03,-5.533483671662860377e-04,5.273848989678455758e-03,1.214206144213676453e-01
3.109344922105826692e-01,1.621446358226418527e-01,1.712158864722320706e-01,7.253266643200239130e-03,-2.505548010125685249e-03,2.787048909496674456e-02,1.528985053300857544e-01
2.444196910581609150e-01,1.158820418235087246e-01,1.229038697654182971e-01,5.245828382394482304e-04,-4.967103997673227942e-04,3.521492848682162939e-03,1.253293007612228394e-01
2.427978203315266370e-01,1.152856994525689877e-01,1.219127071807667578e-01,9.146656013121520334e-04,-9.296273827401369287e-04,3.522344541424581119e-03,1.245012357831001282e-01
3.302486676269277277e-01,1.648638357861028081e-01,1.726134570986248284e-01,-1.749989778424896562e-03,6.001296072643364996e-03,2.860823711089915955e-02,1.694197654724121094e-01
2.616945462766961938e-01,1.048202388263787671e-01,1.462650786056532148e-01,4.738265240476661339e-03,1.565266190690321225e-03,6.719561031888827279e-03,1.415477097034454346e-01
2.407544345359974858e-01,1.235854457857724770e-01,1.273870339720807598e-01,-5.418289600926646079e-04,1.343514024197473478e-04,5.216451741948039235e-04,1.153227910399436951e-01
2.365933850805918559e-01,1.208277065566279174e-01,1.262951313090361349e-01,-2.761534141769137504e-04,8.285373526987744821e-06,1.095255066470985023e-03,1.131480112671852112e-01
2.393956664126377087e-01,1.225065121606166846e-01,1.244679558352795590e-01,-1.954469761763922143e-04,4.830786409007538666e-04,5.569897966219717738e-05,1.159244328737258911e-01
2.384220130579415009e-01,1.223245846604125997e-01,1.211588451526880994e-01,-2.891038185065254967e-04,7.187403084663989555e-05,6.105540866316764648e-04,1.166905984282493591e-01
2.410612562614898036e-01,1.138920349184037173e-01,1.310138505766339778e-01,-1.777350080852267830e-03,2.675564094453884885e-03,3.070028292547677742e-03,1.197790801525115967e-01
2.375024659500490909e-01,1.239099484833844911e-01,1.295363278594693357e-01,-5.694526859866988911e-04,5.748470799513024894e-04,3.081259577615967030e-03,1.110236346721649170e-01
2.386269068869973919e-01,1.248788785522536443e-01,1.235459208707909706e-01,-6.773767279382516019e-04,5.282553598101035223e-04,1.971080719862035487e-03,1.144809201359748840e-01
2.454347828875032000e-01,1.258525380490745915e-01,1.259826248041893137e-01,-6.576220157873918608e-04,9.932723147485643563e-04,8.231239730730516464e-04,1.195435672998428345e-01
2.077958315756032737e-01,1.489461164869615439e-01,1.836910683356411667e-01,-2.892355253598020634e-02,8.545627039492792801e-03,6.737277618115701701e-03,7.409954071044921875e-02
1.916294199147453581e-01,1.343113203975389858e-01,1.182984239551586880e-01,4.854181234560044945e-03,9.864341337789298697e-03,-4.452098253201851666e-03,6.986898183822631836e-02
2.115726283395823470e-01,1.601000217283424787e-01,1.412710556298365505e-01,3.703250164939210238e-03,1.663792631270485239e-02,-1.878303971698643427e-03,6.968014687299728394e-02
2.007343039710046129e-01,1.451650037980717900e-01,1.373181719867222483e-01,4.934443829474562983e-03,7.221521221567933115e-03,-4.779248166444095315e-03,6.231840699911117554e-02
1.326288979442484806e-01,1.463392690672252472e-01,1.396876760208296542e-01,-2.136254944677944828e-02,4.581453498199656096e-03,7.614612280646486722e-03,4.179729521274566650e-02
2.469865385765148968e-01,1.310375644722314159e-01,1.261649229812625284e-01,2.086658092005472167e-03,3.718635082078550202e-03,-3.718222426377744937e-03,1.188650801777839661e-01
2.428958291753324783e-01,1.216850571279931570e-01,1.214144060770855071e-01,1.851178091470709244e-03,2.377409275453891066e-03,-3.533256334031504090e-03,1.216125786304473877e-01
2.324292090734811078e-01,1.137746608221045924e-01,1.369851010640674993e-01,-1.950650669753294444e-03,1.203218603831712752e-03,9.780583972588377702e-04,1.090056449174880981e-01
2.369154396103425597e-01,1.143637084260513692e-01,1.387438971688936262e-01,-1.856036119199688892e-03,9.347261922360404355e-04,8.293464323928185014e-04,1.124299988150596619e-01
2.341344534159715274e-01,1.082284157421781745e-01,1.316334598539589396e-01,-6.099418067556829602e-03,1.362765512175528274e-03,8.812563885338111020e-04,1.165023595094680786e-01
2.376213482472500083e-01,9.967509556263653980e-02,1.343051995770107310e-01,-6.241775323497820299e-03,1.434688736522433039e-03,1.163295275920857514e-03,1.248135939240455627e-01
2.256227318659420056e-01,1.107748356439975101e-01,1.297801214484446686e-01,-5.340479811154913610e-03,4.456518574494770790e-03,6.640790206954275479e-03,1.079164817929267883e-01
2.434307377964165520e-01,1.058472855352851766e-01,1.418684671658181351e-01,-5.472499773932240803e-03,-2.331690134586557832e-05,8.125695461447557139e-05,1.239382103085517883e-01
1.970635992704328210e-01,1.258486094166275104e-01,1.324167747715798427e-01,-3.923837212579909389e-02,-2.246402046394440147e-02,-9.669142129915632433e-03,1.051678955554962158e-01
2.454990277953630062e-01,1.110297114358420600e-01,1.479501273239591241e-01,-7.093286062295162814e-03,-8.766132461976835957e-04,4.276590126230418731e-03,1.211964040994644165e-01
2.416242447242376024e-01,1.111683938687695744e-01,1.286543291226590058e-01,-4.455190953596878042e-03,4.216665957676805562e-03,4.364494230274279692e-03,1.233425214886665344e-01
2.430465440421396561e-01,1.249199471437374559e-01,1.235359529611258500e-01,5.009132596152131908e-04,-2.340582119332979927e-04,1.642300164654399782e-04,1.188288405537605286e-01
2.433939618522347748e-01,1.250572146788420103e-01,1.237140884432260807e-01,5.646017928903167412e-04,-2.105234396414897751e-04,1.586707671979508631e-04,1.190188899636268616e-01
2.451506434087408204e-01,1.263711615772364349e-01,1.262415338191028580e-01,-5.306911031719289215e-06,-3.214344466620990166e-04,2.759795166023963674e-04,1.188466176390647888e-01
1.516370756177024548e-01,1.224367826894700723e-01,1.318100184321440438e-01,1.100841276454623402e-02,5.954425492884455207e-04,1.048411929957587026e-03,3.216721862554550171e-02
2.483311505302323863e-01,1.205707713676512638e-01,1.291321083339874165e-01,1.176174458589753294e-03,-7.745093606271693425e-04,3.516448877947032925e-03,1.238759756088256836e-01
2.399546801745173208e-01,1.233193635201025734e-01,1.168708318338753938e-01,2.644171053591088012e-03,-1.470031107075383181e-03,1.572153953287843157e-03,1.201348379254341125e-01
2.491180218269116176e-01,1.312787633483367689e-01,1.281028765956703230e-01,2.031851168027956666e-04,-1.685253582994540068e-04,8.674930311830921295e-04,1.194691956043243408e-01
2.187466853489854479e-01,1.263690688985376898e-01,1.186143375818474732e-01,3.222259056687287130e-03,-3.245571656840045942e-03,6.361019207999068364e-03,9.743849933147430420e-02
2.279588463234772933e-01,1.373607828886180826e-01,1.196967154484424589e-01,-2.161976322377140523e-03,-1.001657422513467163e-02,-3.342111341790034683e-03,1.023175716400146484e-01
2.343782272173353110e-01,1.331910194998245922e-01,1.061013951884685613e-01,-1.957404476604692172e-03,-2.983498063960499016e-03,-2.391388213993368098e-03,1.173421368002891541e-01
2.383936041603510469e-01,1.288578940160410580e-01,1.256015023259351715e-01,-3.771782802423433688e-03,-4.559391139387928595e-03,-6.406619225326135036e-03,1.122209653258323669e-01
2.387572616665312730e-01,1.168896224495664382e-01,1.110981692070576732e-01,-2.398407158423743885e-02,-2.764372034203258985e-02,-3.578364610010044411e-02,1.531361937522888184e-01
2.485255577152304385e-01,1.332143573594530284e-01,1.226646641617743227e-01,-2.000812300124386531e-03,-2.759887733732006453e-05,-1.468651544503873918e-03,1.210080534219741821e-01
2.378414697955323898e-01,1.335556525439320630e-01,1.030948794058858531e-01,-2.672798216451321377e-03,-4.763009327301284505e-03,-2.280549182451448251e-03,1.228214576840400696e-01
1.075390949933592855e-01,8.070317333437998508e-02,4.137168132210126276e-02,-2.820723960148693865e-02,-7.148129544368318766e-02,-2.196364943092458943e-02,1.499516814947128296e-01
2.071230366922491295e-01,1.414444328464582457e-01,1.085069712587989343e-01,-6.561041645053777849e-03,-1.864321495322139241e-02,-6.269739756500961568e-03,9.408305585384368896e-02
2.346382028469635173e-01,1.435605862767458940e-01,1.125222099788803637e-01,-1.615861767366469966e-03,-1.163081209125420117e-02,-7.523847510267860474e-04,1.118068546056747437e-01
2.251818920245398370e-01,1.288980288038767408e-01,1.008247335490070895e-01,-2.799953487353418462e-03,-1.247470502527730542e-02,-4.408537010729130824e-03,1.153706088662147522e-01
1.970712813795854057e-01,1.215176754896210021e-01,9.657226057156970134e-02,-5.868249724077805388e-03,-1.871098513520500287e-02,-6.805120282722362454e-03,9.750834852457046509e-02
2.492430085828099551e-01,1.455575314317643643e-01,1.242425845410514429e-01,-5.014789687036386515e-03,-9.855539827182215051e-03,-8.380475071567276488e-03,1.182902902364730835e-01
2.042552862479353748e-01,9.199555857291505379e-02,5.338874612866818803e-02,-2.620853570663774640e-02,-4.642379760178051012e-02,-2.595432681220063292e-02,1.702168434858322144e-01
2.391422378957380190e-01,1.203045174478436508e-01,1.261778853606589645e-01,-6.521835109346885194e-04,1.966726540508900896e-03,1.600500812728771144e-03,1.161011978983879089e-01
2.312421546301940134e-01,1.279911736070523109e-01,1.136225851223581218e-01,-1.882996464826619315e-03,1.892337174266709799e-03,1.573944457004712149e-03,1.112636700272560120e-01
2.433865382148102108e-01,1.295023894838338852e-01,1.259568944332307150e-01,-2.078657475685563669e-03,1.521413153853928184e-03,3.263271118689779673e-03,1.159215196967124939e-01
2.333033958796385532e-01,1.281520157265699511e-01,1.197845143459712602e-01,-4.997211607219455808e-04,1.313699333750473208e-03,3.061111045938620569e-03,1.097302138805389404e-01
2.258134513658941467e-01,1.243133237440993827e-01,1.095013510505655069e-01,-2.720533115870432412e-03,3.086413304872772951e-03,4.692073866946096239e-03,1.101903617382049561e-01
2.363423806058120302e-01,1.291606086514973106e-01,1.123038901924571231e-01,-2.573674881894315140e-03,1.833250241776552799e-03,2.064052420551959824e-03,1.167113929986953735e-01
2.385704537982316631e-01,1.299067808874683760e-01,1.129754330734501211e-01,-3.113087392770114668e-03,2.082630783037157929e-03,2.528822321986313060e-03,1.183028221130371094e-01
2.406437798147616491e-01,1.240678560110891615e-01,1.162854531525282786e-01,-2.544420463140883212e-03,1.645119400847666049e-03,2.305492021656109763e-03,1.208355873823165894e-01
2.389009805276333942e-01,1.203253745489066551e-01,1.309619890838778500e-01,-8.735537411140002772e-05,-1.246867735807183006e-03,-8.001403543778486463e-04,1.136603578925132751e-01
2.271125594916440782e-01,1.610792560961022413e-01,1.583598401464816341e-01,2.480185714162971497e-02,-2.583450170959480582e-02,1.643981213279335080e-02,9.594700485467910767e-02
2.480578638142089398e-01,1.268460387412538859e-01,1.285660706331976100e-01,-1.326061202194633555e-03,-1.263435418482051348e-03,-4.314839259686277691e-03,1.206345483660697937e-01
2.316860613862125606e-01,1.259944468529992367e-01,1.340873414627196392e-01,-5.087912866764594984e-03,-3.543653068883502975e-03,-5.189805876287364311e-03,1.028445288538932800e-01
2.408720065220768813e-01,1.217046893801706220e-01,1.234652570130047033e-01,-5.773288694793725058e-04,-9.706313871102419848e-04,-4.662269179242711846e-04,1.183157861232757568e-01
2.333176952676039306e-01,1.172493159086186593e-01,1.247188187103597384e-01,-1.388545045478073274e-03,-7.230862252336578509e-04,-2.627726979411266432e-03,1.126443818211555481e-01
2.337427947984903054e-01,1.172452920876330129e-01,1.279653861864529785e-01,1.678370132688662567e-04,-1.631319589003543636e-04,-7.968630828688452261e-04,1.115338206291198730e-01
2.192568161481275868e-01,1.279782657206224306e-01,1.044606220483802195e-01,-2.182405297428996905e-03,-9.098258868473943495e-03,-3.421251619854773999e-03,1.064389422535896301e-01
2.715347418910236676e-01,1.496302675987384034e-01,1.483800283778197726e-01,-1.147164164693263363e-02,-2.021167007975742738e-02,-2.301574769186793754e-02,1.349969506263732910e-01
2.304406352754934384e-01,1.323020235246826493e-01,1.160492691146208788e-01,-7.373893087520048354e-04,-1.215867920385192789e-03,-2.931958534306672824e-03,1.073415949940681458e-01
2.315780069015405118e-01,1.418884502829767524e-01,1.245899122942372150e-01,1.873284197373134563e-03,7.497152505840807592e-03,-3.645577385220995833e-03,1.005682572722434998e-01
1.382354736944155227e-01,1.005114242381916489e-01,7.610967313945658785e-02,-9.209835297029202866e-03,3.265882816528736104e-02,3.288275984851061606e-03,8.016096800565719604e-02
2.771210189203754948e-01,1.854713520287471773e-01,1.503569690185416197e-01,-7.241099287102790300e-03,4.155042997192862075e-02,1.645905754622106060e-02,1.378412842750549316e-01
2.286412573122580116e-01,1.940608861800272589e-01,1.296323207228299579e-01,1.828865656574209936e-02,9.153363916212625684e-02,1.181804995249273633e-02,1.847496926784515381e-01
2.379484173941586178e-01,1.234016002374611620e-01,1.185371346876368248e-01,-1.061348012262195968e-03,-1.859669259649767608e-04,-1.793081615632902918e-03,1.171109452843666077e-01
2.329288198993806625e-01,1.229295614531816655e-01,1.165347960950432055e-01,-7.647405703270932506e-04,-1.469673856031505129e-03,-2.467537223578528637e-03,1.134488880634307861e-01
2.345717532169512565e-01,1.309479914007943002e-01,1.173743454739211017e-01,-7.155962403954227360e-04,-2.477668593712451309e-04,-6.661538104240265559e-04,1.110483333468437195e-01
2.343618524619373034e-01,1.274835741412335410e-01,1.185064566991931856e-01,-1.120039217913274205e-03,-9.851967645390922231e-04,-2.477841979253982314e-03,1.117502078413963318e-01
2.331221451749959650e-01,1.260354772129501366e-01,1.145247274092714707e-01,-1.449138908968361722e-03,-1.427572972631251796e-03,-9.923736893735256651e-04,1.133493185043334961e-01
2.356616971601635524e-01,1.168328257745557819e-01,1.167200478009310372e-01,-2.503387304667460244e-03,-3.194747523374594049e-03,-3.423157555432684244e-03,1.192404627799987793e-01
2.421476159917819448e-01,1.363913291315327903e-01,1.014783047980032660e-01,1.879641877495982381e-03,-9.485807552891665356e-03,1.189308892944212961e-03,1.279858052730560303e-01
2.469928322956880251e-01,1.341182926766418815e-01,9.651407165425882062e-02,2.440709520607431404e-03,-1.019288249068466511e-02,9.131381260983130119e-03,1.377642899751663208e-01
2.550228951300348434e-01,1.384127704367548450e-01,1.002332530177221653e-01,7.616051052654566943e-05,-3.821027990484723164e-03,6.546249871949611984e-03,1.402857601642608643e-01
2.527015838876745524e-01,1.428113971604001442e-01,1.042661103958780200e-01,2.134076535018975679e-03,-1.113970102390247213e-02,4.450665228670503890e-03,1.350655704736709595e-01
1.554355598732077293e-01,1.266063755442800864e-01,1.244054763708248718e-01,8.490856838433756201e-03,-1.486435160973813285e-02,3.119991805544099651e-03,4.251763969659805298e-02
2.503810825232571369e-01,1.168240705360472642e-01,1.447928414323659541e-01,-6.333376848426595408e-03,-3.707455957282039354e-03,-8.851388937123626927e-03,1.236159950494766235e-01
2.414737489180052987e-01,1.038306128099154152e-01,1.376630149176741313e-01,-7.200444211599630467e-03,6.420864003199674335e-04,1.966091000294106859e-03,1.249073222279548645e-01
2.522000933063295314e-01,1.075380165592015186e-01,1.454645464802212795e-01,-3.638484849912513620e-03,1.616433700152647087e-04,1.128054146978049331e-04,1.300724446773529053e-01
2.377707560121194441e-01,9.712205535896008268e-02,1.306534367373647920e-01,-4.008164855370529439e-03,-4.866255236219215081e-03,-5.812513956289874599e-03,1.281048804521560669e-01
2.508190537603439685e-01,5.260904094242443985e-02,1.247021278515859921e-01,-2.502762137915866963e-02,-6.432416003827167578e-03,-2.485892010418908407e-02,1.845324337482452393e-01
2.487790606227751056e-01,1.173947451055240287e-01,1.391745727310321479e-01,-6.179548528685898648e-04,-2.306606966284326533e-03,-2.710814534962238329e-03,1.221221685409545898e-01
2.433761198291231609e-01,1.076246981388537249e-01,1.406942608566078834e-01,-5.641012028596948530e-03,-8.148164894047070809e-04,-1.058003285597043912e-03,1.230187714099884033e-01
2.333656998951140205e-01,1.209002484199490357e-01,1.406079208724159146e-01,5.219532774136559361e-03,-1.089429718756026750e-03,2.669461619544218588e-03,1.045328006148338318e-01
2.389180843588052106e-01,1.046436334911470256e-01,1.333353216504342964e-01,4.581309516419629704e-03,-2.886129215023972017e-03,3.121694837004473488e-03,1.229531168937683105e-01
2.247921131947466233e-01,1.048675931920928922e-01,1.264810487082572987e-01,4.395423431250143967e-03,-3.736461018601251131e-03,2.809094813918830598e-03,1.112679839134216309e-01
2.172038689879394469e-01,1.854018079276753828e-01,2.118203209993453351e-01,9.279748821545577564e-02,-2.477163642572416738e-02,1.222335516122672119e-02,1.702715456485748291e-01
2.425697612968885641e-01,1.107780401313134822e-01,1.414954278902102180e-01,1.393660247434898823e-02,-1.921839137547819761e-04,8.628092847211541502e-05,1.218488365411758423e-01
2.051612025749389168e-01,1.056928974970014062e-01,1.291178570031661921e-01,1.610961148613852464e-02,-8.918171120504567390e-04,-3.050434197789040334e-04,9.430723637342453003e-02
2.264478873703668071e-01,1.108199615636879798e-01,1.331382457129647312e-01,5.081083309458210920e-03,2.488330691392870008e-03,-3.164689578890194505e-03,1.068334206938743591e-01
2.285884596570258998e-01,1.025972891005209470e-01,1.321520510725497644e-01,4.987614078867509335e-03,8.730740344632747325e-04,-2.686290965594886958e-04,1.144585162401199341e-01
2.536789145042493976e-01,1.302861888327246365e-01,1.067344524878738043e-01,4.615808239796840261e-03,-1.192320751514364813e-02,2.053462192427100985e-02,1.429754495620727539e-01
2.714169939383566654e-01,1.514600868389774646e-01,1.310555183965475268e-01,-2.868910730303251590e-03,3.086675706008995285e-03,9.965131007215712738e-03,1.326833069324493408e-01
1.830979908083789909e-01,1.507731946152223446e-01,1.471266325600427693e-01,2.668471306802525176e-03,-8.163856310565285879e-03,-1.189951906821478880e-06,3.738144040107727051e-02
1.019984825280373653e-01,4.234675778530782447e-02,9.182996781435200095e-03,4.864185757320542425e-02,-7.007171747995312450e-02,3.504876263174720036e-02,1.793039739131927490e-01
2.793156843977625536e-01,1.770703838454017465e-01,1.549914620536902987e-01,1.367284652127599871e-02,-3.435630238297208983e-02,1.465801240474094713e-02,1.339609026908874512e-01
2.465700599715694441e-01,1.404235435226081907e-01,1.245938747279450448e-01,1.111913013606825873e-02,-1.395947223766595864e-02,9.147089299622865322e-03,1.200184971094131470e-01
3.332170428810035667e-01,1.259236135371648302e-01,1.532637697336334259e-01,2.527053824824379070e-04,-4.971271917592127998e-02,5.218395560003195183e-02,2.315909415483474731e-01
2.850258149940060881e-01,1.313284492247487334e-01,8.228208560285094064e-02,8.712564690811185064e-03,-2.417473635525971623e-02,4.262095844596426597e-02,2.024780064821243286e-01
2.538864531622080922e-01,1.754066649832073665e-01,5.709460270337034238e-02,3.250431373505882626e-02,-6.038480195311970306e-02,4.967430145499197175e-02,2.257279306650161743e-01
1.874895832130944739e-01,1.268722842340482548e-01,1.020461854639767851e-01,1.180954639757143473e-02,3.388648603059444403e-02,-6.142966645668088144e-03,9.885428100824356079e-02
1.989789054161038573e-01,6.890968770687604106e-02,7.285091143156940952e-02,3.423450488473071818e-02,-3.765561927277116805e-02,4.121558098259504865e-02,1.711342036724090576e-01
2.448401410661222299e-01,1.166551512811704883e-01,1.236994423005589594e-01,3.447728718485973572e-03,-2.919794880876582042e-03,8.337854524897523462e-03,1.258881986141204834e-01
3.607574640800436105e-01,1.370478749771406879e-01,8.259992077035427371e-02,3.398800533002561963e-02,-3.759684506498208595e-02,5.666007301682326330e-02,2.872774004936218262e-01
2.484476878395766863e-01,1.317014160432761483e-01,1.258176516763369057e-01,2.259855901552328735e-03,-2.884744404909634751e-03,4.900807776261515217e-03,1.202645301818847656e-01
3.027676168604190865e-01,1.522493860316467829e-01,1.657706567083022386e-01,4.361353357723501967e-03,-5.432873106562443287e-03,2.440727695959234861e-02,1.507850289344787598e-01
1.925387209552149037e-01,1.309700669465864997e-01,6.541983571970821920e-02,1.454085396166386601e-02,6.563086271295270890e-02,-1.854499792704548955e-02,1.634370237588882446e-01
1.194194599161513271e-01,1.147452249424151943e-01,1.057063276205435637e-01,-4.902245226642416853e-02,5.150105219872849055e-02,1.046019476132562485e-02,1.250628829002380371e-01
2.238050216793502911e-01,1.317227095056838770e-01,1.275864608792885713e-01,-7.130397971802059955e-03,7.616982011191694713e-03,5.642286246260628038e-03,9.643249213695526123e-02
2.308448008048681888e-01,1.340200601092184085e-01,1.210296001520220904e-01,-8.725719694329862539e-03,1.123911899560943450e-02,9.393059237271255205e-03,1.080446094274520874e-01
2.486145280846935313e-01,1.304457089825584171e-01,1.129649997795860589e-01,-2.065321333304905721e-02,2.967189579546234204e-02,1.690991965734590929e-02,1.453061848878860474e-01
2.294610419217738562e-01,1.371465863124119999e-01,1.139782463127994999e-01,6.879338214535537805e-04,-1.395721174580831069e-03,-1.745604835764312608e-05,1.058525741100311279e-01
1.571817499613326896e-01,1.572416392211523906e-01,1.400091041382713619e-01,-5.798796989077431574e-02,4.022830444308742731e-02,1.835224927782456647e-02,1.274719983339309692e-01
2.046094865438193577e-01,1.452502520151333909e-01,9.690478565986337944e-02,-1.172451158853039625e-02,7.284359407502505324e-02,1.914623228765202634e-02,1.617443859577178955e-01
2.119910683266560958e-01,1.933517350422525871e-01,1.184835531876177184e-01,-1.577217740200608995e-02,7.396434065601610597e-02,1.678415759178348426e-02,1.592223048210144043e-01
2.069175343944250345e-01,1.446234289969257070e-01,1.334535850245071598e-01,-4.710788190692071116e-03,1.692637666387205447e-02,-1.610270194692813389e-05,7.501478493213653564e-02
2.477919952323054953e-01,1.295773552206618273e-01,1.287166354942856916e-01,-1.937636807833412075e-05,9.617391176539208419e-05,3.622165851746952697e-04,1.186491250991821289e-01
2.479890617961771071e-01,1.290167558213342891e-01,1.273574913159855604e-01,6.033776804461655520e-04,-3.669451829511002103e-05,9.558479789451751517e-04,1.198265701532363892e-01
2.457562784926076438e-01,1.264314152323810780e-01,1.189733072141119369e-01,-1.999825143771217042e-04,3.822350545521026240e-05,2.796829853040064175e-03,1.233190000057220459e-01
2.379437207836102020e-01,1.195517611050914697e-01,1.198957772138211225e-01,-1.592572620197755563e-03,1.618766998809806779e-03,3.158903940670096736e-03,1.184122115373611450e-01
2.503323710445240491e-01,1.316824339116618447e-01,1.289856708308586009e-01,-3.803807955795410894e-04,3.582165745512374383e-04,1.199383524210490383e-03,1.200424283742904663e-01
2.487944391037334446e-01,1.266896663468132234e-01,1.309567357918525188e-01,2.233737336014124635e-04,4.609263427060369001e-04,9.176692581474930454e-04,1.200419366359710693e-01
2.477071269839133116e-01,1.296676255377572362e-01,1.288196527054526752e-01,3.050472518039617099e-04,-2.819705757887354153e-04,1.275210177188871143e-03,1.184885352849960327e-01
2.511601667945398964e-01,1.074523974932915238e-01,1.024789636068027532e-01,6.889201119811715415e-03,-8.203190977061926986e-03,1.992183193737932789e-02,1.514142602682113647e-01
2.470309620500409087e-01,1.280391943445260972e-01,1.286309877431670023e-01,-1.284722471214638621e-04,-3.201311900793528804e-05,4.508356642752411121e-04,1.186997666954994202e-01
2.462996283135632791e-01,1.277797292462197198e-01,1.282687549791797221e-01,-6.440775210324191579e-06,1.917611630685905682e-04,2.556022585335086307e-04,1.182774379849433899e-01
1.146384095357760868e-01,1.058343399793872097e-01,8.633285444464715297e-02,2.913558716224459028e-02,5.458364866002945320e-02,-1.787758092471473589e-02,1.143376901745796204e-01
1.887405176937699547e-01,1.278499251512433821e-01,1.163601597737435878e-01,1.941500654315671389e-03,1.086286989167095131e-02,-5.820905456172474277e-03,7.075493037700653076e-02
2.390316584814170531e-01,1.299984445596035210e-01,1.369504805916206269e-01,4.348436055724869825e-03,3.227420939140739076e-03,-5.964979706408861555e-03,1.066456213593482971e-01
1.690620168238188559e-01,1.318179449511553414e-01,1.309238910337260642e-01,6.588836147762702940e-03,1.063286341106478398e-02,-3.748140608255018467e-03,4.396334663033485413e-02
1.697091132218456477e-01,1.350454313049735955e-01,1.165974487889662042e-01,3.393328893132681236e-03,2.142963752798832458e-02,-5.165494004697110397e-03,6.061066687107086182e-02
1.923343668902406378e-01,1.450565963957590188e-01,1.345202567027943275e-01,-6.095799797321157067e-04,9.613438114319755243e-03,2.097880503021536201e-03,5.599918961524963379e-02
1.577903930675434441e-01,1.274166660156268449e-01,1.319739493399185171e-01,-1.072899619179358034e-02,3.691788733388259944e-03,4.008194800473808411e-03,3.520410880446434021e-02
1.866563975226103733e-01,1.172667745709417286e-01,1.328083451837310525e-01,-1.273037178898852630e-02,5.402921759827429690e-04,2.595974870552909299e-03,6.697250902652740479e-02
1.869970811021767487e-01,1.216709575930770282e-01,1.386458125203522684e-01,-9.400206140501554328e-03,-3.250572677675135267e-04,-3.465049614017046403e-03,6.122234091162681580e-02
1.517189046682618503e-01,1.275878844697464209e-01,1.295032324397134005e-01,-2.160799474175384427e-02,2.671636881620542865e-03,3.893928853498011475e-03,4.480371251702308655e-02
8.257959019690316871e-02,8.464245517447153977e-02,1.173089519864868868e-01,-6.220141609888189121e-02,2.831227285433660090e-02,8.691329545888342584e-03,1.240046843886375427e-01
2.455602991688092540e-01,1.256771714247043592e-01,1.254816420741162453e-01,-6.549875286813691862e-04,2.053628192039369212e-04,9.567187289401825855e-04,1.199983432888984680e-01
2.460280778623645248e-01,1.269501541825925894e-01,1.261110514111888903e-01,1.332402135098959831e-05,4.927575429017584793e-07,1.196803831761562810e-03,1.195176616311073303e-01
2.448032628237925001e-01,1.194070256659069684e-01,1.265023316692716060e-01,3.744413129229159204e-04,3.124497149717829665e-04,2.282489431896791727e-03,1.220703795552253723e-01
2.451571631785221805e-01,1.239679152070791573e-01,1.264930030228469948e-01,-3.133419896965032115e-05,3.240700287981715627e-04,1.559769193841893187e-03,1.199783831834793091e-01
2.472064846731045762e-01,1.282133770337670065e-01,1.280952354278635796e-01,-6.956601666750753432e-05,-1.922206779410568075e-04,1.476022820649756494e-03,1.190801933407783508e-01
2.495194235184714227e-01,1.297881453616668845e-01,1.299882463876974314e-01,2.220834198196434126e-04,5.438540598754095087e-04,1.901890090981958126e-03,1.196810230612754822e-01
2.457823216545193534e-01,1.266843854719778562e-01,1.256838798638645893e-01,-4.350145844204649360e-05,1.737936907775213598e-04,1.219371179489596273e-03,1.196203753352165222e-01
2.438297622510610108e-01,1.186500184428312676e-01,1.099205770692049944e-01,-4.242663480200651628e-03,-4.477193979216028547e-03,-1.019713949429117139e-02,1.313963532447814941e-01
2.490560768218549881e-01,1.302022074968022247e-01,1.292394604677078729e-01,-1.285939305046097372e-03,-4.781922053945057162e-04,-1.891486502303743903e-03,1.194067671895027161e-01
2.724747835337570923e-01,1.436649354298458747e-01,1.458360507783821314e-01,-6.933317192021563186e-03,-5.383218439438113012e-03,-1.183135054391442481e-02,1.302617490291595459e-01
2.480428684556167385e-01,1.290403514328398449e-01,1.294427547665990275e-01,-3.213598710906767880e-05,-3.986852640571827717e-04,-1.818670485550389216e-04,1.188042610883712769e-01
2.463698960677712380e-01,1.280419932733783683e-01,1.284586421215289376e-01,-4.826310784536540493e-05,-4.797779271328847582e-05,-1.823614182232420600e-04,1.181206107139587402e-01
2.502970782487342616e-01,1.319671771633174895e-01,1.287454526397987242e-01,1.555662225969861665e-04,1.346376339833383025e-05,-9.968215940274714748e-04,1.199859380722045898e-01
2.461694024169239770e-01,1.264219464459586661e-01,1.186095719448727326e-01,-6.905007542978182497e-04,-4.848455672474554661e-04,-3.021157481864257706e-03,1.239577159285545349e-01
2.811723112684020309e-01,1.585552313140266012e-01,1.679854514827090750e-01,2.906354239978391207e-02,2.206102739902764814e-02,-2.035945739467231314e-02,1.385829299688339233e-01
2.961224496345541413e-01,1.129920480630038776e-01,1.525452509600456474e-01,2.287106191936219557e-02,2.472604823778255453e-03,-5.559812002270347886e-02,1.967710703611373901e-01
2.261782604085001980e-01,1.177266780247886169e-01,1.100245520748031752e-01,-2.674366494607835227e-03,-3.486034538131768581e-03,-4.256724812083197487e-03,1.129984483122825623e-01
2.441313874419826779e-01,1.302836771040570552e-01,1.246484710814822067e-01,-3.621372292906117635e-03,-2.857753870803944347e-03,-4.792881581325748527e-03,1.173344403505325317e-01
2.516134371930512925e-01,1.349115859930959394e-01,1.308816594856847537e-01,-2.172755380991651161e-03,-1.907340474767582226e-03,-4.417074327910539867e-03,1.191195622086524963e-01
2.365857864920427045e-01,1.152812021600417292e-01,1.278405800816065641e-01,-1.162627575162528994e-03,-2.633140599801751629e-03,-1.092985582052101272e-03,1.156610101461410522e-01
2.383215128080872769e-01,1.233828928085075882e-01,1.240593259232206647e-01,-1.256361060891184782e-03,-4.924537348070889917e-04,-1.505222830432818501e-03,1.146553754806518555e-01
2.388019723105500036e-01,1.224631518859988361e-01,1.214380373977379246e-01,-5.545517420220513576e-04,-2.309757926608929407e-04,-7.504872600548108960e-04,1.168666109442710876e-01
2.337101161081699685e-01,1.159529514601513323e-01,1.273235893354683068e-01,-1.334233744824329373e-03,-1.527610523046857771e-03,-9.156772832236974736e-04,1.125696375966072083e-01
2.401340189068679742e-01,1.286970115939317649e-01,1.210104023246093702e-01,-2.152279292319394816e-03,-8.907676718542168913e-04,-1.368756913277824295e-03,1.155671253800392151e-01
2.485123098671888076e-01,1.148749705932657766e-01,1.260484163485601217e-01,1.185319790024648781e-03,-2.743504462053454867e-03,8.847487610822032944e-03,1.294303834438323975e-01
2.448531286610567959e-01,1.105579434743836770e-01,1.299178298196844716e-01,3.121721628730387676e-03,-2.856573385958981626e-03,7.021054887122901711e-03,1.265372037887573242e-01
3.028100602727807344e-01,1.659767186608767653e-01,1.722651375452634026e-01,2.857596820077160787e-02,-2.326053929833169984e-02,2.849571652244678802e-02,1.562414020299911499e-01
2.563858428553270619e-01,1.112212278476770178e-01,1.485402144123667001e-01,-1.088585316255035818e-03,4.555676912521797206e-04,1.517215077390314786e-03,1.306107193231582642e-01
2.400647041467865450e-01,1.166563981122506755e-01,1.238259067775941552e-01,1.248021135763834185e-03,-2.198166006313029622e-03,1.715343735764170759e-03,1.201009154319763184e-01
2.259523512581673166e-01,1.262508546583725466e-01,1.492720600963964861e-01,1.083511911194514829e-02,-3.299415389416137669e-04,1.794435775607915607e-03,9.239751845598220825e-02
1.822922904719091186e-01,1.440502960575381353e-01,1.331288275185858738e-01,3.546689604017532285e-04,-2.327074195709158671e-03,-4.396628782914665796e-04,4.490646347403526306e-02
2.645337861073498442e-01,1.157154902281148923e-01,1.484658944129895464e-01,-2.895640553509427092e-04,2.054724478970688538e-04,1.154017586417739475e-03,1.354621350765228271e-01
2.558984852688823142e-01,1.099641869973629060e-01,1.450159527489283118e-01,1.646700048208278588e-03,-1.479789853997543923e-03,2.015585372994371360e-03,1.320495456457138062e-01
2.615044152489685580e-01,1.095345740980468857e-01,1.455056381635317364e-01,4.474971175933933551e-03,-1.327263673168393825e-04,-4.661664229786602982e-04,1.377788633108139038e-01
2.563327918440513886e-01,1.103743842984860057e-01,1.485423287642110013e-01,8.926896811741386051e-03,-1.033455837682876099e-04,4.350070401563909880e-03,1.322330683469772339e-01
2.569507476410978208e-01,1.099950804513622066e-01,1.464360093326988743e-01,3.590034717192698652e-03,-9.606547741280920547e-04,6.040909072178328107e-04,1.327073425054550171e-01
3.365547351249569275e-01,9.546958910033363777e-02,1.625588057209532977e-01,5.226811178386494422e-02,-1.469035479235764616e-03,4.271728466369132532e-02,2.452048808336257935e-01
2.369795326049998763e-01,7.880134705873953482e-03,1.119996815302337634e-01,3.446583793660652068e-02,5.186754142709438034e-03,-1.483545751424703886e-02,2.092327624559402466e-01
2.822430939389104498e-01,1.204315117257027806e-01,1.541279142084091835e-01,6.026010255406590715e-02,1.953636546187787967e-02,-5.380803627488710966e-02,2.063752114772796631e-01
2.520013779105292895e-01,1.338525584129714729e-01,1.299113529453791438e-01,2.751192516214022010e-03,1.538643154210895701e-03,-5.297814351747548271e-03,1.206413507461547852e-01
1.900064450517695569e-01,1.357259539056811237e-02,1.039501355962160201e-01,6.545737320299863105e-02,-8.531460843172767108e-03,1.340125203170152400e-02,1.922563016414642334e-01
2.550899442150978413e-01,1.326079010531815983e-01,1.437016425040116840e-01,6.405085884956257178e-03,3.063446458015486266e-03,-5.944970753547182928e-03,1.184204146265983582e-01
1.775380232422002214e-01,3.329202602602836930e-02,3.577281051565553427e-02,4.541034433438450452e-02,4.616691191715115855e-02,-5.218782254212149530e-02,2.029935270547866821e-01
2.631417349372518477e-01,1.381976928052769948e-01,1.134057230483258849e-01,-2.347080697157107303e-03,-6.271418861378574329e-03,-1.082802563424320290e-02,1.407462954521179199e-01
2.674384683867327972e-01,1.404960333513413373e-01,1.075293507634178108e-01,2.009167263896802572e-02,2.594302720024747183e-02,-3.250108303831508033e-02,1.666888296604156494e-01
2.481162226033020723e-01,1.066895611139628691e-01,1.376874157357318995e-01,3.268780730838580402e-03,3.393658631433557702e-03,-3.477357016302209079e-03,1.291562020778656006e-01
2.486580976042394586e-01,1.328663546643759907e-01,1.103851025925883522e-01,8.043116467015231068e-04,-1.390256029929573013e-03,6.279055639611941068e-03,1.290050297975540161e-01
2.535047874109740418e-01,1.361738235015991505e-01,1.191150597181337423e-01,-6.069551228938286367e-04,2.992232081138302292e-03,3.166682543248625428e-03,1.269532442092895508e-01
2.510929080590760254e-01,1.384526818155172589e-01,8.335303093035437150e-02,-7.004254756590013418e-03,6.309625070099725633e-03,2.289263111596998718e-02,1.541721820831298828e-01
1.639089339743752261e-01,1.256609318073506343e-01,1.256971455599825704e-01,7.310637130818444657e-03,-6.129064734266422877e-03,5.131923339293096263e-03,4.258600994944572449e-02
2.494427736708938470e-01,1.779418040299327319e-01,1.288162011491358339e-01,3.028814220898413609e-02,-9.436806859083129995e-02,3.830584487875431619e-03,2.013712376356124878e-01
2.520938769633769283e-01,1.333989106441211270e-01,9.621139840096171181e-02,7.970709041067586807e-05,-3.267625362271639466e-03,9.160777228856461715e-03,1.420182585716247559e-01
2.717581342733059735e-01,1.396568564521034062e-01,1.366163551762549777e-01,-1.843999917632316299e-02,1.106227843157411676e-02,1.982708826803790056e-02,1.429272890090942383e-01
2.522791852608818886e-01,9.076821914801766478e-02,4.617111355687796015e-02,-1.929208359322651892e-03,5.796195095070444218e-03,4.431206047413160237e-02,2.031754106283187866e-01
2.865122638884214923e-01,1.565290962402406949e-01,6.972243311669658328e-02,4.015124635606129484e-03,4.368510928218661410e-02,4.302775953710187562e-02,2.168919593095779419e-01
3.175545613611689966e-01,1.399860493434946784e-01,8.937734996685177402e-02,-4.424943544039657006e-02,1.991072130790754596e-02,5.277721256473440203e-02,2.418635487556457520e-01
2.573034925947197959e-01,1.182113668035388587e-01,1.219173503158214045e-01,6.370225607018248359e-03,-9.674543116095050965e-03,2.267276797295817922e-02,1.441859006881713867e-01
2.333485207816398677e-01,8.806343651669693018e-02,8.624071051676557298e-02,2.012472551089716441e-02,-1.683252434192476429e-02,2.946352361865740843e-02,1.613852679729461670e-01
1.158003612511692010e-01,1.281209857191046853e-01,1.574041975573199914e-01,6.372871503286252348e-02,-1.493229713229620066e-02,2.639181209209573442e-02,1.277209520339965820e-01
2.418989629587210699e-01,1.272555811412585669e-01,1.210702248848954249e-01,2.324962115884092548e-03,-2.815042256407294073e-03,3.749564603977587063e-03,1.182059273123741150e-01
1.672284853275218808e-01,8.458791429633422121e-02,9.707982144722908380e-02,3.523939846638269452e-02,-2.600596720920701072e-02,1.660519231106257626e-02,1.119586825370788574e-01
2.316464785915023916e-01,1.081614879130975149e-01,1.308021425571625485e-01,-2.910157187701805075e-03,-1.660720601766493484e-03,-1.351503616372665357e-03,1.140373721718788147e-01
2.168964300993306005e-01,1.018164795737722256e-01,1.832344239832713606e-01,7.598168037054225943e-02,-1.875811175371427941e-02,1.354774384951297136e-02,1.715475916862487793e-01
2.226767434671413914e-01,1.239346091795614779e-01,1.316340481243095384e-01,1.041511145754079465e-02,-9.201157137274242059e-03,9.894772352866527260e-03,9.961003065109252930e-02
2.353715859479204586e-01,1.166970936686426985e-01,1.318574365788843517e-01,-9.772707310151138114e-04,-1.584132775134637280e-03,-1.205071186102841304e-03,1.119333505630493164e-01
1.845825118199304060e-01,1.197961815131233232e-01,1.362687656684776483e-01,-1.004458318565797960e-02,-9.456944922135576345e-04,-4.127709899951866740e-03,6.130166724324226379e-02
1.487456054702408492e-01,8.437356122217883059e-02,1.195790582109687583e-01,6.058616388061333763e-02,-1.804483413881776202e-02,1.123843249480529702e-02,1.244377046823501587e-01
2.957725870188423478e-01,1.807360380079104101e-01,1.312065904506608538e-01,1.248859699040562495e-02,-3.221443719790155480e-02,8.810377755599148666e-03,1.587398648262023926e-01
2.574268365915997059e-01,1.419065143950682395e-01,1.233331356245973010e-01,3.423044572675701218e-03,-6.547831377035739052e-03,7.337105088882552376e-03,1.271250993013381958e-01
3.166092199097064186e-01,1.766899852338792987e-01,1.353675001386723531e-01,1.982559861302381210e-02,-7.384512685591794467e-02,5.565663797431698312e-02,2.321598678827285767e-01
1.996543325253469781e-01,2.005597051111135398e-02,8.240726104698736787e-02,5.017771257471512897e-02,-2.605043092125398918e-02,3.861771116222940947e-02,1.975052654743194580e-01
2.996054189400936263e-01,1.315937820408270009e-01,1.589868507522678442e-01,9.012001940094879759e-02,-2.641255116300850886e-02,2.970712767921168326e-02,2.312600165605545044e-01
2.310033773260431744e-01,1.384733071172084273e-01,1.158996530685345028e-01,4.321297917147178826e-04,-9.385342845952679078e-04,-2.485659663984030499e-04,1.056575328111648560e-01
2.379611155550058199e-01,1.413479001954015268e-01,1.210091613386762854e-01,-2.191273607190781687e-03,-3.393715374083221270e-03,-3.538562861548911077e-03,1.086245328187942505e-01
2.009921161611758766e-01,1.209778904492965768e-01,1.024188613325149599e-01,-1.938737103020318894e-03,-7.481490817828555240e-03,-3.457164504911318468e-03,9.190620481967926025e-02
2.051758417702495563e-01,1.317938147564176876e-01,1.091494366832339719e-01,-7.810115955559243130e-04,-7.695846856624874444e-03,-1.490815849557470532e-03,8.800883591175079346e-02
2.226901863508883028e-01,1.296739843165184980e-01,1.070490241788377983e-01,-9.796884855300628126e-04,-3.491916706381603674e-03,-2.121211127527005032e-03,1.064018309116363525e-01
2.080691002499147624e-01,1.393346358055546352e-01,1.126505913264395087e-01,4.920002383792832510e-04,-6.029526061680106665e-03,-9.640879940542462732e-06,8.590908348560333252e-02
2.324821876102698415e-01,1.077856595858875388e-01,1.343140627968226197e-01,-3.269160307688970344e-03,-5.826661752654737052e-04,-7.800641909136774629e-04,1.139293089509010315e-01
1.676579373794424843e-01,1.350905979790747169e-01,1.398820696354000359e-01,7.661844853334433617e-03,-1.052093189436368757e-03,1.752542001520735089e-03,3.340944275259971619e-02
1.416849575999561128e-01,9.874276195926748323e-02,1.174313363316628472e-01,3.405716611592287529e-02,-2.726832204145444361e-04,-4.714317074791549785e-04,6.979490071535110474e-02
1.453112356783688164e-01,1.455985120216106155e-01,1.311135828076588350e-01,2.408992203715107708e-02,-2.534137580772471976e-02,-1.423171709619917011e-04,6.223603710532188416e-02
2.179895449071857505e-01,1.520613064325486152e-01,1.360887354798584192e-01,3.263559276306713698e-03,-1.429298374764249174e-02,1.759009922458196380e-03,7.942796498537063599e-02
1.589668119517814171e-01,1.321921949158994525e-01,1.423818994420411599e-01,1.309979340385250025e-02,-4.480161501829020912e-03,-6.962001121225881327e-04,3.353159874677658081e-02
1.628866410433033318e-01,1.277490060283148210e-01,1.249097041164390492e-01,7.807331682959309585e-03,-3.133414758213023347e-03,4.943753772258816306e-03,4.034999012947082520e-02
1.829571344232567565e-01,8.983801933268473205e-02,7.939752338440866919e-02,2.665813122715966071e-02,-3.391944114424039203e-02,2.439901253800948189e-02,1.308505684137344360e-01
2.274908642843596618e-01,1.356601649546603228e-01,1.352964601492248342e-01,6.071756677531714094e-03,-5.894728588491228091e-03,6.715484738486458480e-03,9.389645606279373169e-02
2.352645903311438580e-01,1.175393271401190820e-01,1.321851448448345956e-01,-4.382301153763186984e-04,-1.060767675594878655e-03,-9.910178862893867860e-04,1.111595854163169861e-01
1.597518884498544955e-01,1.367942914937272381e-01,1.312233854949446943e-01,-9.492777505477789819e-04,1.045469604719453244e-02,3.413702467366568419e-04,3.188943117856979370e-02
1.572975431167776827e-01,1.432364765327267253e-01,1.470268951145035918e-01,2.446830627612696721e-03,6.271136055509123411e-03,-8.293864251739992968e-04,1.722758077085018158e-02
1.487324031336851871e-01,1.436203529041037152e-01,1.433694705718417672e-01,5.005697120218785372e-03,4.690018174923504292e-03,4.194483696387227604e-05,1.298628561198711395e-02
1.093371869982899675e-01,1.243368593061660449e-01,1.217343621155759226e-01,9.355811990950187911e-04,4.888684091669453190e-03,-4.441175829151589624e-04,1.635976508259773254e-02
1.765182575153997624e-01,1.571346306653029767e-01,1.614668727696253470e-01,-7.907519836867457283e-03,2.592809855653203845e-03,1.610054708047514585e-03,2.293578349053859711e-02
7.873374288877105220e-02,1.213251389832807059e-01,1.272973565183894984e-01,4.360919915931393831e-02,2.288813295945470172e-02,-3.905952295995683988e-03,9.709127247333526611e-02
1.652403355442028099e-01,1.478887861775873280e-01,1.360054446988864241e-01,1.621893713016079675e-03,7.816945883335790421e-03,-1.578383718782403865e-03,2.910608053207397461e-02
1.158558586978332555e-01,1.286297334825381444e-01,1.304531616109825820e-01,-8.359443259679693802e-03,7.974139845986716541e-04,-8.313352922954590990e-04,2.008509077131748199e-02
2.426911869328338134e-01,1.270544824868633793e-01,1.295235464439866424e-01,2.736678282958304124e-03,-2.638169432654871235e-03,4.822987919977183777e-03,1.149154528975486755e-01
2.399719942660712424e-01,1.230706762847424834e-01,1.222553850582067392e-01,6.592999758617631599e-04,-4.246598719269295574e-04,3.798043667683065057e-04,1.173207983374595642e-01
2.341154115682329562e-01,1.190597202085206530e-01,1.226712078290806418e-01,1.944794693380363449e-03,-2.401087673944546971e-03,3.545141687269653865e-03,1.135855615139007568e-01
2.403514144307925537e-01,1.228747596807286957e-01,1.264045355947682192e-01,-4.191087708772709385e-04,-1.036648746384536248e-03,6.661582005711032652e-04,1.157740876078605652e-01
2.375761350483325818e-01,1.245062454390033213e-01,1.195627420182331924e-01,1.258134026238792334e-03,-5.042676096412630109e-04,9.744414997302031176e-04,1.156570762395858765e-01
2.333533315490093352e-01,1.263914551779500850e-01,1.162577322858093232e-01,9.821095534732081269e-04,-9.807907463137315648e-04,6.686852639653172951e-04,1.124036386609077454e-01
2.491778611436198110e-01,1.217669313317031043e-01,1.376334813181910588e-01,-6.082871616219557263e-03,4.276025156317622179e-03,7.056321425021556959e-03,1.215687170624732971e-01
2.583231030358693059e-01,1.157001335013075338e-01,1.375292153311857002e-01,-3.521655080948201105e-03,3.865462346689689608e-03,1.356195361715831563e-02,1.354189962148666382e-01
2.313644653408912788e-01,1.283550980191316415e-01,1.228900219870363714e-01,-3.497287275494898127e-03,5.102983237243002325e-03,6.577710478987457837e-03,1.069970279932022095e-01
3.389051206715927300e-01,1.849905452629341807e-01,1.647914741877798961e-01,-1.451805110318475948e-03,8.309032531363311908e-03,1.895716534985843194e-02,1.688140928745269775e-01
2.556759070192411443e-01,3.252433622700005855e-02,9.365369885008412165e-02,1.297245508108417576e-03,3.565786307128857545e-03,4.598487141980017040e-02,2.151263058185577393e-01
2.446659139636489511e-01,1.126928524897878453e-01,1.186005242619675298e-01,-1.584815491213403772e-03,1.535067163202725841e-03,9.909836468913951063e-03,1.303125321865081787e-01
2.684645670853547106e-01,1.382790525317850738e-01,1.356114537220089733e-01,-3.012045929412478489e-03,4.783519315426696013e-03,1.072685922504521688e-02,1.332055777311325073e-01
2.661918299850856151e-01,1.369031165922692528e-01,1.169607036890607243e-01,-1.930964194099776690e-03,-6.851679547564149680e-04,7.924729707065430659e-03,1.410411298274993896e-01
2.534048857825980106e-01,1.200018558762036280e-01,1.365898306907251669e-01,-5.202385305041438849e-04,2.378026448628843374e-03,3.033732332069175898e-03,1.261111795902252197e-01
2.519826593992386954e-01,1.240570933690161581e-01,1.299868921275196265e-01,1.003365136325765333e-03,-2.494925464527801367e-04,2.491770920138229421e-03,1.251534074544906616e-01
3.451805995604028121e-01,1.043312063463051470e-01,1.418346459315347474e-01,-3.874577002675928111e-02,1.156821102067732976e-02,3.887132025765627913e-02,2.445820271968841553e-01
2.546557666473567294e-01,1.232016345209614450e-01,1.373118652175614185e-01,-1.616168104804434737e-03,2.489769286627180941e-03,9.349515130568874371e-03,1.261471807956695557e-01
2.381682719646566748e-01,1.318281376729144028e-01,9.661862568038967480e-02,-1.302517928960761177e-03,-7.349796036170483729e-03,-2.919046956782484631e-04,1.282946616411209106e-01
2.494225323168668962e-01,1.347684504226353552e-01,1.026770486070729682e-01,-1.903188684964542436e-03,-8.723909461314370561e-03,-6.854978783122690246e-03,1.350369751453399658e-01
2.543265251375295133e-01,1.429768160275696753e-01,1.116675842993764267e-01,-5.757805789026236663e-04,-7.481058628715541500e-04,1.816823181495563332e-03,1.299148797988891602e-01
3.338965374715752166e-01,1.986949380759977513e-01,1.022098710409546640e-01,-2.102305636418142984e-02,4.849825741674367204e-03,-5.350014408095607465e-02,2.249823063611984253e-01
2.576096238289410367e-01,1.389678498444478771e-01,1.226105469610950932e-01,2.577253908339145381e-04,-7.900995035984249501e-04,-7.349846304325852002e-03,1.282506287097930908e-01
2.463278697594195599e-01,1.316508801362180625e-01,1.143384754821184096e-01,-1.989065853144914020e-03,-2.105735327597901135e-03,-3.247157031272627364e-03,1.244695484638214111e-01
3.182131431809213096e-01,1.762819188765066269e-01,1.186543205096378673e-01,1.410904016488875954e-03,-1.074807737582383975e-05,-2.817016069258047872e-02,1.844755113124847412e-01
2.593230266428189768e-01,1.628223402434865186e-01,1.237918267856486509e-01,-1.680914607732233307e-02,-1.983079478040776500e-02,-1.785566150679003539e-02,1.326127201318740845e-01
2.532386370897720673e-01,1.228654362958572221e-01,3.158190445707367844e-02,1.207498164516231272e-02,-2.667002972446688019e-02,1.764215305908620884e-02,2.018311321735382080e-01
2.091452724581238931e-01,1.120485888082475290e-01,1.469644312805503672e-01,-2.114110838629617087e-02,-4.419593513184289640e-03,2.651743653075680583e-03,9.315150231122970581e-02
1.796269193080611282e-01,1.369260110106036987e-01,1.283524468406301577e-01,-6.834940138341617961e-03,2.114265083207044621e-02,2.301689007295183113e-03,6.131924688816070557e-02
1.668785677631950959e-01,9.760867763589885227e-02,8.472258983267604016e-02,-5.577690138275092496e-02,5.678162206320097605e-02,3.095016519178864570e-02,1.665423959493637085e-01
2.197318177361765323e-01,1.395736162731156804e-01,1.093532993797613206e-01,-2.241412954778782430e-03,1.190837753778054876e-02,6.063459565584403306e-03,1.015470698475837708e-01
1.916212358269560601e-01,1.185208644636115416e-01,1.304045839113227578e-01,-1.127003451344245344e-02,6.944983029582624603e-03,6.329076167604792344e-03,7.254029065370559692e-02
1.815483656785384647e-01,1.332362785444850262e-01,1.145126028329942064e-01,-8.150315759328617552e-04,1.077287376629307812e-02,7.441646231261992523e-04,6.277763843536376953e-02
2.337006329692621898e-01,1.153198120549963901e-01,1.369023324385924278e-01,-7.166321363217813701e-04,-7.606875218238480377e-04,-6.381962324159426653e-04,1.092216372489929199e-01
2.571901238259743927e-01,1.212531291107012688e-01,1.240630169354472040e-01,-5.336980883384788779e-03,3.125916733221230977e-03,1.388862663806497352e-02,1.371066719293594360e-01
2.296924770084374234e-01,1.674862645564979269e-01,1.729639980669001043e-01,-3.518013284676853314e-02,2.627002691827324404e-02,1.183784469591710534e-02,9.880557656288146973e-02
2.151345513002922427e-01,1.320163243415472254e-01,1.182261852525871015e-01,-6.021292895249916661e-06,8.646976452343625025e-03,5.403834437188838671e-03,9.250369668006896973e-02
2.177832379746632019e-01,1.425552372138969015e-01,1.189255308350035401e-01,-2.123786022811095364e-03,6.871396064639343458e-03,3.303008657888073085e-03,9.046071022748947144e-02
2.085943393724447315e-01,1.282879397337942928e-01,1.263663414758926518e-01,-4.920229588334938849e-03,4.464659862672281862e-03,8.064989565789999759e-03,8.327475190162658691e-02
2.480683984534793329e-01,1.538693897860836379e-01,1.150486900363227594e-01,-2.114216949778978968e-04,1.212037996731891824e-02,7.634231778388940546e-04,1.203327253460884094e-01
2.433904847198654076e-01,1.258649945861695096e-01,1.263198272222808283e-01,-1.417586548035642234e-03,1.306643348988792636e-03,1.188420267971980037e-03,1.173643097281455994e-01
2.397991704381384759e-01,1.224311011648379632e-01,1.238663706623018834e-01,-1.361894464959843300e-04,5.252935368026893492e-04,3.051668994224737805e-04,1.166620403528213501e-01
2.416099945711725483e-01,1.245130212670781389e-01,1.237673396496994371e-01,-3.712490810031798404e-04,3.209105782068192724e-04,2.140209364965653415e-04,1.174752488732337952e-01
2.410501457371359013e-01,1.263756059555400935e-01,1.222585534634007820e-01,-1.300786703466294070e-03,2.910141167339633456e-04,7.614531329183920477e-04,1.168177649378776550e-01
2.416032418006114346e-01,1.248045806394825624e-01,1.254528998297454179e-01,-8.709284073951722646e-04,8.590293034212471979e-04,1.784199615724191886e-03,1.165361031889915466e-01
2.375749499868154424e-01,1.229907154906234867e-01,1.203158290708170042e-01,-1.324039764201386579e-03,9.747543371067719526e-04,1.455161303431960935e-03,1.160071715712547302e-01
2.397340301132351026e-01,1.270931609497698567e-01,1.241645566885770657e-01,-2.130095076269420881e-04,2.279563215432128429e-04,5.934863182156394426e-04,1.141392663121223450e-01
2.380911980528437610e-01,1.227426823975478476e-01,1.228339035230824605e-01,-8.459295047229689699e-04,6.876201250313618979e-04,1.780854642261623343e-03,1.153596341609954834e-01
2.423872455383170033e-01,1.108097061469986849e-01,1.364804216078493448e-01,2.610537881861653593e-03,1.517986649503275196e-03,-1.602108948183338143e-03,1.209504157304763794e-01
2.495516368312824806e-01,1.270027162494312689e-01,1.157214222141850490e-01,1.771422313800979920e-03,1.898023829629992510e-03,-6.929813278955544373e-03,1.291987001895904541e-01
2.313119286849568135e-01,1.115405710653586402e-01,1.471070090142750642e-01,2.644532565127749243e-02,5.481801835622791136e-03,-1.091596074036952366e-03,1.163705289363861084e-01
2.352239658919823562e-01,9.790641903334615370e-02,1.202537155017405074e-01,8.438778338310309532e-03,5.031014783659005195e-03,-8.072507438250648912e-03,1.295063793659210205e-01
2.548151385603805164e-01,6.951560430974672300e-02,1.586725638470379562e-01,1.119531144580046961e-01,-1.159623218121212489e-02,-5.661045709607286959e-03,2.527136802673339844e-01
8.473613972271999695e-02,5.258802160074245446e-02,6.848044941326063284e-02,5.840396665642035023e-02,3.782217650437881551e-02,-2.395238323791084104e-02,1.304642856121063232e-01
2.456966655047310433e-01,1.269578367713622424e-01,1.258559692158043308e-01,3.454533204043884736e-04,-1.273544565034737900e-04,2.771668132378791874e-04,1.192962527275085449e-01
2.453295739013302001e-01,1.272991461833190563e-01,1.258792972799183119e-01,3.455012289003389072e-04,-1.680642511195892027e-04,3.139105854870431604e-04,1.187498271465301514e-01
2.469753618830047848e-01,1.277436690000303687e-01,1.281408126601568942e-01,2.324308124303801546e-04,-3.055917101264136814e-05,3.958933615216845767e-04,1.190362870693206787e-01
2.411682465381898566e-01,1.175216573215290550e-01,1.248081215512098496e-01,1.084023638068366737e-03,-2.630642644196075700e-03,1.993643114107896980e-03,1.203197240829467773e-01
2.444857430350713678e-01,1.190886522582464135e-01,1.263381940547255167e-01,1.272377470237636256e-03,-1.815479917288716173e-03,2.418739000827983127e-03,1.220664158463478088e-01
2.316550297492825650e-01,1.139392832626165281e-01,1.322297170707623093e-01,-2.769487656598661890e-04,-1.034065680749899404e-04,-7.596316576569748635e-04,1.097290217876434326e-01
2.471488451985413559e-01,1.256563384223071955e-01,1.265661492943832567e-01,-1.049567467159063958e-04,-4.855938612533787111e-04,1.878011518226222962e-03,1.210869252681732178e-01
2.487492254846281892e-01,1.268946966497385698e-01,1.318094925606453638e-01,-1.174838777074572647e-04,1.630192708370118673e-04,8.870840692380025988e-04,1.194833591580390930e-01
2.352524029264672911e-01,1.127897756226168835e-01,1.267445830055109468e-01,1.904120528068282926e-03,-2.200630242030024355e-03,1.446382121400046662e-03,1.162521839141845703e-01
2.442812063322988281e-01,1.212552991765272203e-01,1.453759287994934590e-01,1.380788567589200967e-02,-1.916527214019595133e-03,7.875048955592761982e-03,1.162701919674873352e-01
2.327498619034480964e-01,1.149322658734423103e-01,1.269524203290771092e-01,1.698884085461628991e-03,-1.630122000364726820e-03,9.950494564806527768e-04,1.123783141374588013e-01
2.315438687439652921e-01,1.194844260763832933e-01,1.219795978241171308e-01,1.132031830666261393e-03,-1.316254749971421546e-03,2.653045793221517259e-03,1.109688952565193176e-01
2.385680427657332625e-01,1.211393049882868722e-01,1.289189383120344923e-01,1.126812809388661601e-03,-1.125399394850860359e-03,2.755219251871119171e-03,1.138721257448196411e-01
2.418198144170200792e-01,1.441747003461835153e-01,1.141790204563867817e-01,1.157951922952738834e-02,-3.494865696318667780e-02,4.502763494429934399e-03,1.322518289089202881e-01
2.383727905288402504e-01,1.232842718449829872e-01,1.230412303079971015e-01,9.019552912344167570e-04,-1.393257113836443269e-03,1.468283031280229189e-03,1.152741461992263794e-01
2.454374717244900139e-01,1.260322682365657976e-01,1.244235334893791650e-01,1.007957975784409517e-03,-7.130953421676006383e-04,1.399071151108844399e-03,1.202610805630683899e-01
2.357217808349370003e-01,1.225585549225639281e-01,1.211024455388607368e-01,1.950790516525564931e-04,-8.757392633575628070e-04,1.018655379011762117e-03,1.139225289225578308e-01
2.382064444044116880e-01,1.231370422200311343e-01,1.258265512690063537e-01,8.604416046582254911e-04,-1.394750519232542535e-03,2.627752157800275143e-03,1.138748973608016968e-01
2.804149901782385657e-01,1.312816865288951862e-01,1.542587903518696235e-01,2.656143448663945972e-03,-1.023448987226882254e-02,-2.294397480240715700e-02,1.457968354225158691e-01
2.491592244382594967e-01,1.137125924815337585e-01,1.299422327449341885e-01,-1.135314199377553861e-03,-1.599898579544120148e-03,-4.300521832889296452e-03,1.283665448427200317e-01
2.653260735824606309e-01,1.264813687232257955e-01,1.327678438973267927e-01,3.310748531147502793e-03,-7.997320354864975766e-04,-1.128521495144857098e-02,1.373368054628372192e-01
2.520975820687856306e-01,1.230966229852503424e-01,1.298996028958060989e-01,-2.422955693547062411e-04,-8.639748057185538252e-04,-2.822240211647404629e-03,1.258421540260314941e-01
2.527182452407401025e-01,1.236132780035430201e-01,1.359109172343384575e-01,-9.194416611677631249e-04,-1.301219002151135767e-03,-1.320404537578174099e-03,1.234685555100440979e-01
2.539318141496321179e-01,1.077401195189707506e-01,1.421847773666763404e-01,1.353503251086965497e-03,9.050084212987887216e-04,-2.851130306019623601e-03,1.324962824583053589e-01
2.530580163614384315e-01,1.446204193889581990e-01,1.143654856459478952e-01,4.035404855517209298e-04,1.003195547268881729e-02,-5.636425523061314342e-03,1.278771460056304932e-01
2.250275674463998454e-01,1.278831097139816186e-01,1.250173671760287930e-01,4.488672247160345984e-03,7.717849557756617518e-03,-4.397959356445268163e-03,1.001040264964103699e-01
2.283279867491345982e-01,1.479206542826993487e-01,1.242718351521010650e-01,-1.641265432597532057e-03,8.804379993481025943e-03,1.538656424290796732e-03,9.578037261962890625e-02
2.441040046977818179e-01,1.414998119360856565e-01,1.118734105578467197e-01,2.123949376966617619e-03,2.683402112711871616e-03,-2.173816366038259021e-03,1.203928962349891663e-01
2.464937907810216267e-01,1.432266135924599726e-01,1.168397993183423467e-01,2.739559956206046986e-03,3.773579836436702448e-03,-2.178000401715735144e-03,1.190156787633895874e-01
1.947129607613125035e-01,1.389915111600971975e-01,1.250113499936454653e-01,3.685321056971830114e-03,8.435199491503083888e-03,-3.072278548937646975e-03,6.604421883821487427e-02
2.807609713051605338e-01,1.804511442904669916e-01,1.214706743498326080e-01,-4.906931703353197526e-03,3.455821114793577314e-02,8.191305728759826210e-03,1.526873111724853516e-01
2.157205489575921842e-01,1.259181802574374232e-01,1.228888672876341931e-01,4.223959550914883378e-03,-1.940462155107071504e-03,5.807772413113409041e-03,9.225884079933166504e-02
1.897506085900443895e-01,1.330769621694127824e-01,1.192562462226195857e-01,-1.232135820663847079e-03,-1.176163810775512214e-02,2.891596605868688736e-03,6.805021315813064575e-02
2.036809308652026140e-01,1.376167922040405500e-01,1.209848513861459529e-01,5.716113014632331468e-04,-3.072074170340200003e-03,8.905977398041540517e-04,7.597064971923828125e-02
2.314667697618891795e-01,1.351244884769027543e-01,1.219091236370126174e-01,8.573250491573406688e-04,-1.178891191189780641e-03,4.297858810972498243e-03,1.038819923996925354e-01
2.079519646828393575e-01,1.315376866662580357e-01,1.519281760459705310e-01,4.245436982944982701e-02,-2.180660296159507138e-03,7.667109076109600470e-03,1.014619618654251099e-01
2.448611994354959742e-01,1.348046346974717258e-01,1.177293731653863973e-01,3.190148867915829339e-03,-6.161285527136604184e-03,6.323102040763716770e-03,1.206135004758834839e-01
2.100766821258010508e-01,1.467863238110921897e-01,2.065289088582078769e-01,-1.118623900653329117e-01,-3.040401622459294739e-02,2.497986498242571116e-02,2.144259661436080933e-01
2.381167177077344044e-01,1.432322021832903303e-01,1.797616657801837659e-01,-5.680510206457835970e-02,-4.052129676243860189e-03,-4.264150970442796840e-03,1.290568113327026367e-01
3.344868683608769322e-01,1.876361141604617477e-01,2.298897847180417509e-01,-8.206095567917381928e-02,5.424550695527388666e-02,3.709313057155984306e-02,2.242832183837890625e-01
2.501212793102332022e-01,9.672280512274389341e-02,2.171836956454949452e-01,-8.673687103002276910e-02,2.933927673300389116e-02,-2.294657744121928866e-03,2.114980667829513550e-01
1.422084003897328419e-01,4.140594764602948535e-02,1.116715236820501611e-01,-8.780667213249154779e-02,-9.320647057833092095e-03,-5.051473087549693958e-03,1.774335205554962158e-01
4.853364448443114876e-02,5.442917426357617855e-02,9.103460731459567246e-02,-8.091124191009312072e-02,7.418522932660080553e-03,5.326226698273180474e-03,1.465626806020736694e-01
2.306267206390307800e-01,1.029509420163205735e-01,1.645002626443494431e-01,-4.033718994812280495e-02,2.311766164551492912e-03,1.108065555914090547e-02,1.322751194238662720e-01
2.019567542970499285e-01,1.428793313402025034e-01,1.299363842747277564e-01,3.858970923051644429e-03,1.610350086170925579e-02,-5.739184315468018500e-03,7.310099899768829346e-02
1.640849479105370434e-01,1.116459107646456117e-01,1.073869203687154161e-01,1.872324861058059786e-02,2.454189279373098637e-02,-9.475007890041211439e-03,7.822563499212265015e-02
2.383758363047419060e-01,1.336352102601183478e-01,1.101829529984071909e-01,-1.895536481387461759e-03,-2.838431203424261143e-03,-9.622285716482172372e-04,1.183838620781898499e-01
2.368143316547343669e-01,1.388751452882245330e-01,1.125052562142140888e-01,6.752814934079283263e-05,-2.224268166927397851e-03,-6.029755972374274339e-04,1.135167255997657776e-01
2.397668574854569523e-01,1.366088039463823622e-01,1.178278172344269237e-01,-2.050535660806038826e-03,-2.404355942671069623e-03,-2.374823647500137139e-03,1.139236390590667725e-01
2.623501192611656374e-01,1.134167920439309585e-01,1.657501381211134717e-01,-4.247094980812642084e-02,3.043004057078438525e-03,3.968580849167176877e-03,1.503732353448867798e-01
2.480074294684456448e-01,7.492345473649907051e-02,1.298292016778284652e-01,-5.758155627888258792e-03,2.711221406918167768e-03,3.776806259499269468e-03,1.537325978279113770e-01
2.788952316083176397e-01,1.122032946894808703e-01,1.755376362954927938e-01,-2.124327464843761646e-03,-3.965481858059712560e-03,-3.520442991979734395e-03,1.460753530263900757e-01
2.304384451159771641e-01,6.057812340893975467e-02,1.316644085880715465e-01,-5.403366634927051632e-02,8.508818408287469395e-03,8.864783329283532076e-03,1.761899888515472412e-01
2.589276164115124623e-01,1.077032222451350107e-01,1.407744566244783779e-01,-2.467550542387510117e-03,1.229989110575574701e-04,8.725385104585347759e-03,1.385931223630905151e-01
2.769234385094934137e-01,1.204296064245992531e-01,1.652481037328924485e-01,-4.906238813468731010e-03,-8.535066423841586401e-04,1.076262987918471560e-02,1.410925239324569702e-01
2.234309192982324443e-01,1.267405501123655132e-01,9.425072480435517375e-02,5.099860364132654915e-03,1.517825880678107253e-02,-4.221173473673496199e-03,1.198694631457328796e-01
3.581892738689783640e-01,5.325238869453469137e-02,1.675083470521971651e-01,-3.898155315878745059e-02,-1.070768850027464976e-02,-3.027813742692903130e-03,2.759170532226562500e-01
2.245060398179860583e-01,4.103766678902104337e-02,1.072330872072065344e-01,-2.971161973909529005e-02,2.711494484819949521e-02,2.597320755144968615e-02,1.810401529073715210e-01
1.491617321459055567e-01,4.684092140384746306e-02,2.816795999515167570e-02,5.193072139860383657e-02,5.699148702284287382e-02,-4.619906885657509843e-02,1.922665089368820190e-01
1.041142281492572763e-01,1.287066636340490622e-01,1.147048964979325292e-01,3.477494223493460268e-02,8.160300025101822896e-02,-1.977767704943695932e-03,1.551556438207626343e-01
2.260800853650002384e-01,1.221046672520851861e-01,1.258722329824393804e-01,1.601738321762864736e-02,6.853593710488848148e-03,-1.035511858539174372e-02,1.080074906349182129e-01
2.056952450498366891e-01,1.056926852112711618e-01,1.243336630703073958e-01,1.228008904156221819e-02,4.578842940212934920e-03,-6.875600794968831156e-03,9.560843557119369507e-02
2.355899740028841727e-01,1.536625772088651143e-01,1.701595581218490194e-01,3.719100785717521784e-02,1.847522928164484213e-02,-1.771351131033119253e-02,1.083859503269195557e-01
2.407149104837961739e-01,1.384560413843972659e-01,1.408711788185951774e-01,6.402484214222996066e-03,3.804038604150479248e-03,-6.475248452363946937e-03,1.025081202387809753e-01
1.986399812912287566e-01,1.857366029359805715e-01,1.823620132691604334e-01,2.507422360447002577e-02,2.245923514397895476e-02,-4.804408768381515996e-03,6.074600666761398315e-02
2.426133009794423367e-01,1.264085745351791745e-01,1.260540923042336725e-01,-7.043467565042393604e-04,8.835042053317662550e-04,1.694678496478274968e-03,1.164358332753181458e-01
2.445108131674743057e-01,1.264089969804813307e-01,1.256043618279272522e-01,-2.482539606003191608e-04,1.763605936694125379e-04,3.406535071316876698e-04,1.185088232159614563e-01
2.436721820590779242e-01,1.242791869949721600e-01,1.254227560725982293e-01,-1.686949751186811626e-04,4.167787087108719706e-04,4.349455313891101814e-04,1.188302785158157349e-01
2.434200439599149557e-01,1.245716107047613597e-01,1.254640107459523146e-01,-1.766094675414525098e-04,5.030792129567508925e-04,3.572233384780800283e-04,1.184099763631820679e-01
2.423452367811664288e-01,1.235728969414201517e-01,1.220593186201518604e-01,-8.006488388145416388e-04,7.134406816614761527e-04,1.092753095644123174e-03,1.195657253265380859e-01
2.408421036753458366e-01,1.260164412474374385e-01,1.219582520232827261e-01,-1.689167249300675255e-03,2.633644764886702242e-04,7.987424458813743204e-04,1.169532686471939087e-01
2.468501288976134300e-01,1.286132063118330948e-01,1.275308124559375311e-01,-2.567454757831625516e-04,-1.642714207838631701e-04,3.858625401327848525e-04,1.187848746776580811e-01
2.465303940673207461e-01,1.278041947307790027e-01,1.276083847859808551e-01,-1.309313522364215785e-03,3.569024373711048069e-04,2.033153051963760335e-03,1.188996359705924988e-01
2.429856175433759702e-01,1.177467065704194682e-01,1.248108666500710173e-01,-1.077719693139010584e-03,2.076859933316209383e-03,2.698320690433681293e-03,1.220174059271812439e-01
2.396365161157747170e-01,1.158506215736838790e-01,1.227413552538234032e-01,-1.522510750650511724e-03,2.437619153780314248e-03,2.811940993042483933e-03,1.206894963979721069e-01
2.422417432758420808e-01,1.240514667652597713e-01,1.242061077188761353e-01,-2.733020241609612159e-04,5.558330136708250404e-04,2.652723093264722502e-04,1.181188002228736877e-01
2.433485238991338062e-01,1.246424426484334103e-01,1.224562377989121265e-01,-1.188897564160104657e-03,1.313663707650489546e-04,1.366806089550673875e-03,1.198554337024688721e-01
2.403372408841357166e-01,1.252928934384212323e-01,1.191924212047125731e-01,-1.646357553488784955e-03,3.398789244613640691e-03,2.608628467044296021e-03,1.184797212481498718e-01
1.899470619788436176e-01,1.171941647108509371e-01,1.018495189622795893e-01,-2.126842055838225679e-02,2.944634678173862347e-02,1.499313451880415239e-02,1.061955317854881287e-01
2.350022667389726205e-01,1.133414649890827491e-01,1.194926531721760554e-01,-1.385235605598152423e-03,3.386487733013462953e-03,2.750575662602534801e-03,1.189692690968513489e-01
2.434189056404726381e-01,1.251173686353984904e-01,1.239475565203692620e-01,-5.077095897689827423e-04,2.268733453009854988e-04,3.690407344355540976e-04,1.188963800668716431e-01
2.667608193437299713e-01,1.485224956122013218e-01,1.093368367753761727e-01,4.378632534875067338e-04,1.764425771662864488e-03,-1.945384228773684981e-03,1.420222967863082886e-01
2.612436061254736486e-01,1.443915116357492867e-01,1.104692008514713275e-01,4.095010145712990775e-03,1.200700567539397974e-02,-6.797150041877612556e-03,1.392495781183242798e-01
2.480225569109627271e-01,1.347177662149839639e-01,9.871850281337053723e-02,3.678499674800360560e-03,7.076714382422199384e-03,-9.081650678014129355e-03,1.365689337253570557e-01
2.667165415081608759e-01,1.478897568587705380e-01,1.096274735882341589e-01,3.258760697848456624e-04,1.568161958276559874e-03,-7.468074775564835554e-04,1.419146209955215454e-01
2.544102714108019692e-01,1.425574467741910489e-01,1.023726535201538723e-01,4.306412330045080589e-03,7.585734204493056396e-03,-1.239979619706992314e-03,1.373081654310226440e-01
2.482797450650215398e-01,1.310196459081345299e-01,9.118312177382970063e-02,-5.754613898929746615e-04,1.304398936171002063e-03,-1.129434823964611118e-02,1.428177058696746826e-01
1.801815356265818735e-01,1.439530102745634754e-01,1.526762079694220786e-01,1.513014284627675794e-02,1.004193330011491671e-02,-5.689616331634813132e-03,4.646473750472068787e-02
2.276742049031426351e-01,1.377506938461613151e-01,1.127672771310475469e-01,1.299135923787445067e-03,-3.248829527492724800e-03,-9.451077723325459427e-04,1.048637852072715759e-01
2.407196381600875679e-01,1.240658089033171430e-01,1.233130667802418007e-01,2.684265698417198664e-04,-3.527094966135785347e-04,1.676494754014253594e-04,1.170348972082138062e-01
2.414237520204603471e-01,1.239814980234609232e-01,1.236368696568188041e-01,1.587705858646793605e-04,-5.788461934217534882e-04,3.901073974616096830e-05,1.176195591688156128e-01
2.424650514013829139e-01,1.245345208819987753e-01,1.242319639056167213e-01,-3.397134125839698556e-05,-8.134191315660831275e-04,2.362350987403939305e-04,1.180912256240844727e-01
2.359091835231475476e-01,1.218836249249850012e-01,1.223271918187981006e-01,7.499818341684200357e-04,-3.210918216777681631e-04,1.082905195128766119e-03,1.138286516070365906e-01
2.369492163498343185e-01,1.398247260027749017e-01,1.172174767606610768e-01,3.643598784368472579e-03,-5.318617222880603172e-03,1.941197949009960217e-03,1.107969656586647034e-01
2.398387855267753443e-01,1.226459981666162269e-01,1.224252620659535551e-01,3.645492745915632281e-04,-6.965031603650399415e-04,3.647727072102218858e-04,1.173129156231880188e-01
3.020091561409770642e-01,1.442605089026042786e-01,1.109659211989892785e-01,7.330498741353104301e-03,-1.623058111039358403e-02,2.285264669825911449e-02,1.837486773729324341e-01
2.705164701068360489e-01,1.412329984115515413e-01,9.978769141361540362e-02,-1.351748084763144779e-02,7.996660624192635999e-03,1.518706745506308471e-02,1.588145792484283447e-01
2.611432044538347652e-01,1.404483326202558002e-01,1.205141191294254732e-01,-1.604001996567282554e-03,-2.610032650522121607e-04,5.399813310057894125e-03,1.321589201688766479e-01
2.665839629596138960e-01,1.487043167953232825e-01,1.355536478982874160e-01,-5.967559768492166489e-03,3.717784966726228168e-03,1.014476747202834074e-02,1.267903745174407959e-01
2.591368318790372993e-01,1.440499145917004675e-01,1.127212742521089273e-01,-3.394007949248949944e-03,1.029369515963794550e-02,6.468629050241155032e-03,1.353143304586410522e-01
3.173210850652525838e-01,1.025982617279525416e-01,1.068106415680819821e-01,2.336997880550130760e-02,3.693910899871020309e-02,5.852347037105817135e-02,2.474390715360641479e-01
2.524435920797620247e-01,1.037772434320185649e-01,2.814414668289703936e-02,-8.808201280553405038e-03,2.503317847843699109e-02,3.715961922219860464e-02,2.128882110118865967e-01
2.321844021683713843e-01,1.391519982122546573e-01,1.239115026102974304e-01,2.442664867983401940e-03,8.246091302150987054e-03,-4.234120026626395604e-03,1.028632000088691711e-01
2.348505980407981641e-01,1.346529989433793706e-01,1.090379080086911756e-01,6.548497221767706324e-04,1.996275136140823921e-03,-1.191555040039949829e-03,1.152378544211387634e-01
2.193494001492589107e-01,1.298679270745129732e-01,1.072203328014032231e-01,-2.302893469008977789e-03,8.721661979035040882e-03,3.802381366689985311e-03,1.040858998894691467e-01
2.010182756199945520e-01,1.445421786470377223e-01,1.314502677796993979e-01,5.198692646266774020e-03,6.295374917316980470e-03,-3.844308902512350717e-03,6.591387093067169189e-02
2.111830493456949565e-01,1.098650886876895716e-01,1.339491766974738041e-01,4.928332855201428449e-03,3.002007744003317618e-04,-1.517046986797760668e-03,9.211548417806625366e-02
2.094621048302797439e-01,1.240106811712895635e-01,1.437636583833534487e-01,6.972185699881879549e-03,4.285478590719038472e-03,-2.505891470132097206e-04,7.877387851476669312e-02
2.341069347172502479e-01,1.183669780929127169e-01,1.384675286003156092e-01,2.851268304814079911e-03,1.199058488936466643e-03,-1.963762898537386396e-03,1.073014661669731140e-01
2.292928925228637782e-01,1.140946272446511783e-01,1.370137609617198271e-01,9.045383923640286155e-04,-2.641048850725906069e-04,-5.518316155588479490e-04,1.056374013423919678e-01
2.427745668683761737e-01,1.182423951765326775e-01,1.449230562898226604e-01,9.078126529373096304e-03,-2.393567711055246512e-04,4.493626471451622989e-04,1.146539747714996338e-01
2.335130739861717708e-01,1.066637119766765535e-01,1.349249309261307539e-01,3.346262343718548436e-03,-1.280975618781062366e-03,5.595199426766324672e-04,1.155162081122398376e-01
2.465211453888637716e-01,1.200851299958447804e-01,1.273760354074512380e-01,-2.478078158470382636e-04,-5.881204355044813547e-04,-2.810446859991349699e-03,1.230540871620178223e-01
2.523883448806177321e-01,1.207390915151382860e-01,1.384431533869223963e-01,-1.724168319349920738e-03,-3.250477840317289157e-03,-7.921356296728852484e-03,1.246719360351562500e-01
2.456548949262969961e-01,1.075981441525982740e-01,1.258660958481271908e-01,-3.558025756942197323e-04,-1.708422027291635770e-04,-5.086536285711048579e-03,1.301900744438171387e-01
2.473155516863753400e-01,1.137654683751741919e-01,1.302123786232298741e-01,-1.827191645904296989e-03,-2.412523001054683869e-03,-3.815130845122077698e-03,1.264151185750961304e-01
1.162462526976148075e-01,1.166387036626744811e-01,1.241209376184763402e-01,-3.288256137802624685e-02,5.865130281476078206e-03,2.216548947256204453e-04,5.836274102330207825e-02
1.870123063221018900e-01,1.202769411906687846e-01,1.397551883031037945e-01,-1.339477261015017615e-02,2.434073958663228855e-04,3.566424346230008969e-03,6.410709023475646973e-02
2.371079408772576447e-01,1.348415190932185648e-01,1.610309512622144223e-01,-2.997918665870140387e-02,1.431335238364854143e-02,2.157155928122239316e-02,1.147731468081474304e-01
9.189849939171565452e-02,3.983110570897586272e-02,9.590225072723851385e-02,-9.837533507908331754e-02,-5.867458215628171877e-04,3.688171690150485443e-03,1.789146959781646729e-01
2.843547476454085787e-01,1.521305998667774051e-01,2.067912043044464465e-01,-9.403407119278536785e-02,8.139205037242922339e-03,2.715603816268755133e-02,2.053822427988052368e-01
3.339786084736835470e-01,1.235526790041888284e-01,2.064353455077589383e-01,-7.668085563375810765e-02,1.900716384904094051e-03,1.012309684791320823e-02,2.273017317056655884e-01
2.319395148302371701e-01,1.158496274096562084e-01,1.320353814329097153e-01,-1.562128427700375764e-02,4.370753867928319283e-03,9.984437428873244730e-03,1.137905493378639221e-01
1.626111395990993691e-01,7.779616535214270434e-02,1.397417963818954889e-01,-8.461519981263772305e-02,1.955334513489891124e-02,2.330089834070536714e-02,1.732971817255020142e-01
2.320531018013147762e-01,1.231897892362692759e-01,1.497595819264482819e-01,2.360789164966559800e-02,1.181360777170378275e-02,-6.633004994636813520e-03,1.090292185544967651e-01
1.256190483377367106e-01,9.452342326215401602e-02,1.094034539628003927e-01,6.269574913810707639e-02,3.628341851988614586e-02,-2.516704188666619990e-02,1.355268210172653198e-01
1.489642654115358456e-01,1.552926361972533364e-01,1.511514160939518292e-01,6.160036343941454988e-03,1.590847931026664192e-02,1.689748437629336880e-03,3.020983003079891205e-02
1.596410745123592878e-01,1.480932484763619883e-01,1.426616581557389185e-01,3.089309796520160311e-03,2.309046891252092455e-03,8.451727001114076954e-04,1.650294102728366852e-02
1.551634648953692242e-01,1.302877929550385616e-01,1.146757102839148362e-01,-1.344859358657105649e-03,2.059945006714068022e-02,-2.165635861739307038e-03,5.043218284845352173e-02
1.486237027276416101e-01,1.106226112333572598e-01,1.238036660119101739e-01,2.487128887098815147e-02,-1.948600565190234876e-02,8.158819471414039196e-03,6.566189229488372803e-02
1.674365659588115951e-01,1.314843351988626008e-01,1.367690493824789688e-01,1.004954577414188081e-02,6.190105283269226218e-03,-4.038669201130779506e-03,3.996697068214416504e-02
1.966894215115084776e-01,1.431716014680273763e-01,1.518926839164955744e-01,2.404180720441025099e-03,4.903902291599000936e-03,-4.310398658450165926e-03,5.117328092455863953e-02
2.198105067956557523e-01,1.597865196413526534e-01,1.564482354098372108e-01,-1.371501551678243683e-02,1.132978702344719299e-02,7.672152272929513850e-03,7.028786092996597290e-02
2.025191230596310454e-01,1.469410010751196205e-01,1.501792413215204403e-01,-1.855628100215275800e-02,3.190268428691636626e-02,1.320522814609994405e-02,8.676936477422714233e-02
2.111471234408885955e-01,1.335528260245555654e-01,1.364206954094916435e-01,-5.122144632714436749e-03,1.339445326066082426e-03,6.539735528534621964e-03,7.758198678493499756e-02
1.828642722294835099e-01,1.558014931434051897e-01,1.488626168460359667e-01,-5.389090335849898265e-03,9.105905242423013163e-03,2.218351049033525420e-03,3.631762415170669556e-02
1.728902072191479955e-01,1.339957566243433207e-01,1.337341005148607598e-01,-8.739735279389756334e-03,1.093924561719869862e-02,6.543139133269584504e-03,4.732453823089599609e-02
1.960162874348972406e-01,1.672752680595205876e-01,1.453079078727140261e-01,1.935962485552166238e-03,2.329223432651286729e-02,2.847274732754416938e-03,6.002603471279144287e-02
1.765381389716974281e-01,1.189602174891658537e-01,1.240898419888476489e-01,-3.143554722057747414e-02,1.655934155067846983e-02,1.193990647472105079e-02,8.521195501089096069e-02
3.056024234037738041e-01,1.573410041992985009e-01,1.817032852061528092e-01,-2.803380673920063265e-02,-1.594151988782691043e-02,-2.190477346320644780e-02,1.533705294132232666e-01
2.987138104624529333e-01,8.791195648136439222e-02,1.445048112816263441e-01,1.236073580686368988e-02,2.988273961096042652e-02,-5.542412491301727112e-02,2.192329615354537964e-01
2.567733096517411662e-01,4.586507071829483417e-02,1.132254923447074957e-01,6.318977939971135577e-03,6.874999739941990403e-04,-3.175511534857461404e-02,1.948312371969223022e-01
2.522926839269918897e-01,1.121120720569487444e-01,1.318426994605749747e-01,-1.767009179221310259e-03,-1.734226895228064267e-04,-6.732989606214687811e-03,1.319829821586608887e-01
2.418441594863258715e-01,8.748633020153696871e-02,1.118485405671497401e-01,3.043904574494268184e-03,1.958563593972126229e-03,-1.930527823606223783e-02,1.477049291133880615e-01
3.581411483561439679e-01,1.152030404540247827e-01,1.804408682231557204e-01,1.729687042533449917e-02,-1.333254486807207428e-02,-3.369810227050661078e-02,2.286124378442764282e-01
2.759195379017592709e-01,1.308949684742097830e-01,1.482216266344199007e-01,-1.302850625619861617e-03,-1.172591854013577692e-03,-1.015742989874347281e-02,1.383411884307861328e-01
2.211211878426160571e-01,1.512539812310459975e-01,4.554795614650794522e-02,1.334150548354037270e-02,7.712914361596807933e-02,2.475472802721598656e-03,2.045474499464035034e-01
2.178712485487873662e-01,1.355026221440062129e-01,1.075592498070289116e-01,-6.905500206751299908e-05,1.010303335416841593e-02,-1.091613191976957293e-03,1.008805409073829651e-01
2.179470134660352054e-01,1.400098372126480639e-01,8.709773670377350674e-02,-1.547001056108868351e-02,3.624006425370710632e-02,1.870057148372485101e-02,1.367656290531158447e-01
2.523864105015987125e-01,1.499227636013859832e-01,9.084342117172600206e-02,-1.913622000169389048e-02,6.146761767382803721e-02,2.102164295054513576e-02,1.838525831699371338e-01
3.336255336095288460e-01,2.105428141277791432e-01,1.674918823528856460e-01,1.821911909753346501e-03,8.242889264639592650e-02,2.870529353464429737e-02,2.125254571437835693e-01
2.317550927466922039e-01,1.140471263633205251e-01,1.369168346247215673e-01,-9.689079604798540423e-04,2.839392376297120569e-04,1.391174079345800397e-04,1.081173345446586609e-01
2.320242170137799265e-01,1.152382527290205516e-01,1.363204770620697337e-01,-3.541131549115591418e-03,1.400652367938649227e-03,1.650046590560619785e-03,1.080415919423103333e-01
2.411351622681026097e-01,1.189047596733345258e-01,1.401999461649345025e-01,-6.659112117861349170e-03,2.423953624662884311e-03,2.731158878386226192e-03,1.138590052723884583e-01
2.358393336382299532e-01,1.304006574307412236e-01,1.449567821629788311e-01,-8.099988333138961535e-03,4.488936022176013424e-03,5.409907218764526717e-03,1.006950810551643372e-01
2.051423912693425000e-01,1.084934875946063776e-01,1.307929853825592070e-01,-6.230763483840630161e-03,7.409415519348241854e-04,1.759065510352019520e-03,8.837676793336868286e-02
2.014811590204625136e-01,1.068730301537863248e-01,1.304667367711096482e-01,-8.585646808964274637e-03,1.067800663138462642e-04,-9.861521455249819441e-04,8.659847825765609741e-02
2.328174888853018487e-01,1.144630060244335723e-01,1.370115365494635196e-01,-1.041292096557546549e-03,1.311730485505361492e-04,1.038162130834314301e-04,1.088615506887435913e-01
2.362614555037006459e-01,1.193144563575528339e-01,1.283691765512662564e-01,-3.663735027579875011e-04,1.651111079675072557e-03,8.948929034400052033e-04,1.127415150403976440e-01
2.244536642316212194e-01,1.117479491498789834e-01,1.347065403628451286e-01,-3.746830003977730510e-03,4.553765644995993664e-05,6.692316024071997020e-04,1.033710613846778870e-01
2.481472725589334294e-01,1.074672603878554927e-01,1.377612572330604856e-01,3.133672016784965018e-03,-1.747934678083369435e-03,3.288692165272724937e-03,1.285219937562942505e-01
2.356826626868545882e-01,1.144816594323876668e-01,1.214534061080937144e-01,1.111714119506310421e-03,-1.928509801516226129e-03,1.869028088822225842e-03,1.179773285984992981e-01
2.485622973676067105e-01,1.167021592539115998e-01,1.448881324798746151e-01,8.949364856219553174e-03,-5.018298683201237800e-03,6.448299526315411610e-03,1.220880970358848572e-01
2.416967784743254688e-01,1.110083022196119151e-01,1.371063213164073757e-01,2.719049916743936264e-03,-2.216608567669653158e-03,1.654727492591822301e-03,1.199792027473449707e-01
2.873758117192184991e-01,1.162915327547682648e-01,1.475472047806056231e-01,2.540440654471857497e-03,-9.909284737704398410e-03,1.685400932931367321e-02,1.614481657743453979e-01
2.832706637953655848e-01,1.549806348099564135e-01,1.935293991604236097e-01,3.536741170272987567e-02,-1.123537740563957006e-02,1.262113616667657687e-02,1.326953619718551636e-01
2.415894408117418568e-01,1.145853086582969277e-01,1.307640109119238558e-01,1.878771089589613072e-03,-3.299083460700099994e-03,2.524764968520063282e-03,1.199975088238716125e-01
2.918151370562624969e-01,6.695981749496517088e-02,1.921686297510029062e-01,5.041549678976613158e-02,2.226413834515219431e-02,1.311714063274308818e-02,2.184301167726516724e-01
3.131827438058866209e-01,1.399704118332623093e-01,1.700344996100502937e-01,1.278180057565813169e-02,-1.173509360686472366e-02,2.211994442393910160e-02,1.675411164760589600e-01
2.400627839055676782e-01,1.234137305696696302e-01,1.237430011849026401e-01,-2.370285233392052725e-04,1.000467644849698919e-07,-2.210757854235828276e-04,1.164861172437667847e-01
2.400763106061165608e-01,1.238848460208308716e-01,1.233117974942631867e-01,1.050566011041364879e-07,-2.392317435186661371e-04,-2.299533147752566131e-04,1.164804622530937195e-01
2.384801173428903742e-01,1.223578699985424789e-01,1.225528078342952576e-01,-9.087321855980779351e-05,-3.686533939224868428e-04,-1.878150370829531125e-04,1.160272210836410522e-01
2.386470940886403491e-01,1.228094216935801813e-01,1.213336835396559288e-01,-9.299477442335152885e-04,-4.591191951278742194e-04,-8.297165580536529665e-04,1.166052445769309998e-01
2.374051085656492255e-01,1.223329660576676498e-01,1.215514551209198879e-01,-6.160479708978393310e-04,-2.931883415380135815e-04,-9.385619379180584060e-04,1.154823675751686096e-01
2.389306993278087488e-01,1.243063919445394905e-01,1.242401148107486336e-01,-9.623855774067105072e-04,-7.301768824208465947e-04,-1.234100264744244450e-03,1.146964728832244873e-01
2.355282708759268151e-01,1.275292371300874861e-01,1.153322707471247377e-01,5.445357416481548529e-04,4.779413254957439209e-04,-8.113285570507413041e-04,1.146009042859077454e-01
1.453738752369124754e-01,1.148751157089720060e-01,8.781355205182923840e-02,6.624418755444210632e-03,3.274920627255458599e-02,-4.339576346293057101e-03,7.676928490400314331e-02
2.309404852059338542e-01,1.274039644735666665e-01,1.131742893485567780e-01,1.962361184265535262e-03,1.757053222869433802e-03,-2.666335989813824799e-03,1.115245595574378967e-01
2.361645217634427141e-01,1.282142677793975949e-01,1.111201793776935842e-01,3.366081000018413590e-03,2.083631237044540532e-03,-3.352463314745895984e-03,1.177773699164390564e-01
2.387298577378879072e-01,1.287512900027162066e-01,1.170525062531569682e-01,2.446836465797995203e-03,1.118475963710642822e-03,-1.232359596671509438e-03,1.163831278681755066e-01
2.391696531005426951e-01,1.235573739641899482e-01,1.164299317812910878e-01,2.546746749439774901e-03,9.457163623743443815e-04,-1.998594651848554973e-03,1.194786280393600464e-01
2.381480903844451213e-01,1.153275092432251014e-01,1.076839823570981819e-01,5.648838048717348508e-03,7.150145875449522882e-03,-9.802253642546762680e-03,1.289164721965789795e-01
2.337579541798544547e-01,1.294452168582707896e-01,1.174785395628779178e-01,1.822200727080136497e-03,3.443500202754144583e-03,-3.059659414503232248e-03,1.111136525869369507e-01
2.006754718059477471e-01,1.218947591345352216e-01,1.398951109371070478e-01,4.402839745231540078e-03,-3.222261256911150475e-03,2.181557431808386557e-03,7.222128659486770630e-02
1.722048111385844626e-01,1.350885654783887946e-01,1.519403184728210787e-01,4.178839122572727133e-02,-1.603407143785239367e-02,7.213778657568501937e-03,8.486650139093399048e-02
1.888980295763093564e-01,1.250257675654875000e-01,1.462871619328658390e-01,1.630135979775383659e-02,-1.020845139621778509e-04,4.326749737605496498e-04,6.301979720592498779e-02
2.465308914862466561e-01,1.084083803783605082e-01,1.414938382114631632e-01,1.512722279636483438e-02,1.344294000091479776e-03,-1.599782885951596054e-03,1.276801675558090210e-01
1.842525029330289443e-01,1.251513734284056267e-01,1.165932729383343247e-01,1.536308491821384084e-02,-2.879934371280972252e-02,1.340335130425305242e-02,8.835840225219726562e-02
2.118623323013738846e-01,1.248688198278858907e-01,1.249208111353298234e-01,7.864805956363699058e-03,-8.398265886784404832e-03,6.507902437162245077e-03,8.993090689182281494e-02
2.248153803548487428e-01,1.291471806839971370e-01,1.075724182778432098e-01,6.120699557411924188e-03,-6.718799631768460588e-03,5.886631054200378368e-03,1.096980720758438110e-01
3.328567041754377231e-01,1.084194709675724982e-01,1.159702747240110021e-01,6.362739057577485036e-02,-4.774441611074543151e-02,5.174878557786423416e-02,2.752310633659362793e-01
2.542368196549583681e-01,2.669118754437502239e-02,7.919900395766674150e-02,-7.964833284421490855e-03,6.937515987761079528e-03,5.048130120163001056e-02,2.248687446117401123e-01
2.097636190325051497e-01,1.625434926059751428e-01,1.189939846857309552e-01,-3.704637150120322197e-03,-4.574978659461066688e-02,5.580953087574738736e-03,1.122339367866516113e-01
1.355894006219532377e-01,1.170988289163033408e-01,6.898239896991958942e-02,4.817784306898085372e-03,-8.608953415583911473e-02,1.796629231516297344e-03,1.608114838600158691e-01
3.045601641131737147e-01,1.863310805664930014e-01,1.371913335977715809e-01,5.194823984282069367e-03,-5.801648588230158554e-03,1.100803492582764012e-02,1.508245468139648438e-01
1.354645226027283988e-01,9.926394560045619098e-02,5.921437272793576151e-02,3.033041247288428832e-02,-7.182331373325669122e-02,2.125151877049875557e-02,1.547731161117553711e-01
2.114706105950865389e-01,1.923542352433580405e-01,1.790903386120780982e-01,-1.731739957665104357e-02,-2.930326322812730824e-02,-3.798630398773701015e-03,6.568054109811782837e-02
2.176097615591364720e-01,1.736412228264784807e-01,1.950807492019990819e-01,3.650492399215058553e-02,9.185672066965728730e-03,-5.300008721512989261e-03,7.606214284896850586e-02
1.693339747007221452e-01,1.437190807397616954e-01,1.383066357326973583e-01,6.088473001120285784e-04,5.073841155062031733e-03,-3.191753988158201397e-03,3.054442815482616425e-02
1.239267545388551273e-01,1.074935499339203238e-01,9.755269300421215428e-02,1.497921299164125218e-02,2.908351175679621883e-02,-8.454160721724224281e-03,6.290733069181442261e-02
1.838964528502093354e-01,1.166877412737196140e-01,1.345608110928078194e-01,2.860808643679758900e-02,1.879107124169483375e-02,-1.290468862715112540e-02,8.746088296175003052e-02
9.853270423834496750e-02,8.722564850691517935e-02,9.921289022755137854e-02,5.360682534317322279e-02,3.448623936786381072e-02,-1.310319998971337489e-02,1.133139953017234802e-01
5.880922245450913299e-02,1.340915133361403333e-01,1.477020540018745831e-01,1.363190442724965951e-02,2.552257290515927077e-02,1.034301022967511717e-02,9.853896498680114746e-02
1.380845055589024206e-01,1.613031466345960230e-01,1.401002811422762673e-01,5.849055162843139200e-02,3.208201399516858593e-02,-1.105883108177052251e-02,1.192244067788124084e-01
2.535920386707095631e-01,1.305995763949521493e-01,9.062444545459721890e-02,-7.932135301596550782e-04,1.364667872455738911e-03,-1.510147077565662799e-02,1.494437456130981445e-01
3.222115312244860363e-01,1.908168760685041987e-01,1.418167473381505839e-01,5.362859016453789054e-03,1.591704921565627665e-02,-1.833289264231707794e-02,1.672080904245376587e-01
2.618436584641180009e-01,1.443915541022700033e-01,1.182856349303819943e-01,-5.882283031431183480e-04,-2.663034566708686701e-04,-2.364897297642989168e-03,1.325169354677200317e-01
2.533179971225918425e-01,1.390618368911597513e-01,1.190300612558360116e-01,1.059398081068935009e-03,1.264019346142599082e-03,-3.353912796424289491e-03,1.256439536809921265e-01
2.482793814943669575e-01,1.306623835932924083e-01,1.113066951333935295e-01,-2.870679951492475200e-03,-1.300318699486757755e-03,-5.047407331525527799e-03,1.288067698478698730e-01
2.347440571345593696e-01,1.305399633304836216e-01,1.166024884989194099e-01,-1.478117218558648756e-03,-7.461510469231354267e-04,-1.022553350882619881e-03,1.118769422173500061e-01
2.376113857356533243e-01,1.296916422090411414e-01,1.184202142519685946e-01,-4.223732667834685563e-04,-7.645831567930379659e-04,-8.573159472083987254e-04,1.139939427375793457e-01
2.372454325345210169e-01,1.313536486584270246e-01,1.222325978371825300e-01,-4.733975007283880822e-04,-2.093977519646608417e-04,-1.852006374499376830e-03,1.107844784855842590e-01
2.107119172774580551e-01,1.284579718187713049e-01,1.135496640898453480e-01,-8.653117104646079446e-04,-5.772295019064181860e-03,-2.211653430585583738e-03,9.127493947744369507e-02
2.326421883979146454e-01,1.242809968307884705e-01,1.162095973712275881e-01,-2.091803360560049851e-03,-1.029283936723151063e-03,-1.433812893193635611e-03,1.127137690782546997e-01
2.274770246636610982e-01,1.267933881866248336e-01,1.133812882550575829e-01,-9.696145198088615804e-04,-2.492806591373729688e-03,-1.712610198380816158e-03,1.081559956073760986e-01
2.261075233498007209e-01,1.267388460719398036e-01,1.221526641931686558e-01,-1.190118571131026145e-03,-4.968130903649124568e-03,-5.809723462353536677e-03,1.026179566979408264e-01
2.232159863319137516e-01,1.095086989956881030e-01,1.312640368768359656e-01,2.923179393395886321e-03,4.521705582069898027e-04,-1.473925334949029078e-03,1.046979799866676331e-01
2.250867297538012846e-01,1.178502321104112488e-01,1.352164596947058040e-01,1.599732721055595200e-03,6.142459789412774585e-04,-2.496442298466766685e-03,9.983218461275100708e-02
2.203418796627268361e-01,5.906276943174262883e-02,1.272494221555302285e-01,5.041996265378741182e-02,-1.871826994511530812e-02,1.844515581397180096e-02,1.713522672653198242e-01
2.314528693334751974e-01,1.186850602092411749e-01,1.312660209780376619e-01,1.981417837381726967e-03,1.673529572511941706e-03,-3.395787177249083404e-03,1.072888895869255066e-01
2.424320886043183354e-01,1.268397626919892940e-01,1.302271976434623835e-01,3.111915712126549823e-03,1.487613306704523367e-03,-4.248996544785606927e-03,1.143300160765647888e-01
2.302712751832780014e-01,1.149356058035121420e-01,1.358546322828696473e-01,5.664130581700219536e-04,3.505354189334942494e-04,-1.083374961165001768e-03,1.064521670341491699e-01
2.382771781959302504e-01,1.191773342928497542e-01,1.410120968418918375e-01,6.762156976819264434e-03,1.262281267569768722e-03,-3.522091880595871159e-03,1.106353849172592163e-01
1.973893004282281649e-01,1.265067448768819880e-01,1.453344628545649164e-01,1.015548171311778103e-02,5.324681355080014382e-03,-2.960653121875066185e-03,6.682078540325164795e-02
2.328672449355843610e-01,1.080897877260246220e-01,1.366314482339943959e-01,1.138289309634720435e-02,7.917922035699577823e-03,-9.131399412703411489e-03,1.168316006660461426e-01
2.346884248604770573e-01,1.073625987351901345e-01,1.351908924172361970e-01,2.898137420547222762e-03,5.373715299696668135e-04,-5.669131721646995413e-04,1.160605326294898987e-01
2.332600545594603059e-01,1.073431571091135739e-01,1.324646542464878729e-01,2.890546334399969868e-03,1.716370734971876810e-03,-1.964155445505403816e-03,1.156218424439430237e-01
2.042199581311082979e-01,1.145561755657479586e-01,1.382489229599807856e-01,6.783561484463345760e-03,-1.920043938357870322e-03,3.924713265507870710e-03,8.168157190084457397e-02
2.324818164640491125e-01,1.062641324971361489e-01,1.330814048282329687e-01,3.591252394280824208e-03,-1.598109223497178781e-03,1.419456105235290680e-03,1.154021397233009338e-01
2.067970108512593719e-01,1.313314221701769313e-01,1.504829575816040987e-01,1.389497760086224991e-02,-1.641243918717025588e-02,4.963008313307690211e-03,7.796002179384231567e-02
2.479776853885384824e-01,1.110326980160242782e-01,1.402394899877247025e-01,3.109837774716823523e-03,-2.004534841473872443e-03,1.383699890405937303e-03,1.251161694526672363e-01
3.203454903139352217e-01,1.424086371133081452e-01,2.033402891178189287e-01,7.496804296549012918e-03,-4.262646248290261758e-04,-2.030163779085343307e-03,1.572059839963912964e-01
2.346084644580924694e-01,1.306229290346664074e-01,1.158905810918218482e-01,-1.249284998750073341e-03,-8.215648202833643419e-04,-8.003515235467193595e-04,1.121187508106231689e-01
2.838577612332932043e-01,6.173701022371150260e-02,1.644763357402215798e-01,2.311569764363976404e-02,-1.396614933713585457e-02,-3.061134670912716432e-02,2.051140964031219482e-01
2.444532329252320502e-01,1.360130045189792691e-01,1.239859185240159561e-01,-2.893497102050809726e-03,-4.012349459991826871e-03,-4.531806480081043698e-03,1.155126839876174927e-01
2.365083248692358697e-01,1.328186518835918206e-01,1.188189028453067730e-01,-1.076398338262323645e-03,-1.951619509231276427e-03,-2.865799778315235215e-03,1.115289703011512756e-01
6.530840252221309372e-02,-4.320322589380709566e-02,5.623854462447046287e-02,1.088387903810724561e-01,-1.003483711758567688e-02,-6.762709571351705092e-03,2.164481282234191895e-01
2.407899203215546624e-01,1.135891202503746256e-01,1.304048677214768304e-01,2.151027338029529515e-03,3.227315039620269436e-03,-2.679068480991168063e-03,1.199603900313377380e-01
2.464408230140966438e-01,1.280591340940301637e-01,1.284902458431231853e-01,-5.393768373182238242e-05,4.371011854097133680e-06,-1.581476452460878180e-04,1.181670799851417542e-01
2.529863043049274118e-01,1.101588068372978402e-01,1.487099857806691572e-01,3.073295842077398456e-03,-5.234121735208959033e-04,1.900310175754199170e-04,1.280975639820098877e-01
2.566280329963483986e-01,1.074337165442825898e-01,1.439973539294411298e-01,3.118758426957359345e-03,-3.031127126681167614e-04,-4.623060673253655533e-04,1.347993016242980957e-01
2.772726930385149280e-01,1.470343953881222687e-01,1.514738508375917947e-01,2.520676003327583861e-02,1.760977342406138887e-02,-2.537591535409752797e-02,1.455053389072418213e-01
2.467358863764700372e-01,1.145797462924790511e-01,1.446754081350349053e-01,2.987409427275402023e-03,-4.744342986764916656e-04,-2.753901075720145328e-04,1.200889050960540771e-01
1.810047193472650584e-01,1.168053671001122729e-01,1.329665630479384686e-01,1.627754480933939554e-02,2.118255514751715956e-03,6.508542451518611318e-04,6.445781886577606201e-02
2.090257761169570239e-01,1.584486123284422066e-01,1.852763094477852257e-01,4.079608502208332405e-02,9.567143890091859225e-05,1.352105757853584288e-03,8.318281173706054688e-02
2.207255150863509652e-01,1.717284163262262353e-01,1.859519804343277849e-01,3.506289326310318283e-02,1.613146861412416769e-02,-6.949454498687836559e-03,8.074583113193511963e-02
1.685658330872861210e-01,1.352242958754682201e-01,1.520039339066064643e-01,2.800126372499445182e-02,2.298822927079869141e-02,-4.024196999000861051e-03,6.942568719387054443e-02
1.370324327746435256e-01,1.765030777546761076e-01,1.871935902445100719e-01,6.390531022461583277e-02,-3.525393181614827620e-02,3.771206600258445851e-03,1.345995217561721802e-01
1.124658889006403123e-01,1.218817374875071774e-01,1.652841371986271402e-01,5.524604146799325793e-02,3.904041374593000824e-02,-2.915261513393590815e-04,1.269259154796600342e-01
2.351529018697997020e-01,9.296007895548308309e-02,1.499381667150858355e-01,3.001056339695019892e-02,-3.831190734802008679e-03,-7.358667845967958171e-03,1.351732611656188965e-01
1.318052246967952312e-01,1.375290999636721856e-01,1.598351038063093310e-01,7.749633620529411404e-02,-2.229775440556784963e-02,-9.634885984295378861e-03,1.429863870143890381e-01
2.401781720334145720e-01,1.234488671461213688e-01,1.231735732925804128e-01,-3.207197936488929329e-04,9.576089290804533154e-05,2.338978917486162477e-04,1.168693378567695618e-01
2.381556655199476291e-01,1.205009491066550975e-01,1.251203035130583618e-01,-5.358557082849287664e-04,1.070115851182793475e-03,6.682022041360729647e-04,1.154388040304183960e-01
2.464426760483453271e-01,1.219288497690833445e-01,1.184603042526015670e-01,-2.826987290796704848e-03,1.672976615089521481e-03,7.942772442416909384e-03,1.271583288908004761e-01
2.349840126031557119e-01,1.180813035620733031e-01,1.261683213425055516e-01,-3.449124466396026969e-04,7.976542542731929588e-04,2.686469869721990963e-03,1.131820008158683777e-01
2.519406378295641069e-01,1.160423773882196807e-01,1.361560882147304918e-01,-1.564544913210051810e-03,3.349600341051323787e-03,4.093344641711022490e-03,1.273999661207199097e-01
2.386678708315737030e-01,1.196537691557851280e-01,1.217081201129942281e-01,-1.248885014799213647e-04,1.014090280412749488e-03,1.140192729568774693e-03,1.180301308631896973e-01
2.383899860135198501e-01,1.217911231118934262e-01,1.239442958277464646e-01,-6.788724921801889264e-04,6.913507811751640241e-04,1.480367849976714023e-03,1.155779585242271423e-01
2.514334408621672345e-01,1.214722019740983039e-01,1.387837858418835835e-01,2.789692223368452940e-03,-2.094760106811027235e-03,4.048025992638487267e-03,1.225783452391624451e-01
2.458623659658837057e-01,1.193139426821507865e-01,1.271455502464072240e-01,5.774627882280974249e-04,-9.007601305846051022e-04,2.566336576749472190e-03,1.229144111275672913e-01
2.463893937436194004e-01,1.152394951898893100e-01,1.444235153146313511e-01,-3.891934537951009798e-03,-1.604300381661503418e-04,1.175839251753351376e-03,1.194746345281600952e-01
2.471144024317557253e-01,1.269011620820306163e-01,1.271741839347138581e-01,-5.387537979869495841e-03,5.743927962624456075e-03,1.150907044280047482e-02,1.224822774529457092e-01
2.595828641322270869e-01,1.117431472612641918e-01,1.432230970203550724e-01,-1.190358802416180677e-03,1.161334076833504814e-03,2.463053026031624109e-03,1.349817663431167603e-01
2.548878003319492436e-01,1.264903748416384144e-01,1.356082948565084101e-01,-8.318450750537418692e-04,1.241223659726450618e-03,1.210627542044564759e-03,1.241346523165702820e-01
2.520929221618161131e-01,1.240178845159264492e-01,1.357093404807409864e-01,1.460197847466032563e-03,-6.823515121712453967e-04,2.439562647826904688e-03,1.227524727582931519e-01
2.473338881166699255e-01,1.214312848236006881e-01,1.324336337379721784e-01,1.232846817396839132e-03,-1.902864634237530104e-03,2.000228287811379926e-03,1.208913475275039673e-01
2.614980320612893538e-01,1.297835215406730192e-01,1.231573611466562218e-01,9.521122415194855574e-05,-3.908430150081739635e-03,8.058585485188920344e-03,1.360369622707366943e-01
2.504027585086696650e-01,1.148262001342629512e-01,1.327203929439539354e-01,-5.108932072903647802e-04,-3.540964852886071840e-04,4.797537472421839651e-03,1.278490573167800903e-01
2.810202394732163045e-01,1.604799210031467305e-01,1.771337522060832115e-01,4.025045908421214652e-02,-2.353333421318500041e-02,2.262391186725389719e-02,1.444199979305267334e-01
2.946961850010379469e-01,1.307977524773978328e-01,1.711635698892831625e-01,1.976305429720688969e-02,-1.076101669329824866e-02,2.478475011428399669e-02,1.588653028011322021e-01
2.547965164737824306e-01,1.144127190208298894e-01,1.346633852933451503e-01,9.350877994753124117e-03,-4.895187666668323473e-03,7.318548064806820741e-03,1.333031207323074341e-01
2.382878370446969152e-01,1.173438128058862384e-01,1.244263596082712253e-01,4.468435784619995479e-03,-5.680453592919454224e-03,5.514254945150295385e-03,1.186126172542572021e-01
2.674394854242493347e-01,1.277534008332911752e-01,1.550427872821816822e-01,9.709158049567144511e-03,-2.159756147272030163e-03,7.027126703745400355e-03,1.299611628055572510e-01
2.444262210473254204e-01,1.362212841145235276e-01,1.243218271858427537e-01,2.750365828976634574e-03,-3.947594242449729146e-03,4.592583836666701107e-03,1.151963770389556885e-01
2.054100852991797288e-01,1.110249769811727516e-01,1.366622333595662320e-01,-1.652892549493456889e-02,-5.888436009319587133e-03,-5.228766594981742837e-03,9.028676152229309082e-02
1.866087571067011897e-01,5.397376518534114515e-02,1.047421405240232528e-01,7.033335319712484546e-02,-4.013767025154137830e-02,2.553313136371896525e-02,1.872566938400268555e-01
2.264130581945510978e-01,2.238338047003778086e-02,3.344803615549454129e-02,3.286728537124359445e-02,-2.859722848344645532e-02,6.598793110911525817e-02,2.413512319326400757e-01
1.753622408357143891e-01,1.375675628715008758e-01,1.355427096786093466e-01,-5.823644816329974321e-03,6.118212213865248036e-03,4.768664299939950196e-03,4.232409596443176270e-02
1.843064363483697121e-01,1.225273512793930430e-01,1.325996159387776152e-01,-1.234617788261294265e-02,1.390064615951629645e-03,3.658357218353915346e-03,6.163669750094413757e-02
1.888608463854604957e-01,1.188221434165844109e-01,1.365484088204580726e-01,-9.479919295294089374e-03,-1.632325341395679530e-03,-2.880848097891996248e-03,6.542640179395675659e-02
2.066943839492978718e-01,1.514594876172195292e-01,1.626766026978861968e-01,-1.255566620191052654e-02,-1.383406173108576954e-03,-1.679431495553544273e-03,5.517498031258583069e-02
1.418485734944536503e-01,1.230225571079977681e-01,1.323595270846147087e-01,-1.625380083807444198e-02,-1.828199467699125925e-03,2.329272813025186958e-03,3.293450549244880676e-02
2.001606199733813873e-01,1.334550341286849795e-01,1.450956175241725210e-01,-9.932993939319784485e-03,4.373487702195514963e-03,2.774609654017552284e-03,6.469248235225677490e-02
1.973346202481076894e-01,1.245188619118877682e-01,1.369610917372144077e-01,-2.662145523375950354e-02,1.155038251295904296e-02,1.452874222911993210e-02,8.780971169471740723e-02
1.570000107101272302e-01,1.219620010791456627e-01,1.225241985369662362e-01,-1.398820590318398081e-02,1.439696445567286223e-02,4.837899274970619730e-03,4.987306892871856689e-02
4.484043553946669147e-02,9.005548777523854354e-02,9.877461337826745624e-02,-5.565654355767469391e-02,8.021040204993801562e-03,-1.669546699162126249e-03,1.095855161547660828e-01
1.467085832013660662e-01,1.430064889169066211e-01,1.427898478247006664e-01,-6.925761315810369245e-02,2.698956533677673159e-02,2.558815210788180361e-02,1.362129747867584229e-01
1.618254684998203241e-01,1.562562053944231422e-01,1.415648002825268259e-01,-1.601570250420624938e-02,3.688984411811075531e-02,2.618917410766915393e-03,7.212031632661819458e-02
1.404816832565309870e-01,1.610291819305683658e-01,1.504115108158374237e-01,-5.132974729679626313e-02,-3.479611461456312560e-02,-4.605168517563480550e-03,1.091646850109100342e-01
1.834149045293434477e-01,1.251069003077098785e-01,1.320063543160480135e-01,2.560327774026317088e-02,-1.025584680683548806e-02,8.681480891751438417e-03,7.452091574668884277e-02
1.453123675839412265e-01,1.221481793787383002e-01,1.316813432344549617e-01,1.843781141225920781e-02,-4.068250440949001089e-03,-8.439753182877950555e-04,3.844841197133064270e-02
1.884099133461330511e-01,1.248384384931486568e-01,1.462562850372507162e-01,1.270633128306645696e-02,-1.685514112898280938e-03,1.144526913471215429e-03,6.029342859983444214e-02
1.940830218798009210e-01,1.213462347340792391e-01,1.346729788668063199e-01,9.647260127274298255e-03,-5.851602116519531889e-03,3.972887247763630392e-03,7.020100951194763184e-02
2.132658165904843528e-01,1.257093536816447088e-01,1.291265000075107194e-01,8.709219592255340939e-03,-7.663592659657331684e-03,6.953297659359217175e-03,8.903598040342330933e-02
2.083995677398207125e-01,1.225007140170672471e-01,1.343474574027819224e-01,1.888900732882375011e-03,-2.254509761308438193e-03,4.188071623171950482e-03,8.111663907766342163e-02
2.130762711257163378e-01,1.314604957317742628e-01,1.453603290572238749e-01,1.455642883305862875e-02,-7.168091333377434732e-03,3.922548155862388627e-03,8.096831291913986206e-02
2.044428762765084229e-01,1.357957264443414580e-01,1.123036632325368489e-01,-1.537698233083666620e-03,-7.284586005359989375e-03,-3.939319172109066736e-03,8.420103788375854492e-02
2.125663907987522527e-01,1.397686167935760781e-01,1.266695710490752524e-01,2.252261866340342540e-03,-2.925915474247740757e-03,5.291801753294915651e-03,8.092955499887466431e-02
2.310011136854857039e-01,1.336996274763508907e-01,1.119178411527680939e-01,-1.249505210416102007e-03,-1.664966905630768873e-03,-1.388171015247496734e-03,1.099099963903427124e-01
2.287564141049386879e-01,1.052697699374462725e-01,1.319111986275681714e-01,-4.250548266899083390e-03,1.501934376510354703e-03,1.430569283171131750e-03,1.128537356853485107e-01
2.285941780502539489e-01,1.315795002847260087e-01,1.018795780062454887e-01,1.524080758988149921e-04,-4.497063007325266190e-03,2.987221164883471975e-04,1.150489896535873413e-01
2.197807695521821203e-01,1.518200495676821915e-01,1.409389733043052428e-01,3.719389546908956519e-03,-1.457335923503581820e-02,1.200590554982710473e-03,7.848259061574935913e-02
2.239388706616237679e-01,1.339089689996563748e-01,1.097430025880703486e-01,3.785438741831793604e-04,-4.083565718118237556e-03,1.016816228361539561e-03,1.044920831918716431e-01
2.273278634352891014e-01,1.356434274087890968e-01,1.157725491534360440e-01,1.294883328338850828e-03,-2.880773811982542502e-03,3.216090564023165420e-03,1.033619567751884460e-01
2.266717652313531839e-01,1.307504300181420442e-01,1.016709801984991834e-01,1.108316878673295831e-03,-4.558591683370534497e-03,9.576370790891079905e-04,1.135985702276229858e-01
2.460546524013240699e-01,1.079034170614158045e-01,1.409000198697018258e-01,5.376318092081216506e-03,1.103444064358049355e-03,1.034580342663150463e-03,1.253379285335540771e-01
2.432301339605785484e-01,1.122566079475177947e-01,1.418863107654132760e-01,4.268690061085062687e-03,9.981184859898393959e-04,8.266493785639015190e-04,1.192098185420036316e-01
2.433749678634032354e-01,1.150728723576701362e-01,1.773059446263275662e-01,5.393122819880417224e-02,-1.421682630797172159e-03,-4.129595997383078698e-03,1.453709304332733154e-01
2.568718248875584420e-01,1.228211886450649437e-01,1.568462587148679588e-01,3.207902503599281002e-02,-5.624856328252080158e-03,1.343617652600089495e-02,1.352401524782180786e-01
1.465473725667661709e-01,6.777107779464254522e-02,1.064694434764225234e-01,4.525248077281380371e-02,6.712958687926541892e-03,-1.389266270407251173e-03,1.045901402831077576e-01
2.360981624626170006e-01,1.074042035777253157e-01,1.358823966834104835e-01,2.497231407125834277e-03,-1.442980011153015968e-04,3.506862631263416887e-04,1.171636059880256653e-01
2.370269759315610791e-01,1.097896431919361815e-01,1.396428420321714492e-01,2.568864283815838583e-03,1.621728444562253290e-04,1.623202109935752092e-04,1.153345853090286255e-01
2.054622465420421762e-01,1.120715243813893425e-01,1.357088960985393389e-01,6.332462429132960577e-03,2.113106356392268573e-03,-6.299718988825158414e-04,8.489951491355895996e-02
2.626272462905894223e-01,1.330032443884131277e-01,1.454000738984739804e-01,8.191043199750364101e-03,6.923883358130670553e-03,-1.047147081133494376e-02,1.265827417373657227e-01
2.533596697036710199e-01,1.154761481731587380e-01,1.491962034506633117e-01,1.376212885255602425e-02,3.276260621252470064e-03,-3.790370862958802010e-03,1.270549446344375610e-01
2.674230282693009775e-01,9.309659603653942794e-02,1.305261809733788136e-01,-2.026685875682774848e-02,-8.507226960975427382e-03,-1.933026229203081703e-02,1.668413728475570679e-01
2.363811748753704423e-01,1.049879643124157491e-01,1.363851946417803385e-01,-1.440801814548480983e-02,-2.833095457485038885e-03,-2.261209165349214057e-03,1.216008663177490234e-01
2.422114131458022457e-01,1.400879046996710842e-01,1.655867616178758606e-01,-4.352798475111373244e-02,-2.110292420211578451e-02,-1.756250855783861656e-02,1.281434744596481323e-01
2.420150439575626256e-01,1.073874525711404071e-01,1.354298619507439960e-01,-1.316890360858713471e-02,-1.969604599801172938e-03,-5.004482725611524192e-03,1.254699826240539551e-01
2.458449688268546929e-01,9.748618441898283804e-02,1.460933538798137865e-01,-4.116112690775591137e-02,-1.434654747230273151e-03,6.360052153811908242e-03,1.495724767446517944e-01
2.464333715804185032e-01,1.100716279299366329e-01,1.395446248374244969e-01,-4.015505462688652959e-03,-2.953092447600570367e-03,-2.939812699758894907e-03,1.246782094240188599e-01
1.417048248475165362e-01,8.111067308048955371e-02,1.415207490108617572e-01,-7.216244548608997944e-02,-2.365487990925542808e-02,-2.991080868311379523e-02,1.537706553936004639e-01
2.462906753240286517e-01,1.149395589159888653e-01,1.335566411727311387e-01,-1.915803748281220400e-03,-2.629469040384105078e-03,-5.613301213574090065e-03,1.236147955060005188e-01
2.647225704334055796e-01,1.443426376318475701e-01,1.278746081069165874e-01,-2.931388141130723910e-03,-5.975570532488409629e-03,-8.420545252801813971e-03,1.307308822870254517e-01
2.481412610913780736e-01,1.551390513598426835e-01,1.161595396092544447e-01,-4.969543887474407208e-03,-4.176299335749845965e-02,-8.637177118443578952e-03,1.390119791030883789e-01
2.553691859193353841e-01,1.583901982069936543e-01,1.237964024653077644e-01,5.988226336928195552e-03,-2.387489636201709300e-02,9.048920384855619822e-03,1.265692859888076782e-01
2.297978983503312367e-01,1.266059051659158829e-01,2.147255978183529312e-02,-4.575772735148661216e-03,-4.947487140024021957e-02,4.375553627131502886e-03,2.000351548194885254e-01
2.896238116397216733e-01,1.567813654244611388e-01,1.323216791610988818e-01,-1.013577554839467654e-02,-1.797162143960244138e-02,-2.111642079095789673e-02,1.552724242210388184e-01
2.397818630539263474e-01,1.282912000180500556e-01,8.385093836230808617e-02,-2.884371890743869880e-03,-1.484776959302541027e-02,-3.478382833759717432e-03,1.417123973369598389e-01
2.403332429492974209e-01,1.031547945972328961e-01,1.363152623013079712e-01,-5.059304796182054892e-03,-1.306382379417385343e-03,-9.245143525303826511e-06,1.243002489209175110e-01
2.538554341411899395e-01,1.361368594355858719e-01,1.023534216324099855e-01,4.441921581840757474e-04,2.825379721024393119e-04,-5.383965803774115079e-03,1.380714029073715210e-01
3.035177184497366842e-01,1.176706723357816980e-01,1.765879389912503872e-01,-2.790093215517394643e-02,7.034095309197146810e-03,2.338972806998306300e-02,1.765950918197631836e-01
2.589316557468644420e-01,1.118504091504642362e-01,1.429283421539576382e-01,-2.098862924646742803e-03,-3.525080413132604504e-04,2.377559739153002703e-03,1.343811601400375366e-01
1.809620439780043610e-01,3.634854782606375401e-02,1.138203780045992375e-01,-6.988925217218017183e-02,1.341357735385776545e-02,1.809988064172498440e-02,1.785709559917449951e-01
2.713105437625649152e-01,1.186334461725451900e-01,1.577886551277057903e-01,1.653377218888351600e-03,9.505484063294921413e-04,1.434862054290498819e-03,1.374132782220840454e-01
2.375615186822899738e-01,5.060598630020210487e-02,1.166096931590487745e-01,2.028568883707333563e-03,-1.589568134176605344e-03,2.148236292858296190e-03,1.643255054950714111e-01
2.488114709376350042e-01,7.630533150704428558e-02,1.406341213066450713e-01,-4.071375209756732116e-02,3.435974647211565217e-03,-3.004515338599527893e-03,1.668375730514526367e-01
2.628183361517416605e-01,1.166426648059140370e-01,1.537316110280331216e-01,3.268572146949947769e-06,3.508740692251047927e-03,4.968938752073770448e-03,1.320318877696990967e-01
2.722419896557029539e-01,1.202938072104901140e-01,1.544058482367640095e-01,3.255492454282294962e-03,2.195707027206090980e-03,2.010206483427881552e-03,1.383004039525985718e-01
2.529036129907570873e-01,1.152789001023416526e-01,1.541860464171366518e-01,1.532301158330890388e-02,5.033514626966921306e-04,-3.724660822608173607e-04,1.257191449403762817e-01
2.951282423249992348e-01,7.060030319942312005e-02,1.593475869545221135e-01,6.584649448726441999e-03,-2.439168792740467259e-03,4.203428198825789538e-03,1.963760703802108765e-01
2.600632141862428970e-01,1.258454084472219736e-01,1.634813311862043650e-01,-1.365298840167399226e-02,-6.038593790965931943e-04,-1.761797915383211564e-04,1.222287639975547791e-01
2.931321890667525354e-01,1.550057384001395366e-01,1.066236946052062234e-01,-7.782245869763794975e-04,3.243293453651914168e-03,-6.320794708701914233e-03,1.680946499109268188e-01
2.365984983235513983e-01,1.161554451327801302e-01,1.391961490035958371e-01,-6.924097471640984665e-03,9.986505212149360267e-04,3.079194931988758679e-03,1.115238815546035767e-01
2.494204421675404737e-01,1.407017848851880304e-01,1.101251810627106309e-01,-5.457965465936685237e-04,-2.118720859217418286e-03,1.895562627104376181e-03,1.269017904996871948e-01
2.595871334478095371e-01,1.454875113860868707e-01,1.088346945844265723e-01,3.670616120016427378e-04,8.468218661261793382e-04,-2.502389316673469069e-04,1.361872553825378418e-01
2.643883225420055050e-01,1.130318072800087226e-01,1.480709473814236510e-01,-1.333262928288058823e-03,6.900471145142583751e-04,-7.646625424097797889e-04,1.372648924589157104e-01
2.623342202530891121e-01,1.155542691267306132e-01,1.503786770416159213e-01,1.620019173714162082e-03,-1.005737143016150175e-03,1.549852509657394630e-03,1.329047828912734985e-01
2.413799809374039818e-01,9.044973747206992709e-02,1.352121862889487103e-01,9.903256701229028874e-03,-9.965573162265999388e-04,3.611832099496585600e-03,1.355136334896087646e-01
2.447639812375638768e-01,1.152628379146502791e-01,1.444572260379568540e-01,-3.415886216968385021e-03,-1.039497040563832578e-03,-1.055353025054532644e-03,1.178292781114578247e-01
2.725985318096402765e-01,1.212195283857491201e-01,1.609758194062913816e-01,1.441742251665539300e-03,-5.150197575839030777e-04,-8.763510168674898664e-04,1.359677612781524658e-01
2.611347938149265469e-01,9.851355839811332116e-02,1.473337739385512379e-01,8.724347756249592814e-03,-2.444981711539647557e-04,1.035607770439289210e-03,1.453327685594558716e-01
2.264450079550420214e-01,8.116783500921827266e-02,1.271987484887205366e-01,2.462428002147679443e-02,-8.634625242661474187e-03,9.290046620044118200e-03,1.372541934251785278e-01
2.458698975061623104e-01,1.096018005947955870e-01,1.463103391168929235e-01,4.126127161134283267e-03,-2.060122356099591335e-04,-4.228329816207542381e-04,1.223357915878295898e-01
3.133374274308167728e-01,1.376877383788533693e-01,1.958809894887840186e-01,2.216609779223210897e-02,-2.656884505829017109e-03,7.308806600384332684e-03,1.602282226085662842e-01
2.954464713926316377e-01,2.843792615085313780e-02,1.422633994897709586e-01,-1.401097919975352428e-02,4.413931936922927540e-03,-7.249033537461297902e-03,2.338000088930130005e-01
2.378281106928265554e-01,1.259169636774609968e-01,1.196921374018095618e-01,-4.663239974630926867e-04,-2.655562932560903266e-04,-8.101777977653808064e-04,1.151621192693710327e-01
2.377133459784363245e-01,1.325877737728886063e-01,1.220766179320202094e-01,-1.207910112076606649e-03,-1.467090635222522040e-03,-2.760716831809284511e-03,1.109078899025917053e-01
2.385374530148516026e-01,1.225906103816319370e-01,1.218756676196886962e-01,-9.451692575229926933e-05,-3.336782828186387467e-04,-8.728626490992414440e-04,1.163173392415046692e-01
2.411971278066203928e-01,1.266802729213906964e-01,1.230920471719932352e-01,-4.004495890883117554e-05,-4.816093484599219174e-04,-8.712284983383435056e-04,1.163652688264846802e-01
3.152814736426741704e-01,1.560799369523777347e-01,1.699460534866481243e-01,1.098807841314725087e-02,4.822711465531226774e-03,-2.568612692865759883e-02,1.604406833648681641e-01
2.192774139980615267e-01,9.344308424428293680e-03,2.815394617325267523e-02,7.597169962486442080e-03,1.101278093054815395e-02,-6.176073041781547646e-02,2.290351539850234985e-01
3.230081828990112314e-01,1.643253640676815841e-01,1.792742190901976396e-01,-2.816385244999480581e-03,5.405407547351762099e-04,-2.570622325152880500e-02,1.582361608743667603e-01
2.509463757335447798e-01,8.449926648903978432e-02,4.765395011878620357e-02,-4.936467561827450820e-03,-4.246419355042227797e-03,-4.800564962165373289e-02,2.055136114358901978e-01
2.611585832689224396e-01,1.396027282099508993e-01,1.132824578603323640e-01,-5.551958402964197667e-03,5.905517229419703605e-03,-2.223700607505418175e-02,1.426482349634170532e-01
7.955231349581112776e-02,1.586903539687246623e-01,1.395899960768656189e-01,2.535590874770478342e-02,3.124202525524490213e-03,-5.966468777845007967e-03,8.474038541316986084e-02
2.941208492874204383e-01,2.010958123332403924e-01,1.404226159205119173e-01,-3.207881023227356987e-04,4.828285254317839226e-02,1.118072552376637128e-02,1.592107266187667847e-01
1.506701895885117770e-01,1.728345437499348436e-01,1.729975651121337665e-01,6.345402596991560340e-03,1.068264384421309908e-02,1.266483454851059917e-03,3.102997690439224243e-02
1.660832941671805674e-01,1.283244641488870408e-01,1.064338661312555223e-01,-7.592211314106578172e-03,-3.225963505835884731e-02,-3.955937386772063677e-03,7.793212682008743286e-02
3.410206890072798869e-01,2.136961933740726405e-01,1.636515173728223804e-01,-5.900966708312681622e-03,4.317426585935878885e-02,1.374922007121249720e-02,1.770636886358261108e-01
1.570135054996865676e-01,1.543887909467601960e-01,1.449999578526675881e-01,1.281736256811604434e-02,2.689424197713851522e-02,4.083877636369380448e-03,5.322096869349479675e-02
1.151465227496916433e-01,1.478442263239655718e-01,1.097137011115304761e-01,1.394820598553821525e-02,-5.642644127542612020e-02,-3.864765098396133621e-04,1.068280488252639771e-01
1.787678613143850737e-01,1.568713118053338684e-01,1.588257463299255212e-01,-4.630982745287543119e-03,-6.949903968172032676e-04,-2.188290183194590861e-03,2.281745336949825287e-02
2.834803361382560727e-01,7.036576112432860186e-02,1.890317414024604015e-01,-3.340188798824789140e-02,-2.380950811838304995e-02,-1.502492995213215547e-02,1.998373568058013916e-01
2.591785603512196667e-01,3.142142314328877362e-02,1.312137239276407186e-01,-3.963810275201119088e-02,-1.550712620091370363e-02,-7.263231782146238602e-03,2.114157527685165405e-01
2.371751712869544781e-01,1.060544160552306658e-01,1.342823916659992012e-01,-1.326460112482632896e-02,-4.129398518561038130e-03,-6.228807832870385773e-03,1.224075034260749817e-01
1.944241399101021561e-01,3.259860415662806099e-02,1.061654720397338936e-01,-5.818311284527818289e-02,-1.781456736867132948e-02,-1.888988888190147944e-02,1.785300374031066895e-01
2.488305464668302269e-01,1.431983640235014454e-01,1.132341667093387794e-01,-2.310966164331993995e-03,3.194199389636367438e-03,2.064940321773508364e-03,1.236147955060005188e-01
2.447193947534480607e-01,1.107936209490348878e-01,1.417472413147908006e-01,-3.956583999040186143e-03,-2.713661986439405444e-03,-1.975975218643732066e-03,1.217765212059020996e-01
2.599892453498819922e-01,1.174706971559071472e-01,1.432801688762155856e-01,-1.500200321828067704e-04,-1.271131492704164140e-03,-1.670835959923066454e-03,1.315774619579315186e-01
2.518565042303693158e-01,1.143214067446797211e-01,1.456666786222211851e-01,-3.016640953559101591e-03,-2.075061878817965021e-03,-2.044524393870599151e-03,1.250604391098022461e-01
2.570474706175635560e-01,1.111753963292212433e-01,1.436873786346440640e-01,-2.284859456842279479e-03,-1.826013402847914777e-03,-1.222800766734772259e-03,1.327525973320007324e-01
1.953116131349308116e-01,9.512288943298044530e-02,1.012226269389934208e-01,2.471967747710589192e-02,2.181486307843339897e-02,-1.522198978034751751e-02,1.158440411090850830e-01
2.300239681052660967e-01,1.212450582884292277e-01,1.298807775584592816e-01,3.923140667275872018e-03,4.305610625584387757e-03,-4.370566336080105793e-03,1.054852381348609924e-01
2.157053292777922349e-01,9.728647458118919178e-02,8.791157614561989631e-02,1.663497693526114901e-02,2.172981454858044850e-02,-1.799540639444187004e-02,1.357914060354232788e-01
2.280431547445024854e-01,1.092938318976902634e-01,1.160492520054645371e-01,5.577769792701666590e-02,3.121026870547748480e-02,-5.202635047250261935e-02,1.836321204900741577e-01
1.624225135225512151e-01,8.582486987124558764e-02,1.072826983126583256e-01,5.684305809119716973e-02,3.418437296255393693e-02,-1.997814662249753487e-02,1.381322294473648071e-01
1.822527408993685205e-01,1.469301241682505199e-01,1.322145656236420608e-01,5.722405907177497558e-02,5.323173324011883784e-02,-3.195039342578847447e-02,1.528762280941009521e-01
2.252730825294781414e-01,1.461313639081631144e-01,8.307179353693842916e-02,1.453081878068352220e-02,5.828192903139476494e-02,-1.795107898706901212e-02,1.643808782100677490e-01
2.456843601866725568e-01,1.433716662933022246e-01,1.092946998454537993e-01,-2.045744855595643327e-03,8.572401292457960953e-03,1.006594569578138886e-02,1.251104176044464111e-01
1.772896459433901672e-01,4.286782536114615294e-02,-2.325667504333092661e-02,-3.188037537170355928e-02,5.071628481034730351e-02,5.104163746624430786e-02,2.234088182449340820e-01
2.576001719922390576e-01,1.444274239434997220e-01,1.143219243475395719e-01,-2.836218659253454070e-03,1.342903933509576909e-02,6.248995492213462073e-03,1.334310024976730347e-01
2.352571571816803875e-01,1.345366005248719854e-01,9.818754188987731391e-02,-8.924213387503788023e-03,3.088367073443450475e-02,2.091131201824794963e-02,1.397825479507446289e-01
1.955943977482285101e-01,1.245085310121292199e-01,1.419910053943370942e-01,1.034035086820533911e-02,5.209882337271229923e-03,-3.993240056713862236e-03,6.757304072380065918e-02
1.815503066691010470e-01,1.349466922791418555e-01,1.435044394878424445e-01,2.069494268749296623e-02,4.669350097420073807e-03,-3.413405791144585172e-03,5.684641003608703613e-02
1.616562490936415963e-01,1.384837529864676731e-01,1.462020572068239155e-01,1.799941403602092066e-02,-5.212287977591080479e-03,-2.193081922442671663e-03,3.854288160800933838e-02
2.770212901374174974e-01,1.463793719814891203e-01,9.442752363150579142e-02,1.042231420056419222e-02,-2.243875942177895461e-02,1.015080813845847633e-02,1.694074273109436035e-01
3.023130882113617135e-01,1.858609808671490282e-01,1.254767716461367977e-01,4.049639821173654092e-03,-1.954011466891214521e-02,4.125710274589197181e-03,1.596399843692779541e-01
2.325677165117755463e-01,1.335973738374701958e-01,1.051448380148962136e-01,-8.570456780964330265e-05,-3.599598386961847842e-03,-2.293836990368348417e-04,1.160158812999725342e-01
2.487380102850509367e-01,1.745070925487895719e-01,1.420076251344172258e-01,9.039904572592516452e-03,-3.822078785781365950e-02,1.471388415607047598e-02,1.193987056612968445e-01
2.458438090263086462e-01,1.325561372657959036e-01,1.147535942675493859e-01,2.948612974082003620e-03,-2.699722954270509720e-03,2.769444697767099554e-03,1.234455108642578125e-01
2.378107536300515523e-01,1.811010470692603624e-01,1.207112829561833856e-01,-1.487734829717272077e-02,-7.381606166523022039e-02,7.216090487193850024e-03,1.656932532787322998e-01
2.557803751964897732e-01,1.733448159022812074e-01,8.142570101752233391e-02,1.548143735130338983e-02,-6.125608267109061700e-02,-1.045250048401044803e-02,1.874189376831054688e-01
1.415099585512134550e-01,1.146803968608051394e-01,6.288687145591617678e-02,1.977367660860309892e-02,-7.048794970536585713e-02,1.152691918359919493e-02,1.458398103713989258e-01
2.447293702662136639e-01,1.252734869719305255e-01,4.975241215626213798e-02,2.295684650386832504e-02,-5.413518168995801877e-02,1.714080178310951191e-02,2.006212919950485229e-01
2.380293938426222833e-01,1.235543330759645564e-01,1.160084490371214722e-01,-4.678411663313010796e-03,-4.341707439762155715e-03,-4.316614716926010613e-03,1.191780567169189453e-01
2.364794209593819863e-01,1.190479140496001759e-01,1.285498792598853690e-01,-3.071299399796996715e-03,-3.163655572317551883e-03,-2.950211345059914128e-03,1.133536621928215027e-01
2.375718915456778713e-01,1.206976996174207173e-01,1.246434796375572862e-01,-1.996676228850247255e-04,-8.203056455181833000e-04,-6.762840295273079855e-04,1.149673685431480408e-01
2.342936215998983329e-01,1.268715517054476438e-01,1.325212303710394113e-01,-3.910910283357025424e-03,-2.503089394613828601e-03,-6.222744743032237839e-03,1.055716350674629211e-01
2.387192326750662841e-01,1.229063046259737391e-01,1.237227868793160102e-01,-2.901016693611123474e-04,-1.599165026881832258e-04,-8.596223138937727267e-04,1.154178828001022339e-01
2.367025098571238773e-01,1.202873434851512713e-01,1.218650516378852189e-01,-5.596269262368981862e-04,-7.318457114656516486e-04,-7.843558945395593231e-04,1.156533733010292053e-01
2.366648942545062917e-01,1.232682987672963082e-01,1.280014458138379885e-01,-7.746966842553584939e-04,-9.011075871529507751e-04,-2.543382311352487910e-03,1.112120077013969421e-01
2.090854309044453407e-01,1.179101734821078745e-01,1.194035931359640340e-01,-2.461052041911856829e-03,-4.620191356679030116e-03,-6.982250682526443958e-03,9.169220179319381714e-02
1.997497419199822932e-01,1.442641837163927965e-01,1.446555725366026890e-01,-8.664871534734067127e-03,-7.678219995783766225e-03,-6.150713199156459697e-04,5.882452055811882019e-02
2.433466885631598298e-01,1.223934182381033742e-01,1.416093563948788991e-01,-6.849763911497206738e-03,-2.833245298841599764e-03,-3.249702504064419257e-03,1.134514734148979187e-01
8.302101495266130116e-02,-1.958413556240387599e-02,6.704965740651080974e-02,-9.640468447796082807e-02,4.611517020199270081e-03,-1.064864027907246177e-03,1.925952881574630737e-01
1.350675325501496937e-01,1.268305196213944663e-01,1.560867703364033354e-01,-8.868941901284822793e-02,-7.175860895972026874e-04,1.767293434241898678e-02,1.588042080402374268e-01
2.462715955508016086e-01,1.254149211707572820e-01,1.306095041885556585e-01,1.916411320012053991e-03,-2.443396876606544321e-03,4.162850002926555756e-03,1.186862885951995850e-01
2.458733689951920487e-01,1.280118974671716203e-01,1.281494021546323303e-01,1.489010677783514890e-03,-1.276558180472716101e-03,2.205923797855017122e-03,1.179036796092987061e-01
2.425430774261935207e-01,1.221526133079109816e-01,1.244769209819084343e-01,5.909161653079060680e-04,-1.301896675368869856e-03,1.684073787583665726e-03,1.193066760897636414e-01
2.393821952962247868e-01,1.224186102706851520e-01,1.212677349008695615e-01,1.128542588355865286e-03,-4.363652231389365008e-04,1.427664137213788004e-03,1.175879314541816711e-01
2.413808153775347243e-01,1.259384571093307426e-01,1.181898105397688470e-01,2.163401117679969628e-03,-1.050094035892835259e-03,1.656749622615666818e-03,1.196122244000434875e-01
2.397196394049473933e-01,1.249910327457137149e-01,1.175853721852098688e-01,2.452883954102853467e-03,-1.006014394505673959e-03,1.608848506744967348e-03,1.187265291810035706e-01
2.475724895977587936e-01,1.287221832696598955e-01,1.277569086715065194e-01,6.844009808812495351e-04,-9.634918340653454575e-04,2.442855760524690386e-03,1.194284036755561829e-01
2.473386310044557446e-01,1.265367780083015703e-01,1.187738196137013147e-01,3.377076364802523815e-03,-9.573533331710539851e-04,3.412126398706870171e-03,1.251519918441772461e-01
2.404577124974808522e-01,1.197766483828710676e-01,1.292767973430471729e-01,9.330948853229747422e-04,2.052056427526308645e-03,-1.628764210326281341e-03,1.163223460316658020e-01
2.343324517176848532e-01,1.282615831393015549e-01,1.168783010566434577e-01,7.091489766275915361e-05,-1.152627592034964247e-05,-7.775968395098407406e-04,1.122046038508415222e-01
2.332523316984032036e-01,1.072272356266482651e-01,1.319238849976486216e-01,3.229559277072038392e-03,1.572012473467791901e-03,-1.724807498549639582e-03,1.158770024776458740e-01
2.577504285746853308e-01,1.187635443839007293e-01,1.371174571818195020e-01,2.575213064693625698e-03,6.750665467613470175e-04,-8.693577168036615080e-03,1.317241936922073364e-01
1.805879071937028790e-01,1.273573584458405628e-01,1.422674235107607710e-01,2.708187843709271986e-02,-1.464229895153570764e-02,9.869511321844775739e-03,7.346990704536437988e-02
2.340370369751928470e-01,1.152148444800930038e-01,1.277613581536885257e-01,1.839177063702392536e-03,1.639946641315543621e-03,-1.840005337174915835e-03,1.131976023316383362e-01
2.313663626252447925e-01,1.217231556013926158e-01,1.327161041999886937e-01,3.106642920406087454e-03,3.042642378905854091e-03,-4.524059148903154977e-03,1.051442027091979980e-01
2.266148798689055777e-01,1.133247011993613884e-01,1.332151448259574766e-01,2.951616904994893917e-03,6.757246939600418259e-04,-2.356028451291871523e-03,1.049812436103820801e-01
2.349928201715584253e-01,1.117742472189846153e-01,1.323059893552889776e-01,3.438071353644022495e-03,1.673743867472493032e-03,-1.034023745852937371e-03,1.145493313670158386e-01
2.601517367492723887e-01,1.409503937195231704e-01,1.079059633332979939e-01,5.453277676562433328e-04,-3.539481962676889731e-03,-9.547310426970392894e-03,1.398276239633560181e-01
2.607482307644751196e-01,1.476425727848424685e-01,9.853226790859194451e-02,1.986758236327092371e-03,2.815326632297247052e-03,-1.356974422982668883e-02,1.461074948310852051e-01
2.571605554486745548e-01,1.427264766933563633e-01,1.105355709362273869e-01,6.374982258620284217e-04,-1.135941483507694289e-03,-5.335979752885125146e-03,1.338120251893997192e-01
2.606305879993096597e-01,1.420995922448968218e-01,1.211195888532439202e-01,1.099493118308851971e-04,-1.305698943592101908e-03,-2.152596061065693411e-03,1.303671300411224365e-01
2.653202432571861169e-01,1.465580136072702766e-01,1.132676776929560647e-01,2.475583097618790172e-03,2.225799531925887979e-03,-4.728640397218114404e-03,1.388044506311416626e-01
2.531965714359453168e-01,1.444054564998612789e-01,1.081450874157975361e-01,-4.846958167518677918e-03,5.744539523491265856e-03,1.803120222261693929e-03,1.314319521188735962e-01
2.407666957956282050e-01,1.368977648516094547e-01,1.072710249581677877e-01,-2.770890038613378799e-03,1.432903355228584176e-02,6.063072493043623369e-03,1.244711875915527344e-01
3.197030924567771937e-01,1.972897032477751167e-01,1.473039007272280709e-01,-6.850652816097545054e-03,1.154496612921951035e-02,1.522480695738702254e-02,1.576026231050491333e-01
2.471005933235128071e-01,1.411340035072320975e-01,1.098501426635671990e-01,-1.128306892179086612e-03,3.617756211390930118e-03,4.999784473436812929e-04,1.247656866908073425e-01
