sxx,syy,szz,sxy,sxz,syz,smises
4.469178488336170846e-03,4.469178488336170846e-03,-8.938356976672270568e-03,6.532797221092821044e-03,9.970166343050623770e-02,9.970166343050623770e-02,2.448475509881973267e-01
