sxx,syy,szz,sxy,sxz,syz,smises
7.253333333333483908e-03,7.253333333333483908e-03,-1.450666666666643526e-02,6.400000000000002909e-03,-1.760000000000000175e-01,-1.760000000000000175e-01,4.318013191223144531e-01
