sxx,syy,szz,sxy,sxz,syz,smises
6.533333333333501969e-03,6.533333333333501969e-03,-1.306666666666611576e-02,1.960000000000000284e-02,2.800000000000000266e-01,2.800000000000000266e-01,6.869764328002929688e-01
