sxx,syy,szz,sxy,sxz,syz,smises
6.666666666666820618e-03,6.666666666666820618e-03,-1.333333333333319715e-02,2.000000000000000389e-02,-2.000000000000000111e-01,-2.000000000000000111e-01,4.915282428264617920e-01
