sxx,syy,szz,sxy,sxz,syz,smises
5.346899317723596834e-02,5.346899317723596834e-02,-3.469379863544692078e-01,-2.547582401973011021e-52,-1.282002803387510290e-52,-1.282002803387510290e-52,4.004069864749908447e-01
