sxx,syy,szz,sxy,sxz,syz,smises
-1.307127227152726778e-01,-3.391310726434410006e-01,-2.981297001163304983e-02,-3.266754217613942329e-02,2.187850937484003139e-02,-1.589996036899653242e-02,2.829209566116333008e-01
-9.440817284651521757e-02,-2.673746753372805429e-01,4.290369681108591182e-02,-3.893367170803632531e-03,4.522963683014690622e-02,1.867753456454053149e-03,2.805626690387725830e-01
-1.865675898485102679e-01,-3.387817349088783625e-01,-3.522561305664198561e-02,1.837450262524122687e-03,1.593510389334685737e-02,6.862794421493093218e-03,2.646188437938690186e-01
-1.662086016217348694e-01,-4.218433431696465008e-01,-3.002180443472010629e-02,-1.922847827419640193e-02,3.671540122656381105e-02,-1.640146199997365509e-02,3.530868589878082275e-01
-1.442574223819375334e-01,-2.878937670906465129e-01,6.183283719346843732e-03,-1.449592940380250820e-02,2.664509633286412174e-02,-2.161201789070461062e-03,2.600900828838348389e-01
-2.205533608295029979e-01,-4.616110895395934000e-01,-6.400067577375495587e-02,-9.139419446849291265e-03,3.858918722178428240e-02,-3.780392116331985318e-04,3.536583185195922852e-01
-3.422962174245505751e-01,-3.196865253547519492e-01,-2.467375866000431905e-02,1.111604323738937111e-02,1.067618769790977355e-02,2.409222911854513177e-02,3.109144866466522217e-01
-3.221247485429221125e-01,-3.111910201618828808e-01,-2.073926152418098523e-02,8.311695350445100910e-03,1.013389723072929093e-02,2.113529913123311441e-02,2.991871237754821777e-01
-3.303094835759399217e-01,-3.110931042285674519e-01,-1.528232663321291152e-02,9.183640584145946317e-04,8.035872089508773117e-03,9.239519726570761746e-03,3.066106140613555908e-01
-3.197580186554211945e-01,-3.079619691677525362e-01,-5.280582245795417684e-03,-1.092016278007944697e-03,3.106075628496936594e-03,6.101996165064763229e-03,3.089819252490997314e-01
-3.090867480248087329e-01,-3.025287500707250499e-01,-3.069351585154700413e-03,-2.919810528456104944e-03,3.977341295047389855e-03,4.392997883574644921e-03,3.030077815055847168e-01
-3.160267567779780351e-01,-3.185951841217787850e-01,-9.378156296632661482e-03,2.629948433003962555e-03,4.008632213141286559e-03,6.737389851164006342e-03,3.082737326622009277e-01
-3.047765864073396225e-01,-2.943372457324875402e-01,-2.803375454967838021e-03,5.275151230397128518e-04,3.204945053243829327e-03,5.097964735459642807e-03,2.970757782459259033e-01
-2.869045705658201939e-01,-2.712838347410518880e-01,-8.857013142874625711e-03,-1.076334904847968052e-02,-9.524354238147640997e-03,8.165554608045768464e-03,2.720861434936523438e-01
-3.276146710842064991e-01,-3.145015169261743404e-01,-1.108321692978478379e-02,2.818950553631560923e-03,-2.321745531764360902e-03,3.335813056685156758e-04,3.102478682994842529e-01
-2.824212849138657555e-01,-2.809997404524966491e-01,4.828744399612949767e-03,-1.284909565337511925e-02,-1.205280642595969211e-02,1.937278492866071830e-02,2.901090979576110840e-01
-2.854629564725561508e-01,-2.626308522123464995e-01,6.947883344837618713e-03,-7.764382591601164119e-03,-1.183912763270499741e-02,6.118509047453487594e-03,2.829535603523254395e-01
-2.874834453336546636e-01,-2.995031496002023008e-01,-6.458084591457829982e-03,-1.140388420816438458e-02,-1.116632516255757109e-02,1.337416867850411105e-02,2.894794940948486328e-01
-2.832585486811464159e-01,-2.719514980339378107e-01,-7.794560480958750981e-03,-1.108128978540966203e-02,-1.160739135062701169e-02,1.011765917420647497e-02,2.719802558422088623e-01
-3.166958262778843958e-01,-2.776080655611625758e-01,-1.962480713936676224e-02,-2.966990539812538671e-02,-2.807800505722039819e-02,2.817322934821640118e-02,2.924968898296356201e-01
-2.992807681936288100e-01,-3.018601028626498595e-01,-5.880106215688435389e-03,-1.245425941596466253e-03,-1.755543691165983638e-03,3.578042087211614694e-03,2.947875261306762695e-01
-2.999962144402597009e-01,-3.029460371195169532e-01,-2.049410408652355131e-02,-1.287224095295184771e-02,-1.215070880683134444e-02,1.171658622448581641e-02,2.833839356899261475e-01
-2.354855252209191174e-01,-2.735895110158678145e-01,1.534520380271575668e-03,-2.441809696520470113e-02,-4.397757248132530550e-02,3.980805888266017445e-02,2.810812592506408691e-01
-3.118401306907454540e-01,-3.018990695781926248e-01,-2.456191252658315727e-02,-4.791759928872846297e-03,-7.293596938104872709e-03,7.629631550377960654e-03,2.831516563892364502e-01
-3.233297780804886279e-01,-3.225354306539254257e-01,-1.504378103534118050e-02,-1.610530226840686417e-03,-8.422442676415658330e-03,1.139516281306997975e-02,3.088788390159606934e-01
-2.682409794763140343e-01,-2.541937230995603425e-01,8.854699070570348773e-03,-1.827630955822791975e-02,-2.160985975855998081e-02,2.090263841450372764e-02,2.771293818950653076e-01
-2.997848129902662695e-01,-2.902750997606606820e-01,-1.825806360769288705e-03,-4.457978873866100603e-03,-7.655983555888860870e-03,1.224696563137615823e-02,2.944858670234680176e-01
-3.041388517050768736e-01,-2.903980461151208226e-01,-3.097836933244058066e-03,-6.432526557781465155e-03,-7.629685842964177393e-03,1.481077651101599287e-02,2.960317730903625488e-01
-3.176524328982996415e-01,-3.017913587793576435e-01,-1.614484124766965567e-02,-4.916370066967417490e-03,-1.588798161041825655e-02,1.795719272519102905e-02,2.969399690628051758e-01
-3.258926477705360591e-01,-3.256498351966477522e-01,-2.144596946492552392e-02,-1.706484615402763445e-04,-1.455113538958770214e-02,-1.038530779327231186e-03,3.053726255893707275e-01
-2.837760275086458339e-01,-3.027752010902422519e-01,-1.471750289733006478e-02,9.477641051377628037e-03,-1.297786544456307894e-02,-6.570553989201067223e-03,2.806592583656311035e-01
-2.983602786823977282e-01,-3.246665116636136550e-01,-4.914591142816365776e-03,-8.107882850522538315e-04,-1.148217869392210294e-02,-6.621469428928087979e-03,3.083032071590423584e-01
-2.492040699336364740e-01,-2.930570655581377082e-01,-3.789811318760949455e-02,-5.426250525525751905e-03,6.594483563592165283e-04,-3.620171787890649143e-03,2.365769296884536743e-01
-2.793875578331465048e-01,-3.315549577949963300e-01,-3.385638992817532889e-02,-1.913688504104365867e-03,-1.640239634165817015e-02,-4.871738535724216314e-03,2.769567072391510010e-01
-2.777799763317020387e-01,-3.163385839566420499e-01,-6.265473997187936961e-03,3.637735527631051711e-03,-3.872418226037694505e-02,-5.436079728017659957e-03,3.005048334598541260e-01
-3.444928638960705891e-01,-3.596517632050901803e-01,-5.196083474842111416e-02,1.315118755008741719e-04,-2.032125040253378832e-03,-2.904660937312407258e-03,3.004612922668457031e-01
-2.431296470123819331e-01,-3.340102231001640387e-01,-1.371631367666889534e-02,2.952470116035610381e-03,-3.096375302160975576e-02,8.757322715463328883e-03,2.913270592689514160e-01
-2.884009386700929212e-01,-3.216425831003223434e-01,-9.807901299541094131e-03,-2.245834222933535719e-03,-4.451112481083711186e-02,7.575496601307965365e-03,3.067751526832580566e-01
-3.115855582759435860e-01,-3.197134761498984235e-01,-1.145376073751003254e-02,-4.765764692879599315e-04,1.458655967740626240e-03,-2.276694130947068406e-03,3.043143451213836670e-01
-3.160646383294482553e-01,-3.286564461907588441e-01,-8.838436263592291953e-03,1.061561741089788857e-03,2.763500976033606915e-04,1.301449919218407216e-03,3.137255311012268066e-01
-3.263095236874009042e-01,-3.344296824171913984e-01,-2.650456451122898405e-02,2.979020518858727443e-03,1.689632381779507253e-04,3.833346958874388807e-03,3.040628433227539062e-01
-2.242970659826230562e-01,-2.892739186690641007e-01,-2.707068304039594864e-02,4.610188208676874178e-02,1.904360016683379411e-02,2.923471972910532055e-03,2.518435120582580566e-01
-3.367752493680364889e-01,-3.365299687379270654e-01,-1.204174406762668903e-01,-3.361689314743188171e-04,8.449048168465351713e-03,2.989809748620014026e-03,2.167925536632537842e-01
-2.693582400298336621e-01,-2.996851876571680062e-01,-4.378999461485011402e-02,7.168755923346575853e-02,-1.973822564365192243e-03,7.293904875376884512e-05,2.721590995788574219e-01
-3.218078755539566238e-01,-3.160015465786262245e-01,-1.739273687064751828e-03,9.737080226871032765e-04,2.288114139653494553e-04,1.543443170729584578e-03,3.172212839126586914e-01
-1.266244906063829501e-01,-2.371905839005429839e-01,4.916174087904626178e-02,6.972650027131187256e-02,1.905724309712556602e-02,-4.679694950257440311e-03,2.798253893852233887e-01
-1.856175174774294112e-01,-2.411584234151582518e-01,-4.551148736409771356e-03,8.413224655456064127e-02,9.675976773700686179e-03,2.115193608620790072e-03,2.597217857837677002e-01
-3.297214178547591690e-01,-2.486114300825308931e-01,-8.747527559336359948e-03,7.910849992076588594e-03,-8.920216244928455898e-03,3.937638414917991186e-02,2.977361679077148438e-01
-3.163760534944655145e-01,-2.897198726944892333e-01,-6.002499454170889814e-03,-1.184745826379163302e-03,-4.227894069439878597e-03,2.486917826097441789e-02,3.011348247528076172e-01
-3.483354696068090561e-01,-3.260527573179562433e-01,-2.083368937355858930e-02,-3.761672465236283285e-03,1.297222019131714661e-03,2.033918172317088907e-02,3.189747035503387451e-01
-2.944738429816944891e-01,-2.342163435897552937e-01,7.434926292000931802e-04,-2.677248201540608982e-02,-1.856977246134046064e-02,3.128123922496030967e-02,2.812748551368713379e-01
-3.253413512649317996e-01,-2.753887503188172658e-01,-1.760857402808738148e-02,-1.182103564290683251e-02,-1.077097875058342577e-02,2.804111834923461721e-02,2.914598286151885986e-01
-3.331205613369230267e-01,-2.946835837695563898e-01,-2.154510241395654613e-02,-9.556894417553139440e-03,-3.017986715585515602e-03,1.714481856584719813e-02,2.962495684623718262e-01
-3.289450740223686664e-01,-3.017136471043116996e-01,-1.260865580520587059e-02,1.952786644073972299e-03,-4.209276678478359943e-03,2.512392554759881533e-02,3.068456053733825684e-01
-3.247226732989174636e-01,-3.286014677102708226e-01,-3.072673425816579984e-02,1.832956738677578908e-03,-3.643522076579076147e-03,1.234759859378387406e-02,2.968102097511291504e-01
-3.242491416454260644e-01,-3.236192034971334675e-01,-2.504379007619556008e-02,2.214217779223109743e-03,-4.009898092443816946e-03,8.089185635493351123e-03,2.993242442607879639e-01
-3.229346711343098475e-01,-3.279443061425902362e-01,-1.201878716776397238e-02,4.352100436721997347e-03,-4.237647516266775626e-03,-2.112119868163365392e-03,3.136485815048217773e-01
-3.444427262055880234e-01,-3.377845259211382789e-01,-5.444751043847359528e-02,-3.603160911074237104e-03,-3.689020754509227985e-03,-1.088885000660897790e-04,2.868632376194000244e-01
-2.987111925725608463e-01,-2.138051476208954749e-01,-2.030936439545605321e-02,-1.815358727335024056e-02,6.136771288046333379e-03,-1.081598065446464675e-02,2.500624060630798340e-01
-3.195673418342510064e-01,-3.251536637092108384e-01,-1.757457708555820730e-02,3.502124669378401355e-03,-3.784358208450256441e-03,3.520897550134524136e-03,3.050161004066467285e-01
-3.449527894816850626e-01,-3.534812098637361566e-01,-5.974774675986380124e-02,-3.462422789174150663e-03,-3.427007028469730189e-03,-4.976456942964024334e-03,2.898145914077758789e-01
-3.122855757812030841e-01,-3.165954765668085313e-01,-1.420565638913345863e-02,8.401514826768441586e-04,-1.292180189336331227e-02,-8.850004100960824627e-03,3.014845252037048340e-01
-3.031616773366055950e-01,-2.755170210246776774e-01,-9.190472927461584840e-03,-6.647831670438061717e-03,4.842444480631611335e-03,-1.291268012267270636e-02,2.824175953865051270e-01
-3.236327798767125730e-01,-3.225724869905645109e-01,-1.471546048614100211e-02,-2.393699708794917291e-03,-1.373257554370912147e-02,-1.182132070110692747e-02,3.100091218948364258e-01
-2.858727608566007938e-01,-3.037709236527126322e-01,-7.859849623278541975e-03,8.281895791801253959e-03,-1.558569298501294963e-02,-1.463096614311241474e-02,2.901105880737304688e-01
-3.200660036046103496e-01,-2.990298847433851548e-01,-1.120492430116570848e-02,-3.223278378764872325e-03,1.281694484611686953e-02,-1.037077614452910045e-02,3.003116548061370850e-01
-3.161043922195466704e-01,-3.195733484198385321e-01,-2.214678449399923310e-02,1.191626492216554117e-02,-1.241541117665605730e-02,-1.787926303664457220e-02,2.988147437572479248e-01
-3.189259976775071781e-01,-3.149571878709623851e-01,-1.010258116455536870e-02,4.535980958423812214e-04,-1.271791771256068453e-02,-9.685564177688159998e-03,3.081059455871582031e-01
-3.001974189889565214e-01,-3.134843759494373994e-01,-1.214893757285770426e-02,1.689277849175903692e-02,-1.085661547385218667e-02,-1.348027422036369993e-02,2.978768348693847656e-01
-1.943089431255178856e-01,-2.350293946101508769e-01,-1.903232870247878461e-03,-5.227142227098135335e-02,1.376896654294170992e-03,-1.088039459555525598e-02,2.346714735031127930e-01
-2.532625894118200049e-01,-2.685334195648231836e-01,-3.086040598144487723e-02,-5.487796577893542388e-02,2.016282874879393033e-02,-1.377681428299016610e-02,2.528161108493804932e-01
-3.159863260425057607e-01,-3.198007284790610472e-01,-2.038873035657529087e-03,-8.375022954882508979e-04,-1.606391819820313181e-03,-7.604889145685768230e-04,3.158902525901794434e-01
-3.009044246715113502e-01,-2.826517012233308312e-01,-5.668590159270672779e-02,-3.784229581682798521e-02,-8.143430055481537663e-04,-2.308892983324570096e-03,2.446064054965972900e-01
-2.809244588917431673e-01,-2.729313318567802016e-01,-4.686891799557177385e-02,-3.905811160761191864e-02,9.650938014816604071e-03,1.937333781557543739e-04,2.404811680316925049e-01
-2.200439913056694008e-01,-2.432226327443202663e-01,-2.378589185993923438e-02,-2.940822082643189395e-02,3.496794064327369504e-03,-5.031976468611436618e-03,2.151991277933120728e-01
-2.190752718841232349e-01,-2.440861664844037882e-01,-2.083055935533373315e-02,-2.864412556804831270e-02,5.094177439493359320e-03,-5.582515313428451295e-03,2.179853022098541260e-01
-2.463854428701294785e-01,-2.987090315013122832e-01,-4.552744495454047469e-02,-3.855096585177713447e-02,4.295632437179412212e-03,-5.917546563280048563e-03,2.412679940462112427e-01
-2.375232581258345244e-01,-2.637922361458405751e-01,-2.609151187173744391e-02,-2.282387147558546589e-02,1.474379875142427590e-02,-1.681738430271554480e-02,2.324025332927703857e-01
-3.416175971660739830e-01,-3.445542841979465920e-01,-3.983182301609569653e-02,-2.876741090886094591e-03,-1.748638552190584549e-03,5.020601157747868123e-03,3.034454584121704102e-01
-3.234890535840145853e-01,-3.238068928761265175e-01,-2.307311566677686110e-02,-1.500822928004321138e-03,6.559665381369991690e-05,-4.310003404016935109e-03,3.006789386272430420e-01
-3.148168838059750008e-01,-3.147660301636458491e-01,-1.732193465254733278e-02,-3.528178366367389854e-03,-1.374725234308225201e-03,-2.536512911942782455e-03,2.975742518901824951e-01
-3.301331596143380342e-01,-3.074091310452051751e-01,-1.782858317487076572e-02,6.388408059759133339e-03,1.625789819427664925e-04,-6.563505408817158805e-03,3.020024299621582031e-01
-3.203069342358742522e-01,-3.156198050534749222e-01,-1.156373850418329630e-02,-1.028198951124099101e-03,-4.636569611649096062e-03,-4.355460312200750729e-03,3.066297173500061035e-01
-3.245446113139321409e-01,-3.253181498451434561e-01,-1.601027641130828294e-02,-7.335180553545540090e-04,-8.994606416829305923e-03,-9.434713298075929344e-03,3.097483813762664795e-01
-3.226051489046591336e-01,-3.167593908676966108e-01,-3.234284689055677564e-03,1.186547408889810284e-03,4.044170407789901707e-04,7.418561736759885688e-04,3.164985477924346924e-01
-3.308899722610242344e-01,-3.218064627920433907e-01,-2.052972410069606179e-02,1.194700608427824327e-03,-4.458934067307984174e-03,-1.421154822614317456e-02,3.070124983787536621e-01
-3.567271186559999863e-01,-3.440528625270483642e-01,-7.163926549141486078e-02,-1.004549663599044835e-03,-1.226672312880978596e-02,2.437588818666444612e-03,2.798119187355041504e-01
-3.593566191276263422e-01,-3.725415651133628381e-01,-9.762577346798784195e-02,4.465127582941279608e-03,-1.547809694281266496e-02,1.523783754163280345e-02,2.712985277175903320e-01
-3.441831587620285404e-01,-3.356793840377123028e-01,-3.909809098333130728e-02,3.501913403248335492e-03,1.018605231631326651e-02,-5.832401273228624700e-03,3.016702532768249512e-01
-3.121629847938549585e-01,-3.140170315066765361e-01,3.609901543123544831e-03,-5.789104360505908974e-04,-3.121839007932496733e-04,-2.232498255501750314e-04,3.167062699794769287e-01
-3.419814762298866162e-01,-3.339929724520468435e-01,-3.928896786865349045e-02,4.857395524402602534e-03,1.252737166422326562e-02,-5.605334590028364719e-03,2.998405396938323975e-01
-3.477028050961092354e-01,-3.374215559083679206e-01,-5.634663042678550449e-02,6.769979687711659942e-03,-8.232199077035829912e-03,5.841967759482653844e-03,2.871268093585968018e-01
-3.485245050768420727e-01,-3.481866273357012154e-01,-9.852096215898853426e-02,4.672479220186593132e-03,-1.559749258561000419e-02,1.336010765777859155e-02,2.524841129779815674e-01
-3.124925857980138666e-01,-3.185457814810276900e-01,-4.695616327518764566e-02,-4.758975546420833418e-03,-7.890989817673570508e-03,1.436380028259329244e-03,2.690994441509246826e-01
-3.092653212169039767e-01,-3.269465952780811757e-01,-3.590420236509073160e-02,-1.218419591231415921e-03,-1.577349634666337652e-02,-8.362100731484294709e-04,2.839458882808685303e-01
-3.286718650607357572e-01,-3.441179198096217529e-01,-1.506730207618039996e-02,-2.633087086394588199e-03,-1.497292991563788957e-02,6.557091032479690079e-03,3.228818774223327637e-01
-3.542147594979133673e-01,-3.405081104114325297e-01,-3.929072090102714299e-02,3.756358641974294477e-03,-6.877048201767380770e-04,-1.983056771569642347e-03,3.083893954753875732e-01
-3.407612496302263594e-01,-3.347275435017216805e-01,-2.158368106919125728e-02,1.633389563494504378e-03,-1.243058221736999605e-02,6.061422476627782718e-03,3.171225190162658691e-01
-3.065026753935008452e-01,-3.104512439146828728e-01,-3.189123039790187075e-03,3.751508870564873306e-04,-5.935611437613595026e-03,-7.967472576863050132e-03,3.057922720909118652e-01
-3.139391629078219781e-01,-3.154247246338820476e-01,-8.592686344203737114e-03,-1.632589469463402646e-05,-8.043876559688871788e-03,-8.321932438834804199e-03,3.067477345466613770e-01
-3.119710107436711732e-01,-3.123677659220415181e-01,-2.830255700974282362e-03,-3.529280726086126102e-04,-2.436984100615313502e-03,-2.041132650826402509e-03,3.093889355659484863e-01
-3.105609256712189015e-01,-3.136610891508069265e-01,-4.942244341483353898e-03,-1.744553069460476899e-03,-1.718265328335768800e-03,-4.688012675470374160e-03,3.073170781135559082e-01
-2.937936201616772047e-01,-2.466550452582664255e-01,6.959202041545153872e-03,-1.681080737316939869e-02,1.826273841100247222e-02,-3.595118310571698145e-02,2.902121543884277344e-01
-3.214781205550304444e-01,-3.171303121233669531e-01,-1.470235187064974913e-02,1.075797425900472956e-03,-6.037215670118465348e-04,-5.527569401543330242e-04,3.046341240406036377e-01
-3.351997644965400980e-01,-3.323749142901539777e-01,-4.111725415336270339e-02,-6.705337224718417501e-04,4.757792573786260963e-03,-1.116429697121322880e-04,2.927986681461334229e-01
-3.139858120548509324e-01,-3.152002935259503036e-01,-1.388243508245395885e-02,-9.633797750477064541e-04,-7.668354584099974607e-03,1.139254630242222260e-02,3.016563355922698975e-01
-3.354032545207965565e-01,-3.350731387680905837e-01,-2.383932307308012088e-02,4.887199408775627120e-03,-5.963021273525096443e-03,7.761663421116693842e-03,3.119750022888183594e-01
-3.209881610926887396e-01,-3.274105712519476130e-01,-2.376446080488897605e-02,2.138998527059956904e-03,3.401233408476750288e-03,-9.756700864910094377e-04,3.005717098712921143e-01
-3.289671857487023177e-01,-3.272391767294640097e-01,-2.288653353722830408e-02,2.941191436009404914e-03,1.897305230997220829e-02,1.022031669623280938e-02,3.075364828109741211e-01
-3.219527615728171033e-01,-3.197890330758539346e-01,-1.535803825431916736e-02,5.812446166089228067e-03,-1.658610024371219701e-03,3.945599269148745113e-03,3.057743012905120850e-01
-3.344358809938975385e-01,-3.352082839279237336e-01,-3.275815824904323992e-02,8.325142867029514809e-03,5.658838703826529412e-03,-4.511948338823823165e-03,3.026683330535888672e-01
-3.246181010084084329e-01,-3.306101641692056337e-01,-2.026448544217337999e-02,1.575219438991301958e-03,-6.142260631315977874e-03,6.309431597090442954e-03,3.077836632728576660e-01
-2.892673992221012624e-01,-2.957783288094936180e-01,-3.304165108016715591e-02,7.862399003921946052e-04,-1.472363037966082288e-03,-4.912106901180969543e-03,2.596979737281799316e-01
-1.999774661086221317e-01,-2.044036257878139029e-01,-3.070005809921394491e-03,-5.251525653461876220e-02,1.076298550200407468e-02,-8.929571213031022373e-03,2.202815860509872437e-01
-2.315180977527276918e-01,-2.211716502093243886e-01,-1.462614280546067902e-02,-2.935442855718626773e-02,-4.026221182147775995e-03,2.117078616852169273e-03,2.180647403001785278e-01
-2.655328463952797979e-01,-2.578184273970217100e-01,-3.484161049806744348e-02,-1.375914386809087495e-02,-5.280231972258114109e-03,2.502558374296953887e-03,2.284046411514282227e-01
-2.605226210408204679e-01,-2.408676342412514049e-01,-2.329820830951226385e-02,-2.262279809111672826e-02,7.833429662344666353e-03,-2.975211498175516205e-03,2.318299263715744019e-01
-2.394200606378219520e-01,-2.221644870220508550e-01,-1.751713270450860893e-02,-2.994367691578533539e-02,-8.645885411651678569e-06,-3.363055875461369191e-04,2.199995815753936768e-01
-2.503284552975828525e-01,-2.514865275746469564e-01,-2.305668822600154266e-02,-1.474719727335378067e-02,6.063194346181554825e-03,-4.598252457956488425e-03,2.296587675809860229e-01
-3.166831293178205553e-01,-3.188783561474984318e-01,-3.930093225290115511e-02,-5.909879956749618593e-03,1.523585599538871283e-03,2.224315775717688255e-04,2.786871194839477539e-01
-3.129994116231040735e-01,-2.638892789442850439e-01,-3.258894312120630410e-02,1.654400336066693669e-03,-5.524993088130026458e-03,-1.035359917271463719e-04,2.595585882663726807e-01
-3.454538713996887500e-01,-3.475573690794689363e-01,-4.372126256622163587e-02,-1.339759469114781137e-03,-2.275557900821261002e-03,-2.396672940687544565e-02,3.056563735008239746e-01
-3.166082266395507383e-01,-3.180662280893975513e-01,-1.634073997503660003e-02,1.754136361979284110e-03,3.472678113409497381e-03,-3.556523778429150368e-03,3.011375665664672852e-01
-3.214289217561360212e-01,-3.236885964708814400e-01,-1.192594901845406286e-02,-3.386009292619540515e-04,8.640387057847040767e-03,-4.188495006720486559e-03,3.110844194889068604e-01
-3.129179215852512241e-01,-3.155877207659681938e-01,-2.369757885011009035e-02,7.895942936591141047e-05,-1.312812341698580245e-03,-1.334963418803221695e-03,2.905825674533843994e-01
-3.265952655371587299e-01,-3.286065297612564828e-01,-2.186424868226369278e-02,-1.106072914997501856e-03,3.401814666011550997e-03,-3.780063042856530130e-03,3.058744668960571289e-01
-3.364078797652796382e-01,-3.306023088628101680e-01,-3.002756307766801802e-02,-1.122270869443681672e-02,1.285516209920007378e-03,-2.256487567601628275e-02,3.066499829292297363e-01
-3.149023808493189303e-01,-3.487950208378273187e-01,-7.237216064895146683e-02,2.305282468164955578e-02,1.791675539942809425e-02,2.212995587309945014e-02,2.687306106090545654e-01
-3.212415313160367769e-01,-3.139189592552025232e-01,-2.221177508322771943e-02,-3.262741658424006715e-03,4.777406010186371378e-03,-2.186052911105243468e-02,2.980214953422546387e-01
-3.173170093637716627e-01,-3.231631472304374308e-01,-1.131250889249921232e-02,-1.006899511498124573e-03,8.249364173541565148e-03,3.512785685695161714e-03,3.093640208244323730e-01
-3.050315913186485428e-01,-3.193612249810915404e-01,-2.566804975750791584e-03,-1.252048487756180460e-03,8.421864661970000776e-03,1.009114170257807350e-02,3.107208907604217529e-01
-2.633308719330696435e-01,-1.402490544693334173e-01,4.425091715818746385e-02,8.836482584916560690e-02,-1.449348179446094745e-02,-2.513838563919175081e-02,3.128082454204559326e-01
-3.126030388054742426e-01,-3.122526178710912093e-01,-8.833928553125452998e-03,2.608534679644128370e-05,-5.269128302998099360e-03,4.027546253089937800e-03,3.038113117218017578e-01
-3.123255317829781719e-01,-3.116251141220999221e-01,-7.109894711197745076e-03,-1.512324781825663566e-04,-3.157622792673898428e-03,4.353631107749958429e-03,3.050084114074707031e-01
-3.094783013760351587e-01,-3.108555944109270275e-01,-7.364505827267553428e-04,5.123554972767729648e-04,-2.767545946890465503e-03,1.818458169746935485e-03,3.094872236251831055e-01
-3.093993529945702203e-01,-1.705718121521943020e-01,-2.509943473717191065e-02,-6.250693170113953180e-03,-2.469255455203335850e-02,5.033524048186777122e-02,2.649116218090057373e-01
-3.202799113584924862e-01,-3.216616914317262932e-01,-7.877029099854299110e-03,4.141930057803736888e-03,-4.243606433132532038e-03,2.896688475934109091e-03,3.133046627044677734e-01
-3.109306029057970489e-01,-3.111695077408653809e-01,-3.420208152061954276e-03,7.395487540690533212e-04,-4.281413699238527729e-03,3.704008338461680511e-03,3.077888190746307373e-01
-3.294779320888865937e-01,-3.194762923352824080e-01,-5.422707247904834382e-03,2.061324556063073312e-04,-2.211706183077677065e-03,5.792631969141436282e-04,3.191967308521270752e-01
-3.181812221792612028e-01,-3.184030184637481331e-01,-1.312212836340984068e-02,2.245388591957218558e-03,-8.632383978924034265e-03,8.243041650643169113e-03,3.058942258358001709e-01
-3.138690675768163740e-01,-3.055259541147389291e-01,-2.849173686909733938e-03,2.061308961883433991e-03,-7.194794029321728221e-03,6.605750310621983507e-03,3.074200153350830078e-01
-3.139319284303691004e-01,-3.167893703893320811e-01,-4.281417875569681897e-03,3.652703814035345407e-03,-9.659271151566473437e-03,6.400034344182748032e-03,3.117999732494354248e-01
-3.156947320353460928e-01,-3.158472294059102015e-01,-5.827966432720294021e-03,1.784945650212971377e-03,-2.620186560974920205e-03,2.675325915093302014e-03,3.100263178348541260e-01
-3.162412743514275704e-01,-3.156817663307676658e-01,-2.874680201492868514e-03,2.435835124806371311e-03,-2.903972734597461743e-03,3.512376036230939469e-03,3.132151365280151367e-01
-3.122094262989733027e-01,-3.120084803013344343e-01,-7.538345552782210746e-05,6.245833368699050517e-05,-2.829229042872740026e-03,1.987493684970285685e-03,3.120911121368408203e-01
-3.187106595409566756e-01,-3.190679904019281254e-01,-3.409895823713343654e-03,1.113300190759110124e-03,-3.538000565849561130e-03,3.790008857437835669e-03,3.156132698059082031e-01
-3.106594348036394448e-01,-3.102575066352277755e-01,-2.994736197443503833e-03,4.867019216347440820e-04,-5.104490872067192486e-03,3.826746981188343475e-03,3.076635897159576416e-01
-3.293303894704718848e-01,-3.335201357028925173e-01,-1.733240013190379125e-02,8.591512563153710013e-04,4.038225426297943448e-03,9.319986932882306715e-03,3.146096169948577881e-01
-2.849273213593760401e-01,-2.473974366646697898e-01,-1.055146043646565390e-02,-3.611621720876917463e-02,3.831125833404478570e-02,-2.446730227600331722e-02,2.765965759754180908e-01
-2.810093151054934846e-01,-2.665664815886643613e-01,-1.061737298950488073e-02,-1.650953648477121102e-02,2.360902675763529995e-02,-1.581467662097777241e-02,2.695465385913848877e-01
-2.853416092454795217e-01,-2.988899807923107721e-01,-1.226468621290865979e-02,-1.664801584006708399e-02,1.962133340478050200e-02,-2.088308340741297509e-02,2.859179675579071045e-01
-2.746404825142145234e-01,-2.875099529199163784e-01,-3.868263662047999318e-02,-2.916852337451677699e-02,1.516587107222988964e-02,-1.842479212220122023e-02,2.512751817703247070e-01
-2.387620592919372231e-01,-2.264688794852600107e-01,-1.201048035709093020e-02,-4.001995707817595366e-02,1.668016778543267645e-02,-1.376208946910777685e-02,2.344942688941955566e-01
-3.219086174165886050e-01,-3.281666333897907961e-01,-4.089819091834437370e-02,1.078366944774913905e-02,-2.411157067703161017e-02,-2.566044514667904786e-02,2.912609279155731201e-01
-2.854852376064717090e-01,-2.653205486084594944e-01,-1.455686440182243913e-02,2.018726089325693224e-02,-1.588124428551878839e-02,-1.622544920197915505e-02,2.666732668876647949e-01
-2.957838078279795835e-01,-2.822374097648498448e-01,-1.844176880294032261e-02,2.597190819357269101e-02,-1.718623008759904633e-02,-2.166267252425719408e-02,2.786802053451538086e-01
-1.896918816820669373e-01,-2.461997151911488602e-01,-1.250570039010739931e-02,5.180675880734846028e-02,-2.533354729804603717e-02,-1.766425474467523196e-02,2.356135547161102295e-01
-3.067868016203430526e-01,-2.863964061793407012e-01,-5.057951349059727764e-02,2.806263517235402585e-02,-1.452726345112147210e-02,-1.500695656216957490e-02,2.539784610271453857e-01
-2.404149591007067044e-01,-2.773518092471868313e-01,-3.363377664735683892e-02,6.250555062219398383e-02,-1.411711787261016836e-02,-1.758856665792838184e-02,2.549655139446258545e-01
-2.734729820308648973e-01,-3.073577754296799025e-01,-3.052092184646656992e-02,3.238983241807560920e-02,-2.644517566967157993e-02,-1.480263728988011167e-02,2.725967168807983398e-01
-2.761767065827896994e-01,-2.103418950414806532e-01,-1.158654277989068504e-02,-6.175675403799505553e-02,-3.809394388655850533e-02,5.217060838596449673e-02,2.844000458717346191e-01
-1.943245585492923977e-01,-2.023754174591458344e-01,1.847665150269406364e-04,5.380788388324403426e-02,-1.421508393485216258e-02,-9.968175768827861744e-03,2.214832454919815063e-01
-3.465407845601304881e-01,-3.410270992716706862e-01,-3.587286648175699866e-02,-6.555716446817043928e-03,9.626231106417360017e-03,1.279902902030770687e-02,3.094033002853393555e-01
-3.868433723281696213e-01,-3.781498838330687451e-01,-5.289579846123149132e-02,4.322337599928421925e-03,-1.131669890759212779e-03,1.920871595176786018e-02,3.314516544342041016e-01
-3.380262948953490221e-01,-3.437951900254683224e-01,-3.899253869983024257e-02,7.955778036721695068e-04,3.035446408028179732e-04,-5.412342590429966745e-03,3.021086156368255615e-01
-3.437501624084141616e-01,-3.428126496899512321e-01,-6.269924763435738568e-02,-1.050845382209711267e-03,5.042945372046735066e-04,-6.876899567423666766e-03,2.808432877063751221e-01
-3.412165676430999328e-01,-3.460238244909952798e-01,-6.237627802423345580e-02,2.561947853414871614e-04,-8.563913767612283019e-04,-6.594534352245920786e-03,2.815108001232147217e-01
-3.380915646050165480e-01,-3.487828681791738106e-01,-3.092207610998229383e-02,-3.106985059598519738e-03,4.255788063167469451e-03,1.564172414880830864e-02,3.139565587043762207e-01
-3.447416805325808076e-01,-3.353802508630361334e-01,-5.913416223408859973e-02,-1.807728675350291515e-03,2.445945728638767528e-03,-2.930144626093007278e-03,2.811389565467834473e-01
-3.546494988976293672e-01,-3.718887531583217054e-01,-4.504656252382743808e-02,-2.730593801292063860e-03,-1.003486020114002786e-02,3.027906569796457933e-02,3.233626782894134521e-01
-3.393207790878958185e-01,-3.293313503387184649e-01,-2.660561678556069842e-02,-2.166267116141509970e-03,-9.252863093195822647e-03,-1.467475923548416591e-02,3.093278110027313232e-01
-3.015817007173579034e-01,-2.926163548150218507e-01,-2.024692496771646200e-03,6.959702983030368814e-03,-3.254541208911924770e-03,-8.333275712513301195e-03,2.958286106586456299e-01
-3.166494544297706604e-01,-3.116929060330019263e-01,-6.402186555094918630e-03,-5.530332483432602109e-04,-7.413828721514754971e-03,-7.357711638548168620e-03,3.083316385746002197e-01
-3.075955427907627326e-01,-3.105184401985049969e-01,-1.331235576210143545e-02,-2.908995538606330266e-03,7.003322944958733851e-03,-3.964959812793760786e-03,2.961266338825225830e-01
-3.165285304464724447e-01,-3.091037050452443702e-01,-1.029959433624796916e-02,-6.706043834049172899e-04,-7.455737624183843976e-03,-6.629399600789948402e-03,3.030801117420196533e-01
-3.075707584068974598e-01,-3.116268000732951848e-01,-1.591967326406604211e-02,1.207514799516100530e-02,-1.184596174416166145e-02,-1.870948832465261016e-02,2.969314754009246826e-01
-3.185325441320789319e-01,-3.146029538013750959e-01,-2.578257189134763872e-03,4.117460421801653371e-04,-1.732934777969241755e-03,2.606253496654828590e-03,3.140555322170257568e-01
-3.224525379304128414e-01,-3.162157761536601996e-01,-2.159207403751556287e-03,1.088386540049017873e-03,-7.508471248018169276e-05,-1.292548255760358122e-03,3.172344565391540527e-01
-3.285199987076673489e-01,-3.140536670647974260e-01,-1.539803533995370843e-02,8.954683975458730891e-03,-1.514175836759471157e-02,-1.763508112003269943e-02,3.091703057289123535e-01
-3.354886342045157455e-01,-3.438087857505901512e-01,-3.115759201086154562e-02,-5.439460210999487108e-03,2.326484238017254361e-02,-1.632797170180267515e-02,3.126195967197418213e-01
-2.993952827942742423e-01,-3.074514354198802923e-01,-1.041564289372065577e-02,-2.252642995898967472e-03,1.482206875940596073e-02,-8.833622320528975932e-03,2.946363985538482666e-01
-3.253680141712241847e-01,-3.250610523151007403e-01,-1.938780058296357689e-02,3.996959315702407374e-03,1.200783535323778420e-02,-9.737477310618846207e-03,3.070749342441558838e-01
-3.412383369688022916e-01,-3.347284456040116041e-01,-2.560637051143216381e-02,4.535810394082167435e-03,3.821614984429212280e-03,-1.774704441841720541e-03,3.126118481159210205e-01
-3.176426982404850219e-01,-3.092461788768221531e-01,-6.171692294124536682e-03,-9.930317909659410868e-04,8.453418818848871391e-03,-7.867691166809080011e-03,3.080137372016906738e-01
-2.827356565938600186e-01,-3.179034271315487326e-01,-4.273729119705638180e-04,5.986353858648532297e-03,3.256805971481189360e-02,1.223809694875428733e-02,3.075739741325378418e-01
-2.867151152984774298e-01,-3.332570890252293250e-01,-2.014010331680704535e-02,9.961175589586169718e-05,1.476591524088652872e-02,2.686556793639332738e-03,2.937875092029571533e-01
-3.387989203501044488e-01,-3.755410526972014496e-01,-5.426578248683236461e-02,5.083568938180738940e-03,1.244099899731645857e-02,-5.090082074093606581e-04,3.054604530334472656e-01
-2.393101499015051759e-01,-3.370118789841226037e-01,-1.136367663838933062e-02,2.339461654771543206e-02,3.022156778303174487e-02,1.823449403734115487e-02,2.985890805721282959e-01
-2.685143499310211901e-01,-3.174447374384740117e-01,-8.979993940982033962e-03,-3.367290653087781551e-04,2.836038209615752634e-02,5.737375038284410651e-03,2.914848327636718750e-01
-3.222370961908195830e-01,-3.195811169880140024e-01,-1.050974341233745779e-02,-1.648652726412888408e-03,1.075958353547795676e-02,4.131551433404438006e-03,3.110622465610504150e-01
-3.190196855435571965e-01,-3.406238660913564198e-01,-2.517924324558501459e-02,9.266893292310616689e-03,1.056347578404711815e-02,-8.661604111930365849e-04,3.061890900135040283e-01
-3.501336577205119704e-01,-3.493126864580989865e-01,-2.454187471776730911e-02,6.023415002858642855e-03,1.311871821032694306e-02,4.061871500298283697e-04,3.261426389217376709e-01
-3.507350081274962506e-01,-3.599125377262269443e-01,-1.214384716286997790e-01,3.876810309628531213e-03,5.684128595806191807e-03,-2.105877863079609960e-02,2.371453940868377686e-01
-3.106615970353666101e-01,-2.973396336390410344e-01,-2.317267697413472050e-03,1.632415232255962851e-03,1.002954525059377398e-02,5.225177444287744735e-03,3.025518655776977539e-01
-3.240994594607143897e-01,-3.181547314718395914e-01,-8.285357718791797055e-03,-1.894155095355716826e-03,1.452293282351487143e-02,1.159597250466808810e-02,3.145526349544525146e-01
-3.199925201903286442e-01,-3.187292161244201782e-01,-2.007136300903253345e-02,-3.702764814376487568e-03,2.758485042573660933e-03,3.832531294299930044e-03,2.994719147682189941e-01
-3.225364755767645697e-01,-3.240183297744532176e-01,-1.161579221800002060e-02,-1.231896670491943119e-03,1.165521984027527783e-02,1.327052609288952717e-02,3.131693005561828613e-01
-3.233126532463688196e-01,-3.233952767918786275e-01,-2.207998995641102802e-02,-5.944320667914332681e-04,1.670428389286552706e-03,3.982675704501027585e-03,3.013685941696166992e-01
-3.316574470432366861e-01,-2.421193691573789719e-01,-4.339289308855714955e-03,-2.766607279321320334e-02,-2.124553481725814999e-03,3.290823343250522809e-02,3.023333251476287842e-01
-3.484546382895847283e-01,-3.261389082785995375e-01,-2.288393544843919658e-02,3.429125093271204010e-03,3.516277635752563819e-03,1.677009307121005502e-02,3.164569437503814697e-01
-2.789641592008395565e-01,-2.225884153661873421e-01,-2.511019263512057065e-02,2.448031684482473991e-02,-8.891940577920362911e-04,-4.205867923058768595e-03,2.348662465810775757e-01
-3.218841074416358694e-01,-3.193022828477427022e-01,-8.926194957997263257e-03,-2.074733336906384997e-04,-2.532846648294902626e-03,5.354928962553505770e-03,3.118440508842468262e-01
-2.863910750781709091e-01,-2.426212851984917707e-01,8.545574449233594994e-03,9.600179381665806949e-03,8.139867604817817640e-03,1.032401034505815891e-02,2.771085202693939209e-01
-2.880974594261841992e-01,-2.445393494442196780e-01,7.638327256401900023e-03,3.388577571099522529e-03,8.080093349574454450e-03,1.171098398179738244e-02,2.776995301246643066e-01
-3.216406752468390362e-01,-3.119435124019500627e-01,-1.824703736998320447e-02,4.726190692134055703e-03,1.013561742370015437e-02,6.710558055838027058e-03,2.995162308216094971e-01
-3.246076714925976159e-01,-3.034725618484812593e-01,-1.761207968949413116e-02,3.263065888651902821e-03,2.151826250877070875e-04,1.362482652474955765e-02,2.979825437068939209e-01
-3.308191918357062944e-01,-3.181340349964774661e-01,-1.404174775146951881e-02,1.283975702166519940e-03,-7.108911453516737929e-04,1.763739963028509994e-02,3.121380805969238281e-01
-2.990313030250602022e-01,-2.952179713296386732e-01,2.445449006652111734e-03,6.357026855698806947e-03,1.602743260005746323e-03,2.679443472212948534e-03,2.998393177986145020e-01
-3.089600609362130323e-01,-2.607849540026240254e-01,-4.661073863329134870e-02,1.925047211101718961e-02,-1.336085985407205797e-03,4.323119065401412851e-03,2.442999482154846191e-01
-3.225848300054308671e-01,-2.838555823045379456e-01,-1.574064997124346998e-02,3.274545875821411722e-04,1.419798014410325084e-02,1.691927911779998392e-02,2.919474542140960693e-01
-3.133250049911687207e-01,-3.106911579443912275e-01,-8.972949829972265423e-03,-3.050299101158395702e-03,1.011257120373071453e-04,1.947323389759885240e-02,3.049607574939727783e-01
-3.473244797404101969e-01,-3.500584382726602550e-01,-2.018673775136492488e-02,-7.183213693949569607e-03,1.195579416434488888e-03,3.152089309457175876e-03,3.288006186485290527e-01
-3.349286273977610806e-01,-2.993759543013898017e-01,-2.402068103225377116e-02,-1.834825902424515754e-03,2.957331144459871474e-04,3.995879778888138112e-02,3.027781546115875244e-01
-3.443918699533111138e-01,-3.028023771318380519e-01,-2.564064087544948300e-02,-7.257771869397969949e-03,-9.124143791977410226e-03,1.992555477847519907e-02,3.027774691581726074e-01
-3.981678494400366919e-01,-3.427896404937292862e-01,-4.889489565340038313e-02,-3.414062577888016779e-03,-7.248270496235405431e-03,4.256276746999317073e-02,3.336818516254425049e-01
-3.579991536170079591e-01,-3.217981087233827142e-01,-1.926031316715173802e-02,-3.706660098912535790e-03,1.668643499992131934e-02,2.909811204067109733e-02,3.274269998073577881e-01
-3.116335241691916558e-01,-3.064331771819666650e-01,-6.764176639800029145e-03,2.798312217689989580e-03,-1.193844742205376133e-02,-1.259884478490059904e-02,3.038325309753417969e-01
-3.264956238514906683e-01,-3.381032007612468360e-01,-1.641757325341403062e-02,8.848533011036101509e-04,-6.656852282302663446e-03,-7.943753831142225802e-03,3.165548741817474365e-01
-2.488598306424152640e-01,-2.480632362979089400e-01,-2.098619132800008669e-02,1.341842157644434000e-02,4.322065264504989027e-03,5.239156727833103704e-03,2.289630025625228882e-01
-2.979236003318430082e-01,-2.928677321763087926e-01,-6.426099851339267532e-03,7.432027838814036363e-03,-9.093653459819734525e-03,-1.403864075567982928e-02,2.907363474369049072e-01
-3.112538233321440750e-01,-3.124541081702275069e-01,-7.195892058036362782e-03,6.676583158082676763e-04,-7.034828802398812239e-03,-6.680446567883565299e-03,3.051250874996185303e-01
-3.159540415105557831e-01,-3.161974691732294951e-01,-2.509266671894105905e-03,-1.866981209062337733e-03,-3.443363661961400691e-03,-3.776474071817581112e-03,3.137081563472747803e-01
-2.904003994761383822e-01,-1.932039691092187206e-01,-2.843882280603454715e-02,6.433156808973505836e-02,9.353892160718938961e-03,1.060956844629339091e-02,2.561739981174468994e-01
-3.207628591429524390e-01,-3.167972647534098019e-01,-6.485906003763225458e-03,-2.845129831771528884e-03,-4.544551468816638261e-03,-4.995639753402263822e-03,3.125708699226379395e-01
-3.294954826306473183e-01,-3.189664421716000842e-01,-6.320670752793383640e-03,9.986498253503988103e-04,-7.803522662626822572e-04,7.959419040603027363e-04,3.180516064167022705e-01
-3.072228343933555150e-01,-3.073697469156427831e-01,-1.234773190068597093e-02,8.929581974694105612e-03,5.838840685062168107e-03,-8.804713760316967841e-03,2.959201335906982422e-01
-3.258469878819320042e-01,-3.256751665492320091e-01,-2.411771723222796981e-02,-1.248655545718008750e-03,-3.492274860293725653e-03,1.620541278847665093e-03,3.017248511314392090e-01
-3.403446182042419443e-01,-3.399937990256785003e-01,-4.273824612685545032e-02,-3.599196118103339861e-03,2.717767369900968202e-03,7.532306386694841843e-03,2.978195846080780029e-01
-3.297377392321531597e-01,-3.294437151077879156e-01,-2.908868629180222376e-02,4.619467222799220410e-04,9.001617154284493553e-04,-2.922890334546596192e-03,3.005498945713043213e-01
-3.355601510444781166e-01,-3.409632133430767764e-01,-5.467978198615214280e-02,-2.580405634300894820e-03,-3.386862076740501572e-03,6.107356648491137074e-03,2.839134931564331055e-01
-3.373152531079400829e-01,-3.406031950195936853e-01,-5.697069684799196954e-02,-6.994745125944880522e-03,9.297288168300390024e-03,4.346666111054027851e-03,2.828222215175628662e-01
-2.343519639926662790e-01,-3.028078826150827907e-01,2.300015878921590762e-03,7.493546220278913617e-04,2.520495050353364214e-02,-7.272922438369576990e-03,2.809925973415374756e-01
-2.174517605786556451e-01,-3.132716373955774514e-01,-2.634396463043819914e-02,3.657270158432124199e-04,1.497217913727117225e-02,1.209416694490100461e-03,2.543478906154632568e-01
-1.728600505109164354e-01,-2.898257147974701020e-01,-2.449179774819063016e-02,-4.522017671737209830e-03,2.762645517289191721e-02,-2.932635307572185011e-03,2.354249507188796997e-01
-1.811870519984320194e-01,-3.104520114564974231e-01,-2.000810337549288609e-02,-7.337043745564906757e-05,4.482072821315050137e-02,-7.201954201394771514e-03,2.640174031257629395e-01
-1.093188939558324413e-01,-2.713750858929750986e-01,7.049665299374480165e-03,2.725509766390033992e-02,6.122471793293061959e-02,1.193047184243449174e-02,2.693752348423004150e-01
-1.680687991128869685e-01,-2.913820390110419267e-01,-2.431202469817153600e-02,5.157507760220124242e-03,3.025710585020803881e-02,9.192480987696122208e-03,2.380736470222473145e-01
-3.053373693898603913e-01,-3.043005854345792183e-01,-3.975191025112151388e-03,2.206891962246390095e-03,-5.291625178163025453e-03,-4.291318933963326511e-03,3.011007308959960938e-01
-3.158968928984334790e-01,-3.188965028727381301e-01,-2.400933884173003796e-02,1.463223411172439627e-02,-1.878944854615994739e-02,-1.748392178417284420e-02,2.978277802467346191e-01
-3.091459348432378240e-01,-3.178795336511588410e-01,-2.333673741139521973e-02,1.132219527022134027e-02,-2.007389045662536994e-02,-1.410767808037712533e-02,2.940235733985900879e-01
-3.908125056308313638e-01,-3.750645914534859182e-01,-4.801597151169401112e-02,-2.629357387856654047e-03,-9.381606834995186509e-03,2.258907617396658726e-02,3.378974795341491699e-01
-3.700588862866794337e-01,-3.527292206320562507e-01,-3.074391733201936594e-02,-1.644741533334567046e-02,-1.702245080098189686e-02,2.887129454243848869e-02,3.372480571269989014e-01
-3.586203700374971381e-01,-3.652418465428296512e-01,-7.223210800657103858e-02,6.326223515881614946e-03,7.988775377796682869e-03,-8.681338661191469880e-03,2.906819880008697510e-01
-3.276917258420073420e-01,-3.169731636839173694e-01,-5.381568921273949258e-03,-1.187665962486731449e-03,2.753559268323282471e-04,-9.858246040500417019e-04,3.170984089374542236e-01
-3.256895755827621253e-01,-2.692523566845265726e-01,-2.817691155109885992e-02,-4.630059573166905862e-02,-1.531192728138293380e-02,4.610776185292520674e-02,2.973559200763702393e-01
-2.940268009684359196e-01,-1.768603974456247896e-01,-2.638728332750436834e-02,2.245683391121060593e-02,3.777324740860804001e-03,8.163596271340030699e-03,2.361274659633636475e-01
-3.011577103419183499e-01,-3.119026003012848047e-01,-4.760949014713383720e-03,2.375698374098832513e-03,2.065805658011859829e-03,3.944652943118848523e-03,3.020391762256622314e-01
-3.180427683450976484e-01,-3.186860143416433422e-01,-9.749438378256480853e-03,6.606357410765871605e-04,-9.530219586673405532e-03,6.247217634270910321e-03,3.092480599880218506e-01
-2.856900831921471706e-01,-3.147168098766279787e-01,-6.008143738786636545e-03,-1.271689799942375167e-02,-1.734606062333474835e-02,1.042942499679154825e-02,2.981558740139007568e-01
-2.927613221589753234e-01,-3.135586752669295985e-01,-9.838818672827404077e-03,-3.569003499692242724e-03,-1.094973613253027132e-02,9.826273098365296763e-03,2.950411438941955566e-01
-3.296684439252763332e-01,-3.283712573790545930e-01,-2.144629857080859736e-02,2.782084161696243840e-03,-2.525219539653444749e-03,-1.637746278764308765e-03,3.076575100421905518e-01
-3.162624673452874013e-01,-3.160616863297463497e-01,-1.089176191439505947e-02,-1.175605165195391577e-03,6.631788081858843928e-03,6.722714675430781911e-03,3.057150244712829590e-01
-2.952340030949204275e-01,-3.101317844406670798e-01,-7.080459728471988345e-03,-4.905347465506656665e-03,-1.122635803472456749e-02,1.233360722634318542e-02,2.974119782447814941e-01
-3.158499971623024982e-01,-3.136691052872012664e-01,-8.692226283333159831e-03,2.194794036317364500e-04,-8.030171440868514449e-03,5.542053175965741020e-03,3.065395653247833252e-01
-3.064527928592676309e-01,-3.054263338963740804e-01,-5.387489819450835826e-03,8.341322151689806305e-04,-8.684070731524747358e-03,-5.627526972300542045e-03,3.010908067226409912e-01
-2.728875599040812006e-01,-2.775408353493161173e-01,-3.784617954689289965e-02,-1.799552909091175438e-03,1.004908903969675097e-04,3.653472020407188148e-04,2.374235838651657104e-01
-3.189574742149680064e-01,-3.189061038718729035e-01,-1.457593969542900214e-02,-8.835018459090133785e-04,-4.694608216009365197e-03,-1.300619713494028003e-03,3.044766187667846680e-01
-3.218874491438300511e-01,-3.203997564726883684e-01,-1.144573846541735440e-02,-2.079414479794509159e-03,-8.896910675734125834e-03,-4.539712076496027829e-03,3.102042675018310547e-01
-2.890737323110865731e-01,-2.930181025352719959e-01,-6.669118648585048437e-03,8.883111423739148763e-03,-1.245052322234150959e-02,-1.616528573215517128e-02,2.869974970817565918e-01
-2.703241425893853633e-01,-2.652367866626121895e-01,-3.439339352973294628e-02,-5.023482028488856360e-03,-2.260390931762925205e-03,2.401383880469548768e-04,2.336239367723464966e-01
-2.855012159439125896e-01,-2.773084866964516393e-01,-3.328352669742812298e-02,-1.253007590058250256e-02,-7.501517608927768532e-03,1.004690538945532570e-02,2.501143217086791992e-01
-2.589992189480557205e-01,-2.339259721057307950e-01,-2.441382063830882521e-02,-8.847212880878019964e-03,-1.535238187573264180e-03,1.120320528537087097e-03,2.236578017473220825e-01
-2.619172552332446058e-01,-2.393966701173262379e-01,-1.815350173861426941e-02,-9.799622792064269228e-03,-5.728372645650541516e-03,4.283714289769234747e-03,2.342644482851028442e-01
-2.939446761897756555e-01,-2.899817453543012125e-01,-1.360744220476040045e-02,-1.940823160830299626e-02,2.281700824832140137e-02,-1.930242274052043627e-02,2.851374149322509766e-01
-2.743685461862117592e-01,-3.057814856711483786e-01,-3.044063235080224361e-02,-4.886151787391415646e-02,1.215127627797140016e-02,-3.164467675636339211e-02,2.806413173675537109e-01
-2.671039667392474670e-01,-2.621963588827116998e-01,-1.760830748301667192e-02,-1.792177965097950174e-02,1.350616605805275705e-02,-1.123056243192009120e-02,2.508723437786102295e-01
-3.155792478562908787e-01,-3.171540187305679770e-01,-9.475306263842325771e-03,2.616853993778385686e-03,8.985457742323121888e-03,-1.042778093321826416e-02,3.078524470329284668e-01
-3.049168006583343193e-01,-2.965583371442610527e-01,-7.963774801972994810e-03,-1.197437125317391340e-02,2.300879222643449976e-02,-2.427025348401245716e-02,2.992564141750335693e-01
-3.023935975369885787e-01,-3.003181504204346375e-01,-1.995481078127941954e-03,-2.533207245108794366e-03,1.040812954488927987e-02,-1.112291601910993244e-02,3.005582690238952637e-01
-2.912006932775561552e-01,-2.894542668975189637e-01,3.564724068998686990e-03,-1.157355289618843507e-02,1.020733649416773019e-02,-1.333982862300439783e-02,2.960121333599090576e-01
-3.141480145998694073e-01,-3.153854215394448768e-01,-9.593698210640905222e-03,-9.401979716119777605e-04,4.073085476372791634e-03,4.162581754730602934e-03,3.053459227085113525e-01
-3.100524824703338456e-01,-3.114563890610616004e-01,-8.614286879231575211e-03,1.492529954117236858e-03,7.727045352211837047e-03,8.292662345924727355e-03,3.027907907962799072e-01
-3.125241203841102045e-01,-3.129121052241543577e-01,-5.215142712971299055e-03,-2.818110129053465803e-04,5.282593107723322808e-03,3.592243816548483515e-03,3.077025413513183594e-01
-2.564128051591085811e-01,-2.589734880473402723e-01,-3.286183953057031371e-02,1.270332263003045789e-02,9.858890397074139989e-04,2.486729199251968571e-04,2.259231209754943848e-01
-3.134389465392514174e-01,-3.139892146504817405e-01,-1.218932606008160668e-02,-8.337281664606244159e-04,4.342495802163235177e-03,5.258336221183533034e-03,3.017598688602447510e-01
-3.027467793864621060e-01,-2.978818395312617939e-01,-1.139093184944342529e-02,3.610408240808519673e-03,8.720827996170204058e-03,6.056976280978584523e-03,2.896062731742858887e-01
-3.090415527702590759e-01,-3.102118514587684506e-01,5.071127920597273686e-04,3.785373379001454161e-05,3.096102847555958458e-03,2.887423434010499054e-03,3.102221488952636719e-01
-3.281405998653317280e-01,-2.427623919676606401e-01,-4.526992957397504846e-02,3.464433065650160404e-02,-1.213179555891561769e-02,-1.407096188267432935e-02,2.603660225868225098e-01
-3.189059105355782076e-01,-2.267059745445158536e-01,-4.359567148149731675e-02,3.834752842066714573e-02,-4.160570070639246776e-03,-8.308685863454028445e-03,2.521578967571258545e-01
-3.065121529172352144e-01,-1.616017173564169296e-01,-2.299558661418027450e-02,3.204708708555330937e-02,-6.327059701608937076e-03,-2.143419294873639969e-02,2.547068595886230469e-01
-3.117166821352562733e-01,-2.150369237652694221e-01,-3.509251596163115439e-02,2.305416268815505682e-02,-1.315392452046311791e-02,-2.294983781244617355e-02,2.506343722343444824e-01
-3.483843563786873654e-01,-3.445203545256892985e-01,-8.877344392770097903e-02,1.687461584002925138e-03,-1.100535873286716260e-02,-7.693172421685413008e-03,2.587645053863525391e-01
-3.172621325832190586e-01,-3.191380812419316038e-01,-2.840440482137621125e-02,5.026018890180913509e-03,-1.524202534225335172e-02,-8.214338826531390053e-03,2.914778888225555420e-01
-3.567117222295291268e-01,-3.660751985039951140e-01,-6.227208893194630113e-02,1.497945248465851198e-02,-8.953726141867021995e-03,-2.193853795075652660e-02,3.031450212001800537e-01
-3.546793047568546631e-01,-3.499687255813921927e-01,-6.299697075523974510e-02,-3.580479921206405881e-04,1.020877897524557348e-02,-4.331730654178015142e-04,2.898972034454345703e-01
-3.405464361053796019e-01,-3.340024849671012763e-01,-4.927898324201304692e-02,-1.418519831628790818e-03,1.119612931473850173e-02,-4.985551866447721255e-03,2.888428270816802979e-01
-3.519278433680752549e-01,-3.503230208487974617e-01,-8.632001608143943794e-02,3.041694112005135803e-03,-5.377751835733489416e-03,-2.869517248910800206e-03,2.650718092918395996e-01
-2.990136498746953642e-01,-3.043771369405782745e-01,4.016738520934731715e-03,-7.460486419229438605e-04,9.481900055416941572e-03,-2.662786455466828461e-02,3.096449673175811768e-01
-3.180964719260523377e-01,-3.209306340660902923e-01,-1.510312185493944970e-02,2.082457954465287365e-04,5.709909894363121748e-03,-4.114761812419692050e-03,3.046645224094390869e-01
-3.113723747471133230e-01,-3.070118846719452899e-01,-1.530803273437100764e-02,1.714349178214326971e-03,4.793856124786916896e-03,-3.257028952630897697e-03,2.940947115421295166e-01
-3.146653196525444063e-01,-3.187554356059552063e-01,-2.055719468171210429e-02,-2.262345186216507733e-03,4.548418225649311121e-03,-6.399597513868809408e-03,2.965122759342193604e-01
-3.176969053009656707e-01,-3.210652787093312144e-01,-4.185980052514384764e-02,-8.127696798799970840e-03,1.675836073357990855e-02,-1.600874521570200618e-02,2.807777225971221924e-01
-3.223639318894002681e-01,-3.136730707162320719e-01,-1.982923710835637898e-03,1.791884053447094505e-03,-8.396330751212457066e-04,1.153145066979201433e-03,3.161500692367553711e-01
-3.398674392583384551e-01,-3.377086244309323582e-01,-5.839636969416117651e-02,-9.979350255597729726e-04,9.338473157360343418e-03,2.846891083076875072e-03,2.809126377105712891e-01
-3.207123169706305732e-01,-3.178157165504735260e-01,-1.189516343188853909e-02,5.970532926142701124e-04,5.521304793609693902e-03,-1.587347331465054859e-03,3.075418472290039062e-01
-3.231656872725015561e-01,-3.191590585378316636e-01,-1.196591795680040926e-02,2.380738311256228284e-04,8.497638724627529921e-03,-1.154573122618010898e-03,3.095727562904357910e-01
-3.171859250300514965e-01,-3.134717630648796161e-01,-2.688677946386722195e-02,-3.742476783152999271e-03,2.687721908595287670e-03,-1.827582506808041185e-03,2.885877490043640137e-01
-5.035311579002018645e-01,-2.517621376130800837e-01,-6.275108489892727848e-02,3.964774390478331689e-02,-1.046738087283155018e-02,-6.589300126446694106e-02,4.059188663959503174e-01
-3.286290406582039747e-01,-3.260240930252939484e-01,-3.540460289819299944e-02,-1.843451383935983123e-03,8.439818382273606189e-04,2.466212331141076977e-03,2.919830381870269775e-01
-3.130574135400915337e-01,-3.165868358960819418e-01,-9.311587806248577959e-03,-2.077429842654267972e-03,7.761509911034833280e-03,5.618843177744981161e-03,3.059974014759063721e-01
-3.147294707581396178e-01,-3.124901517634714465e-01,-1.491667255952650040e-03,-1.471035058276096283e-03,-1.401093044081398644e-03,3.026929474122421262e-03,3.121880292892456055e-01
-3.337992489976739918e-01,-3.366748376670967713e-01,-4.958013913670503148e-02,5.113621863865344327e-03,6.422490140702279138e-03,-5.044978054712510006e-03,2.861548960208892822e-01
-3.379883825636392225e-01,-3.395740573168744558e-01,-6.716774105295675312e-02,2.889058332740650908e-03,6.157179646829889601e-03,-2.214267287349873294e-03,2.718993425369262695e-01
-3.157273480768988394e-01,-3.097161199641520479e-01,2.323750391589662900e-03,-4.321825349031811758e-03,-1.382341292759831780e-02,1.689814576872471219e-02,3.174377083778381348e-01
-3.181730697073961722e-01,-3.207661619944123799e-01,-1.392941730556443436e-02,6.434790954641213430e-03,3.837901025095296563e-05,3.425339208193394717e-03,3.058092296123504639e-01
-3.193500450361608789e-01,-3.193688138588490766e-01,-1.380345816031050554e-02,5.624398376629316347e-03,-1.514760377776801789e-03,5.825021234390561102e-04,3.057241439819335938e-01
-2.880546787815013721e-01,-2.345256341802810507e-01,-3.201171707648597931e-02,1.955738742517149076e-02,-1.338112251316625825e-02,-2.215486680452563584e-02,2.405717670917510986e-01
-3.187906810555991011e-01,-3.224794909706200641e-01,2.662015406327544742e-03,-8.196282229385511717e-04,-7.200503753689450719e-03,6.363416504672368343e-03,3.237441182136535645e-01
-2.838096789449410795e-01,-2.100469167218821376e-01,-3.848641471879382658e-03,-3.003598629766901160e-02,9.647798086912526619e-03,-2.685495700619631651e-02,2.613765895366668701e-01
-2.741545338474534188e-01,-2.126260184216982596e-01,-2.828964248834825446e-02,-3.687736313170272145e-02,3.628892253812885955e-03,-4.797260163405279131e-03,2.308591902256011963e-01
-2.780045892253283357e-01,-2.704530997643149748e-01,-2.442990471387126994e-02,-1.439420822892598095e-02,1.571682044360555794e-02,-1.900938370256120488e-02,2.547331750392913818e-01
-2.837208955886496575e-01,-2.499646338910958276e-01,-4.409108553787988161e-02,-7.402206776491009055e-02,5.300875622199417887e-03,-1.519646968091646622e-02,2.601688206195831299e-01
-3.022815365323656689e-01,-2.626566188232900556e-01,-4.855789966220616649e-02,-2.073129357231480105e-02,6.456857295238551363e-03,-2.941875913614225551e-03,2.394419312477111816e-01
-2.908323169557760490e-01,-2.888680426250216371e-01,-5.372279027553986119e-02,-3.090218522083747893e-02,7.524267787623915155e-03,-6.141113750648029106e-03,2.427073419094085693e-01
-2.626913129659178558e-01,-2.448143828325021198e-01,-3.269226240081299362e-02,-2.366488418644749694e-02,8.105966125420941901e-03,-5.076562022664440378e-03,2.259689867496490479e-01
-3.572789459470843143e-01,-3.278701099098195737e-01,-1.798225929757366059e-02,5.158896498320124369e-03,1.281059273758189919e-02,-1.301769374375417315e-02,3.272451162338256836e-01
-3.575290610265622893e-01,-3.315204410554037917e-01,-4.501726573144104737e-02,-1.168909642781623681e-02,2.803880349065453886e-02,-5.222090967953293278e-02,3.180590569972991943e-01
-2.607412988446038971e-01,-2.455084553610231701e-01,6.895991791443345509e-03,-4.136827073644165631e-02,1.190973596678013280e-02,-2.129332970819998103e-02,2.733214795589447021e-01
-3.307335078203244016e-01,-3.031234195357183081e-01,-7.696014730723288455e-03,-1.234701553273116065e-02,1.359538731700908783e-02,-2.460483540157521951e-02,3.146815598011016846e-01
-3.060545427158691267e-01,-2.824355097039226159e-01,-1.674059124611870786e-02,-4.664827001315381694e-03,1.152224001940512291e-02,-8.759524132217593947e-03,2.795010805130004883e-01
-3.099117206214709874e-01,-2.939400846206886575e-01,-7.375791690088451258e-03,-6.535386938313064850e-04,1.627352459998293935e-02,-1.075566369593629161e-02,2.968061864376068115e-01
-3.263226266526833563e-01,-2.966759118520467253e-01,-2.381750285663697397e-02,-7.600054620361848014e-03,1.651497419609089176e-02,-1.730470168216298801e-02,2.920785248279571533e-01
-3.172800219100944674e-01,-3.019306922429394469e-01,-1.971065245097727847e-02,-8.876313772636573035e-03,4.642833416874800161e-03,-1.608236476375252480e-02,2.920489609241485596e-01
-3.364780834349621053e-01,-3.120276726366876252e-01,-3.200589751592833321e-02,-6.926212339009041492e-03,1.754304797413660383e-02,-2.732782240928947545e-02,2.986038923263549805e-01
-2.718402985618884049e-01,-2.656369245960866765e-01,-3.914328656486820712e-02,-1.873618940200447516e-02,-4.910177364100736484e-03,3.155394708068111256e-03,2.321598827838897705e-01
-2.786824830131876540e-01,-2.268574133915487456e-01,-3.699086181843547205e-02,-3.748870332042104209e-02,-2.928824505712730383e-03,-1.472142958338349197e-02,2.312295287847518921e-01
-2.842935480755836575e-01,-2.921236649289735698e-01,-5.076612752114964544e-02,-1.356464563131945349e-02,-5.461007219397596806e-03,5.300968270971048203e-03,2.390620857477188110e-01
-2.885458357902538351e-01,-2.864212241090285382e-01,-4.620504493725308137e-02,-3.604668193289010947e-02,-1.006993506405633176e-02,6.237778990598174048e-03,2.500754296779632568e-01
-2.778605584654842420e-01,-3.184068847830489601e-01,-4.446446208835355685e-02,-4.276342800023987673e-02,-3.780812554169866307e-02,1.943114967653019817e-02,2.765651941299438477e-01
-2.427242912290257792e-01,-3.147650384671998314e-01,-3.617648812412393999e-02,-2.335502523099473177e-02,-8.589262677953447139e-03,4.176102260807389686e-03,2.542473971843719482e-01
-2.637512395292056500e-01,-3.038876293589216626e-01,-5.632989599113125134e-02,-6.600002887331934964e-02,-1.523712177600047716e-03,-8.774826649506321666e-04,2.569766044616699219e-01
-3.275918522911683839e-01,-3.143509056718233885e-01,-1.486367101702876226e-02,-6.657629890330186371e-06,-2.728096938276060313e-03,-1.574797801731661921e-03,3.063710033893585205e-01
-2.848542155036515311e-01,-3.152846298210889575e-01,-4.683703324973553794e-02,-6.163879951067348373e-02,-1.690010148490569269e-02,1.671876115461930559e-02,2.791317999362945557e-01
-2.223936396270315419e-01,-2.495373435124684791e-01,-2.515990687164407213e-02,-2.863677230323852241e-02,2.626141574735874149e-03,3.809943594983298838e-03,2.179816812276840210e-01
-3.260790950035770686e-01,-3.319259954179315519e-01,-1.679682656991698941e-02,2.143315443856361191e-03,4.536267126259870691e-03,-1.451798440378841530e-02,3.133781850337982178e-01
-3.040169744257185669e-01,-2.919282578620682744e-01,-1.127350512521732573e-02,-8.401788418893182606e-03,1.347223689923040917e-02,-2.104277453871685258e-02,2.905007004737854004e-01
-3.229967502329266771e-01,-3.311047487425016200e-01,-3.802901854850843089e-02,4.511673372217248242e-03,1.314668094503977300e-03,-6.224992975310015414e-03,2.894224822521209717e-01
-3.719187128587473912e-01,-4.097869270711432810e-01,-7.214284094044817741e-02,-5.141091572044267401e-03,-2.937385337968832083e-02,-2.131257136636732080e-02,3.266220986843109131e-01
-3.322020137315486177e-01,-3.445590460232437202e-01,-3.121196549733884495e-02,-7.521189095312034696e-04,8.495881106211326458e-03,-1.263699905010790513e-02,3.084872364997863770e-01
-3.243247574995966054e-01,-3.281342180550635979e-01,-1.748379556682957969e-02,-2.403487750195872595e-03,1.464627708481400312e-03,-1.520104269510308762e-02,3.099221885204315186e-01
-2.708439320091117208e-01,-2.766500974930059531e-01,-4.293920432843936763e-02,-1.840127207377839635e-02,-3.960855274799965006e-03,6.397792932945821527e-03,2.334163933992385864e-01
-2.681651734586174007e-01,-2.649139865834140295e-01,-2.759850080062117850e-02,5.075017172440415489e-03,-4.113015069960450874e-03,-1.562382446826729443e-03,2.392406910657882690e-01
-2.365728048492503899e-01,-2.159553452170380750e-01,-1.750294321649728535e-02,-3.126493484718791127e-02,-5.852468729509670980e-03,5.756316416559068526e-03,2.168747782707214355e-01
-2.884574171831326139e-01,-2.733293046265306003e-01,-4.629422138798933162e-02,-1.678884390717304623e-02,4.455979109652853307e-03,-6.622333655687920838e-03,2.371605634689331055e-01
-3.225406392009575463e-01,-3.090085144312573751e-01,-6.513004697658392184e-03,2.369750342101164132e-03,-4.574630697959298532e-04,5.607628821334162492e-04,3.095133006572723389e-01
-2.443453994394361450e-01,-2.184471954861113285e-01,-1.794516446148483602e-02,-2.969317264441919194e-02,5.039438016972735968e-03,-7.140539853038865674e-03,2.212207615375518799e-01
-2.444965869269716818e-01,-2.457293089808728903e-01,-3.036760968636625924e-02,-2.968429058297131565e-02,-5.824176579768024740e-03,-3.571526597612915965e-03,2.211339026689529419e-01
-3.308510876596483796e-01,-3.287632287383712160e-01,-3.227949877178101779e-02,-5.206856136891442784e-03,-1.638857769085540553e-03,3.089685660789938827e-03,2.977314293384552002e-01
-3.392598266615473035e-01,-3.235658749835860215e-01,-2.808367886227192134e-02,-1.628382388637257571e-04,5.532015465540975931e-03,3.254382583136693880e-04,3.037853240966796875e-01
-3.262095439145294984e-01,-3.329100389872548527e-01,-3.825459578626294599e-02,-6.315564679125887978e-04,-4.144063101532351884e-03,3.799246112997492920e-03,2.915277183055877686e-01
-3.225720156170996944e-01,-3.294011210008704893e-01,-3.302777266950232549e-02,-1.660286185058499307e-03,5.632271618878003858e-03,4.321341408026631282e-04,2.931959033012390137e-01
-3.185672292658475735e-01,-3.266237391280932822e-01,-4.323802538971785459e-02,-5.385550158830593875e-03,2.844783618045398314e-03,5.084211635527209790e-03,2.797822654247283936e-01
-3.369082900222724053e-01,-3.208906909375855987e-01,-2.559564043593234861e-02,-1.725324795068881477e-03,7.361292162422298883e-03,-4.602256230457336906e-04,3.039042353630065918e-01
-3.249171900453661221e-01,-3.005176157168043538e-01,-1.458020932908360434e-02,2.804066019401242897e-04,-5.789191237851785965e-03,6.933554154605302278e-05,2.990536391735076904e-01
-3.673345379103049035e-01,-3.527605687178934080e-01,-7.686185139245726994e-02,-1.633152010334775047e-03,-9.761727852622933618e-03,-3.846786397681233038e-04,2.839854955673217773e-01
-3.322565459715179914e-01,-3.361652191749219254e-01,-3.858546187507341796e-02,-3.153106338086265718e-03,7.756028954202377583e-03,1.691867592485176049e-03,2.960147559642791748e-01
-3.244441776261620669e-01,-3.225988653320808197e-01,-1.286715287275450037e-02,-1.702982291354934773e-03,1.144831111589257773e-02,1.569860123409379899e-03,3.113165199756622314e-01
-3.174123010606084705e-01,-3.168270074562405392e-01,-1.416082581880334645e-03,7.628786341524387143e-04,-1.590469175485649620e-03,1.955958205722858282e-03,3.157369494438171387e-01
-2.812111693066104423e-01,-3.023400974559096177e-01,-4.978635454577051700e-03,-2.120740429725217081e-03,3.601946714420304349e-04,3.416491422383617356e-04,2.874048948287963867e-01
-3.496272628256735238e-01,-3.571635195534346718e-01,-2.685636416845130214e-02,4.779684321070036199e-03,1.132415015655364315e-02,3.799269240177988258e-03,3.273635208606719971e-01
-2.774177754405848240e-01,-3.205866446410896575e-01,-1.757880901977121324e-02,2.115066962882090548e-03,1.802124903731525465e-02,6.455036319605024671e-03,2.858487665653228760e-01
-2.753038446262754957e-01,-3.147326799155701349e-01,-4.574472056132344866e-03,1.309219707683177691e-02,2.273085286015004078e-02,1.067971722313366262e-02,2.965299785137176514e-01
-3.020120533475554314e-01,-3.151189212193019618e-01,-1.469084265932965594e-02,6.291479128437209647e-03,7.236425923671171122e-03,9.251102398205948013e-03,2.949978709220886230e-01
-6.571169030469776740e-01,-5.822380034628158452e-01,-2.066481032449643540e-01,2.398115576293629800e-02,-1.826552542961083422e-02,-7.794467896835360898e-02,4.424372017383575439e-01
-3.384254687515800830e-01,-3.449882720248089174e-01,-3.132236670900118147e-02,4.533191374033787964e-05,1.541680078311894429e-02,1.557576825587253695e-02,3.127486109733581543e-01
-2.766836723149935229e-01,-3.104553542955210133e-01,-6.048741802397755718e-03,7.435530326260227259e-03,1.268570875225514226e-02,1.278599042826418682e-02,2.909685075283050537e-01
-2.819305837323227149e-01,-3.284015426826700224e-01,-8.659449089195442317e-03,-1.149105538045079068e-03,2.559624111316820272e-02,1.882952408984558609e-02,3.042514622211456299e-01
-2.957402850397861105e-01,-3.082450334498144651e-01,-1.085074128099502988e-02,5.797752538933701252e-03,1.851676815791438932e-02,8.781191614513255209e-03,2.936693429946899414e-01
-2.781920978794896193e-01,-2.920319109378152755e-01,-5.214766157913283684e-02,1.839710083786562020e-02,4.143563360853757041e-05,1.897345946966486497e-03,2.354616820812225342e-01
-2.587805798431876969e-01,-2.610600952747652581e-01,-3.752672982006327596e-02,1.503189012454369741e-02,-2.751180468713616952e-04,2.689979765426683735e-03,2.239701300859451294e-01
-2.854146222778228825e-01,-2.875830296423806942e-01,-4.215375661165401966e-02,3.041006173152769471e-02,1.085267199261197475e-02,1.074926303434487439e-02,2.513609826564788818e-01
-2.708090370226970411e-01,-3.091549574197334227e-01,-1.482449488835776985e-02,-4.569569162861315467e-03,2.324198586433856573e-02,-8.723255087133858360e-03,2.805814743041992188e-01
-3.309819392321171061e-01,-3.313475567719209591e-01,-2.588442680394004158e-02,-4.384496400784597880e-04,4.425823328837294804e-03,-2.117983365199376314e-03,3.053996860980987549e-01
-3.162534397462327118e-01,-3.201515086345986250e-01,-1.866996811459459282e-02,-3.176577601311682611e-03,7.240870656410947244e-03,-3.320583242970810787e-03,2.999195754528045654e-01
-3.437646500900630731e-01,-3.323087640160555800e-01,-3.143120059787130050e-02,8.367145001160300466e-03,-1.184656515146460505e-03,-7.894570552833576720e-04,3.071179986000061035e-01
-2.894547197343873002e-01,-3.050266000301974367e-01,-4.941210735930734455e-03,-2.207573666604195021e-05,1.354606995326263115e-02,-5.936764835853168554e-03,2.937295734882354736e-01
-3.341749781642827655e-01,-3.272569825598599103e-01,-1.593934785577993951e-02,2.998407466196758089e-03,3.988573737287403470e-03,-4.329972619202930866e-04,3.149531483650207520e-01
-3.198095277872190501e-01,-3.198561719592338815e-01,-1.223925591937688462e-02,1.171707058610938499e-03,4.471033041947078748e-03,7.289274542608637159e-04,3.077003359794616699e-01
-3.177385768021925294e-01,-3.180114621581996426e-01,-8.917530498001979833e-03,1.580167532448796801e-03,3.902049205719950939e-03,-9.004489202864582407e-04,3.090475499629974365e-01
-3.380558315271217085e-01,-3.439766220912743866e-01,-2.805630088628560670e-02,1.255112315993431359e-04,3.175194510134051427e-03,7.858395345966259771e-03,3.133460879325866699e-01
-3.224712102186988449e-01,-3.360999622232934692e-01,-2.718938152430774857e-02,3.378919920272551499e-03,6.384776526737159959e-04,1.615286037316931295e-03,3.023982942104339600e-01
-3.289314237900635707e-01,-3.350164989151213080e-01,-5.355895118044418091e-02,1.882291676572970737e-03,-2.839899858911446202e-03,9.966318072726230905e-04,2.785327434539794922e-01
-2.975257427857562753e-01,-3.066979828804788921e-01,-8.338618164938638166e-04,-1.505300821149752142e-03,-9.507676607044468139e-03,-4.539799161897064943e-03,3.019459247589111328e-01
-3.146926027829899386e-01,-3.232347783233281979e-01,-1.102144641223379296e-03,8.869953906660402220e-04,-1.761946704658025418e-03,-6.391871711419062473e-04,3.179678916931152344e-01
-3.281911864536906087e-01,-3.363167733847187701e-01,-5.191959431242035294e-02,4.365025599727883482e-03,-1.686171641423591739e-03,7.908670783750709754e-03,2.808740139007568359e-01
-3.327629678368215771e-01,-3.379737419256188535e-01,-5.350053108100477628e-02,2.240986733330839996e-03,-5.712867103203855780e-04,7.673732843597093171e-03,2.822455167770385742e-01
-3.187190589188660939e-01,-3.264096872690530615e-01,-3.793838710193203623e-02,-4.575229578779200883e-03,1.232872818592906225e-03,2.995102978537510599e-04,2.848226428031921387e-01
-3.353779604619440691e-01,-3.441452048434413546e-01,-5.921893968407718201e-02,-4.840410877533131949e-03,-1.516614241282061067e-03,-8.986627313496817551e-03,2.812139689922332764e-01
-2.486030690464894333e-01,-1.350940902952794676e-01,1.150679554023531503e-02,7.193129386354918386e-02,3.047574752607315387e-03,1.857269213050396356e-02,2.600031793117523193e-01
-3.372492327657622968e-01,-3.459328790225928985e-01,-2.631744591339632566e-02,-9.368007042638367907e-03,9.648174235525898944e-04,3.602364133742826102e-03,3.158465027809143066e-01
-3.212004040909866021e-01,-3.259522067647646626e-01,-2.370056850653309843e-02,-2.109262280984692747e-03,1.423345938292038372e-03,-3.006805865738566320e-03,2.999815642833709717e-01
-3.263215871969593063e-01,-3.306503905911149510e-01,-1.606178743309880086e-02,-6.216066945945006479e-03,6.318773385764571079e-03,8.741121843122375001e-03,3.131898045539855957e-01
-3.165714947378519550e-01,-3.278139517232335209e-01,-1.037148690061601153e-02,-2.687939418085600728e-03,-1.274612868737161255e-03,-5.074101655889546800e-04,3.120169937610626221e-01
-3.267943270274856205e-01,-3.121367631464374015e-01,-1.164580224721029067e-02,2.573757643008182591e-03,-7.126774790057504444e-03,6.975446433186430033e-03,3.085973858833312988e-01
-3.244032275902141160e-01,-3.310109205719334868e-01,-1.534108118695656775e-02,2.930209353820490618e-04,2.429419086631052094e-03,-8.942200611882052596e-04,3.124510049819946289e-01
-3.097907856810351301e-01,-3.075678754790260871e-01,-6.848639129932665437e-03,-2.247952242833626147e-03,8.084361124685637010e-04,3.473303750327016298e-03,3.019251227378845215e-01
-3.097523944894906567e-01,-3.013996474957818528e-01,-5.581870596010146679e-03,-1.909873732173377782e-03,-8.419581840425884034e-03,9.030922493599059450e-03,3.008606135845184326e-01
-3.206515319092846372e-01,-3.238157689449181476e-01,-1.256907370521012646e-02,3.935240167803018448e-03,-6.422882273389260595e-05,-1.233356172475253386e-03,3.097590804100036621e-01
-3.311954287966140664e-01,-3.354964688655506788e-01,-3.298766678102388328e-02,8.633098938368301972e-03,2.678423779854241168e-03,-5.346467923286316037e-03,3.009316325187683105e-01
-2.924992333307823711e-01,-2.802255261811361642e-01,-4.403455402766229265e-02,2.820684268262571570e-02,-8.245805569778840577e-03,-8.228868112691198680e-03,2.482534199953079224e-01
-1.875987850451502625e-01,-2.541432638973485370e-01,-1.678076495565397619e-02,5.769914579715466896e-02,2.852176108656334468e-03,1.913271667633915625e-03,2.345142215490341187e-01
-1.829426900452937321e-01,-2.850838914936366653e-01,-1.153506723887548491e-02,7.702394748997554164e-02,-4.259337909565502102e-03,-8.136533148256927181e-03,2.745401263236999512e-01
-3.290787124957578746e-01,-3.243841665010737119e-01,-7.291802809628822324e-03,-3.134128153365898454e-03,-3.646575915865169285e-03,-2.486468811006393043e-03,3.196030557155609131e-01
-2.167386234979301607e-01,-2.413048831365392499e-01,-2.067517500252089024e-02,3.277922926983920654e-02,-2.319917703277543305e-03,-9.738745756350607836e-04,2.170330584049224854e-01
-2.101277898902822461e-01,-2.871150074628975868e-01,-3.249821361979196577e-02,4.121867091781919457e-02,-6.189851904240669875e-03,-6.424453508060684777e-03,2.376766800880432129e-01
-2.344838048399471575e-01,-3.094924059180050313e-01,-3.549945597423168064e-02,3.330631710803171747e-02,-1.203772290131906522e-02,-1.157149457159425618e-02,2.535960376262664795e-01
-3.239700007204955878e-01,-3.196322794360869080e-01,-1.126929718430760841e-02,8.178094525240084617e-04,4.871332786918509440e-03,4.512866116121031120e-03,3.107706904411315918e-01
-3.805649731771373334e-01,-2.852220002591209780e-01,-1.680904858465073759e-02,1.317406405812555359e-01,-8.171109975353011215e-03,-1.885631910913768139e-02,4.000760614871978760e-01
-3.138863298670924173e-01,-3.018651274688251007e-01,-5.083224593971091831e-03,2.147920247856089596e-03,4.249947145285850637e-03,5.098765903857326552e-03,3.032123148441314697e-01
-3.145967837211489648e-01,-2.966396281635920174e-01,-9.003540323306857829e-03,8.844006049379361453e-03,1.127361747910213784e-02,5.528913289223553844e-03,2.982109189033508301e-01
-3.245282364307081058e-01,-3.297064803544684786e-01,-9.204749678824702963e-03,-4.633496610485596939e-03,4.760374139182455867e-03,3.532041904799691420e-03,3.182111680507659912e-01
-3.128204557646613870e-01,-3.119280722374550563e-01,-2.196777944905470292e-03,3.693017574580239226e-04,1.277793366054629908e-03,-4.993101987251261868e-04,3.101882040500640869e-01
-2.945202872801494509e-01,-2.770893652070268165e-01,5.910163093726522598e-03,-1.694701182906231890e-03,1.084897501133803106e-03,1.519853777850303789e-02,2.933098077774047852e-01
-3.007756027987988912e-01,-2.796314217413656822e-01,2.038460979994188849e-03,4.307012883044221765e-03,8.962982918664997786e-03,1.431668745254043897e-02,2.943675220012664795e-01
-3.014095349753228015e-01,-2.446732084467546364e-01,-1.062636476328401858e-02,3.211047515429465288e-02,-1.618806562522527234e-02,-2.427882027425701944e-02,2.773512005805969238e-01
-3.021528712962343599e-01,-3.111092698364156250e-01,-1.112604625158070126e-02,7.927027314485392273e-03,-1.350608207149312651e-02,-1.794633631206116187e-02,2.984716892242431641e-01
-3.234721633815906827e-01,-2.993782525836019559e-01,-9.204103245364109176e-03,3.424833422083432399e-03,-7.504462475263300875e-03,-1.405367209518536276e-02,3.042525947093963623e-01
-2.922722181554805454e-01,-2.762677645892774314e-01,4.583111357336161484e-03,3.178488094271556853e-03,-9.327161055443110652e-03,-1.467537925003481979e-02,2.908016741275787354e-01
-2.788617907258044148e-01,-2.575818837178244225e-01,-3.558310999011227160e-02,-4.081026261837409144e-03,7.629095736700262876e-04,-8.796665822081274969e-04,2.334832698106765747e-01
-3.618768732037694891e-01,-3.246504077327030391e-01,-4.277086491629705778e-02,1.054806324874195574e-02,-2.093793264643312516e-02,-3.965947179149235252e-02,3.125745654106140137e-01
-3.319414336130830367e-01,-2.882324644788237800e-01,-1.106347273328395220e-02,1.345887031154558051e-02,-9.269527346849857491e-03,-4.915818846894891639e-03,3.028557300567626953e-01
-2.946285901419549713e-01,-2.853360564511232544e-01,-2.050527628846196548e-02,2.068914760183615184e-02,-2.543348970175069584e-02,-3.667150917311702563e-02,2.827397286891937256e-01
-3.342016764439336152e-01,-3.454827826262679702e-01,-5.598632793603630642e-02,1.066744684814392372e-03,-6.717140960263788541e-03,-4.816171149628126896e-03,2.843905389308929443e-01
-3.726238169941932243e-01,-3.773784540252087538e-01,-7.356435994051027660e-02,-1.039673726395566426e-02,1.484665785740662235e-03,8.174263429371815201e-03,3.023448884487152100e-01
-3.355917480527979002e-01,-3.297105446188726696e-01,-5.628914172518950654e-02,2.324407409846104659e-03,-8.068840382549895274e-03,-6.884362061654216228e-03,2.770480215549468994e-01
-3.304894748821891604e-01,-3.231026581979119516e-01,-1.256283179323078314e-02,-5.070145860179887248e-03,-4.422187988158990564e-03,-6.135366813371271114e-03,3.146937489509582520e-01
-3.402050027525529985e-01,-3.367491219542787517e-01,-6.403603979621858011e-02,6.511303710548622080e-03,1.605150634861692363e-03,2.373196440358784319e-03,2.747337818145751953e-01
-3.275803617160491510e-01,-3.321137483515897992e-01,-5.880622340548546934e-02,2.217680466474620301e-03,-7.534816430576973985e-03,-3.231519811474708147e-03,2.714681327342987061e-01
-3.347515855590755818e-01,-3.367886158465256408e-01,-4.532113177142385596e-02,6.315873540103419947e-03,2.019517806060583051e-03,-6.222820745716591342e-03,2.908810675144195557e-01
-3.308583907529334400e-01,-3.292025220908398886e-01,-6.305357369528186151e-02,3.923948125111176646e-03,8.999708339024676748e-03,-6.833889731129719376e-03,2.677834928035736084e-01
-3.471492210931682587e-01,-3.419942069256488582e-01,-8.034968186239971333e-02,5.243008261660277169e-03,1.194892793596099602e-02,-1.170385670609606389e-02,2.659980356693267822e-01
-3.274524117460032024e-01,-3.321101712009585927e-01,-4.361932777583382714e-02,5.148137090822155031e-03,4.297962695996382712e-03,-5.116453978906555615e-03,2.865630984306335449e-01
-3.450961444901446407e-01,-3.489246516393448294e-01,-3.414128568100199823e-02,-4.450326731424853952e-03,5.427636514623713875e-03,-6.697416361347806150e-03,3.133375644683837891e-01
-3.011176713581781295e-01,-2.569541141527908468e-01,-2.715476436603356247e-02,2.716175861793456835e-03,-8.291816907697825353e-03,-1.115974580367948217e-04,2.552162706851959229e-01
-3.045377663277303304e-01,-2.592578762603068299e-01,-2.724788779773690273e-02,-2.881664375204250408e-03,6.543540416341817392e-03,-8.588951498098683227e-04,2.579532265663146973e-01
-3.158780133403943369e-01,-3.283098195482094805e-01,-1.543533447548964266e-02,-7.506999700416052725e-03,1.388581541240926746e-02,-1.140631589089013791e-02,3.086960017681121826e-01
-3.090295149325910096e-01,-3.344212046693942897e-01,-1.640577943170765107e-02,-5.755410240787455813e-03,1.532200717493113241e-02,-1.711206689559106181e-02,3.088458180427551270e-01
-3.341807792689512335e-01,-3.231489565193473856e-01,-2.262717829260155189e-02,-1.625744126834232153e-02,3.746530591701611318e-02,-3.027575789585441879e-02,3.185970187187194824e-01
-3.136765797772772535e-01,-3.137609632941313342e-01,-1.116026438608644367e-02,-1.673901529781913426e-03,1.036267153545496894e-02,-8.269543369117057091e-03,3.034425377845764160e-01
-3.002867476092080934e-01,-3.042632026352319330e-01,-1.404399587669469263e-02,-8.109257914835462516e-03,1.109749029512728004e-02,-1.424015823185413240e-02,2.902826964855194092e-01
-3.254336155406900022e-01,-2.986472774350498183e-01,-8.880207968162578958e-03,-1.724259434476059158e-02,2.025379580327103107e-02,-3.636371447828924686e-02,3.139009177684783936e-01
-3.380038180781863577e-01,-3.336982181457395780e-01,-3.679337359118586837e-02,-5.275209013947548820e-02,1.364765000889776349e-02,-3.373157245527012155e-02,3.190140426158905029e-01
-2.520002483822293970e-01,-2.500698872884133950e-01,-2.887820775463073586e-02,1.533942191877489362e-02,-1.437886661704073244e-03,-1.079210843463806547e-03,2.237678617238998413e-01
-2.564389683527123487e-01,-2.318960119882989834e-01,-2.861535462433772992e-02,2.623804244471299521e-02,2.678709233883288209e-04,2.152935826379445369e-04,2.213145941495895386e-01
-2.727260983062467226e-01,-2.501061994669939725e-01,-3.614474587119226312e-02,3.868474788138356879e-02,2.905087841847901926e-03,9.172296262352136464e-03,2.364279776811599731e-01
-2.669038997065642516e-01,-2.775498387785579335e-01,-3.575707851630161027e-02,1.898123048684458025e-02,-7.923129095453684129e-03,-1.056007705913839662e-02,2.400139570236206055e-01
-3.147590028533837625e-01,-3.152564099539825193e-01,-7.187659183720718215e-03,2.941227802975927754e-04,3.248627467237001718e-03,5.178189820947606478e-03,3.080027997493743896e-01
-3.201230640101517255e-01,-3.251063591068518166e-01,-1.180656941484897748e-02,-5.374421102800988094e-03,-3.030876043384018656e-03,-5.001681460673581322e-04,3.110229671001434326e-01
-3.188010361091928035e-01,-3.275540468874744704e-01,-3.166547970113686716e-02,-2.577318156008436088e-03,-4.727493570630385972e-03,-1.018691695226744184e-04,2.917597591876983643e-01
-3.362843901855374629e-01,-3.476060852819183866e-01,-2.390459908257536181e-02,-1.231854446341221470e-03,3.079941365160509138e-03,4.802885687271312570e-03,3.183523118495941162e-01
-3.225237809271014888e-01,-3.269118188139322201e-01,-4.492131245202901635e-02,-3.670137500418401560e-03,-1.295019192913799636e-03,-4.151815619909267688e-03,2.799958288669586182e-01
-3.337502277262209827e-01,-3.307271700758009914e-01,-3.697656235707619254e-02,-6.179495169472231514e-03,-3.792269644230457631e-03,-4.580791450316600705e-03,2.956471443176269531e-01
-3.207788285656758553e-01,-3.210447719454598281e-01,-6.863091861087550205e-03,-1.421274223891659918e-04,5.022234205964594758e-03,2.484253502796843075e-04,3.141696453094482422e-01
-3.306347016185613441e-01,-3.230092223480887093e-01,-1.304708307133847778e-02,-6.920943660740652443e-04,3.818853619624736160e-03,-1.127939173335590350e-03,3.139224350452423096e-01
-3.480531648033615144e-01,-3.469881455908829793e-01,-5.088345947324662832e-02,-5.455764536953890305e-03,-1.032771781279909207e-02,-2.501032345204249555e-03,2.973592579364776611e-01
-3.231039734935632901e-01,-3.220361562576410375e-01,-2.277104608869082170e-02,-4.541857332855744217e-04,5.652395511092094156e-03,2.600232213420943309e-03,2.999950945377349854e-01
-3.296237038448125434e-01,-3.178608458083312382e-01,-1.681453946281946665e-02,1.214153169887177827e-03,-4.003407622397286113e-03,-6.872527037937979384e-04,3.071845173835754395e-01
-3.195120767939627071e-01,-3.212384104576526678e-01,-1.963797011364071254e-02,-1.492857537781845960e-04,3.545057778573217078e-03,5.347836127932089310e-03,3.009463548660278320e-01
-3.200188865869493804e-01,-3.207288919084860246e-01,-1.216101487070830878e-02,-2.768501745098143375e-03,7.283590397918393057e-03,5.709893149971017982e-03,3.086673021316528320e-01
-3.250434282607774783e-01,-3.224451436966475071e-01,-2.549866101479955627e-02,1.683462126075522408e-04,7.121132502662609956e-03,2.676253730401156189e-03,2.985451817512512207e-01
-3.191920197257182013e-01,-3.258298729263875426e-01,-1.298026534121995978e-02,-8.082025840936527287e-04,7.099316367530265383e-03,1.074384136463998364e-02,3.103896677494049072e-01
-2.847336565195168756e-01,-3.163595650607867737e-01,-1.750797329959641324e-03,4.901810711429699374e-03,-3.320268547092262990e-02,5.364328543637689574e-04,3.056293427944183350e-01
-2.773599114957397971e-01,-2.988390586410476502e-01,-3.897548554234880891e-03,-8.759602253714237133e-03,-1.409741459735689047e-02,1.087940435968972122e-02,2.868767082691192627e-01
-2.913372553630047546e-01,-3.224730861148326078e-01,-2.804338295246014412e-02,-1.113935917766127083e-02,-1.415372142605175916e-02,1.477445685613915441e-02,2.830531299114227295e-01
-2.005400922518111029e-01,-2.711956260214032355e-01,7.207102396244113862e-03,-1.632831778295943184e-02,-3.117320180051593587e-02,1.563737942710273152e-02,2.593806385993957520e-01
-2.991677138068302155e-01,-3.284169362690909644e-01,-2.976535371965394194e-02,-1.331848245384763263e-02,-1.560722896668473823e-02,1.302018581974746965e-02,2.882437109947204590e-01
-2.938667383767311625e-01,-3.571332902388781316e-01,-4.202576669371324569e-02,-1.979377964217152869e-02,-2.894026636454888682e-02,1.784453634850413639e-02,2.966528534889221191e-01
-2.326671088679463650e-01,-2.934626503123449748e-01,-8.731225475616416487e-03,-7.563080945274132209e-03,-3.165124069801161094e-02,5.392160628049190788e-03,2.659359276294708252e-01
-2.896766326543778747e-01,-3.324481819330632471e-01,-4.181250062836000536e-02,2.780763069656994740e-02,2.365096487694224453e-02,1.559517107132204344e-02,2.803481519222259521e-01
-2.853596772256525860e-01,-2.870986449813897612e-01,-4.671100154433716067e-02,3.199635757503067890e-02,1.352053364836374762e-02,1.814203213144903459e-02,2.489544749259948730e-01
-2.161079553998094538e-01,-2.382738524892846210e-01,-1.666414106025909669e-02,6.529876813826725190e-02,1.501070384385503297e-02,8.587025147658831209e-03,2.416174113750457764e-01
-1.925318876166178805e-01,-2.753221956103247270e-01,-1.818257236737286231e-03,4.602153474921306942e-02,2.661809423439275707e-02,2.070069801224282482e-02,2.622598707675933838e-01
-2.048261319651610013e-01,-3.034397705677970292e-01,-1.646812608466460826e-02,-4.076560099462847586e-02,4.734777772529105699e-02,-1.438717254959441527e-02,2.758803367614746094e-01
-3.640799880708643910e-01,-3.518351670143679555e-01,-8.538304912862501594e-02,-3.918686425383404066e-03,4.221073800773306878e-02,-6.066517057526976458e-04,2.824920117855072021e-01
-3.421287053111976006e-01,-3.480651078293622303e-01,-1.080402425532833444e-01,-4.325207227109175183e-04,-6.536072452643700709e-03,2.960694927397357519e-03,2.374390661716461182e-01
-3.383730636410409720e-01,-3.487250070094302101e-01,-6.187740318331072520e-02,3.846654136908831626e-03,-3.833294675377014842e-03,-1.161806917679879822e-03,2.819783687591552734e-01
-3.756837526889519330e-01,-3.763506266909908970e-01,-8.689818047436542736e-02,5.335386986219544520e-03,4.420268815915675067e-03,1.011402771029275630e-02,2.898983061313629150e-01
-3.804265458125785093e-01,-4.047830724902095056e-01,-6.699753510620906627e-02,-2.034445698929603780e-02,2.482785875201823714e-02,-1.814280970356636422e-02,3.324807882308959961e-01
-3.375134639320684915e-01,-2.873030416300585421e-01,-2.147816104787206304e-02,-3.683453151518103780e-03,-4.552173465139712841e-03,1.873117111391409476e-02,2.961191833019256592e-01
-2.993043820846285619e-01,-2.686633295247512487e-01,-5.674759406157442454e-03,-2.201754433782883782e-02,-1.190781812754863021e-02,3.221075306945654637e-02,2.883616089820861816e-01
-3.144717411301200527e-01,-2.782447378578922770e-01,-1.411293641563471368e-02,-1.748923628100972809e-03,9.862545227298845450e-04,1.589266122023873934e-02,2.853358089923858643e-01
-2.806051819106523126e-01,-2.790515983796549859e-01,-2.916420940643385529e-02,6.073217109814456685e-03,6.892892366206951338e-03,7.377888661622315075e-03,2.514971792697906494e-01
-3.060422191090659272e-01,-2.383346074449403940e-01,-1.469569983251622913e-03,-9.357806724954087843e-03,-1.219416138812147270e-02,3.162835226482432760e-02,2.836138010025024414e-01
-3.307560134812614905e-01,-3.163374223737983049e-01,-1.189548528361147883e-02,-6.912291565315404826e-03,-4.245912751435892800e-03,1.067580744824838702e-02,3.127647042274475098e-01
-4.134218077236497813e-01,-3.404691889966766083e-01,-5.372122524275624311e-02,-5.536284611908907048e-03,3.915646901924014697e-03,2.344517867686215368e-02,3.320428729057312012e-01
-2.000755764799551362e-01,-3.514218001691684079e-01,-3.738072030740546836e-02,9.284770561459383675e-03,-1.034167368111369931e-02,-2.418851694548996081e-03,2.731218934059143066e-01
-2.374100602392104631e-01,-3.311408729891024416e-01,-4.394731035849158696e-02,-2.219301002641230463e-03,-1.049453727166041288e-02,-1.230065187557572793e-03,2.543549537658691406e-01
-1.357016269430629807e-01,-2.696645075234951339e-01,-1.121813025552795273e-02,9.296150345406964735e-03,-2.261488914228761572e-03,1.810140140729886741e-03,2.245056629180908203e-01
-1.683667095651511791e-01,-2.878597288010539823e-01,-7.433484576203269745e-03,1.140429839642325208e-02,-1.147488152497209458e-02,5.106838349359319948e-03,2.455033808946609497e-01
-3.105861314479427815e-01,-3.070847448574772209e-01,-2.796537026471859755e-02,-1.065893369315100772e-02,-1.553203180991914387e-02,1.200567724705367892e-02,2.835386693477630615e-01
-3.345318125579307966e-01,-3.316659377150209531e-01,-2.109116127832724730e-02,-1.807180182815616189e-03,-3.227986933054982199e-03,1.543534261201205682e-03,3.120948374271392822e-01
-3.312761564023843919e-01,-3.288261420723313511e-01,-2.986423851804603791e-02,4.524711193183494212e-03,-4.010530196888300800e-03,-3.605965520099704662e-03,3.004419505596160889e-01
-3.597669683401070184e-01,-3.717094805823840109e-01,-7.452453037164633032e-02,-5.623275838202672697e-03,-1.184276047538727027e-02,1.896483064209801214e-02,2.941206991672515869e-01
-3.452106999778491447e-01,-3.713988110218784944e-01,-5.808415102371516925e-02,-1.386464249370093597e-02,-9.092632929540744521e-03,2.633251522035089717e-03,3.024769127368927002e-01
-3.429369451086925480e-01,-3.513558155279141726e-01,-2.456386997746837220e-02,-4.255155462995256440e-04,-9.671740865196542733e-03,5.286963360118419886e-03,3.232300579547882080e-01
-3.231282113041282211e-01,-3.257033695450047284e-01,-2.763006297448797333e-02,3.645435013885197067e-03,-6.384769314113985898e-03,6.388468376973577799e-03,2.972731888294219971e-01
-3.113512167812023668e-01,-1.584437249469946574e-01,-7.340481309135393762e-03,4.453665535374798368e-02,-2.504330181527195456e-02,-4.982919509812486908e-02,2.908583879470825195e-01
-2.836336288640070036e-01,-1.584847019474543151e-01,-8.125112225395442200e-03,2.890065948387956357e-02,-2.435067371587135848e-02,-6.739131600240544362e-02,2.738557755947113037e-01
-3.145903676391372805e-01,-1.870182242923660587e-01,2.500097486752839160e-03,-2.793862882950051002e-02,2.566138638846555964e-02,-6.403985748561981384e-02,3.049420118331909180e-01
-3.629998455447806527e-01,-1.694261223029069896e-01,-4.794161204222649464e-02,-3.094331497893905436e-02,-1.078135271804088816e-02,-1.079247654321629224e-01,3.375054597854614258e-01
-3.054950418781655075e-01,-2.255207533336215375e-01,-6.111476542179000715e-03,1.339096488277924379e-02,9.794638793853449599e-03,-3.649010848258067707e-02,2.773152589797973633e-01
-4.138667332491170470e-01,-3.514913213049557505e-01,-6.952804405118595543e-02,-1.575281230079984482e-02,1.454946155592877141e-02,-3.181122158887470658e-02,3.246489465236663818e-01
-3.667035788201512547e-01,-3.126547879278467335e-01,-2.777876145316598988e-02,4.506465101356244007e-03,-6.998065453699651994e-03,-5.198606015575253647e-02,3.283113241195678711e-01
-2.922703356230620941e-01,-2.847259676021731689e-01,-1.051959799522125816e-02,6.148220438438782923e-03,1.042197171998042807e-02,1.076939541951179961e-02,2.794672846794128418e-01
-3.021009439431256438e-01,-3.144675895848742520e-01,-5.492199497306282652e-03,5.812367670612046504e-03,1.111388495611282008e-02,9.560270352026284044e-03,3.042101860046386719e-01
-3.016819244390837040e-01,-2.962745090689470340e-01,-1.605977570261804543e-02,3.507686381991219782e-03,1.077293652195473496e-02,1.088483134772158176e-02,2.842627167701721191e-01
-3.130617721983386392e-01,-3.071957943746901343e-01,-2.196687531160695928e-02,1.387510099604905185e-02,1.064574728511902268e-02,9.058077593275860179e-03,2.902185320854187012e-01
-3.001257386409759698e-01,-2.932378057570518837e-01,-1.398658359594170952e-02,1.903273682261780739e-03,1.212535921188931907e-02,9.952189435222824967e-03,2.840796113014221191e-01
-3.224249804922424967e-01,-3.214139192620130703e-01,-1.686128868131847591e-02,-2.568753278027315588e-03,1.142073162527815905e-02,-5.252784371702446525e-03,3.058678209781646729e-01
-3.244334283846923017e-01,-3.329752412049882260e-01,-1.371574377446405091e-02,-2.854024895384999795e-03,1.035326489835040886e-02,-1.433684122836749973e-02,3.165993988513946533e-01
-3.406421389813969469e-01,-3.477224546386178949e-01,-2.892436524951108590e-02,-6.547580836808061973e-03,9.773309594939418032e-03,-1.211691903424323008e-02,3.166714310646057129e-01
-3.261055323945722950e-01,-3.322389870288187663e-01,-1.712440666879741502e-02,1.138310968052257729e-03,1.297753171909895621e-02,-1.617447773049568438e-02,3.141592741012573242e-01
-2.782420039198038042e-01,-2.616525428657618946e-01,1.273087352394289273e-02,-1.194600221353691455e-02,1.528158088217286201e-02,-3.157683726356145387e-02,2.902297973632812500e-01
-3.470809557957135749e-01,-3.641468750317984893e-01,-4.032965761921991632e-02,-1.955339313191932493e-02,1.015878355917443528e-02,-2.568673423286112201e-02,3.210274577140808105e-01
-3.313380953152554320e-01,-3.130847844102981337e-01,-1.956034909961104629e-02,-2.662703951737154309e-02,2.411840862545359260e-02,-2.052896427815659175e-02,3.114224970340728760e-01
-2.166322689865896045e-01,-2.676542919628938644e-01,-2.183879746597172655e-03,4.076268829135704097e-02,-1.905092685993937246e-02,-1.052949417021595974e-02,2.567862272262573242e-01
-2.381245237655158498e-01,-3.186254199797515230e-01,-3.286111651193313055e-02,2.071138702842211660e-02,-9.394676612099785162e-03,-4.285295047412662935e-03,2.583487927913665771e-01
-2.110126915335937270e-01,-3.031830469875074208e-01,-3.727240841040321828e-02,2.511888710070372954e-02,-1.434416668001801086e-02,-5.180693150239546602e-03,2.393437325954437256e-01
-2.031447062721707941e-01,-2.717150655293357753e-01,-6.709116934751541139e-03,4.583877911530782195e-02,-3.252985658325040913e-02,-2.770122546067611130e-02,2.617990076541900635e-01
-1.722674256125133752e-01,-2.493092601904685068e-01,-1.373749289929865336e-02,5.063836584536670488e-02,4.655524267466886363e-05,3.703616688861573864e-04,2.257737219333648682e-01
-2.833399087047999698e-01,-2.692197682373708156e-01,-3.258986831492755032e-02,1.544658770461812720e-02,4.990597356984774469e-03,5.032395147272184302e-03,2.457657754421234131e-01
-2.261008999675201969e-01,-2.824212757845901978e-01,-3.754810679030490261e-02,2.713271067228140154e-02,-1.268479686026475952e-03,-3.001724895664246214e-03,2.271209210157394409e-01
-2.205573542820151722e-01,-2.493563930431115239e-01,-2.280481438913259384e-02,-2.702182690963805811e-02,-1.169168510446689309e-04,-6.006084982697838109e-04,2.186828702688217163e-01
-2.461208559096123294e-01,-4.542616998766648706e-01,-4.739754266487661294e-02,2.530473757199019208e-02,7.245116753589592173e-02,1.896873943285467407e-02,3.780528306961059570e-01
-2.874006995622597205e-01,-3.011865412300589462e-01,-9.520615018270062180e-03,-1.974115541301332561e-03,1.862184849663452678e-03,-8.823343661760962853e-03,2.854712903499603271e-01
-2.553128872624194079e-01,-2.754450927547035244e-01,-4.047176153439194235e-02,-1.999118777159167998e-02,-1.971773600252083296e-03,1.201252006980198277e-04,2.282496243715286255e-01
-2.827605933064883392e-01,-2.952572172503804548e-01,-3.820751769558572430e-02,-2.619433354515358914e-02,-6.171013507440069497e-03,1.152831850985283277e-02,2.561051249504089355e-01
-2.806184586812052184e-01,-2.795074689034721671e-01,-4.343459465224069893e-02,-6.205598493113116849e-03,-9.965065765050764007e-04,1.143338403102866227e-03,2.368888705968856812e-01
-2.667320891280201556e-01,-2.644493734999435186e-01,-3.510021251709849466e-02,-9.829418387353940079e-03,-1.298512672447654781e-03,1.496366720020903202e-03,2.311523705720901489e-01
-2.777223620029464213e-01,-2.649925299979575821e-01,-3.888809318435174078e-02,-2.235572279606281177e-03,-1.044962952635471133e-03,-1.409315860885188454e-04,2.327699810266494751e-01
-2.582686092453485571e-01,-2.607778985405856953e-01,-2.066908263349551134e-02,-9.837751308352293833e-03,-8.361011203541835954e-03,9.517355797091762298e-03,2.404741942882537842e-01
-2.716780069653449980e-01,-2.785966193901749932e-01,-3.013418438551315748e-02,-1.401686378704117102e-02,-7.687087519470674375e-03,1.170984438131198770e-02,2.474681586027145386e-01
-3.195166692233046835e-01,-3.163025316480898019e-01,-3.609865320287397594e-03,5.504099187475659490e-04,-1.714147665266495604e-03,3.129392196182626072e-03,3.143742680549621582e-01
-3.702393875204985085e-01,-3.958771983659181704e-01,-6.338196367972517842e-02,4.445612900640274860e-03,1.367966316232217816e-02,-1.653991519128964263e-04,3.214136064052581787e-01
-3.508866853204534730e-01,-3.539172622261722023e-01,-7.397985241197141404e-02,2.963372138574400902e-04,-9.290430732476238213e-03,5.009906704289150605e-04,2.789009213447570801e-01
-3.402519652570601405e-01,-3.360338170011396008e-01,-4.832818876772604355e-02,3.887735665976051885e-03,-1.818871450869735326e-03,9.606366780974604294e-03,2.904101014137268066e-01
-3.239081443332821886e-01,-3.394694832660845041e-01,-3.122702086408329913e-02,-1.502037380101907968e-03,-3.074477897084952919e-04,5.573741319579351809e-03,3.009305000305175781e-01
-3.130392905138028037e-01,-3.173494907205905990e-01,-4.799655627827970061e-02,6.296445729994514830e-03,2.877199829686840054e-03,2.654977152153492267e-03,2.675322890281677246e-01
-3.601586216828528419e-01,-3.637252710203645600e-01,-1.024853629580687597e-01,1.259985784257912876e-02,-1.841928865257806691e-02,2.108687510281736024e-02,2.648684680461883545e-01
-2.323825685440540911e-01,-3.824440095851264765e-01,-4.684083333490537959e-02,-5.550568999935028523e-03,-3.749677982994267106e-02,-2.042642581050446802e-03,2.985126376152038574e-01
-2.350044045437824358e-01,-3.153652868391844111e-01,-2.579664406569773250e-02,-1.079568430932325782e-02,-1.480088442552674605e-02,7.989060081967242974e-03,2.612205743789672852e-01
-2.466312114230300723e-01,-3.193586379881489523e-01,-1.721681185691525950e-02,2.681047998975572607e-03,-2.509094057465133254e-02,-7.347408805203722209e-04,2.766167223453521729e-01
-2.389003098330057251e-01,-3.426285721456814315e-01,-3.263971840617171938e-02,8.846362047477792506e-03,-2.771798760598101832e-02,7.216669519319945762e-03,2.781976163387298584e-01
-2.083640919175086537e-01,-3.002294051548061726e-01,-2.239672977394252529e-02,-1.823086049188844858e-03,-1.570753509221484157e-02,-7.928697697868699636e-04,2.466963380575180054e-01
-3.250719836193899370e-01,-3.181330499405501389e-01,-3.884487410351661341e-03,6.768725803650194094e-04,-7.239703877669952667e-04,1.249535963388361025e-03,3.177868723869323730e-01
-2.609873932130654106e-01,-3.539094523509399570e-01,-2.721640352806947716e-02,-1.427727498306670569e-02,-2.561696323931792613e-02,1.088663204099000678e-02,2.965495288372039795e-01
-3.134308350156287948e-01,-3.133709330649243618e-01,-1.647250935785077308e-03,-1.749079049756793801e-04,1.207536174316635067e-03,1.336751967357040563e-03,3.117693960666656494e-01
-3.147903351236699954e-01,-2.143390342710718155e-01,-3.361317166218424912e-02,-5.337076547056034126e-02,-1.143351930111973294e-02,2.611493374240755547e-02,2.681229412555694580e-01
-2.971208571620966854e-01,-2.660938345774684355e-01,-4.156025674622107480e-02,-3.521789740214398973e-02,-1.078243426256145741e-02,6.049098511563342183e-03,2.500481307506561279e-01
-2.991440125830640007e-01,-1.895617304895024502e-01,-3.054521387317715719e-02,-3.280671033928223013e-02,-2.159663550155151938e-03,-5.547025106768018604e-04,2.407564669847488403e-01
-2.899162136791428868e-01,-2.351355339182826520e-01,-3.039863896123948250e-02,-2.284081025327718353e-02,-1.510944786590978119e-02,2.421305530722667534e-02,2.452397942543029785e-01
-2.780128985888831172e-01,-2.909049133621197658e-01,-2.625807740139843305e-02,7.483228447289433545e-03,-1.363059797096658962e-02,-1.374014251065958092e-02,2.609292566776275635e-01
-2.886562156856637418e-01,-2.939750526751062076e-01,-2.144465640783660421e-03,7.582824845694471211e-03,-1.555729951546489138e-02,-9.334919749547792439e-03,2.912064492702484131e-01
-3.057566180360894448e-01,-3.091401022107545526e-01,-7.661951592923377241e-03,1.160096409385963064e-03,-8.925037865414488583e-03,-7.413132813402013507e-03,3.004801869392395020e-01
-3.011327378153181300e-01,-3.008444652679880260e-01,-7.173478059838644949e-03,5.748783050689613462e-03,-1.372673980328472515e-02,-9.653270471841090758e-03,2.954172790050506592e-01
-2.763640889530967204e-01,-2.970113413225263788e-01,-2.714286781597399778e-02,8.745202741348698239e-03,-1.256453262357495708e-02,-1.344619316140053915e-02,2.625427544116973877e-01
-2.759000050733739773e-01,-2.893172110624864235e-01,-1.012766081180260791e-02,7.874516260142249563e-03,-9.133312135331620243e-03,-8.048802325090118753e-03,2.738822996616363525e-01
-3.289618391519225638e-01,-3.238449499498163853e-01,-1.400533034068482396e-02,-3.120455297567337367e-03,-3.811334772072411201e-03,-1.489980430120095047e-03,3.125566244125366211e-01
-3.112867860007705878e-01,-3.097899651097463791e-01,-6.551057574256946570e-04,-7.138571951029467439e-04,-2.326141424445254437e-03,-2.002539352689845006e-03,3.099340498447418213e-01
-3.176968502551859030e-01,-3.197784745855321020e-01,-1.531899850771720195e-02,1.013071114954436185e-02,-1.266607361798697748e-02,-1.961744416781401393e-02,3.066102564334869385e-01
-3.131954851413791263e-01,-3.162586630390896159e-01,-4.651075032840779055e-02,-1.627143239983923524e-03,2.625867274265967707e-02,-1.988112160732502607e-03,2.720944583415985107e-01
-3.188189486593229205e-01,-3.188607499286517655e-01,-1.560992784520784382e-02,-3.439128175611533625e-03,-2.892034410970988068e-03,-4.580298941000598631e-03,3.034335076808929443e-01
-3.271128844974183214e-01,-3.302795928369730571e-01,-2.491955210742607951e-02,-2.445344547518238550e-03,-9.078389688349076600e-03,-5.785840626260157007e-03,3.043902218341827393e-01
-2.987072167225068298e-01,-3.194549213462661852e-01,-8.652875108914742652e-03,7.406054165442402422e-03,-2.268462942804015670e-02,-6.134803123451493256e-03,3.039756417274475098e-01
-3.097426613654719607e-01,-2.491831709320219690e-01,-5.375046375272904409e-02,-2.920668057315849511e-02,4.543076445571628263e-03,-2.897272679491298079e-03,2.373665720224380493e-01
-3.286023010127997468e-01,-3.264548543879273734e-01,-9.794397469478940965e-02,-5.890095263716446606e-04,-6.515492823917536959e-03,-6.951332013573824147e-05,2.298716157674789429e-01
-2.108113071182458054e-01,-1.874965833009191452e-01,1.563106508851255794e-02,-5.826664595736460311e-02,1.857495092745376983e-02,-3.246133148593297740e-02,2.468229979276657104e-01
-3.196971677697447167e-01,-3.181823448593522063e-01,-1.963135142913172149e-02,1.506298569548339362e-03,-1.675272777198125521e-03,-1.608457387367701161e-04,2.993368506431579590e-01
-3.476572134095665678e-01,-3.324710006599131407e-01,-6.741810279576146425e-02,2.274159380257904581e-03,1.238055556828374440e-02,-3.465091482355075266e-04,2.738330066204071045e-01
-3.242757466543998435e-01,-3.224710146086581242e-01,-1.589916118588782790e-02,5.330405562790330832e-05,-1.157082239250963561e-02,5.074477956426068533e-03,3.082559704780578613e-01
-3.398065514257589403e-01,-3.496587036455593989e-01,-2.708262314447396069e-02,-5.147600694827530587e-04,-1.309037721257881766e-02,2.281137733284236801e-04,3.185739219188690186e-01
-3.505932932608116781e-01,-3.471772702840785207e-01,-6.097829896449163956e-02,3.029490964795894569e-04,9.745940869762994077e-03,-6.380001293853332887e-04,2.884191870689392090e-01
-3.489887641234645788e-01,-3.472847182911411035e-01,-8.439292779760504404e-02,-2.321898918394450957e-03,4.022618939563182838e-03,-3.171490444284534842e-03,2.639277875423431396e-01
-3.482903784587809137e-01,-3.781696961162103188e-01,-5.927790988356773649e-02,-6.166427559525494879e-03,-4.041992258095998894e-03,5.430761781206356643e-03,3.054636418819427490e-01
-2.605745947303304555e-01,-3.017833524575829762e-01,-3.592164326171154443e-02,2.463953853686124199e-02,1.115938210241673896e-02,1.248994485548404060e-02,2.531554698944091797e-01
-2.884197396328847529e-01,-2.874950574089560895e-01,-4.288060555883108083e-02,2.620361102428916608e-02,1.518006887601626616e-02,1.494466070067288974e-02,2.519612908363342285e-01
-2.611201559944695827e-01,-2.489606737815761028e-01,-2.334917651394899374e-02,6.683638455750422203e-02,2.368403530716452210e-02,2.396521169996297315e-02,2.657043933868408203e-01
-2.962810021789577530e-01,-3.033128015831469404e-01,-4.887428901764456768e-02,3.086237248407228476e-02,1.402578318189188870e-02,8.728776572343837845e-03,2.582158744335174561e-01
-2.709452556161249803e-01,-2.758492234931391174e-01,-8.580331000582308576e-03,1.821634336123871545e-02,2.122546922524472246e-02,1.538288683737131131e-02,2.705605328083038330e-01
-2.797299863214361970e-01,-2.797546046843966683e-01,-2.246196907377126517e-02,2.203594574344681922e-02,1.417975547027861515e-02,1.591164815058286261e-02,2.627025842666625977e-01
-2.582773736794167219e-01,-2.229728697082504485e-01,-2.791263265030538565e-02,-2.597961623864683198e-02,-2.340479729728923357e-04,1.850035214132576562e-03,2.195829302072525024e-01
-2.749811716037033893e-01,-2.946779136551538336e-01,-5.445998101318916262e-02,-1.621331006068377212e-02,3.931212316098257713e-03,-5.485217256654816020e-03,2.329943031072616577e-01
-2.564078442227173404e-01,-2.586368346762378811e-01,-3.510293703597563986e-02,-1.447667629965054131e-02,-1.439278972806291812e-05,-4.221971150909083551e-03,2.239560633897781372e-01
-3.137105379341971201e-01,-3.125975323100219638e-01,1.931842939132843995e-03,-5.527855821748417281e-04,-1.672188435119806792e-04,-2.452598903582495346e-04,3.150892257690429688e-01
-2.495983531127187183e-01,-2.525321467845085266e-01,-2.285694289398224055e-02,-1.612695049639126937e-02,4.467486657672162069e-03,-5.113038800717673894e-03,2.302260398864746094e-01
-3.207047701400183026e-01,-3.237867433717172005e-01,-2.347237124211729031e-02,-5.067414674831380132e-03,1.687473216753008652e-03,1.648936349415542658e-03,2.989421188831329346e-01
-2.842032733740595951e-01,-2.680784188027562354e-01,-8.503633342344857349e-03,3.083255248432907256e-02,1.548776447750023835e-02,3.534954366481316002e-02,2.813272178173065186e-01
-2.637656915457828877e-01,-3.269060471028835679e-01,-2.796681280976462403e-02,4.097577883315122599e-02,2.973432495591103730e-02,1.072580482273954861e-02,2.872469425201416016e-01
-2.366884464101873531e-01,-2.453610716323152696e-01,-1.330355631910495884e-02,4.326285626999951811e-02,2.448929666141614822e-02,1.948360737504506793e-02,2.458991408348083496e-01
-2.813249836953303218e-01,-2.460285034988649033e-01,-2.802883910483122687e-02,4.820380541448795325e-02,2.645929375775325429e-02,2.502226157434326095e-02,2.596415877342224121e-01
-3.283991972080854693e-01,-3.128380961980604669e-01,-1.604651033009077410e-02,8.847180179438039358e-04,4.866538600780398634e-03,-2.025612699124768100e-04,3.049906790256500244e-01
-2.964128271258125169e-01,-3.215798189978388288e-01,-2.766758681305292455e-02,1.867770609663845990e-02,2.075643678372156298e-02,1.296866741282081716e-02,2.871663570404052734e-01
-2.603263927031402858e-01,-2.710769920042924719e-01,-1.675883053316304383e-02,1.958976265227898444e-02,1.506340468324991917e-02,1.347577634275462163e-02,2.538425028324127197e-01
-3.173324824393735089e-01,-3.285817621464581784e-01,-1.601740011526445184e-02,1.293433468006191002e-02,2.373789021129562443e-02,2.019985670032867567e-02,3.126073479652404785e-01
-3.215280574360508403e-01,-3.156854553671490371e-01,-1.298330897435168163e-03,9.924655501389186788e-04,3.314708687033910642e-04,1.668765056107067565e-03,3.173671066761016846e-01
-3.174537021043770668e-01,-3.184829322305200994e-01,-1.213279142752596296e-02,-6.579782727288892036e-04,1.228822837341617645e-02,1.128228684740599161e-02,3.072007894515991211e-01
-3.180164992043085226e-01,-3.091725234580526838e-01,-9.110487903956965283e-03,4.358862544315855758e-04,1.029889103102422931e-02,8.374955010628414714e-03,3.054478168487548828e-01
-3.155342378640709766e-01,-3.151519526225050050e-01,-5.113866443480857837e-03,-6.487157964300474663e-04,1.086047601708285508e-02,1.087705548810307538e-02,3.113716840744018555e-01
-3.101260077361749912e-01,-3.102970327493445035e-01,-1.039109694263240513e-03,-1.142924096731171727e-05,1.671278030841826271e-03,8.910300246452665255e-04,3.091898560523986816e-01
-3.217578659649509842e-01,-3.292718807471104459e-01,-1.110423247073960562e-02,-1.965335346817125711e-03,2.456144511563440429e-03,4.378636069081101936e-03,3.146165907382965088e-01
-2.325783206592767494e-01,-4.153094670515926623e-01,-4.507951034876431229e-02,-1.025426362274874381e-01,-3.694556905845247652e-02,1.800592182491326729e-02,3.733910620212554932e-01
-2.958967922348155200e-01,-3.000113802356834114e-01,-2.940298243249706012e-04,9.747762483674600464e-03,2.261850857607670962e-02,1.682222463821795091e-02,3.021307885646820068e-01
-3.311315241217824279e-01,-3.310875074034205223e-01,-3.744034096713896864e-02,-6.195868033894308142e-04,4.815064317656467621e-04,2.744495943638894896e-03,2.937107980251312256e-01
-3.227378500069230105e-01,-3.159794336565345252e-01,-3.108005548938055917e-02,-4.823406586089135258e-03,2.747691102520338595e-03,2.894741493417203734e-04,2.884986996650695801e-01
-3.534227752529214839e-01,-3.499323492243002764e-01,-4.833627779540419778e-02,-3.355422442988844657e-03,-4.292856871210523270e-03,-9.531121934999810252e-03,3.039517402648925781e-01
-3.219568113945637799e-01,-3.218983276759189160e-01,-1.675113853243417883e-02,1.207697123282584425e-03,2.029013953289849487e-03,-9.095608192383952337e-03,3.056101799011230469e-01
-2.928689475629062122e-01,-2.713922465509080451e-01,2.816589549506198775e-03,1.355290478710557836e-03,-3.996600622005301758e-03,-1.542652077503652713e-02,2.868940532207489014e-01
-3.361555145479441231e-01,-3.336973127471203338e-01,-4.239678862521895075e-02,-1.070520806634708832e-03,8.392843942765571864e-04,1.589156731283103722e-03,2.925598025321960449e-01
-3.304386342304010404e-01,-3.287430881677069761e-01,-8.829340149882680677e-02,1.156121136506054695e-03,-7.145238733484706936e-03,-1.283256714580993533e-03,2.416376024484634399e-01
-3.065152635158186478e-01,-3.042484633466520094e-01,3.259239322555979035e-03,-3.509711796851915826e-04,2.941050926768222669e-03,1.398420952912280161e-03,3.086994886398315430e-01
-3.226568456771471416e-01,-2.964180096358223215e-01,-9.736136121475308380e-03,2.659956202268494267e-03,1.315295412374062507e-02,1.497828350567776724e-02,3.026721775531768799e-01
-2.988664356254590593e-01,-2.476274007751227413e-01,1.165776612549462854e-06,1.670268846071343294e-02,1.018571881965370414e-02,2.457928796728471935e-02,2.821244597434997559e-01
-3.290864091716604323e-01,-3.211705179228127038e-01,-6.528809804815710605e-02,2.081544324471002914e-04,7.870205333973757846e-04,-2.526141171461599669e-03,2.599714398384094238e-01
-3.340591780305933733e-01,-3.315901197027041336e-01,-1.639292102103792614e-02,8.692453840243944676e-04,2.015581732084064607e-03,9.482638861175106751e-03,3.168877065181732178e-01
-3.353672144936222788e-01,-2.227846993363702399e-01,-4.551985600672814325e-02,1.153837885491689093e-02,-9.004082642290049329e-03,-1.554546862342742752e-02,2.557775974273681641e-01
-3.211612617138795978e-01,-2.301161748435565646e-01,-3.592343086810803610e-02,1.881554380337768437e-02,-6.377635182704325181e-03,-1.561535056163499552e-02,2.561170458793640137e-01
-2.684010103874236997e-01,-1.699174996069947319e-01,-8.289643786014794236e-03,5.000170310516471178e-02,-5.812394586481634332e-03,-1.650263500434677108e-02,2.452735602855682373e-01
-2.823224638401194975e-01,-2.024318813732038091e-01,4.120587783008722305e-03,3.992859451002137711e-02,-2.607129485853156708e-02,-3.539197592854435165e-02,2.759127020835876465e-01
-2.935303936546488912e-01,-2.300206154229925415e-01,-2.443558228510919750e-02,2.894283942060061482e-02,-6.767569810278998600e-03,-9.959741739517432788e-03,2.496065050363540649e-01
-3.285453425148937567e-01,-3.393096863780032946e-01,-1.676853622391535903e-02,2.516461890950921331e-03,-7.466664661707032510e-03,2.460628987307591879e-03,3.176179230213165283e-01
-3.235093099221870161e-01,-3.148743787786282278e-01,-1.105268252541730112e-02,1.108940624646390701e-03,-2.373446004842003944e-03,-7.851713567657566751e-04,3.082662820816040039e-01
-3.212880616968583070e-01,-3.213827207299541078e-01,-7.921303107404131794e-03,1.849821329792435956e-03,-5.778087688759505486e-03,6.122040573458323830e-03,3.137694299221038818e-01
-3.378185314674247430e-01,-3.325554242206632538e-01,-8.660339173019684922e-02,3.712975265937975937e-03,-8.755398287857702258e-03,2.964606398045920282e-03,2.492233365774154663e-01
-3.481934517705226328e-01,-3.387040251252457779e-01,-8.001228644776506305e-02,2.347626065905305311e-03,3.138342785651284175e-03,-3.479368280545690889e-03,2.637208700180053711e-01
-3.760501134343104956e-01,-3.698588583834890309e-01,-1.211440714651625394e-01,1.670722612033440448e-04,1.184161777406803062e-02,-1.116663448729207295e-02,2.534404695034027100e-01
-3.642617801204462435e-01,-3.644662051715197304e-01,-1.009546801761825041e-01,3.365771793217732098e-04,8.495037277937819015e-03,-2.649165837800105186e-02,2.677811682224273682e-01
-2.915003079270598318e-01,-2.576014042728095865e-01,4.315244944974039321e-04,-5.594657755126171070e-03,-1.286196160254504672e-02,2.222696025469806172e-02,2.802667617797851562e-01
-3.173106234638089496e-01,-3.171875592043959524e-01,-1.037878559690560976e-02,2.366711547274074224e-03,-1.163745495251883831e-02,7.402734982966317941e-03,3.078260719776153564e-01
-2.912868273006306019e-01,-2.872751529864865372e-01,-1.522182166739724507e-02,-8.234934828149274161e-03,-1.067591948239185289e-02,9.462955699810666338e-03,2.755621671676635742e-01
-3.182494341053691556e-01,-3.195396758186158648e-01,-1.076006080642449847e-02,1.662486486954889951e-03,-5.774248407895132655e-03,1.717744072189090858e-03,3.083266019821166992e-01
-3.113737185364361393e-01,-3.129562297303306595e-01,3.988460499013413152e-04,1.531796190643351999e-03,-3.793405812815690316e-03,1.228791137164449414e-03,3.126543760299682617e-01
-3.013327144263884261e-01,-2.926299985404417492e-01,7.027798605382939989e-04,1.512064964839904832e-03,6.390667097822008355e-03,5.377352895491882209e-03,2.981421947479248047e-01
-3.108676505554954228e-01,-3.112438829750925895e-01,-3.799813452925682178e-03,7.564719186396885037e-04,7.447946958762063875e-04,-3.177012529675808748e-03,3.073109090328216553e-01
-3.161852691088017364e-01,-3.176468437087079932e-01,-1.124810004492116100e-02,1.795301359197335519e-03,-4.681067828312872846e-03,8.941186958129681769e-03,3.061858117580413818e-01
-3.021635711276687286e-01,-3.026271638673613262e-01,-1.963599363376117291e-03,-2.552298952308816159e-03,-1.126456677186031888e-02,1.228985399432240382e-02,3.018488883972167969e-01
-2.877248639375928896e-01,-2.157203868808204861e-01,1.509589656697593596e-02,-2.043265540908859382e-02,-1.716689936112992046e-02,1.945192345822786481e-02,2.799148559570312500e-01
-3.140944073489221333e-01,-2.765755064359147752e-01,-1.472647748819916336e-02,5.954067231385171827e-03,-1.242191090652382084e-02,1.761482438076789406e-02,2.851262390613555908e-01
-3.087836123397015298e-01,-3.107711349663481726e-01,-1.121967501810200440e-02,-1.102988308077719861e-03,3.992479970585509699e-03,4.667206586172710329e-03,2.987582385540008545e-01
-3.203620089074051269e-01,-3.159096864733138554e-01,-2.000095298554194212e-02,5.340683729551053832e-03,-6.915307554051761812e-03,-1.201366028442138467e-02,2.992679476737976074e-01
-3.260612564113294365e-01,-3.301068608928318660e-01,-1.658418600176284063e-02,-3.984659343471329274e-03,-3.527685862063049873e-03,-8.693490225636119062e-03,3.120194673538208008e-01
-3.377930873043092364e-01,-3.331260153333272522e-01,-6.112630384501854808e-02,-3.572364909341099563e-03,4.547594139134145778e-06,9.715915840654037636e-05,2.744328379631042480e-01
-3.075171677742412069e-01,-3.057317303804086839e-01,-2.521231393150941136e-03,2.802449990220572899e-03,-1.040062334895290250e-02,-5.854229864180328716e-03,3.048475980758666992e-01
-3.374378063530925620e-01,-3.371364948475846779e-01,-2.504013731787607666e-02,-3.373797150453114804e-03,-3.484154994741064416e-03,-5.353323161203860266e-03,3.124976754188537598e-01
-3.409528607742980943e-01,-3.462856715648220396e-01,-3.832110318420509087e-02,-5.774731921315585416e-03,-1.922501310880350234e-04,3.447185170639443293e-03,3.055554032325744629e-01
-3.212655334962972731e-01,-3.203485084095155644e-01,3.451411221993661016e-03,-3.154947574933904698e-03,-9.724544013168821832e-03,-5.650138338185959133e-03,3.248899877071380615e-01
-3.205419513021250388e-01,-3.184447313578473993e-01,-2.337788356334771778e-02,-4.264639067120907980e-04,-2.407333762990216362e-03,-1.236087937103974793e-03,2.961590290069580078e-01
-3.427724574842920258e-01,-3.347422052980540963e-01,-6.204471110547649104e-02,-2.508471235980062278e-03,-3.789692498257468158e-03,4.210644258631935678e-03,2.770079076290130615e-01
-3.338252217038921721e-01,-2.941370826251827331e-01,-1.082768165303249486e-02,1.004457417965919086e-03,1.839773262520252558e-03,-1.703377809455757300e-02,3.065403997898101807e-01
-3.157014761858794039e-01,-3.215351700726425399e-01,-3.345073152293440155e-02,-1.577346847682110139e-03,-4.698268078783528223e-04,1.538711987266158047e-03,2.852390408515930176e-01
-3.136765692983787268e-01,-3.224493720824122556e-01,-2.226017316336120766e-03,2.819346834845967448e-03,5.194853809245432961e-04,-2.554754722229437940e-03,3.159983158111572266e-01
-3.212828353879444432e-01,-3.321601686679939713e-01,-2.924747268015054358e-02,1.399371107424323508e-03,-2.261474720120205354e-04,3.852291700482398523e-03,2.977080643177032471e-01
-3.167166820041263375e-01,-3.160741253486043512e-01,1.448243013372568777e-03,2.290980751107831337e-04,-4.237309996085724133e-05,2.580654154874948629e-04,3.178447186946868896e-01
-3.272786867267882815e-01,-3.235263770007282824e-01,-2.473114202347687085e-02,6.953819779290165357e-04,5.084496621833632744e-04,-2.929650106362791627e-03,3.007354736328125000e-01
-3.122320696780925831e-01,-2.904389212839032508e-01,-4.306616669152080190e-03,-2.461108944778591452e-04,1.817083381419651224e-03,-1.519137462221909624e-02,2.988055944442749023e-01
-3.211737778124840736e-01,-3.258863682325642275e-01,-1.393773048256047309e-02,-1.622757900961013106e-03,-1.211772180874284800e-03,-3.661381142601811880e-03,3.097040355205535889e-01
-3.121713741893294980e-01,-3.237976481349459368e-01,-1.153409593921239651e-02,1.333860554064556902e-03,1.065529932264176619e-03,-1.267221943599087120e-03,3.066378831863403320e-01
-3.185410234750024050e-01,-3.273448039451247182e-01,-1.204010613359809967e-02,3.093495979559943067e-03,3.630781555170892790e-03,2.451403875722433156e-04,3.111062943935394287e-01
-3.444394517900242758e-01,-3.455983431133442529e-01,-1.235214829047723006e-01,-4.932095793298164194e-03,-2.982361811213630337e-03,7.680251165624956376e-03,2.221232354640960693e-01
-3.347528916301827917e-01,-3.379943723609543094e-01,-1.307424607996853227e-01,7.443837513385521834e-04,-5.589577668051949784e-03,5.082874502502961363e-03,2.060702741146087646e-01
-3.428469566243734779e-01,-3.362400199747563878e-01,-1.125986578715428843e-01,6.326193999022770463e-04,1.166272676364269074e-02,4.920022300532125685e-03,2.280758023262023926e-01
-3.155851849604422998e-01,-3.211710570442710688e-01,-8.230467926660650635e-02,-2.009225316486055578e-03,-5.857187782421838500e-04,9.526317484598072899e-03,2.367265522480010986e-01
-3.057370708739906573e-01,-3.077836971609538841e-01,-5.394653679264282964e-03,-1.350427319051646070e-04,1.251882671844781886e-02,-1.270592880136304885e-02,3.029504716396331787e-01
-2.758079540383165940e-01,-2.771457575558337605e-01,-2.388655376972617650e-02,-2.245748067012837709e-04,-4.998841406569548606e-04,-1.161152067008885350e-03,2.526027560234069824e-01
-3.019022785124053643e-01,-3.009072738846628736e-01,-1.130844446092799105e-02,-5.073337597958003237e-03,1.089282799682715804e-02,-8.160303977216109075e-03,2.911864817142486572e-01
-3.136830640632527478e-01,-3.121426731663116128e-01,-2.665450080861581084e-03,1.285659033758281087e-03,3.001596978621103896e-03,-8.925389719414595106e-04,3.103056848049163818e-01
-3.200442756889738671e-01,-3.197951735382597027e-01,-1.388545323432074929e-02,1.239214230465523602e-03,6.802813353216192842e-03,-7.525525270293148897e-03,3.065458536148071289e-01
-3.251245021324596363e-01,-3.287491527902591804e-01,-1.927215601011783574e-02,-1.999074928521498828e-03,8.109061780917982062e-03,-1.531188861376325469e-02,3.091602027416229248e-01
-3.174887034686396659e-01,-3.140864844001043932e-01,-1.480372742054630875e-02,-1.123643060625390927e-04,6.568330777882759770e-03,-2.916480476647829653e-03,3.012556135654449463e-01
-3.136260625092960330e-01,-3.133265234037070357e-01,-2.503403925983804790e-03,1.346921046118891097e-03,3.691188573917327485e-03,-3.327268060999074260e-03,3.111008405685424805e-01
-3.206702619214746863e-01,-3.225050083192751438e-01,-6.801480412129468078e-03,3.607553177242474925e-03,3.767364641574009673e-03,-3.153558338981309484e-03,3.149671554565429688e-01
-3.257486526029427787e-01,-3.247219160867260146e-01,-2.229798130939031342e-02,-1.091822382918167331e-03,6.665667636328033137e-04,-2.438895444116905963e-03,3.029761612415313721e-01
-3.127430376230418974e-01,-3.074428181572658181e-01,1.574495026295807953e-04,2.738128380308890112e-03,3.706634866930440947e-03,3.469716705758256708e-04,3.103875517845153809e-01
-3.392619124284885768e-01,-2.955297720726030031e-01,-2.405131575316388215e-02,8.953289265842462102e-04,2.428431948664225726e-03,-1.655183722421247131e-02,2.971992194652557373e-01
-3.230049983358144194e-01,-3.272097691343234249e-01,-1.054789635493047495e-02,-2.794916467291478235e-03,-2.704249162692449072e-03,-2.675602897965978933e-03,3.146868050098419189e-01
-3.185075775761064820e-01,-3.187263539563947035e-01,-7.992708490597605353e-03,-1.674051597991803178e-03,-1.978040133117293150e-03,-2.516641222569687090e-03,3.106873333454132080e-01
-3.192075961578813570e-01,-3.206698229806141942e-01,-1.051400248621328637e-02,-1.895527432337537881e-03,-4.695349036321053507e-03,-4.507570617918778451e-03,3.096500039100646973e-01
-3.180521225599708401e-01,-3.208910036660335141e-01,-7.587410370182762209e-03,-4.241488249180386141e-04,-2.991700850608847596e-03,-7.458990435922805209e-03,3.122051656246185303e-01
-3.026411709424502439e-01,-3.067724558098251508e-01,-1.671197003007987569e-02,-1.161483671631427387e-03,-1.333653405828513121e-03,-4.022464323913282382e-03,2.881176173686981201e-01
-3.187471674035099456e-01,-3.209117977461054538e-01,-1.012241793704105053e-02,-3.721613090777816280e-04,-2.350451059142199639e-04,-3.194841075443091791e-03,3.097631037235260010e-01
-3.322944228868596195e-01,-3.149091636559637752e-01,-2.135479580787630338e-02,7.591080377771635204e-03,-1.321995560051406580e-02,-1.203820729147052522e-02,3.044862151145935059e-01
-3.249221249226910135e-01,-3.227096789695754198e-01,-2.771158669120707407e-02,-1.114516131045492674e-03,-7.959698048934459426e-04,-8.483864815472354822e-04,2.961236536502838135e-01
-2.482227046186450403e-01,-2.354293978582168156e-01,-1.310579999885766456e-02,-4.217241241237271177e-02,1.866622276694593699e-02,-9.203948893175169232e-03,2.430445700883865356e-01
-2.253220290181956742e-01,-2.607323890289675594e-01,-2.992153029826566391e-02,-3.088512911777173062e-02,2.565832015298828272e-03,2.286611027289813230e-03,2.219269275665283203e-01
-1.934152503040691695e-01,-2.605441099081886591e-01,-1.601513861275713491e-02,-4.627412256616249969e-02,8.673379011690884530e-03,-4.360208634946810373e-03,2.336500585079193115e-01
-2.141161465472267433e-01,-2.754342618404623799e-01,-2.621823227485053920e-02,-2.522428478644105770e-02,-7.699242604718660801e-03,7.487265931827394652e-03,2.298736423254013062e-01
-2.411719418957926908e-01,-2.969555564426210603e-01,-4.485198543208421262e-02,-2.115139947060252351e-02,6.537376841576573311e-03,-1.494487154644246808e-04,2.325407415628433228e-01
-1.881428046137692545e-01,-2.519226666676315229e-01,-1.190882231928314106e-02,-4.806915500233118616e-02,1.356557275321810391e-02,-8.902036559265731272e-03,2.325687259435653687e-01
-2.716432920514675886e-01,-3.104093428903871299e-01,-5.251188305763523911e-02,-2.109928145857776355e-02,1.155137052417203394e-02,-6.716464113855040961e-03,2.447190582752227783e-01
-2.704882567575434549e-01,-2.857682674283713031e-01,-3.958118626831091946e-02,-1.501811457993145610e-02,5.852345825759630929e-03,-8.571405080496894563e-03,2.409971058368682861e-01
-2.909287430389598805e-01,-2.852542343335519037e-01,-4.690248611560574044e-02,-2.899813951309703278e-02,5.853156094924128437e-03,-8.690349407591941092e-03,2.470795512199401855e-01
-2.381808693072597349e-01,-2.523470395294641899e-01,-2.238468493263162662e-02,-2.382179079581906583e-02,6.422766630146373341e-03,-8.274903499550309224e-03,2.277219593524932861e-01
-2.881128852063674084e-01,-3.337177471403680595e-01,-2.863727328301077235e-02,2.734233047256371188e-02,-2.750748616084838782e-02,-2.135155171518311051e-02,2.951630055904388428e-01
-3.129483341978058775e-01,-2.656454516318063619e-01,-2.907846479099177039e-02,4.164941495767580763e-03,-2.090583241121178170e-04,5.320332235757834632e-05,2.635222673416137695e-01
-2.743653963933713191e-01,-3.093805752807902154e-01,-1.616181009314665573e-02,2.321733578907425252e-02,-2.629740385703050951e-02,-1.448415043942114303e-02,2.850567698478698730e-01
-2.592470085865130058e-01,-2.633535056620394110e-01,-1.922145961018334459e-03,3.740120770721803295e-02,-2.894984401564155985e-02,-1.917922599188516888e-02,2.740511000156402588e-01
-1.758205563101650215e-01,-2.369123833707633686e-01,2.359058013768050577e-02,-8.065809948708245469e-02,5.382728483259595353e-03,3.883061116429566226e-03,2.744608223438262939e-01
-3.167451914663167445e-01,-3.177404248051273195e-01,-1.049937870217482194e-03,-2.307220278588507315e-03,1.984258464648175867e-03,1.940744996681789290e-03,3.162558376789093018e-01
-1.546813199810564143e-01,-2.732333936233428684e-01,-3.888569963286014897e-03,-5.250903080022992914e-02,1.589536930957177047e-02,-2.187962285824247496e-02,2.552167177200317383e-01
-6.528239911279556940e-02,-2.558148846800018528e-01,3.829988450698579294e-02,-4.583633622915332662e-02,3.473126791949755765e-02,-1.414632526523024007e-02,2.780103385448455811e-01
-3.149960736077633827e-01,-3.198428415395090374e-01,-4.481424205279860296e-05,-7.661578202415208127e-04,1.874818528981797268e-03,6.500599613338779855e-04,3.174237906932830811e-01
-2.540304531900791640e-01,-4.665422782552544057e-01,-1.024063872794297170e-01,-6.068196094263769713e-02,3.952921358586393430e-02,3.625091231223210447e-02,3.464823365211486816e-01
-1.800303091984052362e-01,-3.229396676269041810e-01,3.122343476319455746e-05,-3.662725302468919364e-02,4.230526187726950382e-02,-2.538679073559063290e-02,2.998417317867279053e-01
-1.928265267762524771e-01,-2.990195103890437300e-01,-2.958132069775909478e-03,-8.666435633351801671e-02,3.871509110221201672e-02,-2.656414966020261351e-03,3.074727952480316162e-01
-3.198171936079923783e-01,-3.239863924080324531e-01,-1.889540156790131542e-02,2.514574733649101103e-04,-1.288308001588115044e-02,-1.918696450666581774e-02,3.056606650352478027e-01
-3.179986645494043973e-01,-3.199346367111377543e-01,-1.888379724849212349e-02,3.580948133309131342e-04,-1.017056022406092990e-02,-1.250102972574947818e-02,3.013835847377777100e-01
-3.310254151878084805e-01,-3.350278386022053079e-01,-3.332596519797045853e-02,-5.718125692696138414e-03,2.400091753081195524e-03,2.599088642959031335e-03,2.999469041824340820e-01
-3.342613098501222568e-01,-3.318420557802453374e-01,-2.462508959131815001e-02,-5.451544246632742882e-03,-4.783281884850813619e-04,-9.529557532103740758e-04,3.085837364196777344e-01
-3.291270885646129796e-01,-3.332763326552425909e-01,-3.253699025547460155e-02,-1.944232382902826798e-03,8.164458048366736594e-05,2.628369171274626617e-03,2.987400293350219727e-01
-3.348060984978577515e-01,-3.423879928573942966e-01,-2.101695800845757023e-02,2.168278429531070479e-03,-1.571649863125171298e-02,-1.930829080367065008e-03,3.188519179821014404e-01
-3.363078641557728510e-01,-3.328858551218608075e-01,-2.701848191485031747e-02,1.732802135542919897e-02,-1.341371694265334168e-02,-1.456822233217350271e-02,3.109509646892547607e-01
-3.022346888863900460e-01,-2.349265873781734570e-01,-6.084710606818199974e-03,-1.957885380150276022e-02,7.555923280194405851e-03,-3.156950880530123849e-02,2.767906486988067627e-01
-3.376564073301336899e-01,-2.565915080375718582e-01,-2.147896188658618422e-02,-2.571702003248177090e-02,5.495567711322519797e-03,-3.481836247886086616e-02,2.943135201930999756e-01
-3.041476618489291628e-01,-2.770268752109009136e-01,-9.420931003666699333e-03,-6.292099591963574295e-03,5.858094581117736718e-03,-1.403080228332131453e-02,2.835815250873565674e-01
-3.467446705987502487e-01,-2.490545794074231212e-01,-2.444819384731089507e-02,-4.109228351443058175e-03,1.426561221749642928e-02,-3.174867842487048841e-02,2.926060855388641357e-01
-3.337399621271016081e-01,-2.938281219377057996e-01,-1.722866503949069261e-02,3.521844388322982813e-03,-7.289491115238487529e-03,-1.906688916496985034e-02,3.007109463214874268e-01
-3.048570305474224695e-01,-2.901891665443311341e-01,-5.910558778135621694e-03,-4.727836946182562548e-04,5.732531615884019910e-03,-1.359219686246639774e-02,2.930063605308532715e-01
-3.384665498269290307e-01,-3.419783912489773869e-01,-3.468059758415023563e-02,-2.986007714236049368e-02,-3.586035000474561280e-02,1.345987652389185260e-02,3.169248402118682861e-01
-3.420828061649229257e-01,-3.452120147421966490e-01,-4.094298656657774371e-02,-1.250643705179645430e-03,3.811916644709484954e-04,1.799775269437728711e-02,3.043258190155029297e-01
-2.998542054321787220e-01,-3.416158219885324088e-01,-1.442909771965195098e-02,8.169395253328731558e-04,-2.947869952765331744e-02,1.444086810470770511e-02,3.136334419250488281e-01
-3.299464141150311169e-01,-3.292838296050223379e-01,-4.304466677846047196e-02,4.378221723260371039e-04,-4.159806988809428702e-03,-1.255412916086450425e-03,2.866708338260650635e-01
-3.360909616954859125e-01,-3.316418070432639031e-01,-2.409805519588711920e-02,1.186651785901435665e-03,7.234412969753256390e-04,8.688967545279001987e-04,3.098053038120269775e-01
-3.389195434168970622e-01,-3.385265595061904831e-01,-4.856002792710620297e-02,5.832443768385495511e-03,3.766392266539761967e-03,-5.102074426529531158e-03,2.905467152595520020e-01
-3.140461222646067085e-01,-3.167998267484106734e-01,1.021311017703974144e-03,-1.255826906549642246e-03,1.807841600184044092e-03,7.145489770416721398e-04,3.164786696434020996e-01
-2.978527597128388105e-01,-2.084743022647378985e-01,-1.841834178436982383e-02,-1.432039029837195616e-03,-4.283738326094711695e-07,1.248113662906810001e-02,2.481333762407302856e-01
-3.227608758642872555e-01,-2.644062362684655998e-01,-1.435397085021197783e-02,3.827421556726988850e-03,3.356286768291990349e-03,1.610635804687977207e-02,2.852702140808105469e-01
-3.078256840243454029e-01,-2.582356321445380964e-01,-1.003704657482790141e-02,1.545080769976022502e-03,2.081892210557025492e-03,1.312097908895205368e-02,2.773202657699584961e-01
-3.182728541028186919e-01,-3.246762328839852274e-01,-2.433425320550380855e-03,-1.045529755050769423e-03,1.015362324388347469e-03,-3.420850802291885967e-05,3.190993070602416992e-01
-3.109577638337654992e-01,-3.030856454166016012e-01,-2.196366829979451429e-03,-7.588081579668374491e-04,5.710086723929807227e-03,4.473159717636828424e-03,3.051631152629852295e-01
-3.120041859050594613e-01,-3.117053650921469687e-01,-5.008635137531691761e-03,-3.332504704369856951e-04,4.702141140318063552e-03,2.569514042417029263e-03,3.069871068000793457e-01
-3.209706463785717001e-01,-3.243485208436430178e-01,-3.067137205376824216e-03,-4.399693812391090690e-03,1.791846010415961430e-03,8.080410112297034845e-04,3.197147846221923828e-01
-3.167255025336391805e-01,-3.198616718730437070e-01,-6.079950552134116837e-03,-2.205603541569234327e-03,4.890324552830748774e-03,5.260533083346389215e-03,3.124965429306030273e-01
-3.460998418298903978e-01,-3.312630117370911065e-01,-4.349982714738809264e-02,-4.104687227330085404e-03,-3.254415486092194360e-03,2.971712342122875220e-03,2.956452071666717529e-01
-3.258814256527653441e-01,-3.310725222659836042e-01,-3.469001100586566189e-02,-2.839299354293762286e-03,-1.612077828817753749e-03,2.999289268477823775e-03,2.939216792583465576e-01
-3.168833730058300269e-01,-2.988387818860815393e-01,-8.672621849014822137e-03,-1.036693988297143331e-03,-9.383553745905217139e-03,1.443282149287702931e-02,3.010817766189575195e-01
-3.045347185177900151e-01,-2.968944517301847497e-01,-2.141018547396927874e-03,6.686314775131821419e-04,6.405743706021618106e-03,4.280596041121141442e-03,2.989470958709716797e-01
-3.152703429329585250e-01,-2.591472805260946477e-01,-4.438224818303804220e-03,-1.402099600272101697e-02,-1.754784870940377314e-02,4.352136812562886620e-02,2.991946339607238770e-01
-3.692419835551510321e-01,-3.692591509459580146e-01,-4.185642140194131833e-02,-1.251158640713954245e-02,-3.073265811968073444e-03,6.425609664700315284e-03,3.283424079418182373e-01
-3.335535116171280956e-01,-3.314414063422818080e-01,-2.376730909566496242e-02,3.307545921314601275e-03,-2.937256690065053778e-03,1.125770096795194672e-02,3.094455599784851074e-01
-3.389283379443033262e-01,-3.164196578091534873e-01,-2.164782413848162501e-02,-1.343511820201564837e-02,-5.847785499074381090e-03,1.869245640987766272e-02,3.093934655189514160e-01
-3.316829796271794639e-01,-3.241626564419462508e-01,-3.588635031894993332e-02,3.736065227414426052e-03,-1.511486421474403374e-03,-1.663692586834527405e-03,2.922066748142242432e-01
-3.271184020882998977e-01,-3.210918634268992711e-01,-1.288554484882217799e-02,2.093235965921323542e-03,-9.476026548750236464e-03,9.020724816817217093e-03,3.121081888675689697e-01
-3.363905946238671119e-01,-3.366557419497333004e-01,-2.383049240800833024e-02,5.509715958027352860e-03,-7.543355176773315456e-03,1.244927838785771755e-02,3.138526678085327148e-01
-3.134350114048335412e-01,-3.165083966180696207e-01,-9.079587390540794223e-03,-8.291638419759723988e-04,-6.520988475115496556e-03,4.355352698536897431e-03,3.062084317207336426e-01
-2.617303018424131933e-01,-2.840852174366715888e-01,1.444428371976452796e-02,-2.876184901196080380e-03,-1.903722185532498445e-02,9.333872396252470074e-03,2.903780937194824219e-01
-3.235078761347117138e-01,-3.208922628321252413e-01,-1.262646439744735671e-02,3.543007465272795479e-04,-7.341609617532363595e-03,6.003916123746452088e-03,3.100180029869079590e-01
-3.198367709852104612e-01,-3.202242586205681918e-01,-9.314790646747533875e-03,6.579301741823953250e-04,-1.139187877661875957e-03,1.439473275386086038e-03,3.107342720031738281e-01
-3.436275817480414774e-01,-3.790545533192332117e-01,-3.366558377204348362e-02,-1.039245710852062382e-02,-2.819720333343302132e-02,7.933935304387740306e-03,3.334825634956359863e-01
-2.127629104829164286e-01,-2.814477982461591754e-01,-1.688931257156484067e-02,-3.354518338751674711e-02,2.496864135396567250e-02,-1.385181425743801757e-02,2.497186213731765747e-01
-1.821980018616423946e-01,-2.300502086639293342e-01,-2.523470240540920395e-03,-5.386392387380123381e-02,1.666232623202069246e-02,-1.074341881631625702e-02,2.303339391946792603e-01
-2.321736509311391472e-01,-3.193301105925503425e-01,-4.781843069689167836e-02,-5.968671122444283578e-02,-3.979761594241136395e-03,-1.917414495484705880e-03,2.615280151367187500e-01
-3.252732933465621867e-01,-3.205085724495535526e-01,-8.614495254397031010e-03,4.500111661396233136e-03,1.197781209147585294e-03,-3.616449692371292123e-03,3.144693970680236816e-01
-3.202684880489259367e-01,-3.198924854208985979e-01,-7.497797532755562377e-03,3.326651595519496043e-03,3.401519345883320233e-03,-4.329036161759973987e-03,3.127813637256622314e-01
-3.399211630373228932e-01,-3.292556928736609656e-01,-6.801184493002634945e-02,1.223781490150362746e-03,5.873514414854512540e-03,-5.057704191511021123e-03,2.670826017856597900e-01
-3.226085574455039851e-01,-3.126625947719549048e-01,-4.251742711734071700e-02,2.545697715653482199e-03,9.913984999514747695e-03,1.594607922513013734e-03,2.758371233940124512e-01
-3.274923855087811808e-01,-3.253914736307256250e-01,-9.720220150566730166e-02,6.441653360444340700e-04,1.043344882766782632e-02,3.381461749179486670e-04,2.299615591764450073e-01
-3.252943902781209595e-01,-3.267815656145877101e-01,-8.691473080293135589e-02,-2.163335851270414411e-04,9.405554040059412382e-03,-4.716140081327846977e-03,2.398204505443572998e-01
-3.379847080806979154e-01,-3.383451032501824107e-01,-9.357064293288766543e-02,6.128073429811191353e-03,1.025694516216115945e-02,-3.138438958169030568e-03,2.455285638570785522e-01
-3.405980824998371403e-01,-3.381432564937111307e-01,-8.277696837785111783e-02,3.708420756828357395e-03,9.927075016944850519e-03,-4.525185195620758452e-03,2.573775053024291992e-01
-3.317284975557181492e-01,-3.285053403232174318e-01,-6.984127323254232800e-02,5.490058868542142638e-03,-1.861528158991861332e-04,-4.272503006427668705e-03,2.605695426464080811e-01
-3.492077902545289159e-01,-3.421923940301514477e-01,-9.787705445786423764e-02,2.260681130780610362e-03,1.313160823856211051e-02,-1.710533682162655115e-03,2.489871382713317871e-01
-2.712676532420386089e-01,-1.990234581553676774e-01,-1.364294354264816711e-02,3.651608673169210589e-02,9.839302857109360340e-03,1.997033506089138793e-02,2.417953163385391235e-01
-1.952643731241555103e-01,-1.947514411605401619e-01,1.094822460847669210e-02,5.085344961801428060e-02,2.109253218726037452e-02,2.319290988152707469e-02,2.304880917072296143e-01
-2.217614237396802190e-01,-2.220882199754338204e-01,-8.546545892091417240e-03,4.939217417133895394e-02,7.805864439033081623e-03,-4.593311657068363356e-03,2.304240018129348755e-01
-3.042812933004830356e-01,-2.516957718586982362e-01,-3.739817153679958484e-02,6.286553048400164712e-02,2.438097525282002104e-03,2.033670030573644927e-02,2.703191637992858887e-01
-3.090035068003300078e-01,-2.905210500050637856e-01,-5.166810535761304224e-02,6.933945973074163993e-02,2.814630350431712117e-03,-2.063026128790256594e-03,2.761654257774353027e-01
-2.969446605577704124e-01,-3.085024905918236082e-01,-1.770605641554040544e-03,-1.135920683472336568e-03,-9.318696589735173466e-03,6.651352911466284525e-03,3.017780482769012451e-01
-3.103655194574589937e-01,-3.780281428614121753e-01,-3.727508916045943477e-02,-2.307561536183234951e-02,-4.328269998211679154e-02,1.347218539922185980e-02,3.246486783027648926e-01
-3.222943527659213325e-01,-3.482834630088515460e-01,-2.096120708610524352e-02,3.027686208587786719e-03,-8.052119763216217599e-03,8.255944137257833007e-03,3.158084452152252197e-01
-2.704179264605751642e-01,-3.007890361207793961e-01,-1.288157944524631615e-02,-6.475178384408052101e-03,-1.015948047538936701e-02,6.484331342431749919e-03,2.750101983547210693e-01
-2.371665041600514168e-01,-3.045145462856665430e-01,-2.206206638017488286e-03,-1.011201590978699251e-02,-2.718356109277064725e-02,1.451241183792684446e-03,2.794568538665771484e-01
-2.429797094772495336e-01,-3.605695340416880112e-01,-4.268279392021179230e-02,-3.448752113154548993e-02,-2.475930976958846605e-02,2.001476245020926761e-02,2.900139689445495605e-01
-1.953826958122146240e-01,-3.347505638970000308e-01,-4.319672695072690471e-02,-5.434067515889592220e-02,-3.965332210636529284e-03,-5.467704976368174125e-03,2.697950899600982666e-01
-1.832686593723800994e-01,-2.431625026141895907e-01,-4.550907773847007176e-03,-4.676993862860169549e-02,1.639951253881303389e-02,-5.320176434639656976e-03,2.317011505365371704e-01
-3.219127282179395921e-01,-3.215875237890534200e-01,-1.700725812749495636e-02,-1.966404499731988530e-04,5.661837387423271709e-03,3.609764693665693143e-04,3.049015700817108154e-01
-3.089687825618577244e-01,-3.095251721657066302e-01,-4.599695429427813620e-03,3.254424908670261549e-03,8.414603848731213448e-03,1.194034220822360638e-02,3.057484328746795654e-01
-3.223961315769204861e-01,-3.325461907922104277e-01,-1.219315247633409593e-02,5.292766762142955697e-04,8.971999206996268683e-03,8.955830981033004526e-03,3.161652088165283203e-01
-2.983047137058510989e-01,-2.962849894137404294e-01,-1.941741316032724596e-02,5.618910742982059087e-03,7.412482433404586277e-03,1.396465627215913441e-02,2.793985009193420410e-01
-3.304261463977652968e-01,-3.294404732853822848e-01,-3.853437315779387196e-02,-5.037794739786981627e-03,-1.927374461346488500e-03,-2.771163589977222556e-03,2.915894091129302979e-01
-3.440965981182012023e-01,-3.368964756055928822e-01,-3.967633165445275112e-02,-1.561048892265866871e-03,-2.921172786317201980e-03,1.258043820218210005e-04,3.009395897388458252e-01
-3.309751980744099487e-01,-3.258028550539496249e-01,-4.499538438345032643e-02,5.032427377704999996e-03,4.037599961325816049e-03,-6.485639348949492206e-04,2.836515009403228760e-01
-3.117427034044019662e-01,-3.130764749033898009e-01,-3.380657718456858696e-03,-1.669965581306104632e-03,-2.274057886363654683e-03,-3.899324881983295878e-03,3.091435134410858154e-01
-3.076157683881071137e-01,-3.082316200504463533e-01,-4.265673912740575169e-03,2.058158583556007806e-03,-1.099799366949342919e-03,-5.373667751641173287e-03,3.038279712200164795e-01
-2.757120836959784382e-01,-2.997082015144328926e-01,-1.129873047663693120e-02,2.419760085737041998e-03,-5.551925361654909234e-03,-1.075752365866934103e-02,2.780149877071380615e-01
-3.013475048817771396e-01,-3.150738911927832842e-01,-1.123202300789663544e-02,-5.549523961027411512e-04,-1.330082227156477274e-02,-1.180020906216445661e-02,2.988093793392181396e-01
-2.762520937991880809e-01,-2.930977152338304359e-01,-1.089699347924302786e-02,2.441065663665541001e-03,-5.486216726619572159e-03,-8.514517789545027540e-03,2.747595906257629395e-01
-2.990080591720710723e-01,-3.191602228124763574e-01,-2.524826288690654175e-02,-1.035324342540001365e-02,2.176691531181380868e-02,-1.212357893391466032e-02,2.881862223148345947e-01
-3.325830598374189817e-01,-3.270647316974566454e-01,-3.896838380399578194e-02,6.945234089144736514e-03,-4.510410522741072938e-03,3.601079692341583888e-03,2.913149595260620117e-01
-3.013309963762527133e-01,-3.072937905064572206e-01,-5.647206936885695860e-04,-1.376163114240430826e-03,7.088184978790101030e-03,-8.479820117094707954e-03,3.044034242630004883e-01
-3.122660263060452746e-01,-3.243168054958146529e-01,-5.604792722831708485e-03,-4.976343065862021825e-03,1.140051873529640547e-02,-4.480827115853372629e-03,3.136977553367614746e-01
-2.366905155325805254e-01,-3.015191349165962098e-01,7.474985197713807095e-03,-6.864508548654046742e-03,4.247563784041721163e-02,-3.734860175699899944e-03,2.919661104679107666e-01
-3.152878566514282777e-01,-3.157706205887937934e-01,1.541293800782939094e-03,1.029267543134703821e-03,1.056055445579365693e-03,-4.564862834346532770e-04,3.170820772647857666e-01
-3.305978705569727061e-01,-3.538201257622528573e-01,-2.105146124341061853e-02,-5.245850067566900678e-03,9.666238364875243474e-03,1.104631356321682896e-03,3.223556280136108398e-01
-3.306464714461213594e-01,-3.318794279344509657e-01,-3.639550870948132788e-02,5.996456750776257838e-03,4.694879391521905934e-03,-2.130377622221285051e-03,2.951873242855072021e-01
-3.132241736988549685e-01,-3.139484640113020530e-01,-4.800493055928028996e-03,1.334220787020064464e-03,3.220702735416326561e-03,-2.832605837143654069e-03,3.088844716548919678e-01
-3.069901819625678874e-01,-3.077554888413318590e-01,6.315932711073168893e-04,3.291432279853166091e-04,3.659825508802553706e-03,-4.364773135920404883e-03,3.081636428833007812e-01
-3.210545530999441843e-01,-3.206722888883822287e-01,-2.961201786505718303e-03,1.821604580030745327e-03,1.607610384953285596e-03,-2.372345298184283784e-03,3.179568052291870117e-01
-3.057590322554440965e-01,-3.034322042531797936e-01,2.052754980295917742e-03,-1.513060049896013202e-04,3.908845192569704308e-03,-4.038246520050273354e-03,3.068095743656158447e-01
-3.168901040277682379e-01,-3.211041440431030014e-01,-7.857801730824842679e-03,3.321693151356934926e-03,4.264840559849940489e-03,-3.712526129163852637e-03,3.113679587841033936e-01
-3.208458180721214803e-01,-3.190556448362634745e-01,-1.337120481531145488e-03,1.815809593399169255e-03,2.203601447121808672e-03,-1.326026274869126489e-03,3.186640441417694092e-01
-2.795607331410823182e-01,-2.416394280662085559e-01,4.011139704672123107e-03,-3.395585000167162387e-02,1.669029438492832321e-02,-3.037654472209973602e-02,2.795720398426055908e-01
-3.253226160105406883e-01,-3.238374802314430978e-01,-1.257577764645748108e-02,4.403024055280226751e-03,1.331905835749458943e-02,-1.860328651136168229e-02,3.146059811115264893e-01
-2.616482689627166458e-01,-2.698976967147417860e-01,-1.228252231406498640e-02,-3.374996997841993307e-02,1.984753784944110963e-02,-2.388790313537617407e-02,2.657429277896881104e-01
-2.932640112227307139e-01,-2.905267011639763863e-01,-3.868083541534339531e-03,-7.164513955518704916e-03,1.160833624733375799e-02,-1.332554777237423063e-02,2.899246215820312500e-01
-2.982995614051974220e-01,-2.989423067927940436e-01,-6.247802679442332474e-03,-8.744387063968432280e-03,1.160223281205434789e-02,-1.106742785140432846e-02,2.940800189971923828e-01
-3.036877884865024635e-01,-2.832264996258345158e-01,-2.886543631088800410e-02,-1.861378795899358216e-02,1.607103450314505827e-02,-1.395683244875067959e-02,2.696690559387207031e-01
-2.583319555996264061e-01,-2.904643591123552415e-01,-4.312417308795576942e-02,-1.379475314834840288e-02,-2.919286788023817310e-03,4.592254934932787046e-03,2.343538850545883179e-01
-3.184689670132209161e-01,-3.148082386755727269e-01,-3.226755926346719372e-03,2.373058607252988609e-04,-1.884742803820397845e-03,3.310112253682982210e-03,3.134975731372833252e-01
-2.550930882935703026e-01,-2.314216196102079348e-01,-1.304763232244077198e-02,-2.037016547095688718e-02,7.810068011043019669e-03,-8.404913979924266698e-03,2.346412539482116699e-01
-2.926295624799542527e-01,-2.820567170261937262e-01,3.771745019923167241e-04,-4.873441811993094869e-02,-2.026353331453744147e-02,4.551437108732741751e-03,3.021356165409088135e-01
-3.200271815921886254e-01,-2.924280758857898954e-01,-7.657994908150222990e-03,3.288810730126424681e-03,-1.392261462720574550e-02,1.220905379713809261e-02,3.012909889221191406e-01
-3.354232891534838501e-01,-3.311313896835287318e-01,-5.605638313553348850e-02,2.238984013756119794e-03,-4.206803804121724347e-03,-4.737625758381451904e-03,2.774900794029235840e-01
-3.415588318420137437e-01,-3.482484391080707953e-01,-3.214412012848438804e-02,-5.289919643366986337e-04,-1.576600564279113242e-02,1.965566167332957054e-02,3.158443570137023926e-01
-3.375197727084741084e-01,-3.329252950997120264e-01,-1.594348055045621826e-02,1.083082045057800558e-03,-1.524550393898024998e-02,1.156029756281224188e-02,3.210243880748748779e-01
-3.148554948853495294e-01,-3.197813167612444940e-01,-3.094241008406467541e-03,4.491988301134043626e-03,-4.399526447506355714e-03,-2.186241873642852732e-04,3.144420087337493896e-01
-3.299958153121512749e-01,-3.029795322788849110e-01,-2.321440874824512446e-02,-3.437398577697663160e-02,-1.493002138466338093e-02,2.847557030627166641e-02,3.052910566329956055e-01
-3.200282047541370689e-01,-3.331755293578690935e-01,-1.724192845875680002e-02,-6.625614172591155933e-03,-1.571113590538785604e-02,2.190271160755173988e-02,3.132804036140441895e-01
-2.833895461421687689e-01,-2.561983530703552669e-01,9.852718240310448516e-03,-1.897765560481398314e-02,-1.098205234051121727e-02,2.645219343195970643e-02,2.868766486644744873e-01
-3.343452615636136049e-01,-3.323933439531829848e-01,-3.732089836179566800e-02,4.716034000926826349e-03,-3.473638615453078071e-04,-1.278334450631500759e-03,2.961747944355010986e-01
-2.669669561327546736e-01,-3.250453473088069645e-01,-1.652608455721077396e-02,-1.624996709798855838e-03,-1.251353597457177842e-02,2.123977503385672105e-03,2.848335504531860352e-01
-2.266507414861363978e-01,-3.363488021592175303e-01,-2.945406077389761679e-02,-1.931831350308181247e-02,-1.865180772282316879e-02,9.855141271112166992e-03,2.738739252090454102e-01
-2.594174610664045644e-01,-3.225926828635190535e-01,-3.387637533989570904e-02,-4.599814154158526902e-03,-1.127765498686496976e-02,3.401572032837623522e-03,2.637958228588104248e-01
-2.198060958575841772e-01,-3.210461070891709734e-01,-2.738960538950688250e-02,-5.219910022515138540e-03,-1.256219293750055269e-02,2.813120523685656588e-03,2.594856619834899902e-01
-2.047178738588750213e-01,-3.137513894941946768e-01,-4.060405250138524047e-02,3.394732014252653876e-03,2.527509862795705373e-03,-4.328696107672575649e-03,2.383810281753540039e-01
-2.721019662360789626e-01,-3.318450629430979015e-01,-2.553221814804404466e-02,-7.978523825029248864e-04,-1.071539697298321860e-02,-1.209674315332644266e-04,2.818565666675567627e-01
-3.741346008466571726e-01,-3.552271675659356975e-01,-6.302411248537012622e-02,6.574967109809387415e-03,1.118804270769630177e-03,5.346888430921285795e-03,3.024634420871734619e-01
-3.062941042577903561e-01,-3.618560772162757733e-01,-7.186906343884652548e-02,-7.748538345025974931e-03,-4.069270174086959957e-02,9.201617898385375249e-03,2.765305936336517334e-01
-2.998170807780355385e-01,-3.209375714552473169e-01,-3.070798869997651281e-02,-1.247048763272031249e-03,-1.217646999446282685e-02,-1.179574333685740354e-03,2.810749709606170654e-01
-1.677157546638967933e-01,-4.558536765798301138e-01,-1.211346265512050491e-02,-2.175313561621792027e-02,7.615487530877440570e-02,-1.518091183895644430e-03,4.133952856063842773e-01
-3.209471329112136284e-01,-3.069354783989504121e-01,-1.358830016406273322e-02,1.141651567554374455e-02,-1.271308130569893599e-02,-2.736720382884756664e-02,3.057481646537780762e-01
-3.398298158473100350e-01,-3.189416075335168577e-01,-1.980671036823755671e-02,7.905139125234243377e-03,-1.210707453735713514e-02,-2.609332799247218032e-02,3.143822550773620605e-01
-3.292773283652573046e-01,-3.101326169386920406e-01,-2.314802464191992315e-02,9.181152107246886435e-03,-1.089218270028700225e-02,-6.751260003420449934e-03,2.982724308967590332e-01
-3.169711295323489053e-01,-2.971630725092793690e-01,-3.063811230272597830e-02,2.438866047241664697e-02,-3.760976121944348965e-02,-2.529165499039758014e-02,2.909538745880126953e-01
-2.800363531263911354e-01,-2.713849884592014483e-01,-1.631732017634926479e-02,6.124660442920275977e-02,-3.205966611379439113e-02,-3.122703622061295120e-02,2.908665239810943604e-01
-3.179475086159593289e-01,-3.042884472673201834e-01,-2.570903745518968164e-02,1.300998996728626976e-02,-1.258505332712209386e-02,-1.994203363030259621e-02,2.894376814365386963e-01
-2.473466215949448321e-01,-2.028913408313467448e-01,2.515313942111946366e-02,3.336942113571021717e-02,-1.962229703735023784e-02,-3.844101148052862793e-02,2.702723145484924316e-01
-1.980079324224319204e-01,-2.966258452936221257e-01,-3.398657269596350172e-02,1.281628349438875686e-02,-5.098004397326186439e-03,-5.140805726914999575e-03,2.312011420726776123e-01
-3.247772768383320185e-01,-3.080318247782463104e-01,-1.439398725559032366e-02,3.785197962124544659e-03,-1.713340017775505722e-02,-1.875115088107705622e-02,3.056127429008483887e-01
-3.151479861734560739e-01,-3.176359536209046874e-01,-8.760853713885130567e-03,-1.448074203949355817e-03,-1.616376807070998888e-03,-6.332827094404062766e-03,3.078570961952209473e-01
-2.288611800625521830e-01,-2.756089247494887262e-01,-3.445571873051669898e-02,2.981001134069379346e-02,-1.892950347925283867e-03,-1.282340119060494622e-03,2.274828404188156128e-01
-3.215075153530887464e-01,-3.014590601970173478e-01,-1.421934277555728099e-02,2.239848347593505640e-03,-8.721211318060497625e-03,-8.526316334404385189e-03,2.985441982746124268e-01
-3.131140819347597581e-01,-3.116194455612092407e-01,-2.455980695813764214e-03,-1.118244062679033413e-03,-1.575871006342595025e-03,-2.851355308921304631e-03,3.099709153175354004e-01
-1.560855416792606143e-01,-2.800411018031997989e-01,6.014383102520837188e-04,3.631004507219693506e-02,1.209396065621123895e-02,1.422038761139447251e-02,2.536507844924926758e-01
-3.099973538118072081e-01,-3.093330297940640738e-01,-2.799370008677026789e-04,-1.624479382018440823e-03,-3.372990495345671788e-03,-2.433744576002809957e-03,3.094824552536010742e-01
-2.680916233384177394e-01,-3.165612182505609384e-01,-5.143812800512598260e-02,-3.250292298092215953e-02,1.905191384098843532e-02,-1.234746041247131859e-02,2.539778947830200195e-01
-2.390411868925535477e-01,-2.658325645318133090e-01,-2.558333112070609872e-02,-4.170062977613209210e-02,-2.062405704027884742e-02,1.431996862288531687e-02,2.431232780218124390e-01
-3.160847837417021244e-01,-3.167294618821660523e-01,2.082755971966415709e-03,2.312014711963834498e-04,2.044502215255455566e-04,-2.429117578892720983e-04,3.184911012649536133e-01
-2.636553794669280748e-01,-2.654993232324366903e-01,-3.838229400938106273e-02,-1.346075195616889229e-02,-2.313120977475738912e-03,6.070716624206866190e-03,2.276772707700729370e-01
-2.558071689588949926e-01,-2.568713745301982598e-01,-3.103037284776141713e-02,-1.550021082441058011e-02,4.061010852608947191e-04,-1.754172171077850477e-03,2.269260734319686890e-01
-2.619960536428838083e-01,-2.777346524416971496e-01,-3.652747158902952540e-02,-1.645290014999015171e-02,-8.909181419705760122e-03,7.152182929933639625e-03,2.362964600324630737e-01
-2.489661226817977413e-01,-2.145937487027675672e-01,-1.749477682686234603e-02,-2.842336710557080356e-02,2.462041230983187320e-03,-3.402806174873931715e-03,2.219928205013275146e-01
-2.647377895668950876e-01,-2.726829613525389440e-01,-3.843555161883288607e-02,-1.981736217333640235e-02,4.328934788906517472e-04,1.284853454210146137e-04,2.329219430685043335e-01
-2.348714949948847996e-01,-2.255289820737244877e-01,-1.784581732602599780e-02,-3.045217260819622213e-02,-3.165479762202431501e-03,5.201172338545757834e-03,2.192101329565048218e-01
-3.203088796839955177e-01,-3.223070972969418468e-01,-2.670765821927820194e-02,3.867946913147944123e-03,3.658816526374773261e-03,-5.792489978592459295e-03,2.949204146862030029e-01
-3.150266473866942807e-01,-3.149262114540066215e-01,-8.036830842705566802e-03,2.233091976436844556e-03,4.471469098651302890e-03,-2.270684330371833433e-03,3.070868551731109619e-01
-2.283971347689703613e-01,-3.208834196149990547e-01,-3.225942854434074580e-02,-2.985420082189456110e-03,-6.745526652678117234e-03,-4.439327412019513958e-04,2.555926442146301270e-01
-2.871722948958300159e-01,-3.268338376098935405e-01,-2.117245773657633334e-02,-1.102714733242294610e-02,-1.183752394977715186e-02,5.710719847021158459e-03,2.894165217876434326e-01
-2.401848548346779133e-01,-2.877409849033442657e-01,-2.838390510159632951e-03,-2.472451596251526527e-03,-1.594679845082895564e-02,2.868201248135425745e-03,2.658723890781402588e-01
-2.080657843976416455e-01,-2.853727301020758111e-01,-1.000808081146065120e-02,-1.156382104404294307e-02,-1.626984261291745948e-02,8.550087418648044668e-03,2.488554865121841431e-01
-3.011276333648286174e-01,-2.893779221929841938e-01,-2.544481183510693967e-03,-3.185172645181291208e-03,9.793851361474413889e-03,-8.156388900250088544e-03,2.937676906585693359e-01
-3.080019298883124312e-01,-3.115173405503660620e-01,-1.156394116686748630e-03,-4.065445618115985475e-04,3.801191726953688857e-03,-6.077368155876067789e-03,3.088687062263488770e-01
-3.151460050002032887e-01,-3.161671273662489123e-01,-8.678270920220887419e-03,2.034787633048663110e-03,6.296666848787678405e-03,-3.947271908530724203e-03,3.072695434093475342e-01
-2.812900743037431983e-01,-2.709401862862254040e-01,-6.675750438963706790e-03,-1.202840256291615867e-02,9.485898237969150881e-03,-8.947503745253876720e-03,2.713339030742645264e-01
-3.153033075741204505e-01,-3.169312486567122944e-01,-8.770218135245505531e-03,1.632524757239331133e-03,7.127577400650800254e-03,-3.574241817480817117e-03,3.076734244823455811e-01
-2.801893680222265481e-01,-3.054228380302937973e-01,-1.597436998342907644e-02,-2.584662046665317861e-02,-1.900467737181644676e-02,9.289250731196557059e-03,2.836545407772064209e-01
-2.850904829819572162e-01,-3.067350698616269633e-01,-1.872266124726867931e-02,-2.620251063518461154e-02,-2.052536083698590363e-02,9.010162062461898880e-03,2.841704785823822021e-01
-2.461806466475054411e-01,-2.971613966177763522e-01,-3.452005601051763573e-02,-2.493104493088483392e-02,-1.971427751551093135e-02,1.481784874657486595e-02,2.487552911043167114e-01
-2.202968231689795831e-01,-2.980813951626182234e-01,-3.882382710389653546e-02,-2.985322537719877281e-02,2.061608254100512263e-03,1.720187944254658596e-04,2.361888438463211060e-01
-1.915011970780948480e-01,-2.856979480009280703e-01,-2.707725877216859978e-02,3.103147347276703771e-02,7.992466604243783634e-03,6.232546165400286615e-03,2.336525022983551025e-01
-2.969686522399432871e-01,-2.913543216923403789e-01,-1.636933337873611172e-02,-1.434473910291590194e-02,-1.133605464469666750e-02,1.085705935717693089e-02,2.802652120590209961e-01
-2.896775866963096635e-01,-2.535773468780181950e-01,-1.208194409320573204e-02,-1.657117433280311247e-02,-1.730271045001259902e-02,1.969196851161995540e-02,2.668830752372741699e-01
-2.375361100968259309e-01,-2.600248174746028762e-01,-2.179597132806498916e-02,-2.311513937031017471e-02,-2.211464948103742528e-02,1.251163090692604569e-02,2.354591041803359985e-01
-3.144608586438665254e-01,-3.120129034370694443e-01,2.567604260131889360e-03,-8.697387135382354416e-04,-3.128523555241922451e-04,-8.437579292818752925e-04,3.158190548419952393e-01
-2.580878950847919073e-01,-2.669239238597631014e-01,1.208290627399188910e-03,-1.033249453723956816e-02,-1.174249238064135718e-02,1.066800163495652647e-02,2.658554017543792725e-01
-3.090749347413924708e-01,-3.027541279399356133e-01,-4.893037107082692794e-03,-2.025664185722136391e-03,-8.352576310395102427e-03,5.442163921101255894e-03,3.015864193439483643e-01
-3.253081281476737918e-01,-3.306734707903319914e-01,-1.903434689340918751e-02,6.097337050218247512e-03,-3.713528993275444869e-04,-8.477088404815204226e-05,3.091725111007690430e-01
-8.665007868478263875e-02,-2.316229471695935849e-01,2.397733410063154769e-02,5.719663195089682434e-02,-1.326228164244692802e-02,-1.499649222263353156e-03,2.442177385091781616e-01
-3.255196073847622107e-01,-3.274990488340691064e-01,-1.939376252348343210e-02,-3.196040403111284568e-05,-8.640412698181988010e-03,1.303071941973535722e-02,3.083119988441467285e-01
-3.185814459802914222e-01,-3.254200893066048761e-01,-9.355578643484518953e-03,1.683913969456819065e-03,-1.515984551853102359e-02,1.240787429144140155e-02,3.145503401756286621e-01
-3.521977688035203835e-01,-3.526894440757410987e-01,-3.541748918219317366e-02,-1.513931178988417448e-02,-9.725305870511406076e-03,4.369435649951949538e-03,3.186445534229278564e-01
-3.166279846910839413e-01,-3.029472142676692403e-01,-1.497520703749308235e-02,-9.271997747089346688e-04,-1.552898027294133919e-02,1.332019523715879082e-02,2.971750795841217041e-01
-3.195201391305466654e-01,-3.115514337960912927e-01,-1.311180745980303208e-02,-3.494563167009754451e-04,-7.393916096442656322e-03,1.046572218708070011e-02,3.033164441585540771e-01
-3.313225280613595891e-01,-3.601267386179957675e-01,-4.556149450508617527e-02,-2.365879183251554455e-02,2.048609202010142488e-02,-2.181278635672841137e-02,3.083598911762237549e-01
-2.868562391290757629e-01,-3.196846551897565836e-01,-1.017995776129343444e-02,-1.132193591138386246e-02,3.434108772972496032e-02,-1.543886262179348760e-02,3.022381067276000977e-01
-2.663345114180697970e-01,-2.924001803995790461e-01,2.442980302898717371e-03,-2.522732259594439794e-02,3.809015319814306605e-02,-2.334693712133144999e-02,2.963506281375885010e-01
-1.518718278576242642e-01,-3.578979835527402731e-01,1.690220455218327533e-03,6.079113908916420131e-03,-2.968480562867177944e-02,2.236694512681866240e-02,3.192509114742279053e-01
-2.092691525047296885e-01,-3.047998341624549301e-01,-1.737072988537657903e-02,-4.651173144047365815e-02,-1.965595909874089109e-02,8.629449268344351054e-03,2.686183154582977295e-01
-2.072980178479582047e-01,-3.731848081325589983e-01,-1.442077951563666693e-02,-1.121391573202432934e-01,-3.622365563869932303e-02,1.193333612493069872e-02,3.725655376911163330e-01
-1.985808255120521393e-01,-3.758430964504630989e-01,-4.073134044780418739e-02,-1.185440339551774164e-01,-4.274686266532618656e-02,1.506430625173440195e-02,3.641975820064544678e-01
-2.145786610342318435e-01,-3.889111199287324516e-01,-4.667413332344785837e-02,-3.215973029927898796e-02,-7.064822076819768371e-02,-5.733109956940217293e-03,3.256222009658813477e-01
-1.883930802355089917e-01,-2.901330870686416041e-01,-1.516365857481985491e-02,-5.209993264363489002e-02,-3.255966950826400669e-02,1.588639267600367583e-02,2.646971046924591064e-01
-1.532287666735275278e-01,-2.938788769771576992e-01,-6.778755271828362794e-03,-4.576890198187151537e-02,-6.186806444558311940e-02,1.574595400533810793e-02,2.834421098232269287e-01
-1.472833090406868994e-01,-2.463105148357486729e-01,1.595703429057915290e-02,-9.619547667425927540e-02,-2.507869292047033849e-02,4.256341717395634855e-02,2.961443960666656494e-01
-2.893457930369329190e-01,-2.813008767378111230e-01,-1.862279958212115227e-03,1.270214052214622795e-02,-1.182908785635835777e-02,-1.426190540912537427e-02,2.862040102481842041e-01
-3.108034014772749209e-01,-3.107698754505394678e-01,-4.199159621889936300e-03,-1.873672341088616390e-03,-2.438691480455222257e-03,-3.163314540690939473e-03,3.066827058792114258e-01
-2.952892863393050682e-01,-2.883037864425578300e-01,-3.359472824982223660e-03,8.217300109160535077e-03,-2.752548491550983571e-03,-6.844527913277077651e-03,2.891338467597961426e-01
-3.311233303060840960e-01,-3.287216165630258979e-01,-1.897214594387755526e-02,-3.776222818748056417e-03,-6.485033386303630000e-03,-6.535047389226209848e-03,3.114345967769622803e-01
-3.105261507615044714e-01,-3.150010438410424940e-01,-7.642804158769250789e-03,-1.383160109286092577e-03,-7.910447948803137758e-04,-3.043450180865354439e-03,3.052034080028533936e-01
-3.181198132898735986e-01,-3.283141326797797688e-01,-1.191010113125159919e-02,-2.002257576718786351e-03,-1.012486937558154101e-03,-2.284450130093811961e-03,3.114814162254333496e-01
-3.168881414648338501e-01,-3.161898865361860711e-01,-1.872966906837497669e-03,9.723070780644989296e-04,-1.764798605417879822e-03,1.248913893933459741e-03,3.146934211254119873e-01
-2.937268653525075268e-01,-2.843738721130086300e-01,5.908865529667406413e-04,6.001987510969572504e-03,-3.239541574651071815e-03,-5.352314920578424631e-03,2.901433408260345459e-01
-3.042880211762254428e-01,-2.910348559187330153e-01,1.760228073051622877e-03,-4.170828189338410090e-03,-7.140341196397302637e-03,-9.371969708783978517e-03,3.004225492477416992e-01
-3.322033506206786280e-01,-3.249921492516522070e-01,-1.814425041096853763e-02,3.935994132120139433e-03,-7.140439624170394350e-03,-4.637505563709170588e-03,3.109410405158996582e-01
-3.206057640968816291e-01,-3.298620772024402625e-01,-7.702287666269486133e-03,-7.511881481864752619e-05,-2.238208235313635976e-03,-3.224110999254292675e-03,3.177055716514587402e-01
-2.982874715291513601e-01,-3.664194354810541565e-01,-2.596656410041153773e-02,8.299781171260796342e-03,3.499710998629444736e-02,4.754493331022317457e-03,3.182817399501800537e-01
-2.326120721309226924e-01,-2.421799740656956079e-01,-1.069210323544844687e-02,-2.442663243221390029e-02,-1.411498840672906901e-03,-5.666952944663351940e-04,2.307818233966827393e-01
-2.663357864253181884e-01,-3.065563672181738086e-01,-4.073089486943001769e-02,-2.183819929583585145e-02,1.294959139835595401e-02,-1.378626506686580870e-02,2.531663477420806885e-01
-2.219359724437924841e-01,-2.295881784188070762e-01,-8.540016787184995239e-03,-4.954909072787823388e-02,-1.711096197128902582e-02,1.112896990918785071e-02,2.363146096467971802e-01
-3.181873192368139813e-01,-3.131405180048983383e-01,-2.857989439842195667e-03,5.574968562080297044e-04,-2.159172566191757976e-03,3.759824596487314988e-03,3.129280805587768555e-01
-2.853336968214834068e-01,-3.097615328793108525e-01,-1.994462887106679405e-02,-1.698732050238741312e-02,1.767022150141956544e-02,-2.172452218260399748e-02,2.841289043426513672e-01
-2.170720431330404598e-01,-2.470109561484412353e-01,-1.898327117713322076e-02,-2.772034892197656683e-02,1.635556782072798265e-03,-3.141519099591420783e-03,2.200203388929367065e-01
-3.044533538031711228e-01,-2.921449723029577727e-01,-3.705091075679639578e-02,-2.337704576464278913e-02,1.664310213300890240e-02,-2.112623974114427594e-02,2.686515748500823975e-01
-3.140310530382121601e-01,-3.133197072253490201e-01,-1.243142359487051096e-02,-1.523746611009013001e-03,9.880233656482018470e-03,-7.156588845949823398e-03,3.019963204860687256e-01
-2.134671016449307124e-01,-2.593831838762239994e-01,-6.977760403558103119e-03,-4.199079006386582241e-02,2.111045600387811277e-02,-9.128764737235135068e-03,2.471921443939208984e-01
-3.149015539192439039e-01,-3.131654606512272454e-01,1.856564506128366432e-03,7.102082172462425213e-04,3.014040572138034272e-04,-9.732161303883744147e-04,3.159009814262390137e-01
-3.288178240234672089e-01,-3.260917506915620989e-01,-1.551923440311489544e-02,-7.556441894303833791e-03,-1.545147799532442696e-02,1.039898506008089807e-02,3.138810694217681885e-01
-2.594987966278953229e-01,-2.941110763417685847e-01,-4.776790025222688030e-04,-1.691583324836115620e-02,-3.886667874414035523e-02,1.747061411036224254e-02,2.890695631504058838e-01
-2.932739131053048176e-01,-3.276410784428351319e-01,-6.172428800256063441e-03,-2.300135108642794007e-03,-1.801122441120400416e-02,1.023554507445462516e-02,3.078613579273223877e-01
-2.508020227176311900e-01,-2.847976696778839467e-01,7.199655239664759510e-03,-2.066210986887298193e-02,-2.655532163945040214e-02,1.446467085780122307e-02,2.837525606155395508e-01
-2.722067285675871529e-01,-3.245832299621060901e-01,-1.153887933299618807e-02,-6.943682942888968791e-03,-3.069106976359164615e-02,1.967120284875375005e-02,2.974478602409362793e-01
-3.258604865140000695e-01,-3.191205368256962438e-01,-3.118014393302037668e-02,1.784129617773313591e-03,2.006345778215224123e-03,-1.173909711706525635e-03,2.914130389690399170e-01
-3.648799201626162780e-01,-3.637450631112102983e-01,-3.436102583237116148e-02,-1.043643836918781587e-03,-2.779818034287305159e-02,2.039609848662337840e-02,3.353183865547180176e-01
-2.880344698071665710e-01,-3.280626670442484683e-01,-2.815822471900039647e-02,-2.563017239639496948e-03,-5.415404672151050147e-02,1.070725671715026805e-02,2.978286743164062500e-01
-2.954844789114918768e-01,-1.728260622594116891e-01,-4.938741732786110228e-02,-4.877359971787236653e-02,2.173459491519828118e-02,-5.226638076616008100e-02,2.493432760238647461e-01
-3.022946971431954566e-01,-1.840274264163087314e-01,-3.930075464459836798e-03,-8.715961550507278152e-03,2.544040996438158130e-03,-2.448625466307039270e-02,2.641361057758331299e-01
-3.079024082877116486e-01,-1.913563425115281103e-01,-6.971550796323250365e-03,-1.460644085096685259e-02,-2.276355688616603715e-03,-2.543058472033640424e-02,2.677046656608581543e-01
-3.162878278000522680e-01,-2.516277981365580563e-01,-2.849376190700203537e-02,-1.970948090096389521e-02,9.257007813761054457e-03,-2.783381691975404110e-02,2.685967385768890381e-01
-3.057998480075539427e-01,-2.065058138509510421e-01,-3.768712146300590149e-02,-3.445700110247821440e-02,1.353044620847317428e-02,-2.202255895393284355e-02,2.463489323854446411e-01
-3.069919531951847969e-01,-1.776811983497005865e-01,-3.201222893243571566e-02,-2.751264880287021541e-02,1.756908374415387317e-03,-5.542855764083733094e-03,2.432068139314651489e-01
-3.397526539255339428e-01,-2.256040728674525431e-01,-2.752358353412243108e-02,-2.407081154730876527e-02,2.148206249326765124e-03,-1.965202522988274136e-02,2.789033055305480957e-01
-2.931801210159679094e-01,-2.027888648397891402e-01,-7.285257104410053364e-03,-1.067027382211222473e-02,8.765465621728241868e-03,-2.058285258334386497e-02,2.567237615585327148e-01
-2.923304857901194431e-01,-1.944456597346748694e-01,-2.326255557010228903e-02,-3.616708038673862452e-02,1.893818079290815817e-02,-2.613445376375364559e-02,2.503806948661804199e-01
-3.279781468975573322e-01,-3.310801886116883641e-01,-1.665280912319705431e-02,2.692715068226975324e-03,3.051688629452467029e-03,9.297990797261380946e-03,3.133813738822937012e-01
-2.498667199467282385e-01,-2.768925309004234281e-01,-2.254584321882960318e-02,-4.719772968570045898e-03,6.427759487556110839e-03,-7.970290929947257755e-03,2.427551448345184326e-01
-2.682159016561529441e-01,-2.915525930081276917e-01,-3.204136185780118162e-02,-1.306771778878801880e-02,6.689221909572675394e-03,-8.229311438791152289e-03,2.503682076930999756e-01
-2.711995746506059013e-01,-2.981493448205402297e-01,-2.325905045924400727e-02,-1.111437249030437779e-02,1.737935765549982262e-02,-1.857513952456314038e-02,2.668230831623077393e-01
-2.452146284463831150e-01,-2.888429072463315483e-01,-2.485081679119471865e-02,-5.330583835128516537e-03,5.661816692159129562e-03,-8.022445645943851802e-03,2.458703368902206421e-01
-2.702379687246498907e-01,-2.977576578799923102e-01,-1.590118827876021990e-02,-4.173756872056013159e-03,9.527686868500272188e-03,-9.284174250841112710e-03,2.702350318431854248e-01
-3.023832339598578889e-01,-2.861033485975259527e-01,-2.098485104136690871e-02,-1.450085236376581939e-02,-9.878414126458694502e-03,2.037334842947631508e-02,2.775567471981048584e-01
-3.330626078149523939e-01,-3.148919093432835381e-01,-3.134632777394252834e-02,1.610981621707740716e-02,-1.770237944066314906e-02,-1.896681982879360601e-02,2.977892160415649414e-01
-2.724631625753742847e-01,-2.521262851060569465e-01,-2.989222513374892309e-02,1.766079206882594996e-02,-8.297268856614626459e-03,-7.629863143637821005e-03,2.358770966529846191e-01
-2.988619268375343196e-01,-2.891032274186282058e-01,-5.076431607410636371e-02,4.347334728135739818e-02,-8.812298085019581312e-03,-1.426823729600613412e-02,2.563982307910919189e-01
-3.225578845890811897e-01,-3.215144551904552950e-01,-3.162705659111902934e-02,9.730824418022702288e-03,-1.519884780918754827e-02,-2.233592850976477001e-02,2.946388125419616699e-01
-2.861134994437397605e-01,-2.612411925762706533e-01,-4.632700845344506213e-03,9.931918468743973841e-03,-1.464402128492832238e-02,-1.889674781008921639e-02,2.736046910285949707e-01
-2.426857342776004567e-01,-2.031859805234120242e-01,-9.877838412261197298e-03,5.535776539505961324e-02,-6.731834228753612315e-03,-5.621952189978282610e-03,2.366180717945098877e-01
-3.139229185385065124e-01,-3.140428215363387787e-01,-2.671898138450473636e-02,-9.966679627137920577e-04,-1.942677305739425042e-02,-1.219251846530090833e-02,2.900029420852661133e-01
-3.494323863535325758e-01,-3.455556418769398785e-01,-8.607141188126449238e-02,2.248464700888546243e-04,1.006574375605553268e-02,-2.221595795673912428e-03,2.620533704757690430e-01
-3.691182858445881676e-01,-3.485252977364128868e-01,-4.581479430584492474e-02,-8.180073247290713459e-03,-1.498429236746729419e-02,-1.208722451746650946e-02,3.156011104583740234e-01
-3.384225974966176276e-01,-3.241203263036874782e-01,-2.500074979836885980e-02,-5.856421795042048364e-03,1.099100664599765619e-03,4.382837966826865633e-03,3.067887127399444580e-01
-3.419789280923034025e-01,-3.357045050481547999e-01,-6.361859666777064382e-02,-9.195407390717804524e-03,2.642719385944191507e-03,-1.324335024910692918e-03,2.757846415042877197e-01
-3.042738360116448715e-01,-3.103159840573657680e-01,-1.357724684702565909e-02,-3.796744201426665612e-03,-1.227256887773096883e-02,1.273703605961392163e-02,2.954306006431579590e-01
-2.834677631043007184e-01,-3.485228564090149250e-01,-4.511712113100765920e-02,3.248583876656495339e-02,-3.082931283509948370e-02,-3.419490942825173518e-02,2.933842539787292480e-01
-3.488682917250867654e-01,-3.463367611561314341e-01,-6.213117244719898458e-02,7.981957391132944637e-04,7.282484459410837156e-03,-2.518787716318804815e-03,2.857949435710906982e-01
-3.253701629475754253e-01,-3.311275426859978666e-01,-4.259328517643704015e-02,3.141357020686659420e-03,-1.703137605130600543e-02,7.060692401290103500e-04,2.872721254825592041e-01
-3.443790062242703676e-01,-3.490856920820984977e-01,-8.653083703124064829e-02,-2.081511863909997657e-03,1.245041759855784226e-02,1.003665747869408355e-02,2.617282569408416748e-01
-3.463229798729865472e-01,-3.508469826160876548e-01,-6.412817284322860911e-02,-7.271361576553486868e-03,-6.822903591825951047e-03,-1.073410087840818289e-02,2.856132984161376953e-01
-3.004630579868342588e-01,-3.112230766116105829e-01,-2.618632867751266580e-02,7.608180458262689058e-03,1.309096171280255648e-02,5.805131108306505958e-03,2.812180519104003906e-01
-2.613837711062900748e-01,-2.925432998388815542e-01,1.791475391555635843e-03,-7.660318339640024600e-03,1.834379031817346545e-02,-2.554982308951854898e-03,2.822014391422271729e-01
-3.192058217608382820e-01,-3.181774701555434293e-01,-1.098843846239735966e-02,2.193634367994419954e-03,6.096119519117568046e-03,-5.675706591070872782e-03,3.080659508705139160e-01
-3.113366864310785909e-01,-3.137120314248532105e-01,-1.273652177687656373e-03,1.652783887986801611e-03,2.111852718097554076e-03,-2.647462521926912012e-03,3.113259375095367432e-01
-2.889511450619289823e-01,-2.974925031515717189e-01,-1.256273126418766539e-03,-9.297490327920753320e-03,1.568113931139277287e-02,-9.413800060296352926e-03,2.942133247852325439e-01
-2.485320339337493412e-01,-2.934982477796652667e-01,-3.170435671049012805e-02,-1.669465788000809234e-02,1.662974290304409380e-02,-8.381193359540742988e-03,2.462978512048721313e-01
-2.522096066981969753e-01,-3.251849440382493794e-01,-3.561020560711500305e-02,-3.891837606152060564e-02,2.307911081124407529e-02,-1.443288620155285841e-02,2.735212743282318115e-01
-2.648581996296738850e-01,-3.654131873072852255e-01,-2.343460503670799500e-02,1.554250326937766519e-02,2.760488148495304425e-02,1.113205081934598266e-02,3.099283277988433838e-01
-2.430299125520030967e-01,-3.498467878154114530e-01,-2.345217721608292005e-02,-2.623922765600516464e-03,4.557638500429277151e-02,-1.249262380985690854e-02,2.996653318405151367e-01
-3.331433240529482753e-01,-3.336354479344126878e-01,-1.833979801353774475e-02,-2.489400415454647800e-04,1.239474407067118859e-02,3.960700169548069319e-03,3.158552944660186768e-01
-3.472840522632867910e-01,-3.608247151951556320e-01,-2.764438220832121651e-02,-3.846987361510717258e-03,1.208868299702411074e-02,1.555856558424151530e-03,3.273699283599853516e-01
-2.887133016286289044e-01,-3.306004403159640281e-01,-1.961186410467763430e-02,8.499375287136374775e-04,1.345585695212373270e-02,6.764890288712130991e-04,2.932383418083190918e-01
-3.154016238610779510e-01,-3.605359633994384416e-01,-3.082520862981491527e-02,-2.468863246046570578e-02,3.823108727799462425e-02,-6.209111908093423171e-03,3.196781277656555176e-01
-2.022953437114593522e-01,-2.649467241915149929e-01,1.729943715895798650e-02,2.661571470921898427e-02,2.402989409958337236e-02,6.115609981054365499e-03,2.643381953239440918e-01
-2.686484214880374699e-01,-2.984836826918489949e-01,2.434425687120600479e-04,1.749795651786642883e-02,-2.653176695828132758e-02,-1.554981099050364510e-02,2.914981544017791748e-01
-3.240503723396798152e-01,-3.939405636351566153e-01,-4.358020438465981528e-02,6.557955461555668546e-03,-2.497514756610659178e-02,-6.736608655616214796e-03,3.244791328907012939e-01
-3.323787470125693644e-01,-3.242146408617255227e-01,-2.708741837603673153e-02,1.177783327391162963e-03,9.246962096560696134e-03,6.162688160366944050e-03,3.019132912158966064e-01
-3.182455678726051618e-01,-3.010355122666618644e-01,-1.116441335848292193e-02,7.099619870950952573e-03,-1.388935193970950062e-02,-1.076766434114640944e-02,3.006458282470703125e-01
-3.056148819089901103e-01,-3.350957960966334248e-01,-3.116700793705021177e-02,3.549046804232599498e-03,-1.457815535698666135e-02,-1.257659163317347006e-02,2.922868430614471436e-01
-3.661573598561094767e-01,-3.679566955407470585e-01,-5.894365378379815001e-02,-7.288785970277709622e-03,-8.969129058357557666e-03,-1.595777059774965189e-03,3.087792694568634033e-01
-2.991129891074086333e-01,-3.035573283266197464e-01,-1.072100828181227206e-02,-3.117308376598885815e-03,8.985329819330655637e-03,-1.092572884217858642e-02,2.917205393314361572e-01
-2.829349181657576651e-01,-2.852038386464401110e-01,-2.108828038016183348e-02,-4.543788179232479546e-03,5.933722248936461503e-03,-6.660021696515882640e-03,2.635594010353088379e-01
-3.000963125539986009e-01,-2.999794406495362997e-01,-1.394655894471141799e-02,-1.072801597886904358e-02,1.129291237995321169e-02,-1.707171031053553514e-02,2.888779044151306152e-01
-2.971643193821321693e-01,-2.918573113129618313e-01,-7.637029488957058909e-03,-6.181181338066011818e-03,1.179318557240787053e-02,-9.390505047376753942e-03,2.882951498031616211e-01
-2.777411387425365308e-01,-2.908737777732141039e-01,-1.583046526621556538e-02,-1.052289058909410165e-02,9.634447011195338903e-03,-8.342136970750582345e-03,2.702381908893585205e-01
-3.387315640331254318e-01,-3.401870694543445151e-01,-3.089216257010449218e-02,4.002130534171637055e-03,-3.258772892523977742e-04,1.728221851304954969e-03,3.086626231670379639e-01
-3.707212216811457961e-01,-3.569562066412750312e-01,-3.738643093841453879e-02,-1.786950812402269412e-02,1.574220412958428003e-02,-1.651305466406319603e-02,3.305036425590515137e-01
-3.577929658782919020e-01,-3.546454553273450383e-01,-6.066662704472713941e-02,1.982642484016257367e-03,-6.120740285946027655e-03,8.809287208559023197e-03,2.961684465408325195e-01
-3.365134314027651841e-01,-3.416622589948430377e-01,-6.053708544076097375e-02,6.739860601229191728e-03,-2.874938806936969994e-03,8.962732255922301744e-03,2.793071269989013672e-01
-3.801467701604668292e-01,-3.683637594048707609e-01,-7.514540737373662238e-02,9.088937720479270052e-03,1.904537954852016102e-02,-2.202616423912301651e-03,3.015317618846893311e-01
-3.521389161358750020e-01,-3.379795421861801485e-01,-3.384390714570564840e-02,-1.169924780071191543e-05,-6.039841937215653829e-03,-6.961463102315579440e-05,3.116324841976165771e-01
-3.119976972241430557e-01,-3.133520566788671191e-01,-1.347889143538466561e-02,-3.361510733399958230e-03,1.563686954018718434e-02,-1.003860842267166598e-02,3.009806871414184570e-01
-3.452933176711234786e-01,-3.457915062092510317e-01,-3.024609337856512536e-02,1.941393353681499260e-03,9.560153867768548044e-03,-5.821071825116440161e-03,3.159099519252777100e-01
-3.126676859235050787e-01,-3.170503207605989693e-01,-2.211232330642806665e-02,-1.770204997737630237e-02,1.042198559973322829e-02,-2.348835044318601725e-02,2.977181077003479004e-01
-3.358543447326107767e-01,-3.286148079695180857e-01,-2.011780172874813588e-02,1.684928127438054283e-03,8.735427322650099816e-03,-1.266558708655494405e-03,3.125675022602081299e-01
-3.363595781288366005e-01,-3.433471240516649536e-01,-2.233073323617479344e-02,-5.884562980107424989e-04,5.149239375724101904e-03,-4.735896357362971536e-03,3.178130090236663818e-01
-3.011119978350470516e-01,-2.988785104324366282e-01,1.454070402691465258e-03,7.535827235063296452e-05,5.347901558868464050e-03,-2.049922858657478482e-03,3.016187250614166260e-01
-3.319509933731208395e-01,-3.633140707754313747e-01,-3.445045459605908245e-02,-2.620503671037242854e-02,3.312380902732026816e-02,-2.052080415790316636e-02,3.247086703777313232e-01
-3.105034596691770843e-01,-3.075730591734393005e-01,-1.012968374097550361e-02,-1.639651685854479762e-02,1.269065329755126453e-02,-3.009153542389097352e-02,3.055469989776611328e-01
-2.455597561733167122e-01,-1.939486046046156598e-01,-8.526434719812653329e-03,-3.971541696599025645e-02,-8.578891789865376177e-03,9.848926113967175142e-03,2.277250140905380249e-01
-2.882338803369932645e-01,-2.402676957289307247e-01,-3.434083573924670563e-02,-1.213928730946690557e-02,-8.539133621359801469e-04,8.183609297338786948e-03,2.350092381238937378e-01
-3.257079385491525314e-01,-2.217763492251084712e-01,-4.559976633363790888e-02,-4.945829373587164179e-02,-8.333291292278569018e-03,1.582534605770038669e-02,2.616262733936309814e-01
-3.115010219118898860e-01,-2.476095944553061701e-01,-4.400917409470678221e-02,-6.199444041780061317e-03,-4.021683283229045107e-03,1.172254992772820900e-02,2.431453168392181396e-01
-3.254110489699923447e-01,-2.368826566306729275e-01,-4.540220074095319136e-02,-1.160853044944125390e-02,-3.175983478954086739e-03,1.014022262700424101e-02,2.493922710418701172e-01
-2.648609120548000018e-01,-1.585289650100489278e-01,-4.596354427626098138e-03,-2.870317511861748480e-02,-7.931876247993758372e-03,1.631170705017060199e-02,2.341543585062026978e-01
-3.116551874816050338e-01,-1.904650920651956014e-01,-3.403380321822496724e-02,-2.782283936870743463e-02,-5.412417381348158009e-03,-4.937965567011791575e-03,2.461687922477722168e-01
-3.244252323999043397e-01,-3.311701347455833777e-01,-2.557473909550544988e-02,2.369010587438571264e-03,2.268523511951641824e-03,3.374082381525406898e-04,3.023333251476287842e-01
-3.322448602387691463e-01,-3.408361119057288224e-01,-3.268567689748103078e-02,-5.776726757948915042e-04,-4.111117642857865101e-03,2.649283451556492391e-03,3.040655553340911865e-01
-3.172680535368974097e-01,-3.223225094664961543e-01,-1.144033028225671655e-02,4.437273223610462870e-03,8.336516476091442940e-04,-3.878586594430912101e-04,3.084858953952789307e-01
-2.809765398247722201e-01,-2.887781923616392632e-01,-3.551485655278710518e-02,-1.157943980276732350e-02,-7.534294728761064923e-03,1.158256676399295818e-02,2.514007389545440674e-01
-2.986611084984437392e-01,-2.944482118848996133e-01,-3.753162200031051610e-03,8.368717466793025583e-03,1.827012813253498435e-03,4.649839121590337854e-03,2.933104336261749268e-01
-3.161668952042072656e-01,-3.124677174256311196e-01,-6.884361904972491342e-03,5.823526791937917680e-04,3.621382530074895249e-03,4.930395388017250018e-03,3.076338171958923340e-01
-3.076373931295894870e-01,-3.086510217356286390e-01,-5.496903425873694848e-03,9.267385440174912958e-04,-3.860362026595585538e-03,4.474744729699224773e-03,3.028258681297302246e-01
-3.078632305952089254e-01,-2.864424240744291583e-01,3.862230503804409132e-04,5.799405507922521198e-04,2.574858531717809287e-03,1.433822134966009770e-02,2.991843521595001221e-01
-3.244399077282102972e-01,-2.931672188972979098e-01,-1.126511329418797280e-02,3.934483914656778172e-03,-5.394136132514854021e-03,2.540398688665121071e-02,3.022125661373138428e-01
-3.197899627139567658e-01,-3.208042395105785149e-01,-1.020983819264231762e-02,8.733557670963132576e-04,-2.823166571908544177e-03,1.872028976255870822e-03,3.101477026939392090e-01
-2.754800238021566927e-01,-2.766050629121243887e-01,-1.186049424058044366e-02,7.638036436438026301e-03,8.544684307151651642e-03,7.689610533764758456e-03,2.652631700038909912e-01
-3.055258047598518600e-01,-3.097096471505890181e-01,-5.046699555583122887e-03,9.887156207353496595e-04,-2.482845206524980728e-03,6.139502775391580611e-03,3.028149008750915527e-01
-2.826173268855617371e-01,-2.877752894164956610e-01,-9.159739835607111358e-03,1.047569589364375810e-02,1.018454965685926597e-02,8.913736052383285438e-03,2.776596844196319580e-01
-2.485495195325149176e-01,-2.232663004645475679e-01,-1.380941748429406757e-02,2.477480973716704449e-02,6.217531449670907380e-03,6.999101581881430820e-03,2.278409153223037720e-01
-2.887117000354396112e-01,-2.833904400429979598e-01,-2.228282782168081178e-02,9.403248366873194486e-03,7.111527367457414622e-03,7.365170945099010213e-03,2.649049758911132812e-01
-2.441492805506075559e-01,-1.975147239476790217e-01,-1.575306740744394918e-02,6.172152968974829734e-02,-7.120833935868084441e-03,-1.363238382398434222e-02,2.362768352031707764e-01
-2.142666509172317379e-01,-1.615965309815146078e-01,1.308172708624794067e-03,9.419705705701932053e-02,-1.444024516815155430e-02,-1.529755538372000283e-02,2.565914094448089600e-01
-2.372508110775308765e-01,-2.800595425299133856e-01,-3.625044242596869859e-02,2.700517340006567887e-02,2.153728457447358358e-03,4.635167022358449226e-03,2.304441630840301514e-01
-2.547987851132621495e-01,-2.653148448611642451e-01,-2.648102108907582353e-02,1.119472876223545806e-02,1.046783793451821695e-02,1.189900914953562899e-02,2.361568212509155273e-01
-2.916296593661184544e-01,-2.858433921064160166e-01,-4.344137766539829526e-03,-6.767754544079026581e-03,-1.094696035480496009e-02,1.290883767102689317e-02,2.861834466457366943e-01
-2.130153399022712557e-01,-2.335800510383783668e-01,-7.207889053843397065e-03,3.066376063832263604e-02,-4.562236734616707638e-03,-7.667893309682307854e-03,2.237668782472610474e-01
-2.762376262887663025e-01,-3.257457221747100395e-01,-6.153353818225984484e-02,3.907788402666408090e-02,3.747077215839394234e-03,3.195770350738403286e-03,2.526509165763854980e-01
-3.204848710741100559e-01,-3.138215409572686077e-01,-8.083454083324392858e-04,1.006632996404553193e-03,2.365777715144097538e-04,1.643429031819599977e-03,3.164153695106506348e-01
-3.395201383909619008e-01,-3.252703364936438968e-01,-5.760743648531674310e-02,3.811693292570289722e-03,-1.021016556196604683e-02,-2.647290181678327769e-05,2.757117450237274170e-01
-3.072051112846432286e-01,-3.097276998799532999e-01,-9.883257377242465891e-03,-2.288023872025997992e-03,-5.503854586026336697e-03,5.549134595565461368e-03,2.989241182804107666e-01
-3.122766623984677414e-01,-3.132522108271413308e-01,-1.465334905965839929e-02,8.882426308130004708e-03,6.940842365370153422e-03,8.922503226127631408e-04,2.987549901008605957e-01
-3.566360091967131773e-01,-3.505954351874308594e-01,-4.502346267831291993e-02,4.389878835602451651e-03,6.361980777238662906e-03,-1.518405622016583004e-03,3.089380264282226562e-01
-3.331761258269897996e-01,-3.330620232559412530e-01,-6.673519356744392339e-02,-4.946615833739108695e-03,9.847856100236928450e-03,1.512891891939490080e-04,2.670670151710510254e-01
-2.892674256216481998e-01,-3.573865162184631794e-01,-2.236209343967210383e-02,-7.574049528390715963e-03,3.164924773159671911e-02,-2.207671938463325392e-02,3.141644299030303955e-01
-3.306865968536407685e-01,-3.290731298857709763e-01,-2.190591753001455699e-02,1.043584098749379295e-03,1.291611256088419021e-02,-6.554336739666264885e-03,3.090024590492248535e-01
-3.490967024984352740e-01,-3.447314379064849166e-01,-3.492743138291476424e-02,5.575131878145278379e-03,-2.267807906972079193e-03,1.700230881717785646e-03,3.121975362300872803e-01
-6.290319207630320486e-01,-4.466078658699814130e-01,-1.438541937117671643e-01,2.192601270530500704e-02,2.558962631106129898e-02,1.173418521663198155e-01,4.742171764373779297e-01
-3.412543924733860701e-01,-3.386961437750799497e-01,-3.239369107935416436e-02,1.269663193899580461e-02,-1.214627682979607139e-02,-1.765812637460752871e-02,3.106009960174560547e-01
-3.251689056491416929e-01,-3.300431342721635297e-01,-2.949147547235095312e-02,1.980703730107303065e-03,8.862475180932586705e-04,3.604147958241781316e-03,2.982334494590759277e-01
-3.280798994245799904e-01,-3.112194198335315187e-01,-2.985736112273690290e-02,-9.812422192457197212e-03,-2.322310997179474409e-02,1.852075333232625076e-02,2.951755821704864502e-01
-3.334830423468764238e-01,-3.215198539760423246e-01,-1.393030191387695238e-02,-2.421457153359922541e-03,-2.287835599827600999e-02,7.201254077232854475e-03,3.165085017681121826e-01
-3.436224200789881333e-01,-3.500998296967981482e-01,-7.244641610269150767e-02,-3.397671620970504512e-04,6.805188184325866411e-03,-1.013268513549187358e-02,2.752856612205505371e-01
-1.959198512241809298e-01,-1.751023991465795737e-01,4.726092917278490457e-04,-1.133751555399100941e-01,-4.889497315200685458e-03,9.576578673227861133e-03,2.717050015926361084e-01
-1.206510549252328562e-01,-1.525844269556106136e-01,9.947810623784447692e-02,-9.101446944806471095e-02,-3.904576005784777051e-03,7.540035350698753511e-03,2.856103181838989258e-01
-3.560666415574331722e-01,-3.006454627963264792e-01,-3.926859839099483551e-02,-4.908074362977978694e-02,1.603394051896760500e-02,-2.795265076129975837e-02,3.101890683174133301e-01
-3.089437713412744313e-01,-2.897553225058202564e-01,-6.126720846706854018e-02,-7.010184548796875859e-02,-4.765795017928378641e-05,3.355536942960266836e-03,2.678356468677520752e-01
-2.471335977669280037e-01,-2.816849935033210461e-01,-3.176295812574889132e-02,-2.600845783157620592e-02,-2.273357451034272239e-02,1.580384510170197709e-02,2.436159253120422363e-01
-2.975363961887360076e-01,-3.184968234571809442e-01,-1.979709519846639676e-02,-2.614603461411583486e-03,-1.224336004065247792e-02,1.169629208962686198e-02,2.903112173080444336e-01
-2.032753719669255776e-01,-2.179463050943296620e-01,-7.861401255998351489e-03,-4.788956199780414202e-02,-4.231645891098966342e-03,-6.282824623596185544e-04,2.195538580417633057e-01
-3.249080546780382384e-01,-3.281094740581816382e-01,-2.502581768526448980e-02,-4.161127364685504593e-03,5.981052634168504759e-03,-1.697203007995772643e-05,3.017596900463104248e-01
-3.377501244779814726e-01,-3.392363376050090973e-01,-8.695226233444447450e-02,-5.834100471088649910e-03,-6.099947541082700875e-03,-1.436006330731754918e-02,2.531933784484863281e-01
-3.391658532377566648e-01,-3.381575163363234604e-01,-1.105248871878087846e-01,-1.171055477075474667e-03,-1.880425441174071906e-03,-5.515447099893207999e-03,2.283706218004226685e-01
-3.220071205102441603e-01,-3.213323976602601162e-01,-1.761736727238655265e-02,-2.359110098434780492e-03,3.872083179684229423e-03,1.392979292773683579e-04,3.041544556617736816e-01
-3.031687346660507654e-01,-3.077918573821991077e-01,-1.746224540049551299e-03,1.232286520402903381e-02,2.387248462346501510e-02,1.436644288694088889e-02,3.083096444606781006e-01
-2.960418618463890317e-01,-2.870321838536563641e-01,-2.284061580248825107e-03,1.152530095420079177e-02,1.465472773923407607e-02,1.795947636845468889e-02,2.928114831447601318e-01
-3.869840725386682889e-01,-3.706502682404621551e-01,-8.269976229443221083e-02,-7.554474346512015520e-03,6.562101258162426854e-04,-3.805089087100544006e-03,2.968190610408782959e-01
-1.925622200228054304e-01,-3.772957342080637266e-01,-5.084739886434841427e-02,9.190490472370575759e-02,-2.361255857533366143e-02,5.292073965188515486e-03,3.278494179248809814e-01
-3.223799572635985822e-01,-2.388436428654464594e-01,-1.778765886108493732e-02,-2.398235287260196483e-02,1.910791259724994515e-02,-3.615940177649758225e-02,2.846990823745727539e-01
-1.863975468328164242e-01,-2.919666260603644425e-01,-2.306818694748918874e-02,1.424989542786031516e-01,1.905125077227294789e-03,1.365209048090207855e-03,3.405850529670715332e-01
-1.549694040809878048e-01,-2.825167078502121010e-01,-1.362650939727927391e-02,6.717850303824113301e-02,-2.894014710489291667e-02,-1.723024117809947992e-02,2.668634951114654541e-01
-9.321489672152892536e-02,-2.382294493105161781e-01,3.083935362073528252e-02,8.272764696114483229e-02,1.865055818902794761e-03,-3.534731664575148976e-03,2.738391160964965820e-01
-1.956194931739097809e-01,-3.133518053832120565e-01,-2.127999643611583336e-02,6.790006738254425467e-02,1.457452829161320559e-02,3.043611405713320898e-03,2.815614342689514160e-01
-2.011493213352878451e-01,-3.117080810506515087e-01,-4.129079193620402433e-02,7.081258734054884929e-02,1.013202102030088571e-02,4.332296746506239873e-03,2.661941051483154297e-01
-2.737678194734814996e-01,-1.630963786782612113e-01,-1.305089934685513264e-02,-3.589119895510611835e-02,3.016806061122017952e-03,-1.343168307873400698e-02,2.362215667963027954e-01
-3.051484022986605815e-01,-2.527077775787123226e-01,-5.546849729528013917e-03,1.315255337113092719e-02,1.541507203207442139e-02,2.572853434128451536e-02,2.828736901283264160e-01
-3.427110414206228639e-01,-3.317150895883833606e-01,-5.106892854475994503e-02,-1.928971728702140974e-03,2.585488277134581712e-03,-4.978364901644057039e-03,2.864868640899658203e-01
-3.348743056618352365e-01,-3.383423677637853455e-01,-2.633508318981242491e-02,5.374691478517100961e-04,1.415857775034287582e-03,-3.399100358587499597e-04,3.102994263172149658e-01
-1.702189119266655504e-01,-2.899896696420706244e-01,-2.068747110082841401e-03,-4.066293881704478863e-03,-2.277238826324053458e-02,-8.299261344337489996e-04,2.537053525447845459e-01
-1.394117801200961682e-01,-2.843977638227452864e-01,-1.273759102100846530e-02,8.945943922001741919e-03,5.108817499608700637e-03,-3.736043467064076523e-04,2.361187785863876343e-01
-1.352801883368642266e-01,-2.876665785731574720e-01,-1.329880122543650178e-02,5.673306722063197784e-03,4.899175741084769477e-03,-1.699545341539713834e-03,2.384672015905380249e-01
-1.556866515373764304e-01,-3.597429538389591563e-01,-2.371783422526954621e-02,6.400008327490005599e-04,-1.348392150842664654e-03,-6.753164299503293562e-03,2.934745550155639648e-01
-1.487637126982661318e-01,-3.292973843184405780e-01,-3.331880123928598891e-02,-1.228737545800782059e-02,-1.348239451989277377e-03,3.845233495170758548e-03,2.593537569046020508e-01
-1.129375284788562972e-01,-2.910157207212648589e-01,-2.076971085913537074e-03,2.510643398716521073e-03,-2.234827713786426140e-02,-3.559832993909533422e-03,2.555367350578308105e-01
-1.513345658739067012e-01,-3.401912006852579329e-01,-2.267130636011799316e-02,-2.302861717691047881e-03,-1.015100355084125328e-02,3.062402082776648584e-04,2.772098481655120850e-01
-3.144188478252100127e-01,-3.852667713364655855e-01,-4.119387795651588413e-02,-2.323724905187224410e-02,-4.068341718768208465e-02,2.132672237543131386e-02,3.270757496356964111e-01
-1.296873444090465288e-01,-3.106325484803203474e-01,-6.342450544793015732e-03,-8.718422344059915952e-03,-8.145333574487739758e-03,-2.274297689923737709e-03,2.659255266189575195e-01
-3.443848776075234541e-01,-1.754438365170050695e-01,9.420294974748055772e-03,5.238432820097920634e-02,-7.757545831416388232e-03,-1.208505011950306365e-02,3.206212818622589111e-01
-2.812059357277070237e-01,-1.244630429353775353e-01,7.931190473362104143e-03,2.578371064514203143e-02,-4.173323367771198528e-03,7.592524159565147571e-04,2.547484934329986572e-01
-3.125541845909097782e-01,-1.666472295758090749e-01,-2.855256768225500341e-02,2.308863347373034391e-02,-8.092131645570375172e-04,1.488054613136593346e-02,2.505463063716888428e-01
-2.643817473599620049e-01,-8.706172720245035357e-02,1.741685032244533193e-02,2.661620708715996958e-02,5.508558145397368828e-03,1.088330514930068056e-02,2.519046366214752197e-01
-2.170018812118624796e-01,-6.826350957048682444e-02,4.732467401019468944e-02,4.846696633104632945e-02,-1.262937843474827571e-02,6.671542403671021880e-03,2.456324547529220581e-01
-3.969504137357836582e-01,-2.149140950905215897e-01,-7.494255849270536896e-02,1.400773889962106909e-02,1.130765543014519876e-02,3.520303898462527614e-02,2.879221439361572266e-01
-2.617683312048996735e-01,-2.052737022884098400e-02,7.340774714522277367e-02,2.389063295097922437e-02,-1.786244988707101633e-02,-1.642188979249451376e-04,3.038940131664276123e-01
-4.235521292602947296e-01,-1.376651064614951570e-01,-3.328384389891994588e-02,3.887534253889929348e-02,1.376919520744489950e-02,1.672251314387504517e-02,3.583429455757141113e-01
-3.614489217781420849e-01,-3.603179415392598894e-01,-7.819580103029757923e-02,-2.104510594409501629e-03,-4.086462663311050091e-03,-1.478444985960301189e-02,2.839584052562713623e-01
-3.398104889389673144e-01,-3.415457824077355875e-01,-5.640888233699928311e-02,-5.158991508105318161e-03,-2.102146764340308543e-03,-1.687932233141596627e-02,2.859354913234710693e-01
-3.370526216060633073e-01,-3.497966511519320365e-01,-6.863899298187214892e-02,-8.179816957250276785e-03,-3.101507344639845183e-03,-1.482497768709407915e-02,2.766186594963073730e-01
-3.221254987574967976e-01,-3.265034095165160744e-01,-6.586280136681341157e-02,2.130365985200615049e-03,2.843650192226164757e-03,-8.773115544676773903e-03,2.589988708496093750e-01
-3.538210933439123740e-01,-3.583540441788660713e-01,-9.508993702931684000e-02,-3.915286405175189000e-03,2.433119910862231641e-03,-1.297110514887826228e-02,2.621138393878936768e-01
-3.304555807700872427e-01,-3.299938748554671619e-01,-4.914170624565952772e-02,-2.837111446561180628e-03,-4.574413074600636696e-03,2.326691914774049134e-04,2.812381684780120850e-01
-3.121054961238678982e-01,-3.142006664346970179e-01,-5.666396971191617338e-03,-7.338634728962638862e-04,1.028338953441224361e-03,2.498828322033235395e-03,3.075302839279174805e-01
-2.880579941756510887e-01,-2.513773006844162161e-01,-3.312237939769158146e-02,2.231059124619480874e-02,1.122558542059617914e-02,1.136212960844210605e-02,2.434030622243881226e-01
-2.613585176722789671e-01,-2.780334396841729339e-01,-3.580182568398890264e-02,3.156455633937679979e-03,-3.679195500291642762e-04,-1.792372176769265434e-03,2.344247102737426758e-01
-2.590825265626788276e-01,-2.586211498449589863e-01,-3.470290094713746054e-02,1.402838637533669955e-02,4.592594135854161444e-03,4.522461035535663143e-03,2.257386296987533569e-01
-3.071598208624040649e-01,-3.012607280164350532e-01,-1.246005509640937814e-02,-8.453399468647611499e-04,-8.640428971394133878e-03,2.690928469406825459e-03,2.922193109989166260e-01
-2.496021510499363827e-01,-2.410114316324275530e-01,-2.028292386045665863e-02,2.742856318403006158e-02,-8.802614898956241316e-03,-9.967373244432652796e-03,2.312543541193008423e-01
-2.996152457011335701e-01,-3.043299578625741630e-01,-6.072720960108937693e-02,3.284833749751921161e-02,-3.123171706413362808e-03,-5.413528442615667124e-03,2.481334954500198364e-01
-2.495216964632766266e-01,-2.269611103001049623e-01,-1.636207913833648275e-02,2.622115691567790396e-02,-4.670160381655400449e-03,-4.596449087824479307e-03,2.276041060686111450e-01
-2.387599273443130610e-01,-2.236840667897451729e-01,-1.118952018983887520e-02,2.618694176621380251e-02,-9.234153319012027017e-03,-7.238940778356538208e-03,2.259536087512969971e-01
-3.173271327865651026e-01,-3.622443808231488038e-01,-3.497279678742609699e-02,4.102573417365523722e-02,4.845929018472115019e-02,4.166450757906667302e-02,3.342546224594116211e-01
-2.609265940843697451e-01,-2.776097855725613295e-01,-6.212794944737920488e-03,1.645917692480190070e-02,1.844773187358602143e-02,1.358270269655309677e-02,2.679440677165985107e-01
-2.708120364512990319e-01,-2.560077283912284840e-01,1.161112307542383482e-02,3.006034715552250228e-02,2.206015872327687574e-02,2.973798485712105324e-02,2.874453067779541016e-01
-2.704727658196970919e-01,-2.901003693901782476e-01,1.664993645014156698e-03,-1.038074742397048725e-03,1.568711414283660913e-02,-9.244676419121625275e-04,2.837775051593780518e-01
-3.151494122901932204e-01,-3.054273437279641512e-01,-6.010588320710358312e-03,1.480722219327115612e-02,2.200752884690115874e-02,2.303278585153772928e-02,3.104160726070404053e-01
-2.636834073720348837e-01,-2.323296661815894004e-01,-2.904586491822463978e-02,2.456737271463086889e-02,-2.979845766398241808e-03,-4.037134655664873471e-03,2.248716801404953003e-01
-2.978589187679286931e-01,-1.986252889673848221e-01,-3.108718353171185944e-02,6.195831994281150029e-02,-1.698237695470712280e-03,-6.368092316644249559e-03,2.572713494300842285e-01
-2.481298589085081940e-01,-2.150693339695840534e-01,-1.854707180927103738e-02,2.399213384655876635e-02,1.687357101705172936e-03,7.600099405013922491e-03,2.193623036146163940e-01
-2.748234209422022456e-01,-2.310594244591962498e-01,-3.199767806886255617e-02,2.816373338695065190e-02,4.182721643466970167e-03,7.139530160332458950e-03,2.298642992973327637e-01
-2.574029767801611079e-01,-2.311194136070848226e-01,-2.439263412528461239e-02,2.213621455786867961e-02,1.120608355737175111e-04,5.216296889419910592e-03,2.245261818170547485e-01
-2.908313845911483231e-01,-2.135752385772637096e-01,-3.303158338065165234e-02,3.542943950727700519e-02,6.697709287925359377e-03,4.764778971461230798e-03,2.376574277877807617e-01
-2.817499196992624411e-01,-2.209734759150018546e-01,-1.199357157557900955e-02,3.616065800526678531e-02,-1.099626294162313681e-02,-2.528143473208764591e-02,2.574304044246673584e-01
-3.212919946056152498e-01,-1.684423276352586263e-01,-3.159897143697956712e-02,5.680606020109831705e-02,2.019206789453735842e-03,-3.393099943984208191e-03,2.696908414363861084e-01
-3.167087176240294122e-01,-2.571060065534190864e-01,-2.292318085714512010e-02,1.033989966003316489e-02,-1.170994487464234977e-02,-2.378918016608150277e-02,2.734627723693847656e-01
-3.201870141448859286e-01,-1.572104684237931038e-01,-1.362063869097118740e-02,1.916460343438832967e-02,-5.429810808402629752e-03,-2.400210068168358649e-02,2.711083889007568359e-01
-3.301100190391342837e-01,-1.872203072328353368e-01,-3.470460878358438972e-02,5.192033202878462705e-02,6.013498063398974589e-04,-1.945274799337361193e-02,2.733036875724792480e-01
-3.684300270758223417e-01,-2.742467152352074389e-01,-1.176897623467951237e-02,3.230685725526526858e-02,-3.314731138620075762e-02,-5.606446203891961994e-02,3.440104424953460693e-01
-3.522121085714055022e-01,-2.817506873344934326e-01,-2.010414945150315602e-02,2.051078281938884321e-02,3.871359248228402241e-03,-3.960858255908154824e-02,3.128470480442047119e-01
-3.207432969140040502e-01,-3.178247314814153790e-01,-2.558872797574357483e-03,1.378234029052381694e-03,5.771277119308714388e-04,8.970287749880137768e-04,3.167496025562286377e-01
-3.117962949999624200e-01,-1.634590398374963782e-01,5.269138340031620515e-04,2.205904675316153196e-02,-2.042905089953095041e-02,-5.245421771029123298e-02,2.901495099067687988e-01
-3.034226743216303923e-01,-3.001789187568022488e-01,-2.058134993863461326e-02,3.916979228239319925e-03,1.110140601970496625e-02,9.100879861474238386e-03,2.824119329452514648e-01
-2.521389241835099160e-01,-2.874726459754295416e-01,-1.734966842805235610e-02,2.981957164381848074e-02,2.508171118733565005e-02,1.883636791101794133e-02,2.651221752166748047e-01
-2.982757686817882337e-01,-2.705818329659358534e-01,-3.610073851497419550e-04,1.801112168263845764e-02,3.124392973122170833e-02,4.337664008292656248e-02,3.013570606708526611e-01
-2.881563073839344957e-01,-2.918780151877263251e-01,-3.879385033758286916e-03,7.662892568505948188e-03,1.468350377337110380e-02,1.074818895370594635e-02,2.881922423839569092e-01
-2.775987446553904725e-01,-2.918865956786165228e-01,-3.786421779480159122e-03,-4.520904653793408369e-03,1.798164938119443555e-03,7.227524495913405754e-03,2.816331684589385986e-01
-2.880467439506759764e-01,-3.174003161955825658e-01,-2.527555941348633151e-02,-6.424638471475854762e-03,-1.545990739192838054e-02,1.388720237184779688e-02,2.811459004878997803e-01
-2.810924822273707657e-01,-3.063084197932166020e-01,-1.593676314252032156e-02,-6.055801036657937515e-03,-1.349376432632824405e-02,7.514825334273642771e-03,2.800986170768737793e-01
-2.868921773775592321e-01,-3.098856055593693370e-01,-2.127692870732367236e-02,-1.211621867344304417e-02,-1.883632373103842281e-02,1.208923167057510302e-02,2.813020348548889160e-01
-2.846300718947750719e-01,-3.091501010001672656e-01,-1.738909674104704983e-02,-8.506730295094766872e-03,-1.302573776547900734e-02,7.066977081921165492e-03,2.818646132946014404e-01
-3.342674075082901486e-01,-3.378615315378621364e-01,-1.303412573698678190e-01,1.296323811271176806e-04,-5.367224393957162332e-03,4.106718556900529685e-03,2.060795873403549194e-01
-3.596774831343519385e-01,-3.714735034007553560e-01,-1.112271591429561113e-01,5.789405610939498716e-03,-6.164643990409581636e-03,1.979434368576235906e-03,2.549975514411926270e-01
-3.260805887976487849e-01,-3.297613943583759255e-01,-9.312865912553525138e-02,-1.007024168053409973e-03,3.037359357019839366e-03,8.153222291460109419e-03,2.353035211563110352e-01
-3.307722255049053706e-01,-3.377183864553005566e-01,-1.121590317939536452e-01,-2.480635172246432093e-03,1.589595089068873007e-03,9.684980869519627458e-03,2.228585630655288696e-01
-3.679233422224892913e-01,-3.598234819210537894e-01,-1.524975028842777969e-01,-6.259135991471542759e-03,-1.560830928026617909e-02,-4.443167964722457772e-03,2.136272341012954712e-01
-3.930455802941930088e-01,-3.926331063583803349e-01,-1.653185533885571101e-01,1.598501572068013622e-03,-8.656522553382874074e-03,-1.976869390411010660e-02,2.305877506732940674e-01
-4.014553044935179060e-01,-3.854072902879975282e-01,-1.604092904029567335e-01,2.994681877106851464e-03,-2.939605944467875518e-03,-1.153576948672303815e-02,2.344023436307907104e-01
-3.263604446092885913e-01,-3.276975559378730862e-01,-1.034650028635858698e-01,-2.692527693060629834e-03,-4.430372484543123636e-03,-2.302134758990965785e-04,2.237476110458374023e-01
-3.255020167298995903e-01,-3.259413945540443058e-01,-1.020918598962736734e-01,-3.780759038964286514e-03,-7.500750785174285654e-04,-1.390745471635096301e-03,2.237427681684494019e-01
-3.181899147135252015e-01,-3.219080104312327939e-01,-1.046267757087811778e-01,-7.173265124038478774e-04,-1.824497992411731146e-03,7.298819651673811712e-04,2.154767215251922607e-01
-5.160070219828634119e-01,-5.157595105505592414e-01,-1.668892369724029878e-01,4.650772286928193250e-02,-5.885650745867882644e-02,3.984236593462659598e-03,3.724589645862579346e-01
-3.402540529495320931e-01,-3.421278290322673499e-01,-5.209341912570381039e-02,1.519074592397344752e-03,-7.003640348095920357e-03,3.896576352540053693e-03,2.894471287727355957e-01
-3.410671747936028231e-01,-3.357740198391652164e-01,-8.770333114455836077e-02,3.341012113525230424e-03,9.420039312640708304e-03,-6.338772766290905192e-03,2.515957057476043701e-01
-3.641984036100032185e-01,-3.722491537310262943e-01,-9.812970871444298693e-02,-1.618976922488815293e-02,-2.958491659305282403e-03,-7.716476324615743031e-03,2.720122039318084717e-01
-3.425427968321549388e-01,-3.385443073971227124e-01,-1.034881971883412355e-01,-7.675662748855184439e-04,8.578155388816371962e-03,5.472657151026205993e-03,2.377385199069976807e-01
-3.399728476118751841e-01,-3.349358544664720605e-01,-1.035196539615776123e-01,-1.905447074165430741e-03,1.072355450538290539e-02,4.637021510038028590e-04,2.347360104322433472e-01
-3.162958704214961503e-01,-3.196134883402417248e-01,-3.945721631832932452e-03,-4.276939687263941504e-03,-2.950282179751610116e-03,-3.800040829296428592e-03,3.142199814319610596e-01
-3.118397273808293235e-01,-3.116750453269090948e-01,-3.761849063561639728e-03,-4.787731160546507985e-04,-3.992828448147827357e-03,-2.091175481288503647e-03,3.080956041812896729e-01
-3.165118749238062246e-01,-3.176383558639763183e-01,-7.962611872370572996e-03,-1.299868850221581537e-03,-6.292070644527714487e-03,-5.797817622405034878e-03,3.094772696495056152e-01
-4.138016491025948707e-01,-2.115271593901731639e-01,-4.222882773003241996e-02,-9.462222934590290568e-02,4.523950599657487054e-02,2.986194270260891792e-02,3.734926581382751465e-01
-3.469736478899443921e-01,-2.023170284711856004e-01,-3.781718106342901731e-02,-3.809282643781231742e-02,1.743164567658879926e-03,-9.844426774305956029e-03,2.764683961868286133e-01
-3.205208860254608050e-01,-3.238484485066911445e-01,-1.846786833540936534e-02,6.502645637800516000e-03,3.316291106929981219e-04,4.765258309825984827e-03,3.040518164634704590e-01
-2.868622836839863632e-01,-1.923887952784665567e-01,-2.775792503332846772e-02,-3.286016934723674787e-02,8.602532722254986044e-04,1.370990125069753698e-03,2.341560274362564087e-01
-2.424833852164531012e-01,-1.755102951217577534e-01,2.977026636058588416e-03,-4.261560516067865872e-02,-1.441529416729209895e-02,1.990120241151826369e-02,2.357049286365509033e-01
-2.961589189256392807e-01,-2.093121314824810120e-01,-2.221790217311114812e-02,-3.506302343060091475e-02,-1.534620615160517051e-02,2.115789844911114895e-02,2.540332376956939697e-01
-2.589028155087499394e-01,-1.900921551132167264e-01,-1.873709007089446876e-02,-4.307263754841381131e-02,4.713963989357720583e-03,-5.148203350796579786e-03,2.271573245525360107e-01
-2.015576241277072245e-01,-1.036429309545065930e-01,3.472522772325359330e-02,-7.855926695376255764e-02,2.990937431134772784e-03,7.240346430046671819e-03,2.469414770603179932e-01
-3.189901342448703270e-01,-2.482125574637313870e-01,-5.184672984860261291e-02,-7.070543042729827976e-02,-9.065404498387788501e-03,6.747217581106857744e-03,2.699040472507476807e-01
-3.246519603365901063e-01,-3.198980629601190229e-01,-8.115269397988761346e-03,3.324713269221273720e-03,-6.324896367359330446e-05,8.269265340480605117e-04,3.142427802085876465e-01
-2.424723066361482715e-01,-3.206268107778743603e-01,-4.529767426917466477e-02,-2.428030485588160772e-02,-7.502467011223396855e-03,4.049477798480072971e-03,2.497652918100357056e-01
-2.320492785596491858e-01,-2.978378091007221617e-01,-2.903289057210206581e-02,-4.930517650547944913e-02,-2.167849483814173264e-02,1.780997879767190484e-02,2.618289291858673096e-01
-3.199815239662871513e-01,-3.184454786240367152e-01,-6.413383151272211702e-03,2.942873858350296152e-03,1.881966370852124237e-04,7.226209972717622309e-04,3.128471374511718750e-01
-2.478818180777284663e-01,-2.851282405900062433e-01,-1.382811220755303383e-02,2.369384653307832905e-02,-1.825683905712711247e-02,-1.722659678438198672e-02,2.616495788097381592e-01
-3.153335058825182946e-01,-3.120220412878797478e-01,-1.017007836255867659e-02,3.931463372705655134e-04,-1.064900826923952624e-02,-9.256945988947065662e-03,3.045043349266052246e-01
-3.213348397420614511e-01,-3.171158348627620693e-01,-6.865910554545107125e-03,-4.222558631648406710e-03,-3.975822427831090383e-03,-3.983667427676458248e-03,3.126184344291687012e-01
-2.949055344360480002e-01,-3.031451176258098679e-01,-3.064821642539711233e-03,1.321034132269662030e-03,-9.252654661650632634e-03,-7.384550381588604606e-03,2.967645525932312012e-01
-3.071668074898703527e-01,-3.119885429197017945e-01,-8.903048747166741883e-03,8.546969238497495805e-04,-8.835165916761552815e-03,-7.108106356754613150e-03,3.013480007648468018e-01
-3.150503332900642661e-01,-3.131157990592585705e-01,-7.458149921780204972e-03,-5.641170838566790264e-04,-2.978393067754742541e-03,-5.864182494695124176e-03,3.068425953388214111e-01
-3.102772604349486318e-01,-3.078241593056134651e-01,2.558319889337246078e-04,-6.340143078855614654e-04,-3.352330480461400853e-03,-4.087548849000082786e-03,3.094512820243835449e-01
-3.205256087872854209e-01,-3.281500758844840271e-01,-4.980939823480920459e-02,-5.229194655161325742e-03,2.241912175770125436e-03,-2.173860564262582520e-03,2.748104035854339600e-01
-2.934615442088073789e-01,-3.096414149411900740e-01,-1.431409742552405828e-02,7.323474014478355320e-04,2.134253786861785816e-03,6.731718983899992112e-03,2.878417670726776123e-01
-3.486864318247502315e-01,-3.394443788598701106e-01,-4.002201941858160583e-02,-1.944098168134159163e-03,-2.312493165396770165e-03,5.338421248516509116e-04,3.041951358318328857e-01
-3.251388230112263189e-01,-3.218876281269325013e-01,-5.002190024981409411e-02,4.537496754851724767e-03,1.029187706440684753e-02,2.209060920436377827e-03,2.742254734039306641e-01
-3.197372995931922479e-01,-3.200297982464596069e-01,-4.545685274198518755e-03,3.490478200137271756e-03,-4.327100743329573740e-04,-3.557198842543209702e-04,3.153974115848541260e-01
-3.363569453950505106e-01,-3.698703680635891944e-01,-6.133791142776426342e-02,-4.599814649898368440e-03,6.883382447933908237e-03,1.696654861582247951e-03,2.935808300971984863e-01
-3.308085234824825749e-01,-3.259174214906157552e-01,-4.833252725187311971e-02,2.942740737067723808e-03,-4.581264247564244968e-03,-3.781336061401093570e-03,2.802977561950683594e-01
-3.212185614465687955e-01,-3.225122036070141029e-01,-1.347800427082995744e-02,3.513993788715702102e-03,1.619734358764310031e-02,5.130577208746800759e-04,3.097239434719085693e-01
-3.082900747462024027e-01,-3.113831286372015783e-01,-2.822539034930127144e-03,8.199525101241555763e-04,-3.923829822780033547e-03,2.499501436737293358e-03,3.071347475051879883e-01
-3.101965387512622407e-01,-2.835188557774975804e-01,-2.066656879778761002e-02,-1.959056179804692654e-02,1.734172308143206234e-02,-1.896510847710940542e-02,2.827506363391876221e-01
-2.422993688948215651e-01,-2.969530588275556826e-01,-1.678648789046344181e-02,-2.502952145954778426e-02,2.100297828306951775e-02,-1.520720461090663625e-02,2.646975219249725342e-01
-2.153333365839975588e-01,-2.832661071933781916e-01,-3.781870282020771690e-02,-2.454500713315485236e-02,4.138152653921692813e-03,-1.030271336868389008e-03,2.237125337123870850e-01
-2.937191559698161258e-01,-3.092153125082970355e-01,-5.462901064581718313e-02,-7.784693139625473157e-02,8.473419100231806625e-03,-4.429353916265213464e-03,2.820707261562347412e-01
-3.142173293939704570e-01,-2.980405665755915257e-01,-2.307392520097761857e-03,1.500149476740712763e-03,-5.019950277967767313e-03,-6.471326385774910615e-03,3.044860959053039551e-01
-2.561203461554441008e-01,-2.920953785696001059e-01,-2.891645794965372329e-02,-1.525844435618205729e-02,6.771983266212460578e-03,-8.292975365835857440e-03,2.492625862360000610e-01
-2.541041270475299374e-01,-3.008064331238523570e-01,-1.782569308232323513e-02,-4.048707292217450238e-02,1.659463520609190737e-02,-1.024824707844789254e-02,2.740477919578552246e-01
-2.338137133889851005e-01,-2.681310860194608403e-01,-8.083969075848546071e-03,-3.260844759023256989e-02,1.876538951665590593e-02,-1.223055053433244957e-02,2.541125118732452393e-01
-2.657189357438874411e-01,-2.619655710285341832e-01,-3.240584159746034976e-02,-4.604223718406134230e-03,6.705852693331388172e-04,-7.049945316211856782e-04,2.316027134656906128e-01
-3.325931362009201253e-01,-3.298390604675309756e-01,-1.277593245972284963e-01,2.435375307666492962e-04,1.014465762098744339e-03,-1.099461200315225706e-03,2.034876942634582520e-01
-1.941125135913041311e-01,-3.407523445233897608e-01,-3.274359973624474396e-02,2.376630936418256486e-04,-8.951219834672919165e-03,-1.396114545062104991e-03,2.673063278198242188e-01
-1.164347402174488177e-01,-3.555094273887512424e-01,2.628610763536887163e-02,-1.481330682484915473e-03,2.978202679999771701e-02,4.017385715828773914e-03,3.381756842136383057e-01
-8.218541877519500161e-02,-2.452293966753526233e-01,7.508593944974126244e-02,-5.048986008689188010e-02,1.142782938929676369e-02,-8.610801719134272489e-03,2.919275164604187012e-01
-1.981961567552405906e-02,-2.320042715439005476e-01,4.400591288306729409e-02,-4.389315564401065350e-03,-1.076350553306521310e-02,-1.390229990188925199e-03,2.510975599288940430e-01
-9.591899884789772956e-02,-2.783110694802014562e-01,1.955144700387045908e-03,-5.651980811577936303e-02,-2.906178013281542679e-03,1.609930044019533112e-03,2.651683688163757324e-01
-3.027855069355960826e-01,-2.945387737471536482e-01,1.195992361112896418e-03,2.268960934357793543e-04,-5.873235173670853827e-03,-6.211665049198978120e-03,3.003086745738983154e-01
-2.191940508287670564e-01,-3.512996557436794398e-01,-5.338016744464371688e-02,1.875427004135335474e-02,-2.637868091197315135e-02,-8.780540768039645644e-03,2.650000751018524170e-01
-1.098242174306737762e-01,-2.843974990856757978e-01,1.748075580508184901e-02,4.193915170556195005e-02,-3.298680542959225165e-02,-1.018171891279295339e-02,2.788521051406860352e-01
-1.459707516156661389e-01,-3.354110730139889807e-01,-1.665887903208851384e-02,-3.351466995779562967e-03,-6.665838393163159292e-02,2.047189778228454202e-02,3.028648197650909424e-01
-2.246673724627335500e-01,-3.415838090909221192e-01,-2.336805094818655837e-02,-2.697475676738866728e-03,-3.975161891499860711e-02,-1.111455234663467169e-03,2.872145175933837891e-01
-4.146605797333559329e-02,-2.491230068400337172e-01,4.852447410391788618e-02,-2.410544893389464371e-02,3.768213408596615167e-03,6.711514411204586895e-03,2.680070996284484863e-01
-1.206102372629760250e-01,-3.356043982475525600e-01,-6.375130873234685636e-03,3.915777563851514237e-02,-7.407601681980895136e-03,7.643583623973773493e-03,2.979461550712585449e-01
-3.127561080745393518e-01,-3.141994418115621190e-01,-7.029591296775078435e-03,7.521065276912050753e-04,3.503295997511500937e-03,-3.374468912224295059e-03,3.065692782402038574e-01
-2.858550193100477532e-01,-3.169372369331980854e-01,-7.506264711816618140e-03,-2.277350289238751040e-03,1.534136656435275935e-02,-2.728384790724781156e-03,2.963777780532836914e-01
-3.142627767074706036e-01,-3.102769177888941576e-01,-5.855348162245782584e-03,1.479456185500767828e-03,3.657357263696074060e-03,-2.196712390779861565e-03,3.065337240695953369e-01
-3.082737395412571413e-01,-2.999394802812713201e-01,-1.028547161491741302e-02,1.706095818681135912e-02,1.632218385144833250e-02,1.435655962522427997e-02,2.977814078330993652e-01
-3.094058715108824464e-01,-2.979036754732660164e-01,-5.380815237591957123e-03,1.436514498933185845e-03,1.045311727955571847e-02,1.073872797657741789e-02,2.995772659778594971e-01
-3.085592197849482687e-01,-3.095695720015352870e-01,4.990647646326284992e-04,3.040920916131516368e-04,9.711222576730209853e-04,1.914005470107743405e-03,3.095874786376953125e-01
-2.713291851494945561e-01,-2.645787092723469458e-01,-1.725125337552704807e-02,1.903433878802476484e-02,1.309201921766330913e-02,1.421795312357359425e-02,2.551344633102416992e-01
-2.806921775837835642e-01,-2.679424023732661642e-01,9.180090336048218891e-03,1.193462838975484566e-02,1.294953752307161261e-02,1.569983645449454096e-02,2.866400480270385742e-01
-3.100729651964281297e-01,-3.159865637926222437e-01,-1.173116608686375351e-02,7.454034024330427437e-03,1.397853283182832335e-02,1.707227261299875884e-02,3.040301799774169922e-01
-2.837203731963831577e-01,-2.680009150258520489e-01,-9.269875915664471666e-03,1.494243869419482895e-02,1.380886031058829039e-02,1.803733548979330470e-02,2.710606753826141357e-01
-2.956780430370468116e-01,-3.046812857226648408e-01,-7.339200981840821036e-03,5.198174760638690772e-03,8.793957882956773484e-03,1.152010804772594411e-02,2.941556274890899658e-01
-3.238107127125457452e-01,-3.189462129311588789e-01,-7.224147885460219243e-03,4.381577674395605357e-05,-2.282888105530224161e-03,3.151306725950058949e-04,3.142079114913940430e-01
-3.207065811030775371e-01,-3.127882823016808200e-01,-4.758456186452542092e-03,4.861269788256744449e-05,-2.146173133406508848e-03,-4.153722192888986242e-06,3.120864927768707275e-01
-3.277618227940023443e-01,-3.174933776643431571e-01,-9.365585164253287243e-03,-1.373529302747924889e-03,-2.434215940795648406e-03,-6.655308098288717196e-04,3.134277164936065674e-01
-3.340207771891319788e-01,-3.272663927884865154e-01,-1.654668121985328200e-02,9.429904800299708468e-04,-3.617273785265854354e-03,-3.706687154769574069e-04,3.142187297344207764e-01
-2.914481745103963961e-01,-2.999929034117560511e-01,3.623056138174152174e-03,-1.644903935672803474e-04,-9.739181980305757977e-03,1.034830972195908153e-04,2.999100089073181152e-01
-3.189204284654971744e-01,-3.189189624887833752e-01,-1.578781108756774354e-02,2.331594180309275904e-04,-3.302670128297281824e-03,-3.091405919681552029e-03,3.032334148883819580e-01
-3.684421263477068997e-01,-3.714976039202426139e-01,-8.659998366154733618e-02,-6.555381732157702403e-03,1.147441274958206463e-02,-1.502503242116820384e-03,2.843170166015625000e-01
-3.504626370052634776e-01,-3.446115972336331601e-01,-1.065329639076981472e-01,6.965109261475426958e-03,1.340905315656882972e-02,-1.089073014281429462e-02,2.432065904140472412e-01
-3.204773462070161782e-01,-3.200544170559249668e-01,-7.554337792720577927e-03,3.922956658429403894e-03,9.643363016450148383e-04,-1.868185866866350475e-03,3.128067553043365479e-01
-3.055023373281249288e-01,-2.752080861677680401e-01,-1.789612360697387383e-02,-3.664861161807361507e-03,1.075591229857991368e-02,-8.664886020453965026e-03,2.748360633850097656e-01
-3.971325461497217657e-01,-3.903194989873361442e-01,-9.089733190670304386e-02,-1.174278603554228034e-03,-2.360367526799035751e-03,1.276180462698780181e-02,3.037259876728057861e-01
-5.174808308476958052e-01,-6.339655520613062256e-01,-1.596407929683920091e-01,-1.354248232028269078e-02,-2.465103435085177000e-02,1.865783777277736297e-02,4.321095347404479980e-01
-3.658388491180102897e-01,-3.640881186307084461e-01,-1.162836420717236474e-01,3.838411577266120987e-05,1.337374752811555483e-02,-1.094250990039341911e-02,2.504790425300598145e-01
-3.453573855732672282e-01,-3.403359721727060583e-01,-8.729022343191328304e-02,4.737652433004863918e-03,2.008153903714134450e-02,-3.175358951903867882e-03,2.581383287906646729e-01
-3.887871905460913435e-01,-3.790795949718157032e-01,-1.271629389070554617e-01,3.462209663703285419e-03,1.211099843996505353e-02,-1.173197064106820328e-02,2.586322724819183350e-01
-3.624328533737184443e-01,-3.700171201908101226e-01,-1.562053392870408342e-01,-2.313169815259158695e-03,7.585947649210926340e-03,1.210738282667522293e-02,2.116125077009201050e-01
-3.659824842182329840e-01,-3.776072685157857434e-01,-1.534210970491726722e-01,1.884289590240957385e-03,9.726752918876474877e-03,-1.582442012922171889e-02,2.209845632314682007e-01
-2.396787805841895658e-01,-2.933689444933900159e-01,-8.132868136980497820e-04,9.959267784266860601e-03,-2.462317349646023223e-02,-1.179820931861737601e-02,2.744050621986389160e-01
-3.333375811628649377e-01,-3.364890668075533053e-01,-1.707498696905432323e-02,-5.012712624488090477e-03,1.660032973934764521e-03,-3.574730550593756273e-03,3.180418908596038818e-01
-3.322836792046854337e-01,-3.313495279591906484e-01,-2.202272285458295453e-02,6.744285944012415150e-03,-1.790887323373369783e-02,-1.767016024493168677e-02,3.130626976490020752e-01
-3.160400007668767164e-01,-3.175277657372357898e-01,-9.588316700404136972e-03,1.140508519642136542e-03,-1.066464910446151236e-02,-1.119685006118405039e-02,3.083699047565460205e-01
-3.301729075730817087e-01,-3.205959222920748419e-01,-1.270101833615724929e-02,1.929444994571622102e-03,-1.226830433222787439e-02,-1.352600085708703832e-02,3.144061863422393799e-01
-3.117230417669457077e-01,-3.246769402902020540e-01,-2.115211254914603489e-02,6.999841338438406993e-04,-7.634500717671886122e-03,-6.209029059678248912e-03,2.977503538131713867e-01
-3.461158137394488299e-01,-3.386277584616378955e-01,-2.339246828244934129e-02,-1.148666584920381671e-03,1.102815245994959170e-02,-1.358086981454388262e-02,3.204871118068695068e-01
-2.964399733537078641e-01,-2.961390893429645677e-01,-6.450834665280541502e-03,-1.031459329944283375e-02,2.133425816482945395e-02,-2.675200141213518457e-02,2.963750660419464111e-01
-3.264568735053398063e-01,-3.264635593742925002e-01,-2.680828959157605107e-02,5.741821254177523898e-03,-3.609105337021355307e-05,-1.666484694106725849e-03,2.998308241367340088e-01
-3.892864496736686553e-01,-4.021479638006895674e-01,-7.624863880169985286e-02,-1.567708441729886645e-02,6.968602356711197862e-03,3.594038957142414292e-03,3.211011886596679688e-01
-3.171229691159221931e-01,-3.193679071149760906e-01,-5.658866768973599970e-02,6.984425818356664387e-03,2.178889268020077746e-03,-3.604600130297812483e-05,2.619706690311431885e-01
-3.231420879931055090e-01,-3.246177179653190192e-01,-5.984576476298786307e-02,1.639525550975165199e-03,3.178921384558176452e-03,4.114296221192824073e-04,2.641108632087707520e-01
-3.333051625586170852e-01,-3.455954233293223599e-01,-3.095444785372514218e-02,-3.681251936123660761e-03,1.578283339586713033e-02,-8.711820526819343685e-03,3.103201687335968018e-01
-3.185388160451465556e-01,-3.018688436333724079e-01,-1.086793966516838572e-02,5.345059790006118777e-03,-1.291055176061490888e-02,-2.370886225405414993e-02,3.034509420394897461e-01
-3.014075738614902522e-01,-3.309920925640069678e-01,-1.011184399555883906e-02,2.167121442429989497e-03,-2.407135018781054667e-02,-5.555526532290762549e-03,3.101471662521362305e-01
-3.200595510082467343e-01,-3.304043951068603158e-01,-1.493653274479944670e-02,-6.005044533801042611e-03,-3.270860916405804973e-03,-6.747833408433756390e-04,3.106527924537658691e-01
-3.268261234244852487e-01,-3.340292911458744296e-01,-1.418742153416452378e-02,1.126099265429629211e-03,-5.449514744646410426e-03,-4.198015184986462166e-03,3.165321350097656250e-01
-3.308668571965338590e-01,-3.204804325162541323e-01,-2.655006903346823766e-02,3.526346199077181037e-03,1.229390006358855193e-03,9.579233471747761880e-03,2.997881770133972168e-01
-3.166891404356990680e-01,-3.194627635345333450e-01,-1.405741685598710378e-02,3.314154407444574318e-03,-2.067965086730113276e-03,2.992580481392722886e-03,3.041474819183349609e-01
-3.106732118562087752e-01,-3.012060108249902668e-01,-6.437580758424626959e-03,-1.092650757308205947e-02,-1.324609834949761443e-02,1.195643518719159172e-02,3.017981052398681641e-01
-3.103946120461157365e-01,-3.135454128328009071e-01,-2.100007267557157942e-03,1.431985589662713174e-03,-8.601550857744879805e-03,5.909084393234636037e-03,3.104186356067657471e-01
-3.183444677097414521e-01,-3.184743653308717004e-01,-1.377767049937428379e-02,4.616264051639805410e-03,-1.672772528657984030e-03,2.094841439777536500e-03,3.047720491886138916e-01
-1.542725082435780770e-01,-3.674805830425371123e-01,2.958082749518187171e-02,-8.864878850115097408e-02,1.916806652463497185e-02,7.800734792556436852e-04,3.783366680145263672e-01
-3.305225088156057422e-01,-3.025614750078222115e-01,-2.660627538095655664e-02,8.828780001627651187e-04,-1.348893194098043855e-02,-1.704276568159290850e-02,2.933745682239532471e-01
-2.732794588130137425e-01,-2.607185392813732294e-01,-1.109560683385571456e-02,-1.447831768950593942e-02,-1.443101304276826931e-02,1.075527901766402082e-02,2.592402994632720947e-01
-2.953795730783262963e-01,-2.996863339115217184e-01,-7.011406544298576238e-03,-3.507487029505473256e-03,-8.164544482494788188e-03,5.067526566888381871e-03,2.910852134227752686e-01
-2.725043997550142261e-01,-2.668688681800264750e-01,-1.343741366108483493e-02,-1.264324136256037880e-02,-1.152013417366060284e-02,1.697967947807862282e-02,2.596730887889862061e-01
-2.783175189778047676e-01,-2.829695876265971299e-01,-7.637747850640225211e-03,-1.168138333294432667e-02,-1.099405777307810306e-02,1.288808644561032293e-02,2.753519117832183838e-01
-3.563008002600251967e-01,-3.679382453941070219e-01,-3.518386095853873186e-02,1.714260607316644243e-03,-1.045480863243919943e-02,4.846587559873345892e-03,3.277128338813781738e-01
-2.991187579022083209e-01,-3.038762063923305945e-01,-4.570981545872959684e-03,-1.505938875017666682e-03,-6.272072419331518357e-03,7.072482119244915752e-03,2.974175512790679932e-01
-2.885446661751217556e-01,-2.911752381647851884e-01,-3.418196366868161973e-02,-2.218196008923677826e-02,-1.824171429045359435e-02,9.135393528361101731e-03,2.609620392322540283e-01
-2.964881001654937620e-01,-2.974153018891327327e-01,-6.353780160641780972e-03,-2.715628765653276336e-03,-5.165389997182029923e-03,7.132729410572562039e-03,2.910370826721191406e-01
-3.016362727059750948e-01,-3.152532661227769317e-01,-3.689782258789489622e-02,-1.888925977622532559e-02,-2.169234281665280428e-02,1.461761522935120690e-02,2.774885892868041992e-01
-3.060334173651080292e-01,-2.676350664064638396e-01,-6.823116328306372269e-03,-2.120312983713941099e-03,-1.215611166618710487e-03,1.298795922200117643e-02,2.829064130783081055e-01
-2.515569905457486488e-01,-2.112356130465795068e-01,1.475866856217730727e-02,-3.176975629899825293e-02,-1.776410956665877214e-02,3.332072468832796008e-02,2.629012763500213623e-01
-3.143106131387076174e-01,-2.739472266322134919e-01,-1.094243346019996288e-02,1.348959686462773352e-02,5.813909341489560505e-03,2.539086307473113757e-02,2.898238897323608398e-01
-3.128612360041775897e-01,-2.887431969530253606e-01,-1.547709414143791373e-02,2.002511570528693954e-02,1.609018998676408968e-03,2.878575995966089693e-02,2.924779057502746582e-01
-3.012678170185324467e-01,-2.741612246246053486e-01,-1.414507782900159549e-02,4.900522552400339051e-03,-1.294042796164911018e-02,-9.414963753821193118e-03,2.761007845401763916e-01
-3.126420251362982961e-01,-2.927213966673294920e-01,-2.382265518455911613e-03,-2.189522145642715072e-03,3.194882476599622198e-03,1.426731050887870833e-02,3.018825054168701172e-01
-3.268668516726951356e-01,-3.325577460772063398e-01,-3.513862552277416396e-02,-1.252789897720192971e-04,5.289739496717438781e-03,8.329903201314172844e-04,2.947609424591064453e-01
-3.906993164346022063e-01,-3.865547015082435034e-01,-7.419294046900618000e-02,-3.984282371624263928e-03,-2.183671470602488798e-02,1.924214964510247497e-02,3.185445070266723633e-01
-3.260729351641546425e-01,-3.219438495024590785e-01,-1.229636694445379597e-02,-1.155021752562928640e-03,1.236656059745999334e-02,7.178247226153464458e-03,3.127211928367614746e-01
-3.685424903259882923e-01,-3.620041675702890815e-01,-3.958705620855115792e-02,1.263131559736147339e-02,1.081684965116951405e-02,1.699972542087250724e-02,3.283294737339019775e-01
-3.503456499857219852e-01,-3.462053112157401635e-01,-3.764156608817167959e-02,-8.506765560268329460e-04,1.219108272856706410e-03,-5.791340115940472573e-04,3.106668889522552490e-01
-3.045209097211787896e-01,-3.097878534744333834e-01,-1.976371220988165645e-02,6.823379367111688997e-04,1.692321751098332288e-03,4.685805431268915897e-03,2.875587940216064453e-01
-3.334889625818656667e-01,-3.463317745097085343e-01,-5.127750577748582672e-02,1.056012160561056908e-02,5.565957749390782784e-03,-4.750875345439612568e-03,2.897030115127563477e-01
-3.279553682476669674e-01,-3.283684207885809725e-01,-3.839341871142032403e-02,-2.821802138925623600e-03,-1.181100339294986453e-03,2.538761086664345894e-03,2.898505032062530518e-01
-1.920761536977281247e-01,-2.386953242204294945e-01,-2.770708411946459782e-03,4.453581333103055068e-02,-2.133307862387289963e-02,-1.367530388625334478e-02,2.339055836200714111e-01
-2.324166921072093883e-01,-2.607022419382303835e-01,-9.208652139053308261e-04,3.395385748650944086e-02,-2.442789947551616409e-02,-2.193227924417077979e-02,2.600581049919128418e-01
-3.315560042044241040e-01,-3.514814019311960358e-01,-4.503276658432439628e-02,2.556371466895460479e-02,-2.931486925492895676e-02,-2.772840557225511593e-02,3.082967102527618408e-01
-2.950085385780336633e-01,-3.309339932743519674e-01,-4.712006676209634648e-02,1.849340577365620603e-02,-1.174560227106964325e-02,-6.059804858442820533e-03,2.705455422401428223e-01
-2.910914560263743178e-01,-2.800768422077926090e-01,-3.432654985302846518e-03,2.867112599482022142e-02,-2.625412883142549600e-02,-1.078562778425913582e-02,2.908322215080261230e-01
-2.451398542112700474e-01,-2.794809571440085016e-01,4.947297204975914520e-03,1.138102961218049637e-02,-2.144437336122805363e-02,-1.358279177124841613e-02,2.731900513172149658e-01
-2.793188498011362486e-01,-3.075495850225143379e-01,-1.521050619932909354e-02,1.872532567390897476e-02,-1.831163173211916920e-02,-1.703561405353827204e-02,2.844901680946350098e-01
-3.143694073965637159e-01,-3.122586790059028727e-01,-1.748093614906298665e-03,-3.283999452576096510e-04,-1.838764802464617869e-03,-3.035499126988041273e-03,3.116324543952941895e-01
-3.030940613575977549e-01,-3.091409996275476524e-01,-1.079424471187315215e-02,2.131742294565138233e-04,-6.323045599326941602e-03,-7.834958754648744042e-03,2.958842813968658447e-01
-3.166159645524838639e-01,-3.290041484675216843e-01,-1.026280775886842522e-02,-1.262881885781913949e-03,-4.699858470948119053e-04,-1.263685468150575883e-03,3.127476871013641357e-01
-3.215451322818390079e-01,-3.179899952230116345e-01,-4.174189202173356206e-03,-1.910246843293651915e-03,-2.623943020699235837e-03,-3.502860129439966559e-03,3.157167434692382812e-01
-3.030054377178321157e-01,-3.093205691136380331e-01,-1.070658669421903353e-02,1.177457158040536630e-04,-6.027019352408364422e-03,-8.534496503732367373e-03,2.960606813430786133e-01
-2.906820137962243811e-01,-2.099453214080966024e-01,-2.900973836749928814e-02,3.584677745622636552e-02,2.140015329957786674e-03,-8.426415263284829302e-03,2.407196760177612305e-01
-3.064077210803597962e-01,-2.433453828225468629e-01,-4.690539727836848249e-02,7.523673953266094006e-02,-5.477838636436481272e-03,-1.451253955855622176e-02,2.695497274398803711e-01
-3.335958080095053901e-01,-3.108339789291840738e-01,-1.919371081950535518e-02,2.055900078432437890e-03,-1.619055149011290953e-02,-2.503452467551406033e-02,3.080416917800903320e-01
-2.659611703665206717e-01,-2.050492097444441275e-01,-1.679003057524489084e-02,5.343243620233832647e-02,-1.019758525786775005e-02,-9.720591824949562434e-03,2.444985508918762207e-01
-3.004833676959809408e-01,-2.045023062221564547e-01,-2.869735233318984613e-02,2.427639871283768583e-02,-2.630753889503468492e-04,3.746728399971274801e-03,2.424954473972320557e-01
-3.052623254072230896e-01,-3.063376163506476013e-01,-1.152453120163104971e-02,1.400197522418020679e-03,4.792245046742947719e-03,-4.390479079605946917e-03,2.945021390914916992e-01
-3.605266212796311431e-01,-3.531565106268801379e-01,-6.148378720326960756e-02,7.927155075696950409e-03,-1.076768006110076330e-02,-1.012341032490014303e-03,2.963382899761199951e-01
-2.965480395747837061e-01,-3.000566439399484087e-01,-9.027138725854838563e-03,-3.862774527197817328e-03,8.675866974641947837e-03,-1.059467365547919586e-02,2.903389334678649902e-01
-2.887834995793106541e-01,-3.030943168454013348e-01,-6.419948665179114888e-03,-1.592700219889729013e-02,1.768447259981281369e-02,-1.910830529407596748e-02,2.945665419101715088e-01
-3.007751151667563683e-01,-2.927057468091887049e-01,-1.400232739976361995e-02,-1.613695750660201766e-02,2.078765802296059576e-02,-1.453768056780705906e-02,2.875783145427703857e-01
-3.093004643916536511e-01,-3.111828644075740335e-01,-7.409789835722435658e-03,7.028294838334670815e-04,3.840711408881451825e-03,-5.146762694641376576e-03,3.030429184436798096e-01
-3.286835448066278142e-01,-3.018496680147357836e-01,-2.292890954700918527e-02,3.687544802132934792e-03,-6.519666257306124674e-03,-9.214991359850694883e-03,2.939803302288055420e-01
-3.499317779143968909e-01,-3.462797339323956947e-01,-4.751723887508599309e-02,5.088199023430357328e-03,-9.342343725168030086e-05,-1.593771450572788878e-02,3.019986450672149658e-01
-3.758954617435581458e-01,-3.836712176669153651e-01,-6.742668099822396455e-02,-7.153250608191794990e-04,7.211736873497719309e-03,-5.040451297644676747e-03,3.128031492233276367e-01
-3.094976018878150548e-01,-3.137372913446497269e-01,-2.390275919793896642e-02,7.322942833672219185e-04,-2.899335968450033216e-05,-1.176917761645729105e-03,2.877481281757354736e-01
-3.474500136714355203e-01,-3.343001137078949747e-01,-1.905446150292758323e-02,1.440777186594424230e-03,1.202402663821427309e-04,-1.519470143216136888e-02,3.231053948402404785e-01
-3.541270925661815228e-01,-3.185777172394312906e-01,-2.775320762266111907e-02,-5.887841864190091444e-03,-6.537675451556236583e-03,-1.215488408056631178e-02,3.112181425094604492e-01
-3.177068766054542137e-01,-3.043360257579251771e-01,-2.011222625120459573e-02,-2.021584849356510406e-04,-5.747805938475590570e-03,-1.303948389808900696e-02,2.921841442584991455e-01
-3.612310882311167703e-01,-3.658394845084576019e-01,-5.202571859154606071e-02,-1.210122934635210652e-02,-2.725462560298185373e-05,-4.541040127672503306e-03,3.123384714126586914e-01
-3.022659493623809923e-01,-2.993290782386802684e-01,-8.400165092477096529e-03,1.290426940762046289e-02,-1.077230779428144103e-02,-1.172913237826729745e-02,2.945557534694671631e-01
-3.181097859491361923e-01,-3.109530147930216204e-01,-2.931766309285901984e-02,2.890048414400609583e-02,-2.930915224326521851e-02,-2.894890532435539024e-02,2.982988357543945312e-01
-3.310042279825439193e-01,-3.230259964357369284e-01,-3.066699553181526094e-02,2.168986329962388493e-02,-4.227184740931681090e-02,-2.876145372337116438e-02,3.116467297077178955e-01
-3.088395400650044142e-01,-3.266222012559962251e-01,-1.258120196626497100e-02,1.091111404982314341e-02,-2.159105576391184139e-02,-5.701206101038248410e-03,3.085557818412780762e-01
-3.107359281200722800e-01,-3.114536643753429979e-01,-1.766818466020250722e-02,1.239309074429303763e-02,-2.147174089469421412e-02,-3.833444281031040540e-02,3.038947582244873047e-01
-2.965227499929138366e-01,-3.003330507784588432e-01,-1.626100383301160024e-03,2.962256148473419240e-03,-8.782263784054852515e-03,-9.618569096540852126e-03,2.977204322814941406e-01
-3.350365600830446100e-01,-3.365860941544428497e-01,-1.769617914685775451e-02,4.349353295703906920e-03,5.202063768937856790e-03,3.149932347367067221e-03,3.183814585208892822e-01
-3.283137090878385789e-01,-3.335576411392223162e-01,-3.197004329692171298e-02,1.351177539729342229e-03,3.114839337826158863e-03,-9.214635810960572558e-05,2.990579903125762939e-01
-2.489653132804899305e-01,-2.833253157687087298e-01,-1.859051999611741057e-02,1.821829256867551691e-02,-1.941165089449884557e-02,-1.409253167617155293e-02,2.547366917133331299e-01
-2.871274590194238252e-01,-2.736827267154205434e-01,-8.973256618322045242e-03,-1.052082817536809968e-02,-1.115094165324582651e-02,9.919826207744401186e-03,2.735162079334259033e-01
-2.277787789514291172e-01,-2.732564263622378475e-01,-1.990421238991596509e-02,2.065941946230295811e-02,-1.668073005649411619e-02,-1.279820336119596828e-02,2.394582480192184448e-01
-2.722591713696390081e-01,-2.820127686827680336e-01,-4.118100185189235707e-02,3.376593589729463135e-02,-1.090552863749297274e-02,-5.795756508016951421e-03,2.441804111003875732e-01
-2.259429809287133994e-01,-2.607167401241745619e-01,-2.467618571250496107e-02,2.266645806408760372e-02,-1.736743032926212115e-03,-2.239399142643328129e-03,2.242359071969985962e-01
-2.974092814522736883e-01,-2.804382273381473833e-01,-5.219873443519795764e-02,1.463876096545188230e-02,6.219228672820044726e-03,4.350146362107014560e-03,2.388941943645477295e-01
-2.749830556665088799e-01,-2.853004677448309767e-01,-4.099643585382151123e-02,3.263436560209630882e-02,-1.108330897114280685e-02,-6.185400292504028563e-03,2.468777596950531006e-01
-2.653858864316500643e-01,-2.961862549600014494e-01,-3.148288807079605012e-02,1.306559870177844210e-02,-9.375537855277440644e-03,-7.698958328122731780e-03,2.526207268238067627e-01
-2.554910573924707995e-01,-2.758460450639113604e-01,-3.077440730652497569e-02,1.120940369000266237e-02,-9.615290698642186065e-03,-2.022194720866077062e-03,2.369653582572937012e-01
-2.572876287271763096e-01,-2.883908191169705648e-01,4.310345240871787942e-03,-2.139753127981928321e-02,3.821177604603495648e-02,-2.541945421531464216e-02,2.919415533542633057e-01
-3.107707187616181033e-01,-3.298553945623329264e-01,-1.410717108231204775e-02,2.026168831884347932e-03,8.305681890584478214e-03,-1.175275493868229229e-03,3.070156872272491455e-01
-3.497229375409083296e-01,-3.446199171284263230e-01,-6.467465138496220067e-02,1.272296038408692693e-03,-1.209950344101338657e-02,2.289515272332792381e-02,2.860779166221618652e-01
-3.237836905058434356e-01,-3.209536736018022696e-01,-1.437075230365691958e-02,-1.065400484629067980e-03,1.551328268940798012e-02,-6.905529574501197143e-03,3.094142675399780273e-01
-2.122788182704104520e-01,-2.829424536398171819e-01,-3.139150905252841017e-02,3.476903150047300911e-02,-9.219245555670595518e-03,-2.447564294889506640e-03,2.332280725240707397e-01
-2.384809512184057900e-01,-2.881300613381383435e-01,-3.348922343234655985e-02,2.435055892988659612e-02,2.066757478555572569e-03,-1.994258331173313654e-03,2.376297414302825928e-01
-2.810797860180579422e-01,-2.853729870335709462e-01,-4.234347456460763048e-02,1.690213414262694766e-02,-7.091745176067356000e-03,-7.460402942737102451e-03,2.433378249406814575e-01
-2.287264557476939575e-01,-2.320196430455170322e-01,1.142996169863264022e-02,3.409044295567299071e-02,-2.000810274221262453e-02,-2.185048212110506788e-02,2.541586160659790039e-01
-2.952101208736802596e-01,-3.008119097622941607e-01,-6.245305124056399482e-02,3.100091311647507064e-02,-3.902860402423321846e-03,-4.125107092787671029e-03,2.418491393327713013e-01
-2.415151112074607198e-01,-2.915014640216037067e-01,-4.492889077162806610e-02,2.316562342735697597e-02,-3.254579366892302195e-03,-4.932758731444501082e-03,2.295345664024353027e-01
-2.900718928321606160e-01,-3.015195785249586979e-01,1.014857441073185873e-03,5.301825699815873247e-03,1.013359196748730984e-02,-3.467268852815044190e-03,2.976966202259063721e-01
-2.588527318132422539e-01,-2.783205681220775607e-01,1.194463046220400892e-02,-9.557035274342736211e-03,1.082584472050208795e-02,-4.188593139471538489e-03,2.822415530681610107e-01
-3.155695615057184655e-01,-3.171060502455417263e-01,-1.252977113013481469e-02,-1.929456067852620407e-03,3.671861609271784288e-03,1.529236742713597011e-03,3.039074242115020752e-01
-3.266484089538614910e-01,-3.209277016529338833e-01,-4.914622051793271496e-03,7.585394421907757723e-04,3.792830915932602406e-03,-9.891705249781598385e-04,3.189868927001953125e-01
-2.871655847583195476e-01,-3.160230648067853809e-01,-5.923561865359638912e-03,-8.549191230599512180e-04,8.675769077280029440e-03,-2.410495687186570580e-03,2.971383333206176758e-01
-3.275089068918124457e-01,-3.186939111282578452e-01,-6.066831762122998351e-03,-6.864814199004666811e-04,2.348462269337483848e-04,3.966813057753778562e-04,3.171297013759613037e-01
-3.256181628508122428e-01,-3.203471694802590974e-01,-1.160635719447902781e-02,1.083053462317510717e-03,-8.150374897239173744e-03,7.733304036543472114e-03,3.120228648185729980e-01
-3.289552251045314568e-01,-3.279485682239570155e-01,-3.719635793309594707e-02,3.696999966327303190e-03,-1.344721125183603178e-03,-1.825119681796486936e-03,2.913536727428436279e-01
-3.296442033261379190e-01,-3.186637836859014250e-01,-2.280935100140918381e-02,2.051862025713710024e-03,2.358658161094532267e-03,-1.504190558653102595e-03,3.015545308589935303e-01
-3.187201731066095500e-01,-3.178716218785617720e-01,-1.004067417958420805e-02,-1.860041453141388719e-04,-3.570175071719511057e-03,2.517480873939125386e-03,3.083491027355194092e-01
-3.150266079356330851e-01,-3.109518874690249679e-01,-9.005057620722900502e-03,1.785372353838800188e-03,-1.574324844539221752e-03,1.777899850470072290e-03,3.040482103824615479e-01
-3.196040473983692287e-01,-3.194081767945909922e-01,-6.884893805642555709e-03,9.397069314973750071e-04,-4.648978037956662777e-03,5.819082026072525810e-03,3.128915727138519287e-01
-3.000529829277709393e-01,-3.188591120719383998e-01,-4.062741425910185167e-02,-4.443303817178021441e-03,1.247728285863559591e-02,-2.547190255733849853e-03,2.703328132629394531e-01
-3.173933820459504673e-01,-3.108031293927606686e-01,-2.641472624108653910e-02,8.328447222331095915e-04,5.054561180702363613e-04,-1.701063823328783460e-03,2.877601683139801025e-01
-3.513780931747679248e-01,-3.456186653155812749e-01,-7.049291761955128743e-02,-4.066359316000804809e-03,-1.306898822200081717e-02,3.704733881660014511e-03,2.791327536106109619e-01
-3.676151732354299151e-01,-3.646615557678469788e-01,-6.316844360949230852e-02,-1.789561694213812407e-02,2.675743864148860066e-03,-6.476649563269367034e-03,3.048038482666015625e-01
-3.257513618638464004e-01,-3.244289546987815243e-01,-2.820950854640796868e-02,-2.127145431727632367e-03,3.930031231085379627e-04,1.321458885598403819e-03,2.969153225421905518e-01
-2.694941222236163503e-01,-2.222122762882234870e-01,3.958031794110916657e-03,2.625286123881681588e-02,-1.581474566285352712e-02,-2.427311092117064376e-02,2.620455026626586914e-01
-2.837701854035019622e-01,-2.375559759852586272e-01,-2.538129284803125607e-03,2.569428610115020647e-02,-1.390925629203775687e-02,-2.623347398539548764e-02,2.699182927608489990e-01
-2.998339055283475441e-01,-2.169114351225218118e-01,-3.685845883759364394e-04,3.395195433350760381e-03,-1.244998380174289817e-03,-1.676327550153504722e-02,2.694540023803710938e-01
-3.161222673550033169e-01,-2.217837931035012977e-01,-2.679311439756074109e-02,1.278230706601822531e-02,-4.578490796234987829e-03,-1.260111072905161812e-02,2.575764954090118408e-01
-3.330587018164141710e-01,-2.234652225388454871e-01,-1.592953806783803383e-02,2.366330328595349711e-02,-2.009868442253280943e-02,-2.251159802193417395e-02,2.867723703384399414e-01
-3.407512306451099815e-01,-2.170167672441074280e-01,-3.875245011065137080e-02,2.457329924186116288e-02,-2.586488341867640081e-02,-2.137650241323152747e-02,2.726448476314544678e-01
-3.309249293213055165e-01,-3.194667410171362909e-01,-1.058655900140437200e-02,-1.357209275839182071e-03,-3.065574666152416704e-04,3.561351096969230749e-03,3.148353993892669678e-01
-3.313734672003921800e-01,-3.374898987189666189e-01,-3.441112593961326294e-02,2.782240272602765508e-03,7.648762440131537041e-04,-1.162233788992790909e-02,3.007833361625671387e-01
-3.093998122649790350e-01,-2.720445528532197121e-01,5.312485663922561496e-03,1.994259399360457860e-03,-4.902739667120760252e-03,1.649624666082346799e-02,2.993050515651702881e-01
-3.140936045379221775e-01,-3.105975056929639599e-01,-6.256092823122560986e-03,2.906406830054355378e-03,-9.709274332233766916e-03,4.147782503571691322e-03,3.066915273666381836e-01
-3.322802259427253824e-01,-3.288363563150524804e-01,-1.868317907269625988e-02,3.915425343733723064e-04,-4.637859428824077195e-03,1.073083055059299677e-02,3.125466704368591309e-01
-3.797350896017417377e-01,-3.475252201552888054e-01,-5.347322906440274415e-02,-1.859864029724788564e-02,-5.719545332712050109e-03,3.760621268491257108e-02,3.199280798435211182e-01
-3.148233467443692923e-01,-3.235333416616343882e-01,-7.667416331056664536e-03,3.626537854173388260e-03,-3.661102635168018288e-03,1.673271352778181280e-03,3.117435276508331299e-01
-3.264373753166788239e-01,-3.140357813161487321e-01,-4.530061521610756481e-03,9.079557181763508577e-04,-5.221175195939337446e-04,4.536527112924515059e-04,3.158953487873077393e-01
-3.210500900205606745e-01,-3.178955496201624209e-01,-1.272519556410517394e-02,1.585290080689537567e-03,-5.616222016397405059e-04,4.010545561291764712e-03,3.068522512912750244e-01
-2.928574071403923229e-01,-2.365171121163622825e-01,-5.636482625509503519e-03,-4.960992744951275152e-02,-1.024960544616190447e-02,3.129456200938495608e-02,2.830629348754882812e-01
-3.450118420588467183e-01,-2.664873924783076609e-01,-4.675967222964899639e-02,-4.060916917422318501e-02,-1.847498930107008622e-02,2.357142877988973109e-02,2.816708683967590332e-01
-3.083735611212133909e-01,-3.110970303006200810e-01,-9.872773877228707695e-03,-5.623328332963356026e-03,-1.059347439919568201e-02,1.615570336003799290e-02,3.018901348114013672e-01
-3.106306290472368725e-01,-2.762681843741287002e-01,-3.462120301436250047e-02,-1.953966662619717812e-02,-2.015411339071665822e-02,2.212508580586454790e-02,2.677874863147735596e-01
-3.049385384872176363e-01,-2.547803582761228869e-01,-3.249502030813278264e-02,-1.945331852774821041e-02,-1.202845255859003905e-02,9.276888534265290490e-03,2.547617852687835693e-01
-2.977426340614677813e-01,-2.508281330640624307e-01,-3.208075641331392669e-02,-2.090533236404075804e-02,-9.694888001689031323e-03,9.229463635300628327e-03,2.493239492177963257e-01
-2.767382621418524868e-01,-2.129276277957660168e-01,-1.734032007074859383e-02,-2.713647200619915406e-02,-1.362959560640546880e-02,1.846551446584845588e-02,2.420663684606552124e-01
-2.814141577293438612e-01,-1.939365966332748659e-01,-1.255239940999244852e-02,-2.742786079879798097e-02,-1.337658627549937265e-02,2.862045939221766894e-02,2.483357638120651245e-01
-3.254379381851503772e-01,-2.611306743251727847e-01,-4.344242247338711560e-02,-1.571661941300802473e-02,-1.192570825356415766e-02,1.325958202013254039e-02,2.592637538909912109e-01
-3.146668749227957140e-01,-3.139646338382759416e-01,-3.762550033230005475e-04,2.356488302557223097e-03,-2.502571822901036250e-05,3.177056884302498132e-04,3.139671087265014648e-01
-3.099940438129630826e-01,-3.084739555691029533e-01,1.247318891300586152e-03,-3.894883366557265253e-04,-2.214534676665401436e-03,3.092000454390298522e-03,3.105547130107879639e-01
-3.111900544769073962e-01,-3.129896410574758980e-01,-3.349032018707759351e-03,2.460395384578986482e-03,-3.481595602055349674e-03,2.253618498240567494e-03,3.088577091693878174e-01
-3.098201450425610570e-01,-3.124668234319295523e-01,-4.859717887409159554e-03,5.554294948282506106e-04,-5.145475388445984628e-03,2.659000228620173913e-03,3.064580857753753662e-01
-3.134538409321123709e-01,-3.174755755482009945e-01,-5.131115552063775231e-03,3.862248708502107660e-03,-3.584109155241042063e-03,2.731166858307122573e-03,3.105233311653137207e-01
-3.420720764856083895e-01,-3.255995120361536155e-01,-3.508454340623651246e-02,-1.215295502789812479e-02,-1.542684677303439791e-02,4.096545770010629611e-02,3.092691004276275635e-01
-3.168110546356672774e-01,-3.173381630619712679e-01,-1.027543465591476690e-02,1.349772887860726514e-03,4.891591621071887316e-03,-7.105836460161759315e-03,3.071720600128173828e-01
-3.208038119034146707e-01,-3.185778284518951398e-01,-3.357564960032394241e-03,7.924580469850436848e-04,2.648247958321381726e-03,-3.837004902590036761e-03,3.164451420307159424e-01
-2.983434230653477792e-01,-3.073280286323690769e-01,-3.096168868432669363e-03,-1.156944961383107482e-03,5.630152296389413259e-03,-6.524080686902596245e-03,3.002184927463531494e-01
-3.160804486099633159e-01,-3.132254081179614014e-01,-8.793987424603466607e-04,9.110515964033799314e-05,2.879056205375569479e-03,-3.715656919716328610e-03,3.138889074325561523e-01
-2.963149465276898598e-01,-3.056098096060811953e-01,-2.045900176815912408e-03,-5.293192476675478932e-05,5.320770990886627798e-03,-6.617274297952204822e-03,2.993863224983215332e-01
-3.200603017850376930e-01,-3.092028783075418397e-01,-1.666316445256871281e-02,-1.289385599156005939e-03,6.406903522490688986e-03,1.061872955639379251e-02,2.988979816436767578e-01
-3.407722861088299249e-01,-3.338679486943563202e-01,-6.791984568100542519e-02,-6.596899631476500249e-03,-1.522146403559186982e-03,-1.581385998825087348e-03,2.697355449199676514e-01
-3.724179739836813718e-01,-3.580014477082585356e-01,-9.553661562725027090e-02,8.808522123314453320e-03,-4.805588739012969270e-03,5.981129570548518546e-04,2.705228030681610107e-01
-3.936654467969317173e-01,-3.756103883843594504e-01,-1.059627371042567157e-01,2.407950670475201248e-03,-4.969372049467753356e-03,-1.478746730447189572e-04,2.792774438858032227e-01
-3.426924975781147076e-01,-3.353371551290452168e-01,-8.395915298304856833e-02,-1.311930360176686216e-03,4.093762193295597332e-03,-3.094236056697002878e-04,2.552444040775299072e-01
-2.943977797252784190e-01,-3.149352447966746182e-01,-4.325040505169963634e-02,-1.547173049808810326e-02,-1.060303760611120208e-02,1.012743724799449775e-02,2.646088004112243652e-01
-2.764740140512666478e-01,-2.841883916921244535e-01,-4.808271043621273333e-02,3.820118569265927577e-02,5.780662726586447905e-03,4.048058747032548012e-03,2.418912947177886963e-01
-2.490625378387281708e-01,-1.271785718169889112e-01,1.050257119319625287e-02,7.864046953324373146e-02,8.555058225142856548e-03,-2.886438678615910712e-03,2.634206712245941162e-01
-9.242363339563441915e-02,-1.031752007093133805e-01,5.820050627551220934e-02,1.176729492804580862e-01,3.022339380992365449e-03,1.186921496781843813e-03,2.568950653076171875e-01
-1.953399567464730591e-01,-3.332503008997307337e-01,-2.850200490680984688e-02,1.089273951131337903e-01,8.261760559234389636e-03,3.363511423936867833e-03,3.251108825206756592e-01
-3.552803203173507951e-01,-2.363173144668162529e-01,-4.870372608423712002e-02,1.306738494443352716e-01,2.836817799749614954e-02,-4.837767774732013764e-04,3.539944291114807129e-01
-3.009574856150453170e-01,-2.741479544488167885e-01,-5.589771297248907755e-02,7.317213923523402386e-02,-4.892309215711662792e-04,-6.898618691494459373e-03,2.653470933437347412e-01
-3.443166597796503137e-01,-2.766689791715554181e-01,-5.202212498063912838e-02,5.471796328445076296e-02,1.678255900873880033e-02,2.222986606829797235e-02,2.855676710605621338e-01
-2.790364100104788525e-01,-3.295760943897133033e-01,-4.391853981160351306e-02,-1.448178450141174821e-02,-1.357414595572576863e-02,9.747004477622779953e-03,2.668040692806243896e-01
-3.250586813007359521e-01,-3.311196343817230936e-01,-1.231372906906078035e-02,7.807944735669720060e-04,-3.606642872917241276e-03,2.701771228318634779e-03,3.159183859825134277e-01
-2.705540338512167353e-01,-3.027824996392326495e-01,-1.434055631941483222e-02,-4.120644453205680145e-03,-1.229053729134462099e-02,7.336390174028105220e-03,2.749672234058380127e-01
-2.995546667401070007e-01,-3.202938768864079799e-01,-1.719937651860975469e-02,-9.804714433013003022e-04,-1.705753573702504383e-02,3.278923259546193559e-03,2.948193848133087158e-01
-3.000054740617751903e-01,-3.157820266028182332e-01,-2.080299654239697871e-03,-1.373611301127585383e-03,-5.985734552713469110e-03,2.663406929287992584e-03,3.063380122184753418e-01
-3.122609092455557733e-01,-3.114584188378479723e-01,9.616977224108647082e-04,3.804961575105858702e-04,-9.132213927583370059e-04,1.490714736224017702e-03,3.128374814987182617e-01
-2.961641624655185212e-01,-3.125233319679195376e-01,-1.840396638920077654e-03,-1.869208975347784983e-03,-6.737537616991366891e-03,4.973526473684730144e-03,3.031993806362152100e-01
-2.907625823390663777e-01,-3.138223838499337170e-01,-1.605059453774065892e-02,-5.183272928402221907e-04,-1.776984614228294210e-03,6.693292905004573010e-03,2.871896922588348389e-01
-3.149451738567573544e-01,-3.155301735796848805e-01,-1.180231868336673040e-02,1.888338177788945280e-04,-3.822957391132216984e-03,2.707574863696984076e-03,3.035444319248199463e-01
-3.204407374176678203e-01,-2.922461391414713505e-01,-2.129304359537886882e-02,-2.583679814976003099e-03,-1.824492397688472689e-03,1.347103340563001947e-02,2.870964109897613525e-01
-3.245180986441765780e-01,-3.207510851471221391e-01,-1.471218864475770660e-02,3.876221976857424385e-03,-3.505004161377328533e-03,2.352212065343970045e-03,3.080996274948120117e-01
-3.204040457632870709e-01,-3.222269519826380657e-01,-1.140798682745206016e-02,1.434620436954033018e-03,-7.919581715362934010e-03,9.796703039246843978e-03,3.106886148452758789e-01
-3.079845448098263994e-01,-2.810845702957568415e-01,1.757240541331833716e-03,-2.687075304481363440e-03,-3.497352963330999185e-03,1.188665721216073355e-02,2.980163991451263428e-01
-3.133039664622680465e-01,-2.983192560843736518e-01,-7.958824845990031260e-03,-7.338194871840159235e-04,-6.577563509815134365e-03,1.355824635775987504e-02,2.992784380912780762e-01
-3.239157657510660093e-01,-3.183742534203686803e-01,-5.202001666359090670e-03,3.020149510778164306e-03,-1.267417019278441323e-03,1.544803024754286052e-03,3.160417079925537109e-01
-3.325565372532962582e-01,-3.243072172259631181e-01,-1.246189220816865117e-02,2.961173392718458985e-03,1.376662672588483023e-02,1.304152867508108840e-02,3.177942335605621338e-01
-3.201625992397881815e-01,-3.218135447843495367e-01,-1.106173499143120464e-02,-2.858053992102896519e-03,3.425280231159994089e-03,6.925187285357205930e-03,3.102578818798065186e-01
-3.185139153091395281e-01,-3.220587240129518802e-01,-9.844030296672523495e-03,-4.266042277586833999e-03,5.021186283555627294e-03,3.185812111053266515e-03,3.107161521911621094e-01
-3.289910308397257510e-01,-3.137413583714159238e-01,-2.999312427611561249e-02,9.318917696641816628e-03,7.470761964857498827e-03,1.264383717348257358e-02,2.932238876819610596e-01
-3.412087257419730291e-01,-3.346853990202925955e-01,-2.455860778598670247e-02,2.657145731008800880e-03,1.450049759919724325e-02,1.657216225938155582e-02,3.157849311828613281e-01
-3.145814181679463251e-01,-3.207515701337328995e-01,-2.294489895544041258e-02,2.120814017781406501e-03,2.117937738089505431e-02,2.594579825056713123e-03,2.971005737781524658e-01
-3.211006429512044402e-01,-3.203320712237646695e-01,-1.104546551041168945e-03,8.126334739712466875e-05,1.626070677839000847e-02,5.913812075194393308e-03,3.210145235061645508e-01
-2.339427287502624520e-01,-3.082683922395631493e-01,-3.477898298700329849e-02,2.712663246407254897e-02,1.734647690596157962e-02,9.106518788861581171e-03,2.516992688179016113e-01
-2.912940297549925783e-01,-3.350022671461840851e-01,-4.127012264264509622e-02,1.306701314467747892e-02,4.483846756359233243e-02,1.578368274650512534e-02,2.874744236469268799e-01
-2.717290726468367668e-01,-2.766538388227067768e-01,9.463760080370864358e-03,2.013357002192411177e-02,1.694235116319306109e-02,1.561302936121572102e-02,2.885948419570922852e-01
-2.740883940691668519e-01,-3.041592281061205605e-01,-3.659953173542840332e-03,2.591006083569085110e-03,1.389602851140598477e-02,1.259364672534943677e-02,2.885186970233917236e-01
-3.036604484736222243e-01,-3.311905104125051347e-01,-1.169428520913692870e-02,1.666589996412253319e-02,1.919759084489051221e-02,1.831259200635319481e-02,3.114240467548370361e-01
-2.623123986654541384e-01,-3.229282837325764266e-01,-5.913578123238455442e-02,-6.216575927190916978e-02,8.138112134734892811e-02,-2.122529219798884384e-02,3.001411259174346924e-01
-3.198204395064250805e-01,-3.574448389194883613e-01,-3.958184005870926669e-02,-4.796860104756345972e-03,1.868456243309999862e-02,-9.266472747995741291e-03,3.030957877635955811e-01
-3.307992647595159319e-01,-3.289577715476462716e-01,-2.602937624063914046e-02,1.166494484446225827e-04,1.265498002025168718e-02,-5.411026487628239207e-03,3.047870993614196777e-01
-3.238467867967439462e-01,-3.426185369601123520e-01,-1.762601258556417694e-02,-4.807920897963950842e-03,1.176872988537914014e-02,-9.231322336784390445e-03,3.171944916248321533e-01
-2.115787151731767235e-01,-4.456906146420346881e-01,-7.100285508194714712e-02,-9.264323165840294971e-02,-9.930602167667146318e-02,5.682809072825750069e-02,4.153337180614471436e-01
-3.446693279874584181e-01,-3.842733578213218815e-01,-5.239993459474090454e-02,-2.094230665008377235e-02,1.825138761679643423e-02,-1.879942891109464068e-02,3.192808330059051514e-01
-3.155380980538392555e-01,-3.119314417512967230e-01,-1.255077598414930384e-02,8.064930490140707203e-04,1.211653846208145258e-02,-9.498724317391123856e-03,3.023815751075744629e-01
-3.176335755148851359e-01,-3.176143429199277390e-01,-1.326985961590176899e-02,-3.002167254085199959e-03,1.032852014804486358e-02,-8.316871016553909271e-03,3.052638173103332520e-01
-3.009504305615409714e-01,-3.098271605933531903e-01,-2.274242331726922250e-02,-4.220008108977486676e-03,7.111096863224724250e-03,-7.698759400517572564e-03,2.834272682666778564e-01
-2.867079543965105892e-01,-2.953716237532441613e-01,-1.492873022179777576e-02,-9.404990136650737825e-03,1.121995498087498266e-02,-9.370567893077171029e-03,2.778489887714385986e-01
-2.918424270759245598e-01,-3.014669311029649079e-01,-1.035933388773724317e-03,-4.374174467861906973e-03,7.272626353192760545e-03,-7.704787952583779485e-03,2.964018881320953369e-01
-3.171790286206309095e-01,-3.192194560591576913e-01,7.222207730610274989e-04,3.899448621613522720e-04,-6.948608797331498783e-04,8.320774702173381254e-04,3.189325928688049316e-01
-2.168061500663703844e-01,-3.003768273136527833e-01,-2.249745249710696782e-02,-1.823357248799574448e-02,1.286174033939172998e-02,-8.468609258864197645e-03,2.503742277622222900e-01
-2.995248574260563346e-01,-3.300933547385391797e-01,-2.548351668949858095e-02,-1.041787696926867700e-02,1.942070711276518147e-02,-1.929679675859307178e-02,2.949310243129730225e-01
-2.376570819866462569e-01,-3.240655279935080735e-01,-1.590805382591981010e-02,-1.009327898024415561e-02,2.706066712155649062e-02,-1.530757696434706383e-02,2.810791134834289551e-01
-2.346530105608691796e-01,-2.845970597095552890e-01,-4.832272494578487843e-03,-2.373984882318491002e-02,3.244491472782553426e-02,-1.638266483324372219e-02,2.691543996334075928e-01
-3.285700301780276611e-01,-3.286625874712041373e-01,-2.932879817886305251e-02,3.668184585538100326e-03,4.378028401912967271e-03,1.810364186738417985e-03,2.994673848152160645e-01
-3.054229647922444002e-01,-2.957951870635142089e-01,-1.154980989308126982e-02,-1.407675433842864657e-02,2.216830211756103466e-02,-2.024660230650416823e-02,2.948276102542877197e-01
-3.621852595591891211e-01,-3.776433984179812797e-01,-7.630594079573568833e-02,-3.418214413767586141e-02,3.296725123962992998e-02,-8.639209484536251524e-03,3.055728673934936523e-01
-3.264188844442542092e-01,-3.243662697502813219e-01,-1.383488614504155279e-02,3.628781633913807491e-03,1.400070184876290105e-02,-1.617638780144934132e-02,3.138215243816375732e-01
-2.979776829821774164e-01,-3.324262383392585507e-01,-1.986422676235033435e-02,-1.761264879020707367e-03,1.127002393421540002e-02,-4.076948733859446679e-03,2.975812852382659912e-01
-3.169000175254891860e-01,-3.183714987458781120e-01,-2.063387412263389953e-03,3.798901288294634620e-03,-5.619429830836668131e-03,3.329656745210893276e-03,3.158462047576904297e-01
-3.153570095878672763e-01,-3.113845465421327674e-01,-7.700776094152844697e-03,9.657094558984917346e-04,-2.901097041491594933e-03,3.968661023523522603e-03,3.058125078678131104e-01
-3.191142790801081985e-01,-3.199305344701861564e-01,-1.314937392259701854e-02,1.257245945239747085e-03,-7.478694654758684911e-03,7.024303912430588520e-03,3.068965375423431396e-01
-3.085128850728252048e-01,-2.997934646658189095e-01,-5.637804516493094553e-03,-4.080995231609806117e-04,-7.704424668162545772e-03,7.453096256313527894e-03,2.991883456707000732e-01
-2.465686159603162064e-01,-2.845788150344965017e-01,-1.906783690468125125e-02,-1.260361379169079935e-02,9.775898222337368881e-03,-1.284882246460060211e-02,2.512115836143493652e-01
-2.313310646467720555e-01,-2.828453290041721413e-01,-2.286537544834943425e-02,-1.153683100366616199e-02,1.389513164792416898e-02,-1.114584110340123037e-02,2.412505447864532471e-01
-2.694587177517854260e-01,-3.326372588278242448e-01,-4.536352176364180644e-02,-1.158307371331605828e-02,1.376590984918842075e-02,-7.879193054772189869e-03,2.636767625808715820e-01
-2.075275290968245645e-01,-2.866618645635232721e-01,-1.504245374077256558e-02,-2.769193896140181139e-04,1.707696828429369762e-02,-6.293894411191240310e-03,2.440058737993240356e-01
-2.559300577353014750e-01,-2.980145680208611814e-01,-1.174507311349551331e-02,-7.255691834871260543e-03,1.298876635832128638e-02,-1.267069586465633529e-02,2.698509097099304199e-01
-2.660406679139489250e-01,-3.182346680093877112e-01,-2.970104067181150720e-02,3.899559746113465315e-04,2.005453509726411610e-03,-5.177746304032580793e-03,2.664753198623657227e-01
-2.298692793729908146e-01,-3.087998038288637392e-01,-2.504421807391904453e-02,1.113405677150410521e-02,-1.631497686638275907e-02,-8.056369663300005923e-03,2.563502192497253418e-01
-2.149800509369823032e-01,-3.170454133571334321e-01,-2.959246631361617252e-02,1.055353303238623121e-02,-1.353197615229433971e-02,-2.172794985863910067e-03,2.541754841804504395e-01
-2.393126870151542351e-01,-2.968153351185526811e-01,-4.254890286402662758e-03,7.193428246601410274e-03,-1.462342580897977792e-02,-3.457622991624207266e-03,2.700144648551940918e-01
-2.712602922231383551e-01,-3.172041423362881862e-01,-1.892844954580250039e-02,3.729232028720727912e-03,-1.198817685688204938e-02,-3.116271384149732742e-03,2.790650427341461182e-01
-2.067265680130632444e-01,-2.872227979796369013e-01,-5.098780055510371279e-03,5.415748069953275554e-03,-2.707782552917774657e-02,-6.200452152671915435e-03,2.564500570297241211e-01
-2.460969725819004972e-01,-3.194408935984483500e-01,-2.528748998050020513e-02,-2.600204297824204158e-03,-2.175896755367449659e-03,3.824718905568319505e-04,2.652661204338073730e-01
-2.115382070158269567e-01,-3.087342540861094387e-01,-2.745530193405051889e-02,6.195238964348271369e-05,-1.705695355791576190e-02,-2.473064997431303862e-03,2.492326200008392334e-01
-3.240259951902708657e-01,-3.169325225485897235e-01,-7.992465096134299118e-03,2.990965232354680578e-03,-1.289486066702687055e-03,-2.589656937812914207e-04,3.125984072685241699e-01
-3.233895764408660778e-01,-3.173316038952139762e-01,-2.490836881946401071e-03,2.725578341341595382e-03,-1.308206705781636168e-03,1.043422625720455714e-03,3.179613053798675537e-01
-3.144779606304703989e-01,-3.090596246427299576e-01,-9.309478377255597792e-03,-6.139106117503294931e-04,-4.548251139910464841e-03,-3.305897595738817676e-04,3.026006817817687988e-01
-3.291795831478842027e-01,-3.155526102629777618e-01,-7.677859042932888567e-03,2.593649704246356498e-03,-4.929323216524612470e-04,1.436180025339026242e-03,3.149524629116058350e-01
-3.223547606927716913e-01,-3.181341227320317322e-01,-5.574256184282810889e-03,4.480637034262983931e-03,-1.342085140806120692e-03,3.958446006480321501e-03,3.148703277111053467e-01
-3.274308915357008187e-01,-3.190998584519159631e-01,-1.603758276405503613e-02,3.793638180408679533e-03,2.495393674238976112e-03,1.983949468017313315e-03,3.074323236942291260e-01
-2.756800597647492967e-01,-2.793862284656916661e-01,-2.471145336164298767e-02,-1.362216660153096979e-03,1.510633370444230137e-03,-5.518161238436414436e-03,2.530471682548522949e-01
-3.037764659230409170e-01,-2.904260484179947976e-01,-4.362144752172697482e-03,4.626467529761272603e-03,-1.293806232493164253e-02,-1.106258190832761466e-02,2.945562601089477539e-01
-3.276595221889677667e-01,-3.219675045915995071e-01,-1.416759282475368864e-02,-4.202026471179020478e-03,-1.164051161232089026e-03,2.758075101206610823e-04,3.107771873474121094e-01
-3.187617049451355600e-01,-3.153760799043653917e-01,-2.307202061576357766e-02,2.850325574056291125e-03,-8.367450989891963772e-03,-1.323399888358843535e-02,2.953008413314819336e-01
-3.316631936008090364e-01,-3.253860192683402097e-01,-3.576982795246835822e-02,-6.696208865205407687e-03,2.001371479275137425e-03,3.644125648031229167e-03,2.931233346462249756e-01
-3.089210511175508045e-01,-3.082512137592646750e-01,-1.357792143583266831e-02,7.367263814765291456e-03,-1.198587642998693442e-02,-1.283208318128374430e-02,2.968467175960540771e-01
-3.293183472918894683e-01,-2.532123896246935013e-01,-2.621833862166778051e-02,1.708983083663768998e-02,-8.728573677332707170e-03,-2.963652725754912370e-02,2.798816561698913574e-01
-2.631815897338204979e-01,-2.523398819719473996e-01,-3.443716885829978258e-03,1.744528559935820330e-02,-1.275053003216627262e-02,-1.107894229203022253e-02,2.579423785209655762e-01
-3.215698946754519949e-01,-3.215177513394171793e-01,-1.175890764724146775e-02,6.311563255078618615e-05,-8.095962701782970228e-03,-4.276173660161437969e-03,3.101905882358551025e-01
-3.188027221229700059e-01,-3.040517595701551223e-01,-2.480318001437878395e-02,1.463144216042542136e-03,-2.939907138939421016e-03,-1.040968903533393171e-02,2.875308394432067871e-01
-3.238305237329739406e-01,-3.176701347849971713e-01,-3.141614770506503951e-02,-1.229936277399423631e-04,-3.813522001394428589e-03,-1.341306093892852269e-02,2.903896272182464600e-01
-3.188297921755361419e-01,-3.260662604981393042e-01,-1.244507346542042536e-02,-3.826311221669450365e-03,-1.317307179316545970e-03,-1.741122087655306737e-03,3.101601600646972656e-01
-3.316898397462678671e-01,-3.318993088107987099e-01,-1.807925205441909822e-02,-3.056318306528593449e-03,-1.044461124620041197e-02,-7.715182672591636148e-03,3.145650923252105713e-01
-2.958244624523395094e-01,-2.456540947397057584e-01,-1.149263210245168865e-02,4.993595705871630569e-02,-3.189571134103417333e-02,-3.968477384421569693e-02,2.904377281665802002e-01
-3.047913281736819857e-01,-2.569923137605840679e-01,-1.642693071282813611e-02,1.490701422423737488e-02,-1.282963066203425193e-02,-3.186030816666175769e-02,2.754286229610443115e-01
-3.473464999598667169e-01,-3.270888500691241374e-01,-3.189361462233189504e-02,3.886852700378143344e-02,-3.638042956585049031e-02,-4.076973655745916303e-02,3.271390795707702637e-01
-2.822754735556166628e-01,-2.891721644450584439e-01,-4.098431904570723483e-02,1.399297877426459308e-02,-4.469586562006213487e-03,-4.730894716999117441e-03,2.462673038244247437e-01
-3.203766667438640581e-01,-3.214322029009550885e-01,-6.587674456175196536e-03,1.844832146068432549e-03,2.606243032647887056e-04,2.632767469046491584e-03,3.143677413463592529e-01
-2.945825317422380851e-01,-2.251978290389567428e-01,-3.109526589998976021e-02,3.374658174935672023e-02,-1.493354466756269608e-02,-1.254076130947216934e-02,2.459982335567474365e-01
-3.154937283021724825e-01,-3.245788420844773481e-01,-3.630455697125695158e-03,-7.398699996605836819e-04,-1.326166842284702422e-03,7.394874219026863335e-04,3.165171742439270020e-01
-2.864038221952797114e-01,-2.771349814407589873e-01,-3.389106748702658267e-02,1.106254665651301705e-02,-6.434833642458899494e-03,-4.094325031610861719e-03,2.490978837013244629e-01
-2.927733525725668140e-01,-2.845879987954074708e-01,-2.442170925282841076e-02,-8.398242129373950995e-03,-1.098304302826816001e-02,7.493813801951305052e-03,2.657536268234252930e-01
-2.755109882050993386e-01,-2.894524141010228480e-01,-2.904798400788843882e-02,-9.638862831233774298e-03,-8.185673310910092024e-03,1.101947410584589414e-02,2.553790211677551270e-01
-3.527509165779356692e-01,-3.649250083597744831e-01,-4.722458589491559944e-02,-1.763298953718463874e-02,-2.705223081717660419e-02,2.663778012884501084e-02,3.201109170913696289e-01
-2.546021998879318127e-01,-2.223363921851946312e-01,-2.337928137765379888e-02,-2.682621453549464269e-02,-2.919183725377821718e-03,1.249958592683463304e-03,2.218867242336273193e-01
-2.065351368489876382e-01,-2.508979909292601840e-01,-1.491777162725915762e-02,-2.775852066674757562e-02,-4.946580705883709024e-03,1.988788302084886200e-03,2.226720601320266724e-01
-2.712548151476762981e-01,-2.863432359215963285e-01,-3.734496651889004926e-02,-1.296600290470653269e-02,-4.631060529074254237e-03,5.174501016724673483e-03,2.431456893682479858e-01
-3.169950511201962140e-01,-3.223906440794719885e-01,-4.424597503302180046e-03,1.663422702894545640e-03,3.259802637568530101e-03,-1.396976520654042309e-03,3.153758645057678223e-01
-3.152341594143305836e-01,-3.203716533179852832e-01,-1.427103518176459085e-03,2.049757055644111422e-03,2.622615087283713693e-03,-2.096083853943892482e-03,3.164804279804229736e-01
-3.145079912740419426e-01,-3.160857854789679289e-01,-3.856166294084389934e-03,1.068573129687261760e-03,3.991497595767481456e-03,-3.392086611146682951e-04,3.115265071392059326e-01
-3.151354673631764913e-01,-3.183438740113492815e-01,-7.726450058358341755e-03,2.559385017824290613e-03,1.257388868413284984e-03,-1.011468990087935208e-03,3.090701401233673096e-01
-3.259890469651086087e-01,-3.320529271363127921e-01,-1.657480126955826472e-02,2.166451576742036735e-03,1.326013055680832792e-03,-1.199158187284753325e-03,3.125281929969787598e-01
-3.582285252060805614e-01,-3.109292959390704270e-01,-3.391180303131477447e-02,-1.195835335377803607e-02,4.716077628835249440e-03,-2.611928136696099745e-02,3.076052665710449219e-01
-3.145573215693119873e-01,-3.225560879797942926e-01,-1.176186852664357074e-02,4.622823450612910563e-03,1.095617532544452015e-03,-1.844736911825808900e-03,3.069999516010284424e-01
-3.177343766802070424e-01,-3.241013614182508551e-01,-5.270249249653358170e-03,1.751332610067421903e-03,2.680311864715865643e-03,-4.677062951471884522e-04,3.157455325126647949e-01
-3.214747710852114970e-01,-3.254367704897075941e-01,-6.325655138130797939e-03,7.364270497292539196e-04,3.156133902137487311e-03,-1.817065388088093649e-03,3.172139525413513184e-01
-2.645812336016385435e-01,-2.644416122032942629e-01,-6.578058081089549480e-03,-2.441308091222428589e-02,-2.086086900759241344e-02,2.886020779032669181e-02,2.685551941394805908e-01
-3.153626194693864848e-01,-3.137776519588751367e-01,-3.345764366803671841e-03,1.501269313278781126e-03,4.052317205968087688e-04,4.932732743956540905e-03,3.113563060760498047e-01
-3.159710502148543321e-01,-3.140392096048191251e-01,-2.502906860929771105e-03,1.177595506876073263e-03,3.443302059754527363e-03,-2.531258344730497392e-03,3.126010000705718994e-01
-3.368792199856600056e-01,-3.371760311558704704e-01,-3.256890044479240909e-02,1.486521026807303102e-03,4.080235949108944847e-03,-2.159866921816576413e-02,3.068407773971557617e-01
-3.650120693310239250e-01,-3.309649124619825633e-01,-4.092273349649286351e-02,8.927523245740089444e-03,1.488507526125968511e-02,-5.860912112789051082e-02,3.261405825614929199e-01
-3.137265041419208811e-01,-3.279168779582630755e-01,-1.418439025615444993e-02,-1.059587054104391395e-03,9.685078451532285046e-04,-3.060425333268234054e-03,3.069393038749694824e-01
-3.184560100109338765e-01,-3.251101563208402823e-01,-1.435477387412925632e-02,4.251570490439557544e-03,1.049624550777572291e-03,-1.426132417145808007e-03,3.075857758522033691e-01
-3.256649989184789984e-01,-3.385540372193369119e-01,-2.944787196964171461e-02,-1.471873039399501735e-03,-1.132325054844774770e-03,6.921891233231779704e-03,3.031216859817504883e-01
-3.209353417155475507e-01,-3.192399110963781150e-01,-6.272423533497162307e-03,2.012890202312098316e-03,2.583334917014401110e-03,-5.174923136040273340e-03,3.139978647232055664e-01
-3.188540896285287918e-01,-3.317602784981358854e-01,-1.596159417204062736e-02,1.454596779738234486e-04,7.280594472047230989e-04,-3.246948847383072934e-03,3.096011877059936523e-01
-3.182814274795887632e-01,-3.217064095936773005e-01,-1.289712955424784924e-02,3.353587062954827220e-04,6.644192129893768638e-04,-2.248802321455222516e-03,3.071385025978088379e-01
-3.119073511748245986e-01,-3.073471162540433177e-01,-2.553021128037052945e-02,-3.573544936919963166e-03,-1.116754879142782368e-02,9.100064738852609025e-03,2.852851152420043945e-01
-2.865398843527301453e-01,-2.736471437334440093e-01,-1.424051626692349193e-02,-6.417183755733617961e-03,-6.398517150817877551e-03,6.699948507328625132e-03,2.668024003505706787e-01
-2.820556425811334145e-01,-2.813028195354395078e-01,-3.285825580611070884e-02,-1.084743315710925277e-02,-4.478294642491023776e-03,6.912410094730190614e-03,2.499376237392425537e-01
-2.577881989703338927e-01,-2.306419267113938854e-01,-1.486203393492588343e-02,-2.410518702152283227e-02,-1.113860743731638625e-02,1.039158687544257387e-02,2.357855886220932007e-01
-2.975732053162069568e-01,-3.009449714653450458e-01,-1.984499857102148268e-02,-7.298621276330327905e-04,-9.296849443030864857e-03,8.551809601672280201e-03,2.802874445915222168e-01
-2.992777805737560914e-01,-2.950671390107751368e-01,-2.146222635937833356e-03,-3.399904386529138591e-03,-1.084678666632286730e-02,1.238332456486537780e-02,2.964817881584167480e-01
-3.142099204249881872e-01,-3.125005312899400423e-01,-2.535060558053470192e-03,2.089440135622825604e-03,-3.208623984196318484e-03,2.002079642604909313e-03,3.109137713909149170e-01
-3.152303004193979241e-01,-3.140128418461499149e-01,-3.480834787723874335e-03,1.831043626735632656e-03,-3.144863317927865803e-03,2.637850955011371810e-03,3.112398982048034668e-01
-2.847199587696478962e-01,-2.575876243187574799e-01,-2.280860465085027267e-02,-3.798116749713301155e-02,-2.063571051498972256e-02,2.085338957429078502e-02,2.629396319389343262e-01
-3.169033673385532324e-01,-3.165869584833629347e-01,-1.009465041044393940e-02,8.083311611131729565e-04,-3.593938709204598774e-03,6.063503736835451630e-03,3.068967461585998535e-01
-3.108717615830376424e-01,-3.118338604626633148e-01,-3.352429038941978634e-03,1.629138565079120892e-03,-4.674277351069707279e-03,3.529017312663201497e-03,3.081814348697662354e-01
-2.879670941355119140e-01,-2.947708875949908158e-01,-1.868668482284119303e-04,-5.303627849241770650e-03,-1.028348313544858762e-02,9.787853655925450244e-03,2.924222946166992188e-01
-3.096234581669402020e-01,-3.123932802749181947e-01,-1.063599723078095804e-02,2.694053137348505905e-03,-4.880706397687139576e-03,3.728826498058002582e-03,3.006064891815185547e-01
-3.235163636374950302e-01,-3.196160926421977022e-01,-9.534289865770928518e-03,4.955913647000473321e-03,-2.084834447164945082e-03,2.069222189050648301e-03,3.122097253799438477e-01
-3.231688470436036575e-01,-3.198666874513777514e-01,-2.046922575152426704e-02,2.762899713527472434e-03,6.097525194092081290e-03,-3.201716296364300572e-03,3.013363480567932129e-01
-3.388811150946815509e-01,-3.417886535985890650e-01,-3.328451759403683319e-02,5.126816359576872803e-03,9.260524282686524375e-03,-8.798905450405071840e-03,3.079848289489746094e-01
-3.213521764886763665e-01,-3.212842568620096761e-01,-1.377317062780533674e-02,3.425230806897323725e-03,3.879477744668132378e-03,-2.446917716710015830e-03,3.077048361301422119e-01
-2.809806679460277179e-01,-2.891328281561925673e-01,-1.246474912836553761e-03,-9.461650983309016077e-03,1.594364184018514166e-02,-1.250185058802360388e-02,2.865277826786041260e-01
-3.492281917401050539e-01,-3.524793529535264480e-01,-3.657016114164432508e-02,-5.701192705395183129e-03,1.238423216041505473e-02,-3.086516407441988741e-02,3.196837604045867920e-01
-3.079300000317846120e-01,-3.350929768223036564e-01,-3.745380793531302710e-02,-7.310440250168743874e-03,1.355278167524505938e-02,3.845591689292380318e-03,2.863526940345764160e-01
-3.203325446719041958e-01,-3.262370670506800630e-01,-2.607146097900692183e-02,4.251579297589574633e-03,6.288825671262266099e-04,-1.568659352147180148e-03,2.973629236221313477e-01
-3.509820064204087209e-01,-3.456410823221147122e-01,-5.786719030007739240e-02,5.921831523507625067e-03,-7.227923832660780416e-03,5.537386995421116238e-03,2.910897433757781982e-01
-3.290450446817778651e-01,-3.216571362960081171e-01,-3.265537380871197382e-02,2.784855022972663845e-03,-2.044092496010584559e-03,-1.626761667886508257e-03,2.928403317928314209e-01
-2.482481315600168770e-01,-2.675200952030711843e-01,-2.217238289292958187e-02,8.480676818807087597e-03,4.412608738755584639e-03,6.834465834844919395e-03,2.371769100427627563e-01
-2.705252217495949796e-01,-2.849784929355668739e-01,-3.955195123971116944e-02,1.379459899172547077e-02,-4.755292021917077033e-03,-6.078260882826705229e-03,2.400946021080017090e-01
-2.661862491652502993e-01,-2.678422310341942447e-01,-1.358085821942389693e-02,8.444158345389897458e-03,7.267733706948510328e-03,8.316369620940669213e-03,2.545788586139678955e-01
-2.980208588361233923e-01,-2.803900242362794559e-01,-3.160585604446719543e-02,1.519517336771671230e-02,1.809727935512670666e-02,1.715086372873352721e-02,2.629607319831848145e-01
-2.187186606847388304e-01,-2.168075406666097327e-01,-3.681888583716930174e-03,5.534877318217570202e-02,8.338964854267575874e-03,2.636063724789784388e-02,2.394101768732070923e-01
-2.624880731890050223e-01,-2.422830705475337298e-01,-1.564114592713861107e-02,2.049926676814644091e-02,8.603278866282393703e-03,8.753295090835807105e-03,2.409702837467193604e-01
-3.235296497984451181e-01,-2.088716070439536332e-01,-3.819965433539243560e-02,1.252384220764512363e-02,1.313059343005689925e-02,1.443686025017210106e-02,2.519074082374572754e-01
-3.737205573770885358e-01,-1.872238006437735858e-01,-4.077170207507299637e-02,1.161851050474031408e-02,3.279749030830076545e-03,5.017501916826420071e-03,2.899221777915954590e-01
-2.828703503851031642e-01,-4.030431106899187016e-02,1.768919974563744335e-02,2.057625477950778686e-02,9.666387081735802397e-03,-1.499860112590696961e-03,2.789731025695800781e-01
-3.554180196214595799e-01,-1.497258007983743866e-01,-3.271753085640080605e-02,5.859336467970559237e-02,1.066908787893495331e-02,4.103384108320828720e-03,3.012631237506866455e-01
-3.195000692352730209e-01,-2.653865140077070195e-01,-3.946651018981570114e-02,-3.420367487049821853e-02,1.029020975775418907e-02,-1.171375776600128669e-02,2.653911113739013672e-01
-3.090097366550579316e-01,-1.999391772874694884e-01,-1.987039533349657661e-02,-2.210751286832847787e-02,3.528087219558588387e-03,-1.531009005621521493e-02,2.572316527366638184e-01
-2.777240442576089374e-01,-1.791256528636636924e-01,-1.074431973111658611e-02,-1.573681194617679649e-02,7.467492195448705884e-03,-1.324202374987789449e-02,2.368804067373275757e-01
-3.456360204584419948e-01,-2.260647855382724725e-01,-5.137082908661466663e-02,-3.986298740825518910e-02,2.004512015904759675e-03,-3.235438407553981738e-02,2.713361084461212158e-01
-3.390919711563313288e-01,-2.614266901815993083e-01,-2.299952427918888764e-02,-2.440844256209786026e-02,5.714929460646143294e-03,-3.451916989768197275e-02,2.947150170803070068e-01
-3.083138928100374043e-01,-2.435996131521117047e-01,-1.029005973735278023e-02,-1.810325428507045947e-02,7.296155930286941579e-03,-3.094509935364208111e-02,2.788107395172119141e-01
-3.385685503274517005e-01,-3.363431341008328856e-01,-4.167134416997334001e-02,3.395185611728041269e-03,-3.958973529241793798e-03,1.149136470950829235e-04,2.959287464618682861e-01
-3.354171838264531358e-01,-3.479294049079674211e-01,-3.785629033166404422e-02,6.212066844757570131e-04,-2.415068510762858039e-03,6.891385798819624903e-03,3.042750656604766846e-01
-3.621572422019027626e-01,-3.166750473282115008e-01,-3.087454421130891857e-02,-3.129096653711455674e-03,1.264603405579950435e-02,-4.946532200544051516e-02,3.234176635742187500e-01
-3.836649583073797887e-01,-3.351713449839844317e-01,-4.595237259753170989e-02,-7.489445792991645395e-03,2.334781312824696364e-02,-2.255869883078521002e-02,3.214884698390960693e-01
-2.931494151081295851e-01,-3.226583563131633081e-01,-6.591153437968039208e-03,-1.564843439659270856e-04,-1.902636550977462523e-02,-7.408583391386747499e-03,3.044555485248565674e-01
-2.791361210107128343e-01,-2.876825341148985249e-01,-1.047090065488626154e-02,-3.228755525833230076e-03,5.199970434143885711e-03,-7.891170866767171360e-03,2.735861241817474365e-01
-2.923346247588921587e-01,-3.142079355793639950e-01,-8.685542902589243885e-03,-8.426060966021946437e-04,-1.231128590201895946e-02,3.537206682338180520e-03,2.960303425788879395e-01
-3.197001728747478344e-01,-3.188949829267216929e-01,-1.058236006054355527e-02,5.204541303475173405e-04,-3.393319044959533168e-03,-3.167348207961997834e-03,3.088220059871673584e-01
-2.820946927715274333e-01,-2.984621453647140488e-01,-1.236128263960412088e-03,4.156183410091899601e-03,-4.789792911981851330e-03,3.425783024578859734e-03,2.896588146686553955e-01
-3.067494579066284421e-01,-3.313148979257140581e-01,-1.701159346035197029e-02,-1.775211282443498991e-03,-6.189018277838896111e-03,1.381620625008446760e-03,3.029837012290954590e-01
-3.114474373181003730e-01,-3.070042612055740583e-01,-3.267712918821719104e-03,9.506221299535388492e-04,-4.283847897602297526e-03,1.240714388133213815e-05,3.060767054557800293e-01
-3.030537103848883751e-01,-2.385657868185700470e-01,-3.456170413195513991e-02,-2.746611047504430442e-02,3.921240941252111291e-03,-1.240726273944665198e-02,2.484014183282852173e-01
-2.802527404883288220e-01,-2.386581722232395397e-01,-2.088719105875741500e-03,-1.552643457810066671e-02,1.074779518603847031e-02,-1.222462535304024052e-02,2.627799510955810547e-01
-2.892952073717378614e-01,-2.474116465644244645e-01,-2.641651505097042385e-02,-1.782612697354173451e-02,1.054963589510828428e-02,-8.226311597558459351e-03,2.476678341627120972e-01
-3.164857538612633747e-01,-3.258594859561025348e-01,-5.671906688315575540e-03,-1.360437642930747201e-03,-1.344169413203086423e-03,-1.847182575253013791e-03,3.156387209892272949e-01
-3.815744389115970359e-01,-3.823620281001323673e-01,-1.493348386847015985e-01,5.263370760783369750e-04,-4.472816101900727558e-03,-1.810725983644329018e-02,2.348685413599014282e-01
-3.863912864022877591e-01,-3.840171886959224956e-01,-1.343821283035159797e-01,-5.010553719597759907e-03,1.251057913010440378e-02,1.006901886731478672e-02,2.525172829627990723e-01
-3.732420914902067621e-01,-3.808926973644287117e-01,-1.118378250298875387e-01,-4.551734127068178884e-03,7.623605111645065033e-03,3.456327272753532964e-02,2.724169492721557617e-01
-4.955891808260641795e-01,-5.687049625989895052e-01,-1.628820819052905211e-01,3.788853671623901992e-02,3.121146868461241453e-02,5.277978762130226126e-03,3.842899203300476074e-01
-3.669914660309003263e-01,-3.755442440175407737e-01,-1.013316970385142457e-01,-3.485629254528743205e-03,-2.405230587891525780e-03,3.589845388342193661e-02,2.772008180618286133e-01
-4.032351366368629453e-01,-4.084514032234687342e-01,-1.248540615249808527e-01,-1.371091457532605876e-02,-1.410068151208834601e-02,-2.522329690465646007e-02,2.864339947700500488e-01
-3.159143314752220766e-01,-3.159934797729181954e-01,1.706038606219900666e-03,1.450670606417863665e-03,9.344223616592703136e-04,-7.533350109253256904e-04,3.176766932010650635e-01
-7.937443157078190037e-01,-7.661803632395343122e-01,-2.011878583859870728e-01,9.167566417480172217e-03,-4.228704195689577533e-02,6.505029501635467559e-02,5.948622226715087891e-01
-3.194564211292034162e-01,-3.047923252342912281e-01,-3.955034001172613722e-02,-2.496951364339112384e-02,2.847876485275374972e-02,-3.065694318361113224e-02,2.856238484382629395e-01
-3.028583159867366259e-01,-2.874567911036768342e-01,-3.567722593952998844e-02,-2.044032172755204380e-02,1.530944636500163394e-02,-1.845622676654089939e-02,2.654927372932434082e-01
-2.640527485256010665e-01,-2.591279128997825421e-01,-1.010045561332306718e-02,-1.646507332531754741e-02,1.178755361630566545e-02,-1.429117485685302280e-02,2.551630735397338867e-01
-2.909552461603525653e-01,-2.915449248797238324e-01,-5.311858329795418610e-02,-3.090094719306523893e-02,6.663487816775893503e-03,-6.026501487759105755e-03,2.445682734251022339e-01
-2.850868223900525633e-01,-2.907301886930567791e-01,-2.433178245725428623e-02,-6.179086038070828041e-02,2.638739729703463641e-02,-2.851519183205278307e-02,2.923681437969207764e-01
-2.690388653302797084e-01,-2.822284874586571957e-01,-1.525066319588813668e-02,-1.547838858306592458e-02,1.576261856339946157e-02,-1.603907877421470798e-02,2.648880183696746826e-01
-2.460385875173760062e-01,-2.744735227415717738e-01,-1.429445841184093235e-02,-1.833677597074204538e-02,8.565213081324397210e-03,-8.769968123016147130e-03,2.501260638236999512e-01
-2.546096782527208502e-01,-2.311168534943642827e-01,-2.634378104779161456e-02,2.681560210159895236e-02,-3.131161444001264501e-03,-4.316198582388816249e-03,2.225694358348846436e-01
-2.638048524107281523e-01,-2.456392489008656921e-01,-2.677818558314087882e-02,2.208301015929512237e-02,1.563741496288493724e-02,1.540688542298663741e-02,2.347649484872817993e-01
-2.325737187663598493e-01,-3.080027933926265393e-01,-3.264742758103805764e-02,2.291592969352872211e-02,-1.201569154532907031e-02,-7.046980307884459678e-03,2.507944405078887939e-01
-2.211370497555718018e-01,-2.533989426883253016e-01,-1.385985796122637947e-02,4.469738100264127045e-02,1.510208288829441650e-02,8.678067964874932802e-03,2.399906963109970093e-01
-2.775311950664451355e-01,-2.936864208384503683e-01,-5.017841199619024750e-02,1.509971881884222475e-02,5.173921471168930857e-03,3.593977995262191607e-03,2.375421673059463501e-01
-2.160451272641184528e-01,-3.744113797635924001e-01,-4.628342982253014215e-02,-4.646098520452315861e-02,-9.997072050181906450e-03,-3.645937950250673423e-03,2.959712743759155273e-01
-3.138213969879211640e-01,-3.114491711665343665e-01,-1.993737101066705986e-02,1.062590669405378977e-03,-9.824548227756249846e-04,7.043105355613202105e-03,2.929699420928955078e-01
-3.054651371676113114e-01,-3.090209938858108907e-01,-5.702140822488876992e-05,-3.884342440633183307e-04,2.919713773658472785e-03,-1.036842644795774992e-03,3.072490990161895752e-01
-5.821163935111350884e-02,-2.590022837908726450e-01,1.339756281624793210e-02,-5.076748487351188943e-02,1.907571546787438163e-02,-8.480422027264029189e-03,2.624168992042541504e-01
-3.113024731243557719e-01,-3.124489907336338024e-01,-2.178409463437169791e-03,6.249182346411239093e-05,3.307644782307620043e-04,-4.350979542760726598e-03,3.097911477088928223e-01
-2.335459601485079806e-01,-2.945774794900568594e-01,-2.108071909983735837e-02,-4.391423287016488902e-03,-3.062981288273958300e-03,8.761077318027030852e-03,2.492983490228652954e-01
-3.105206366093062886e-01,-3.125937221341388295e-01,-2.944633117142325673e-03,5.318432869278841724e-04,-2.464279622832644609e-03,2.652403333735596676e-03,3.086828589439392090e-01
-2.698547495593975332e-02,-2.804678543828003079e-01,2.565453636172117247e-02,-4.254140760381575764e-02,-3.639536992572410187e-03,-1.059355422513224600e-02,2.935529351234436035e-01
-4.552794155618390959e-01,-2.196767346886168981e-01,-6.910286446795607662e-02,5.512500623816252165e-02,1.706907388802845690e-02,-4.959845917423646652e-03,3.517397940158843994e-01
-3.243092793222512871e-01,-3.170550776043080665e-01,-1.941728182410451531e-03,6.806409686822540274e-04,-9.104621398137914155e-04,1.099554899014121810e-03,3.188141286373138428e-01
-2.990426965640567980e-01,-3.045575511409210345e-01,-4.071215395834437700e-04,3.999508016856952229e-05,-1.547912738959271190e-03,-5.796407844704144254e-03,3.016099035739898682e-01
-5.255739251503190740e-02,-2.452990381226700656e-01,2.980046700370636570e-02,-8.303950055015435483e-02,-1.159011012123571140e-02,2.924906134755862839e-03,2.844666540622711182e-01
-3.294675404557483311e-01,-3.261671163523029437e-01,-1.198830404465964783e-01,6.735681107085336348e-04,5.394987864783867739e-04,-2.847149787098370087e-04,2.079598903656005859e-01
-3.145782730520896298e-01,-3.147842127087971953e-01,-3.752299792102453679e-04,2.249837958711094644e-03,-2.259877848557834655e-03,3.894472600025179233e-03,3.144269585609436035e-01
-2.049115292974235392e-01,-4.718251837503931734e-01,-3.923256941494723815e-02,1.804312438912799091e-02,-5.022003649618635851e-02,8.504105791300753739e-03,3.894536793231964111e-01
-3.282894436702711305e-01,-3.248194719308686862e-01,-1.226737814399786464e-02,7.618962092188816650e-04,-5.732535368607344925e-04,-5.946647770101630252e-03,3.144744932651519775e-01
-3.157474710485475011e-01,-2.875439685465627226e-01,-2.958595414635473153e-03,-6.016594928786591148e-03,1.011007960371522289e-02,-1.656854036357644985e-02,3.017438650131225586e-01
-3.298985245046031078e-01,-3.300826913144714880e-01,-3.478707630285507446e-02,2.969925574299723658e-03,-3.716536806400767227e-03,4.215714427994243958e-03,2.954088151454925537e-01
-3.108080976644764792e-01,-3.162289245313383290e-01,-1.923995064374522945e-02,4.801798490216903663e-04,2.229955776605756310e-03,-1.497736786978452620e-03,2.943539619445800781e-01
-3.245080311565885500e-01,-3.243319454099079513e-01,-2.453456337531206843e-02,1.512888449066330989e-03,1.718669430044935352e-03,-1.114900773424624091e-03,2.999179065227508545e-01
-3.155494920047205998e-01,-3.153788628013205475e-01,-5.165405151762947344e-03,1.100785603873803784e-03,3.388604041037865736e-03,-3.568545696190015149e-03,3.104217052459716797e-01
-3.136387409333519782e-01,-3.138967997719160907e-01,-3.924642962916169431e-03,1.289158505490779760e-03,4.385381882494257186e-03,-2.561776489723236773e-03,3.099761009216308594e-01
-3.871401679695281595e-01,-3.652802810294181746e-01,-4.876614000772919177e-02,-6.054694504753873469e-03,-5.818728535367882196e-04,-2.160921560643239842e-02,3.302875757217407227e-01
-3.137311229043207583e-01,-3.136405193334153574e-01,5.431480168320290680e-04,-4.099176492903307961e-04,1.417446052820546271e-03,-2.973347382675247709e-03,3.142815828323364258e-01
-3.472908115051293043e-01,-3.411982981988667674e-01,-6.933789835058110085e-02,-1.505047475997280896e-03,-3.878405345511075613e-03,-4.037892508050916832e-03,2.751405835151672363e-01
-2.796641232118134424e-01,-2.964480105920509478e-01,-5.446302820076373563e-02,1.801170734092516837e-02,-3.282239322524065778e-03,-2.020958928560501276e-03,2.362092733383178711e-01
-3.261902283254913271e-01,-3.305315590334786391e-01,-7.871254504554370257e-02,-3.847345096808348075e-03,-8.947324377813473855e-04,8.609287765430557234e-04,2.497748285531997681e-01
-1.901838247111678204e-01,-4.657235566587654696e-01,-4.885844547513562564e-02,1.545172796789680628e-02,5.922466547446587123e-04,-2.067993560724634867e-03,3.681927621364593506e-01
-3.008093861643845734e-01,-2.919396520311834387e-01,-1.233277637749768951e-02,1.103579512291734226e-02,-1.800736425731378626e-02,-1.842495205416638804e-02,2.882625758647918701e-01
-2.629401331574706679e-01,-3.006770151270035107e-01,-2.684518256616030829e-02,1.050142833720821116e-02,-6.447563885565226090e-03,-1.123376664310532166e-02,2.586668431758880615e-01
-2.932394457381678476e-01,-2.866357698934801634e-01,-2.142158666035060000e-02,8.631821964718967496e-03,-1.231137020555883067e-02,-1.062841049973552859e-02,2.704638242721557617e-01
-3.248437268854803550e-01,-3.201430137397810460e-01,-7.039959942255549774e-02,-1.965147974760843644e-03,-7.851655765471351155e-04,1.045644160265721436e-04,2.521533370018005371e-01
-3.119850558245668704e-01,-3.128754115460041230e-01,-3.833785536153710982e-03,6.246068314133485031e-05,3.313138998012456291e-04,-4.679513543968452476e-03,3.087043762207031250e-01
-3.206884270967881867e-01,-3.164776199336495344e-01,-3.965009784981321506e-03,3.123879568266083040e-03,-6.544377926226451533e-04,-2.754999943503319039e-04,3.146880567073822021e-01
-2.997460791342677622e-01,-2.584422056380106802e-01,-2.497252740181502007e-02,3.549439755850738055e-03,-5.348239385356162202e-03,-4.476999293037688766e-05,2.568674981594085693e-01
-3.218386542010800433e-01,-3.325924694956681194e-01,-2.927631612200282119e-02,1.503099208209315168e-02,-1.829079494063252584e-02,-1.623154016738412309e-02,3.022025227546691895e-01
-2.948915797874502864e-01,-2.573022536120020409e-01,-4.056798566617866864e-02,-5.222786993408045156e-03,-3.421315298819834188e-03,2.528166142726414873e-04,2.380141466856002808e-01
-2.603541138163613655e-01,-2.996909254931579003e-01,-3.005922668921534591e-02,1.648030252706266657e-02,-1.266203668074670358e-02,-1.001529282115782953e-02,2.554190456867218018e-01
-1.849293913888478968e-01,-2.936358525797920782e-01,5.237048512971492764e-03,6.276536996974022009e-02,-4.602785874976442898e-02,-2.831180096626430363e-03,2.947047650814056396e-01
-2.257188661049451261e-01,-2.971295900491640607e-01,-3.693398273624276529e-02,6.101939918333412587e-03,7.217528605774988946e-04,-4.224698797834149262e-03,2.332108467817306519e-01
-1.749706218054807860e-01,-2.742424444809499762e-01,4.324116931479243808e-03,5.807073644068599244e-02,-3.200040999569232769e-02,-1.677110657942684768e-02,2.717221677303314209e-01
-3.182821380246603216e-01,-3.283137287021583028e-01,-6.235757275195402682e-03,2.226381336581348988e-04,6.696710875879833538e-04,-8.721741574125824821e-05,3.171835541725158691e-01
-3.076741497312158180e-01,-3.489823843439061046e-01,-3.791628268011706937e-02,3.477075153331508212e-02,-2.648045469830231924e-02,-2.630463491298458759e-02,3.056556284427642822e-01
-3.248509608063423482e-01,-3.199821437502975985e-01,-7.188887819902206600e-03,4.138330226056238792e-03,4.265267786285851528e-04,-1.104166972168656082e-03,3.153440058231353760e-01
-3.162004652392920723e-01,-3.149959293588908693e-01,-2.143998302971961145e-04,6.766013687860805400e-04,1.442747492677065677e-03,-2.809608605092899728e-03,3.154351413249969482e-01
-3.182509504343802309e-01,-3.175378234320790916e-01,-8.125808238458348542e-03,-1.351988996056478331e-03,5.114985073231268983e-03,3.504560978041201293e-03,3.099641501903533936e-01
-3.278336775587969432e-01,-3.236818118404886091e-01,-1.402291087337650954e-02,-3.891920364879924120e-03,2.712387317648386892e-03,2.082021814053817282e-03,3.118846714496612549e-01
-3.088481787664698608e-01,-3.291944213482115300e-01,-4.574863154012642763e-02,2.701633820823379044e-03,1.430415703493998283e-03,3.094816433757286833e-03,2.739437818527221680e-01
-2.762011084288501506e-01,-3.066470087749019191e-01,-1.750016109975569001e-02,2.184474797725179964e-04,2.209777521876777825e-02,5.351958860163577060e-03,2.779937386512756348e-01
-3.124556824606091188e-01,-3.150592110826949122e-01,-4.307632054894733331e-03,1.077878025025679224e-03,3.694353303476456685e-03,-3.966767618279451457e-03,3.096060454845428467e-01
-3.489475226598644508e-01,-3.784579449232389758e-01,-5.768755832038569009e-02,1.059715347326683002e-02,4.484360540158412872e-02,9.632688339890869283e-03,3.177208602428436279e-01
-3.194191729073838637e-01,-3.520582124987352568e-01,-3.136652515736756963e-02,1.537235400183839876e-02,2.007507025015942137e-02,2.115224129535942486e-03,3.088248372077941895e-01
-2.815534643795062353e-01,-2.973009071396299774e-01,9.441862751662921660e-04,5.662016623562032055e-04,1.621360472707320324e-02,5.789962804497980446e-03,2.922185659408569336e-01
-3.281499903947638352e-01,-3.279063281033742228e-01,-2.820772380472630347e-02,-1.767659317884440109e-03,-1.830287220435515647e-03,4.051950485509666668e-03,2.999350130558013916e-01
-3.001619774016727193e-01,-3.290752931768357037e-01,-1.863948957228020453e-02,8.878338417052770298e-03,1.483902621817261187e-02,4.156194568340408797e-03,2.986294031143188477e-01
-3.199132992379572493e-01,-3.178737345918741797e-01,-4.073999879147194303e-03,3.135827907056395591e-03,-7.948462626495921652e-04,1.534632397984891537e-03,3.148855566978454590e-01
-3.179666192042137629e-01,-3.140424515782905823e-01,-1.417587088130417561e-03,9.502189919637938362e-04,2.469201375509468867e-03,-3.916950412119190976e-03,3.147118091583251953e-01
-2.954588254021903171e-01,-2.542285732435926038e-01,-3.254890796864057245e-02,1.955321401713803683e-02,8.451369366250250856e-03,1.092512880685432911e-02,2.483969628810882568e-01
-3.184160660615187877e-01,-3.140963305349891432e-01,-1.596997475364181351e-03,-1.575780802437828790e-03,1.196657530472762781e-03,1.056709033617114378e-03,3.147054314613342285e-01
-3.136726956364945806e-01,-3.112968259690670481e-01,-5.068066853851305176e-03,9.720139634491949468e-03,1.768593921828009660e-02,1.422494138221545856e-02,3.103838264942169189e-01
-3.125085630782026280e-01,-3.147703089519379716e-01,-4.899582831477927725e-03,-2.908680789548084649e-04,4.325555610643339738e-03,-3.811910398795606732e-03,3.089079260826110840e-01
-2.935707741257936876e-01,-3.027688118589725308e-01,-3.955563014444757330e-02,7.006686912778735225e-03,6.667046898580810711e-03,8.330463794361331678e-03,2.596797347068786621e-01
-2.996971890868772581e-01,-2.979533578139002548e-01,-2.109005555898296747e-03,-1.245853793810974743e-04,-5.154069028203749937e-03,1.808896855391927154e-03,2.968709766864776611e-01
-2.918262928709617343e-01,-2.968360194089031401e-01,-1.177200177817749882e-02,-8.864100429175609738e-03,1.671905501798182439e-02,-1.054951837967555567e-02,2.850731015205383301e-01
-2.867373069049489742e-01,-2.612159321305184134e-01,-4.329216496087179289e-02,6.882465197541234869e-02,-3.992209203935564651e-03,-1.491826661913039920e-02,2.619729042053222656e-01
-2.200942003021699733e-01,-2.286430756523412655e-01,-1.757182781020655282e-02,3.369632681132948143e-02,4.882737796645907611e-04,1.872321549376454843e-03,2.150285840034484863e-01
-2.994210426932987223e-01,-2.742044452072565641e-01,-2.895024993389083701e-02,-4.373163136390864972e-03,-7.094684212137563999e-03,1.083312675427824251e-03,2.591946721076965332e-01
-2.937409853735006848e-01,-2.877633322196098686e-01,-4.398086612388291128e-02,1.229885475372980916e-02,1.079111504872168857e-02,1.236689297368409428e-02,2.493688464164733887e-01
-2.687023285111764248e-01,-2.833008856216364668e-01,-3.602055250315081003e-02,1.545905945259978126e-02,1.136634029863781321e-02,9.961142923976474411e-03,2.432137876749038696e-01
-2.840821869129468435e-01,-2.700816266110009911e-01,-3.839550147207224096e-02,1.269287797018260264e-02,-9.037161884093132189e-03,-8.567216987389159044e-03,2.409704178571701050e-01
-3.216316310034381121e-01,-3.275574569306389794e-01,-1.192730325445237605e-02,-4.189423174938403560e-04,1.311082185454072978e-02,1.180375849983692155e-03,3.135403096675872803e-01
-2.953782771164448206e-01,-2.199640401467548578e-01,-3.683154371225413892e-02,6.686417397290957132e-03,2.926778412176935049e-03,-2.910183305966058950e-05,2.306413650512695312e-01
-2.928016800479211756e-01,-3.251556325388161306e-01,-2.011097599457647989e-02,-1.764421616924334709e-03,1.211960677714997610e-02,8.190387863047533378e-05,2.909976541996002197e-01
-2.415113828088323866e-01,-2.840905960626726734e-01,8.497206898908704620e-03,-1.859551531545559910e-02,2.651432766134013963e-02,-1.722405010341315421e-02,2.810673713684082031e-01
-2.860525681213364479e-01,-2.986324163271030230e-01,-6.057515421600351280e-03,7.466155247050566997e-03,-2.382211178464965079e-02,-1.862851963579334469e-02,2.915279567241668701e-01
-3.130644801544308353e-01,-3.146504694953950465e-01,-2.145138704773894012e-02,2.912408266377385004e-03,2.164072939820186909e-03,-2.180773855866536496e-03,2.925012409687042236e-01
-3.216088625317498617e-01,-3.141795199482358969e-01,-5.050594732680740995e-03,2.061114312792983530e-03,1.167589609716842463e-03,9.983392368008879234e-04,3.129414319992065430e-01
-2.431540810913289941e-01,-2.919126492692415420e-01,-1.560284536216649531e-03,-1.626988030379171099e-02,3.451918394885124253e-02,-1.221043195709422234e-02,2.781022489070892334e-01
-3.312424087675253648e-01,-3.174185652536166136e-01,-6.890292135866865619e-03,-3.491732769057792705e-04,1.293421863214493268e-03,-8.969539794989595780e-06,3.176743388175964355e-01
-2.656907394694493219e-01,-3.260461473650149156e-01,-1.687933554290044214e-02,-2.478855031926761009e-04,3.386516146397779148e-02,-1.416761914163412392e-02,2.908778190612792969e-01
-2.834522464169226819e-01,-2.853515678963100544e-01,-1.802432059271369402e-02,-2.802937771634407115e-03,-5.694224948787529779e-03,4.680884163741072523e-03,2.667326331138610840e-01
-3.091485451936566431e-01,-3.210100292369662545e-01,-5.261839755733771495e-03,3.957497309720369935e-03,-2.372755114359420255e-04,1.636176684376132624e-03,3.100766837596893311e-01
-2.740895117723241015e-01,-3.454053265643609594e-01,-4.175863703581872421e-02,-5.789097466404515696e-03,-1.745504240068745591e-02,3.474721466873754994e-03,2.769173979759216309e-01
-2.971861327464537794e-01,-3.196790556799269933e-01,-9.842160800286686717e-03,-1.131492527173658027e-03,1.488450721958900491e-02,-4.423318763340406377e-03,3.004378080368041992e-01
-2.793258877962925268e-01,-2.771123188970748275e-01,-2.408119405642505928e-02,1.779851813637787616e-03,-4.730908046417535429e-03,-1.923480016028234494e-03,2.543177008628845215e-01
-2.788459868204964387e-01,-3.060070665194455364e-01,-2.390080785037185240e-02,-1.391158942910558118e-02,-1.535472471673135150e-02,1.613849368667494982e-02,2.733653485774993896e-01
-2.560972620989689919e-01,-2.949114502857620446e-01,-4.457238496905108205e-02,-4.509917371121720600e-03,7.577933955298077860e-04,-2.652879808137712479e-03,2.335451394319534302e-01
-2.870667806734822913e-01,-2.878884812081898281e-01,-4.131945730312303056e-02,-2.982002738130426142e-02,-1.723242154085780423e-02,1.957222776965931305e-02,2.555428445339202881e-01
-3.083142994623407351e-01,-2.867977555404136458e-01,-5.929108835976604208e-02,-5.792207624925076875e-02,-4.213634749588571204e-02,1.549750487329544686e-02,2.706090211868286133e-01
-2.815192230839448362e-01,-3.055857745921386481e-01,-5.930851676273052320e-03,1.868501631183808838e-03,-3.306990329196385315e-04,4.962646488575503216e-03,2.885226011276245117e-01
-3.220389912972595470e-01,-3.228690869764004878e-01,-1.077993970570054194e-02,-1.402135087575932283e-03,2.960122032518577601e-03,8.837974296856506567e-03,3.121021986007690430e-01
-3.223506639978717669e-01,-3.266163757616510899e-01,-6.610774738515928783e-03,1.728472731040379051e-03,3.164166836390438619e-03,-6.688113429953630729e-04,3.179576396942138672e-01
-3.263134260730893299e-01,-3.153024789933565608e-01,-3.995182346876957613e-03,-5.896718361105356783e-04,3.378970140735904721e-04,-1.229886906066707903e-03,3.169655799865722656e-01
-3.202946665336907639e-01,-3.349459400992287894e-01,-2.764363636323119433e-02,1.337071909410223998e-03,4.528483228274248927e-04,3.935759311744716459e-03,3.003322184085845947e-01
-7.431438243481618411e-01,-7.558644887479337715e-01,-1.751433583622292733e-01,-4.283327002901286817e-03,-3.379306482261643096e-02,2.555555843940473040e-02,5.791820883750915527e-01
-2.930138610279319211e-01,-2.906663152480606360e-01,-9.813546018768992685e-03,-1.975589157077721307e-03,-1.304898522050857270e-03,-1.181356920678465591e-04,2.820637524127960205e-01
-2.771498735357527110e-01,-3.165687250775197081e-01,-3.451804972759786594e-02,-4.806648381976412476e-02,-2.520857656289254151e-02,9.968446138468454315e-03,2.812899053096771240e-01
-1.547330511425739630e-01,-1.870236355115116322e-01,1.371933796788532556e-02,-6.344099283355977836e-02,-3.938673614240897035e-03,1.003344945029043716e-03,2.167536765336990356e-01
-2.684505683691587596e-01,-3.011051179596936356e-01,-4.253877959455487634e-02,-2.536823008086145151e-02,-2.428325262873626961e-02,1.355966089005873967e-02,2.524495422840118408e-01
-3.158511860923961523e-01,-3.238578772186420651e-01,-2.734419210437766257e-02,-3.572354486950582095e-03,1.590141256056573507e-03,-2.012297552710591401e-03,2.926916480064392090e-01
-3.132243526632714214e-01,-3.152369435278831178e-01,5.279185317304535552e-04,-1.914220837970682812e-05,3.002127421382893256e-03,-2.500559536220882222e-03,3.148361444473266602e-01
-3.500686049991655890e-01,-3.512612383304354324e-01,-8.980282060204961003e-02,-3.585042748769037314e-03,1.422734266379029749e-02,1.037962285084655621e-02,2.627148926258087158e-01
-3.369613067803950979e-01,-3.428412445334989567e-01,-9.531252111044019593e-02,-1.632373585178386113e-03,3.859197516591761069e-05,-1.448037673891149936e-02,2.459402978420257568e-01
-4.227825441668839890e-01,-3.545940342727827987e-01,-5.356890909253259059e-02,1.315300747275617403e-02,-1.952434654365758915e-03,-3.676912202340833213e-02,3.469561934471130371e-01
-2.937440277341564210e-01,-1.957071694333529233e-01,-1.673994738805106852e-02,2.675203825429114945e-02,-2.032726310449824852e-02,-2.103881469753192401e-02,2.527852356433868408e-01
-3.590807752455515423e-01,-2.638613532144062912e-01,-3.339121625158869566e-02,3.403399853136401115e-02,-2.112766021275032380e-02,-4.525779471522486941e-02,3.083623349666595459e-01
-2.747284451679639083e-01,-2.795897377707063369e-01,-4.004830560348193735e-02,1.230253520281537633e-03,-5.158043722077862089e-04,-1.727088340273091709e-03,2.371782809495925903e-01
-3.384171171814583934e-01,-2.755163914725476948e-01,-2.484251397530470862e-02,2.057534025530052477e-02,-2.771297013781313587e-03,-3.900635516014114984e-02,2.973533570766448975e-01
-3.139307060298027752e-01,-3.153812021428848977e-01,-5.050162791503109982e-04,-6.955581099927588083e-04,-1.477193125986493499e-03,-1.922168514903733506e-03,3.141838312149047852e-01
-4.078836843495814435e-01,-1.922863496721392840e-01,-7.037547930375775973e-02,5.404462891239891070e-02,-2.502013510746175368e-03,-4.821156085887042669e-02,3.215313851833343506e-01
-3.079014355184903629e-01,-1.055761477586495134e-01,-2.911601857315183894e-02,1.504056596617852314e-02,-1.895463436673424859e-02,-4.675047114920572594e-02,2.656403481960296631e-01
-2.020761493666633490e-01,-5.971301736557581286e-02,4.955874125039681777e-02,6.062121863692298412e-02,8.755113946439314204e-03,-9.142033925650140669e-03,2.434529364109039307e-01
-2.990694142062527705e-01,-2.015120764819231802e-01,-1.672366880708786585e-02,5.391714205892967314e-03,-4.835941672974863187e-03,-1.421822273227713387e-02,2.499109804630279541e-01
-3.395646992313922641e-01,-2.154287963284151619e-01,-4.160274237969022182e-02,-8.136340390475373216e-06,3.049856431020679746e-03,-8.946277174428718740e-03,2.597523629665374756e-01
-3.058617501366295288e-01,-1.587443871672827855e-01,-2.038312593186036858e-02,1.063104788765436258e-03,-9.134272797264446006e-03,-3.301744478625490142e-02,2.542967796325683594e-01
-3.156847584272578500e-01,-3.160646178259968186e-01,1.162958777588651849e-03,1.464013305219524904e-03,-6.781926578723779806e-04,4.944898217592283473e-04,3.170512914657592773e-01
-3.063749673507806248e-01,-3.043574566444307017e-01,-2.246575771086833928e-03,-1.234410689460496528e-03,-1.004114133524555089e-03,-5.456206899797361171e-05,3.031372129917144775e-01
-3.399094455720353403e-01,-3.374680243511853917e-01,-3.665005889638209280e-02,2.763560699129488651e-03,3.460325382453869562e-03,3.218930699825361778e-03,3.021948933601379395e-01
-3.315544884142589965e-01,-3.251119613288706578e-01,-2.558423582372065797e-02,-4.429493827997946741e-03,-1.611668405896614018e-02,1.761055996533649609e-02,3.057066798210144043e-01
-3.203958477348932687e-01,-3.178216150843342636e-01,-8.961220115404316955e-03,3.689425229114830056e-03,-3.141950781976792038e-03,4.010823070645461869e-03,3.103468418121337891e-01
-3.128992264485381813e-01,-3.148754203141047037e-01,-7.369029500259860477e-03,-1.241998744827702136e-03,-1.010285843110938575e-03,-2.717316408354191175e-03,3.065717518329620361e-01
-3.309521667917513787e-01,-3.263014200768784567e-01,-1.471092083492805958e-02,1.266519229586643988e-03,-3.011403811613977150e-03,1.901846509942847719e-03,3.140099644660949707e-01
-3.089181727291978596e-01,-3.163089459525074143e-01,-7.845941982739107479e-03,-1.036314103044473980e-03,-1.422018663153557395e-03,-6.072472010272423303e-03,3.050314486026763916e-01
-3.325000696609729522e-01,-3.199874871639874496e-01,-2.843956884896822745e-02,2.091021266178665246e-03,4.719071048527304600e-03,9.545663393869925845e-04,2.981399595737457275e-01
-3.134653734427896299e-01,-3.151443756300609800e-01,-4.300712519285238011e-03,-1.020734997348969608e-03,-4.434134869397094413e-03,7.448362899988661976e-04,3.101104199886322021e-01
-3.197835715088779840e-01,-3.260990820302155369e-01,-9.723589202284443900e-03,3.976621208024630136e-03,-3.359953883127748172e-03,1.635953296892980139e-03,3.134080469608306885e-01
-3.030045570589361970e-01,-2.857532095774314440e-01,-1.266974434123768756e-03,-4.661297881918513922e-03,-8.811986856540677746e-03,1.386029397872976139e-02,2.949784100055694580e-01
-3.342912109156801481e-01,-3.424777050666238942e-01,-4.035420627517291581e-02,6.026917197980260349e-03,-9.352569656285947492e-04,-8.445907442899146939e-03,2.986601591110229492e-01
-3.180160235566802940e-01,-3.192477012111234469e-01,-1.043113426587197190e-02,1.730577515820935948e-03,-5.011531338769084241e-04,2.574355394036119665e-03,3.082506358623504639e-01
-3.098126759546981357e-01,-3.120559628491907933e-01,-5.462301098488636653e-03,-1.628374158207575220e-03,-1.338417985816243473e-03,-4.961114990465055434e-03,3.056208491325378418e-01
-3.192437463050781243e-01,-3.142058340271031147e-01,5.156001822778366606e-04,-1.038233549974316907e-03,2.159149670249058706e-05,-1.501455285267450568e-03,3.172861337661743164e-01
-3.424289535460893208e-01,-3.464970094726608218e-01,-5.779321937431441958e-02,-3.080455721273801274e-03,-2.123699040107878116e-03,-8.175801752625631857e-03,2.871140837669372559e-01
-3.161362944265944108e-01,-3.150387208449807463e-01,2.087088765710565230e-03,-2.238525892377116536e-04,-3.110104728263565782e-05,-5.579336995034874002e-04,3.176777362823486328e-01
-3.375290170466243023e-01,-3.318391166767177269e-01,-6.456271694487575319e-02,-1.033443267550646126e-03,5.040658785634997106e-03,8.209614354046041243e-03,2.706869840621948242e-01
-3.464941122485259983e-01,-3.541554605848760140e-01,-3.293216793784214946e-02,2.237439574867986988e-02,6.635613720459367787e-03,2.013569717531905889e-02,3.219198286533355713e-01
-3.641821742692089026e-01,-3.447743353027210023e-01,-5.074273105702534203e-02,1.060988261423344986e-02,-2.822998545158067300e-03,4.881035118181775712e-03,3.049112260341644287e-01
-3.346358252005670608e-01,-3.286896014171395430e-01,-1.237566360306849300e-02,2.437012674964958176e-03,7.063101191826424118e-03,1.356551082403542434e-02,3.204532563686370850e-01
-3.982587554593237655e-01,-3.284481859190762632e-01,-5.237211249809259339e-02,2.722789357849142769e-04,2.079291675918007801e-02,2.952291945236967807e-02,3.229188919067382812e-01
-3.261172912008689639e-01,-3.222963837961161371e-01,-7.948978037581905243e-03,7.083877658844082298e-03,5.865396053612898127e-03,1.221885203784014128e-02,3.173824846744537354e-01
-3.232443652277347534e-01,-3.236418563343443910e-01,-1.301256394267591432e-02,-4.512585133470366000e-04,1.077064241544035093e-02,1.120513867109966880e-02,3.115967512130737305e-01
-3.192537560833269561e-01,-3.149775927457001412e-01,-2.639666402116658261e-04,-5.092751165077053985e-04,2.536819824533294234e-04,-1.250828939617661074e-03,3.168822824954986572e-01
-7.048671947662452086e-02,-2.698874723243426255e-01,1.555863797363117584e-02,4.162463092351857685e-02,3.696383124248225449e-04,-2.462227541668275763e-03,2.637013494968414307e-01
-3.111960916516804954e-01,-3.141157161908706419e-01,-7.247837748871902019e-02,-2.201742041101574423e-03,9.109005333552818925e-03,-2.169952640499298350e-05,2.407386600971221924e-01
-2.921727197505879503e-01,-3.220893779746402119e-01,-1.617268806209631871e-02,2.715952163397168293e-04,-9.110007030516468736e-04,5.795255901627966756e-04,2.921159863471984863e-01
-3.184970379014334663e-01,-3.162105900758581112e-01,-1.396636999456429828e-02,-1.080426097431488874e-03,5.602765321716838068e-03,4.687179323394076794e-03,3.036633729934692383e-01
-3.105433519460544245e-01,-2.814254477114905839e-01,-2.313666307488376761e-02,-1.734934554978751278e-02,-9.764771885484840180e-03,1.989406016632719668e-02,2.783130407333374023e-01
-3.058219449282120195e-01,-3.008197271239114179e-01,-3.581763262765122469e-02,-1.588674072704405332e-02,-1.818314500264158612e-02,1.559834585252496339e-02,2.721317708492279053e-01
-3.081544183729891251e-01,-2.881996171603685708e-01,-1.480412564311228696e-02,-4.998191517516402047e-03,-9.106037926924968190e-03,9.287197397084678147e-03,2.849233150482177734e-01
-3.365806052885774724e-01,-2.414228139360988512e-01,-4.340396770596061105e-02,-3.710450960252333757e-02,-1.631447666539182287e-02,3.342977803031478568e-02,2.745739817619323730e-01
-3.267128053363665963e-01,-3.153922172324563622e-01,-3.878307033333888709e-03,-1.585994268053486222e-04,6.177851314339738746e-04,-2.794662683937224729e-04,3.173279762268066406e-01
-3.344283587876679120e-01,-3.282752394216775782e-01,-8.485334227981208843e-02,-2.404668537001985844e-03,4.647252629597231274e-03,-5.184744504190886335e-05,2.467225790023803711e-01
-3.007964192594771435e-01,-2.112453522468701328e-01,-1.905676446137263835e-02,-1.761547102399363407e-02,-4.601953081274623089e-03,1.243248830125996338e-02,2.522393465042114258e-01
-3.261842090113868942e-01,-2.596301887959451271e-01,-3.532781373979046458e-02,-2.472439462121333448e-02,-7.564688503921681260e-03,1.766659810918023987e-02,2.694644629955291748e-01
-3.374110404790021112e-01,-3.260459303134877196e-01,-6.369414991929217562e-02,1.785655192071809554e-03,7.437577668146688921e-03,-1.900912893824362442e-03,2.685621678829193115e-01
-2.898300252512142627e-01,-2.862672162900120609e-01,-6.389117910211655760e-03,-2.603114657817136302e-02,-2.404143895696339919e-02,3.433027193033705987e-02,2.943537533283233643e-01
-3.402507804077023468e-01,-2.925960384438999196e-01,-2.485365073065445851e-02,-1.983092176021762978e-02,-8.332375201761450800e-03,4.820095926958146287e-02,3.083410859107971191e-01
-3.124031462894226174e-01,-3.106398201097113621e-01,-1.712874870747727041e-03,7.508390400280863129e-04,-1.807005001012784240e-04,5.615706990419098120e-03,3.099679052829742432e-01
-3.198861368942232386e-01,-3.297501457973994743e-01,-1.183100215671264999e-02,1.991752913292359119e-03,-5.033962935145695587e-04,-3.438685355590255212e-05,3.131239116191864014e-01
-3.283137105703377023e-01,-3.301094738195107237e-01,-3.353014289450217955e-02,-4.812069342410928803e-04,7.882485996971093736e-05,1.445171214720129133e-03,2.956973314285278320e-01
-3.360415231300714067e-01,-3.270022348951220348e-01,-6.525932871334155783e-02,-2.731508745823994257e-03,7.352077997447293428e-03,2.037103499116016056e-03,2.667471170425415039e-01
-3.219156713176770657e-01,-3.140467859302046305e-01,-2.344496670338758193e-02,3.398008521241250787e-04,8.200342950055835222e-04,-2.411793701153041626e-03,2.946487069129943848e-01
-3.279100167223328866e-01,-3.162772696182862830e-01,-6.575838099732111974e-03,-3.032581624305545642e-04,-5.439423856368370835e-05,-5.598406942284109029e-04,3.156805336475372314e-01
-3.450367059356339583e-01,-3.904724482520169904e-01,-3.573921561952767001e-02,-1.492170711034497728e-02,2.942398145749294466e-02,5.148554946107506206e-03,3.393041491508483887e-01
-3.295892433764203711e-01,-3.196903864529986317e-01,-3.368353847538821388e-02,-3.318841167814046405e-03,1.121653171359655865e-03,-1.353200647525216321e-03,2.911552190780639648e-01
-3.480696374124379044e-01,-3.347339306643030699e-01,-4.330538614540835329e-02,-3.129282541963545813e-03,-5.690657260201291076e-04,-4.839915963239163968e-03,2.984886467456817627e-01
-2.780919003047410687e-01,-2.961457045263142795e-01,2.308629676011975107e-03,-9.439383294504549412e-04,1.647362084485281056e-02,1.114986021954568690e-03,2.912614643573760986e-01
-2.514725181726416570e-01,-2.731830077738378604e-01,-2.380965575243140786e-02,-8.356754066942024065e-03,4.410051265380817917e-03,-6.504548169294726429e-03,2.400816082954406738e-01
-2.854458043328345629e-01,-2.872706093121495385e-01,-2.635198147026174276e-02,-7.283264997787843899e-03,7.253705750699107960e-03,-1.000355328528993760e-02,2.611952126026153564e-01
-2.961898962897923093e-01,-3.044977092579873590e-01,-5.263730883578704445e-03,-1.810578886307265614e-03,1.145098871437274547e-02,-9.437599170524771028e-03,2.963012456893920898e-01
-3.045129412935342339e-01,-2.977908243015042755e-01,-3.502267532603051126e-02,-5.297391085240401795e-03,1.111860267019820422e-02,-9.782985769014056546e-03,2.675833106040954590e-01
-2.888855838039587343e-01,-2.769869684347189276e-01,-2.415701520930232937e-02,-9.931272352314446383e-03,1.210328959903976022e-02,-1.215132733994149505e-02,2.612493336200714111e-01
-3.160096613676216526e-01,-3.016342719487797308e-01,-1.731600339675795630e-02,-6.130493371219863756e-03,3.567976891769852454e-03,-1.908093504757198827e-02,2.938943803310394287e-01
-9.859385345380726473e-02,-3.226666712776234958e-01,7.945659747485345203e-03,3.168514513478713768e-02,5.456725000818817180e-03,-4.127716219045058157e-03,2.976309657096862793e-01
-3.148295250996475114e-01,-3.128047107929963211e-01,2.173078005043349581e-03,3.162487343387273436e-04,-2.041531397665916059e-04,8.608146873159366972e-04,3.159992396831512451e-01
-7.888121942532047570e-02,-2.994807467876580698e-01,2.478563619214382840e-02,6.135783972273688852e-02,-6.778535563737866747e-03,-9.028398654145317103e-04,3.061282038688659668e-01
-3.195076527869754601e-01,-3.241978037817123126e-01,-7.270741604396169233e-03,8.566406166859313626e-04,1.379540457315782311e-03,-7.282563513579310734e-04,3.146232962608337402e-01
-3.028893906472692743e-01,-3.104101385584377981e-01,-1.667823581146798961e-02,6.763244698817981416e-04,-5.153942178778421436e-04,8.638736094233030391e-03,2.904340922832489014e-01
-1.011195874168184100e-01,-2.880460665677204712e-01,5.976214821312697545e-02,6.306243062904266783e-02,2.773857977221951682e-02,-2.048238491826440827e-02,3.261824250221252441e-01
-1.220885831813556255e-01,-4.037776946948764545e-01,-1.680868362171683561e-02,3.544823266474305540e-02,-6.939854955257227995e-03,-8.336123928401743474e-03,3.524365127086639404e-01
-3.426202291079539775e-01,-3.621057658741395624e-01,-8.859562851928731719e-02,9.671891434552500055e-03,8.062122860484882692e-03,-2.305149807610384644e-03,2.652349174022674561e-01
-2.699779629759487265e-01,-2.042108770673728702e-01,-1.599776569940217219e-02,6.296718486096934686e-02,4.729836018272718517e-02,4.840500278063465667e-02,2.788599133491516113e-01
-2.408884016371098669e-01,-1.760875233174469257e-01,3.395956849352380069e-02,6.063933481723905033e-02,-1.528865574864616758e-03,5.318025208448019098e-02,2.853997051715850830e-01
-2.888369066291411880e-01,-2.243038113690510871e-01,9.683621890608506977e-04,1.247198162975539718e-02,5.070908021874820371e-03,3.283169409811356049e-02,2.706051170825958252e-01
-3.158664567285435210e-01,-3.185985418870873609e-01,-4.754542243273485180e-04,1.248985048237131936e-03,-1.230516528409993137e-03,8.264315930314874450e-05,3.167804777622222900e-01
-3.715162269752585456e-01,-2.864612536470683146e-01,-4.291108680858965463e-02,2.401071163475198417e-02,1.717597142423551645e-02,3.407164922672231006e-02,3.055542409420013428e-01
-2.678017802068358710e-01,-3.383111654762271936e-01,-2.584597180947051376e-02,1.303887425063062454e-02,-2.741922269471267284e-02,-3.140819119963095870e-03,2.887376248836517334e-01
-3.577516627253269910e-01,-1.158051237196139061e-01,-1.390518710159638349e-02,2.683227767989362911e-02,-1.025975720987978672e-02,4.939523371197110380e-02,3.215142786502838135e-01
-2.570958312768282239e-01,-2.856249530193289976e-01,-3.947958046258948084e-02,-1.763062453086908926e-02,-6.918018679982350545e-03,2.933546528176734537e-03,2.355441600084304810e-01
-3.308308938238193608e-01,-3.298470478801338035e-01,-6.576663141455404982e-02,5.215876027791745834e-03,-1.104249297366390482e-04,-7.476428736196192790e-03,2.650445103645324707e-01
-1.608781082431696152e-01,-2.791136729396145877e-01,-1.493913976958100021e-02,5.120719842257179938e-02,-2.482022776373201192e-02,-9.084365151623204071e-03,2.499904930591583252e-01
-3.163570566672651019e-01,-3.165190026890210562e-01,1.659515046434606456e-03,8.212300428839009077e-04,-6.844108197113470734e-04,8.051274016085784154e-04,3.181060254573822021e-01
-2.174515641243636443e-01,-2.258511164006622440e-01,-1.132385803128033164e-02,4.920970715018193470e-02,-4.788341482638827119e-03,-1.152021603137849855e-02,2.280839383602142334e-01
-3.228800074230787631e-01,-3.175045109696509327e-01,-3.890841556550894698e-03,2.203838810772137426e-03,-6.449178241727459519e-04,1.038442646338986553e-03,3.163657784461975098e-01
-3.254945535823268177e-01,-3.199082010985278557e-01,-2.163060634699953688e-02,4.371350368141776153e-03,-6.584237851723668969e-04,1.139259463336666231e-03,3.012134432792663574e-01
-1.886450732820712795e-01,-3.389392005357853566e-01,-4.494859170239071111e-02,5.694403225400561375e-02,5.900596769627265703e-03,7.645189977550152088e-03,2.735715806484222412e-01
-2.382135943240042963e-01,-2.921639043626887422e-01,-4.160251589790411875e-02,2.896618669789513545e-02,-3.192683426835495747e-03,-4.819458515040893169e-03,2.340751141309738159e-01
-3.122288804213404489e-01,-3.121514769964149338e-01,2.568241286948769186e-04,1.032351256765968875e-03,-5.247739719308363270e-03,-9.544417820733314006e-06,3.125843107700347900e-01
-2.300840439256233716e-01,-2.493290236290572059e-01,-1.343001030437493415e-02,5.637738267539917081e-02,-1.057965982547448038e-02,-1.066749183477998415e-02,2.483772188425064087e-01
-2.526576922596433517e-01,-3.225039719813230787e-01,-4.756319782908088878e-02,5.306241270375042229e-02,-9.211095994895860881e-03,-2.376340395094449914e-02,2.676991522312164307e-01
-3.313982869198789372e-01,-3.237136921441328696e-01,-3.563821660369448363e-02,4.241953560368389407e-03,-1.497841033873121511e-03,1.949129225511795184e-03,2.921170890331268311e-01
-3.397761092615605438e-01,-2.997074898599608739e-01,-2.495288292739161751e-02,-7.398399504207915818e-03,-5.723714817334188583e-03,1.927659544698940089e-02,2.991352081298828125e-01
-3.556712876623396857e-01,-2.993967649723768831e-01,-8.769147211695915711e-02,2.471025886421565967e-02,-5.636846665718946159e-03,3.861336685425986737e-02,2.574872076511383057e-01
-2.924045520099406437e-01,-1.603445485362069711e-01,-1.014288660131645869e-04,1.927306673727070124e-02,8.791076945420903122e-03,6.390011631540475079e-02,2.790614366531372070e-01
-4.241524344714960870e-01,-3.315628886014277965e-01,-8.195555964642417535e-02,7.590184871209660440e-04,6.705378928948932393e-02,8.832399539716863368e-02,3.617753684520721436e-01
-3.194188881613946318e-01,-3.250657525130662973e-01,-3.549873364491334948e-03,3.180729671085010240e-03,-1.867886700611290796e-03,1.044014573731458185e-03,3.187991082668304443e-01
-3.417921761523426971e-01,-2.038711505298648474e-01,-2.787981138695305727e-02,5.148935120171514029e-02,9.382296445064483570e-03,5.962130985379064663e-02,3.052043616771697998e-01
-3.507383007039137635e-01,-3.603974897417466794e-01,-7.234929426910685635e-02,-8.181489412614958165e-04,-4.036933334370287028e-03,-1.359294198770157926e-02,2.844080626964569092e-01
-3.154462861604069301e-01,-3.130827972785388269e-01,1.022610653006239545e-03,5.474618785544323922e-04,-8.943221166348111506e-05,1.334735464680068167e-03,3.153037428855895996e-01
-3.116934481225936970e-01,-3.114098067575203910e-01,-1.301544764774492657e-02,-1.590346590283773544e-03,5.493282251663551483e-03,4.681217149436066489e-03,2.988106012344360352e-01
-3.133860476896401792e-01,-3.259459608324208335e-01,-1.240715910366560482e-02,-1.540959200372895958e-03,8.424696633286063311e-04,3.859579930601446298e-03,3.075390160083770752e-01
-3.441330565827582788e-01,-2.934958280521657858e-01,-2.414175023957271238e-02,2.107917840995646164e-02,2.234226574455994152e-02,4.416176902170337870e-02,3.121480345726013184e-01
-3.162346200732729651e-01,-3.253337749057835793e-01,-2.167590941406796756e-02,8.881667236100586121e-04,1.564562072228775635e-02,9.577997831445316662e-03,3.008983135223388672e-01
-3.890018288492356202e-01,-3.394471613121170517e-01,-3.829576456663455475e-02,-2.075566721231143698e-04,7.601860656072325154e-03,1.580287469543342760e-02,3.301423490047454834e-01
-3.058308809728881861e-01,-3.091415485739236191e-01,-9.679650280506379989e-03,1.505351231408051833e-03,2.672712023963451280e-03,4.424211932028028482e-03,2.979663014411926270e-01
-2.515718769324905568e-01,-2.485390956625953551e-01,-2.737683655179065645e-02,-1.539104470974393159e-02,-5.750920198591310791e-04,1.166049610135467271e-03,2.242953479290008545e-01
-2.336481184911907705e-01,-2.524391345256823960e-01,-6.694740469593757348e-03,-3.598980106806015655e-02,-2.035074821722654762e-02,1.369348767010313342e-02,2.486290633678436279e-01
-2.425189164029746269e-01,-1.935759461322581476e-01,4.964500416083567069e-03,-3.839207330695047771e-02,-1.658605192585842214e-02,2.123414250318391219e-02,2.411030828952789307e-01
-2.467459876425975862e-01,-2.285809744537630472e-01,-8.148151844171724889e-03,-4.433459468153153754e-02,-2.368780246692179375e-02,2.744262027455213887e-02,2.505275607109069824e-01
-2.129456810431312463e-01,-1.832070739210329702e-01,-1.963482085256568199e-03,-6.138414341425919157e-02,-9.350497253711115633e-03,1.047081904757539948e-02,2.258734256029129028e-01
-2.992052219987373918e-01,-2.773098896849673922e-01,-3.485978361504429857e-02,-1.179685800157324535e-02,-5.760664941061814821e-03,7.076421189345285384e-03,2.554158568382263184e-01
-2.720704381934206384e-01,-2.829684240883763580e-01,-1.571420920275681810e-02,-4.635511257541041069e-02,-6.046625911323198028e-04,2.847271754142722405e-02,2.784073054790496826e-01
-2.688670020714404862e-01,-2.513962492088531731e-01,-2.615728438416631274e-02,-3.721153088849446511e-02,-1.652646983090681754e-02,2.255803239395530804e-02,2.479374408721923828e-01
-2.621378467854637018e-01,-2.800353079866156891e-01,-3.685328599292148066e-02,-1.598860168000849208e-02,-7.391325461427190532e-03,5.840187609406247843e-03,2.369358539581298828e-01
-2.540129711763005060e-01,-2.302004609577461003e-01,-1.515213353906555427e-02,-2.490513452753749524e-02,-1.705176874348896671e-02,1.850505504250398239e-02,2.359958887100219727e-01
-2.056890231835273586e-01,-3.542620140577653620e-01,-5.494309904487737484e-02,-1.081384348476638292e-03,3.046768070515149668e-02,6.847945796413399885e-03,2.648094892501831055e-01
-2.504520114088227833e-01,-3.415752853277916889e-01,2.960855945464663241e-03,-4.020687748993666787e-03,4.590214289369076717e-02,-2.958132330204663995e-03,3.193886578083038330e-01
-1.553473916964874524e-01,-2.910714853309208650e-01,-1.309212207754983925e-02,-5.670826476395952540e-03,1.734602060878297908e-02,1.697224430156218369e-03,2.428432255983352661e-01
-2.786785699698047236e-01,-4.894434645987791321e-01,-9.198108162850890390e-02,2.123711233045736876e-02,4.327272676486115799e-02,-2.358581470389508380e-03,3.544211983680725098e-01
-3.167249974445729421e-01,-3.168154207706085912e-01,1.248795193542762139e-03,1.372559711339191573e-04,-1.027657525826211095e-04,3.589354156717245847e-04,3.180197477340698242e-01
-1.676577893722371315e-01,-3.017731097578560950e-01,2.795793225853068775e-02,2.811883760372534471e-02,6.405586338739280294e-02,-8.233189681579303112e-04,3.117226362228393555e-01
-2.088804079658656832e-01,-3.425735936433791928e-01,-3.948209515656947444e-02,2.871642266413869382e-02,3.202405264556586195e-02,1.672794717825423902e-03,2.734519541263580322e-01
-1.607002363813336832e-01,-3.094730193102019911e-01,-2.409734328025803229e-02,6.259066348679205583e-02,-3.014623250848761163e-02,-1.420974059268253174e-02,2.760460078716278076e-01
-2.898346231886139157e-01,-3.725292804052072193e-01,-3.078601003750927600e-02,1.406853857215887432e-02,3.317038771944502695e-02,1.773488468637280518e-02,3.165512681007385254e-01
-2.179964471666963610e-01,-3.075235046494196323e-01,-4.172702854052892651e-02,2.145797044207208015e-02,6.762240244767648081e-03,7.195674051420870377e-04,2.374593764543533325e-01
-1.828486423971995012e-01,-3.341356930079380505e-01,-3.037485871007195026e-02,5.040633587259861492e-02,2.522355049101308519e-02,9.391042678723917833e-03,2.810675799846649170e-01
-1.726891777068822187e-01,-3.006275625259101636e-01,-2.776149072985961697e-02,3.592119289728221837e-02,9.702228270482430098e-03,8.974988650221003492e-03,2.455791682004928589e-01
-3.239607488282628678e-01,-3.194933107958272123e-01,-4.246370792379772219e-03,-3.539242118636137108e-03,2.576464233651664304e-04,-9.638666691594292195e-04,3.175680935382843018e-01
-2.074240140150440947e-01,-2.876158164193977629e-01,-3.231308055868195583e-02,3.630623681233036831e-02,9.330542891378554998e-03,6.060921765025155568e-03,2.355054914951324463e-01
-2.797777925365978469e-01,-3.357670305727997739e-01,-3.731709825642146039e-02,1.099401605188290824e-02,1.424706554674193271e-02,3.766905713160901940e-03,2.766067385673522949e-01
-2.568198936013368350e-01,-3.042523570328549143e-01,-1.347199602982038225e-02,1.453098850445945674e-02,1.822854980935750824e-02,1.639396876043331536e-02,2.746765315532684326e-01
-2.548770839549871492e-01,-2.880654142555278963e-01,-1.449960773364844524e-03,1.798190960458846341e-02,6.363510909022360162e-03,6.762393539935100326e-03,2.737997770309448242e-01
-3.357447932631152376e-01,-3.333770790518232330e-01,-6.323464980086077047e-02,-4.940403237642828488e-03,5.166062754593940196e-03,6.351329736671933700e-03,2.718390524387359619e-01
-2.386390811420641689e-01,-2.912489515195785250e-01,-1.371720056001340948e-02,3.361088524727886412e-02,2.804526912674485187e-02,2.040224767569411707e-02,2.686786353588104248e-01
-2.489763509990162715e-01,-3.250895387920376134e-01,-2.968324137083008796e-02,3.540575411268279821e-02,1.733911782592885420e-02,2.832867098121444327e-02,2.786466479301452637e-01
-2.951542347515095921e-01,-3.047117113207958861e-01,-8.539506273101238332e-03,7.642935191784828476e-04,-3.298309947484673321e-04,-5.692774442578351843e-03,2.916812598705291748e-01
-2.559500060457560733e-01,-2.930598580909014039e-01,-1.791399527964099292e-02,3.170747301530067730e-02,3.559153137546058887e-02,2.799566426301402719e-02,2.757524251937866211e-01
-2.866400618440582138e-01,-2.803510345834394069e-01,-1.789374745347085960e-02,5.944559124987734873e-03,-1.146281120987271106e-02,-1.070047393307415294e-02,2.672408819198608398e-01
-3.101592398475484513e-01,-3.119633699989230458e-01,-6.994190084092383186e-03,-1.285068950967879634e-03,-1.710066948426857769e-03,-4.963106003844744082e-03,3.042151927947998047e-01
-2.430488708728066327e-01,-3.441212179178487762e-01,-2.839874895163191360e-02,2.467205304527108484e-02,2.620999035699132090e-02,1.888478733917560437e-02,2.879972457885742188e-01
-2.319005726167379378e-01,-3.349876914775383741e-01,-1.789730616619386594e-02,3.169102841206173499e-02,-2.678963562175820309e-02,2.517716614795361893e-03,2.892583012580871582e-01
-3.143137416811943585e-01,-3.189727702801816167e-01,-2.371273426920078586e-02,-1.842731776943515830e-03,-9.109860657578275692e-03,-1.519374641357815192e-02,2.945781350135803223e-01
-1.463604977426766762e-01,-2.851802998359412866e-01,-2.065463524459346112e-02,4.956706426225451073e-02,-7.702087007440475142e-02,-2.276191919284960286e-02,2.815048992633819580e-01
-1.637340248104118268e-01,-3.694194835393627141e-01,-2.737174045387386068e-02,-4.644255771031453872e-03,-2.463989923937843010e-02,-1.129233694567534536e-02,3.020224273204803467e-01
-1.883041235263829549e-01,-3.059275920831763251e-01,-1.065180971317161718e-02,1.284559933709982990e-02,-2.078074678659349792e-02,-6.649086182449864477e-03,2.611798048019409180e-01
-2.000823225233868130e-01,-3.241175084010108898e-01,-1.306961240439594163e-02,2.927252887735344242e-02,-3.977140067653322369e-02,-3.296475112674790171e-03,2.844348251819610596e-01
-3.111806929886815620e-01,-3.087383304182177435e-01,-4.123143482250235525e-03,-9.265057207410334721e-04,-5.642679558873665499e-03,-1.522249223491896905e-03,3.060153722763061523e-01
-2.742046606630975103e-01,-2.115768246028182920e-01,1.177074137206210458e-02,4.489671161930818694e-02,-3.224065576443976150e-02,-2.922885012459430082e-02,2.819976210594177246e-01
-2.172130665789489545e-01,-3.419444346997533302e-01,-2.730553791966278121e-02,-4.828741106414133474e-04,-3.302542618877929437e-02,-1.488730058317310964e-02,2.815099358558654785e-01
-3.230470480855581750e-01,-3.149948189576552982e-01,-5.299484209678489988e-03,1.535345380166320704e-04,-1.963374321509579745e-03,-1.654660232862620968e-03,3.138305544853210449e-01
-2.000376183176242606e-01,-2.847279490152510029e-01,-9.454651926718016242e-03,1.927999964913579278e-02,-1.834537644751871657e-02,-1.022795995227253514e-02,2.491455376148223877e-01
-3.377189209519473878e-01,-2.070110388180223804e-01,-3.369938894504326266e-02,-6.351502639373603210e-02,2.693143895565312806e-02,-1.769980032998384398e-02,2.915354371070861816e-01
-4.041899590499808959e-01,-1.847330148743679956e-01,-3.589093266654830305e-02,-5.238345267703103242e-02,1.847427026128956040e-02,-5.514209803742942811e-02,3.483642935752868652e-01
-4.793346904312869583e-01,-3.183955945681649080e-01,-8.526472786225791634e-02,-6.494129984610397255e-02,1.370190297484483177e-02,-5.750979036434994418e-02,3.753781318664550781e-01
-5.722803012044969106e-01,-3.364360242787669542e-01,-1.323001365993348999e-01,-3.450010794210045528e-02,-1.131769061899129576e-02,-4.422980533638877498e-02,3.940331637859344482e-01
-3.158451092988141529e-01,-1.976119451566433483e-01,-1.164733215686764023e-02,-5.302631824734083815e-02,1.734006833080387056e-02,-4.181560490865578184e-02,2.917741239070892334e-01
-3.293962754821024297e-01,-3.205376274028711170e-01,-2.210436845784660709e-02,3.031996898875980503e-03,4.772174583908314616e-03,-1.330479739845788446e-03,3.031267225742340088e-01
-3.287893643597543103e-01,-3.139237969058821798e-01,-1.475067023689344281e-02,-9.442138124346969447e-04,-8.206586211776142718e-04,-7.477759204494791164e-04,3.068864643573760986e-01
-2.999496206000767939e-01,-2.094746225207274049e-01,-3.394012656665967853e-02,-4.266896094585360955e-02,4.154539811515502168e-02,-5.631316964043281414e-02,2.739216387271881104e-01
-3.330702025259990040e-01,-3.212572026878350862e-01,-5.640881571144934492e-02,1.740220143881096495e-03,6.565786132745685642e-03,5.027787129514266857e-04,2.712047994136810303e-01
-3.434551665938458953e-01,-3.560466444067116321e-01,-4.173438170073828779e-02,2.654691769452531894e-02,2.949110414349556328e-02,5.855949343980224042e-02,3.316687047481536865e-01
-3.286933293102975440e-01,-3.311722121669889995e-01,-2.998136734048861829e-02,-5.888951516452986187e-04,5.701074987297498516e-03,-7.642841455593079366e-04,3.001262247562408447e-01
-3.127318554826857833e-01,-3.156981307902614331e-01,-2.062394248176677158e-02,1.338133393316808624e-03,4.346572885806565187e-03,5.218547651693811358e-03,2.938469946384429932e-01
-3.146083005282728773e-01,-3.166575542857189562e-01,-1.136950925479857100e-03,-2.107896050691130709e-03,3.775854885049663261e-03,1.956982624362384182e-03,3.146084249019622803e-01
-2.945172872614925108e-01,-2.938303658087920711e-01,-9.817522384456878193e-03,-1.241899360579483457e-03,-2.295848501164379166e-03,8.400559286446764029e-03,2.847648262977600098e-01
-3.106745350662021843e-01,-3.105403168000224201e-01,-6.030427018806072681e-04,-9.697399464356673115e-04,5.065980560687699703e-03,3.558294458277948616e-03,3.101943433284759521e-01
-3.570593733161228078e-01,-3.373932786881483903e-01,-2.515697705148578489e-02,-3.736926344460123842e-03,3.352460360506247743e-05,-1.110419304534005121e-02,3.231571316719055176e-01
-3.802801834250730817e-01,-3.347668126520810805e-01,-4.394084088835853441e-02,1.016441284350951511e-02,-6.431905478302829549e-03,-1.535123227306345144e-02,3.178501427173614502e-01
-3.253196993972397588e-01,-3.074688096826261874e-01,-8.425427856896872125e-03,6.383822665561539843e-03,-9.708827357968357816e-03,-2.003628107439509379e-02,3.109552860260009766e-01
-3.429201865663745741e-01,-3.028047092564649101e-01,-2.672979922871684955e-02,7.990275910638038092e-04,-2.717779848012252895e-03,-1.548552055433513770e-02,2.994076907634735107e-01
-2.301254811565478509e-01,-3.139103904273909951e-01,-3.254830543725381609e-02,-3.206121142566371179e-02,-4.307049715794596112e-02,1.679601913247572020e-02,2.685254514217376709e-01
-2.915635701800003421e-01,-2.866187266942571976e-01,-3.244671805412166488e-02,-4.073505955410642253e-04,-4.441187666066993313e-03,1.626064722802216932e-03,2.568117976188659668e-01
-3.205078382935013237e-01,-2.662024558017852538e-01,-1.348845147105065534e-02,2.221655028525075428e-03,-7.414407793447677815e-03,-1.748246881075988038e-02,2.857163250446319580e-01
-3.184772761398414476e-01,-3.007089908606520035e-01,-1.194970819965382458e-02,4.319792283839851178e-03,-4.036423176733204381e-03,-1.521832164083074430e-02,2.993794381618499756e-01
-3.011513217774149376e-01,-3.049127118368636924e-01,-2.364240824981878042e-03,-5.716688250288956812e-04,-3.235350395275365942e-03,4.275284481895619618e-03,3.008304238319396973e-01
-2.423846331091228101e-01,-4.141150596798485184e-01,-2.587976617469658902e-02,-9.032166409244733740e-02,-2.854315688164231479e-02,1.048069625765095207e-02,3.752250671386718750e-01
-3.385329861048386735e-01,-3.183537724267160862e-01,-2.271593450821710047e-02,5.020528839251860512e-03,-1.609575207144596856e-02,-2.667680775257872533e-02,3.110666573047637939e-01
-2.987798760335305115e-01,-2.100752985563623110e-01,1.951923648001979705e-03,5.264448607824111920e-03,-4.858530971786467062e-04,-3.129929408231527793e-02,2.732299864292144775e-01
-3.541860646672812529e-01,-2.097385864900909724e-01,-3.149980979341726606e-02,3.991350622455323155e-02,-1.541692186961774076e-02,-6.553534064465396658e-02,3.110582530498504639e-01
-2.494449594806784076e-01,-2.337420497228520633e-01,-1.901009100455886003e-02,-2.504564881341468999e-02,-1.081258171672145642e-02,4.142402600331464985e-03,2.280622273683547974e-01
-2.270862824535382907e-01,-1.338888282563331922e-01,4.016993527488327276e-03,-4.938706658744961009e-02,7.355969229300317845e-03,-1.010302742991650397e-02,2.198682427406311035e-01
-3.219590025019520296e-01,-3.240756313412515022e-01,-5.512292563745968543e-03,2.874733664990030790e-04,-4.181457837947588456e-03,2.019233957064689054e-04,3.175934851169586182e-01
-2.732991842748171973e-01,-2.827878228197281407e-01,-2.847162499808963965e-02,-1.075520444507038070e-02,-9.797446154735078502e-03,1.062319634197679205e-02,2.516489624977111816e-01
-2.573351946308864990e-01,-2.973951935676267255e-01,-4.908477698002472467e-02,-6.731936791392410802e-02,-3.406120240884357060e-03,1.932114077782839164e-03,2.587609887123107910e-01
-1.973567575113586992e-01,-1.213242130146546943e-01,2.206874352150924035e-02,-9.007097429908120234e-02,6.511130529964850172e-03,-1.078243009987379757e-02,2.491170912981033325e-01
-2.444829865824993953e-01,-2.258414031056557580e-01,-6.770820395984145090e-03,-2.416980828156485572e-02,-6.149239195597135631e-03,7.896229126442253637e-03,2.334015518426895142e-01
-4.118953056794939505e-01,-3.423335421728339045e-01,-4.115776086437708536e-02,-1.997741044779079850e-02,1.395274296485552769e-02,-4.279178913959683084e-02,3.518106639385223389e-01
-2.647700005210472662e-01,-2.822304877163956949e-01,-4.090456284361185246e-02,2.983286821804903132e-03,-9.010437280816480576e-04,-3.278106712822931573e-03,2.332182973623275757e-01
-3.428611170317524826e-01,-3.440005669393960686e-01,-4.328237844667523482e-02,-1.793053612515451898e-04,-1.666159814073676698e-03,-2.076777374589207706e-02,3.023117482662200928e-01
-3.235702592734833738e-01,-3.322371529833155757e-01,-4.233209973838877871e-02,-3.013406211070448603e-03,1.027809884246328473e-03,5.389907068085218007e-04,2.857249677181243896e-01
-3.102600089636435854e-01,-3.142852323588408714e-01,-5.390712956322735172e-03,-5.947974775964660551e-04,7.474338844430238916e-03,-7.494864088978430913e-03,3.074505329132080078e-01
-3.326638352323588732e-01,-3.347647470516961210e-01,-3.467921611261401416e-02,4.681756682708283594e-03,3.496381765232374657e-03,-7.152822700992793846e-03,2.994682192802429199e-01
-3.199817478090619671e-01,-3.231049324316994653e-01,-1.275554053962549284e-02,1.928599006307248802e-03,-7.059305205549185405e-03,4.600837896626831791e-03,3.091623783111572266e-01
-3.055596078234535939e-01,-2.951405780534188672e-01,-1.894114742869393297e-02,-1.308329811282850537e-02,1.622843737558582813e-02,-2.703358145646896429e-02,2.876950800418853760e-01
-3.167357712842807094e-01,-2.314031928690193918e-01,-4.921578232508522222e-03,-9.700122999271075866e-03,1.240495621537771390e-02,-2.041016477441131433e-02,2.826578915119171143e-01
-1.656310304091862251e-01,-3.080155421866628274e-01,-2.965010029497530675e-02,1.504773179469206038e-02,5.045666061014903066e-04,-3.266603220563192144e-03,2.425650805234909058e-01
-2.857865808104685379e-01,-3.053574731500548478e-01,-8.111652969845534189e-03,1.451454836876177703e-04,-1.846822395842742832e-03,-5.998485104598273200e-03,2.881648242473602295e-01
-2.950910351500659612e-01,-2.940623915904141961e-01,-1.114573774253826977e-02,-3.175314054231206592e-04,-1.250194779547613572e-03,-4.420760323589588425e-03,2.835446000099182129e-01
-3.210034598850693977e-01,-2.751088593941772853e-01,-1.394756863848223283e-02,-1.025233402977484762e-02,1.091926635597356005e-02,-1.659689965458595318e-02,2.894768118858337402e-01
-3.229961195555007825e-01,-3.250945250325947278e-01,-2.635032438220966111e-02,4.091520858047836308e-03,2.325459810974697759e-03,6.763471822021627482e-05,2.978121340274810791e-01
-2.376322655302612330e-01,-3.187873200396933449e-01,-2.211411759966369628e-02,1.294964021262779959e-03,-2.338223850713563347e-03,-5.355135999008460608e-03,2.657669484615325928e-01
-3.071533033859690232e-01,-2.901479900114239951e-01,-2.238403101647301607e-04,-7.313242256532339822e-03,3.557961312203887418e-03,-7.949836262823209432e-03,2.994385957717895508e-01
-3.148982092394054244e-01,-3.199717381424137530e-01,-4.396163968135829991e-03,3.489234010425375752e-03,3.702447814501872402e-03,-3.011915895001780145e-03,3.132370710372924805e-01
-2.958619685076650518e-01,-2.840720204925657466e-01,-1.285385248918913259e-02,-1.948754776772078021e-02,1.526020488013767745e-02,-2.283638734113063729e-02,2.833696603775024414e-01
-3.099008994474776180e-01,-2.991186276641053521e-01,-1.415011932422965968e-02,7.496385503901970221e-04,-7.348777739536539559e-03,-4.446181633181093255e-05,2.907913625240325928e-01
-2.990693413839435322e-01,-3.089306294996402857e-01,-1.515709591746258744e-02,7.714421507708218301e-04,-2.835875117515004634e-04,-7.443348048791793327e-03,2.892600595951080322e-01
-3.210918009045583554e-01,-3.354625404760506191e-01,-1.597859528772510584e-02,4.429549642639822073e-03,3.984030623527826109e-03,9.290127657242675668e-03,3.131304681301116943e-01
-3.228160955944093247e-01,-3.089024788587197423e-01,-3.024661273994119770e-02,3.219329432251808506e-03,-3.803884458132116551e-04,-1.147617894013332630e-03,2.859287858009338379e-01
-3.141656340762105648e-01,-3.241149007802512361e-01,-7.156145231642818683e-03,-2.062291283368002191e-03,1.644134589559563065e-03,-2.416625980658829251e-03,3.121645748615264893e-01
-3.323536135854021634e-01,-3.455919805609576345e-01,-6.586459350218076825e-02,-3.666088155464122551e-03,1.353856821438560037e-03,-1.276956170306722121e-02,2.743256092071533203e-01
-2.707615621154292884e-01,-2.981251757338538866e-01,-2.590497416578788070e-02,2.586230305049095051e-03,1.788683795074704212e-04,-8.569654787521890915e-03,2.600848972797393799e-01
-2.874831076430954813e-01,-3.091614275477239659e-01,-7.726549743348520849e-03,8.882554369133192299e-04,-2.333674871016929147e-03,-6.623658219286621129e-03,2.914595305919647217e-01
-3.205042423059602519e-01,-3.321410129996659188e-01,-1.588502322687507240e-02,-2.215931771146392379e-03,1.996407178150253186e-03,1.628220990485723706e-03,3.106569051742553711e-01
-3.132714839524992634e-01,-3.102380937798700500e-01,-6.445439875365110982e-03,-2.198277687187744751e-04,4.259580897594131624e-03,7.180212573343228849e-03,3.056631088256835938e-01
-3.225297474359765659e-01,-3.200325237051253602e-01,-9.934813558513472254e-03,2.433272671670286009e-03,6.271678614890963815e-03,5.018439594524723261e-03,3.116930127143859863e-01
-2.972692682464775915e-01,-3.314111203631892044e-01,-1.851233865597917694e-02,4.934953353922673022e-03,-1.410203400799668475e-03,-5.364571622536070707e-03,2.975797951221466064e-01
-3.522606290793278694e-01,-3.297613865660209975e-01,-3.466172624672145264e-02,5.353375892609254366e-03,1.304625543532754797e-02,2.216713527238924411e-02,3.103228509426116943e-01
-3.275242806589073741e-01,-3.349925812638312461e-01,-2.037170685312647556e-02,-1.638337761298047082e-03,-2.754211941244482861e-03,-4.617238919502813588e-04,3.110045492649078369e-01
-3.289745691095536939e-01,-3.387111863771299913e-01,-3.328789865347370203e-02,-1.779571561750760682e-03,-3.465505487442302468e-03,-4.977071780311100035e-03,3.008724749088287354e-01
-3.113459278075131342e-01,-3.114509130747351029e-01,-3.570980001417145555e-03,9.928966460891188936e-04,-2.656400546292560401e-03,8.253984516327006124e-04,3.078699707984924316e-01
-2.858522080811263799e-01,-3.058428195455604737e-01,-9.948778075140302102e-03,-1.262819333945098827e-04,3.340084162432456591e-04,8.658087396845594655e-03,2.868154048919677734e-01
-3.066544261156620710e-01,-3.184221806324308846e-01,3.735469515691203224e-03,-2.786755239237451165e-03,4.615623059200464964e-03,-3.147993454292644273e-03,3.166226446628570557e-01
-3.023934712354137688e-01,-3.042923298629455764e-01,-3.653983475101660328e-02,-1.944275605886201450e-02,-1.421950653408584134e-02,2.442109769372674891e-02,2.733429968357086182e-01
-2.879250871585710692e-01,-2.871454256993336562e-01,3.754180674492679781e-03,-4.527346332759964349e-03,-6.127675673550158318e-03,6.618624817846640272e-03,2.918142378330230713e-01
-1.785041052336255318e-01,-3.383608032319465053e-01,-4.573345115033539132e-02,-2.044866549307290410e-04,-3.835534476539909782e-03,-7.445477217090357668e-04,2.538748085498809814e-01
-2.131508261021917150e-01,-3.245422064974573528e-01,-4.898053617950831606e-02,-1.193111484386551874e-03,-3.319299102059938139e-04,3.428057161982408368e-03,2.401810437440872192e-01
-1.823497355055071767e-01,-3.196281587365709109e-01,-2.431929900442161840e-02,-9.754759516505638606e-03,-8.584917925892372390e-03,1.337374862561351366e-02,2.579850554466247559e-01
-2.216748504945919851e-01,-3.228167393698226362e-01,-5.101277868914111391e-02,6.281313738221393911e-03,1.698001679702888084e-04,2.166950211721129730e-03,2.382201701402664185e-01
-2.234344829254785725e-01,-3.322475128988943149e-01,-4.337695190131388157e-02,-3.328896181546101962e-03,-1.002382483685892653e-02,2.468533204348644094e-03,2.533901333808898926e-01
-2.719730019894568973e-01,-2.443683538769710895e-01,-3.323538238002921030e-02,-6.538112381184995464e-03,1.476987321392825249e-03,-1.037134557784285226e-03,2.265069782733917236e-01
-2.995330046187709705e-01,-3.052356294398921310e-01,-1.347751324998477940e-02,2.633508532888371350e-04,-6.593144187041106996e-04,1.001594554539019660e-02,2.894719243049621582e-01
-2.564862031018904642e-01,-3.181743021227118606e-01,-2.441978625296450933e-02,-1.411560040056335490e-03,-1.849659126717646471e-02,-5.359785097555618688e-03,2.703599631786346436e-01
-2.133970963328864212e-01,-3.107373402814886942e-01,-2.190665690403906241e-02,-5.388174306006399822e-03,-1.278874726529768101e-02,4.257947988473363699e-03,2.557646930217742920e-01
-2.347420916013987779e-01,-3.273730387190484370e-01,-4.495976269054760555e-02,-2.160407536686799641e-03,-8.212465232196368425e-03,1.600907936015939391e-03,2.498030513525009155e-01
-2.965852487627850254e-01,-3.081652409014927207e-01,-1.234260891608920940e-02,-9.329523972272965419e-04,4.931353083754066047e-04,-7.390990904331640014e-03,2.904939353466033936e-01
-2.036279979198649948e-01,-3.112439798644967004e-01,-3.948301279131574693e-02,-1.388151369595311832e-03,-1.949121425127860923e-03,1.882571932699714755e-03,2.371016889810562134e-01
-1.629688473449182051e-01,-3.067092800986842560e-01,-2.553168594065224895e-02,1.733351832330271361e-02,7.642404694103223893e-03,-3.939914292777755254e-03,2.458225041627883911e-01
-3.193148177734559390e-01,-3.116659415893227036e-01,-1.073991427457182679e-02,-4.671773010157907876e-04,2.424252129884574888e-03,1.242441325058470753e-03,3.048600256443023682e-01
-3.336498327258521357e-01,-3.360311610845540531e-01,-1.799610527714734509e-02,-5.126577212402766599e-03,4.188230080744197170e-03,-7.584089070968596689e-04,3.170612156391143799e-01
-2.976545548669745633e-01,-3.296766545864650566e-01,-1.835547867903514208e-02,-3.394488373141529153e-03,1.041960137241568912e-02,-1.723918525419153996e-03,2.972310781478881836e-01
-2.318775650114905384e-01,-2.514431357365964903e-01,-1.646007226252210742e-02,2.436912629022197629e-02,1.049235843739660876e-02,8.996460002923777066e-03,2.309911549091339111e-01
-3.041266901410711876e-01,-3.031238572478128779e-01,-4.072262087357086946e-03,1.270979452998397680e-04,-5.071999021081762850e-03,-1.197873258170496389e-03,2.996903359889984131e-01
-3.024799904358163039e-01,-3.429462348962761808e-01,-2.766215419049725122e-02,1.985297755840723793e-03,1.115969298773430290e-02,1.019361440374624448e-03,2.977780401706695557e-01
-3.160587572097555698e-01,-3.162339685795607092e-01,-7.048568980205754952e-03,-4.199957628133861262e-04,4.034254663484084652e-03,-4.716216840994358860e-03,3.092855513095855713e-01
-3.278249152144145362e-01,-3.744161836861636949e-01,-4.020235726905113660e-02,4.738007655581460455e-03,1.995273528828267126e-02,3.872430384897157171e-03,3.156023621559143066e-01
-2.662924872622959294e-01,-2.848702458657259573e-01,-3.986800224047867824e-02,-2.818917731499772858e-02,-7.331044928636085665e-03,1.262863563238972309e-02,2.425761967897415161e-01
-3.163849037456827884e-01,-3.175235433303081334e-01,-1.663682958520165678e-02,1.661662474541625561e-03,-6.597330398623979519e-03,5.500559904296665678e-03,3.007010817527770996e-01
-3.137346439796629416e-01,-3.154537957830955697e-01,-1.923160152186695337e-02,-1.948042977554164008e-03,-1.702801262272821137e-02,2.004401559826336082e-02,2.988775968551635742e-01
-3.300256825037403141e-01,-3.243952312690839834e-01,-2.964833540301700654e-02,3.615096885877387874e-03,-8.636650499759609620e-03,-6.843980715640571050e-04,2.980459332466125488e-01
-2.866295922764739434e-01,-2.916772316873051940e-01,-3.073084927865107896e-02,2.750035910023714003e-03,1.174074610086809408e-03,3.685598054540628415e-04,2.585121989250183105e-01
-3.247644573507100785e-01,-3.185205649652342874e-01,-1.731706404805194444e-02,-1.392708818323321312e-03,-1.159973191846059605e-02,1.067487055238059909e-02,3.056052327156066895e-01
-5.664382155215152981e-01,-4.142642500352500257e-01,-1.537159259152312829e-01,6.612498846721172330e-02,5.032753101553688602e-02,1.275697270130801420e-01,4.474698305130004883e-01
-3.022744378348455330e-01,-2.844571055794833381e-01,-8.525223704294399019e-03,-2.565920939742695472e-02,-3.142670138629373444e-02,2.606420231615217548e-02,2.972345054149627686e-01
-2.767352296394347544e-01,-2.895786373268343650e-01,-2.507041761330516816e-02,2.214455545931757422e-03,4.317316861718265697e-05,-8.005245904899045695e-03,2.587263584136962891e-01
-3.231297116213335818e-01,-3.210228324942674405e-01,-9.459392089576990070e-02,-1.539267709389222473e-03,-1.012406818558615404e-03,1.971560827379589993e-03,2.275376766920089722e-01
-2.951850491609237515e-01,-3.147931404725192728e-01,-1.486296927768029907e-02,3.974552850921600120e-04,8.747723650392384264e-04,3.908662901836345432e-03,2.907062470912933350e-01
-2.240098175838801664e-01,-2.949546466618023777e-01,-1.201806661387821995e-02,3.220019789330943669e-03,-2.429214743375658191e-03,7.857888126939844480e-05,2.550729513168334961e-01
-3.337386162473738871e-01,-3.323830549731304207e-01,-1.067495476169610935e-01,-6.555524945746766781e-05,1.202822245791062726e-03,-6.115735483801702441e-03,2.265717089176177979e-01
-3.231232953928074303e-01,-3.192665266697819471e-01,-8.506571709872240428e-02,-1.509211592758811105e-03,-6.923986710140666787e-03,1.769377727587386753e-04,2.364717870950698853e-01
-2.859324123302462994e-01,-2.436212309520242314e-01,-3.716504749235546856e-02,7.555448370869463810e-03,3.361554799242959680e-03,1.287230541079535072e-05,2.309869080781936646e-01
-3.175327386156636678e-01,-3.168808493540585802e-01,-7.810517721276760694e-02,-4.256896602681623822e-03,1.242817181712863733e-03,-8.460459684739334713e-03,2.396740168333053589e-01
-3.224936248011085471e-01,-3.235483029060287619e-01,-9.407991521928804612e-02,-6.343365987553533421e-04,-4.235492869416297192e-03,-5.675400100787490049e-03,2.292738407850265503e-01
-3.202485391149350602e-01,-3.206545622385826855e-01,-1.735172076190666379e-02,-9.304621790994396617e-04,-1.319876862741924985e-03,-5.343136598097149997e-03,3.032541871070861816e-01
-2.771126591137559880e-01,-3.174620324878485444e-01,-3.249741067045283649e-02,2.770932688849382739e-03,-7.438211159088530238e-04,-8.233913879462559024e-03,2.675123214721679688e-01
-4.706689524074693098e-01,-1.926025543976065124e-01,-5.124402646050985055e-02,4.284767354217376700e-02,3.250717222611430781e-03,-2.575007324603178702e-02,3.796562552452087402e-01
-3.167546119900760404e-01,-3.232622502627598982e-01,-2.018548974245140681e-02,1.837692892494034377e-02,-3.103447827143564208e-02,-1.515648410759453009e-02,3.074366152286529541e-01
-2.954489105579287123e-01,-3.290030601917611208e-01,-2.847721767675218119e-02,7.454888473133762863e-03,-1.239528382067415536e-02,-1.021393425078698236e-02,2.868769764900207520e-01
-3.118891358863205010e-01,-3.258654696882233859e-01,-6.347913930010662398e-03,-1.399080818011802637e-03,-1.090310650394687476e-03,3.479314587597274935e-03,3.128368258476257324e-01
-2.592637214436115944e-01,-2.903228082634248808e-01,-4.008731307667875998e-02,-5.833789546900042429e-03,-1.745152629231427627e-03,3.356510364793481496e-03,2.365489751100540161e-01
-2.941538723139085487e-01,-3.368457138080994673e-01,-2.237162264254952126e-02,3.987597448515363581e-03,-1.331217792420472286e-02,-3.547631068694170019e-03,2.964931130409240723e-01
-2.217957285328359396e-01,-3.137247900501393127e-01,-3.341448266825577940e-02,2.572458060326140647e-02,-1.137452132999861205e-02,-1.344763794815891610e-02,2.533220648765563965e-01
-2.576935834980170759e-01,-3.265804814674071466e-01,-3.043344312854898148e-02,1.073848873135856174e-04,-2.495591658795470996e-03,7.281715577604777829e-04,2.684550881385803223e-01
-3.339348404593748265e-01,-3.432285656291924614e-01,-1.986731150998993778e-02,4.418651720374484676e-04,-1.464463062246913055e-02,-6.813816648523058489e-03,3.200420439243316650e-01
-2.112666185617597947e-01,-3.134810803717095751e-01,-3.992412916177404125e-02,-3.355620611448000869e-03,-2.348888186971546683e-03,-1.499003522923677070e-04,2.395206093788146973e-01
-3.249970080238385739e-01,-2.554338027943592326e-01,-4.056855892038782607e-02,-4.387900802924915578e-02,-3.862639764927112973e-02,2.644326721929633056e-02,2.798261344432830811e-01
-2.801763968927091786e-01,-3.047734619370668918e-01,1.831865030037599373e-03,3.083596879466250773e-03,-1.880394900515476239e-02,-7.239092381072619563e-03,2.971813380718231201e-01
-2.815708508976323965e-01,-3.555538838843982918e-01,-3.338795739811228902e-02,1.679904782499934413e-02,-3.320838176666376235e-02,-1.449669433276184680e-02,3.003581762313842773e-01
-3.269748281312427896e-01,-3.243023261614630393e-01,-3.107398271749514662e-02,1.965420706716692473e-02,1.448593375938147902e-02,2.282508931526732593e-02,3.002082705497741699e-01
-8.805456763641554552e-02,-2.787239736351844188e-01,1.437210733995858414e-02,2.865921607674779686e-02,1.292940619822015823e-02,9.343708267770233986e-03,2.638241052627563477e-01
-3.162081784524720662e-01,-3.196736356834410930e-01,-8.535797279320411768e-04,7.627993517262626842e-04,-1.462981486704968562e-03,-3.453605634361264635e-05,3.171144127845764160e-01
-2.946495921061058065e-01,-2.938893732178743390e-01,-1.212220598110783087e-02,1.643834669003374450e-03,-4.867459849903341476e-03,9.139584534352169793e-04,2.822927832603454590e-01
-2.675962661811061571e-01,-2.838264051355740003e-01,-3.877650433391000018e-02,-3.815171351543668321e-03,-6.108838721081659559e-04,2.230503057660954136e-03,2.374771386384963989e-01
-3.080158688547323109e-01,-3.128857632628247454e-01,-1.768970408259049054e-02,2.641494516884927701e-02,3.888277809670553226e-02,1.912070932604086407e-02,3.057000339031219482e-01
-2.364311265140655594e-01,-2.804687793531910334e-01,1.863344190906890407e-03,3.240008432869945915e-02,3.791472426016728042e-02,1.180749183630859164e-02,2.776646018028259277e-01
-2.847131479249186414e-01,-2.963177729075643918e-01,-3.344716888431983892e-02,-2.666430124812230445e-03,-6.147706070759716840e-04,4.411911206457409459e-03,2.574217617511749268e-01
-3.111261282567464592e-01,-3.138006204514083297e-01,-7.929810445972934607e-03,-1.088966548012917186e-03,7.522548837418202919e-03,5.291696828514120404e-03,3.049645721912384033e-01
-3.030073799231426945e-01,-3.076216888720060272e-01,-2.223056864003036814e-04,-5.089161965145417178e-04,3.833694586451122811e-03,4.914944799582193942e-03,3.053106069564819336e-01
-3.143313169331460322e-01,-3.160953472131289854e-01,-3.531811212268143318e-04,1.387016526469491513e-04,-3.106180226406455702e-03,2.080572392213166175e-03,3.149305284023284912e-01
-2.836072257582232803e-01,-2.868142954158672264e-01,-2.522254916750737985e-02,2.432838757004229802e-02,1.474369825104982108e-02,1.654775338747835681e-02,2.661781609058380127e-01
-3.139152573376899902e-01,-3.152556241362325373e-01,-8.402496301225914621e-03,7.440670786072080397e-04,-3.388481144171433517e-03,3.360816163700332346e-03,3.062994182109832764e-01
-3.217096967739979663e-01,-3.195141465164842431e-01,-3.234648433865117134e-03,-1.979922683774998707e-03,2.617377115653747588e-03,3.287872020407581718e-03,3.174849450588226318e-01
-3.135304111345020850e-01,-3.184579727186365727e-01,-1.491966135457761800e-02,3.180179949749597969e-03,1.163272194843848958e-02,4.117615301367226997e-03,3.019126653671264648e-01
-2.934980772091421719e-01,-3.079688538786689023e-01,-4.687371619071040163e-03,3.256943145256067148e-03,7.953265152601588645e-03,1.050176610754971485e-02,2.972419857978820801e-01
-3.202243063921921817e-01,-3.359097054245038794e-01,-1.647561886894927108e-02,7.125870708285320446e-04,2.227951749426638345e-02,1.653341488632554743e-02,3.155699968338012695e-01
-3.063971610564001358e-01,-3.059460637475842626e-01,2.542356282018543023e-03,-2.925882842417678025e-04,2.978836898186293033e-03,3.391371725112895738e-03,3.088136017322540283e-01
-2.963728492904381673e-01,-3.025259433213058902e-01,-2.404642628760250700e-03,4.651419872866399989e-05,8.792558441906883279e-03,7.918345787799877661e-03,2.977986037731170654e-01
-3.165247384211370418e-01,-3.166051955288474162e-01,-1.011260307369779565e-02,-5.084704813321506934e-04,7.678629111505845539e-03,5.162099076024223229e-03,3.068723678588867188e-01
-3.975000392505618763e-01,-3.991896373994214264e-01,-9.224644498414669158e-02,1.115555962297389708e-02,2.692592394635403945e-03,1.062480607806134611e-02,3.072980940341949463e-01
-3.692263749796012018e-01,-3.676570515532002204e-01,-1.079238335106842139e-01,1.003584869103043729e-03,2.506542256058338219e-03,-1.196236367014583309e-02,2.613858878612518311e-01
-2.368322967029312942e-01,-3.125561628599342057e-01,-5.077055370461089345e-02,1.610905676997220759e-02,3.430203901835836289e-02,1.484302906859915477e-02,2.437452226877212524e-01
-3.907465975014373649e-01,-4.106337450303291225e-01,-7.786565134195691518e-02,-7.985419482232358757e-03,1.963903708505683465e-02,1.491906502799432432e-02,3.263868987560272217e-01
-3.679245813911632412e-01,-3.693743880564821502e-01,-1.063988786467709169e-01,1.220095919871165904e-02,-4.527086169063066975e-03,1.566030754889181573e-02,2.646143734455108643e-01
-3.738110303330970385e-01,-3.884264168161015163e-01,-1.170603372425230160e-01,3.156322818145517514e-03,1.212429536873622113e-04,8.880745221079226759e-03,2.648651897907257080e-01
-2.857487044696404577e-01,-2.532110448395136215e-01,-3.279914881594137022e-02,2.161450663651267104e-02,-1.617802376579804968e-02,-9.866416383088475253e-03,2.434965670108795166e-01
-2.931247406363967634e-01,-2.552249068818766564e-01,-3.855422136145775225e-02,5.597905616914316401e-02,-9.885084772457463156e-03,-2.404344409435838631e-02,2.608116865158081055e-01
-2.396023073422570149e-01,-1.795551519726111267e-01,-6.797318930404361303e-05,4.330622219111341514e-02,-1.229630621980389547e-02,-1.333795925820823597e-02,2.306785434484481812e-01
-2.015773817756143782e-01,-3.186532061964439944e-01,-3.314197391527379244e-02,-9.618089988599759369e-04,-1.807103918584761909e-02,-5.554854734143293594e-03,2.507428526878356934e-01
-7.410648654433721338e-02,-2.928367074830785510e-01,5.522155976994161386e-02,1.434448148070045781e-02,-4.309912450556110247e-02,1.440060752675129813e-02,3.157033920288085938e-01
-2.425534077425831603e-01,-2.892178588305012177e-01,-3.875387218400641598e-02,7.688987371125592489e-03,-9.991059926060994432e-04,3.515086664954746379e-03,2.311697155237197876e-01
-1.535870044742340401e-01,-4.592997864360854332e-01,-5.575317400728996287e-02,-4.610307981435455595e-03,-3.771238380909575777e-02,-1.495170677512372599e-02,3.714053332805633545e-01
-3.401347261931050858e-02,-2.323999943460826334e-01,5.208350122577884433e-02,4.435000313688659129e-02,-3.190145938323712266e-02,-8.409858792188931731e-03,2.702155411243438721e-01
-1.153291263850430987e-01,-2.875924782758921827e-01,2.084303224825159728e-02,1.095141711746930313e-02,-2.829726693816688593e-02,-4.631618643665813030e-03,2.729493677616119385e-01
-2.485720207602040988e-01,-2.882563599252991882e-01,-3.821561101505388525e-02,6.452476802220669626e-03,-8.990153922640738409e-04,-2.633805405583286487e-03,2.330679297447204590e-01
-2.687223812722354110e-01,-2.866418648193646002e-01,-4.010108987984467577e-02,4.487463260000504328e-03,9.958682124737478110e-04,2.332335032130925141e-03,2.382546663284301758e-01
-3.182671875905008219e-01,-4.031982680924400819e-01,-6.447609006619339778e-02,2.155168430991833209e-03,-5.398327229384123488e-02,-1.421253639581450574e-02,3.202193975448608398e-01
-2.402306559113501772e-01,-2.639977101251477776e-01,-3.179246858834386402e-02,3.418953618136830880e-02,9.704950239732718651e-04,1.157946188235472150e-02,2.299503535032272339e-01
-2.158001974354230579e-01,-3.484501313027771885e-01,-2.454272836269996705e-02,3.575057831522592683e-02,-5.980877228165660392e-02,-1.329102392923787491e-02,3.076381683349609375e-01
-2.028516043700464011e-01,-3.277772530165673492e-01,-1.402732988995672447e-02,4.158753125262407147e-02,-3.720948955149523674e-02,-2.208160324150110210e-03,2.901841700077056885e-01
-2.758752413287947070e-01,-2.853494318780944727e-01,-2.522351813827264366e-02,3.062988413204672730e-03,3.792171114754637321e-04,8.242137317736054555e-03,2.559748888015747070e-01
-2.352068292203062794e-01,-3.024688716283722711e-01,-3.957323076960733710e-02,6.705514207477472795e-03,-9.110388559845266959e-05,-2.898870097424770947e-03,2.368871718645095825e-01
-4.374058959836310545e-01,-2.773945398593562484e-01,-6.313935638229495328e-02,7.544624452503771728e-02,-4.445206281730000597e-03,-6.084727419331509291e-02,3.661079704761505127e-01
-3.026894808382432078e-01,-1.514180404542934399e-01,1.658048119070806847e-02,4.060246521348408882e-02,-1.872640206257867451e-02,-3.512421498719186380e-02,2.936303317546844482e-01
-3.047294847021681519e-01,-2.957173357316736362e-01,-1.078292577878375846e-02,8.594041525291617458e-04,-8.750158281217675083e-03,-9.252509764596993590e-05,2.899459302425384521e-01
-3.759116994291389346e-01,-1.776771459305332146e-01,3.978073107567203781e-03,1.037274112227160872e-01,2.560972923896118365e-03,1.926474661273670438e-02,3.764533102512359619e-01
-3.270482178838464149e-01,-2.404152031060990402e-01,-4.523344761836128880e-02,3.526365862234139698e-02,-3.579771553505005756e-05,-3.454576218103813223e-03,2.574427425861358643e-01
-2.709785153704047378e-01,-3.053592158213798147e-01,-1.754689022031172274e-02,1.218367344080698370e-02,1.886256821640901887e-02,1.675683943428191158e-02,2.765463292598724365e-01
-2.913240382894269898e-01,-2.214934516847398560e-01,-3.185282440702874585e-02,7.608353766744671565e-02,-7.963137407689606373e-03,-2.383005078882315803e-02,2.708183228969573975e-01
-3.555306094648182924e-01,-2.595673644112816980e-01,-2.069285626865297045e-02,2.073851349538178776e-02,-2.769671908058653556e-02,-4.769592993591158236e-02,3.156096339225769043e-01
-3.437963285822990822e-01,-2.503071378005068404e-01,-1.943163974711453745e-02,4.628249732755096262e-03,-2.695347593070171487e-04,-3.358311800480127951e-02,2.950865030288696289e-01
-4.741772890534800000e-01,-1.954482598399752136e-01,-5.785258612057136984e-02,4.554628490092672843e-02,-1.312519223436564228e-03,-4.959053977452079071e-02,3.854615092277526855e-01
-2.321739441535476400e-01,-2.986523348180452064e-01,-6.525454259027008153e-03,-1.553869626505248978e-03,-3.057894577453185159e-02,5.333520510555074361e-03,2.706199586391448975e-01
-3.383410286972122205e-01,-3.352913243301695045e-01,-3.400269020417387433e-02,6.649453101619964661e-04,4.884595933653083054e-03,3.794236129525552052e-03,3.030166327953338623e-01
-1.920557421561786549e-01,-3.046434766596144428e-01,-3.085796254920075699e-02,1.359211472025612967e-03,-1.481384255834837342e-03,-1.754248032504119323e-03,2.383924722671508789e-01
-2.864430386417977648e-01,-3.038295905871392089e-01,2.061431304494099059e-03,2.587931955963228194e-03,-2.057091766780703643e-02,3.708801329908161838e-03,2.998067140579223633e-01
-3.179418718937798705e-01,-3.155381580874222491e-01,-7.336872499232732769e-03,-2.370641112618171887e-03,-2.678643958206345949e-03,-4.121649837167924192e-03,3.095544874668121338e-01
-6.353425912673710263e-02,-2.345695668842485704e-01,6.805196513772734934e-02,-1.130256418696391763e-01,2.357146994396768641e-02,-1.443834431021824571e-02,3.311955928802490234e-01
-3.381109823267489656e-01,-3.316984214262650443e-01,-5.565927703817313832e-02,4.762681472205492102e-03,-7.784954660740139865e-03,5.854965330313820736e-03,2.799313366413116455e-01
-3.183131038531220591e-01,-3.184038227148465183e-01,-1.179820102232906343e-02,1.818405438424034425e-03,-1.240080532545830699e-02,-8.193399044066653619e-03,3.076554238796234131e-01
-2.139384963325334232e-01,-3.084484104456715614e-01,-4.157588476219337137e-02,-4.855181054326332575e-03,8.100073315176216891e-04,-1.033529321531299026e-03,2.345354110002517700e-01
-3.110194723972763975e-01,-3.412472273574526094e-01,-1.596553002491038487e-02,-4.383903922867121022e-03,-1.950856748550596972e-02,-3.361862260255348272e-03,3.132453858852386475e-01
-3.131005331200275021e-01,-3.130759590816745153e-01,-8.686979005862321968e-03,-3.037751378919044897e-04,-2.846777923873045329e-03,-9.099264620363681786e-04,3.044457435607910156e-01
-2.577599712770703988e-01,-3.122193146535739428e-01,-3.274803428130540484e-02,-6.222520583642024948e-03,5.269969151263960557e-04,-1.034802687949750929e-02,2.574653923511505127e-01
-3.070087678613646065e-01,-3.039668711837741899e-01,-6.966818789954254409e-03,2.869296648719485161e-03,-1.839657537319828139e-03,-5.395745598309063720e-04,2.985924482345581055e-01
-2.765714091709330358e-01,-3.066624295922859567e-01,-1.472920533614358041e-02,2.205464004618359203e-02,-2.414206950577689123e-02,-1.024045942935991257e-02,2.843734323978424072e-01
-3.375985500797629157e-01,-3.299754601495384909e-01,-3.331897460255581200e-02,5.310972408625965312e-06,3.810624964494532720e-03,3.426433318996399604e-03,3.006715774536132812e-01
-2.345844788015671034e-01,-2.821685194656967655e-01,-3.230714916781085577e-02,-5.471366217487150761e-03,-5.706678198566717724e-04,-3.209902050967499039e-03,2.300591766834259033e-01
-2.725949210913803933e-01,-2.723310543475175871e-01,-3.188469137650232210e-02,-6.732160163029861366e-03,-3.420484194645225830e-03,3.120227252621052706e-03,2.409942746162414551e-01
-4.155069926785944778e-01,-4.140856019261802135e-01,-1.068259015206887985e-01,-1.252755904111438612e-01,-2.918355779351921794e-02,4.912251348738122525e-02,3.895167708396911621e-01
-2.732646781268899261e-01,-2.731005958971303715e-01,-2.244583517831816311e-02,6.275738756403668323e-04,1.232040741002526267e-03,-5.703353343603646385e-04,2.507502138614654541e-01
-2.951616298299268304e-01,-2.836957725131378227e-01,-1.952336178330127403e-03,-5.919924673970642336e-03,-1.317307188823709126e-02,1.070673021658819814e-02,2.893283367156982422e-01
-3.057197514414653483e-01,-3.188450570103925075e-01,-2.276521865096442498e-02,3.096033641566389195e-03,-2.135330837944456397e-03,8.582086730804776992e-04,2.898172736167907715e-01
-3.235540762657437841e-01,-3.216271918572690680e-01,-1.637803392074790865e-02,-1.108107164263669663e-04,-1.328704378176709736e-02,1.069961632644459955e-03,3.070863783359527588e-01
-2.750209644557214950e-01,-2.757996323508736802e-01,-2.270398534425677184e-02,-1.604252618906395122e-03,3.804946562918351712e-03,-1.649971847070794877e-03,2.528245449066162109e-01
-2.695329006979795272e-01,-2.712951047960979745e-01,-3.418683812138287315e-02,-6.475865024686845153e-04,8.299226146046565292e-04,1.500475174370961221e-04,2.362392693758010864e-01
-3.160684747512308435e-01,-3.255509580619754262e-01,-1.433846626180151906e-02,3.040696413112751757e-03,-3.795691911391509913e-03,4.223118489691667088e-03,3.067841827869415283e-01
-3.164101561947331720e-01,-3.287937676311785684e-01,-9.550373705275561065e-03,8.229593852093909211e-04,-4.959105141985190642e-04,-1.052719318416134309e-03,3.132449686527252197e-01
-2.885666711919569472e-01,-2.988930126419233613e-01,-3.135319101984029855e-03,-5.046768057541946989e-03,-5.958545456919925494e-03,3.235507959899885586e-03,2.911004722118377686e-01
-3.250205432796642313e-01,-3.168206364350456550e-01,-1.160827654900922767e-02,3.933544448085251818e-03,-1.899483898007475876e-03,1.657382293141160864e-03,3.094996213912963867e-01
-2.216207151685378185e-01,-2.707547324541157985e-01,-1.090624057375091938e-02,1.221096960879770009e-02,1.024641176357891405e-02,9.708025495083880477e-03,2.412737458944320679e-01
-3.276807998055549787e-01,-3.259929328452638719e-01,-2.891509968733665947e-02,1.899317171381492957e-03,-7.088517541182034858e-03,8.867025437416870687e-03,2.985916137695312500e-01
-2.929356733530936729e-01,-3.148904473440549689e-01,-7.014889664381934731e-03,-1.021975551342115679e-02,-1.291707864343883370e-02,1.478680246384166293e-02,2.999664247035980225e-01
-2.750694706982636517e-01,-2.813585441289195299e-01,-2.510051950121111597e-02,-1.020284745415609654e-03,1.666826798661595783e-03,-5.290126435227283930e-03,2.533604502677917480e-01
-2.990541781748328742e-01,-3.170220859656908141e-01,-2.112789871978024148e-02,-3.281265487152678663e-03,1.692836372125907166e-02,-1.701863175381640794e-02,2.903799712657928467e-01
-3.004800470275209023e-01,-2.936264060012150900e-01,3.355388535327685773e-03,-1.325290183339740760e-03,-7.258559314153432800e-03,6.190916231139357087e-03,3.009300231933593750e-01
-3.372840228964347764e-01,-3.158535198003952771e-01,-1.462750451272340491e-02,-1.083480125567275708e-02,-4.064244241514700443e-03,2.142680689537349720e-02,3.153266012668609619e-01
-3.188690631656739827e-01,-3.168478883373244681e-01,7.636856022686933088e-04,2.007580281965870052e-03,8.342283846186144191e-04,-1.476489459900367672e-03,3.186594843864440918e-01
-2.774411546262086081e-01,-2.993612105264551460e-01,-3.465636872597355200e-02,-5.159812474178088887e-02,-1.972401032858742131e-02,1.828349207500873375e-02,2.736856937408447266e-01
-3.300591269826548269e-01,-3.277959566379379241e-01,-1.473506588627943037e-02,2.492039827708782736e-03,-8.712932796389417575e-03,8.255420533605129993e-03,3.149152100086212158e-01
-2.710390286158469442e-01,-2.735806181458140807e-01,-3.694584707641773713e-02,2.153879374023713079e-03,6.310004733868221968e-04,1.046204588573609135e-03,2.354133427143096924e-01
-2.915978688832442378e-01,-2.769246452440418116e-01,-3.262671071710177007e-02,-1.250222783110073281e-02,-6.381687156863179167e-03,7.767512248376057422e-03,2.534827888011932373e-01
-3.154907728606504702e-01,-3.196609606206788357e-01,-9.271595606854921012e-03,-1.041173192089810996e-02,-1.779827751954353096e-02,1.657697242499228674e-02,3.117122054100036621e-01
-2.733767757007102839e-01,-2.825732512669500984e-01,8.533184957447065289e-03,-9.655585876294128789e-03,-1.274574453756167902e-02,1.087967672166244640e-02,2.885698080062866211e-01
-3.686358762230714792e-01,-3.002122397774998896e-01,-2.082050292306344974e-02,2.158423407252683598e-02,1.116676327478664452e-02,3.789539579887281351e-02,3.285398781299591064e-01
-3.200778010190258871e-01,-3.027585011495472211e-01,2.350173468274951993e-02,1.959831600010025071e-02,7.545319056187083616e-03,4.237871219430428688e-02,3.451191782951354980e-01
-3.294388119682453153e-01,-3.235427136358897116e-01,-2.279566341927052875e-02,8.131161834843048455e-03,1.208595829777723597e-02,6.488436965519620188e-03,3.049912154674530029e-01
-3.210257495038685294e-01,-3.309485575647408417e-01,-1.973376842258739439e-02,-3.686942878567288275e-03,2.400233655695259742e-04,-1.238718385847103164e-03,3.064482510089874268e-01
-3.178745256173311495e-01,-3.177177594354638202e-01,-1.277813466055474634e-02,1.419405632701377287e-03,6.023597346922089472e-03,6.475569675790490871e-03,3.054123520851135254e-01
-2.675309958303243030e-01,-2.816993794477858915e-01,-7.635623776536371032e-03,9.560692003078536533e-03,7.112584157150499999e-03,6.822072988229200934e-03,2.683174610137939453e-01
-3.349914547576779422e-01,-3.250786270062516747e-01,-3.609778338289337807e-02,-8.507395230086708645e-04,1.713148920378362557e-03,-2.852070707328823937e-03,2.941227555274963379e-01
-3.302682441164310756e-01,-3.362534847132324090e-01,-8.144701410653393259e-02,5.541635042286789789e-04,2.304756125270454419e-03,1.045211159262841296e-03,2.519071698188781738e-01
-2.953519499479334010e-01,-3.055385858430832990e-01,-1.369094295764580749e-02,1.517738647239859828e-03,1.674354473094953480e-03,7.722128940353842515e-03,2.872282862663269043e-01
-3.117126671878154287e-01,-3.136835133577434709e-01,-5.597476512422344674e-03,7.116661637649438930e-04,1.020993677236012699e-03,2.925125531549845390e-05,3.071129322052001953e-01
-3.121313197798040728e-01,-3.222392831774575361e-01,-5.086233831429615160e-03,-1.685786931209121630e-03,-9.511654431785865121e-04,4.358147488091794128e-03,3.123310506343841553e-01
-3.208890882363268360e-01,-3.155613963918822984e-01,-1.493440687102470799e-03,-6.688465921837983760e-04,3.596094083344080535e-04,1.228757094457992019e-03,3.167752921581268311e-01
-2.248034730862337738e-01,-2.839718032812687531e-01,-3.798617171683460469e-02,1.216557653563752998e-02,2.849105411992521909e-03,5.109069628732705592e-03,2.236111015081405640e-01
-3.151182315985598947e-01,-2.750671609046247412e-01,-4.478243208550808374e-03,1.592891623115283081e-02,4.526787296991277056e-03,3.273693220425804434e-02,2.994956076145172119e-01
-3.008642300569920325e-01,-2.615700137531127289e-01,-1.609132995204048955e-02,1.182465324055310095e-02,1.894170278956744044e-02,3.779310520309863558e-02,2.779037654399871826e-01
-2.619125452188343917e-01,-2.688598615348730680e-01,-8.364014160618715721e-03,3.415428406201845984e-02,-2.881256709989024264e-02,-1.720831900838915018e-02,2.701388895511627197e-01
-2.938326485751578954e-01,-1.510586646593002902e-01,-2.101671110619124372e-02,-6.642767641790996158e-03,-1.224373681229552323e-03,-4.438800073520633716e-03,2.367655187845230103e-01
-3.444775059310640763e-01,-3.580681945609828776e-01,-4.585214771699278047e-02,2.002391868234320443e-02,-2.202311603227547626e-02,-2.600038157164713797e-03,3.099976480007171631e-01
-3.462767743045548352e-01,-3.559430606526838847e-01,-4.694624143377612580e-02,-9.514283585306669566e-03,-1.074553497252331768e-03,-2.467419275957035210e-03,3.047604262828826904e-01
-3.353350861156469964e-01,-3.405792552808780682e-01,-3.545170365893174358e-02,-8.200970207179882759e-03,7.962969872698551091e-04,3.218892100776512243e-03,3.029272854328155518e-01
-2.351162029795957620e-01,-2.638738992277004924e-01,3.060856587277505092e-04,3.533767469919889270e-02,-2.635360812625658217e-02,-1.859614956237423677e-02,2.643635869026184082e-01
-3.494075849925388777e-01,-3.106484695320017031e-01,-3.916362799510272885e-02,-4.886462575799848176e-03,1.557553906767456670e-02,-1.809913345485216624e-02,2.958225309848785400e-01
-3.006622478767079221e-01,-2.572826822802133928e-01,-1.431593706266859334e-02,-5.336298625618392764e-03,1.150163814343531897e-02,-9.583826912823684846e-03,2.687233984470367432e-01
-3.290925663140827906e-01,-2.766208263837033332e-01,-3.719991252921175939e-02,-6.021202567150314364e-03,2.989736755737552182e-03,-1.007918531312568776e-02,2.703309953212738037e-01
-2.802894105621379639e-01,-1.894874027543525241e-01,-1.313134287426284685e-02,-1.815036209019120494e-02,3.459465495080883950e-03,-5.670025639681559870e-03,2.376564890146255493e-01
-2.934162999290211293e-01,-2.405523915154736403e-01,-2.988585301208573908e-02,-9.823528223378126534e-03,8.517300401056001127e-03,-1.138490058894176156e-02,2.433261722326278687e-01
-3.033355924999097675e-01,-2.520959878304880886e-01,-3.823158994806782895e-02,-2.005792199350312638e-02,4.134742626666459454e-03,-1.415483595145837145e-02,2.473482042551040649e-01
-3.194905812348093344e-01,-3.304401005921692169e-01,-3.234457287525854818e-02,7.182378940314690157e-04,9.355733714212007435e-05,3.288695512142951537e-04,2.927776277065277100e-01
-2.942756753987726959e-01,-2.267030404456761294e-01,-3.189447762254649099e-02,6.515109615776838205e-03,1.485155200451773825e-03,-7.346516268078933602e-04,2.362535595893859863e-01
-1.868319378576220879e-01,-2.797955043288461452e-01,-2.488655477713991315e-02,-1.233857882482565158e-02,-1.863149705321860087e-03,3.660679561729938622e-03,2.245682328939437866e-01
-2.576288774148273175e-01,-3.030329054058468752e-01,-2.647546661219268849e-02,3.071049952702960533e-03,-1.310255082063775884e-03,-7.618845738943986687e-03,2.572864294052124023e-01
-3.174421645804579306e-01,-3.266511233142384563e-01,-2.777125181544976007e-02,5.464984247830586769e-03,7.081727028310243590e-04,-2.054238385450759315e-03,2.945596277713775635e-01
-2.461824352679918559e-01,-3.047367648854830136e-01,-1.913092855849815588e-02,-2.642518378321980898e-03,2.266006637141171082e-03,2.583111603484665474e-04,2.613663971424102783e-01
-3.250278415753307115e-01,-3.238985165947020350e-01,-2.404989056433937122e-02,9.258520545105275055e-04,2.781358739133653855e-03,2.620994192010396920e-03,3.004920780658721924e-01
-3.149676122061714212e-01,-3.159120041638733278e-01,-5.125689386614590282e-03,-1.394123999138788944e-04,-9.191900880623778787e-04,-1.305617493820169887e-03,3.103276193141937256e-01
-2.935302978441387545e-01,-3.103167523992536037e-01,-1.184880016431963390e-02,3.146100946433702875e-04,-1.678759219050719774e-03,-8.332962007993743869e-03,2.908122241497039795e-01
-4.788839457009022582e-01,-6.204087251387634394e-01,-1.765442978995006851e-01,-9.101454925254788553e-02,-1.149634194626600603e-01,5.997995693860513206e-02,4.790830612182617188e-01
-3.333383427626632756e-01,-3.298581959771216265e-01,-1.294640923878986882e-02,1.260180775746023475e-03,-5.615763230115696858e-04,-7.245424937787947432e-03,3.189220726490020752e-01
-3.368042142085262425e-01,-3.341373568572552077e-01,-4.130785476921663979e-02,-1.455925837817556925e-03,-6.386697299916268243e-03,-2.804799728303626356e-03,2.944307923316955566e-01
-2.202515811091152742e-01,-2.934716639340020916e-01,-1.911059595432973435e-02,3.355319571247451522e-03,9.628604875847606923e-03,6.063804066666054517e-03,2.469183057546615601e-01
-3.215253881351123888e-01,-3.205772670864387441e-01,-1.598438677573144062e-02,-7.682076343590043708e-04,-4.657687091152882750e-03,-8.038682249005996497e-03,3.054950535297393799e-01
-3.267288083195974968e-01,-2.813944151912798897e-01,-1.298928349523068015e-02,-3.024998540322347725e-03,9.011983747135763841e-05,-2.203262905346480005e-02,2.962233722209930420e-01
-2.940025199903112951e-01,-2.165425147988991328e-01,-1.163489381610779971e-02,-1.360862497459746582e-03,5.359188894448229865e-03,-1.854139466764446412e-03,2.529058456420898438e-01
-3.172762934299208637e-01,-3.277893972407688317e-01,-2.359843787258864012e-02,2.468521562007480047e-03,2.547416004886036284e-03,1.972560814471353580e-03,2.991556525230407715e-01
-2.810824264031802078e-01,-2.732027066898473633e-01,-2.569668618696796525e-02,-2.457626033821430113e-03,-5.096051499676212612e-03,1.347913964583158635e-03,2.517400979995727539e-01
-2.119971997941881015e-01,-2.959669441286892355e-01,-1.763792580345183159e-02,9.929744442928980716e-03,9.108322527061660234e-03,5.712003059453620198e-03,2.485745549201965332e-01
-2.484356057358149128e-01,-1.623956964804432190e-01,1.626879762273697461e-02,-3.844569030874026017e-02,2.710610057214963252e-03,-1.937261636783020602e-02,2.455163896083831787e-01
-3.026231213637746165e-01,-2.942818223786909382e-01,-3.571182152136692656e-02,-1.237609368746087242e-03,4.248397991149144640e-03,-1.180595419804478284e-03,2.629595994949340820e-01
-3.016102855214821687e-01,-2.551168647030225278e-01,-1.554528982719186048e-02,-1.870362340386020478e-02,1.497696307151625411e-02,-1.451600976058524915e-02,2.702762186527252197e-01
-3.044290374662795839e-01,-3.071533941883251573e-01,-7.725664184451502825e-03,-7.751736967278092215e-04,2.882185485964825888e-03,-3.478778674672106889e-03,2.981806099414825439e-01
-2.983991269730525975e-01,-2.636809476219613702e-01,3.500368275008713947e-03,-1.270086349084283833e-02,2.120095419697496167e-02,-2.960264181734038880e-02,2.938172519207000732e-01
-2.725505950803978061e-01,-4.855908495923086377e-01,-8.591905449276907025e-02,-3.203107590022317985e-02,5.390882316690553261e-02,-5.119234572445419823e-02,3.736789226531982422e-01
-3.439051591745683201e-01,-2.776542711675186181e-01,-2.682570352846352923e-02,-4.793704465632233486e-02,2.454359370160371853e-02,-4.174253076155330644e-02,3.128100633621215820e-01
-2.911139184380362455e-01,-2.803597842714530275e-01,-1.445123646488571945e-02,-9.524964226786119745e-03,1.009191815887431828e-02,-1.036330408777822940e-02,2.730980217456817627e-01
-3.189132094612306956e-01,-2.991589584583010386e-01,-1.975897118282687881e-02,-5.437785993997217536e-03,7.075358013663544596e-03,-1.269158798324118362e-02,2.910258471965789795e-01
-3.271746581474489490e-01,-3.224378542032935169e-01,-1.122789682003022538e-02,2.231606372187249897e-03,4.921026709418678535e-03,-6.038539573948207423e-03,3.139190971851348877e-01
-3.211547873881080428e-01,-3.237380540445887744e-01,-1.434240683003801253e-02,4.815178949935396114e-04,1.034748073685447982e-03,-3.102239558269690584e-03,3.081653118133544922e-01
-3.106252952416891921e-01,-3.115226848109529101e-01,1.674918078479553651e-03,-8.087899082527800305e-04,9.078991327395282557e-03,-4.784801400375593775e-03,3.132577538490295410e-01
-1.743340494623981385e-01,-3.820389693070451731e-01,5.125160635252312691e-04,-8.433972556482351168e-02,-3.500145204548522210e-02,3.514906495026642440e-03,3.675337731838226318e-01
-2.852208221869686477e-01,-2.770865638578562384e-01,-4.512148528103610001e-03,-1.369150809605569835e-03,8.504646523977740791e-03,-1.495357565152522113e-03,2.771452367305755615e-01
-3.265023025952658586e-01,-3.240715186096553291e-01,-1.075597330526811835e-02,2.841658546328032237e-03,3.026015255262933142e-03,-4.032342457181121477e-03,3.146976530551910400e-01
-2.799552947335491870e-01,-3.044201438529081649e-01,-1.547124202205402144e-03,-4.396952459754270223e-03,1.361374342560839681e-02,-7.754555685722446488e-03,2.927716672420501709e-01
-3.348585867457948284e-01,-3.350977192136754268e-01,-3.342098106451069084e-02,2.126260570936237999e-03,-1.044157202779671755e-04,4.128591864546222621e-04,3.015806376934051514e-01
-2.754828422848955016e-01,-2.767008548661875622e-01,-4.107670563275292452e-02,7.808811181895923374e-03,2.650657135078873599e-04,-1.014420575455386936e-03,2.354133874177932739e-01
-2.249904220676678945e-01,-2.802338744254156411e-01,-1.515732048829404599e-03,-2.301966923248728591e-02,3.189812674426238670e-02,-1.563861713333674838e-02,2.659213840961456299e-01
-3.270359360749327537e-01,-3.293541971432888404e-01,-2.128835960664393623e-02,1.937995062102122789e-03,2.127943061900389957e-03,-2.988890843904141569e-03,3.069974184036254883e-01
-3.273129223900098639e-01,-3.230424002357489832e-01,-1.034793000429146126e-02,2.873230353513713583e-03,3.523597900893906190e-03,-2.942426212797008903e-03,3.149911463260650635e-01
-3.830472501396973706e-01,-1.779475127762862874e-01,-2.052218276619338644e-02,1.107690870716585424e-01,-1.716440402730146390e-03,-1.268785356769787723e-02,3.693747222423553467e-01
-2.957127171992074421e-01,-3.091816918802455794e-01,-9.918581295183359625e-03,-2.246293388804905273e-03,9.080924499078211684e-03,-1.079104049715675848e-02,2.938042283058166504e-01
-3.172314063456679323e-01,-3.151277792427354396e-01,-1.522868258247378481e-03,-2.609637076755179190e-04,2.712052693900019861e-03,-3.784231386737251478e-03,3.147656321525573730e-01
-3.040924008262178013e-01,-3.141131975364069295e-01,-2.481383935169384491e-02,-4.859354682052786402e-03,9.833956132880902062e-03,-7.396554504230185879e-03,2.853429615497589111e-01
-2.643848461003996397e-01,-2.832640625772581133e-01,-3.875242973483830622e-02,-3.601477439313509679e-03,3.544460117977831426e-04,-1.980749800313185913e-03,2.357482463121414185e-01
-3.191853457466667932e-01,-3.183580475970889667e-01,-1.083709733411014620e-02,1.230064539153486510e-03,2.376162092056970793e-03,-1.199562129646883227e-03,3.079773187637329102e-01
-2.832430210431818307e-01,-2.655198023802189389e-01,-4.242737001039453837e-02,3.830496587203383648e-03,3.223148789523237485e-03,1.715351399705656102e-03,2.326419353485107422e-01
-2.914938969572602456e-01,-2.894953289756205250e-01,-1.385062934610226115e-02,-2.906666188126249412e-03,5.959775294383879742e-03,-5.439879504531355825e-03,2.770479619503021240e-01
-3.119940940425854903e-01,-3.137742275777746226e-01,-2.181302696653564244e-03,5.124856794655754076e-04,2.637084399758827646e-03,-3.294864803637539107e-03,3.107939362525939941e-01
-2.803030916825165475e-01,-3.170401325599526143e-01,-3.127870822035000442e-02,2.471002366265896439e-03,2.606491158368315700e-03,5.333726874373060506e-03,2.695092260837554932e-01
-2.784494757375338692e-01,-2.616226819377818202e-01,-3.659161621829581934e-02,4.024507083034123064e-03,1.526284474305292672e-03,1.102420497950168951e-03,2.340254187583923340e-01
-3.162827917440385606e-01,-3.151064838933349543e-01,-6.724031696474508379e-03,6.422582410759635971e-04,5.298312485382511428e-03,-5.109225388566543749e-03,3.092371821403503418e-01
-3.363772577460591440e-01,-3.080607540431040126e-01,-1.921303897154036378e-02,3.194951170815004196e-03,-4.138257666661133960e-04,1.781364364252937182e-03,3.040635585784912109e-01
-3.417240409181124816e-01,-3.474421868787854195e-01,-1.064253297567564205e-01,-1.533287109966445820e-03,-3.933903014169785883e-03,1.123864399030485330e-03,2.383294403553009033e-01
-2.950479220739561370e-01,-2.897653330723423126e-01,-1.573121194971180414e-02,6.308104028710409192e-03,1.053729758722496759e-02,8.771865695624920731e-03,2.779451906681060791e-01
-2.774763701676218330e-01,-3.112842581235500949e-01,-3.064771887035475095e-02,3.450617416059469002e-03,2.150791260089675479e-03,6.388351276279751259e-03,2.656767666339874268e-01
-3.058822609098417744e-01,-2.969276613585367097e-01,-1.401656458087308099e-02,-3.173222424829720296e-03,8.091817899314693308e-03,-4.979289592567272618e-03,2.880160510540008545e-01
-2.719798383305516154e-01,-2.833310615871014737e-01,-1.110189659181456956e-02,3.816236443739036595e-03,-3.409921109339664278e-03,-6.500336395404207428e-03,2.671194076538085938e-01
-3.146966704795608472e-01,-3.152215692621391785e-01,-6.206745558851367583e-03,-5.915318178558859460e-04,1.106422833381105145e-03,2.671745240473018344e-03,3.087950348854064941e-01
-2.987638240902629194e-01,-2.602895509367164073e-01,-1.137998237210977037e-02,3.627007342586519717e-02,-1.737726287133832190e-02,-1.704777515724850354e-02,2.806015014648437500e-01
-2.897831487003929007e-01,-2.858411481939109322e-01,-2.219416745220684217e-02,1.001599521956532055e-02,-1.169228233018420639e-02,-1.291386946006863393e-02,2.679103612899780273e-01
-3.270626488041410429e-01,-3.066250346959953910e-01,-3.072815811804766040e-02,9.623629600591227656e-03,-1.084267799762621970e-02,-2.190160273569411245e-02,2.902499437332153320e-01
-2.964749627547206279e-01,-2.968042508594357365e-01,-7.706660330556780458e-03,8.731433782687446354e-03,-1.193312325319370940e-02,-1.637831358255509989e-02,2.914498150348663330e-01
-3.378208882635737043e-01,-3.463722265593853211e-01,-2.852041020612852695e-02,-4.322850188014822070e-04,1.623643694713953816e-03,9.874753084310504761e-03,3.141430318355560303e-01
-3.194161159315769827e-01,-3.153760301472859351e-01,-6.499886824932465945e-04,9.269593473505946708e-04,-1.463021045539484720e-07,1.448297714355693388e-03,3.167794048786163330e-01
-2.913370255654194607e-01,-2.888599772526656562e-01,-7.413260778266789197e-03,-4.014235035791359138e-03,6.645093516250782928e-03,-4.694154547868146544e-03,2.831297814846038818e-01
-2.924683193983068641e-01,-3.006583256952301553e-01,-3.446157021223222872e-03,-3.408720387705077310e-03,9.205016382325136720e-03,-7.197928842177321075e-03,2.939599752426147461e-01
-3.271562642303065260e-01,-3.184012618479193923e-01,-5.640680055775976198e-03,-9.192039823966683017e-04,-2.445855727484811466e-04,6.940061143962120626e-04,3.172352612018585205e-01
-3.218721969159280549e-01,-3.307427990947206520e-01,-3.717471340432448867e-02,6.724873101254527034e-04,1.773548722053885657e-03,8.279990684644068311e-04,2.892570495605468750e-01
-3.049710769321083981e-01,-2.836375268380169068e-01,-1.716107024857785324e-02,-6.951884363849678873e-04,1.115703743249671712e-02,-7.310671476305013149e-03,2.787201702594757080e-01
-3.157311220905446580e-01,-3.266068974524786728e-01,-3.555015406616734985e-03,8.914112206107475999e-04,-1.086715286746835945e-03,-5.082810667395055992e-04,3.177641630172729492e-01
-3.055245068747246551e-01,-2.983735345026757302e-01,-2.600847097825043086e-03,-1.444789643114213285e-03,5.949144911422477380e-03,-5.297460425273222383e-03,2.997404038906097412e-01
-3.033560522372260593e-01,-3.069081896042196167e-01,-5.871726759099776816e-03,-3.624608676388978330e-03,1.183377180193011073e-02,-9.654313718925283325e-03,3.005085587501525879e-01
-2.518066197643099580e-01,-2.855248553342821793e-01,-2.501129834244647521e-02,4.091151504676542212e-03,6.029332816997644111e-03,7.762534649398313523e-03,2.460898607969284058e-01
-3.209440057897211540e-01,-3.156093711704165417e-01,-4.170669036751922798e-03,7.997391034837716766e-05,1.927442578183086392e-03,-7.001683730878479782e-04,3.141601085662841797e-01
-3.128056491879992462e-01,-3.143883906992616106e-01,-4.125493276253056063e-03,9.959551709061253803e-04,3.947967700278500261e-03,-3.311522171187795613e-03,3.096080422401428223e-01
-2.719570276337360260e-01,-2.866135167940025985e-01,-3.551187497541907767e-04,-1.332801366174526936e-02,1.835571233921876391e-02,-1.710256101059075620e-02,2.835213243961334229e-01
-3.177153335639930076e-01,-3.161726666559743770e-01,-4.374124503858323187e-03,1.646565330493651768e-03,1.097951534912323945e-02,-5.398058942125303836e-03,3.133032321929931641e-01
-3.040931684097621934e-01,-3.013810461858030809e-01,3.750190777918049889e-04,4.012793424647177623e-04,9.851940766881185294e-04,3.120337260715219316e-03,3.031750023365020752e-01
-2.935580285660966959e-01,-3.125178258203245574e-01,-1.380658064586143263e-02,-2.940966070452634331e-05,4.187887673293275896e-04,5.482372847118091065e-03,2.898535430431365967e-01
-2.726987381600343707e-01,-2.680426305633775708e-01,-3.041777160518638334e-02,8.177008527635311677e-03,-4.794782107001069500e-03,-4.829950766485077186e-03,2.406931817531585693e-01
-2.513542636226169802e-01,-2.539577461941248671e-01,-2.558205867810015022e-02,2.858671597976477144e-02,-6.761375923179558864e-03,-1.328481934748388868e-02,2.338501065969467163e-01
-3.198896045829238144e-01,-3.182477677547366213e-01,-2.607435316060557895e-03,2.530974878535931574e-03,6.664650807475538084e-04,-1.056086487755844528e-03,3.165021836757659912e-01
-3.245049135784485728e-01,-3.333117349677340857e-01,-3.859865909603452105e-02,3.597250949276082407e-03,-5.711902704690168236e-04,1.096911478950132485e-03,2.904845476150512695e-01
-2.885867098154628607e-01,-2.724209393960518866e-01,-4.075125538048476881e-02,1.521390195795775148e-02,-3.333821743904448291e-03,-2.793838247129005071e-03,2.417197525501251221e-01
-2.952153674761285873e-01,-2.870273682784793001e-01,-1.926238291254497859e-02,1.426584079192849512e-02,-9.745569517414386443e-03,-2.044545640521005375e-02,2.758751809597015381e-01
-2.902550814985617178e-01,-2.991567486330000136e-01,-2.886223349985481135e-02,1.148375567481893338e-02,-1.369458068895085603e-02,-1.163813094661235448e-02,2.685086429119110107e-01
-3.244215482449039900e-01,-3.166783255915173734e-01,-2.986667198910053500e-03,6.664171226524861352e-04,1.668658176481365980e-04,-1.004996287540793447e-03,3.176410496234893799e-01
-3.191726861355800304e-01,-3.169528085162054976e-01,-5.062186063108209400e-03,1.340156143777143736e-03,1.178936689991607473e-03,1.585036784957821569e-03,3.130337595939636230e-01
-2.418042216397432442e-01,-2.218163540659344735e-01,-9.911163743712259055e-03,4.773000112539169115e-02,-2.067408241613485215e-02,-1.915595126484840455e-02,2.423972338438034058e-01
-2.783999345893086730e-01,-2.515380457665783442e-01,-1.962234129525658455e-02,1.620204331987815452e-02,-7.586401565397681360e-03,-9.866144541330740952e-03,2.489745914936065674e-01
-2.835881577171787127e-01,-1.406439054687836088e-01,-1.715234898664785845e-02,-1.617038371418412154e-02,4.693433293770996571e-03,-1.095126009741538911e-02,2.335507422685623169e-01
-2.704195502067890944e-01,-2.952049936180203837e-01,-1.036586951357307274e-02,-2.746739093303467161e-03,8.085632188715287036e-03,-9.840077331093419200e-03,2.742207646369934082e-01
-3.129996747305203719e-01,-1.950951604924273108e-01,-3.615946325268942774e-02,-1.382059322999098723e-05,1.471817102944181005e-03,3.061410695511035136e-03,2.406987398862838745e-01
-3.168022524005870699e-01,-3.254502864811879004e-01,-7.946090597209548578e-03,9.034956909215360573e-04,-2.412290691101215737e-04,-2.252718118898110286e-04,3.132741451263427734e-01
-3.136893730856803453e-01,-1.937984358731388024e-01,-3.416293438358583567e-02,-1.900337848332004460e-03,-2.747059881051436715e-03,4.315204860516532598e-03,2.430751174688339233e-01
-3.149700888865357706e-01,-2.101423657186249072e-01,-3.422047164534575137e-02,-5.878546345821393342e-03,-1.248404290457088553e-03,1.140325472737332285e-02,2.467332631349563599e-01
-3.154386841544040698e-01,-2.088058157467307385e-01,-4.114474390478145560e-02,-1.197513388893149504e-02,-4.279092643497519124e-03,4.453456408942820313e-03,2.406317293643951416e-01
-2.912893734784378630e-01,-2.936326914993780957e-01,-1.097620808652058355e-02,-4.013212219572099377e-04,-1.531821221362566782e-03,3.407076357775967474e-03,2.815673351287841797e-01
-3.267744230610091227e-01,-2.137745944667174547e-01,-4.519672937101035237e-02,3.207227922057479842e-03,3.581818955733292922e-03,-1.734521906477673242e-03,2.455913275480270386e-01
-3.268056781852448078e-01,-3.258334811631884986e-01,-8.211611248595435120e-02,1.120212190251342879e-03,-7.095139683610778535e-03,9.090609473403064075e-04,2.445266991853713989e-01
-3.213113719055421535e-01,-3.136984752241127050e-01,-5.231402478625732377e-02,4.413417845123171306e-03,1.375574948053067325e-03,8.049535806197582674e-03,2.657596170902252197e-01
-3.358661123378628988e-01,-3.418475231980930285e-01,-2.490110748510601657e-02,-6.681189874519020272e-03,-1.467626489158715616e-02,1.565934650194757138e-02,3.164028525352478027e-01
-3.227903810888015368e-01,-3.243452243479137964e-01,-2.185109398210918763e-02,-6.744773991748394910e-04,-7.509011827665103668e-04,4.834824950539188420e-04,3.017259538173675537e-01
-3.207609106852372660e-01,-3.661457023777486830e-01,-2.891211160443696304e-02,6.216348520118515977e-03,-4.648934911260570874e-02,1.135562187601327905e-02,3.278224468231201172e-01
-2.968489073680048440e-01,-3.078143913812632082e-01,-1.518037788383475029e-02,1.408519257080724551e-03,1.628386454790396645e-03,7.104280165287473088e-03,2.875958085060119629e-01
-3.348700399605947231e-01,-3.317574895909973787e-01,-3.204796953748553778e-02,-2.876399634441800281e-03,3.358301558318608094e-03,2.481189832037467968e-03,3.014058172702789307e-01
-3.005863109035350478e-01,-3.049704618301351533e-01,-1.767458392516924048e-02,1.876948830243440431e-03,1.433245687418321576e-03,2.517547696739170235e-04,2.851587533950805664e-01
-3.701989362575226483e-01,-3.805632577235789071e-01,-9.669355649665939412e-02,-6.551761742568159436e-03,2.164660679382353868e-03,1.110125830779691396e-02,2.797496318817138672e-01
-2.973679232127894312e-01,-3.037550210104274506e-01,-1.544883871986424406e-02,-7.353367661183424393e-04,-1.384603847739794037e-03,4.375839877805444075e-03,2.852798998355865479e-01
-2.897669460921780682e-01,-3.047675680730036474e-01,-5.031244320947092508e-03,7.216833351408873543e-04,-1.225205807828838242e-02,4.854261556646618896e-03,2.934165000915527344e-01
-2.922522160903884836e-01,-3.221412046681311203e-01,-2.531525033415985004e-02,-1.192871095635069517e-02,-8.653526515673679032e-03,8.009060752066702454e-03,2.845542728900909424e-01
-3.028760028249868341e-01,-2.900709196950552182e-01,-2.303389564392771538e-03,2.913666930545900403e-03,1.038026080172823641e-02,1.106531664359986823e-02,2.955926954746246338e-01
-3.158406440992190256e-01,-3.169111285295088676e-01,-7.710885033408027001e-03,-1.408275071874442660e-03,4.867670443739683175e-03,6.460525536879571998e-03,3.089938461780548096e-01
-3.379338261353013184e-01,-3.381274899513108112e-01,-1.255995432191635286e-01,2.000904372693811540e-03,-1.547984064249832746e-03,4.941741219090953208e-03,2.126487046480178833e-01
-2.742495690043860179e-01,-2.834431327640450360e-01,-6.129282426615811907e-03,8.733857769206617924e-03,8.246769882165660981e-03,1.172704152796344608e-02,2.743782699108123779e-01
-2.152871937899967225e-01,-2.812451491266177994e-01,-3.173369601280814911e-02,4.107579525351718469e-02,2.847796872031402044e-03,2.391489727968185413e-03,2.350580841302871704e-01
-3.279247862120245882e-01,-3.332197128953566234e-01,-5.313825778121547549e-02,-4.041905224701465051e-03,4.769670183845286376e-03,4.445073941599739925e-03,2.777898311614990234e-01
-2.911857127244678045e-01,-2.938739813171911686e-01,-4.559113926475732992e-03,1.790771199700071830e-03,6.272359414281696542e-03,4.463404876377149479e-03,2.883053421974182129e-01
-3.221820587269541014e-01,-3.201740198411940352e-01,-1.721461296950030362e-02,-5.091068005991791073e-03,4.504024157491684326e-03,5.821221803670713867e-03,3.043633699417114258e-01
-3.228324646732859682e-01,-3.154739832292192681e-01,-1.926114492755576224e-02,5.851952370690475386e-03,-1.240032278913401126e-03,1.398318846443709351e-03,3.001484274864196777e-01
-3.191406707643392737e-01,-3.281645354246419677e-01,-4.770200865561069481e-03,-3.760548114571504903e-03,-6.855280454708665740e-05,-1.297482113358824039e-03,3.190525770187377930e-01
-3.196044750524399403e-01,-3.273471480655631982e-01,-2.181800008368892096e-02,-1.436191378683178638e-03,3.897755975349210828e-03,6.354850881855030401e-04,3.018200993537902832e-01
-3.096811491983115783e-01,-3.162558352439739928e-01,-1.704349647320030359e-02,2.734130595451989779e-03,7.367210714533407173e-03,9.433531430277915936e-03,2.967427372932434082e-01
-3.169760923569496236e-01,-3.160751183457802815e-01,4.782625081447278159e-04,-1.608782112806719051e-03,1.530225535803179243e-03,8.095947453476622395e-04,3.170312643051147461e-01
-2.674441753598496563e-01,-2.026154131846107653e-01,-2.282724832574675733e-02,3.907855767859844814e-02,2.887757146294940482e-03,-5.191978078257394359e-03,2.299332171678543091e-01
-2.967712906323582422e-01,-3.134903479694818862e-01,-1.322976255025665182e-02,-1.008614936303861608e-03,8.948608993331159337e-04,-6.302720450064991722e-03,2.924730777740478516e-01
-2.448981267653531912e-01,-2.483853901192777103e-01,-2.563615016276449277e-02,1.537469854950442895e-02,-1.690283454085538808e-03,-1.086409228330335961e-03,2.226518690586090088e-01
-3.330382937848115343e-01,-2.877025128488489569e-01,-5.614465379389960153e-02,6.845992180812136840e-02,-2.063237074842512453e-02,-2.264640618822007581e-02,2.881807982921600342e-01
-2.924135538757932640e-01,-2.602828274466788550e-01,-1.006759710148413811e-02,1.119333497043552283e-02,-1.275157186514113382e-02,-1.710412173692636706e-02,2.709630429744720459e-01
-2.748833234118354674e-01,-3.089129453454055318e-01,-3.723007112245962924e-02,2.303585416083144335e-02,8.097791755976815886e-03,1.075673002238221494e-02,2.604997754096984863e-01
-3.121898091617262283e-01,-2.930231565507339653e-01,-2.466879756556675241e-02,1.356498833354816656e-02,-1.320247084615978027e-02,-2.336901728802037032e-02,2.832633852958679199e-01
-2.281066645586136699e-01,-2.172148572853908055e-01,1.912631266374584249e-02,4.160426630957329841e-02,-1.195224819895431348e-02,-1.615645270482321885e-02,2.548614740371704102e-01
-3.086492456218274394e-01,-3.120000294276046304e-01,-2.871663841793642424e-02,4.834969094949401192e-02,-3.065546536412100051e-02,-2.564070170930820777e-02,3.018545508384704590e-01
-2.930803231277060994e-01,-2.964681434719194653e-01,-3.469543592374529917e-03,-3.678513266725671072e-03,-7.900072102044080821e-03,6.741604867565504679e-03,2.919438481330871582e-01
-2.607191356514176883e-01,-3.283692279786415424e-01,-3.006632694481953250e-02,-4.265001897024721139e-04,8.365132432768858243e-04,7.010755225300650123e-04,2.708967626094818115e-01
-3.184077553956178308e-01,-3.289684664304120543e-01,-1.366663864498363079e-02,1.122806945341556185e-03,1.259879891882603677e-04,-1.991980831467642099e-03,3.101817071437835693e-01
-3.148339120555375681e-01,-3.151985646376787020e-01,-4.491154214805948008e-03,1.543105927311417234e-03,-6.519170856425063375e-04,3.093307550858044510e-03,3.105850219726562500e-01
-2.883627773560490937e-01,-2.954953458592696203e-01,-2.198204798669339821e-02,-1.659173176008431902e-03,-3.727774219391285625e-03,5.778810807428593280e-03,2.702955305576324463e-01
-2.801386384207033564e-01,-3.006845663087255316e-01,-1.753603051561128390e-02,-1.244022294004029118e-02,-8.932407760577056044e-03,7.256870332844313209e-03,2.750260233879089355e-01
-2.745637336107155657e-01,-2.895645241743216580e-01,-2.130111709278653676e-02,-1.104134818570862457e-03,-2.355886506815891516e-03,7.441325005879320838e-03,2.614431977272033691e-01
-2.672070935659594526e-01,-3.174501517109820647e-01,-9.303992028902668965e-03,-1.066617403031573132e-02,-4.250914876549056337e-02,8.374868721610074368e-03,2.965957224369049072e-01
-3.306770984158926008e-01,-3.330805519181431196e-01,-9.652970234990893017e-02,-3.006933626200754273e-03,-3.838894028290984820e-03,-5.128347685951140621e-03,2.356772720813751221e-01
-3.013826010538880329e-01,-3.081862268880776190e-01,-2.200041933427873686e-02,9.510348082855721698e-04,-2.471909161614079756e-03,7.672289921626997480e-03,2.831945419311523438e-01
-3.222404183309224290e-01,-5.149518337407626989e-01,-1.245109053604462335e-01,6.203853547573595639e-02,-8.570724594846190758e-02,-2.817611798607508669e-02,3.876913785934448242e-01
-2.144049473418509488e-01,-3.587389673621992903e-01,-5.582836285828396417e-02,3.211999614780926965e-02,-2.941486049291666769e-03,3.518064512004062845e-03,2.683747410774230957e-01
-3.284082150334910466e-01,-3.305822408477556706e-01,-8.239061278504497543e-02,-1.219867449253505621e-03,1.563007896777985793e-03,-6.893298730945644250e-03,2.474238872528076172e-01
-3.243776813519585467e-01,-3.210695573317263740e-01,-8.007284983958179447e-02,-2.942281431511976474e-03,-5.395517240735386334e-03,8.252902697177403376e-04,2.429052293300628662e-01
-3.234391425904878936e-01,-3.202450129052311079e-01,-1.009110097302762521e-01,2.877459164712859851e-03,1.519066287327657232e-03,-2.514016294907605166e-04,2.210206836462020874e-01
-3.394270579934105525e-01,-3.403545292426903290e-01,-1.108913929063333748e-01,8.469793696225026182e-04,-8.120773041527089026e-04,-1.040730162467112287e-02,2.297181636095046997e-01
-3.293164596355798168e-01,-3.267327537254133274e-01,-1.222132264585508721e-01,3.453129846144054331e-04,-4.502681594511694779e-03,-1.131295124894609455e-03,2.059814333915710449e-01
-3.164724439603779360e-01,-3.161248830821726252e-01,-3.453619193398427267e-03,2.085696083252057322e-03,3.768014336291903264e-03,-2.765723429113455152e-03,3.129707574844360352e-01
-3.225192350323442536e-01,-3.180792306531595726e-01,-2.173916049966115316e-02,4.960588783140677457e-03,4.641924909437494568e-04,-1.207295537046209743e-03,2.987168133258819580e-01
-2.910031278410710187e-01,-2.832360111496406985e-01,-1.771684039873519523e-02,2.182979114702121755e-03,6.895989611269111655e-03,3.981811347521421393e-03,2.698659002780914307e-01
-1.085975891550018946e-01,-3.923779994870981724e-01,-1.797196611405910138e-02,4.449262743776723900e-02,1.539750835755889988e-02,8.824798094828971082e-03,3.483471870422363281e-01
-3.214538121617907529e-01,-3.231725335067229810e-01,-6.823782074250311913e-02,-3.267640872048115184e-03,1.863322239282097601e-04,2.909724500592437979e-03,2.541929185390472412e-01
-3.305801680493027916e-01,-1.770821818473111153e-01,-2.401875205468506635e-02,2.167807681166134676e-02,-7.226372827982943713e-04,-8.954052504877358558e-04,2.681394517421722412e-01
-3.124836525863978753e-01,-2.718447163032712277e-01,-3.098344126376262331e-02,-1.984809216803199231e-03,-7.269087152170820680e-03,3.755931319048335174e-03,2.639444768428802490e-01
-3.175878225202350413e-01,-3.202700827624628266e-01,-1.131887518764823630e-02,-5.837444899121219111e-03,-6.034235647394677569e-03,-9.042865956647337059e-04,3.079663515090942383e-01
-3.174378098072528354e-01,-3.226195867681041496e-01,-2.186743788202769045e-02,-3.697552685962876562e-03,-1.865281825919429736e-03,-1.911647764843842599e-03,2.982996702194213867e-01
-3.374839266465492482e-01,-3.351189633899096521e-01,-3.950106682932064128e-02,2.418846279228480285e-03,4.280284247485472739e-03,-1.956894942020307934e-02,2.988578379154205322e-01
-3.115980577455652045e-01,-2.489229817409407963e-01,-1.199879008105542155e-02,1.098137217968987896e-02,-7.814847625101446066e-03,-2.662376174945432078e-02,2.785353362560272217e-01
-3.110418046424316962e-01,-2.508270547147368745e-01,-1.380617172104955936e-02,-3.464180397414052051e-03,1.151344253866916183e-02,-4.946149741044236769e-02,2.860941588878631592e-01
-3.223463047243289026e-01,-3.195626434648121128e-01,2.141713217718166362e-06,-1.651963445998409861e-03,2.330799605937837926e-04,8.691647554144834231e-04,3.209822177886962891e-01
-3.121105663893057880e-01,-3.280845808152322851e-01,-1.130876488936877200e-02,-1.561202504886476626e-03,7.223375870612246986e-04,-9.068969892493888114e-04,3.091168999671936035e-01
-3.166789128765884476e-01,-3.220163360719883183e-01,-2.161347283755860049e-03,-2.581589336730835509e-03,3.152732465193946836e-03,1.330396107752847192e-03,3.173068165779113770e-01
-3.141143738361174553e-01,-3.055935323719105590e-01,-1.662258269805683142e-02,8.860717164267428378e-03,-7.518876417667577465e-03,-1.310250123247706441e-02,2.948885560035705566e-01
-3.300116736208886237e-01,-3.243982154609181268e-01,-4.164571558838900400e-02,2.404668587307159499e-03,9.687495953941089926e-04,-1.039543948272920668e-03,2.856415808200836182e-01
-3.411781645780991856e-01,-3.395623581115255751e-01,-6.280439054001796251e-02,-5.184529680528310140e-03,4.711656378764341770e-03,3.454975412156497620e-03,2.778989374637603760e-01
-3.161055553233022009e-01,-3.259189376960305307e-01,-3.609588197738516913e-03,-1.187711490913888248e-03,3.781488241187719486e-04,-3.576181438528619450e-04,3.175243735313415527e-01
-3.116653209274063974e-01,-3.225801078996586302e-01,-4.442598821759013994e-02,2.927388687479710264e-03,9.651193459863932275e-03,1.854612606265382572e-03,2.734379470348358154e-01
-3.194265324232856695e-01,-3.162612451315407469e-01,-9.332663948782266017e-03,-3.002624864350791640e-03,1.729123422717366914e-03,2.235601064521715916e-03,3.086060583591461182e-01
-3.251104602908323482e-01,-3.250607415065263073e-01,-1.170507832668413184e-02,-1.463961967037045011e-03,1.027792552186884006e-02,-8.065093191771703293e-04,3.138990998268127441e-01
-2.318647727450853235e-01,-3.118725143631627672e-01,-5.643243617046378446e-03,3.780023953517484825e-02,1.637512642316956216e-02,7.867203887237024865e-03,2.845234274864196777e-01
-3.197195512381997839e-01,-3.219605903679905734e-01,-3.322594573890838565e-02,1.274547904167147626e-03,1.389605108718441027e-02,8.742659567484082142e-03,2.890313565731048584e-01
-3.186994406319436646e-01,-3.296619848763515104e-01,-1.089336589746242590e-02,2.583509912536677191e-03,-8.032064915368007305e-04,5.434023984060040550e-04,3.134675920009613037e-01
-3.193250457234757533e-01,-3.166108119975383217e-01,-3.124204327966756400e-03,-2.511845765885965722e-03,1.357611689311482780e-03,2.242828789768766973e-03,3.149152994155883789e-01
-3.162764501660328964e-01,-3.151254187788004590e-01,1.668881769312791086e-03,-4.519803423560819528e-04,4.736846294630746410e-04,8.624325137367865090e-04,3.173769116401672363e-01
-3.093636283939067977e-01,-3.136458782046906979e-01,-1.209569941877569610e-03,-2.623142591753436365e-03,9.781882704040394984e-04,3.738177660707760284e-03,3.104227483272552490e-01
-2.511149451221046380e-01,-2.489692952063924103e-01,-2.616120332750790367e-02,1.556010546158963052e-02,2.049278632017527153e-03,1.567504757259640573e-03,2.255491912364959717e-01
-3.194385989544738513e-01,-3.146114655814162830e-01,-5.406912970006172436e-03,-5.967316394460521554e-05,1.049237683755856768e-04,2.732123566984763323e-03,3.116821646690368652e-01
-2.495848601242206533e-01,-2.897370442730085593e-01,-4.086942332140502954e-02,7.410663965561013755e-02,2.401565566491899173e-02,1.233467619760225328e-02,2.687318027019500732e-01
-3.227126194700215001e-01,-3.221177324911257966e-01,-7.815853364823877047e-03,-2.142559428379267378e-04,4.705338604832652919e-04,-4.253347769604572982e-03,3.146872520446777344e-01
-2.999475346727786818e-01,-2.937907005298026064e-01,-3.047384432672736732e-02,7.755262590094178995e-03,1.268888888622645914e-02,8.891353005193013831e-03,2.681333422660827637e-01
-2.717228935870394380e-01,-2.176458153178834343e-01,-8.380333553519914158e-03,3.324994546611415025e-02,-2.658780318528749837e-04,6.998168020649022346e-03,2.479851841926574707e-01
-3.322667201233460710e-01,-3.219570613936256209e-01,-7.305755667383839747e-03,-1.983961546732327357e-06,-5.595727576288999803e-04,-8.116623945929293989e-04,3.199352920055389404e-01
-2.831647670749835588e-01,-2.855766397619818875e-01,-2.126750682713804408e-02,1.230133500637856699e-03,6.173670602564257197e-03,3.522885137091293084e-03,2.634080052375793457e-01
-3.115638423294157522e-01,-2.796974303167101272e-01,-3.531212442274175856e-02,1.213807697963371207e-02,1.736374751082937415e-02,1.749608157878882256e-02,2.660679817199707031e-01
-2.613882370191530913e-01,-1.987488891477663666e-01,-1.241940116840617447e-03,3.357154623017177819e-02,2.617821886488795342e-03,3.321301295808546522e-02,2.490289211273193359e-01
-3.116379081393825246e-01,-3.128896987817286202e-01,-4.751351659196767496e-03,1.316721888671656905e-04,5.079472024823721010e-03,-1.076120623427458166e-03,3.076459169387817383e-01
-2.683642842177716425e-01,-1.865396033324170366e-01,-2.235981500096120844e-02,3.884749714380411612e-02,-1.829990451126806681e-04,5.359842220638206568e-04,2.271840423345565796e-01
-2.900947790384139635e-01,-2.429536160175471693e-01,-6.641022388317041614e-04,1.909334181507123945e-02,2.685370690301946972e-02,2.881374367460327185e-02,2.794566750526428223e-01
-3.365083986880247346e-01,-2.679318509715719054e-01,-2.727597815347093668e-02,1.534761469226858001e-02,-5.465230768700092036e-03,4.226899542426872797e-02,2.920232713222503662e-01
-3.064626115638032777e-01,-2.235585809239945543e-01,-8.975355443084309659e-03,7.875247517204931810e-03,-3.171829487792575137e-03,3.932956172165266023e-02,2.748918533325195312e-01
-3.088451545239285778e-01,-3.098554060257448506e-01,-8.257806122181299280e-03,2.317839366174401054e-03,8.980535289473227933e-03,9.950708620195191159e-03,3.020141720771789551e-01
-3.196327239446566937e-01,-2.773988928400669129e-01,-1.683220032106091946e-02,1.311420702111966777e-02,6.558880909191178513e-03,1.013559006721626715e-02,2.857212424278259277e-01
-2.992002332168667844e-01,-2.662006882087295523e-01,-5.897894565373318354e-03,1.637287790475865437e-02,1.273693498353225401e-02,2.889406545966345663e-02,2.850120961666107178e-01
-3.445029990261663233e-01,-2.973751080356366594e-01,-2.228565685348760095e-02,3.727940942068912883e-02,3.087473078662815798e-02,3.114052587894283394e-02,3.174867630004882812e-01
-3.052729132795110600e-01,-3.023100782922602536e-01,-1.539809300450556417e-03,1.128284705616781382e-03,4.362361725094212467e-04,-4.701442481522087732e-04,3.022709488868713379e-01
-2.739856527004149167e-01,-3.067567308356363709e-01,-1.318634899919257641e-02,5.847180017202689359e-03,1.247550994692770733e-02,9.336189049614522506e-03,2.801211774349212646e-01
-3.049425865291698345e-01,-2.944791539754587628e-01,-1.985930361984883374e-03,3.954076139318052699e-03,1.317232513285921704e-02,1.139010979356950594e-02,2.994643449783325195e-01
-3.145133822448512584e-01,-3.464548658055117691e-01,-2.146674697424283407e-02,2.661400992120387804e-02,2.747950594501905389e-02,2.661857653217037170e-02,3.205820620059967041e-01
-3.270594494959296883e-01,-3.178741393069828836e-01,-4.152468881359228092e-03,3.784326471984143792e-04,7.462363384629386136e-04,-8.028142705110488924e-04,3.184200525283813477e-01
-2.776138318411473516e-01,-2.823698807142989153e-01,-2.487581703056254701e-02,3.798927231520199399e-02,5.044047157950867777e-02,3.834804573497520297e-02,2.854385375976562500e-01
-3.143615142222205838e-01,-3.148517252323693727e-01,-5.000787492279140656e-03,4.155698669828162325e-04,8.630826771768332047e-04,-4.605447795348767241e-03,3.097133040428161621e-01
-3.254659812678392106e-01,-3.355634976650294643e-01,-4.588359799652960702e-02,-5.612175734720706646e-03,7.390813469803031530e-04,-9.497590877640583670e-03,2.854086458683013916e-01
-1.608728910795037548e-01,-3.620521675611994006e-01,-3.007406847026547481e-02,5.002629305340706989e-02,1.462962202247909509e-02,8.025248415461238780e-03,3.037081360816955566e-01
-2.947134889619281717e-01,-1.608401449176356524e-01,-6.941021591007706659e-03,-5.305724085570215354e-02,2.051338088658816172e-02,-4.993408718890819664e-02,2.817762494087219238e-01
-3.280434286135032185e-01,-3.295170856333849985e-01,-3.318507764329334253e-02,-3.820970456850356946e-03,4.919735776476768900e-03,-6.696188965735617830e-04,2.957970499992370605e-01
-3.096101373254219191e-01,-3.294231445317525875e-01,-3.090705784326761019e-02,6.023905657505847049e-03,1.206067034095794493e-02,1.014393169899100236e-02,2.905922234058380127e-01
-3.184493372784615861e-01,-3.192288596441350546e-01,-7.016269453669815581e-03,1.014492219331541295e-03,2.602350692448560966e-03,-5.176392695758597176e-05,3.118610978126525879e-01
-3.086964681111392661e-01,-1.981488312000026786e-01,-3.265217188713273599e-02,-7.677057129509278453e-03,3.833042599282878576e-03,-7.195459378198424370e-03,2.414154112339019775e-01
-3.383702178884233636e-01,-3.574279788216399023e-01,-3.021335852748402440e-02,7.558863773186172939e-03,2.548654971497173183e-02,1.109464814370466831e-02,3.220030963420867920e-01
-1.785310383093381692e-01,-3.171617398372867935e-01,-2.795066012347502404e-02,-1.127293685348163509e-02,1.557097272671229340e-02,-9.272764817695186915e-03,2.532479763031005859e-01
-2.919798581009181992e-01,-2.232115342887850407e-01,-3.554009134085378552e-02,-3.413897185576274945e-02,4.583945573523912249e-03,-6.146248984156965980e-03,2.377567589282989502e-01
-1.552647599063306516e-01,-2.526844207055781721e-01,7.082932387625529014e-03,-4.494236380810204962e-02,-1.832367275041723448e-02,1.417317150679589348e-02,2.435827851295471191e-01
-1.931521532017203557e-01,-3.582705713311685192e-01,-3.907523481537453214e-02,-5.103688936915689450e-02,-2.463416109521598257e-02,5.247425384390492532e-03,2.935338914394378662e-01
-2.749760817889488340e-01,-2.996294696304616645e-01,-1.646571007965236255e-02,1.035422182889485926e-02,3.660637684157589528e-03,1.312004082014393315e-02,2.732888460159301758e-01
-1.560574142625064109e-01,-3.075952763337584939e-01,-2.518938963363526184e-02,-2.332687313734057785e-02,-8.184337619579902219e-04,-2.622845235649404454e-03,2.481465339660644531e-01
-1.933168138376989420e-01,-2.917780584996788051e-01,-2.554167498163342764e-02,-2.076019945438907152e-02,-9.930235489950318961e-03,6.903392097240517236e-03,2.368421852588653564e-01
-3.376881790523871274e-01,-1.875279057822202555e-01,-3.621720059005653636e-02,-4.061926616562468173e-02,7.353166780602643678e-03,-1.960544386083527824e-02,2.728167772293090820e-01
-3.005073316203582534e-01,-3.223159982168329329e-01,-2.474394079023728432e-02,6.055534989804909479e-03,1.175428326179251033e-02,9.485517716573403646e-03,2.886685431003570557e-01
-3.197892095223697773e-01,-2.999616427792684004e-01,-1.005382068181592814e-02,-5.869036641423443224e-03,1.218938800870697330e-02,-7.267539684455739425e-03,3.014886081218719482e-01
-2.656588106689139472e-01,-2.352131586549219833e-01,-1.163330620265701221e-02,-3.951260755264047325e-02,1.688339479393638487e-02,-1.757836453259820769e-02,2.533531188964843750e-01
-2.325863763058508837e-01,-1.400557644598260654e-01,2.732348929047009878e-02,-4.758324930380490592e-02,1.104401897692303298e-02,-2.225471937237502584e-02,2.463933080434799194e-01
-2.354846646366148266e-01,-2.217540638708567213e-01,2.294766884218868430e-03,-4.012480746200800669e-02,1.300462365774809718e-02,-1.714478200168206151e-02,2.442988455295562744e-01
-2.969231446780158934e-01,-3.265616835096608050e-01,-1.909187340414070233e-02,-9.697364478968838533e-03,1.939986731814068860e-02,-2.144296836957701458e-02,2.984857559204101562e-01
-3.139277260107453671e-01,-3.152659759671840867e-01,-6.003204278888146783e-03,3.433858170333350642e-04,4.701364432945293742e-03,-8.026043856746390912e-04,3.087069392204284668e-01
-2.849698884161261936e-01,-2.921344877707436338e-01,-1.922250772369171745e-02,-1.142286947849526467e-03,-3.484392038237994153e-03,8.132386163705282098e-03,2.698438763618469238e-01
-3.202613078151427262e-01,-3.268911356971078708e-01,-4.703816585444892118e-02,-3.269514586556537122e-03,8.532401441370209049e-04,4.036806766722159275e-03,2.767479121685028076e-01
-3.208818543893195985e-01,-3.238833339689413671e-01,-2.650984797763492051e-02,1.085237514150208700e-03,-3.488477009183204029e-04,-3.572749552571959607e-03,2.959554493427276611e-01
-2.735895302191410638e-01,-3.332686767979889941e-01,-5.067241753395013149e-02,-1.227842484180128105e-02,1.626799226856130015e-02,-6.348898878199032980e-03,2.606228888034820557e-01
-3.287071761764584488e-01,-3.233062201014874626e-01,-6.491416144991851711e-03,1.006421675708544421e-03,2.091789996399028104e-03,-3.813135559295414718e-03,3.196430504322052002e-01
-2.847531864724419659e-01,-2.708652666952531818e-01,-3.665636529945709432e-02,-3.898522392703095054e-03,3.248604444619045128e-03,-9.485130257393623596e-04,2.416181117296218872e-01
-2.767571264561898836e-01,-2.756453150699516019e-01,-3.403280171676384414e-02,-7.680839284575620950e-03,2.693819140908273839e-03,-2.061551256047002186e-03,2.426066249608993530e-01
-3.196691121483314912e-01,-3.196007517269028875e-01,-8.943898592647520074e-03,-3.888028106929120476e-03,1.894386521122264772e-03,1.569863468436029016e-03,3.107932209968566895e-01
-2.689870192540938509e-01,-2.978976206008869809e-01,-1.221096841867763683e-02,-2.406277335333538089e-02,3.667346998218094789e-02,-2.668148428776353706e-02,2.865325510501861572e-01
-2.056890750181789018e-01,-2.376728860627359274e-01,1.902360579795556172e-02,-3.933155812823269787e-02,3.312595233285556967e-02,-2.365911977832398094e-02,2.613772749900817871e-01
-2.664847255027298356e-01,-3.079461869077848024e-01,-3.184321813080931429e-02,-1.817500337556745074e-02,8.912955175055895310e-03,-1.452011941873973359e-02,2.614690959453582764e-01
-3.252745154469712796e-01,-3.151427994170208358e-01,-4.277866119144602131e-03,-7.051974302444720660e-04,2.315841519062105487e-04,1.311639011534005599e-03,3.160634040832519531e-01
-3.264374198026863128e-01,-3.029865766026144103e-01,-3.418754309614654985e-02,-5.755543187588313403e-02,2.767538879633901772e-02,-2.361091495185929298e-02,3.049828112125396729e-01
-3.208842505765618913e-01,-3.117608554398431098e-01,-5.559803877460578470e-03,3.526681806276537982e-03,3.686621397499585933e-03,-2.291760725579581551e-03,3.110140860080718994e-01
-3.015301623367661055e-01,-3.081486344411966671e-01,-2.210666947582790032e-02,1.738014892331502057e-03,-8.581436636023773157e-03,-8.457403121293761983e-03,2.835757732391357422e-01
-3.204166603913473077e-01,-3.209224862198634676e-01,-1.994142783783248163e-02,-1.621471486412733422e-03,5.162413912956207405e-03,-1.053418540632462168e-03,3.008800148963928223e-01
-2.486846148281007807e-01,-3.079617067135973496e-01,-2.025714404178255434e-02,1.141611706543380501e-03,9.030111344544733843e-04,5.541467713362386964e-03,2.633094787597656250e-01
-2.860806976203468799e-01,-3.061405411467827964e-01,-4.293062034229522261e-03,-6.001521200979170051e-03,1.232946122282392587e-02,-8.509448431223788634e-03,2.936675250530242920e-01
-3.062096444714400567e-01,-2.930906068000245224e-01,-2.324468419749634029e-02,-1.874794525190271940e-02,1.473755579317792899e-02,-1.113035726636036130e-02,2.803689539432525635e-01
-3.109661023197181628e-01,-2.906801167120814933e-01,-6.576377641269698371e-03,-1.661869480878714819e-02,1.969603115679468414e-02,-1.584504042455278303e-02,2.993915975093841553e-01
-2.943366902822082132e-01,-3.301885493776722802e-01,-2.161776512320265353e-02,-5.878910179505557332e-03,1.284068076013723629e-02,-1.309287010865053946e-02,2.941955924034118652e-01
-3.017218739108724623e-01,-1.985779716930568539e-01,-4.146981764532217674e-02,-6.828698979369542121e-02,2.203452445399929887e-03,-1.552941764258442166e-02,2.573980987071990967e-01
-3.218937316961547612e-01,-3.173064853035913457e-01,-1.225677155501092574e-03,7.558443638854403165e-04,1.003543060144146259e-05,-1.299771192401416760e-03,3.184098601341247559e-01
-2.951808717378935354e-01,-2.491224234965654372e-01,-1.074832271820205798e-02,-2.272926786929028650e-02,-1.428604668493680015e-02,1.691194327034992173e-02,2.700794339179992676e-01
-2.581660777807418539e-01,-2.097454038212677729e-01,-2.225938596595491981e-02,-4.954104114052294838e-02,-5.646121150065085831e-03,3.911484498272472556e-03,2.325472980737686157e-01
-2.579448407638951224e-01,-2.910624276475156647e-01,-9.155319047098653407e-03,-4.181463052540885378e-02,-3.366033934045868647e-02,4.045702148563028178e-02,2.911821901798248291e-01
-3.337331785227887759e-01,-3.369608391920827506e-01,-3.613914293938352840e-02,5.178218486751866599e-05,-5.763688910332187337e-04,1.464211673567022672e-03,2.992333471775054932e-01
-3.235456600686055784e-01,-3.285453540799005978e-01,-2.836525721678548329e-02,-6.899454463762301308e-03,-2.268363925576862006e-02,2.940614308351719233e-02,3.048161566257476807e-01
-2.859557813421893524e-01,-2.572107287418079480e-01,-1.154641655978549952e-02,-1.719629034514811444e-02,-1.201408211778974382e-02,2.417655427443805155e-02,2.670440673828125000e-01
-2.767174253065941003e-01,-2.872214382671159361e-01,-1.517374691107511997e-02,-4.837456252140957813e-03,-6.464470574404574191e-03,6.505528856559180360e-03,2.675541639328002930e-01
-3.058953365029107307e-01,-1.471774659194422796e-01,1.961991693588044372e-03,-9.557890645916049255e-02,-1.745190638762655205e-02,2.341455731280043043e-02,3.179142177104949951e-01
-2.211245212195050713e-01,-1.561847707443097255e-01,4.542219296419847119e-03,-6.918252789696438532e-02,-2.250552614253879466e-02,2.993240909900994617e-02,2.430101186037063599e-01
-3.112534970457130346e-01,-1.751601721124880495e-01,-2.262568590213923092e-02,-6.547074089311936962e-02,-1.271484419029904854e-02,5.338267624538920592e-02,2.905864417552947998e-01
-3.968717540360232610e-01,-2.807052386663349552e-01,-6.834091152077889642e-02,-1.118056235743792870e-01,-2.682641675944503687e-02,3.323455914968032054e-02,3.552983999252319336e-01
-2.728894305433874345e-01,-2.149166909042578844e-01,-2.946355433533776047e-04,-8.936855239686661290e-02,-3.285368968540749307e-02,2.224187973339120453e-02,3.009121119976043701e-01
-3.347607226292010352e-01,-3.316996531307614404e-01,-5.809726303644816015e-02,-1.025785147845915827e-03,-1.328944675561640441e-02,5.752977898254285453e-03,2.762922942638397217e-01
-3.123226530945058532e-01,-3.123305977347936024e-01,-3.775070039411465572e-03,-1.034761211324647189e-04,6.551336242501719712e-04,-4.185325619130583763e-03,3.086388409137725830e-01
-3.138022688831603180e-01,-3.122991327808994910e-01,2.735729323223412557e-03,5.365446624069887625e-04,4.239775662948548911e-04,1.277874703361545463e-04,3.157913982868194580e-01
-3.379828195872920382e-01,-3.519549388279556990e-01,-6.272546192733774451e-02,4.134567827761944508e-03,1.980497457891198382e-03,-6.526741975493906972e-03,2.828402519226074219e-01
-2.631010879322234763e-01,-3.176537900711111639e-01,-6.931439196413063941e-03,1.498682887594247545e-02,-2.523013195948056731e-02,-1.374861622958507834e-02,2.927869558334350586e-01
-3.344825141840224170e-01,-3.305277956595747968e-01,-6.028165591337478202e-02,-4.752858163528272571e-05,8.703781614938881778e-03,-3.179795219333551772e-04,2.726626992225646973e-01
-3.165183392638875048e-01,-3.162186918055022167e-01,2.103289996406493279e-03,2.405775995472812985e-04,3.213231997837503475e-04,-3.645445737121815605e-04,3.184733092784881592e-01
-2.988036649498184150e-01,-2.984666026635648395e-01,-5.840769476779777980e-03,-1.452971932870246062e-03,2.090600836914033485e-03,-4.533215726602844893e-03,2.929329574108123779e-01
-3.247921296039761319e-01,-3.257439654630167603e-01,-7.055066925324468552e-02,4.013937312768429619e-03,4.185997691068451924e-03,-2.899226467905315595e-03,2.549661695957183838e-01
-3.298930125427337323e-01,-3.171172043712274791e-01,-3.951210672775670729e-02,4.205820337189906076e-03,2.904207222467516643e-04,-1.883445838644942638e-03,2.843209505081176758e-01
-3.275831902244353278e-01,-3.158742589386012156e-01,-2.026441830335309890e-02,-5.702898455518405412e-04,4.105444917246308181e-03,-1.448442469841248678e-03,3.017306625843048096e-01
-3.727172841483401555e-01,-3.836404821522709230e-01,-5.309742158884286911e-02,4.702451290737585769e-03,-6.585667217467335716e-03,5.713191322762624196e-03,3.256713449954986572e-01
-2.781305955987558587e-01,-2.761474458800484699e-01,-2.312493862656109234e-02,4.056556572194101684e-06,1.316287261934117160e-03,2.304924306006052770e-04,2.540304362773895264e-01
-2.692987123037319241e-01,-2.896206454224221627e-01,-7.163134090031969547e-03,1.276572936419745688e-02,-1.713786550797093827e-02,-1.767610291576189943e-02,2.770604491233825684e-01
-3.251901033402674335e-01,-3.247706437747792108e-01,-2.843833757598762668e-02,4.725290368653375234e-03,-1.957481590704952118e-02,-2.110878949559408593e-02,3.008164763450622559e-01
-3.238701643756472515e-01,-3.183091861062311567e-01,-2.343229772660396226e-02,4.326030044034842592e-02,-2.293976450539154596e-02,-3.161460254790370017e-02,3.143479228019714355e-01
-2.841718061839016984e-01,-2.902282184375439833e-01,-3.119642795993893269e-02,-2.312151905552406635e-03,-1.417446588046480807e-03,4.969875806504483540e-04,2.561018466949462891e-01
-3.260007569802774730e-01,-3.247068254984313285e-01,-1.673640732537989839e-02,-9.068433579229828690e-04,-8.020904977357926069e-03,-1.815527867474412207e-02,3.105322122573852539e-01
-2.748737042999669367e-01,-2.743849276529287118e-01,-2.442179064218844009e-02,-1.931745143369105336e-03,-1.418924754363927888e-03,4.238682333019803267e-03,2.503499984741210938e-01
-3.832755523339113068e-01,-2.685964327050859302e-01,-5.962456096597285038e-02,-1.278544841192967851e-01,8.551412682591109926e-03,-3.455235223802063244e-02,3.655496239662170410e-01
-2.785910071748595729e-01,-2.749171385875383011e-01,-3.954563658247670088e-02,-1.738827641425670254e-03,-1.837061180948724179e-03,8.379438496529694245e-06,2.372702211141586304e-01
-3.193800624761359286e-01,-3.177990025482094749e-01,7.509547396168936295e-04,2.290314887529332471e-03,-1.295662540452070842e-03,1.243292028094094984e-03,3.193832039833068848e-01
-3.130940365754244503e-01,-3.255922741897333550e-01,-2.325975614554171012e-02,9.748815800693804746e-04,-5.972115310157865599e-03,-1.134774938432662507e-02,2.971173226833343506e-01
-2.779503229445447476e-01,-2.771572115878397913e-01,-2.678800875217310362e-02,-2.929427841850891666e-09,4.579323297508741545e-04,2.266579354901350994e-04,2.507682740688323975e-01
-1.995302372444692218e-01,-2.763867583780073023e-01,-7.387790812238781424e-03,3.044073134569555764e-02,-2.555990243467936088e-02,-1.545652255594033228e-02,2.510967850685119629e-01
-3.121747363398938990e-01,-3.121624526819470891e-01,6.890782575732223858e-04,-1.912218605091974105e-05,-1.090866419035882830e-03,8.234116076851317285e-04,3.128666281700134277e-01
-2.814443741222458772e-01,-3.136665219362970713e-01,-1.114509294106580395e-02,9.730542484729733793e-03,-1.735333867851797732e-02,-8.229395557255415883e-03,2.901727557182312012e-01
-3.136413647021014661e-01,-3.153408143485930681e-01,1.389658539037191831e-03,1.143388060274342765e-03,-7.719174909602055440e-04,7.621701267795649845e-04,3.158959746360778809e-01
-3.306287472818359996e-01,-3.211258845839404796e-01,-1.425961953563320561e-02,2.711973921438973201e-03,-2.146295871578617325e-03,1.587591974732706183e-03,3.117960393428802490e-01
-2.972067123122811849e-01,-3.003616917066695979e-01,-2.060811891379732419e-02,1.042405852263805473e-03,-6.109950108645934540e-03,-7.203426754468271465e-03,2.786760032176971436e-01
-3.016063939156096718e-01,-2.953179775895493631e-01,-4.813972983999936783e-04,1.355648312950318100e-03,-6.507955137744702960e-03,-6.394720174716512530e-03,2.984584867954254150e-01
-2.718541961875954316e-01,-2.706574690916185855e-01,-3.556329638669200599e-02,-1.050473589533495924e-03,-7.772422766390575644e-05,1.708372908981692590e-04,2.357020676136016846e-01
-2.906985553422687385e-01,-2.836224334322124951e-01,-2.880300621022635621e-02,2.976425971823324062e-03,5.128016372217332908e-04,1.186245288459939580e-03,2.584912776947021484e-01
-3.130214213051857319e-01,-3.151848870142124892e-01,-1.542743018261868992e-02,-6.104069699817240343e-04,-7.584776269838427315e-03,-8.590088854719147085e-03,2.993422448635101318e-01
-2.886694176798116351e-01,-2.852259257671740378e-01,-1.952262281021824308e-02,8.236425120368647034e-04,4.278848646245206680e-03,2.085231261780904136e-03,2.675725221633911133e-01
-3.127935569384089898e-01,-3.134761318667558250e-01,3.523013344389480661e-04,-1.403238019146306513e-04,-2.527697805708048213e-03,7.876265730137970399e-04,3.135213255882263184e-01
-2.998865002616109554e-01,-3.017903181419372416e-01,-9.704548080739255900e-03,2.936324831602886952e-03,-3.553591595628692243e-03,-4.648196438597725251e-03,2.913592457771301270e-01
-2.917079834417664608e-01,-3.035836153599628662e-01,-3.330492114026806227e-03,1.621156549290185545e-02,-2.213852016650280988e-02,-1.173883238637405020e-02,2.989974319934844971e-01
-2.854071314084123956e-01,-2.535728708095413841e-01,-4.984560970610230068e-03,1.705435029458690979e-02,-1.113829764061470377e-02,-1.256167632040846097e-02,2.691492438316345215e-01
-3.139225036249033152e-01,-3.025493617864722373e-01,-6.969014891339941897e-03,-6.909830829442013605e-04,-5.123890816238157661e-03,4.161776033297342157e-03,3.016470074653625488e-01
-3.309879789510559167e-01,-3.229346327083679746e-01,-1.402820979000529711e-02,-5.007246238952756806e-03,-4.916283446273914982e-03,-5.059507271118221169e-03,3.133692443370819092e-01
-3.139131492585499617e-01,-3.152192667889559541e-01,-4.964932447908410040e-03,-1.638124657173639751e-04,4.148793616322954056e-03,7.153893187232979482e-04,3.096893429756164551e-01
-2.987955146853022992e-01,-2.930125774401510785e-01,-8.523738023367255501e-03,4.832305132143707715e-03,-1.009221716392335808e-02,-1.613609032418317560e-02,2.894291877746582031e-01
-3.060550898305940404e-01,-3.008900282999483755e-01,-4.024134751367397511e-03,5.089713846509238623e-03,-1.060265684042814051e-02,-6.251697655442154181e-03,3.003690838813781738e-01
-3.225266584381284440e-01,-3.102298797143959175e-01,-8.945581455341189425e-03,-1.005656003732300014e-03,-5.525162835769499743e-03,-9.125436764870441947e-03,3.081764280796051025e-01
-3.158234414768834597e-01,-3.243378621176849497e-01,-2.794655013594632420e-03,7.202937858949969713e-04,-9.916126440957637091e-04,-2.166259586649954441e-04,3.173789978027343750e-01
-3.096416571982151811e-01,-2.786119363855415476e-01,-1.602422678413903401e-02,2.785592974303929782e-04,-5.650554913912682851e-03,-1.227443258728716687e-02,2.803768515586853027e-01
-3.229263123051922535e-01,-2.881691024291353487e-01,-5.716414109252027087e-03,2.726455376148623124e-03,-1.093940648795299793e-02,-4.706213433846228450e-02,3.127789795398712158e-01
-2.874831903590617799e-01,-2.847038852806426101e-01,-7.414589807140686828e-03,-4.836770898134947058e-04,-1.872799044519489952e-03,5.001478188230345547e-03,2.788440883159637451e-01
-3.044840589606796488e-01,-3.094051753308640906e-01,-1.889615654806928169e-02,-1.726588227204944187e-04,-2.023687781359125113e-03,4.319666467711790088e-03,2.881985902786254883e-01
-3.773746085031874919e-01,-3.520489441000939079e-01,-4.962340103098744626e-02,7.668072531806298386e-03,-2.742006535109600684e-03,-1.514779870755216494e-02,3.172523379325866699e-01
-3.210963518402291106e-01,-3.314495090176527992e-01,-4.987641754884605816e-02,-8.491314319542742767e-03,1.756047893956280258e-03,8.376542138319072184e-03,2.773292064666748047e-01
-3.295635001043851209e-01,-3.232623410169915834e-01,-6.888203189130789883e-02,3.916944592566944084e-04,2.735696138594914326e-04,-4.267260909232724309e-04,2.575910985469818115e-01
-3.283962301841749643e-01,-3.335684314025167962e-01,-5.277543815754823231e-02,-5.575236394208545054e-03,3.493992830834057386e-03,5.741455439157448597e-03,2.786537408828735352e-01
-2.930690854604340867e-01,-3.208733883532005060e-01,-4.789346496726520908e-03,-5.455629514748050642e-03,-1.854466745371508365e-02,5.477022326237004218e-03,3.051306307315826416e-01
-2.847100313705414609e-01,-2.703614862623455739e-01,-4.184948295611129465e-02,-3.460956425789418756e-03,-4.075040409911045471e-03,1.932956054730927903e-04,2.361954599618911743e-01
-2.978257910223769955e-01,-2.673719712062984089e-01,-9.557450662787042583e-03,-4.287370878365401664e-03,-1.276367162977273123e-02,9.857501763400753486e-03,2.758307158946990967e-01
-3.543530416347955292e-01,-3.239283795856540138e-01,-2.195849088130899518e-02,1.134017251136780306e-02,-1.338056568608384650e-02,-4.610487424553077335e-02,3.295431733131408691e-01
-3.442052783410659011e-01,-2.583971019531927649e-01,-3.450869074851739549e-02,5.856087359245967100e-02,-1.715397847728277955e-02,-4.341135147734100086e-02,3.058186769485473633e-01
-3.200755558312506355e-01,-3.311567157107618842e-01,-7.124848607935468925e-03,2.858276875832665813e-04,-1.251774628046174297e-03,-3.196131751661558358e-04,3.186440765857696533e-01
-2.977687533299018252e-01,-2.257340478124145733e-01,-3.799191911785304576e-02,-6.617613023223285762e-03,3.323163212697795646e-03,-1.350306591955251104e-04,2.326469868421554565e-01
-3.159495698302128286e-01,-3.248473170943156907e-01,-4.341659425966926111e-03,6.266191204179523281e-04,-1.253848611434509692e-03,3.016227023637193223e-05,3.161600232124328613e-01
-9.583285166367039309e-02,-2.531382028514068683e-01,2.217094640898270574e-02,-7.324515233057705965e-02,9.848135368726454800e-03,7.494732545641449167e-03,2.716367542743682861e-01
-3.239624611182836955e-01,-3.358181087879315574e-01,-4.074955939033797492e-02,-1.656807207389100409e-03,-3.708418932071746283e-04,-8.603251211834587759e-04,2.893417477607727051e-01
-3.229704921091939296e-01,-3.336931613760662496e-01,-2.875664820820919565e-02,-5.659594152771767021e-03,6.004159270097114177e-03,5.179964257141009450e-03,3.001936972141265869e-01
-3.234862178464249505e-01,-3.285645780914243086e-01,-2.352130669720370326e-02,-6.082260711254069453e-03,-1.549321036646840715e-03,-3.558764850675564563e-03,3.027940690517425537e-01
-3.247316499466164075e-01,-3.253464581170550374e-01,-3.706835341904601844e-02,-3.616211161274921187e-03,1.459086269506493358e-03,1.948873388166520249e-03,2.880701720714569092e-01
-3.120983053401559792e-01,-3.134516409375305290e-01,-4.462598886080304528e-03,6.130486596770635607e-04,-5.941759113068595735e-03,9.180043227085642318e-04,3.084922432899475098e-01
-3.932387787705868276e-01,-3.779364609631293837e-01,-5.217729627105718859e-02,5.247445955601726976e-03,-9.196860025247867443e-03,-9.927204872309291009e-03,3.346192836761474609e-01
-2.891208551790068193e-01,-1.328934339992295655e-01,3.403012253908266338e-03,-2.591425923015875862e-02,-4.163061684179640912e-03,5.519128435014567652e-02,2.747395932674407959e-01
-3.296003277249024421e-01,-3.253086364694218191e-01,-6.566394402672470765e-02,4.322582304359083236e-03,1.451393115216406118e-03,2.438580042644654714e-04,2.619363367557525635e-01
-4.306645881567955358e-01,-4.591480349696204222e-01,-1.499028654308348640e-01,3.396968910376388633e-03,2.297691591855756388e-03,-2.009034954341688828e-02,2.981557250022888184e-01
-3.589272908049357946e-01,-3.544586641262399418e-01,-6.516391070924609785e-02,-2.179655744312535611e-03,-2.720403783578416793e-02,-2.236211427182184866e-02,2.978905737400054932e-01
-2.946786253155637136e-01,-2.890510276564893788e-01,-2.098277926687405759e-02,-2.205782846094364157e-03,-6.552922871171651398e-03,3.475177876738088679e-03,2.712572216987609863e-01
-2.922132812122364975e-01,-2.848496436263690534e-01,-1.837240161868311517e-02,-1.141154059919424583e-03,-8.361638046906309796e-03,1.975141761558900279e-03,2.706509828567504883e-01
-3.104412487331528192e-01,-2.985503649893625489e-01,-1.733998879652146052e-02,5.249931204249208691e-04,7.006778584506299229e-03,1.347672462086249101e-03,2.876074910163879395e-01
-3.120946052211855948e-01,-3.111550413308559193e-01,-2.721871226667338384e-03,6.635101718460486436e-04,-3.062736434546338947e-03,3.522031459834942813e-03,3.090119361877441406e-01
-3.149301302385387746e-01,-3.036623312788318541e-01,-8.765579664402778359e-03,-1.297593127052062327e-03,-3.724129800412388780e-03,4.674651533401310254e-03,3.008755743503570557e-01
-2.778429974822514970e-01,-2.850724095873060637e-01,-2.760662706108049647e-02,-3.721332652549497449e-03,-7.426920576154305304e-04,7.204207560323520887e-03,2.543196082115173340e-01
-6.017593250479189582e-01,-5.032898931303555479e-01,-1.554552966180322016e-01,2.443975160724234583e-02,-1.818255695046235368e-02,-2.835442065611797763e-02,4.124704301357269287e-01
-2.879893283919673364e-01,-2.300001346486826026e-01,4.504210810025111034e-03,-7.975708883787780562e-03,-1.273481122063172509e-02,3.264954966182001539e-02,2.753708362579345703e-01
-2.846637957087941317e-01,-2.889966714167432338e-01,-2.740465271177766615e-02,2.775313394783392347e-03,1.933480688011816363e-03,5.743349011812763465e-03,2.597094476222991943e-01
-3.196665956071566561e-01,-3.288412410073459080e-01,-6.412437084286848332e-03,-5.226057325663968547e-04,-3.446010100994171686e-04,4.689496740344703811e-05,3.179426491260528564e-01
-3.122732817847778675e-01,-3.228990447770430094e-01,-7.972130151805201237e-03,3.770422276049695959e-03,1.740984119436094044e-04,3.953333822059331803e-04,3.098205029964447021e-01
-3.151109367830612906e-01,-3.281451824542344631e-01,-5.030728117392496701e-03,4.323975244109029407e-04,-2.896805341501814069e-05,-3.197402376111834941e-04,3.167998790740966797e-01
-3.049677363962488563e-01,-2.928834185625091568e-01,-1.365903507933519112e-02,-1.027187965045021478e-03,-7.896932978402635556e-03,6.958494887699017339e-04,2.857940196990966797e-01
-3.208673670696752245e-01,-3.338251733217736383e-01,-3.545554474897219532e-02,2.894237975899494053e-03,-1.840748454997550177e-03,-6.228167912642439651e-03,2.923658490180969238e-01
-3.211156227295632326e-01,-3.215228276739202640e-01,-2.345310520558352430e-02,1.226156926509461113e-03,-6.992533966166556043e-03,5.059929659974099145e-03,2.982488274574279785e-01
-3.989016882915756290e-01,-3.750911604403351363e-01,-5.783061800713121259e-02,-2.350475444507805697e-02,-2.254983784411197442e-02,1.885015743928199899e-02,3.361907601356506348e-01
-3.203634094670838595e-01,-3.282099397514645078e-01,-5.552275197724276801e-03,-8.691410393264630170e-04,3.606432244434952116e-04,-2.613085681834270376e-04,3.188113272190093994e-01
-3.383650342561845270e-01,-3.233574094789529174e-01,-6.321205518005112989e-02,-1.079595433682156019e-02,-1.619950970885843458e-02,6.599519871954623827e-03,2.703194320201873779e-01
-3.135061939017741439e-01,-3.238714474400073984e-01,-2.764327714534808855e-02,4.076205773097090965e-03,1.484301522248130962e-03,-1.263040772205393809e-03,2.912890911102294922e-01
-3.204877340706736577e-01,-3.233124604338126762e-01,-4.834269473878052836e-02,5.145309237711488334e-03,2.032302029659224015e-03,1.687218453491745552e-03,2.737517058849334717e-01
-3.165028899303763965e-01,-3.208276817247222579e-01,-9.356364710615960867e-04,-7.438026832520455494e-04,1.468138492625319135e-03,6.579322294036638865e-04,3.177665472030639648e-01
-2.870259468481506926e-01,-2.988204208378957838e-01,-1.806159456268219277e-02,-2.691999041059957645e-02,4.838540811967868144e-02,-1.592850031169758956e-02,2.925950884819030762e-01
-2.847628846264773639e-01,-2.932321387083331454e-01,-1.836298581332079793e-02,-9.340289836439434959e-03,1.057047771631929034e-02,-9.348813399666216009e-03,2.723159492015838623e-01
-3.250244515720585592e-01,-2.986781023399128765e-01,-1.657493704260082357e-02,-1.416477141493320720e-03,2.449859733142027100e-03,-1.927753823802195391e-05,2.961971163749694824e-01
-2.937289809325620005e-01,-2.651674445364814448e-01,-2.450835557689973188e-02,-2.395221265451180030e-03,-8.156147644677648814e-03,1.432322043185758117e-03,2.565717995166778564e-01
-2.621780058278943004e-01,-2.845194489668994020e-01,-3.176018237136671307e-02,-1.542107814691383132e-02,5.868273741288580238e-03,-6.561801577599970375e-03,2.443057298660278320e-01
-2.813852653440110374e-01,-2.547458709543968247e-01,-2.587419166961621442e-02,-1.792440167526504480e-02,9.064096133432671815e-03,-9.228960093812531990e-03,2.462818622589111328e-01
-2.873691916611414432e-01,-2.806356979751856162e-01,-2.851134940496230508e-02,-1.310243629154053159e-02,1.323446796320622634e-02,-1.094372666829070313e-02,2.582817673683166504e-01
-1.829978083275731193e-01,-2.596751327081529004e-01,-1.241560812965858407e-02,-5.634852340130146187e-02,2.349614376006963976e-02,-1.994292113371905900e-02,2.458298653364181519e-01
-2.754211939136590459e-01,-2.973242313470818576e-01,-5.250414184923662964e-02,-3.528636509962307377e-02,-3.858919968218943539e-03,8.677456306715683075e-04,2.425626367330551147e-01
-2.811537722514242943e-01,-2.995144820522023799e-01,-1.299325061017445049e-02,-3.246499200331054609e-04,-2.700911384012478350e-03,8.012843503835298531e-03,2.781827151775360107e-01
-3.157130937268435855e-01,-3.166903642986968470e-01,-1.590790354489834968e-02,1.021896251554247920e-03,-7.968553252384798571e-03,5.795397577960729497e-03,3.007847666740417480e-01
-3.136745346979259996e-01,-3.279085025964551536e-01,-3.589409243085567303e-03,-1.623288530711414993e-04,9.796499347217513601e-04,6.325185284682980844e-04,3.174480795860290527e-01
-2.760422007436013070e-01,-2.877006866294799514e-01,-1.089790757006525723e-02,-1.225708042359045964e-02,-1.150165338721426470e-02,1.246394211219629088e-02,2.735730707645416260e-01
-2.451463369422727800e-01,-2.865113039978767207e-01,-2.021297872175123467e-02,-9.288488837665472703e-03,-8.043396061621806148e-03,1.252192398523347371e-02,2.500675022602081299e-01
-3.194673161558395091e-01,-3.174672509582989743e-01,-4.157877387974240335e-03,1.436110672581826595e-03,-4.053487252644258527e-03,3.575659776354686396e-03,3.144634068012237549e-01
-3.120161556004168446e-01,-3.122438027193317756e-01,-1.923882356070771849e-04,-6.174519372494096823e-04,-2.017223361814112371e-03,2.144025742656280580e-03,3.119811415672302246e-01
-2.854300412971760847e-01,-2.882936018803489708e-01,-9.088790920368017279e-03,1.432068634895338009e-03,-4.301193387461738722e-04,1.701559970286299931e-03,2.778117954730987549e-01
-3.179566912698784664e-01,-3.291463434827178736e-01,-5.084873066612122239e-03,-1.793211763788089049e-03,1.127660381877796693e-03,1.572010377469671067e-04,3.186352849006652832e-01
-2.815917641440113250e-01,-2.321320400375349036e-01,2.453896025166324435e-03,-4.889980112024694403e-02,-1.996459444185959275e-02,2.357906952452722485e-02,2.812767922878265381e-01
-3.170861859486102663e-01,-3.237309740889252607e-01,-5.181506101728239333e-04,-1.311954545702438040e-03,2.013807995334110541e-03,3.181903895283370366e-04,3.199697434902191162e-01
-2.910548144762991063e-01,-2.944612112885724997e-01,-4.105303337139543096e-03,-9.257444149145654250e-03,-1.007709159608737200e-02,1.298483702723909894e-02,2.905110120773315430e-01
-2.645017640235601819e-01,-2.983023460756143441e-01,3.383045796417488704e-03,-1.627903969452000957e-02,-3.348604227159397706e-02,1.296415647313554562e-02,2.943171560764312744e-01
-3.192199162914148847e-01,-3.196502546927723065e-01,-9.824136671169131363e-03,-2.292161276689466936e-03,3.704004403763913253e-03,2.449629362798811435e-03,3.097321391105651855e-01
-3.246568778444853809e-01,-3.342487841516609826e-01,-2.463877597881392045e-02,2.829501255150499144e-03,3.392418616327478979e-03,-2.229732780594970067e-03,3.050476610660552979e-01
-3.248092224657012084e-01,-3.286116979724329479e-01,-5.277224713336514661e-02,-3.341319159126799557e-03,-1.472593059726395696e-02,-4.826993649282713440e-03,2.753306031227111816e-01
-3.415024633702729573e-01,-3.280822820727780087e-01,-3.957927562196869586e-02,-2.894062358898558205e-03,-1.799354319170364674e-02,1.659868112905476395e-02,2.985110282897949219e-01
-3.258205352513779962e-01,-3.277689793777481264e-01,-2.509235063751294459e-02,3.436345483169234594e-03,-1.805261234545489104e-04,-2.399378212064702358e-03,3.017946183681488037e-01
-3.165327000957917081e-01,-3.143067952955843070e-01,-9.153874396183175888e-03,-6.217510274260671993e-04,-1.024700427381722810e-02,5.392647227658864395e-03,3.069297969341278076e-01
-3.428797374367150153e-01,-3.485440493121040317e-01,-4.106536358822776567e-02,1.320933905328203510e-03,9.075729215980396156e-03,-7.729527468457250347e-03,3.053934276103973389e-01
-3.158649074568408155e-01,-3.164431279442047051e-01,9.212912343043444530e-04,-9.203378091094772744e-05,9.326359000309206865e-04,6.472008957336397236e-04,3.170818388462066650e-01
-3.122432561910540860e-01,-3.143378394057282366e-01,2.160481919895429481e-03,-4.350007526486623097e-04,1.766768567105008077e-03,6.925935640946292169e-04,3.154742717742919922e-01
-2.965101952404433083e-01,-3.087681811593447900e-01,-4.459936341990294872e-03,-1.934892686673585953e-03,-7.165307335268139739e-03,7.701298969450228946e-03,2.989427149295806885e-01
-3.272807003934106174e-01,-3.232664369238581470e-01,-3.415295146001395832e-02,4.495529580197999732e-03,-2.562374774392959555e-03,1.895490038408187330e-03,2.912977933883666992e-01
-2.909128244473473401e-01,-2.698170665705442728e-01,-2.345052771015479487e-02,4.578382015886574806e-03,1.003446098941718559e-02,1.299628665589124118e-03,2.582804858684539795e-01
-3.134844521516930160e-01,-3.124629496517488114e-01,-5.143478397897888188e-03,8.097415574054318138e-04,4.117547803464872183e-05,9.861256022961519940e-04,3.078394234180450439e-01
-3.281739374242403917e-01,-3.414265230459314626e-01,-1.296046997769001452e-02,-4.424151194206481599e-04,-1.580854557988960185e-02,1.228652142020101277e-02,3.239070177078247070e-01
-3.018871832175317182e-01,-3.012911097151151352e-01,-2.101185065907026916e-02,-4.436096978226346764e-03,-1.002650816423752284e-02,9.009167038202108360e-03,2.816522717475891113e-01
-3.070580293769828439e-01,-3.102153358722334886e-01,-1.618749505207961459e-03,5.918278460167786161e-04,4.823924551321755877e-03,8.932395900747712621e-04,3.071493804454803467e-01
-2.976675850980917692e-01,-3.280332219180523978e-01,-2.462989988254432605e-02,-4.138489078534817942e-03,-1.455767398965778989e-02,7.214885103583861849e-03,2.908709943294525146e-01
-3.122360969122224272e-01,-3.127216513268658016e-01,-3.752242719126663850e-04,-2.360737313886269637e-05,1.370579629088753771e-03,9.298074543855417221e-04,3.121171295642852783e-01
-3.000489852819488434e-01,-2.564121062287723629e-01,-1.319139054745568918e-02,6.180764365616151987e-03,1.156560064615119905e-02,6.728809878642307875e-03,2.689342200756072998e-01
-3.151523919834093301e-01,-3.018704934549945595e-01,-2.409144038969135426e-02,4.673203739890161197e-03,1.023357130391136863e-02,9.048745497796042633e-03,2.857488095760345459e-01
-3.064307991252405716e-01,-2.952888688916446847e-01,-1.252797990562506958e-02,6.824481226432426708e-04,8.438109023877022816e-03,1.802789354020356604e-03,2.888825237751007080e-01
-3.039433326843021810e-01,-2.990853570663211669e-01,-1.610960506005476578e-02,1.446526545596325125e-03,-4.771139440321901098e-03,1.718746516331729922e-03,2.855818569660186768e-01
-3.097122863085632893e-01,-3.105965409044877945e-01,3.393950999056316586e-03,-1.673936489488044715e-03,2.122779362707066190e-03,1.868120261195535276e-03,3.136009573936462402e-01
-2.881460915537515932e-01,-2.718433423970958995e-01,-2.425025519433302024e-02,4.364303828007786400e-03,6.843098143501254865e-03,1.142873561710070363e-03,2.565270066261291504e-01
-2.845828275676957064e-01,-2.862917757085412518e-01,-1.757716003227832724e-02,2.085381526348809023e-03,5.960631905474322347e-03,6.462554748647373823e-03,2.683210372924804688e-01
-2.825754036828042048e-01,-2.844776184243695827e-01,-2.553780766622615328e-02,1.697380920337324215e-03,1.546941751565087753e-03,3.347040972048892678e-03,2.580897510051727295e-01
-2.779567141623959792e-01,-2.764267516634459909e-01,-1.240604669187081455e-02,2.804836417683752390e-03,6.367243740124841483e-03,3.484716036210922831e-03,2.651318013668060303e-01
-3.146803416266666376e-01,-3.156232752843498024e-01,1.636394487520204111e-03,-4.541449565417302850e-04,1.955711834816941546e-04,9.532738598005169491e-04,3.167947232723236084e-01
-2.791001899673931641e-01,-2.915758172592680664e-01,-2.568308362172883053e-02,9.076419475811720386e-03,7.323844328659036111e-03,1.219900634664422903e-02,2.615184783935546875e-01
-3.025310796883109443e-01,-3.057712789824595934e-01,-2.500001977223664795e-04,1.511863302494069949e-03,-4.378345289549278690e-05,7.841111669790990467e-04,3.039284646511077881e-01
-2.856199480631577692e-01,-2.893551705605197921e-01,-2.777008210750722683e-02,7.803407303383747646e-04,1.443934680567435539e-03,3.236639990068863187e-03,2.598136663436889648e-01
-3.260344732271239776e-01,-3.151036346142131461e-01,-9.864826667407955441e-03,7.422090398877715474e-04,-1.034651294419364903e-03,1.005984741737911620e-04,3.108562827110290527e-01
-2.971611475491907628e-01,-3.003149650167560858e-01,2.029738861176466624e-04,-5.070703698290738139e-04,-2.517217869249856101e-03,3.771931254617838600e-03,2.990579605102539062e-01
-3.249946416316585873e-01,-3.125083539508318742e-01,-3.866410559370259126e-03,-1.094113031777509300e-03,4.581535618072319098e-04,2.060512055358355941e-03,3.150976002216339111e-01
-2.719067171481914236e-01,-5.048232451207983890e-02,2.371087503684717046e-02,4.844755525607390145e-03,-1.100008754534780378e-02,6.628752683986938177e-03,2.674449682235717773e-01
-3.290162378691793843e-01,-3.183049464908017101e-01,-1.079435934109199136e-02,-4.150179065441774546e-04,-5.461433870738596373e-04,1.869233862021339520e-05,3.130059838294982910e-01
-3.158479188745631494e-01,-3.254104181617417657e-01,-5.549013079183207076e-03,-2.764123800819652185e-04,-1.807113855615929184e-03,-2.204102615497464078e-03,3.152279853820800781e-01
-3.279562357116901916e-01,-3.168102524431162248e-01,-5.123112970345289341e-03,-4.365620062043598193e-04,6.566691392016051282e-04,1.083786755183935779e-03,3.174154162406921387e-01
-3.145154752828875910e-01,-3.203347380598900451e-01,-5.016955290205848961e-03,2.865476491290672363e-04,-2.744303437699396712e-03,2.012705606622406762e-04,3.124855458736419678e-01
-3.217169928731287709e-01,-3.155431366092911194e-01,-4.805736317321562812e-03,3.520516409861777448e-04,1.520421567961266441e-03,1.721471503648052325e-03,3.138956725597381592e-01
-3.134832376837797252e-01,-3.184886787583695034e-01,-5.389344347005886604e-03,-6.020457800154673097e-04,-6.101199588662836732e-05,-2.074857485582513102e-04,3.106288313865661621e-01
-2.266975260132513825e-01,-2.993483482910784255e-01,-3.382694093441229732e-02,-7.240987793769794630e-03,8.820421068429086346e-04,-3.688017286638524145e-03,2.380962967872619629e-01
-3.197872006489904106e-01,-3.127807813775034251e-01,-2.069768077096162395e-03,3.501008607254223041e-04,1.840969716363115988e-03,-1.183461183084073311e-03,3.142962455749511719e-01
-3.202919976698070936e-01,-3.146948760347068053e-01,-3.018504480523931388e-03,3.044093086543525704e-04,1.928402166302556429e-03,-1.717397144440839778e-03,3.145445287227630615e-01
-3.248124554590429702e-01,-3.144777572048051972e-01,-3.586713515855349810e-03,1.576173543205126003e-03,9.721222743642437408e-04,-9.370854013718616813e-04,3.162055313587188721e-01
-3.184949321082762852e-01,-3.137936519154200798e-01,-2.420398025688885735e-03,7.200213050571668610e-04,1.899884696949745216e-03,-1.914564633300968634e-03,3.137875795364379883e-01
-3.281161327913505454e-01,-3.196720849862953462e-01,-6.392640382425152090e-03,1.733944050321859160e-03,1.095884849313007170e-03,-1.959585805824606928e-03,3.176236748695373535e-01
-3.123955064741912313e-01,-3.122126093948334180e-01,-6.137387941428512628e-03,-3.326886928800680283e-04,5.483809770617397231e-03,6.942578293493863358e-03,3.065505027770996094e-01
-3.072946456693758099e-01,-2.998457788904239640e-01,-1.934963313892965053e-02,9.295697075074560401e-04,3.987629403846355142e-03,1.527872200158719457e-03,2.843945324420928955e-01
-2.901881332447349138e-01,-2.867790726704106952e-01,-1.182521855373611097e-02,-6.267425779178033588e-04,1.473964058759527542e-03,-2.069827035513484780e-04,2.766882777214050293e-01
-2.815728268616471963e-01,-2.905867689882906113e-01,-1.749354197391228549e-02,6.927002965714380671e-03,8.293146476130273601e-03,8.589654273728909717e-03,2.697612643241882324e-01
-2.716165780462775903e-01,-2.840623244287594495e-01,-1.286405884246694109e-02,3.950738024137799911e-03,4.616912399274756412e-03,8.719716618909774744e-03,2.658326625823974609e-01
-3.275212451574072148e-01,-3.276753657829459265e-01,-1.158705786271382876e-02,-1.638335973260744661e-03,-6.422682011310944022e-04,-2.014515906506073148e-04,3.160261809825897217e-01
-2.838985047876463885e-01,-2.933023930157534487e-01,-1.884919801686357754e-02,1.240104060925888586e-03,3.128617793586376504e-03,7.276856954295016222e-03,2.702311873435974121e-01
-3.255376622531757080e-01,-3.254300619896406954e-01,-9.311258966221674926e-03,-5.733259232405701119e-04,-2.837354171382033829e-03,-2.140539972341835146e-04,3.162125945091247559e-01
-3.078288337671848951e-01,-3.103630993185598763e-01,-7.464746346323297699e-03,-1.375227438924865337e-03,2.227502858584566418e-03,5.092759067975565802e-03,3.018022179603576660e-01
-3.009258936589348510e-01,-3.063483215938301862e-01,-4.515187490444994012e-03,1.015139823550680965e-03,2.999257409866325740e-03,5.055451082147673081e-03,2.993371486663818359e-01
-2.854131258461553022e-01,-2.929723669754433768e-01,-1.917510508969044736e-02,2.124628121194660144e-03,3.881569513325796011e-03,5.790539426079466777e-03,2.703917920589447021e-01
-3.120202990905430185e-01,-2.960317972422427113e-01,-1.428275827045555335e-02,1.523548020285663126e-03,7.378807767232029892e-03,8.780882863127039729e-04,2.903713285923004150e-01
-3.140654894375547457e-01,-2.360469554065048325e-01,-2.214145806064857225e-02,-2.362501778114591781e-03,-6.438827652371234556e-03,1.934619197732839052e-03,2.620751559734344482e-01
-3.150925536545652883e-01,-3.155661291425774229e-01,-5.376219381559160793e-03,-5.130385606124734932e-04,4.591994044524039253e-03,8.633285424697144514e-04,3.100602924823760986e-01
-3.115991754277769865e-01,-3.116242706631605075e-01,-4.410836832360098825e-03,-1.436624213065414981e-03,9.188290416614799515e-04,3.035828145461218989e-03,3.072600960731506348e-01
-3.028777738597215885e-01,-3.023825989211894050e-01,-7.339862329622193204e-03,5.630488402401388802e-04,2.956802370042451236e-03,1.090243207798101714e-03,2.953426837921142578e-01
-3.209434056358307363e-01,-3.191356743854836253e-01,-6.842069622390950512e-03,-9.405132273270443675e-04,2.623483228956955196e-03,9.072568001414643181e-04,3.132425248622894287e-01
-2.643542793288709558e-01,-2.773633698283231586e-01,-3.767198922584860665e-02,-4.601133033049650996e-03,-2.994475945029504435e-04,3.479747490946140560e-03,2.336731404066085815e-01
-3.154218926907376153e-01,-3.159932196304910401e-01,1.918567988131003599e-03,3.489484558250439093e-04,-4.239760147959864924e-04,1.106762056878047424e-04,3.176279962062835693e-01
-3.173797185380040076e-01,-3.188658948086737221e-01,-2.195655109350325151e-03,1.768135301528536403e-03,-2.735368331613261764e-03,1.882034648350883275e-03,3.159969449043273926e-01
-3.157818517806721959e-01,-3.188286710642406208e-01,-2.696535377249009713e-04,9.411656844434865797e-04,-7.891507260916760065e-04,1.485122680825591394e-04,3.170538246631622314e-01
-3.079033293113347947e-01,-3.126223818312053315e-01,-8.196098976471777320e-03,4.332577604360523323e-04,-2.681103331927750695e-03,2.712054223914526878e-03,3.021675348281860352e-01
-3.001544492063671354e-01,-2.988196359214864151e-01,-5.545201419382389529e-03,9.942076082470148110e-04,3.888156794106610147e-03,2.100700951942678380e-03,2.940488159656524658e-01
-3.262507731162813673e-01,-3.170145070326967351e-01,-5.007839946068848302e-03,-4.539565700046221041e-04,1.087181387083177656e-04,7.926180849778752474e-04,3.167298138141632080e-01
-3.196294840029836881e-01,-3.187231521061414385e-01,3.890343875177781907e-04,-2.713324614046248775e-03,7.685539007406781697e-04,1.177907446642244846e-03,3.196101486682891846e-01
-3.163098012163102490e-01,-3.165203621845674720e-01,1.828493622457488810e-03,1.014018174432425312e-03,-4.522312323577368795e-04,8.340228181076608446e-04,3.182527124881744385e-01
-3.045441052154342909e-01,-2.432729430276664995e-01,-2.461832158011142968e-02,5.806967348964727459e-03,-6.056279142869731152e-03,-6.844030982305058554e-04,2.552916407585144043e-01
-3.092023676514558672e-01,-2.224534114270800833e-01,-2.993527564368711480e-02,9.985631457538890476e-03,-4.967636779267881227e-03,-1.281522930696258472e-02,2.493094950914382935e-01
-2.952769368905194813e-01,-2.670105588235669458e-01,-1.157646574115878124e-02,3.246811586046039443e-03,-1.010609241682716881e-02,-1.040000513169032394e-02,2.718975245952606201e-01
-3.023129238981618894e-01,-2.683045757632794848e-01,-1.394634127942895319e-02,2.125844207425189869e-03,-1.015453169179579215e-02,-1.027731372024726086e-02,2.741254270076751709e-01
-2.977632042067643869e-01,-2.602742697668818384e-01,-3.348711855216782163e-02,1.813609450308715718e-02,-7.070133431980018743e-03,-1.039090999089545102e-02,2.506002187728881836e-01
-2.896299645250273724e-01,-2.478631704158616722e-01,-2.473129654893191365e-02,5.257993533737826373e-03,-8.330038147493213502e-03,-2.464209969943284735e-03,2.473077625036239624e-01
-2.746889513916948022e-01,-2.758050285987826977e-01,-3.488444288435391116e-02,7.151051584681994942e-03,-4.994974524998530875e-03,-2.275706349922375100e-03,2.408711016178131104e-01
-2.774385709071156558e-01,-2.762896378056929891e-01,-3.349646916118306783e-02,6.742658066495423649e-04,-2.883487519276110508e-03,-9.928609342588622533e-04,2.434297800064086914e-01
-3.032573219182284618e-01,-3.033945633848336154e-01,-8.248090912147676423e-03,-1.731230646746376842e-05,-1.331510015081358630e-03,2.907674815628421856e-03,2.951298654079437256e-01
-3.186148798234346158e-01,-3.151916066475969336e-01,1.814389387283510402e-04,-5.752285030404953288e-04,5.464618702705340610e-04,2.554737100152605026e-03,3.171323835849761963e-01
-2.739406921058337718e-01,-2.718048457248972150e-01,-3.917888076297609823e-02,1.058752141955484520e-03,-4.751986288946362776e-05,-2.813483763262599260e-04,2.337089180946350098e-01
-2.709317289398340822e-01,-2.652286380270773014e-01,-3.421281970751252621e-02,5.401827129830423860e-03,-2.438126118250367059e-03,-8.023360459022908222e-04,2.341487556695938110e-01
-2.998504373974036907e-01,-3.018514587085003309e-01,-6.657706976127331089e-03,5.401479887132960671e-04,-3.340096770003577690e-03,-1.377822902143978562e-03,2.942663729190826416e-01
-2.758406231627698046e-01,-2.620323288945016760e-01,-3.996027957748227166e-03,4.824867252716727797e-03,-6.789493167941865019e-03,-4.399062982753896948e-03,2.657115459442138672e-01
-3.037882647185250473e-01,-2.819731061492319890e-01,-6.191201851965838499e-03,-5.672089716861483319e-03,2.406949008176276304e-03,-8.643153167966956957e-04,2.875133454799652100e-01
-3.252367502994540915e-01,-3.377908495539492795e-01,-4.250831873760219093e-02,1.389103066095946680e-03,-4.544788565563284374e-04,2.592196524188942423e-03,2.892558276653289795e-01
-2.903561064451403162e-01,-2.833365385649178059e-01,-1.398152962147342082e-02,1.993440389226163421e-03,-6.157179060570136184e-03,-5.310472931215799892e-03,2.733174264430999756e-01
-3.025475601317747509e-01,-3.017167466198027448e-01,-5.654958309190910581e-03,1.855823315271394646e-03,-6.329367067669006489e-03,-5.022683532417420056e-03,2.968256175518035889e-01
-3.023560631493429351e-01,-3.067690817771528966e-01,-2.381332191771398654e-02,4.115612528767482320e-03,-6.777517479857855104e-03,-7.006622177957670845e-03,2.813727855682373047e-01
-3.102965156004636738e-01,-2.907717398418619981e-01,-1.316396466668409704e-02,-2.236010337181616042e-03,5.491479485644852089e-03,2.328279556788957869e-04,2.880506217479705811e-01
-2.938269640585727815e-01,-2.642493794880761415e-01,-2.116520100927307690e-02,-2.413838443207140874e-03,-7.685863077912793648e-03,1.475612447276793355e-03,2.595300078392028809e-01
-3.170763060130435407e-01,-3.235378482372112119e-01,-4.279350353396743634e-03,1.310553278381280809e-03,-1.095383713386313251e-03,-3.981970526874974137e-04,3.160918653011322021e-01
-3.179925868088602781e-01,-2.743935785407734529e-01,-3.097093906056433421e-02,-2.410200545787055237e-03,-8.241327440590646980e-03,4.004402517402988297e-03,2.683984637260437012e-01
-2.264645374477306516e-01,-1.809268377523559623e-01,-7.592790389790882166e-03,1.094180580108205653e-01,1.396781870206889944e-02,3.457066109864121578e-02,2.830180823802947998e-01
-2.396555396740328581e-01,-2.836306263247407866e-01,-1.923678364089187465e-02,-4.543224461269919183e-03,1.125181765582383621e-04,-8.747731004207682723e-03,2.459729611873626709e-01
-3.083727817326744614e-01,-2.971299389355731013e-01,-1.213528363043586689e-02,-1.596094286432162652e-03,8.180947141847708104e-03,-9.721190573989735078e-04,2.911421656608581543e-01
-2.411904080398377115e-01,-2.875969612471597769e-01,-1.395568409204914206e-02,-6.874744156211080870e-03,9.036927404831794530e-06,-3.373461399034640307e-03,2.539887726306915283e-01
-2.161921630451954235e-01,-2.885324992510043263e-01,-3.426874869662566159e-02,-3.190400820292846329e-02,7.627722037102943956e-04,-6.745519796092614524e-04,2.335516214370727539e-01
-3.198736446521622812e-01,-3.258023292614263822e-01,-6.496358980760064128e-03,1.222149339907280556e-03,-3.670636521123322570e-03,2.328002971971375804e-03,3.164799213409423828e-01
-2.293888059705223581e-01,-3.016073654299741280e-01,-3.990647613691172824e-02,-7.244831293373076887e-03,7.935635844715315619e-04,-4.935566880653513393e-03,2.345967739820480347e-01
-3.146242200166857739e-01,-3.229565765949129474e-01,-5.144787449620907838e-03,1.371935749994089527e-03,-1.054953089184871261e-03,-9.922944081759749093e-04,3.137476444244384766e-01
-3.151048927143337841e-01,-3.214787341950602340e-01,-7.390460702838830276e-04,1.767479000120595126e-03,-1.047567028595190785e-03,-2.479717636390714529e-04,3.176209628582000732e-01
-3.807765770308078612e-01,-2.811712415638349394e-01,-3.189605735656617092e-02,9.136660492192014149e-02,-1.642002518530180991e-02,-3.797623212624889194e-02,3.564652502536773682e-01
-3.689491771204196358e-01,-3.599336930743736174e-01,-1.086184300709321648e-01,-1.504833389012480123e-03,-1.343916222847841603e-02,-2.737674754040352997e-03,2.570554018020629883e-01
-2.233863593733326491e-01,-3.024936614056435991e-01,-2.258441834310262464e-02,4.242621673125431501e-03,9.198755434591733560e-03,5.976393447220109019e-03,2.507574260234832764e-01
-2.958840425145943809e-01,-3.073306590980848796e-01,-1.128517720710969785e-02,-9.304181471478019947e-04,4.995178646358933681e-04,-7.082459501024087820e-03,2.907560169696807861e-01
-2.916410529529048778e-01,-2.897098105849721383e-01,-9.718894422022006374e-03,2.914753352192944041e-03,8.163070438447862787e-03,2.187392902221834377e-03,2.813878357410430908e-01
-3.403272364793809013e-01,-3.391130972873347416e-01,-9.107047319499381177e-02,4.592131408831823594e-03,6.472247965952806874e-03,-7.873449703282695347e-03,2.494046539068222046e-01
-3.142797610283283305e-01,-3.117673387194362378e-01,-5.481325449984222886e-02,1.453288443370591822e-03,8.146055927648804262e-03,-2.996964678822500779e-03,2.586689889430999756e-01
-3.746627751487728863e-01,-2.893931717832194384e-01,-4.115312458986425392e-02,1.741454554953137182e-02,1.627011500481619771e-02,4.367302136775442351e-02,3.122295737266540527e-01
-3.335375240914507655e-01,-3.290488683026954742e-01,-4.038397152583994565e-02,5.663348674431796341e-03,-1.444628717829278541e-03,-2.554719183051473285e-03,2.911449074745178223e-01
-2.162178233817482198e-01,-2.202104363415993138e-01,-7.660425307547458207e-03,-5.271724349945199756e-02,-1.063576711805600677e-02,6.835848751697439808e-03,2.305681854486465454e-01
-2.658720998899761212e-01,-2.777134085379965867e-01,-4.791906510521470874e-03,-1.427619801333157926e-02,-8.616212448155739778e-03,1.263022924193858004e-02,2.696429789066314697e-01
-3.127583716098085165e-01,-3.135364031434619836e-01,-9.853714987298117789e-03,8.856040202362668859e-04,-4.716703206065740901e-03,2.134984726419665232e-03,3.034308552742004395e-01
-3.017189202559473760e-01,-3.016234746394728661e-01,-7.204162307670458620e-03,-1.678958166662694639e-03,-3.560627310312531549e-03,4.766550674839970837e-03,2.946616709232330322e-01
-2.987883729301656355e-01,-2.961296709029979657e-01,-1.387451475814524549e-02,1.004631697890208267e-03,-4.239074366057262420e-03,1.452962986015226199e-03,2.837053835391998291e-01
-2.997522995293100956e-01,-2.866018825092805367e-01,-2.107666995484630545e-02,-1.060758545991373611e-03,-7.721056468530524720e-03,2.172342969247879722e-03,2.726989388465881348e-01
-2.800677422723532040e-01,-2.765187953763860174e-01,-3.373605735502471781e-02,2.484677484858141550e-02,1.343345700969431934e-02,1.847469581209837050e-02,2.514658570289611816e-01
-2.851335495022922495e-01,-2.068125619379072855e-01,-1.970176592863195908e-02,2.865596054911364113e-02,1.408705826036034565e-02,3.294598349444665536e-02,2.492277473211288452e-01
-3.155157333682824250e-01,-3.053903822559765890e-01,-4.055830509728552968e-02,2.187953124663371066e-02,1.994022109211293983e-02,1.896930187389197706e-02,2.768186330795288086e-01
-2.934436408240063132e-01,-3.248544944266076873e-01,-1.432255396520926150e-02,-4.362171027275140237e-04,8.583128321980666882e-05,5.582650790505538398e-03,2.962376475334167480e-01
-2.871924845551930838e-01,-2.877963615338819947e-01,-1.046529537214130334e-02,8.027796708907941918e-04,4.287111229454105589e-03,1.500632077210389348e-03,2.771447896957397461e-01
-2.586300623792171516e-01,-2.303838281040487546e-01,-9.419735023970671195e-03,4.395410658688673339e-02,1.764519726419214174e-02,2.580810649061388365e-02,2.541505694389343262e-01
-2.678483748323500779e-01,-2.762503948837710666e-01,-2.053205047347847478e-02,5.487361960306769842e-02,8.654671352568537798e-03,1.814490509183606590e-02,2.712188661098480225e-01
-2.902563196935790124e-01,-2.418231191540703984e-01,-2.643194495866976745e-02,-6.361792213249766598e-03,7.055273522916730676e-03,-5.360944217047834866e-03,2.439839839935302734e-01
-2.891694098997775741e-01,-2.890523926531126664e-01,-2.118496785008050498e-02,8.096873349937468416e-04,3.805441598701963992e-03,3.210093734887959314e-03,2.680683434009552002e-01
-3.023616142661692541e-01,-2.554276773511129917e-01,-2.137650976638102995e-02,2.166879702078939804e-02,2.579739405673555155e-02,3.675394083286956382e-02,2.746368050575256348e-01
-3.294730529012792064e-01,-3.221651328853409879e-01,-3.230619269839715701e-02,-4.449665487237404286e-03,3.004309288971314363e-04,1.316964620642490638e-03,2.936915755271911621e-01
-2.945139369803440044e-01,-3.010026082211182952e-01,-1.306864138338353909e-02,-3.257556074345108188e-03,4.196214985343800670e-03,7.693870334931838563e-03,2.852052152156829834e-01
-2.904306611412633687e-01,-2.921790097942497666e-01,-2.287763404025805469e-02,-2.893150772319686001e-04,-3.650545443885099949e-03,3.558811836282642360e-03,2.685771286487579346e-01
-3.452697797223311937e-01,-2.712052310972674629e-01,-3.488172184136884013e-02,1.537246884747753978e-02,1.257946851442534597e-02,2.435831784136507222e-02,2.860091030597686768e-01
-3.240622062919366053e-01,-2.746043866733521299e-01,-3.606575621321023162e-02,-1.833434335608510272e-03,3.212520537386328971e-03,-1.211137978273534727e-02,2.676293253898620605e-01
-2.937604509536509423e-01,-2.660562456761777494e-01,-3.413555496920317456e-02,-1.069453880476260374e-02,6.172032224334570057e-03,-6.556931241242121115e-03,2.481255531311035156e-01
-2.852306861283714357e-01,-2.696220659300423428e-01,-3.756313681959103090e-02,2.074954527925651059e-03,3.773614076824423347e-03,-4.049926636615263568e-04,2.403606176376342773e-01
-2.778686611597562806e-01,-2.746911008696940604e-01,-2.519972425393321447e-02,-3.577407627416624627e-03,-4.509874216223190048e-03,1.682370061916816598e-03,2.513100206851959229e-01
-2.096699231121571250e-01,-2.205872410061547884e-01,1.364589914528785419e-02,-4.132631088327541613e-02,-9.299703940805105137e-03,1.912553580359335412e-02,2.427087873220443726e-01
-3.107557173285240837e-01,-2.286075302178331992e-01,-3.547676299975113801e-02,-4.440593273588647021e-03,9.321893010748772898e-03,-1.147222658099232746e-02,2.462272197008132935e-01
-3.054234310869201607e-01,-3.070057378232725620e-01,-1.136982604175285072e-02,-2.404197720972645308e-04,-3.473112636116165806e-03,5.847485906404520373e-03,2.950834631919860840e-01
-3.186837363422931890e-01,-3.203852566177531891e-01,-7.619247516386817853e-03,4.278033374111990181e-03,-4.639015463123321616e-03,3.213662393079491642e-03,3.121598064899444580e-01
-2.770468350561778870e-01,-2.652467260191033183e-01,-3.634478010783212532e-02,-3.080192060683268566e-03,-1.932768728683862888e-03,3.823524131700325578e-04,2.351095974445343018e-01
-2.661545821878464890e-01,-2.626692052684541090e-01,-2.710104390132989094e-02,-5.469381772818811271e-03,-3.831957388304599397e-03,1.505716380149113185e-03,2.376260608434677124e-01
-2.895693102559202536e-01,-2.101748839889100717e-01,2.903196843281441453e-03,-7.032602966803185897e-03,5.641287452592945798e-03,-3.724407885278678554e-02,2.702372372150421143e-01
-3.218825531793652606e-01,-3.218741929785204903e-01,-1.831490458677043076e-02,-1.449113146373206228e-03,-4.635427804495845933e-03,-3.805423872065489752e-03,3.037515282630920410e-01
-3.167179401937127992e-01,-2.605956924776380856e-01,-7.899264641396119835e-03,-2.041598582602831367e-03,-2.155049453999325140e-03,-1.773285484674539877e-02,2.866302132606506348e-01
-2.948433782382526291e-01,-2.211124538738049039e-01,-3.545027098720943126e-02,-6.644584519693531519e-03,-2.902874649012512735e-03,2.156230407095291370e-04,2.318482547998428345e-01
-2.935209322314473179e-01,-2.151915407840876426e-01,-6.534887916332943192e-04,-5.479714308892374465e-03,6.879446762303603920e-03,-3.854836992988761035e-02,2.713976800441741943e-01
-2.832246084600327229e-01,-2.666384009132212185e-01,-3.795338387729405016e-02,-4.174725062512755179e-03,2.923855046290343030e-03,-4.176405923204511974e-04,2.375782281160354614e-01
-3.344581363269936158e-01,-2.628119884265999739e-01,-2.367892102109556141e-02,-2.154641308049084700e-02,4.726710829436128573e-03,-3.770309348956810136e-02,2.918477356433868408e-01
-3.979944962313012313e-01,-2.038765675050646653e-01,-2.290261315960220867e-02,6.054358256860763177e-02,-9.984639781716618534e-03,-5.028114552460950792e-02,3.527660369873046875e-01
-3.113091531839562442e-01,-3.131474935758615241e-01,-4.430082138510038625e-03,5.188387963622703800e-04,5.918353341087079049e-04,-2.847851174370899865e-03,3.078449070453643799e-01
-3.217734039209282915e-01,-3.164656420559409100e-01,-2.220140826134642253e-03,7.558489247003390230e-04,1.003620508162846610e-05,-1.301633428216590832e-03,3.169434368610382080e-01
-3.087727546804685530e-01,-3.027218023227706278e-01,-3.644499750955432216e-03,-1.528345972212289804e-03,-3.351923266320765930e-03,1.290830684091729850e-03,3.022238612174987793e-01
-2.883817682744401201e-01,-1.705591414876340139e-01,-2.332963561607043212e-02,-3.493090764580164542e-02,1.017685960176863830e-02,-1.179116397214430637e-02,2.393615841865539551e-01
-3.031141657609984774e-01,-2.623658399811513720e-01,-2.497625306985878924e-02,1.644119795739344518e-03,8.316338666307725516e-03,2.545426195199436414e-03,2.606194615364074707e-01
-3.180284179206124828e-01,-3.175089085669858258e-01,-2.474764111624616625e-03,-1.470246527227096972e-03,-1.649444598090024682e-03,-2.401071407255925445e-03,3.153448700904846191e-01
-3.247910867225932141e-01,-2.495130912480020835e-01,-2.830069599178944295e-02,-7.356566522192648210e-04,-2.964860550796211310e-03,5.199536361943206137e-04,2.669886350631713867e-01
-3.131300934632219035e-01,-3.124374113389667973e-01,6.476252933754200747e-05,-5.057463261542657646e-05,-3.415736976330200009e-04,-2.506300926460318119e-03,3.128797709941864014e-01
-2.763337500768635602e-01,-2.947391615582504731e-01,-1.053548082610861192e-02,2.392764907233613236e-03,-4.447302612195078685e-03,-1.011687233173875350e-02,2.761578857898712158e-01
-3.088204931254445729e-01,-3.070478256879611290e-01,-1.853734978284343748e-02,-7.758477075657575859e-05,-4.137040788840410342e-03,1.589777777141982177e-03,2.895027101039886475e-01
-3.161483968831770297e-01,-3.155635814778438020e-01,1.803125879788231023e-03,-4.407739747853748041e-04,-1.495786374359514722e-04,-2.814648883295202278e-04,3.176609277725219727e-01
-3.289983016615577460e-01,-3.226357143314707021e-01,-1.917747045818676832e-02,2.078472685249849530e-03,-9.219718652887296320e-03,1.254780360118238833e-02,3.078936040401458740e-01
-3.087795903358251381e-01,-2.839625336170753522e-01,-6.043895770423413083e-03,-4.171008954852086642e-03,-8.929249467089906897e-03,1.077901732268993044e-02,2.922186255455017090e-01
-2.913053580332892745e-01,-2.477732900514613146e-01,-3.756042312016802387e-02,-6.759743938969399110e-03,-2.434981924868015631e-03,5.669268607004264438e-04,2.353536188602447510e-01
-3.719615490392909063e-01,-3.302909024321655229e-01,-4.222891794023178602e-02,8.152264724843885863e-04,-1.248758124863776249e-02,2.397900598137580816e-02,3.145070374011993408e-01
-3.137662288730559967e-01,-2.675462656432790465e-01,-2.600687722354272369e-02,4.434759607359029204e-04,6.411650413514152248e-03,3.131366739816360961e-03,2.679455876350402832e-01
-3.297122552783291471e-01,-3.010656162519297907e-01,-1.851497744640498433e-02,-2.989051847044334686e-04,1.634473018193508334e-03,-1.052578503938928216e-04,2.979227006435394287e-01
-3.042645058734319008e-01,-1.874520423602293318e-01,-3.425831925478034501e-02,-1.677896884998441619e-03,1.819539912895657514e-03,-9.964049532885880384e-04,2.345842272043228149e-01
-2.868910182166166667e-01,-2.470322796031251267e-01,-3.925378386959799126e-02,-5.067321499823349007e-03,3.226322248562645510e-03,-2.535947517656576443e-04,2.305447161197662354e-01
-3.983200046532515692e-01,-3.355571149434389833e-01,-3.329373572895402700e-02,-1.365163071529366598e-02,-4.235055690293623200e-03,3.327597181690683525e-02,3.438139557838439941e-01
-2.511917898679681405e-01,-2.564452469888970909e-01,-1.527290164558980923e-02,8.818404073246366437e-02,4.047677894534210813e-02,2.271231483125724787e-02,2.944768965244293213e-01
-3.191802700199683485e-01,-3.006132874681159972e-01,-9.082086428868846317e-03,-1.413235201260187217e-03,-5.658970525412396896e-03,6.554416894258325785e-03,3.016272187232971191e-01
-3.034347996434305084e-01,-2.775018271532011527e-01,-3.022449597170057123e-02,3.581859057703103751e-03,6.920208938580064105e-03,1.137337217191846522e-03,2.615669667720794678e-01
-3.159285502405189128e-01,-3.187647553625602703e-01,5.752517349091323950e-04,-1.219448456081473516e-03,-8.775968493502822902e-04,-7.103932492250403718e-04,3.179444372653961182e-01
-3.143431154210312162e-01,-3.141164294425902170e-01,2.640046756254538218e-03,-1.291087405153127851e-03,-7.570129359769976708e-04,-1.148255153877094379e-03,3.168867230415344238e-01
-3.162063706427913901e-01,-3.195479889386378947e-01,3.680666539258303782e-04,-8.582227821225260969e-04,-1.159252068325438778e-03,-6.183881647912658000e-04,3.182699978351593018e-01
-2.457317100359249218e-01,-3.570074734094790259e-01,-2.514266465101525072e-02,-1.946991316831019406e-02,4.416281128767914066e-02,-5.470034950568957235e-03,3.044110536575317383e-01
-3.027520549052093446e-01,-3.261416248515607297e-01,-4.785838038712453280e-02,-1.358966152841944129e-02,2.440558922385402743e-02,-9.362526047926218037e-03,2.721830606460571289e-01
-2.054122201253801017e-01,-2.835750530670687053e-01,-1.403603406797254705e-02,-1.744606310749234265e-02,1.466465876601139896e-02,-7.917788471109353174e-03,2.438013553619384766e-01
-1.644770826546599896e-01,-3.113296155776301699e-01,-3.304385601937268047e-02,-1.478531512288448584e-02,3.290178740659931763e-03,-9.107397146591937305e-04,2.425539940595626831e-01
-1.821453415499726669e-01,-3.455063827000508514e-01,-2.490092504486732250e-02,-9.303085715914396776e-04,3.747978809244491283e-02,1.115438944659907436e-03,2.851679921150207520e-01
-2.765923720072857583e-01,-2.758288208795431351e-01,-2.441156834522620334e-02,3.609720417976057267e-03,3.593678772729083735e-03,1.041369055295581587e-03,2.519608736038208008e-01
-1.693885898857004080e-01,-2.886256594325732339e-01,-1.915886685545070689e-03,4.308188974278635147e-02,4.659958168630915637e-02,2.289668987673476944e-02,2.754796147346496582e-01
-3.042168423386534259e-01,-3.132775276942739162e-01,-7.343644839065216479e-03,-6.026633533616125669e-04,8.907310058409416073e-03,8.916932538527903504e-03,3.022967278957366943e-01
-3.239450254881596769e-01,-3.169080250991402337e-01,-3.122402202548946182e-03,-9.096154047641394260e-04,2.654393705604978860e-04,1.242261074916833300e-03,3.173741698265075684e-01
-2.256178291932487423e-01,-3.094409890149190101e-01,-1.550713866139896702e-02,-2.204131381738229367e-03,3.356113646067803574e-02,3.710096465465808659e-03,2.687375843524932861e-01
-1.136261710719151108e-01,-3.404849229941153133e-01,-1.300302843707104583e-02,2.034169264535740790e-02,3.969554587541140184e-02,1.562417791058134248e-02,3.018576800823211670e-01
-8.225618366080263144e-02,-3.013956151218484258e-01,1.731521035477953663e-02,-4.046739221033728712e-02,1.230596558888098768e-02,6.608216623892724682e-04,2.917619347572326660e-01
-2.840568124870022082e-01,-2.628753182290325952e-01,-2.350924324324418779e-02,-8.386703596972354055e-03,1.059115111620725740e-02,-3.999435505777152768e-03,2.518142461776733398e-01
-2.732597400905638629e-01,-1.918319853643937756e-01,-5.464181143802704366e-03,-6.909126554438493883e-02,1.170120765643653873e-02,-2.144217631967104687e-02,2.695362865924835205e-01
-3.209200448266464889e-01,-1.762424420626261812e-01,1.323273543717931600e-02,-6.427501832944712556e-02,2.191174319825751893e-02,-3.614698411047993082e-02,3.193732798099517822e-01
-3.283595469641171771e-01,-3.117054643405198777e-01,-1.098202425683847405e-02,-5.653955013971588214e-04,1.804876292229369355e-03,-7.439285339092667699e-04,3.094068765640258789e-01
-2.787053876016080123e-01,-2.724171702507514059e-01,-3.648895864598358796e-02,2.256259978421881751e-03,-1.409192446766025300e-04,1.157702945006952285e-03,2.391747981309890747e-01
-3.300836777599835403e-01,-3.239436410862090443e-01,-1.932373312417998146e-02,-2.725102851341899401e-03,4.449711159592838368e-03,4.090944136974629559e-03,3.079500794410705566e-01
-2.696398477057249665e-01,-2.832761836609024586e-01,-6.339877751614569901e-03,-5.549144970184697982e-03,-1.710172467566465834e-03,6.933094308745072799e-03,2.708295285701751709e-01
-3.078371177419462756e-01,-2.519241203155900277e-01,-4.021779131743402624e-02,-2.713974988118110498e-02,1.175172754377194241e-02,-1.520998333767822723e-02,2.511991262435913086e-01
-3.001258689704452975e-01,-2.629421924584878778e-01,-2.694937673701219838e-02,-6.372920597177840832e-03,6.997233875097466117e-03,-6.461818082024076799e-04,2.571386694908142090e-01
-3.614168022771148125e-01,-2.783368426010145447e-01,-3.259395232908890438e-02,-1.989850209372750686e-02,1.624682863838713270e-02,-4.044325576132407063e-02,3.075627684593200684e-01
-2.853257458150039172e-01,-2.668473978658316148e-01,-9.298295933145517278e-03,-1.464930878831191725e-02,1.652778877441162322e-02,-1.827431645124892590e-02,2.718404531478881836e-01
-2.678494404193199063e-01,-1.907451759684472559e-01,-2.160841513329214703e-02,-4.275850656388868049e-02,1.187735606449275005e-02,-2.170807617261704889e-02,2.343401014804840088e-01
-2.886113296844845522e-01,-2.888299925210017216e-01,-1.890159438789895674e-02,1.874305539557780446e-04,-4.376375432231208347e-03,-2.804996971361061169e-03,2.699694931507110596e-01
-2.584417937591068082e-01,-2.734765518624205916e-01,-3.365591155417632652e-02,-2.478133941156222386e-03,1.553026210719273947e-03,-1.334911728466534097e-03,2.327344864606857300e-01
-3.019931003889491650e-01,-3.029097455308202291e-01,-6.487762648508005325e-03,9.724226925779383803e-05,-2.330829423461175387e-03,-5.452130038976195445e-04,2.959938049316406250e-01
-3.027147467945889292e-01,-3.036342927515655044e-01,-2.303198922268087645e-02,-5.905368463605509510e-05,-6.282011761619279468e-03,-7.380242817076214379e-03,2.806461751461029053e-01
-3.182642492465208028e-01,-3.143748888028144450e-01,-5.343672626241663393e-03,6.134429738736173416e-04,3.271466272635416197e-04,-2.466889462113383905e-03,3.110258281230926514e-01
-3.509434501114505611e-01,-3.554156435571645956e-01,-7.409961976236867365e-02,-5.308724222359948071e-03,6.178349056841094845e-03,9.426804710594288705e-03,2.799397408962249756e-01
-3.167998262023354328e-01,-3.162343068234085841e-01,4.180394646921270496e-04,9.343028331789278960e-04,3.174566492528896008e-04,-1.745773221381250514e-03,3.169545233249664307e-01
-2.960986442985198974e-01,-2.958120041593004790e-01,-1.190327972365728959e-02,-1.652315885878642969e-04,-1.392038790573716473e-03,-4.143832477513089037e-03,2.841531932353973389e-01
-3.247678630684739387e-01,-2.863595966188046682e-01,-4.305131987745619560e-02,3.547153324260704510e-02,3.793239839856894779e-02,6.654879134183361300e-02,3.023188412189483643e-01
-2.885149393908557069e-01,-2.895758369899372187e-01,-3.755953710263731926e-02,5.361666389087671458e-02,6.101597138320875857e-02,5.061698746577480978e-02,3.012064099311828613e-01
-3.759579179882496791e-01,-3.919983038457844349e-01,-1.035053117403731127e-01,4.551016102835820330e-03,9.657371818015691306e-03,1.467598476884141717e-02,2.825704216957092285e-01
-2.706307580758955389e-01,-2.131107737389595358e-01,-2.217589891472088182e-02,-7.463668945566665457e-03,6.475205530187433389e-03,-1.056734000361665357e-02,2.266608774662017822e-01
-4.277128015691459839e-01,-3.977787692255081442e-01,-1.270908622191232185e-01,4.684228625520685946e-03,4.793738628497703179e-03,1.442239714625596740e-02,2.881484925746917725e-01
-3.099572788473170526e-01,-2.471981606679238830e-01,-3.381638775922887752e-02,1.331009640189696405e-02,-4.679545975630576560e-03,-1.730604490987465785e-02,2.536883950233459473e-01
-3.171201386139316791e-01,-3.301036674370675383e-01,-8.055181897725000040e-03,-5.539910179222205539e-04,1.359548938293436899e-04,8.602112153638491444e-05,3.157585561275482178e-01
-2.896028009729077479e-01,-2.914539541555369873e-01,-2.194552338118341273e-02,-6.863812978083172998e-04,9.496981521974947466e-04,-3.543256230424145312e-03,2.686654031276702881e-01
-3.147215017249996860e-01,-3.164124050575510272e-01,2.552172902251875763e-03,-8.219622165423546602e-04,9.292257843880910410e-04,3.446893316911968808e-04,3.181303143501281738e-01
-3.167164404842432446e-01,-3.145114135956495471e-01,3.021722851979713464e-03,-7.185333973472115979e-04,5.609241828647530421e-04,7.217730101819918491e-04,3.186477422714233398e-01
-3.076388539326161409e-01,-3.037699800144314510e-01,-1.005057294899522335e-02,2.411049150722777861e-04,4.050407454487441397e-03,4.144625193257394334e-03,2.958434522151947021e-01
-3.134611553914690152e-01,-3.129294605475699820e-01,5.595915069867007929e-05,3.421452434894860722e-05,2.736016911512832630e-03,1.511421628800942076e-03,3.132984042167663574e-01
-3.155983504097019665e-01,-3.155289217459339435e-01,1.665366515839455941e-03,4.922836550317121694e-05,6.746894137649810629e-04,5.688841634229362390e-08,3.172311782836914062e-01
-2.948895590715872039e-01,-3.100949451631164755e-01,-1.228394298776885885e-02,-1.118177987291644635e-03,9.203509793614301788e-04,-5.549558664653478531e-03,2.906767129898071289e-01
-3.166562424039404688e-01,-3.295912826182332278e-01,-7.408318907695637945e-03,-2.197351050656645114e-04,-5.360469397310594448e-04,-1.300316942889278519e-03,3.159237504005432129e-01
-3.330800111785843787e-01,-3.280578462231593107e-01,-1.046691713219005948e-01,5.889104611114708357e-03,1.663138590345674198e-02,-1.155526721624466164e-03,2.280076295137405396e-01
-3.134002772643290635e-01,-3.119430137562157479e-01,3.284085590948920830e-03,-3.854057882508836333e-04,6.558087992523307886e-04,8.884828995487478905e-04,3.159647583961486816e-01
-2.987923147732997053e-01,-1.888828910013198858e-01,-2.966196089828707083e-02,2.529496620155969114e-03,1.467182640081532950e-03,3.517935727016533376e-04,2.344297170639038086e-01
-2.208193192337341293e-01,-2.965073773456787798e-01,-3.325934967981766799e-02,-6.769279797168502658e-03,-1.359971053788807359e-03,2.574534065934027619e-03,2.350880205631256104e-01
-2.916565428866631504e-01,-2.909996764420398896e-01,-3.913828551473999551e-02,-3.974664804151422683e-03,-5.197660240349867393e-03,6.742124869959374885e-03,2.527149319648742676e-01
-2.779624334153776855e-01,-2.769015429676480178e-01,-3.272491680239578149e-02,-8.875538161931035728e-04,-3.041192874854025882e-03,1.263231629868879569e-03,2.447800934314727783e-01
-2.806015194391673351e-01,-2.793681163857605898e-01,-1.569450477521097675e-02,-2.453582186318306428e-03,-3.022802817899090250e-03,5.521369676743178787e-03,2.645514011383056641e-01
-4.057924555177443438e-01,-3.468331657836047910e-01,-5.080086600875530212e-02,1.910901690519905063e-02,-6.561646734408920802e-03,-3.434818108888338523e-02,3.366440236568450928e-01
-2.787880235538124918e-01,-2.780838134678336182e-01,-1.438552846094232063e-02,-4.214709087617872670e-03,-6.443927547336755247e-03,5.675041213237108119e-03,2.645703256130218506e-01
-2.722378218344175815e-01,-2.762143707160678030e-01,-2.164722919259290390e-02,-4.525917731252999086e-03,-1.678770290548517105e-03,4.969994806237347865e-03,2.528872191905975342e-01
-3.264349440290411075e-01,-3.349175366043242730e-01,-1.397945492999574935e-02,1.746062454403600516e-03,-1.668120964601093378e-03,9.186062360183941530e-04,3.168135881423950195e-01
-3.018875919336376223e-01,-2.248454591089066312e-01,-4.408475194295727317e-02,6.403022057154795187e-03,8.152162089503567008e-04,-7.406247789870769403e-04,2.294836640357971191e-01
-2.736700290089793541e-01,-2.696102528240976737e-01,-2.855746220155969128e-02,9.366493052054804952e-03,-5.228814323538904033e-03,-5.829390654578817631e-03,2.440260499715805054e-01
-2.742685887540587952e-01,-2.603495930094748001e-01,-3.392258106744985846e-02,3.607677548595803873e-03,-1.740202275341754760e-03,-1.012848624700163997e-03,2.338071316480636597e-01
-2.842270663836530264e-01,-2.721694113161907680e-01,-1.874293986618066898e-02,5.928295899746319902e-02,-3.358727724913943002e-02,-3.246783518926507628e-02,2.907168567180633545e-01
-3.186795805846521223e-01,-2.323997553710419883e-01,-3.567373413447863517e-02,1.791242541137037445e-02,-4.812827924165155417e-03,-1.444274344654840336e-02,2.545125782489776611e-01
-2.931499918511206171e-01,-2.655317576069656793e-01,-9.454592659540822508e-03,4.148131956878359748e-03,-9.363358518274474129e-03,-9.452183764669920552e-03,2.720171809196472168e-01
-3.089736644712024471e-01,-2.955726475389578445e-01,-1.192393875585107121e-02,1.761000381412073127e-03,-8.784715912701463250e-03,-1.067372905648542595e-04,2.909952104091644287e-01
-2.963621355170004135e-01,-2.567206321359642440e-01,-6.308347556901044983e-03,-1.434774182091495571e-04,-5.573629021984146358e-03,-1.377618310025504819e-02,2.736185193061828613e-01
-2.563368989563962197e-01,-3.241293096288553333e-01,-2.940560722962071161e-02,2.213163148783539938e-03,2.086155049609813618e-04,4.557173476979337404e-03,2.674975991249084473e-01
-3.082453688527615476e-01,-3.072421380601571550e-01,2.592294394401783997e-05,-5.546668147527584157e-05,-3.127940260712564011e-03,2.394064176438885638e-03,3.078465163707733154e-01
-2.821714312949352710e-01,-2.422732577298080947e-01,-3.557986669970825133e-02,3.746010961475836586e-03,5.302572620231333494e-03,-1.064414063286878631e-03,2.295442372560501099e-01
-3.150237438115623401e-01,-3.131124613854686656e-01,-4.338007479345595829e-04,1.408103551723883986e-03,-1.506840456108848566e-03,1.680308906612155940e-03,3.136725127696990967e-01
-3.040391232221465456e-01,-3.038569182892364440e-01,-8.641480896669578859e-03,-1.588061147868331661e-04,-2.844409135369238388e-03,1.418657736462516656e-03,2.953580319881439209e-01
-3.117136637312912795e-01,-3.115970759146488023e-01,1.135462404468684516e-03,8.253038999239358767e-05,-7.099923538151628249e-04,1.164061581785139684e-03,3.127998113632202148e-01
-3.120726405863286645e-01,-3.118876131624552794e-01,-4.272365417797990839e-03,1.479266061358777999e-03,-7.875482411053099817e-04,2.714205265158562991e-03,3.077574074268341064e-01
-3.156599346272225826e-01,-3.175469484150183486e-01,7.918542742040846072e-04,2.083542495133340871e-03,-4.334399432883648262e-04,6.465806686827480681e-04,3.174228668212890625e-01
-3.204620596168056834e-01,-3.193765896606320376e-01,-8.394937255779943985e-03,3.806911255309887877e-03,1.305361402766454411e-04,7.786049718635807294e-04,3.115985691547393799e-01
-3.199830961451536337e-01,-3.166680515132483942e-01,-1.151651242985690660e-03,1.609977225236403596e-03,1.349780516544341015e-04,2.902407987747342762e-03,3.172391057014465332e-01
-2.946347861006732294e-01,-2.889390936498340556e-01,-9.051819599418364781e-03,-4.775042721621371340e-03,8.053264837555938749e-03,-4.482008054046165979e-03,2.833490967750549316e-01
-3.169821575879411824e-01,-3.145746018353205442e-01,-2.989913275233402334e-04,9.889183999590630007e-05,-7.093915451848934036e-04,2.651079342476346957e-03,3.155221343040466309e-01
-2.511165292173093144e-01,-2.786417561988772662e-01,-3.585746064456887816e-02,-9.801981610399220293e-03,4.303695830916862077e-04,-1.963131753020331757e-03,2.309101819992065430e-01
-3.196960859472756655e-01,-3.151102957364835255e-01,-2.697715197571004531e-04,2.564727662398568440e-03,-1.571257760197349192e-04,2.287405366782656064e-03,3.172142505645751953e-01
-3.223512023873326138e-01,-3.293263018307934775e-01,-7.881774550476450258e-03,-2.168714758410113328e-03,-2.749403319026142399e-03,-2.861130328646547399e-03,3.181107938289642334e-01
-3.128668174000197033e-01,-3.191470646398297251e-01,-2.201369952429671484e-03,-1.853036656239065222e-03,-1.891217754018961143e-03,-1.451490000769773293e-03,3.138962686061859131e-01
-4.976567090484386169e-01,-2.563829518160192222e-01,-6.580720862477582034e-02,-5.659311469705325184e-03,3.613279799445137750e-03,5.145037162962403515e-02,3.854734003543853760e-01
-3.285041328512882663e-01,-3.161997821529308195e-01,-7.778997856586458703e-02,3.242380950385337270e-03,1.372805197238874701e-03,4.196431902599453653e-04,2.448710501194000244e-01
-3.180782098323858831e-01,-3.258004631059134848e-01,-3.526962362919661143e-03,-1.624013707560350694e-03,-1.776540491869006526e-03,-3.563523022842753486e-04,3.185104727745056152e-01
-3.154757211505885284e-01,-3.244197593209515174e-01,-7.295629778797135812e-03,-1.530410001752444604e-03,-7.652248854914907913e-04,7.406939331464005953e-04,3.127647042274475098e-01
-3.248677453991307140e-01,-3.102719758541834238e-01,-3.652762769458109404e-02,5.435085639349362388e-04,-1.407982492588590040e-03,1.203874339407659706e-03,2.813462316989898682e-01
-3.164774944061175543e-01,-3.149967542355688876e-01,-8.037565464182050423e-04,1.731170794214450257e-03,-1.484048354826845387e-03,1.235143500390315733e-03,3.149680197238922119e-01
-5.889248556631785370e-01,-4.600570750405691411e-01,-1.733752115170519303e-01,-2.564100020351351220e-02,1.614007938393804617e-02,-1.034120970780618709e-01,4.130054712295532227e-01
-2.863133654910373083e-01,-2.989025083514652570e-01,-3.569553815067028069e-02,-2.216374103170835278e-03,1.357084554383373564e-03,-9.981937518188398195e-03,2.577635049819946289e-01
-3.164458349676799176e-01,-3.153344731104170129e-01,1.068155987415109198e-03,6.368514881460351140e-04,-1.671364127887395713e-04,7.965491831770135081e-04,3.169648349285125732e-01
-3.185333270118911320e-01,-3.161340427365812999e-01,-1.598895083149198815e-03,1.562783244450010245e-03,-9.005996935969656433e-04,1.551584769104310136e-03,3.157685101032257080e-01
-3.134533865064892399e-01,-2.136437376657769893e-01,-3.961120488783953508e-02,2.825528109354013152e-03,-2.044352625886364586e-03,-9.381663766345303560e-04,2.401219308376312256e-01
-3.318219477500330972e-01,-3.330384247313837864e-01,-8.984195889527488155e-02,-2.544846043713579545e-03,2.738290527813074492e-03,1.090995249082317084e-02,2.434115111827850342e-01
-3.129621371135882235e-01,-3.118734154674093206e-01,1.055795183816987670e-03,3.392040617587734562e-04,-1.132782941434910861e-03,1.738917644747121558e-03,3.134961426258087158e-01
-3.131638098381107072e-01,-3.126082091723901835e-01,8.467824931089606988e-04,-2.245126302860593278e-04,1.289428368364590799e-03,-3.032885326189496775e-03,3.137853145599365234e-01
-3.165304019620469589e-01,-3.272016722786950660e-01,-5.372869331260743397e-03,8.923831330091834850e-04,-1.078472733638366010e-03,-1.356138436269063198e-04,3.166374266147613525e-01
-3.244438025671035342e-01,-3.167975906387041074e-01,-3.754146870172697659e-03,1.333705658140275268e-03,-6.518346661723878766e-05,8.052865710394343807e-04,3.169472515583038330e-01
-3.236128250229612369e-01,-3.135407630141984203e-01,-3.622974726449817995e-03,1.875626458251592518e-03,-9.483884823306016612e-04,1.680418672098917248e-03,3.151090443134307861e-01
-3.367156059307723215e-01,-3.313463215404295337e-01,-8.435883248138209556e-02,2.056768573968650816e-04,1.501984089601003311e-03,-1.351831470304349237e-03,2.497402131557464600e-01
-3.261816402546386384e-01,-3.160078271108852643e-01,-4.607071316547556306e-03,9.623482607742652687e-04,9.823001309399737588e-05,9.036102810469131760e-04,3.166185915470123291e-01
-3.340822388888176064e-01,-3.246566704141508608e-01,-6.263831335434458247e-02,2.046123269704842613e-03,9.775965416640686537e-03,-4.127636716214535227e-03,2.675116956233978271e-01
-3.130781297523131945e-01,-3.131636952687064102e-01,-1.056174189802500107e-03,3.192788648947777466e-04,-2.675602248156958105e-03,-1.799519122035702582e-03,3.121152222156524658e-01
-3.257718633563091437e-01,-3.160111782913970213e-01,-6.485006663639159008e-03,2.121888967283737208e-03,1.297744975939415200e-03,6.996906607548380964e-04,3.145519495010375977e-01
-2.758801910821354619e-01,-2.877646064687471306e-01,-3.462241103437563305e-02,-1.316906356695739591e-02,4.610299047399159245e-03,-7.367364974284206641e-03,2.489189356565475464e-01
-2.977161306628086646e-01,-3.138102281363375767e-01,-3.232365729454234060e-03,-1.756154101559273800e-03,5.681285841020021314e-03,-4.332856498488232844e-03,3.031197190284729004e-01
-3.329744527313443503e-01,-2.778960196023670948e-01,-4.001323625677036255e-02,3.635595482990690557e-03,-5.257334725722892163e-03,-4.614470460216660806e-05,2.699011564254760742e-01
-3.135375686209566082e-01,-3.152930809014627966e-01,-6.692998280752343598e-03,9.154124209334960635e-04,4.815076102418743356e-03,-5.984587286045664131e-03,3.080176115036010742e-01
-2.816213325044734095e-01,-3.096263000887080619e-01,-2.414054387094891063e-02,-2.341311176069642373e-03,7.376547109896382584e-03,-8.438412079439339825e-03,2.732849717140197754e-01
-2.791987718597221946e-01,-3.060907341774026236e-01,-2.221494747160784877e-02,-1.859438467556425801e-03,7.565836160754085653e-03,-7.904579382178691591e-03,2.721106410026550293e-01
-2.770779155341342448e-01,-2.895358224528015723e-01,-9.018101148728863148e-03,-9.818463437547435280e-03,1.769565336520054558e-02,-1.667405604083559839e-02,2.782326638698577881e-01
-2.998085203142383248e-01,-2.071108916844896786e-01,-3.782001459121964171e-02,2.808373939697341067e-03,4.213708976374991744e-04,-9.324706395658753253e-04,2.301562875509262085e-01
-3.270420631147195056e-01,-3.155742310925175320e-01,-7.092797168302494848e-03,-1.186396148778462846e-04,-1.199633528405326301e-03,-2.955476629626594418e-04,3.143796026706695557e-01
-2.959185943550444731e-01,-2.166242305180723915e-01,-3.474900469812911008e-02,6.698578117467253110e-03,-2.838682041402277364e-03,-2.969110163398932145e-04,2.322647720575332642e-01
-3.184761296528505481e-01,-2.687701603130552286e-01,-3.081629221277454311e-02,7.881884956576289125e-03,-9.489255062340062191e-03,-1.002302157084257331e-03,2.671703100204467773e-01
-2.609472481284653145e-01,-3.213415873980710047e-01,-2.175125596251570315e-02,-5.234261289814417725e-03,3.070496756801811486e-02,-1.759140519934662347e-02,2.813311815261840820e-01
-3.331147195917476544e-01,-3.200713336135960763e-01,-1.566286250000739622e-02,-1.834092496390200269e-03,4.093347590822158885e-04,1.724750977407999309e-03,3.111666440963745117e-01
-2.722678596852037836e-01,-3.240974757886215252e-01,-3.254037489747296785e-02,5.531852543757105828e-04,-1.659861901964400366e-02,-4.535230783000238769e-03,2.710529863834381104e-01
-3.189221553334440351e-01,-3.155030584716650432e-01,5.300534187093752791e-04,-4.983788271872791270e-04,7.329544220097987590e-05,-1.046781598107444965e-03,3.177628219127655029e-01
-3.308277574505721352e-01,-3.725295831886287767e-01,-5.416620039745259629e-02,-2.662860052177892442e-02,1.974107576831939104e-02,-1.328196249364415986e-02,3.060123622417449951e-01
-3.341464457871345384e-01,-3.223241122584923346e-01,-6.101073460317885111e-02,5.677801546043833745e-04,-9.386423837773119616e-03,-2.320487496639997774e-03,2.679463028907775879e-01
-3.227396291829328079e-01,-3.206979337884614534e-01,-9.279753204326252058e-03,6.443211924850773559e-04,5.930159327598693783e-03,5.840400922224360395e-04,3.126164376735687256e-01
-3.309952074171092495e-01,-3.216907001874685923e-01,-1.682117476764302677e-02,-7.874864414627376352e-03,2.508801156100528944e-03,3.721175276868205189e-03,3.100244104862213135e-01
-1.707748195157189619e-01,-2.360945449456247069e-01,-7.838127577768028154e-03,6.147774193674803572e-02,-1.526829524989974270e-02,-1.346152162461377103e-02,2.324640899896621704e-01
-3.346266126070334690e-01,-3.215595043526439101e-01,-2.367416175948122703e-02,2.945297239346715123e-03,-3.404986388400418201e-03,1.213486026940771394e-03,3.047361969947814941e-01
-2.924952295693089566e-01,-2.749061234303570300e-01,-4.107089248922810021e-02,1.255110536993793435e-02,6.393676661459080264e-03,7.084585150299541924e-03,2.446365654468536377e-01
-3.030407436633528739e-01,-2.842327862129385152e-01,-3.056565984179018813e-02,1.369124053302298548e-02,1.911964701267870187e-02,1.713665510422647878e-02,2.683500349521636963e-01
-3.294373022666211570e-01,-3.172813914344836395e-01,-6.191283504321437592e-03,1.405686227125152736e-04,-7.212073408498150288e-04,1.748111346823692650e-04,3.173454105854034424e-01
-2.724342207100817759e-01,-2.695451021700849270e-01,-3.498833959914932068e-02,1.252655926551527648e-03,-1.348694743992351992e-04,-8.266158151314196645e-04,2.360290139913558960e-01
-2.800930999519777309e-01,-2.823130036410306243e-01,-4.533015668492257344e-02,-9.177158293869022362e-03,6.282825104096789585e-05,-1.387084813381006228e-03,2.364279180765151978e-01
-2.894224550064452561e-01,-2.862027657494696231e-01,-2.889518582350916742e-02,-2.808925319213001395e-03,7.542612519093422514e-03,-1.364776620662898734e-03,2.593182325363159180e-01
-2.806946831286439847e-01,-2.813076272895878027e-01,-2.887973607788923980e-02,-9.736967244295516993e-03,8.058579525254998960e-03,-1.052549998946106062e-02,2.537264227867126465e-01
-2.716228968794649479e-01,-2.745895547148823890e-01,-3.947074696213676015e-02,-1.231424596033166676e-03,-1.975691343207533438e-05,1.301742273054152849e-04,2.336594462394714355e-01
-2.764321675624095698e-01,-2.789845408248148306e-01,-3.445408575960645647e-02,-7.397261667465546186e-04,1.102140249966230591e-03,-3.046217433095675144e-03,2.433323860168457031e-01
-3.003361356716395814e-01,-3.064299808997704155e-01,-1.287382578425555479e-02,1.469778139074612701e-04,1.089389688904052796e-03,-7.342379809023973254e-03,2.908415794372558594e-01
-2.666390534533938927e-01,-2.592960354783196975e-01,-3.250142750814211112e-02,-7.469052269708184935e-03,1.461513925483210472e-03,-5.119883178965541374e-04,2.309320867061614990e-01
-3.277854063881518454e-01,-3.371505645023265552e-01,-6.806150617103784439e-02,-3.556878812336457078e-03,-2.059206654850109092e-04,1.028575881747584774e-03,2.646088004112243652e-01
-3.159809881737170034e-01,-3.164382213829959323e-01,-1.847580880879412524e-03,4.884462734582043419e-04,-1.598767431343265646e-03,1.584438587961060777e-03,3.143875896930694580e-01
-3.136190937585751626e-01,-3.150100097408361499e-01,-8.079822744370135368e-04,3.897475878449658138e-04,-1.273349855616280960e-03,1.587632747933921673e-03,3.135294318199157715e-01
-3.148372742829785298e-01,-3.149263909717878729e-01,1.292130356423809578e-03,5.797602103205838847e-04,-2.469344086626168531e-04,9.614152465510889759e-04,3.161802291870117188e-01
-3.280882034849612050e-01,-3.270690569500614986e-01,-1.065900608480147005e-02,1.447305498894723135e-03,-2.725013380028392523e-03,-3.111956671981218965e-04,3.169663548469543457e-01
-3.156875825815919079e-01,-3.152297329224610367e-01,1.670999936697031840e-03,3.163262346975479833e-04,-3.402662357002246216e-04,6.351114828582965846e-04,3.171328306198120117e-01
-1.875565364332930640e-01,-3.074304365399294636e-01,-3.329320953442774234e-02,-1.350297169763421401e-01,-1.018147394941542987e-02,7.993354260911718703e-03,3.344559967517852783e-01
-3.132697852376097325e-01,-3.137197206072692701e-01,2.807784889186676347e-03,4.423840489123803698e-04,-7.004624170382827081e-04,5.635381152472979625e-04,3.163075447082519531e-01
-3.271585422982095648e-01,-3.174367287610683763e-01,-4.747165772807454553e-03,1.180780236330448030e-03,-2.774249380284516992e-04,-5.263549632404845901e-04,3.176703155040740967e-01
-3.271126816395223957e-01,-3.166110190254043388e-01,-4.794793398791935557e-03,1.666352625938121389e-04,2.380378268953495810e-04,-2.169550740360026014e-04,3.171980977058410645e-01
-3.280282567592462395e-01,-3.164345684612660525e-01,-7.506771058013894660e-03,-1.009509075592028094e-03,3.836466675207644318e-04,-4.004216702163503885e-04,3.148910701274871826e-01
-3.246485169213466637e-01,-3.166257464382897791e-01,-3.858533732674945815e-03,6.341821870457946047e-04,2.364419307849174520e-04,-1.130651855803023378e-03,3.168630003929138184e-01
-3.258510464363915116e-01,-3.157546165890509626e-01,-3.988970424465415610e-03,-6.104917374471799342e-04,2.522766213483379700e-04,-1.139563262749510421e-03,3.169427216053009033e-01
-3.118014551993441019e-01,-3.136555061937507105e-01,3.034586910106246149e-03,7.514965867826012844e-04,1.100211495366887945e-03,-4.740707090514511180e-04,3.157766461372375488e-01
-3.150189025804941978e-01,-2.912109264107687334e-01,-1.251969174123884754e-02,-7.040891941347906006e-05,5.210966491705380441e-03,-1.462291507004291526e-03,2.914765775203704834e-01
-3.279133049647148246e-01,-3.161268556794831763e-01,-7.471407291748916046e-03,-6.349705544630435128e-04,8.419435847446850177e-04,-3.289649844538736212e-04,3.147200644016265869e-01
-3.385553346714367251e-01,-3.616784411677326783e-01,-6.526340797291044216e-02,7.890567694070592039e-03,2.440757764464511828e-02,2.078143321288263012e-02,2.912251651287078857e-01
-3.675001774320960646e-01,-3.577004969631905062e-01,-1.191030092711748423e-01,6.315957397280021896e-03,8.334155849573379737e-03,-5.547179893281032649e-03,2.445063143968582153e-01
-3.200127262662887384e-01,-3.080619922241185638e-01,-3.907528563787665554e-02,8.889289029562503358e-04,-1.115616495127132266e-03,-4.855672107445743388e-03,2.752963602542877197e-01
-3.304360547723131925e-01,-3.199405829387990119e-01,-6.030761540002671506e-02,2.219766873670237037e-03,-9.214986678450819493e-03,-5.570748778275613593e-03,2.657198309898376465e-01
-3.316900173641668115e-01,-3.250277269963391946e-01,-4.537256937660527623e-02,7.022475939323586172e-03,-1.049927593326319651e-02,-1.958936167682465992e-04,2.838895916938781738e-01
-3.155439914372438204e-01,-3.292143841709266328e-01,-4.210608802199256040e-03,8.088431595274434005e-04,-1.410956179711605942e-03,-8.811436647239455138e-04,3.184048831462860107e-01
-3.704352765166120665e-01,-2.084616208508561219e-01,-5.142718983232286156e-02,3.887469365438379378e-03,-1.121735470194952511e-02,2.397994504266730970e-02,2.801404297351837158e-01
-3.200702728590921753e-01,-3.248696035666153725e-01,-4.616175019931834100e-03,2.763514507724333397e-03,1.420236195394428570e-03,-9.921814850800349164e-04,3.179311454296112061e-01
-3.365742959910328902e-01,-3.268295793923760018e-01,-5.230255943730591217e-02,4.581917146764942668e-03,-5.309909666332347615e-03,1.278213629033330572e-04,2.797907292842864990e-01
-1.165448390441634896e-01,-2.922868513735917828e-01,-8.148546875615753082e-03,-2.607616119479820235e-03,-9.750283097514739986e-04,3.799343895335191568e-03,2.484981864690780640e-01
-3.340059430472600011e-01,-3.295797139953815513e-01,-8.103948581835362930e-02,-3.809114420916134250e-04,-7.016832358998687305e-03,-2.006283708457228139e-04,2.510780692100524902e-01
-3.664131000506523628e-01,-3.686878461717906785e-01,-1.575048988151062923e-01,-6.842226147431980550e-03,2.133824193241768818e-03,1.325506786892460126e-02,2.116700857877731323e-01
-2.819357014539319306e-01,-2.752603693365448523e-01,-2.429997105800166257e-02,1.542850461226519775e-03,-4.143601173850625964e-03,-2.433622106198535945e-03,2.545139193534851074e-01
-3.405430408282426047e-01,-3.375309739088619976e-01,-1.323847612277070096e-01,1.945974841347954251e-04,-7.229982893656471121e-03,2.908751586629019018e-03,2.071093171834945679e-01
-2.582551487284732716e-01,-3.104949351090317000e-01,-2.355435296972618886e-02,7.672028241896039664e-03,1.501725916939133324e-03,3.991496758027153827e-03,2.651515007019042969e-01
-3.237100938348567714e-01,-3.278679706170459784e-01,-1.114977232509200000e-01,4.195037547704000410e-04,-3.141105855600061225e-03,3.632614110066928383e-03,2.144841402769088745e-01
-3.344876382030591566e-01,-3.301414418176218390e-01,-1.128782849388148546e-01,1.750818588890426346e-03,-6.567558494235969241e-03,4.450545621998272527e-03,2.199192047119140625e-01
-2.942951219429340015e-01,-1.884699638636912478e-01,-2.806525036481458124e-02,-4.030538872326459507e-03,5.598319373880080363e-04,1.310326757213748196e-03,2.322892993688583374e-01
-3.301235295659061819e-01,-3.179599276879880865e-01,-7.162820347796583498e-03,-1.404016318515459785e-04,-4.964195786351736353e-04,-2.599769243417654344e-04,3.170555233955383301e-01
-3.329651343514540285e-01,-3.230035689231893770e-01,-1.067108069574387863e-02,-6.116654021895033327e-05,-2.901711350779954523e-03,-8.674822554542802738e-05,3.174703717231750488e-01
-3.257852719184487489e-01,-3.165401463559909812e-01,-4.031941099334968026e-03,1.032835304422483275e-03,2.342076114339900297e-04,8.667901190567769022e-04,3.172406852245330811e-01
-3.289707987913443876e-01,-3.164376164427520899e-01,-8.484582685422736859e-03,-2.343712624826236994e-04,9.184002211178924312e-04,8.378249000103956713e-04,3.144146800041198730e-01
-3.139207075260074253e-01,-3.133490014704396476e-01,-4.354798112179092406e-03,1.609198550228604701e-03,-7.314825542748506137e-04,3.241875018780408617e-03,3.093465864658355713e-01
-3.015413464831771528e-01,-2.970074887786567919e-01,-2.357793934993746010e-03,-6.146363077952141226e-04,-5.546852453505342340e-03,2.068752113489830038e-03,2.971214652061462402e-01
-3.190036817102255284e-01,-3.162791412649229028e-01,-4.576577456078534389e-04,1.082326512482896172e-03,-1.948747497079912356e-04,1.081579325349750226e-03,3.172037899494171143e-01
-3.187081906174394907e-01,-3.134783986302308034e-01,-3.424679547698594728e-04,-8.659163119790435324e-05,-9.608995024563808402e-04,2.164656986619908213e-03,3.158099949359893799e-01
-3.150309099270861557e-01,-3.269040333722995628e-01,-5.454041385640623352e-03,-9.030230333761235647e-05,-1.558736144156555635e-04,2.514859240022585722e-04,3.156813979148864746e-01
-3.219967863549691445e-01,-3.158385123617429291e-01,-1.748770200376698059e-03,8.523962409506133592e-04,-1.297729579204274022e-03,2.131497405592957649e-03,3.172465860843658447e-01
-3.258473678944359131e-01,-3.382951415861801814e-01,-2.965425297409535199e-02,1.206650727845342430e-04,8.243981043403353663e-05,3.283822636598013496e-03,3.026626408100128174e-01
-3.371186643199987065e-01,-3.452385185578356608e-01,-6.830000668882343917e-02,-7.573673453148977168e-05,-1.205697530799904342e-04,9.187507341847452394e-03,2.734327316284179688e-01
-2.849082610111010605e-01,-2.893741586656394249e-01,-1.089937916528638251e-02,-1.447419605640188093e-03,-2.060651125546794572e-04,-1.916527827964833097e-03,2.763004601001739502e-01
-3.288346091547010852e-01,-3.172997456625185064e-01,-1.006685930823925101e-02,-1.662072464648434210e-03,-5.298860978643902316e-04,-9.671714494280215591e-04,3.131787478923797607e-01
-3.166460707159670096e-01,-3.205917348984121951e-01,-3.357261787051285529e-03,-2.234440139693853245e-04,-2.365938221467981262e-03,-2.662782712225918690e-03,3.153407573699951172e-01
-3.174631006058418192e-01,-3.280598562255902517e-01,-6.029675136935919166e-03,-1.115558155787010463e-03,-4.870059151062556277e-04,-5.146809436451224356e-04,3.168729841709136963e-01
-3.173178103294559405e-01,-3.239836602259249521e-01,-2.705245603274758492e-03,-1.214680872239195684e-03,-9.980393120178094202e-04,-5.524147968741961734e-04,3.180109858512878418e-01
-3.152542019133438567e-01,-3.212506404785596126e-01,-3.497457711165719019e-03,-2.379176261031473608e-04,-2.634230665040555603e-03,-2.101470964968296488e-03,3.148521780967712402e-01
-3.163099747363803393e-01,-3.296946570964348067e-01,-7.994132943004522707e-03,-3.538711117667508164e-04,7.042660755979315834e-05,2.090541732290416741e-04,3.152222037315368652e-01
-3.242595095376429315e-01,-3.327351662674726818e-01,-9.416350099765657955e-03,-1.022180602193742491e-03,-3.647572606821179860e-04,-1.732572883809289791e-03,3.191850483417510986e-01
-3.199869929145472969e-01,-3.312812606616895028e-01,-9.505311827371160094e-03,-1.470539532836966914e-03,-2.990824869026774044e-04,1.192738705461247406e-03,3.162975311279296875e-01
-3.184577607164271185e-01,-3.241189976569266995e-01,-1.437702242119393015e-03,5.392377617761118366e-04,1.261867438645653070e-03,-1.002361375024300250e-03,3.199017941951751709e-01
-3.059638792096915916e-01,-2.988516620543851254e-01,-1.193763803551300962e-02,-9.660415108899250399e-04,9.596566764530727739e-03,-1.974456846698360163e-03,2.910354137420654297e-01
-3.111242166122258901e-01,-3.032675104036624547e-01,-1.886197995038899067e-02,-8.210556390218226586e-04,7.633904790669314259e-03,-1.322577133649656790e-03,2.887296676635742188e-01
-3.175854018326855210e-01,-3.297276364763030987e-01,-7.648572934829761527e-03,-3.968466338314513694e-05,8.384685156228525570e-05,-4.308341635264932926e-04,3.161837756633758545e-01
-3.156792775056430078e-01,-3.233931841445228383e-01,-4.977494513356134354e-03,-5.267933337757483691e-04,-5.359691488200862093e-04,-2.875703020183592931e-03,3.146717846393585205e-01
-2.640123204414176472e-01,-2.642265040173213397e-01,-2.376903416532774593e-02,1.009236693044221304e-02,-6.364329629836219804e-03,-4.042245480678352022e-03,2.413388490676879883e-01
-2.817715321431939479e-01,-2.717413335397165230e-01,-3.095923025811336826e-02,4.450407000260679473e-03,-5.786265889185343916e-03,-2.674510627354290647e-03,2.463189810514450073e-01
-3.085672015970252757e-01,-2.873565209552825239e-01,-9.676025905610674549e-03,3.646052313029736242e-04,4.896358640964880091e-03,-1.558669125482886391e-03,2.890082299709320068e-01
-3.349939677436454266e-01,-3.351527255217281454e-01,-3.843072965906094152e-02,1.258363514297259917e-03,-5.744702485753285653e-03,7.307265907811971717e-03,2.970871925354003906e-01
-2.758094441899264782e-01,-2.939707018112785453e-01,-2.183062795148224544e-02,1.108813720330608862e-02,-5.779252370540577735e-03,-9.493153082633040002e-03,2.649283707141876221e-01
-2.514928778842373536e-01,-2.614719917611196265e-01,-3.004116009649837604e-03,1.900349662014215110e-02,-1.317440133668153213e-02,-1.523352648821254055e-02,2.581205666065216064e-01
-2.828294013521067685e-01,-2.810920700826666230e-01,-2.004191571953714557e-02,4.946574591329361802e-03,-6.907295459983382908e-03,-7.330536102028193529e-03,2.626432478427886963e-01
-3.126766528436915049e-01,-2.363633793841743713e-01,-4.078382724013984717e-02,-3.788276846596098923e-02,-4.428287066010976741e-02,7.006889465511292880e-02,2.896853089332580566e-01
-2.546418235087505866e-01,-2.012579364234033386e-01,-1.667979744052175417e-02,-7.267410599026517815e-02,-4.933548332949384135e-02,6.670713009315401565e-02,2.885628044605255127e-01
-2.788853412488709327e-01,-1.942917139247442582e-01,9.428407035085295540e-03,-1.626660808329392178e-03,-4.648394856220593695e-03,3.651559217569408378e-02,2.645076811313629150e-01
-3.954767991688801776e-01,-3.706651754496977924e-01,-4.725413263143962705e-02,-1.425523893754932804e-02,-2.339144244763885494e-02,3.134954316602081570e-02,3.441426455974578857e-01
-2.451632745922839585e-01,-2.905180910496055757e-01,-3.971047316515488590e-02,-2.968938163278980139e-03,2.630775905614950779e-03,-4.405454450832338095e-03,2.317145168781280518e-01
-3.159582326316058842e-01,-2.990351941358592724e-01,-1.577014548028113361e-02,1.371127957737825441e-03,-7.823690155044405597e-03,-1.219891296228503823e-03,2.924259305000305176e-01
-3.161414598154674294e-01,-3.181066259101089089e-01,-7.266953523105967871e-03,-5.292533672853473549e-04,-5.386859912449066742e-03,-8.508282519097709086e-04,3.100070655345916748e-01
-3.077191258175817068e-01,-2.967798624837876820e-01,-1.272807060373526422e-02,1.719153358727387813e-03,-6.765724185736126869e-03,-1.759536495416694777e-03,2.899446189403533936e-01
-1.792881043047588885e-01,-2.915009430589157180e-01,-1.350487410139003530e-02,2.841715987417148953e-02,2.563092563696035484e-02,5.989362744014623159e-03,2.513560354709625244e-01
-3.152445523727306353e-01,-3.151938911987390290e-01,-6.755654310703240739e-03,4.559436539769973879e-04,4.137266767199618625e-03,-1.002626655202680257e-03,3.085526823997497559e-01
-3.180943489287211268e-01,-3.313582364538174008e-01,-1.079678676154244288e-02,-2.988521702506768962e-04,-1.846109600898648785e-04,-9.391027021815595696e-04,3.141444027423858643e-01
-3.092082986521871857e-01,-3.080177522073178631e-01,1.933442636783688773e-03,1.212806729011062755e-03,3.189659216820251494e-03,2.060931154250998047e-03,3.106249272823333740e-01
-3.176938248414311605e-01,-3.228678392365508243e-01,5.264514873853931576e-05,-2.149659306612866552e-03,2.059413521730208470e-03,1.376794491021249029e-03,3.204151690006256104e-01
-3.075108398776559837e-01,-2.966979181479396654e-01,-1.278661448244339249e-02,1.719468251002587243e-03,-6.736857419723001755e-03,-1.759757577159190046e-03,2.897357046604156494e-01
-2.863234360467947215e-01,-2.722007404780844575e-01,-6.767315707485899168e-03,3.928691708437961720e-03,-7.830301508476666603e-03,6.790550969912177064e-04,2.731933593750000000e-01
-3.191233331127295014e-01,-2.566367547627903534e-01,-2.926426366088838438e-02,4.432606000576098243e-02,1.518875180821241053e-02,2.533633191048186364e-02,2.798621654510498047e-01
-3.195211428567612533e-01,-3.161019810956393061e-01,-2.286935049769817097e-03,2.023265184547812148e-03,2.678574249660387388e-04,-9.056547071651850113e-04,3.155622184276580811e-01
-2.882268670919538867e-01,-2.450929425641552029e-01,-3.592351410527100386e-02,5.504812167580852393e-03,-2.717530238140621057e-03,-5.885689083080593341e-04,2.339845895767211914e-01
-3.135879616370791378e-01,-3.143542177298526141e-01,2.084174667098787070e-03,-6.222060517743316062e-04,1.206572047932494285e-03,3.884985396684105790e-04,3.160654306411743164e-01
-3.135032218527998849e-01,-3.146999036183237286e-01,-1.643346943811380134e-03,-7.739658019444594272e-05,2.678055725307913922e-03,1.269297354213324647e-03,3.125021159648895264e-01
-3.128146505010860889e-01,-3.134422711793435345e-01,-2.892160886583672319e-04,-2.834941195626340649e-04,-2.578461799979774038e-03,-2.231773499228816536e-03,3.128958642482757568e-01
-3.154426754706619040e-01,-3.193221521416433339e-01,-5.149526899964063098e-05,-1.118930319620542240e-03,-1.390727098944928011e-03,-4.333847768321667728e-04,3.173646628856658936e-01
-3.137626887797718700e-01,-3.188193032040255726e-01,-5.991142052319958777e-03,-8.193828484736516448e-05,5.761294351142380284e-04,-6.545926645027087549e-05,3.103324174880981445e-01
-3.124252585425196793e-01,-2.975376008786768112e-01,-2.358425537645514325e-02,6.726285149170362944e-03,-1.016349276589652122e-02,-8.017188348791070424e-03,2.828233540058135986e-01
-3.075098459623445968e-01,-2.926982859452045838e-01,-7.648221309038888416e-03,1.519948646347192263e-03,-5.091307408175182667e-03,-9.860305848407541034e-04,2.928866147994995117e-01
-3.192206509509886159e-01,-3.239776230109144284e-01,-7.057694727402807899e-03,5.607100922120667212e-04,1.257865320203121768e-03,-7.419017511189215063e-03,3.148398101329803467e-01
-3.217515608554702977e-01,-3.238717523721851288e-01,-1.813451211615432768e-02,-1.819951376730705216e-03,-4.479228746274690511e-03,-1.055267316848267772e-02,3.053452670574188232e-01
-1.179273203631593936e-01,-3.171574258840078597e-01,3.627770042879926993e-02,4.645534518060515095e-02,3.170905851915401669e-02,6.106892647901773080e-03,3.221749067306518555e-01
-2.505456180225005824e-01,-4.565126836242868608e-02,3.140365707540186679e-02,6.131048210348852973e-02,-6.446263507207095587e-04,-3.862585141385991433e-03,2.739164233207702637e-01
-2.990499514815891935e-01,-7.309302133977162164e-02,9.038124815355125241e-03,1.596494843033000044e-02,3.593768493913470675e-03,-3.192975313687702182e-02,2.832350134849548340e-01
-1.775322237385158763e-01,-3.296386705972962350e-01,-2.288100442023088821e-02,5.310901571750532846e-02,1.107332198744865812e-02,4.109478283006785283e-03,2.818812429904937744e-01
-2.675321070860949835e-01,-8.112876954888308123e-02,6.774901040258837770e-03,7.208521836412189188e-02,-1.503678616269382186e-02,-3.129363394874559029e-02,2.793990373611450195e-01
-2.879780885252355427e-01,-2.892924294142268371e-01,-7.105037161378974231e-03,2.573449734711936478e-03,4.980911797607801179e-03,5.247582447869491261e-03,2.818465232849121094e-01
-2.263877669568404305e-01,-2.525804456413774934e-01,-1.703275259046901913e-02,2.437123911977898821e-02,-7.939499320435220928e-03,-7.722535390929795469e-03,2.283616364002227783e-01
-2.762139212544920674e-01,-2.907690057022994656e-01,-2.524683091868409890e-02,6.276019714786337626e-03,1.661632603948336780e-03,6.735327429218303415e-03,2.590593099594116211e-01
-2.709081622885924356e-01,-2.832444099966257012e-01,-3.330251117286298079e-02,2.099746584371500399e-03,2.477238718247599079e-03,6.427994998298156189e-03,2.443263828754425049e-01
-2.748134162342703579e-01,-2.717834684690195179e-01,-3.947940214980155682e-02,8.260775776302171350e-04,6.564845357761909216e-04,-2.145935837304790571e-04,2.338411957025527954e-01
-3.094301881155413492e-01,-3.041725695250256933e-01,-2.195266610718454858e-02,-2.135002754865900684e-04,-6.242759758461222282e-03,-1.926461579531657444e-03,2.851099967956542969e-01
-3.000790765407304050e-01,-2.481315350370525419e-01,-2.462697754258086347e-03,-3.307796864502433615e-03,2.369286628149707991e-03,1.958593922624268444e-02,2.775141596794128418e-01
-3.203002843594150439e-01,-2.457318480258990634e-01,-2.594874551659367978e-02,2.347644890076237400e-03,-6.897257690392470794e-04,8.163329305834817091e-04,2.650922536849975586e-01
-2.968074985019903966e-01,-2.125005199766322461e-01,-2.182601141359763464e-04,-7.360204921234393856e-03,-2.559319360414659926e-03,3.956083642897308128e-02,2.737620174884796143e-01
-3.193475991794220148e-01,-3.181452116624189919e-01,-6.971062310311804122e-03,9.576477278176337990e-04,3.604502293480119860e-03,-1.023855534230309460e-03,3.118490278720855713e-01
-3.219850527454389266e-01,-3.220840591850512302e-01,-7.794345551596748578e-03,2.962162639320302816e-03,3.449195783433107402e-03,-3.669154587340580677e-03,3.144031167030334473e-01
-3.174293425492087373e-01,-3.166092836249145281e-01,-1.220790107871849717e-03,1.812361847266807675e-03,1.179569133434782885e-04,-3.681273141076582263e-04,3.158156275749206543e-01
-3.957966902163191358e-01,-2.734996733404028157e-01,-5.776713586982867854e-02,-2.531424608024369222e-02,-8.413459820996090424e-03,3.379681773135161799e-02,3.056828379631042480e-01
-3.348495055276201615e-01,-1.831644360002638028e-01,-3.024201123587652584e-02,-8.976814961143777041e-03,-1.222739767111066279e-02,9.673906973619580268e-03,2.656326591968536377e-01
-3.065662258678575336e-01,-3.048657552171193941e-01,-3.337739031978648185e-03,-1.102805308287236989e-03,3.842578874786434402e-03,-1.657352219935243369e-03,3.024747371673583984e-01
-3.034330576646457889e-01,-2.062854084712769931e-01,-2.464783946329215936e-02,-5.061492462153036878e-04,2.999215367532915080e-03,1.754978155228534634e-02,2.470369935035705566e-01
-3.628599713837064589e-01,-3.837246714330559416e-01,-3.772221603827777270e-02,-1.770594450874824269e-02,2.194787120825511875e-02,-1.453796165045802107e-02,3.405194282531738281e-01
-3.273188443761862465e-01,-3.254576704581841895e-01,-1.138553078295431731e-02,2.317205701118339733e-03,-1.862078916112549891e-04,3.586928981023880048e-04,3.150331974029541016e-01
-2.983618478557600873e-01,-3.220641162903995491e-01,-1.083528325753427279e-02,-4.099625936125931083e-03,1.303402759980737402e-02,-1.178332641760243549e-02,3.017034530639648438e-01
-3.139616629865231712e-01,-3.385797256217345508e-01,-2.458627316148173647e-02,-3.371525590984950083e-02,2.986225827707990679e-02,-1.504851226483607841e-02,3.134211599826812744e-01
-3.227698470518811646e-01,-3.084433795753889207e-01,-3.094552935927541437e-02,2.850854097490763614e-03,-5.550060412566652172e-04,1.814412545366986870e-03,2.849930822849273682e-01
-3.129439726883029849e-01,-3.166669483137060648e-01,-4.862810469173028949e-03,1.045535880712911234e-03,3.372470731334254682e-03,3.013942035709830632e-04,3.100201785564422607e-01
-3.177943253834041304e-01,-3.151500278672297872e-01,-7.152614449623923010e-03,1.473893748082651155e-03,1.792268973515144656e-03,-3.587941769358449651e-03,3.094165623188018799e-01
-3.300710650207803187e-01,-3.202584563065171697e-01,-2.891085496595613424e-02,3.990772503497655964e-03,2.039864162584613481e-03,-1.645791298034040933e-04,2.964775562286376953e-01
-3.285136372939432281e-01,-3.185904070015200262e-01,-2.334998250063047287e-02,4.588617396545172263e-03,-1.782911299524550649e-03,1.473092322992039212e-03,3.004568815231323242e-01
-3.228883630852492637e-01,-3.240443159550095431e-01,-8.896507331750874714e-03,4.542188442290380165e-04,-5.056833212370152875e-03,-3.705743896915178037e-04,3.146949708461761475e-01
-2.041381177667991043e-01,-3.129153628520822128e-01,-3.890119906483721635e-02,4.192951048974646704e-03,1.818326175763846286e-03,2.564863141584595736e-03,2.391487807035446167e-01
-3.168370333604371147e-01,-3.295858795395917862e-01,-7.580965657855964768e-02,3.152517626245133955e-03,7.968684428060160852e-04,1.230370627563409820e-03,2.477212399244308472e-01
-3.273406599377032822e-01,-3.225839604453089593e-01,-1.708551973812985625e-02,3.622676432092583523e-03,-1.800134278486155036e-03,-1.043771169035042235e-03,3.079893589019775391e-01
-3.149166796933869361e-01,-3.168119337618429121e-01,-4.830853841377685809e-03,-5.116343417503723193e-04,-4.792737357452339468e-03,-1.165650063206592583e-03,3.111563622951507568e-01
-3.200425057337010215e-01,-3.280459751732659468e-01,-5.754138821452425834e-03,9.151433345674185723e-04,2.674225913036192026e-04,4.461337695834791161e-04,3.183707892894744873e-01
-3.277448282212559461e-01,-3.192381531492764490e-01,-9.711512025317642349e-03,-1.953181588161172991e-03,1.092908490822525709e-03,-5.060066830744568947e-05,3.138903975486755371e-01
-3.254524073221715663e-01,-3.219287305646219011e-01,-5.505887155273919698e-03,-2.358557862236409283e-03,-2.996316888795431954e-03,-2.337688610505111834e-03,3.182936012744903564e-01
-3.303999553612116946e-01,-3.230557334736903763e-01,-2.036196836526651954e-02,-3.570442830764176696e-03,2.207129585054789719e-03,9.648380391174417152e-05,3.065181672573089600e-01
-3.271584033082026721e-01,-3.182408257242653749e-01,-7.136260764932594869e-03,-2.079946880420708612e-03,-6.858706320542350045e-04,-1.109019417635542402e-03,3.156864643096923828e-01
-2.647473386852983168e-01,-2.697805135663676190e-01,-3.464916523001662640e-02,-3.271403510078308569e-03,1.850527873307662328e-04,1.105040901375426397e-03,2.327326834201812744e-01
-2.716339293936639310e-01,-2.658149842062740298e-01,-3.738314343694940090e-02,-4.125235328784446383e-03,-1.228857224369625393e-03,-4.115558006520174221e-04,2.315173596143722534e-01
-3.160602811841663473e-01,-3.198923088420975724e-01,-2.165243512519371416e-03,-2.285189107133175999e-03,-1.710573927960508248e-04,-3.628007996611749332e-04,3.158540427684783936e-01
-2.626866221270112156e-01,-2.682193500611511627e-01,-3.282433428743275483e-02,-4.499621532073196789e-03,-4.338118890321349488e-04,2.567653634512866764e-03,2.328521609306335449e-01
-3.144355513320201689e-01,-3.187842082534608212e-01,-4.810034320993583634e-03,-3.505886858767526216e-04,-2.890542980845431202e-03,-4.438479710217431906e-04,3.118643164634704590e-01
-3.026887488816308314e-01,-3.031902188785272623e-01,-3.322909806768026275e-04,-3.930844978859462089e-04,-2.754654366348083532e-04,-5.873694509614718531e-04,3.026103675365447998e-01
-2.729532128072048591e-01,-2.718693544585062405e-01,-3.737483813040939906e-02,-8.560452831283390726e-04,1.375537098812498955e-04,-3.392903724083119917e-04,2.350438535213470459e-01
-3.390827764883133644e-01,-3.863105820719664463e-01,-4.006670197013156853e-02,-4.110011732387661371e-04,2.741477854849037193e-02,6.277690554284135784e-03,3.288410007953643799e-01
-3.159455922870879063e-01,-3.241547809453231843e-01,-4.488392220709819247e-03,-7.163196152484049405e-04,-1.191127134912509707e-03,-3.773976768139764644e-04,3.156517148017883301e-01
-3.140229714491590829e-01,-3.141271905493187022e-01,2.812814658975676396e-03,-1.144522352758042724e-04,-5.513773401760605278e-04,-5.463878204819491583e-04,3.168908357620239258e-01
-2.461599783451616508e-01,-4.312213196398364534e-01,-6.873567204504046901e-02,7.233704602969945330e-02,5.593141431589613438e-02,2.617982262684875883e-02,3.545427024364471436e-01
-2.216575339437372727e-01,-3.281498118308892598e-01,-4.610347866022290741e-02,8.432938638602864231e-03,-1.415627532845646977e-03,-1.866314559637153887e-03,2.471533715724945068e-01
-2.175233266994393011e-01,-3.215576823923675942e-01,-2.452636728174820147e-02,5.303209184612858035e-02,4.527830622808896865e-02,2.509128718317372303e-02,2.909047901630401611e-01
-2.944307037945098071e-01,-3.138751752224711034e-01,-7.082523721010869355e-03,8.372841599800938742e-03,2.328126477975694594e-02,8.946564786380220222e-03,3.010164201259613037e-01
-3.488853858152347054e-01,-3.876499284265465528e-01,-4.267325955705383866e-02,1.676751459420088106e-03,3.519958552407095875e-02,2.871764273706912257e-02,3.366575539112091064e-01
-2.499256937946839341e-01,-3.160449433998682722e-01,-2.360618895585614441e-02,8.183989201081740689e-03,3.767186322658985786e-02,1.333186192942967425e-02,2.748599648475646973e-01
-4.009517542980104987e-01,-3.750850667432974461e-01,-5.163537128905987261e-02,8.048290284703961406e-03,-1.280577077701284400e-03,-2.244265708160051061e-03,3.374458849430084229e-01
-3.216907521777674916e-01,-3.338766542162890927e-01,-3.800800794874931166e-02,-1.332179391563895849e-03,-3.497191492285431358e-03,-1.152715176311073716e-03,2.900471091270446777e-01
-3.180621789774870090e-01,-3.310598384977809783e-01,-2.423831823729541424e-02,-2.136318227766606254e-03,1.152322251984002136e-03,2.352822116595920925e-03,3.005906045436859131e-01
-3.152402448403062163e-01,-3.263737287355782946e-01,-2.744995408744782539e-02,-4.501942414399106272e-03,1.779720892416918835e-03,-2.579991770943626875e-03,2.936691939830780029e-01
-3.262908935135412358e-01,-3.379835608285003401e-01,-3.213112167630877147e-02,-1.581545588032533755e-04,-3.418926980679391184e-04,3.488931765980129822e-03,3.002384901046752930e-01
-3.327636991153425372e-01,-3.373739620845991327e-01,-6.033571979132146268e-02,1.660826108828475541e-03,-1.370269238989433409e-03,6.209351016114359086e-03,2.749978303909301758e-01
-3.325699816020224464e-01,-3.421482402792956345e-01,-6.133144366550644100e-02,-3.794386660286490701e-03,3.217499457804035099e-04,9.385018799613769475e-03,2.767089009284973145e-01
-3.256447833986449991e-01,-3.341431905388861923e-01,-5.043323716984304816e-02,3.805608111808352328e-03,-2.446434240894861285e-03,8.582308684653153913e-03,2.800622284412384033e-01
-3.177152834777382528e-01,-3.195796765165381803e-01,-1.237316598969120940e-02,4.060673020714672052e-03,2.807943369228357335e-03,-3.424341135640231702e-03,3.064553141593933105e-01
-4.098166177157840373e-01,-3.764606671068465027e-01,-6.349291032208773111e-02,-4.573170303883110181e-03,2.478804503352852184e-02,-2.918260921655104617e-02,3.375821709632873535e-01
-3.206892879118323769e-01,-3.243909956244505621e-01,-1.897472753643150711e-02,4.235932519814469333e-04,1.101319632383937833e-02,-9.918822195486728249e-03,3.046666979789733887e-01
-3.260426727946163505e-01,-3.265947495028068692e-01,-5.535525057098647506e-02,4.036053704172566127e-03,-1.630755201140826822e-04,1.784288813197826111e-03,2.710718214511871338e-01
-3.464549828139750209e-01,-3.471401081232273755e-01,-9.439048515350606516e-02,3.705692618015820824e-03,-4.997282688005974700e-03,9.451992430559377420e-03,2.531675696372985840e-01
-3.246878130771417292e-01,-3.374701999158588595e-01,-6.351394047831987466e-02,2.325875137535426442e-03,2.389007834288202228e-04,9.996795953299072654e-03,2.683837115764617920e-01
-3.300865670092248960e-01,-3.334749635279439239e-01,-5.425217104912971600e-02,-2.077590704354096568e-03,-1.813503893026952246e-03,2.979150968869370003e-03,2.776331603527069092e-01
-3.205032079534702039e-01,-3.203555386836490215e-01,-1.102033159999268874e-02,4.371474808144883671e-03,1.611068272732005171e-03,-1.384706460060271000e-03,3.095235824584960938e-01
-3.390819564708299483e-01,-3.409147486579907627e-01,-9.067277077565585874e-02,7.186313226357985903e-03,-4.878421018122097545e-03,9.023474391569377695e-03,2.502725720405578613e-01
-3.142237056694421327e-01,-3.158302921090584414e-01,1.159429542063578067e-03,7.496198726809531971e-04,1.325248937396985563e-03,-2.548588513074152257e-05,3.162004947662353516e-01
-3.183146857548311837e-01,-3.284415352463259663e-01,-7.272569069027429167e-03,-9.180439876882343737e-04,4.350247429952617249e-04,-4.377390498955285636e-05,3.162320852279663086e-01
-3.200701898059784556e-01,-3.298326180289744003e-01,-7.566195966206362700e-03,3.175863888071616152e-04,-6.351180889517172483e-04,6.034940628595671531e-04,3.175019025802612305e-01
-3.147481140423492585e-01,-3.204949762549985093e-01,-1.522239865579491647e-02,-4.138396401463725893e-03,3.052406539223144347e-04,-1.525685819615942539e-03,3.025370240211486816e-01
-3.168049829977065412e-01,-3.301413995775290267e-01,-6.053837831729275143e-03,-2.411739876326907142e-05,3.112389029226130649e-05,8.047829226741329322e-04,3.176324665546417236e-01
-3.144531694621872653e-01,-3.260053763843888119e-01,-3.737436836561303100e-03,5.958072648573542116e-04,9.722217246159349643e-04,7.476504889194205599e-04,3.166587352752685547e-01
-3.173856838355519905e-01,-3.287954387878264662e-01,-4.826081008386329252e-03,-7.079410320146547250e-04,1.205649229704553165e-03,8.304398089451089059e-04,3.184303045272827148e-01
-3.157186548045248786e-01,-3.217908761861004718e-01,-4.475288663921522803e-03,2.250988127664974340e-04,5.827772940611598970e-04,1.595781685928977572e-03,3.143374919891357422e-01
-3.235651824918953090e-01,-3.310456328413998173e-01,-7.063235573319837091e-03,-1.626070334804924529e-03,2.741501474386563806e-03,2.470646701734885865e-03,3.203838467597961426e-01
-3.188781556365069547e-01,-3.290947004133925602e-01,-6.590483058347307299e-03,-3.480098899155434182e-04,-1.026818638179479619e-03,3.035441530985615445e-04,3.175252377986907959e-01
-3.202975913045674750e-01,-3.287799369630749480e-01,-5.545944191553381364e-03,-3.131650337263534520e-03,3.140157859530251418e-03,1.560951983469113531e-03,3.191812932491302490e-01
-3.175029891649610581e-01,-3.275361419437635702e-01,-6.228097710226365713e-03,-2.184827078194848896e-03,9.006816532478486821e-04,-8.125636090693440922e-04,3.164404034614562988e-01
-3.180169061725622859e-01,-3.247419893741776420e-01,-2.463076263387375953e-03,-1.534109082634190586e-03,1.511108269394133459e-03,6.086354274931589169e-05,3.189913630485534668e-01
-3.161013094138585000e-01,-3.159521093762006627e-01,-1.392263715255859235e-03,-2.043280266355470415e-03,-3.988552935917388971e-03,-3.651620873977860088e-03,3.147937357425689697e-01
-3.166320580182756528e-01,-3.241660017203816802e-01,-3.380983374229123983e-03,-8.019280029970371178e-04,-1.143645479435027477e-03,-2.590817341396587140e-04,3.170947134494781494e-01
-3.197458662975841692e-01,-3.162160897602016019e-01,-9.407098443356409767e-04,-1.916420782005560193e-03,2.828813849819535606e-04,-7.061732732030825965e-04,3.170751035213470459e-01
-3.141075248156880440e-01,-3.181838239688268288e-01,4.172192872040347833e-04,-7.996027047381187251e-04,-8.895905754717502211e-04,-6.100700633691262358e-04,3.165911138057708740e-01
-3.145822019039299366e-01,-3.150629452696628308e-01,2.336630647385790072e-03,-1.414892307077886399e-03,-7.646756501415648581e-04,-5.128850842329363063e-04,3.171729445457458496e-01
-3.196631913793572810e-01,-3.159650069808055961e-01,-2.719807582332589568e-05,-1.155597306609542404e-03,-2.682401095016293284e-04,-1.147775389781764124e-03,3.178158998489379883e-01
-2.492774964742112132e-01,-4.050445911682149652e-02,6.461424240264496133e-02,-9.528381064862314134e-03,-2.119852437957207153e-02,-3.168984278329873422e-02,2.849830090999603271e-01
-3.241411609999084176e-01,-3.161054213358126530e-01,-8.368740880310615582e-03,-3.023998225792330977e-03,-1.285935880534404762e-04,-1.295626687411332309e-03,3.118843436241149902e-01
-3.042175270949980526e-01,-3.032630167782928154e-01,-9.111113375025459149e-03,-2.958052450962535187e-04,2.403853418533274944e-03,-1.525480105276812073e-03,2.946720421314239502e-01
-3.076635246254842970e-01,-3.035619082168535821e-01,-9.042797972380695048e-03,-1.425661675878589583e-03,4.928727132579791698e-03,-4.253797332747720136e-03,2.968157529830932617e-01
-3.154575103328403629e-01,-3.153594377338814203e-01,1.924848590516198277e-03,-1.115471044873080823e-04,-2.781961915394186413e-05,5.316063530802332264e-09,3.173334002494812012e-01
-3.051650348955708414e-01,-3.069325231455212188e-01,2.406598713191931971e-03,-8.308109916607019823e-04,2.167475519369544204e-03,-1.437882357195789792e-03,3.084954321384429932e-01
-3.132831279432685689e-01,-3.129875296191242384e-01,-8.718016916045817633e-03,5.183411166467134096e-04,5.165451575244485449e-03,-4.897065329779740767e-03,3.046682775020599365e-01
-3.058914703827364523e-01,-3.077332295765818904e-01,1.581447532358504215e-03,-4.531320413654320463e-04,2.328378435880733722e-03,-2.291202331390932486e-03,3.084508180618286133e-01
-3.206297225226117376e-01,-3.167114477360492009e-01,-3.623166006571171271e-03,-1.569298108430341966e-03,-2.633652315841328567e-03,-3.383402722601295404e-03,3.151649236679077148e-01
-3.250613674670300712e-01,-3.190346428306073956e-01,-4.058850842879879739e-03,-9.610639526259235222e-04,-6.233045409701181826e-04,-8.983577945314487898e-04,3.180419802665710449e-01
-3.201327944515297008e-01,-3.162188306744420085e-01,-2.761029226339362097e-03,-1.569637466487002050e-03,-5.689033717541268831e-04,-6.150418007433756679e-04,3.154480457305908203e-01
-3.151077486767284164e-01,-3.149677730984911106e-01,4.071287143181945289e-04,-2.057306630480977387e-03,3.551794637543067076e-05,-2.317571332837210795e-04,3.154653012752532959e-01
-3.148233552441054295e-01,-3.140226311259448622e-01,-1.333653483029689779e-03,-6.558102142115095849e-04,-2.547604460726200868e-03,-3.351415604495098892e-03,3.131770491600036621e-01
-3.218658696840116518e-01,-3.167529369634344283e-01,-1.647680088487174510e-03,-1.449119431066274053e-03,3.213728206529855073e-04,-1.534457754175050240e-03,3.177140951156616211e-01
-2.199897891646841741e-01,-2.689336596197804408e-01,1.052005932630709073e-02,-2.351757614771049151e-02,-2.246443177609994471e-02,9.000306803635647196e-03,2.650066614151000977e-01
-3.260995723677551084e-01,-2.722124373472974979e-01,-2.687425885004576798e-02,-3.637068111264019771e-02,-3.292224921902773410e-02,3.541729606205009512e-02,2.954631447792053223e-01
-2.765327443204498303e-01,-3.060396601268805528e-01,-1.581749937558168950e-02,-5.543855405691936085e-03,-8.530531951359353326e-03,1.096294578742818167e-02,2.778615951538085938e-01
-2.977582150581821741e-01,-2.803968076555677924e-01,-1.859944298893917436e-02,-7.407077839805498339e-03,-7.542720785785910452e-03,6.348651641375252681e-03,2.717363238334655762e-01
-2.281467267266512333e-01,-2.748337468429818964e-01,-1.424298750074104447e-02,-1.060968581322136589e-02,-6.595225893926512373e-03,1.108882586513999791e-02,2.424006760120391846e-01
-2.532992246642642997e-01,-2.820419776224743491e-01,-2.247770694664122382e-02,-4.805942918030255660e-03,-5.952442765718835190e-03,8.740449252540621189e-03,2.472729980945587158e-01
-2.502616019876292563e-01,-2.746657500229680582e-01,-1.889010689563419554e-02,-6.454992758240600190e-03,-6.166591805034093987e-03,1.017643326741800303e-02,2.456104904413223267e-01
-3.161678329710370106e-01,-3.292336056551680712e-01,-1.041392399149873582e-02,7.629073025028634217e-04,-5.074630046929455118e-05,-1.615910959411462301e-03,3.125070631504058838e-01
-2.413875185334099227e-01,-2.583816698960245128e-01,-1.464121332735884851e-02,-8.469359067021833484e-03,-3.882801350959503173e-03,6.946992228718145042e-03,2.365612983703613281e-01
-2.708786512782950795e-01,-2.815092681737033087e-01,-1.211169386840293960e-02,-4.325735300688381135e-03,-4.436329230973425422e-03,8.776275998839535436e-03,2.648970484733581543e-01
-3.968731339575309325e-01,-3.490106992433205102e-01,-3.875343550454157793e-02,-1.362271340957280259e-02,7.411844244355332741e-03,-5.316164118902715757e-02,3.501429259777069092e-01
-2.829715034201353285e-01,-1.983144720149497831e-01,1.008657653407660226e-02,-3.881961355795421516e-03,4.927676217317276779e-03,-3.713168944215089473e-02,2.692485153675079346e-01
-2.276557420316098479e-01,-2.987666340527026509e-01,-3.878173596537309864e-02,7.473892690167321939e-03,1.106325007599411351e-03,3.860580994524702349e-03,2.331890016794204712e-01
-3.189044174621693539e-01,-2.847073508896040273e-01,-1.634679144482042989e-02,-1.243051852531575291e-03,4.859478858642874441e-04,-1.466106522073078872e-02,2.881217896938323975e-01
-3.520475026328979684e-01,-2.722867840134656769e-01,-1.761678708215619338e-02,-2.178080382964192249e-02,1.253403878718159156e-02,-3.577233667759616847e-02,3.118729591369628906e-01
-3.451320763644598610e-01,-3.156385810101558498e-01,-1.895277156451966039e-02,5.247548698748326010e-03,5.419604289969754546e-03,-1.472855057092724122e-02,3.137899935245513916e-01
-3.366824139049702791e-01,-3.314680808265406675e-01,-6.416816261688124134e-02,-5.569700437646334448e-03,2.709071991726263139e-03,7.616233539022583543e-03,2.704797983169555664e-01
-3.616467634214094451e-01,-3.814216735991172724e-01,-6.697384451911325698e-02,-1.142346467269567296e-02,-7.653219118548846255e-03,-1.062466176988681454e-02,3.065226972103118896e-01
-3.144091845862931334e-01,-3.207190851106230811e-01,-1.601155200747392260e-02,2.621321536795592159e-03,-1.697915781493033321e-02,-1.820265053260652910e-02,3.047020137310028076e-01
-3.320681275573929003e-01,-3.360243726735906433e-01,-5.209521884710763273e-02,-5.912126849168714698e-03,3.026694874335189231e-03,4.809006511572988182e-03,2.823293209075927734e-01
-3.147031490894569572e-01,-3.141091540389188697e-01,1.546050865885328918e-03,4.689652430515851584e-04,-3.127254569330488237e-04,8.291222562388033497e-04,3.159573972225189209e-01
-3.124805424423892641e-01,-3.202061372342289713e-01,-3.270984974582197280e-03,8.209297063724513895e-04,1.057619967820500701e-03,-1.908207258978555053e-03,3.131698668003082275e-01
-2.747763209247837679e-01,-2.770831522951982540e-01,-2.183265001440506947e-02,-1.495537423511541500e-03,-4.038570943797601710e-03,1.330014477622156041e-03,2.542248368263244629e-01
-3.171278000941971653e-01,-3.281507661222657912e-01,-5.820416601478695107e-03,1.435085324662144614e-03,1.049189285592856940e-03,-9.085519916040054591e-04,3.169815242290496826e-01
-3.150246126846397710e-01,-3.245806239530212856e-01,-4.373558790593340406e-03,1.237243709379673776e-03,7.601071030246040307e-04,-2.474163604970316038e-05,3.155476450920104980e-01
-3.170744608128060471e-01,-3.188008924845155412e-01,4.859618808298327153e-04,3.423744924040650578e-04,-8.246735750161472700e-04,6.693737040129108104e-04,3.184330165386199951e-01
-3.111973237772528433e-01,-3.130575198637237655e-01,3.027415417921286434e-03,2.256290229093626165e-04,-1.181566561093073476e-03,2.609285024027113448e-04,3.151661753654479980e-01
-3.158643389094252241e-01,-3.268462093766518195e-01,-5.267306937795840360e-03,1.266574109690539983e-04,-2.588459176372221284e-04,1.622364949735707125e-04,3.162315189838409424e-01
-3.255889611601650580e-01,-3.135459723768234119e-01,-5.844165609363238811e-03,-1.385467854145515203e-03,8.033348751189296364e-04,7.077374196435421956e-04,3.139112591743469238e-01
-3.241567812710016705e-01,-3.158134613194745199e-01,-5.981552118522276418e-03,-9.331417668193810666e-04,1.878856293949683479e-04,1.119925396832359421e-03,3.140970170497894287e-01
-3.228982351787676452e-01,-3.157204041557480911e-01,-6.142349594926987955e-03,-1.216012995172010430e-04,1.393544714569983729e-03,1.391249135292298199e-03,3.132472932338714600e-01
-3.275502731659740152e-01,-3.172329988800681733e-01,-4.888113878861982675e-03,-7.447036947500869841e-04,8.257276033480257871e-04,5.297391458259938495e-04,3.176363706588745117e-01
-2.943847034196168666e-01,-2.966217337172085688e-01,-1.101461780847229344e-02,2.426076585494841946e-03,-5.813331295452901434e-03,-5.199504871679470550e-03,2.848467230796813965e-01
-3.080496872381252027e-01,-3.044127739349621331e-01,-1.099289820958199160e-02,-1.243429888933724316e-04,-4.162382220827779734e-03,-4.055456129755812683e-03,2.954267263412475586e-01
-3.184967716873688959e-01,-3.196021469383943936e-01,-8.005417957459959322e-03,3.055400805384144141e-03,-5.872520947017724653e-03,4.413028928846454875e-03,3.113506138324737549e-01
-2.890792920935818522e-01,-2.909430882474250968e-01,-2.414472794021985114e-02,2.373724839977586092e-04,-1.161721025598313074e-03,-3.496249260283776188e-03,2.659482359886169434e-01
-3.132496205623230834e-01,-3.205026476205136143e-01,-2.506765210409545031e-03,-4.325819985384275865e-04,2.398446675200816090e-03,2.650072199238973254e-03,3.144939541816711426e-01
-2.993258979365321926e-01,-2.990886115221366159e-01,-7.123376585211671497e-03,7.447805933635486247e-04,-3.486164281758765554e-03,-4.000809255055234014e-03,2.922313809394836426e-01
-2.958104250347215469e-01,-2.987442204066387275e-01,-1.495515676769407221e-02,-8.437005263296329426e-04,-1.762632750670767821e-03,-4.725425686303540151e-03,2.824724912643432617e-01
-3.161846374400727466e-01,-3.151223557750538751e-01,1.697730193207569460e-03,2.729331390965857550e-04,-1.024053713140996622e-05,3.224653345388588241e-04,3.173533976078033447e-01
-3.193769163340020589e-01,-3.250162212283352337e-01,-1.554643083948009652e-03,5.311216231438380293e-04,-6.863987739134699406e-04,1.873943137534898060e-03,3.206990659236907959e-01
-3.162469706203838715e-01,-3.166189820500047714e-01,4.258173399552256377e-04,7.415514702141421614e-04,-1.095499044016007631e-03,3.040900489959310346e-04,3.168676793575286865e-01
-3.168702231355472465e-01,-3.165458099980819062e-01,2.793718403916733983e-04,6.768986263574340145e-04,-1.030995177249138806e-03,2.602571302287203436e-04,3.169950246810913086e-01
-3.169762871704335794e-01,-3.163997438807885088e-01,7.492611464250120701e-04,2.797364698341841310e-05,-1.894426869052938823e-04,-9.076112101552999183e-09,3.174378573894500732e-01
-3.143379957171619221e-01,-3.136863534079832871e-01,3.048676381813303360e-03,5.266864016125198840e-04,-4.789637181700309872e-04,8.624477004789908564e-05,3.170637786388397217e-01
-3.159791081615376251e-01,-3.161347342936347005e-01,3.543556664548641599e-04,6.254706993896638452e-04,-1.216851610081700783e-03,4.171075576861804960e-04,3.164210021495819092e-01
-2.340261603028979120e-01,-2.693454253891464090e-01,-3.437960641383847049e-02,-2.782366118278325334e-02,4.473224232840810471e-03,2.360333251771469174e-03,2.248483449220657349e-01
-3.205348494090587419e-01,-3.210847207690392668e-01,-2.558012914288226858e-03,4.662106304299638501e-03,-1.710245415181160496e-03,1.497851063826740464e-03,3.183788955211639404e-01
-2.788643896316329585e-01,-2.261485293259235807e-01,-1.236862797627125143e-02,-7.786367833855158301e-03,-1.060256777949995961e-02,1.050665678713970722e-02,2.461720854043960571e-01
-3.146481125662595191e-01,-3.155969251993337443e-01,-3.200117651931955187e-04,2.109930211151179861e-04,-8.950789293981131550e-04,2.081691111219172857e-03,3.148282468318939209e-01
-2.910165206910261260e-01,-2.967920019720436953e-01,-2.014731522346910331e-02,7.601494161425709261e-04,-5.604197355294732869e-03,-5.803452931848900737e-03,2.741621434688568115e-01
-3.358746951822895177e-01,-3.356178341101915263e-01,-1.114216295677758206e-01,-2.722837852558328275e-03,-3.561602638979905963e-04,4.256470370414219850e-04,2.243763804435729980e-01
-2.870654171673119870e-01,-2.868937756796839933e-01,-3.720618886344978504e-02,5.994025316484558226e-03,-5.014578033791143065e-03,-5.469055964238339791e-03,2.503192722797393799e-01
-2.772822059517701665e-01,-2.813943209510225141e-01,-2.573582595573101206e-02,1.530511118263665812e-03,-1.325585952549119661e-03,-4.774582947001617186e-03,2.537864744663238525e-01
-2.802038110095954049e-01,-2.820031756864169181e-01,-3.743112062404987950e-02,7.380242374806047275e-04,-1.075210566724286261e-03,-3.224840028844704921e-03,2.437518239021301270e-01
-3.205915489010950914e-01,-2.119290138408607138e-01,-2.642673260596856144e-02,-4.565473098852817005e-03,-7.350559413353489457e-04,1.606663063312264300e-02,2.592573165893554688e-01
-3.204747077394044519e-01,-3.154891246425392537e-01,-1.760664723316762714e-04,-6.544582734705846252e-04,3.238729991096137321e-04,1.447702530754265554e-03,3.178475797176361084e-01
-3.142156334176956500e-01,-3.145041567498486623e-01,2.132892295303279173e-03,-1.647314370585491747e-03,-7.437554832997654661e-04,-6.740041748961743320e-04,3.165105283260345459e-01
-3.157303305304677843e-01,-3.198515654526324914e-01,-1.119528920208140432e-03,-2.516966871153350233e-03,-2.757304870446032879e-03,-1.836570862218146532e-03,3.167735040187835693e-01
-3.165069239491914987e-01,-3.295268724677331562e-01,-7.093482257425565152e-03,-2.146045808282631110e-04,-8.770658987430516662e-05,-4.274534942508604555e-04,3.161256909370422363e-01
-3.253646994149872462e-01,-3.234871596350870626e-01,-9.353758971177211778e-03,-1.297380192892799060e-03,5.983396528285488472e-04,1.993291256705503976e-03,3.151049911975860596e-01
-3.179891522226314104e-01,-3.244650101773322581e-01,-3.176989936724800012e-03,-1.958172757329524390e-03,-3.045734036162399492e-03,-1.184786249184192333e-03,3.181679844856262207e-01
-3.281724121895815971e-01,-3.286547035625059787e-01,-1.225924347395537795e-02,-1.393614348607565825e-03,-3.539027042846148270e-05,-8.341183157571990456e-04,3.161671161651611328e-01
-2.894968906854012980e-01,-2.866439149443387735e-01,-9.252238563328851750e-03,7.477630830593229045e-04,1.382964208714908402e-03,4.725456486884768888e-03,2.789624929428100586e-01
-1.982057837967295399e-01,-2.690214983891094924e-01,-2.484034525260672699e-02,5.027457333415293744e-02,9.693764595232936404e-03,4.766405893278339787e-03,2.351171970367431641e-01
-3.249482888474135578e-01,-3.156488963085380406e-01,-2.608837713255041102e-03,-1.056650676002453141e-03,-5.514678391503625163e-04,1.661273218202462395e-03,3.178115487098693848e-01
-3.150718653076084452e-01,-3.185949660583417553e-01,6.849923782443478881e-04,-1.682851967703164527e-03,-7.906005485754262138e-04,-1.102471800569355866e-03,3.175551295280456543e-01
-2.758756506396892738e-01,-3.012842841369552938e-01,-2.980707954506342516e-02,3.217056122200306553e-03,2.394669491575989427e-03,7.035927473511585824e-03,2.600853145122528076e-01
-2.972229743972699123e-01,-3.283996989231777741e-01,-1.804690960169114122e-02,-8.497968542862463373e-04,5.062229611126106872e-04,-6.209202229172458391e-03,2.961986660957336426e-01
-3.250505405229008327e-01,-3.184864155761034099e-01,-4.767546910941639071e-03,-4.198340912409656350e-04,-3.053525770969686172e-03,1.229913903040214234e-03,3.171040117740631104e-01
-3.283596737924744380e-01,-3.175627180337498023e-01,-6.411564096057476014e-03,9.508588036327769244e-04,-1.953378974048261400e-04,2.204695455185181219e-03,3.167151808738708496e-01
-3.198218060253870676e-01,-3.146328411234729505e-01,-4.901819523193684525e-03,-6.589576466881310506e-04,6.803515817891751501e-04,4.249829607398331391e-03,3.124488592147827148e-01
-3.259408656718924546e-01,-3.141900759706130475e-01,-4.061949751762661265e-03,6.938121793583726946e-04,-1.676052236764262850e-03,3.251885909299704475e-04,3.161834478378295898e-01
-3.217939376196070622e-01,-3.154283548993605524e-01,-2.862958556130973387e-03,3.752296058031297558e-04,-3.517020628591847886e-03,8.664793748889910215e-04,3.158592879772186279e-01
-3.171575278417052557e-01,-3.215583416419557361e-01,-2.810291466329273291e-03,8.863421639245719743e-04,-3.052825995676046282e-03,1.274104466536917467e-03,3.166261613368988037e-01
-3.159198511142535248e-01,-3.209186432589281601e-01,-2.585285663991604421e-03,8.443034463712393656e-04,-2.562929679169855587e-03,1.352200501985797781e-03,3.159068822860717773e-01
-3.178677014693890857e-01,-3.240985048019865422e-01,-4.016228158320200858e-03,1.534308759657448343e-03,-1.261892187603090316e-03,-4.254502293967231077e-05,3.170314729213714600e-01
-3.188362089484212958e-01,-3.158774215169241062e-01,-6.146445086650381695e-03,-6.037622836372977687e-04,1.257641751385086409e-03,4.364680172956871169e-03,3.113220930099487305e-01
-3.177341203217616261e-01,-3.146593121365996448e-01,-4.348053013730812655e-03,-5.725863697131620316e-04,1.474669037904013111e-03,4.860761652340262438e-03,3.119856715202331543e-01
-3.171062800257959946e-01,-3.297313946508237947e-01,-8.212659523666121508e-03,-4.563726734508682329e-04,2.135132315732221869e-04,1.275805137663258641e-04,3.153970241546630859e-01
-2.966797679939942034e-01,-3.157402860003232226e-01,-1.553385238401755464e-02,7.866571714578784265e-05,2.365233067266840974e-03,5.510408913794309811e-03,2.913297414779663086e-01
-3.163629476711933286e-01,-3.199797605130032530e-01,-1.426512096305732058e-03,1.895143376319270842e-03,-1.002579276751007714e-03,4.024570144104772595e-04,3.167828619480133057e-01
-2.864807491051675203e-01,-2.808521605189769343e-01,-4.547904476421649189e-02,7.089737229859000359e-03,1.939214552709643763e-03,1.518375651893711948e-03,2.385916858911514282e-01
-2.745953612270404243e-01,-2.757011089616504540e-01,-4.045346411680636467e-02,1.224837337526261602e-03,1.030653248099411973e-03,4.175761135526203516e-05,2.347131073474884033e-01
-2.803787076301819114e-01,-2.752827073549226067e-01,-3.369776771247187663e-02,7.662190323547559551e-03,3.010341676667067142e-03,3.173502630061164186e-03,2.446505576372146606e-01
-2.575516404216566801e-01,-2.629711991332867593e-01,-2.894589326169341725e-02,7.101013297200984946e-03,1.069343869074566161e-03,2.011553686340904375e-03,2.317234277725219727e-01
-3.263516785887514149e-01,-3.198696908343799383e-01,-5.072025649857453411e-03,8.812679378764924285e-04,3.086778622158444212e-03,-7.624165308205816359e-04,3.181395232677459717e-01
-3.198313669074460686e-01,-3.129878805199474701e-01,-1.212641431793087810e-03,8.377835589546623251e-04,3.300802723715118465e-03,-1.478272632115576555e-03,3.153182566165924072e-01
-2.906929168675252417e-01,-3.009496825585184498e-01,2.266909307355791103e-03,4.243130010174926778e-04,7.007526303554278968e-03,-2.378190335440860930e-03,2.984967529773712158e-01
-3.067578392208483162e-01,-3.776609685831656682e-01,-3.167689294521597310e-02,7.777186176668976492e-03,-3.938934620144114024e-02,3.391803609065950111e-03,3.241471946239471436e-01
-3.180077545301036590e-01,-3.177334673385633357e-01,-8.846084538563336874e-03,2.963994793849965216e-04,-4.423815909168609534e-03,-2.030607487256071673e-03,3.091400265693664551e-01
-3.200768698320673455e-01,-3.158072202102633619e-01,-3.687700207346905623e-03,-2.233799156130803452e-03,-2.705697382396908372e-03,-2.413489867821945814e-03,3.143626451492309570e-01
-2.962760478465614744e-01,-3.295982811120795053e-01,-1.216602781625328311e-02,7.510122652235797641e-03,-3.237699814912251700e-02,-8.252215554334137865e-03,3.079194128513336182e-01
-5.844751458096106855e-01,-4.768338851822248037e-01,-1.570438384787383457e-01,4.822679053848559147e-03,-5.774214454166025703e-03,5.559759691938062631e-02,3.971372544765472412e-01
-2.576272914466791186e-01,-3.038089648579797020e-01,-1.299299598463354855e-02,1.190649244560481001e-04,-1.144506332850441996e-02,3.010018847063200120e-03,2.714709937572479248e-01
-2.919302329611015434e-01,-3.015236984668934750e-01,3.928831880464472848e-03,-4.339224473486681427e-04,-6.599958413300337050e-03,1.309530761382434252e-03,3.009972274303436279e-01
-3.063702609664696874e-01,-3.353942761081847301e-01,-2.090835467406437775e-02,-2.417424907332035508e-03,8.919952096418167376e-04,4.430873630293186236e-04,3.010592162609100342e-01
-3.163130306667096270e-01,-3.156208758714969531e-01,2.135497657833329566e-03,-8.984970566071734301e-04,1.366219093293406968e-03,3.069093509862008901e-04,3.181160688400268555e-01
-2.530521425346408115e-01,-2.962987863859209425e-01,-1.004026786801023863e-02,-8.399358621322074083e-04,-1.041792289903007915e-02,1.341705573315594329e-03,2.678947746753692627e-01
-3.159626742299391777e-01,-3.157302343881296935e-01,-5.883591651471786754e-03,1.037623028548067443e-03,3.267657789699713374e-03,-4.072801374127754843e-03,3.101000487804412842e-01
-3.082125887379090212e-01,-3.063686644920990410e-01,7.646263303383304955e-04,-1.873748753050762756e-04,3.741357360752324123e-03,-2.439363457801052657e-03,3.081566691398620605e-01
-3.189094355790701441e-01,-3.187929229912402906e-01,-5.999756174875553461e-03,3.208035037771823569e-03,-8.400517583774384008e-04,-4.910541586997399727e-04,3.129053115844726562e-01
-3.095721587895949867e-01,-3.091286215583863850e-01,-3.604014798182147983e-03,2.410234388875527080e-03,4.240015715436341003e-03,-9.405076790492850492e-04,3.058676421642303467e-01
-3.093855425626790279e-01,-3.073440047682945986e-01,-6.127445082945520705e-03,-1.989257496500504256e-03,4.292691034286562693e-03,-5.155884329097368615e-03,3.024854362010955811e-01
-3.136151900296565431e-01,-3.154779122854771134e-01,-1.994912026292566809e-03,5.791783652084500330e-04,3.808275338010945477e-03,-2.499437613532577360e-03,3.126569688320159912e-01
-3.211381523295117058e-01,-3.234163253949314254e-01,-1.654558884094770033e-03,-1.738182031822546993e-03,1.433821309185590812e-03,-6.715648050834463130e-06,3.206525146961212158e-01
-3.218279491872229614e-01,-3.207564401465587411e-01,-2.524233367159789410e-03,-2.511666536915467020e-03,1.564726219508124575e-03,1.417772026293669151e-03,3.188199698925018311e-01
-3.202091231174843400e-01,-3.323826145152089517e-01,-7.339460241779643956e-03,9.789284032438742757e-04,-8.291099189081959199e-05,-9.673742486680917720e-04,3.191395401954650879e-01
-2.947315181945590057e-01,-2.609675409243962241e-01,-4.018080756350986271e-02,5.231230073331569023e-03,-3.383199987482694501e-03,-9.075044793945955847e-04,2.397088557481765747e-01
-2.803043116854007089e-01,-2.822208380468604894e-01,-4.558385019203806121e-02,6.647851474685322927e-03,-1.640258390036809181e-03,-1.031303151480860965e-03,2.359895408153533936e-01
-2.665265128586077337e-01,-2.611364635157338299e-01,-3.418543923125536010e-02,3.965175118373001108e-03,1.862798521984232621e-04,-2.325312297251643065e-04,2.297967225313186646e-01
-2.680216063007843097e-01,-2.755185070222423427e-01,-2.832156157436230282e-02,4.447652309193139697e-03,-3.397262676354900757e-03,-5.500900710407105078e-03,2.439140677452087402e-01
-2.721201113142540096e-01,-2.725237118865321828e-01,-3.180588049460769673e-02,6.941953835386189750e-03,-2.766800973961864533e-03,-4.111002262748972638e-03,2.409695386886596680e-01
-3.160754824988837863e-01,-3.249596400174347144e-01,-3.344854011570003172e-03,-6.990698966247804692e-04,1.259050484773219236e-03,8.708526068531649718e-05,3.172758519649505615e-01
-3.151160268981219592e-01,-3.199663310681042372e-01,2.021391688649953888e-04,-8.288924513210179030e-04,1.671045108955356582e-03,-5.256568693837899986e-04,3.177888095378875732e-01
-2.653689444517673968e-01,-2.593595142009482712e-01,-3.104317109835025290e-02,4.964857174435249702e-03,-1.894340910573588102e-03,-9.287907461493602641e-04,2.315681725740432739e-01
-3.335467447462518997e-01,-3.242316317626438016e-01,-8.223088004905620974e-03,1.285362837930281168e-04,1.523741521352133454e-03,-7.838819025443545183e-04,3.207813799381256104e-01
-3.249876911596662477e-01,-3.168421285475900295e-01,-6.015567389787646047e-03,2.003178691658761071e-03,-2.037458950691113527e-04,-3.531068054660452108e-04,3.149982392787933350e-01
-3.114797592837377227e-01,-2.999501303476490022e-01,-2.102926734429863553e-02,7.774721580169355545e-04,9.873767341542773537e-03,9.785552142539655739e-04,2.853818535804748535e-01
-3.317916825670427783e-01,-3.186364212458718814e-01,-9.178557518770780188e-03,-1.150524450862471372e-04,2.763719309205007340e-05,1.301510819445106685e-03,3.162488639354705811e-01
-3.266649870286475466e-01,-3.172380599369841736e-01,-4.637833049666695295e-03,1.145879334440410950e-03,-2.054493692058937131e-04,-6.266786231979627232e-04,3.174269497394561768e-01
-3.156336403938002078e-01,-3.180328974627918415e-01,-3.457015121313466999e-03,-2.470910489709018769e-03,5.776064844211849540e-04,2.346791559976865640e-04,3.134142160415649414e-01
-3.298519431285273917e-01,-3.004191516272674001e-01,-1.706665230330095540e-02,3.517638175981608641e-03,5.275696756661634249e-03,3.799689552162714289e-04,2.993590533733367920e-01
-3.282443517988909432e-01,-3.153935778939435663e-01,-8.767862725530456425e-03,1.669291754064022859e-03,-1.902196585532270768e-03,6.942598346121791946e-05,3.132795393466949463e-01
-3.139798765943802028e-01,-3.150297306811138398e-01,2.914508903071322266e-03,-8.654358564931904007e-04,1.031131188372299765e-03,8.208135645982221954e-05,3.174292147159576416e-01
-3.152049308410583839e-01,-3.202711791075125713e-01,-1.260581230737772840e-03,-1.315613974028011224e-03,3.214392712446017923e-03,1.578941581349419714e-03,3.165768682956695557e-01
-3.154070662334234609e-01,-3.200529604037140041e-01,-1.363161781187172128e-03,-2.113700126100441761e-03,3.391081721237961932e-03,2.886163596519089949e-03,3.165076076984405518e-01
-3.126144810517142991e-01,-3.143197943395545368e-01,-1.078597275508158537e-03,-2.679567050350599227e-05,2.960082888892709603e-03,1.356963520370362995e-03,3.124429583549499512e-01
-3.154725635560547414e-01,-3.246603031408520912e-01,-1.690292713155100435e-03,1.097449785138689864e-03,1.720993025704439100e-03,6.611070546634115717e-04,3.184972405433654785e-01
-3.151400825255270544e-01,-3.153021446571870334e-01,-1.785749598174818376e-03,-7.287888584053183599e-04,2.801552598365614991e-03,1.057735945390493506e-03,3.134808540344238281e-01
-3.156798525717932069e-01,-3.202710088261660482e-01,-1.455470509560963244e-03,-1.463075582149586879e-03,1.830875527130091350e-03,6.702136447361723435e-04,3.165730834007263184e-01
-1.860056100233502541e-01,-3.237344440686708014e-01,-7.074886190261975294e-03,6.943711110399693187e-02,3.598387352498567254e-02,1.415066628622259695e-02,3.075371980667114258e-01
-3.243765214464170987e-01,-3.310461836953640935e-01,-2.756116288492344024e-02,6.340608529628222537e-03,1.433310473228905637e-03,2.387250665502342085e-03,3.004452884197235107e-01
-3.324718702405511372e-01,-3.357301611704268662e-01,-5.399618335618913689e-02,3.963976781547169127e-03,-1.926223093049071180e-03,6.281616862384726413e-03,2.804341614246368408e-01
-3.194495233115462463e-01,-3.190847754765636091e-01,1.216457758432210046e-03,-9.283459250910478357e-04,4.352379461784915073e-04,2.595437979033036959e-04,3.204889893531799316e-01
-3.170221465700142627e-01,-3.240158575243016204e-01,-6.243639175642246020e-03,2.218878841725363971e-03,2.792612521233119147e-04,-8.624364270878881206e-04,3.143611252307891846e-01
-3.209931160944837769e-01,-3.308144014818950041e-01,-1.306473690884135674e-02,3.589008434952007439e-03,8.284751002735737989e-04,-1.472436780250888783e-03,3.130300343036651611e-01
-1.478098429410407144e-01,-3.190738837263252248e-01,2.714651780565818795e-03,8.050102030472090775e-02,3.670803462350642754e-02,1.249796316650962462e-02,3.189368546009063721e-01
-3.122499598674618460e-01,-3.136159320263042227e-01,-4.978195089740178325e-03,-6.285187608492883056e-04,-8.922087545156428016e-04,-3.701268952836155669e-05,3.079628348350524902e-01
-3.153232384911098807e-01,-3.132328727277392533e-01,1.801807494364371376e-03,-4.331841811732886974e-04,4.644673393537561250e-04,1.218983094910491231e-03,3.160940110683441162e-01
-3.157847481577522597e-01,-3.151712448040420167e-01,3.230840981019500457e-03,1.510431537240333446e-08,2.745175982872646750e-04,4.963114542288340423e-05,3.187096416950225830e-01
-3.157924407841742331e-01,-3.144608438975465825e-01,-1.221234573717533411e-04,1.659320829290531147e-03,-6.056853047701492342e-04,4.712160639319020318e-04,3.150225579738616943e-01
-3.009469396759816839e-01,-3.004369154871344705e-01,-6.826747157136742183e-03,-1.312964126474914757e-03,-3.791600760948353379e-03,1.894508330625549984e-03,2.939659953117370605e-01
-3.005998239424977347e-01,-3.006249109857724311e-01,-6.639620842759486052e-03,-8.156381063627031903e-04,-2.298272494047574194e-03,4.908071676898721064e-03,2.941259741783142090e-01
-3.050143576032653403e-01,-3.017437282212530603e-01,3.625445760314094379e-04,1.087981913254508343e-05,-8.666422191501117278e-04,2.881883829791779140e-03,3.037995100021362305e-01
-3.155946225568860841e-01,-3.165894089895143759e-01,1.291203301293591954e-03,2.891851291189965448e-04,-4.998557851181818432e-04,4.090716890243862127e-04,3.173867464065551758e-01
-2.010912096977112151e-01,-3.080088096395157127e-01,-3.415883236612229923e-02,2.737853003443689939e-03,9.700104814705554730e-04,1.430736915531574324e-03,2.391176521778106689e-01
-1.596082766085183402e-01,-2.873845594284110128e-01,2.539361213925808713e-02,1.226121573204034393e-01,1.874851480990617422e-02,-1.510293128269258288e-02,3.478956222534179688e-01
-2.989381920080279031e-01,-3.014926985862741438e-01,-8.391988335834099644e-04,-1.491494834563824353e-04,-3.144911359387552938e-03,4.427892308559783739e-03,2.995322942733764648e-01
-3.205466329028980876e-01,-3.166129127017968670e-01,-2.739093779308920951e-03,1.666180511208303515e-03,1.885423728530906992e-04,9.456387988498569800e-04,3.158766627311706543e-01
-4.919873882747906602e-01,-5.947777623838806926e-01,-1.735088078116141519e-01,-5.130370857014270730e-02,-1.000111089357864913e-01,6.045340717196167474e-02,4.399974048137664795e-01
-3.243157822734223372e-01,-3.259132433454261513e-01,-4.880736508707045340e-03,-3.840635571438429357e-03,2.603635082577231922e-03,5.404139873500738833e-04,3.203389644622802734e-01
-3.116008223226591767e-01,-3.124133137085051692e-01,4.334023467885417258e-04,-1.028198075248213094e-04,-1.326276167767018741e-03,1.692856410434147134e-03,3.124635219573974609e-01
-3.188458822323873010e-01,-3.195634719180410199e-01,-3.592680539101084092e-03,1.003836582851338295e-03,-3.786194810949545034e-03,3.580317883589658433e-03,3.157464265823364258e-01
-3.161599885250747644e-01,-3.167326953688127111e-01,7.408238260446231571e-04,1.063191362468682462e-03,-5.747828798524485215e-04,7.637857619372389760e-05,3.171944916248321533e-01
-3.117347230197053953e-01,-3.259319646730431952e-01,-9.594888261573647492e-03,1.894261448805036486e-03,6.506276235650317258e-04,-3.032083456907121817e-04,3.095026612281799316e-01
-3.147345168694408168e-01,-3.143543935448165350e-01,-1.001133373021462214e-03,4.918544202712060850e-04,-1.580259614760595385e-03,1.203225258720089447e-03,3.135635256767272949e-01
-3.231263597312669655e-01,-3.185304262558041888e-01,-5.106914401172446549e-03,2.662422300901812373e-03,-8.516688245569046124e-04,1.562173586960510611e-03,3.157952725887298584e-01
-2.956955000525720578e-01,-2.954286943458121484e-01,-1.827309481459662988e-02,-6.223758074105956856e-03,-9.108609807209403636e-03,8.668932449255522393e-03,2.783519327640533447e-01
-3.088894410120049949e-01,-3.092847868772524711e-01,-4.182501584503284242e-03,-6.691810576928619103e-04,-8.928108499593349684e-04,2.746127181415850341e-03,3.049480319023132324e-01
-3.122457828230428833e-01,-3.135316441980292579e-01,-6.081711825597080345e-04,-5.798533617881563651e-04,-2.117538801840236542e-03,3.403217779495224492e-03,3.123612999916076660e-01
-3.258422692404313037e-01,-3.270417376708018575e-01,-5.825068460094928735e-02,-4.895206590959928598e-03,-4.792466310826716362e-03,1.140516644511155574e-04,2.684557437896728516e-01
-3.197369431283699770e-01,-3.165635286800232984e-01,-1.955840785983209429e-04,1.202706941365399478e-03,-2.770062423070488258e-04,1.223745200346940901e-03,3.179807662963867188e-01
-3.289303670019759207e-01,-3.165198115637398724e-01,-7.438253321499554982e-03,1.399440549428605915e-04,-3.103918394158274594e-04,3.114582930661437526e-04,3.154709935188293457e-01
-5.034901408725107608e-01,-5.576065598802829593e-01,-1.433268519025583942e-01,-4.928990969796254867e-02,1.064903156524545243e-04,2.350517199561184475e-02,4.013513624668121338e-01
-3.157115502150832365e-01,-3.156295337366099574e-01,5.943785940502044340e-04,5.977686021738038086e-04,-3.628823253797236795e-04,1.248143023706997255e-03,3.162746429443359375e-01
-3.166059159716920757e-01,-3.218959239445958742e-01,5.363946033912214695e-05,-8.970731012703509052e-04,1.581354483883043970e-03,1.516419256290645740e-04,3.193530440330505371e-01
-3.238004620916343779e-01,-3.209174070839142523e-01,-1.294044827643700546e-02,2.765414074527388060e-04,7.590968936530347218e-03,2.623818486904223087e-04,3.097084760665893555e-01
-3.194962064556745029e-01,-3.238660994646095914e-01,-7.811530111117154229e-03,2.637610230209642883e-03,-1.043968023312135795e-03,4.666956752425548399e-04,3.139319419860839844e-01
-2.445156099982285780e-01,-3.776109714042342747e-01,-4.227593514971256239e-02,2.409889225113732037e-03,3.772839722990138644e-02,-1.046015054935252927e-03,2.997055649757385254e-01
-2.963429771605854413e-01,-2.971302358305198954e-01,-1.209006125325434722e-02,1.779472046995797269e-03,2.033837096782511837e-03,8.051907240785445910e-03,2.850272357463836670e-01
-2.666405364755263241e-01,-3.203869953635442025e-01,-9.789924964271279340e-03,-3.388471543706828254e-04,1.725028952374346031e-02,-5.477502509614422255e-04,2.890669405460357666e-01
-2.956095737051056549e-01,-3.104794295884318878e-01,-9.511521132387873445e-03,2.918216706184718727e-03,8.773151858199750713e-03,2.305138028480420691e-03,2.942785024642944336e-01
-3.083269074908366880e-01,-2.897259117453819810e-01,-4.314168744394886179e-03,4.549491888865823844e-04,-1.300462782467651495e-03,1.312061705608923992e-04,2.951619029045104980e-01
-2.931115609480077211e-01,-3.106879723330486787e-01,-7.049990912288139899e-04,-7.518710470474933814e-04,4.851201035035591046e-03,-8.094671477092865003e-05,3.016990423202514648e-01
-2.547603873415112963e-01,-2.961685354868644482e-01,-3.037264205122097716e-03,-4.325364590517212439e-04,1.529786166219589995e-02,8.054999446998210768e-04,2.760564088821411133e-01
-3.202476155297976912e-01,-3.249613639333426285e-01,-5.996059418939453378e-02,-3.362105488276218718e-03,1.484284596989601628e-03,-2.946331733357011894e-04,2.627532184123992920e-01
-3.032500090061639453e-01,-3.003224754685859810e-01,-9.626063735861500881e-03,1.665321446531667967e-03,6.371075347883734322e-03,3.487991302236473443e-03,2.924561202526092529e-01
-3.282523651943042298e-01,-3.210819374650560887e-01,-8.109053134765398241e-03,-6.402440083511690312e-04,-8.571860935483084382e-04,-1.421680985594802639e-03,3.166339993476867676e-01
-3.223355022282967663e-01,-3.156574168146004111e-01,-3.134432291142852378e-03,-3.310098421444162154e-03,-3.267318622169079236e-03,-2.315394359373494203e-03,3.160431087017059326e-01
-3.256555103194039846e-01,-3.164991441262777760e-01,-4.090445855130991903e-03,-1.115008769156561590e-03,4.657334420331576573e-04,-2.669752750725769915e-04,3.170932829380035400e-01
-3.259960389012145909e-01,-3.144728584404860028e-01,-3.443341560569079807e-03,4.238510043405028561e-05,7.664014488814164085e-04,-1.287698183183168222e-04,3.169511258602142334e-01
-3.229471959440893825e-01,-3.179644505656283315e-01,-1.025952446449273914e-01,1.339612185635524755e-03,-4.470833091435277005e-04,5.990749181943499159e-05,2.179170697927474976e-01
-3.233481044364490131e-01,-3.181906787791589086e-01,-6.225926721814822873e-03,-2.806684472953784471e-04,-1.689917669233726577e-03,-1.377998741716881777e-03,3.145982325077056885e-01
-3.293371993197988790e-01,-3.164292826395768143e-01,-7.002233888961928443e-03,-4.983268775645335186e-04,-5.442403585148491356e-05,-5.601513340472805570e-04,3.160814344882965088e-01
-2.340114872995122941e-01,-2.937212003607344024e-01,-2.066312892569441284e-02,4.926501473145526895e-03,-9.884001906250359376e-03,-1.033972277265173857e-02,2.500167191028594971e-01
-3.154063234926994252e-01,-3.118050328404667337e-01,4.855847840005145244e-04,-3.675197085924253120e-04,1.675204471250944316e-03,1.733618480731329665e-03,3.141351342201232910e-01
-3.125624535267934601e-01,-3.148281809817510268e-01,-4.820997127597842491e-03,5.682994152096237104e-04,-4.753672040486787986e-03,3.063629722118341257e-03,3.090373873710632324e-01
-3.114169933579647442e-01,-3.120168003120876721e-01,5.065471198643645145e-04,-1.174586881145370399e-05,-1.752528601394762707e-03,1.290505456685523984e-03,3.122466206550598145e-01
-3.211426839863591454e-01,-3.240822834049634227e-01,-6.547414423869246658e-03,-3.898831273550792866e-03,6.187550755993439719e-04,2.924255797904561169e-04,3.161496818065643311e-01
-3.189810937142865122e-01,-3.166030045750111155e-01,-9.313629970021941595e-04,-2.718690378713611855e-03,7.658616557820445035e-04,2.871608225589228932e-04,3.169055283069610596e-01
-3.225523824824427233e-01,-3.270597466307155754e-01,-4.823279298742266796e-03,-3.117473751437502445e-03,2.475229679686383796e-03,3.449958881502299905e-03,3.201366364955902100e-01
-3.244162448862947801e-01,-3.175700687827714974e-01,-1.149081130796730799e-03,-1.748555387060414046e-03,-2.849424181284375781e-04,1.650387735597467175e-03,3.199265003204345703e-01
-3.175454178334615740e-01,-3.221523352252618211e-01,-3.202267604928837885e-03,-3.119905050152893631e-03,9.917373711910545866e-04,-3.987919467436760882e-04,3.167232573032379150e-01
-3.118496976693663214e-01,-3.117561962235633755e-01,-3.744560563444659929e-03,-1.813552939444086284e-03,4.620330368869854550e-03,7.131446917151714436e-04,3.081808090209960938e-01
-2.743274394512386083e-01,-2.999682865386646413e-01,-2.650386331449441912e-02,3.147814613471185390e-03,2.809955229095946472e-03,7.764229568308783809e-03,2.620355784893035889e-01
-3.111637005601378680e-01,-3.145073615680057944e-01,-3.598123431121452720e-03,-1.403025772086116630e-03,3.454796557428384696e-03,3.320263232026257096e-03,3.093718588352203369e-01
-3.139646830955890033e-01,-3.139140560822368808e-01,-9.594801334289193573e-04,-2.982758844178500174e-04,2.831784500430386316e-03,3.002249850874503471e-03,3.130619525909423828e-01
-3.163868267551823710e-01,-3.156918308860739986e-01,4.917557683163653603e-04,-6.016726311196947353e-04,4.061156953790776404e-04,1.795076811783858934e-03,3.165494203567504883e-01
-2.734786183686425676e-01,-2.835090275162336915e-01,-2.680827855551931593e-02,-9.017382937343837099e-03,-9.010908074729727379e-03,1.315114747057772628e-02,2.538256347179412842e-01
-3.056980165489400214e-01,-2.970447674124143678e-01,-3.071870715166402643e-04,-4.459250571187867076e-04,-6.136884489975095655e-03,1.243559567365530192e-03,3.013536632061004639e-01
-3.179188940420700216e-01,-3.165197117315909914e-01,-1.381873162518698628e-04,-1.419845927916839811e-03,3.433821776877029166e-04,1.633257342279284714e-03,3.171061575412750244e-01
-2.933103135940144934e-01,-3.153719896989359839e-01,-1.016458942385825570e-02,-6.325726695469183159e-04,-1.222988102080151823e-02,2.289944477192581377e-03,2.955850660800933838e-01
-3.330656161148130012e-01,-3.571684321040163868e-01,-3.482849195451928614e-02,-3.448602735525044954e-02,-2.930816370247474323e-02,2.544617701566176046e-02,3.237313330173492432e-01
-3.096007425233682775e-01,-3.080879684609976743e-01,1.568704842846574410e-03,-2.613759639801060768e-04,-2.065304095854937714e-03,3.174982807453086836e-03,3.104854822158813477e-01
-2.478668034669531672e-01,-2.856894339357853863e-01,-3.832189157886672914e-02,2.169961553167156637e-02,2.933261969870399645e-04,-8.947355636389546464e-04,2.338384985923767090e-01
-3.163725121930760498e-01,-3.141998959289923343e-01,-5.540406744449027920e-03,-5.131560536203085422e-05,-2.208596371922320802e-03,3.268453103487090582e-03,3.098268806934356689e-01
-2.795249616791095071e-01,-2.789090362417011582e-01,-1.363601063684283243e-02,3.046398294899315112e-03,5.588792662521112169e-03,5.310019280887001182e-03,2.659693360328674316e-01
-2.994285908792619910e-01,-3.204890354649237993e-01,-2.025124324307506218e-02,-2.377820639156424509e-03,-1.637759539851115387e-04,8.249768277412817749e-03,2.906619310379028320e-01
-2.377091130400040553e-01,-2.968366703053360034e-01,-2.045281474026205970e-02,-5.468232023604095628e-04,-2.090959022159748993e-05,1.509667095580026226e-03,2.520911395549774170e-01
-2.927704043311376014e-01,-3.153023639255442268e-01,-4.580599094972553909e-02,-6.059547328447921488e-02,-2.633992947983100630e-02,1.645622664883327618e-02,2.845574319362640381e-01
-2.345001865043208067e-01,-3.066986969675136732e-01,-3.022743418247278435e-02,-2.535647407787759017e-02,-1.385532561581579586e-02,1.119112796293407139e-02,2.541036307811737061e-01
-3.247564876059143013e-01,-3.169307913527553699e-01,-3.694628115790715706e-03,1.345046576509054820e-03,-1.110084027973180066e-04,8.233933467103970007e-04,3.172332346439361572e-01
-2.986083358492594431e-01,-3.002475939688435957e-01,-5.449370576388057330e-03,-3.379425525889813930e-04,1.217092498563380597e-03,-2.757277844127577985e-03,2.940289378166198730e-01
-3.121010784404745775e-01,-3.124012608904300770e-01,2.655053303635135364e-05,-2.393722678380434966e-05,1.148873279766854339e-03,-6.446501133615589461e-06,3.122841715812683105e-01
-3.378903751217409157e-01,-3.377170798008801156e-01,-3.660845919844923912e-02,-1.344403437474297114e-03,9.325159900988764464e-04,-9.970969210224790366e-04,3.012135922908782959e-01
-3.195626555245352773e-01,-3.291173283083395074e-01,-3.579027860397815397e-02,-3.424358714481173186e-03,1.495956606167130054e-03,9.209838574430120471e-05,2.887409329414367676e-01
-3.047396993332980308e-01,-3.066352430797253947e-01,-1.519872364651730923e-03,-2.625561623593697619e-04,3.066395240703682218e-03,-8.394493314179180985e-04,3.042221963405609131e-01
-2.451978647696980151e-01,-2.711202372825448070e-01,-1.974622330384723234e-02,-1.843353586078802162e-02,6.459063881697326391e-03,-8.024200065087708222e-03,2.422444224357604980e-01
-2.135206442066631682e-01,-2.746740908031305994e-01,-2.834239558026602213e-02,-1.601023202002482479e-02,4.853387146437881591e-03,-6.755416134814486162e-03,2.243469953536987305e-01
-1.982643183620524940e-01,-2.813931139889684907e-01,-3.265484653231859324e-02,-3.610064156898040028e-02,6.465753541517555054e-03,-2.380604139729265625e-03,2.283768802881240845e-01
-3.142675715410330195e-01,-3.177188956115468699e-01,-4.472136346511668137e-04,-3.147562588592484013e-04,3.022060567576946837e-03,2.065051583768873992e-03,3.156243264675140381e-01
-3.065757860908764898e-01,-2.298410242721430352e-01,-2.767730693632997063e-02,1.475276868891210562e-02,-3.938754340759058163e-03,-2.010216226368244721e-02,2.533439099788665771e-01
-5.939725839126563933e-01,-4.398170760674853241e-01,-1.799552196455707631e-01,-4.887570595573366428e-02,-2.801594960826029809e-02,9.678510043983439004e-02,4.110650718212127686e-01
-3.503994355142632244e-01,-2.386302506229074083e-01,-3.250474283880200321e-02,-4.561068632433714493e-02,-2.745179228181146222e-02,3.577141343406804036e-02,3.005979657173156738e-01
-3.219660417327047663e-01,-3.201925299765810418e-01,-3.889801322839653297e-02,4.987340851583139771e-03,1.108668368055740986e-03,-2.883399580554535792e-04,2.823246121406555176e-01
-2.912552345104258977e-01,-3.105045354608172437e-01,-1.024404270037163056e-02,-8.525470050694166149e-04,-6.540301412077761554e-04,-5.647667949987353851e-03,2.912837862968444824e-01
-5.401077691961502225e-01,-6.000400349304295666e-01,-1.608540445649787043e-01,-6.777782529728926253e-02,1.377763056371106021e-01,-1.142962305834350906e-01,5.292202830314636230e-01
-2.626317997656187342e-01,-3.044560623185902370e-01,-3.082853541607571968e-02,-5.231640759391976286e-02,3.262623444910871945e-02,-2.619187690435993351e-02,2.804273366928100586e-01
-3.078916994810437791e-01,-3.069382665237195829e-01,-4.026504727833390973e-03,-1.401042901147870863e-03,7.391974940594995061e-03,6.889173830866368933e-03,3.039036691188812256e-01
-2.999330912824938467e-01,-1.906706739923665350e-01,-3.453677061494356271e-02,2.408467803030618203e-03,6.024549664661143751e-04,7.551088442268599635e-04,2.310754060745239258e-01
-3.141369055818097333e-01,-3.228781153149880012e-01,-7.156263525729630870e-02,-1.098138686401841204e-03,-4.957799347589018045e-04,3.470643544203946915e-03,2.471428066492080688e-01
-1.135172023842095507e-01,-2.441187786800072257e-01,2.188930789282636513e-02,8.367261998086458763e-02,2.888734232979679045e-02,1.319386855792605354e-02,2.776778638362884521e-01
-3.449093877282451426e-01,-3.569651013092071112e-01,-8.885763618490855054e-02,-9.664004213498032098e-03,6.661619485669342984e-03,1.245018921062260482e-02,2.639565467834472656e-01
-3.361067679804797814e-01,-3.391563114955309932e-01,-9.924677064239112445e-02,-1.381448287244586804e-03,-2.396869852168741644e-03,-7.429467774699790791e-03,2.387945204973220825e-01
-3.141326281314151814e-01,-3.268057394628017809e-01,-1.273113916511670052e-02,-1.264403733614029432e-03,3.104397793934696257e-03,2.508169440794858276e-03,3.080190718173980713e-01
-3.176251267800735967e-01,-3.156174330102113901e-01,-5.084125689846924478e-03,-2.676349667400084158e-03,3.246030882392975971e-03,3.796556168768694742e-03,3.116965889930725098e-01
-3.301857921543029928e-01,-3.319696787812489447e-01,-1.276775150759673905e-01,2.793507254655168024e-04,9.800560972416225061e-04,-1.066119164846041469e-03,2.034221291542053223e-01
-3.177945892357388336e-01,-3.250207129973777809e-01,-8.785351737491159385e-02,-2.503327632951329873e-03,6.224773685612887712e-04,8.520619977750245461e-03,2.341462373733520508e-01
-3.217454300311252124e-01,-3.224127868405519126e-01,-1.025519105839245437e-02,-4.495026598494229059e-03,1.874693476368063027e-03,1.476834126281748949e-03,3.119490146636962891e-01
-2.063354486881657512e-01,-2.657594001165006214e-01,-1.376836403063153025e-02,4.731990489939796873e-02,4.931597582406704872e-02,2.223891313509728310e-02,2.599111497402191162e-01
-3.135166438984952064e-01,-3.221169821406447697e-01,-6.672532985994888977e-02,-1.983490119438761478e-03,-6.319175312627301659e-04,3.417790393327682034e-03,2.512975335121154785e-01
-3.217986680074133576e-01,-3.152702324352074648e-01,-1.926893760068992822e-02,-4.292483821168839239e-03,-4.097990664211072459e-04,8.237807803240166423e-04,2.994154691696166992e-01
-3.215139933777944048e-01,-3.208765531629692580e-01,-3.908976134605796071e-02,-4.496977281109808267e-03,5.055214720733178149e-04,1.083075921956633183e-03,2.822211384773254395e-01
-3.129510448978044534e-01,-3.209365032169823606e-01,-5.680160625233901528e-02,-1.908545868213052223e-03,2.711270777597402700e-03,-3.702634602333744842e-04,2.602982223033905029e-01
-3.341490787373039284e-01,-3.383639736845499013e-01,-9.272445528237843737e-02,-4.561273275113734982e-03,-5.389266429248919590e-03,2.371995902900965372e-04,2.438665777444839478e-01
-3.275795069783342117e-01,-3.370400431771296557e-01,-5.286325790184906448e-02,-4.186566159898265707e-03,3.716926442950635543e-03,8.399926067283233072e-03,2.801128029823303223e-01
-2.677509710515117991e-01,-2.993020498912227767e-01,-6.558641131361425680e-03,3.166456701813657321e-03,9.586780397471381804e-03,9.314758483228992650e-03,2.793275713920593262e-01
-3.371116664940374541e-01,-3.361266461454139876e-01,-1.745405070205893749e-02,3.633413020791988191e-03,3.959426960288280582e-03,5.442608168558111734e-03,3.194410800933837891e-01
-3.411996552261393201e-01,-3.256568659982438940e-01,-3.776997279790075823e-02,-1.713770261711428447e-03,3.056350475387589315e-03,-9.996813633209144633e-04,2.960318326950073242e-01
-3.236713026072370880e-01,-3.151815467784149227e-01,-2.364679173846645499e-02,4.157730286060050753e-03,-9.431822463179269757e-04,-2.930640661016864490e-03,2.960066497325897217e-01
-3.255085127009960111e-01,-3.210709815316967197e-01,-4.242995805355448402e-03,-3.790462032183968249e-03,3.342790682199728454e-04,1.461895103507596973e-03,3.191480040550231934e-01
-2.642530240293714527e-01,-2.901230797198545708e-01,-2.752321887359160391e-03,5.348667721554923975e-03,1.025977014655854100e-02,1.027989262182881641e-02,2.766506075859069824e-01
-3.253982666830095849e-01,-3.167855425650139001e-01,-1.100732947248231341e-02,-2.790635101494690767e-03,-3.342603023995177136e-04,1.017362318826826656e-03,3.102174699306488037e-01
-3.295030289603310125e-01,-3.180446902152177513e-01,-1.244971483687040692e-02,-1.700018204781978239e-03,1.143339937224209426e-03,8.670696980323787948e-04,3.115060925483703613e-01
-2.981233818006934766e-01,-2.330050323385965960e-01,-1.687955447196540226e-02,2.355758753385011825e-03,4.579086530726894947e-04,1.180419369487574911e-03,2.550407946109771729e-01
-2.911333343845378119e-01,-2.992642193540409612e-01,3.804315807867525434e-03,2.625383159566737875e-04,7.332048999141882809e-03,5.453085604729488584e-03,2.995047867298126221e-01
-3.212659419467776556e-01,-3.215591619692649283e-01,-1.081190744587720576e-02,-3.270078033643044235e-04,5.652255498209361045e-03,7.398935026957135890e-03,3.110196590423583984e-01
-2.960536147465400725e-01,-3.109808080531012431e-01,-7.213840640877267063e-04,1.012956858513265222e-03,6.862841502292152049e-03,4.630044413446484340e-03,3.034157454967498779e-01
-3.120986105820834355e-01,-3.093909066177525369e-01,-7.445819407965736936e-04,-5.231282204690793905e-04,1.852703318848174458e-03,2.976336589977253248e-03,3.100698292255401611e-01
-3.129305432813971333e-01,-3.170127322942788428e-01,-1.414193560005216899e-03,2.064665195437434281e-03,-8.349246066717879106e-04,1.159090130154838232e-04,3.136011660099029541e-01
-3.158535904180268528e-01,-3.165033658149142282e-01,8.670917573486147667e-04,4.200841230146439747e-04,-9.192684019527647956e-04,1.999885745414509109e-04,3.170510828495025635e-01
-3.393602645594518963e-01,-3.281062100875660748e-01,-2.410650104228739821e-02,-2.691024827758498224e-03,-1.630606393874581284e-02,1.351476092064869293e-03,3.111086189746856689e-01
-3.207096708997606571e-01,-3.197579057846189898e-01,-5.407220880154411935e-03,5.125614261497614052e-03,-1.386518519457412193e-03,5.913426449242639401e-05,3.149619698524475098e-01
-3.177833151348971041e-01,-3.246895134209885625e-01,-5.689639824166481397e-03,1.330029382521232938e-03,-3.563523496322589228e-03,2.409717114417030126e-03,3.156997859477996826e-01
-3.283054964970776313e-01,-3.172562540579124679e-01,-5.600253563769891363e-03,5.882661951926573341e-04,-8.881906258730596151e-04,9.175907845602857991e-04,3.173342645168304443e-01
-3.169386093995210651e-01,-3.241474652221418840e-01,-2.628292256126707471e-03,1.654441552554915002e-03,-9.137559442595071012e-04,5.143583264915718668e-04,3.179941475391387939e-01
-2.985440363780312856e-01,-3.094751299564093561e-01,-1.296982202853438904e-02,3.796648567596183719e-03,-1.685413334574887732e-03,-8.332250738854334732e-03,2.916398644447326660e-01
-3.144982211772140435e-01,-3.170200403751937124e-01,1.970027628337561731e-03,1.335361363714941815e-03,-1.649294265842984712e-03,-3.686439636505239073e-05,3.177579343318939209e-01
-3.204339741662501906e-01,-3.220238313863739155e-01,-8.938711859044046193e-03,8.328308577707207788e-04,-5.925911097551323642e-03,2.499949067544401504e-03,3.124951720237731934e-01
-2.643613825121031713e-01,-2.673717003899067635e-01,-2.848730608598257219e-02,5.566535628584832682e-03,-2.025933484573491736e-03,-4.102231423663314953e-03,2.377213835716247559e-01
-2.924630270707343493e-01,-2.924669611370608879e-01,-2.637672075122313164e-02,-3.075621091681399622e-04,-4.618251125388056141e-03,2.624160018078190802e-03,2.662478089332580566e-01
-3.201601575102894781e-01,-3.219604309467279935e-01,-4.521494227901581842e-02,4.907624759745527095e-03,-1.009005451757930645e-03,1.258740538130859263e-03,2.759948372840881348e-01
-2.910270046129417865e-01,-2.917041390483162133e-01,-2.549940274455866907e-02,-7.128546215273102115e-05,-3.295155624213901187e-03,3.959870285012821386e-03,2.660165429115295410e-01
-2.812013672356713512e-01,-2.805056277106507956e-01,-1.962279541158340468e-02,-2.750089180901788607e-03,-3.521108132398167740e-03,4.152133945419550498e-03,2.614449262619018555e-01
-3.314764462556837321e-01,-3.200705443217545243e-01,-1.114682910565226170e-02,2.557581228213669927e-03,-6.682021740740594308e-04,9.661341298480720765e-04,3.148194253444671631e-01
-2.663299381043821579e-01,-2.752088006060497971e-01,-2.656186906897264888e-02,-3.013929612197045489e-03,-3.069735844981063937e-03,4.256063936339153815e-03,2.445532530546188354e-01
-3.938480692543374073e-01,-3.878914688917545206e-01,-8.582700005891025219e-02,1.774258573365704653e-02,2.355017674371419345e-02,2.528696172356676916e-02,3.124167323112487793e-01
-3.538712958731529690e-01,-3.272692836812816641e-01,-3.151628800793981888e-02,1.173767483338749272e-02,-1.419954414262011595e-03,1.373001957941613962e-02,3.114964365959167480e-01
-3.649816285449992148e-01,-3.376071419614514735e-01,-3.557395513373162732e-02,-9.677509655871881916e-03,-4.640147349646086238e-03,2.134101183877727681e-02,3.193012475967407227e-01
-3.146660591245129535e-01,-3.159977266385858297e-01,1.788815202086901923e-03,4.960022188269409956e-04,-6.754744326424429396e-04,2.679518072853556395e-04,3.171264529228210449e-01
-3.227224354793538086e-01,-3.191412911098001626e-01,-2.021151065016335568e-02,5.414300075671423483e-03,-1.314944752129989765e-03,1.519182816872390691e-03,3.009026348590850830e-01
-3.349195967806767316e-01,-3.012772830698124404e-01,-1.478499758960499788e-02,3.418462527314970485e-03,-4.568096853860177122e-04,-2.649023318254125226e-03,3.048026263713836670e-01
-3.260143095520565693e-01,-3.204455736528328824e-01,-5.965462722219813663e-02,-2.389766246620672868e-03,-6.417566652667861850e-05,-2.429583430725653248e-04,2.636522948741912842e-01
-3.607393839648585510e-01,-3.459522293881698296e-01,-3.651597848406556990e-02,-8.526873224268215461e-04,9.773649850344354531e-03,6.169981303248203187e-03,3.177233040332794189e-01
-3.874805012446259633e-01,-3.617433988741971529e-01,-7.035591777854480200e-02,5.255487956037123258e-03,-1.134756119277601123e-02,3.789963228691714363e-03,3.059097528457641602e-01
-3.308671691132183956e-01,-3.219453175710931259e-01,-3.135531111649308977e-02,-3.647100414734638901e-03,-2.133839613045204666e-03,-8.136896198415553968e-04,2.952461838722229004e-01
-3.064977532266686122e-01,-3.066046647210684539e-01,-2.104265446850939192e-03,5.617730505815069766e-04,3.298642778855890006e-03,9.690096262288744799e-04,3.045067489147186279e-01
-3.176911906033004773e-01,-3.169770487715848906e-01,-3.696351177351589468e-02,-3.516313362180745541e-03,8.909009611893939449e-04,1.498987736803190094e-03,2.804536819458007812e-01
-3.700902380313683127e-01,-3.635303056810871292e-01,-8.961535261962616516e-02,-7.280155577132869232e-03,1.663425851264070318e-02,5.861867420784491224e-03,2.792158424854278564e-01
-3.714561193161650121e-01,-3.722992814291251618e-01,-7.457248868834823186e-02,6.709922021039036941e-03,2.062937873597039257e-02,2.882321920921535746e-02,3.038010001182556152e-01
-4.688915211299743424e-01,-4.984214270079788678e-01,-1.366810398026915285e-01,1.048074585179184677e-02,5.396169336117760673e-02,1.057931402152465505e-01,4.045833051204681396e-01
-3.171195276371191474e-01,-3.249601230866521751e-01,-2.320900844049872402e-03,-1.496273708483342310e-03,1.757173413118549464e-03,5.595724874485208259e-04,3.188177943229675293e-01
-4.040082035223522827e-01,-3.891522876689775257e-01,-8.852417257056122146e-02,1.235970246496832271e-02,-7.813576488054120583e-03,3.345984041957473284e-03,3.094173371791839600e-01
-3.356933784595129699e-01,-3.212023348640663523e-01,-3.015822359043360268e-02,-2.705973683201273860e-05,-4.620232210690996058e-03,-3.467986420280054624e-04,2.986613512039184570e-01
-3.296568206906170806e-01,-3.283797518613515987e-01,-1.040096746984452702e-01,1.668913223475500859e-03,1.289158316920727392e-03,-7.853383634386874651e-04,2.250450849533081055e-01
-3.641930174306116652e-01,-2.898519463352850489e-01,-6.903896591662622706e-02,1.056227706036279475e-02,7.305516697217305120e-04,2.578329688904776318e-02,2.702426016330718994e-01
-3.811345603412688021e-01,-3.975653222390572172e-01,-1.129776775514484133e-01,9.732260471555198925e-03,-8.289155452285652814e-03,-1.885588668205977550e-02,2.795371413230895996e-01
-3.257231950613106997e-01,-3.264937835521560250e-01,-2.797626690588411735e-02,6.205784173472034260e-03,-1.407661097331432782e-03,2.177436053231183825e-03,2.983604669570922852e-01
-2.953447393672280485e-01,-2.166259331772784624e-01,-3.568639389761291136e-02,6.694209551094168140e-03,-2.877651809955918474e-03,-2.901628074511019705e-04,2.309516072273254395e-01
-2.583621284042805222e-01,-3.249039201818076927e-01,-2.973249232889599303e-02,-4.134114514901446498e-03,2.109328224353042378e-03,-4.708204756335670864e-03,2.684098780155181885e-01
-3.410714650796221048e-01,-3.363262982728554285e-01,-5.228110378399769553e-02,-2.306067750796012786e-03,-2.327828805743209235e-03,2.763242808871883057e-03,2.865434587001800537e-01
-3.105159711248450249e-01,-3.134416001569636512e-01,-8.271946953654990553e-03,-1.672219939270816252e-03,-1.171072600299697671e-04,1.447723815847022037e-03,3.037416338920593262e-01
-3.852051627275009382e-01,-3.835180293283850794e-01,-1.396140583108094191e-01,-6.381333772708218041e-03,8.344857361003545429e-03,1.362877994323412507e-02,2.465599328279495239e-01
-3.190159978514791606e-01,-3.198026269097568597e-01,-2.528952027779995948e-02,2.751827383290840132e-03,3.078432272459173148e-03,-1.767183332725916125e-03,2.942234277725219727e-01
-3.131512149414223956e-01,-3.186564020240882922e-01,-7.953784383043935313e-02,2.166969116172351613e-03,-8.691011830052809044e-04,-1.458086508889593590e-02,2.377935200929641724e-01
-3.159190791873406345e-01,-3.202040734290896307e-01,-6.108867796671135775e-04,8.148730658651193778e-04,1.248406730895773890e-03,2.179612680234139919e-05,3.174828886985778809e-01
-3.355044224773188200e-01,-3.276572680840195151e-01,-7.679460656784911632e-02,8.825124655172552875e-04,4.391939650523182174e-04,7.028557414705732592e-04,2.548854947090148926e-01
-3.537412461240766470e-01,-3.359557835269783577e-01,-8.961243274105154533e-02,-2.784600388712463181e-03,-1.197230797013399718e-02,-1.593914847819993472e-02,2.580661475658416748e-01
-3.275885978026009671e-01,-3.161367584276970621e-01,-4.980227097960920890e-03,-1.277124050511323347e-03,1.350393272489485536e-04,1.084592029104797239e-03,3.170509934425354004e-01
-1.987760544286716891e-01,-3.126988950523272859e-01,-3.578384309698992571e-02,-1.111891872285810344e-02,3.183871207604221237e-02,-4.462991384725609905e-04,2.480443716049194336e-01
-3.069045529605357037e-01,-2.861856400875134043e-01,-5.208124059382562843e-03,8.998092015896771382e-04,-5.612144061517159756e-04,7.317182601698444524e-04,2.918975353240966797e-01
-2.310503991899692244e-01,-3.248704264974642264e-01,-4.781656843033452176e-02,-5.868197256369031382e-03,-5.563046266527385758e-04,-2.883571615898368034e-03,2.443297356367111206e-01
-2.248939399554013285e-01,-3.107136616233323045e-01,-3.311719763386666848e-02,7.058817902084283682e-05,1.248856964647623163e-02,3.583570574469910911e-05,2.471224069595336914e-01
-3.181503734248666837e-01,-3.143539519593446241e-01,-4.890519591168596136e-04,-2.055659742113354321e-03,3.326343823884858391e-04,1.454707107512510358e-03,3.158108890056610107e-01
-3.297385466268543674e-01,-3.184290839122292383e-01,-1.262108563225733393e-02,-3.532821115350704907e-03,2.966219211305942227e-04,8.334801854051634941e-04,3.116805255413055420e-01
-2.360050994118217671e-01,-3.318855559539443112e-01,-4.422634164487862507e-02,6.623257935251954456e-03,-8.661964552794077302e-03,-3.471808716277042725e-03,2.544657886028289795e-01
-1.667664419934736519e-01,-2.914570630949012697e-01,-1.631548173858576867e-02,-1.757171764405228431e-02,-9.457133329925197784e-03,3.577188475599124562e-03,2.411971390247344971e-01
-1.753437393653029808e-01,-4.022877976126113531e-01,-5.185947040019078802e-02,-5.698244622951339697e-03,2.797111291704317514e-03,-2.249253231918323245e-04,3.080536127090454102e-01
-2.065234298440593030e-01,-3.081586190073220544e-01,-3.981934479022936069e-02,1.105642158964566767e-03,-2.173943073092490189e-03,-1.124396585617787851e-04,2.346930950880050659e-01
-1.955582220033671714e-01,-3.192477287313538747e-01,-4.259860896591294299e-02,-2.241392388208553015e-03,-3.892643859546430444e-03,1.913070182685333446e-03,2.401806563138961792e-01
-3.091899995644128429e-01,-3.104282245426788212e-01,-1.683303315232531627e-02,1.029188223863825805e-03,-6.340681822840034745e-03,8.155104854745042148e-04,2.931926250457763672e-01
-3.111524449320026697e-01,-3.137286150855316258e-01,9.177628781019686599e-04,1.677881707939199549e-04,-2.068916392189169232e-03,1.052494357141726304e-03,3.133921623229980469e-01
-3.273517567937970774e-01,-3.162185494334324165e-01,-5.463477915736369983e-03,-1.720538918047595164e-04,-7.113431147139091576e-05,-7.062484278898226728e-04,3.164710998535156250e-01
-2.630081099656754184e-01,-2.838292170253901570e-01,-4.169752517921959667e-02,1.587673067428832865e-02,-1.967770790797558709e-03,-1.767284768707194729e-03,2.340876460075378418e-01
-3.162770555054008059e-01,-3.154588152354158570e-01,-9.752461407008194971e-03,8.796167231098489655e-04,-3.541445640581450567e-03,5.455019022414284158e-03,3.063272833824157715e-01
-3.013081151986463091e-01,-3.082868634066575075e-01,-1.798838790150100730e-02,-4.163583760034267507e-03,-1.487214276222060746e-02,1.410952834582530901e-02,2.891518175601959229e-01
-3.194763910079407854e-01,-3.154766464988469910e-01,-6.930563534313372021e-04,1.393444798010230789e-03,-6.226750302573492940e-07,1.241763232124017602e-03,3.168188929557800293e-01
-3.204287507833761817e-01,-3.176940904282181122e-01,-2.785863479224104378e-04,5.335069567381148367e-04,-1.135965353730303794e-03,8.328011962742966042e-04,3.188022971153259277e-01
-3.248039638438940946e-01,-3.082629031894099647e-01,-7.785633733420699309e-03,2.169590967257601158e-03,-8.201540554719547425e-04,-2.540163881549198019e-04,3.091063499450683594e-01
-3.500456133383427204e-01,-3.458412288292560532e-01,-1.197036333313189205e-01,-5.879647297367757153e-03,-1.114818757250028193e-02,-7.963602047019366012e-03,2.297247797250747681e-01
-3.170726170122912246e-01,-3.198447053597056056e-01,-6.850930431557544775e-04,1.992827466770807302e-03,-8.153172938990531794e-04,7.804092667873430058e-04,3.178074061870574951e-01
-3.160007237670769964e-01,-3.158743111635086698e-01,1.770339475762217063e-03,1.264791976953472032e-03,-1.003401585648152705e-03,4.898111272198742193e-04,3.177213072776794434e-01
-3.172038929474506608e-01,-3.167222308207345294e-01,8.389960333566592876e-04,1.048228239607615006e-03,-6.357687047941491375e-04,6.457700387311615534e-04,3.178113996982574463e-01
-3.176375935826998842e-01,-3.220576910485458133e-01,-1.007117890826981499e-01,-6.105635542558210643e-05,2.326770573719851715e-03,-1.236868861280604037e-03,2.192168235778808594e-01
-2.910244097632201932e-01,-2.795300880248638986e-01,-5.246074530259708935e-02,1.649323527749829710e-02,1.499385535855706593e-03,2.378280259713540148e-03,2.348242104053497314e-01
-2.744024595104994080e-01,-2.890035853977094282e-01,-4.588610468667461695e-02,1.534631870833439056e-02,2.211975688787268680e-03,-8.805199014241383128e-04,2.376826554536819458e-01
-3.311545200145755152e-01,-3.207578013709277975e-01,-4.110841044649765630e-02,1.524866431397562793e-03,-1.114457528038591706e-03,5.492943171725312703e-04,2.850103676319122314e-01
-3.276226597892635262e-01,-3.207121562265469183e-01,-6.151697724260635214e-03,-1.120372798265347608e-03,-1.519405079812659884e-03,-3.533602627916595726e-03,3.181476891040802002e-01
-2.742586939583919747e-01,-2.981629668748135842e-01,-2.562119162263337691e-02,1.394867315611054287e-02,1.903874025927813560e-02,1.985541532231864872e-02,2.668133378028869629e-01
-2.426958144028659170e-01,-2.943693699780755013e-01,-2.884562171877771974e-02,1.577339775915824471e-02,1.472398217044407556e-02,1.024251309040021332e-02,2.473135143518447876e-01
-3.200455052077502138e-01,-3.158238531336736155e-01,-1.272363938343187839e-02,-6.449576988063776897e-03,1.320756679362911545e-04,-6.609352378229105783e-03,3.056518137454986572e-01
-2.995607598823379347e-01,-2.261742351386558103e-01,-3.669991578238690488e-02,-6.321743230987576616e-03,3.228253163281674144e-03,-4.487637513237795845e-04,2.352503389120101929e-01
-3.286302268063704402e-01,-3.307421704369122861e-01,-1.063961168738261354e-01,-2.673107263301590687e-03,2.208307489695895878e-03,-1.297263565895788451e-03,2.233896106481552124e-01
-2.212687012349092985e-01,-2.267592120478430784e-01,-1.123431676566713500e-02,4.689856210594554181e-02,7.170909907191908884e-03,1.196045558265054591e-02,2.290843427181243896e-01
-3.241343358062179769e-01,-3.170748171888557732e-01,-2.763833989973901728e-03,-1.023035196006367867e-03,6.946313972405176855e-05,1.012601741073854101e-03,3.179093301296234131e-01
-2.394944523713504747e-01,-2.669378743287928457e-01,-2.916719688435023827e-02,1.005016169550356463e-02,-1.227330202418987931e-04,4.460946156360459007e-04,2.259788811206817627e-01
-2.441981241933618707e-01,-2.675323807663806397e-01,-3.184528698096178445e-02,2.280922688673870172e-02,4.738518032143022667e-04,-5.292544618426196475e-04,2.283760160207748413e-01
-3.569538086213245309e-01,-2.350050266077100825e-01,-4.932336142390097988e-02,2.113718782162710835e-02,7.714438887955860427e-03,2.056785052916923137e-02,2.734608352184295654e-01
-3.270803220475075879e-01,-3.156112483172636152e-01,-7.945297752912611200e-03,-8.755785713407575940e-04,-1.560924718475275306e-04,-1.826402525922131637e-05,3.135616183280944824e-01
-3.192257998491681570e-01,-3.260347659655460362e-01,-2.509396735745267337e-03,-2.078313610527977168e-03,1.756707659823069376e-03,1.215446744710590142e-04,3.202099502086639404e-01
-2.923526204346327817e-01,-1.917953832310726192e-01,-1.376042375778974147e-02,1.026645619209192069e-02,-7.619621108918774206e-04,1.122654337847624022e-02,2.457782626152038574e-01
-3.245839070180921437e-01,-3.253065660740332987e-01,-6.159977094281793297e-02,-4.147432043456200819e-03,6.346792311900088411e-04,-3.520565709226049873e-04,2.634471654891967773e-01
-2.621030944123091122e-01,-6.493310872837555758e-02,6.820484152109765330e-02,6.941571248137851091e-02,-5.332273113591536788e-04,1.652642224994708281e-02,3.132544755935668945e-01
-3.175430840410718436e-01,-2.300711381035304981e-01,-3.281288084781658343e-02,5.304273917455631406e-03,9.122409006740348457e-04,1.578340475206824536e-02,2.542655467987060547e-01
-3.192555829817975699e-01,-3.325796654117830764e-01,-2.632935796888138946e-02,-1.407206849595196750e-03,-2.014622852828014410e-04,3.536488532185751588e-03,2.998830676078796387e-01
-3.066177829447059855e-01,-1.948254246440734305e-01,-3.150649742649208607e-02,-2.784489759649295525e-03,-1.892489807681416343e-03,9.409351440344933737e-04,2.397187352180480957e-01
-3.264563995981143441e-01,-3.131302428992939202e-01,-3.374695791787965526e-02,-1.096382648859144278e-03,-8.164389256015521694e-04,1.863952746885639373e-03,2.863070666790008545e-01
-3.182131266055815977e-01,-3.216111655304361161e-01,-2.974143102663362459e-04,-1.729463502785439895e-03,2.042847603865535246e-03,-7.076158390495929849e-08,3.196618854999542236e-01
-2.874956109746522603e-01,-2.036271749404095777e-01,-5.526107418054371223e-03,1.507533507150837435e-02,5.808929667198824837e-03,1.692742930324491607e-02,2.540374398231506348e-01
-2.862561728796070293e-01,-2.055737318979097283e-01,-9.430017235304677392e-03,-7.163253222956244247e-03,8.093654269252832309e-03,6.551449798619951191e-04,2.473036795854568481e-01
-3.202424783563412314e-01,-2.748910462412649247e-01,-3.330330041949502995e-02,4.392210935607034246e-03,3.069265380762963968e-03,1.606624490812908965e-02,2.687717378139495850e-01
-3.006730257759733238e-01,-2.001540640780329894e-01,-3.384965432689474030e-02,7.261717178467589663e-03,3.670298501770525960e-03,7.034750441635778499e-03,2.341474741697311401e-01
-2.398485718738185835e-01,-2.274433925064402451e-01,-1.686299245709230177e-02,7.473988099160933096e-02,-4.101893704231739102e-02,-5.025297203137629731e-02,2.765721976757049561e-01
-3.269118662663478836e-01,-3.144171875493501633e-01,-3.997054065937505341e-03,-8.546476610810943309e-06,5.336984425569037604e-04,1.031713640757128420e-03,3.168586790561676025e-01
-3.221420392134035637e-01,-3.230016499527442186e-01,-8.682339587097243072e-03,1.029344228625188967e-05,-6.589169272709041085e-04,-2.287007604924040736e-03,3.139174580574035645e-01
-3.255087244635371801e-01,-3.136931636401590895e-01,-5.769701074671146346e-03,9.090735308815094768e-04,-3.097125765710543742e-04,3.107779141972381301e-04,3.140028715133666992e-01
-3.099998668087027842e-01,-2.061064849046193026e-01,-3.865454752400507288e-02,8.577212365359703286e-03,4.446574032871872771e-03,6.805815917814488254e-03,2.380128502845764160e-01
-3.413405615054423969e-01,-3.256221292325560124e-01,-4.305613924085327504e-02,-4.411953715487797190e-02,1.766241638421952448e-02,-2.400646963540559176e-02,3.050188720226287842e-01
-3.067594437233724380e-01,-1.584961727206438686e-01,-3.167058404812869710e-02,-5.087501700860352916e-02,2.703575764697014466e-02,-6.457138745994690787e-02,2.816669940948486328e-01
-3.334638229571600943e-01,-2.795514475266819288e-01,-3.487002562222804580e-02,3.646144441669632759e-03,7.018790294869685538e-03,1.386048063666153914e-02,2.770034372806549072e-01
-3.255650889000423764e-01,-3.108112425950586566e-01,-1.052524055016490490e-02,-1.143084770613686301e-04,8.763400717996559309e-04,-4.406307914534134010e-04,3.079328835010528564e-01
-3.090312257534553742e-01,-3.013288030230999448e-01,-3.749411750932463150e-03,-8.516486865096647508e-04,5.186931324940640027e-03,-4.352399993142710283e-03,3.017360270023345947e-01
-2.990672562681047641e-01,-2.715196119394341356e-01,-1.697826110601180494e-03,-3.649217494552253055e-03,3.246676422059203548e-03,-1.613369886260089536e-02,2.860910296440124512e-01
-2.847655452476203219e-01,-2.839625196588005940e-01,-3.910463365634037070e-02,9.366636853305620487e-06,2.398736527459344701e-03,3.342303055236178072e-03,2.453638762235641479e-01
-3.363134235658107318e-01,-2.476457091190036319e-01,-5.692195623407456107e-02,1.993979859955924937e-03,-1.451722058095556919e-02,-5.069373617352162381e-02,2.636328637599945068e-01
-3.841500836169506883e-01,-3.632045354559438888e-01,-4.568894575175885819e-02,2.030836872063120720e-04,-6.174041754023762603e-03,-1.481112559330936655e-02,3.296634554862976074e-01
-3.196739423319039930e-01,-3.161270771666906954e-01,-3.998317258189776346e-04,-1.183667136564089907e-03,-2.071015244510690067e-04,-1.877673357675875305e-03,3.175390064716339111e-01
-3.156943479571885369e-01,-3.166461256348276909e-01,4.055512944824979371e-04,-7.071800663969598317e-04,-1.438996700805662528e-03,-3.808760997402203590e-04,3.165897428989410400e-01
-3.351831927407916134e-01,-2.819021152600026947e-01,-3.336833007209979995e-02,-2.683324196093620287e-02,2.542805437496595961e-02,-2.544880454150514129e-02,2.896425724029541016e-01
-3.295733508103507181e-01,-3.188708035501384708e-01,-8.601030327113012852e-03,-1.290139844819715908e-04,5.307643789468377516e-04,-1.453114866861262635e-05,3.157585263252258301e-01
-3.358262481809743960e-01,-3.386393233098068944e-01,-2.551525577013835644e-02,1.593690251077651545e-03,-2.246815609350335478e-03,4.040547014681343183e-03,3.118421137332916260e-01
-2.591591492903630445e-01,-2.709428559512950807e-01,-1.815618589813633443e-02,1.845723519540674526e-02,-1.158020326301389263e-02,-1.238738733320222246e-02,2.508901059627532959e-01
-3.201020913205818719e-01,-3.259115527004283197e-01,-6.339563269406406354e-03,2.591349897218471238e-04,-4.203677693771154522e-04,-3.312708446601956083e-03,3.167603611946105957e-01
-3.161889186018718712e-01,-3.157033790698304254e-01,-6.524178190447899039e-03,9.772507706125200134e-04,-3.354718092997796986e-03,-5.281719361737523440e-03,3.096166253089904785e-01
-3.132288462020524356e-01,-3.073163801617039281e-01,-7.084484819110531406e-03,7.208352003613551851e-04,-8.120590451187719577e-04,-3.982472967638970608e-03,3.033156394958496094e-01
-3.200067969760292952e-01,-3.186809679249007488e-01,-1.259446790836657448e-02,-1.996569117866205632e-03,-5.308456954665115649e-03,-4.733628581357046845e-03,3.070183098316192627e-01
-3.183250967680318899e-01,-3.155162731402219589e-01,-6.691151256295879701e-04,-3.029041549910146177e-03,-1.675626086281487319e-03,-1.732708656820005190e-03,3.163319826126098633e-01
-3.783740814482138282e-01,-3.550686098825530657e-01,-9.760272665026487049e-02,-1.245097643249097261e-02,6.053962955475751875e-03,1.059311227376813318e-02,2.715582251548767090e-01
-3.316898806962276791e-01,-3.310217891998918915e-01,-3.600063058552135931e-02,-6.590112986260008091e-03,5.390093386924608120e-03,1.749195425052273156e-03,2.957391738891601562e-01
-3.317048878137651702e-01,-3.336772992402191607e-01,-6.592345306642732883e-02,-6.148780842075432344e-03,2.053737427230922709e-04,-1.185328386987112527e-03,2.669937312602996826e-01
-3.197374570185359532e-01,-3.203231592452025489e-01,-6.494123854930450301e-03,-3.147260945444414412e-03,5.409025705968870199e-04,7.677270702082345747e-04,3.135882019996643066e-01
-3.141706671626250946e-01,-3.127780751277338123e-01,-3.729391343079507815e-03,-2.471199788747148202e-03,-3.360332514834411376e-03,-3.277753222974845188e-03,3.098835945129394531e-01
-3.470811373194538363e-01,-3.457914365841836535e-01,-7.534956256060956759e-02,5.533013242828707049e-04,4.703530209508745979e-02,3.142760909569235987e-03,2.831197082996368408e-01
-3.277352993672186243e-01,-3.283517743031890701e-01,-8.775331545650016940e-02,1.697586078998456274e-03,3.422540818298289980e-04,-5.758260582981803962e-04,2.403116077184677124e-01
-3.092987238832595187e-01,-2.250518570154343700e-01,-1.742581655545466512e-02,-2.562623624935941521e-03,2.031714564636266564e-03,-1.707368431247869569e-03,2.602667510509490967e-01
-7.731136368504570866e-02,-2.725026205516188904e-01,7.384287749616288976e-03,2.275192911015560052e-02,1.070827952480448396e-02,5.979563761082841954e-03,2.526045441627502441e-01
-1.316451159502364521e-01,-2.890807651847597248e-01,8.562899061539674950e-04,3.379664498512443410e-02,5.659735764575803130e-02,2.280612084000927312e-02,2.789262235164642334e-01
-3.307605811340494917e-01,-3.205870370882253351e-01,-3.642292968063948200e-02,3.258770930339635326e-04,-6.839956589293319554e-04,5.120281111227678724e-04,2.893893718719482422e-01
-1.384108064879002453e-01,-2.474785364915153274e-01,4.283261270105270802e-02,3.989912839591727017e-02,4.942486923324095061e-02,1.003890776774552570e-03,2.768032848834991455e-01
-1.486886731609370904e-01,-2.638348887837466128e-01,3.309164101369582722e-03,7.613831672086645609e-03,2.060149983119359193e-02,3.189347885183510620e-03,2.352480888366699219e-01
-1.880117385919844591e-02,-2.152891483138922313e-01,6.748590670600287944e-02,4.380942885866587200e-02,-3.987380788674613902e-03,-3.045620836501083863e-03,2.623750865459442139e-01
-2.120447282597100191e-01,-2.941583292163078012e-01,-3.248909553212139811e-02,4.509015743599819638e-03,3.717713363483048008e-04,2.912091991674818983e-03,2.319777458906173706e-01
-1.638637009008703793e-01,-2.905824006653404679e-01,-6.348418993437410229e-03,5.057399933782597001e-03,2.078432227945081409e-02,4.617543460551580374e-03,2.495305240154266357e-01
-3.158610266496441055e-01,-2.655137937154182781e-01,-3.111562650562565979e-02,-1.787017103688390241e-03,4.095573044843209796e-03,-1.056880023643030301e-03,2.633284926414489746e-01
-3.025254702507503834e-01,-3.581654936613941076e-01,3.422182418754748934e-03,-2.146801777785765919e-02,4.831510476139286997e-02,-9.907665049881480418e-03,3.498612344264984131e-01
-1.761786085034903193e-01,-3.046005260667353776e-01,-1.739514515869355904e-02,8.196429833235581094e-03,1.402346536796462116e-02,1.865697576400312044e-02,2.528466284275054932e-01
-2.332741284338140375e-01,-3.891978166706077102e-01,-6.500553286108892714e-02,-5.256641533008120544e-03,8.579204046211387144e-03,3.606223941694867031e-03,2.814361453056335449e-01
-3.247573110818048336e-01,-3.291423968472125261e-01,-9.709917437919210470e-02,2.382111536285936790e-03,-1.936342876246215094e-03,4.758222090914405664e-03,2.300911843776702881e-01
-1.655660031257795428e-01,-3.449797454359878612e-01,-3.853786167509545835e-02,2.956562476483451732e-02,-4.539203384336514555e-04,7.769631703338325014e-03,2.718825638294219971e-01
-2.142139854808428057e-01,-3.607939228357988082e-01,-5.320736586184016126e-02,-2.830246343161989947e-02,-1.678036200131794754e-04,8.868633669711709761e-05,2.709471285343170166e-01
-3.275413047212640261e-01,-3.179048033255391092e-01,-5.763934660245634278e-03,1.113446224583035903e-03,-5.806617495580136147e-05,-4.460367861263457925e-04,3.170757889747619629e-01
-1.650735453720738877e-01,-4.564757283782610586e-01,-1.232661289515762926e-02,-1.533312422193199888e-02,1.638582133493218448e-02,-4.835377757450702065e-03,3.928594887256622314e-01
-2.099341798849529150e-01,-3.222517893691766444e-01,-4.475678120269005467e-02,-3.296354561162381357e-03,-4.221421434144999839e-03,-5.524429894817088019e-04,2.419465333223342896e-01
-2.023926008274202493e-01,-2.915843061771677958e-01,-1.654557280024179788e-02,-7.038427394357702621e-03,1.666472004897491185e-02,1.411836826745027336e-03,2.450674027204513550e-01
-3.368288413282057303e-01,-3.316422101975798897e-01,-1.049596813473971102e-01,5.632455460617507675e-05,5.745472690404700156e-03,6.576970886420955426e-03,2.298181802034378052e-01
-3.432448262284215623e-01,-3.471590062145119004e-01,-9.200488969537626294e-02,-3.761308289209452926e-03,-9.768383214501677111e-03,-3.227941346368052092e-03,2.539294958114624023e-01
-3.503483998571477742e-01,-3.541557375187148193e-01,-1.068710362723390428e-01,6.591011872647268600e-03,-2.774961822616219334e-03,-3.372546233758968916e-03,2.457850128412246704e-01
-3.891660856148475567e-01,-3.856358529266837865e-01,-9.937749693897199310e-02,-7.719842563340430924e-03,-1.152601603401368253e-02,-1.387070456259811152e-02,2.900368869304656982e-01
-3.244301012523775896e-01,-3.100619864144225080e-01,-1.002126914997189533e-02,2.270321558006648324e-03,7.027636630748502556e-04,1.156991262231384619e-03,3.075107336044311523e-01
-2.052843005959908984e-01,-3.067361698583100371e-01,-3.249060138985387924e-02,-5.131340366344246812e-02,2.664994724509960750e-02,-2.429907440786562012e-02,2.635935842990875244e-01
-2.820060246690336836e-01,-4.232320576816690494e-01,-7.784272444898918120e-02,2.226575783730468799e-02,9.025650485063640982e-02,-1.414948162229811256e-02,3.420339822769165039e-01
-4.329764895157761084e-01,-2.288567242131208102e-01,-3.018142828246286880e-02,-8.933284949815159526e-02,2.020818111378232945e-02,-1.780834222504397088e-02,3.844579458236694336e-01
-3.171230815284400428e-01,-3.171613925481651663e-01,1.099478486107974273e-03,-4.127050649738396495e-04,-1.720723760799957062e-04,-2.557112552864788377e-05,3.182426691055297852e-01
-2.793356323128343699e-01,-2.750858410397108433e-01,-3.810096620603067863e-02,-2.334438993760923255e-03,3.241788110110159385e-04,-3.476873980404919583e-04,2.391736954450607300e-01
-3.469122630246959660e-01,-3.361700536994844390e-01,-5.211805048116310846e-02,-1.748141105914847353e-03,6.934642435667307328e-03,5.424868062443079795e-04,2.898389101028442383e-01
-3.204895427894283166e-01,-3.174974375776047908e-01,-9.332259024079636589e-04,-1.134767348330383268e-03,-2.042193649896135424e-04,-1.551244530880128503e-03,3.180884420871734619e-01
-3.271056632968936673e-01,-3.227958174264150548e-01,-8.849018984188267156e-02,-1.521066545791535402e-03,-4.413868921102059688e-03,-1.277962499006026712e-03,2.366385608911514282e-01
-3.288965581127519244e-01,-3.249848535668624083e-01,-8.682502799252619918e-02,5.292685603850889745e-04,-7.562901794907158672e-03,-8.520095324942220365e-04,2.405028641223907471e-01
-3.396004255955152318e-01,-3.376697484782983372e-01,-1.147859488301300468e-01,3.622333427568428187e-04,-2.789824849777580978e-03,-3.031065877978655378e-03,2.239699512720108032e-01
-3.155205870441507576e-01,-3.143645072406781038e-01,2.453530286657318316e-03,3.801288221282977074e-04,1.950018176172629142e-04,-5.475387815356341434e-04,3.173999488353729248e-01
-3.157391157957015193e-01,-3.149509843831369005e-01,1.157852396605929535e-03,5.534394583872677843e-04,3.652049063399305105e-04,-8.805903605524274293e-04,3.165093958377838135e-01
-3.235145052239495889e-01,-3.154556677519743113e-01,-3.855482039388180571e-03,-4.861028797301494885e-04,7.494991653914042816e-04,-1.131618895477543929e-03,3.157166242599487305e-01
-3.192720249288820700e-01,-3.166854988344708910e-01,-1.487161982720086595e-03,1.672009529360616881e-03,-2.835049026301603549e-04,-8.877832608305575180e-04,3.165169060230255127e-01
-3.189214779059462712e-01,-3.161884649704554962e-01,-1.358502960341623211e-04,1.257759941137747599e-03,-4.822586344528388610e-05,-1.357004481469329229e-03,3.174441456794738770e-01
-3.258915149668509814e-01,-3.347706927747590155e-01,-1.830985098468149164e-02,-3.635381207393207671e-03,2.364056615212562981e-03,4.508939547640259532e-03,3.123040199279785156e-01
-3.058263757591904164e-01,-2.940945326523931036e-01,-1.480733057630384542e-03,-4.562935823453497072e-04,3.982784964820904224e-03,6.477201363106849415e-03,2.989438772201538086e-01
-2.481171125450351012e-01,-2.888622580442069543e-01,-4.043516201692531897e-02,7.494177736730549266e-03,-3.454818235414102589e-05,-3.199839909984920211e-03,2.311994731426239014e-01
-3.276944585155365242e-01,-3.217142378684455517e-01,-3.043002103012729109e-02,-4.938873827649558138e-03,-4.632755746192278768e-04,-6.395946909411430069e-04,2.944473624229431152e-01
-3.150105457974928802e-01,-3.204600494647753539e-01,-2.890217564613273282e-03,-1.276050897100923910e-04,2.648418300127020498e-03,2.884849245737011562e-03,3.149535655975341797e-01
-3.136029698131583276e-01,-3.148755377116261855e-01,-8.841312268454970535e-04,-2.104558661347048169e-03,-4.677947764499230422e-03,-6.602847691406807037e-03,3.136915266513824463e-01
-3.162038064153424033e-01,-3.222125683457788825e-01,-3.544056262586497974e-03,-2.915629829607580426e-03,2.981758499662682908e-03,1.919310781870472039e-03,3.158071339130401611e-01
-3.144499654763333041e-01,-2.725722197986432671e-01,-2.894165585501637383e-02,2.660853907266508365e-03,6.986287750847727622e-03,3.091562859634302066e-03,2.674109935760498047e-01
-3.358004970092435815e-01,-3.328032699763284197e-01,-1.245854018333504842e-01,2.511024366488994689e-03,-4.669092749283258389e-03,-3.196344281116082395e-04,2.099341899156570435e-01
-2.911374231493424891e-01,-2.892179292766778875e-01,-3.367414434604282247e-03,9.613244266190026574e-03,-1.018341676903911606e-02,-1.300515503448582133e-02,2.887189686298370361e-01
-3.043536271221712886e-01,-2.969872295943915552e-01,-1.270125043429021217e-03,9.919937636176355284e-04,6.714051354829123075e-03,3.215059281810494357e-03,2.997506260871887207e-01
-3.176442425486338816e-01,-3.278121967963564809e-01,-4.874939198007494090e-03,-1.444229098919078439e-03,-8.744789008467801321e-04,-2.230785194733238752e-04,3.179889023303985596e-01
-2.353579427721945727e-01,-2.627944489258092764e-01,-2.682298716453274112e-02,-9.415035256847019765e-03,5.445586378232859402e-04,-1.669614850548024410e-03,2.241344302892684937e-01
-3.232462801048680556e-01,-3.245137184378543704e-01,-6.100326820647891668e-02,-3.641381894695430114e-03,5.720469655169955559e-04,-4.670071634192764524e-04,2.629577815532684326e-01
-2.746705582696091774e-01,-2.879435839176168743e-01,-3.865253042269659045e-02,-2.759473110434049192e-03,-2.352134781971557467e-03,5.380741210398035448e-03,2.431864589452743530e-01
-2.707166825882182382e-01,-2.728380150082966304e-01,-3.316488653373167450e-02,-3.879002763796110011e-03,-2.802101352119544878e-03,4.429363228252276852e-03,2.388866543769836426e-01
-2.663056979309069705e-01,-2.740277521274380734e-01,-3.900513990992240942e-02,-5.442263230555688391e-03,-4.071387643975744029e-04,-1.204843194594941869e-03,2.314608097076416016e-01
-3.866284661727363292e-01,-3.731863946499122675e-01,-7.798720097953890096e-02,1.219542835994199929e-02,-7.072376701329981079e-03,1.710046919039044308e-02,3.045732378959655762e-01
-3.241761149101747286e-01,-3.296633999480982902e-01,-7.418044964132530783e-02,2.940365093171264880e-03,5.273834045703541893e-04,6.446353617220793291e-04,2.528393864631652832e-01
-2.810157351006951076e-01,-2.791177437041810205e-01,-4.456560400322176485e-02,-7.804064759834774406e-03,-1.110365254364386418e-03,1.730112194132487442e-03,2.359213382005691528e-01
-2.851090521900496166e-01,-2.732298726359000951e-01,-8.328147539471780769e-03,-3.747706420595256927e-03,9.029952301282413024e-03,-8.721208685111440928e-03,2.719849050045013428e-01
-2.675579529282735014e-01,-2.639390529551132181e-01,-2.605946685237350846e-02,-5.849194777430678262e-03,-3.495592629413687459e-03,1.476963503007074985e-03,2.400135397911071777e-01
-2.710327828759380164e-01,-2.622115988886098426e-01,-3.687770457722788775e-02,-5.596441711440571128e-03,-1.013697138319153042e-03,8.980652936470908841e-04,2.300876975059509277e-01
-2.750339951852369125e-01,-2.751257074418457238e-01,-3.509862828453308436e-02,-8.113248818499943157e-03,-3.820396691960855576e-03,4.467279909335993004e-03,2.406078279018402100e-01
-2.702360942878312966e-01,-2.633139054037609839e-01,-3.396291746715751625e-02,-5.773881018118296599e-03,-1.935740712336438780e-03,5.670591810371460690e-04,2.331300526857376099e-01
-2.918935123341982463e-01,-3.126986045188066554e-01,-1.032322059707466155e-02,2.673095980930622652e-03,4.677165917293790026e-03,9.589108743315057776e-03,2.931478917598724365e-01
-2.196780704462039380e-01,-2.935167334541747830e-01,-3.639283331671294697e-02,3.128835744093416693e-02,6.376819785361393690e-03,5.317316237654453508e-04,2.358789592981338501e-01
-2.121347037338860708e-01,-2.979980593136445366e-01,-2.355329973119230091e-02,2.004728313387038954e-02,1.399575108032339622e-02,1.094864811587582809e-02,2.475492656230926514e-01
-2.844630378960553152e-01,-2.805111845308028151e-01,5.569467553838941543e-03,5.555589492878597845e-03,9.115519081442835861e-03,1.040341174579121307e-02,2.892315089702606201e-01
-2.671288537195552482e-01,-2.822694131716672050e-01,-1.999080085950594166e-02,1.268387690623143035e-02,2.242563360301867356e-02,1.430907060152385689e-02,2.601035833358764648e-01
-3.117422583936166891e-01,-3.108157128413807646e-01,-8.627061078639530756e-03,-2.050705106956134431e-04,3.647932563623106951e-03,-3.831093757977663532e-03,3.027918636798858643e-01
-3.197511287460068630e-01,-3.242701519483142114e-01,-2.466369225123310471e-02,5.016201613509886637e-03,1.254097733660768663e-03,-6.803451706730614642e-04,2.975098490715026855e-01
-3.021220757075732677e-01,-3.357310659092579419e-01,-1.974731014593472667e-02,3.469131857039041422e-02,5.627218935038175857e-02,1.700235072747557225e-02,3.230058550834655762e-01
-3.289578880244511394e-01,-3.254508900956616380e-01,-1.881912480227418416e-02,4.150036288316723103e-03,-2.803421713716940534e-03,3.047974911209138369e-04,3.085226416587829590e-01
-3.173795262979041132e-01,-3.163910699602534016e-01,-4.902572220395196023e-04,1.928238111536688393e-03,1.780748332404491485e-03,-2.566804878050033076e-03,3.164601027965545654e-01
-3.129058298235017355e-01,-2.667397606060230020e-01,-1.350391396057290527e-02,4.346642190446785292e-02,2.264283584337082461e-02,1.698960447190394490e-02,2.932961285114288330e-01
-3.223020355007664706e-01,-3.140936952803240478e-01,-1.878663841638955612e-03,1.426510718414621169e-03,4.793077466417374746e-04,-8.989499744117809875e-04,3.164136409759521484e-01
-3.341679771266089505e-01,-3.289392950824115980e-01,-1.585533896536955867e-02,-7.628432121447632644e-05,1.447900273982813228e-03,-5.516649480267651375e-03,3.158853054046630859e-01
-3.265432318099089071e-01,-3.341488258783565923e-01,-1.425776582040738649e-02,-1.523415188824274544e-03,-5.131734657249702137e-04,-3.143574411677353773e-03,3.162160217761993408e-01
-3.216628703218967211e-01,-3.142593930967433891e-01,-5.701882024901711032e-03,3.689470168340041375e-03,1.492770882234276824e-04,-9.534404536026589664e-04,3.123949170112609863e-01
-2.370636463266133087e-01,-3.024949179147139455e-01,-3.513440650671728616e-02,-2.914411612691061859e-02,1.717762864423995686e-02,-9.226590063505048234e-03,2.489134371280670166e-01
-3.156216936596826228e-01,-3.154686559920911737e-01,-4.438843010577953052e-04,7.571215699698679918e-04,1.444381574281143697e-03,-3.169472455539736142e-03,3.151617944240570068e-01
-3.204965606139023593e-01,-3.184514721798378800e-01,-4.388357832525446867e-03,3.398083508467537265e-03,1.413742313206638526e-03,-1.683001438619304881e-03,3.151685893535614014e-01
-3.035669378668800489e-01,-2.967036764572060781e-01,-3.426309109266889585e-03,-5.632895489944341350e-04,5.075404877536716626e-04,-4.855651620257860589e-03,2.968905866146087646e-01
-2.722843523635012364e-01,-2.712762987659750324e-01,-3.607983770669148660e-02,-1.753193754970394473e-03,1.831506103226844279e-03,-4.883350186940194288e-04,2.357445210218429565e-01
-3.213759015674533814e-01,-3.308177657080081380e-01,-8.472909471100797951e-03,3.884490043080797927e-04,1.008678445204815336e-03,-1.793125119446713385e-03,3.177498579025268555e-01
-3.194745241710333361e-01,-3.177576996101990070e-01,-8.968034513130163088e-04,-2.735176852996900731e-03,-1.495050454449559736e-03,-1.591095508091376533e-03,3.177806138992309570e-01
-2.806096078172296560e-01,-2.816487119804188533e-01,-1.910527093207689542e-02,4.514989676654936578e-03,-5.435933131095431817e-03,-5.375800403685446205e-03,2.624763548374176025e-01
-3.163526265135875315e-01,-3.161394004190126172e-01,-2.367640644704183117e-03,-7.572266664968785787e-04,-1.780841338455304602e-03,-1.839085543107891411e-03,3.139124810695648193e-01
-2.988759379165784047e-01,-3.000539534380662898e-01,1.864605311585387781e-03,-3.007741315948371497e-04,-1.888766290176757895e-03,-9.108734324120498294e-04,3.013536036014556885e-01
-3.188974256338307223e-01,-3.229658423654667154e-01,-1.293636790181570961e-02,2.988398136161093434e-04,7.057722596241111819e-04,-3.563494827297770170e-03,3.080801069736480713e-01
-3.275697277146130681e-01,-3.227952096007077332e-01,-2.993960964778183409e-02,2.361884319894918052e-02,-4.132074530378963134e-02,-2.919934540270038154e-02,3.107072710990905762e-01
-2.708627788160717365e-01,-2.727864824004597177e-01,-3.711634519969025936e-02,-6.539901473232631992e-04,4.868595942533562350e-04,1.410521153469058997e-04,2.347185760736465454e-01
-3.031964916554121814e-01,-2.327990093418776940e-01,-1.776584816731791028e-03,4.591587525156429900e-03,1.091832726872978693e-02,3.150630508027010140e-02,2.792657911777496338e-01
-2.487257790339355012e-01,-3.667384574830692689e-02,4.912661986864999553e-02,5.694754631484742757e-02,9.549658744540936647e-03,1.640846509091566444e-02,2.851881384849548340e-01
-3.119461788884085873e-01,-3.086892402135383850e-01,-4.001176793749866567e-03,-3.950938742506327232e-04,-2.485214704326445170e-03,-5.903702390732273615e-04,3.063622415065765381e-01
-2.737679699934105759e-01,-5.873745937832870745e-02,1.013461311174382318e-02,-3.089206595716391043e-02,3.829160154075037306e-03,-1.597108828889501277e-04,2.621032297611236572e-01
-3.596653108821095124e-01,-2.638823713783629565e-01,-3.073160911616443225e-02,9.789253315654894080e-03,1.052164544898529300e-02,2.731853829821385624e-02,2.978657782077789307e-01
-3.189084478266661637e-01,-3.189572107631347686e-01,-1.062194305212704748e-02,-4.262935651932375954e-03,-2.583413410381616825e-03,-2.394820462915001665e-03,3.084596395492553711e-01
-3.184735852415068180e-01,-3.208635331219716336e-01,-3.926001864421047038e-04,-1.211872077008429704e-03,-8.083998492425786137e-04,-2.908061099638677713e-04,3.192930221557617188e-01
-2.949560043727133540e-01,-8.133468494631024281e-02,4.599750104376279514e-02,1.566533665416947833e-03,5.252239698069612224e-03,3.440272585673991024e-02,3.044489920139312744e-01
-3.790980064846838360e-01,-2.749549220828999552e-01,-3.530843830507521264e-02,6.303561043036309819e-03,6.776654873729990279e-03,2.805592449166273081e-02,3.095999360084533691e-01
-2.962749130561634359e-01,-1.145727879711956887e-01,-7.999785180838325793e-04,-3.650711871627162347e-02,-1.711296470831829425e-03,6.260061249340789259e-03,2.660025060176849365e-01
-3.180813401174388266e-01,-3.231171879868507402e-01,-1.983161124861965163e-02,-4.814185747861333964e-03,-1.664224688135099856e-03,-1.428330603000931964e-03,3.009387850761413574e-01
-3.184712545308173715e-01,-3.242428400059107485e-01,-1.668210887901172557e-03,-1.492583432381744575e-03,-9.551471931690113260e-04,-2.078012454585205862e-04,3.197428286075592041e-01
-3.616899640560053975e-01,-2.148245546308207021e-01,-4.899574027726968928e-02,-3.129014139787308912e-02,-8.395992106176553352e-03,3.459528852306813229e-02,2.831295728683471680e-01
-3.163609309433058625e-01,-3.282345471009380233e-01,-7.671797370451732823e-03,8.355608570669969658e-04,-8.321626896947136726e-05,1.505168113148117699e-03,3.148081004619598389e-01
-3.168463641488115101e-01,-3.278608299060709608e-01,-1.004313537095685716e-02,1.689583438447509996e-03,4.451306211842089586e-04,9.976870634145244767e-05,3.124707937240600586e-01
-3.134540366252624444e-01,-3.215236228170088029e-01,-3.027873522118917915e-03,-5.704669498687790601e-04,-2.354725204755418570e-03,-2.234405342642479565e-03,3.145903944969177246e-01
-3.099885241808381098e-01,-3.168309899551953746e-01,-9.907459239668070516e-03,-7.606509336472590905e-04,3.888223163506474857e-04,-2.556653331677185594e-03,3.035960495471954346e-01
-3.165791449584117734e-01,-3.281567978375827810e-01,-6.760042472643890132e-03,4.098462205211023069e-04,-4.803990457255115452e-04,-1.435192034192925032e-03,3.157788217067718506e-01
-3.147997036817320460e-01,-3.227852003757825106e-01,-2.771235235072749825e-03,-4.752449761395897781e-04,-8.928838066569853718e-04,1.318890236660147830e-04,3.161018192768096924e-01
-3.095398320235416278e-01,-2.948247499787999271e-01,-5.769605358132978701e-05,4.440273571224727031e-04,-1.430450344700748191e-03,-7.626988883536996514e-03,3.026927709579467773e-01
-3.174734204389967340e-01,-3.206310335014628810e-01,-6.113950818190216907e-03,-6.563397563786301176e-04,-2.678421127374992772e-03,-3.361826464455535280e-04,3.129872083663940430e-01
-3.195939658249319359e-01,-3.299501979630055093e-01,-3.222687054614797875e-02,-2.134690625686268706e-03,-4.547453588807831614e-04,-1.025818339471884722e-04,2.927071154117584229e-01
-3.112715015799788487e-01,-3.200573695603119440e-01,-4.747383381784847645e-03,-4.581247456145762752e-03,-7.494991805864727923e-04,-3.782724457444877446e-03,3.111830353736877441e-01
-2.681885931545345270e-01,-2.719794971174651077e-01,-3.137607408881751270e-02,-4.046755525754699295e-03,1.465901224520659366e-03,-3.414738649975158392e-03,2.389201372861862183e-01
-3.175663550328062801e-01,-3.245319381758115518e-01,-5.736410350152099102e-03,2.104494906417819539e-04,1.036504648955321279e-03,-3.251021810303816439e-03,3.154260218143463135e-01
-3.247665655391966388e-01,-3.177578901736910488e-01,-4.506092823979790385e-03,2.126635195371822870e-03,9.959759044780385449e-04,-2.813401146871951329e-03,3.168778717517852783e-01
-3.207225041716789127e-01,-3.154401153171167427e-01,-2.455075698817338337e-03,1.641188707685138377e-03,1.731781686254667838e-03,-3.132390318350049968e-03,3.157330453395843506e-01
-3.135544302352245016e-01,-3.257357007089983214e-01,-5.551109559559674889e-03,8.478162878205349178e-04,2.541550153650001202e-04,-3.153407465992696577e-04,3.142752647399902344e-01
-3.195680551527926294e-01,-3.292273256568624129e-01,-1.023169739979798432e-02,2.201498677225536150e-03,6.774262060520335783e-04,4.151359562080287886e-04,3.143034875392913818e-01
-2.980315377198129445e-01,-3.057629193769877407e-01,-3.244206135493477028e-03,-1.829750380413769275e-03,1.050578400164445259e-02,-1.005556963081171394e-02,2.998048663139343262e-01
-3.182193846236041068e-01,-3.198931234271861213e-01,2.696112014957119385e-04,1.818972317995607574e-03,9.205731887992419163e-04,-6.776735188507016080e-04,3.193508386611938477e-01
-3.135736635050726528e-01,-3.151246028632319063e-01,-6.228176791364559151e-03,1.266889371600165778e-03,1.384108441168419284e-03,-3.420542731621821226e-03,3.081979751586914062e-01
-3.165662786966889630e-01,-3.229189036567979842e-01,-1.509964644853784010e-03,1.549969804555366339e-03,1.065163331115156391e-03,1.580332827971501954e-04,3.182969689369201660e-01
-2.748031841827560107e-01,-2.790808796141701076e-01,-3.995036364964815734e-02,-8.629947561928703230e-04,7.112699627854394231e-04,-2.059565742095484202e-03,2.370553761720657349e-01
-3.204750665843323909e-01,-3.206892088733621637e-01,-1.110195551154763427e-02,4.333973475312843417e-03,1.605967600692365018e-03,-1.376777103767147471e-03,3.095929324626922607e-01
-3.182699440968899118e-01,-3.160714965833269496e-01,-1.110213837575813045e-03,1.776185596294636718e-03,1.198083104660390558e-03,-2.752499828069664319e-03,3.161239624023437500e-01
-3.198710147055970343e-01,-3.168152917126356716e-01,-6.870206936183398394e-04,1.135208734444483492e-03,1.989925848654841090e-04,-1.213612174274594953e-03,3.176803886890411377e-01
-8.732737492140137114e-02,-2.340531903691234483e-01,2.623324626621195699e-02,7.366198988182473539e-02,-1.356958291660180678e-02,7.508092643689112493e-03,2.609339654445648193e-01
-2.231231614514651296e-01,-2.483576476816025114e-01,-2.170816692841567863e-02,2.797021122302614446e-02,5.259862638819680879e-03,4.039115962304789913e-03,2.208309769630432129e-01
-2.131967588192298368e-01,-2.906253382929374629e-01,-3.163288141531453435e-02,6.810796175812530717e-02,1.939655094836012506e-02,1.788963364318089944e-02,2.627236843109130859e-01
-2.550921389680290696e-01,-2.522935329321583930e-01,-1.973095768674870687e-02,1.368121461098272158e-02,4.768769753841541233e-03,4.852231375655316134e-03,2.354663759469985962e-01
-3.239725872121280714e-01,-3.191641620575942362e-01,-5.505964276890040754e-03,2.884610622936256089e-03,1.490225278307916613e-03,-1.719378049703871149e-03,3.161538839340209961e-01
-2.464952705172173131e-01,-2.850261836055900111e-01,-4.662504875936104853e-02,6.323007124746772567e-02,-3.080156182776050498e-03,3.407824194258640802e-04,2.472991198301315308e-01
-3.047362418581944787e-01,-2.906774969273555609e-01,-4.536817827753419907e-03,-3.567975625021521766e-04,1.076707212614877625e-02,-1.022741661633047583e-02,2.945486009120941162e-01
-2.778415637344055500e-01,-2.793340029952190995e-01,-3.622299722362684604e-02,-3.295070968742491702e-04,1.202050983568775768e-03,-2.807655790715722979e-03,2.424266338348388672e-01
-2.846196692606249301e-01,-3.094633118154541673e-01,-4.833411162777373482e-02,3.533263396591798666e-02,-1.356996443286111187e-02,-8.410928463680257192e-03,2.585113346576690674e-01
-3.325982508762980183e-01,-3.311742644268821367e-01,-6.575821100106885031e-02,-1.599212023973668783e-03,5.396470867027459810e-03,-3.687965466965163232e-03,2.663860023021697998e-01
-3.132729013409930596e-01,-3.131901338470381435e-01,3.390470856956068202e-03,6.032070102671099974e-04,4.856353077732154908e-04,-3.704886139798321799e-04,3.166254758834838867e-01
-3.162344193990938579e-01,-3.168201941713405523e-01,2.018503064192156415e-03,7.363827714530225008e-04,1.928383486276364430e-04,-4.237649130792980060e-05,3.185489475727081299e-01
-3.207118094092237248e-01,-3.187507406664616405e-01,-2.296307132076957913e-04,-1.321682696879723654e-03,1.189821183986171809e-05,-1.558269154111349643e-04,3.195144832134246826e-01
-2.753333906174965096e-01,-3.086953493474112742e-01,-3.928967824186263558e-02,1.091779661047682405e-02,-1.166098143696961062e-02,-1.139187005137408566e-02,2.566308379173278809e-01
-3.252815880786937286e-01,-3.233844317327663753e-01,-1.943637876909062867e-02,-6.265118784857331112e-03,-2.050848180013160708e-03,1.176722914796481242e-03,3.051216006278991699e-01
-3.029517207754044428e-01,-3.086283106565715917e-01,-1.962910547075419343e-02,7.974781093989162604e-04,-2.419944977620374239e-03,-3.467715799477092721e-03,2.863001525402069092e-01
-2.893704922244509925e-01,-2.807325362658599222e-01,-1.298377702148201251e-02,8.186930891511188906e-04,-7.188496218465957079e-03,-4.778842139449132088e-03,2.725845873355865479e-01
-3.090109757583908157e-01,-3.093861359689134005e-01,-4.999228570376490488e-05,3.151503791039909192e-04,-2.527316897266372250e-03,-3.662946932031700339e-03,3.092452883720397949e-01
-3.132784775812890721e-01,-3.113999739949857570e-01,2.847535064856465681e-03,-3.691325645326803029e-04,-1.021340235886496780e-04,-8.470120496862264476e-04,3.151950836181640625e-01
-3.161574345464577274e-01,-3.156254561271863990e-01,9.523404566295357032e-04,-9.531338362105307204e-04,-2.226369980977462579e-04,-1.089614088389640259e-03,3.168542683124542236e-01
-3.087965229063492356e-01,-3.092886900452319621e-01,1.253764184178107755e-04,2.561335130948774840e-06,-2.608025265157196473e-03,-3.269793318093939215e-03,3.092531263828277588e-01
-3.155902319397467792e-01,-3.156447428350345752e-01,2.262900349779883857e-03,-5.035884568195127904e-04,-8.757285329385199090e-04,9.593380703612094625e-05,3.178852498531341553e-01
-2.932736767302328018e-01,-2.934594623243222955e-01,-5.605685490677386751e-03,8.446823023048083846e-04,-3.539453320309334308e-03,-4.611002880125944677e-03,2.879407107830047607e-01
-3.464945977706588298e-01,-3.332040497690745839e-01,-4.154323244998828213e-02,4.362608224931818074e-02,-3.386126217833498875e-02,-2.969609669066751098e-02,3.176696896553039551e-01
-1.111440369037164783e-01,-4.364310895504661669e-01,-5.031478607468631292e-02,-3.086906536949344734e-02,-3.955119839355128800e-03,-5.736459278193007869e-03,3.637350499629974365e-01
-2.989209719224994455e-01,-2.957386079037246929e-01,2.520649351375192637e-04,2.855762523888206658e-03,-7.104979974036478192e-03,-7.357634562603214065e-03,2.981624901294708252e-01
-2.932122382698925112e-01,-2.945481415283702220e-01,-8.884359057668600457e-03,1.855225910154628156e-03,-3.155689768625778192e-03,-7.557551517438816646e-03,2.853690683841705322e-01
-3.149850270713543399e-01,-3.152510967015191845e-01,2.313821544861621726e-03,-1.699970221068929088e-03,-1.011566624573625875e-03,-1.195015864308621644e-03,3.174571990966796875e-01
-2.410202311835050459e-01,-3.636235609762664689e-01,-6.068002809891609450e-02,-6.102159651931890472e-02,4.492100047431792607e-03,-5.410412508392396617e-03,2.845764160156250000e-01
-3.106157530207915296e-01,-3.070422172859989529e-01,-2.808267108367706877e-03,-1.299500350487290106e-03,-4.710218120268934959e-03,-8.568964624884525946e-04,3.061569631099700928e-01
-3.194209441695048390e-01,-3.192411152903257832e-01,-9.510585366474200164e-03,-2.309599753234841540e-03,6.109670834303373120e-03,6.578784605610965737e-03,3.102363049983978271e-01
-3.153151384000308366e-01,-3.189789045156269376e-01,4.729356493618774859e-04,-2.623935086517354895e-03,-1.376568557094577823e-03,-1.174352562263705898e-03,3.176837861537933350e-01
-3.056791851205616917e-01,-3.080001366609023128e-01,1.694864819111185916e-03,1.334663639713607429e-03,1.890934405379148366e-03,9.364272016130361460e-04,3.085713684558868408e-01
-3.161391428359611733e-01,-3.135674148292587615e-01,-4.808942950242506287e-03,-1.589485652338272015e-03,1.069120904186121167e-03,4.767973373706759117e-03,3.101800382137298584e-01
-2.334410949650275735e-01,-3.616974800282840019e-01,-3.632428175130927861e-02,5.372149588358732936e-02,-7.532228163937976229e-02,-6.040169776181526090e-02,3.423589766025543213e-01
-3.286299130075608921e-01,-3.350718230945081144e-01,-9.985454517434225186e-02,-1.560280716088373971e-03,2.549442412060404315e-03,8.735440116514631842e-03,2.326137274503707886e-01
-3.189368992930253222e-01,-3.222497085103366299e-01,-5.067557341297146412e-02,6.131796409278669237e-03,-5.347517176447821180e-03,-2.132091053659220751e-03,2.703257799148559570e-01
-3.214694816759725571e-01,-3.298517763370891753e-01,-2.472035484072485079e-02,-4.363258486943846423e-03,1.326628969855748281e-03,2.175051663227750391e-03,3.011550009250640869e-01
-3.129109535127520547e-01,-3.128877254429084931e-01,9.513986903484372704e-04,-1.006227881702727675e-04,1.261435741921123482e-03,1.552749406027053745e-03,3.138699233531951904e-01
-3.161876360783806850e-01,-3.159329245815631904e-01,-1.696418949589079128e-03,-2.022828767320610215e-03,3.098461027846105900e-03,2.307194507152480860e-03,3.144546449184417725e-01
-3.161564993209561303e-01,-3.283727250382436624e-01,-1.060929286616602019e-02,-1.616571958816743256e-03,-5.695594887418105583e-04,1.576576571434948782e-04,3.118490874767303467e-01
-3.124606471455450007e-01,-3.119855654437119208e-01,1.327831003033103086e-03,-1.651144561072285155e-04,1.257800897808491938e-03,1.627439198882756240e-03,3.135715723037719727e-01
-3.117967487185395181e-01,-3.273188871230540697e-01,-9.176697274519779457e-03,-9.493127319861602775e-04,-1.290943887565908048e-03,4.623069592105505626e-04,3.106855154037475586e-01
-2.999921866636294787e-01,-3.251127584584317387e-01,-1.863689246603641991e-02,4.176089401377690649e-03,1.798530099124288212e-02,-3.771591250518020310e-03,2.965216040611267090e-01
-2.992376106082164089e-01,-2.850120397237531078e-01,-3.747768611011004225e-04,8.964008299493206365e-04,-4.190493600624795555e-03,-1.569912232709914576e-02,2.933672666549682617e-01
-3.161988306220553380e-01,-3.183868775778689875e-01,-5.594467713272405218e-03,-1.063696440333982427e-03,-4.422395803942790783e-03,-9.797940884677914467e-04,3.118083178997039795e-01
-3.112039506807025568e-01,-3.044268940732903217e-01,-5.483333276348284491e-03,1.462506241401431099e-03,5.955731122281584730e-03,-4.946759289869379593e-03,3.026968538761138916e-01
-3.187485930692041114e-01,-3.319149364723764650e-01,-1.344399754791356094e-02,4.198635476624299205e-04,-1.449128082789729927e-04,-4.058743439067986794e-04,3.120978772640228271e-01
-2.970680346239760183e-01,-3.123072986422303354e-01,-3.944274318402213320e-02,5.696922325444391151e-03,7.629201976200416027e-03,7.243751000225983607e-04,2.660875916481018066e-01
-3.409046951352033838e-01,-3.330488840920307059e-01,-5.588462290591339476e-02,-3.839195536172614661e-03,-1.027991271695935689e-02,-2.042498327055935082e-03,2.818383574485778809e-01
-3.152398507644406100e-01,-3.233746124547519640e-01,-7.512803672192008841e-03,3.452543008657737913e-03,5.185298086029862131e-04,-2.058093216055354097e-04,3.119328320026397705e-01
-3.317373420990974986e-01,-3.193333874492187974e-01,-2.351833015860585463e-02,-3.799048564411481709e-03,-1.940110053947291177e-03,-1.866756817837879898e-03,3.023156225681304932e-01
-3.354287340780411353e-01,-3.284909745512402113e-01,-5.287756605215673811e-02,-5.116028810176015580e-03,-8.457266369205612005e-03,-4.038790216932922582e-03,2.797589302062988281e-01
-3.203060119831611097e-01,-3.236556422684491729e-01,-3.286237659638377440e-02,-4.898809693624195036e-03,5.886932598506964577e-03,-3.503226847023330724e-03,2.895007431507110596e-01
-3.005983591942986699e-01,-2.787426932260616552e-01,-7.631599968950547597e-03,5.285852291951598919e-03,6.145356818434204345e-03,-6.944913903432533252e-03,2.832772731781005859e-01
-1.901940294468837112e-01,-4.360365626884634693e-01,-5.448173668117275992e-02,-1.563025581869252265e-02,2.679263783848738825e-02,1.057957198926637527e-03,3.392786979675292969e-01
-3.219295640314009388e-01,-3.285661491737000839e-01,-1.302367626467440531e-02,-4.480481952326660156e-04,5.438616187790051154e-03,-4.373029863202899416e-03,3.125118911266326904e-01
-3.165980336970010134e-01,-3.167271221876343801e-01,4.556905040940806284e-04,6.779805361164224255e-04,4.469210551982448726e-04,-1.015848901812253097e-03,3.171262741088867188e-01
-3.029748638713199438e-01,-3.047715442612306536e-01,-2.341362744232883264e-03,-2.277912482212251784e-04,2.306401324079245668e-03,-9.350651928674056463e-04,3.015669286251068115e-01
-3.151881673998473965e-01,-3.180947325807961801e-01,1.035758553945415050e-03,1.677858642583511094e-03,1.219950101667653924e-03,-5.919634622452337727e-04,3.177091479301452637e-01
-3.127977174603596144e-01,-3.104637477346463004e-01,-5.769429949773502431e-03,-8.064528480350208238e-04,4.730177305029215551e-05,-8.633777078095104633e-04,3.058748245239257812e-01
-3.157239538413700863e-01,-3.183161159120126982e-01,1.167863461764256927e-03,2.332463047394831826e-04,1.041761382769034990e-03,-1.173783734390126043e-03,3.182076811790466309e-01
-3.148485129646693137e-01,-3.143591541755415553e-01,2.695094638381329011e-03,1.808114822423459510e-04,6.924213701657334907e-04,-3.547243370320033807e-04,3.173022270202636719e-01
-3.168111797899215709e-01,-3.187939346996168100e-01,1.339578118317669153e-03,4.236227049040151133e-04,4.602113246889223165e-04,-7.424148670151949330e-04,3.191511929035186768e-01
-2.668726998261498062e-01,-2.733164011730208620e-01,-3.602186182646502366e-02,-4.034754611441330498e-03,7.815432030863323594e-04,-2.195016742570435851e-03,2.342782318592071533e-01
-3.162209301753230450e-01,-3.163737607016927078e-01,1.005498476839311595e-03,2.434575403982880453e-05,-2.145798923291589803e-08,-5.147427367799276487e-04,3.173041343688964844e-01
-3.144329977539330745e-01,-3.146373922432804671e-01,-1.900899965208008302e-03,1.593833313309014595e-03,2.792786572834801955e-03,-3.050261495213346750e-03,3.127285838127136230e-01
-3.439422976225685047e-01,-3.481791590325471475e-01,-4.573507074602517486e-02,7.099689230478816761e-03,1.177671468183378277e-02,7.544890415033398334e-04,3.012938201427459717e-01
-3.314702698849472107e-01,-3.269271048788549017e-01,-9.239897511450193002e-02,-1.852833517619873957e-03,-1.124033350856965419e-03,-8.742952439020852673e-03,2.373457252979278564e-01
-3.548690957726981510e-01,-3.494021067400063241e-01,-6.707392084591348724e-02,-7.894172221714124138e-03,-1.279374109457756710e-02,-4.067143895853058029e-03,2.863742113113403320e-01
-3.264725902246687905e-01,-3.286627645187302216e-01,-6.838144059022510657e-02,-5.111144579730677283e-03,-2.789792359614107296e-04,-1.686526895375023839e-04,2.593449354171752930e-01
-3.213703743990282136e-01,-3.214352862993715698e-01,-7.708177776531746628e-02,-2.216648378891378224e-03,-5.658403804722657651e-03,-3.770098039828253048e-03,2.446348518133163452e-01
-3.385589379852352310e-01,-3.238593848726037949e-01,-5.956978759814596236e-02,-2.735314544060795088e-03,-7.941984251641644177e-03,-1.251825993717359947e-03,2.723350524902343750e-01
-3.064886219025514391e-01,-2.920970861356394499e-01,-1.002247788036828013e-02,-1.287997824968300413e-03,7.689074813463207120e-03,-6.079400009409764195e-04,2.898553907871246338e-01
-3.197354852919817580e-01,-3.173526132378993725e-01,6.868520793147647741e-04,4.534756059828121111e-04,7.206562213480085730e-04,-9.209398658942208674e-04,3.192449510097503662e-01
-3.160462508736689990e-01,-3.280411133841495963e-01,-1.178127381193846968e-02,-9.478251972196125074e-04,6.365794923273326950e-06,-6.637601007584346914e-04,3.104427158832550049e-01
-3.151721495547513685e-01,-3.198393501616559886e-01,-1.518837342487117104e-03,2.257039821660399893e-04,3.240151088626427086e-03,4.018532275182650979e-03,3.161394596099853516e-01
-3.191302049564855858e-01,-3.218307465919419408e-01,-9.880120955262472471e-03,-7.887517715381879091e-04,2.882049670316029488e-03,9.102830867467949158e-03,3.110521137714385986e-01
-3.181745963348732165e-01,-3.242364763398869476e-01,-5.590882282263287539e-03,-3.500583678512927954e-03,1.535610908393826926e-03,7.521638507018096973e-04,3.157304227352142334e-01
-3.225719050628075291e-01,-3.209886787490058291e-01,-1.161955180743723393e-02,3.530618283798424122e-03,3.419930780784576595e-03,-4.549975264415340691e-03,3.103806674480438232e-01
-3.223342426916311898e-01,-3.255426231028147877e-01,-1.760313665459273258e-02,-4.106379381466999760e-03,6.198426997621297573e-04,-2.204190147318259557e-03,3.064561188220977783e-01
-3.131010371577691020e-01,-3.211067544877714841e-01,-3.508447383964552468e-03,2.237588353891965473e-04,9.669371707047302606e-04,1.720060714113854673e-03,3.136909306049346924e-01
-3.162638001915898944e-01,-3.160178547534771565e-01,1.788600684248381478e-03,8.111242816814102745e-04,1.224041296547202307e-03,-3.920997090479244065e-04,3.179403841495513916e-01
-3.207686577852942311e-01,-3.171428509688924979e-01,-4.764037744070220848e-03,-2.090318025650050957e-03,3.397671394491830915e-04,2.179945422676932056e-03,3.142515122890472412e-01
-2.918811652477485974e-01,-2.881790738739796187e-01,-1.029131925335863285e-02,-1.258574954949509593e-03,5.255544462132940436e-03,-1.239339552254122099e-03,2.799219489097595215e-01
-1.043576568166743740e-01,-2.657425502272350304e-01,2.021292785939046710e-02,-1.414628904028064106e-02,1.959250603482550271e-02,-5.497010600959947695e-03,2.520105838775634766e-01
-3.313203498170779748e-01,-3.402103594813084553e-01,-1.700673499828445068e-02,2.830304543630331356e-03,5.777523668878922422e-03,-1.242664178566959057e-03,3.190535008907318115e-01
-3.172494429214497424e-01,-3.163065083483479478e-01,2.539358843539840649e-03,4.738278458178604821e-04,6.600875408129009293e-04,-6.018971442828715667e-04,3.193231821060180664e-01
-1.678577448919774395e-01,-3.007963549251627122e-01,-1.323363412760475422e-02,-9.490682669339639554e-03,1.505813692153186618e-02,1.707679716191210211e-03,2.511892020702362061e-01
-3.368395912127830627e-01,-3.159017904965877865e-01,-3.440752897430343626e-02,5.500692634559811332e-04,1.247353437303853592e-03,-2.244796411338688229e-03,2.925610542297363281e-01
-3.322045761050786972e-01,-3.241903913148639349e-01,-2.547100637231014542e-02,2.063815050678348331e-03,-2.776856649884724016e-03,-1.055002620251316650e-03,3.028708398342132568e-01
-3.266266410623960281e-01,-3.169347466463403595e-01,-4.745487526313874049e-03,7.986601222769595812e-04,8.815266445477522913e-04,-1.088266148305508342e-03,3.171585798263549805e-01
-3.166572238597256117e-01,-3.216749641592198672e-01,-4.237802463812223586e-03,-2.194858250314973066e-04,3.017470648184115284e-03,-1.727231055916171728e-03,3.150160610675811768e-01
-3.275982191134831356e-01,-3.153353872031458560e-01,-9.618879711173033975e-03,-8.595837439351370441e-04,-5.531089475914299823e-04,1.451007599322617881e-04,3.120338320732116699e-01
-3.167621146634730933e-01,-3.216482233716005390e-01,-2.445662766310890968e-03,8.771689197105380894e-04,1.669408654108701061e-03,-5.885749867372693867e-04,3.168062567710876465e-01
-3.162178940213710154e-01,-3.208206010172918177e-01,-4.892059972704254633e-04,9.228365537441325910e-04,1.269691039893444109e-03,-3.975695881928597761e-04,3.180673718452453613e-01
-3.361211544512583971e-01,-3.214349211128811890e-01,-3.046667583687215353e-02,1.228642472816894853e-03,-5.162200502981439086e-03,-1.492812849725924014e-05,2.987237870693206787e-01
-3.237205196889622605e-01,-3.181116434552836991e-01,-6.798375726736111124e-03,-4.518843000772108541e-04,2.837982947335738245e-03,5.050677727477401397e-04,3.141959011554718018e-01
-3.266847279669496396e-01,-3.165884150651565587e-01,-7.966655333872307843e-03,1.506333951531484789e-03,-9.873396638394255423e-04,-3.741342854923980932e-04,3.138079345226287842e-01
-3.117210536013460542e-01,-3.192890419541424274e-01,-3.785398282534435666e-03,2.274029440384944117e-03,-1.108471727048656040e-04,5.953420739256721876e-03,3.119839429855346680e-01
-3.229777088065126645e-01,-3.337119619870391185e-01,-3.224241457369442232e-02,-8.292110453105479024e-04,-1.030428243509506133e-04,-3.726162920019180508e-03,2.963221371173858643e-01
-3.175505866030568503e-01,-3.200568222693722098e-01,4.445466403454889637e-04,4.778442518816865704e-04,1.207125951992988862e-03,-1.166270828680236694e-03,3.192699253559112549e-01
-3.236337367902777928e-01,-3.177921768859953700e-01,-2.412568394458164400e-03,5.082939351842606993e-04,6.435810711979350835e-04,-1.333124654101043062e-03,3.183521330356597900e-01
-3.163522768742583757e-01,-3.249230326999469343e-01,-1.066582221640299810e-02,3.406811271440561475e-04,-1.629249260563791395e-03,3.242295042530218569e-03,3.101249337196350098e-01
-3.222285704317974786e-01,-3.198664097694999264e-01,-7.422234246818287806e-03,3.383305747221629703e-03,-3.063394307060202017e-03,3.996690591936752010e-03,3.138079047203063965e-01
-3.009656728621572519e-01,-3.062801511633371776e-01,-3.173584095040704600e-03,3.452310327882084431e-04,-3.608064067045098442e-03,5.369656482898802971e-03,3.006940186023712158e-01
-2.393507093847435652e-01,-2.762450894861633310e-01,1.777021912173215590e-04,-1.050427609012312760e-02,1.347414127285288289e-02,-1.120568645330006358e-02,2.623445987701416016e-01
-3.013065201643585489e-01,-3.068601343249999225e-01,-1.525602932963124325e-02,6.488733371948057207e-04,-1.207059933119049170e-03,7.100333082426502594e-03,2.891387641429901123e-01
-3.226881044398917098e-01,-3.211877254554622585e-01,-2.717235133413667403e-02,1.993122952008790760e-03,5.487617831425299457e-03,-1.606460679684633538e-03,2.949549555778503418e-01
-2.764895665716144979e-01,-2.852792827827388966e-01,-1.435544687960674248e-02,-6.538020401783627492e-03,-6.141135385548203429e-03,8.886254307247726941e-03,2.675330042839050293e-01
-2.969633249235282824e-01,-2.986912926216670483e-01,-1.389343837643838842e-02,1.484934933851777411e-03,-1.759383576838946832e-03,4.782023556538787107e-03,2.840865850448608398e-01
-3.056717938501798404e-01,-3.006196230321064311e-01,-3.827682912806218418e-03,-1.013435780245028990e-03,-5.164087385420375667e-03,3.929501543706364827e-03,2.995660603046417236e-01
-3.147273883229205205e-01,-3.146999276894729136e-01,-1.034570537954523917e-02,7.681383364111377945e-04,-4.887232348360855821e-03,3.613700124542329212e-03,3.045528829097747803e-01
-3.154362924858192807e-01,-3.157919956031970954e-01,1.301008076069282149e-03,-6.666944250517054318e-04,-1.297315832025036869e-04,-9.132976580137192307e-04,3.169214427471160889e-01
-3.435194766382309028e-01,-3.936812321742657605e-01,-3.552543362418464357e-02,-1.787803508389728888e-02,-4.561314247304281561e-02,9.873729863667881496e-03,3.468703925609588623e-01
-2.777264482069257134e-01,-3.072183128669100927e-01,-1.042577661770011099e-02,3.595370178347732926e-03,-1.227729735759255057e-02,-5.326916300362724392e-03,2.842159569263458252e-01
-2.270621607025450905e-01,-2.787595784510449315e-01,-1.321181161833540063e-02,-2.698568335910142210e-02,-3.585449409065984139e-02,1.557267054943989315e-02,2.573498487472534180e-01
-3.171614765460625263e-01,-3.219209016576760618e-01,-1.819368464024237464e-02,-5.755143217835310878e-04,6.418478761776017947e-04,-4.158108941606999823e-04,3.013802468776702881e-01
-3.484066083268421155e-01,-3.394638098096041667e-01,-5.214592716565308317e-02,5.168463822810586902e-03,5.086635722622926715e-03,-1.242721765192452170e-03,2.921700775623321533e-01
-3.489726465740079497e-01,-3.611434274748370199e-01,-4.146737550722331966e-02,-3.008170218315261296e-02,-3.291925166964713295e-02,2.710815977212569991e-02,3.265279531478881836e-01
-3.156311483590784617e-01,-3.273752487415785284e-01,-6.558074617104781012e-03,8.132852373701928003e-04,8.824561639176951681e-04,-1.831103432541211990e-03,3.151321113109588623e-01
-3.292802431858078416e-01,-3.338470927009777323e-01,-1.237492867095160709e-02,1.899736275466216854e-03,3.104839422332345174e-03,-3.168610190535760002e-03,3.193226456642150879e-01
-3.185225017906962997e-01,-3.290266223975946147e-01,-6.519216838543895332e-03,6.611451964266182703e-04,8.164538516032110969e-04,-1.387909587180901879e-03,3.174000680446624756e-01
-3.650414644603606762e-01,-2.711430248229774742e-01,-3.151682200690766877e-02,2.870807801636639581e-02,-9.449092528218561854e-04,-3.694786698746067855e-02,3.087211251258850098e-01
-3.136924979914632039e-01,-3.117465145122830794e-01,-2.729880190694145004e-03,8.206237322203971418e-05,3.883589157973754528e-03,-6.278594883673963185e-03,3.102578520774841309e-01
-3.129496563984786039e-01,-3.259411582840900934e-01,-4.947963576031916277e-03,-5.129848866804471302e-04,9.130047834834473654e-05,-1.782113156800614476e-03,3.147150576114654541e-01
-3.312534993096565294e-01,-3.195000135388686990e-01,-9.958755994551232726e-03,-7.684299491891343533e-04,6.236507353327640875e-04,3.631769902274247907e-04,3.155874907970428467e-01
-3.228272077663381090e-01,-3.089115958610578749e-01,-7.752822413255394673e-03,2.591398196478259409e-03,1.400552121577456656e-03,-5.029865135266564993e-03,3.085173964500427246e-01
-3.175230642213131005e-01,-3.278594288628531861e-01,-7.089812106680581927e-03,1.358412531300047608e-03,7.869735059398613513e-04,-2.036978720644196279e-03,3.157597780227661133e-01
-3.239960441491417376e-01,-3.306965706902526558e-01,-7.068809005206344587e-03,1.370340157179639803e-03,2.378288963597554283e-03,-2.807636435542365267e-03,3.204022347927093506e-01
-3.168947673807018806e-01,-3.290228005518927024e-01,-5.853510235688363927e-03,1.586409660007829581e-04,1.226428279167894424e-04,-6.522828342659064797e-04,3.172813653945922852e-01
-2.780251247345317256e-01,-2.765810189292336463e-01,-2.504483171777177608e-02,-4.478112622309480552e-04,-1.387483594160622297e-03,-3.462979445539671273e-04,2.522746920585632324e-01
-3.226257960630476984e-01,-3.113158528657325452e-01,-8.092219453012639008e-03,-6.930385886479303002e-04,3.573329412106533882e-03,-7.288082676823032929e-03,3.093558251857757568e-01
-3.162273295863440303e-01,-3.174282807685786523e-01,-5.890637510450602576e-04,-1.665509004998249123e-03,-5.158166170040726127e-04,-5.079081761435337355e-04,3.162561058998107910e-01
-3.083107229601292354e-01,-2.740476167818184372e-01,-2.106567376148815729e-02,-1.675777276970028765e-03,1.075145865572161956e-02,-8.675409065831845429e-03,2.728053629398345947e-01
-3.324570923425291813e-01,-3.338647031924933395e-01,-3.712159820173485669e-02,-5.823210601153765327e-03,-5.257193835774089975e-03,-3.412625450912789172e-03,2.964124381542205811e-01
-3.035426675896013560e-01,-2.803401496499662304e-01,-3.411668937775003130e-05,1.381675717948865900e-03,-1.655517146385196078e-03,2.349157140267436189e-02,2.954372167587280273e-01
-3.228995094093058404e-01,-3.242804944623624008e-01,-1.403461685175810825e-02,-5.715865270134930579e-03,-1.125302552064198509e-03,-1.208293920197822712e-03,3.097291588783264160e-01
-3.258299354012903493e-01,-3.201093576618639913e-01,-6.688242152301457355e-02,-4.517528468435521964e-03,-1.228084244442105176e-03,-2.548044003110523951e-04,2.562638223171234131e-01
-3.304991500912187186e-01,-3.221198960274309075e-01,-3.512555589600341310e-02,-3.833905110353501809e-03,6.127652812904166649e-04,-1.203088333231482499e-03,2.913594543933868408e-01
-3.171672895261005709e-01,-3.283026778552450287e-01,-6.844120268298087284e-03,-4.089248423364532097e-04,-6.223906030493741182e-04,-1.559755056656735690e-04,3.160407841205596924e-01
-3.279467556005891682e-01,-3.198867574788099022e-01,-6.810459413749719859e-03,1.817231087479663151e-03,-1.286429755681298311e-03,-9.105937931616142015e-04,3.172104656696319580e-01
-2.984174121602750640e-01,-2.966002821658340616e-01,-5.269787810876311318e-02,2.435905225044336306e-02,-1.705255917940864258e-02,-1.547724928904086264e-02,2.516067922115325928e-01
-3.249676480480847007e-01,-3.191162955088796549e-01,-2.506604145565080599e-02,2.703182727181886041e-03,-6.436499823199274845e-04,-2.691362346240888919e-03,2.970947325229644775e-01
-3.238709574590591944e-01,-3.233713253705096102e-01,-9.369911310071227240e-03,-1.828609947237950758e-03,-6.400914045759855276e-04,2.224473513633933703e-04,3.142696917057037354e-01
-3.196357124976907382e-01,-3.228026374418648814e-01,-2.419014318612908165e-02,-1.866175987714730400e-03,1.358221531420536130e-02,-6.938150008175724553e-03,2.982315421104431152e-01
-2.360448380528838985e-01,-1.453950358126831766e-01,1.945249804092696877e-02,5.787049369793482306e-02,2.820325960879213265e-02,6.458418559845606477e-02,2.743758261203765869e-01
-2.031378138215947371e-01,-2.876624600430127132e-01,-1.537733958295064984e-02,-2.154313489467157144e-02,1.362824948254007067e-02,-9.119726214982261034e-03,2.459020465612411499e-01
-3.178216762896995395e-01,-3.148554345189233938e-01,-5.346627891367833341e-03,2.777969905807022846e-04,-2.521948165683199784e-04,-1.308078672839884131e-03,3.110114634037017822e-01
-3.199230215338831340e-01,-3.151954182967006690e-01,-2.329044442971384132e-03,3.141296326760645470e-03,1.972307340562263686e-03,-3.768709710820545081e-03,3.153897821903228760e-01
-3.127124272172393527e-01,-3.126254574128505825e-01,-2.419090296217701885e-03,6.087595967001251324e-04,-3.118455053423277966e-03,4.170758326337412059e-03,3.103827536106109619e-01
-3.037224558199868585e-01,-3.134134267581745181e-01,-5.905211248148883874e-03,-4.164724298787963303e-04,1.084011512278434258e-02,-3.312384337258213358e-03,3.034157752990722656e-01
-3.393141848876998212e-01,-3.323027939289055488e-01,-3.751084256990872001e-02,-4.752715853543707306e-03,3.501222374673467613e-03,-3.148424196213616029e-03,2.985843718051910400e-01
-3.148989032198491467e-01,-3.136780241119220269e-01,-5.325124021989924294e-03,8.232248591922414465e-04,1.840821649501136507e-05,4.519833762816546918e-03,3.090676069259643555e-01
-2.818936614256811746e-01,-2.655304607321793409e-01,-4.193990369936106966e-02,2.794191990708541368e-03,-1.383974352152805669e-03,-1.189137213979914783e-04,2.322678565979003906e-01
-2.832163952890731640e-01,-2.643462805281725503e-01,-2.485834138719489328e-02,4.468374976363737039e-03,-6.961822290571356361e-03,-1.011974564122516832e-03,2.498761564493179321e-01
-3.259784490130035461e-01,-3.205346322120440905e-01,-2.313427893128955359e-02,-4.254643153190110563e-03,-6.068469571822107406e-04,-1.417029955154449879e-03,3.002616167068481445e-01
-2.716813483951295849e-01,-2.750781953200323593e-01,-3.151024313285535894e-02,2.948763251447465358e-03,-1.712337856171857126e-03,-2.740980321580216515e-03,2.420060783624649048e-01
-2.548011919502511935e-01,-2.313127517789806409e-01,-2.421362691573547554e-02,1.059269903261735209e-02,-1.096104871200238341e-03,1.469282262160026087e-04,2.205594629049301147e-01
-2.495694108574440517e-01,-2.538980271911474018e-01,-2.376390071607670240e-02,1.441255628108230324e-02,-8.577044948948316441e-03,-8.128398211347484872e-03,2.302745431661605835e-01
-2.819862786763278062e-01,-2.876213896083090193e-01,1.048005755332453992e-03,6.918116696594075153e-03,-5.226081750334865897e-03,-6.187901290428145067e-03,2.864881753921508789e-01
-2.348174290300603373e-01,-2.736949234818243371e-01,-2.528880396453758728e-02,9.217762656015246470e-02,-8.224808239311957522e-03,-6.766335312511985098e-03,2.817624807357788086e-01
-3.162391140242789556e-01,-3.180577446664077379e-01,-2.564085916531566589e-05,-6.242756754461163378e-04,-9.839417232906464555e-04,-2.459560849276887164e-05,3.171331286430358887e-01
-3.156948212423815736e-01,-3.194616130927377950e-01,-1.121657099796280477e-04,-6.707974309849140931e-04,-1.430474898307918007e-03,2.582395385446251059e-05,3.174946010112762451e-01
-3.184122143196612686e-01,-3.142649670928094885e-01,-2.279548561782251959e-03,-1.966141347969821169e-03,-2.127672733414555373e-03,-3.385471354758150513e-03,3.141743838787078857e-01
-3.152305581929634171e-01,-3.192995962770202034e-01,-6.446455081340340953e-04,-1.007509987363695760e-03,2.288592677754820465e-03,9.485058100383750128e-04,3.166739344596862793e-01
-3.168825414684501296e-01,-3.128100737910492479e-01,-5.499372732195861868e-04,-1.664808694350690486e-03,-1.180771268976373890e-03,-1.115108024465183206e-03,3.143419623374938965e-01
-2.820697704942976558e-01,-2.813354122994591311e-01,-4.653389068148741647e-02,7.576912203093174106e-03,-1.687208613118298690e-03,-1.319709046570816504e-03,2.355646789073944092e-01
-2.726380348139986198e-01,-2.749551279497049472e-01,-3.402167726003338388e-02,3.966222986513564565e-03,-2.817696976172458147e-03,-2.181399559423892725e-03,2.399610728025436401e-01
-2.892168892148728743e-01,-2.853572223883402148e-01,-2.300712522910980384e-02,1.029033342300056083e-03,-4.748696631016719946e-03,-7.267851374562889905e-03,2.647344768047332764e-01
-3.139771102505777289e-01,-3.126374887078913201e-01,-4.794595173912619135e-03,1.064197940518175943e-03,-3.800604792992192272e-04,3.826568641272680166e-03,3.085922896862030029e-01
-3.185993558920602875e-01,-3.153129582467931735e-01,3.945070457548327525e-04,-1.397866994353648461e-03,-1.264758672324140190e-05,-1.447816493207966428e-03,3.173825740814208984e-01
-2.955394684409991535e-01,-2.994723547395797825e-01,-2.371824064786676178e-02,-4.617717969316254890e-04,-2.813684743663172599e-03,-5.839608860407924200e-03,2.740401029586791992e-01
-3.240364319115024427e-01,-3.216182204976826831e-01,-1.466552333072632108e-02,-5.126646068829942074e-03,-1.504611165857997358e-03,-2.092556160655979162e-03,3.083291351795196533e-01
-3.156086132015788470e-01,-3.170836331109679884e-01,-6.349032150398253860e-03,-1.164350207593891923e-03,-4.960220788060505301e-03,-1.561340460369976661e-04,3.101254403591156006e-01
-3.031437556554610335e-01,-3.070989661786402980e-01,-9.615179206744622897e-03,-4.084554487934877838e-04,-3.535011483370348317e-03,-2.858824250652162915e-03,2.956317663192749023e-01
-2.901485454285519516e-01,-2.857675953214394160e-01,-3.731713731562441572e-02,4.070028449152892670e-03,-5.850314387752398454e-03,-3.492349115368672142e-03,2.510462701320648193e-01
-2.729396818926189683e-01,-2.747971632347497306e-01,-2.250432024397719388e-02,5.000957491671206671e-03,-1.295767405620905756e-03,-4.508444089692135136e-03,2.516496479511260986e-01
-3.097449710179255855e-01,-3.081580091501762708e-01,-1.761357459158396921e-03,5.417714371084748773e-04,-1.172786762872070083e-03,-2.540489522507759224e-03,3.072328567504882812e-01
-3.198126193923204186e-01,-3.178670541857436249e-01,-1.788631020472386535e-03,-2.973740903296722467e-03,-6.421405952179208782e-04,-7.993457216990566610e-04,3.171024918556213379e-01
-3.118255313044176469e-01,-3.134272744024123036e-01,2.386813019774253197e-03,-6.093059037619725756e-05,-1.043322643452473551e-03,-4.249546525752682480e-04,3.150223195552825928e-01
-3.104383586785385285e-01,-3.106755951188417963e-01,-3.380810044734117170e-05,4.903942367463593952e-04,-1.519857058604214689e-03,-4.924683795264629118e-04,3.105367422103881836e-01
-2.729194360225277172e-01,-2.979988021239627916e-01,-1.007629775563018137e-02,5.185964757873132679e-03,-6.336593361076489628e-03,-1.074793168777098649e-02,2.772275805473327637e-01
-2.771083750993925121e-01,-2.686690480337892151e-01,-3.532011676379925857e-02,1.533521213876095843e-02,-8.043916807229139349e-03,-5.508971575953692384e-03,2.397559583187103271e-01
-3.552166227164945123e-01,-3.722308097256408210e-01,-2.412446407860122100e-02,5.887319759377650404e-03,-5.451600325142894402e-03,-1.011878442550564680e-03,3.402072489261627197e-01
-3.188059741080386256e-01,-3.184495795022948550e-01,-6.881096584709228692e-03,-9.527068734194949276e-04,-3.096144803781464457e-03,7.403036248160252972e-04,3.117999434471130371e-01
-3.605102660189486996e-01,-3.558926862110039502e-01,-8.014826103916911082e-02,3.572591639466828062e-02,-5.986449164268876216e-02,-3.173638836624016052e-02,3.081095218658447266e-01
-3.014995445297523613e-01,-3.052859385675713022e-01,-8.687610639188658723e-04,8.160583030709422968e-04,-3.229131098738936400e-03,-9.964160335454324592e-04,3.026016652584075928e-01
-3.084487278479060013e-01,-3.098983237894721854e-01,-4.506674368683460941e-03,-1.210468611735470140e-03,-1.491588079674946617e-03,-4.212919363696143379e-03,3.047749698162078857e-01
-3.204310353677604639e-01,-3.256261297239778085e-01,-4.632833410047082490e-03,-4.376618796933523167e-03,-1.465347752644859071e-03,-8.993925512612521657e-05,3.185279071331024170e-01
-3.155534687985409037e-01,-3.170268086278569819e-01,-1.218089059257218554e-02,-1.988001385406579571e-03,-3.578144362091086397e-03,-1.875008999942106820e-03,3.042118847370147705e-01
-3.547210837967467167e-01,-3.354486897361600439e-01,-8.511576708644461031e-02,3.252088262385369882e-02,-6.393193673549404932e-02,-3.212620039424909923e-02,2.939276993274688721e-01
-3.144554548477738742e-01,-3.171302195992018458e-01,2.034393538349610342e-04,-8.030524926466688562e-04,-1.336116742342598456e-03,-9.885965733815248017e-05,3.160163462162017822e-01
-2.922801551469140779e-01,-2.671449566963077782e-01,-2.722196173089078131e-02,-4.057655142892362295e-03,7.982092796229337331e-03,-2.577607054813506370e-04,2.539016902446746826e-01
-1.579724983639210212e-01,-2.197841880238884937e-01,2.141780917986341182e-02,5.983676821522104783e-02,-1.835150633720638094e-02,-1.864350665412706221e-02,2.447128444910049438e-01
-3.007376071264259987e-01,-2.928725412771625569e-01,-1.203777801781907852e-02,-2.144793231642306772e-04,7.099200672122800947e-03,-8.797511903809450721e-04,2.851183414459228516e-01
-3.328731606614634964e-01,-3.191336612408172124e-01,-1.416226913336704474e-02,1.800528639930347452e-03,6.369234023110468493e-04,-4.863171579249915173e-06,3.120855987071990967e-01
-3.130486711705398051e-01,-3.126513310429213655e-01,-3.647450507399008224e-03,1.381842599241812084e-03,5.504091240016698375e-03,-7.158995238403702624e-04,3.093614280223846436e-01
-3.288088041596931577e-01,-3.169388784512567336e-01,-6.326842904592316907e-03,-2.799642913198794117e-04,2.084983241707214028e-04,2.136319475047707573e-04,3.167146742343902588e-01
-3.238281482267511557e-01,-3.166583337487354766e-01,-2.863041654571046868e-03,1.291680655673729848e-03,3.525945514093303790e-04,-1.343796583664164275e-03,3.174579441547393799e-01
-3.237868306746087277e-01,-3.151577761801038768e-01,-8.039872973376577248e-03,1.998043623431919498e-03,-2.401481409081079410e-04,-8.614964970338969839e-05,3.115416169166564941e-01
-3.223792979651083357e-01,-3.157775092689160679e-01,-2.201621658143970706e-03,1.228377619679178745e-03,-1.395662850839870179e-05,-1.253273804479280995e-03,3.169429302215576172e-01
-2.798072254944878878e-01,-3.011911677329967008e-01,-5.524554761156541538e-03,-4.037827610946123635e-02,3.605021187912790109e-02,-2.791530512206101197e-02,3.044361472129821777e-01
-3.286854123792833926e-01,-3.211820915024306555e-01,-2.515346377404853451e-02,3.342824172503123647e-03,-2.067918926249166529e-03,4.035578208480568156e-04,2.999288141727447510e-01
-2.988169438328302507e-01,-3.126465042712540665e-01,-1.604708786316577651e-03,9.207701307028453924e-05,-9.629052251891544872e-03,1.173378797723157807e-03,3.048261702060699463e-01
-3.125836558048182834e-01,-3.306762511637685309e-01,-1.677471021935741935e-02,-1.206709775586064029e-02,-1.070004602536187358e-02,1.057470511386681203e-02,3.070798218250274658e-01
-3.155281093349636690e-01,-3.133324018946264111e-01,-3.268828000618562157e-03,1.166504164715465291e-03,2.798663750389966914e-04,4.571101024220916229e-03,3.112748861312866211e-01
-3.251412548223873156e-01,-3.129520049539656901e-01,-1.022234404779334693e-02,2.466780083593518840e-03,-2.905124134214209439e-03,1.096451311724555479e-03,3.090809881687164307e-01
-3.170673158110887124e-01,-3.294203483830848156e-01,-1.438360508275254857e-02,-1.740606361384629752e-04,1.221126569484678060e-03,-9.932762463176270703e-04,3.090576231479644775e-01
-3.143328781378268433e-01,-3.202571395438739144e-01,-5.993939121821417748e-03,-6.911384217226605861e-04,-9.549447386979231399e-04,-2.938247008453495125e-04,3.113504648208618164e-01
-3.279364451406817094e-01,-3.211216015214219954e-01,-5.443569969575595691e-03,9.539548084536738195e-04,-3.922696132636183217e-04,2.194201641817355129e-03,3.191676437854766846e-01
-3.184788817188942134e-01,-3.168168298911687719e-01,-4.803042679581287500e-03,3.668467898627463149e-03,4.080138406255715347e-03,-2.825287395112852703e-03,3.130306899547576904e-01
-3.132399670437179262e-01,-3.268641264226917476e-01,-3.181300638952985760e-02,2.883199684910098173e-03,1.178839913827297789e-03,-1.101142043719108461e-03,2.885371744632720947e-01
-3.207959297865802251e-01,-3.169611038745147047e-01,-2.588798698474614746e-03,1.228219921768399685e-03,-9.510443966677305195e-04,1.979538861371076333e-03,3.163371682167053223e-01
-3.302768689967078286e-01,-3.290826457595847354e-01,-9.931214770682955661e-03,-6.966510099865524464e-04,2.526498049616718571e-03,-2.961675997790508188e-04,3.197828531265258789e-01
-3.361695599883525731e-01,-3.273446525800701723e-01,-3.129960986989863136e-02,-1.538322217257409932e-03,-5.515332695970515987e-03,5.397940621156812127e-03,3.008635640144348145e-01
-3.262799744574086391e-01,-3.166495749919903124e-01,-7.202388486076904961e-03,1.024880488016859060e-03,-4.027469870540529629e-04,1.089502479291743885e-03,3.143844902515411377e-01
-2.665562528914606211e-01,-2.595442124226590153e-01,-3.369730005911708570e-02,-6.800219324653998705e-03,2.430001981830258147e-04,-3.008104126303059425e-04,2.297364175319671631e-01
-3.131417703263784658e-01,-3.169422530186924436e-01,-4.964164399745590872e-03,-7.471180532294788334e-04,-3.222952265769873838e-03,2.528949688613417218e-04,3.101485669612884521e-01
-1.539033241587278722e-01,-1.876152030934592485e-01,6.443908669480721829e-02,1.086734768345882368e-01,6.670652819584050805e-04,-1.114072151081054764e-02,3.032723069190979004e-01
-3.074010205310492294e-01,-2.857226493756447883e-01,-2.878734048375380938e-03,-6.199959686548089542e-04,-1.829594283216974537e-04,2.782718770397308986e-04,2.942850887775421143e-01
-2.970641374891904718e-01,-3.070309015827044075e-01,-1.784853510329559301e-03,9.576123952419729858e-04,-8.808186388651750506e-03,5.721339558516796812e-03,3.009416460990905762e-01
-3.064706833468045510e-01,-2.990438954422142137e-01,-2.578949085609905101e-03,7.922201212164950131e-04,-7.336096856689543373e-03,-3.752014130643157881e-03,3.005893826484680176e-01
-2.263660897984804965e-01,-3.199184687597371735e-01,1.685623147739587213e-02,1.418240293070766878e-01,8.478975825594512600e-03,5.148263747582526410e-03,3.889736831188201904e-01
-3.136500887054793907e-01,-3.160162858717106560e-01,-1.896991354754379300e-03,-2.985795680090789421e-04,-2.357862652153660133e-03,-7.927049856924265302e-04,3.129729926586151123e-01
-2.989208124998937177e-01,-2.983842448347582277e-01,-4.060270077823308066e-03,-4.817102423269735856e-04,-2.757030451561439006e-03,2.318032772073114461e-03,2.946598529815673828e-01
-2.791366657843625254e-01,-2.928918953473847453e-01,-2.235833369417697392e-02,4.607497572102966892e-03,-4.779716002757151104e-03,-9.642747337659074436e-03,2.647027373313903809e-01
-3.071680434252965775e-01,-2.920313271450306614e-01,-1.045875986174210626e-02,2.085934743634941773e-04,-7.680594305494939031e-03,-6.306871713153646732e-04,2.897457778453826904e-01
-2.702469354585465000e-01,-2.727708756621548547e-01,-3.543968558960822191e-02,8.652281474885246525e-04,-6.652115019345650627e-04,1.407450011909860933e-04,2.360870391130447388e-01
-3.158818537716953090e-01,-3.269976639773294336e-01,-6.239506981951359332e-03,-9.996950956151896914e-04,-1.279818508659103177e-03,-1.206194500502189883e-03,3.153666853904724121e-01
-3.244875328793009883e-01,-3.324263047303945839e-01,-2.738597563106359711e-02,-1.962459621722783664e-03,-7.019395690968206151e-04,2.065769095611092680e-03,3.011923134326934814e-01
-3.220019229177064068e-01,-3.299013603663853433e-01,-2.594825490905097731e-02,-2.826070601506954459e-03,-1.137519371995669541e-03,2.306016257577738794e-03,3.001543283462524414e-01
-3.169967467169911846e-01,-3.218557813290386371e-01,-5.618286665126953627e-03,-6.593205919079124641e-04,-2.313463791631413177e-03,-2.482976892111147128e-03,3.138933181762695312e-01
-1.987718030532676095e-01,-3.212473740964800761e-01,-4.125671631665073225e-02,3.056441839730984419e-03,-3.032527746068544106e-04,-1.848962705818206400e-03,2.431904077529907227e-01
-3.008122545671313430e-01,-3.041786259842181317e-01,-1.431354987761135344e-02,-1.429449155290162844e-03,-1.039688404215471408e-03,-6.715082069578792202e-03,2.884474694728851318e-01
-3.333428334403633064e-01,-3.269450179034419923e-01,-5.171396965794225475e-02,-4.530104342186491891e-03,6.063771390905003597e-03,3.602860783799965300e-03,2.788633406162261963e-01
-3.144548119121820529e-01,-3.187665502355013780e-01,-2.499282010414521915e-03,-8.168143956432388905e-04,-2.008679296242051916e-03,-1.017099358910088756e-03,3.141609728336334229e-01
-3.138721481826583504e-01,-2.951321670264481778e-01,-1.023045516751178163e-02,-1.986742243077478610e-04,-6.585007647676014743e-03,-8.744795800856015704e-04,2.949436008930206299e-01
-2.732372172908390517e-01,-2.890631913599526204e-01,-3.610565385573574759e-02,5.353885862139441676e-02,5.990687425514740205e-02,5.378716246985415506e-02,2.971188127994537354e-01
-3.188926711427360616e-01,-3.226327996988993529e-01,-1.253913703927145296e-02,-3.404226816137247841e-03,-1.071448575640460013e-03,-1.256431070101209036e-03,3.083102703094482422e-01
-3.078334550472937026e-01,-3.079218579598624883e-01,-4.128166281663986359e-03,2.445251759768422503e-04,-1.199430033083888087e-03,-2.901173776790600539e-03,3.037984669208526611e-01
-3.139624730274452880e-01,-3.156091960738007240e-01,-4.554935976170654266e-03,-8.797911251026190125e-04,-3.829928640239611132e-03,4.486233020713178738e-04,3.103097975254058838e-01
-3.019582723909148836e-01,-2.971929535150452106e-01,-1.142881026432177038e-02,1.276480051801367858e-03,-6.714028427270964626e-03,-3.712801903586857737e-04,2.884200811386108398e-01
-3.274830523307854513e-01,-3.162961993135177119e-01,-1.142409477593550604e-02,3.428390099275009564e-03,-1.752397124819302619e-03,2.634953785423726699e-03,3.107217550277709961e-01
-3.064706616959799179e-01,-2.966750642988117415e-01,-1.937885621435014860e-03,1.992576508569125424e-03,-7.574352607581992872e-03,-3.907845316244682420e-03,3.001381754875183105e-01
-2.960771903453073284e-01,-2.536455011706211238e-01,-4.839276774059986241e-03,1.651910084554893479e-02,-1.719801793248711130e-02,-1.853394391364235338e-02,2.774864435195922852e-01
-2.866208267668934884e-01,-2.707396219363850109e-01,-3.866625874570844834e-02,-2.525933182757008049e-03,3.933210930600603873e-03,-2.875168250287865514e-03,2.405955344438552856e-01
-2.125646348747074754e-01,-2.660025273569001647e-01,-2.650348167407978739e-02,1.580900281274090838e-02,-1.690795632855231038e-03,-1.277749238296477718e-03,2.195001691579818726e-01
-2.284875041166829490e-01,-2.998248614897809361e-01,-4.087852157552104848e-02,7.701471726405082451e-03,-1.937755394513013610e-03,-4.250399257089173925e-03,2.321919053792953491e-01
-2.503524309088210886e-01,-3.367824592249785143e-01,-4.106078985687108829e-02,5.577973304546044592e-02,-2.258591183644577741e-02,-1.281535661266952272e-02,2.841116487979888916e-01
-2.878572990515373409e-01,-2.862373145739571800e-01,-8.924130799946361492e-03,-8.883047490171766493e-04,1.408906336079631706e-03,-4.537450351134245108e-03,2.782526910305023193e-01
-2.465893826319523752e-01,-2.515615660088245109e-01,-1.767775607884225497e-02,-1.604016113291822226e-02,6.055048872758027681e-03,-5.531511462112330413e-03,2.335317730903625488e-01
-2.580970520888608566e-01,-3.199803503642890679e-01,-3.404091158909597348e-02,9.842196416317965449e-03,-1.103628487240968827e-02,-1.101121765480687041e-02,2.625181376934051514e-01
-2.942249366000039834e-01,-2.204742740458861816e-01,-3.413993886460156557e-02,-6.649918053644247352e-03,-2.614087830328335350e-03,3.076744962782213943e-04,2.324981093406677246e-01
-2.233260336227089193e-01,-3.390115090326087932e-01,-3.294140276987087002e-02,2.633647341989230756e-02,-1.979944565368826209e-02,-1.286975082355337058e-02,2.746050655841827393e-01
-2.210855032115867091e-01,-2.994618702835828983e-01,-1.855969006797364429e-02,7.204500821481172115e-03,-1.225586144992701562e-02,-1.145494518398375294e-02,2.530469894409179688e-01
-2.451113869860933048e-01,-2.907569751423996207e-01,-1.922534668066974706e-02,5.987512569883363979e-03,-6.938554382265425466e-03,-1.157879249033036580e-02,2.531262636184692383e-01
-2.836498173119007538e-01,-3.224720428047672116e-01,-2.136838924054479394e-02,-8.639329059274494446e-03,1.106019605784790659e-02,-1.129686589458943693e-02,2.854028940200805664e-01
-2.781669942016454788e-01,-2.816648774966670210e-01,-3.427219376913520632e-02,-7.028829195333981955e-03,-3.501636889822333683e-03,4.634095449896564849e-03,2.461695522069931030e-01
-3.043229802191022015e-01,-2.877598982917101700e-01,-5.118972981173475212e-03,-7.306139522373913345e-04,5.528351630932311529e-03,-6.515059596721779105e-04,2.914381623268127441e-01
-2.769147034853284839e-01,-2.768562570146666513e-01,-2.310987938902581140e-02,5.388805374531073457e-04,-1.384423007518121185e-03,3.766171143912694494e-04,2.537894845008850098e-01
-2.887226745776252379e-01,-2.488226865976532753e-01,-1.742783131667979823e-04,-2.842000157191842784e-03,7.041616717799395117e-03,-1.231644750632776217e-02,2.719690799713134766e-01
-2.705726277094935295e-01,-2.811708508704723330e-01,-2.258858966027441073e-02,-2.571739900539273330e-03,-1.650971237338421044e-03,5.032503321089657269e-03,2.536544799804687500e-01
-3.036197860582307562e-01,-3.056478191637952979e-01,-9.518253361608386420e-04,1.318996555825874117e-05,3.323380130005889645e-03,-7.095066679999845844e-04,3.037440776824951172e-01
-6.955022036851774558e-01,-5.995881499026265438e-01,-2.207495406628096624e-01,1.282777590941179373e-02,-9.512854541547047932e-03,-9.409314598751442049e-02,4.651664793491363525e-01
-2.567032885564108913e-01,-2.787486847650524346e-01,-3.656069724029162304e-02,-6.114973285269236294e-03,-1.108222808566835084e-04,2.609210722638669652e-03,2.322380840778350830e-01
-2.477685430280146539e-01,-2.716897663239519201e-01,-1.611603527746910403e-02,-6.788467686292665344e-03,-8.216422484265994627e-03,1.080054378687838115e-02,2.459008991718292236e-01
-2.787578358720543270e-01,-2.692737130251173783e-01,-2.958438420557887860e-02,-3.436500961237446295e-03,-5.316457569848853995e-03,4.009666160381763697e-03,2.449135035276412964e-01
-2.770101750243432193e-01,-2.899953515624801303e-01,-1.827093228884821285e-02,-3.639163147525699502e-03,-6.229764958543443885e-03,8.325434261248031501e-03,2.661550045013427734e-01
-2.867780353140075289e-01,-2.933878930425006804e-01,-3.059979559285758155e-02,-3.925745771012796050e-04,-1.395512321344538446e-03,4.392750478268394460e-03,2.596699297428131104e-01
-3.328914217521987684e-01,-2.349439030672472173e-01,-2.981063524166499557e-02,5.376082685611360129e-03,-9.916813252336777792e-04,-4.291081019327396689e-02,2.781714200973510742e-01
-3.093845441388538009e-01,-2.936816897809001459e-01,-8.590793640014943167e-03,-2.291262779112582249e-03,-5.730668135273614752e-03,1.333812412487487718e-03,2.934616506099700928e-01
-3.158636041977223585e-01,-3.284043497688209912e-01,-9.183779823798143838e-03,9.598408971999231867e-04,1.937133108737494115e-04,1.599482987769639030e-03,3.131554424762725830e-01
-3.160777887331689406e-01,-2.599169953087444584e-01,-1.836730111766288198e-02,-1.220871251027617552e-02,1.181083944365874175e-02,-1.282656750438183370e-02,2.764509320259094238e-01
-3.237433687877553368e-01,-3.300468436943854167e-01,-2.572361675162768146e-02,4.240126766895340946e-03,1.582334907604322771e-03,-2.367797925201350039e-03,3.013508617877960205e-01
-3.133529871927274169e-01,-3.209432643867068391e-01,-4.112026701326154665e-03,4.277439954103663981e-04,7.886118827920926165e-04,-2.888191536387772762e-03,3.131489157676696777e-01
-3.353494479897789482e-01,-3.082528540246147197e-01,-1.659530682686333192e-02,-7.437985615383908150e-04,-3.039138185018772125e-06,1.662038218213040749e-03,3.061228990554809570e-01
-3.185181462273343200e-01,-2.215138287927198857e-01,-3.885465379506822248e-02,-2.799967173876443186e-03,6.088335541475166411e-04,-3.875794253712697666e-03,2.460947781801223755e-01
-3.160276872725275021e-01,-3.021620090815004267e-01,-3.871319988184934724e-03,-2.302555380738826717e-03,3.544359398662182657e-03,-7.230056527371109786e-03,3.058038651943206787e-01
-3.219293510647638357e-01,-3.261786408128651282e-01,-1.559700954265247352e-02,3.853720380565117763e-03,-1.976631923136618161e-05,1.988289600092459954e-03,3.085703551769256592e-01
-2.432164219929307258e-01,-2.875317271320950718e-01,-4.367311272422524926e-02,8.234146017929282538e-03,-1.847679371978206125e-03,3.042795736369627215e-03,2.255340814590454102e-01
-2.731814200786255586e-01,-2.772567704777406661e-01,-3.852460108733843369e-02,2.395334500512778624e-03,6.212690953134149610e-04,1.799475864920279744e-04,2.367598116397857666e-01
-3.181406690882443433e-01,-3.280124701764864370e-01,-7.240671104640106215e-03,1.997508651723148374e-03,5.554055186059418539e-04,1.980995278427141303e-03,3.159906268119812012e-01
-2.809026966996518437e-01,-2.250493296630511342e-01,-3.186143526669182879e-02,-1.446677566744013904e-02,-1.764002874490572812e-03,1.684453193270697442e-03,2.277653813362121582e-01
-3.034177130493339591e-01,-1.930667615302990581e-01,-3.444964171070824532e-02,3.242180748623828615e-03,-2.636543160651779079e-03,-1.276301831086384909e-03,2.343022674322128296e-01
-2.665504798865060421e-01,-2.470861464481172720e-01,-1.958912140351729003e-02,6.286632911654792787e-03,-6.466843850198819230e-03,-3.024039773965501131e-03,2.383973449468612671e-01
-3.177579228828336655e-01,-3.238849106753965978e-01,-5.085719711395902953e-03,3.695278688269691431e-03,5.960984462350610389e-04,-5.152857640994801779e-04,3.158480823040008545e-01
-2.620635313869532634e-01,-3.151950810868244801e-01,-1.082316847364780954e-02,-7.362902842313781386e-04,-1.065025012557632017e-02,-2.250908539341965435e-03,2.822243571281433105e-01
-3.234779956287108793e-01,-3.199319857539647538e-01,-2.115503938087731628e-02,8.623175534324014138e-03,-5.116825377829360873e-03,-1.186876385374940196e-02,3.017680048942565918e-01
-2.479788829884319867e-01,-3.338128336671184471e-01,-2.164552424298410438e-02,4.643726922924387886e-03,-1.667010059551494311e-02,-1.369606781188317801e-02,2.819263339042663574e-01
-2.965259601811707224e-01,-2.948444745356334495e-01,-6.876700327773294097e-03,2.662422903947716819e-04,-3.256815693921091305e-03,-4.331437817692975444e-03,2.889650464057922363e-01
-1.521323515547669536e-01,-3.622346351721523749e-01,1.145203988495335778e-02,9.563134910439538561e-02,1.846626295619052324e-02,2.473374489242003652e-03,3.657180666923522949e-01
-2.979287433724813194e-01,-3.001242759209769018e-01,-1.112886476722485529e-02,1.425728254244721001e-03,-8.078221896241412694e-03,-1.732352424949721182e-03,2.882699072360992432e-01
-2.249661332322422935e-01,-3.107002317709851025e-01,-3.618772669708414380e-02,1.638969026968970302e-02,-1.174000606968655241e-02,-5.015166651907395842e-03,2.459007352590560913e-01
-3.380899656758482030e-01,-3.333082851636764987e-01,-6.100602161009033297e-02,-6.109222089955042637e-03,1.137458552903255181e-04,-1.732343980046667422e-03,2.749444544315338135e-01
-2.746571172420567697e-01,-2.733185827934619949e-01,-3.562699165023350267e-02,3.672938403952661409e-03,4.218287705810229958e-03,3.489174918362871261e-03,2.386370003223419189e-01
-2.767660832753373601e-01,-2.786832467613994391e-01,-3.398821696952025739e-02,8.696934257779396485e-04,-1.537408576051357530e-03,-2.363103103551643033e-03,2.437956631183624268e-01
-2.119772537194523632e-01,-2.938627367721710071e-01,-1.494513658072579854e-02,1.701634804257105144e-02,-1.266535571527287705e-02,-1.043953097273852236e-02,2.516700327396392822e-01
-2.251384976630045609e-01,-2.972974091801340313e-01,-2.915709847954017775e-02,7.418237742727185578e-03,-7.012649339173146305e-03,-5.678526713876538325e-03,2.411779016256332397e-01
-2.652249220594691259e-01,-3.199549643952036004e-01,-3.317154510190539751e-02,1.134393017798711106e-03,4.226556267898158212e-04,-3.798021409134844442e-03,2.638031542301177979e-01
-3.223368191600998189e-01,-3.149382171749407489e-01,-3.784715218554002281e-03,4.081761187852922610e-04,-1.650970983476528816e-03,2.270482705993981908e-03,3.149563074111938477e-01
-3.198391228710597556e-01,-3.183288870027770057e-01,-3.064236977979861720e-03,3.553010574562636727e-03,-1.031517439999182512e-03,7.856713564846909892e-04,3.160903751850128174e-01
-3.220734860260983656e-01,-3.179853139867881984e-01,-5.743580346254772984e-03,2.325401647050690315e-03,9.779534232783938276e-04,2.111252604655466415e-04,3.143363296985626221e-01
-2.927617080686187312e-01,-2.888834800308891504e-01,-3.248321202364326532e-02,-3.207978764238168193e-04,4.723936697273930195e-03,-1.496118700426087413e-03,2.585043311119079590e-01
-3.316561530507316502e-01,-3.198262876456946513e-01,-1.217014219672696296e-02,2.346603525287430797e-03,-9.289883369443975710e-04,8.480923224391587580e-04,3.137722909450531006e-01
-3.228445023717710916e-01,-3.166556231412540057e-01,-3.175269504090305617e-03,6.146930390489233065e-05,-2.315880505109163025e-03,1.788393392628058421e-03,3.166607320308685303e-01
-3.269541329945931940e-01,-3.195966387593677793e-01,-1.929307127597312821e-02,2.169080379934857326e-03,-6.348234488685666277e-04,1.073436400250139550e-03,3.040799796581268311e-01
-2.762358333970539870e-01,-2.756859269358086229e-01,-2.380834528844377740e-02,-1.535041246073590333e-03,1.519741108465836807e-03,-4.280247193532592774e-03,2.522896826267242432e-01
-3.218481438871036993e-01,-3.174090190135087086e-01,-1.127767162659434885e-02,3.825555429624158746e-03,1.941438023668554070e-03,-3.041319360752453745e-03,3.085093498229980469e-01
-3.176118995131019251e-01,-3.165156262384603014e-01,-5.757977219794485624e-03,1.486966091672234412e-03,-2.163663673445268432e-03,2.348147253742244745e-03,3.113670051097869873e-01
-3.342388228408238460e-01,-3.297357713151929381e-01,-3.157255928412786017e-02,-1.424690574276501294e-03,3.683583527150973737e-03,5.154894140282650385e-05,3.005179166793823242e-01
-3.265962692219355756e-01,-3.189552772204942155e-01,-4.915708064650303744e-03,1.202978810683293445e-03,-5.304751647806241286e-04,1.756780666207953057e-03,3.179516494274139404e-01
-2.573009678395840050e-01,-2.988939705909999245e-01,-1.144244418590534274e-02,6.625845270146747635e-04,-1.198751037364382925e-02,2.403491315864797646e-03,2.699113488197326660e-01
-3.210632163978923703e-01,-3.164712754893760915e-01,-5.622749976395863269e-03,8.630364178926581628e-04,-8.361641824421438838e-04,3.756979915719200255e-03,3.132442533969879150e-01
-2.893525614044678562e-01,-2.988536637320140521e-01,2.633764211042416425e-03,-1.698210101172504096e-03,-7.638877200552784096e-03,6.719084057320937227e-03,2.973880171775817871e-01
-3.185102274255580124e-01,-3.223317089754096365e-01,-2.449805321591586038e-03,1.737823027747459814e-03,3.361136699437638261e-03,-1.817068576492345856e-03,3.180714845657348633e-01
-2.916313279443130124e-01,-3.003492501799176484e-01,2.415687946810490816e-03,-1.493705318821767066e-03,-6.709292470445100791e-03,5.345097652653751398e-03,2.988822162151336670e-01
-2.933872710436903897e-01,-2.900271760238015695e-01,-2.285653772949600149e-02,3.536860777676462900e-03,5.076250359650282679e-03,4.289550204664541004e-03,2.691824436187744141e-01
-2.909392794521131198e-01,-2.742972020041088976e-01,-2.878936173984858460e-02,-1.875234313447910568e-03,7.458374697262527483e-03,-1.781333781462121971e-03,2.546051144599914551e-01
-3.117627003665984220e-01,-3.117751175449001155e-01,-2.249581114666260317e-02,3.381736585424240538e-03,1.190329305869106298e-02,1.149480366874092163e-02,2.907485067844390869e-01
-2.914163327313519791e-01,-2.169258154293446095e-01,-1.363085147374434869e-02,-1.519439742071454448e-03,-5.633662846805260679e-03,-1.932882823377668046e-03,2.492680847644805908e-01
-3.021077436159890217e-01,-3.066652558140910978e-01,-4.917756363677305842e-03,5.343793083080510464e-04,2.596261412371518324e-03,5.032939086362574373e-03,2.996567785739898682e-01
-2.942604592482841452e-01,-2.204732506479004650e-01,-3.085046757281525998e-02,-4.671060588085028040e-03,7.538503802897891619e-05,-5.536571111674759831e-04,2.354983687400817871e-01
-2.936703955122464405e-01,-2.978474399839005082e-01,-6.324835607720902253e-03,1.511199049289262684e-04,6.241677243161806825e-03,2.378074290695789909e-03,2.896879017353057861e-01
-2.034336434087640477e-01,-2.820468807641588471e-01,-2.691301387150352165e-02,-3.736068107256619586e-02,-3.243525646033235729e-03,-2.659208938610073056e-03,2.354923933744430542e-01
-2.892984925641580718e-01,-2.245080339951032455e-01,1.762173986513643209e-02,-1.312299961104519685e-01,2.935472837080718364e-02,-2.986725742046407797e-02,3.680183887481689453e-01
-2.774106613642830510e-01,-1.944874439066850424e-01,-6.844545707910543175e-03,-4.137332922168198215e-03,1.352993847567589714e-03,-1.920032664765904552e-03,2.402373254299163818e-01
-3.228184387040679004e-01,-2.186641915071963760e-01,-3.772471493053133895e-02,3.265555462040059705e-03,1.895921238215525712e-03,-1.199662404431806918e-02,2.508133649826049805e-01
-3.265969419196366186e-01,-2.630601870838017997e-01,-3.382100862709525035e-02,-1.266943129883621802e-02,6.622187668284870883e-03,-9.136966687331465236e-04,2.678959667682647705e-01
-3.034043940891886226e-01,-2.458523462524504488e-01,-2.346238279885609623e-02,-3.751951327989867368e-03,7.430003902033734293e-03,-2.166773424912874727e-03,2.564965188503265381e-01
-3.380931483892584133e-01,-2.950521571217438188e-01,-2.450030994502444548e-02,-5.476318342730845425e-03,2.498617546825460198e-03,-1.247303873532268695e-02,2.954167723655700684e-01
-2.961186159513334859e-01,-2.056788329493711154e-01,-1.707503441540009215e-02,-5.839906171699168948e-04,5.859597569691887657e-03,-2.449606939697967882e-03,2.468401640653610229e-01
-2.863845560881012053e-01,-2.014021310972997636e-01,9.044215198579563797e-03,3.386514073931552044e-03,-3.103386152380024476e-03,-3.693779038618665023e-02,2.712017893791198730e-01
-3.363406858507864694e-01,-2.215638142071857386e-01,-1.448220821557821836e-02,4.366258653704801693e-03,8.940287953362784437e-03,-2.477362307523761284e-02,2.862915992736816406e-01
-3.262013497303518639e-01,-2.252007076377948724e-01,-4.023900151876125264e-02,1.501904996254209207e-03,1.511493759967370539e-03,-1.184173250623685517e-02,2.520466446876525879e-01
-2.525756386796606523e-01,-2.947916721537777729e-01,-4.188835753814298957e-02,6.738085851804716600e-03,-8.572407899394375369e-04,-4.279951177681443064e-03,2.350724786520004272e-01
-3.114992652173181331e-01,-2.305836116404957337e-01,-3.398787775399461641e-02,-9.730064733031831489e-03,7.087478021210246587e-03,-1.287708096758732532e-02,2.490724325180053711e-01
-3.122679981712447317e-01,-3.248802580759106995e-01,-3.264792283953393826e-02,-1.970925946848510295e-03,2.301432665840635189e-03,6.666285439034375896e-05,2.861829102039337158e-01
-3.162662728091235609e-01,-3.280978538346577822e-01,-3.996641311901472093e-03,-1.491864901214147660e-03,1.280621475588072629e-03,5.479028668644241691e-04,3.183699846267700195e-01
-2.983116628960185701e-01,-2.291656664337216320e-01,-4.221680424028767531e-02,6.541237785267973136e-03,-2.030298463501266706e-03,-1.704180530828899517e-05,2.297793328762054443e-01
-2.789262515843129453e-01,-2.437858224805962981e-01,-3.605432406679581758e-02,1.129694934037983600e-02,-4.130890850895441689e-03,-4.931887791713401685e-03,2.284601181745529175e-01
-2.614792130330994002e-01,-2.702362792446038053e-01,-3.682266038963946664e-02,4.581257901605222810e-03,-4.933404503022226911e-04,-1.275102413384594530e-03,2.293101698160171509e-01
-2.697593241673186815e-01,-2.721327006849537100e-01,-3.595187892154277920e-02,2.554903809147043934e-03,-5.622455315742529939e-04,-2.111871148710400305e-03,2.350752651691436768e-01
-2.736170044342398633e-01,-2.792005338520293090e-01,-3.811561746403654971e-02,3.223604891641014634e-03,-4.172232517721650058e-04,-5.810552684760246413e-04,2.384108155965805054e-01
-2.851578447654127824e-01,-2.755250087446294294e-01,-2.853143762230120339e-02,2.814168068500033908e-03,-7.188660408324198600e-03,-1.200878305723821534e-03,2.523112893104553223e-01
-2.619221776618637088e-01,-2.579696763267953497e-01,-2.830759385578390797e-02,1.243967488759105053e-02,-7.836098108700702627e-03,-5.191233739316417073e-03,2.332323491573333740e-01
-2.979676892264949140e-01,-2.685906061846085047e-01,-3.033685107049485796e-02,3.077881212000917882e-03,-7.190281113026093449e-03,-9.357591598623564086e-04,2.545844018459320068e-01
-3.123280771319296711e-01,-1.930424478136617272e-01,-3.743651894224206411e-02,-3.170516266592989397e-03,8.318571112030102074e-04,-7.223147057048077274e-03,2.391496896743774414e-01
-2.962854918931118742e-01,-3.066984842579366100e-01,3.567724676534211881e-04,1.348526652967390726e-03,7.463341941880965655e-03,5.226091817516665891e-03,3.024045228958129883e-01
-2.646722061310403662e-01,-2.402689172906212201e-01,-2.749806570163920716e-02,6.539809449141106845e-03,2.564251524659514649e-03,7.165089309256721930e-04,2.262936979532241821e-01
-3.279974871416906912e-01,-2.608809054813926442e-01,-3.324654358789522202e-02,5.484861455739739296e-04,1.492484822534292932e-03,1.581494156682992393e-04,2.675962150096893311e-01
-2.923431453522146173e-01,-2.649924918322444922e-01,-2.673422120674101565e-02,3.503532661857910232e-03,-8.667945763526876957e-03,-1.093635128080731921e-03,2.535693049430847168e-01
-2.895999772471432587e-01,-1.756453825883812492e-01,-2.431182961629385630e-02,2.167543077171591587e-02,3.058800788082247871e-03,8.177182163220048441e-03,2.340316027402877808e-01
-2.693446497825291996e-01,-2.422114627354927663e-01,-2.942807005800870956e-02,7.623406506846180583e-03,-3.008432552366753585e-03,-4.152697545019277438e-04,2.280098497867584229e-01
-2.952968835571595507e-01,-2.811732587625752067e-01,-3.196166461750693522e-02,1.718591372006004992e-03,-4.960743264940968567e-03,-1.396532235766112170e-03,2.567376196384429932e-01
-2.967420083166250055e-01,-2.422426957194414865e-01,-4.200194895245357163e-02,1.554405437904994927e-02,-6.113245356200707609e-04,1.367903181262491519e-03,2.339040488004684448e-01
-2.607015744634385013e-01,-2.664714915969264575e-01,-3.139166682754243598e-02,-6.184549391198322990e-03,-7.169026491785023512e-04,2.310361974722095063e-03,2.325332760810852051e-01
-2.670351331516558346e-01,-2.621396827542530339e-01,-3.440945044705276401e-02,5.071545248106296144e-03,2.844071870736706578e-04,-1.256794329052745218e-04,2.303851544857025146e-01
-2.808858846665194808e-01,-2.799391731637850267e-01,-3.656004867113155088e-02,6.493885570927345570e-04,-2.431769514202784810e-03,-1.683692968587700801e-03,2.439102530479431152e-01
-3.196247625049009611e-01,-3.183774522961655418e-01,-1.115597292939171647e-02,4.340578132288132373e-04,4.401214457211642325e-03,-3.414105696381559258e-04,3.079428970813751221e-01
-3.304875160885818453e-01,-3.210846222475357559e-01,-3.564159986969597793e-02,7.325256103621503997e-04,-3.189013614435081681e-04,1.861254237720019300e-04,2.902621924877166748e-01
-3.215330468827174992e-01,-3.179406321152650206e-01,-6.462669369074081072e-03,1.862374678398899964e-04,6.006970270213492815e-05,9.829654419999814610e-04,3.132944405078887939e-01
-2.465503598078907788e-01,-2.872476733678271943e-01,5.059583138543960468e-03,-1.333317282792139628e-03,1.446667177264990799e-02,-5.775668251443854748e-03,2.755665779113769531e-01
-3.156609362733273083e-01,-3.178696261679270219e-01,1.335040277228499717e-03,1.861099491696615671e-03,-5.741483812174350259e-04,9.882766182942107069e-04,3.181285560131072998e-01
-2.961191771082625213e-01,-3.095446007121327447e-01,-1.557809499547896381e-03,-4.989718430896445019e-04,7.078546534340446686e-03,-2.241566089473039178e-03,3.017737269401550293e-01
-3.823915395578557086e-01,-3.965502060805936591e-01,-7.040869906364721764e-02,-1.007435676478173276e-03,-1.047858564333328107e-02,-1.922343908444644782e-03,3.198351860046386719e-01
-2.726042107518775182e-01,-2.706406266988229392e-01,-3.673194042578450946e-02,-2.052002261130699348e-03,-1.666854711115857120e-03,4.363310427692913981e-04,2.349424809217453003e-01
-2.719387297272400361e-01,-2.699699411961123396e-01,-3.552023404365783898e-02,-1.293116987328044596e-03,-1.580816437634320138e-04,-7.055667596262044138e-04,2.354542613029479980e-01
-3.164110113819963432e-01,-3.141217245227839738e-01,-4.839948252829323616e-03,-1.386766877900212159e-03,3.095400442652112281e-05,3.154396309563321874e-03,3.104901313781738281e-01
-2.978811502415946721e-01,-3.113816375231238665e-01,-3.187194737884063711e-03,2.728532960456560188e-04,6.154020607988591393e-03,1.738325972451546355e-03,3.018744885921478271e-01
-3.237411107362790363e-01,-3.181767979711638272e-01,-6.514051324176789448e-03,-8.954717552436019298e-04,2.748632556738493399e-03,3.146829374571807458e-03,3.145689070224761963e-01
-2.737411407293969257e-01,-2.153635408648580385e-01,-3.087731452903130780e-02,-1.162951419553931963e-02,-2.611805696277645378e-03,1.409258967007786384e-03,2.205564230680465698e-01
-2.844402272873645110e-01,-1.876812736042788865e-01,2.057347189371538931e-02,-1.373933718799034975e-01,9.735094610305906199e-03,-1.222743910465992623e-02,3.608968257904052734e-01
-3.172378542378425648e-01,-3.333423421196654024e-01,-1.978822671169797043e-02,8.393945723044976635e-04,1.566424176231372145e-02,-3.814520324298254980e-03,3.070957064628601074e-01
-3.265045915322290493e-01,-3.147178826770421489e-01,-8.595193000883238899e-03,-1.281780634656086090e-03,-3.537070785024142927e-04,9.289724680299644435e-05,3.121915161609649658e-01
-3.215245150669089336e-01,-3.231902199997246927e-01,-1.312538629842924243e-02,-3.325938071257372036e-03,5.206584142817802284e-04,-9.682753626520411775e-05,3.092903494834899902e-01
-2.693696608768632594e-01,-1.946940632776949787e-01,-9.449074451299749322e-03,1.291198054742573667e-02,1.164875866157849375e-02,1.234192814337045814e-02,2.347118258476257324e-01
-2.992748011210562553e-01,-2.244063315894075372e-01,-3.699446300442424396e-02,-4.679392450577654280e-03,1.781479664705237992e-03,-5.917995328118982835e-04,2.341708689928054810e-01
-1.900575296277132176e-01,-1.950271630061280459e-01,1.120189218939321441e-02,8.975875368872478222e-02,3.894831333015630337e-02,3.695917047720299886e-02,2.726701200008392334e-01
-2.887505855944610400e-01,-1.646565201927734923e-01,-1.125338294121241978e-02,1.070962106418641910e-02,-2.640737820351833545e-03,2.615554075258662639e-02,2.457348704338073730e-01
-1.181630743615843387e-01,-1.489338419216779119e-01,4.513964223791930297e-02,-9.273070814000497486e-02,2.116150507229730415e-02,-2.228155589395966127e-02,2.475264668464660645e-01
-2.894929344545603134e-01,-3.055670575862132754e-01,-1.020993227481375998e-02,-9.472845495511457523e-04,-8.218107578324056282e-04,4.077663505058119059e-03,2.877519726753234863e-01
-2.234287037225555217e-01,-1.137304707856465896e-01,1.005516738580114477e-02,-6.302942025570232309e-02,-1.705148519817083772e-03,-1.252045347627542271e-02,2.309389114379882812e-01
-3.248959877583528222e-01,-1.732186573857232015e-01,-2.195068156467236409e-02,2.297313469795969273e-02,8.027463989878266468e-03,2.073431763256894031e-03,2.657469511032104492e-01
-2.081807376231006868e-01,-1.206146148061836704e-01,7.846233249940143262e-02,-5.679395607324313339e-02,-4.389691192347276380e-03,-4.237885948593393681e-02,2.825849056243896484e-01
-2.937271017234238668e-01,-1.747631318239299680e-01,-1.102757972474127657e-02,1.242674292014100262e-02,-4.555763967298177429e-04,1.593747084841383096e-02,2.483269870281219482e-01
-3.362974977739089377e-01,-2.312517584716838326e-01,-3.280566690032221677e-02,3.486610014207357916e-02,7.780528782852691623e-03,3.154247035931454640e-02,2.794184982776641846e-01
-3.208759547457403216e-01,-3.210549786227724911e-01,-7.015979724599302747e-03,-3.317919668791283107e-03,9.261030754643285318e-04,1.101482635161077361e-03,3.140120208263397217e-01
-2.863761409302130190e-01,-2.440076180456682842e-01,-3.790812439664986710e-02,5.780722624553082285e-03,-1.559922050967558343e-03,-6.774165435988142576e-05,2.304599434137344360e-01
-3.156714987334884870e-01,-3.155392796472971106e-01,-3.166913179081798368e-04,-2.744457232024857720e-03,2.366769023842870724e-03,3.066402908668505213e-03,3.153959214687347412e-01
-3.160793355244279623e-01,-3.181934638293443807e-01,-9.049612130948986310e-03,-2.168673381087994796e-03,4.078799784731518621e-03,3.626908157573504026e-03,3.082601130008697510e-01
-3.060644059132300310e-01,-2.119894577250687473e-01,-4.259188596317142750e-02,-7.945893631325097115e-03,3.249338830234614183e-03,-3.307654638339838169e-03,2.318094223737716675e-01
-3.199562603441419295e-01,-3.283849782761779079e-01,-5.129337965866925808e-03,-3.071729423879471493e-03,1.110428021656398138e-03,2.574465079248641568e-04,3.191752135753631592e-01
-3.136023197948074048e-01,-3.154275239819021581e-01,-1.252578321196379241e-03,-7.628445231550859190e-04,-2.505868578512234282e-03,-1.753822926608132170e-03,3.133139014244079590e-01
-3.195230720656787593e-01,-3.208706747260808290e-01,-8.581082953983687478e-03,-3.336855350809760264e-03,1.672920247702927663e-03,6.102166444571960639e-04,3.116868436336517334e-01
-4.628948519456156374e-01,-2.002325771193674830e-01,-3.426030724959672202e-02,3.417678560320898395e-02,-8.933847725210946169e-04,4.033812369994522334e-02,3.853841722011566162e-01
-2.735822398849145354e-01,-2.667383389865596865e-01,-3.986006837129379976e-02,5.209455663283983282e-03,-1.640918535663533602e-03,3.898660117834708299e-06,2.305706292390823364e-01
-3.117032267796395750e-01,-3.122617598980335085e-01,-2.529471921334597306e-03,-3.513122958634498421e-04,4.581769020347136595e-03,3.537755952024496196e-03,3.096163868904113770e-01
-3.120292717296198060e-01,-3.147258115982440874e-01,5.162157222800278777e-04,5.808504610436791967e-04,2.282489867574001748e-03,1.514990712794802479e-03,3.139399290084838867e-01
-3.181514973007991687e-01,-3.221645133125479732e-01,-4.829264560022472619e-03,-1.500648274090606808e-03,-2.780077286487958512e-03,-1.326053628698176633e-03,3.154037296772003174e-01
-3.737757503889834187e-01,-3.768239169488427076e-01,-9.771941163903533067e-02,4.965950478886315377e-03,-2.074333061950422996e-02,2.517654523971876376e-02,2.834153771400451660e-01
-2.380133407674091817e-01,-2.657895325188335267e-01,-3.335118921933233338e-02,8.249483377981916762e-03,-2.050717219300353129e-03,-2.271409487226841613e-03,2.203976064920425415e-01
-3.098320884574949918e-01,-3.357713412728187685e-01,-2.204067528839698253e-02,6.974503459855141765e-04,-3.505185170677257989e-02,-1.119317588396703984e-02,3.082613348960876465e-01
-2.799069522621766559e-01,-2.646813901858213747e-01,-3.681579133920173663e-02,4.138482786238595681e-03,-2.979808711753127812e-03,-1.060063924911862354e-03,2.360197454690933228e-01
-2.918893434888102933e-01,-2.970918545478105632e-01,-2.214001017937566873e-02,2.408233885880492735e-03,-5.599059306160245574e-03,-5.867276791178297618e-03,2.727817296981811523e-01
-2.910154470640964330e-01,-2.918112379057260508e-01,3.405292700315309951e-04,9.117540185711155154e-03,-1.502732100792304910e-02,-1.173790642597198272e-02,2.940424680709838867e-01
-2.688954854292082142e-01,-2.841150522424651381e-01,-4.452977405168342950e-02,5.172552752589076527e-03,6.139405340746576206e-05,2.077834075735383434e-03,2.325501739978790283e-01
-2.635285768583486288e-01,-2.690445550246727824e-01,-3.349007090672898035e-02,5.435110246651124813e-03,1.115769201249830781e-03,2.073615929997824417e-03,2.330714166164398193e-01
-3.121498129990613046e-01,-3.111786094033326955e-01,-8.597646305369133213e-04,4.212031346999795629e-04,-1.566508202697303046e-03,-3.055238779783537705e-03,3.108633160591125488e-01
-4.036168718246510578e-01,-4.013085256591352734e-01,-5.970389442762547016e-02,1.014418712831703651e-02,1.779417575610337671e-02,-1.015785602086550917e-05,3.445957005023956299e-01
-3.063969808231785108e-01,-2.109748286795014860e-01,-2.344055156023960862e-02,7.920283531956245080e-04,3.219084158271075160e-03,1.275264750703604573e-02,2.503802776336669922e-01
-3.001596100504217435e-01,-2.889939707431238292e-01,-3.237142421718181007e-02,-2.839774692971083932e-03,-4.563936025310706864e-03,1.687258355567027284e-03,2.625649869441986084e-01
-3.116977274440501100e-01,-3.116046264569745095e-01,-8.411102456938601701e-03,-7.366442433750564935e-04,-4.010162829810868731e-03,-2.304925063149556533e-03,3.033485710620880127e-01
-2.839226329652611014e-01,-2.885209744966888978e-01,-6.602728746154695738e-03,-6.854030724345333168e-04,-4.920570060761662173e-03,1.153083401267381361e-03,2.797869145870208740e-01
-3.100343785362271731e-01,-3.130467079616250370e-01,2.864338914416092452e-03,-1.659244795164365165e-03,2.312651765716682538e-03,1.335783518318192729e-03,3.144628703594207764e-01
-3.137186838017902990e-01,-3.137086891813014589e-01,1.508579051171271557e-03,-7.810659058942905205e-04,3.321514549791885432e-03,1.635687221599312719e-03,3.152903914451599121e-01
-4.045407827760048591e-01,-3.860894537845387386e-01,-5.608635569220968287e-02,1.842853002487529132e-02,4.431595967019689671e-04,2.250345343006691576e-03,3.411247730255126953e-01
-3.207009713136784179e-01,-3.167518454539650641e-01,-6.092433499241239891e-03,3.676115812808682754e-04,-3.119697270623651144e-04,3.168443336442983670e-03,3.127019703388214111e-01
-3.244375397992107501e-01,-3.241894763857020023e-01,-2.215445169930707614e-02,-5.015112211459510014e-03,1.880072052516525410e-03,2.948738942337118286e-03,3.023446500301361084e-01
-2.758934821093750878e-01,-2.998345125658364307e-01,-4.828633275207167008e-02,-1.439293835377674670e-02,2.855688817246825116e-04,4.034912066280622357e-03,2.418633699417114258e-01
-3.042187226626373864e-01,-2.963110417276023645e-01,-2.151383229717057644e-03,1.437959287942371274e-03,8.000376315404195832e-03,3.970301532477368486e-03,2.986035346984863281e-01
-3.135080740722445136e-01,-3.173962836778587149e-01,-1.584028595241093740e-03,-7.497590959446543638e-04,2.876421414696054505e-03,2.544152758440509227e-03,3.139593601226806641e-01
-3.105485173287990674e-01,-3.245875437067660130e-01,-3.240691498846942631e-02,2.902745404473965410e-02,4.532994006336319576e-02,1.616076960569770571e-02,3.015632331371307373e-01
-2.811830776916487973e-01,-2.226545732005036360e-01,-3.087945842012856934e-02,-1.021353402381461155e-02,3.019333118324927026e-03,-1.212471600513687780e-04,2.275256812572479248e-01
-3.140541443256755771e-01,-3.153628199930120779e-01,-5.843380282887222776e-04,-3.033942275702743814e-04,3.497121556393839592e-03,1.755978645626897049e-03,3.141997456550598145e-01
-2.923006568238627478e-01,-2.093118525790506335e-01,-3.664434457309070914e-02,-6.672016045646385340e-03,-2.549974056923279449e-03,1.140469475891203906e-03,2.262468487024307251e-01
-3.008083843685959713e-01,-2.948655013824678095e-01,-7.326858482285814045e-04,1.414734528259877205e-03,6.573175362670257219e-03,4.685746866775237704e-03,2.974876761436462402e-01
-3.199248539001767755e-01,-3.311782199758084300e-01,-8.168996242849640987e-03,2.069185599317746767e-03,-8.976465421234717558e-04,1.100544253154838196e-03,3.175618946552276611e-01
-3.086222244343357901e-01,-2.018868311786128633e-01,-3.603297373588770780e-02,-9.605101337988465994e-04,-6.031355113371803661e-04,-2.145857150025187190e-04,2.379210442304611206e-01
-3.107338337673866691e-01,-2.781750966800388136e-01,-2.218378267162096629e-02,-3.876354515614125005e-03,9.040795473245216360e-03,-9.075222080971199340e-03,2.747066617012023926e-01
-2.988411326620830089e-01,-2.882576181896032153e-01,2.899505338184782399e-03,-5.895135304661685552e-04,-6.071522054261605829e-04,7.694695585907971105e-03,2.968934476375579834e-01
-3.186072377902777752e-01,-3.315061956387237996e-01,-1.021983477426410825e-02,-6.116354290425808898e-04,-6.656893098119830501e-04,-1.112547528760749621e-04,3.150389492511749268e-01
-3.185496482854598410e-01,-3.276603620345229784e-01,-6.717883458761814142e-03,-9.475350805261294933e-04,-1.322090482316042989e-05,1.140422629575328379e-03,3.164958953857421875e-01
-2.958042697031599833e-01,-2.709686162439245982e-01,-2.344495959427447818e-02,-4.427663368181254666e-03,-8.542584082808170678e-03,1.688914457867525271e-03,2.613780498504638672e-01
-3.324658927777380257e-01,-3.244915016704800204e-01,-1.227894975710225323e-02,4.831935480431691484e-04,7.827708245253300803e-04,6.348037177091619097e-03,3.164702355861663818e-01
-3.164181718224767792e-01,-3.180500033027919837e-01,-9.335549942130400014e-03,-8.824750603761641072e-04,7.474035495138834848e-03,6.589295496452173863e-03,3.083888590335845947e-01
-3.074818629710397433e-01,-2.928627373409573575e-01,-8.663757010057837604e-05,-7.510743833738680372e-04,3.933861602823357615e-04,7.310893442113222500e-03,3.006230294704437256e-01
-3.136728858052643676e-01,-2.979098331374196440e-01,-3.255060777121066007e-03,1.472019520536417764e-03,4.274557241674328129e-03,3.457780557770369530e-03,3.030045330524444580e-01
-3.126850850990084973e-01,-3.252121318685795015e-01,-4.922133838273445861e-03,7.865832267525328615e-04,-4.307825700252550623e-06,-2.924924638103269412e-04,3.142171800136566162e-01
-2.983616053104547472e-01,-2.355201307449649450e-01,-2.101478335329606817e-02,-6.228826731746345616e-03,-8.443221882277205173e-03,9.313280496769786934e-03,2.530452609062194824e-01
-2.417844482773470749e-01,-2.893328092213797720e-01,-3.773708434245937049e-02,2.180324139500811054e-02,-1.946186014050502004e-03,-2.202673074135909695e-03,2.346281111240386963e-01
-3.230058575436292601e-01,-3.114410278708570345e-01,-6.970665237740231168e-03,-4.140675680144301901e-03,3.176514140583361866e-03,-1.421764824154677070e-03,3.105557262897491455e-01
-2.222935940263155163e-01,-2.975302423938885887e-01,-2.824754229858517096e-02,6.290161375182562464e-02,-1.212929865360867429e-02,7.079091031992178033e-03,2.652834951877593994e-01
-2.972887054362115533e-01,-2.147125410446208971e-01,-2.197829090035807731e-02,-4.204927068721780667e-03,-3.363243071919797943e-03,1.285161824511087646e-02,2.458923310041427612e-01
-3.155348717773494571e-01,-3.259515453318502232e-01,-1.162844974398788422e-02,-1.718015156359317024e-03,-1.905580641345615538e-04,-1.006566895370863442e-04,3.092609047889709473e-01
-3.003728799255564463e-01,-1.983396347890374334e-01,-3.639111037322578790e-02,-2.033290635935540869e-03,-1.863724048999249733e-03,-8.992768012926674864e-04,2.306241393089294434e-01
-3.799958135399401082e-01,-1.356202678831401331e-01,9.191270349319852206e-03,-4.427774813589041569e-02,5.898946881541129554e-03,-1.687128909336614233e-02,3.505967259407043457e-01
-3.023577047932558548e-01,-2.611766579369222407e-01,-8.080344621117369064e-03,2.430030675622148629e-03,1.106881157005414062e-02,1.827844712839645511e-03,2.767159044742584229e-01
-3.169149573853888291e-01,-3.274157341505387619e-01,-7.463338709127020909e-03,-2.915167715622369281e-03,4.310903045089094286e-04,-1.631348143713793383e-03,3.148874342441558838e-01
-3.187312897514282817e-01,-3.183599443807257345e-01,-9.964224747080030475e-03,-5.613821500631754544e-03,4.527092983328500145e-03,3.425603612396934099e-03,3.088912665843963623e-01
-1.986285669419377287e-01,-2.556873067208509931e-01,-9.324956669261585951e-04,5.682922241751808129e-02,-3.203631271921225654e-02,-3.464888401107040633e-02,2.645543813705444336e-01
-2.352623267704663790e-01,-1.862682601773221480e-01,-1.207198099971351635e-02,8.269485617423751045e-02,-1.864503793900578604e-02,-2.617063428416847859e-02,2.547396421432495117e-01
-2.310489292378039849e-01,-7.125833391445390852e-02,7.563116710617981409e-02,-5.320646966129138900e-02,7.795501760702192029e-03,-1.588011075528363014e-02,2.828652560710906982e-01
-1.519646192504634508e-01,-2.734825109996616987e-01,-7.194466353545370119e-03,2.322801719745348423e-02,-2.617949040289154969e-02,-3.667383931510484306e-05,2.387297302484512329e-01
-2.932675641482955786e-01,-2.735646070095829607e-01,-1.067832465071164028e-02,2.415415197915192231e-03,1.008957347215824925e-02,8.374079258408776566e-03,2.742449939250946045e-01
-2.751115312322761630e-01,-2.739943420839350829e-01,-1.577764954532309694e-02,6.916049483809945733e-03,8.605277325225589233e-03,6.985727162042460782e-03,2.597645819187164307e-01
-3.020813549416505595e-01,-2.972233484062737352e-01,-8.464076963750205573e-03,2.582271683105358435e-03,6.518496275435973000e-03,2.705495865543816776e-03,2.915094196796417236e-01
-3.184635547386682197e-01,-3.296746927364354041e-01,-3.899653161389943223e-02,1.826769234237915582e-04,5.664489570156921658e-04,1.655506742416434484e-03,2.852541506290435791e-01
-2.763637454970539475e-01,-2.741385803826689727e-01,-2.338278727092968357e-02,1.607649348580026663e-03,1.219830972871980765e-03,4.490984408812890606e-03,2.520200610160827637e-01
-2.835078673883439371e-01,-2.425560165659643441e-01,-3.723646855438711434e-02,7.799503203073176495e-03,2.967827969418474886e-03,1.633186305073879149e-04,2.290204912424087524e-01
-2.789670423079454453e-01,-2.840370301127762565e-01,-2.693096418436849437e-02,2.620835564159794146e-03,9.006798087093034495e-04,3.809498810159126121e-03,2.547396421432495117e-01
-2.974532605296694165e-01,-2.989788351946382483e-01,-1.485286449075617909e-02,-7.112615227973578466e-04,1.507175888124660757e-03,5.003333666042961668e-03,2.835134565830230713e-01
-2.830103232099412947e-01,-2.967715166682037276e-01,-3.170177457804040921e-02,2.029167231053909635e-03,1.545826601397678600e-04,5.327931632821043123e-03,2.586527466773986816e-01
-2.743911991286089314e-01,-2.953505768317730151e-01,-1.106364769795520342e-02,-1.799090563312391242e-03,-1.493720031012891938e-03,8.205707850626265190e-03,2.748059034347534180e-01
-2.983823121216935825e-01,-3.055544636976190165e-01,-1.652386442685671586e-04,-2.374220464840097748e-04,8.354657913193317548e-03,6.444179483262296032e-03,3.024200201034545898e-01
-2.657635489004040452e-01,-2.807800553762125895e-01,-2.545197622792563785e-02,2.353974205288341011e-03,2.071505613773614793e-03,7.319282165657983730e-03,2.485437542200088501e-01
-2.910603836930512056e-01,-2.793642797776839104e-01,-2.966654706567933841e-02,1.142295026543815742e-03,6.800381884703475717e-03,1.884472300826730597e-03,2.560459971427917480e-01
-2.727290549329671743e-01,-2.836720488385136574e-01,-6.587940700004929484e-03,2.808318213502498852e-03,1.130198261934381841e-05,7.036202814392143214e-03,2.720944881439208984e-01
-2.852843725065657976e-01,-2.963596458610973094e-01,-2.933443959644854715e-02,2.408067966669780961e-03,2.405417729588233116e-03,8.348828564534142502e-03,2.621289789676666260e-01
-2.932955037145328903e-01,-2.991046776106515148e-01,-1.180138271336947375e-02,1.909819654990322062e-03,1.462888893374584024e-03,7.469484328603616732e-03,2.847677469253540039e-01
-2.688238033267169036e-01,-2.775543431500122615e-01,-2.538343395198081054e-02,4.693812590224819871e-03,3.236254775717975572e-03,5.011289425446960148e-03,2.482693195343017578e-01
-3.160349392856190431e-01,-3.168016179350487960e-01,1.294867469026322881e-03,7.150015442438353765e-04,-7.906039494881366260e-04,4.041427655360609961e-04,3.177199661731719971e-01
-3.144817446293467489e-01,-3.153637900178085096e-01,1.535959275474979568e-03,7.176910817128317154e-04,-9.913011325264518229e-04,1.634271457004397019e-04,3.164668679237365723e-01
-3.040706937379494823e-01,-2.648788824014632892e-01,-2.420907573851591166e-02,-2.908544521837250815e-03,-6.759870101031070951e-03,1.237760054858124412e-03,2.627875506877899170e-01
-3.038519426764975107e-01,-3.044464903219620822e-01,-2.775860845907640595e-03,-2.266529497319175624e-03,-3.493150859777597629e-03,1.183425574035703188e-03,3.014670610427856445e-01
-3.182550863724256107e-01,-3.197075014425675432e-01,-1.572020677021862545e-03,2.006425646024125736e-03,-1.616344847972505175e-03,9.470305886445965719e-04,3.174473643302917480e-01
-2.895075776811208979e-01,-2.860959237712780157e-01,-2.928424082817340790e-02,-2.240117423239480158e-03,-3.729705453950689256e-04,1.410970956271591099e-03,2.585758566856384277e-01
-3.076907497398553293e-01,-3.044420150793893942e-01,-1.746563395284034259e-03,9.337097811804794759e-04,5.209456906584169177e-03,4.864205664665978424e-03,3.045873939990997314e-01
-2.608481324566736537e-01,-2.824981114989941200e-01,-2.459159063298463344e-02,2.768620269547985777e-03,3.123916723253835313e-03,8.343915692139871818e-03,2.483182698488235474e-01
-2.787813290672551125e-01,-2.581144802283088513e-01,-3.353910166031814910e-02,5.706466650587983108e-03,5.820083042696507988e-03,4.446970959965272814e-03,2.361379265785217285e-01
-2.864158739250016183e-01,-2.711979041774498222e-01,-7.861048491496991364e-03,3.210989767255152238e-03,1.087263993586600787e-02,8.551968868428974635e-03,2.723790109157562256e-01
-2.741344636581587446e-01,-2.861334329872415871e-01,-3.827706687869936175e-02,1.391068267057263622e-02,1.016723462085865164e-02,8.309859332036690846e-03,2.443369179964065552e-01
-3.387853605216274988e-01,-3.453053881122328250e-01,-4.519623689938084832e-02,4.015439988433905372e-02,3.121690879491870532e-02,3.214491799743453976e-02,3.146613836288452148e-01
-2.927700980948255705e-01,-3.048382829576656849e-01,-2.071267629311679404e-02,1.801041057414969407e-02,3.055723667954474490e-02,3.032524545630380097e-02,2.897884547710418701e-01
-2.137703654177009471e-01,-2.922435547799947519e-01,-1.852891457410862919e-02,-4.624148582345545717e-03,1.554747764088620053e-02,-6.619048558430499531e-03,2.460065931081771851e-01
-2.538678131218811140e-01,-2.910520275259133038e-01,-1.154419079256194247e-02,-2.589776449356860979e-02,3.266743245490804498e-02,-1.383246788342963260e-02,2.736815512180328369e-01
-2.967068099908990453e-01,-3.703839200379209773e-01,-4.593758935313571601e-02,-2.166945374032095556e-02,3.384472564595817495e-02,-1.346312144650017688e-02,3.036088347434997559e-01
-3.136201735722025652e-01,-3.224807211213291391e-01,-2.411637178765080325e-03,1.359009151293771129e-03,-1.061508813904803866e-03,3.097635942734783634e-04,3.157466650009155273e-01
-2.633185630033924030e-01,-3.122776410407228087e-01,-7.063062426327759713e-03,-2.264171034608597390e-03,1.470954905682580680e-02,-4.767619890279746475e-03,2.852062284946441650e-01
-2.688076940651537017e-01,-2.200034201097165187e-01,-7.298295903831381048e-03,-6.911974656967394270e-02,-2.582434106813449523e-02,5.634442490537118486e-02,2.895921766757965088e-01
-2.666529169089029150e-01,-1.653904500442730519e-01,-5.266681208424967009e-03,6.030060435198463659e-02,-5.013560636189820681e-03,-6.623495550099782643e-03,2.514433264732360840e-01
-3.748544971131211323e-01,-1.000379936560825966e-01,2.416783787502249647e-02,-1.757291531423341505e-02,4.913911285051485861e-03,-2.654930362409736039e-02,3.580481410026550293e-01
-2.739406812896882371e-01,-2.460268033810883437e-01,-3.386791813520978467e-02,4.071006529599462131e-02,-8.085814868565376068e-03,6.306060959028657537e-04,2.384995073080062866e-01
-3.272191146764312220e-01,-1.624103413129962536e-01,-2.715886204112838431e-02,-1.688981652701956881e-02,-9.729641870931192427e-03,2.646833064192648244e-02,2.664339244365692139e-01
-3.180137307854485895e-01,-3.004487561596101419e-01,-1.500211884579349952e-02,4.539902063219079993e-04,-6.439636645204197679e-03,1.455066945895203828e-03,2.948449552059173584e-01
-3.138690184140295325e-01,-3.051538922810925203e-01,-1.498453015871742400e-02,-1.372943477940126011e-04,-7.100654823223269581e-03,2.767252316015254756e-03,2.949192523956298828e-01
-2.946983083120300884e-01,-3.140184130929791206e-01,-1.434450977382834003e-02,-2.261223857515012176e-02,-3.271330974000220826e-02,1.506522919490949075e-02,2.996886670589447021e-01
-2.987046060261258074e-01,-2.630797646978378923e-01,-3.208578329771863413e-02,1.405903726778867310e-02,-7.630213528093575219e-03,-4.631702683465095845e-03,2.523657381534576416e-01
-3.196253286531978155e-01,-2.776731120542283437e-01,-3.855897959175669243e-02,2.665538805588086972e-03,9.301435711543661056e-03,2.805601505795135824e-03,2.631946206092834473e-01
-3.103107838122302065e-01,-3.002169483392962412e-01,-4.860872404013893977e-03,6.899877319167056614e-05,-4.325075748490972601e-03,4.465471895147550205e-03,3.007230162620544434e-01
-2.933687611254439664e-01,-2.704663935032524669e-01,-2.788282089643803752e-02,3.574805415708121482e-03,7.063329289855994376e-03,1.636692690432915405e-03,2.551922798156738281e-01
-3.302169323571091386e-01,-3.260273114533924765e-01,-2.378069163697815736e-02,3.278710941595248170e-03,-1.389709874611497718e-02,2.041829262423423136e-02,3.074072599411010742e-01
-2.811103306184005168e-01,-2.259063360683289112e-01,-2.033199365243235079e-02,-7.253930650778561695e-03,-1.116841490614303538e-02,1.309449354230462700e-02,2.402150481939315796e-01
-2.947824482497299892e-01,-2.446972362648610622e-01,-2.963680474074342763e-02,-1.550276971705677638e-02,-1.063254231735045324e-02,1.319446828793086578e-02,2.472110539674758911e-01
-2.807567635246321913e-01,-2.438818966819424616e-01,-2.066498123061913383e-02,-4.553654664423910370e-02,-1.877629602082640098e-02,4.074998052921825764e-02,2.677250504493713379e-01
-3.181215063946205568e-01,-3.177265539054325849e-01,-7.297180242648304560e-04,-1.682689632800465256e-03,1.561040320710322098e-03,1.414432464552130243e-03,3.172288835048675537e-01
-2.892330579243009292e-01,-2.540368560198281167e-01,1.918395253214993934e-03,-1.957275518928244459e-02,-1.528030932704806805e-02,2.718634788264900209e-02,2.825376987457275391e-01
-2.918622309332744580e-01,-2.860109012459822742e-01,-3.090345081689527262e-02,3.357271844919231690e-04,4.061496795226979262e-03,1.204202109722331618e-03,2.581878006458282471e-01
-2.994772014796965309e-01,-2.744186187473437455e-01,-1.138562822599478719e-02,-1.103690908698514578e-02,-1.169002486853057410e-02,1.493755614569992375e-03,2.778266072273254395e-01
-2.968513322415087807e-01,-2.915485078223192250e-01,-1.664632953964573225e-02,-6.578981134121335804e-03,9.471059005384675766e-03,-8.422808435600165691e-03,2.786913514137268066e-01
-1.937687617311482091e-01,-2.124893291993935618e-01,4.670154704637663468e-04,4.672081006979323520e-02,-1.480334353512986409e-02,-1.262458479667088670e-02,2.222571969032287598e-01
-2.933869511332831692e-01,-2.625548879001293745e-01,-3.961932774482504471e-02,4.067988186025481290e-03,7.696859602868071776e-03,4.596661891729528909e-03,2.404479235410690308e-01
-3.038502841238673868e-01,-2.965290348705900692e-01,-1.416229017294240444e-02,-9.199623112854570179e-04,8.480733952988100607e-03,1.232976876338972086e-03,2.864868640899658203e-01
-3.007176996083852361e-01,-3.017664115494892996e-01,-6.517453316854382450e-03,2.272428318102975387e-04,1.186542579856041937e-03,2.854385328625748224e-03,2.947748899459838867e-01
-2.812931082267798311e-01,-2.684751210888179918e-01,-3.595589273566882071e-02,-1.570362273359444255e-02,7.098698991710050525e-03,-3.817288287280897700e-03,2.411319613456726074e-01
-2.780512698557003892e-01,-2.581980624312916195e-01,-3.180049703585166587e-02,-1.104549391083357174e-02,2.777747592551356622e-03,-6.098499124768359120e-03,2.380030602216720581e-01
-2.931238405660860358e-01,-2.873546269342478476e-01,-3.108912935957436341e-02,6.115899977187048021e-04,3.697788125519645922e-03,-1.597195576136588779e-03,2.592943012714385986e-01
-3.037926818665301343e-01,-3.008482972224577612e-01,-1.672395061391096505e-02,-1.638312578184232104e-03,8.551844294934758759e-05,1.280776363910419123e-03,2.856306731700897217e-01
-3.169732678290881900e-01,-3.160651908431160173e-01,-1.773899673152362633e-03,2.066428789529553642e-03,-3.302849324122180547e-03,3.269861333850458771e-03,3.148695826530456543e-01
-3.011862886857868959e-01,-2.243652786176577596e-01,-3.001604274014232909e-02,6.130872295024226981e-02,4.538868376025203752e-03,2.410908050047998186e-02,2.677405774593353271e-01
-2.619881818760148029e-01,-1.556311317495517044e-01,-8.249722376243995292e-05,5.808966685425850929e-02,3.391801006627971236e-04,-1.180652336884666607e-02,2.501852214336395264e-01
-3.206470420711157177e-01,-3.183104457124920073e-01,-4.254444266713064415e-04,2.949998745125407781e-04,-1.403699016838274704e-03,8.766669253961768002e-04,3.190729916095733643e-01
-2.874957323735153891e-01,-2.871565924976210438e-01,-8.455038894231242663e-03,1.877341407967562980e-03,-1.281995763421782354e-03,3.792110996290913930e-04,2.788998484611511230e-01
-3.320680945584765231e-01,-2.418255391132765608e-01,-2.527823287337849223e-02,-7.054704088645294413e-03,1.969238412975202537e-02,3.003586240095898474e-02,2.803522348403930664e-01
-2.977123212492445159e-01,-1.998490908976266744e-01,-2.151282211294192059e-02,2.565798626883293576e-02,7.003025042633793593e-03,1.984617328790624219e-02,2.492736130952835083e-01
-2.650378942732709020e-01,-2.821914466325680659e-01,-4.102460966944457277e-02,-3.029937542236538564e-03,-3.804637038679389155e-04,-1.149770382626986347e-03,2.331324964761734009e-01
-2.477034998687908107e-01,-1.273521391520248403e-01,3.869483828268793779e-03,5.925116393288185762e-02,3.369045394756116558e-04,-3.697506087676189369e-03,2.409766018390655518e-01
-3.176351191656839879e-01,-3.268148727378094032e-01,-7.686143300440373416e-03,2.117479344618015350e-04,-6.136791134754282766e-04,4.433306602680741823e-03,3.147349953651428223e-01
-3.232176080482297986e-01,-3.237084628401795672e-01,-1.036234263676732992e-02,3.596168267000842290e-03,-3.647766516794557871e-03,3.799553168726099717e-03,3.132957816123962402e-01
-3.215542701269703540e-01,-3.267278436390754770e-01,-4.331530026664143218e-03,3.844186136524696366e-03,-2.381002296615857862e-03,2.902699314678246038e-03,3.199763000011444092e-01
-3.025924433083194698e-01,-2.893038328915243929e-01,-1.434935227539213543e-02,4.059090693433782407e-04,-8.682778893512701698e-03,3.922871726256837305e-03,2.823174595832824707e-01
-3.198668130905193419e-01,-3.210152702472487407e-01,-1.020269095012507621e-02,9.441588160480758564e-04,-2.550030668164109983e-03,4.001997005974627236e-03,3.103531002998352051e-01
-3.153391406784423756e-01,-3.279188562617427194e-01,-2.946319997973173566e-02,1.048608518344569659e-03,1.334021319199461039e-03,-3.464142723220487753e-03,2.924451828002929688e-01
-5.229532642778327300e-01,-2.947755318040087835e-01,-1.032102082773077578e-01,-2.594661090546394877e-02,-4.073445519828551922e-03,1.095503761764085732e-01,4.129728972911834717e-01
-3.210222902038874504e-01,-3.252202386019435454e-01,-6.968650796951220139e-03,4.035529383363598943e-04,-3.124091901935933339e-03,3.127578247947705552e-03,3.162669837474822998e-01
-3.366807402799842919e-01,-3.055023433794336052e-01,-2.230886869941120509e-02,1.726810947745010356e-03,5.034833369892722198e-03,1.585147174127412087e-02,3.013950288295745850e-01
-3.151257754717768922e-01,-3.238155207916741940e-01,-4.751455718971370201e-03,8.486779814920491398e-04,-3.502480082637848911e-04,2.215033471424890472e-05,3.148131668567657471e-01
-3.139660787878046921e-01,-3.188291121749277091e-01,-3.103445860015846547e-03,-4.012397710029982738e-04,-3.741825825451598839e-03,2.321746331736998948e-03,3.134160339832305908e-01
-3.108909836668665161e-01,-2.937370006842562331e-01,-1.122599999377218993e-02,6.095370795201678505e-04,-6.049211698063179828e-03,1.272946766504601604e-03,2.916653454303741455e-01
-3.224370978689629630e-01,-3.189155881998616549e-01,-9.394185213224159892e-03,5.379400055337773103e-05,3.762670895161925348e-04,-7.303334512114021196e-04,3.113003671169281006e-01
-3.110890783674443161e-01,-2.963972921547980421e-01,-1.224060844595983855e-02,-1.761609840780470446e-04,-8.043224864465053220e-03,1.411453155429979881e-03,2.921229004859924316e-01
-3.180037996100729680e-01,-3.278052106782343711e-01,-4.998169692688597676e-03,1.665319171021640220e-04,-8.589284274895083240e-04,7.756266326357438845e-04,3.180260956287384033e-01
-3.123116582613314485e-01,-2.947724941274313948e-01,-1.367886715274196918e-02,8.180374671793206806e-03,-1.640288515568852357e-02,-1.826616661140188086e-02,2.937009930610656738e-01
-3.158352270171959630e-01,-3.268230799751648541e-01,-5.580448033554230580e-03,2.127363121137564993e-03,-9.128154978411731060e-04,-2.191095541109473743e-03,3.159402906894683838e-01
-3.104686410113216000e-01,-3.152912180635099593e-01,-1.121467514349019923e-02,2.258064266220116863e-03,-1.993048789551703920e-02,-1.572459053139603838e-02,3.049067556858062744e-01
-2.822474075440384311e-01,-2.681359009371104274e-01,-3.021071337051450811e-02,-2.307796497966393794e-03,-5.478315792897313873e-03,3.689458434585559873e-03,2.455847412347793579e-01
-2.997923985489531762e-01,-2.936507475504924747e-01,-6.590878220057244663e-03,-3.384990244134460091e-03,6.950546397661980756e-03,-3.901350884283407393e-03,2.905668318271636963e-01
-2.802336057097677413e-01,-2.662891707078842152e-01,-1.505361563806043024e-02,-7.023773087048685616e-03,7.712813263037727671e-03,-4.410064605132307976e-03,2.592332959175109863e-01
-3.134453684865758372e-01,-3.154578702823769287e-01,-7.071117310736535488e-03,3.793859872197481026e-04,-9.568923208912067128e-04,2.877635205606598068e-03,3.074310123920440674e-01
-3.013888169427653696e-01,-3.026767158981245043e-01,-2.631329267630774793e-02,1.122189179583289644e-03,6.821166039319115706e-03,5.954274832881143245e-03,2.761742174625396729e-01
-6.635019348993109745e-01,-5.526257717489641008e-01,-1.973365252941695069e-01,3.038100498888428661e-02,6.906546885820645520e-03,1.372047782412217365e-01,4.871392548084259033e-01
-3.150805822264194922e-01,-3.289052191259580482e-01,-5.867185758548471020e-03,1.332683350062030449e-03,-1.818862679108519936e-03,1.266778667488362630e-03,3.163840770721435547e-01
-3.169616407272939362e-01,-3.250056842820528979e-01,-2.021922897406991382e-03,-7.067509001275358973e-04,1.214443380096380748e-03,7.663120255521122968e-05,3.190471231937408447e-01
-3.298958922231116642e-01,-3.227851602895916994e-01,-1.775889670648300722e-02,-4.405210856140567843e-03,-3.318148799629275052e-03,6.538341732587799916e-04,3.087929189205169678e-01
-3.170564367683227358e-01,-3.270463298879308089e-01,-5.672908229959666704e-03,9.902554678677610248e-04,-8.615765361182822204e-04,-2.110037163951195764e-04,3.165051043033599854e-01
-3.146961113014629663e-01,-3.217532562834753973e-01,-4.130687341067251772e-03,1.210371575670257045e-05,-1.587696664487076676e-03,1.878954292900039463e-03,3.141823410987854004e-01
-3.269510052558110003e-01,-3.266645175287344882e-01,-1.537651319409188977e-02,-1.630769894936545021e-03,2.308634151632499038e-03,1.931674828691412995e-03,3.114877939224243164e-01
-3.197543356034575623e-01,-3.168313585356774542e-01,-5.359964618054102736e-04,-3.298375133169550999e-03,1.000170758893520386e-03,2.270911038369506814e-03,3.178473412990570068e-01
-3.139244571900470238e-01,-3.147268409978822290e-01,-5.101725650566435455e-03,-7.065974402906749019e-04,5.492058384231132337e-03,2.820505365447890651e-04,3.093737959861755371e-01
-2.892787806989638444e-01,-2.883220905854596006e-01,-9.662557285764455939e-03,6.839060528650758907e-04,5.191529375151728541e-03,1.550406962844184423e-03,2.792993187904357910e-01
-3.190818017529687967e-01,-3.283734214919273309e-01,-1.208304013055266912e-02,-9.780510206367630955e-04,-1.433726107854708422e-03,1.107620941355553102e-03,3.117688298225402832e-01
-2.814686033502974416e-01,-2.831402177302431156e-01,-2.012750310341221427e-02,4.946786624924757667e-03,6.187576360115268521e-03,4.558418293609446496e-03,2.626583874225616455e-01
-2.365963262488378627e-01,-1.988846070936423349e-01,3.475476431791524323e-03,7.482155766871492752e-02,-2.690144542236519443e-02,-3.247378530432236399e-02,2.685751616954803467e-01
-2.073875177853377605e-01,-1.773689715911633547e-01,8.675703583839594613e-03,8.367602998921948310e-02,-3.891045408364585730e-03,-7.401491951444070941e-04,2.493002712726593018e-01
-3.134109475848272375e-01,-3.139233226343916550e-01,-1.976479202603603769e-03,-1.122000756321992371e-04,1.724662626369213728e-03,8.320069356189522571e-04,3.117086887359619141e-01
-3.089839778760718469e-01,-3.064488551627355117e-01,-9.723972085349807948e-04,1.714418084821759693e-04,1.342643382686247409e-03,5.023672427603215716e-03,3.068842291831970215e-01
-2.732811507488375202e-01,-1.423859639840432401e-01,1.054398125133526598e-02,5.523847128459344336e-02,-2.505205765286790814e-02,-4.936037515223855310e-02,2.808646261692047119e-01
-1.971266721940679589e-01,-4.233480762877321613e-02,9.297089780976872109e-02,6.264601364726617161e-02,-1.782380559482361557e-02,-2.168694395259535349e-02,2.781186401844024658e-01
-2.730122609570131420e-01,-2.878587314572271794e-01,-2.038108172259756046e-02,-1.502154215323662665e-03,-7.775153385278482220e-04,5.873204627173626326e-03,2.605871856212615967e-01
-3.028781570831897696e-01,-3.071760418306435092e-01,-3.250360699077442517e-03,-6.085328546159621526e-04,-2.942364612470095304e-03,9.043852940698166292e-04,3.018486201763153076e-01
-3.127076576029112487e-01,-2.173257372904837115e-01,-4.134211260433556800e-02,2.200432223770978912e-02,-1.075948876211176497e-03,-9.433543100194759570e-03,2.420260757207870483e-01
-2.816677064757682203e-01,-2.644118268342467437e-01,-4.141029761628825523e-02,1.367968581607241149e-02,1.256941053960706914e-03,8.989210985453216507e-03,2.338463068008422852e-01
-3.121794737986661739e-01,-3.140032410445106614e-01,3.393112203985221287e-03,4.190751043506660018e-04,-1.963413525615581232e-03,1.995086600976246063e-04,3.165076971054077148e-01
-2.728115528224925312e-01,-2.695134492734440612e-01,-4.144763441686713512e-02,3.446003451629944814e-02,-1.230898763678523258e-02,-1.549356674665613998e-02,2.398212850093841553e-01
-3.197033441922894070e-01,-3.188351827822553664e-01,-1.726428316348810332e-03,1.935112162562787350e-03,-2.184614003655247633e-03,1.450030534817628924e-03,3.175938725471496582e-01
-3.145577894115958451e-01,-3.139189683903436667e-01,-7.228283584754385815e-03,-6.123124646760449855e-04,-2.668667000597897492e-04,9.100059859747857294e-04,3.070168197154998779e-01
-2.363753900280751441e-01,-2.625292488198652241e-01,-2.811427396026175418e-02,8.955423679421448471e-03,9.433364244734770065e-04,-7.504348366430219162e-04,2.230437397956848145e-01
-2.659769887051258719e-01,-2.730750426451443724e-01,-3.964281400161398516e-02,4.737657535760294789e-03,4.125352025311242025e-04,3.003639246022446994e-04,2.301134318113327026e-01
-2.657834553066653061e-01,-2.820257153032554309e-01,-4.220347398952262186e-02,2.730732777328952546e-03,9.525985630140243205e-04,-7.713334815935228963e-04,2.321855723857879639e-01
-2.337642923458975452e-01,-1.921655485227762583e-01,-1.153079358090161599e-02,6.459503843482218566e-02,5.335665076505656697e-03,4.193915965595638486e-03,2.335150539875030518e-01
-2.867043898293352155e-01,-2.882744880380404551e-01,-3.348903297396602086e-02,4.111609974184989198e-03,4.630653319476008348e-03,5.115794416776521178e-03,2.543847858905792236e-01
-2.705779361647517867e-01,-2.254861484783822201e-01,-1.165031898634202867e-02,-1.097409425281449004e-02,-7.310693026178156050e-03,4.339310802799987814e-03,2.407891005277633667e-01
-3.111870431582067775e-01,-3.117808796627152823e-01,-8.757475848977874788e-03,-3.103645959823693435e-04,4.235218896005624525e-03,4.877421307567990881e-03,3.029340803623199463e-01
-3.188032246674578629e-01,-3.298246683391465872e-01,-2.442498843941390274e-02,3.657866515054058933e-03,-6.766661695975768973e-04,-2.909425718834966583e-03,3.001523017883300781e-01
-2.776038552690195393e-01,-1.301962581936770003e-01,-1.137550861366237731e-02,8.419901114109880347e-02,-2.332337585948564707e-03,-4.449700206648700418e-02,2.838787436485290527e-01
-3.151166293882912139e-01,-3.178157636464988278e-01,2.393979197798379310e-04,1.338658675134067090e-03,-1.269560860843155095e-03,-2.493654345178888010e-05,3.167303502559661865e-01
-2.702956629274492761e-01,-2.867989142317927675e-01,-2.408921463732263679e-02,3.595757517480569886e-03,1.351390662216472253e-03,9.178191156388839853e-03,2.554411292076110840e-01
-3.190086912402945174e-01,-3.308512573408143309e-01,-9.962897308166018817e-03,2.028484482327432871e-03,-4.591029962947302243e-04,-1.354734192190210377e-04,3.151546716690063477e-01
-2.659591364427354998e-01,-3.012662774695891721e-01,-8.917740122601242048e-03,-3.062429301253432115e-03,-9.941273370826182731e-03,8.961412798589097825e-03,2.774127125740051270e-01
-3.040863587198318063e-01,-3.387716966276316799e-01,-1.745029820136861920e-02,-4.108998194995619468e-03,-2.132133532620987884e-02,6.311023534845723940e-03,3.079599142074584961e-01
-3.207450770968038878e-01,-3.184820798870617864e-01,-8.977900757546425359e-03,7.310013005735078182e-04,-3.293233387720192334e-03,2.597247597790410282e-04,3.106971383094787598e-01
-3.171273720285149311e-01,-3.251109676212238231e-01,-3.518148267659698680e-03,8.934872780954727488e-04,-9.495224326576894676e-04,-6.481494042427601333e-04,3.176862895488739014e-01
-2.868484318718426129e-01,-2.290058917044439368e-01,-3.601723859271946382e-02,1.055516222696452344e-02,-8.117720041601180977e-04,-9.747178434500632094e-04,2.282375842332839966e-01
-3.111091000624962022e-01,-3.122182965875434646e-01,3.407725970897279577e-04,-1.969665547811479936e-04,-2.428292987654833649e-03,2.047792880122401710e-03,3.120546340942382812e-01
-3.162539920840477525e-01,-3.189438388992821283e-01,-5.341977703798350685e-03,9.730807475912397553e-04,-3.027329639683168459e-03,3.080200358748492236e-03,3.123597502708435059e-01
-3.234163247725435619e-01,-3.166038166079154226e-01,-4.755773278490610378e-03,5.197187666088484096e-04,-2.883235594759232367e-03,-1.943116115185623783e-03,3.153682947158813477e-01
-3.249237829946727829e-01,-3.201159733014896092e-01,-5.551839318484047547e-03,6.936583632162989345e-05,-3.288903302737633278e-03,-1.773104663362202581e-03,3.170614540576934814e-01
-3.247244771687133325e-01,-3.155536392827043013e-01,-4.823919054957631625e-03,-1.282604138954222166e-03,-1.631229481090786882e-03,-2.306648411467414513e-03,3.154609203338623047e-01
-3.229071308997255030e-01,-3.284526469066439414e-01,-1.658884540991636958e-02,5.334736474091938963e-03,-1.409097030599047598e-03,5.295012467572310063e-04,3.092774152755737305e-01
-3.116481551833453212e-01,-3.117375381850056582e-01,-1.025461101617877735e-02,9.341702285148307649e-04,-1.752726631712384900e-03,1.447054896318259332e-03,3.014682829380035400e-01
-3.138782789073329416e-01,-3.164149071540021674e-01,3.082714158774146895e-04,-6.063155006707574685e-05,3.229790088969659075e-03,2.471954687943007847e-03,3.155411779880523682e-01
-3.208834432787648350e-01,-3.207295694781377993e-01,-5.822397326843503640e-03,5.750520451813047112e-04,3.884285622098828956e-03,4.925536828066050515e-04,3.150587081909179688e-01
-3.347971486071245062e-01,-3.269275167260634052e-01,-1.374772891736006364e-02,1.047515534755455360e-03,-3.803780085049453469e-04,-2.722439735504757902e-03,3.172287642955780029e-01
-3.039734457809841750e-01,-3.014919363778009731e-01,-1.569659474762308271e-02,1.421784495299553046e-03,-4.778692266027540457e-03,1.117308754794229956e-03,2.871805429458618164e-01
-3.196457275588681091e-01,-3.267376404427529968e-01,-1.822109365624108301e-02,-2.990269763715175562e-03,5.227008114597494039e-04,-2.057693758057517561e-03,3.050985634326934814e-01
-3.135310209196933706e-01,-3.127534094875268345e-01,-1.408455300317384973e-03,-2.863226634992865329e-04,1.511550293850266562e-03,1.858462577030994345e-03,3.117624819278717041e-01
-2.441258452668155221e-01,-3.102829255711703760e-01,-2.851670813322573772e-02,4.420160741099753154e-02,-1.751307266026067705e-02,-2.067631181336799726e-02,2.705404460430145264e-01
-3.159490529971771267e-01,-3.158607031807194043e-01,-5.793490634692366470e-03,1.256524552781153282e-03,-3.830273068469469168e-03,1.466588486426926088e-03,3.102003931999206543e-01
-3.193399103114994975e-01,-3.289108861878952683e-01,-1.550282608579123256e-02,-2.189055491745760945e-03,1.576110075882076371e-03,1.840908852883476287e-04,3.087693750858306885e-01
-3.142023857567594058e-01,-3.173580180158293018e-01,-5.309335974517520595e-03,-1.203975726440567590e-04,2.587691695750828514e-03,1.650784869942683512e-04,3.105154335498809814e-01
-3.129108235439521102e-01,-3.132561316392302730e-01,-1.701553006879352736e-03,-7.054526472981703265e-04,4.790639195280836822e-03,2.815927992504787853e-04,3.114953935146331787e-01
-3.111095003249323421e-01,-3.078990400815121431e-01,-2.509445978626317908e-03,-1.246581112882632356e-03,4.784212895674938223e-03,8.852869982923409304e-04,3.071306347846984863e-01
-3.263257344981808084e-01,-3.177308792528298342e-01,-1.500823879361110058e-02,-3.116208588899660025e-03,-3.805849391648405151e-03,-3.921488200065364332e-03,3.073035180568695068e-01
-3.416874550528294363e-01,-3.311057022886712553e-01,-3.716700160450009394e-02,-1.418958246689889493e-04,4.473449323030337724e-03,-4.884247717690865702e-04,2.994714081287384033e-01
-3.566711454460737007e-01,-3.621189613096504334e-01,-4.761517121530092767e-02,-1.135241337787579324e-01,-2.957750080745208052e-02,3.396050500796998772e-02,3.767977952957153320e-01
-3.138872003733239602e-01,-3.126801542674553236e-01,-5.731233822431847091e-03,-9.692772486777339463e-04,2.986177757434804129e-03,7.404369710685928564e-04,3.076049685478210449e-01
-3.161721121772627097e-01,-3.174912599847266592e-01,1.241620590040654060e-03,-4.012594357621405115e-04,1.429669537281190840e-03,-3.935448109428855714e-06,3.180857598781585693e-01
-5.423471289725521061e-01,-3.942910691663060185e-01,-1.280893707572705598e-01,6.608188281152822807e-02,-4.804210922120207179e-03,1.099031778653798419e-01,4.261484742164611816e-01
-4.036103430401154490e-01,-1.439004285484383194e-01,-4.684279675475161442e-03,4.379176832161499333e-02,3.151198098696363168e-03,-8.102178882050397810e-03,3.591184616088867188e-01
-3.271057745730469590e-01,-3.165354757149490550e-01,-4.529120373018558077e-03,-1.371435438369449577e-04,-2.173407179138427212e-03,3.791665529934230882e-04,3.174466192722320557e-01
-3.322287816456076515e-01,-3.245488508857808929e-01,-8.764081796952039038e-03,7.315084301329671844e-05,-1.983019827300490194e-03,-1.780752328578366584e-03,3.197272717952728271e-01
-3.181368852868406982e-01,-3.195802104634891672e-01,6.084491513720091671e-04,2.224527161777131636e-03,-1.229095454160813051e-03,1.170586337294427784e-03,3.195061981678009033e-01
-3.183378517393609664e-01,-3.240563507641341379e-01,-3.084209914907182215e-03,5.454362565779081714e-04,-1.352170309765262897e-03,1.129409259897694784e-03,3.181674778461456299e-01
-3.280757287137860967e-01,-3.184290137142535837e-01,-2.178678005944054141e-02,3.417257963496989591e-03,4.475668192183610526e-03,-1.832346955823936380e-03,3.017556965351104736e-01
-3.207989268010738027e-01,-3.177898570148149915e-01,-4.214829969938493903e-03,3.472570766673801178e-03,-1.797142180849203071e-03,1.792572261948526544e-03,3.151783943176269531e-01
-3.196676990512206107e-01,-3.176429402907745003e-01,-5.783743185786949237e-03,7.351701655871026742e-04,-2.366397601966719645e-04,-1.023167280585179207e-04,3.128794133663177490e-01
-3.841966504066546273e-01,-3.310638313766079976e-01,-3.724325907100847766e-02,2.570072928388330256e-03,-1.878054901997956369e-02,2.525841934819972323e-02,3.282636702060699463e-01
-3.103025666739209765e-01,-3.073817770563681551e-01,-2.395802483713654896e-03,-3.988950384240928549e-05,-9.087436329253838121e-04,4.345266714401551343e-03,3.065532743930816650e-01
-3.166245231335866328e-01,-3.154943092246996761e-01,9.778856440481042966e-04,5.831505770316787853e-04,-1.082351145019370080e-04,9.001420623006819088e-04,3.170443177223205566e-01
-2.587555172878349685e-01,-3.097541237867476038e-01,-1.219657463525852803e-02,-7.789091015697435262e-03,-1.369723696769975518e-02,5.952381787197010346e-03,2.771596610546112061e-01
-3.295829297746551978e-01,-3.198555201129914538e-01,-5.822327698458751311e-03,7.430063550100024549e-04,4.335820567508288730e-04,-9.202224267591173562e-05,3.190116584300994873e-01
-3.229770712070830219e-01,-3.179254733953728040e-01,-4.222517692077654150e-03,-1.984954680829702548e-04,-2.443501366016435743e-03,-3.501503395549619528e-03,3.163456618785858154e-01
-3.292880546266322983e-01,-3.168103286627657056e-01,-6.202006430536949333e-03,-8.254648558501619907e-05,-4.276379025589000936e-04,9.577314257828173382e-05,3.170323371887207031e-01
-3.292682998549843476e-01,-3.209663503838401377e-01,-2.140227779908177030e-02,-3.006508168260126936e-03,8.116533228694316733e-04,1.237554502166287045e-04,3.038480877876281738e-01
-3.103134762443901518e-01,-3.090624040096893732e-01,-5.821914117734861005e-04,2.195522989772473715e-03,1.397317125355908079e-03,2.990988797053378574e-03,3.091839253902435303e-01
-3.019593747161431474e-01,-3.176548059080003261e-01,-4.149018401401416423e-03,-9.086676644892449249e-04,-7.221059036438303054e-03,-2.703000144295606387e-03,3.062555193901062012e-01
-3.012699869363183458e-01,-3.055816642308986086e-01,-2.711048616659550436e-03,-5.460704917363070363e-05,-3.013475927950156653e-03,6.715997291093680002e-03,3.010081052780151367e-01
-3.086970491457881050e-01,-3.106720799019096479e-01,-3.645170469000341695e-03,1.664136160209345660e-03,-2.942848822602531309e-03,-6.935352310965781867e-04,3.061025440692901611e-01
-3.776935820513072639e-01,-3.671083749385212758e-01,-8.973687492120729914e-02,5.255807122598078751e-03,-1.727614912292564295e-02,-1.813564396452896701e-03,2.845543324947357178e-01
-3.276294332743853177e-01,-3.170531273686171270e-01,-4.767356783255627395e-03,-1.965719679829064349e-04,7.306071284358078670e-04,-8.001677634464393792e-04,3.177117109298706055e-01
-2.898293036485058427e-01,-2.996098689317532870e-01,4.127496746186204435e-03,-6.552155337928735170e-04,-6.570397486565389931e-03,-1.752483528909949033e-03,2.992011606693267822e-01
-2.376042414999301189e-01,-3.888691296098418793e-01,-5.238350331258173620e-02,-2.942210225869687848e-02,-7.402003695372921799e-02,-4.858525806543420415e-03,3.229703903198242188e-01
-3.183137376046326072e-01,-3.497100164864581640e-01,-1.305559322925942123e-02,-2.140746837389354007e-02,2.493628176683888170e-02,-2.405704481871326350e-02,3.297404348850250244e-01
-3.189222280402199128e-01,-3.132672728573406840e-01,-4.348585243295316483e-03,5.838230379387828904e-04,-1.346007507843829899e-03,7.514936949324812392e-04,3.117977082729339600e-01
-2.866927384969197856e-01,-3.096994418262007387e-01,-2.712453984738405488e-04,-3.380044047863963353e-04,-2.459293767905399233e-02,-1.661118200026008400e-03,3.016276657581329346e-01
-5.246382979199413210e-01,-3.881521286651240521e-01,-1.252501326191847453e-01,5.191012125762670820e-02,1.763945882612658143e-03,-6.382332938966323033e-02,3.793968856334686279e-01
-3.295505277981585213e-01,-3.192926992790885432e-01,-7.212391636015003105e-03,-1.353509623906479784e-03,-7.043912659762185469e-04,-5.568370246572735324e-04,3.173460662364959717e-01
-3.245755389344503472e-01,-3.253947590318157501e-01,-2.987147751775567905e-02,5.330542147942173015e-03,-4.268377108069909207e-03,6.695315587866111119e-03,2.955790460109710693e-01
-3.177196587310272546e-01,-3.311805303976753656e-01,-1.581395696015885921e-02,1.424499273513176595e-03,1.248718092670774273e-03,-3.543347266587836952e-03,3.089345991611480713e-01
-3.215876983465986161e-01,-3.147419211495056102e-01,-5.007297374509167565e-03,-7.154051435017259224e-04,-2.080754997858024705e-03,-1.072583402599751063e-03,3.132423162460327148e-01
-3.153793467467763123e-01,-3.196690426227447590e-01,-1.100514109482225722e-03,-7.610785845993790983e-04,-1.669642502705862008e-03,-2.818345366265147213e-04,3.164618313312530518e-01
-3.233004029777731825e-01,-3.272276210233002747e-01,-4.267460739302988970e-02,5.344674871333674263e-03,-1.563714704778490245e-03,8.566423795566505128e-03,2.831634283065795898e-01
-3.232583546661957907e-01,-3.182739464439275912e-01,-4.284837563481216915e-02,3.289540584905988746e-03,7.610803047296252170e-03,-2.895513347194042780e-03,2.783672213554382324e-01
-3.238234830038485557e-01,-3.265398299255471981e-01,-3.498146553493947097e-02,5.158336948689739090e-03,1.210819223013870957e-03,5.258794622351431469e-03,2.904976308345794678e-01
-3.115483355309722757e-01,-3.169481778497858504e-01,-9.789426799503536669e-03,1.397029566071841464e-03,2.250893568453490184e-04,-2.482284623544953051e-03,3.045349717140197754e-01
-3.142487396606955530e-01,-3.166631217596487247e-01,-2.230037022072084429e-03,-1.456401644879166902e-04,-2.450399642236329896e-03,-7.017618286094926168e-04,3.132640719413757324e-01
-3.164481936885855107e-01,-3.199978079053547586e-01,-1.286046183796824005e-03,-1.401406316272309129e-03,-9.848617494284445020e-04,-5.968518785066051171e-05,3.169657588005065918e-01
-3.044287870433581844e-01,-3.136122846295977817e-01,-3.233710503904033140e-02,5.914161221578691403e-03,-1.105806177209853712e-02,-1.349921579918690953e-02,2.786313593387603760e-01
-3.284101301223774083e-01,-3.343583981719303044e-01,-5.369245206354911204e-02,3.879051128299175651e-03,-3.493001414846312169e-03,3.537074295390950276e-03,2.779542207717895508e-01
-2.714524590209401733e-01,-2.940589801040291995e-01,-2.279978770491467022e-02,-1.279609244822485503e-02,1.878445888790991961e-02,-1.891527695546297780e-02,2.656756043434143066e-01
-2.703710572448427829e-01,-2.818271238197542772e-01,-3.276119750368736150e-02,-3.642974886230730507e-03,3.514256773937212384e-03,-5.812042547813287691e-03,2.439056485891342163e-01
-3.244437346836906988e-01,-3.186161995909308486e-01,-2.617118545945790187e-03,-1.593978616459412398e-03,4.658355505436899429e-05,-1.289548980172104458e-03,3.189725577831268311e-01
-3.161941584372584546e-01,-3.156057965011536126e-01,1.148579819318068518e-03,-7.341813513644180125e-04,-2.282114074744182486e-04,-1.011593492550250236e-03,3.170565962791442871e-01
-2.843793747083968593e-01,-2.920053031565314483e-01,-1.538114122630301894e-02,-2.082757584641945284e-03,3.830383450740780342e-03,-5.797817107654632852e-03,2.731802463531494141e-01
-3.187465163119083678e-01,-3.156375039781618708e-01,-1.823901653472015383e-03,-2.420063498158786432e-03,-2.969611537985283748e-04,-1.095358290065358503e-03,3.154135942459106445e-01
-3.997615162085340068e-01,-3.721263799866185717e-01,-9.194159504800519800e-02,-1.057538609076950770e-01,5.676324314099577550e-02,-5.107751891066340810e-02,3.715571761131286621e-01
-3.154950748752662903e-01,-3.166674010651096549e-01,5.432497957986170967e-04,-9.102207743343530355e-04,-8.080431526559195233e-04,-1.872070219116322293e-04,3.166333138942718506e-01
-3.474087710884109503e-01,-3.403388638571467339e-01,-5.224212180246642911e-02,8.437540560373452819e-03,-7.217373838997430575e-03,1.237608178785971772e-03,2.923370897769927979e-01
-3.162509138901802852e-01,-3.152880278478042975e-01,-3.067500602068590210e-03,-1.578537008602968464e-03,-1.827792759002792432e-03,-2.811944571643918214e-03,3.127689957618713379e-01
-3.049259442186540991e-01,-3.068254520459593460e-01,-7.186484498994394343e-04,3.916475935465583242e-04,-5.423851253592173668e-03,-1.064142570027644353e-03,3.053123652935028076e-01
-3.212490176599402392e-01,-3.190548218526751412e-01,-3.421798551414834133e-04,-1.343833907400928274e-03,-3.835003882584890503e-05,-5.621713634542442216e-04,3.198253512382507324e-01
-3.209917607651189275e-01,-3.194087690836764359e-01,-8.718505544329901991e-03,-3.840340915781821716e-03,-7.246445819882114036e-04,-2.193101528962676430e-03,3.115814626216888428e-01
-3.235977703315117693e-01,-3.191691717826352637e-01,-8.309230420814994744e-03,1.553883832736658319e-03,2.308446432845066235e-03,-2.245850420955339190e-04,3.131350576877593994e-01
-3.185060164971634800e-01,-3.205335112570738554e-01,-2.101457447054921879e-03,3.845561325912837027e-03,-2.114288116976708893e-03,1.586529392313869909e-03,3.175260424613952637e-01
-3.267698751740357732e-01,-3.212272725427750553e-01,-1.161724325531560131e-02,-5.010520697129703001e-03,-1.926386107476589895e-03,-2.288017909629844367e-03,3.125816583633422852e-01
-3.249468604985533693e-01,-3.181289391351446172e-01,-4.238231818122217831e-03,-2.722892175680580087e-03,-1.962425856188725504e-04,-6.095385194170899234e-04,3.173915743827819824e-01
-3.170078568235985550e-01,-3.196649274488183590e-01,-4.063242992517063223e-03,-2.780193539936055749e-03,-3.045326135499033977e-03,-2.817154136286951875e-03,3.144005835056304932e-01
-3.170527057540882820e-01,-3.168093655305823098e-01,-9.833507815364461724e-03,-1.329835222899620984e-03,-3.966073263595235564e-03,-8.699630423366853374e-04,3.071867525577545166e-01
-2.184661985200713197e-01,-1.118692513264199079e-01,3.397032816504913511e-02,-8.127470910166373352e-02,8.636435490915059937e-03,-1.554912174229256851e-02,2.625718414783477783e-01
-3.238445378853345158e-01,-3.262591152151418372e-01,-7.337340011575821386e-03,-4.069428983802722381e-03,-1.090550052732512827e-03,-9.500046366220691414e-04,3.178094029426574707e-01
-3.168204879788801831e-01,-3.177625502658505408e-01,-5.063142639264439637e-04,1.090322133279884214e-03,-1.746510925420621807e-03,5.078584653687714338e-04,3.168075382709503174e-01
-2.622755702231282515e-01,-4.032901748413230680e-01,-6.694103679315310806e-02,-4.650145385883370369e-02,7.843302659817766309e-02,-8.220216077968087176e-02,3.616623878479003906e-01
-3.150281793335431013e-01,-3.257504437373198170e-01,-3.489997735821231961e-03,-5.210710419286178167e-04,9.442059378210489445e-04,4.675694912541400233e-05,3.170408308506011963e-01
-3.150462761293905123e-01,-3.195601964203245715e-01,-1.793369738659206236e-03,1.979820425117930199e-03,-9.976202255739215815e-04,6.509540457916285477e-04,3.155594468116760254e-01
-6.121170632665939859e-01,-6.027350234741055690e-01,-1.784683768226731915e-01,-7.395443836686195482e-02,-7.989492013459786879e-02,1.066592990001994368e-01,5.037426948547363281e-01
-3.151153522807736973e-01,-3.199491482386139785e-01,-5.505523791085459306e-03,-4.089801502839655878e-04,2.511281907545524165e-03,-6.599535177738836793e-05,3.120859563350677490e-01
-3.089158401027377598e-01,-3.231790639607787785e-01,-7.413566858180509200e-03,2.374344843290797456e-03,5.307395871053652075e-04,1.416530269756066109e-04,3.089098036289215088e-01
-3.163541461926645537e-01,-3.159406064416797610e-01,2.056171311762833298e-04,-9.323363189791571875e-04,-1.248940160993129017e-03,-4.689776795522294082e-04,3.163657486438751221e-01
-2.851606265696918219e-01,-2.997362007668412653e-01,-2.422937170100586401e-03,-2.619617696941748536e-03,1.300903895196134016e-02,-5.702350261144203611e-03,2.913759648799896240e-01
-2.965683810142131782e-01,-3.068658768537485537e-01,2.052059290659491442e-04,-1.498617981137548424e-03,5.786728417546082442e-03,-5.129614091473419339e-03,3.023619651794433594e-01
-3.177610041165468968e-01,-3.132120181210906185e-01,-3.880725623779668343e-04,-2.401647521773086515e-04,1.038818187429656160e-03,-2.869610625586768455e-03,3.151676654815673828e-01
-3.212330366856597230e-01,-3.236365867823087772e-01,-9.793087170842235123e-03,3.135980920171831110e-03,3.871441337638450823e-03,-3.749519584715706177e-03,3.128351271152496338e-01
-2.517551249006297343e-01,-3.050343463190439697e-01,-1.179778234355466360e-02,-1.156705130609884252e-02,1.527149182029037891e-02,-1.513869236105654451e-02,2.738458216190338135e-01
-3.269195735190875141e-01,-3.160356107820389560e-01,-7.229369871806362591e-03,1.804579672954147868e-03,-1.443702314766649860e-03,9.389101243098502223e-04,3.144192397594451904e-01
-2.973915704258375814e-01,-3.058554830819699699e-01,-2.644185520087050101e-04,4.450741141208991469e-04,-6.112235007614849440e-03,-4.134177667752023111e-03,3.017200529575347900e-01
-3.328025357813429452e-01,-3.215314128309850750e-01,-3.857930736104159264e-02,-7.479910933653730054e-03,-1.203850904210868218e-02,6.387077029546444403e-04,2.897964119911193848e-01
-3.169869946300468699e-01,-3.290648279224003270e-01,-1.113730737630874712e-02,6.539197169787373245e-04,-4.012488521403974068e-04,-5.993075352822866894e-05,3.120667934417724609e-01
-3.229043982022092307e-01,-3.205047068988393089e-01,-9.615811694920511910e-03,4.541913865824518705e-03,2.813710792346490585e-03,-2.011745962377667687e-03,3.122522830963134766e-01
-2.925051769157572812e-01,-3.000268055419164637e-01,3.194104769629557694e-03,-9.224046208035657128e-04,5.678666017246722028e-03,-5.378389386083677962e-03,2.998413741588592529e-01
-3.223478012432637874e-01,-3.163920472278974327e-01,-1.983744475717924560e-02,5.195697279491645962e-03,-5.442363860796852826e-04,1.314998037408664222e-03,2.997221648693084717e-01
-3.242380275377851340e-01,-3.162391641201054426e-01,-5.048532976677289064e-03,2.310644985161667241e-03,-5.041562426756278185e-04,-7.128125745354157213e-04,3.152952194213867188e-01
-3.162669329014398123e-01,-3.124677233129077858e-01,-1.641252127599912569e-04,2.279310496274280021e-03,1.834290583201854353e-03,-1.947551929766051532e-03,3.142794072628021240e-01
-3.141729649784520406e-01,-3.149723975718691782e-01,-7.304848199819913290e-03,5.184856276253585385e-04,4.835381794867924660e-03,-2.419737660311909681e-03,3.074126243591308594e-01
-3.208053186338426510e-01,-3.150551964478328082e-01,-1.708234817724724186e-03,1.056291494088085984e-03,8.292183059400054816e-04,-2.832159096558891850e-03,3.163078129291534424e-01
-3.248884079592961327e-01,-3.178728351053597412e-01,-1.016061092868700277e-02,-2.880831769799491442e-03,-1.244834730217842141e-03,-1.421814820947173066e-03,3.113365173339843750e-01
-3.291478577776982828e-01,-3.189275394481521086e-01,-1.617015469117233373e-02,-1.606295209491474720e-03,-9.028317865987554132e-04,-6.030888869865939786e-04,3.080130517482757568e-01
-3.249848445668852559e-01,-3.258441413169756995e-01,-1.430542964742859136e-02,7.477241553751760080e-04,4.859945745479781268e-03,-8.590675712689972016e-03,3.115819990634918213e-01
-3.180863656262670758e-01,-3.153718417713660682e-01,-7.460045281309168885e-03,7.115875652296250022e-04,4.591518124739925148e-03,-5.621598518964189550e-03,3.095358610153198242e-01
-3.269975228632800435e-01,-3.266386875879637164e-01,-1.802865173632683948e-02,4.661698512188356541e-03,-2.312486539934203512e-04,2.020144199745750949e-03,3.089152276515960693e-01
-2.635007408906530069e-01,-2.805836170394044315e-01,-3.985931468572712078e-02,-2.925569928799947803e-03,1.137463011341331102e-03,-3.476911756587291579e-03,2.327951341867446899e-01
-3.215610052893989601e-01,-3.180658367933126285e-01,-9.421915323844659573e-02,2.457003173507959007e-03,1.096802970184031049e-02,9.546509394500249639e-04,2.264589816331863403e-01
-3.450443881640982147e-01,-3.436232207134560790e-01,-4.251333378291266563e-02,-1.256559540485690900e-03,6.229272908556446331e-03,-2.897156968389654369e-05,3.020236194133758545e-01
-3.246673013003069652e-01,-3.196334050643745983e-01,-5.002320438372692690e-02,-4.741077124878589032e-03,7.654042568461847697e-03,3.481830966813908874e-03,2.726751565933227539e-01
-3.084824023934958359e-01,-3.099190979184189842e-01,-4.526278828177465741e-03,-1.199357056105204104e-03,-1.220386491096600622e-03,-4.839936342628445125e-03,3.048067390918731689e-01
-2.779933321904256016e-01,-2.648937343791366028e-01,-4.003648073725726841e-02,-4.169050351288537855e-03,3.479427312361343168e-03,-4.170740985296924057e-04,2.318769246339797974e-01
-3.337032617602946338e-01,-3.263302394705777099e-01,-8.412270573623009673e-02,-8.073171551887529029e-04,3.847707810796624408e-03,-1.005864163086013421e-03,2.460773438215255737e-01
-3.212826822567199647e-01,-3.299947977517547759e-01,-6.535671671015930162e-03,-1.129824286271287250e-03,-4.254172692052028172e-04,4.248135837988634860e-04,3.191999495029449463e-01
-3.174097249052828529e-01,-3.247476268239526953e-01,-8.315930833338924799e-02,-2.666452221088480025e-04,-7.171656571932763296e-04,5.867242317538184058e-03,2.382247596979141235e-01
-3.154354838289718521e-01,-3.156284798013677673e-01,1.803116502067603211e-03,-1.662104705506000594e-03,-9.657296192972674624e-04,-6.663148130108544846e-04,3.173547089099884033e-01
-3.364123720854595434e-01,-3.258351703227283513e-01,-4.160106813308311891e-02,2.144115873050687123e-03,9.467303123171682752e-03,-5.101212191084421657e-03,2.902896106243133545e-01
-3.226703716524103593e-01,-3.246515330069612570e-01,-1.361305295828643680e-02,1.604015701270659249e-03,-8.573204928665622768e-03,4.642324404694453052e-03,3.105245828628540039e-01
-3.425976027390501555e-01,-3.361857704982128547e-01,-3.577260614933838734e-02,-2.839681610889899580e-03,2.044430254643085556e-03,2.325045904326717219e-03,3.037570118904113770e-01
-3.199017842498876885e-01,-3.282001010794235452e-01,-2.122430510878334231e-02,-8.274885028817107607e-03,1.458929743092322179e-02,-2.068854242858016515e-02,3.064043521881103516e-01
-3.213564801082612887e-01,-3.213494458055181635e-01,-1.296667312369853553e-03,-3.094178787209707088e-03,-4.947707599222885694e-04,-2.565675897639521099e-04,3.201026320457458496e-01
-9.132851338253299145e-02,-2.537037275445637174e-01,5.389986556654660643e-02,4.640190897639451251e-02,3.558470744254070041e-03,1.187821927268962498e-02,2.792116701602935791e-01
-3.143398661465942601e-01,-3.129680472173137495e-01,-6.399223443092877384e-03,-4.219192670533494696e-04,-2.894916481906169466e-03,-7.991950356664906429e-04,3.073019385337829590e-01
-3.167662504467232409e-01,-3.157125052268073828e-01,7.778400039090138662e-04,-1.214494786064810672e-03,-3.466621639722859672e-04,-1.783670773759042519e-03,3.170411288738250732e-01
-3.172050660399547417e-01,-3.242348966872408145e-01,-2.807908033938794068e-03,-1.329010320890332145e-03,-1.411030194539207626e-03,2.600907948591141481e-05,3.179880976676940918e-01
-3.197435976293870885e-01,-3.235894116777002782e-01,-2.852682368087924858e-02,-4.227719868086691514e-03,-1.732184597460654629e-03,-1.712395899448674414e-03,2.932803928852081299e-01
-2.493414914619039580e-02,-2.485441393465956661e-01,3.757826421410227768e-02,-3.939760575269695211e-03,-9.044962096204471613e-03,-2.361140591724368576e-03,2.611443102359771729e-01
-2.680787602289332883e-01,-3.197960439669226829e-01,-3.058016354891610056e-02,-6.972125161991731684e-03,1.769026982548624859e-03,-4.766805261164225489e-03,2.675563991069793701e-01
-3.340269063183596288e-01,-3.004378317792020803e-01,-2.111687143802104538e-02,-3.096140729491897274e-03,-5.136272464368648455e-03,-6.219327706959074369e-04,2.977240681648254395e-01
-3.011853003677210094e-01,-2.623946954661630637e-01,5.119038237976519801e-03,1.530334545587819445e-03,7.413594518390750378e-03,1.281994835780344774e-02,2.900177538394927979e-01
-3.216656967334542427e-01,-3.202017413832812243e-01,-1.120459756412417462e-02,4.809886052098713560e-03,-1.899041307634456721e-03,2.238929172554391962e-03,3.098854720592498779e-01
-2.597314834214801138e-01,-3.082342952495685240e-01,-6.784904350694814790e-03,-2.605081642343428858e-03,1.532744137638964929e-02,-2.063069598420078088e-03,2.816753983497619629e-01
-3.219637976973818705e-01,-3.219691179769673672e-01,-1.175555228212596393e-02,4.556816618327260912e-03,-1.884925618118798302e-03,2.208386526332123834e-03,3.103520274162292480e-01
-2.941479049541825264e-01,-3.197782098133310491e-01,-8.820920551818628441e-03,-2.192320866640676529e-03,2.544827380557894772e-02,1.044350917608764806e-02,3.027637302875518799e-01
-2.772696309654000268e-01,-2.998108951394714006e-01,-1.674170426868368255e-02,-5.534120112565504672e-03,-1.558330722596683489e-02,1.183066035975206820e-02,2.747650444507598877e-01
-3.202897700529088176e-01,-3.158758393019072130e-01,-2.660477243579012496e-03,1.441677054579568878e-03,6.127986188894785210e-04,9.946935336589250460e-04,3.154618740081787109e-01
-3.173917400635117292e-01,-3.236882766581719029e-01,-3.034498170410959705e-03,1.399477307693528958e-03,-1.096116678760318845e-03,-2.683326999552894539e-04,3.175675868988037109e-01
-3.170634316092938443e-01,-3.274005537300950230e-01,-5.287207949029842924e-03,-7.542550534394641248e-04,-1.399208119789914842e-03,-1.168513169555153051e-03,3.170895874500274658e-01
-2.547740828242237576e-01,-3.065383599488039623e-01,-7.542078289977466321e-03,-5.598618199542418046e-04,1.364891036042482388e-02,-5.429981022132502819e-03,2.779375314712524414e-01
-2.889086629726373978e-01,-3.172521821138955533e-01,-2.708224750425480831e-02,-1.231782073092100617e-02,-1.488006614523875934e-02,1.161950241461679259e-02,2.798249125480651855e-01
-2.161969061469939113e-01,-2.933171024164969998e-01,-1.795057868032601256e-02,-2.680649109393680538e-03,1.326149298143221300e-02,-7.416619539703178145e-03,2.474916279315948486e-01
-2.166156179633856316e-01,-3.042801357368280502e-01,-2.471130109458358204e-02,-2.887057760059578035e-05,9.540025655505275648e-03,1.599615796632908272e-03,2.482262104749679565e-01
-3.401743197924916307e-01,-3.852047196985947108e-01,-5.112614307747601061e-02,1.393280030660105362e-01,2.662206917846871718e-02,2.010558258864619807e-02,4.002103507518768311e-01
-2.724145653510454679e-01,-2.751104832142129419e-01,-3.351711088428610541e-02,-6.755486412460644415e-03,2.126162326181162826e-03,-3.364284200784900796e-03,2.406402677297592163e-01
-2.203391134187363543e-01,-3.092513154153332389e-01,-2.858039347174423650e-02,2.869757113212039260e-03,1.327353401341191397e-02,5.443309723758872620e-03,2.497371286153793335e-01
-2.067562006382708262e-01,-3.052367643763788663e-01,-3.669069051291110051e-02,-4.122254499929498515e-03,-2.237060326133842939e-03,1.640687270000465393e-03,2.354631870985031128e-01
-2.886186113256062891e-01,-2.810117538157190231e-01,-4.630030868717432968e-02,-1.419090934067126532e-02,-1.877250713864583778e-03,1.236213717324510016e-03,2.399000674486160278e-01
-3.185106931001768782e-01,-3.252631653411496293e-01,-5.760699611054548308e-03,3.906536255230421383e-03,-6.078110180191084342e-04,5.705818395022385766e-04,3.162559866905212402e-01
-2.693006427733143360e-01,-2.761738875162595974e-01,-4.047576670201766258e-02,-3.526282967453913363e-03,1.167920951764967591e-04,-1.132394993620190141e-03,2.324263900518417358e-01
-3.588688247965962086e-01,-3.641002940465886129e-01,-5.805228505379417259e-02,-6.244131343234905762e-03,2.630235881495631561e-03,-8.812478975806345774e-03,3.040762543678283691e-01
-3.202985893867242861e-01,-3.213475526752692657e-01,-4.155573476826265877e-02,4.372878652955900468e-03,-6.845207815847208655e-04,6.740781526245330675e-04,2.793764472007751465e-01
-1.933186175896026426e-01,-2.021351343197043127e-01,5.971388681849931768e-04,-5.353485650357954484e-02,8.993770235201717367e-03,-7.945583231829440179e-03,2.200470715761184692e-01
-3.279130384686897992e-01,-3.288319966852142340e-01,-2.824561154017760090e-02,7.018398461803142946e-03,-3.653610656252381707e-03,-2.824850007831990108e-03,3.004805445671081543e-01
-2.465473817794728018e-01,-2.003020322407695342e-01,-8.995078473049394896e-03,-5.088907530777435351e-02,-1.062558353951148331e-02,5.645556288508430179e-03,2.361936867237091064e-01
-2.709231058178515061e-01,-2.691058655251130083e-01,-3.217912643436307563e-02,-5.705256557905022223e-03,2.949156616595371202e-03,-1.218163421869184306e-03,2.381099164485931396e-01
-3.196395875351090154e-01,-3.167024889406239163e-01,-3.054408763932758841e-03,-3.412155719456418535e-03,1.191058015493501494e-03,1.493229219456315314e-03,3.151996731758117676e-01
-2.737885219796202252e-01,-2.589035622254461932e-01,-1.895439139184673660e-02,-5.009348338889002203e-03,9.214927809583987883e-03,-5.128426353360567534e-03,2.485512644052505493e-01
-3.310495939938480348e-01,-3.241351595471773650e-01,-6.688811714862674673e-02,-2.628276468380320776e-03,-4.778259660184024506e-04,-8.428358550641826567e-04,2.608181536197662354e-01
-2.783091889601737590e-01,-2.820648961842563418e-01,-4.471966853803327480e-02,-6.571837616319762231e-03,6.277031970222900475e-04,-1.244421272077896349e-03,2.357771396636962891e-01
-3.175798103331218258e-01,-3.241409361242394982e-01,-5.392308106059867656e-03,-2.937653215080324783e-03,-1.171590458644804775e-03,-6.510692640314432985e-04,3.155688047409057617e-01
-3.314307157082366784e-01,-3.283562530747269892e-01,-2.402612545858889836e-02,1.166958261301228109e-03,-8.307105584654313202e-03,-1.697931059711290172e-02,3.076327741146087646e-01
-3.301081371879950321e-01,-3.221013762714530215e-01,-4.592111982554639149e-02,-3.863649550966497502e-03,3.913379867657486581e-04,-4.699167404845852342e-04,2.803513109683990479e-01
-3.164701984476977481e-01,-3.201805664517813343e-01,-3.269153184579653981e-03,-1.832242173320248980e-03,-2.458763032698617779e-03,-1.913164198014003165e-03,3.151347935199737549e-01
-3.171559554656571134e-01,-3.283282474468886547e-01,-8.475097899452666006e-03,-1.016319974582808455e-03,-1.073055219042683139e-04,8.351675307808798009e-04,3.144242167472839355e-01
-3.158472349051634764e-01,-3.225183483529574513e-01,-4.975313997579333680e-03,2.257352904518828882e-04,-8.274493002845313564e-04,-2.937851212848282406e-03,3.143053054809570312e-01
-7.887670123279540146e-02,-2.608924814149183868e-01,2.606146231415917836e-02,4.224926910570124539e-02,1.184085185087833079e-02,6.633447547431585520e-04,2.627148628234863281e-01
-3.204057347486846674e-01,-3.203849867661687778e-01,-1.335515516224686228e-02,-4.520882609871587632e-03,-1.612899474829258047e-03,-2.051889311745942312e-03,3.071733117103576660e-01
-1.846695015310659271e-01,-2.967416718467328351e-01,-2.261918918977429138e-02,2.964058801628037879e-02,-4.779771652238039986e-03,-5.005415944685549443e-03,2.444610446691513062e-01
-2.916730014330650156e-01,-3.455641399398495239e-01,-5.562655053443044118e-02,-2.428127896512499023e-02,-3.186025448202130933e-02,6.287117630970790426e-03,2.761802673339843750e-01
-3.160759108022035968e-01,-3.189038683321454570e-01,-1.674160191217660687e-03,-3.006911435914509916e-03,-1.513555064751560212e-03,-8.758365753431592449e-04,3.158826828002929688e-01
-3.394150377512591410e-01,-3.348627524635403030e-01,-5.032863121937963813e-02,-2.887914682954117736e-04,-8.900332665683088895e-03,1.007550743705562003e-02,2.877813577651977539e-01
-1.511652456577369241e-01,-2.438003436725833528e-01,3.667632429051326248e-03,7.708680590320260428e-02,5.012816797245017199e-03,8.582381339238906101e-03,2.549920082092285156e-01
-1.171088401233244675e-01,-1.941179277167038308e-01,3.272832490933147431e-02,8.385683592610591874e-02,-3.294804307520995262e-02,-2.477225760333039498e-02,2.571264803409576416e-01
-2.045971695511439037e-01,-2.915706604577764649e-01,-3.344107662087364430e-02,6.222415893088360100e-02,-6.911783565672797135e-03,4.837723842130439537e-03,2.521386742591857910e-01
-2.106173080965390298e-01,-2.674467121720173202e-01,-1.413049669560278998e-02,-2.045049320246961760e-02,-1.250124385458136790e-02,1.227808555735479534e-02,2.349013388156890869e-01
-3.195172612523655142e-01,-3.290537692078598919e-01,-6.821223126338038512e-03,-2.517384197792050973e-04,3.736886399458316278e-04,4.960611972179108453e-04,3.175738155841827393e-01
-1.573022194749159886e-01,-2.748841362624391271e-01,-8.851579555873706484e-03,-3.247183467672760254e-02,-9.365264156246682140e-03,3.604660209929897233e-03,2.382930517196655273e-01
-1.850686774045909866e-01,-2.783814592812970945e-01,-2.062485699932675720e-02,-1.240550006314390316e-02,-1.719999075876569835e-03,3.794488466804447034e-03,2.271728664636611938e-01
-2.229713048053473812e-01,-2.956595999196943159e-01,-3.426020605785337625e-02,-5.643119507435873095e-03,-7.941570872393248146e-03,1.699678717049830576e-03,2.343202084302902222e-01
-3.154506234358145922e-01,-3.193986903480502404e-01,-3.999940162970117008e-03,1.219780387266886379e-05,-1.828239011525112628e-03,-1.841225711434803800e-03,3.134755790233612061e-01
-2.674446888108091835e-01,-3.023525200606417274e-01,-4.347590950787452724e-02,-6.044899956806414759e-03,-1.709649980109134021e-02,8.209120562952063743e-03,2.457386702299118042e-01
-2.007337130928244506e-01,-2.450261521248242313e-01,-1.347476017129289882e-02,-2.577263412033783951e-02,-2.900659040417180329e-03,4.496627906907519137e-03,2.177165150642395020e-01
-2.549561670779791900e-01,-3.081230455305534188e-01,-3.535535535283595987e-02,-4.833938769719222685e-03,-6.835375633798178308e-03,9.205327912785806269e-03,2.513785958290100098e-01
-3.149281888355955905e-01,-3.199996476659546785e-01,-8.008120897866621846e-03,-5.984601433267369014e-03,-2.198407966797989363e-04,4.016040517366166636e-03,3.097388446331024170e-01
-6.259032105319171091e-01,-5.254312265948208882e-01,-1.532457354303247699e-01,-4.643053763495329916e-02,6.600551886649252964e-02,-1.158706976198966981e-01,4.958089292049407959e-01
-3.180209907009622361e-01,-3.192982061174230446e-01,-3.717659852749632954e-03,-1.700578846436971627e-03,-1.901470530548888182e-03,-1.900066684738690179e-03,3.149920701980590820e-01
-2.937579452414083026e-01,-3.010383630673671984e-01,-9.599133393533021419e-03,-1.398292315606501851e-03,6.865253849540740470e-04,-6.876298248020610432e-03,2.881269752979278564e-01
-3.037758144502809565e-01,-3.031897704289998052e-01,-1.654778249209046259e-02,2.283729227706559305e-03,4.311011934454110454e-03,-1.321589630524205514e-03,2.870689630508422852e-01
-3.151735420756031081e-01,-3.155637337682022925e-01,-5.232201339407271945e-03,-5.337408165333628381e-04,4.600506012467906782e-03,8.930442166768456924e-04,3.102442026138305664e-01
-2.928780022506968783e-01,-2.978264532320136770e-01,1.070866386440300078e-03,-2.253653616072825994e-03,3.283475978543109932e-03,-5.144629296066316818e-03,2.966681718826293945e-01
-3.189032602697264296e-01,-3.003639078860613765e-01,-1.813064963070240565e-02,1.004584125296615086e-03,5.613161375836674474e-03,7.617451796481058317e-04,2.921147644519805908e-01
-3.010993835277885333e-01,-3.055299563437826604e-01,-3.313946324565303359e-03,-1.070291086979859420e-03,3.212483474257397161e-03,-4.808698939419289026e-03,3.001981377601623535e-01
-2.843387272166145729e-01,-2.781368616878150957e-01,-2.552029506507597079e-03,-2.161199347578396553e-03,6.498901283311986354e-03,-5.845090491341128208e-03,2.791734635829925537e-01
-3.207257243755323728e-01,-3.278720825925378057e-01,-2.928437261150884652e-02,3.626262403262357423e-03,-5.140405474266680199e-04,5.908900320092789647e-04,2.951493859291076660e-01
-3.467881550615320441e-01,-3.326280788037442870e-01,-6.813394529032937297e-02,-6.714251681491091930e-03,-2.130880197420495156e-02,8.394073032886504443e-03,2.749758660793304443e-01
-3.068182899323798618e-01,-3.063283484552521974e-01,7.281835291259031173e-04,-6.974841282898027774e-04,2.404329585104971172e-03,-2.973820721504759432e-03,3.073755502700805664e-01
-3.330293240300429281e-01,-2.586075994443475246e-01,-5.062318435453166954e-02,2.561530923243325944e-02,3.692350349985999702e-02,6.182912125260212749e-02,2.860098779201507568e-01
-3.204137859307164549e-01,-3.244097001745182562e-01,-1.445971493184058931e-02,-4.327887867535229298e-03,1.625542269582413253e-03,1.897936219917244378e-03,3.080931007862091064e-01
-3.174058204358988222e-01,-3.262964598348045975e-01,-7.705084931672850912e-03,-3.326047214889639881e-03,1.210716658335679510e-03,-1.873857526664378923e-04,3.143003582954406738e-01
-2.834944682011700801e-01,-2.991921017506159464e-01,-3.196540675647452368e-02,-6.549652335853229333e-03,6.230641864875097191e-03,-7.820914558530601968e-03,2.605577707290649414e-01
-2.143584414148373418e-01,-4.852386084456661308e-01,-5.030083290734901902e-02,1.793902509679788995e-02,-3.706045507674397138e-02,1.226225463061176918e-03,3.870675563812255859e-01
-3.685013956112214162e-01,-3.443732225887559117e-01,-4.282430299120704165e-02,1.908376262973775911e-02,2.499884279297436007e-02,4.546490838485695712e-02,3.285700976848602295e-01
-2.866536731661675219e-01,-1.644118192602266604e-01,-4.609035803669697673e-03,4.735351742179372270e-02,2.519373906327074600e-02,5.656634336000617574e-02,2.797232270240783691e-01
-3.224672126599546496e-01,-3.165651649836323522e-01,-6.307299700933188813e-03,4.289166392878593554e-04,-2.091176448075022110e-03,4.616001485827849089e-04,3.132734298706054688e-01
-2.476671588771460208e-01,-3.128190131145114350e-01,-2.804703677537145889e-02,-1.310993411553374810e-03,-1.582206083003783164e-03,6.415699445791522154e-03,2.586939632892608643e-01
-3.102950570227654414e-01,-2.392975055561943898e-01,-1.870682267898660101e-03,-5.406098663730033414e-04,-8.890532147948210576e-03,4.231451091454262875e-02,2.896177172660827637e-01
-3.801694613177046267e-01,-3.143009249716877118e-01,-2.682067202759616520e-02,9.080919517710613542e-04,1.214527400358545416e-02,3.088650800680315181e-02,3.304941654205322266e-01
-3.882568022732985624e-01,-3.777955525596279340e-01,-4.950688293535326912e-02,4.407920308099912837e-03,6.182579739229978125e-03,2.220717415817728344e-02,3.361095488071441650e-01
-3.246737010789648714e-01,-3.185395739124472492e-01,-6.164222225579496506e-03,-3.986277120282569371e-03,-1.328133035420849418e-03,-1.391222236658148492e-03,3.155802786350250244e-01
-3.182981246682645704e-01,-3.198447814234654518e-01,-7.006804888408602050e-03,-3.280989471967674792e-03,-1.905672133012275204e-03,-5.969824970830075930e-04,3.121384382247924805e-01
-3.258915931625435691e-01,-3.267741372087266116e-01,-1.960363783810656346e-02,-5.870899673275569580e-03,-1.372889859691810870e-04,-2.027042384842880386e-03,3.069188594818115234e-01
-3.328115399366252669e-01,-3.317138431318695235e-01,-3.563071507898235568e-02,-5.525139881417246573e-03,1.828308499490553362e-03,3.442982016231614390e-03,2.968646287918090820e-01
-3.178883342201868079e-01,-3.200124013866071371e-01,-1.971550188441292817e-02,-3.153258162847813722e-03,1.548673799999710464e-02,-9.977737763123013109e-03,3.009865581989288330e-01
-3.447749722815253715e-01,-3.302255750401210666e-01,-3.957434942760770791e-02,-4.574116448250909080e-03,-3.564331538533316475e-03,-2.363459263937398025e-03,2.983894348144531250e-01
-3.343785297246150146e-01,-3.295014740422196886e-01,-4.097696362930494662e-02,2.201500621858680506e-02,-4.186889193194278519e-02,-3.122500294925926317e-02,3.071080148220062256e-01
-3.175242798113662168e-01,-3.189640400696880373e-01,-3.506009011748731363e-02,-5.438069778357468124e-03,-1.181142992458914572e-03,-9.258146205505838559e-04,2.833553254604339600e-01
-3.181113289977351988e-01,-3.185205583853831790e-01,-1.007243358869927552e-02,-2.784949264802866805e-03,-7.636811089414931482e-03,-6.691012144931333949e-03,3.087826669216156006e-01
-3.336775330894798941e-01,-3.235219590253241018e-01,-4.365616918543935299e-02,-3.163746648312032363e-03,-2.389715788474195541e-04,3.269195952862270554e-04,2.851327955722808838e-01
-3.149987292602499100e-01,-3.116408384954195698e-01,-3.234996536582054882e-02,-4.190079862830499956e-03,-6.738382210689014204e-04,-2.490403677759199432e-03,2.811141014099121094e-01
-2.357789826202905115e-01,-2.888621354093192650e-01,-1.303767033859046243e-02,1.907635860907265848e-02,-2.929118211633162383e-02,-1.744470772049038984e-02,2.623621821403503418e-01
-3.191129193192795421e-01,-3.262080967607635662e-01,-2.344663234972055310e-02,5.289285670040920657e-03,1.962231334371763395e-03,-2.186808211286265548e-03,2.994603812694549561e-01
-3.158708277361887973e-01,-3.269573452146729009e-01,-4.371772597432321827e-03,-1.079243489339348251e-03,-1.327449931856141373e-03,7.402036283869338918e-04,3.172040879726409912e-01
-3.165044238632527263e-01,-3.251840184454350968e-01,-9.639895327769987254e-03,-2.353839926828315415e-03,-1.273405941948097019e-03,-5.069288158954221015e-04,3.113308250904083252e-01
-3.210700772147553339e-01,-3.206696864344910636e-01,-1.209983772114955891e-02,-1.676179788681661075e-03,1.224626197726461012e-05,-2.848601149499526558e-03,3.088233172893524170e-01
-3.279056859040578864e-01,-3.189635655814844206e-01,-2.047000964086873043e-02,-4.428338974918463213e-03,1.618783822526336695e-03,-1.184335271461767626e-04,3.031736612319946289e-01
-3.166790426229316724e-01,-3.206176066421129733e-01,-5.222705677258993040e-03,2.180051101265065576e-04,-1.187959263055031033e-03,-2.294800148914236029e-03,3.134763538837432861e-01
-3.047237440547941323e-01,-2.770870668086776178e-01,-1.991078367697241003e-03,1.044482945412317015e-03,-3.476542290330363917e-03,-1.516957408653357708e-02,2.911601066589355469e-01
-3.141889739205399601e-01,-3.143220938003041254e-01,-5.226997001943844978e-03,-1.678806265781282100e-03,-4.746393426751745713e-03,-3.626085904590583241e-04,3.091522157192230225e-01
-3.192572729636163897e-01,-3.146060914212413517e-01,-9.823566643738207427e-03,-9.143324351221027504e-04,-3.939235223698288324e-03,-4.246997356205027031e-03,3.073024451732635498e-01
-3.212991831453343439e-01,-3.233623588135223770e-01,-9.630808763822384932e-03,-4.448525793677529129e-03,-6.335492193619107586e-04,7.880872990810462025e-04,3.128048777580261230e-01
-3.188808295143568117e-01,-3.319212016321665959e-01,-2.640387115763478953e-02,-1.937349282285496513e-03,1.716288434545789438e-04,-5.376912143592604137e-03,2.993741929531097412e-01
-3.096109962407697092e-01,-3.018770968054692583e-01,-2.588517582719024324e-03,5.227133351451358810e-04,-7.100067158509629738e-03,-9.566809722142606900e-03,3.039321601390838623e-01
-3.145159455760679901e-01,-3.291936088100826385e-01,-1.563667320076567169e-02,-1.500621710953934556e-03,3.806269511876190777e-04,1.927383650962858231e-03,3.065117299556732178e-01
-2.028904124066801262e-01,-3.067946071539821573e-01,-4.265100808297378476e-02,-2.862491940393175824e-02,3.306853631255497316e-03,-2.938810937480276168e-03,2.358795702457427979e-01
-3.193418931411441952e-01,-3.282745302233824880e-01,-9.793636608016575984e-03,1.664128185355378360e-03,1.788363444785460370e-04,-1.557747360876600472e-03,3.141348063945770264e-01
-2.875986191767548883e-01,-2.302927763067055822e-01,-2.506625650827329355e-02,4.485255916739609022e-02,-3.308911524393727543e-02,-4.669426239518115890e-02,2.702287137508392334e-01
-3.222718757599083439e-01,-3.041357604556152450e-01,-8.093616689826527155e-03,2.018955803162815130e-03,2.412651908218465743e-03,6.120534621722848075e-03,3.057466149330139160e-01
-3.213955641781495731e-01,-3.215539051455948982e-01,-1.395748348778341752e-02,7.848674770647535298e-03,-1.180956668551637681e-02,-1.964969408589031449e-02,3.103681802749633789e-01
-3.218922049784588846e-01,-3.192883086661847392e-01,-1.535624162327445252e-02,-6.355649945402400136e-03,-1.969960415227586022e-03,-3.955431158648019772e-03,3.055366575717926025e-01
-3.178776303820293192e-01,-3.290813548560748147e-01,-1.649401899471839017e-02,-1.902873928186328382e-03,6.176634208941573752e-04,1.783106698009358877e-03,3.071738481521606445e-01
-3.238550518981139770e-01,-3.416234988257489946e-01,-2.095125789462071175e-02,2.251132279988095342e-02,-2.994891263900831269e-02,-3.538511215316518521e-02,3.246782422065734863e-01
-2.545262529075315583e-01,-2.785744894962323137e-01,-2.028003867347363820e-02,7.918988985490772389e-03,-6.067820603057937599e-03,-1.154004454436243290e-02,2.485576719045639038e-01
-3.231190564964955825e-01,-3.322101650628116465e-01,-4.219794358526940403e-02,1.449066690484097572e-03,-5.501758741237050294e-04,1.137409954097678283e-03,2.855946421623229980e-01
-2.478721149620693454e-01,-2.629711642185329490e-01,-1.909068210400388654e-02,8.336172453436804797e-03,-3.669474135158726918e-03,-7.002178331459813117e-03,2.375274002552032471e-01
-3.248241885905600035e-01,-3.315122424692257264e-01,-1.127231321969440758e-01,3.868190814148265923e-04,1.014711508918120274e-03,1.226829839344760822e-03,2.155416011810302734e-01
-2.841383677310310163e-01,-2.802868381213727278e-01,-3.716297879281096894e-02,5.191893118955820396e-03,-4.415255028052958268e-03,-4.343194892756714783e-03,2.454717606306076050e-01
-3.277465483335395557e-01,-3.196097520492289235e-01,-1.693043311125966288e-02,-3.740784344364356077e-03,2.520382159417021949e-03,-1.082406482137362753e-03,3.069338202476501465e-01
-3.526611489616048312e-01,-3.752489307180190137e-01,-4.343787426850237443e-02,4.216872123744239446e-04,1.190616044728358067e-02,1.975023063968191380e-04,3.217760622501373291e-01
-3.234845422698081063e-01,-3.298203228787437435e-01,-6.638039018996291785e-02,5.387822526187965606e-04,-6.200720188489202767e-05,-4.670241000229568220e-06,2.603315711021423340e-01
-2.801019123052623794e-01,-2.813232292398117895e-01,-1.902948855291955454e-02,3.087537263556463553e-03,-5.569679309203909995e-03,-2.969494126395313960e-03,2.619680762290954590e-01
-3.149119973786935200e-01,-3.170621170910582487e-01,-5.525216462200222001e-04,-5.198173139756466976e-04,3.076285860310904764e-03,3.286796327602326592e-03,3.155376613140106201e-01
-2.967429913657959051e-01,-2.979867258564388721e-01,-2.207288154318995388e-02,3.317730334194937420e-03,-6.469394222300041061e-03,-6.363884468361002966e-03,2.758023142814636230e-01
-3.225361194641989671e-01,-3.337525810440169494e-01,-4.073667985156759208e-02,-3.290505116751380257e-03,-1.290231575280211462e-03,-9.124456875852694380e-04,2.876412570476531982e-01
-5.270144008232314770e-01,-3.864476447918840929e-01,-1.489503825176820007e-01,-7.674221130837412252e-02,4.257117599387143236e-02,-7.753168802396681603e-02,3.881838321685791016e-01
-3.259244691148804884e-01,-3.229786699617445689e-01,-1.788056786664060649e-02,2.425751139656016214e-03,3.155173459640859927e-03,-6.262933638830141606e-03,3.068509101867675781e-01
-2.690676255103663927e-01,-2.843362822709001869e-01,-3.110306819475516793e-02,2.915259099440857798e-03,-2.927346867105767338e-03,-6.252117789971206249e-03,2.462968379259109497e-01
-1.857069805604489310e-01,-2.890353457135232951e-01,-2.879221652008223664e-02,3.230618592132268596e-02,-5.991209463930330728e-03,-8.404377263961541195e-03,2.344427257776260376e-01
-1.718219123459702735e-01,-3.846217257319811123e-01,-3.610769733171065310e-02,9.306041786658852955e-02,-1.699366725221357908e-03,3.221638092939150492e-03,3.443872630596160889e-01
-1.916150615534866486e-01,-3.189262400637255523e-01,-3.763156192965064206e-02,3.702971124683035464e-02,-3.168452272113591456e-02,-1.415650987644396196e-02,2.593249380588531494e-01
-2.607270389544216194e-01,-3.084047185300068938e-01,-1.070932461748849707e-02,-1.017987276981644580e-03,1.611830855284367495e-02,4.039291122606849561e-03,2.784488201141357422e-01
-3.771588299481079543e-01,-3.949184923537408798e-01,-1.004241165942506009e-01,-2.317021244468977018e-02,-5.433309831484460506e-02,3.458954450408221765e-03,3.038337528705596924e-01
-1.157415862713662147e-01,-3.080998777386907417e-01,-5.274326284835095802e-04,7.075342996342789958e-02,7.728587676148362430e-03,1.952694795183910082e-04,2.960335612297058105e-01
-3.446962680635536902e-01,-3.219972347100112375e-01,-2.624352879273528227e-02,-3.229981975275546019e-04,1.651816640712998677e-02,-2.380573626550133368e-02,3.117977380752563477e-01
-3.203025304085344027e-01,-3.156581190509116785e-01,-4.924206888545917815e-03,-1.356347411037256249e-04,2.672507994923291504e-03,3.133569218726758171e-03,3.131633102893829346e-01
-1.242563376763957950e-01,-2.864105916758730164e-01,1.516180324151239489e-03,6.972581509860398263e-02,-1.627303082728046024e-02,-1.823150274714221801e-03,2.790998816490173340e-01
-3.178006248718794335e-01,-1.733508980648653941e-01,-1.547155406736985817e-02,2.973388314698498236e-02,-1.740895463685418476e-02,-6.499247206634568841e-02,2.912573218345642090e-01
-2.681521195921618417e-01,-1.970673135098681694e-01,-3.098991611742374364e-03,5.686232253995450459e-02,-2.763675255847152651e-02,-3.520448236406232417e-02,2.686528861522674561e-01
-3.131782148797078724e-01,-3.222894380062845676e-01,-7.270722883898864120e-02,-1.077525068064901555e-03,-1.806406313453022691e-04,9.026796847731767288e-04,2.451658993959426880e-01
-3.309356764651475435e-01,-3.221439856043624150e-01,-9.818185645582122589e-03,-6.005530803344426381e-04,-1.252926253661755139e-03,3.809539262797443770e-04,3.168229758739471436e-01
-3.305582304974568619e-01,-3.218401991759012315e-01,-7.245010929265188748e-03,1.215943786159703102e-04,-1.328211828114465821e-03,1.217746267550128122e-03,3.190588951110839844e-01
-3.154729236046318608e-01,-3.285111270479073586e-01,-6.456362185272346288e-03,-2.268269262170626412e-04,-2.938653073270696965e-04,-3.765541499402107737e-04,3.157389461994171143e-01
-3.178060022325814304e-01,-3.244818283235243461e-01,-3.480174417422515765e-03,5.628361460711007883e-04,1.095483911705019816e-03,9.629620069045643162e-06,3.177235126495361328e-01
-3.109910507326233420e-01,-3.275233141848520324e-01,-1.049603382499517124e-02,-6.608183703536631842e-04,-5.865899825246708799e-04,-5.182810102109285588e-04,3.090980052947998047e-01
-3.269596201326528395e-01,-3.313200901988696545e-01,-4.326387541752771404e-02,-3.326003356715460674e-03,-4.802724058936677122e-03,-4.098954698476557548e-04,2.860808074474334717e-01
-3.248978568055346239e-01,-3.168859359907380546e-01,-2.212182006095436693e-03,1.876400866124842710e-03,3.195100874485793112e-04,2.561062466979700802e-03,3.188031613826751709e-01
-3.129141875542223450e-01,-3.144725845474034553e-01,-6.300486340548500097e-03,2.271597064022677116e-03,5.001707533159516737e-03,-4.554599467693946392e-03,3.076442480087280273e-01
-3.246115182813294475e-01,-3.149993167777494496e-01,-3.917903352528090410e-03,6.330780817773132459e-04,3.291140147171174785e-05,9.713746726376053372e-04,3.160035610198974609e-01
-2.966791937371194843e-01,-3.102928747212043703e-01,-6.106701845214890234e-04,5.661247708252314329e-04,-6.509164119833987794e-03,-1.910844013728789457e-03,3.033339977264404297e-01
-3.132796514215387962e-01,-3.134884582565325983e-01,-9.451196235191777761e-03,5.548617107865812709e-05,-3.294317685061004617e-03,1.797029776867351382e-03,3.040024042129516602e-01
-3.153806453264894616e-01,-3.270475228110449883e-01,-9.999571117760647221e-03,2.150889139470892313e-03,-1.001741595962322463e-03,-1.341484039987397934e-04,3.114056885242462158e-01
-4.000310361484821220e-01,-3.274981320312694844e-01,-8.552234671782069086e-02,1.901473815996504446e-02,-2.383368129453232800e-02,9.709370286608667855e-02,3.353131115436553955e-01
-3.182329717768230815e-01,-3.264603682894389181e-01,-1.393866902462337354e-02,2.386312716416509258e-03,-2.540454476816375162e-03,3.985613953441152248e-03,3.086265623569488525e-01
-3.166191248594626417e-01,-3.254303613869817813e-01,-2.201840197184112835e-03,-1.110981943738680771e-03,1.555269588074436118e-03,-5.512063821478943235e-04,3.189328312873840332e-01
-3.031462157298671078e-01,-3.180045475859857307e-01,-1.231829877819193286e-02,-1.134182287356181977e-02,-1.143121064272773456e-02,1.521052032147678264e-02,3.009898364543914795e-01
-3.193490546395196805e-01,-3.194072008815289077e-01,-4.997669968708651211e-03,-3.156594526669801934e-03,1.953518398228433147e-04,-2.773366045274833452e-04,3.144285380840301514e-01
-3.395992233335848320e-01,-3.481860954473298686e-01,-3.006726929954525729e-02,-9.112717995874394447e-03,2.350686548001483436e-03,-1.229965509865180205e-03,3.143436312675476074e-01
-3.206918953607266753e-01,-3.235794176298552594e-01,-1.656936948799125897e-02,3.342110380731587883e-03,-8.054005150632112184e-04,-1.339805949804191362e-03,3.056433498859405518e-01
-3.145860429749771647e-01,-3.206817390532095136e-01,-2.193938641881248985e-03,7.275209179381348734e-05,-2.194675270181921205e-03,1.173317166782884922e-03,3.155135810375213623e-01
-2.804045458773250510e-01,-3.033252111617718016e-01,-4.213378414009788520e-03,1.109375334445207974e-03,8.574777066141397826e-06,2.838058501653614339e-04,2.883423864841461182e-01
-2.844890473013419463e-01,-2.767233437958022124e-01,-2.455315928242110535e-02,3.769231467997252120e-03,7.946721113735864817e-03,2.123732045834608815e-03,2.566203176975250244e-01
-3.038420816685860060e-01,-2.969064527617598093e-01,-3.925605334390874779e-03,-2.409610893897858421e-04,-3.673380302013795878e-03,4.706351176237739790e-03,2.966900467872619629e-01
-3.297075851112004075e-01,-3.275033684377187115e-01,-1.027980715082445484e-01,-2.847827029715026704e-03,1.108147036660824062e-04,1.148987401359658584e-03,2.258781939744949341e-01
-3.147099493074471677e-01,-3.193942721555098618e-01,-4.814105447610655952e-03,1.958132711547707055e-04,-2.489887248829019979e-03,-5.212152841543000819e-05,3.122943341732025146e-01
-3.126532780866102534e-01,-3.118704891757373421e-01,-3.775133414221143457e-03,5.384143553168311593e-04,-4.461590449427320533e-03,3.420232327634931818e-03,3.086425364017486572e-01
-3.048860069209896606e-01,-2.972312724164477560e-01,-2.152616213693753222e-03,-4.102195216359076158e-04,-7.023042104252108855e-03,3.715062843509263184e-03,2.992969155311584473e-01
-3.035095298510748774e-01,-2.978382885262473856e-01,-1.857324401148430226e-02,3.198052649482470682e-03,2.193112435673569315e-04,1.741155297438955066e-03,2.822141647338867188e-01
-3.236980529577649923e-01,-3.220767008885428995e-01,-1.260395803428177031e-02,-5.088063071164534643e-03,1.794759456336207908e-03,2.150435352856692670e-03,3.104496300220489502e-01
-1.659803191229437258e-01,-1.962606570809507234e-01,2.366347557276385349e-02,9.033677454979145705e-02,2.897734729343498516e-02,2.708507012535590550e-02,2.680041193962097168e-01
-3.157212617382670894e-01,-3.221587060695360050e-01,-2.786894156801777989e-03,1.502751628658550217e-03,9.950325061292099912e-05,6.812847471370604355e-04,3.162151873111724854e-01
-3.162922875875942563e-01,-3.246945601586253005e-01,-7.564356721334319911e-03,2.890769881521625291e-03,1.421481165304342906e-04,4.969921079474174178e-04,3.130549788475036621e-01
-3.188927604866721444e-01,-3.210763343263154934e-01,-4.780679979890178899e-03,1.022098723872821207e-03,3.230169660473527615e-03,6.691370868665124782e-05,3.152641952037811279e-01
-3.241115289049191772e-01,-3.229047817006030496e-01,-9.506740188351736620e-02,1.393058848018063510e-03,-1.712354137026866766e-03,1.456812800879259432e-03,2.284890711307525635e-01
-3.540195218520975629e-01,-3.795734297663059253e-01,-5.882639078697352031e-02,1.232475895305505100e-03,1.400694104880837940e-02,1.982278307145416817e-03,3.097422420978546143e-01
-3.197268805445865891e-01,-3.309232035548086981e-01,-1.009529005908449406e-02,1.595429455534282158e-03,7.022960960250807221e-04,9.546470784332051172e-04,3.153976202011108398e-01
-1.993007827147324773e-01,-2.390236764235381672e-01,-9.323720682395120196e-04,8.690852271911855831e-02,-2.510012724998537600e-02,-4.767918171990493531e-02,2.831553220748901367e-01
-3.169778449171937185e-01,-3.232445998959083133e-01,-4.569636557808201549e-02,5.994043204693865270e-03,-2.949090365219703136e-02,-2.402280748626867829e-02,2.824556231498718262e-01
-3.152616056226503760e-01,-3.229108328913722903e-01,-4.757086914149583068e-03,7.027759850262738648e-05,9.410987151476515140e-04,-2.044590706285653436e-03,3.144231140613555908e-01
-3.148160402147350823e-01,-3.148315488676723395e-01,-1.579182635124604106e-03,4.634096241294230070e-06,2.809548568815854915e-03,8.822709020307910929e-04,3.132861256599426270e-01
-4.021137573725752645e-01,-3.816436047008475718e-01,-1.048053197359517241e-01,-1.059968504978543724e-01,6.127991613758082545e-02,-5.712604030694137802e-02,3.707926869392395020e-01
-3.150733378105139426e-01,-3.233243239164487193e-01,-4.046501768892291073e-03,5.623171579357355652e-04,6.903703639779021177e-04,9.620446744113996643e-06,3.152371048927307129e-01
-3.175272861087400367e-01,-3.310482495145117277e-01,-1.248984592204838151e-02,-2.245912237745730885e-05,2.559827741838821254e-04,-6.774131997003508474e-04,3.120202422142028809e-01
-2.990006600363857014e-01,-2.884917211877213172e-01,4.490619483626251407e-03,-3.822466651982802332e-04,-2.919008992577182618e-03,-7.588733582037942432e-03,2.987085282802581787e-01
-3.159448222878737944e-01,-3.273890469310098972e-01,-5.825001529892154251e-03,-2.118170986771034570e-04,-1.345876249644925690e-04,2.680145094216135207e-04,3.159980475902557373e-01
-3.540181489734925968e-01,-3.241149912813444667e-01,-9.782861376912349582e-02,4.328866299058328239e-03,1.401565597606608052e-02,-2.520226644757388168e-02,2.478253394365310669e-01
-3.254477044914366735e-01,-3.319571958503463871e-01,-9.219976911877897363e-02,3.998327747719287832e-03,-9.793396472102329671e-04,2.591677567308780378e-03,2.367198467254638672e-01
-3.478432613818273622e-01,-3.491383524019901485e-01,-1.137876088293888754e-01,3.434728847745526729e-03,-2.390638689663375071e-03,1.039410335551576268e-02,2.355068922042846680e-01
-3.041677577800289689e-01,-3.212834439566042977e-01,-5.836172520915838824e-02,2.218373853004074886e-02,-3.015253821594142750e-02,-3.283116929707180498e-02,2.689948379993438721e-01
-3.169133112627283144e-01,-3.274043155105771374e-01,-5.708488364034980389e-03,6.552799617761485623e-04,5.415974037647109003e-04,-1.290217324501060974e-04,3.165842294692993164e-01
-3.131428015290045330e-01,-3.263600274313996907e-01,-1.072618174041350958e-02,2.418471453574382642e-03,1.817489304329866198e-04,-6.304953647327201684e-04,3.092676103115081787e-01
-3.262800877343978723e-01,-3.351681080290254133e-01,-4.140617114993247472e-02,8.603870995604056019e-04,-1.025628360088586552e-03,-1.238622380705016544e-03,2.894375324249267578e-01
-3.172160610945976011e-01,-3.295162115073653752e-01,-7.535285551374365509e-03,-6.801471981255824873e-05,1.301561512782457137e-04,-4.546902057030713829e-04,3.160115182399749756e-01
-3.134472968317501551e-01,-3.003992390277956392e-01,-2.200892855978256457e-02,7.550588264393131091e-03,1.279486701852375861e-02,8.098767864994218385e-03,2.866405546665191650e-01
-3.663304613571055635e-01,-3.192371436779678495e-01,-5.990421223362943359e-02,1.187018303021528803e-01,7.303296885040493069e-03,3.303054769743696967e-02,3.569140434265136719e-01
-3.194727110501317524e-01,-3.326643026499028211e-01,-1.410329588537018175e-02,8.598808889589289704e-04,1.064330284138059242e-04,-7.062801942432429033e-04,3.121803104877471924e-01
-3.136248598694573175e-01,-3.270013259055079002e-01,-5.103217832397505260e-03,6.586804201527530047e-04,1.018422708832531680e-03,-4.083014763117318838e-04,3.154304623603820801e-01
-2.770647503926966793e-01,-2.384279511838871268e-01,-2.563682357377167209e-03,2.808494286598874762e-02,1.689091009141274746e-02,3.316390743730743274e-02,2.697397470474243164e-01
-3.163004720410735326e-01,-3.244599133873213859e-01,-8.991309506944378249e-03,3.827563986235682503e-03,1.356030309790368527e-03,-2.154582846475839447e-03,3.115707933902740479e-01
-2.798706627012550463e-01,-3.088644027785817370e-01,1.925128451744695379e-03,-2.260454452309138777e-03,-1.877442343232477509e-02,5.267146670660928162e-03,2.992921769618988037e-01
-3.308055706738436408e-01,-3.260183044332535807e-01,-1.222422740207734781e-02,-1.692225644432444583e-03,4.258620293281813727e-04,4.138670539437587156e-03,3.163105845451354980e-01
-3.119838072558873687e-01,-3.131435346251248419e-01,1.962147871035768709e-03,-6.743556656070493665e-04,1.886473711289422383e-03,2.340538934103309539e-03,3.145726919174194336e-01
-3.064597131006768782e-01,-3.061951379363613279e-01,1.818368086458271859e-03,-2.395792864165841528e-04,2.472798133699584833e-03,3.014698472872359009e-03,3.082201480865478516e-01
-1.824248394019655217e-01,-1.975442569628691469e-01,1.870016384396916420e-02,8.360953977992738317e-02,3.519631260814071877e-02,2.603922639528960872e-02,2.654107809066772461e-01
-2.635155270963595586e-01,-2.713804143805684799e-01,-3.503360421038237416e-02,-5.655221345636518744e-03,4.938571906757853805e-04,-1.693997393740927920e-03,2.327404469251632690e-01
-2.855120941519413980e-01,-2.568970467369396382e-01,-4.217010463764872541e-02,-1.810549750791544399e-02,-2.902135293724717856e-03,1.083053089173305946e-03,2.325577735900878906e-01
-2.734755137302405381e-01,-2.786695109925523273e-01,-3.900899264775711806e-02,-3.048342463280895656e-02,-1.618426873527357632e-02,8.382236616346355404e-03,2.449564039707183838e-01
-3.159275533528528856e-01,-3.219525397414259027e-01,2.639227496311624677e-04,-9.513945333468721384e-04,2.022108956865110042e-03,4.528952202277526260e-04,3.192710280418395996e-01
-2.781709464208711458e-01,-2.511431590379579193e-01,-3.641823119139100950e-02,-9.057794743236825472e-03,-9.938964797145993964e-04,-2.007846258415656691e-03,2.300044000148773193e-01
-3.122206240070140026e-01,-3.066037066776478581e-01,-5.923332272405570920e-02,-1.012092935806522577e-03,-2.560322367158751502e-04,6.884675987265685476e-04,2.502354979515075684e-01
-2.747294075923850665e-01,-2.464674428620132474e-01,-3.356043485150975170e-02,-6.230931560314484363e-03,-9.293378901017284579e-04,5.900548869836618783e-04,2.286162972450256348e-01
-3.174373763029218476e-01,-3.142132355810866029e-01,-1.880962260001256547e-03,-1.326911722349180317e-03,2.736142625206253957e-03,2.323826813377596369e-03,3.140267431735992432e-01
-3.289611662780619894e-01,-3.260622495778026098e-01,-7.595795052208262343e-02,2.845059067835407473e-03,-3.908345454014637219e-03,1.503805667577498475e-03,2.517190575599670410e-01
-2.753239822559694905e-01,-2.746683205774790304e-01,-4.059457544753364289e-02,-9.161145915794194697e-03,1.864409081818622980e-04,4.689333237431745119e-04,2.349403500556945801e-01
-3.239167517775651817e-01,-3.198983210361339147e-01,-5.051508123545489504e-03,-4.336394410461632057e-03,7.901941334829949790e-04,1.392591078673849217e-03,3.169762790203094482e-01
-2.546478938862394292e-01,-2.782595690660344401e-01,-3.731518873162187333e-02,-1.881042948979272725e-02,-1.774444875366240236e-03,-2.341914121300062504e-03,2.324005216360092163e-01
-4.315208810288049257e-01,-2.249473232253046406e-01,-6.173886168910044936e-02,1.262565314881177944e-02,7.703981339759666085e-03,6.724516717561888901e-02,3.424123227596282959e-01
-3.194029883798306102e-01,-3.193470379698516992e-01,-1.071626758842700311e-02,-4.212346177611514531e-03,2.171976693730696528e-03,2.163847136549873398e-03,3.087906241416931152e-01
-2.910655579366138168e-01,-2.941968226967529576e-01,-4.246477679759624868e-02,-5.104944939024924806e-03,6.441887153669937326e-03,-5.854268563941560262e-03,2.507909238338470459e-01
-3.039096476928304091e-01,-3.093879017656265273e-01,-2.230862374898218148e-02,1.607423450460029326e-04,1.464782226978451419e-03,5.398004694450857580e-03,2.845448255538940430e-01
-3.209234070032843666e-01,-2.241449013794830636e-01,1.619144891094242977e-02,1.252215895573257354e-01,1.451903875224563531e-02,5.628407335900639970e-03,3.716931641101837158e-01
-3.266979018228142184e-01,-3.172747089484295735e-01,-1.049231393614669106e-02,-3.031829216123956179e-03,-1.153423706382144609e-03,-1.494522238659346490e-03,3.116622865200042725e-01
-2.982277942438674723e-01,-2.831518341282465157e-01,-5.456137661961707463e-02,-1.486968340920049106e-02,-6.897898512883595366e-03,6.866939615904774086e-03,2.384840250015258789e-01
-2.522028782795235347e-01,-2.710394418759137780e-01,-2.741079899179935109e-02,-7.760058234352714551e-03,-2.665179990840825779e-03,5.644483961367829580e-03,2.354106009006500244e-01
-3.120261470267930437e-01,-3.125030092919004465e-01,-2.525849899604898363e-02,4.956418270521217168e-02,5.603237061258387747e-02,3.622071108413504187e-02,3.210875093936920166e-01
-3.192263631662241585e-01,-3.212907247354394591e-01,-8.736338693569803415e-02,2.447659988561146603e-03,-8.941916100109943179e-04,2.462458724126639995e-03,2.329847961664199829e-01
-3.295140390775126438e-01,-3.218401511591336694e-01,-3.222976641179153834e-02,-4.414112309905085518e-03,3.485272552224431201e-04,1.245387364774398547e-03,2.936306595802307129e-01
-2.771358420010666124e-01,-2.772470737295927856e-01,-3.781685701130776955e-02,-9.649004999326030868e-03,3.301727911338796489e-03,-4.066336056503211220e-03,2.401287704706192017e-01
-2.754086329131418820e-01,-2.704146743287396681e-01,-3.184296347330076160e-02,-4.434865400212423606e-03,4.068702967524431661e-03,-2.021935156637073849e-03,2.413581311702728271e-01
-2.795729017903313407e-01,-2.781557900135820938e-01,-3.524535038510609453e-02,-8.379221145435197804e-03,4.190251867623721004e-03,-3.437416506433228248e-03,2.442344725131988525e-01
-2.730023841081252733e-01,-2.785899190918657009e-01,-3.831520220822384748e-02,-2.477628551222851600e-03,1.603646953752689477e-04,-3.810091198937158022e-04,2.375700920820236206e-01
-2.526508187870097899e-01,-2.800180001692699205e-01,-3.605133338087382344e-02,-5.873982310266982060e-03,1.311806341811433321e-03,-3.523067443500318020e-03,2.318144291639328003e-01
-2.655954175743668322e-01,-2.935739567810509709e-01,-2.580358357793063884e-02,-3.379506065697360315e-03,1.901954651984261689e-03,-8.837189830333070165e-03,2.554825842380523682e-01
-3.001167840376544049e-01,-3.082035896213124460e-01,-9.038797846019630544e-04,1.964671512049581421e-04,8.179918719358910545e-03,7.044000852667544124e-03,3.039130568504333496e-01
-3.273240314932504558e-01,-3.153431943304042528e-01,-2.749058015339603256e-02,3.581487698232487405e-03,1.908919107100468925e-03,-7.937293117566923640e-04,2.941133975982666016e-01
-3.251503618362567849e-01,-3.126346605821023195e-01,-4.266920540871077527e-03,1.418741500240667738e-03,4.638091970555811394e-04,-7.011714120234467727e-05,3.148228824138641357e-01
-2.704966986436717624e-01,-2.735145479015563263e-01,-3.763530195569372849e-02,-2.075291092542553856e-03,3.291459543947845368e-04,-1.347069479572122466e-03,2.344247549772262573e-01
-3.271029053408237020e-01,-3.269392686111954882e-01,-5.942646920243099817e-02,4.642303907965178271e-03,6.480635033575256288e-04,1.078030911106790278e-03,2.677243053913116455e-01
-3.060706399113301557e-01,-3.030377273265840721e-01,-4.871651124101594732e-03,1.928362457133685377e-03,-6.326063969861104447e-03,-5.448397344292016560e-03,3.000613152980804443e-01
-2.915443055703927921e-01,-2.053920244100536086e-01,-1.994115339832666645e-02,1.115295276663474250e-02,-6.801535394803527590e-03,-1.505394925112613774e-02,2.428642958402633667e-01
-3.021134823584583073e-01,-3.093700043374595365e-01,-1.923662236884529642e-02,-8.742007860445256918e-04,1.600617425478539912e-03,-4.554476449994322197e-03,2.866999804973602295e-01
-2.947821453112106083e-01,-1.819868870222360879e-01,-2.332385386451918396e-03,-2.933645160740683613e-02,1.672056787360439931e-02,-5.552466060983057838e-02,2.791635096073150635e-01
-3.149840305742421243e-01,-3.229162210693170554e-01,-3.942933348327626319e-03,1.846934822711357319e-03,8.136996681580424334e-04,-1.383226292863470441e-03,3.151105940341949463e-01
-2.760246286748273548e-01,-4.100027002708527268e-01,-8.516760807272460987e-02,-1.259905701904596165e-01,2.343250894327143091e-02,-3.331576647253131629e-02,3.640674650669097900e-01
-2.874106868314520447e-01,-1.309598500378306163e-01,1.505922880231358452e-02,-4.737001117528549798e-02,-6.277871225352468429e-03,8.339230814989460894e-03,2.751397192478179932e-01
-3.139251286060307233e-01,-3.144345004943542854e-01,-1.578316907489496490e-03,-3.519786008998275874e-04,3.513981067962050273e-03,-9.305182787107680849e-04,3.126657903194427490e-01
-3.218088427944879593e-01,-3.215069768637798808e-01,-1.039503138453592990e-02,4.903339619509066924e-03,2.303008889988928092e-03,-2.519810603619064386e-03,3.114349544048309326e-01
-3.173134702983668731e-01,-3.287936612809078119e-01,-1.250615973550381343e-02,-1.596270692155987367e-03,-5.881500938117358978e-04,-5.196573627599638612e-04,3.107217848300933838e-01
-3.207569037256311484e-01,-3.303172712465433647e-01,-1.174510938374209723e-02,2.559408232250728627e-03,1.306658362402083424e-03,-2.344046278375355990e-03,3.139669001102447510e-01
-3.449141179457571038e-01,-2.724667936970862625e-01,-5.234888143492799628e-02,-1.251476829791627610e-01,7.562364916236023922e-03,-1.501088022492584259e-02,3.427547812461853027e-01
-3.156346678210310008e-01,-3.159403987528593971e-01,-2.356392959821373978e-03,5.182980698189682781e-05,4.164174388911761823e-03,-1.551834082828421621e-03,3.135257661342620850e-01
-3.174514527890241467e-01,-3.202282282972673810e-01,-3.206065701597010653e-03,3.367184539938758263e-03,1.488686823829658270e-03,-1.293428535497896789e-03,3.157152831554412842e-01
-3.194415914038837290e-01,-2.944078481737300579e-01,-1.974057315264018952e-02,1.254747955916321203e-05,5.349757152423405618e-03,-1.096833220360680754e-02,2.887758910655975342e-01
-3.016119169170239367e-01,-3.054601207558047538e-01,-6.719607591275378322e-04,1.623949567704964167e-03,2.272462272055564107e-04,-9.495827515293853030e-04,3.029001653194427490e-01
-3.760345918664387832e-01,-2.686716837361513011e-01,-4.130505615490551174e-02,3.105970996580285914e-02,-2.392633657370659903e-02,-2.711368130132934054e-02,3.073273599147796631e-01
-3.754382038381887110e-01,-2.102779456401882852e-01,-3.529359678078922147e-02,-5.544982151880050586e-03,-2.898364895517288424e-03,-2.332477866586925991e-02,2.975692749023437500e-01
-3.071362326385056463e-01,-3.070923990430273198e-01,-2.413201830869377007e-03,3.923317348534268562e-04,9.858188858200486737e-04,2.426721252790331809e-03,3.047356605529785156e-01
-3.210062363595908019e-01,-3.256427401118175413e-01,-5.720730728285244870e-03,-3.296604871797378065e-03,1.717069316672008815e-03,8.899796563452003553e-04,3.176981210708618164e-01
-3.167979984909210511e-01,-3.163025198052035747e-01,1.787161930738467852e-03,-2.067554549740202238e-03,1.086205224292491941e-03,1.340525386996782023e-03,3.183718919754028320e-01
-3.137604030221222695e-01,-3.163773092350825045e-01,-1.310091909147270695e-03,-1.261233565258254325e-03,1.675031785429533264e-03,7.894698320328628546e-04,3.137909471988677979e-01
-4.795200933219711525e-01,-5.503608592479898309e-01,-1.538311317490098085e-01,-8.149283381109338753e-02,9.963267927296674820e-02,-8.696104944638710643e-02,4.544817805290222168e-01
-3.015117748139062304e-01,-2.989344453894792197e-01,-1.328537456799289140e-02,3.319153843571624263e-04,4.412312682597921594e-03,5.123350426776427172e-03,2.871858775615692139e-01
-2.980022612055317488e-01,-3.049223410167441473e-01,-1.386309602447022282e-02,4.309762578116328215e-03,8.464755195216511381e-04,8.980640448170327042e-03,2.881823182106018066e-01
-2.808191469731294854e-01,-3.063373070936381004e-01,-7.356993410105455711e-03,-4.852875900474266750e-03,1.215819436531488662e-02,-6.770623461820919099e-03,2.882058620452880859e-01
-2.815818063251666059e-01,-3.394659867624252314e-01,-2.896048764806419262e-02,-3.133203680713766287e-02,3.488250259039651219e-02,-1.795664004668121039e-02,2.989208400249481201e-01
-2.828689016537304091e-01,-3.235663606026385475e-01,-4.736395783775909640e-02,-5.113033868068651844e-02,3.466778102691769198e-02,-1.199426570488243936e-02,2.803273200988769531e-01
-2.466456962432871658e-01,-2.866373582097754835e-01,-3.066173668837673949e-02,-8.584518759550031908e-02,4.045003662284191864e-02,-4.375345871325021091e-02,2.994091808795928955e-01
-3.212455800762887836e-01,-3.173659688138497081e-01,-2.723412675696063046e-03,-2.590879262570701218e-03,2.299107875520233456e-03,2.597905614186422386e-03,3.166890144348144531e-01
-3.085263680047110046e-01,-3.895198457694403205e-01,-7.917266314821078121e-02,-3.603534194478606734e-02,7.989190325135862858e-02,-3.415996833901410734e-02,3.229298889636993408e-01
-3.276093065001042248e-01,-3.191306989342228007e-01,-6.459922265332762592e-03,2.145637113672404540e-03,2.454691820819926082e-03,-1.631044929990987003e-04,3.170455396175384521e-01
-3.211333635761185468e-01,-3.167630457040930825e-01,-2.330600694109702387e-03,-1.147301062122812413e-03,6.582211819677253510e-04,1.686293774400458856e-03,3.166619837284088135e-01
-2.250377549129916610e-01,-2.937372327806203054e-01,-2.485059980225184928e-02,-5.719876930264135295e-02,6.687773682596416525e-02,-2.241616491831277536e-02,2.885961234569549561e-01
-2.271585661261229516e-01,-2.949193048569960229e-01,-2.273333240976715963e-02,-6.134579398287167383e-03,8.364758970736133753e-03,-9.970875588654646432e-03,2.466865628957748413e-01
-3.220358276889895288e-01,-3.196957874749730699e-01,-1.239729392885352555e-02,-2.994500443908333360e-04,5.142153126384951985e-03,1.421324464358790203e-03,3.086139857769012451e-01
-3.288588289975077350e-01,-3.322118809273686968e-01,-8.443368249186750107e-02,-2.843885644581052152e-03,6.404649716395347664e-04,-5.686266376725581870e-03,2.463675290346145630e-01
-2.810424796221948074e-01,-2.692864200670663788e-01,-4.280561490641668354e-02,2.889475790037413817e-03,3.669925114237024451e-03,-1.410454416766379875e-03,2.327352613210678101e-01
-3.185760887323463297e-01,-3.158266915648275108e-01,6.185294519592265949e-05,2.827824884910170363e-03,3.374719879086165606e-04,-9.244129797150148426e-04,3.173145651817321777e-01
-3.675820490567932031e-01,-2.835445424872905518e-01,-3.250407439871727533e-02,2.469729618233128601e-02,1.270075892762793923e-02,3.810990952780851648e-02,3.128119707107543945e-01
-3.314005969942079854e-01,-3.237398533990115679e-01,-2.780431348426501414e-02,3.614862661066539119e-03,2.459749431527236043e-03,7.059523960436022165e-05,2.999349534511566162e-01
-3.185464025144988387e-01,-3.171484775089951080e-01,-1.443010662397631316e-03,1.911454346706371985e-04,7.807131543579763156e-04,-2.785091868820864167e-03,3.164465725421905518e-01
-3.141124914144904356e-01,-3.150954154940840968e-01,8.726436235127754681e-04,2.307586198535861288e-03,7.009875088633819081e-04,-2.043608094744851783e-05,3.155054152011871338e-01
-3.171709719996474997e-01,-3.195176782982926955e-01,-1.199146647769572249e-03,2.957482849456709827e-03,1.130535789166390876e-03,-7.905087855370005606e-04,3.172020614147186279e-01
-2.965109638811979087e-01,-2.995307862881931293e-01,-8.163346361244994132e-03,2.439881451352620724e-03,-2.133590330797190300e-03,-4.893350937626442937e-03,2.900475561618804932e-01
-3.061682790106167174e-01,-3.085178441517108516e-01,-1.012813407412643807e-02,-6.128890214891100042e-04,-1.982201574769638409e-03,-3.211413888838989157e-03,2.972956597805023193e-01
-3.324925519264760876e-01,-3.216470787453651892e-01,-3.059110627321581788e-02,2.150173560144071766e-03,1.946800236930949085e-03,-7.257208214622572770e-04,2.966726422309875488e-01
-3.079222080213882551e-01,-3.054370187326831410e-01,-5.727090924916355963e-03,5.182773540016874861e-04,-4.641975093284159484e-03,-1.421061281663834556e-03,3.010790050029754639e-01
-2.923238523807609179e-01,-2.955895365098246685e-01,-9.621887932142109134e-03,6.958063510236424300e-04,-6.890756106805295128e-04,-6.332266273094789427e-03,2.845653593540191650e-01
-3.098462980658737154e-01,-3.096541078757293897e-01,-7.386370068537012612e-03,-2.636122964196802336e-04,-4.397493837174750245e-03,-2.695043895380926351e-03,3.024961650371551514e-01
-3.060398303238844875e-01,-3.048114197799818292e-01,-1.727898414678721850e-02,1.411763088589581107e-03,-1.808482056055160929e-04,-1.255118305637661176e-03,2.881673574447631836e-01
-2.875609172704070571e-01,-2.933871484898505910e-01,-8.052875034474382687e-03,4.175871131308227149e-04,-4.821836551791377698e-03,-1.138993154651928236e-03,2.825974822044372559e-01
-3.171881238323436270e-01,-3.237446680105289798e-01,-3.112680033533404833e-03,9.542028189659574645e-04,1.084193217688530836e-03,-2.795122002729228013e-04,3.174147307872772217e-01
-2.734729919720144120e-01,-2.717021291464155608e-01,-3.485532741197963635e-02,7.338959060731212528e-03,4.259272117682644590e-03,5.193632523542997259e-03,2.383608520030975342e-01
-3.148944948069903882e-01,-3.155058030499751087e-01,2.289860020376149885e-03,5.802919381403102593e-04,9.804185581901640571e-04,-1.487049716274117654e-04,3.174966871738433838e-01
-3.245017986378438968e-01,-3.196982967107517282e-01,-1.340217430396056786e-02,-3.621416724586763985e-03,-5.788418050474101496e-03,-6.542362687839159245e-03,3.091600835323333740e-01
-1.871281702792770008e-01,-2.799506285025591401e-01,-2.336014532505092944e-02,4.298944933376859512e-02,1.788710869053416683e-02,1.779811579214244516e-02,2.410223335027694702e-01
-2.962940416221658269e-01,-3.417347771978782589e-01,-3.438712823151843234e-02,3.974000817996874851e-02,3.374535320652519155e-02,1.915510577655319541e-02,3.030117750167846680e-01
-3.212643575656554673e-01,-3.552076705083451191e-01,-4.756469674513105761e-02,3.892009341061472560e-02,4.159194383302734777e-02,2.282781648113752643e-02,3.108878433704376221e-01
-3.169109943179220235e-01,-3.175983933550148852e-01,-4.053179878794055391e-04,-3.419813497398310320e-03,2.492521193937500754e-03,2.237291699376484002e-03,3.169583976268768311e-01
-2.706901451393008418e-01,-2.986902598854642155e-01,-2.514831201970571528e-02,3.863974701520781190e-03,2.018020176756386147e-03,6.904674764008161825e-03,2.610556185245513916e-01
-3.240372077326676425e-01,-3.195725403147354204e-01,-2.972527146115455654e-03,-9.221012779814010676e-04,2.960286659803059968e-04,-1.480373126500149220e-03,3.188705146312713623e-01
-3.140885211027509838e-01,-3.157231427653322542e-01,2.668114512506813973e-03,-7.741638714025721917e-04,1.385920245349151056e-03,5.432068720636170278e-04,3.175903856754302979e-01
-2.520011994309254155e-01,-2.918378913231109983e-01,-3.351541268167032572e-02,5.239961869301481071e-03,6.697799016059200784e-03,1.012494311854993632e-02,2.419736534357070923e-01
-2.892493656780209532e-01,-2.601083596299117451e-01,-4.420764297348278582e-03,6.077457744191436424e-03,1.258684937580211056e-02,1.151586259869426254e-02,2.732403278350830078e-01
-3.613150611308419968e-01,-5.267350135841231129e-01,-1.247671366679889704e-01,5.668069117754243741e-02,-9.682543389036440962e-02,-2.885950637165549462e-02,4.033740758895874023e-01
-3.266886130727014725e-01,-3.200789026412493854e-01,-2.946033168491263288e-03,-2.278465864313679139e-03,1.277975595169265747e-04,9.651551527208577543e-04,3.205175697803497314e-01
-2.436852826982450204e-01,-2.944872401630548864e-01,-4.168233019270534134e-02,1.958726503122312085e-02,4.871241914622803822e-03,3.480835949586762353e-03,2.343217730522155762e-01
-3.193055554640029658e-01,-3.169061337756893804e-01,5.663432264395584781e-04,-1.460237588654797729e-03,7.254604392000977686e-04,1.385605081338450338e-03,3.187005221843719482e-01
-2.248017417049131828e-01,-2.293587446186435008e-01,-8.175145519875665068e-03,4.465335772351590460e-02,-3.114528306931183248e-03,-2.599272879750719016e-03,2.323061674833297729e-01
-3.068822350875382021e-01,-2.984649827601268401e-01,-1.475230605885863300e-03,5.160756088689000222e-04,7.132609694869509846e-03,-6.221004580149166151e-03,3.017335236072540283e-01
-3.035934520514529389e-01,-2.925518147712099504e-01,5.673018330013546162e-04,-1.359997897241298995e-03,7.604728065137929607e-03,-5.735649561310562916e-03,2.992573976516723633e-01
-2.723487079823977419e-01,-2.693971876205612515e-01,-2.111665870099679876e-02,-9.539017505475770944e-03,1.181611576799533082e-02,-1.107732954483134705e-02,2.518823146820068359e-01
-3.131744114446849414e-01,-3.140402656480301702e-01,1.017254370218295678e-03,4.364476580379516202e-04,3.256656585179389454e-03,-2.184495893135821216e-03,3.146997094154357910e-01
-2.993360577901525987e-01,-2.915311889306850812e-01,1.925767272983297529e-03,-2.069018161006554168e-03,7.400966722515943050e-03,-5.993497408954650066e-03,2.979148030281066895e-01
-3.097278974492054804e-01,-3.099099739169403622e-01,-6.062488871256738188e-03,-7.092462800477485193e-04,8.360796280921957771e-03,-8.043219153571123589e-03,3.044228851795196533e-01
-3.273336568014722503e-01,-3.136921290986337540e-01,-1.122889540931848451e-02,3.154396616116189166e-03,1.052644709055681940e-03,3.953213172483459391e-04,3.095639050006866455e-01
-3.199665399754372808e-01,-2.169490530797038852e-01,-4.885937652609487203e-02,-1.271400335889712185e-02,2.528186365874166442e-03,-7.109783429418499445e-02,2.680517435073852539e-01
-3.115173688312460332e-01,-3.155869061889999827e-01,-1.348538105383809138e-02,1.454618714589454203e-03,4.251704437360025179e-03,-5.389473370725474284e-03,3.003334701061248779e-01
-3.191290522997444201e-01,-3.238966069233026324e-01,-1.777964134328502421e-02,-3.632478878791911819e-03,8.895046553598525947e-04,-1.948821378718891854e-03,3.038490414619445801e-01
-2.462167610275869389e-01,-2.327655811184015655e-01,-2.660283612648459139e-02,-5.711556888572894702e-02,3.045483953411505865e-02,-6.285345144838887232e-02,2.643442153930664062e-01
-2.923998160110551914e-01,-3.023442814332223394e-01,-2.051246347761695454e-02,-5.592615217990964255e-03,5.208387745993117192e-03,-7.106446978727710626e-03,2.775826454162597656e-01
-3.242851335882863673e-01,-3.243600495258853744e-01,-9.686166302979692944e-03,2.194828799203262393e-03,4.405924598479177973e-03,-1.808468828983463700e-02,3.163067102432250977e-01
-3.260464848458592968e-01,-3.259255794148738783e-01,-1.371061906937207087e-02,-5.032278971350302547e-03,5.524817248906387264e-03,5.955402835584531519e-03,3.127137422561645508e-01
-1.967044948111385527e-01,-2.054255596920268045e-01,-3.315530013824702360e-03,5.728753156334980695e-02,-3.565336513057698001e-03,-5.638250352060616803e-03,2.216776758432388306e-01
-3.312809533738839685e-01,-3.184611053079912102e-01,-1.300296815725077160e-02,-1.859591707791184885e-03,2.618558206174275999e-03,1.288426781590889083e-03,3.121231794357299805e-01
-2.574828591432348768e-01,-2.220715650173281097e-01,-1.762463419979798385e-02,-5.539990665692794136e-02,2.886574258189817874e-02,-5.440539853743922571e-02,2.662315070629119873e-01
-3.446061446747328838e-01,-3.425154513737103668e-01,-4.737343509505123618e-02,3.657983843729344271e-03,-1.600809674893096399e-03,6.691793591330563208e-03,2.965002655982971191e-01
-3.228289706861584007e-01,-2.620903152761899779e-01,-1.382728675244102035e-02,-1.861526727024913862e-03,-4.580073189913391046e-03,2.039742996419065951e-02,2.858747541904449463e-01
-3.229093301050595111e-01,-3.149048767577503627e-01,-2.603562516106022739e-03,1.997399755875688826e-03,2.375805530359275091e-03,-1.439062861863569728e-03,3.164349794387817383e-01
-2.318907746599192798e-01,-3.099483213510298985e-01,-3.775372882471123015e-02,6.955599101199923251e-03,-1.270158117808409259e-02,-7.852182363939915616e-03,2.444384098052978516e-01
-3.152384800221076921e-01,-3.198041713208533698e-01,-2.074068534439948985e-03,2.002928788162519798e-03,-2.529958779251421323e-03,1.940369174266104316e-03,3.155394494533538818e-01
-3.128744430254354891e-01,-3.130312912023985317e-01,-4.633876981125911731e-03,1.197491466217425740e-03,-1.231887469143906318e-03,5.673425074317466413e-03,3.084899187088012695e-01
-3.002891509742752207e-01,-2.684629300658902262e-01,-2.435301520100380257e-03,1.772560530726052580e-03,-5.697789350987711096e-03,5.208037142656028913e-03,2.836167216300964355e-01
-3.162965264326683679e-01,-3.259107082408976286e-01,-5.389820309457948877e-03,1.345462889077685565e-03,-1.524813774573723600e-03,9.927250618486196162e-04,3.158478736877441406e-01
-3.143480568001376652e-01,-3.215580374249661366e-01,-2.342287406171511543e-03,1.654900380059579350e-04,-2.462121365477631940e-03,1.409546663991709074e-03,3.157109022140502930e-01
-3.153587334714876289e-01,-3.163507961787943579e-01,7.733018288762216752e-04,5.182655082216803015e-04,-2.319173891740603779e-04,9.297776061833541760e-04,3.166348636150360107e-01
-3.167832714054480969e-01,-3.170158756667534883e-01,8.614283533212030441e-04,9.134733574769210440e-05,-4.729003737919908515e-04,4.006940028651993931e-04,3.177629113197326660e-01
-3.209689464058884667e-01,-3.158283050905015266e-01,-2.630718635975443087e-03,-2.296284866672502318e-04,2.238192809531733274e-03,-3.120384889290863956e-03,3.158695697784423828e-01
-3.164122692622255428e-01,-3.159883560986235240e-01,-4.141797322541079795e-03,2.891712318981488634e-03,2.222456646827684310e-05,-8.067232059914510771e-04,3.121020495891571045e-01
-3.172231567279246711e-01,-3.188443567882813801e-01,5.869756297490202890e-04,6.778719459016329827e-04,-8.140750237910174833e-04,2.531339463993717434e-04,3.186294138431549072e-01
-3.165274478915441891e-01,-3.177021218623291010e-01,1.249139858919168233e-03,1.406853346251857925e-03,-1.704168634627804130e-03,-6.449699647911381049e-05,3.183885812759399414e-01
-3.154238731470656032e-01,-3.142090285541649930e-01,-7.422045042031200079e-04,7.011930431052664468e-04,-3.471727170712094173e-03,2.333818799312918895e-03,3.141619265079498291e-01
-3.155540642045132071e-01,-3.155196904439689920e-01,-5.891567318250967578e-03,6.089230274440515182e-04,-5.410420854150667716e-03,2.711379497619473711e-03,3.098244667053222656e-01
-2.636782976238437048e-01,-2.684407556268895156e-01,-2.779178171210988646e-02,-5.589327870924083556e-03,1.343129993435567514e-03,-3.500287747287433252e-03,2.385883927345275879e-01
-3.115182944255728836e-01,-3.132384296702096504e-01,3.471776612272464702e-03,8.090612662305434952e-04,1.155008265312416579e-04,-3.911024417039245184e-04,3.158575594425201416e-01
-3.149659090651256710e-01,-3.151091184369784193e-01,2.390214539376517289e-03,1.438268393415762132e-03,8.025794314693342072e-04,-1.072439098673553604e-03,3.174459934234619141e-01
-3.155295276992426401e-01,-3.159120039864735663e-01,3.749983880994289809e-04,-8.451189365747899533e-05,-5.395960744033595250e-08,3.729633501940875142e-04,3.160966336727142334e-01
-3.174604510635781196e-01,-3.191613889568646889e-01,5.220684596477787043e-04,1.895378421499592471e-03,1.366449626111922123e-03,-2.076590993804197042e-03,3.188823461532592773e-01
-3.036054022292309362e-01,-3.012933860136101094e-01,-7.078408153387782953e-03,-4.272396710958875675e-04,-4.953095754459329453e-03,2.949684894519185446e-03,2.955474257469177246e-01
-3.180617432076482398e-01,-3.137957286882271934e-01,-3.050009995986063815e-03,-5.966614080171214578e-04,1.285827554762720862e-04,1.028922716828233963e-03,3.129073977470397949e-01
-3.115534684192273196e-01,-3.130342492647583130e-01,-3.319332822614345924e-03,2.625876910674638208e-03,-5.014961626979171343e-04,5.514168970283126262e-03,3.091594278812408447e-01
-2.653374149325592457e-01,-2.904108644041308862e-01,-1.071824228041717841e-02,-6.072056601616761772e-03,-1.078562203465118115e-02,7.327668635986364989e-03,2.691922485828399658e-01
-3.069762803928458572e-01,-3.046148143439763034e-01,-2.679490029897368952e-03,1.468614643289816628e-03,-9.016644860514912022e-04,2.663121499801291672e-04,3.031380176544189453e-01
-3.097339595463780015e-01,-1.877964638410228593e-01,-3.741520922270522020e-02,-2.513371594700332737e-02,6.327183786258431739e-03,-6.174173113182358265e-03,2.407279759645462036e-01
-2.240546294850472298e-01,-2.349589285076122414e-01,-2.018033618908721127e-02,-3.027839517660853297e-02,2.617156645425197051e-03,-1.564932209253181621e-03,2.160670608282089233e-01
-3.246655310901895852e-01,-3.156415755828786973e-01,-4.219491177877149335e-03,-8.854700957345069826e-04,1.842083877227340954e-04,6.802255819598781962e-04,3.160367906093597412e-01
-3.199926989106128827e-01,-3.182404567000537421e-01,4.244153820041340897e-04,-9.982849258422237405e-04,1.034451013796823093e-03,1.434363135338805181e-03,3.195639550685882568e-01
-3.166047686436002651e-01,-3.153406229360685709e-01,2.098001956102657495e-03,-2.282183269304131369e-04,4.951682902929889062e-04,1.151836786346452195e-03,3.180802464485168457e-01
-3.187262156922365808e-01,-3.186506316562215391e-01,2.821488286591511407e-04,-7.638579176210285888e-04,5.883974451116012749e-04,5.523869504914405253e-04,3.189763724803924561e-01
-3.486727052627014434e-01,-1.898030267523867498e-01,-4.855113877150538104e-02,-3.045363785437044113e-02,1.241326759690204035e-02,-1.182746541551537960e-02,2.670140862464904785e-01
-2.710501867821112909e-01,-2.678749400871872632e-01,-3.294357862391003589e-02,1.518579779930346371e-03,1.697652334678439925e-03,1.146997703012034731e-03,2.365762144327163696e-01
-3.147478480449179550e-01,-3.137818532823865025e-01,-2.634755549608264191e-03,1.025052011186350874e-05,1.865300457612112340e-03,2.835450412826665857e-03,3.116866648197174072e-01
-3.124444368152985430e-01,-2.038831269164553539e-01,-3.974765489630119331e-02,-1.821504753621678435e-02,4.321079154316250230e-04,-7.304916776470843191e-03,2.402098774909973145e-01
-3.302349950125676448e-01,-3.159496237580264877e-01,-5.872670998269186038e-03,-9.111719532584237023e-04,5.985608436013414944e-04,4.147835732815840994e-04,3.174672126770019531e-01
-2.582666649038027895e-01,-7.745380492253062243e-02,1.017072683969155733e-02,-5.751942592997476289e-02,1.470374209155249313e-03,2.707939812561964248e-03,2.572332322597503662e-01
-2.234767786865289874e-01,-8.430113580011677765e-02,2.269097665522215590e-02,-7.076247530301810196e-02,-1.079795642388072484e-02,2.119133637233283629e-02,2.498536705970764160e-01
-3.264599972077703027e-01,-3.158676972905416491e-01,-3.405384059663507657e-03,-9.848631752190279733e-04,5.273639088704752849e-04,1.006665006699406775e-03,3.179015219211578369e-01
-2.769815090554729187e-01,-1.616877189472466503e-01,-2.264023578887605637e-02,-7.784510332063168669e-02,8.671360845515196621e-04,-1.091839345880906038e-02,2.592250704765319824e-01
-2.918324392369902043e-01,-3.193082659302894921e-01,-4.458442666069548088e-02,4.993545949523858080e-02,-2.755197602348473732e-02,-2.886140025542633866e-02,2.844938933849334717e-01
-3.232523895568576999e-01,-3.152467092814640881e-01,-2.118925768692353495e-03,8.783684477292358784e-04,-3.412782316711519153e-04,-1.639290450522956025e-03,3.172233104705810547e-01
-3.266932093210069832e-01,-3.155135595244321078e-01,-4.799284884591942246e-03,-4.192413044396224846e-04,5.374495982616186952e-04,4.458336725184861298e-04,3.164553940296173096e-01
-3.236261687342155691e-01,-3.397296344757148034e-01,-4.597882773483580321e-02,9.394332275286940842e-03,-2.737357084537219917e-02,-2.085059981066726340e-02,2.926352620124816895e-01
-1.108284321648838056e-01,-1.899720720792048290e-01,3.315219165045377170e-02,8.525224278489880458e-02,-9.069137106223061932e-04,1.100994944436342951e-02,2.460878789424896240e-01
-6.561908951636415133e-02,-2.352941281312087296e-01,8.386175492895139860e-02,6.349957432315112005e-02,-7.546306022367234821e-03,-5.428207301772586951e-03,2.980824410915374756e-01
-3.023135789296043097e-01,-3.000251278041073943e-01,8.000135129677121704e-04,-5.934352402059679763e-04,1.155053188295713075e-03,2.066781442353922763e-03,3.020054697990417480e-01
-1.627071666339809652e-01,-2.023679569135804213e-01,2.864668800844985541e-02,9.274682162166619781e-02,-3.888171843892321202e-03,-1.471654227253846141e-02,2.688485085964202881e-01
-2.838119669390107846e-01,-3.160968507420168772e-01,-4.246236701470509911e-02,5.007282176079318192e-02,-2.663059539697804068e-02,-2.776686613741743623e-02,2.811517715454101562e-01
-2.978749518117818074e-01,-3.001686476767429501e-01,-2.138301580242629729e-02,-1.536189671708703720e-03,5.190577510277430591e-03,-5.893557006345854186e-03,2.779916226863861084e-01
-3.312096424283644813e-01,-3.172169287078627775e-01,-7.107552049700233132e-03,1.104246883989436418e-04,8.549481473571316111e-04,4.213603307508730376e-05,3.173407018184661865e-01
-3.177938334748775517e-01,-3.146052282008900414e-01,-3.753953904151924315e-03,2.210172314291786926e-04,2.092525136448041207e-04,-4.207975903963305335e-03,3.125432133674621582e-01
-2.960865080829168106e-01,-2.972337797721246178e-01,-5.056223887638128245e-03,-1.217479358867049619e-03,1.961454285202836236e-03,-3.862245414579159892e-03,2.917097508907318115e-01
-2.953039775033849956e-01,-2.983343579598163875e-01,-1.432483404169890284e-02,3.349792883007507373e-04,1.491622593691815934e-03,-4.722014069789969015e-03,2.826372981071472168e-01
-3.183948253473535273e-01,-3.140965341350955842e-01,-6.917367563852860890e-04,-5.212140521915386351e-05,1.128202701145265135e-03,-2.935453352180158928e-03,3.156229257583618164e-01
-2.867439700099976285e-01,-2.889143230672910900e-01,-1.973236406016615208e-02,-4.500437055055620797e-04,2.255852114884715053e-03,-3.712697134213912165e-03,2.682100832462310791e-01
-2.898453538352197545e-01,-2.925554466774181184e-01,-3.552574100308680816e-03,-2.232106823212742959e-03,5.826746649740282245e-03,-5.426773548861604790e-03,2.880137562751770020e-01
-3.227592940260385346e-01,-3.193617544038522826e-01,-6.093893994378762891e-03,-2.873643169492819463e-03,-3.170845744762745225e-03,-4.693107363218782489e-03,3.151724040508270264e-01
-3.223174223812889649e-01,-3.129749110632595865e-01,-5.261493911167203219e-03,4.404168643777742892e-03,1.763220278126690537e-03,-3.895082301616832761e-04,3.125981688499450684e-01
-3.196454512604042231e-01,-3.174801094678926239e-01,-4.429606610937386613e-03,-8.515087419462822509e-04,-2.263487511139821232e-03,-4.334916088204840423e-03,3.142563998699188232e-01
-3.087545672294629284e-01,-3.087139524736667306e-01,-6.304231520490227725e-03,8.346762807847931374e-05,-4.065634428914960234e-03,-4.111198111511317477e-03,3.025958240032196045e-01
-3.135138213720090605e-01,-3.121854319088935292e-01,3.120643511940413006e-03,-9.413669581949237481e-06,5.071995860741999743e-04,-8.616678989348304247e-04,3.159770965576171875e-01
-3.193922894040124305e-01,-3.177190755216803275e-01,-3.187983205282546306e-03,-1.438302384143133562e-03,-9.453033243440551797e-04,-2.874132450629364281e-03,3.154244124889373779e-01
-2.938665369480117917e-01,-3.004553830423228877e-01,2.320124701565645653e-03,1.584456469939988761e-03,-7.440844475345357971e-03,-4.320078048674667361e-03,2.999184727668762207e-01
-2.983846295354571909e-01,-3.011096780000379058e-01,-1.376991576263586481e-03,4.649814708858506559e-04,-3.270762427265626500e-03,-4.314494669537273161e-03,2.985278964042663574e-01
-2.642559312739370947e-01,-2.661751386930972796e-01,-2.688276907573630692e-02,5.105688735516593531e-03,2.278820455211760191e-03,4.398579917562843097e-03,2.386568635702133179e-01
-2.669750967574170408e-01,-2.607847542539557528e-01,-3.300556249982752877e-02,6.005512260262515709e-03,2.264234103650856512e-03,7.174687529740458218e-04,2.312073409557342529e-01
-2.766138534975906560e-01,-2.773337470257285498e-01,-3.360536040091693932e-02,6.770240264096067349e-04,1.537849425709783818e-03,2.814957982878163283e-03,2.434354722499847412e-01
-2.788265212704799656e-01,-2.803872221645510865e-01,-4.547621877830779202e-02,7.143045588228866434e-03,1.078832400291758562e-03,3.308053331430625492e-04,2.344693541526794434e-01
-3.137726886878323684e-01,-3.117286208575375528e-01,2.916884525486440616e-03,-5.624050670526059602e-04,3.916502036417523927e-04,7.102261578799740679e-04,3.156771361827850342e-01
-3.224495683051094019e-01,-3.162932519842545087e-01,-2.559531879605725369e-03,-1.563614936654391047e-03,2.970383182064360926e-04,1.178993981502991870e-03,3.168753087520599365e-01
-3.149335086829541108e-01,-3.151958818176757160e-01,-5.797848903944496923e-03,-1.278732057506683749e-04,2.792744506771457046e-03,7.650787843057723281e-04,3.093076646327972412e-01
-3.124634864251121802e-01,-3.675964621194742765e-01,-9.297070943378624164e-02,3.323006694227750163e-02,5.185047034440249530e-02,7.727186977593559743e-04,2.733092308044433594e-01
-4.736923207266192648e-01,-4.530467729874571581e-01,-1.314656976585771853e-01,2.405597075607136121e-02,7.391356935636171632e-02,1.294622787405043905e-02,3.593165278434753418e-01
-3.239572999381903351e-01,-3.166785483659055878e-01,-1.054727753762516040e-02,-2.540942078713040453e-03,7.531762242484903690e-04,2.109582719408670693e-03,3.098903298377990723e-01
-3.616428590755481620e-01,-3.572011933094013658e-01,-1.194064182956847686e-01,6.597658262577860665e-03,4.791652224280871196e-03,-8.466453301092718986e-03,2.409082800149917603e-01
-3.115185005070483792e-01,-3.130135473133007773e-01,-4.569803420671036953e-03,-8.025294126827179275e-04,7.597168999718365446e-04,4.651188865702196237e-03,3.078103363513946533e-01
-3.386080668863206689e-01,-3.370480481652686211e-01,-1.097611472013923783e-01,-1.485562099494208178e-03,5.450780247056107681e-04,-7.075946586237310057e-03,2.284164130687713623e-01
-2.662450807713967471e-01,-2.817394368995088660e-01,-3.159940502191269096e-02,1.557671339029324115e-02,7.651146659274109425e-03,6.383729406764623165e-03,2.448675781488418579e-01
-3.285847675517039601e-01,-3.286503217223583628e-01,-1.197018376361669301e-02,1.906419765968188525e-03,-5.974042769129277565e-04,3.811760785997960269e-03,3.167350888252258301e-01
-3.242757911265091719e-01,-3.152640989494426838e-01,-2.657649821543955904e-03,-6.418905007019830170e-04,5.268487454599775008e-04,1.005681630762303739e-03,3.172163665294647217e-01
-3.826441889160040466e-01,-3.693191022974718907e-01,-1.207327053893279822e-01,1.736172951378371285e-03,1.281925910637247458e-02,1.324756716283150178e-02,2.575145065784454346e-01
-3.180309178563360817e-01,-3.131416434666956516e-01,-4.366167413870414293e-03,4.442828240751788634e-04,5.304363663913440373e-04,-2.694301361436523146e-03,3.112862110137939453e-01
-3.153591563496105921e-01,-3.130808398845435492e-01,-3.913036161514449329e-03,1.945437629720327914e-03,4.928611388708314294e-04,-4.660845518714684318e-03,3.104376792907714844e-01
-2.787414677228949866e-01,-2.736127585331532552e-01,-3.899446546110812983e-02,1.144751557232325445e-03,-1.822478206049639796e-03,-8.673010140459193849e-04,2.372582703828811646e-01
-3.182211397398632680e-01,-3.193107512798828984e-01,-9.104685666428441460e-03,-1.470009483841701716e-03,4.905201908733597578e-03,4.183174254322108085e-03,3.098744153976440430e-01
-3.070512696151629362e-01,-3.240950701158612501e-01,-1.939176330854910923e-02,4.923739235953966112e-04,1.400807429927611097e-03,8.950241070557420422e-03,2.969650328159332275e-01
-2.079846916990327199e-01,-3.003286945469453850e-01,-3.566645887951985783e-02,-2.025897591775551940e-02,3.110612639350214710e-04,-3.320085446890440849e-03,2.353681772947311401e-01
-3.231874799602193482e-01,-3.150219644267792107e-01,-3.657584840514066515e-03,-6.270546173548401450e-04,4.871479829143030124e-04,9.846811608727927892e-04,3.155339956283569336e-01
-2.784464554206987907e-01,-1.164146840901404550e-01,1.241822727545111027e-03,2.748912662637856968e-02,1.609180815557944427e-02,5.565204431772745319e-02,2.673886418342590332e-01
-2.983397996835830956e-01,-3.104764756676881010e-01,-1.158623476875009217e-02,5.712055644066651528e-04,1.368478491872365116e-03,5.318696687955799460e-03,2.931665182113647461e-01
-3.225712462187209084e-01,-3.143687770486135458e-01,-4.734934256848954970e-03,-1.314616798005813995e-03,-7.299464606701935952e-04,8.012159444182179787e-04,3.138293623924255371e-01
-1.825948161007480697e-01,-2.637270006043597737e-01,-1.080754610040285391e-03,-5.357273525427723448e-02,2.544957273611282364e-02,-1.098039981530497984e-02,2.552866637706756592e-01
-2.402351627066078577e-01,-3.908258758941889344e-01,-4.744873496409551805e-02,-1.362130828627837464e-01,5.714101694139014920e-02,-4.141617748215374421e-03,3.929182887077331543e-01
-3.274780340337821727e-01,-3.164016860346665627e-01,-6.347223949053765191e-03,2.014600959773115655e-03,-9.726097116785723407e-04,4.484851874208726987e-04,3.157631158828735352e-01
-1.277754790977576604e-01,-2.700773806405651900e-01,-1.163968182786805083e-02,-3.451027847754710443e-02,8.924574942970902756e-04,-3.931142407704389663e-03,2.321321368217468262e-01
-2.824727149281837657e-01,-4.410293468454554722e-01,-4.631266942806352982e-02,6.584892610492758258e-02,4.124994376662194373e-02,1.928118653962761914e-02,3.709241449832916260e-01
-2.468362518772748704e-01,-3.628987761758386554e-01,-5.633941208591028427e-02,-5.432312745326040720e-02,3.437602783338372658e-02,-2.292077740335860328e-03,2.903153598308563232e-01
-3.326198957569374004e-01,-3.194249886908965830e-01,-1.121859686091661312e-02,-4.080257523735636995e-06,-7.465186982128287508e-04,5.082716482414622716e-04,3.150150477886199951e-01
-1.994595288761098206e-01,-3.289292795791665114e-01,-2.243449094627952833e-03,-1.259397388532357553e-01,4.705078941710759410e-02,-1.990443313828709621e-02,3.695977032184600830e-01
-1.494598700196045626e-01,-3.276111507658595601e-01,-2.122028572747994279e-02,-2.056045562550626316e-02,2.436816102319184357e-02,8.941706372741671516e-03,2.726147472858428955e-01
-3.190223308822501269e-01,-3.151810612586780080e-01,-4.878503010057044786e-04,1.394474297559781650e-03,3.441988262016220778e-04,-1.312365945020432800e-03,3.166492581367492676e-01
-1.937510961298998802e-01,-2.948504657199969570e-01,-2.846501354910749293e-02,1.773372699940474776e-03,-9.531842120596865833e-04,-3.059683685382488718e-03,2.330045849084854126e-01
-3.222710219229160122e-01,-3.215323098688369630e-01,-7.737296510288121931e-03,8.338431975946857498e-04,3.980816762688487538e-05,-2.366951892476183619e-03,3.141950964927673340e-01
-3.214733081247597157e-01,-3.142479105275820528e-01,-5.220417416840095193e-03,-4.493241046168108431e-04,1.620862884788440688e-03,1.132353620745219338e-03,3.127225339412689209e-01
-3.065179217318731442e-01,-2.939037581550437706e-01,-6.588844080011868609e-04,3.096157411470911369e-04,3.447866745936373385e-03,5.924342736658681080e-03,2.999866008758544922e-01
-3.135001317859110181e-01,-3.249960871434280363e-01,-1.078640922463222629e-02,-6.748883867673145798e-04,-3.934283636118080093e-04,3.180885383601794042e-03,3.086744546890258789e-01
-3.151173131992804355e-01,-3.210511950136429316e-01,-2.701980600033293545e-03,-2.690177829711761295e-03,1.072430206544555415e-03,-2.313835373177078073e-05,3.154640197753906250e-01
-3.285304988251478986e-01,-3.185477869633344117e-01,-6.059357366824197344e-03,1.272966050516155436e-03,3.429159196402794619e-04,-7.811028718142533746e-04,3.176085650920867920e-01
-3.010319774598981812e-01,-2.999372132493502985e-01,-2.442017947629826491e-03,-2.624247598612656097e-03,7.432888523482291711e-03,-7.435848415762125359e-03,2.986344993114471436e-01
-3.155394844052988312e-01,-3.225398875846176017e-01,-9.866957630340900121e-04,-1.200989558619261922e-03,1.386971751841367239e-03,-9.056032274176391056e-05,3.181266784667968750e-01
-3.450715632569725799e-01,-3.367366062262621140e-01,-6.509394818959315931e-02,4.085074975724703461e-03,-8.813252606059397698e-03,3.954572788356229204e-03,2.765019536018371582e-01
-3.206995461557686777e-01,-3.154430015894574835e-01,-1.483807114006002736e-03,5.938546952436053045e-04,-1.192994520905196130e-04,-1.229884556688492061e-03,3.166291117668151855e-01
-3.383585375170854448e-01,-3.316289783905277955e-01,-1.037080886045646799e-01,5.806494357979279401e-04,1.376706947326815540e-02,6.308311057033383698e-03,2.328433394432067871e-01
-3.207164969621749684e-01,-3.316173001139741672e-01,-1.028155757746723742e-02,-2.166399561769958085e-03,-4.674143581188106825e-04,-1.252049169108511570e-03,3.160571157932281494e-01
-3.190901606498453003e-01,-3.157196083150304866e-01,1.833758419087228031e-04,1.030048915566244552e-03,5.634013609554892447e-06,-1.133192862686699300e-03,3.176127374172210693e-01
-3.187610573260559188e-01,-3.158231007740157636e-01,-4.339243697076167194e-03,6.342582807015386846e-04,8.433019030137116259e-04,-4.629673244400488510e-03,3.130712211132049561e-01
-3.160775344310146617e-01,-3.152487267418606076e-01,1.620469017205472539e-03,6.805915115491876968e-04,3.800889174086203139e-04,-7.350156892764424504e-04,3.172898292541503906e-01
-2.226293052808284434e-01,-2.300651665088206399e-01,2.970844435829914087e-02,-1.578833805489402442e-01,2.832033990814947222e-02,-2.739701240388205811e-02,3.808482289314270020e-01
-3.156648145234157710e-01,-3.244064266893848525e-01,-2.842738647079345871e-03,-9.640656777252876262e-04,1.593421570417463727e-03,-8.886210104322800145e-05,3.172996342182159424e-01
-3.189214901383111700e-01,-3.301027070007406805e-01,-6.476275093570904584e-03,-1.050795651216092320e-03,1.928470493860133235e-04,8.322607193815988093e-04,3.181918561458587646e-01
-3.123154362751245916e-01,-3.103764368153372200e-01,-2.838403948583340108e-03,1.013531606762012836e-03,5.182126796527110335e-03,-3.987851284269576784e-04,3.086484074592590332e-01
-2.715352819443714871e-01,-2.943033546087099328e-01,-5.051863912206011609e-02,-1.588369350665390020e-02,6.625340078804120743e-03,-6.962558735511227212e-03,2.354418337345123291e-01
-3.065798704557191612e-01,-3.054412577256893080e-01,-9.709868732156179405e-03,4.551150784535771534e-04,4.069085847860233474e-03,-1.679404342258970307e-03,2.964014708995819092e-01
-3.193300171080768468e-01,-3.178089986990760285e-01,-1.800697826323638395e-03,-2.283646558503109499e-03,3.133923039276727100e-03,3.045813967191255550e-03,3.168866634368896484e-01
-2.995142090282487124e-01,-3.023374942672208410e-01,-5.292420199638436795e-03,1.039450958641760948e-03,2.441975731977816776e-03,3.169746077214217420e-03,2.957302331924438477e-01
-3.094886192282420012e-01,-3.117662782591464343e-01,-4.501546755953933499e-03,-1.743993819689689494e-03,1.195781078534378580e-03,4.986773662623755245e-03,3.062759935855865479e-01
-3.065036809889559732e-01,-3.025103759426133188e-01,-7.500843333621082243e-03,5.043261052429293166e-04,3.887075978433052279e-03,1.990327098331905187e-03,2.971239089965820312e-01
-3.145082847775694246e-01,-3.187371979231730101e-01,-7.460813001835264746e-04,5.730569054914141187e-04,2.400321856051259792e-03,-1.902160672347051910e-03,3.159439861774444580e-01
-3.111518858242268704e-01,-3.122569195695309441e-01,-3.859220299975263391e-03,-6.598073122831377103e-04,2.698611095063452401e-03,3.748250983827240441e-03,3.079527020454406738e-01
-3.194538013025556289e-01,-3.271784092563767010e-01,-3.178673152528938006e-02,-4.641102582786924002e-03,-9.350632457425552945e-04,2.824772973028473900e-03,2.917624115943908691e-01
-2.823434723352945541e-01,-2.850521233239858843e-01,-1.368444214098291090e-03,8.682020455542109605e-03,8.226234554151300171e-03,9.605121700864669571e-03,2.835864722728729248e-01
-3.330978869261003172e-01,-3.160882076459241574e-01,-4.149241192799826838e-02,-2.158380169130134918e-03,4.075743333947109384e-04,-8.655902445081779849e-04,2.835131287574768066e-01
-2.718023281129483548e-01,-2.947905417968420538e-01,-2.517935250151848159e-02,3.607439403690676418e-03,1.343055952402960000e-03,7.305803778601553493e-03,2.592785060405731201e-01
-3.180722597325882917e-01,-3.186369997411423460e-01,1.282939668607541162e-03,-2.576808663342463734e-03,1.672474053044698591e-03,1.771362929108128391e-03,3.196969628334045410e-01
-3.056081130090396170e-01,-3.313739211766385528e-01,-1.898906550428208773e-02,7.698409180775896664e-03,8.678492179630752437e-03,6.140789551313211025e-03,3.011913001537322998e-01
-3.203644183249250155e-01,-3.192255792608738041e-01,-8.691787357629210398e-03,-3.844089981023105385e-03,6.523348243667553793e-04,1.970014248206723370e-03,3.111967742443084717e-01
-2.909520806718725039e-01,-3.032891487342955772e-01,-1.148056717465886778e-02,6.170432507392499544e-04,1.331473889776020559e-03,7.899170119669939386e-03,2.861783504486083984e-01
-3.247690166941870071e-01,-3.134727456499560860e-01,-6.423303285117532013e-03,-9.856268154794574788e-04,3.793862243755951463e-04,3.494310583715521485e-04,3.128564953804016113e-01
-3.160378032336802478e-01,-3.176045764994847032e-01,-7.018536488285986863e-03,-6.519739433279748975e-04,2.897486546052455429e-04,5.161696564712680603e-03,3.099370598793029785e-01
-3.584682568054394225e-01,-2.302221070031739147e-01,-1.594032270258635697e-02,1.204833520925743112e-01,-1.031004789899210052e-02,-2.545032975495574099e-03,3.656933307647705078e-01
-3.166905500735595624e-01,-3.232711176194409397e-01,-3.513533122742967807e-03,2.561772863356468269e-03,-1.285448750116326491e-03,6.212657010412678650e-04,3.165593743324279785e-01
-3.134019764159112764e-01,-3.144876380524866955e-01,-5.471319456293838313e-03,-1.377608844159772467e-03,6.206916291129568625e-04,4.426059238257202579e-03,3.085812628269195557e-01
-3.171468855717567426e-01,-3.170646776039853232e-01,-2.955620933049712962e-03,-2.754766398346744118e-03,1.412835054016397130e-03,1.382066303128787199e-03,3.142050504684448242e-01
-2.831838745910010835e-01,-2.775363611008538900e-01,-2.676629974684999191e-02,2.842261003463714998e-03,4.535375085581850978e-03,1.882921799154127279e-03,2.538312971591949463e-01
-3.008224679453123107e-01,-3.295454049073655578e-01,-3.638633233699989367e-02,3.572549489997963595e-02,5.443341911182203452e-02,3.027221138544575890e-02,3.062907159328460693e-01
-3.166591604832926232e-01,-3.231746236283732920e-01,-3.109738181385851563e-03,2.611756466553755499e-03,2.593652176294084801e-04,-6.090205132899017323e-04,3.168917596340179443e-01
-2.473244300998909684e-01,-2.741038538162731686e-01,-3.300349766820043218e-02,7.244130983733891756e-03,3.163967551345623404e-04,2.278141556239253462e-03,2.292668670415878296e-01
-3.050135579682423659e-01,-2.618578348278215451e-01,-9.057388845993746829e-03,-6.068667613728129760e-03,-5.146147300186308757e-04,2.239209943954989165e-02,2.798137962818145752e-01
-3.091293255297038467e-01,-3.093196558371042459e-01,-3.743288806898253940e-03,-1.497021694195821125e-03,9.265449794042099254e-04,4.688275452837952460e-03,3.056043684482574463e-01
-3.228157756360390263e-01,-3.245546327113229546e-01,-9.990743514264210923e-03,-6.109047711935901119e-04,7.119853713109822266e-04,-4.898540031198095161e-03,3.138169944286346436e-01
-3.321416248791821402e-01,-3.193833781822817963e-01,-1.190614883897739285e-02,-3.821016151617779959e-04,-1.196651396369664703e-03,-1.880663896617216428e-04,3.140584826469421387e-01
-2.522836411616196095e-01,-2.593399942097368016e-01,-2.100773657416876716e-02,1.352810645527816914e-02,7.281636179026260147e-03,7.547767687787924201e-03,2.367473393678665161e-01
-2.650181506504213358e-01,-2.472790467637873135e-01,-2.213093751632061457e-02,8.224332145779521264e-03,4.616635173753027600e-03,2.738309207100174652e-03,2.351374626159667969e-01
-2.797877508640521094e-01,-2.982799407150183435e-01,-3.657524238075088308e-02,1.128432653546817578e-02,8.251025989413402276e-03,7.673081919339462195e-03,2.544694244861602783e-01
-3.124859967492358281e-01,-3.141913660287968812e-01,-5.959754510926951188e-03,-8.191772268196648643e-04,8.045136198590760413e-04,5.075757781460979445e-03,3.075146079063415527e-01
-2.839234617376868997e-01,-2.681392960360683420e-01,-4.125339250151857651e-02,1.703183327978367509e-02,2.628858478818585885e-03,1.417542856308893519e-03,2.370750308036804199e-01
-3.003571322469829052e-01,-3.321066810521912105e-01,-1.866994309991570899e-02,1.954327895032969675e-03,-1.923477854874968904e-02,1.328447495168764026e-03,3.007088899612426758e-01
-2.983246849550432178e-01,-3.898855526588450027e-01,-5.505094772736995878e-02,-9.408088889134066934e-03,-5.425469129660760031e-02,-4.067967889617087052e-03,3.146200180053710938e-01
-3.201658262259651222e-01,-3.248158812143601137e-01,-6.233509463941824813e-02,-3.144271242479767733e-03,9.462281994303410777e-04,2.688720716010468384e-04,2.602494955062866211e-01
-2.041931722239640479e-01,-2.669328146897446130e-01,-2.353422803134935792e-02,-2.425647804383701187e-02,4.358830980803711855e-03,-6.211886383506737448e-03,2.232628166675567627e-01
-2.981259155596173160e-01,-3.139010814285129181e-01,-2.146836070182289724e-03,-6.183016923926736063e-04,5.753176364777894125e-03,-5.321386961440507067e-03,3.044782280921936035e-01
-2.443350911212076038e-01,-2.736853595722025245e-01,-3.501700311305475100e-02,7.486633889566583940e-03,1.318080112250603463e-03,1.565734564370345645e-03,2.258312553167343140e-01
-2.760317020991008841e-01,-2.665142490595892588e-01,-3.833876437063316045e-02,3.408887210670846855e-03,2.100975122896903309e-03,4.999577679819622962e-04,2.331847697496414185e-01
-2.989639680565321922e-01,-3.036193587787553994e-01,-6.847451062450271575e-04,-4.009780587758368539e-05,-4.741256785587722594e-03,-5.652830616022532645e-03,3.009054362773895264e-01
-3.197642130496420876e-01,-3.873304042049631191e-01,-4.926094342344861099e-02,2.722717411343817187e-02,-2.811993580798857750e-02,-1.598491114204369026e-02,3.183972239494323730e-01
-3.061120806436982700e-01,-3.092491381212996160e-01,-6.018546040464617386e-03,1.513144795186210402e-03,1.789929907808121643e-03,-5.137551950208308488e-03,3.018327951431274414e-01
-3.191756471206788071e-01,-3.158829335460156540e-01,-5.682445454357698544e-03,5.470091044969608825e-04,6.248054883986231718e-04,-4.407551104244541822e-03,3.119566142559051514e-01
-3.253468055797564817e-01,-3.194751838573753333e-01,-4.867295400068000211e-03,3.191424484980065653e-03,6.292808888911563927e-04,-1.724531353664471474e-03,3.176484405994415283e-01
-3.247371646807154510e-01,-3.179686076345391021e-01,-5.279162833396688903e-03,3.388029025904113357e-03,5.079949928780738136e-04,-1.297737759221311016e-03,3.161917626857757568e-01
-2.905748579999457015e-01,-3.051796780522395558e-01,-1.407260096872584021e-02,-1.953533073997424860e-03,1.802749458006826016e-03,-7.443006562307378886e-03,2.844159901142120361e-01
-3.208159670297552335e-01,-3.251575577461358613e-01,-1.146615259012376264e-02,3.926613212635639803e-03,-3.098338275841315678e-04,1.177305089767569698e-03,3.116246461868286133e-01
-2.512626699140574349e-01,-3.103791398898535503e-01,-8.953850743353669595e-03,-1.382847996555856265e-03,-1.597290976037616175e-02,-3.654755375630012321e-03,2.781078517436981201e-01
-3.138398421413294281e-01,-3.144506308248350424e-01,6.253055022327758117e-04,1.727661221459287125e-04,6.332680177753501841e-04,-1.393850137397412538e-03,3.147822916507720947e-01
-2.677547846704479428e-01,-2.947462445919128982e-01,-1.095508886316592934e-02,6.687781581995858038e-03,-9.925007414767492500e-03,-1.005071773486365498e-02,2.726513743400573730e-01
-3.163338142074132442e-01,-3.158990402009400622e-01,-7.098550835877182053e-03,-1.870712639935214697e-03,-4.289035936060061130e-03,-2.711886956943843768e-03,3.091600537300109863e-01
-3.136150961925316949e-01,-3.102282576639129319e-01,-1.059524067009487425e-03,4.851552944087342886e-04,-2.565880516587921295e-03,-4.193070262121003852e-03,3.109937012195587158e-01
-2.869943994253975617e-01,-2.904463418677208919e-01,-1.049024438319573482e-02,1.135400200199203086e-03,5.663385836453769260e-04,-1.144786293148608754e-03,2.782619297504425049e-01
-3.038693064375183606e-01,-3.002954524764187560e-01,-1.693110912112033573e-02,3.271118691754512230e-04,4.532092855138946351e-03,-1.234163658311625842e-03,2.852846682071685791e-01
-3.067765381812873615e-01,-3.058826181165464342e-01,3.296630887603402282e-04,-2.732782976758228728e-06,1.042579442299005656e-03,-5.187553033089112309e-03,3.067971467971801758e-01
-2.992609965041455600e-01,-3.152200708362373760e-01,-2.766597479265470172e-03,9.571873513762089677e-05,-5.692704408919499644e-03,-5.548365575077733244e-03,3.050983548164367676e-01
-3.171125614694086936e-01,-3.274430333676416338e-01,-5.347706206875135759e-03,1.116119268928252983e-03,-1.070447816731611356e-03,-1.466346896922393606e-04,3.170677423477172852e-01
-2.954839087319662827e-01,-3.083915352214858796e-01,-9.034404320633543373e-03,-2.044063584959910848e-03,-1.126982513310078628e-02,2.436331931110140292e-03,2.938174307346343994e-01
-3.278832076001010343e-01,-3.097526084393835699e-01,-9.592290142610343517e-03,1.430718805674346950e-01,2.860943269099337771e-02,2.869576857133731423e-02,4.027425348758697510e-01
-2.914848061347150576e-01,-3.053120971723367605e-01,-1.000161881412578446e-02,6.498008510966688011e-04,1.365940546561452730e-03,8.045633599540117156e-03,2.889934182167053223e-01
-3.237664094085646038e-01,-3.294846417522118154e-01,-2.715456110757877295e-02,3.869797293658988960e-03,1.112400721221261032e-03,-1.134804022947973057e-03,2.995995283126831055e-01
-3.220237332473661618e-01,-3.154880517132842010e-01,-2.846649431665793095e-03,-4.384654271455019903e-04,4.639818226075282797e-05,-7.235289135859608719e-04,3.159633576869964600e-01
-3.772368833478379480e-01,-1.935701059541876934e-01,1.452518948425240986e-03,7.272295119322161328e-02,1.116761404655228912e-02,1.930752108971934070e-02,3.534753918647766113e-01
-2.508559233883407291e-01,-2.013880347545867200e-01,-2.007465700445743018e-02,-4.023151515615961543e-02,-3.551775073461833042e-03,2.610190640950179296e-03,2.218215763568878174e-01
-2.683856598980900454e-01,-2.867127949081522686e-01,-3.981942523384013333e-02,4.301096508657295883e-03,-4.229113569395999916e-04,-2.677198083705108374e-03,2.384217083454132080e-01
-2.617556596950217918e-01,-2.688113091646908703e-01,-3.270347863488842766e-02,4.928569852807570921e-03,-6.321853044087119480e-04,-2.200479407832912383e-03,2.328505814075469971e-01
-3.001245916470509090e-01,-3.317687630950268973e-01,-3.296229209974557706e-02,1.945730598977364958e-02,1.813069647960618286e-02,1.708959072284601394e-02,2.895328402519226074e-01
-2.894626816881927800e-01,-1.447113807947330577e-01,-1.117905850083222852e-02,-1.739797353153974989e-03,-7.596278733643052269e-03,4.327087026456434560e-02,2.528084218502044678e-01
-1.956646463528550206e-01,-3.013483827168456086e-01,-3.424316877245350832e-02,2.769071156680269572e-03,-2.770340855694186557e-03,-1.654486672454513448e-03,2.331090122461318970e-01
-3.278713476075363897e-01,-3.157741434437231209e-01,-9.293873071530484031e-03,-3.446531888290039255e-03,-1.287447769190368891e-04,-1.297177989498467590e-03,3.127695322036743164e-01
-2.793257075095634256e-01,-2.880421583593863466e-01,-2.781175725144294231e-02,3.212630087146349771e-03,-1.680549387273571000e-03,-6.697373250210215782e-03,2.563231289386749268e-01
-3.367891039759695060e-01,-2.482164902771640536e-01,-3.693412032249954180e-02,-3.599467122771309036e-02,-1.771235437424530448e-02,2.204889384018529630e-02,2.783624827861785889e-01
-2.965430769929753296e-01,-3.043211132286939291e-01,-1.535749806106295745e-03,-1.916515740650379281e-03,5.167306085343179554e-03,-7.620266531826868674e-03,2.994156479835510254e-01
-4.809708732269880604e-01,-3.994574129733471923e-01,-1.054088402360047749e-01,8.632227305045454824e-02,-4.250351496628635567e-02,-7.123220123778520319e-02,4.000928103923797607e-01
-3.086215223193378154e-01,-3.384052430521973798e-01,-3.391013802556316903e-02,1.417411502273942248e-01,-2.042521216797257497e-02,-1.260044610145800298e-02,3.827987611293792725e-01
-3.353546261902418668e-01,-2.474460393575917960e-01,-3.807308484746496635e-02,-4.572069304473583978e-02,-1.311333297736181833e-02,2.209512892102452955e-02,2.796823978424072266e-01
-3.822738896394722863e-01,-3.760672782031007078e-01,-1.002094731839940078e-01,3.120312000989746565e-03,1.461565122728941159e-02,1.737626151257175636e-02,2.818227410316467285e-01
-3.557589459068384863e-01,-3.636425264825305370e-01,-1.078467741069289720e-01,-1.552568509431787166e-03,-1.819125298558780775e-03,-2.209217527728041947e-02,2.548693418502807617e-01
-2.201959057432445743e-01,-3.448902250220209909e-01,-1.289321873534010621e-02,1.264641632545688843e-01,-5.264440026869615478e-03,-7.383748683350302433e-03,3.641411960124969482e-01
-3.215572529002272417e-01,-3.157741807897164188e-01,-9.706789260883424975e-02,-2.128106487769369488e-04,1.705822472387966430e-04,1.464884673630994149e-03,2.216694355010986328e-01
-2.950310025479193632e-01,-3.103179299051619378e-01,-1.411645602349839712e-02,-6.962689019762520384e-04,1.266368995965038661e-03,-7.184718997672741823e-03,2.891403138637542725e-01
-3.214036840772744874e-01,-3.261513675931951850e-01,-6.117465078503503406e-02,-5.450459644725152498e-05,-2.486488130686131861e-03,-1.792176488125094089e-03,2.626887261867523193e-01
-3.390852472890726887e-01,-3.388716222559856606e-01,-8.367399943119058214e-02,7.868771159314325719e-03,3.509401931005822622e-02,1.977761953057721039e-02,2.650176882743835449e-01
-3.014833960870180185e-01,-3.026897000135329030e-01,-8.608273863726922936e-03,3.761344959463540534e-04,-2.948214140255561722e-03,-2.911172915828798280e-03,2.935685813426971436e-01
-3.172059024160444607e-01,-3.269697871135235356e-01,-5.160148586116269920e-03,3.628568689109974580e-04,-9.286487012353740380e-04,5.314051325164487541e-04,3.170465230941772461e-01
-3.479757423472423783e-01,-3.357476425250774943e-01,-7.910989588829994701e-02,3.828909664619859626e-02,2.095597882862180322e-02,1.274553302795685197e-02,2.745061516761779785e-01
-2.556880758061072512e-01,-3.226739482283243476e-01,-5.212035406209108990e-02,1.448748217722744050e-02,1.839025524991842958e-03,9.127142635045516371e-04,2.453678697347640991e-01
-3.032898199566075870e-01,-3.328540863143975570e-01,-1.855668001627860941e-02,3.156229978602591735e-03,1.671819029891437151e-03,-6.859277219391329535e-04,3.006736040115356445e-01
-1.905497635273930845e-01,-2.900192008525748211e-01,-2.883055842842369154e-02,1.108996590209429360e-02,5.052018204427418703e-03,3.865570219232770423e-03,2.293986678123474121e-01
-2.151945486394540030e-01,-2.900531160595610225e-01,-2.124220167273238591e-02,6.468311534089167016e-03,1.365973291403285023e-02,4.767801455756569967e-03,2.418548911809921265e-01
-2.116043032939176338e-01,-3.034224358978336866e-01,-4.013275889574166588e-02,9.846717716016374286e-03,-7.897455016654514846e-04,2.326757682919881713e-03,2.321341037750244141e-01
-1.892649644122224584e-01,-2.936776080468764816e-01,-1.617855094708037234e-02,6.068713632622955989e-02,3.580024417777489393e-02,1.999658108562352155e-02,2.739099562168121338e-01
-3.133274948991197628e-01,-3.215145179116987162e-01,-2.669250058907862710e-03,1.509986818772613348e-03,-1.037831337335970699e-03,-5.698001133915291707e-05,3.148476183414459229e-01
-2.336630580938637292e-01,-2.850086910734438983e-01,-2.699770974569357107e-02,2.021149774433337459e-02,1.033204308718899296e-02,9.471484044373913030e-03,2.403605580329895020e-01
-2.088858741992648815e-01,-2.621606637264548567e-01,-1.983863244196906739e-02,1.568945382758155094e-02,-2.502319628075204503e-03,7.469306198350613487e-04,2.222778648138046265e-01
-3.255166510064294583e-01,-3.267994791084557482e-01,-1.834345653312072222e-02,-3.735843627672917958e-03,-1.669243148271816858e-03,-4.469985118924970236e-04,3.078991770744323730e-01
-3.809133305066087494e-01,-3.784468176008839446e-01,-5.858062526645543833e-02,-2.907982422604923640e-03,-1.609289746948911002e-03,-4.359220519478379172e-03,3.212468922138214111e-01
-2.663268127621251646e-01,-3.129824339843851888e-01,-2.805565065520546075e-02,-2.065511199706380682e-03,2.678270895807964656e-03,-5.554597362248764499e-03,2.649405002593994141e-01
-2.523978397494077153e-01,-3.212486258129646499e-01,-2.684011111203252198e-02,-9.204234795971161101e-04,1.016649530630676880e-03,-1.725015848741725654e-03,2.667604088783264160e-01
-3.070858077265232744e-01,-1.964160117865165200e-01,-2.088474538765602850e-02,-5.833905760509294769e-03,1.454096924026691134e-02,-6.119403692427902164e-02,2.728655338287353516e-01
-2.933040109000033535e-01,-2.950737582347033316e-01,-1.200793456219353961e-02,-2.216057727945950923e-03,1.747776842963032857e-03,-8.123734683952452476e-03,2.825779914855957031e-01
-2.998411652028602492e-01,-2.620482171004426819e-01,-6.330814834471620856e-03,-1.452658564195385841e-03,5.036149771341848214e-03,-1.012966373214494245e-02,2.772620916366577148e-01
-2.967654659754867530e-01,-2.887115949779659463e-01,-2.593797254659371831e-02,-2.137415009821026519e-03,7.237748594143910731e-03,-3.882986111796156697e-03,2.672962248325347900e-01
-3.064213187271650485e-01,-3.051495186644770374e-01,-1.151751063535816355e-02,-1.132855089998700219e-03,6.058326660177705200e-03,-2.985977369606643804e-03,2.945089638233184814e-01
-2.752971097760737451e-01,-2.783126548562080971e-01,-2.408148457190156799e-02,7.453012295615053014e-04,3.997493198291436622e-04,-1.533088131208310652e-03,2.527550756931304932e-01
-3.223240134510565458e-01,-3.230906254514561704e-01,-1.291251124277514872e-02,-1.824242364347608081e-03,-8.910895625374214493e-04,-4.719010044327597193e-03,3.099232614040374756e-01
-2.737014621838672057e-01,-2.709518366731458183e-01,-3.498051765057658136e-02,-5.379757984818680366e-03,3.253547884999630300e-03,-3.155552229262227528e-03,2.376706004142761230e-01
-3.165272982662098444e-01,-3.255406554446653722e-01,-7.107515366463895701e-03,2.205459643586865550e-03,-6.429981793343701475e-04,-2.221665400387049741e-03,3.140722811222076416e-01
-2.752935610990066007e-01,-3.007948787992853479e-01,-2.762470242807607557e-02,4.063501370402931162e-03,1.381658115622950034e-03,8.730030893293579466e-03,2.618968486785888672e-01
-2.408580194291227716e-01,-2.678396988424327496e-01,-3.019112191774861453e-02,8.322426862557344082e-03,-1.694710412706304774e-03,-1.496001236239022326e-03,2.258668094873428345e-01
-2.937076984871514473e-01,-2.805195089275316356e-01,-3.306752266223600412e-02,1.045064084027624678e-02,-5.628977916428833279e-03,-6.458441908167910327e-03,2.553775608539581299e-01
-3.131009616806789131e-01,-3.207107363079087503e-01,-3.694252062747066523e-03,3.012388972589994177e-04,-1.425276748318981927e-03,2.037788817646748497e-03,3.133109509944915771e-01
-2.848787708450182254e-01,-2.825846071105513890e-01,-1.147923221557448081e-02,1.054578747381580868e-02,-1.060735386328968619e-02,-1.059333927592391415e-02,2.741043567657470703e-01
-3.059795601247130570e-01,-3.101446575241717518e-01,-1.515308141343807424e-02,4.347927239769925397e-04,-1.806197354432772682e-03,-8.589299473654591136e-03,2.933264374732971191e-01
-2.924518947666930324e-01,-2.797007978091241576e-01,-3.266917605827521220e-02,9.795724854128294579e-03,-5.719573276861480288e-03,-5.950711999436499727e-03,2.546161413192749023e-01
-3.628253072631860143e-01,-3.517715762851073014e-01,-4.776922078641532288e-02,1.175139665802567117e-02,-1.132068587402801363e-02,-7.994930613532394079e-03,3.112723827362060547e-01
-2.525949801895999158e-01,-2.395443317567225172e-01,-2.921144222259458578e-02,4.172721143675724859e-02,-1.210094924962321246e-02,-1.197177232706191953e-02,2.307552248239517212e-01
-3.082210413630266932e-01,-3.106445215673393490e-01,9.581654792056026881e-04,3.923144908683903124e-04,3.087888391717348233e-03,-1.139625266160403192e-03,3.104511499404907227e-01
-3.169002700695027763e-01,-3.176198277053146057e-01,2.283247129119814200e-03,3.559340497535016905e-04,6.603093910924604827e-04,-6.020990695137916782e-04,3.195482492446899414e-01
-2.048174654400758410e-01,-6.293695372982968661e-02,9.340741495535134775e-02,7.486250663856439114e-02,4.587071626230164803e-03,-3.038942127924336434e-02,2.939434051513671875e-01
-2.752094312240322971e-01,-2.668723981696142777e-01,-3.386518406182659202e-02,2.513193840106041094e-03,1.313613285818838149e-03,9.229805100582241751e-04,2.373418211936950684e-01
-3.156632319609899984e-01,-3.157819597940101919e-01,1.689879419088297086e-03,-9.433110343580485531e-06,5.082070904155731352e-04,-8.209932329237198687e-09,3.174137175083160400e-01
-3.157700986165481449e-01,-3.171377532502642760e-01,2.055746732789354159e-03,4.362745864560486583e-04,8.260681586794791764e-04,-5.015237487817521267e-04,3.185171782970428467e-01
-2.806867136582539279e-01,-1.933284594992690786e-01,1.660044236392541062e-02,1.256612986266346654e-01,-3.788571422444365899e-02,-2.312246286806585172e-02,3.511735200881958008e-01
-2.036264681536244514e-01,-3.258384817006035883e-01,-1.757160666857879305e-02,-8.713125544805775530e-03,3.846181447141008153e-02,-6.389819627996671733e-03,2.776301503181457520e-01
-2.321442219402365392e-01,-3.063557135555122768e-01,-4.537236997894539270e-02,5.526395689103072266e-03,1.451557850334457382e-03,-1.494420666052109293e-03,2.331444472074508667e-01
-2.466823746293204112e-01,-2.874616485187074799e-01,-3.762440014197060423e-02,7.462781407881228721e-03,-3.242674799165558676e-04,-3.854105961920050588e-03,2.326056212186813354e-01
-2.587032365048524962e-01,-3.137073843917703719e-01,-2.702619018931282091e-02,5.324372185947578474e-03,7.891363914477869061e-04,8.767252256433908514e-03,2.641219794750213623e-01
-3.208964510971288320e-01,-2.786164078507729625e-01,-2.629709844309979783e-02,2.982628592936862472e-02,-4.128532792454308459e-02,-6.354035182273548577e-02,3.098630309104919434e-01
-3.287191999665045605e-01,-3.160398540898801678e-01,-5.786554842837771107e-03,-3.191006058311168857e-04,-3.550690800609640550e-04,-5.114403607458601004e-04,3.167856633663177490e-01
-3.119730664170298207e-01,-3.123118433810598282e-01,8.450439458884684285e-05,2.605820649720747477e-06,3.106698203037318046e-04,-8.443589186501687617e-04,3.122309744358062744e-01
-3.168272272921466848e-01,-3.153766800710267049e-01,2.442576174907867825e-03,6.934222885670839271e-04,3.867680579013780900e-04,-7.525418855830140561e-04,3.185526430606842041e-01
-3.140962166127710398e-01,-2.493323530956395861e-01,-2.579196940190345289e-02,7.698369782118871449e-03,7.770608326285501901e-04,1.177455715567984028e-02,2.631302475929260254e-01
-3.204650311699858145e-01,-2.796000824894794845e-01,-3.116747596555619060e-02,1.551809153107121947e-03,6.130587880638801307e-03,2.082647942287492362e-03,2.714293301105499268e-01
-3.966889557383231346e-01,-5.572912256960251831e-01,-1.160262605082144627e-01,1.671027244380089705e-02,7.143867574769642570e-02,2.726227506657039577e-03,4.071979224681854248e-01
-3.024063524842389716e-01,-2.051972425781691811e-01,-2.204381739014310559e-02,7.165250487069939247e-04,-4.356030842435725772e-04,1.730277290470615473e-02,2.483933120965957642e-01
-3.423399180219960924e-01,-1.987808962390334722e-01,-3.468705649501310773e-02,8.974129966431829489e-03,4.604484120396566682e-03,1.782751323475676580e-02,2.689828872680664062e-01
-3.641677984147280722e-01,-2.593926045361835131e-01,-3.453723849451123540e-02,-1.829746389978851098e-02,2.587944258750552676e-03,4.383636343154181242e-02,3.031277060508728027e-01
-2.684288827705097469e-01,-1.590292718493957758e-01,8.445349720547806749e-03,1.120648654667999629e-02,7.673925670543028932e-03,1.592618226259686492e-02,2.442376613616943359e-01
-2.635552106858299881e-01,-2.810013774395501152e-01,-3.939592818429343835e-02,-3.898241121192763496e-03,1.189876965938701289e-04,-2.260598243335543069e-03,2.335025370121002197e-01
-2.901934390137327346e-01,-2.923998649418668716e-01,-2.025606297584722770e-02,8.453549245683460210e-04,-2.348221509544760714e-03,-4.837639935270706716e-03,2.712112665176391602e-01
-3.258950541932178480e-01,-3.157283680202432330e-01,-7.459887408079485249e-03,1.904077287509112768e-03,1.056654631693575239e-03,5.776355846922303500e-04,3.134997785091400146e-01
-2.703302316716204023e-01,-2.899361293271792706e-01,-2.340659782891527096e-02,2.976681338660493864e-03,-1.076302198331815092e-04,-8.133667161530466760e-03,2.577244937419891357e-01
-3.231233059710132416e-01,-3.136468564973395323e-01,-5.695761939106450122e-02,-1.146026612481072446e-03,-2.665770079281129653e-04,6.617692777880211956e-04,2.615666985511779785e-01
-2.833794965068850424e-01,-2.650024597890788813e-01,-3.927179453467774528e-02,-3.734461510389173317e-03,-2.052150520330291422e-03,2.272036523783130865e-04,2.355736345052719116e-01
-2.658811073033734429e-01,-2.677362964558103187e-01,-3.006098421215158689e-02,9.285328076672299397e-03,-5.155225766188840063e-03,-2.451413438291017571e-03,2.375046759843826294e-01
-3.133491704765506980e-01,-3.099371167045107400e-01,-2.543989426463452719e-02,2.887085156216934092e-03,-9.625085354128712703e-03,-1.017912231549424756e-02,2.872887253761291504e-01
-2.425950668407199085e-01,-2.633539583954333518e-01,-2.213158186741195910e-02,9.190436588803153548e-03,-3.007899279790497270e-03,-4.927378227844826826e-03,2.323037385940551758e-01
-2.782413881588708948e-01,-2.742124863576568261e-01,-4.011220424994813016e-02,-1.536850380070807053e-03,1.618478823651011995e-03,-5.777451786620023530e-04,2.361742705106735229e-01
-2.804935520010359840e-01,-2.678061096451032075e-01,-2.308167925529125419e-02,-2.843560550117587519e-03,4.781296111585724151e-03,-1.611846686099667209e-03,2.515085935592651367e-01
-2.089063812669295084e-01,-3.595530354441501264e-01,-5.726394534194562125e-02,-2.942948654632624589e-02,4.901530973952997541e-03,-2.155273480714431020e-03,2.668680548667907715e-01
-2.133051935678574873e-01,-3.219440789350599408e-01,-4.556644800273443319e-02,7.651984841223855895e-03,-6.560176485290777210e-04,-3.816760288166308728e-03,2.416242957115173340e-01
-3.082936627115658301e-01,-2.481884881691930889e-01,-1.984063699344468246e-02,6.661985017587832925e-04,-3.772453028113969316e-03,9.735699674383636068e-05,2.636746466159820557e-01
-2.251194635707936542e-01,-3.049358912282352230e-01,-2.722360973807497198e-02,2.097807749832097002e-04,-3.573466941082419860e-03,1.383079183645084548e-03,2.477356493473052979e-01
-2.169232152061893459e-01,-2.948735041581099781e-01,-3.008102917263294485e-02,-1.099890739715773252e-02,-7.997620079176306560e-03,2.563451677062054436e-03,2.369075417518615723e-01
-1.843413415353850338e-01,-2.936557435098159918e-01,-2.988775355184655758e-02,-2.059632564268331495e-02,8.252120040700357956e-03,-1.343432297472729048e-03,2.327485382556915283e-01
-2.796832969772538036e-01,-2.871908933513236950e-01,-2.880687613864665875e-02,-2.960559964399278078e-03,1.985775968402270220e-03,-7.059965595061486708e-03,2.550813257694244385e-01
-2.616429241162906427e-01,-2.668687370743714760e-01,-3.436691909984265769e-02,-5.184886601105872204e-03,-2.362475659458600035e-04,5.348068774056899616e-04,2.301109880208969116e-01
-3.147684284215880313e-01,-3.241057272463815364e-01,-6.996916685743795328e-02,-1.744123050607970544e-04,1.269193098258428361e-03,-5.495144119702910761e-04,2.496106177568435669e-01
-3.046282590471549589e-01,-3.083193595479308824e-01,-6.125863799973929602e-03,-2.204719770486727320e-03,-1.013422986976857641e-02,9.996695370815270737e-03,3.013994097709655762e-01
-1.381266308105293383e-01,-2.702215848333393011e-01,-9.457165203178519164e-03,-9.410261361675158198e-03,2.463787003247881833e-03,-5.381426574258618874e-03,2.266544550657272339e-01
-2.657935944929811223e-01,-3.005588946279542095e-01,-3.009520140026797352e-02,-1.660473539786674196e-02,-7.787224913902355411e-03,1.253401460887707854e-02,2.577534914016723633e-01
-3.293658198351767652e-01,-3.150217282882152858e-01,-3.535212429989539884e-02,1.799048753183696541e-03,-1.323965689348455136e-03,-3.476362394765745902e-03,2.871997058391571045e-01
-2.529696094850709676e-01,-2.908410309833474594e-01,-3.959604645924588717e-02,5.473897501526146271e-03,4.737041945773700345e-04,1.897739796096928029e-03,2.348289787769317627e-01
-3.127770319336606875e-01,-2.898520093951298948e-01,-4.222988115225251304e-02,-1.853818820010798632e-02,-6.814674812799179256e-03,7.259003602082272910e-03,2.623879015445709229e-01
-2.974919416780952286e-01,-2.702787685886138269e-01,-9.147769140455341841e-03,-5.520669125753904435e-03,-1.186363603747231550e-02,1.297761911126410657e-02,2.775879800319671631e-01
-2.906307132958055317e-01,-3.131910605658736468e-01,-1.201701126561641186e-02,-2.080161450347021903e-03,7.661090164571759606e-04,-5.358588150833976452e-03,2.907250821590423584e-01
-2.949778109382130697e-01,-2.513730922063208140e-01,-2.342747714624668354e-02,-1.086049569484525204e-02,-9.855468149552576093e-03,1.226891271077644799e-02,2.547487020492553711e-01
-2.543335155402512426e-01,-2.921450298137525659e-01,-4.228694773226820969e-02,5.477687949095868918e-03,4.234523535535830003e-04,2.515890696240542877e-03,2.334969043731689453e-01
-3.002289874505796319e-01,-3.730631889641694565e-01,-3.965608549539922922e-02,-1.254224420690305819e-02,3.295264845350560912e-02,-8.474137600196910911e-03,3.100430071353912354e-01
-3.294107283890888027e-01,-3.150882480669352503e-01,-9.642559648067650091e-03,-1.461039095539011512e-03,-5.295834033078902596e-04,-9.666229909438458492e-04,3.128689527511596680e-01
-6.502419843512712017e-02,-2.363512298817836699e-01,3.289472330738742178e-02,6.022294222490908594e-02,-1.212504182288901000e-02,-7.629250451209044701e-03,2.592552900314331055e-01
-2.755364337073792358e-01,-1.690766342451807125e-01,2.630031310197178396e-02,5.434000054627035475e-02,-1.729245614010577192e-02,-4.170085562519228878e-02,2.920241653919219971e-01
-2.966804600107839640e-01,-3.084770601196918371e-01,-3.846368820955570200e-04,1.148479737825512052e-03,-6.485208398316981079e-03,-6.217395619434515526e-03,3.027734458446502686e-01
-2.574219654152776759e-01,-3.038859414485087784e-01,-9.024699275832548384e-03,-4.097132056147870065e-03,1.153227062933683683e-02,-1.095233807181193904e-02,2.760630846023559570e-01
-2.949755053319420561e-01,-3.245477593260160942e-01,-1.073350960336982851e-02,-5.355719264262475722e-03,9.848384478064310318e-03,-7.095355043116703155e-03,3.010012805461883545e-01
-2.589335131672066970e-01,-3.235357178801365752e-01,-1.405201423958440943e-02,-1.268916519222786001e-03,3.014879297152543713e-02,-1.062985666887357114e-02,2.881509065628051758e-01
-2.100942939815970689e-01,-2.912608293287708983e-01,-3.008766042633778670e-02,4.274395972730922998e-03,5.626704355973762353e-04,2.096660722382977411e-03,2.316675633192062378e-01
-2.141278912571633886e-01,-2.901596827685470892e-01,-1.685040605581411555e-02,-3.935781536389604783e-03,1.315772987311916199e-02,-5.488138990606105001e-03,2.456721514463424683e-01
-3.238013462411544752e-01,-3.219716416642505186e-01,-1.188308641839508351e-02,5.796668440842875705e-03,-1.549380533102659831e-03,1.902614962881510156e-03,3.111984729766845703e-01
-3.165885838369585370e-01,-3.174644669688205800e-01,-3.020773820625266559e-03,1.133254607415350645e-03,4.130594214248989662e-03,-1.523560128950694932e-03,3.141053915023803711e-01
-3.231622203904376822e-01,-3.138578142513974156e-01,-3.320079128279085356e-03,1.638462395532740493e-03,-2.938996132358803965e-04,9.726528393227832150e-04,3.153105974197387695e-01
-2.538851624889997272e-01,-2.927686153540433600e-01,-4.021857281228219394e-02,-4.463464071882787369e-03,1.243876851414628783e-03,-3.662348168006899791e-03,2.357500344514846802e-01
-3.157980178118553471e-01,-3.212209798491195700e-01,-2.990226283026253817e-03,1.509111562884082706e-03,7.675807478586196700e-04,-1.701595497855698481e-04,3.155680000782012939e-01
-1.998379786206468389e-01,-3.039158517110664981e-01,-3.630293817633586939e-02,8.255185868277644615e-04,-1.043448465513088494e-05,-5.069103046514804312e-04,2.336645275354385376e-01
-2.671817911235692677e-01,-3.116336631375292709e-01,-2.860793229990382658e-02,-3.941316522699410928e-03,-1.264999192304279863e-03,7.806530685611472002e-03,2.640695571899414062e-01
-3.059404905322077317e-01,-3.093920371726628926e-01,-1.438216921918736291e-02,-5.824357321473655480e-03,-1.547704893790026806e-02,1.730594576856776812e-02,2.962150573730468750e-01
-3.165921395483557998e-01,-3.206862949766528526e-01,-2.029698295089893412e-03,1.901692350535430292e-03,9.211955015738124098e-04,5.184602592502775970e-04,3.166517913341522217e-01
-3.164415786637189698e-01,-3.195907735219364332e-01,2.019553575734189810e-04,1.254994146626580397e-03,1.366995374981160244e-03,-2.024894745547565534e-04,3.182462453842163086e-01
-3.192964016395781757e-01,-3.240586485653962345e-01,-1.258784530405993030e-02,3.200057872870794816e-03,4.153588085104585430e-03,-4.768030384009897156e-03,3.093608319759368896e-01
-2.828092581647745352e-01,-2.609058757152540875e-01,-4.081194368478113788e-02,-3.960994046257182780e-03,2.218724440797193928e-03,-1.432739936141561553e-03,2.319695949554443359e-01
-2.972957113755154701e-01,-2.842357135177723260e-01,2.069139917968199072e-03,-2.125604185757804659e-03,3.854117495978980762e-03,-1.615636925877467905e-02,2.944849431514739990e-01
-2.491166724021120493e-01,-2.419109064055394165e-01,-1.609252392175486435e-02,-4.490328255760889231e-02,1.456854091489074958e-02,-1.349955219515682793e-02,2.447558194398880005e-01
-2.948949742263846652e-01,-2.953082429774109841e-01,-3.526507901065004114e-02,-2.539326092947434207e-02,1.234346707623626589e-02,-1.386651269148046935e-02,2.654873430728912354e-01
-2.267609137897989846e-01,-2.987058627257932475e-01,-3.835145105458190318e-02,-5.594494369533267036e-03,6.529489416648178281e-04,-2.785941294097241897e-03,2.331260740756988525e-01
-2.469442315699474089e-01,-3.101054818257105161e-01,-4.522931875822627790e-02,-6.742945525763955998e-03,-8.193113176643257011e-04,3.231006759608560323e-03,2.399761378765106201e-01
-2.778013480213308295e-01,-2.732794922513654967e-01,-3.766688204829446440e-02,-2.452784014265122457e-03,-6.402617437146899178e-04,2.886569807221838922e-04,2.379468083381652832e-01
-3.206234532967841555e-01,-3.272811644356095062e-01,-4.890916123478888933e-02,3.761486001855263422e-03,-2.886095150204760502e-03,4.604795473924696431e-03,2.753416597843170166e-01
-2.810025323744119730e-01,-3.007162368309191924e-01,-5.916596336509094556e-03,-2.876196357897320855e-03,2.078806176826360902e-02,-5.208517002371816466e-03,2.879001498222351074e-01
-2.613476885974311825e-01,-2.964750555016084643e-01,-2.551066305001326029e-02,-4.790826878307940899e-03,1.496070134449737320e-03,-8.259574003878517728e-03,2.557686567306518555e-01
-3.395301672971675067e-01,-3.282745097693057224e-01,-6.041318302446516131e-02,6.963108598637858873e-03,-1.155379489502502029e-02,2.005754767156012978e-03,2.746804058551788330e-01
-3.032157470796072452e-01,-3.088177194682295568e-01,-5.134938931793397998e-04,-5.648758590002722277e-04,-7.004290624068959742e-04,-3.612402470628098793e-03,3.056097924709320068e-01
-2.829494223055100677e-01,-2.644303291445123660e-01,-3.799047640637795431e-02,-3.700060145401086811e-03,-2.319164436396915861e-03,3.769709407540806651e-04,2.363663613796234131e-01
-4.021748567934338991e-01,-1.806364478196233192e-01,-3.971276180064331474e-02,3.597339262529332393e-02,2.306044245922616621e-03,-8.783492972609175872e-03,3.229371607303619385e-01
-3.280836580695015714e-01,-3.343046467102109842e-01,-5.242703006729759752e-02,5.883834170290954194e-03,-2.681783111031690002e-03,4.811386424584005936e-03,2.791684269905090332e-01
-2.306416113863470341e-01,-2.772240601588796816e-01,-2.168041393672981432e-02,6.167729724659601342e-02,-1.054158613889078985e-02,1.545830681134529629e-03,2.594637572765350342e-01
-2.823537752371874099e-01,-2.657860227225048999e-01,-3.990422900029894082e-02,2.975432239079455529e-03,-4.020719883209710951e-03,-1.396700653000305372e-03,2.347772121429443359e-01
-5.251634290051110376e-01,-3.693560275010955296e-01,-9.434770596457520142e-02,3.498488872030454389e-02,-1.669821346795748521e-02,-6.573024218528973617e-02,4.002793729305267334e-01
-3.602088721453334808e-01,-3.488772722745328569e-01,-7.599320174123172511e-02,-1.009519718554894576e-03,1.819398527910088062e-02,-4.111638187191362162e-03,2.805943191051483154e-01
-3.233603322074478092e-01,-3.331331815205818003e-01,-6.221065719939572469e-02,4.965433804792663067e-03,-2.160562228134771043e-03,7.926228090753746972e-03,2.666894793510437012e-01
-3.475407540152855579e-01,-3.383261293813272230e-01,-2.385046848580693601e-02,-4.898439336441401957e-04,-7.765642461493624249e-03,-1.168384438262850752e-02,3.201074898242950439e-01
-3.155357501565260181e-01,-3.250629106779492905e-01,-7.826131365057512057e-02,-1.278470694235631956e-03,5.818651064315103795e-03,9.513054596377971701e-04,2.424039244651794434e-01
-2.680704295836017215e-01,-2.842001250760381459e-01,-4.258490802692221910e-02,4.812698642502834592e-03,1.839197175685223140e-04,-2.671122644393840537e-03,2.341621071100234985e-01
-3.092110062155875028e-01,-3.147651572580649759e-01,-1.880707949360826969e-02,5.514748785525837364e-05,-1.504728261445406005e-03,-7.225958445475398964e-03,2.934990227222442627e-01
-2.853307835560233152e-01,-2.979903515258772728e-01,-3.272044224783771105e-02,2.258021881405861304e-03,-1.615149976424486589e-03,-4.262383406680048809e-03,2.593218386173248291e-01
-3.297488186122514153e-01,-3.293832474747341865e-01,-7.712513664662262736e-02,4.867510615752944532e-03,-4.396555004520145450e-03,1.704729464257643927e-03,2.527138590812683105e-01
-3.452903855510305320e-01,-3.419015122217884395e-01,-1.097318622675223510e-01,5.914945507180787397e-03,-8.520354235781025729e-03,6.448772079855550309e-03,2.348372489213943481e-01
-3.120433231031490284e-01,-3.052108297521881064e-01,-2.134029868791123552e-02,-2.188121124189495829e-03,-8.780444321611511824e-03,6.027224788534343153e-03,2.879641354084014893e-01
-3.265923696757216388e-01,-3.169721982816730566e-01,-6.295515610390275962e-02,-9.427858474654628868e-03,-4.154185375881897131e-03,6.890154243039535876e-04,2.595780193805694580e-01
-2.835354981193470292e-01,-2.923682686423809129e-01,-1.684085629200285372e-02,1.245203888442972034e-03,-3.603801637334591579e-03,-6.714606221023238473e-03,2.715484797954559326e-01
-2.784419094413432272e-01,-3.000308697252380696e-01,-3.122371087558803437e-02,3.841893521299377234e-03,-7.523731268409537300e-04,-7.445153289216956301e-03,2.590991556644439697e-01
-2.265595589941751808e-01,-3.113239934389900321e-01,-2.207107281276574073e-02,2.324155004362931515e-03,-9.796345100807060322e-04,4.410520289946663055e-04,2.575918734073638916e-01
-3.899371365423183744e-01,-3.983580190680292565e-01,-9.994711236791450903e-02,-2.963598000289664140e-03,1.439685692979298000e-02,-2.188958654608834029e-02,2.978132367134094238e-01
-3.221581929024242008e-01,-3.151920700325431257e-01,-7.349621449629140102e-03,4.300772479810624840e-03,-6.648904402624433762e-04,9.613419461089261174e-04,3.114796280860900879e-01
-2.733824978987902665e-01,-2.991348654866555767e-01,-1.229714249359725731e-02,-1.991836699343613269e-03,8.359626086323498906e-03,-1.019220966155695920e-02,2.758360207080841064e-01
-3.237736875279397242e-01,-3.239391949461782327e-01,-1.326842195813923708e-02,-5.488438279997506948e-03,-2.512864669753640638e-03,-2.315598697021585724e-03,3.107898533344268799e-01
-2.884225713415388137e-01,-1.025785494112229218e-01,1.456341778354830474e-02,1.295363962447050425e-02,-1.217105447405674064e-02,-3.687925818166930356e-03,2.664938569068908691e-01
-3.322275073638066845e-01,-3.191084652818595990e-01,-1.265269592685119848e-02,-8.114920603825644834e-05,-8.254146196854490140e-04,-2.556455895728082539e-04,3.132250308990478516e-01
-3.131072370134261318e-01,-1.660920516463372798e-01,-3.278998275515260241e-02,2.821372826079800861e-02,-4.466376531287410100e-03,-1.911482733858046101e-03,2.478692829608917236e-01
-1.715730386334538837e-01,-2.870605989786703116e-01,-2.229972478815475667e-02,-3.445587021799481620e-02,-2.212553535658147962e-03,5.743007912381596115e-03,2.377695590257644653e-01
-2.620068749655298235e-01,-3.701884446262858064e-01,-6.466414411870213819e-02,2.420870298854039052e-02,-9.315723477114563889e-02,9.550416533292301752e-03,3.163271844387054443e-01
-2.975516636635419099e-01,-1.895599454983402099e-01,-3.294282503766077230e-02,2.049274998038582221e-02,-3.083256416897435775e-03,-3.074888863789192531e-03,2.332835793495178223e-01
-2.064994174652017844e-01,-2.984774822025118013e-01,-3.324393439277925633e-02,-1.664616146205831785e-03,-6.647531741824939727e-04,-8.626761005811451298e-04,2.332916706800460815e-01
-3.124709026338898243e-01,-2.102967065347845499e-01,-4.253914431588762257e-02,5.548395927333128926e-03,-1.465652353414868565e-03,-3.923579258202154058e-03,2.363633662462234497e-01
-2.134207202713139240e-01,-2.893810627081935816e-01,-1.026624877748211206e-02,1.143281725762905862e-04,-6.667993625723959723e-04,-4.827614490580100018e-03,2.500893473625183105e-01
-2.745081388694949887e-01,-2.959128808025078827e-01,7.663562098849913129e-03,-5.917558435294958778e-03,-1.794750318510133016e-02,1.062056987576639328e-02,2.958523631095886230e-01
-2.878243226534970001e-01,-2.819672625950969125e-01,-2.775695183490853313e-02,-3.773167744678597012e-03,-7.359995572690450870e-03,1.567053855013219189e-03,2.576018273830413818e-01
-3.142623759982460241e-01,-1.932745724148093591e-01,-3.846316983115022348e-02,4.533654306497418400e-03,-2.008274349401558464e-03,-5.859334429646015710e-03,2.398159056901931763e-01
-2.624001340703700502e-01,-2.793045621707808124e-01,-3.561779298762279833e-02,-4.375627163484980750e-03,-8.679893055935854846e-04,2.032398745798507950e-03,2.358425408601760864e-01
-2.486171944431317393e-01,-3.102630158499460888e-01,-5.092953183701529052e-02,-7.452504729709090447e-03,-2.387307722643595542e-03,4.104444218767059650e-03,2.351626902818679810e-01
-3.189380132007704205e-01,-3.150482373425194105e-01,2.676528498951613599e-05,1.585110446764035523e-03,-6.682371077179618483e-04,1.024777812656605357e-03,3.170567452907562256e-01
-2.553717797021258229e-01,-2.578195833396906278e-01,-2.451873328826198462e-02,-1.286868110774228198e-02,-4.532958197112910322e-03,5.219751127935606458e-03,2.334617525339126587e-01
-3.380680194557109663e-01,-3.438678696386254785e-01,-2.412510787072674745e-02,-4.795682500659841606e-03,-1.059196503339385198e-02,4.502920015215655658e-03,3.176177144050598145e-01
-1.691285240135204093e-01,-2.941389537522275388e-01,-1.488579103061982156e-02,-1.484488291925933900e-03,-7.401098644443292185e-03,-2.470469816800348155e-03,2.426718473434448242e-01
-1.056364706518963248e-01,-2.789010114331622603e-01,3.623683342098643623e-03,-5.596806044636136457e-02,-2.181901859767289981e-02,-1.697191714388377251e-03,2.678122818470001221e-01
-2.892717147881734840e-01,-1.813822656152511981e-01,4.311156133412319402e-03,5.496069484461549304e-02,-2.030261661179543972e-02,-4.587855920333971244e-02,2.876972258090972900e-01
-3.366663185535418434e-01,-2.699398890560182340e-01,-1.806513184436714381e-02,-3.689165865286662266e-02,-3.792613812882352810e-03,4.505867244058248816e-02,3.080860376358032227e-01
-3.563503446348608161e-01,-2.299893434067096509e-01,-4.212686089043923832e-02,-1.600718822129696675e-03,-3.825360501948207263e-03,1.560907365762031866e-02,2.752824425697326660e-01
-2.769934298895392333e-01,-2.799734696974661707e-01,-3.339861712127334403e-02,-1.153018965964865399e-03,-1.271038463027065850e-03,3.059821609987484030e-03,2.451737374067306519e-01
-2.834340570586268981e-01,-3.791424299097424788e-02,1.337548912256381062e-02,-1.297756318779496806e-02,-6.867314557682959288e-04,-5.564739377365334264e-03,2.758674025535583496e-01
-2.763183289350098493e-01,-1.834038144282273963e-01,-3.670809558890819613e-03,-5.655441417204087190e-02,-3.042670947450209357e-02,3.916196792831510426e-02,2.731490433216094971e-01
-2.882248374997612994e-01,-2.910826174660073318e-01,-2.062672926161127074e-02,-2.791472128599296497e-04,-2.013745535631727718e-03,4.610828204551263056e-03,2.691799104213714600e-01
-4.533493240672268332e-01,-2.396836656265751431e-01,-7.688511249057289332e-02,-5.925480067020692104e-02,-2.280513934522978431e-02,4.563415905165584679e-02,3.539518117904663086e-01
-2.902332850792017083e-01,-2.478912927226952501e-01,-4.250087294799287374e-02,5.833799255154386090e-03,-4.036658149983980357e-03,-1.842231829909635101e-03,2.298605591058731079e-01
-3.761556352420112326e-01,-2.977391332336336016e-01,-3.066414226154909328e-02,-4.367059410440454585e-03,-7.549416801247343413e-03,3.637797007090549928e-02,3.203428685665130615e-01
-2.992853562159585867e-01,-2.215621040185306589e-01,-8.151948385785368068e-03,8.771418729155908839e-03,5.738353878909657584e-03,2.852144392639182485e-02,2.663489282131195068e-01
-2.670669590427120488e-01,-8.920099394785171998e-02,1.522793570664596197e-02,-4.898037846614970020e-03,-1.635570412259588048e-03,2.919483842616731398e-02,2.524937093257904053e-01
-3.398793924250292919e-01,-3.032428782249926846e-01,-2.470677293673545494e-02,2.536862040974989432e-03,4.891074704807968528e-03,1.696265916496642046e-02,3.001390695571899414e-01
-5.147738115019288019e-01,-4.141106159198063574e-01,-1.157672662047516676e-01,5.908710757291477794e-02,-4.364963146779875930e-02,-7.362504708761814787e-02,4.020269811153411865e-01
-2.997069289535440606e-01,-3.044144550673049121e-01,-1.748059186823214262e-02,-2.366999704422877507e-03,-2.124131243176277314e-03,4.199438894317304971e-05,2.846626043319702148e-01
-2.775085081975297019e-01,-2.783615488275597016e-01,-1.786376480887363893e-02,-3.534642948497572750e-03,-4.794830070474632999e-03,4.136444821945817370e-03,2.603754699230194092e-01
-3.361302829113975710e-01,-2.871631408876942348e-01,-2.126636462162184715e-02,1.601917816514314072e-03,1.733767210704052503e-03,1.244957145850693163e-02,2.942800819873809814e-01
-1.998221125830532963e-01,-2.155876900309065536e-01,1.093637102154521035e-02,-7.783935527651168751e-02,-5.143273157985743527e-02,5.680102014924058584e-02,2.894518375396728516e-01
-2.338174176321644593e-01,-2.911738648429023080e-01,-1.431594843021802288e-02,-8.934826070938123310e-02,-3.979672935262438399e-02,3.908727797787352881e-02,3.120009601116180420e-01
-1.876013639502168984e-01,-2.511115756359052487e-01,7.630537989314900571e-03,-6.553171135261962044e-02,-5.009544567897838280e-02,3.934799272234619505e-02,2.821434736251831055e-01
-3.111014845715364130e-01,-2.890412622201352089e-01,-7.340729202566065315e-03,5.920752741082220376e-03,-1.368280399285891000e-02,-1.269475675812434777e-02,2.953074872493743896e-01
-3.365554162735876487e-01,-3.344194209741275237e-01,-8.776853180679103361e-02,-2.254790142932161338e-03,-1.035253163371223318e-03,-5.802776019941421719e-03,2.479668408632278442e-01
-3.277472017642201196e-01,-3.366994358354119532e-01,-9.432693824595705934e-02,3.694415337531278039e-03,5.972951226559435924e-03,-2.236998184986481019e-03,2.383648008108139038e-01
-3.184518642920595721e-01,-3.150254249439147780e-01,-8.456372775401760356e-03,-1.908641511635750731e-05,-1.962934311313175217e-04,-4.890080957320834358e-03,3.084130585193634033e-01
-4.712182143724321648e-01,-5.390411369558940624e-01,-1.410295632492941376e-01,1.020914233966137979e-01,-9.056024745262945819e-02,-7.022574934809554248e-02,4.546265304088592529e-01
-2.178629020771502833e-01,-3.171075627231160765e-01,-4.185887753556294388e-02,-4.905030083190533782e-03,8.311703416023655342e-04,-2.492279374351996039e-03,2.416345626115798950e-01
-2.800804430103685516e-01,-2.814560904169288724e-01,-1.885909428927429188e-02,2.995773172551431229e-03,-2.065035904330453191e-03,-5.262823082075765262e-03,2.621462345123291016e-01
-3.091916369341755066e-01,-1.952796753897724225e-01,-2.656937771823827954e-02,-9.146022046300805383e-03,2.171670633505090077e-03,-8.040927112556281800e-03,2.472170889377593994e-01
-1.580873401407039136e-01,-3.355464643575478689e-01,-2.183381741313258906e-02,9.696605971649585945e-03,-7.265021121659617775e-02,-2.550264018712537079e-02,3.038150370121002197e-01
-3.277513707915845620e-01,-3.847644767302778601e-01,-9.846738129669679873e-02,1.995504329379228260e-03,-4.882297791591029557e-02,1.873033869630925247e-02,2.776856124401092529e-01
-3.674301504306028421e-01,-5.069893537859735400e-01,-1.144011520650843328e-01,-6.968226052396532533e-02,-5.551078053445204080e-02,5.076824007722575277e-02,3.877581655979156494e-01
-3.391880134296770266e-01,-3.285736604723717980e-01,-4.505333749364423546e-02,4.287065219269465058e-03,-3.952440441528737823e-03,1.514479340002872155e-04,2.891502976417541504e-01
-3.300704483086617236e-01,-3.192011626895362997e-01,-9.278262878840787264e-03,9.819705508164785612e-04,1.379452941683820960e-03,7.823690421032051352e-04,3.155145347118377686e-01
-4.010660534895585383e-01,-4.128275068549626114e-01,-9.252852009002332512e-02,1.282172822594561737e-02,-7.179209497796904536e-05,8.537029987770021824e-03,3.157126009464263916e-01
-3.333153140457120189e-01,-3.279302680480669085e-01,-3.536632237345324614e-02,-8.068288518907461987e-03,-5.193191430475176985e-03,-1.815636317779595202e-03,2.957773208618164062e-01
-3.359092491530796809e-01,-3.360195458360414889e-01,-8.637482273350916007e-02,-3.946044301351658151e-03,-3.478820327023133489e-03,-6.466867819845153846e-03,2.500068843364715576e-01
-3.852980006018816295e-01,-2.661537388058704545e-01,-4.892150924355348485e-02,-7.262628459913629021e-03,-2.070584619296848145e-02,-7.266267028169287601e-02,3.233437836170196533e-01
-2.822959457228797486e-01,-2.620114341688493664e-01,-4.012529273373882654e-02,-3.170972558268924778e-03,-1.321282514257146861e-03,7.719493688402272050e-04,2.327723354101181030e-01
-3.280284216050985968e-01,-3.330136269510521330e-01,-4.546819383349995358e-02,-5.049040992046285696e-03,-8.439519222638885336e-04,-2.752249202822230380e-03,2.852632105350494385e-01
-2.910001477756682386e-01,-3.012103938675415593e-01,7.349957721792810261e-04,-1.712652771107185104e-03,-7.757513472558486868e-03,7.712403783512677968e-03,2.975904941558837891e-01
-2.623058238549198506e-01,-3.041115547442368450e-01,-2.363457415553182894e-02,-3.955394691668981735e-03,-1.245267248041945479e-03,5.768965376495768620e-03,2.623755633831024170e-01
-3.235402954739776127e-01,-3.258538763581476649e-01,-6.058030298938021918e-02,-4.304590281589147464e-03,-4.234766943832304897e-03,5.628462882705190934e-04,2.643331885337829590e-01
-3.258054783624991790e-01,-3.343647881556535140e-01,-3.145865740611955563e-02,9.490054389652028896e-04,-3.122484218425509907e-03,3.046240620514939100e-04,2.987723946571350098e-01
-3.350133380962249108e-01,-1.956277821862493216e-01,-3.378920838766252821e-02,5.453163692759436382e-02,-6.454425318118193859e-04,-1.170038174509214525e-02,2.784080803394317627e-01
-2.659375038089073495e-01,-1.344907654358607207e-01,3.179091550463122862e-02,6.068741107794867196e-02,-4.535013878191885596e-03,-4.838683747797956243e-03,2.792236506938934326e-01
-2.856117166364727789e-01,-1.440884293699277452e-01,2.681215397409572598e-02,9.116604494656609103e-02,1.058910871134556564e-02,2.132944147613708482e-03,3.141751885414123535e-01
-2.838876025264439051e-01,-3.051249319330155418e-01,-2.832013281146303352e-02,-1.845993847661817240e-03,-2.457269757708572307e-03,7.069558354897421439e-03,2.671546339988708496e-01
-2.860854770189698026e-01,-3.073096480013062237e-01,-3.240899034760996722e-02,-1.850082310227739620e-03,-2.455518064719886418e-03,8.065516264830808330e-03,2.653484642505645752e-01
-2.830077989794486104e-01,-3.006535311433922164e-01,-1.026099923649193002e-02,-1.850094077293413467e-03,-1.750766527285618334e-03,7.211956775436366429e-03,2.822950780391693115e-01
-3.480299857472061165e-01,-1.958439768699434258e-01,-2.783576151831432255e-02,4.389672594148467250e-02,-1.647162580495223697e-03,-1.401773762500822459e-02,2.886767089366912842e-01
-3.157887364894472748e-01,-3.149861297493820045e-01,2.082866248838910472e-03,-2.557826976456251599e-04,8.017239921551545367e-05,-1.351482928613745023e-04,3.174714744091033936e-01
-3.149508779334957431e-01,-1.787361698729080517e-01,-3.089345735026705064e-02,3.531729141115831638e-02,-3.622693063811808015e-03,-5.491993282237976615e-03,2.538149952888488770e-01
-2.838594424268069405e-01,-2.824312972379180997e-01,-8.895998826660506120e-03,5.884640804770893165e-03,-5.320607302061529202e-03,-1.513548827855375374e-03,2.746087014675140381e-01
-4.274172574838864813e-01,-1.329155917664989195e-01,-4.308592343819184212e-02,5.566657461551818842e-02,1.364531778930732839e-02,-2.113934445841891135e-02,3.639383018016815186e-01
-2.886971706004698435e-01,-3.748878249117167938e-01,-4.165520982754641888e-02,1.129018447311710277e-02,-2.942988754289553588e-02,-7.285064124756391798e-03,3.047806620597839355e-01
-2.190159234215225126e-01,-4.418549431854339460e-01,-5.529271656881137864e-02,4.094683456672731925e-02,-3.269914808985004834e-02,3.294777264472790058e-03,3.481617867946624756e-01
-2.982424106304076838e-01,-2.176787170222924395e-01,1.102381976428898347e-02,-8.352223478972901904e-03,-6.933282028447877547e-03,-3.000678214810397620e-02,2.833287715911865234e-01
-3.606797822140302978e-01,-4.178787106663830464e-01,-7.746796826970847594e-02,2.538964037339003915e-02,-6.007271861185353723e-02,3.825894871885337297e-04,3.353216350078582764e-01
-2.550432414517400659e-01,-2.910806603762696732e-01,-1.073321278557176628e-02,1.138513908222489948e-02,-2.252168371844744804e-02,-1.813520676299175058e-02,2.696063518524169922e-01
-3.118746209041343143e-01,-3.087721048780166511e-01,-5.553072207691939211e-03,-7.700903516111977799e-05,-2.585662628263782326e-04,-3.704848491560114830e-03,3.048500418663024902e-01
-3.060679273237731923e-01,-3.207816439519957652e-01,-2.607849949235196974e-02,3.605046433556980887e-03,-1.252630010565582500e-03,4.943661017417384773e-05,2.877046465873718262e-01
-2.958778081331630561e-01,-3.049606276585724030e-01,-2.633910808156642025e-03,2.045544522670307910e-02,-2.457804880910374051e-02,-1.761889939129281058e-03,3.030095696449279785e-01
-1.800590455717289151e-01,-2.968589609330968271e-01,7.660752617937888198e-03,1.162136615624630859e-02,-2.223267183439344916e-02,-4.633734745539558504e-03,2.697388827800750732e-01
-2.978852620979067778e-01,-3.181698123610151585e-01,-1.415073161187260786e-02,-4.642169617348640442e-04,-1.856486800452388040e-03,-6.643396836856656218e-03,2.946448028087615967e-01
-3.431254413782764412e-01,-3.313568191121372131e-01,-6.117470668717012172e-02,3.969348579560784927e-03,-3.403680524372769238e-03,8.628543804530549406e-04,2.764069437980651855e-01
-3.246354987975925699e-01,-3.158036181135717158e-01,-6.448476376201967009e-03,-1.814772890391342991e-03,1.031090955958741335e-03,-5.481158869080278743e-04,3.138865530490875244e-01
-3.188481113663227395e-01,-3.220164398171010411e-01,-2.977492578572576987e-03,2.012949412938026643e-03,3.019611358228604502e-03,-1.659639297297498981e-03,3.175418674945831299e-01
-2.940129232168571249e-01,-3.680579420294817217e-01,-3.167843467003816915e-02,3.880108650396409207e-03,-4.430326713558650070e-02,7.574872342633909815e-03,3.159624338150024414e-01
-3.127303098868107756e-01,-3.161420933296691382e-01,3.651891235240678490e-04,6.829360876490952114e-04,3.307669514344244339e-03,-3.644357128963345623e-03,3.149328529834747314e-01
-3.135220508031660858e-01,-3.157259456774065276e-01,1.851228046685637896e-04,7.311445427433717348e-05,3.226819413158041328e-03,-2.626834212077110847e-03,3.148974180221557617e-01
-3.172334708853780105e-01,-3.237926738964426732e-01,-2.361787280188432092e-03,1.505745101817018098e-03,1.008747906840134611e-03,-1.282289455340987505e-04,3.182175457477569580e-01
-3.200951343050814080e-01,-3.142765763262483913e-01,-5.270810383524893172e-03,5.950032905590374238e-04,-8.734630854463602150e-05,2.715640571491874725e-03,3.119929432868957520e-01
-3.273944910438871259e-01,-3.188807938368994899e-01,-7.319242936585756976e-03,1.779030330738805288e-03,1.517075740850884003e-03,8.338654775141540179e-04,3.159337043762207031e-01
-3.247196498793972763e-01,-3.279194983085236270e-01,-9.587289127757392393e-02,1.247631197008512499e-03,-1.883220732832532841e-03,6.274840680289955723e-03,2.307526469230651855e-01
-2.928481262542879104e-01,-3.161406943070828590e-01,-1.015550367826723033e-02,-1.620678110615282608e-02,1.410227030084848510e-02,-5.341212081699553936e-03,2.975104749202728271e-01
-3.621534511847506188e-01,-3.765947486906964792e-01,-6.350521840904199689e-02,3.657752561693735586e-03,-1.385760244849263377e-02,-4.078953260446899903e-03,3.072105646133422852e-01
-2.909965058956864858e-01,-3.088561060873910580e-01,-8.490727350780741256e-03,-3.571093067115442771e-04,-1.465398992282575903e-03,8.251918837620155758e-04,2.918609082698822021e-01
-3.278661153405044715e-01,-3.159877622014080623e-01,-7.153932098949850049e-03,6.922764709841500337e-04,9.965670945794491593e-04,4.832982356055544413e-04,3.149491846561431885e-01
-3.770031193534056912e-01,-3.728127868439113923e-01,-1.180777684848985098e-01,-1.321687607089269863e-02,8.124371057592677178e-03,6.357823335224915828e-03,2.584922611713409424e-01
-3.248551373918100449e-01,-3.195068705523472219e-01,-1.793655673280775131e-02,4.255158156615594829e-03,1.465221760457913061e-03,1.051747442317312563e-03,3.043849766254425049e-01
-3.191285039135899337e-01,-3.159647882558196397e-01,5.893653525984587915e-04,-1.003228401290629521e-03,-5.384599714394660078e-04,-1.113876484627768660e-03,3.181597590446472168e-01
-3.280868109355134510e-01,-3.202062084175503753e-01,-7.248800011859130032e-02,-1.868850397593142245e-03,-9.480285637100759706e-04,2.471622889820933658e-03,2.518135905265808105e-01
-3.122853800948235392e-01,-3.123484446930873126e-01,3.745040648990949350e-03,-5.455340695488167637e-04,-4.802197501464140522e-04,-6.196428493646486020e-04,3.160662949085235596e-01
-3.066499712197179317e-01,-3.125890977844042462e-01,-1.224748356458585374e-02,1.158366511648499666e-04,-2.465070227712135801e-03,5.815496225887008611e-03,2.976177334785461426e-01
-3.138543111868258295e-01,-3.147822260030985198e-01,2.954877250270548927e-03,-4.199184200744843936e-04,-8.082744402989149425e-04,1.305602973453376121e-04,3.172781765460968018e-01
-3.123614203286109170e-01,-3.118434492363053034e-01,-1.716118700704760691e-04,2.518806221486545962e-04,-1.694261554434829935e-03,-5.645999006010840983e-04,3.119467794895172119e-01
-3.021114400587328053e-01,-2.985820565882048583e-01,-2.177325454522344161e-03,-3.604544244760236817e-04,-5.608651354112579625e-03,3.822599581579855764e-03,2.984173893928527832e-01
-2.899432014322727014e-01,-3.133276778389375017e-01,-2.047217583895283299e-02,-1.073001353907131715e-02,-1.627457056179905381e-02,9.070559201887502115e-03,2.843408584594726562e-01
-3.208329644115469614e-01,-3.186246509793555504e-01,-9.850230069451959558e-03,3.690746224803746322e-03,-4.221546776281707492e-04,2.465903827337779207e-04,3.099515736103057861e-01
-3.155390420781021277e-01,-3.153785715140406953e-01,1.995809986746061027e-03,-9.536901896292625924e-09,-4.902587380636037038e-05,1.753119177348970447e-04,3.174548149108886719e-01
-3.120232959023925279e-01,-3.112160623491336264e-01,-8.447378740531197305e-04,-5.570512317885847756e-04,-1.650654319460838956e-03,-2.631735915372018699e-03,3.108237981796264648e-01
-3.123675826968310698e-01,-3.138291180114466949e-01,3.155692983854874178e-03,-6.438297372867489649e-04,-1.619637233622570505e-04,1.281899895609997812e-04,3.162587583065032959e-01
-3.115731377338231134e-01,-1.881609907083343358e-01,-2.644707214015312724e-02,-1.768717080975868230e-02,-4.830344464559668816e-03,1.539968728684068013e-02,2.511162459850311279e-01
-3.093572720447902435e-01,-1.694186639649382931e-01,-3.396501375737662198e-02,-3.443529027208301618e-02,7.133341034109048559e-03,1.072649938949252202e-02,2.468620985746383667e-01
-3.148437012659074941e-01,-1.912255691757506759e-01,-2.826326633716125247e-02,-2.075166268463852354e-02,9.686976247442724217e-03,-1.882413847490312792e-02,2.542040646076202393e-01
-3.163552423925110046e-01,-1.715989179880444415e-01,-3.019192701438946913e-02,-2.501640052353215626e-02,2.677428893717575132e-03,3.396539893415117389e-02,2.584178745746612549e-01
-2.534283160742597518e-01,-3.032651716327830482e-01,-4.670295150457287603e-02,-3.709328563305323845e-02,-3.379614904457875751e-03,-2.191996724090255078e-03,2.443318367004394531e-01
-3.150056398399641022e-01,-3.128735684065419020e-01,1.713726182762914663e-03,-6.193104883403988039e-04,-1.836567188353688653e-04,-1.772533040819461274e-03,3.156756460666656494e-01
-3.015173735979195246e-01,-2.996562075652326462e-01,1.897800911495828302e-03,2.867637262576462447e-04,-9.442269192954164244e-04,-2.729874688965388402e-03,3.025306761264801025e-01
-3.130282288039494265e-01,-3.151260972575067321e-01,-2.574895229442375477e-03,-1.151385947444357339e-03,-2.516029647798288457e-03,-2.778394680328651924e-03,3.115815818309783936e-01
-3.019849853137627216e-01,-3.091691077013418165e-01,-2.999509809140737948e-03,6.829936238070031347e-04,-1.707483602615716316e-03,-4.600477382261394799e-03,3.027631342411041260e-01
-3.149588136768148861e-01,-3.150207065415413510e-01,-5.864104521867002928e-03,-7.721285221111702881e-05,-2.592565763594824649e-04,-2.565855840815690642e-03,3.091579675674438477e-01
-2.976369529394469193e-01,-3.023719607173669388e-01,-1.353366985342113749e-02,1.625426356162003880e-03,-5.876153539918398463e-03,-4.278891592887546294e-03,2.867904603481292725e-01
-3.166209254995980826e-01,-3.224084843097254627e-01,-2.906500878233603258e-03,-1.283481480084392758e-03,-1.108485069705644451e-03,-2.857432068315593444e-04,3.166618943214416504e-01
-3.155177105812835281e-01,-3.152536978061271089e-01,-1.017299120902084852e-02,-1.508724514767365802e-03,-3.428295452709083369e-03,-3.518487790616951511e-03,3.053425550460815430e-01
-3.148206701805551511e-01,-3.153971694853968111e-01,-1.724013294988308020e-03,-1.044310595906421980e-03,-1.253703936980989433e-03,-2.369977130985624798e-03,3.134249150753021240e-01
-3.166466804032722626e-01,-3.200260259668772367e-01,-2.018822108437290375e-03,-1.389698580350323545e-03,-3.479712082065251986e-03,-1.437693590266776516e-03,3.164074420928955078e-01
-3.135347327144978324e-01,-3.144422928049724897e-01,-2.039672981745538349e-03,8.375790877396809431e-04,-2.038553535999355383e-03,-4.498605973250606113e-03,3.120704591274261475e-01
-3.246197668530581559e-01,-3.189108997966750847e-01,-1.895688340579904096e-03,-1.616840594954030950e-03,-1.370121137801839732e-04,-1.047616998637713884e-03,3.199253380298614502e-01
-3.295977687803468559e-01,-3.332229089616247641e-01,-1.467130188204088248e-02,1.616310287554225799e-03,-2.155756128503608354e-03,-5.436177022805594589e-03,3.169288635253906250e-01
-3.243013801809447316e-01,-3.194656634328853495e-01,-3.318938854565828267e-03,-4.254391606655338540e-03,-9.895905977176401840e-04,-1.675627938950855498e-03,3.186951279640197754e-01
-3.261250271978597404e-01,-3.192098244123280359e-01,-6.099922247789407725e-03,-2.848422962308767587e-03,-9.082651152497085451e-04,-2.869175915405055861e-03,3.167054951190948486e-01
-3.266253372647515141e-01,-3.151068662921493457e-01,-5.215921784202437461e-03,-9.615720440173113363e-04,-1.346548048219823029e-03,-2.639831313486067001e-03,3.158538639545440674e-01
-3.220593868186772402e-01,-3.228619164930447427e-01,-7.912170681347779899e-03,-1.071995854611867234e-03,-8.459799429643632355e-04,-3.604794894462019783e-03,3.146201074123382568e-01
-3.172699713568981061e-01,-3.141298544371181611e-01,-1.837166740673634724e-03,-2.368211177357343170e-04,-1.480803248045338763e-03,-3.328681779555610603e-03,3.139382302761077881e-01
-3.267236598399833603e-01,-3.180039811097291058e-01,-4.813018709665495276e-03,-7.169107425594254800e-04,6.739412629321207956e-04,-4.798093027878515271e-04,3.176462352275848389e-01
-3.335229579877365680e-01,-3.211988663125915910e-01,-3.220882096071286949e-02,-2.267884043023957186e-03,3.080965428203933862e-03,2.178758818893260750e-03,2.954434156417846680e-01
-3.200696680270944117e-01,-3.142263040478994185e-01,-2.863064266178771966e-03,6.317888634172981509e-04,-2.191949678030361785e-03,-3.315554713100214799e-03,3.144029378890991211e-01
-3.165378781673413577e-01,-3.168593105088103323e-01,-6.434351783109332201e-03,-2.721747067368237129e-04,-5.269360731043340289e-03,1.827530400369788491e-03,3.104150593280792236e-01
-3.290732133024451000e-01,-3.197240092418935364e-01,-6.139651679648500116e-03,-1.791497522144442993e-04,2.960633310259289997e-04,-1.018724252384217217e-04,3.183625340461730957e-01
-3.265551816424069886e-01,-3.230869296566623583e-01,-9.613324942642637039e-03,1.522130652654824510e-03,-4.695470277529180392e-03,6.022879720632201561e-03,3.155104517936706543e-01
-3.259986501979587614e-01,-3.271021120192437737e-01,-9.994201280683984168e-03,-1.211940926942159640e-03,1.065654688651934223e-04,2.420090675098691480e-04,3.165649175643920898e-01
-3.043859508921605839e-01,-2.955803320425285374e-01,1.148307546589677486e-03,1.950558660150459927e-04,-2.565248467466322603e-03,7.599691505862728007e-03,3.015483915805816650e-01
-3.290685642356622198e-01,-3.199368419441239175e-01,-6.416020853517362399e-03,3.100244624785645033e-04,1.726314403529928337e-04,1.054579371194827196e-03,3.181908130645751953e-01
-3.236916272263152816e-01,-3.246509220879829627e-01,-8.996388322293241702e-03,-9.735799793179916338e-04,-3.746678852866780810e-04,3.119511415496156303e-03,3.152274787425994873e-01
-3.166938862170355362e-01,-3.132339705089831616e-01,-3.809569432495357733e-03,1.375827229800657872e-04,-4.196673115238945496e-04,2.661417054154061675e-04,3.111700713634490967e-01
-3.188245193823278090e-01,-3.228745749315466984e-01,-1.523698512669049987e-02,6.546801914066003106e-03,1.415128076224505529e-03,4.645593253923371857e-03,3.059586286544799805e-01
-3.199364455053183010e-01,-3.177869650764206244e-01,-1.094863546576080315e-02,1.132210698379576883e-04,-2.565169728870473481e-03,1.222627109312085861e-03,3.079580962657928467e-01
-3.252592911634863415e-01,-3.163716653993994266e-01,-3.861720100217153062e-03,8.121156309770017397e-04,1.375424780210283515e-04,1.210472046523896478e-03,3.170573413372039795e-01
-3.085539749918897456e-01,-2.979595458413186737e-01,-8.981274363348001888e-04,-7.788878334052040317e-04,-5.980267199539894205e-03,7.923645950122550075e-03,3.029890954494476318e-01
-3.054467593307539364e-01,-2.982989381812618523e-01,-4.043600833220639679e-04,-3.049788437666351836e-03,-5.910199712974355431e-03,8.772247031490846766e-03,3.021342754364013672e-01
-3.189142733866540125e-01,-3.143670129696399806e-01,-1.658183161320603283e-03,3.747794309609887896e-04,2.011553780714537415e-03,-3.182181113033412997e-03,3.150752186775207520e-01
-3.243494187775117221e-01,-3.215405799736513748e-01,-7.854881428564358670e-03,-1.619139993010188796e-04,-1.763622398835720481e-04,4.434519020792518362e-03,3.151933848857879639e-01
-3.232122513146773457e-01,-3.167406359978536812e-01,-2.713924578656934372e-03,1.066899405956977511e-03,1.464004487290002272e-04,-1.266233959008140984e-03,3.173250854015350342e-01
-3.201724501928845390e-01,-3.141526327931434270e-01,-2.061148867074646951e-04,9.235085239434567307e-04,-5.684436633100896537e-04,6.356638746289097319e-04,3.170067667961120605e-01
-2.980410587637259412e-01,-2.981260016467102147e-01,-1.974120983349916814e-02,-3.032950824902380313e-03,-8.379585193012928715e-03,5.757921182575160765e-03,2.789483070373535156e-01
-3.205165701473969841e-01,-3.157392936839616970e-01,-5.283646051534696131e-03,7.333031675293927385e-04,-1.054486480280655619e-03,4.194200597934639660e-03,3.129638731479644775e-01
-3.159877070238318875e-01,-3.135440050209547524e-01,1.734836353838281608e-03,1.451067830853783672e-03,5.458557073902341010e-04,-8.857937852024718979e-04,3.165228664875030518e-01
-3.154672865652207725e-01,-3.119083726936774936e-01,4.353406486677924292e-04,6.854819785622242451e-04,1.388636282530387057e-03,-1.550972673939303957e-03,3.141612410545349121e-01
-3.205013407088396771e-01,-3.156973580414137448e-01,-3.686445891713518996e-04,5.311063529801102493e-04,-2.325886705484132529e-04,-1.359166261430015633e-03,3.177682459354400635e-01
-3.192115625005228496e-01,-3.158505121024038909e-01,-6.369475082454445491e-05,8.905650439909663148e-04,6.500525818554555300e-05,-9.587475459366842341e-04,3.174887895584106445e-01
-3.181519214683270480e-01,-2.284997478324369835e-01,-2.667687044880648339e-02,-1.098963475561217686e-02,-3.996810336748223870e-03,8.616916816567987344e-03,2.598015367984771729e-01
-2.962018737944711599e-01,-3.016308727006092316e-01,-1.227284637365388953e-02,-4.071727460590418048e-03,-1.093086262147617387e-02,7.981821371580613556e-03,2.877254486083984375e-01
-3.031088930197119446e-01,-2.690574984145309156e-01,-2.505966625625891120e-02,-4.440372251100017237e-03,-7.474768366800475100e-03,7.574240883866150071e-04,2.631185948848724365e-01
-3.163665484612541157e-01,-3.163749852194276957e-01,1.228927694988890540e-03,1.056658597363842669e-03,-8.006383656694892638e-04,7.475998015134896349e-04,3.176106214523315430e-01
-3.044342731692120663e-01,-3.036696763147179734e-01,-1.465364767538945845e-03,4.340277613451262360e-04,-3.811010144271465526e-04,3.525390806021418653e-03,3.026506006717681885e-01
-2.905524406708859253e-01,-2.897833168710801099e-01,-1.885308163817189797e-02,1.086937754175945061e-03,5.252946596660055222e-03,5.776822357190581833e-03,2.716589868068695068e-01
-3.052125290875890018e-01,-2.951266722616181504e-01,-1.467091761880132128e-02,-2.363082847197309124e-03,-9.002657347135066199e-03,-3.871168538968223702e-03,2.861654162406921387e-01
-3.018465607696587671e-01,-3.740343097495438252e-01,-8.209162843458800429e-02,-3.611346052831910375e-02,7.798856855334963811e-02,-2.065806264146385560e-02,3.046413958072662354e-01
-2.242003638777591012e-01,-3.001738712033914513e-01,-3.962535909006065227e-02,-6.794385478724924293e-03,-1.346976222585812791e-03,1.059927542793202750e-03,2.324005663394927979e-01
-2.938612687478150964e-01,-3.072666429209636729e-01,-8.001750045755651186e-03,-2.511780813596167783e-03,7.602153001304193247e-03,-9.285837790724697435e-03,2.935615777969360352e-01
-1.900638585234150357e-01,-8.058404318076012318e-02,9.564123016542844247e-02,-6.713207039412627530e-02,2.525919601749618618e-03,2.633245398129001325e-02,2.792020142078399658e-01
-2.897574681287891085e-01,-2.500446990276437575e-01,-4.529270039177460405e-02,-3.829566516953648685e-03,-1.792725375809396410e-03,6.434027302643142467e-04,2.273469418287277222e-01
-2.061060990045906482e-01,-3.064539229672603171e-01,-3.964482808800834368e-02,3.720019557494474386e-03,-9.780753285632433607e-04,2.836457794840367263e-03,2.335628122091293335e-01
-3.108356425892842556e-01,-3.052610606587974895e-01,-4.598967538243597941e-03,-3.309475376493760846e-04,2.721116706050817190e-03,-2.213463310254121155e-03,3.035491406917572021e-01
-2.458116816298007989e-01,-1.982783835694044983e-01,-4.621797676048561287e-03,-3.873300744201958051e-02,-1.732528456087958912e-02,1.988405920326505316e-02,2.357006222009658813e-01
-3.940471782890474506e-01,-1.149628353485817184e-01,-2.942999576979637988e-02,-1.267836261251161292e-02,1.186526879919841751e-02,-9.507350595697910620e-03,3.320399820804595947e-01
-2.591734961112002744e-01,-5.170008379868620829e-02,7.803224979454953525e-02,-6.727227686462540143e-03,2.183904548203781035e-02,-3.002876560900783962e-02,3.017672598361968994e-01
-3.356004835712699252e-01,-3.380091390592075973e-01,-1.021165558580992283e-01,-1.622719189546968080e-03,-3.919967547266854993e-03,-1.196278172198849722e-02,2.357249408960342407e-01
-3.380666230610171463e-01,-3.364865148926372562e-01,-4.301403238365586468e-02,5.483601503789316961e-03,1.769250973663654553e-02,-5.169209592378528478e-02,3.092536330223083496e-01
-2.857342678175051609e-01,-2.526940866765485794e-01,-2.152266819547535293e-02,5.401676571687589849e-03,-9.179564330500069452e-03,1.536402250813048362e-03,2.500344514846801758e-01
-3.140161614110892341e-01,-3.157973307067886148e-01,-1.963537213513888435e-03,-3.829432204586801294e-04,-3.433224679801826287e-03,-2.340928932745907787e-03,3.130304515361785889e-01
-3.161163550305098879e-01,-3.248968412046592258e-01,-6.123413211449471594e-02,-2.635717424245147354e-03,1.984778360344617836e-03,-3.585325048258473598e-04,2.594476342201232910e-01
-2.995869006248662592e-01,-3.182576758618680390e-01,-1.698934024430273637e-02,6.116478915129994307e-05,1.363281043906937155e-03,-5.393698292180249335e-03,2.925391495227813721e-01
-2.598057972867980348e-01,-3.762551758057193219e-01,-1.446161045258381739e-02,1.155681507611736186e-01,2.016689323993879970e-02,1.018734024313249290e-02,3.793729841709136963e-01
-9.702253275368769025e-02,-2.862880866350164810e-01,-4.514245540138600576e-03,4.620272204003669086e-02,-7.683540294537140325e-03,-1.070869357909831621e-02,2.623224854469299316e-01
-3.021438262138428921e-01,-2.189698855208564443e-01,3.595952938943683397e-02,-1.265966432094961791e-01,-5.070777291890570145e-03,1.539557181726626707e-02,3.768006563186645508e-01
-3.075445314248884121e-01,-2.673490664577841125e-01,-1.449280434935454331e-02,6.193817463785379791e-03,-1.346318244640807953e-02,-1.499027594332894703e-02,2.775763571262359619e-01
-2.572124337771183322e-01,-2.691398588931920299e-01,-4.171086505878895956e-02,-4.011158843790538220e-02,9.770813327618940811e-04,3.540188923197915352e-03,2.324238568544387817e-01
-2.539882120876606475e-01,-1.408042309646161394e-01,2.529116186568083902e-02,-4.740532427374183344e-02,2.515846739742266455e-02,-4.414568211994750191e-02,2.714494466781616211e-01
-2.487151104646992683e-01,-3.798449140764166287e-01,-5.098565313497807616e-02,-2.774883119039918758e-02,-2.419910078483179100e-02,5.410397158113143187e-03,2.938958704471588135e-01
-2.790448127499506326e-01,-9.325259771843838474e-02,5.004891506608649676e-02,-1.479773689532132286e-02,-1.784980085238741312e-02,1.327854814995145689e-02,2.895170152187347412e-01
-1.976241782277100290e-01,-3.062142214399651285e-01,-3.350782527019530166e-02,3.541392151493883388e-03,-2.217234000539157913e-03,-9.819390961099566141e-04,2.379131019115447998e-01
-3.668180154240668900e-01,-3.714260355280167292e-01,-6.628526964381831199e-02,1.025098994860602769e-01,-3.694253908139139703e-02,-3.616394414280431346e-02,3.623101115226745605e-01
-3.026396843352904265e-01,-2.762490642791182727e-01,-2.813406406704624385e-02,5.893198927283955016e-03,-9.248030513952978232e-03,4.058396214662276700e-04,2.629956007003784180e-01
-2.927845443885960242e-01,-2.494336287434712196e-01,-4.395496516599703418e-02,4.870363592558939365e-03,2.314010581817933267e-03,-2.854209538576633616e-04,2.304255664348602295e-01
-3.046694009254365954e-01,-3.039447624341471976e-01,-7.575259264350486799e-04,5.089380801435110886e-04,-2.480898898462422994e-03,-5.905983817566140721e-04,3.035836219787597656e-01
-2.382152630358173595e-01,-1.338724131829511499e-01,2.535241616351638361e-02,-6.846081858898295236e-02,-1.870441218442734505e-02,3.508956720673139101e-02,2.676901221275329590e-01
-2.337505511553087945e-01,-1.229191648115577351e-01,6.473069534767339483e-02,-7.028527529373812532e-02,-1.895687400489071009e-03,-1.719245719872807346e-02,2.898467481136322021e-01
-3.098050168341204280e-01,-3.221131271926410689e-01,-6.041575640945207049e-02,3.283846438056651704e-03,-1.020197135693253106e-03,3.527174696382234022e-05,2.558348774909973145e-01
-3.229434152064121766e-01,-3.329848601123976959e-01,-2.521669200505416431e-02,3.489533591487498695e-03,2.921583840527856683e-03,-2.224192760339934512e-03,3.029993772506713867e-01
-3.172543763583900445e-01,-3.276260427455551794e-01,-5.805793138186104985e-03,-7.278921637112581488e-04,1.015209478564485122e-03,1.153300500447602094e-03,3.167754709720611572e-01
-3.015923985993382850e-01,-4.112170476263107832e-01,-2.797628383960826248e-02,1.268516037018569687e-01,-4.424218511251973990e-02,-3.632006988297745154e-02,4.183084368705749512e-01
-3.083027107953181245e-01,-2.090642067792157499e-01,-4.206647026472662421e-02,8.284905279271668685e-03,1.595399486233829408e-03,3.886950660241980085e-05,2.335009425878524780e-01
-3.194503195701208775e-01,-3.228094982162830195e-01,-1.630904208384689746e-02,3.554594985195435545e-03,2.164050863448282319e-03,3.287126207312889535e-04,3.049204945564270020e-01
-3.151453025482386372e-01,-3.272293621192901569e-01,-4.791621777102045288e-03,2.302339088962477773e-04,-4.046805657539509927e-04,-1.264255895806338630e-05,3.165697753429412842e-01
-1.965317187400147658e-01,-2.981000341956887012e-01,-3.353399253964561844e-02,9.807107327416398051e-04,2.540808409813457194e-05,-2.587471783921367640e-04,2.311771512031555176e-01
-3.168625901762491259e-01,-3.305076971655676044e-01,-7.211984689813766281e-03,2.669353181054788526e-04,2.225306406662560751e-04,4.450924843385835761e-04,3.166952133178710938e-01
-2.748562634152584283e-01,-2.763880146004325522e-01,-2.478117538004767639e-02,1.571489063557463895e-03,-4.267605569745901335e-03,-1.257793953070847825e-03,2.509775757789611816e-01
-3.120465841721285494e-01,-2.245335253396922581e-01,-4.055104116396168745e-02,-2.575417757055669180e-02,3.041019526769236144e-03,-9.602583329990470318e-04,2.441911250352859497e-01
-3.693577774113834256e-01,-3.723566897572096468e-01,-1.198947929349253594e-01,4.574741250749234317e-04,-2.172508889252655585e-04,-2.665608847262448955e-02,2.551887631416320801e-01
-1.077579884980816027e-01,-2.844541396627715546e-01,8.997389979629566437e-03,6.504751884706187759e-02,1.697995408757861429e-03,1.057811541585999869e-03,2.796231806278228760e-01
-3.131739792354852892e-01,-3.248938154713203463e-01,-4.725354451651675447e-03,1.411056555597634465e-03,2.181511626286172843e-04,4.042550408068842503e-04,3.144828677177429199e-01
-3.179410092585378544e-01,-3.302170513344345748e-01,-9.714465532031896222e-03,-5.141782374100277355e-04,-1.330733779952979331e-03,-1.294731298571523978e-03,3.145619928836822510e-01
-3.177174596545661589e-01,-3.213953310704937838e-01,-7.298154227589059850e-03,2.231343998709981792e-04,-3.570405734524665937e-04,6.241096369261280475e-05,3.122753500938415527e-01
-3.164928868861339728e-01,-3.282442727497338897e-01,-4.416983499489490761e-03,-5.487852751199979486e-04,9.807292972050303970e-04,6.332144767868071915e-04,3.181222677230834961e-01
-2.291238372860432693e-01,-1.857532652616375457e-01,1.083764595350253379e-02,-9.864036697569424084e-02,2.523508328816143759e-02,2.260522494511762320e-02,2.858119010925292969e-01
-2.847343133364331202e-01,-2.265612868579625072e-01,-1.254749645604272268e-02,7.246423580541450082e-02,-4.370841303040039205e-02,-3.675806497156321184e-02,2.952520549297332764e-01
-2.896567204042161392e-01,-3.011524661975388817e-01,-3.511319638106477625e-02,-1.043626256020563185e-02,1.159985287661547543e-02,-1.280046704505613531e-02,2.628168463706970215e-01
-1.214049523981934470e-01,-2.195485212463288427e-01,2.803326908068906609e-02,6.753140709312810408e-02,1.760554528954281009e-02,5.672054141435498888e-03,2.476654946804046631e-01
-3.104005306650335361e-01,-2.935110474418010651e-01,-4.492769243708263915e-02,-6.252475244822214284e-02,-1.901594695029555290e-02,1.873186118127284985e-02,2.830951809883117676e-01
-1.693397733718296216e-01,-2.500515693124012451e-01,-1.280650292079013597e-02,-5.023672346927128551e-02,4.867358048656286046e-03,6.187331517206808322e-04,2.264830023050308228e-01
-3.153874222358742929e-01,-3.231009555307151615e-01,-6.306729277101158493e-03,-2.680842451443887602e-03,1.206642893165189119e-03,-2.288567265916628592e-04,3.130504190921783447e-01
-1.950122131838005757e-01,-2.721862391210095322e-01,-6.403193653722022427e-03,7.080592364981462550e-02,5.605067605400899239e-02,3.380426122581558362e-02,2.897905409336090088e-01
-3.136386366506233592e-01,-3.149313750017371238e-01,-4.815425221274871603e-03,-2.565490185294956593e-04,4.343764987482116001e-03,6.175474612607286971e-04,3.095652163028717041e-01
-3.142053332665892817e-01,-3.169878155136014453e-01,-1.122936520670309024e-02,1.437218762901502477e-03,-1.682341995471938563e-03,2.084044628942550558e-03,3.044222891330718994e-01
-3.815647148321085202e-01,-3.523167175620195990e-01,-3.015090738255726821e-02,2.694472519228731031e-03,1.542631101151433100e-02,3.143863829153044354e-02,3.431760668754577637e-01
-3.033739855722086265e-01,-1.530087967262574178e-01,-2.259224229199274792e-02,-3.907843175874089331e-02,-2.257717661508051865e-02,6.160785371171287328e-02,2.769935429096221924e-01
-4.663317230972945371e-01,-4.743465888801996488e-01,-1.266847140314998899e-01,-7.770972005795849513e-02,5.795927569665119267e-02,-1.886537204682754015e-02,3.839381337165832520e-01
-2.611625783592398942e-01,-3.151040859913789016e-01,-5.220671183228381418e-02,-6.181196102689653221e-02,7.412554406366825624e-03,-5.078275484428228584e-03,2.637195289134979248e-01
-2.312292810348654526e-01,-2.168807442157177634e-01,-1.270104835083218919e-03,-7.621997835565975932e-02,5.375488302170066540e-02,-6.322856136138720051e-02,2.964427471160888672e-01
-3.308790586788482591e-01,-3.229955000366016016e-01,-1.650689491537649101e-02,-1.032906058075026444e-03,4.910421035459897922e-03,1.025142241670021605e-03,3.106321394443511963e-01
-2.903931891461958847e-01,-2.489895051926115932e-01,-3.931189677874558086e-02,-5.428512160973494871e-03,4.694593641303644246e-03,-2.373856480503945749e-04,2.334846556186676025e-01
-3.127874178943518269e-01,-3.142328775322142942e-01,8.960773577877112483e-04,5.412384647111395620e-04,3.376852058626648740e-03,-2.365844314445084313e-03,3.144912123680114746e-01
-3.196058542948370107e-01,-3.168988181616088640e-01,-1.568625816014801444e-03,1.776651504970392075e-03,1.100168674105893394e-03,-2.911460893067763234e-03,3.167532086372375488e-01
-3.373847756982574775e-01,-1.842022542250225103e-01,-4.513332179211559936e-02,-4.388983066057326049e-02,-5.862860922872114786e-03,1.210751020713204951e-02,2.653861939907073975e-01
-1.822925431627648862e-01,-3.082580798029854741e-01,-2.535367772884608573e-02,9.561261019374886830e-03,-3.428379373620316084e-02,-7.225568192069044618e-03,2.534226179122924805e-01
-2.117134634555422057e-01,-1.415119557845239129e-01,1.230145323064452123e-02,-9.496180466239503848e-02,5.490552306271759796e-03,-1.111240596386138361e-02,2.586481869220733643e-01
-3.258283813171933829e-01,-2.512632239042960625e-01,-4.247638201911374534e-03,-2.802094983216618998e-02,1.713918001439652603e-02,-3.762172026535019753e-02,3.041025698184967041e-01
-4.172527246568624171e-01,-1.318098605005743884e-01,-4.032489972819880419e-03,1.293611197163209957e-02,-4.637636527565935918e-03,-3.095811346519381294e-02,3.711059093475341797e-01
-3.213048733308381810e-01,-3.206783361882356020e-01,-1.070507062724329606e-02,-5.977157154098412502e-04,-7.322640432992331277e-03,-5.309745509778774145e-03,3.106839954853057861e-01
-2.423601288639088691e-01,-2.488399194654669355e-01,-2.549569109595611893e-02,-1.563589594057032683e-02,7.977592871339635140e-04,-1.895767787772011711e-03,2.218637913465499878e-01
-3.068266077056528429e-01,-1.405313736571934813e-01,-1.356209407121253263e-02,6.311456436688174347e-03,-8.428489160459811183e-03,-2.706876277990763469e-02,2.596545219421386719e-01
-3.867156813071605526e-01,-1.398604603144134317e-01,9.588654268659846380e-03,3.107334693195049069e-02,9.719865982276991792e-03,-3.292549735974145686e-02,3.558049798011779785e-01
-3.151250871275362297e-01,-3.233923971583739787e-01,-3.505258183318565868e-03,-2.006201198356210354e-03,-5.446649154077789177e-04,-3.975280298908250238e-04,3.158559203147888184e-01
-4.583763497856420122e-01,-1.842284420345567941e-01,-2.192424769301914989e-02,-4.802970884287262321e-02,6.015136095027537842e-03,-6.609492519918453574e-03,3.913505375385284424e-01
-2.129928761486765132e-01,-3.189830151947319892e-01,-4.476401183984846099e-02,2.145832295575981954e-03,-8.167423410296050217e-04,1.027545626007748313e-04,2.395439594984054565e-01
-3.272834487589864616e-01,-3.222142259914144713e-01,-2.413789384681291894e-02,3.857280154120085874e-03,6.695574867949754096e-04,-1.095676988224447224e-03,3.007254600524902344e-01
-4.163255467688357081e-01,-1.511789792789467179e-01,-3.992409819977604801e-02,-4.104253856059029287e-02,1.074974649397786574e-04,-1.540029448597961086e-02,3.434300720691680908e-01
-3.232550117230306719e-01,-3.117776794189580647e-01,-5.383147927754675099e-02,5.643666073673669036e-03,-3.579953802180746176e-03,1.235801682004519612e-02,2.649918198585510254e-01
-2.990464780037082604e-01,-2.744577187022884113e-01,-2.974263230532037117e-02,-4.057771955524429493e-03,7.616725343424393495e-03,-1.155807922636210936e-03,2.583307325839996338e-01
-4.141502927598966211e-01,-1.618851851847848133e-01,-6.094289958561899256e-03,-4.861267605420546700e-02,-2.652282820717235222e-03,-8.115668585755957121e-03,3.667660951614379883e-01
-3.328473407244835203e-01,-3.297040920716639567e-01,-1.428617020065847676e-02,1.742569999609376629e-03,-5.415839597037325377e-03,-5.857896071586942560e-03,3.173166215419769287e-01
-3.064827963389916143e-01,-2.858024036694472025e-01,1.334676647307131425e-04,6.681601906364361722e-03,-1.015989435728469059e-02,-1.584057029063951766e-02,2.988254427909851074e-01
-3.037165613214290460e-01,-9.163550096469368078e-02,3.078257631818376305e-03,-1.810033407336053210e-02,-8.856916790606095833e-04,-1.074002115935717566e-02,2.745310962200164795e-01
-3.216759505170316835e-01,-3.170190586616581374e-01,-1.433252453679501048e-02,-7.124344398039265079e-03,6.193425230996742366e-03,-2.704287716425058264e-03,3.055154383182525635e-01
-3.932990851397488719e-01,-4.441051620422570290e-01,-1.122156814681577186e-01,-1.226345744448868458e-01,7.079904550685743592e-02,-4.808558357359145330e-02,4.036852419376373291e-01
-2.697640823494782403e-01,-2.788894927529804724e-01,-3.190096951435072992e-03,6.379798606552823485e-03,6.804851259236992765e-03,1.228150170649713185e-02,2.725639045238494873e-01
-3.117524784609361221e-01,-2.186413870536697002e-01,-4.064537041845459053e-02,-9.161390725302212545e-03,3.624286438339566034e-03,-3.559461497357253347e-04,2.392012476921081543e-01
-3.288463578427150980e-01,-3.196700095101708272e-01,-3.617133375766978798e-02,-2.222397140686382336e-03,-5.732925023407590363e-04,1.043398941507079833e-03,2.882295250892639160e-01
-3.276459346244749438e-01,-3.164123396364472152e-01,-4.718051160436387281e-03,-3.436156251544501480e-04,5.618089151695163531e-04,9.421126440202942827e-04,3.174664378166198730e-01
-1.749579363816780031e-01,-3.198060378791466873e-01,-1.638643338902567859e-02,-6.660389584769443871e-02,5.871152898492155991e-02,-1.602533678187132923e-02,3.058013617992401123e-01
-3.272397949888888879e-01,-3.184189397658189757e-01,-8.569714202853073726e-03,8.022089217620267335e-04,-8.565747293015134149e-04,-3.963128312765161108e-04,3.143598139286041260e-01
-6.437795501339127480e-01,-5.861891405139960654e-01,-1.666235089504901068e-01,-1.912091096576589919e-02,2.525366617297287314e-02,-7.991555656687263087e-02,4.750626087188720703e-01
-2.816332454020171738e-01,-2.966461925319335835e-01,-1.250387366514035814e-02,-1.633366386003914841e-03,3.638086060958660439e-03,-8.475754281020018294e-03,2.774160504341125488e-01
-3.540234779709391377e-01,-2.110022411313144663e-01,-5.952980375617067388e-02,-3.818313724459407310e-02,-8.570838044135110825e-04,-8.242128050189046970e-03,2.638988494873046875e-01
-2.369298911701164245e-01,-7.825597435016229397e-02,1.111700196633449989e-02,-6.986783201770319085e-02,-3.030182178322795954e-03,-1.495294779711019801e-03,2.490479797124862671e-01
-3.754200565872549689e-01,-1.972008021394363875e-01,-4.586914997673699479e-02,-1.005411330495750016e-02,4.998702688218700611e-03,-1.411151223233774767e-02,2.874181866645812988e-01
-3.178097858440879775e-01,-2.867947908396698553e-01,-6.352362920720375228e-02,-6.646116550977206050e-02,-3.928591923003581926e-03,8.908982838641908708e-03,2.669688463211059570e-01
-6.644919428343938339e-01,-6.460000875061673309e-01,-1.813731775073358921e-01,-2.228958808670570765e-02,3.108143629054562623e-02,-7.985264015554181805e-02,4.983271062374114990e-01
-2.793425320238847043e-01,-2.811470817945133649e-01,-1.688667728459772310e-02,-3.833807410834221083e-03,2.178353311731839621e-03,-5.961371417054240132e-03,2.636757194995880127e-01
-3.216211889212584052e-01,-3.165262379487869260e-01,-1.955826096601903652e-02,-4.427057432631051510e-03,-2.468334885059180221e-04,5.854585290278633636e-04,2.996481060981750488e-01
-2.817452998423942145e-01,-1.429542543710755897e-01,-1.911938817637154342e-03,-1.945927319354505067e-02,2.258703524582100829e-04,-1.338452031614150751e-02,2.457740455865859985e-01
-2.489289565985936814e-01,-3.375154606469836227e-01,-3.970991906166085328e-02,3.568779455540897066e-02,3.294954444834152785e-02,1.236825128493102346e-02,2.787309587001800537e-01
-3.183843663781633082e-01,-3.205429603957876683e-01,-1.418230034753120705e-02,6.346210326535017474e-03,4.289997345155038486e-03,-4.342073862982842418e-03,3.056677877902984619e-01
-3.351151067816752205e-01,-3.383662807230482517e-01,-1.655880869497691754e-02,1.051135936599459147e-03,-7.210977013426187604e-03,1.073928372471131057e-02,3.209823668003082275e-01
-1.936665983492456000e-01,-2.770373494269453563e-01,6.376430041960035044e-03,2.107769584930763510e-02,3.137000283268983475e-02,9.742662049083482961e-03,2.611808478832244873e-01
-3.654014104247485517e-01,-1.855782726862305887e-01,-4.915397722958786408e-02,9.278435591298142548e-02,3.405185995489146827e-02,1.988469805590374964e-02,3.255330920219421387e-01
-2.661299311481415963e-01,-2.621824734065090201e-01,-3.170108263745952115e-02,-5.422299841553353261e-03,2.301191376943987482e-03,-7.202519042921653319e-04,2.327073663473129272e-01
-2.699140096127665700e-01,-2.690205017528648490e-01,-2.968193885298492374e-02,6.167962036420613844e-03,3.680890932836512492e-03,2.440213996222907657e-03,2.401462793350219727e-01
-2.275828286145954171e-01,-2.962891606287915147e-01,-4.215705616290155167e-02,7.206819319549689386e-03,-3.610461213570361947e-04,4.161701878287036270e-03,2.281476855278015137e-01
-2.309928109677143182e-01,-3.023153554860376624e-01,-4.483675143458604184e-02,6.643274106920478775e-03,-3.400532888433002894e-04,2.798204757800758224e-03,2.305956333875656128e-01
-2.992554828236501652e-01,-2.273365070799980014e-01,-2.471775768381317961e-02,5.377911426984045319e-03,-9.463067194358430745e-03,-8.235840087214714098e-03,2.477049231529235840e-01
-2.652180206726884593e-01,-2.891432939495963139e-01,-7.501753975783814754e-03,5.617090748879189493e-03,9.721312953979693167e-03,1.056646702458825457e-02,2.717887759208679199e-01
-3.003770437804885729e-01,-4.556767962076757050e-01,-6.144505573481479077e-02,9.560992432823908760e-02,2.540703240313814740e-02,2.254413746942954613e-02,3.862610757350921631e-01
-2.558884336411129667e-01,-3.022911731854550088e-01,-1.939113629427080543e-02,2.752291837821508463e-02,2.358326753838784276e-02,8.780129952120895379e-03,2.706115841865539551e-01
-3.129334453357651702e-01,-3.166443013033184428e-01,-2.331859622016180245e-03,5.650293725608459845e-04,-3.413867966775092824e-03,2.341467040521894288e-03,3.125573396682739258e-01
-3.709121390880404379e-01,-3.672647844122983174e-01,-3.226111778273774156e-02,9.816187444021330644e-03,1.110275753782272341e-02,2.202327769839189722e-02,3.399655818939208984e-01
-3.894507910432248865e-01,-3.662246387998073782e-01,-9.851451880296255292e-02,1.139283790686797986e-03,8.353317096084731178e-03,-5.163944305981735781e-03,2.805695235729217529e-01
-1.820582985779877205e-01,-2.643707235264207145e-01,-2.090195877078934727e-02,3.870245282818592786e-02,7.015379642045635813e-03,5.412806222666179806e-03,2.252577394247055054e-01
-3.289066954260136955e-01,-2.519379349815708546e-01,-3.468719304049741603e-02,4.230299118799914215e-03,8.240145911299682352e-03,7.926686419503380012e-04,2.647694647312164307e-01
-5.614763666293856037e-01,-3.190900724787021359e-01,-1.264892819949207936e-01,-1.975807879859129562e-02,8.771763970728169851e-03,1.011379123934876417e-01,4.178738892078399658e-01
-3.288258083823475397e-01,-3.213403001717838325e-01,-3.340418079564430598e-02,-3.956105507762844482e-03,7.676474905655168154e-06,-2.976603470804954459e-03,2.918768823146820068e-01
-3.298536057563715707e-01,-3.305049336303889640e-01,-6.889332300479103499e-02,1.535638713746219630e-01,4.414823850357391805e-02,2.093453152457255134e-02,3.823325932025909424e-01
-3.272953364441071322e-01,-3.195151087944834156e-01,-7.092033052079496636e-02,-2.201325228934013310e-03,-8.718864968786543173e-04,1.683034885374216623e-04,2.526082396507263184e-01
-3.010416150020113202e-01,-4.959076909294822810e-01,-9.642309990848368928e-02,-7.927506645497035820e-02,5.830655931741456771e-02,-2.234423729678522430e-02,3.876404166221618652e-01
-2.675194754583671841e-01,-3.016314431209800584e-01,-2.344442792207698800e-02,1.556099657280451617e-02,1.581279344879104459e-02,7.042613859852949777e-03,2.658711969852447510e-01
-1.969388996557856208e-01,-3.759381611423713299e-01,1.304014086729032851e-03,1.090825795490454608e-01,-1.043304023759444692e-02,-3.826097950137854770e-03,3.780129849910736084e-01
-2.269401071703354145e-01,-2.045892565320971968e-01,-7.879704438010365353e-03,3.224938283328761257e-02,4.674566819013706472e-03,4.200967042870941935e-03,2.164010256528854370e-01
-3.177506696714896828e-01,-3.245569758246009129e-01,-2.758066123963101579e-02,4.409796024744177742e-03,-3.356443618584834584e-04,8.597774090127467857e-04,2.937360107898712158e-01
-3.150310479178057843e-01,-2.198107835291893408e-01,-3.217214436832729896e-02,-5.428865580593553175e-02,-1.543523253689953710e-02,2.176243489466002379e-02,2.704061567783355713e-01
-2.965485739119410047e-01,-2.893023227015996124e-01,-2.129120367719761209e-02,8.248107736200064200e-04,7.497081323646746613e-03,4.703330738617081917e-03,2.721425592899322510e-01
-2.802958445705625024e-01,-3.032932249474655229e-01,-3.247047951199860671e-02,3.536844321592591458e-03,-7.863546452138868350e-04,-6.710256659276846170e-03,2.604229152202606201e-01
-2.051700320261409527e-01,-3.138493740057519688e-01,-3.793335297655486826e-02,6.955329646831200523e-06,-1.817735172962901390e-03,2.018088586140712973e-04,2.407582104206085205e-01
-2.450845403979087234e-01,-3.122631837417064182e-01,-2.155977847563547711e-02,-2.203480000771303009e-03,-8.661237762277246765e-04,4.279979103719578661e-03,2.637501657009124756e-01
-3.202818464186274472e-01,-3.211595903514775086e-01,-8.392830227091993556e-02,1.158024896668884227e-03,1.055747753557556567e-02,-3.108065681343844758e-03,2.375681102275848389e-01
-2.963422257409504823e-01,-4.041326516616431386e-01,-4.582333561166218594e-02,1.329382704411401772e-01,-3.209652535720125544e-02,-1.461060425622486350e-02,3.976565599441528320e-01
-2.191770649144176575e-01,-3.598476359696050064e-01,-4.579562418363478105e-02,2.608152412537142681e-02,-3.484717546191673076e-03,-4.151460744731469248e-03,2.763473689556121826e-01
-2.823061876984677143e-01,-3.086056532187206325e-01,-2.804363495629941250e-02,9.944679075421292147e-03,-1.273811836060071041e-02,-1.213469165658992432e-02,2.706534564495086670e-01
-3.179878588032771791e-01,-3.239819380531521187e-01,-8.952475794965975009e-02,-3.192804995903535895e-04,-7.742380270162800213e-03,-8.711553444551444619e-03,2.323974072933197021e-01
-4.197075871310264050e-01,-2.597060566024668171e-01,-5.212671650293487779e-02,8.112347792583234074e-02,1.435756186298769478e-02,4.039876036602432774e-02,3.565954864025115967e-01
-3.315849147005481834e-01,-3.358725855679104422e-01,-8.400735441537443560e-02,-4.661251524198726029e-03,-5.857941088865361440e-03,-4.124137694645584051e-03,2.501873672008514404e-01
-3.305676027967118236e-01,-3.316994350344110720e-01,-9.846227647947208839e-02,5.887119057779866948e-04,9.663522190242251550e-03,5.298771942871512500e-03,2.334572523832321167e-01
-3.549451331592136105e-01,-3.419126164200347318e-01,-1.045951510066155665e-01,-2.930625865047697173e-03,3.927346567507875724e-03,3.045487403519333224e-04,2.442428767681121826e-01
-3.872474326115903365e-01,-3.920823758867928444e-01,-1.631720763502026716e-01,4.207991758317036236e-03,-1.237995731336406606e-02,-1.410101889993080858e-02,2.289671599864959717e-01
-2.737882597611808189e-01,-2.552705903249999353e-01,-3.699247835302305054e-02,7.983697649333397484e-03,2.644761564679429765e-03,2.161610858727132378e-03,2.285967171192169189e-01
-1.713736962984869494e-01,-4.121752082977305776e-01,6.057395806216919754e-03,3.489910161363640739e-02,1.221996976621755708e-02,-3.157847176793336023e-04,3.691814839839935303e-01
-2.426930282820586315e-01,-3.045239982503090137e-01,-1.930888691318843886e-02,-4.126952814381994921e-04,1.011210623867923267e-03,-5.596938967700524833e-03,2.600637674331665039e-01
-3.489264908631751205e-01,-3.508711172715300863e-01,-1.286308892599362930e-01,-6.665174246162658021e-04,1.493509664656774046e-02,4.767358156646599415e-04,2.227858006954193115e-01
-3.695839375529728077e-01,-1.802338995751985307e-01,-5.202113514551690021e-02,2.678504847346320668e-03,4.495991114608177512e-03,2.705583172294677777e-03,2.768991887569427490e-01
-2.257821113540706137e-01,-2.972685083724869726e-01,-3.712049407820880442e-02,-5.699642264340787530e-03,7.580044598780488925e-04,-3.198959537729303276e-03,2.330667972564697266e-01
-3.330704081559700547e-01,-2.422994673516323250e-01,-4.720532510678626670e-02,-5.991193253619377795e-03,-2.391991758250638488e-03,1.074972154403763987e-02,2.539320588111877441e-01
-2.159804326611511338e-01,-3.136688376239830101e-01,-4.344127111984780187e-02,-2.315709582930505078e-03,-4.127601891411018407e-04,3.053075804364956732e-03,2.370916008949279785e-01
-2.379541186089358940e-01,-2.855738537317675241e-01,-2.172191668717479707e-02,8.905354846691814624e-03,-8.285159673296699917e-03,-1.148331751894182337e-02,2.452761083841323853e-01
-2.417543989166329732e-01,-2.809009352178682417e-01,-2.564976200719207289e-02,2.389030961906629669e-02,-8.009531583031028260e-03,-1.232545363123358981e-02,2.430099993944168091e-01
-3.214559721408879467e-01,-3.135075538574543796e-01,-2.235932389888312111e-02,6.117434414225795744e-03,1.843718663408096519e-03,-6.106721563340892665e-04,2.954119443893432617e-01
-2.265081836145934058e-01,-3.027050220623971333e-01,-4.213736517835872664e-02,6.379540715920478666e-03,-4.604027735273294626e-03,4.902986994301770929e-03,2.326044589281082153e-01
-2.158488708945899281e-01,-3.215845585956740305e-01,-3.554209454591403250e-02,-1.940119593230277967e-03,-1.143510435971424599e-02,-1.831748210656037332e-03,2.513345777988433838e-01
-3.981908349459850616e-01,-3.767332903397995758e-01,-1.073020786165956586e-01,1.229818815530649828e-04,2.078535333509055200e-02,1.583140092365577928e-02,2.843993306159973145e-01
-2.958156558412528003e-01,-3.083888690175953240e-01,9.462823792481533935e-04,1.278371396224451865e-05,-6.825064718545166553e-03,1.850440633666754773e-03,3.034913539886474609e-01
-3.029235613839076358e-01,-3.272193128992834099e-01,-1.985190102585146499e-02,-1.888521471730469784e-03,-9.476206262950226085e-04,5.787724079089337677e-03,2.961607277393341064e-01
-2.770576829669024743e-01,-2.735514211895724856e-01,-3.342583086437717066e-02,2.208585274559657016e-03,1.725241024151192301e-03,2.026074087652443567e-03,2.419719249010086060e-01
-3.037302568008078407e-01,-2.016960201286794596e-01,-3.115323301292377556e-02,4.397059667911352185e-05,3.609961667987313539e-03,2.996001522774495007e-03,2.386693507432937622e-01
-3.036666077018072007e-01,-4.572002916190448518e-01,-8.151307682810213229e-02,8.970767591736103497e-02,-4.404539587880462737e-02,-2.441596599996913308e-02,3.725367784500122070e-01
-3.239456321630532210e-01,-3.115183067604518907e-01,-3.661478165291023879e-02,3.593599954355955212e-03,-1.458092539777667467e-03,-4.954711162171701513e-04,2.814046144485473633e-01
-3.379336621266508800e-01,-2.376739808702221513e-01,-5.219445831300417726e-02,8.821021996242741151e-03,7.316405411009584006e-04,6.834368893075887935e-03,2.518450617790222168e-01
-2.457217004617719969e-01,-2.885353815602093031e-01,1.463944630354485632e-03,9.144765992278539729e-04,-1.335274705316611549e-02,-6.005353862025958160e-03,2.723275125026702881e-01
-3.702241667621342658e-01,-2.555102468315849085e-01,-2.981549220757936935e-02,3.813875617096901130e-04,4.497369896586490140e-03,3.691286900556164235e-02,3.068167567253112793e-01
-2.846197326647512682e-01,-1.501948365694182053e-01,-1.375526255142800469e-02,1.115241722219007837e-02,1.630740698635685859e-03,1.460921080336651315e-02,2.367447614669799805e-01
-2.789468035617750363e-01,-2.817265055497469306e-01,-4.047451146950103995e-02,1.027195236435650633e-03,9.707347201893559664e-04,1.880202430013472401e-03,2.399088144302368164e-01
-6.545439051528612051e-01,-6.495666027217142924e-01,-1.985773359494863999e-01,8.274734108095666008e-02,-1.053834985045515454e-01,-7.276712453974248929e-02,5.247898697853088379e-01
-1.638899336851518951e-01,-4.262025166681934762e-01,-4.976079997563648272e-02,-4.969119574161317806e-04,-5.714307590545657234e-02,9.544165182931028252e-03,3.490571081638336182e-01
-3.263129173957453055e-01,-3.222993405632170738e-01,-8.171289217195465415e-02,-2.227663190268187442e-03,6.792943030102721602e-03,-8.449747508272687033e-04,2.429383099079132080e-01
-3.519934139863951650e-01,-3.674407499882422767e-01,-1.207893410102620635e-01,-4.422735486909376004e-04,1.029536304065957822e-02,7.611046295341771656e-03,2.403284907341003418e-01
-2.924446278364729590e-01,-2.791169723525050439e-01,-2.796587083747487101e-02,-1.741345517905294651e-03,-7.432377229011995559e-03,1.097794203245351782e-03,2.584186196327209473e-01
-2.898443734274305239e-01,-1.044109259090323372e-01,1.634598330905512320e-02,4.590013257408295105e-02,-2.228246167791976626e-03,-2.745774223871345204e-02,2.827672362327575684e-01
-3.164009838643110362e-01,-3.266836011585239063e-01,-3.255581114905897744e-03,-1.126250669865390018e-03,-1.812530122194162254e-03,4.234699793296475899e-04,3.184335529804229736e-01
-3.095441405006632007e-01,-3.083452548196031762e-01,9.958027175428763034e-04,-5.974726543744565731e-04,-3.938461694886854526e-03,-4.648631208618214140e-03,3.101235628128051758e-01
-3.189811264607606001e-01,-3.299446579566572835e-01,-2.524225629942927762e-02,1.622877066124266219e-03,9.461129820335632302e-04,4.004096483842226224e-03,2.994692325592041016e-01
-2.738909066112973911e-01,-2.738900161580158921e-01,-3.552020286788548642e-02,1.080633960445076883e-03,9.468206812596766195e-04,-2.204936033851697004e-04,2.383835464715957642e-01
-4.457031598410913231e-01,-2.151138382317895337e-01,-3.230902220105846823e-02,-6.024583026956784049e-02,2.183951340897415452e-02,-9.341604211990163498e-02,4.089512526988983154e-01
-2.902268391644059475e-01,-2.728127065137642693e-01,7.824481891771484232e-03,-4.428400334511072359e-03,1.204487862698933563e-02,-1.770635169005636139e-02,2.922022342681884766e-01
-3.218396158217330383e-01,-2.355220546089115408e-01,-3.151331428094708564e-02,6.951426101318351845e-04,1.910836931755167120e-03,-2.510469105578579715e-03,2.582849860191345215e-01
-3.156704069763924259e-01,-3.230976835652379364e-01,-9.837637374465915685e-02,4.615969807945753201e-04,-6.964518855610647707e-03,1.188328984093146813e-03,2.214410901069641113e-01
-2.872064338207569456e-01,-1.744677171214094602e-01,2.532416018643013356e-03,-3.965230637777316519e-02,1.532287226231854663e-02,-3.064970926362669060e-02,2.687625885009765625e-01
-3.278791776414216042e-01,-3.230251176052927886e-01,-5.856303809806071015e-02,5.044328762666225145e-03,1.801502882087449909e-05,1.971800176742200417e-03,2.670870125293731689e-01
-3.701125460441942461e-01,-2.878914287167279595e-01,-2.358605012865386263e-02,-1.110585407472572811e-01,1.863947741213049791e-02,-3.119744690366152776e-02,3.732469081878662109e-01
-1.916365472533700376e-01,-2.859364192774118685e-01,-2.098311785101913962e-02,1.370335895398119321e-02,-2.694598328692248638e-03,-4.529538111962430266e-03,2.339964359998703003e-01
-3.173516527800015474e-01,-2.976943773755080236e-01,-1.186932754599145934e-02,-8.356128975139353590e-04,-4.766176454168967631e-03,3.546535286413664886e-04,2.962625920772552490e-01
-2.959243379495609672e-01,-2.434044760684055675e-01,-2.690552406248614137e-02,-4.775904225792355386e-03,6.637555157087476551e-03,-3.099913421324975923e-03,2.474470734596252441e-01
-3.050495403503063474e-01,-1.926729671523757514e-01,-3.019140307609569085e-02,3.244765015488024207e-03,-2.979428508227488850e-03,-1.267098511554253740e-03,2.394804954528808594e-01
-2.835866264448412832e-01,-1.917696273973742704e-01,-8.450883683367382826e-03,-1.483899970288880821e-02,7.124880879916423680e-03,-1.230789441379433538e-02,2.452248632907867432e-01
-2.709349955854295500e-01,-2.185674341797347597e-01,1.065116012547462354e-02,-3.110420371662512423e-02,2.120405525089393700e-02,-4.061416022217374105e-02,2.765626907348632812e-01
-4.167788954542429591e-01,-4.895879369304405593e-01,-1.159154063181779548e-01,-6.545026810656257021e-02,4.396611274285133070e-02,-4.478917134083840179e-03,3.693724870681762695e-01
-2.872474694217811986e-01,-3.103785957484875846e-01,-8.008139617157572498e-03,-1.415164065321399120e-03,-1.746256409857469428e-03,2.913981024427718045e-03,2.915637195110321045e-01
-3.116171073643543843e-01,-3.140149908233227372e-01,-8.211277467595895496e-03,-6.567030753143650052e-04,7.357192551227471032e-03,4.756281736394065741e-03,3.049916923046112061e-01
-3.220729647807704654e-01,-3.228822645260216451e-01,-4.599403814281577407e-02,4.550067216468381068e-03,-1.118927646300748842e-03,1.276940510197874462e-03,2.766124010086059570e-01
-2.241459892795864273e-01,-3.050835223776702798e-01,-2.953319696786882442e-02,8.296845304116983941e-03,1.179373101185384604e-02,8.202504180155383018e-03,2.469861060380935669e-01
-3.018093492863271887e-01,-2.194280424326230938e-01,-2.676594212461944067e-02,6.176093108146939875e-03,-6.604466334926470915e-03,-1.294279672200401680e-02,2.460182011127471924e-01
-3.074815567955863638e-01,-2.991052859911469408e-01,-4.546555391751222475e-03,-3.172145001691694440e-04,-5.170124837805429967e-03,2.263371345967602356e-03,2.989952862262725830e-01
-2.897978231899572821e-01,-2.074287859253262922e-01,-3.380918855367073816e-02,-6.583322941352887092e-03,-3.356266529369569124e-03,9.597989945046293521e-04,2.267065942287445068e-01
-3.421039133471479587e-01,-2.257152773080979002e-01,3.579761767688344198e-03,-1.215725698705635849e-01,-2.134836998634452240e-02,1.906603084586537197e-02,3.736406564712524414e-01
-3.076354172414124122e-01,-2.147616808958891788e-01,-2.702228296215647418e-02,9.873802484018480777e-03,-2.106574610705308319e-03,-1.472164540844445903e-02,2.495268285274505615e-01
-3.173329115080807949e-01,-2.506922580524184596e-01,-3.047024554529037532e-02,5.686940408224617875e-03,-6.798568718266020071e-03,-7.623954039177780438e-04,2.604839205741882324e-01
-4.167101987715918776e-01,-1.941028823027512173e-01,-2.888952802270694509e-02,-7.704662088124376862e-02,9.519352281691503478e-03,-4.084246749405220922e-02,3.697457015514373779e-01
-2.641131677357293484e-01,-2.360476232074227299e-01,-2.788657617582118720e-02,9.818505907044264291e-03,4.491875990855462124e-03,3.365105401224978334e-03,2.243759334087371826e-01
-3.531449521924657775e-01,-3.249208111203168992e-01,-3.007817983550001295e-02,1.335038026239617447e-02,3.192900263535773317e-03,-8.612394004086745478e-03,3.111884593963623047e-01
-2.170038767244596434e-01,-3.082645372626998670e-01,-1.722365265174077842e-02,-1.171358635353949088e-02,-2.777366098191441993e-02,1.383201165344749399e-02,2.641447484493255615e-01
-3.084608942170159462e-01,-2.600673841975210121e-01,-8.297528896783257224e-03,-1.367585891523121974e-03,6.907360676426724938e-03,-1.191448321425362701e-02,2.801582217216491699e-01
-2.305353531862583127e-01,-2.817360086084435000e-01,-3.203053968550695352e-02,-7.846621831766124530e-03,-1.033181570660174917e-03,4.207056834179405055e-03,2.289765328168869019e-01
-3.076564953664657209e-01,-3.013834045306527099e-01,-1.670722216058187493e-02,3.887673362766136918e-04,-7.905041438663247891e-03,1.097289117451026976e-03,2.881964743137359619e-01
-2.221106770027378163e-01,-2.848261891732425943e-01,-3.289364249652193539e-02,-1.394927426525595544e-02,-2.725945345356023744e-03,1.557929510808242273e-03,2.285092622041702271e-01
-2.622148710384777370e-01,-3.040562890810926122e-01,-2.797234841043449993e-02,-3.143294938187666913e-03,2.057230926474478468e-03,-7.034668723908771466e-03,2.580932080745697021e-01
-2.687171558919098091e-01,-2.983899161815596335e-01,-2.902476633853515176e-02,-3.162414386189876195e-03,1.808568756542877371e-03,-7.550596035077358249e-03,2.562344670295715332e-01
-3.001968751772811639e-01,-2.714213730364983257e-01,-2.937553474648274543e-02,-4.178344209451620613e-03,9.694245380557743944e-03,-2.870655385946861878e-04,2.582900822162628174e-01
-2.487504259255750028e-01,-1.624242056613088847e-01,-1.155399536924572867e-02,-4.700894750516933923e-02,2.827636412833151904e-03,2.040998809925883078e-05,2.233642786741256714e-01
-3.303600902917971927e-01,-3.345923339101004590e-01,-1.244734064090035064e-01,1.053844588899758130e-03,1.193550250800278151e-03,5.329908003145929218e-03,2.082580924034118652e-01
-3.306189953831514261e-01,-3.313956840483325283e-01,-1.112432286436971229e-01,2.615539759250792504e-03,-2.301314246666356662e-03,1.861870822164914119e-03,2.198716104030609131e-01
-3.463832024625936867e-01,-3.387583594078756866e-01,-7.635113345733188228e-02,-6.850216286593137360e-03,3.558197093545347606e-03,3.220594152921150369e-03,2.666952908039093018e-01
-4.075098310003639202e-01,-4.061712830069421631e-01,-1.000201348305509441e-01,3.194977450480124444e-03,4.957037061566654627e-03,-2.779503471358021199e-03,3.070303499698638916e-01
-3.622479814003178866e-01,-3.323152180605863371e-01,-8.000059390187697073e-02,-2.222884998662295539e-02,-1.025205081592465636e-02,5.493259867968264959e-02,2.880305051803588867e-01
-2.448861577809264556e-01,-3.023434866964211931e-01,-2.410727894755401723e-02,-1.436206647144736221e-03,-2.017562832630367085e-03,5.661923944819475391e-03,2.546460032463073730e-01
-1.893186077212765106e-01,-2.991951651508089061e-01,-2.962523722882898225e-02,6.975341865256478799e-04,-1.237658359025823381e-03,-7.030270370155776178e-04,2.347954958677291870e-01
-3.045985849907073550e-01,-2.038284403325073546e-01,-2.334160146298283611e-02,2.117880328647365768e-03,-4.187605614249695655e-04,-1.388747288923353022e-02,2.480128556489944458e-01
-3.407011521724329084e-01,-3.445354278221360866e-01,-1.009103137469303246e-01,-3.032901124159757735e-03,-1.673347746767446433e-03,1.217241907370188517e-03,2.418144196271896362e-01
-3.311249913855626725e-01,-3.286777851096135405e-01,-9.632085277002622181e-02,1.659086190056403712e-03,2.233231687898191552e-03,-2.461573444913136600e-03,2.336787432432174683e-01
-3.415400399213859295e-01,-3.709053164754365639e-01,-8.985721110450020643e-02,-1.443937077594430532e-02,-5.110932299744814361e-02,2.092955856513900679e-03,2.829706966876983643e-01
-3.028475224941275523e-01,-3.060577027357784252e-01,-1.154860651278788453e-03,-1.316025924131931316e-03,3.122987258741383816e-04,7.252559006432388695e-04,3.033221364021301270e-01
-3.047781135187399015e-01,-1.995542921476659015e-01,-3.417003763128093063e-02,1.588058851136986893e-03,9.524740073746634089e-04,1.107844339730433645e-03,2.363055944442749023e-01
-2.801957280702433994e-01,-2.821060510898837359e-01,-1.693911627342920001e-02,3.755843323336532490e-03,1.893460092492224404e-03,4.136068494527696260e-03,2.644144296646118164e-01
-3.293309385224850727e-01,-2.996207516142589400e-01,-1.525963910251987299e-02,-2.822826189197381245e-04,5.552454785575758160e-03,2.003286243087347245e-04,3.004749715328216553e-01
-3.079899748235587209e-01,-2.984520066376806779e-01,-1.007378885549414793e-04,-6.766468326468441999e-04,5.860792196260440276e-03,-8.446174443203740070e-03,3.037573993206024170e-01
-3.182778310432203828e-01,-2.111845409262946005e-01,-3.921780619677070479e-02,-2.472645413976471036e-03,-3.010053870169575665e-03,-2.022163182256743550e-03,2.439586073160171509e-01
-3.265250627582548248e-01,-3.230778217504875482e-01,-3.460971386905373204e-02,-5.038983283317514765e-03,4.023633647180190932e-03,-8.400040830766120938e-04,2.904255688190460205e-01
-2.959353697204136768e-01,-2.293875686851076234e-01,3.398397374455380815e-03,8.477344771429046882e-03,-7.714712240072587116e-03,-3.299662383692770345e-02,2.788723409175872803e-01
-2.859321734561229844e-01,-1.904314644389801248e-01,-2.563970357060180172e-02,1.251146637727627853e-02,-4.522577839862882321e-04,-1.145006366783669471e-03,2.291038930416107178e-01
-3.821774454214358352e-01,-1.371441556868238654e-01,1.269973936402735148e-02,-4.195789188452722640e-02,6.581264531810484403e-03,-2.087092681430479865e-02,3.548652827739715576e-01
-2.889742111794837420e-01,-2.515933533918375264e-01,-1.790887889788539411e-02,2.662635814637338144e-02,1.863062707577093496e-02,2.029078227790342970e-02,2.629532814025878906e-01
-2.952209641601350465e-01,-6.213092130462844614e-02,2.724805188166831704e-02,3.169713368025463621e-03,-1.210551932781758072e-02,-4.247839472334158373e-02,2.983888983726501465e-01
-4.447119515526422040e-01,-2.866271359033046306e-01,-8.410094965055570082e-02,8.054873270704886179e-02,-2.396065697819337037e-02,-5.899116579154533441e-02,3.600701093673706055e-01
-2.552050594332784250e-01,-1.541382408302319484e-01,2.219512854243266275e-03,-6.281940112644156249e-02,-7.919092833554554345e-03,1.098658901978873635e-02,2.507068216800689697e-01
-2.721118164804627870e-01,-2.803451861251674004e-01,-2.385356003979696715e-02,3.361854810847301686e-03,-4.530318906993996593e-04,-6.199694699265563373e-03,2.527721822261810303e-01
-2.269001432271642860e-01,-3.339337716707032611e-01,-3.669210472846953786e-02,4.420034685024748500e-03,-1.713381870367607432e-02,-3.093307813726420448e-03,2.626061141490936279e-01
-2.933952415454300633e-01,-2.401028203970446417e-01,-4.391455603504149097e-02,2.650628934641760179e-02,-2.736056165167168736e-03,2.470353587152522134e-03,2.322364747524261475e-01
-2.709118596768376186e-01,-2.987834802169505588e-01,-2.536756774966653083e-02,2.686300635910456210e-03,7.117380417376375785e-05,-8.607673319354825284e-03,2.610679566860198975e-01
-3.157741667602187441e-01,-2.127597675910359309e-01,-2.961049091993145366e-02,-2.581740788027896746e-03,-2.153377408082932619e-03,-1.473348483074400639e-02,2.524039745330810547e-01
-3.077555713851998220e-01,-2.162279132128253623e-01,-3.706329245906561654e-02,-1.797581443010226078e-03,-1.403290129758365040e-03,-3.438540402250795085e-03,2.385935187339782715e-01
-3.074083853711856440e-01,-2.910903696067443924e-01,-8.295370989172184961e-03,9.400383053023344127e-05,4.140495036548412847e-03,-7.541978911266474786e-04,2.913882434368133545e-01
-3.115007112459348138e-01,-2.808276945612048214e-01,-7.901289522329157933e-03,-2.809083396871038616e-03,8.294367687706414791e-03,5.538688133284138879e-03,2.900400459766387939e-01
-2.869570672166597003e-01,-2.355880213027573555e-01,-3.079036068158266803e-02,2.629342573531860336e-02,-3.711322755436391799e-03,7.442887371999632514e-04,2.392031252384185791e-01
-3.235328169053555691e-01,-2.909720522302107204e-01,-1.731974387893839284e-02,6.666677363953902799e-03,5.660632957556453911e-03,1.408702599485996305e-02,2.927130162715911865e-01
-2.996058555944767221e-01,-2.617665145815953331e-01,-2.259843073736780839e-02,5.102509118740481547e-02,2.410341963079927138e-02,2.551404032659078044e-02,2.814065515995025635e-01
-2.816471234388184808e-01,-3.044250354888585752e-01,-8.381014555071786276e-03,2.974208433316257328e-04,-8.992512477377666074e-04,8.960780876098803100e-04,2.853466868400573730e-01
-2.935217236115507666e-01,-3.548094671733600380e-01,-2.649411394097933581e-02,1.252932967189989907e-02,-2.033187040901265549e-02,-4.346700786965895444e-03,3.052756786346435547e-01
-3.519707528681479403e-01,-3.780364962694191533e-01,-2.889134301103196689e-02,-3.104900512535249332e-02,-1.778864753179125457e-02,1.446466990976422173e-02,3.434387147426605225e-01
-1.488683025636511892e-01,-2.264666928217564656e-01,4.122944952787707673e-02,8.824199986883127234e-02,-2.533249336706386648e-02,1.993197835642631418e-03,2.867176532745361328e-01
-2.846335243957658356e-01,-2.209943409675591552e-01,-2.067707552264147486e-02,2.891446382696277392e-02,7.670639422571074416e-03,1.092216436961112452e-02,2.448826581239700317e-01
-5.559159548520256067e-01,-4.225647112187695953e-01,-1.511076002282722985e-01,5.736602877971953146e-02,-2.109472319303980908e-02,-9.676475780507001745e-02,4.086177349090576172e-01
-2.854237482199485365e-01,-2.015022590583957773e-01,-6.934433443351040172e-04,1.883727317882293376e-02,6.800047822087247271e-03,2.336360061303910038e-02,2.589594423770904541e-01
-3.251038385840786527e-01,-3.177988850302109203e-01,-2.153849119260192735e-02,4.458796980563642766e-04,1.142892538717242903e-02,1.307573210569809748e-02,3.014848828315734863e-01
-3.056531725886305617e-01,-1.857671950636411162e-01,-2.534188067675099965e-02,-2.071716523757846651e-02,6.095725295541224928e-03,-2.625716807812345302e-02,2.506173849105834961e-01
-2.751223590219006310e-01,-2.741519275409581846e-01,-4.075640047092848883e-02,7.733416110879668195e-03,-3.148727041720137255e-04,1.111328635907545557e-03,2.342740446329116821e-01
-2.597970788669931030e-01,-3.056862954672133204e-01,-2.943056157625900671e-02,6.106774509314553956e-02,-5.921456235108046168e-02,-2.450556090776712798e-02,2.987546920776367188e-01
-3.230874372593165456e-01,-3.094804654662453580e-01,-2.913523942904633346e-02,-1.218040322345421067e-03,1.052634085517598853e-03,-2.459525585627865378e-03,2.874355018138885498e-01
-3.356836924641972697e-01,-1.307950475685111247e-01,-2.008962821628676454e-02,-5.296330018146677004e-02,4.157373821485142035e-02,-1.505888893166100473e-03,3.008730411529541016e-01
-3.027766665401555590e-01,-1.920231187616108226e-01,-3.209507448686552133e-02,-2.490951197633479823e-03,-2.468752204008965809e-03,2.438608036169484169e-03,2.358191311359405518e-01
-2.822885887736180655e-01,-2.682622368761525822e-01,-4.304948026657048898e-02,1.778375256075745772e-02,-5.713746103660620902e-04,-1.380823040254398979e-03,2.345888316631317139e-01
-3.217858688523524968e-01,-3.305092747692699451e-01,-3.097936682229021632e-02,-5.357434513382727283e-03,-1.388182194068457226e-03,-2.651992609962234519e-03,2.954561412334442139e-01
-3.342295355922757505e-01,-3.014664529239637902e-01,-1.633238827407315630e-02,-6.833565603217527356e-04,-1.170451553868598858e-02,-5.314721332958875083e-02,3.171797394752502441e-01
-2.927284416876045348e-01,-2.660480630783264577e-01,-7.080237534516808928e-03,1.132096240214612755e-02,-1.714718953313225380e-02,-1.814223910527742317e-02,2.773797512054443359e-01
-3.264833404840345454e-01,-3.197192229782411799e-01,-2.305308435394132216e-02,-4.215804890458373783e-03,-5.767042158830939938e-04,-1.450831329728797300e-03,3.002063632011413574e-01
-3.108378594802763129e-01,-3.083670861703861066e-01,-1.854259991003087693e-02,2.760065723164322827e-04,-4.699258449411792930e-03,-1.447398077257663071e-03,2.911927103996276855e-01
-2.892686188228293931e-01,-2.903529492077673302e-01,-2.417803659865722099e-02,1.684745505652695901e-04,-2.919999604418175611e-03,-1.706893658805248111e-03,2.656991481781005859e-01
-2.755336932610875644e-01,-1.694189193418348949e-01,-1.857514669720278233e-02,-2.523482894580499070e-02,-8.681245698822112567e-04,3.027600869328905386e-03,2.279497534036636353e-01
-2.846502940495139744e-01,-8.621970733001982357e-02,-1.112785590286047288e-03,-3.464610463315258293e-02,-5.993309083678160371e-03,-2.063791516801710343e-02,2.617103159427642822e-01
-3.831428451319135453e-01,-2.021880338080827011e-01,-2.747355521652852794e-02,2.577784706740799889e-02,1.052480634456635401e-02,-8.307928504938280612e-02,3.433912098407745361e-01
-3.512647813671180286e-01,-1.591066165788102837e-01,-2.807329687450724198e-02,2.726545922770921230e-03,4.917113051199711003e-03,1.087949846203413624e-02,2.823535799980163574e-01
-4.225956865660771555e-01,-1.127952626565866395e-01,-5.500499303119160688e-03,6.181421518916763863e-02,8.543898876711491022e-03,3.247747090590367720e-03,3.904382884502410889e-01
-6.020077287106598840e-01,-4.446986429887971881e-01,-1.720438795877111682e-01,4.091053273898007103e-02,-3.197675878767469726e-02,-1.019673831745700615e-01,4.257445633411407471e-01
-2.348112382108183405e-01,-7.710493729247168415e-03,9.449690064732760297e-02,8.113448381491875083e-03,7.038398271031856210e-03,2.733537242211519017e-02,2.963448166847229004e-01
-2.522942817035397911e-01,-6.287035992815120933e-02,3.180384627629195826e-02,-4.949176532076916823e-02,-8.539758545596550085e-04,-1.631681445626850802e-02,2.663219869136810303e-01
-2.937737588047339421e-01,-2.884565797164961309e-01,1.739062734145313538e-03,9.727691464551959516e-03,2.300867206282223437e-02,2.270171490683510485e-02,2.986686825752258301e-01
-4.180550401001865701e-01,-1.586599971185937430e-01,-5.472930987046797924e-02,-2.587352384163583638e-02,-4.592316578277023421e-03,1.448592304166911038e-02,3.282492756843566895e-01
-2.931229794963742252e-01,-4.029272251742187505e-01,-4.827302866442567675e-02,-1.183976132495737077e-01,3.980704945339373635e-02,-2.625328259129515798e-02,3.844080269336700439e-01
-1.972350245874552876e-01,-2.930842538097904182e-01,-3.059421872113982088e-02,-2.781909944558173114e-02,-1.397492470079136732e-02,2.427504911933788499e-03,2.363343089818954468e-01
-3.050918587145681204e-01,-2.923234616075253700e-01,-1.310737800427266841e-02,-1.247594807094775868e-03,7.895773785916901030e-03,-5.471467876918481446e-04,2.861509919166564941e-01
-3.180387140538517010e-01,-3.247908178272298496e-01,-1.454857613348131684e-02,3.943049871344201339e-03,1.294394268303927179e-03,7.149870594530214349e-04,3.070085644721984863e-01
-2.975914731944394043e-01,-3.020901893074448008e-01,-1.775120759865411735e-03,-4.305492477431243151e-04,2.328876090387992353e-03,-5.658328427729410713e-03,2.982804477214813232e-01
-2.856682751442444212e-01,-2.977264281950491309e-01,-3.272774454738208716e-02,-1.851649631208613289e-03,2.131383247777860444e-03,-4.681098532414906289e-03,2.593529522418975830e-01
-3.212001506124572692e-01,-3.235294302788438436e-01,-1.077204999106523564e-02,4.730645435577856238e-03,2.142600582175501964e-03,-2.309788875421518381e-03,3.117547333240509033e-01
-3.132335388003210652e-01,-3.133270027744649577e-01,-2.776974405649779154e-03,5.696076537235684112e-04,4.428815979294222112e-03,-7.812340479372537842e-04,3.106025755405426025e-01
-2.925772756518643103e-01,-1.740778790433836765e-01,-2.408015697260720844e-02,-2.274107524318324039e-02,4.082980147082645485e-03,5.501370275041980512e-04,2.364708334207534790e-01
-3.183377911576919517e-01,-2.023276611782631185e-01,-4.052926010183360850e-02,-8.106811158318389927e-05,-4.185712131162011226e-03,3.275682869593781778e-03,2.418513894081115723e-01
-1.560267199662807025e-01,-2.268949619221448111e-01,-1.159108717927814780e-02,-7.912770707961833128e-02,4.350573301605191456e-02,-3.678521073892686982e-02,2.542462348937988281e-01
-3.298053424635694064e-01,-3.200809672605385847e-01,-9.147304373187503668e-03,2.613851878628115077e-03,1.159201028260383294e-03,-8.975229667617563595e-04,3.159507513046264648e-01
-3.641764297805733519e-01,-3.450689462054783996e-01,-6.352345873907946916e-02,-1.066730821769077409e-01,3.904564533114583680e-02,-4.219034221228846332e-02,3.592544794082641602e-01
-2.758170778733167183e-01,-2.758775261707216986e-01,-2.375237671112603866e-02,1.125380731100068549e-03,-1.014823104465599783e-03,-4.163101927953310327e-03,2.522116899490356445e-01
-5.250972054737537142e-01,-2.839054406035006473e-01,-1.054037497323221662e-01,3.666112285231595824e-02,1.143749750600379922e-02,6.531307901586036468e-02,3.877001702785491943e-01
-3.012174000074772651e-01,-2.558479971746984161e-01,-1.149249271899899227e-02,-1.476534382575534626e-02,1.466310217548439515e-02,-2.506195770836506381e-02,2.757492065429687500e-01
-2.343733289158946298e-01,-2.371539673669242898e-01,-1.343282344970295195e-02,-3.977615060829171184e-02,1.394097683201541045e-02,-1.754350186776591075e-02,2.359864264726638794e-01
-2.421511094069777048e-01,-3.191800332959040531e-01,-4.804123572025789657e-02,-2.715831096824599181e-02,-1.356552272396463585e-04,2.594098280861439985e-03,2.465707510709762573e-01
-3.125531252988789643e-01,-3.145209463789416793e-01,-5.364252652773876529e-03,7.106265041677138801e-04,7.188643906791297201e-04,-2.791562082307415260e-03,3.082203865051269531e-01
-3.112400260164372434e-01,-2.953690494657116306e-01,-2.612291599112526175e-04,-1.335992181877471022e-03,5.336239423837438670e-03,-8.384641060569389751e-03,3.038516938686370850e-01
-3.563824283766313661e-01,-2.004425802533003620e-01,-5.238290733801609367e-02,-3.150312969142619185e-02,1.923378402091366389e-03,-1.856988799035504383e-03,2.689351141452789307e-01
-3.207634322522957548e-01,-2.206300081985562711e-01,-2.853719722726960617e-02,6.546117914681011656e-04,-1.393223058124147496e-03,1.371683899509872247e-02,2.583269774913787842e-01
-1.439821196778036938e-01,-1.541462728159904150e-01,4.453473837839849736e-02,-1.035371336370119605e-01,4.034281694907258168e-04,-1.506093955340739345e-02,2.653277814388275146e-01
-2.879706552310347112e-01,-1.239429628564753527e-01,1.465218401675727478e-02,3.406498680973351484e-02,2.153408364242613907e-02,3.717111512057485329e-02,2.790423631668090820e-01
-1.537518664453992323e-01,-2.343832829230085846e-01,-6.459607936253636273e-03,-1.115388833844885713e-01,1.224992953714503299e-02,5.708683063715905802e-03,2.791836857795715332e-01
-2.545358238868359324e-01,-2.956077529727708653e-01,-2.155505770909671437e-04,3.253749108756785486e-03,1.549162474323808637e-02,-8.203208632293751672e-04,2.785047292709350586e-01
-5.335658686242779059e-01,-3.079395458096472749e-01,-1.009263567178500243e-01,-2.186317439800550613e-02,-9.446830553557184276e-03,-9.071803801306269066e-02,4.084854125976562500e-01
-3.286165654099271749e-01,-3.281252120996089316e-01,-2.303255459271391636e-02,5.676924235944133014e-03,1.638870805351923341e-03,1.687492956197291991e-03,3.055240809917449951e-01
-1.254321489130104939e-01,-2.682101249767216977e-01,5.088011200182546157e-02,-6.969066187262287770e-02,2.069468522608545330e-02,-2.942510367903392824e-03,3.041812181472778320e-01
-3.262765926298548114e-01,-2.711011038067056012e-01,-3.121553800928247857e-02,-4.617944573555001798e-03,-2.888280498874680729e-03,1.041545678023513260e-03,2.718777060508728027e-01
-1.425746185511173603e-01,-1.903335389084651608e-01,4.100018958843498762e-02,-1.465213812509914282e-01,2.555586692999337051e-02,-3.461369628113579455e-02,3.386844098567962646e-01
-2.171656119959282649e-01,-3.668575220500556733e-01,-2.265112177213510214e-02,-1.224278431504284420e-01,5.357149987147107051e-02,-2.690923573642963265e-02,3.809311985969543457e-01
-1.676788396324829511e-01,-1.871428388184410985e-01,2.673283030852324771e-02,-8.341412399964250046e-02,4.154111440025955865e-02,-3.676828469719774228e-02,2.684496939182281494e-01
-5.491118838113488998e-01,-4.813016519388172432e-01,-1.606947930064916430e-01,-7.534730204412143362e-02,-6.563447000085667615e-02,9.500157426656760662e-02,4.314610064029693604e-01
-5.176727294006199243e-01,-2.517450802772959184e-01,-8.717527065453484214e-02,-1.405916371678394942e-02,-5.509869339732336585e-03,6.886339620683333551e-02,3.955691456794738770e-01
-3.259291464652225301e-01,-3.262591488350511382e-01,-9.852632022060797690e-03,1.757380151699866437e-03,5.556634999096845802e-04,4.910258780796960534e-04,3.162589073181152344e-01
-2.981460851028838732e-01,-2.968311259307538919e-01,-2.863526809092567516e-02,-8.128772380310291326e-03,7.401266276884448624e-03,-6.336256237609029854e-03,2.697525322437286377e-01
-4.027673228173637154e-01,-1.408684131926870586e-01,-5.716251357066437500e-02,-5.693355452984103643e-02,-1.884185755478146387e-02,-4.982112453797197214e-03,3.292172551155090332e-01
-2.676536881876665497e-01,-2.827448364815939308e-01,-3.225718418526590803e-02,-1.997109412391877108e-03,3.504797380910386600e-03,-5.816074757016477352e-03,2.436020523309707642e-01
-2.379034566316621802e-01,-2.847104899634035902e-01,-3.851910243535733303e-02,-6.653180161055831723e-03,2.283126884125644129e-03,1.638310879185747235e-03,2.267908602952957153e-01
-1.786691737478577069e-01,-4.216660025224289177e-01,1.901372462392664220e-03,-3.939348013702307499e-02,1.704831595097790198e-02,-5.788267221358035786e-03,3.757116496562957764e-01
-2.309581365447768153e-01,-1.979516598917715198e-01,-3.358568869987726968e-03,-8.366866240630919938e-02,-5.491592340781658102e-03,1.807038158252528837e-02,2.597116827964782715e-01
-1.388746719256854778e-01,-2.102020562315579100e-01,5.376127934736496528e-02,-1.110929671645877331e-01,3.555376750031674637e-02,1.215068761561888255e-02,3.117635250091552734e-01
-2.414689440110792673e-01,-3.532354438789254147e-01,-3.543063102503421491e-02,1.029456934940203502e-02,1.249823697562782443e-02,-3.811455451802756716e-03,2.807166874408721924e-01
-2.858765757022945220e-01,-1.769025455194338514e-01,-1.293834126091128467e-02,-2.322122719017003997e-02,-1.684108824144960048e-02,2.790844486847244774e-02,2.478560656309127808e-01
-7.036098925120896075e-01,-6.622207716633654595e-01,-2.165694627748405154e-01,5.065530962561875204e-03,-2.311268470573699454e-02,-4.699752890664778832e-02,4.765177071094512939e-01
-6.058872929127696594e-01,-5.872842921944347871e-01,-2.076123941979527987e-01,4.028488657643163745e-02,-5.438550247912854463e-02,-6.278872185948131124e-02,4.208670854568481445e-01
-6.068707640660746527e-01,-6.268544708563283940e-01,-1.701906599638846607e-01,-3.833340325089311384e-02,7.420102482599208460e-02,-1.213238460210171454e-01,5.146839022636413574e-01
-3.164288724298170430e-01,-3.285992408726324254e-01,-3.100473682656429419e-02,-1.567762863847606616e-03,-8.052590528934788858e-04,-2.072235313431807828e-05,2.917157709598541260e-01
-4.313412857779211351e-01,-4.251983575458666564e-01,-1.071902746609856572e-01,-1.900765021455411846e-02,1.396565934594364705e-02,2.479891360654177743e-02,3.265491127967834473e-01
-2.054493756659140635e-01,-3.186803951858582229e-01,2.109459438112021301e-02,-1.385991414095972540e-01,8.842012483222536426e-03,-8.568164152913048184e-03,3.845506310462951660e-01
-3.692595148713799236e-01,-3.626434692013077443e-01,-5.904393836129429030e-02,-9.207131704721214019e-03,2.188836596436126436e-02,8.704569549112027224e-03,3.100709617137908936e-01
-4.427831408214552011e-01,-5.642050151386974743e-01,-1.683567719610292168e-01,-1.951367722111763819e-02,-1.085252559285023594e-01,1.632350869787444619e-02,4.008108973503112793e-01
-2.790721223731834622e-01,-2.970878013218019031e-01,2.849496927928046874e-03,-2.975907572694070843e-03,-1.718967905722393330e-02,6.677567969449983536e-03,2.931384742259979248e-01
-3.171751939023277900e-01,-3.236494628067175805e-01,-6.381230561156273073e-02,3.554391636736480876e-03,3.272800835522992127e-03,-8.893878795374565716e-03,2.572593092918395996e-01
-3.206862424124578004e-01,-3.098339596446862965e-01,-6.263815505109956994e-02,3.261350163668138170e-03,3.987780047376446530e-04,6.946481404975971387e-04,2.528636157512664795e-01
-3.454636254944666307e-01,-3.501283752974946317e-01,-6.230113485778543403e-02,5.067317017177332475e-04,-6.890371267607546535e-03,8.719748529724222208e-03,2.861729264259338379e-01
-2.976936540086798089e-01,-3.009896905177561477e-01,-2.030666416098098059e-02,6.573197983740258765e-03,-5.996234742265521209e-03,-1.404226094057790288e-02,2.805311381816864014e-01
-4.779232537314249130e-01,-4.912380592053991468e-01,-1.329095534533983602e-01,1.072980703354353693e-01,-6.687077120709571110e-02,-6.905064682829736844e-02,4.313504695892333984e-01
-4.387969890996976652e-01,-5.644378002718238863e-01,-1.377230428886162816e-01,7.719540349120605771e-02,-1.025622385031999678e-01,-4.297635005949279607e-02,4.463559687137603760e-01
-2.580443504883083161e-01,-2.767315358125628788e-01,-3.310203394159585977e-02,4.454475174850341078e-03,1.010743788665165220e-03,2.150661741175393521e-03,2.350069433450698853e-01
-3.309796201608226629e-01,-3.338291231857737351e-01,-1.021846895129802923e-01,6.282316868023911458e-04,5.663493061234731174e-03,-1.012785456444128401e-02,2.311110645532608032e-01
-3.312979492265631376e-01,-3.356319580056505991e-01,-1.007514104325908377e-01,8.628424561443817642e-04,4.047987138938157273e-03,-5.053518029761880359e-03,2.330186367034912109e-01
-2.008628447375314374e-01,-2.909736772034081098e-01,-1.910751782826555778e-02,2.227707310468975480e-02,1.250256889658623444e-02,1.111066924856705593e-02,2.446654289960861206e-01
-5.272301226577770228e-01,-4.866066140102138227e-01,-1.695875315594926602e-01,6.426170145752192753e-02,-5.018578517826017410e-02,-8.049821106988662434e-02,3.929557502269744873e-01
-1.393397035317580634e-01,-3.955484680975374090e-01,6.805292301684473522e-03,4.426113140892653369e-02,-1.827854071749676623e-02,7.754911620507788346e-04,3.623895347118377686e-01
-3.197343222236309623e-01,-3.214346585266691925e-01,-4.142516362332318569e-02,4.432750381110817442e-03,-7.039046973847942149e-04,6.873232501169860339e-04,2.792739570140838623e-01
-3.260843453969077266e-01,-3.294488282074184982e-01,-1.198535413339543165e-01,6.863296722134818806e-04,5.734843667401826831e-04,-3.184401884886274505e-04,2.079399675130844116e-01
-5.749650719504878493e-01,-4.550041496071258740e-01,-1.757141449830252056e-01,6.626267012799722791e-04,3.553871860556612194e-02,-1.267305390772850010e-02,3.607901930809020996e-01
-3.417857863427727905e-01,-3.415553878986604674e-01,-9.534857894608739226e-02,5.204486345379649714e-03,4.115820475598245751e-03,-7.826655377412273379e-03,2.469623833894729614e-01
-3.611876145816440564e-01,-3.697343919248503030e-01,-7.410834358630688512e-02,1.220837985090397239e-02,-2.692750854992907467e-03,-7.849075605192672514e-03,2.925660014152526855e-01
-3.255589762053394121e-01,-3.179580989758507004e-01,-6.362390740504111908e-02,-1.122212535542456771e-03,-8.291040263442577170e-04,-1.410639166799176241e-03,2.582414150238037109e-01
-3.437619268501372338e-01,-3.430359373720924254e-01,-1.021061634827427067e-01,-4.388459716478489321e-03,-4.596634453653071321e-03,-3.538470317632639531e-03,2.416222691535949707e-01
-1.304066420513869395e-01,-2.610314311097381434e-01,7.814159797088271464e-03,-8.087405137611702877e-02,7.551626755880341477e-03,-1.002688611296992686e-03,2.720640003681182861e-01
-3.181797115647549967e-01,-3.183921362975370428e-01,-4.376724734345041612e-02,-3.838599281653388377e-03,1.034776500886333821e-04,9.995419606346103280e-04,2.746047675609588623e-01
-3.364864019039041088e-01,-1.890708823850085207e-01,-3.435137255092540753e-02,6.480150274700419155e-03,1.596704999258027240e-03,2.870375922164616900e-02,2.666136920452117920e-01
-5.669475432871683429e-01,-6.314361912368618990e-01,-1.691028838879158336e-01,1.127004815351723317e-02,-1.087736002904694105e-01,-1.030685938276211522e-02,4.735931158065795898e-01
-2.870388910660044424e-01,-1.773042963910878012e-01,-2.551527168773420895e-02,2.362109457633077003e-02,-1.736720436756754651e-03,5.922167916020364261e-04,2.311321347951889038e-01
-3.037464868637989035e-01,-1.652855876957963766e-01,-2.377742100259777613e-02,2.296970993008278644e-03,-2.245308082933862581e-03,3.080616680949041074e-03,2.425876259803771973e-01
-3.198840692917100381e-01,-2.087837978099073843e-01,-4.167536762703258346e-02,-3.203448318645235864e-03,-1.154624979642270228e-03,-1.453570308608078494e-03,2.426425665616989136e-01
-3.279833258470877255e-01,-3.299443755858109117e-01,-8.479870147889553844e-02,2.541348152636558038e-03,8.712182698054864519e-03,-6.425293962842442384e-03,2.449294626712799072e-01
-3.352117105766137528e-01,-3.353611255073399300e-01,-1.173520820364725159e-01,-4.522806863706258082e-04,5.302788147600453680e-03,-4.636581589674059010e-04,2.181307077407836914e-01
-3.201645280691531315e-01,-3.250270573794740159e-01,-8.144203904730920596e-02,-4.212961087939082758e-04,5.085203859847437120e-03,-6.345716114721923311e-03,2.416025251150131226e-01
-3.537154169348005750e-01,-3.524012758298460390e-01,-1.104387863135311565e-01,6.528539879160914078e-03,6.339454462018001557e-03,7.863301137328316745e-03,2.435148358345031738e-01
-1.532716938144276231e-01,-3.066936739856318539e-01,-1.862493776983115135e-02,-6.959460302638716123e-02,1.327542445130481218e-02,3.445103457066229190e-03,2.782451510429382324e-01
-2.454077791404812858e-01,-3.018037051176827856e-01,-4.838155620607914598e-02,2.292675899840025677e-02,4.316534232040141784e-03,6.939013341689232416e-03,2.342830896377563477e-01
-3.833110766473672992e-01,-3.776469683705483416e-01,-1.023518945061317742e-01,-5.233919243843841024e-03,2.905949342789940649e-03,5.617429217251002083e-03,2.785335481166839600e-01
-3.184200926985235047e-01,-3.160827198722809261e-01,-5.425446103024805788e-02,4.600548962035844527e-03,4.925858779414198085e-03,-1.931456100763792724e-03,2.632849514484405518e-01
-3.488151274864362272e-01,-3.464333338055287648e-01,-1.309792076151377604e-01,3.711718055559043179e-04,2.779064021721746724e-03,-7.021099631647970303e-03,2.170502096414566040e-01
-3.451693883057581624e-01,-3.502510872154503407e-01,-1.274441652238373635e-01,-4.712638062046448496e-04,6.953879030338091030e-03,-4.528821346721072574e-03,2.207799255847930908e-01
-3.192343111592453320e-01,-3.159513762300160122e-01,-1.471769081721141514e-03,1.611659689749324375e-03,-3.351476150344687290e-05,7.511739182145482857e-04,3.161488771438598633e-01
-3.396166645574353327e-01,-3.315335309523890772e-01,-7.853074890491193449e-02,-1.137955905872974916e-05,-6.157261585331290192e-03,-5.239361740192141625e-03,2.575206458568572998e-01
-5.979904726394866810e-01,-6.646108112452544514e-01,-1.869932793802021598e-01,6.042680905171009947e-02,-1.085851099357611205e-01,-2.823572361638337219e-02,4.994555711746215820e-01
-3.427000177861614372e-01,-3.360638791726499042e-01,-5.801210078190074948e-02,5.424243477298410464e-03,-7.211871046770044341e-03,4.403224051465402106e-03,2.819654047489166260e-01
-3.233530319713692203e-01,-3.260250660483380303e-01,-1.157819727203640015e-01,9.053820099719693624e-04,6.491375769685622712e-04,2.811984278568887587e-03,2.089855670928955078e-01
-2.644886503979618775e-01,-2.362162568617703351e-01,-1.360190234878388971e-02,-8.129465540832592207e-02,-4.621794954992262255e-02,3.519902829154641921e-02,2.942821681499481201e-01
-3.440245934223623570e-01,-3.637390630068958464e-01,-1.041762641544199119e-01,1.175461624588953168e-02,-1.307150189081197553e-02,4.104178810763780758e-03,2.522340118885040283e-01
-3.210760350098075810e-01,-3.191234111651687355e-01,-8.004405784706392080e-02,3.044284645897017585e-04,4.730623082620203854e-03,-6.547756429219810798e-03,2.404695749282836914e-01
-3.214852435438379508e-01,-3.241787392155833780e-01,-9.646526654577691762e-02,9.331263598232053535e-04,2.894681093678873871e-04,-6.407673777508128207e-03,2.266569584608078003e-01
-3.169324436368784470e-01,-3.207622746668957747e-01,-2.243902320123317140e-02,7.956024983106260370e-03,-1.006631175765804057e-03,-2.142170107958295180e-03,2.967753410339355469e-01
-3.306316860382401135e-01,-3.298254901087861457e-01,-9.818015050294603974e-02,-3.028944982822097572e-03,-4.018838758634697868e-03,-5.730694242121919454e-03,2.324251830577850342e-01
-3.355357176398237051e-01,-3.346816235406700479e-01,-1.074787491742592582e-01,-4.702362879491934870e-03,-2.837397393882575176e-03,7.717346324719337068e-04,2.278337180614471436e-01
-3.381067211239918158e-01,-3.350513786938232874e-01,-1.164180050270814948e-01,-4.536951877018256633e-03,-1.589715563654897504e-03,7.189547706834294562e-04,2.203378528356552124e-01
-2.768228019402284024e-01,-3.564824236404371405e-01,-2.729081732300142615e-02,-1.006963930512646925e-02,2.656153963312101254e-02,-1.228633754811992015e-03,3.015207350254058838e-01
-3.137556765950896276e-01,-3.123808938165732463e-01,-4.468559724036702541e-03,9.148700795751673383e-04,-2.696899680248802597e-03,8.441497482365140732e-04,3.086448907852172852e-01
-2.618962983628632113e-01,-3.104088689409802981e-01,-2.110272179272465465e-02,-5.145591280190733169e-03,1.736249380111990620e-02,-2.893844642708698345e-03,2.702322304248809814e-01
-3.218951560448609639e-01,-3.077281091215018360e-01,-7.664788082709678152e-03,5.930296323852452065e-04,4.406679401952234669e-03,-9.322191897158606157e-04,3.074924945831298828e-01
-3.377014405525108343e-01,-3.275581985181387212e-01,-6.500880485859414359e-02,-7.882896602509378674e-04,-7.611629590108709258e-03,-4.575283659783538869e-03,2.682100832462310791e-01
-3.342298163887140183e-01,-3.209665877134115775e-01,-3.169769671316605142e-02,-3.397157955808251056e-04,-3.041783309514530052e-03,-3.409245916512879029e-03,2.962296605110168457e-01
-2.675052661512968832e-01,-2.131244128593867970e-01,2.775364960395654279e-03,7.024310350126423963e-02,-2.437929825003256473e-02,-4.325868972757330316e-02,2.889811098575592041e-01
-2.936106824945676763e-01,-2.603234796389847228e-01,-3.662568634535123824e-04,1.054165285534926395e-02,6.427613141025143376e-03,1.565991901003501710e-03,2.789331972599029541e-01
-3.329463874829190484e-01,-3.260912918618593115e-01,-2.011232999874476568e-02,2.845400669229896208e-04,1.272554356929316531e-02,-1.566991929912229685e-03,3.102596700191497803e-01
-3.230326603063750635e-01,-3.199901752244515007e-01,-4.665874141074491388e-02,1.766732527268496467e-03,-2.196424962365883153e-04,-2.014370808111588470e-04,2.748828232288360596e-01
-3.315882718352268221e-01,-3.184104352237752122e-01,-2.880177473252973352e-02,1.615516473231919797e-03,-3.084024617001113275e-03,1.605659541030324115e-04,2.964788079261779785e-01
-5.217328117842392476e-01,-4.585967521296160920e-01,-1.482553541566640209e-01,7.788678470764794082e-02,5.294970515017049378e-02,9.645229503339236565e-02,4.176252782344818115e-01
-3.231547400196788655e-01,-3.002671135977381667e-01,-1.143130866008401636e-02,-9.853763069847016817e-03,-1.445791681695450352e-02,2.560691178936327222e-02,3.056898117065429688e-01
-2.778940126119832099e-01,-9.164637851844664729e-02,4.136572026759627319e-03,-7.856781011018340935e-03,-8.148909043400537691e-03,1.773426885585298665e-02,2.510573863983154297e-01
-5.920922781472885976e-01,-4.860358694649243305e-01,-1.321880307794230380e-01,-8.910521454916746006e-03,-2.934761803944625769e-02,2.009381216425352307e-02,4.219211041927337646e-01
-3.430423014386771996e-01,-3.328020103621993631e-01,-5.611485144248332113e-02,-5.193252729080039161e-03,-1.111705053924408153e-02,-1.818647874619653710e-05,2.827466726303100586e-01
-2.761205435478909509e-01,-2.363253397221455332e-01,-8.331016268004476366e-03,3.423660315549610644e-02,1.830164246646069637e-02,2.537813737040836917e-02,2.628527879714965820e-01
-4.705645735240766570e-01,-5.568966424272716598e-01,-1.149961836442739416e-01,-1.190816280010348685e-02,2.306329572537836950e-02,6.942042785270568020e-03,4.083439707756042480e-01
-4.582508451147091488e-01,-2.570944158855371087e-01,-8.938823152702701780e-02,9.697836392106946868e-02,2.944949723580825296e-02,8.281319211604416808e-02,3.920647203922271729e-01
-7.420646733616875768e-01,-7.309738424141671853e-01,-2.189838688863575134e-01,-3.085155886705253942e-04,-3.841088292555754069e-02,5.244368993863342959e-02,5.297288298606872559e-01
-2.103176034669612671e-01,-1.925288792589699427e-01,2.114334042415280668e-02,7.028350869549858382e-02,4.092760151614970032e-02,5.431311291208569536e-02,2.801204621791839600e-01
-4.563660989052932271e-01,-4.399713014952217338e-01,-1.304389372997695473e-01,9.925595590570089610e-02,5.825412963554262025e-02,6.244001338794431116e-02,3.906224966049194336e-01
-2.598891368625103615e-01,-7.874412136369529636e-02,7.134746073318520843e-02,-4.864848646307470131e-02,-7.250252122676309648e-03,2.395056709203533321e-02,3.025028109550476074e-01
-2.462181717975105433e-01,-9.674793414145275994e-02,1.607451368433368555e-02,4.335344461076794803e-02,1.928268704986825163e-02,8.389671300548462440e-02,2.824957668781280518e-01
-3.157100026314912378e-01,-3.224764482121675879e-01,-2.176803571180283003e-02,-4.275457823734405208e-03,2.412072008079833157e-03,1.351596316372400981e-03,2.975136637687683105e-01
-3.372083240275531302e-01,-2.183265519285938761e-01,-2.258143993632794055e-02,1.957855874158086207e-02,2.105065774249763842e-03,2.350470365403888040e-02,2.802502810955047607e-01
-3.262396353311650676e-01,-2.907689533444446361e-01,-1.959686208781644123e-02,-5.143198443997548663e-03,3.966396701247259550e-03,2.141327134728116671e-02,2.931096553802490234e-01
-5.813470013059716113e-01,-6.503602499136845738e-01,-1.895676621352428981e-01,4.587083146560527736e-02,9.566653139415727536e-02,9.533603266234183526e-02,4.963137805461883545e-01
-2.780145224609792964e-01,-1.184358773882592808e-01,1.352110113721663454e-02,-1.226652203885469049e-02,-7.283702658925860461e-03,5.434972927337754223e-02,2.709386348724365234e-01
-2.777413462936416111e-01,-2.835515838208664263e-01,-2.391352942563162998e-02,1.122314609561660386e-03,2.326984327798372037e-03,5.273071549302519971e-03,2.569835782051086426e-01
-1.999367840401388707e-01,-3.155113824360763486e-01,-2.385392766403585108e-02,-8.792275074304664595e-02,4.810149172482509200e-02,-1.315419899179417693e-02,3.088121712207794189e-01
-1.529822221582625708e-01,-3.067786340188646266e-01,-1.470306305185248297e-02,3.816404281521902642e-02,7.306103493768012491e-02,1.053714050083471958e-02,2.911316156387329102e-01
-1.761132406086930169e-01,-2.007463060399261590e-01,1.361519006938310961e-02,8.160407046552706212e-02,4.416511382228658494e-02,3.985121455113598693e-02,2.680875957012176514e-01
-3.147303390988330229e-01,-2.608058819796147398e-01,-1.987465816328526369e-02,9.628312293965232346e-03,1.976829864523360972e-02,3.724796732321146442e-02,2.820647060871124268e-01
-3.790627281374189250e-01,-1.843898608188230259e-01,6.974654886514608521e-03,-7.245579266212219538e-02,-8.511625440860880881e-03,2.757886481612721596e-02,3.605829179286956787e-01
-4.009937221480706637e-01,-5.316803571944093143e-01,-1.491659427624884848e-01,-9.141316024005838314e-02,-1.251034265561554171e-01,6.403056632694771599e-02,4.446663856506347656e-01
-3.028107414071694037e-01,-2.884634988046334558e-01,-3.631196636364200647e-02,3.471530827344273401e-03,-9.630775113296838330e-03,-2.043937328937178288e-03,2.602515220642089844e-01
-3.209376597033574696e-01,-2.772971243059120239e-01,-4.699067284142779966e-02,5.353631499706383579e-02,1.470581165718652487e-02,3.391955951198225711e-02,2.787383198738098145e-01
-4.740200907323666724e-01,-3.110790783785702951e-01,-7.273711758887357881e-02,-6.414186106474414895e-02,-1.043011043129670086e-02,3.872874207478948366e-02,3.733108341693878174e-01
-3.240705692713955477e-01,-3.116863675954520962e-01,-9.358491760144499461e-03,-3.829922809633894143e-03,2.222464623679138232e-03,-1.181359962855140335e-03,3.088083863258361816e-01
-2.677674138306063711e-01,-2.813859400228917451e-01,-1.295724721776952970e-02,2.514098052370781003e-02,3.154784342505640576e-02,3.074810366205451076e-02,2.762284576892852783e-01
-2.726132120791303626e-01,-2.751537984768468448e-01,-3.976273305259797608e-02,1.280105713990126268e-03,1.537105315096176943e-04,-4.868366670001738825e-04,2.341432720422744751e-01
-2.873450485044388159e-01,-2.729540812280057405e-01,-3.965715624904711523e-02,-1.566749617427117686e-02,3.867870322866817732e-03,-5.401102260140070582e-03,2.426123023033142090e-01
-3.204154786081363504e-01,-3.231316666146628602e-01,-7.853896979581717619e-02,-3.646301085137380448e-03,9.586090988014746208e-04,-5.632264853217289896e-03,2.435290813446044922e-01
-4.017624266524805199e-01,-3.809001456723495327e-01,-7.962065346905272678e-02,-6.005195304201172563e-03,1.720490980883397972e-04,1.297432617364434847e-02,3.132143318653106689e-01
-3.840713868829680466e-01,-3.855279487491483081e-01,-1.665484546716205216e-01,1.345336952736297064e-04,-1.466132103228483773e-02,8.986607071616976861e-03,2.202779501676559448e-01
-2.712469927937748992e-01,-2.683870020981718452e-01,-3.540770673717547057e-02,1.061928408852087346e-03,-3.718651047795814868e-05,8.465518426826019408e-04,2.344341874122619629e-01
-3.233133010841257038e-01,-3.349666181620444272e-01,-3.433943857945692679e-02,-7.761048496014839003e-04,-1.767944217809596557e-03,-2.452631301915701029e-03,2.950227558612823486e-01
-2.623204504483324095e-01,-2.331360950206561311e-01,-2.454694919275482445e-02,2.529640237366289485e-02,-4.994608846442387742e-03,-2.844623573019501323e-03,2.290579378604888916e-01
-4.473171726163531758e-01,-2.974973990969684290e-01,-9.131163355751040211e-02,-1.070922639068322690e-01,2.604368062954294169e-02,-6.206922854230446929e-02,3.792730867862701416e-01
-5.323930312150073618e-01,-2.877264217474886920e-01,-9.882910864514571347e-02,-4.733772492793432429e-02,-4.860256816165608486e-03,-5.874183974869927327e-02,3.986302316188812256e-01
-3.154704424390192830e-01,-2.954019600775859011e-01,-1.058163791642122153e-02,5.793591313901489716e-04,-4.284980957024648630e-03,-2.705217080960612992e-04,2.954616546630859375e-01
-2.927776293966989352e-01,-2.955319358265373064e-01,-1.055626104608214932e-02,-4.675581668638621735e-03,7.349456594041207588e-03,-6.904683767919549131e-03,2.842612564563751221e-01
-3.283216632129721813e-01,-3.189311056075635475e-01,-8.726831163198472963e-03,2.297729081812164773e-03,1.498707236867549990e-04,-9.572308001814573307e-04,3.150341510772705078e-01
-3.417045809563616920e-01,-3.448678105320879261e-01,-2.424385773399043154e-02,-4.067651018066383711e-03,1.538813608338827563e-02,-1.150789555885551978e-02,3.208626508712768555e-01
-3.139411342023464280e-01,-3.177220025445572915e-01,-4.470949741518376319e-03,2.329873666858012053e-03,3.105373776422437008e-03,-3.587197965348346267e-03,3.115124106407165527e-01
-2.234594358349939747e-01,-1.160494565408380641e-01,6.273703775299629970e-02,-7.254899111862860017e-02,1.360540481177270437e-02,-2.084166069591796358e-02,2.834669053554534912e-01
-3.187657078518031928e-01,-3.196969175552210052e-01,-8.077919144381487393e-02,1.389184077166749458e-03,1.702003676128438937e-03,2.426288676724701419e-03,2.385208755731582642e-01
-1.758930878866463710e-01,-2.051272487834926717e-01,9.705032125904594631e-03,-5.737362878454464049e-02,-1.869085656653278124e-02,1.325336043659057494e-02,2.284235209226608276e-01
-4.553090871450075072e-01,-3.554814946048271418e-01,-1.041087438089481065e-01,-6.373329743248706825e-02,-7.728128986340818130e-02,6.981144875578607079e-02,3.781159222126007080e-01
-2.828306308427563920e-01,-2.736093720212772751e-01,-8.845178714768253680e-03,-5.147087074141729925e-03,-1.074392613245536178e-02,7.499145589680511481e-03,2.705938816070556641e-01
-2.776601955335490923e-01,-2.744932343278787545e-01,-2.363486357827257467e-02,3.491825352796739355e-03,4.701030964786683843e-03,1.505240477312625325e-03,2.526738643646240234e-01
-2.634938618744002703e-01,-2.698961925369441905e-01,-3.563565265178811337e-02,5.320926878727856232e-03,-9.993437955021132414e-05,-1.023081662502823772e-03,2.313164174556732178e-01
-2.532724577074119132e-01,-2.042858946477666138e-01,-8.407928001212233715e-03,6.608450891346205613e-02,5.661839543767482191e-02,5.771243560801326417e-02,2.882253229618072510e-01
-2.806122503624408626e-01,-2.742574739537208539e-01,-4.080372847627097843e-02,1.472763784468727804e-03,2.385574602216456504e-03,7.670572288158800057e-04,2.367486506700515747e-01
-3.063086191641709033e-01,-2.947285769555810786e-01,-1.045970020470451955e-02,-1.996368101439110251e-03,-7.359585275326796169e-03,1.529355651768311885e-03,2.905446588993072510e-01
-3.079608938806753793e-01,-3.879042901854384828e-01,-6.399046710013389649e-02,-1.895504522358686106e-02,-3.093438352976748268e-02,-2.695430970179387987e-05,2.989398539066314697e-01
-4.502615697827774266e-01,-1.917300329371436352e-01,-3.449516780082162448e-02,5.748106680283235348e-02,2.356755377093758871e-03,2.353632287451534397e-02,3.792127072811126709e-01
-2.669172583443781832e-01,-2.409483364362426938e-01,-3.066845482125871158e-02,9.040706427316417410e-03,2.180870195999136743e-03,6.889103007560096583e-04,2.249747812747955322e-01
-2.872414611446759136e-01,-2.759492342806728615e-01,-4.000607001770406512e-02,2.384425311880152693e-03,4.947478116869111556e-03,3.150004041917872470e-03,2.420356869697570801e-01
-2.239359670618181197e-01,-3.215803911361548861e-01,-4.442090388183450589e-02,6.342283052560917199e-03,8.314259290618252233e-05,2.089547083139489409e-03,2.437673658132553101e-01
-3.739047059194078315e-01,-4.093559054922741858e-01,-1.274187507405929176e-01,6.130913351278117693e-03,-6.235655351278677344e-02,2.223580393809840641e-02,2.898472249507904053e-01
-3.048653742626969976e-01,-2.511382445463758439e-01,-4.273949443259678072e-03,5.815440291039765267e-04,-3.677209103590782079e-03,1.566361780484659683e-02,2.790510952472686768e-01
-3.182638769075104568e-01,-3.208697874896894175e-01,-3.072024810332057987e-03,3.472865753458515524e-03,1.520307050181311619e-03,-1.482487971807125654e-03,3.165813684463500977e-01
-3.176939184076469913e-01,-3.311452644823926761e-01,-1.257903386743861041e-02,5.162206025304986534e-04,1.034908156104600023e-04,-6.115239114650608630e-04,3.120611906051635742e-01
-3.971370905687131581e-01,-1.408330091955900809e-01,5.674399502667987205e-03,6.276305359931912131e-02,-5.157850341558749448e-03,1.531101785608514343e-02,3.705500662326812744e-01
-3.339541002620175503e-01,-2.606096091290476258e-01,-3.210714903560099587e-02,3.805343740561920041e-02,7.100259236827487219e-02,5.385370355285308552e-02,3.201892375946044922e-01
-1.390320000928536026e-01,-2.758399128438504544e-01,-8.877520760413093459e-03,1.120987238842627819e-02,-1.666883591337569486e-03,2.062932483518102687e-03,2.320793867111206055e-01
-2.604386758749721587e-01,-3.711167034890472949e-01,-6.772700843579146368e-02,6.013062574896793633e-02,-2.657186824296212113e-02,-5.191422258096460227e-03,2.894174754619598389e-01
-2.227955839951336059e-01,-3.139360508174107722e-01,-3.481568880408233979e-02,2.905998641269199548e-03,-1.025598820826271150e-02,-1.507361813992500821e-03,2.472312897443771362e-01
-1.524381989860814079e-01,-2.917313644671573059e-01,-2.307392485429196616e-02,-5.994940049011193359e-03,-3.878679425418379238e-03,2.048523284991815314e-03,2.330725193023681641e-01
-3.296282852630252336e-01,-3.172172763653337002e-01,-4.717147462688278670e-02,1.571746546974270081e-03,1.830355485816411495e-03,1.507537125220067805e-03,2.765042185783386230e-01
-2.891879442014660406e-01,-3.994056430239569799e-01,-6.934552483265118972e-02,-1.218855118989311259e-01,-4.284764273711180738e-02,2.257655120667293250e-02,3.692075908184051514e-01
-2.606996383617488089e-01,-2.909772893611874411e-01,-2.079025377307872069e-02,-7.537047811113383768e-03,-1.521129883104767018e-03,6.956045586084306197e-03,2.570207417011260986e-01
-1.949718338532986373e-01,-2.864119345296174957e-01,-2.927619551188748170e-02,1.347488631672666762e-02,-6.818433876775591195e-04,-3.580853678594261239e-03,2.270509749650955200e-01
-2.052855329488866010e-01,-3.522939483879717892e-01,-4.344928563934141730e-02,9.399475638714790277e-03,-6.876991526183442137e-03,-3.942605816297543517e-03,2.684162855148315430e-01
-2.049772742549564319e-01,-3.114157451622848738e-01,-4.051646971832112420e-02,-7.416013420591186824e-03,5.613989419105288453e-03,-5.686479133304276831e-03,2.371455430984497070e-01
-3.144639723908346229e-01,-3.143767582967896823e-01,1.528410947881225779e-03,-4.485864776873885640e-04,-6.210160014755233219e-04,-1.727477761801977018e-03,3.159657418727874756e-01
-3.089982418482810078e-01,-3.048540500614851934e-01,-1.702281351317205815e-02,-8.744799758163800119e-04,8.125577059588169615e-03,-4.852866850695781130e-03,2.903925776481628418e-01
-1.940019472939350509e-01,-3.015376191563808872e-01,-4.807189847687021178e-03,2.113184263922229800e-02,-4.500639883390913920e-02,-5.165395964229517987e-03,2.742265462875366211e-01
-3.473000442468240911e-01,-3.435995351526218156e-01,-2.819700365151239785e-02,1.357960059548871112e-02,-1.403810987820747549e-02,-1.653419518407341429e-02,3.203500509262084961e-01
-3.299285050670466846e-01,-5.879875171291957248e-01,-1.277171955388608227e-01,-2.629671649047427007e-02,-1.333147394119846008e-01,2.330841887037174778e-02,4.654988348484039307e-01
-1.625652881246380244e-01,-3.083425084635530444e-01,1.975334461530309227e-03,4.522067975044935517e-02,-4.948767891428852705e-02,-1.722221561236368659e-02,2.944189608097076416e-01
-1.652204439665397873e-01,-2.835094155605279997e-01,-1.602226971374043352e-02,3.250728173230565954e-02,-2.050851586550580391e-02,-1.406935004092393308e-03,2.415342181921005249e-01
-1.751148710516122475e-01,-2.913606391632430626e-01,-1.568076506957349903e-02,1.343276578078097215e-02,-6.828966710707443100e-03,-2.994300793281206435e-03,2.411928176879882812e-01
-3.225921207171947303e-01,-3.140503873212356356e-01,-3.810720870190492660e-03,4.647347665655316047e-04,-1.939085412740026515e-03,2.211703562611422921e-03,3.146398067474365234e-01
-2.597645440552125984e-01,-1.482374953941430484e-01,-8.855018502704870009e-03,-8.079699015299370013e-02,-8.593397617756952378e-03,2.176300301437528520e-03,2.592891752719879150e-01
-5.356381274637821432e-01,-6.148676820629005446e-01,-1.456659261735807065e-01,2.856150010385596558e-02,-1.466819177010759701e-01,-6.488943365487993831e-02,5.185353755950927734e-01
-5.854843272354095518e-01,-6.602487466624781254e-01,-1.082561919452219579e-01,-1.363161480111695946e-02,-9.410182010678751208e-02,6.210930487941948575e-02,5.547176599502563477e-01
-3.139147971697694439e-01,-3.116549511381318527e-01,-2.163973031332774855e-02,4.783498527220607484e-06,5.740072435420820636e-03,-6.413962732909797137e-04,2.913235425949096680e-01
-3.862021791239708124e-01,-5.484566593650196387e-01,-1.291346314684782282e-01,2.900449648044541896e-03,-1.134812421111651287e-01,-1.289260715028564715e-02,4.162673056125640869e-01
-2.997607230062319106e-01,-1.496782368714450751e-01,-1.024813027031223900e-02,-2.619778245335917244e-02,-1.554554113982752365e-03,6.545962799000014376e-02,2.789491713047027588e-01
-5.193770541104182348e-01,-4.132295693351256127e-01,-1.239533568646947193e-01,-8.363768563641396647e-02,-5.631309707939127773e-02,8.969602554916422665e-02,4.246049523353576660e-01
-1.409954996770401425e-01,-1.566313007345552233e-01,6.018452287835993064e-02,-1.027943672064132036e-01,-3.318507111259497155e-02,4.677041963281090842e-02,2.922835946083068848e-01
-3.109759612681991525e-01,-3.251914144816328012e-01,-3.270809010750302948e-02,2.734064529654193793e-03,-7.471460353477869451e-04,1.144039988798871465e-03,2.856900691986083984e-01
-2.443163235407697642e-01,-1.519028571395022453e-01,1.562938631595137129e-02,-7.149636281002726135e-02,-1.963247081876086635e-03,-7.964115204561272128e-04,2.596886456012725830e-01
-2.216644514206748684e-01,-1.834076772781220444e-01,1.849119823826839148e-02,-3.705825160154545966e-02,-2.525046326886870932e-02,1.732943487150885586e-02,2.385044246912002563e-01
-3.417051134266677059e-01,-2.933641091101432119e-01,-6.993537928491894151e-02,-6.728992147201506846e-02,1.095362072996172026e-02,-2.859891545810090089e-03,2.775361239910125732e-01
-3.589837286090308277e-01,-3.554150339877957254e-01,-1.103275725514324401e-01,5.185144220044894670e-03,2.301329516105303855e-02,-5.424981011265012087e-03,2.504256963729858398e-01
-2.714526693087788711e-01,-2.787837102015169322e-01,-4.647861859114271743e-02,-1.904753798924997688e-02,2.465446483978806728e-03,-1.406338387711565576e-03,2.311470508575439453e-01
-1.448139325467373562e-01,-3.371050267288132618e-01,-6.574888378456822391e-03,-2.970249669478492241e-02,4.797367090676886436e-02,-1.336305555777770986e-02,3.045568764209747314e-01
-2.558005306708778237e-01,-2.547424283803497169e-01,-1.861004576925093246e-02,-1.321571021618021813e-02,-5.993719278508067953e-03,7.395101128996712028e-03,2.383385747671127319e-01
-2.741524510227376088e-01,-2.721786907632618990e-01,-3.951718727867148395e-02,-1.243885399974288628e-03,-2.496392660962053049e-04,-2.865858528301697667e-05,2.336649745702743530e-01
-2.691752325279496705e-01,-2.720711274301217397e-01,-3.483231332937358760e-02,-1.248686632616230821e-03,-7.636477274647098922e-04,1.668310130451960158e-04,2.358180135488510132e-01
-2.744356411785425220e-01,-2.806279885838916521e-01,-3.940505652245007706e-02,-1.636896388386982612e-03,-7.177514715788639371e-04,2.327052895209522423e-03,2.382413446903228760e-01
-7.076467508597442668e-01,-5.995304978366917670e-01,-2.174175545156001310e-01,-2.270801185099644015e-02,3.722876426995047790e-03,1.471388153914410246e-01,5.153155326843261719e-01
-2.449037419766762480e-01,-2.730649430405268085e-01,-1.425808588295068846e-02,7.121984501989349001e-03,-7.699155777034675380e-03,-1.168151691843729613e-02,2.474370747804641724e-01
-3.038401084474312563e-01,-2.941549314610178989e-01,-1.350522387434072158e-02,6.622627167290842274e-04,7.367970454207992993e-03,1.140751723665053190e-03,2.859095633029937744e-01
-2.627147514523669458e-01,-3.169465657858236418e-01,-4.720421098534682836e-02,5.474661985751612392e-02,2.547453959804247062e-02,2.048434243940475824e-02,2.706855535507202148e-01
-3.147682683780725355e-01,-3.192323109318295771e-01,-1.479779873439474036e-03,1.946739200376943618e-03,7.656036913311197465e-04,4.309246173804834296e-05,3.155649900436401367e-01
-3.190412395885212637e-01,-3.268040956205227054e-01,-4.406229239223014016e-03,3.041142126264715414e-03,2.877535600430785028e-04,3.849200216517427030e-04,3.186320066452026367e-01
-3.142590649541343595e-01,-3.189654085619030299e-01,-8.449528699233654905e-04,-2.331606871981083107e-04,3.289276082486518316e-03,-4.078723247164988373e-03,3.159242272377014160e-01
-3.183718453485064881e-01,-3.288423884415706544e-01,-8.418155153114448286e-03,1.375299333612022088e-03,1.375216288407323482e-04,1.393427258835918878e-03,3.153376877307891846e-01
-3.386244001883666477e-01,-3.389775628481745406e-01,-3.733572763583117848e-02,-1.012273148320204808e-03,9.038844768849839569e-04,-4.818748997505826613e-04,3.014757335186004639e-01
-3.209451726484817136e-01,-3.146582242584699540e-01,-5.704671178062364900e-03,7.544881981488756615e-04,-1.865395196186591656e-03,8.654189667495363952e-04,3.121675848960876465e-01
-3.369489136159964926e-01,-3.907152448163024872e-01,-7.566856002609231857e-02,1.104964947380446399e-01,3.147451031155364815e-02,3.619075477949743047e-02,3.587979972362518311e-01
-3.206927505739952666e-01,-3.648649884068843607e-01,-3.675325606976573289e-02,-1.123468223933098489e-02,8.732392396024588402e-03,6.033862204554752556e-03,3.095669746398925781e-01
-3.629449950834444660e-01,-5.589531886358557466e-01,-1.364263213395306706e-01,4.536200797778679183e-02,8.083160000165839909e-02,6.611682134741879782e-03,4.000436961650848389e-01
-2.035240812576633029e-01,-3.621767721977035004e-01,1.852331126362719016e-02,1.106519143471739741e-01,2.417091391829373145e-02,-3.791776909379350642e-03,3.850084543228149414e-01
-2.274071785195694306e-01,-3.158175025103738820e-01,-3.449959746521896742e-02,-3.915771147146507314e-02,1.991572451847866895e-02,-1.057861882887222577e-02,2.611711025238037109e-01
-2.985831605762061525e-01,-2.988865585780112744e-01,-1.845638384036923929e-03,2.828872126560623163e-03,3.300794686237162705e-03,3.937691356334750876e-03,2.970631122589111328e-01
-3.303521531923974131e-01,-3.215523619115082665e-01,-1.465518405620475084e-02,-4.050479345819822490e-03,2.325089899527282324e-03,6.090505841133720148e-04,3.114971816539764404e-01
-2.983350146768471989e-01,-3.139389467715020809e-01,-5.079420548150820336e-02,-6.019676683368149761e-02,1.376765503490872712e-02,-1.485348271622323642e-02,2.783595025539398193e-01
-3.770270026814474540e-01,-3.823869546310326162e-01,-7.297334237853914107e-02,5.169573748580638239e-04,-2.649781986687546262e-03,2.092588032290157787e-02,3.089378774166107178e-01
-3.016436159806698547e-01,-3.199477762515298140e-01,-2.673006985729819984e-02,8.293938636019407978e-03,1.125271597284332493e-02,1.448043326120473234e-02,2.866353988647460938e-01
-1.419618318092447373e-01,-1.809154263131169116e-01,8.325768688939941264e-02,-9.273696075751394763e-02,9.934589685811097762e-03,-1.666879820917128649e-02,2.965542078018188477e-01
-2.936664856095640985e-01,-2.574692938553002630e-01,-1.343585628234847396e-02,-3.606430593582515831e-02,2.313535317674380795e-02,-1.955952903120553033e-02,2.763172984123229980e-01
-2.115669222320439025e-01,-3.621989714767752111e-01,-5.238206253948218816e-02,3.149744610268451206e-02,-2.735075689768863907e-02,-1.148963274343939300e-02,2.786120474338531494e-01
-2.104712542903211525e-01,-1.755541752492717211e-01,1.311694553194378554e-02,-9.634280798880250074e-02,3.690413984311856355e-02,-3.215178836655792349e-02,2.800653576850891113e-01
-2.061317515275599699e-01,-2.992318181980253566e-01,-3.278182534931842196e-02,1.215092248985161737e-02,-1.259564142011138001e-03,-3.834858360599934912e-03,2.352626621723175049e-01
-3.286923226979014401e-01,-3.183643468680799060e-01,-1.094385365033681556e-02,2.068124187648356233e-03,4.350356327016380547e-04,-7.087612160500955921e-04,3.127362430095672607e-01
-1.669947989911875208e-01,-1.401476235748679300e-01,1.858372961334822659e-02,-9.624149622313252217e-02,4.672045209237538424e-03,-1.017492630829099250e-02,2.415393292903900146e-01
-3.229064521424056533e-01,-3.179250197454233096e-01,-1.219867964050005971e-02,-2.137678235048812939e-03,1.511174351596070295e-03,1.153693067428194011e-03,3.082870841026306152e-01
-2.709313399507894404e-01,-3.270339687853839883e-01,-8.256085080229236262e-03,-4.745754143363462192e-03,2.081949894059164849e-02,-2.042376455696965666e-03,2.970908880233764648e-01
-2.491552022145707979e-01,-3.017926693739221289e-01,-4.691147442450310789e-02,-2.246452360650871838e-02,1.226658350991544251e-03,-1.246191865601740901e-03,2.363090366125106812e-01
-2.620138287068697336e-01,-3.058830859410893721e-01,-1.503305751490130460e-02,-1.992444386444596274e-03,-9.463410143150878528e-03,1.230867607570823585e-02,2.729358375072479248e-01
-3.155981741083320191e-01,-3.196047900573083522e-01,9.336749707489211403e-04,7.766412648994906959e-04,1.547003264405540568e-03,1.503004127154374762e-04,3.185682594776153564e-01
-2.765073235140838581e-01,-2.936178834852396502e-01,-1.767401799845952359e-02,-1.427637502318875561e-02,1.723135984145251348e-02,-1.593579364053626657e-02,2.719931602478027344e-01
-2.635089056909181160e-01,-1.280236236419067253e-01,-2.000815178981790732e-03,2.185204005976655595e-02,-6.896703040251046975e-03,-2.127780712199042745e-02,2.329070866107940674e-01
-3.067744952001296155e-01,-2.303175069567474087e-01,-1.773280707681770818e-02,3.391136078040898200e-02,-1.050467976064988797e-02,-2.209256686166857428e-02,2.693264484405517578e-01
-3.045589046991434845e-01,-3.212208528645244532e-01,-2.702119435814664961e-02,4.718094305077209089e-03,-9.028807194914847956e-03,-1.138537666987338680e-02,2.874532043933868408e-01
-1.802953982760143181e-01,-2.583884639387710180e-01,-6.954892993644962162e-03,5.912268960140654867e-02,4.758407124950702477e-02,1.637560039547818203e-02,2.603187263011932373e-01
-9.169631454466366238e-02,-3.460795927327790511e-01,4.442054147712432011e-02,5.362860445319318770e-02,7.541345441015006278e-03,-1.164584413227841980e-02,3.564688861370086670e-01
-3.002115286558667551e-01,-1.964234711415041024e-01,-2.568977629025484544e-02,1.999687290829888636e-02,-4.179217062314118970e-03,-9.999237802601474226e-03,2.432982772588729858e-01
-2.656860079552800791e-01,-2.192292106501051718e-01,-6.079462705310983983e-03,3.622638502418594475e-02,-2.498877891357635314e-02,-3.530852561060539296e-02,2.589280903339385986e-01
-2.590939264391131647e-01,-3.050033870091628518e-01,-1.139635120434170923e-02,-2.281804693950370815e-03,-1.007904192959428041e-02,4.131363433547686342e-03,2.742353379726409912e-01
-2.563035884448309765e-01,-3.032204535206567964e-01,-2.651905994641212683e-03,7.061572919413789361e-03,1.916188772548043165e-02,3.923153157461858193e-03,2.823795676231384277e-01
-3.200395121947914867e-01,-2.319936939695702860e-01,-4.514694145909856071e-02,5.979256936034544646e-03,-1.011458111216391280e-02,-1.241265939178659572e-02,2.449311017990112305e-01
-6.429324259377310058e-02,-2.329337537502525202e-01,3.050750987732542274e-02,3.836261192083136040e-02,1.072342755266376783e-02,3.734111973500057829e-04,2.411939352750778198e-01
-3.084361232852962376e-01,-2.224679589989139172e-01,-3.440744069485487944e-02,8.735386997048602900e-03,-6.281584299013606189e-03,-1.003912176987723642e-02,2.440781593322753906e-01
-2.845157171354536496e-01,-2.906260691143981445e-01,-3.017342250629223566e-02,2.469408813366534474e-03,-9.888597526727367724e-04,-6.599085455419959750e-04,2.574956119060516357e-01
-3.090319752417451937e-01,-3.098001656059160003e-01,-2.867931188811262411e-03,-1.448837569724254230e-03,-6.563892713311157310e-04,-2.158363899436433701e-03,3.065840303897857666e-01
-2.797579192696584838e-01,-2.667520459242495035e-01,-3.107625741153730026e-02,-3.179314984103777126e-03,-6.451185673917629072e-03,4.965295942276996659e-03,2.429126203060150146e-01
-1.880794557005229239e-01,-4.248948525255100694e-01,-4.829528497032306578e-02,4.442307730631830931e-02,-6.119001960226155140e-02,-1.787400111496152124e-03,3.548051118850708008e-01
-2.996410088120426973e-01,-3.086289055336614018e-01,-8.298721784167517601e-03,-2.640683936602527745e-03,8.355145753202702918e-03,-1.759172439878110101e-04,2.963276803493499756e-01
-8.661007399997783240e-02,-2.636746610089866771e-01,1.574481097064323043e-02,2.327342209166785580e-02,-8.225639593954819223e-03,-7.925442233011135984e-03,2.489341199398040771e-01
-3.093105673882101114e-01,-3.103529440797525019e-01,-4.742016524777681319e-03,-3.797928087509277496e-03,-6.037838949710098340e-04,-4.072597364959866864e-03,3.052452802658081055e-01
-4.136687961290739235e-01,-5.798378009664323374e-01,-1.499439716099200681e-01,-7.505509238480295719e-02,-1.058010947621059183e-01,6.251468498897709558e-02,4.507676661014556885e-01
-1.755356785841706846e-01,-2.852786766257806583e-01,2.573570959791399160e-02,2.022002645440467219e-02,-5.948968767697743187e-02,-1.392580716233767814e-02,2.950715720653533936e-01
-3.159591362465256070e-01,-3.227951602885106852e-01,-1.625646245021522551e-02,-3.441495438154809888e-03,-6.027663366496469402e-03,1.015905570178025213e-02,3.039265573024749756e-01
-3.151762125747616938e-01,-3.144741803727714169e-01,-1.290851583578805917e-03,-1.733957643984205535e-03,-2.936381211015204502e-03,-2.222757978993260709e-03,3.136141896247863770e-01
-3.129236929021388391e-01,-3.112378876996276245e-01,-1.286491727324715062e-02,3.312260422719551234e-03,-1.326835421395148977e-02,-7.633822658879452043e-03,3.004465997219085693e-01
-3.428759056041633113e-01,-3.573233842929178228e-01,-7.500689653545630775e-02,-7.418103478339112787e-03,-3.070019008670263078e-03,-1.371912093312480270e-02,2.767500281333923340e-01
-4.069430720392076539e-01,-4.174647425080178498e-01,-1.062259492814783546e-01,1.234299957927643687e-01,-4.095017030390579738e-02,-3.998105343802053208e-02,3.863115906715393066e-01
-3.876104139910409585e-01,-3.898707696182002747e-01,-1.678370992917555815e-01,-1.081298144118685804e-03,-1.383313434722647020e-02,1.026742864983395433e-02,2.229260355234146118e-01
-3.108072605293758506e-01,-3.086196584772887830e-01,-3.078814354650488694e-03,1.085910045744505666e-03,7.324754276286257705e-04,-3.184500184333179194e-03,3.066985011100769043e-01
-2.148571927865522979e-01,-7.778907819810722268e-02,3.088116803326705628e-02,-7.098335603362915247e-02,1.023006174594406556e-02,-3.873397978402683822e-02,2.557791173458099365e-01
-1.722637842397807262e-01,-2.683965578182507805e-01,2.975370931597998148e-03,4.149855763512199508e-02,-3.917921323298088898e-02,-2.091261046707209442e-02,2.605377733707427979e-01
-5.074172331867401464e-01,-4.297013916785793475e-01,-1.512053287310602401e-01,-2.755832373997079213e-02,3.037913449977559105e-02,2.735659346450754204e-02,3.354632258415222168e-01
-3.035231677370575643e-01,-3.036476661439034830e-01,-9.053849315477258131e-03,-2.575407810216226510e-04,1.091210942125119031e-03,-2.828481648180049442e-03,2.945787310600280762e-01
-2.454308071198391394e-01,-4.658340832550847965e-01,-6.773204941254296063e-02,-8.041278878026307531e-02,-6.068686073216299215e-02,3.108853333797927457e-02,3.907258212566375732e-01
-1.644432464365415125e-01,-2.240121484150723874e-01,-9.701855885787813438e-04,-9.685243965524130416e-02,2.396483676938243341e-03,-2.073980929584232514e-03,2.611151635646820068e-01
-3.464172470522668967e-01,-3.424299625956960802e-01,-7.228113505746067147e-02,-6.342922602090544058e-03,-1.492176821819140090e-02,-1.918528636363383069e-03,2.736296057701110840e-01
-3.425901546046869472e-01,-3.431251067179954539e-01,-1.181026515977994795e-01,1.075094914440166563e-03,-6.275288112478160860e-03,-1.267253133904560486e-03,2.250365316867828369e-01
-3.084443412030915543e-01,-3.319414696880904625e-01,-6.178945605527058627e-02,2.560686039284344392e-02,1.734802270235211163e-02,1.651281967784119786e-02,2.662225365638732910e-01
-3.211389409925843319e-01,-3.069831948454115333e-01,-2.857268704809187709e-02,-4.727716365153927791e-03,-1.179969554720049565e-02,6.457697952223753063e-03,2.868165969848632812e-01
-6.385971299254336597e-02,-3.109353555713987305e-01,5.784105173564987878e-02,6.885953873005772052e-02,1.488672973931507576e-02,-1.120019893536453905e-02,3.481276035308837891e-01
-3.214659455918842390e-01,-3.135571466563554788e-01,-2.136548348589234481e-02,2.597771065176598514e-03,-3.086437317233461756e-03,1.016057262162610442e-02,2.968298196792602539e-01
-4.988670352210784475e-01,-3.688371930459714010e-01,-1.070669325564953533e-01,-1.756600969024077821e-02,1.459292554332742306e-03,4.200228767851305750e-02,3.545335531234741211e-01
-3.377877491622292561e-01,-3.347718876999938864e-01,-3.966467503817966422e-02,1.223697762272670268e-03,-1.391322327076505161e-03,2.439733166351129405e-03,2.966741025447845459e-01
-2.991096202220007161e-01,-2.336951251640742300e-01,-2.915640639325517425e-02,3.823963461120802234e-03,1.055740274750743141e-02,1.103788426958717157e-02,2.454357147216796875e-01
-3.154807851789410145e-01,-3.196162704795084686e-01,-6.147739108648131445e-03,2.023238306646429289e-03,-3.003792657287108342e-03,4.247537545338917267e-03,3.115714192390441895e-01
-2.773320718707301125e-01,-2.946626167224447590e-01,-1.278480988047589473e-02,-2.214099744866057477e-03,-6.683356950088720043e-03,1.050383458107273862e-02,2.744996249675750732e-01
-2.858136010957558204e-01,-3.095967150657704670e-01,-7.530473226398270992e-03,-3.058771881106031078e-03,1.018243092978785014e-02,-5.356340998249581320e-03,2.916346490383148193e-01
-2.790802503597770712e-01,-2.810955418743958378e-01,-1.940038328507850962e-02,-3.349644125296394066e-03,-4.973435350978405202e-03,2.912686433174986166e-03,2.609489262104034424e-01
-2.765746595788852180e-01,-2.803259006517985763e-01,-2.659381764147791816e-02,-1.761054939972721799e-03,-9.945752300994114593e-04,3.606625640341112188e-03,2.519792318344116211e-01
-3.105043854084450494e-01,-2.158970123864934476e-01,-4.219123603058902439e-02,-2.692803975115928491e-02,-2.078237666379907124e-03,5.543093344609408522e-03,2.404965460300445557e-01
-4.225587388709933223e-01,-2.049204052891757388e-01,-9.154188139488650400e-03,-8.856254793473578024e-02,-5.816742018027737035e-03,2.311917190384987775e-02,3.918316662311553955e-01
-3.276518680015064744e-01,-3.241720386455100300e-01,-3.804286157649972022e-02,5.481631430231084096e-03,5.352860536322652171e-03,1.135337330010181009e-03,2.881972789764404297e-01
-3.203665599990735968e-01,-3.137001637893342409e-01,-3.073943805394166451e-02,4.012166837597870572e-03,-1.331867238598586235e-03,-8.981227132386941842e-05,2.864457666873931885e-01
-4.408780876628725642e-01,-4.380087519008949437e-01,-1.138753971388979380e-01,-1.192909888431737397e-01,-7.182043975739084429e-02,6.886018527813654588e-02,4.223641157150268555e-01
-3.163442335880947698e-01,-3.170729787997000892e-01,6.845682036551448135e-04,9.678738302077960183e-04,-6.257575521737406563e-04,1.009171695799432913e-04,3.174001276493072510e-01
-6.428818219026042335e-01,-6.426508069453629179e-01,-2.246945816718027844e-01,-7.422958248242857160e-02,-8.035001935384807059e-02,1.287236138656043805e-01,5.102859735488891602e-01
-3.237358595925640681e-01,-3.319683320516290115e-01,-9.253782270450705560e-03,-7.045481913967964601e-04,7.734306934414419358e-04,2.242076704020186297e-03,3.187068998813629150e-01
-3.040020384799179687e-01,-2.812904912374728505e-01,-1.692943046411055086e-02,-1.471276848686183273e-03,-1.124498913592224779e-02,7.337128548246370230e-03,2.774057984352111816e-01
-2.966111285490093952e-01,-2.841346100194543922e-01,-5.469969599646434810e-03,-2.553803093078388028e-02,2.189869630061154482e-02,-2.522017857488026774e-02,2.942614853382110596e-01
-3.120465973852383224e-01,-3.268661576647050593e-01,-3.599339652433120040e-02,-1.096175706407548790e-03,-1.965855320022710556e-04,-8.091845832719663260e-04,2.837633788585662842e-01
-4.043683202286129097e-01,-1.237793925819169194e-01,1.560869296657690919e-03,6.447491772880480088e-02,-1.502046677180491827e-02,5.043730711252781239e-03,3.779333531856536865e-01
-3.012983390615572854e-01,-2.742637286185642398e-01,-1.597639742939499508e-02,-8.050580760443943815e-03,1.193553390194558236e-02,-9.607723540774446361e-03,2.744533419609069824e-01
-3.182879759456334612e-01,-3.248194323296336172e-01,-5.607179135652701207e-03,-4.858163623751135030e-04,-1.084167618837188337e-03,-3.067110920452999906e-03,3.160485029220581055e-01
-7.080443853400387733e-01,-6.840391453701576419e-01,-1.407476619228701376e-01,-9.689895731811681151e-03,-1.925792907435155271e-02,7.700018630026070826e-06,5.569362640380859375e-01
-3.478133179364258365e-01,-3.466822231696603529e-01,-9.362437502259507438e-02,-5.735002019118413778e-03,8.119951538811443631e-03,7.840760682021470987e-03,2.545715868473052979e-01
-3.231227175985871281e-01,-3.270882789375372801e-01,-3.587530701723784521e-02,6.208594726126656638e-03,1.490831873023158510e-03,5.317116912152450130e-03,2.896083891391754150e-01
-5.715133787816073507e-01,-4.501063636681715829e-01,-1.654812689212108168e-01,-2.303942845249318250e-02,-1.923030608102929001e-02,-5.367596447990932024e-02,3.763665556907653809e-01
-3.225248299535635188e-01,-3.290880467550914013e-01,-6.315618403656078628e-02,-1.240066443272515220e-03,2.207710334989805741e-03,3.957148949615807605e-03,2.628377377986907959e-01
-3.742737761677922270e-01,-3.733976747492523396e-01,-8.798132104926786878e-02,-6.981783356740160068e-03,3.137219813829340842e-03,2.284929163043845912e-02,2.888863980770111084e-01
-4.541478594555654613e-01,-6.217284985171834810e-01,-1.817841721584949610e-01,2.476739084036920502e-02,6.542217554565342430e-02,6.476789719547239310e-02,4.185369908809661865e-01
-5.258028232066489505e-01,-3.868368792957606050e-01,-1.029205296266014202e-01,-3.513803763987683598e-02,1.058154691247409351e-02,-5.215015357784062028e-02,3.893245458602905273e-01
-3.223874066619661916e-01,-3.296274646250326179e-01,-2.989060758367098614e-02,3.173282340766201207e-03,7.193031216432537595e-04,-1.907411616116681894e-03,2.962552309036254883e-01
-3.242344689428792726e-01,-3.340350226043725668e-01,-6.228834855541998117e-02,-3.243679904188426569e-03,2.506267986568893810e-03,6.529065534479064868e-03,2.673150300979614258e-01
-4.986463352682966033e-01,-5.928843363557008139e-01,-1.676938923850401775e-01,-1.818518776154752839e-02,7.015438061337617159e-02,-1.929967810174108497e-02,4.080111086368560791e-01
-3.387744464867757932e-01,-3.409487979924195611e-01,-5.022930346519763334e-02,-2.945357031659863109e-02,2.169165909445082419e-02,-3.156265261208562184e-02,3.014849126338958740e-01
-2.965348524543658382e-01,-3.050474214962866637e-01,-3.970037603140130766e-04,-9.206759331747392267e-04,5.838932726896410921e-03,-5.638361081372303581e-03,3.008175194263458252e-01
-3.511068042847276804e-01,-3.096615505254448064e-01,-3.411827328630054335e-02,-9.415625544485582005e-03,2.043569272585418414e-02,-3.689595667390765943e-02,3.076759874820709229e-01
-3.394688809356367076e-01,-3.899178793668596210e-01,-8.497281067398038124e-02,7.253634305795458870e-02,6.890359540283509665e-02,2.576834532083436061e-02,3.349210619926452637e-01
-3.230736894273079640e-01,-3.229284924727665596e-01,-4.637736971553998999e-02,-5.042197466063141204e-03,-2.699620185771991880e-04,7.270682035434150722e-04,2.767648398876190186e-01
-3.011514388013296073e-01,-2.935631703647926249e-01,-1.340828003277932945e-02,2.049286916541295458e-05,7.453411005878701236e-03,1.118782395683959579e-03,2.843249142169952393e-01
-2.846193681466756553e-01,-2.797933431990007880e-01,-8.937338101815961444e-04,8.165801033299205716e-03,1.026208631486141484e-02,7.891334724735766040e-03,2.825899124145507812e-01
-3.282613368156334088e-01,-3.226769280226512437e-01,-3.730473305130874162e-02,2.727072896701316588e-03,-8.344724326290931318e-03,-1.837943885375853664e-03,2.886233925819396973e-01
-2.985740369312683828e-01,-2.779184787477702034e-01,-1.252520216812633147e-02,1.342443827700834542e-03,1.073950141221025403e-02,7.127839379074149204e-03,2.772109806537628174e-01
-3.252641163064465823e-01,-3.201826754111360973e-01,-8.776528284809845259e-02,2.624097074785145239e-03,-7.373393378822245062e-03,-4.993899013480836667e-04,2.353915572166442871e-01
-3.055738466028861122e-01,-3.012515453131590082e-01,-1.700510246253408853e-02,-2.177206146104542200e-03,-2.217181729500283295e-04,-1.722128475158160501e-03,2.864726483821868896e-01
-3.195804223715547621e-01,-3.197131788094668137e-01,-9.592796433717271087e-03,5.131278964314818286e-04,9.032680723863166852e-03,1.224675591191611880e-02,3.111735880374908447e-01
-3.261284661272476626e-01,-3.160324872891633330e-01,-5.171547592752656630e-02,1.342619375420859955e-03,-5.546732027444164527e-03,1.617858984876403914e-04,2.696882188320159912e-01
-3.487132279579982508e-01,-3.453571084348009412e-01,-1.762793729782491381e-02,-5.723771140682443236e-04,-2.345825857922657562e-03,1.358366216385770500e-02,3.302856385707855225e-01
-4.089653632969491026e-01,-3.307146392130731472e-01,-7.791456734073298751e-02,1.103493779426762550e-01,2.548225626013842990e-02,5.233899384258638293e-02,3.694725334644317627e-01
-3.962859978623719526e-01,-4.145629954572644382e-01,-7.347188155286565880e-02,-5.734641898797615962e-05,2.006578491250540081e-02,3.056907247873762081e-03,3.341841101646423340e-01
-3.154756615036028999e-01,-3.281787919466773729e-01,-8.850756194064390847e-03,8.983698259115070360e-04,-2.026464408958550466e-04,-9.413402147049449407e-04,3.131780624389648438e-01
-2.397892265471861240e-01,-2.891812396961708220e-01,-2.316012081740032036e-02,-4.780023147865141570e-02,2.912031168889224822e-02,-2.828890507175108038e-02,2.680799067020416260e-01
-3.387490877659454780e-01,-3.328567193190092866e-01,-5.605953828849830067e-02,4.559534821840579601e-03,-7.789155083098313684e-03,2.162292701519205260e-03,2.802513241767883301e-01
-3.242017600816026190e-01,-3.239332513677490866e-01,-7.392464548564889326e-02,3.468584881962241337e-04,-6.674895814340318402e-03,1.178499098773583666e-03,2.504190504550933838e-01
-3.267980229246664203e-01,-3.175124287517075983e-01,-6.324997476834168242e-02,6.360867538894726669e-04,6.907423226791527607e-04,-3.425972868084748400e-03,2.591031789779663086e-01
-2.997179206943519914e-01,-2.396098340367142365e-01,-1.871709593816350825e-02,-1.148083787163697855e-02,-5.234239192279271403e-03,2.329025346253861279e-03,2.572506964206695557e-01
-3.167585389641447424e-01,-3.019095499098062851e-01,-7.653699855166007371e-03,2.890633671886095896e-03,4.168682151362541367e-03,8.477625773458064007e-03,3.024387657642364502e-01
-2.498441345549017589e-01,-3.386829439729557856e-01,-1.351361812161031017e-02,9.317719445226013740e-04,2.667421865754678739e-02,-1.139916638802843107e-02,2.954094409942626953e-01
-3.527220027216882992e-01,-3.488170883677670364e-01,-1.125743245479168819e-01,-3.113846210604722872e-03,-9.108797339677086879e-03,1.595640808876792969e-03,2.388180047273635864e-01
-3.193626569029709428e-01,-4.242601266600414256e-01,-6.393476203682552095e-02,1.212167906025782560e-01,4.484394404605231144e-02,3.754540834399699295e-02,3.967153429985046387e-01
-6.280647678035360393e-01,-6.425885762254609501e-01,-2.072005589157921990e-01,5.168944180261558774e-02,7.962129836326452270e-02,1.014448194557840688e-01,4.912813603878021240e-01
-1.509113520885146387e-01,-2.394139676570046227e-01,1.718279886235007936e-02,6.157909357557685148e-02,4.487733199045413485e-02,3.451355700260292508e-02,2.682472169399261475e-01
-3.363727074630842306e-01,-3.377941209811665124e-01,-1.036400393532983244e-01,-6.488477293426130272e-04,-6.620339690904366095e-03,2.567651702950364805e-03,2.337730824947357178e-01
-2.873670212085939757e-01,-3.153506717289026873e-01,-1.921380411903372831e-02,2.922370856241775488e-04,9.788162267601136987e-03,1.858658456227194706e-03,2.837096750736236572e-01
-3.216774058365559075e-01,-3.269068416457534543e-01,-9.782399204357722367e-03,-2.053711271944099782e-03,1.152605245223425022e-02,1.153542862212383370e-02,3.158279359340667725e-01
-3.352101014453532368e-01,-3.317199784071880320e-01,-7.886713535325604041e-02,2.992169700368605377e-03,-7.785324004144891612e-03,2.563362818557518227e-03,2.550639808177947998e-01
-2.091480340788290926e-01,-3.796477413772941234e-01,-1.396329156782297187e-02,8.146709357408611629e-02,1.946973615562930249e-02,4.395678637955908671e-03,3.486430943012237549e-01
-3.537296423611228091e-01,-3.361011097563804118e-01,-7.710778577858162786e-02,1.269249623499080128e-03,-1.202075477408085825e-02,-1.003928544793227309e-03,2.690638005733489990e-01
-2.892489933199218766e-01,-2.069880861833081065e-01,-3.260241923334250558e-02,-6.086162596560942828e-02,8.774682296048195301e-03,-8.165474864157517068e-03,2.511289715766906738e-01
-2.573915569558926641e-01,-2.070166047119508246e-01,-8.763465958215865825e-03,-8.771075237863093510e-02,-2.925647248700840794e-02,2.193054793768627053e-02,2.809254825115203857e-01
-3.027793171742747536e-01,-2.759756461455591392e-01,-4.833101108421350434e-02,-6.654780594726965315e-02,-1.015441076350438385e-02,9.061916548085824710e-03,2.692280709743499756e-01
-5.950795764371881180e-01,-6.527557305913980201e-01,-1.974572220968782155e-01,3.355166112483875217e-03,8.133180981733101333e-02,5.532211893103813546e-03,4.520327150821685791e-01
-3.401871174790520591e-01,-2.564560124219553705e-01,-2.112357008853751883e-02,-4.039676855840677178e-02,-1.299780720181282524e-02,2.796134041814166832e-02,2.997414469718933105e-01
-3.662118336943408492e-01,-4.815395838020467556e-01,-1.204738211940380999e-01,-5.313961468583708325e-02,-5.084883118953693187e-02,1.075431980664361131e-01,3.910920023918151855e-01
-3.189021661700126020e-01,-3.198682600889297678e-01,-2.592700438157688470e-02,-7.718057390554936871e-03,-1.504689968092551636e-02,1.402732460791161068e-02,2.959166169166564941e-01
-3.134068967072207723e-01,-2.844688801318441262e-01,-2.573517232136848798e-02,-2.657769935766101516e-02,-1.406788800918514631e-02,1.851294120049570141e-02,2.810850441455841064e-01
-3.286955311716279193e-01,-3.220974372876955205e-01,-6.776066837162100787e-02,-3.826586623319966156e-04,-6.772742468219150732e-04,-4.619172003757951960e-05,2.577027082443237305e-01
-3.284664047159321920e-01,-3.254111864258483755e-01,-9.526227376582602213e-02,-3.170135511612438318e-03,-8.258002326920012293e-03,-3.106570318065019539e-03,2.322599738836288452e-01
-2.271460309560825175e-01,-1.341983154207735673e-01,6.526568348758418625e-02,-9.048881531644674403e-02,-1.170125030308480059e-03,-8.276366641169622881e-03,3.028847277164459229e-01
-2.592515297668853691e-01,-2.128263277724949387e-01,-2.839624273450747083e-03,-1.284660550810135804e-01,-7.189177453079897105e-03,4.244462844809509736e-03,3.251431584358215332e-01
-7.078029907366475415e-01,-7.512973610313967709e-01,-2.390044248302377605e-01,-1.770385799869401630e-02,-6.962695732905767321e-02,1.443504406527353762e-02,5.080975294113159180e-01
-1.912884200854205463e-01,-1.712731636187943551e-01,3.646585018632284014e-03,9.503583286012765030e-02,-2.160371490161057742e-02,-2.354856051644109785e-02,2.542789578437805176e-01
-1.784684036406594676e-01,-1.727246566168900155e-01,1.623067957608936851e-02,-9.860570464530482582e-02,-1.098658237285511478e-02,2.594708335538401141e-03,2.576315104961395264e-01
-1.606012853769150650e-01,-2.817237962635006365e-01,-1.814848440967811727e-02,3.295194685448774724e-02,1.111833984211070027e-02,1.886673946154209837e-03,2.363402843475341797e-01
-1.784042846704071150e-01,-3.251282572300665530e-01,-1.962922123486207648e-02,5.276387272448350430e-02,1.139929697586956024e-02,2.161829127043141292e-03,2.806946337223052979e-01
-3.191276906606983488e-01,-3.264076650522260703e-01,-3.957520081916965360e-03,2.082717715872292477e-04,-9.904843938068359083e-04,4.127539046106265888e-03,3.189574480056762695e-01
-2.736742998570853569e-01,-2.515741809242918459e-01,-3.129637953903877112e-02,6.606185560315174995e-03,-2.931585659397172722e-03,-1.033688533462251207e-03,2.324624806642532349e-01
-3.113891795736479784e-01,-2.990672592234567828e-01,-7.369559669697600679e-03,1.481077112256148631e-01,-8.349928093472293658e-03,-1.756394161665758569e-02,3.946846425533294678e-01
-3.197068598742675571e-01,-3.192979924533367875e-01,-5.351837392721742193e-03,-3.065630457477527392e-03,6.676065923147472218e-04,9.218745333253168691e-05,3.141978383064270020e-01
-3.098476957909040430e-01,-3.100291339084380038e-01,-3.931814080218865026e-03,4.316708771505799180e-04,-4.969386494867862082e-03,-4.348392925739972929e-03,3.062212169170379639e-01
-3.177339314622040778e-01,-3.150037752966534099e-01,1.395631104279260182e-04,-1.727842327339179900e-03,-1.288275993311186309e-03,-9.238447777077806074e-04,3.165433108806610107e-01
-2.825626570284346939e-01,-3.102390759040224433e-01,-1.403494437224608871e-02,3.999412335815846070e-02,-2.609759815577330014e-02,-1.828496852107501167e-02,2.969004213809967041e-01
-3.300551968109667333e-01,-2.728586946639638411e-01,-1.079579699726801456e-02,1.135040516699118290e-01,1.611624217966260361e-02,6.393124879325985319e-03,3.556526601314544678e-01
-3.129045360059684033e-01,-3.157103485584748515e-01,4.152606572394579310e-04,2.788734282482049757e-04,-2.845983673156150459e-03,-1.531561218452722134e-03,3.147822320461273193e-01
-2.219768631420752369e-01,-2.789946136689254175e-01,4.082797042205402183e-02,1.513580652453759001e-01,2.627734485253180666e-02,-5.877604989932158630e-03,3.977497518062591553e-01
-3.208521622514936000e-01,-2.623472036670163599e-01,-1.339983993543655827e-02,3.059080759742413558e-03,3.665395133524913460e-03,1.490598049210025214e-02,2.840725481510162354e-01
-3.142935247324081249e-01,-3.154679403329685439e-01,2.231771515781133530e-03,-2.901703034721149726e-04,-6.203840273540421829e-04,-1.299419062255126626e-04,3.171164393424987793e-01
-3.250284110286563166e-01,-3.295097434666775515e-01,-1.739349132450648816e-02,-3.271615671956954342e-03,-1.012335904988549869e-03,1.690292518717425706e-03,3.099704682826995850e-01
-3.198016610309086794e-01,-3.297338599167235484e-01,-2.464095727679352366e-02,-5.905383835614762440e-04,-2.710628164052422337e-03,-4.990011355301205917e-03,3.004128336906433105e-01
-2.976520132076589942e-01,-2.274062509383393271e-01,-3.693023070420095588e-02,6.278789499222090648e-03,-2.919525821851151007e-03,-6.708181275871758506e-04,2.339677363634109497e-01
-3.066486073180030303e-01,-3.097792995222981016e-01,1.816527492377678632e-03,-2.940861142790681857e-04,-3.632781213283170496e-03,-1.317717321421845453e-03,3.101150095462799072e-01
-3.284367515782772307e-01,-1.669487324104458881e-01,-3.007004555185066597e-02,3.172866343315263252e-03,-1.025911007602928367e-02,4.428307607397024420e-02,2.704576551914215088e-01
-3.383517189138388059e-01,-5.277567257984898674e-01,-1.191015827673888861e-01,-7.752282875374455484e-02,1.128716244705125216e-01,-6.793602190479787473e-02,4.422298371791839600e-01
-2.549035854556289671e-01,-3.288098737181758269e-01,-2.306932952057039188e-02,5.786852906534334026e-03,3.519693369161189939e-02,1.295631677131936672e-02,2.840137481689453125e-01
-3.193785320539880845e-01,-3.253628788996301147e-01,-4.555611457461389291e-03,-3.376888213447079654e-03,-8.484881822061404733e-04,-1.057720583245236670e-03,3.179198205471038818e-01
-2.996510953048576731e-01,-2.026532348362801994e-01,-1.840604112804014592e-02,1.099774746427632788e-03,-1.538361372420833997e-03,1.315412429356625952e-02,2.485096007585525513e-01
-3.303243489128860344e-01,-3.168850133549157566e-01,-1.233320690993303104e-02,-3.357998724518384149e-03,1.904924449381893573e-03,1.438181870949074327e-03,3.115707039833068848e-01
-2.815784101446865417e-01,-2.248740777284225778e-01,-3.186237212575421252e-02,1.231611807139895709e-02,2.459588068365240517e-03,-2.216742389161382759e-04,2.277868688106536865e-01
-3.808167651980287616e-01,-3.850862423040158355e-01,-9.171399225151039003e-02,4.571998764895932911e-03,7.438807435003910035e-03,-2.113862509530279113e-02,2.939425110816955566e-01
-3.347724696048852699e-01,-3.355965172465950053e-01,-3.758385363795307965e-02,-5.007657052095320672e-03,-7.355709377549323608e-03,2.190804915243280138e-02,3.004065454006195068e-01
-3.295755300812541755e-01,-3.147943239906132451e-01,-1.759025342043218920e-02,-5.046010566201457326e-03,2.880904458702503602e-03,7.451430863014783107e-03,3.053025305271148682e-01
-3.497156756785901321e-01,-3.478843994833920039e-01,-9.255458280008360683e-02,-2.570932079729991004e-03,-7.129031510818895079e-03,-1.443149436462798536e-02,2.578009963035583496e-01
-3.191615852912266238e-01,-3.134977630437961738e-01,-4.644797226379115962e-03,4.556601521248667243e-04,-4.549051612259533465e-04,-5.244477431339558221e-05,3.117254674434661865e-01
-3.201108907664449443e-01,-2.946263314729933303e-01,-2.431698078201699476e-02,3.301686068026946129e-04,-9.534864375487294569e-03,6.980700012494546469e-03,2.846481800079345703e-01
-3.323055368681083754e-01,-3.208576827868366843e-01,-2.502817365841444874e-02,-6.509548904778761878e-03,-3.477696025085691292e-04,2.364654703929349160e-03,3.019553422927856445e-01
-4.307922729472427048e-01,-5.482325688741045422e-01,-1.450553159613819088e-01,9.462518163341057664e-02,6.307562105996193658e-02,4.727064159603287102e-02,4.177269339561462402e-01
-3.141139312611315737e-01,-3.132367228036233020e-01,-9.310733516940672416e-04,-1.835568893329820694e-04,3.065125519936413943e-03,3.111481714943112667e-03,3.128368258476257324e-01
-3.919767438646368785e-01,-4.059673868248465656e-01,-8.003013590261490173e-02,2.733783916851182261e-03,-1.046631359571978566e-02,-1.258976404921100488e-02,3.204642236232757568e-01
-5.342026904646821617e-01,-5.214122808352650296e-01,-1.420193429180837685e-01,-7.827589301731879834e-02,-1.010389731188630763e-01,1.007771614864708259e-01,4.779448211193084717e-01
-6.917113054619508095e-01,-6.401910053519115351e-01,-1.512958699935589846e-01,-3.219825331853470168e-02,-4.935622319119430806e-02,8.374750264652712495e-02,5.461868047714233398e-01
-4.978479282702606978e-01,-4.608160629994466628e-01,-1.616209770830002723e-01,1.886528155027309209e-02,-5.894165213024012834e-02,7.657095933655572173e-02,3.620058000087738037e-01
-3.301380959664692583e-01,-3.267435317570714925e-01,-2.125802011908270450e-02,7.804531253220606778e-03,-6.905552901801865519e-03,-7.599141157554256329e-03,3.080080151557922363e-01
-3.233768174147655383e-01,-3.727397961936800286e-01,-2.891493842196571351e-02,-3.703543664844160307e-03,-3.080408379271132660e-02,1.424082622265755715e-02,3.273778259754180908e-01
-3.785411787940857198e-01,-3.721728105783359553e-01,-5.408908685526173099e-02,-2.376033705918917729e-02,-2.171732255954937976e-02,2.207765035241912588e-02,3.283509314060211182e-01
-2.624361909135096704e-01,-2.892727761061342773e-01,1.725563642381078289e-03,2.972317984685437283e-03,-8.149357617509558546e-03,-6.870132833162320533e-03,2.792099118232727051e-01
-3.385100372649209044e-01,-4.231852660829261703e-01,-7.991153231685385605e-02,-3.988708242751341088e-02,-8.316544182277911534e-02,-1.737035392127995320e-02,3.498107492923736572e-01
-1.365297979320164723e-01,-4.351923107049263661e-01,-4.543394120898949784e-02,-3.127481327105148534e-02,1.807602458826369080e-02,-9.465239383512498092e-03,3.590097725391387939e-01
-2.804356856313114932e-01,-1.875765666799645293e-01,-8.457613891903692505e-03,-9.356455884462938286e-03,-3.933009464096541910e-03,1.764399357272275481e-02,2.420376241207122803e-01
-2.845056146558578303e-01,-4.078282796297433288e-01,-5.375650610321941469e-02,9.519676690135295272e-02,-3.903864955567420969e-02,-2.374634158601600376e-02,3.610557019710540771e-01
-2.331619278042393051e-01,-3.247304189344286662e-01,2.659976099104954805e-03,1.219114962882340697e-01,-2.406974507616192228e-03,-6.540074454214239892e-03,3.610035479068756104e-01
-3.191192952709673847e-01,-2.686867313682298475e-01,-1.150505205806262587e-02,-3.981427427808936770e-03,-3.168120316610821725e-03,1.503578639420036570e-02,2.870750427246093750e-01
-1.380762024061617521e-01,-4.316638232977476619e-01,-4.817982878636689614e-03,-1.425936743123927888e-02,-4.123958091135634940e-02,3.607448255128699495e-03,3.857791423797607422e-01
-3.515541086802753679e-01,-3.990576229305913269e-01,-5.545540264379258955e-02,-1.044420310500947073e-02,-2.453297252843434847e-02,1.892414106755023126e-02,3.274201750755310059e-01
-2.963467356986597689e-01,-2.616136848535287052e-01,-3.989039408820282961e-03,-2.476825811112358909e-03,-1.142505895423722058e-02,1.671944402629151061e-02,2.788791060447692871e-01
-2.977591895714256642e-01,-3.002468120385583528e-01,-1.747318808563022574e-02,5.433932090876742588e-03,-9.291870413495014955e-03,-7.142393670389736264e-03,2.824257612228393555e-01
-1.196632557059487401e-01,-2.936838906841061636e-01,4.650616977529295482e-02,6.067460357582871860e-02,-2.222410275313031064e-02,1.665438003279719583e-03,3.151930272579193115e-01
-2.813762819388802572e-01,-2.256589791102280584e-01,-3.140318442012024480e-02,1.048419341560441302e-02,-2.487816653863165767e-03,-8.365384794453109866e-04,2.280648201704025269e-01
-3.154099369359545380e-01,-2.973476207394729065e-01,-1.345063334151591627e-02,-3.442593325407607954e-04,-6.151289246754414533e-03,1.237069345787488416e-03,2.935473620891571045e-01
-2.937670343610684354e-01,-2.778917805975886224e-01,-5.143843704442158105e-02,1.394929594083111485e-02,-4.329032551159611025e-03,-9.156581279031914336e-03,2.366846948862075806e-01
-2.865116910942091533e-01,-2.851482760467839994e-01,-8.625127238857610568e-03,1.084440157854543556e-03,-1.870675969113203127e-03,-4.951580952192571015e-03,2.773652970790863037e-01
-1.807486357354458062e-01,-2.628868495461191834e-01,6.166078910080219355e-02,1.256259682911197995e-01,1.794858064222637148e-02,-6.586268837713249620e-03,3.658720254898071289e-01
-3.157627231642698984e-01,-3.157330367940180404e-01,1.948685087476975664e-03,-8.675159600231289363e-04,-1.127469526311324684e-03,-6.776426541915610583e-04,3.177082836627960205e-01
-7.291825060858686536e-02,-3.761632723827522673e-01,2.760261806529304418e-02,4.059265311147027683e-02,1.648932456289045265e-02,9.548267448801819315e-04,3.718953728675842285e-01
-3.146821350325843536e-01,-3.141748925223445399e-01,-8.147514127036126208e-03,-2.301021640024614732e-04,7.196105465330972055e-03,-5.043869078669762848e-03,3.066595494747161865e-01
-2.984292743899593647e-01,-3.042151865880892703e-01,-1.874202456845919240e-02,2.097100076756233927e-03,-2.050465638996539289e-03,-9.769874241110149322e-05,2.826703190803527832e-01
-2.319071017567704285e-01,-2.990232924531810443e-01,-2.268732648805221741e-02,-4.543079663523114098e-02,1.491640773263359617e-03,4.947583207408081350e-04,2.617609798908233643e-01
-3.109969491959202470e-01,-3.109743796156475559e-01,4.868588738662082971e-04,-4.721843493483215733e-06,-7.883573079413209355e-04,-1.439816156380814777e-03,3.114854991436004639e-01
-2.328683715025690604e-01,-2.761650847769469563e-01,-1.536550283515097926e-02,-1.201229648228621834e-02,-2.587888105496274904e-03,1.005537134702260554e-02,2.436299920082092285e-01
-9.833634413733401136e-02,-2.195862730287110320e-01,2.067227034379429118e-02,-1.016738783804235768e-01,-7.389721779947793986e-03,2.879138536780706959e-03,2.729392051696777344e-01
-1.540154423864653066e-01,-1.906499225568520639e-01,1.088110042553734613e-02,-1.012425627039253706e-01,-1.033489955359158559e-02,1.075016001509474656e-02,2.568874359130859375e-01
-1.999268380441836246e-01,-3.072099260739503124e-01,-3.867293007585662079e-02,-2.445657646310836833e-02,-1.002150916429285672e-02,-1.077217890317272783e-04,2.385539710521697998e-01
-3.334959392074899887e-01,-2.334695675445791485e-01,-8.815019858458811308e-03,-1.236099122130644851e-01,2.228212550138929451e-02,-1.897385089386147486e-02,3.624280095100402832e-01
-3.309783695073557630e-01,-3.190611594778617888e-01,-2.881482601621035422e-02,-1.329672816487173720e-03,-6.321099341366049305e-03,-3.323838291492403098e-03,2.966516315937042236e-01
-1.228092507688314516e-01,-4.245730961496767542e-01,1.775943910590965791e-03,-3.506993502326798129e-02,2.663538351251511227e-02,-1.335333922515280491e-02,3.879834711551666260e-01
-1.342414828150456096e-01,-4.361012061892487468e-01,-1.564130194668150731e-02,-2.384069613861988790e-02,1.112161370888033012e-02,-9.433601377301249064e-03,3.785882890224456787e-01
-3.117450881919114347e-01,-2.601336307932530234e-01,-9.959736905361782355e-03,-2.529916226701926438e-03,-3.451838949640565878e-03,2.082669934360881908e-02,2.819907069206237793e-01
-3.044830965230892472e-01,-3.056180302529642456e-01,3.030246822493420922e-03,1.753620812769979417e-04,-3.430187208571846332e-03,-2.954009741697385429e-03,3.081822991371154785e-01
-8.971556015179008026e-02,-3.561258238210179838e-01,4.098961969473388645e-02,-5.891565321546769762e-02,-2.078888587231594517e-02,4.063896634837809926e-03,3.669314980506896973e-01
-2.147626887962501563e-01,-3.036545507486558271e-01,-2.100684414701375902e-02,-3.078601739545071270e-03,-1.375486667956001344e-02,4.801723766027456673e-03,2.516576945781707764e-01
-3.071547870149367587e-01,-3.101233726809672353e-01,1.360402053266179800e-03,3.729457332299353873e-04,-3.453575155526054669e-03,-2.483184142843268723e-03,3.100983500480651855e-01
-3.000871735222165881e-01,-3.034732010599828778e-01,-2.538929463243910778e-03,8.599206802785860871e-04,-3.366893895065975473e-03,-4.090885348622244622e-03,2.994000017642974854e-01
-1.426644783191638177e-01,-2.939351683381228320e-01,4.197484867309222989e-02,-1.324751692059891461e-01,2.165268206604933215e-02,-1.272365619987244657e-02,3.734249770641326904e-01
-3.088459616993877166e-01,-3.112869540940964019e-01,-4.180151783213820194e-03,1.366575909061481121e-03,-1.124738409528709465e-03,2.543533389799325253e-04,3.059092760086059570e-01
-2.889474687267200026e-01,-3.102612753741042506e-01,-2.159678404875037261e-02,-4.061605738070755284e-02,3.304455204895966058e-02,-2.672828312790334962e-02,2.966428101062774658e-01
-3.183995781559205707e-01,-2.477035695911341540e-01,5.263061015713943469e-03,-1.263650603719588539e-01,1.558936634291428237e-02,-7.372121564934235385e-03,3.683344721794128418e-01
-2.222936215619007172e-01,-3.764553406759161835e-01,-1.479345941524379260e-02,-1.201934552048469079e-01,3.417110831207977040e-02,-4.559599914130739971e-03,3.817269802093505859e-01
-3.321554598884352560e-01,-3.196356699771726873e-01,-1.504752719156929319e-02,-2.125490525242899366e-03,-5.903237110798993957e-05,9.787313293192739360e-04,3.110634982585906982e-01
-2.938078939368812814e-01,-2.230562880322984054e-01,-1.387481879047286482e-02,-2.441034649329509171e-02,-1.016067869510818740e-02,3.023265533934061874e-02,2.615376710891723633e-01
-1.660591943457913056e-01,-2.834209176449720147e-01,-7.478866106027270977e-03,-4.236843263267859455e-02,6.831162239317183082e-02,-1.578575330623407241e-02,2.786844372749328613e-01
-2.173250176857370597e-01,-3.019528996993513514e-01,-2.365948871571008083e-02,-1.729051092836983786e-02,9.929646708846101913e-03,-7.354643152048032269e-03,2.498252838850021362e-01
-3.309676462443723044e-01,-3.327786640348451286e-01,-8.863683448599490866e-02,4.688180228070168779e-03,-1.224064318303269344e-03,1.717086176712417965e-03,2.434042841196060181e-01
-2.994059353303748505e-01,-2.742544183022436743e-01,-2.845951804862856260e-02,-3.927076428715151751e-03,7.755487972168194181e-03,-1.374478127404506157e-03,2.597348988056182861e-01
-2.726746743349717228e-01,-2.937164295577850970e-01,-3.140224078531983487e-02,-4.306184998846850943e-03,-5.718321968562600083e-04,8.207325180258484912e-03,2.529636919498443604e-01
-3.736489750506276630e-01,-3.525611840633511296e-01,-1.675579236405885797e-02,-7.584882760506081109e-03,2.750051957277508449e-03,-1.564476089029345068e-02,3.481679260730743408e-01
-2.347055292984426833e-01,-2.822903534092794375e-01,-3.253939067205821600e-02,-6.134330141316188256e-03,-5.585113069989109183e-04,5.185853221395184121e-04,2.299350649118423462e-01
-3.260727545693749008e-01,-3.199748721853947209e-01,-1.832178619721297474e-02,3.680318444466993723e-03,-2.598902983139406847e-03,-1.006408917655047088e-03,3.048526644706726074e-01
-4.045190464205776770e-01,-1.722094699304585474e-01,1.980050727574428349e-03,-3.064062108614528171e-02,-5.164105292973715164e-03,2.474156196756211942e-02,3.598730266094207764e-01
-2.717819097085250046e-01,-3.677076130559512324e-01,-2.473094807833445263e-02,2.239621015309821352e-03,2.609873160261602307e-02,-4.208875490909660087e-03,3.099130094051361084e-01
-2.977641362087247723e-01,-2.162457969456485496e-01,-1.912384063441377458e-02,1.664772162588332681e-03,-2.839140601846182246e-03,-1.380649269016775288e-02,2.493505775928497314e-01
-3.864684594835181564e-01,-1.270926501548003684e-01,1.347875033443551862e-02,-2.367237682529209353e-02,3.674376660286954917e-03,2.641160541886034691e-02,3.568071126937866211e-01
-3.126214555265993678e-01,-1.971237604673810040e-01,-3.951388428234708927e-02,5.770861210800715818e-03,7.005754447049606206e-04,-7.365489879932110703e-04,2.376703172922134399e-01
-3.094125296419554250e-01,-1.937180295390921181e-01,-4.081748614621913407e-02,-1.503293538053357241e-03,1.008505482469791150e-03,3.245113050804579284e-03,2.334415763616561890e-01
-4.011330214368978853e-01,-2.955551224225163032e-01,-4.571522852440296214e-02,-1.124718526399014346e-01,-2.008263381556363997e-02,3.377477278848291242e-02,3.775263428688049316e-01
-3.230145231741556877e-01,-3.300928582499523811e-01,-5.026000781430303710e-02,-8.932351474472651539e-04,3.910093470002679039e-03,6.110025604745631007e-03,2.766514718532562256e-01
-2.727513138288433225e-01,-3.213026836779929729e-01,-2.255353978362453771e-02,1.717963545027718355e-03,-1.243125275013749233e-02,-5.579533391371622846e-03,2.786924242973327637e-01
-2.891592186358593608e-01,-2.278712294542956096e-01,-3.923204849162906238e-02,-1.497689254561241148e-02,-6.796827082886427833e-03,7.734324211659523779e-04,2.274105995893478394e-01
-3.513367606434674162e-01,-3.682766348726459471e-01,-1.055989132123900665e-01,9.799324908923422520e-03,-3.267948024352324097e-03,5.854736763200543703e-03,2.554599046707153320e-01
-2.964180714356645652e-01,-2.255998140098025018e-01,-1.337462881849763030e-02,-3.007768535000680983e-03,-2.211635269917772151e-03,1.873490633082562510e-03,2.552185654640197754e-01
-3.801111581374152504e-01,-3.947646157803362255e-01,-9.711283619448007887e-02,3.401012896394533386e-03,8.864285939991809610e-03,4.534055862033760723e-03,2.911731004714965820e-01
-2.387267809980357924e-01,-1.451986488845070922e-01,6.693026867090001719e-03,7.876837205338081682e-02,2.576591580049001490e-02,5.448842028944990423e-02,2.748394310474395752e-01
-4.180196543946284038e-01,-1.818978373614557886e-01,-9.544746437955914375e-03,5.367693104984409130e-02,1.314109667719992602e-02,2.498211924007542883e-02,3.703909516334533691e-01
-3.197291998431626148e-01,-3.212716391981146336e-01,-1.940240604130361035e-02,-1.388431936672931142e-03,3.635137461328508471e-03,4.347460720140542724e-03,3.012705147266387939e-01
-3.155710996217896414e-01,-2.274689825301921542e-01,-3.817498203285296654e-02,-1.056851527601153232e-03,-3.044550970993099327e-03,1.072391997902858926e-02,2.462672740221023560e-01
-2.076356700155947976e-01,-3.134820947320862694e-01,-2.608606347780129120e-02,5.056436652953505591e-03,1.628597468132398848e-02,4.548597230219566211e-03,2.536031901836395264e-01
-1.629593848229822506e-01,-3.937645805178361935e-01,-1.424710941424239818e-02,-4.145514759804079020e-04,3.172358162227796596e-02,1.721866456492988570e-02,3.370742797851562500e-01
-2.423425460942559284e-01,-2.922824326188593336e-01,-3.966458743681139376e-02,-2.345118859836849839e-02,2.196130447972386747e-03,-3.666347543109000403e-03,2.353693544864654541e-01
-1.361653998148386890e-01,-3.656334265791713611e-01,-4.395669571875571169e-02,8.976461276896529826e-03,1.945874471793506907e-02,1.806726737914879713e-02,2.909878194332122803e-01
-4.498618942573143764e-01,-1.935070998583159063e-01,-2.499599682516637222e-02,-1.412723601814465943e-03,-3.217575649196827235e-03,2.463247889839175614e-02,3.730545938014984131e-01
-3.075352589361667888e-01,-2.645254108013658234e-01,-5.451244330590965248e-03,-6.609266410481505483e-03,3.851233023762003563e-03,1.798329896856949803e-03,2.833676934242248535e-01
-3.186030901393305803e-01,-2.870374458665466699e-01,-1.502352682449797916e-02,-4.844252757533443372e-03,-1.085327149938210365e-03,1.912517919376482620e-02,2.911108136177062988e-01
-2.069434370117777533e-01,-3.369335724466073767e-01,1.128397758793772687e-02,-1.299267054243003483e-01,-1.135466568443725677e-02,-5.599707320294185914e-03,3.794887959957122803e-01
-2.732632948892498304e-01,-2.746952456041005242e-01,-3.854639295767822715e-02,-6.209792852914108700e-03,7.583483096402094661e-04,1.115777469097650786e-03,2.356932759284973145e-01
-1.836517929642545455e-01,-3.146578962239168220e-01,-3.944049873493749025e-02,-6.262589106805632744e-03,6.055200758466252643e-03,-3.590357531166451718e-03,2.389945238828659058e-01
-2.681381318816290493e-01,-2.687173318335919769e-01,-1.349825157569806144e-02,-6.180366138464808701e-03,-3.970034840375820037e-03,2.837541732461984576e-03,2.552945911884307861e-01
-2.944553389478362648e-01,-2.515577314575611068e-01,-4.193186944063437283e-02,-5.114547793424043150e-03,3.634411946580091372e-03,-1.209025646116255082e-04,2.342942655086517334e-01
-2.770684019084226901e-01,-2.868761875995716748e-01,-9.948228258202435059e-03,-2.480522816904711172e-03,4.638076165189698383e-03,-8.903432567122481975e-03,2.727453708648681641e-01
-2.736034644666006654e-01,-2.585413654025378039e-01,2.091028747137288479e-02,-1.267398147451650192e-01,-8.944624748271413558e-03,7.906537358192139084e-03,3.621404767036437988e-01
-3.258592930388743425e-01,-2.692179416335750974e-01,-1.800229968508337830e-02,-6.122801292450426487e-03,4.890778252239133365e-03,-1.522478706948047524e-02,2.853530049324035645e-01
-3.605874729405232904e-01,-2.318309288038991334e-01,-3.669511885787279937e-02,-1.227852243317594794e-01,-1.425285224157126114e-02,1.880730429656429434e-02,3.559219837188720703e-01
-3.168887683313947878e-01,-3.153285259131743956e-01,-1.010949605904731818e-02,-4.135725454454374232e-04,-3.373326516095363770e-04,3.635272561382341377e-03,3.060683012008666992e-01
-2.689135002858710211e-01,-2.771415426137893712e-01,-2.958782225156128542e-02,-2.940009367520470158e-03,4.337376147134314706e-03,-5.650089154792818820e-03,2.439094185829162598e-01
-4.020069470189581717e-01,-2.311344464386198561e-01,-5.012076942182697170e-04,-1.077732034653875459e-01,-3.415213094335072582e-03,-2.611657143480034578e-03,3.958517611026763916e-01
-2.308763040780983378e-01,-3.646676087211244144e-01,-4.679323142461233598e-02,2.732670398290533431e-02,3.109141491617362432e-02,5.776864259161447121e-03,2.857547700405120850e-01
-2.627062168467190206e-01,-4.394736128450006940e-01,-4.629888033389484292e-02,-1.081857222247521594e-01,4.006733540744794597e-02,-2.135471264121260523e-02,3.970255851745605469e-01
-9.646366654286489539e-02,-3.359679868528773206e-01,-3.219508133864790178e-03,-1.740367473985896321e-02,-3.011913509402735709e-02,4.083552416901134116e-03,3.034293055534362793e-01
-2.096422276820693875e-01,-3.304879669952162091e-01,-2.239383042555576075e-02,-7.991016293184392827e-02,-4.208605881341424826e-02,9.738367990795044477e-03,3.115268051624298096e-01
-1.684502530382302188e-01,-2.531203383034635324e-01,4.606482918839693852e-05,-4.425918908740555935e-02,-2.435767297053162764e-02,1.787577306602195978e-02,2.417473345994949341e-01
-1.042694968717066961e-01,-3.409858346532521622e-01,1.939467138899678145e-02,2.278021468360022506e-02,2.408989092277218080e-02,-3.226762974886163149e-02,3.271424174308776855e-01
-2.291946523495645982e-01,-3.024910327223473416e-01,-7.538560668531868458e-03,-6.180056395891079211e-03,-2.552086662703011502e-02,1.142350811738155518e-03,2.698570191860198975e-01
-1.639099471465844116e-01,-4.226488838278329441e-01,-4.085198126615430247e-02,4.365568933549746761e-02,-7.176571114160323200e-03,-1.711662158617006241e-02,3.473901152610778809e-01
-2.005444697034041712e-01,-3.087340236079277322e-01,-1.701767234688644770e-02,-9.522304638703450730e-02,2.264891205879539932e-02,-3.902890390447037727e-02,3.139326572418212891e-01
-3.393555663061620375e-01,-3.907906290382351377e-01,-4.520269973575605227e-02,-4.116861464813385135e-03,2.970590285765491861e-02,-8.631347397518945863e-03,3.274491131305694580e-01
-2.074818389944924069e-01,-2.965600863505970519e-01,-1.072613533360053384e-02,-1.537730768906547113e-02,-1.787567610244787664e-02,4.807651567099120726e-03,2.567328214645385742e-01
-3.156541537417318910e-01,-3.148922721386018808e-01,2.385104101121721110e-03,-1.241321089780754536e-03,8.054944381731719231e-04,5.076756110495737537e-04,3.176705539226531982e-01
-3.254873766850800987e-01,-3.251833784113878911e-01,-1.865757006848442479e-02,-5.993296296706716875e-03,6.284981330474086062e-04,-1.557778683236002611e-03,3.068673610687255859e-01
-5.349248892818544987e-02,-2.670724843708230933e-01,3.179910466326921203e-02,-2.710513722774325965e-02,-2.950924407083755502e-02,5.370700147031039207e-03,2.757002711296081543e-01
-2.616196736101726872e-01,-3.183224425678728986e-01,-2.770299398593464857e-02,-5.283979990080310551e-03,-4.942850892007152972e-04,4.678736308335694830e-03,2.671069204807281494e-01
-2.314846255815020681e-01,-2.835837959290246069e-01,-3.468106933077455545e-02,2.561970868799557863e-02,1.152923556698846452e-03,2.315220539459644702e-03,2.317076623439788818e-01
-4.970939793266090923e-01,-5.015975182384726505e-01,-1.407336670391289291e-01,7.459511256102707710e-02,7.932359099497150734e-02,7.117374162160150508e-02,4.235385954380035400e-01
-2.250166626104235512e-01,-2.983486815562197414e-01,-1.912636263471387266e-02,-2.572178345277425712e-02,-8.364265548503609787e-03,9.097249356780258076e-03,2.555577158927917480e-01
-3.120653999210344365e-01,-3.126522041238367633e-01,-4.930956151332543946e-03,-3.042026247068878352e-04,-2.782808784531793376e-04,-6.118531135409392219e-04,3.074309229850769043e-01
-2.923537133063319193e-01,-2.894098179938565663e-01,-4.044879517936622593e-02,-3.283500495533712288e-02,1.614871147068745044e-02,-1.379695275330723378e-02,2.594436407089233398e-01
-3.144976253487591356e-01,-3.206696466596970496e-01,-1.520294915427938820e-02,-4.129286307258516614e-03,3.961578503679608434e-04,-1.608596139539415727e-03,3.025260865688323975e-01
-3.386668538804921691e-01,-3.418720211265566244e-01,-2.662388973686197202e-02,4.533054458506206755e-04,-1.225491401765642883e-02,1.107255660995024385e-02,3.149606287479400635e-01
-3.194145807995844022e-01,-3.217394064903371098e-01,-1.777893463403457108e-03,-1.506537920044324864e-03,-8.438093390671336886e-04,-1.720679540592237177e-04,3.188196122646331787e-01
-6.134906010858468539e-01,-6.008662061288423395e-01,-2.147169148226599766e-01,4.176321189773529730e-02,4.401449257484228716e-02,1.003736379003498241e-01,4.420571029186248779e-01
-3.861605438000339507e-01,-5.014171463691239339e-01,-1.168517753537397785e-01,2.297265248311343433e-02,5.607996067265256374e-02,-3.025350067388943298e-02,3.614067733287811279e-01
-2.493098393374011124e-01,-2.955559917097800859e-01,-3.283218666670004171e-02,-1.007308308352237135e-02,-9.788667612774876875e-03,8.611563054616728705e-03,2.445953190326690674e-01
-3.050088689298183775e-01,-3.226810961428570601e-01,-6.473285241850840199e-03,-2.124883426537976534e-03,-9.218258756462925294e-03,2.583547633737001085e-03,3.082208335399627686e-01
-3.247776141874424982e-01,-3.146077366646136686e-01,-8.315922625709792904e-03,-1.183116192632492321e-03,1.277917983986272613e-03,-1.356343522686730358e-04,3.115159869194030762e-01
-3.663077125160654202e-01,-4.193838605932660446e-01,-9.687121327523465220e-02,-1.309312215724603157e-01,3.253252595692050081e-02,-3.789424375152460056e-02,3.855200707912445068e-01
-3.386618134217739273e-01,-4.692480331119536219e-01,-9.974870245875189223e-02,-1.206062067157645384e-01,1.092643541227298620e-01,-7.005551936104674471e-02,4.466631710529327393e-01
-3.269101343593011633e-01,-3.144483640330232865e-01,-4.939971081309529888e-03,5.003485650707688911e-04,-3.385673993128115078e-04,1.837504118903030275e-04,3.159255683422088623e-01
-2.634407331024581911e-01,-2.775813403988401373e-01,-3.958962635800403196e-02,-1.548944440351585289e-03,-1.538595822755219121e-04,-1.031138352418885517e-04,2.312616854906082153e-01
-2.959179440597766164e-01,-3.427929439489743602e-01,-6.870798274693123986e-02,-1.473463729991431603e-01,7.969561280145968929e-02,-5.911072014870184105e-02,3.989252746105194092e-01
-2.956623212228884356e-01,-2.965334790032514989e-01,-1.293384037807243647e-02,3.793282662106402942e-04,9.544673387770722262e-04,-5.575316079135969778e-03,2.833352684974670410e-01
-3.258551716361167694e-01,-3.239177101474436382e-01,-1.834589023742527747e-02,5.012473103244521368e-03,-1.495142954076488905e-03,2.054934747101149622e-03,3.066996335983276367e-01
-5.123210501933551653e-01,-6.622112175722887351e-01,-1.839875949171439484e-01,-3.480697381330696838e-02,1.227223222568373101e-01,-1.081460739002867814e-02,4.781753122806549072e-01
-3.140651247440742200e-01,-3.155755873870149109e-01,-5.206290238315619545e-03,9.107866411009745171e-04,-6.989190923074682822e-03,-9.821810002146266500e-04,3.098620772361755371e-01
-3.265482152110487646e-01,-3.148060007077593259e-01,-3.782718596487294471e-03,7.840522391862089595e-04,4.308242914752893871e-04,1.133019776093095255e-03,3.170673549175262451e-01
-4.570864319127628805e-01,-6.301546014997849721e-01,-1.723184819247147725e-01,-2.842865314083275335e-02,1.027099273371451515e-01,-2.030761387263415804e-02,4.423114359378814697e-01
-1.813732895827763758e-01,-3.067934282847209482e-01,-7.612212609396595830e-03,-1.625543788204876841e-02,7.717272562444303652e-02,2.689364193250989941e-03,2.939346432685852051e-01
-3.317347197826216454e-01,-3.195657552781454580e-01,-9.553370484397888385e-03,-6.633185126344922364e-04,-2.615784610514202465e-03,-1.122507794008039376e-04,3.163070976734161377e-01
-6.397638498920407146e-01,-6.772863954262374753e-01,-2.103977149977389050e-01,-3.365767595223721070e-02,6.704602685845245658e-02,-2.232737374057305879e-02,4.693119227886199951e-01
-3.248156152137556818e-01,-3.355347304601540293e-01,-2.199804315667661103e-02,-3.774625484404217895e-03,1.549075081265435111e-02,-8.045144504045618344e-03,3.098646998405456543e-01
-4.077651750254460139e-01,-5.452030045526449209e-01,-1.399396651483433007e-01,-6.403668955578632749e-02,8.503352621415111168e-02,-3.142710561596922386e-02,4.054456949234008789e-01
-3.225941565471833750e-01,-3.177870700679492066e-01,-1.596610800946618447e-02,-6.670499187686809543e-03,3.125370557055204192e-03,-1.986713354461308589e-03,3.045398294925689697e-01
-5.414637219639470977e-01,-6.037334039923760720e-01,-1.862050297179074776e-01,3.336538615041569067e-02,1.122522384196739803e-01,3.867359343672550909e-02,4.447881281375885010e-01
-3.377023418435614044e-01,-3.259324906240500530e-01,-2.865701025755465481e-02,-1.609876125421756416e-03,-6.098001188479514577e-03,-3.248972496455444065e-04,3.035288751125335693e-01
-2.969019711612952972e-01,-2.985992659497351820e-01,-1.384281734869868830e-02,1.526982269999923106e-04,1.344476058555170959e-03,-4.864672298234072427e-03,2.840462923049926758e-01
-3.038364657110910194e-01,-3.078080980101774999e-01,-6.616821353433388619e-03,-4.781614160603241646e-03,1.379514851217190398e-02,-1.372404393053484536e-02,3.012312948703765869e-01
-1.098497405486985046e-01,-2.855407487549155299e-01,4.429791555346507259e-03,-5.012674812390438550e-02,4.995473063679596593e-03,-2.001463592403055630e-03,2.676377892494201660e-01
-2.850646560707001953e-01,-2.887862535507179640e-01,-7.427930512656638617e-03,-1.284105671117365685e-03,4.807227878342514027e-03,-1.662834838682461123e-03,2.796637713909149170e-01
-3.830584740366748120e-01,-3.526186486065779890e-01,-4.947090043015317518e-02,2.751055196800883743e-02,3.512379434743134222e-03,2.551232497818820694e-02,3.260568082332611084e-01
-3.238054133397318401e-01,-3.263606125003170044e-01,-1.808473523798312388e-02,-1.891539073328251264e-03,1.365527718748875928e-02,-7.794583039478624256e-03,3.082292079925537109e-01
-2.228831811129953488e-01,-2.779578212103510637e-01,-2.620560421742482160e-02,-1.409247839518243048e-02,8.205863051230157142e-04,-3.816270064811460097e-03,2.306268364191055298e-01
-1.938046785405170280e-01,-4.795648326696133612e-01,-3.348092368157906673e-02,-1.587765534923610972e-02,4.555493592985734863e-02,3.234327623045175405e-04,4.001988172531127930e-01
-1.936054847661859701e-01,-3.920827319996051941e-01,-2.810931751067158313e-02,-8.036521516611783156e-02,5.748823033929692516e-02,-2.586497681745737742e-02,3.618381023406982422e-01
-2.268773422322959976e-01,-3.227112076975544586e-01,-4.113631768469794281e-03,-2.096752482545638334e-03,4.247690710824221505e-02,-1.862186530825268990e-03,2.925620675086975098e-01
-3.242375564529258458e-01,-3.195581201454076314e-01,-3.363467534317154950e-02,-4.724321311672008590e-03,3.259799576801090254e-03,1.830560154173980179e-03,2.884804308414459229e-01
-2.157453422723917269e-01,-2.937025390844428818e-01,-7.066208271456764223e-03,-1.927662119598360854e-03,3.804660185445520731e-02,-5.412107100300800853e-03,2.652055621147155762e-01
-3.301393402550694689e-01,-3.214913900407763703e-01,-1.454617297800048226e-02,-5.197505260200425276e-03,-7.678799615052799747e-04,5.561577042807150676e-04,3.114937245845794678e-01
-3.952640435279729525e-01,-4.024042571505606070e-01,-7.818942227399300338e-02,-4.767254324351532027e-03,-8.627392981798029381e-03,3.740025930971467138e-03,3.212237954139709473e-01
-3.040339331958374913e-01,-1.928001146458002690e-01,-3.458519170676782606e-02,-2.536342823651692880e-03,3.300966712903658428e-04,-7.620838883782490338e-03,2.349417656660079956e-01
-4.062155078582421197e-01,-1.838853709837430239e-01,-1.592801241503127851e-02,-5.443557922432047669e-02,-1.562909159653692523e-02,1.628596521179085516e-02,3.541193902492523193e-01
-3.078850762137017583e-01,-1.996391334467690903e-01,-2.923400378159765611e-02,2.195031322885474933e-03,7.686063842903265771e-04,1.927426533686484207e-03,2.433682978153228760e-01
-3.019212141391062199e-01,-2.812874362801505157e-01,-6.970088548342273649e-03,-4.015706883759755986e-04,-3.552838359953848415e-03,2.412601771074677473e-05,2.852618396282196045e-01
-3.668388470520093092e-01,-3.660999076524850127e-01,-1.178415494699522059e-01,3.511253528454951010e-03,1.095248152994892851e-02,-2.099447018541309232e-02,2.520622313022613525e-01
-3.120390704842617158e-01,-3.136822785118165147e-01,2.901359234775691132e-04,-3.569820383499926067e-04,2.665377717991863470e-03,1.783026245271521247e-03,3.132039010524749756e-01
-3.037273197973417993e-01,-3.018448431783927188e-01,-1.374764698896163706e-03,-5.844218473598476607e-04,-1.389162124820203211e-03,-2.501807190802323583e-03,3.014581799507141113e-01
-3.153221651148858662e-01,-3.165797814279783795e-01,6.865952155409305036e-04,-3.706581283211767106e-04,-6.441688445301430596e-04,3.731326660588814206e-04,3.166427314281463623e-01
-3.159289488596023210e-01,-3.169812655412639901e-01,-5.456717784272452354e-03,-1.164135371989258143e-03,-5.045074090350686220e-03,-1.561053389153616196e-04,3.111291229724884033e-01
-2.071114588767426490e-01,-3.385992505408800257e-01,-4.566691759569851961e-02,1.816219752992207989e-02,2.976395370582926234e-02,7.724758760816922455e-03,2.615485787391662598e-01
-3.375353360494026678e-01,-3.228708372396640880e-01,-2.908920162106035101e-02,1.288931708455634865e-04,1.773464079395620056e-03,-4.263946948376659551e-03,3.014877736568450928e-01
-3.238994521285098460e-01,-3.266236330903138363e-01,-1.621411955163981622e-02,4.053812066191279408e-03,-1.384590379068698085e-03,1.306417827054409371e-03,3.091537654399871826e-01
-3.148544506416819377e-01,-3.150291659276816536e-01,2.494371340521328584e-03,4.367178659771584577e-04,-3.253742004214451385e-04,3.567043042173428913e-04,3.174382150173187256e-01
-2.422591414048451131e-01,-3.204454505119687102e-01,-4.496468609752923840e-02,2.269171610032149136e-02,-4.860624831604275914e-03,-2.886831640657342574e-03,2.492078393697738647e-01
-3.209359621924179895e-01,-3.258210450450617079e-01,-7.029806372951308280e-03,3.986493010698929180e-04,-5.929631553362380752e-04,4.032357221589168324e-03,3.164564967155456543e-01
-3.082222435759697232e-01,-3.110434672148046364e-01,-2.624304457772119736e-03,1.820313280777281252e-03,-2.632115797853055734e-03,8.485192028253636535e-04,3.070718348026275635e-01
-2.231413540471335888e-01,-2.981064080593104348e-01,-3.306883200637214526e-02,7.615476874373260791e-03,-1.985186066307554828e-03,-4.109342373253119587e-03,2.371341139078140259e-01
-2.177901427851268723e-01,-2.748532948204989168e-01,-2.647602931896259060e-02,1.540037919539842190e-02,-1.171147127969500001e-03,-2.470047632675540384e-03,2.269542068243026733e-01
-2.989495372618776181e-01,-3.057275994126764096e-01,-1.261784302691415505e-02,1.277806456386409821e-02,-1.352273655786886616e-02,-1.608406886401977931e-02,2.928943037986755371e-01
-1.649469529046372340e-01,-2.911649623743617354e-01,-1.037302361728026368e-02,5.329107430548313956e-02,-6.256782653781704784e-02,-2.090327010344919523e-02,2.844449877738952637e-01
-1.561257443379201471e-01,-2.815037661052039453e-01,-1.150761590422355596e-02,7.203011752391716427e-02,-2.838372426126297907e-02,-1.469276942748741314e-02,2.709161043167114258e-01
-3.147021020497062782e-01,-3.162617965798176778e-01,-6.303813844223321583e-03,4.756420322411659247e-04,5.238059396167924625e-03,-5.630145857251443904e-03,3.094689548015594482e-01
-3.643807624449051374e-01,-3.393271793358912380e-01,-9.054103097718785298e-02,1.231106305625553378e-02,-8.403779164644169936e-03,-1.136786531903742105e-02,2.642147839069366455e-01
-4.002728002416935382e-01,-3.962024250133750480e-01,-9.064926097661105131e-02,1.312214367878697038e-03,4.780963301597982752e-03,5.262787670303250946e-03,3.078633546829223633e-01
-3.478889935071525219e-01,-3.508503026554588566e-01,-1.329198924058750120e-01,4.336986899117444266e-04,3.079497845469131388e-03,-1.191375006399447538e-02,2.175129950046539307e-01
-2.978549896390455531e-01,-3.191975718421660169e-01,-6.576398868761534899e-02,4.972561392323496081e-03,-1.084848963059913303e-03,-2.345962847238299964e-03,2.436583340167999268e-01
-3.356055553214801201e-01,-3.363586928823023570e-01,-5.984249679117867315e-02,-3.234532339806108197e-03,6.036372700937368829e-03,7.974037517564838001e-03,2.767398953437805176e-01
-3.397464189054288375e-01,-3.264221013851277275e-01,-6.842930291646961982e-02,7.879115514636916319e-04,8.431085285297835324e-03,1.003565691950523671e-03,2.653177976608276367e-01
-3.309126305426820513e-01,-3.316134207323986338e-01,-8.227335498885560150e-02,-1.306693235909509206e-03,6.188496745871984762e-03,6.138952995592808319e-03,2.494580149650573730e-01
-2.770925556402587531e-01,-2.513648972405957416e-01,-2.151043736706473308e-02,7.268008885237140816e-03,9.781193116004300442e-03,6.423587659772704052e-03,2.449038177728652954e-01
-3.214408996664753770e-01,-3.194498454639774776e-01,-3.819550804252558329e-03,3.671901415883389776e-03,1.377469621625417463e-03,-2.172163324942747581e-03,3.167257308959960938e-01
-1.460508051903209592e-01,-2.967302708004864176e-01,-7.279215148279977177e-03,-2.593911167437359597e-02,-4.178673805099329154e-03,2.589660762985252808e-03,2.548781931400299072e-01
-1.649560603810594495e-01,-3.108100715400631819e-01,-1.930249298352632037e-02,-1.908141071942141137e-02,-3.933013889499471782e-02,5.758737874853186740e-04,2.635647654533386230e-01
-3.280158644600732198e-02,-2.194309450214557700e-01,8.636496690746198190e-02,-7.047498633071776208e-02,-7.989121776790805360e-03,2.220797013120948821e-02,2.963821887969970703e-01
-3.122989139317189911e-01,-3.136313997835785128e-01,2.733478655842502825e-03,6.942303368737607651e-04,1.651132847612899769e-04,2.633569790112621047e-04,3.157034814357757568e-01
-3.155602038248711549e-01,-3.114420469022488591e-01,-1.982558559600638981e-03,1.362039498904696637e-04,-2.820498944575037820e-03,-4.262264821012949449e-03,3.116648197174072266e-01
-3.163643403247050623e-01,-3.155689814476705379e-01,-5.317017415511965384e-03,5.708533642482322345e-04,5.384749572770072996e-03,-7.829428406556017839e-04,3.107949197292327881e-01
-1.151103887302487583e-02,-2.614233143634880907e-01,3.968533447106424583e-02,9.835491260992011882e-04,3.289416315601124963e-03,2.511357227907548822e-03,2.791524529457092285e-01
-1.966133512759211388e-01,-2.947156423468082487e-01,1.310309501011197586e-02,5.072480962063413007e-02,3.573152265297950547e-02,3.417736442816946690e-02,2.987176477909088135e-01
-3.522348028552370058e-01,-3.410600725167137748e-01,-4.576494517967460984e-02,-2.338734994755474906e-03,-4.241669250903940848e-03,2.951069804066377891e-03,3.011983335018157959e-01
-3.345075987942291995e-01,-3.239899650621308469e-01,-2.815358484917146464e-02,6.164855311138368876e-04,4.003556257850246491e-03,1.877609131918271798e-03,3.013321757316589355e-01
-3.224110265345413451e-01,-3.284132367010753062e-01,-1.192101463726993882e-02,-9.180709517916794309e-04,3.690000504247568751e-03,-5.337653352271788491e-03,3.137396275997161865e-01
-3.301835887050552643e-01,-3.193067527798678640e-01,-1.090291883499039383e-02,3.561483612307563863e-03,2.847747742061611242e-03,-2.991169253341123373e-03,3.141256272792816162e-01
-4.075235594724830879e-01,-4.274531869872899570e-01,-1.217069271970196431e-01,-5.022741159550306832e-03,-5.411453912560152540e-02,-5.052398778169479160e-02,3.229603767395019531e-01
-2.171820784705355833e-01,-2.948715919586227807e-01,-1.695691708528698771e-02,1.448478091084043524e-02,1.067964779481789250e-02,1.530813353049270329e-04,2.503054738044738770e-01
-3.205107539480502865e-01,-3.176976394350560229e-01,-6.245805915780694439e-03,1.423197574004759049e-04,4.811638637362041426e-04,-2.803745384943334869e-03,3.129067718982696533e-01
-3.125477597392458673e-01,-3.119571379018969970e-01,2.891736613929191124e-03,-4.606909006815035367e-04,1.941718950756618717e-04,1.049098277110680150e-04,3.151458501815795898e-01
-3.426995682041459879e-01,-3.377429267144262393e-01,-4.178428926950009115e-02,-2.067549402593558819e-04,-1.340195921003625116e-03,2.384509920595703335e-03,2.985056340694427490e-01
-2.566949191307481004e-01,-2.814203836304777218e-01,-4.230522848760162602e-02,-1.107061414973512826e-02,-2.356838003810463652e-03,-2.434889250370159477e-03,2.286422997713088989e-01
-2.472835808505879640e-01,-2.665479901200710211e-01,-2.966057309850766988e-02,-8.161827304901126887e-03,-1.486011461647071454e-03,4.616345654209599685e-03,2.284593433141708374e-01
-3.112738114107860832e-01,-3.127756275327805424e-01,3.551536711040692573e-03,-6.845569788362838469e-04,2.465432320469957144e-04,3.537007102327475918e-04,3.155820369720458984e-01
-2.262739696132983758e-01,-2.322351935263741174e-01,-2.414232504593100126e-02,-4.945631983898156336e-02,3.787737859918799150e-03,2.014954136736072775e-03,2.224650382995605469e-01
-1.825407542447148035e-01,-2.825914816763442916e-01,-8.998175755202675319e-03,1.801585214617192066e-02,2.625189373789800149e-02,1.158321652178592211e-02,2.468480169773101807e-01
-2.886976451780457475e-01,-2.864714345113713589e-01,-1.461046157596640471e-02,1.945758485784136044e-02,-2.767338734561931857e-02,-2.777578955211319409e-02,2.833130657672882080e-01
-3.061119633246727756e-01,-3.043155164239730870e-01,-1.032587947368562853e-02,1.153555635730168063e-03,-4.038347988849097514e-03,-1.837797413906454421e-03,2.949988543987274170e-01
-2.876258161712709205e-01,-2.774014983323471739e-01,-1.029099433572477906e-02,-4.416278937641203439e-03,-1.131047518949613272e-02,6.058101861206906767e-03,2.733788192272186279e-01
-2.621822447944870405e-01,-2.849019281004046000e-01,-4.266518875843036684e-02,-1.431976005153370868e-02,2.212704888813859768e-04,1.477362363133269407e-03,2.330518066883087158e-01
-3.193967078094809287e-01,-3.247868875222826857e-01,-4.937872898181927539e-03,2.571605687695887894e-03,1.336628054685554774e-03,-6.444356463473778062e-04,3.172299563884735107e-01
-3.134255958379714158e-01,-3.129212416540319008e-01,1.734080792237913116e-03,5.739634726258857275e-04,-2.187101752548492595e-04,1.690134002169894889e-04,3.149097263813018799e-01
-3.013410046838675971e-01,-2.947913770698309399e-01,-1.316584694850519988e-02,-1.768263828747134456e-03,-7.548885267979405997e-03,9.361325890073504902e-04,2.852776646614074707e-01
-3.180782397747086154e-01,-3.214831891751530057e-01,-1.861467135357647296e-03,1.639421320300130016e-03,1.016496427476749074e-03,6.014742148293894747e-04,3.179521858692169189e-01
-3.102987017205424691e-01,-3.054317331966966975e-01,-1.958185500918266375e-02,2.241720762410795084e-03,-1.099566624943869135e-02,-7.161163085045347404e-03,2.892346680164337158e-01
-2.113194865888981810e-01,-2.691150818117061250e-01,-2.633408683160010089e-02,-2.543543435405351896e-02,-7.771380353018255728e-03,7.361727267644039945e-03,2.248019576072692871e-01
-1.924233991507405261e-01,-3.281955557422105985e-01,-2.984881946018996812e-02,-3.766237928054882306e-02,-1.972799602261292307e-02,1.514949643586572639e-05,2.689993083477020264e-01
-2.898428283177466591e-01,-3.147306930910508949e-01,-9.927475352185965995e-03,-1.402990516974733865e-03,-1.606828359881884959e-03,-1.446268995126947544e-03,2.931866943836212158e-01
-1.582837910602863940e-01,-1.817233138228849243e-01,6.101947883644126547e-03,1.042501589655509542e-01,-4.643034746491039866e-02,-1.977850725612793556e-02,2.677132785320281982e-01
-9.592572322600245727e-02,-3.244456422595714540e-01,4.318810172459247587e-03,2.794286413133556177e-02,-4.003330181416202282e-02,-1.294728161817050582e-02,3.046826124191284180e-01
-2.551110502081649356e-01,-3.287575742825238345e-01,-2.348246113820270931e-02,-1.312556321278522675e-02,-3.068287428169629363e-02,1.652039064493047299e-02,2.833622694015502930e-01
-3.114505923796280218e-01,-3.107275691848435661e-01,-2.596486445628903850e-03,-2.297833823006287409e-04,1.130560257503930116e-04,3.241314496712391184e-03,3.085446357727050781e-01
-2.568118778771389388e-01,-2.629740953845298157e-01,-3.160837882531836174e-02,6.359259957922890234e-03,1.688865592656517943e-03,8.195690041281471780e-04,2.286355942487716675e-01
-2.894257408300532908e-01,-3.423706060961314579e-01,-1.100813676005713004e-02,-1.787513590884896170e-02,-3.425433525708315718e-02,1.103128146032930634e-02,3.160759508609771729e-01
-1.491111496695728678e-01,-2.910127902500393993e-01,-3.543215682882128181e-04,-1.414457680013826366e-02,-6.569666558410253154e-02,7.719695912328537529e-04,2.773511409759521484e-01
-3.141771716269297077e-01,-3.635088197594170678e-01,-6.920604392089652057e-02,-3.376191405948370666e-02,-4.344288915630652864e-02,1.722739433474001006e-02,2.906907200813293457e-01
-1.172980191793198956e-01,-3.217440883394013240e-01,-1.461067657972822675e-02,-3.534093357245517326e-03,-2.435209294541167135e-02,7.082527829549597987e-04,2.741440534591674805e-01
-1.297950785166397669e-01,-2.819415943363046129e-01,2.170291657984241285e-03,4.365373173243347268e-03,5.345803709725230335e-02,-4.955159233037787631e-03,2.633355557918548584e-01
-3.257084516216134373e-01,-4.044018426971025537e-01,-4.550857388432613670e-02,7.047732289082119482e-04,3.303675752359119117e-02,-3.617405372208600065e-03,3.317672908306121826e-01
-3.124059924351572093e-01,-3.141589357560754525e-01,3.311524939410781521e-03,7.452571303511522187e-04,8.593904153299661893e-04,-2.092054373346393552e-04,3.166039586067199707e-01
-3.110315593928638656e-01,-3.115239796924942350e-01,5.465190386420848423e-04,-2.647732870497480060e-04,2.032045970215162235e-03,-8.899697894510013186e-04,3.118485808372497559e-01
-2.036993497905578154e-01,-3.013299216798853708e-01,-2.222894437121741840e-02,6.105415594530041676e-05,1.992606249098843874e-02,3.268242816533920101e-03,2.477972805500030518e-01
-2.585838418706489228e-01,-3.029052426254629782e-01,-1.776427820496195853e-03,-3.033243563142747849e-03,1.919708172615290295e-02,2.895980827774597820e-03,2.836456298828125000e-01
-3.199697409673685211e-01,-3.238868730988916367e-01,-1.943165454510781265e-02,3.884794831501654430e-03,-9.956906307656678088e-04,3.838535420777261682e-03,3.026684522628784180e-01
-3.212353339586638268e-01,-3.295464577139954887e-01,-3.668643285789352504e-02,4.478707688891593250e-03,-3.807544910257641235e-04,1.422716589886510600e-03,2.889096140861511230e-01
-2.711536023108174209e-01,-3.025841199196430686e-01,-7.997204526583728823e-03,2.203993320665173679e-03,8.458095182401084364e-03,7.943363138233343335e-03,2.809426784515380859e-01
-2.207829390912657008e-01,-2.996300869872488559e-01,4.821636905994713951e-03,-3.889569816235918104e-03,4.256259855441885814e-02,2.015895771807554848e-04,2.835186123847961426e-01
-3.137180014244939086e-01,-3.105842633637825867e-01,1.618310361106711781e-03,-1.658828535316319913e-03,1.011907549314095553e-03,2.090480935775789351e-03,3.138201236724853516e-01
-3.166261925465824190e-01,-3.222674967495893217e-01,-1.200602410221740524e-03,-9.071251937893733824e-04,1.778585330784550203e-03,1.288483492637132303e-04,3.183026015758514404e-01
-4.233144712671988441e-01,-1.803882908387880180e-01,2.385637009154756294e-03,5.499284031548826862e-02,6.086140167774421392e-03,2.083866182740475720e-02,3.838053047657012939e-01
-3.251456680324882886e-01,-3.244902168212883686e-01,-1.291209020424391452e-02,5.323158292473843464e-03,-1.581660216503507754e-03,2.208019758354687074e-03,3.120780587196350098e-01
-3.180989268630847189e-01,-2.900789225575131636e-01,-3.663742054603108533e-02,-1.825418462539408690e-02,-8.300444561830773449e-03,9.127920040106381194e-03,2.712479233741760254e-01
-3.133703921648313684e-01,-2.527468146738164334e-01,-3.876097385014262708e-02,2.384404071325666244e-02,1.151621253119446998e-02,1.378944619946996346e-02,2.551698982715606689e-01
-2.685139477446299994e-01,-1.158963677470817022e-01,1.654613027311827023e-02,4.080610045888149323e-02,9.290399452018569676e-03,4.418936311690282309e-02,2.686236202716827393e-01
-2.950172915405014362e-01,-1.865956635410852549e-01,-2.334597420577655402e-02,1.907823989382668659e-02,3.600024201515184159e-03,1.543070863756748450e-02,2.407294064760208130e-01
-3.288249624732360044e-01,-2.299108465664528866e-01,-3.610613231013207192e-02,7.441113624672376393e-03,-4.429415842405600920e-04,1.787275287237478569e-02,2.600755691528320312e-01
-2.452208661891246699e-01,-3.947681418149847493e-02,3.784863668203969356e-02,2.473921589085760226e-03,1.585387597302233449e-03,1.087307158068032999e-02,2.541646361351013184e-01
-2.074758764368954678e-01,-2.814091434888514875e-01,-1.457162893734920139e-02,-1.268047039358632076e-02,-1.494950560883634948e-02,8.507194895391567355e-03,2.414750158786773682e-01
-3.183246367299377155e-01,-3.244990634409932184e-01,-6.877621387601562386e-03,-3.728890929560853751e-04,-1.666842298196869680e-04,3.128212913929603878e-03,3.146271407604217529e-01
-2.371629352781505773e-01,-2.635977584264468376e-01,-2.776563430929981924e-02,2.172959783991528296e-02,-2.051287297335308707e-02,-1.672153460981800135e-02,2.315147966146469116e-01
-3.341122571846181777e-01,-2.201086612792308439e-01,-5.501380200391128850e-02,-9.281223705720986761e-03,6.975669780292663479e-04,1.372380405750893472e-03,2.435981780290603638e-01
-2.478053808093629573e-01,-1.351134974286562207e-01,-8.863818425645333954e-03,1.161839549525120613e-01,-6.660427729337427272e-03,-2.108652567522845481e-02,2.912540137767791748e-01
-3.442803204940039774e-01,-1.867361947688565560e-01,-2.482802881115411808e-02,4.754744864861922687e-02,6.237749860829281887e-03,-2.981899244174975039e-03,2.889078855514526367e-01
-3.171024243053136571e-01,-2.816822710558441467e-01,-2.023771459769099779e-02,1.492564477700962788e-01,-1.799363899623295307e-02,-1.709374493995319960e-02,3.841205835342407227e-01
-3.089454960462132416e-01,-3.124573595698877382e-01,-2.459678560770173217e-03,3.296676867879326902e-04,-4.288779000869207209e-04,5.260727513156777252e-03,3.083928227424621582e-01
-2.836406153248741124e-01,-2.809946593918425384e-01,-2.544625342535888901e-02,-1.482124865814473096e-03,-4.630587302905788370e-03,1.607585354271201051e-03,2.570346891880035400e-01
-2.832081560310906188e-01,-3.168179907659854910e-01,-1.006969205547086910e-02,-2.891042033842846411e-03,1.518535519360227071e-02,3.771699290784755101e-03,2.927010655403137207e-01
-2.968911672740114360e-01,-8.634349581200367885e-02,1.728201160294101646e-02,9.737679438934975992e-04,-2.087927125333812178e-03,-1.946779695865450896e-02,2.793556749820709229e-01
-2.928547090794209051e-01,-1.501974733645495552e-01,-2.018673051250641226e-02,-7.933881209714331237e-03,-1.000451854744274782e-03,-5.912314548413157012e-03,2.368492335081100464e-01
-2.236360256956611281e-01,-3.070476189328134042e-01,-5.065882520716602500e-03,3.522733162227388581e-02,2.639591458265360541e-02,2.155229937064591372e-02,2.831400930881500244e-01
-3.164272808349641863e-01,-1.861258807276670035e-01,-2.317721535848590864e-02,3.238911244975854840e-03,-8.574110819357707788e-03,-3.349826368334647697e-02,2.614987194538116455e-01
-3.460640790537938272e-01,-2.538959465523191739e-01,-2.849342153760295315e-02,-3.110476876072478664e-02,1.789692301301943483e-02,-3.999959036136534196e-02,2.978917956352233887e-01
-2.626846478436307697e-01,-3.118950630727324036e-01,-3.009454074234527154e-02,2.324060350613606479e-03,-1.371482209477031247e-03,-5.615093363344075134e-03,2.609255015850067139e-01
-2.814763552837186156e-01,-2.062207139325628324e-01,-1.587191054191522399e-02,-1.028875678044369841e-03,2.884586389920387826e-03,-1.602393479808970206e-02,2.387872189283370972e-01
-3.665913145155904607e-01,-2.334894171575978006e-01,-4.790746032635648244e-02,1.409652167961713241e-02,3.584612812013449751e-02,1.199263409889592957e-01,3.527832627296447754e-01
-4.823666952422908105e-01,-5.097048650129258895e-01,-1.292370343461332061e-01,8.198801056517955599e-02,6.855125456844185505e-02,6.767527223223203381e-02,4.279084205627441406e-01
-4.061776633420003946e-01,-4.630426086022894072e-01,-1.176194181876386857e-01,-2.029730280372287615e-02,1.052103153164841015e-01,3.558815030284984832e-02,3.757012784481048584e-01
-2.812272133791322570e-01,-2.732390954571692343e-01,-2.429347485735761092e-02,2.057841555312373699e-03,4.273396874332867877e-03,1.722412872225828227e-03,2.531851530075073242e-01
-4.605342538011719666e-01,-5.192004169395748603e-01,-1.637701491811764942e-01,6.708144823723828643e-02,7.198993399698809525e-02,5.000871654128009186e-02,3.814062178134918213e-01
-3.086754583810241703e-01,-3.059286349742915689e-01,-1.036760047824739073e-02,-6.163718247453372452e-06,4.299095250238975548e-03,1.731466169124029533e-03,2.970524728298187256e-01
-3.254236860112719731e-01,-3.154929328451341330e-01,-4.410284334725983468e-03,-6.441850595030807662e-04,1.218471931457910961e-04,1.422734021739819298e-03,3.161766529083251953e-01
-3.243735791473607577e-01,-3.157707806350584789e-01,-4.016180860245882611e-03,-8.364336619613341964e-04,-4.320245940647091912e-04,1.384644833645299906e-03,3.161571025848388672e-01
-2.921429217884550233e-01,-2.495008482975505093e-01,-4.226878671015796285e-02,-6.748222676287845938e-03,-3.266684460602609606e-03,4.954232684957891224e-04,2.318828254938125610e-01
-2.746108347233359170e-01,-2.171752878509672913e-01,-2.866754517718653195e-02,-7.380917060713863484e-03,-3.237430984866823420e-03,9.682569046407589822e-03,2.239133566617965698e-01
-3.128703158591951139e-01,-2.696368899602407665e-01,-5.098003444840801257e-02,-2.295224516074056281e-02,8.118408716758921881e-03,-2.129451181338218833e-03,2.468298673629760742e-01
-2.770119485685797467e-01,-2.754149254893253351e-01,-3.357958007630171271e-02,-1.336353796120866473e-03,-2.707412306119428170e-03,1.133739323095275071e-03,2.427020967006683350e-01
-3.012547108876542090e-01,-2.118077028507242277e-01,-1.690406919678025255e-02,9.871926841526677820e-03,8.211208822709720884e-03,2.127237235495649248e-02,2.554876208305358887e-01
-2.354524652564680132e-01,-2.990479830615896395e-01,-2.063797782328277708e-02,-4.552460477665195085e-03,-2.964894376209348432e-03,8.110965400230516625e-03,2.532524466514587402e-01
-2.590020129566665275e-01,-2.839813426813708741e-01,-4.127708874419719343e-02,-8.496817041593447695e-03,2.811346808320787198e-03,-2.508100167999480299e-03,2.317884862422943115e-01
-3.157443882290769110e-01,-3.180947852207349769e-01,-1.089775937019582530e-02,3.345094698404892791e-03,-3.010681003382946995e-03,-7.230408270176162710e-04,3.061304092407226562e-01
-2.806995982767441777e-01,-2.509262653969923651e-01,-2.681018884090191623e-02,-7.190999107570030142e-03,-1.172315105782274595e-02,8.427637491725779861e-03,2.420075535774230957e-01
-2.079843242383869473e-01,-2.803297202529774212e-01,-1.092593165115779419e-02,-8.672236264470264966e-02,8.034782595301912661e-03,-1.539349775432733575e-02,2.859877347946166992e-01
-2.380405493303903441e-01,-2.813162718181665412e-01,-1.728147487085177070e-02,-4.788641144762136904e-03,-1.190105655223127359e-04,-8.064385979489933909e-03,2.458145767450332642e-01
-2.617471938404075660e-01,-2.838047196929389671e-01,-2.461791016728445691e-02,-1.292757268295978597e-02,2.761015009266098216e-04,-7.541631762407269290e-03,2.502389550209045410e-01
-1.954120038947273208e-01,-2.956348423043325679e-01,-3.337145779217060015e-02,-9.890989771738877001e-03,-8.185837708545277633e-03,-2.255725829944530686e-05,2.302964180707931519e-01
-2.760184367910701320e-01,-2.656274177684025961e-01,-2.963103597693009239e-02,-3.480096700726780651e-03,-6.742575200516889335e-03,5.091296019349812046e-03,2.418780475854873657e-01
-2.748659355009044347e-01,-2.989135760463403901e-01,-3.077196077992411238e-02,-3.602086255505830906e-03,-1.050523133743244816e-03,7.451196197918438791e-03,2.573690712451934814e-01
-2.698865000779093748e-01,-2.851356569215064418e-01,-2.540820161810750100e-02,-4.726696906997232377e-03,-1.025708869688088430e-03,7.455458463601401936e-03,2.529173791408538818e-01
-5.444320755914071330e-02,-2.721213309503204281e-01,7.373469272188074020e-02,-4.242628147350160916e-02,2.358605553723442175e-02,-1.675018747429302384e-03,3.143121898174285889e-01
-1.569791116785659857e-01,-3.727825465574597374e-01,2.668444063613389927e-02,-8.001971838073393406e-02,1.333311739047889598e-02,2.795838892730820400e-03,3.737711608409881592e-01
-2.869969093755055933e-01,-2.748078777086307434e-01,-2.505354630739622945e-02,-7.326611598047872743e-03,7.600061335511414627e-03,-1.433144523413416470e-03,2.567304968833923340e-01
-2.188112274479925845e-01,-3.051177487628436991e-01,-2.483116577445859674e-02,-4.036173646784637671e-03,1.482039546566594861e-02,-4.328771805516520160e-03,2.501656413078308105e-01
-2.204022039519000775e-01,-2.807305214187019171e-01,-2.825648560551524691e-02,-1.305139661984695311e-02,-1.494571835927505912e-03,2.198822684957783217e-03,2.295289337635040283e-01
-2.631248221385874136e-02,-2.686395898415878669e-01,7.591114958724035078e-02,3.486530331062341007e-04,2.068376621472209007e-02,1.323611528345572039e-02,3.094398975372314453e-01
-4.339085073801642323e-01,-2.380093530232270937e-01,-4.734208319164692758e-02,9.258173430126978576e-02,9.062794588850458730e-03,5.348213017417648846e-02,3.829146027565002441e-01
-2.895853959484454010e-01,-2.904119001767759833e-01,-2.188255823667065170e-02,3.888036080696632632e-04,1.850531889410186653e-03,4.042288300462915616e-03,2.682284414768218994e-01
-2.951032617539627312e-01,-2.697126670893512657e-01,-2.251964906309436576e-02,3.463943918685334546e-03,6.578830085242785841e-03,1.464463623053966759e-03,2.611469328403472900e-01
-3.782727617866427638e-01,-3.142309509864820161e-01,-4.627289981256932361e-02,1.088007979213956450e-01,1.206045425390522667e-02,2.424819072963976460e-02,3.616303503513336182e-01
-3.165476631492029069e-01,-3.176075248799432038e-01,-2.238887592061727938e-03,-2.273813220579047611e-03,2.947492337765508178e-03,2.157226899930552323e-03,3.149282336235046387e-01
-3.170310470191734509e-01,-3.167424840645964301e-01,8.667571847062183199e-04,-1.368857349925555779e-03,9.547791806457731891e-04,1.155221940619677963e-03,3.177730739116668701e-01
-3.031837363095450932e-01,-3.034693414744232265e-01,-3.615295807226082125e-04,-3.644496929097089193e-04,3.031243466319145929e-03,1.096640126090553868e-03,3.030171990394592285e-01
-2.346389459344695450e-01,-3.005510841012292156e-01,-4.061937811183227720e-02,6.762135844125167182e-03,-1.478575766630907233e-04,-2.729171274023717200e-03,2.343839555978775024e-01
-3.195263203869543323e-01,-3.154369648837668239e-01,-5.035396404837633177e-03,-8.937295430500246610e-04,7.488600688713048818e-04,4.135632218236030139e-03,3.125549256801605225e-01
-8.386476041963839001e-03,-2.639158144956980645e-01,4.774531276557084092e-02,1.393715575128445794e-02,2.311496419911528849e-02,2.067218355200533923e-03,2.915266752243041992e-01
-2.516540793955238664e-01,-4.824260106763204048e-01,-6.222922371588920920e-02,3.748856649306754607e-02,5.448964781886131425e-02,1.475314742033759750e-02,3.829202353954315186e-01
-2.212910716870460648e-01,-3.632566511377700591e-01,-4.757163580029633021e-02,2.398090118691968697e-02,2.790206821592544975e-02,1.067669521894265040e-02,2.817758917808532715e-01
-2.413197591214747695e-01,-2.992960016129823098e-01,-3.216241284150794799e-02,5.478352162072479270e-03,1.143191882667660662e-02,8.895351078460700736e-03,2.448544055223464966e-01
-3.151209833865851184e-01,-3.179658440036263189e-01,1.374154370640340295e-03,1.391404812514582040e-03,1.104254080189656390e-03,-3.376317907090912139e-04,3.179425299167633057e-01
-3.185653375928030884e-01,-3.175329703048944685e-01,8.033859476436477909e-04,2.063989903016038262e-03,1.402903503281492485e-03,-1.376462444202276045e-03,3.188920021057128906e-01
-2.745622939438249199e-01,-2.912472283603301237e-01,-1.158529372422054116e-02,1.721847063693817455e-03,7.402616635778189527e-03,9.814830689530795391e-03,2.725533545017242432e-01
-9.692809517654814300e-02,-1.443311270846722727e-01,5.688336801806329057e-02,1.034602801417983942e-01,-4.316628666990124027e-03,-6.609183582847693965e-04,2.556666731834411621e-01
-2.837095047061509168e-01,-2.729674399559395281e-01,-2.205882127576547225e-02,1.235517772840897741e-02,1.413021650115108691e-02,1.873315612794580060e-02,2.605293393135070801e-01
-1.884429054392549874e-01,-2.277153986115982298e-01,-9.365956393775465294e-03,6.457163626009751467e-02,4.639720920887037588e-03,2.846591901506357290e-03,2.307402491569519043e-01
-3.120218340503942978e-01,-3.051741873366966562e-01,-1.257624909554308501e-02,5.064347430118373503e-03,1.378052637858294058e-02,1.181724701796159870e-02,2.978752255439758301e-01
-2.770533982168510434e-01,-2.666827592655116597e-01,-1.427855138015371450e-02,6.622525017050933348e-03,7.753949401766269123e-03,4.485800227395375823e-03,2.584672868251800537e-01
-3.067419552054890808e-01,-3.031718915446716123e-01,-8.212736293285172184e-04,-2.484145138710978570e-03,-6.857202860180827350e-03,8.317275893455178606e-03,3.047542572021484375e-01
-3.277582124694197185e-01,-3.240374272499353947e-01,-1.599540195653587071e-02,5.091334293793300762e-03,-4.617450115424105326e-04,6.200788499927238108e-04,3.100475072860717773e-01
-3.143564018188529374e-01,-3.245480845538981640e-01,-3.074192615892512581e-02,2.143327202879484906e-03,2.048975178039854749e-03,-2.458981638669452668e-03,2.889222502708435059e-01
-5.730228405971796724e-01,-3.587581330803515933e-01,-1.353083458809556661e-01,-3.849926167591244397e-02,-1.105543884578262916e-03,1.219552328365247074e-01,4.390740990638732910e-01
-3.958199870113545682e-01,-3.286934796422557592e-01,-4.506579842321245533e-02,-1.320433297811029159e-02,-6.150360472412605244e-03,4.075158696009965192e-02,3.310712575912475586e-01
-3.184560769490719645e-01,-2.729354429695337036e-01,-2.936017828944653685e-02,-1.896621331592883821e-03,-3.589443143899583109e-03,1.397202873573757335e-03,2.693400084972381592e-01
-2.891332697940350860e-01,-2.106246602580751359e-01,-1.182261536591971973e-02,1.728348550076683546e-02,6.763477825009103078e-03,7.290329571050007318e-04,2.496567815542221069e-01
-2.809138533729556575e-01,-2.823367153273246277e-01,-2.203952366059955259e-02,-1.106998151522568287e-02,-6.714475009448941760e-03,9.647975978358107677e-03,2.610908448696136475e-01
-3.126451777112332353e-01,-3.139558953604639213e-01,-6.730894271093357251e-03,3.160325283069046788e-04,-5.057114791245828980e-03,1.637032877117933151e-04,3.066974580287933350e-01
-3.025608789830699363e-01,-2.981920842380052505e-01,-1.157279668197933042e-02,4.634013369902798690e-03,-9.737188624385349767e-03,-1.305053117483204704e-02,2.903130948543548584e-01
-3.221810216414516814e-01,-3.229083440517809267e-01,-1.639530091636809406e-03,-3.527614314514129681e-03,-5.222896340891048988e-04,-5.631267191727362849e-04,3.209666907787322998e-01
-2.726414753094057453e-01,-2.642256670919427841e-01,-3.184861934582255971e-03,1.001080878827583995e-02,-1.274624547886435595e-02,-9.007707497169403082e-03,2.672853469848632812e-01
-3.117920896898512817e-01,-3.073595707435989866e-01,-4.829984433301071078e-03,1.269986776944715507e-04,-1.098137989193292974e-02,-7.583625033060631578e-03,3.056454062461853027e-01
-3.191306748637647850e-01,-3.245127674446339205e-01,-2.019854517564090290e-03,-3.776301144569093379e-03,-1.291806647570834139e-03,-5.562352859030125036e-04,3.199119865894317627e-01
-3.431131190270290121e-01,-3.722181265307596965e-01,-4.396216199828095750e-02,1.692542837298091976e-02,-3.768575224202926066e-02,-2.899546616950982036e-02,3.266304731369018555e-01
-3.365338236947430506e-01,-3.265671073553199077e-01,-5.046908855606255240e-02,-4.639579294442688559e-03,2.244947359531582545e-02,-6.388798438960451541e-03,2.842185795307159424e-01
-3.198525466734605804e-01,-3.121360099149731449e-01,-1.328087552450202269e-03,-5.728361762598915043e-05,-3.457308302339063590e-03,3.753783318587410045e-04,3.147947788238525391e-01
-3.293718162765270074e-01,-1.876421661027038168e-01,-4.010360239443741537e-02,3.374577566430472797e-02,-2.787284160611080541e-03,-9.608819025051829749e-03,2.578412890434265137e-01
-2.689455829406948162e-01,-2.680331056919468269e-01,-2.971516749455158091e-02,4.162186602311527921e-03,-2.783430591857572866e-03,-2.250981958842136754e-03,2.389647364616394043e-01
-2.864996155111734777e-01,-2.884455336991876839e-01,-1.051982895098108051e-02,8.294694551176033659e-03,8.545335729601701361e-03,1.111683921716778364e-02,2.783915996551513672e-01
-1.653525831440969540e-01,-3.179324606379841933e-01,-1.437877224764819162e-02,7.062623641826271115e-02,2.321808497113506814e-02,7.627822260709187993e-03,2.930277585983276367e-01
-3.015990807706551147e-01,-2.759188783052304306e-01,-1.090723838500701204e-02,3.202759425748553717e-04,-6.029693138343871113e-03,-1.875199751994813258e-02,2.808210849761962891e-01
-2.615938429195045489e-01,-2.807383283027661269e-01,-3.896585244351857824e-02,4.374305770480502523e-03,1.678011165164074343e-03,3.718760162678236107e-03,2.330218255519866943e-01
-2.771177378019756832e-01,-2.574174434654185051e-01,-3.315539765187353050e-02,8.322193912641101879e-03,-1.845405193219617221e-03,-3.148614690146383718e-03,2.352601289749145508e-01
-3.464406377655674385e-01,-3.222603056902458296e-01,-3.147161669378886750e-02,-2.668497682082435207e-02,-1.792211887199355105e-02,5.212916226884281579e-02,3.215996623039245605e-01
-3.175927547125761974e-01,-3.280618625694465273e-01,-8.480273292786638661e-03,-2.977274899751370437e-03,-6.051028749023761560e-07,-1.729009477939250777e-03,3.145343065261840820e-01
-2.974814253292023536e-01,-2.292138312178830239e-01,-3.953418991426899121e-02,5.023287151449011730e-03,1.832536452263463123e-04,-8.831742853692921052e-05,2.316541075706481934e-01
-3.197408371812403005e-01,-3.203320903755950688e-01,-7.965459081542392017e-03,-3.170230127770897171e-03,1.520230505646740209e-03,7.407180651067048769e-04,3.121334612369537354e-01
-3.208564121572098360e-01,-3.195918127632396133e-01,-6.926373326351875637e-03,-3.762388854358156461e-03,7.388493167635578479e-04,1.494687027717835808e-03,3.133807182312011719e-01
-2.182556036463165205e-01,-2.962160262419883949e-01,-2.327988950344128671e-02,2.870667448670818217e-02,1.299284778946275219e-02,7.429803129632169163e-03,2.498759925365447998e-01
-3.288931335283842294e-01,-3.195147872141463341e-01,-1.786520300477009715e-02,-4.154176299579014249e-03,-2.673217472874206673e-03,4.509261090221426444e-04,3.065668344497680664e-01
-3.409764844926038707e-01,-3.404206186510992937e-01,-8.857609104338107220e-02,-5.121283147681886597e-03,-4.041034984006134159e-03,-8.197442887861667096e-03,2.527750730514526367e-01
-5.424464654150952247e-01,-3.985112893174795334e-01,-1.154817355790842270e-01,8.431405105707541481e-02,3.292484925002886476e-02,1.100808243016420523e-01,4.499922692775726318e-01
-3.039919637265908747e-01,-3.089316366499914590e-01,-1.578547563137333576e-02,-1.282585895787368910e-03,-2.059126487015117569e-03,-6.493225031079639768e-03,2.909556031227111816e-01
-1.633084816551571006e-01,-2.565397991373899456e-01,-1.287074129822021740e-02,3.078834077696027474e-02,7.651366827937261007e-03,5.142102041961202699e-03,2.201086580753326416e-01
-2.729758170013315000e-01,-1.843193213049347245e-01,-1.006563454795048052e-02,3.549212568678729307e-02,-2.133460161986284673e-02,-2.640299285675798413e-02,2.467974126338958740e-01
-3.420484405076945622e-01,-2.356603670482113611e-01,-4.759046914902448355e-02,1.102439864857699681e-01,-2.605963286711523649e-03,-1.175410309614732460e-02,3.218589127063751221e-01
-3.151272526236973959e-01,-3.231364504195116116e-01,-3.957153659110562716e-03,-2.781279527449714330e-03,-1.026189409378185481e-03,-6.864052527677554690e-04,3.152950704097747803e-01
-3.153646543601494323e-01,-3.263203466606287573e-01,-4.881053883818459171e-03,-3.205270341687546393e-03,-1.355529736710259486e-03,-1.016631772413659175e-04,3.161613941192626953e-01
-2.622219067472535414e-01,-2.833518067362373882e-01,-4.096583542185133764e-02,1.591173697631509051e-02,-1.626342617906506799e-03,-1.815852040295409114e-03,2.342076301574707031e-01
-3.321619768213632251e-01,-3.240940788338434464e-01,-3.229836887593570682e-02,-5.803231765876538245e-03,-9.927005193801831818e-04,-5.879854488358110358e-04,2.960895597934722900e-01
-2.842169094290951659e-01,-2.926319533275819618e-01,-1.710110280307300390e-02,1.554934347175769690e-03,-4.097620631231053273e-03,-5.739782620213605864e-03,2.717092633247375488e-01
-2.874739305098767406e-01,-2.838430310670608248e-01,-2.828932785065649269e-02,-7.892674982030429924e-05,-3.194096779634275976e-03,-1.185613356729322372e-03,2.574560344219207764e-01
-3.194218410015872700e-01,-3.243046722972831031e-01,-6.599639998464162938e-03,-3.403790215742893456e-03,-4.456482298579523410e-03,-2.231175891737495649e-03,3.154652118682861328e-01
-3.186882983204931130e-01,-3.303908729406356826e-01,-1.042760371817549880e-02,4.038523333525491864e-04,-1.657514422767393536e-04,1.269177621982754385e-03,3.142840266227722168e-01
-2.367438336259770904e-01,-3.145232541487681388e-01,-1.443155967418605079e-02,9.333343373663341436e-02,-2.339068763627678502e-02,-2.956290283174248246e-02,3.211858570575714111e-01
-3.107994874759335557e-01,-3.145899309897318696e-01,-6.421234116438107042e-03,-2.057239276505071213e-03,-2.098439947753263143e-03,-2.770263554041866010e-03,3.063709437847137451e-01
-3.126383170766514619e-01,-3.225201857298168884e-01,-1.820853879188383262e-02,-4.061339199334665709e-03,-2.503428989320698531e-03,-9.813501505197390080e-04,2.996118068695068359e-01
-3.188626881889095044e-01,-3.168845488328509985e-01,-7.470933349791375466e-03,-2.598229573826066167e-04,-2.972422839253021417e-03,-1.746305731262693490e-03,3.104651570320129395e-01
-9.211925637269420541e-02,-2.463460830471944363e-01,8.951723090476718103e-03,-7.546102264737551690e-02,-1.666206241535306276e-02,5.112552445376277767e-03,2.599682509899139404e-01
-2.330842537338960185e-01,-5.202341123793065014e-01,-9.292708986775180535e-02,-2.391190850894772679e-02,-5.191475006476885951e-02,1.435044725216360825e-02,3.908500373363494873e-01
-3.061370383900869907e-01,-3.360852622217048169e-01,-2.010895562286960092e-02,-3.330621956882049046e-03,-8.695340645886067473e-04,2.860704050509723945e-04,3.021767437458038330e-01
-2.465556937163815021e-01,-3.170110923537898251e-01,-2.012485708587136157e-02,2.925147443620574640e-03,-4.308973355449823711e-02,-1.063480007246610931e-02,2.795054614543914795e-01
-1.651276941921313024e-01,-4.062003329005499097e-01,-4.060531991628535398e-03,-5.785113811706948245e-02,-7.865615302120930116e-03,-5.580981077487435355e-03,3.649751245975494385e-01
-1.531814333555024110e-01,-3.905434237734192182e-01,9.754937445861866507e-03,5.441761920027734373e-02,-3.865159714878863093e-03,4.637992191404765804e-03,3.613268136978149414e-01
-2.040589040573035640e-01,-3.127213035779603523e-01,-4.382802206888691821e-02,2.718017586412848057e-03,-3.531631238570642328e-04,1.365980684148091406e-03,2.343515753746032715e-01
-3.870260845882977363e-01,-3.938747289586257416e-01,-5.824250136247574594e-02,1.021623267770973079e-02,-1.329244603689525928e-03,-5.258312349652281316e-03,3.328642845153808594e-01
-3.273139703606249284e-01,-3.194465257487080212e-01,-2.875015247207005076e-02,4.318627832531827561e-03,1.120511081293275096e-03,6.128593102426066648e-04,2.948120832443237305e-01
-3.082937538953273160e-01,-2.961956834867037203e-01,-1.967003780834739035e-02,-1.026490489548852105e-03,-9.392352920150131082e-03,2.511957777307537772e-04,2.832423448562622070e-01
-3.126713537592691328e-01,-3.245651715379050395e-01,-2.058268579672542509e-02,1.216215815940433148e-03,1.230556598443005708e-03,-4.105479407066458218e-03,2.983133494853973389e-01
-3.158396902602071954e-01,-3.190934119263663660e-01,-1.094934127930352608e-03,1.461652963856662369e-03,-1.253092592588316663e-03,4.722108145561813288e-04,3.164027929306030273e-01
-3.646880500108986012e-01,-3.467266831292146745e-01,-6.263007337364201454e-02,-3.757956847509831555e-02,-2.284871305784659870e-02,5.975457699955850910e-02,3.203918635845184326e-01
-3.114905760800875667e-01,-3.133433987030538326e-01,-6.270703816875777825e-04,6.811073013839882102e-04,-2.528187901218274802e-03,1.680355613889560193e-03,3.118405938148498535e-01
-3.155892444992869361e-01,-3.155506056558690653e-01,-5.958875101182925516e-03,6.657618077627282986e-04,-4.475425383229756846e-03,8.106800225424282483e-04,3.097133934497833252e-01
-3.186687996647363796e-01,-3.213789386367993939e-01,-3.254237454251351913e-03,2.027508961617495182e-03,-2.754665928146952849e-03,1.609493927163168758e-03,3.168459832668304443e-01
-3.157641290785189181e-01,-3.196510203116087467e-01,-1.521370795644627627e-03,6.575346519561395568e-04,-1.485763990777862935e-03,1.077427814431297274e-04,3.162167072296142578e-01
-3.147775019384084771e-01,-3.146969079138013381e-01,-5.751272258896100720e-03,6.686842689839454790e-04,-8.776779108153380743e-04,2.541305818901948635e-03,3.090232014656066895e-01
-3.214330482253764387e-01,-3.249488069584735017e-01,-7.279373982915163244e-02,2.688624414522489819e-03,5.543365380672904408e-03,-2.075260255527814832e-03,2.506687343120574951e-01
-3.305092269183631526e-01,-3.335309407075094379e-01,-6.669220238542020174e-02,4.871187906561362350e-03,6.765073803842943517e-03,2.802476048459391915e-04,2.657338082790374756e-01
-5.406493189773949881e-01,-3.269126342935255169e-01,-1.044328994956341683e-01,-1.885483503324906010e-02,1.963735120051376612e-02,-7.897230631015185465e-02,4.045564830303192139e-01
-3.229465352491502350e-01,-3.319495382217036994e-01,-3.581853597167392045e-02,1.031668850858680512e-03,5.305848310218657564e-04,-1.035736841340450425e-03,2.917461395263671875e-01
-3.250947917808836851e-01,-3.328085280413051184e-01,-6.361171058894068975e-02,3.906872986564384476e-03,3.167034251641048705e-03,-8.122747211444916737e-03,2.659393548965454102e-01
-3.334169722862118102e-01,-2.661845705537854156e-01,-3.697581200780131194e-02,-2.843107746078397079e-03,5.872857118571780423e-03,-1.421647423753426114e-02,2.705571055412292480e-01
-3.164942552931294673e-01,-2.960431115202997177e-01,-1.387921766398125811e-02,-4.459562622096028368e-04,9.019881098855944690e-03,-8.291729734381687042e-04,2.933462560176849365e-01
-3.132468593801895351e-01,-3.159795607946416784e-01,-1.909956968601106420e-03,-2.730498399449064685e-04,2.895628699372273119e-03,3.074675974730433324e-04,3.127532303333282471e-01
-3.158195768084625099e-01,-3.199194449667996931e-01,-3.504036667796278648e-03,1.882164320241051043e-04,3.023310335091817548e-03,-1.487875740144526445e-03,3.144398629665374756e-01
-3.212143294525701132e-01,-3.296859589187828843e-01,-2.517979024272984367e-02,4.447328878674942226e-03,-1.971091831266672586e-03,1.890704903686632899e-03,3.004959821701049805e-01
-2.992014722353487644e-01,-2.944009387363164532e-01,-2.281181747198324228e-03,1.597193764955555937e-03,5.462847553115723204e-03,3.100830528077606982e-03,2.947632074356079102e-01
-2.993750108193841686e-01,-2.890963121016529302e-01,-1.618869782902584986e-02,2.025314949301351784e-03,9.885937891337057137e-03,1.821911809944234788e-03,2.787558138370513916e-01
-2.871910335592453567e-01,-2.763079341718934767e-01,-1.478098997348686883e-02,5.587624026098600080e-03,8.046294139672182516e-03,9.063959464110748002e-03,2.681331038475036621e-01
-3.296983210465868064e-01,-3.125575768473590754e-01,-5.250803805158099635e-02,5.388593662424118885e-02,3.503289139718159667e-02,2.461179229958593284e-02,2.942570745944976807e-01
-4.350665406002387492e-01,-1.609971937587267310e-01,-3.930063676273493067e-03,2.668629379913668373e-02,-2.350496508548283008e-03,-3.685048680321404476e-03,3.808217048645019531e-01
-4.073679574068432840e-01,-1.834090448225738357e-01,4.795453344183936428e-03,-6.146929589338907818e-02,-3.493369523246577218e-03,1.335137019870163977e-02,3.736782073974609375e-01
-3.184544289937324413e-01,-2.309172863285957056e-01,-4.746199901265057974e-02,2.646363687728627706e-02,1.273050532514154046e-03,-3.419132639236370508e-03,2.439644485712051392e-01
-2.757039320961314766e-01,-2.289830557540317724e-01,-2.514192766216738484e-02,1.267960484059823915e-02,8.123994200896390502e-03,4.974009132168880597e-03,2.324052900075912476e-01
-2.927142395175486578e-01,-1.947831878850274645e-01,-3.146365955779745205e-02,1.313383193515173415e-02,-3.159427013169654411e-03,-1.132866307014345972e-03,2.298023104667663574e-01
-2.943915635620533711e-01,-2.774567209432748927e-01,-3.636271295289239536e-02,-1.311274360340011595e-02,7.228283259656170107e-03,-6.907728865755855159e-03,2.516182065010070801e-01
-3.116009656245267712e-01,-2.091972861049311017e-01,-4.072058402209827177e-02,-1.147487753460586443e-02,2.477607934188470664e-03,-7.963896775987222218e-03,2.381748408079147339e-01
-3.100885786331854521e-01,-2.887865124575078601e-01,-7.002586463743271095e-03,-2.469522128774649401e-04,4.760597236977645065e-03,2.476489308454384063e-05,2.931325733661651611e-01
-3.149280734601866971e-01,-2.951475683154364260e-01,-7.470341172045563694e-03,1.653856786187825551e-03,-1.479982234080756427e-03,1.405121953738921016e-03,2.980948686599731445e-01
-2.962295226420991745e-01,-2.760882260805337385e-01,6.645124207097480307e-03,-5.921651280642720866e-03,1.271105779686849784e-02,-1.641441124727336873e-02,2.956968843936920166e-01
-3.167427809177474907e-01,-3.152991308135205673e-01,-8.959554334461800051e-03,-1.655705427614381179e-04,3.604456201540139418e-03,-2.706869814993785334e-03,3.071633279323577881e-01
-2.823955964300696730e-01,-2.830683704615603036e-01,-1.235237971326808015e-02,-5.603165612997909606e-03,5.451360743485066628e-03,-6.147727734522650568e-03,2.709283828735351562e-01
-3.133454546012899300e-01,-3.258085100202839923e-01,-4.054493662433433787e-03,9.894795101274467177e-04,3.311777079405724741e-04,-5.152170280234210373e-04,3.157134652137756348e-01
-3.139925237719368711e-01,-3.228328822269848075e-01,-4.422995977176630289e-03,-8.706856397159155512e-05,7.460010468102284791e-04,-1.826167783949482221e-03,3.141016364097595215e-01
-3.155682351216531067e-01,-3.266850534575900800e-01,-5.146166765597259829e-03,7.356792490883170177e-05,1.130111954722545726e-05,-9.319825116895162880e-05,3.161271810531616211e-01
-2.219913627847898419e-01,-2.562154821116717218e-01,-2.870641153649353128e-02,2.517353289724696269e-02,-3.311119270463111063e-03,-4.253909052403094179e-03,2.171029001474380493e-01
-3.050828079444802277e-01,-2.689655594719599918e-01,-2.736619292560790728e-02,5.433719381733816481e-03,1.048446792897586403e-02,1.629118488506813272e-03,2.623488605022430420e-01
-1.642681882974203478e-01,-1.270196978537941335e-01,7.256188361715637525e-02,9.969358891826149427e-02,-1.782142688235959643e-02,-1.803654924284371977e-02,2.835481762886047363e-01
-3.061390476446868014e-01,-2.078692021824961322e-01,-3.872997284625318004e-02,8.061571615698454041e-03,7.528382896527536366e-04,1.411471623061823786e-04,2.346977889537811279e-01
-3.058473538765850708e-01,-2.555285604669503829e-01,-2.352906130847828847e-02,4.601778260063200954e-03,-9.920061114458811335e-03,-3.517600684015355817e-04,2.615125477313995361e-01
-2.528953528324763833e-01,-8.433279821526862285e-03,4.241874552845170676e-02,1.399283003987188308e-02,7.488466895523434100e-03,2.259747348071404829e-02,2.776086926460266113e-01
-2.825687169027658041e-01,-2.805421846093436034e-01,-1.176127848487448779e-02,1.141414486299484159e-02,-1.193416859914979249e-02,-1.193822050587786156e-02,2.720986306667327881e-01
-2.964943744959812610e-01,-2.814933482556093436e-01,-9.463502142889157476e-03,2.789465696190372365e-03,-1.129324206163190292e-02,-4.342720432950955035e-03,2.806573212146759033e-01
-2.970976483300213911e-01,-2.711592383398204742e-01,-3.184777843145755738e-02,7.729433573335715889e-04,-9.829772070726570943e-03,-4.749320349947011924e-03,2.539871335029602051e-01
-2.673830338112138660e-01,-3.236424280193785918e-01,-3.497753777602766179e-02,1.334885658777033336e-02,4.002643983008220678e-04,-6.237749525200091648e-03,2.662784457206726074e-01
-3.012227011119974485e-01,-2.968438579385344056e-01,-1.097055491726597887e-02,4.490884724156622362e-03,-8.686683033701531748e-03,-1.077237209703639422e-03,2.885911762714385986e-01
-3.106377278006234866e-01,-3.104411489470774166e-01,-3.730392837568430320e-03,-2.148918790500281648e-03,-5.073549635181223705e-03,-1.137128230258083704e-03,3.069638013839721680e-01
-2.485246507862527987e-01,-2.965005386608208227e-01,-1.900345583016826989e-02,3.789160191165992942e-03,8.004741398303392768e-04,4.623245396370931522e-03,2.571036219596862793e-01
-2.127005094264065033e-01,-1.808976606890099204e-01,2.495793968886778069e-02,8.881674338128514590e-02,3.936142651551507304e-03,-1.572912554965895165e-03,2.713924944400787354e-01
-2.628323730865644303e-01,-3.031693046065696562e-01,-1.021722965837087993e-02,1.874095568360028630e-03,1.309643135861619269e-02,1.014128860090492135e-02,2.765227258205413818e-01
-2.601925063297807483e-01,-3.236425382049092914e-01,-2.857597363414657310e-02,5.352397678365767436e-02,2.303936999735704122e-02,1.991466251467602366e-02,2.893870472908020020e-01
-3.209120738310239362e-01,-3.166522015114958677e-01,-5.208776260501563060e-03,-1.810170829588576705e-03,2.128951725790613828e-03,3.368548235117976592e-03,3.136866688728332520e-01
-5.889632158373683257e-01,-4.380693224832363786e-01,-1.592629163224185962e-01,5.331440617652699610e-02,5.969862712370904018e-02,1.149736510083153723e-01,4.488296210765838623e-01
-3.098733008799238187e-01,-3.136479415730123455e-01,-7.969439890412655103e-03,2.036658861606038470e-03,6.844941406106123775e-03,3.932172687991274465e-03,3.041367530822753906e-01
-3.256928473423372217e-01,-3.118043951358423493e-01,-1.648873466289965672e-02,4.234076887824925368e-03,1.485196647078290515e-03,2.369555020042614368e-02,3.053695261478424072e-01
-3.207935463171605051e-01,-3.259866736385350627e-01,-2.543737276242286072e-02,-2.541484076692610700e-03,-1.832902405845870117e-03,-2.186799945204528483e-03,2.980601787567138672e-01
-2.113428947182204587e-01,-2.442880166786322305e-01,7.620865986536995429e-03,4.443739393496326517e-02,2.289509232347832282e-02,1.832196177564461223e-02,2.544562518596649170e-01
-3.270834909287015368e-01,-3.338577828792869684e-01,-1.007409511169191085e-02,3.154921437369671063e-05,2.632386231515777483e-03,3.487213710991753936e-04,3.204832673072814941e-01
-2.987227519978870038e-01,-2.907299082727720085e-01,1.065749948557986881e-03,2.618152093442752560e-03,6.223087457436242073e-03,4.423053829193163491e-03,2.962031364440917969e-01
-3.228911824527156416e-01,-3.297438703554457229e-01,-6.702659893151532988e-02,-1.831827398082337341e-03,-1.152243592244162653e-04,6.217309426190884957e-04,2.593805491924285889e-01
-3.240566656005809398e-01,-3.177500944143902828e-01,-9.146730612616033040e-03,-2.615455132732147359e-03,2.852649169224937085e-03,1.031230750618408526e-03,3.118816614151000977e-01
-3.268477421349630929e-01,-3.204024239633153082e-01,-1.398892385525851711e-02,-4.340791055667122915e-03,-1.158035395653695754e-03,1.108671268542322586e-03,3.097901642322540283e-01
-3.264759214678034094e-01,-3.244897011058159308e-01,-2.566174728453721188e-02,-4.818428957201461790e-03,-1.686938220071635959e-04,1.006052036237209532e-03,2.999473214149475098e-01
-3.091388765513430337e-01,-3.092211570389721831e-01,-8.198553675899666882e-04,-3.656053814004092684e-04,-2.370171945112279580e-03,3.222494429523463464e-03,3.084386587142944336e-01
-6.453074225781070261e-01,-5.883050822431005189e-01,-1.481574494521732954e-01,1.827835906971391963e-02,-1.477810184202732816e-02,9.088134165758675331e-02,4.985021352767944336e-01
-3.163393636611949722e-01,-3.188603752273236891e-01,8.819655187014552311e-05,2.839341996349021083e-03,-1.373140207145996227e-03,4.714503592774827584e-04,3.177435696125030518e-01
-3.162300574894986727e-01,-3.165442602326310473e-01,-1.111684919562427876e-03,1.037747791465096258e-03,-2.663557880133513803e-03,1.357924003251423806e-03,3.153232336044311523e-01
-3.190108420513595444e-01,-3.280994174004534525e-01,-5.407162618282584932e-03,5.010865540208868721e-04,-2.235207890527665837e-03,1.698949030084433804e-04,3.182701766490936279e-01
-3.185429986345198472e-01,-3.151179698863950107e-01,4.395232382075064947e-04,-9.446594157667475644e-04,5.098035618276556581e-04,1.258415611001158663e-03,3.172968029975891113e-01
-3.198893337394598801e-01,-3.149392388711316770e-01,7.589592282023771563e-04,-8.692748880872937668e-04,-1.481330038921383743e-05,1.636001110815878167e-03,3.182182908058166504e-01
-3.275696613434944116e-01,-3.196241768979006248e-01,-5.849569336101784200e-03,-2.811414962222999123e-03,-2.167165660422034148e-04,1.902744720629757523e-03,3.178764581680297852e-01
-3.240187926903980165e-01,-3.172694836887678393e-01,-5.451785234520806211e-03,-3.472954068906366175e-03,5.342077202435519499e-04,2.805633492649164712e-04,3.153056502342224121e-01
-3.204346034161753010e-01,-3.157712295496948318e-01,-1.830052348639865656e-03,-4.339219839162032676e-04,1.776258295198536149e-03,2.687123127477083605e-03,3.163487315177917480e-01
-3.004473696034400954e-01,-3.030901018616427578e-01,-3.495217184514537445e-03,4.394524222556990003e-04,2.452103958228146318e-03,5.302368834672256670e-03,2.984548509120941162e-01
-2.962649862138638790e-01,-3.032132485804504007e-01,-4.337736406891390395e-04,1.408388557718425697e-03,6.076077915414618280e-03,7.233308636293721630e-03,2.998225688934326172e-01
-3.380539269150018011e-01,-3.324424696046962002e-01,-6.888957709881501912e-02,-2.960666931576621218e-03,6.764467043637739391e-04,-2.306222658785385318e-03,2.664848268032073975e-01
-3.165437004878363658e-01,-3.173472529657469510e-01,-1.106614219555579481e-02,4.454432175974624118e-03,6.093349645782019514e-03,7.936821135695942483e-03,3.064678609371185303e-01
-6.249079486555131346e-01,-6.607011755767905337e-01,-1.936209203743698426e-01,-4.101537574775031975e-03,7.890512653900716433e-02,-4.533127446435687539e-03,4.706559181213378906e-01
-7.539303940685535554e-01,-6.493153754689819923e-01,-2.432769338961875416e-01,1.029124345097992728e-02,3.188624576166706331e-02,1.170188306413358359e-01,5.125791430473327637e-01
-3.766528657505968658e-01,-3.700177050526140543e-01,-1.004157753681598764e-01,-5.198019646111613767e-03,1.482369604082938927e-02,1.006374886520555734e-02,2.748858034610748291e-01
-3.344250243506067810e-01,-3.431607315246807954e-01,-6.678944696439048645e-02,2.264244193335087849e-03,8.181692340284557868e-04,-9.199033767996991212e-03,2.726065814495086670e-01
-5.454646244185755721e-01,-4.157053200055387809e-01,-1.460578839775787119e-01,-1.007665374464634944e-02,-1.204309281432613433e-02,1.225708825158312032e-01,4.127312302589416504e-01
-3.312449494324403165e-01,-3.288427149074655831e-01,-6.021073748944763548e-02,-3.895355466703728266e-03,-1.123428034651565354e-03,5.255444862442400222e-03,2.700859010219573975e-01
-3.330310213197894553e-01,-3.372463494096592518e-01,-1.167544178519759057e-01,-1.473938689955211828e-03,6.774392187627471785e-05,1.043975274442500781e-03,2.184372097253799438e-01
-4.232315175253060779e-01,-4.109960502430884954e-01,-7.289356467215979407e-02,1.668229968168783231e-02,2.450677298675560476e-03,1.347239546802244357e-02,3.464062213897705078e-01
-3.189081465236129898e-01,-3.182677945443436740e-01,-4.485587146644348655e-03,-3.245751015925947038e-03,-2.208101189492795864e-05,6.817341142727594699e-04,3.141553997993469238e-01
-2.995568269459266686e-01,-2.658271199383717143e-01,-2.277781499135173027e-02,4.418010661807613045e-03,8.170499277671088717e-03,2.757254983026433907e-03,2.620882987976074219e-01
-2.974152242766433529e-01,-2.961340936369659671e-01,-6.879460133587922410e-03,7.309172315773682658e-04,5.598862868462900141e-03,3.787886322002415908e-03,2.901364266872406006e-01
-2.860501908512660396e-01,-2.610433330386148221e-01,-3.433397109691344040e-03,1.376326662570243227e-02,1.105847342420204424e-02,1.840602362667315443e-03,2.727188169956207275e-01
-2.964955311412069694e-01,-1.467971871220700997e-01,-2.477496306708926177e-02,3.082979997927720595e-02,7.215932562535824768e-03,3.184121014023282709e-02,2.482232302427291870e-01
-2.860357344381353473e-01,-2.866128755415005003e-01,-1.109767527282484734e-02,5.419378167071452028e-03,1.486957049944716454e-03,5.444770296780232152e-03,2.755605578422546387e-01
-3.117789830954409980e-01,-3.119253442151426192e-01,4.312708569133155700e-03,-7.214236207696390424e-04,1.404749961125032701e-03,9.882514094870936423e-04,3.161813616752624512e-01
-2.992367612779117669e-01,-3.129449171802203278e-01,-1.420984909921077510e-02,-1.342337067264265642e-03,1.552660917331750252e-03,8.318650851905634927e-03,2.924990355968475342e-01
-2.761666136691396378e-01,-3.007623924621052325e-01,-1.053981985070678862e-02,1.450940441451562327e-03,7.857527677797866011e-03,1.193114140781967834e-02,2.798471748828887939e-01
-3.202895817516777655e-01,-3.167093375733575078e-01,-1.971804490729034409e-03,-2.412274570571836148e-03,5.452890459530273159e-04,8.439479704690920799e-04,3.165751993656158447e-01
-3.187354270429575975e-01,-3.186066668919060318e-01,-1.089031315570751501e-02,-1.202270115252885218e-03,6.955221990610140070e-03,4.902546358949885254e-03,3.081404864788055420e-01
-3.111715885059247455e-01,-3.372153337946238727e-01,-2.340396376071463003e-02,1.088764599020966822e-03,2.572422920683410663e-02,3.216025565568685161e-03,3.049636483192443848e-01
-3.225077125398095323e-01,-2.837249104079947459e-01,-4.060645225411976811e-02,-6.017863778005729664e-02,1.159962209337830896e-02,-3.358864272116070249e-02,2.910191714763641357e-01
-2.933971988206473536e-01,-3.172024755694133891e-01,-2.316842255237178128e-02,-1.478302676366581928e-02,1.628316089724027652e-02,-2.102341954191824791e-02,2.877501547336578369e-01
-3.219858398225711182e-01,-3.180142763770200665e-01,-2.523919839443242163e-02,4.620190464135400833e-03,3.321177969112273747e-03,-3.127321711935375850e-03,2.949953675270080566e-01
-5.789395047434554575e-01,-4.734945388021150059e-01,-1.683881036435360967e-01,-7.686497579113688028e-02,6.709641867898975820e-02,-9.134687738795377321e-02,4.389119744300842285e-01
-3.218168348918050148e-01,-3.229397349893277092e-01,-3.960823086425924178e-02,4.661059201720249394e-03,1.191125756946322372e-03,-4.182426180052723212e-04,2.828953862190246582e-01
-3.177486224559135097e-01,-3.203576001644197202e-01,-5.376794891125219467e-03,3.960275829907344315e-03,2.046154732678139628e-03,-3.795561191648055312e-03,3.138483166694641113e-01
-3.301852122503146081e-01,-3.206175952214963543e-01,-1.287366225411001874e-02,1.658142767364111959e-03,1.310124874668222150e-03,-5.476428836319757569e-03,3.128028512001037598e-01
-3.201923665849015777e-01,-3.192929048508376111e-01,-7.841143090093566359e-03,4.050953845992502113e-03,-4.667298736148304297e-05,-1.185786215493566005e-03,3.119881451129913330e-01
-1.977271833492710296e-01,-1.499533136215062123e-01,3.315701201017040578e-02,-9.671030730486666893e-02,2.929660448852873175e-02,-2.055668720820034295e-02,2.765156030654907227e-01
-3.260755612600638176e-01,-3.159115506110522498e-01,-6.762654133524170774e-03,-2.296144673520720495e-03,-1.222438974558588947e-03,4.957125230853993633e-04,3.143876194953918457e-01
-3.208558162781321443e-01,-3.148640610784338989e-01,-8.408753024754245242e-04,-1.702229177068317672e-03,1.151668397841198359e-03,2.657868535398183983e-03,3.171149194240570068e-01
-3.185835321106406104e-01,-3.133405304972991523e-01,-1.878023438847686855e-05,-2.604960705904218890e-05,1.158189096886471942e-03,1.935582015653782885e-03,3.160000443458557129e-01
-3.287319915427413530e-01,-3.194065073017606227e-01,-9.098022695533336535e-03,-1.197973790269219818e-03,-5.777840824490081476e-04,-3.578158256319062557e-04,3.150837719440460205e-01
-3.164548074198733074e-01,-3.145832175301297995e-01,-6.815360868013847773e-03,-1.025975860524790248e-03,6.212928945440573426e-03,5.579651226207554132e-03,3.090516626834869385e-01
-3.260111485422969579e-01,-3.179987218390769033e-01,-3.274702278381336207e-03,-2.754505664100825521e-03,-5.493216800962656210e-04,2.872999250854680014e-04,3.188432753086090088e-01
-3.221324560288851835e-01,-3.156868626519744314e-01,-2.557829254427795851e-03,-1.618275194215031853e-05,2.074980764554674052e-03,2.595798299471087107e-03,3.164534270763397217e-01
-2.672989656418388593e-01,-2.417114994541638973e-01,1.355697027354568762e-02,-4.605430312829449091e-02,5.847908389264789425e-02,-8.726847513152298508e-02,3.343922197818756104e-01
-4.225419786432539349e-01,-1.608683905271628689e-01,-4.710225937644546557e-02,-4.266216050077775018e-02,-4.699010725022491688e-03,-1.418999045473583534e-02,3.425140678882598877e-01
-2.929081100664098214e-01,-3.247188727759287019e-01,-6.300848480317675082e-02,-9.247180505182563126e-03,4.943344291767736570e-02,-5.794113109393716349e-03,2.624257802963256836e-01
-3.134987142300901808e-01,-3.206158082960091638e-01,-9.538435298143188579e-03,2.611326348616935635e-04,3.730538050702277269e-03,-2.426662639967269719e-03,3.076775074005126953e-01
-2.539145948498710004e-01,-1.342513975935721166e-02,5.669476296216846567e-02,-1.217712037715143990e-02,1.112202438564379760e-02,-5.426031972379530971e-02,2.987700998783111572e-01
-3.200215611727060261e-01,-3.237958452767414341e-01,-1.343042946446501573e-02,-1.390344952347944817e-03,-1.729883286731038474e-04,-1.620836432441521242e-03,3.085179030895233154e-01
-2.868684985832594680e-01,-5.036384891615301035e-02,3.657291630296408136e-02,-1.276852939832401985e-03,-9.662333998127001569e-03,-1.883360638694397959e-02,2.922370433807373047e-01
-3.167982506573427948e-01,-3.139325839578248623e-01,-5.289703790755218016e-03,-1.455574736928784765e-04,-6.417768751801771789e-04,-1.336847289005339682e-04,3.100878298282623291e-01
-3.286698765615750917e-01,-3.169760351065858406e-01,-7.189037416278976078e-02,3.144359682418149549e-03,3.726357571061724729e-04,-1.016530680494696616e-04,2.511968016624450684e-01
-3.299492495016006499e-01,-3.180443542004858792e-01,-1.362543829903167802e-02,6.045880965694314666e-04,5.651972165864973564e-04,1.940160463267574331e-04,3.105460405349731445e-01
-2.818836459416230178e-01,-3.230027690229303472e-01,-3.233436599373307185e-03,2.425285719146734898e-04,1.608779136035070473e-02,2.202981428199102601e-03,3.026314079761505127e-01
-3.259234968681941624e-01,-3.250482315077490858e-01,-2.203302357585876226e-02,5.371752632810151973e-03,6.113057726866744394e-04,1.751746412048656469e-03,3.036133944988250732e-01
-3.055375237577626635e-01,-3.069420146032292296e-01,-4.060732277643308574e-03,-3.854244987107414738e-04,6.367223301019274591e-03,-4.104619744741268977e-03,3.024669587612152100e-01
-3.044534084903495197e-01,-3.258334754792268084e-01,-2.487522220866314471e-02,-1.246259094619580135e-02,1.843670608435925978e-02,-1.767399485416739149e-02,2.949936687946319580e-01
-3.125116700512849954e-01,-3.129106435516497697e-01,-4.317756883513684807e-03,3.613988224497052077e-04,5.242069453381690072e-03,-3.169415208697378902e-03,3.085767030715942383e-01
-3.073095617368955534e-01,-2.546884424004868808e-01,-5.177052906805537646e-02,2.368310256981243089e-02,-1.527694904975092490e-03,2.491891176437114469e-03,2.373409569263458252e-01
-2.622301491305525922e-01,-3.000399691899027221e-01,-9.734356305475533322e-03,1.914757032951655297e-03,1.372189734969120854e-02,1.050297819125305294e-02,2.750224173069000244e-01
-2.079283267642087207e-01,-2.934258524526391354e-01,-1.635432374798717614e-02,-1.296298632418208321e-02,1.369003814557540055e-02,-5.797974620593338013e-03,2.481063157320022583e-01
-1.936498799158161144e-01,-2.917520517396704482e-01,-3.048354674885614402e-02,-7.840318886921732872e-03,5.496592633691165311e-03,-3.385896353758442029e-03,2.292677462100982666e-01
-3.266522470088908392e-01,-3.389850221789384999e-01,-4.779276622423539456e-02,1.103536688682224976e-03,-1.531899053434874558e-03,-8.924263012491591082e-03,2.856631577014923096e-01
-1.705257512852218493e-01,-3.034261721150338098e-01,-1.665102730308645751e-02,-1.370095167451234643e-02,-1.204177687111662558e-02,-9.789559966052019391e-03,2.511486411094665527e-01
-1.257427651107743127e-01,-4.245694169541190943e-01,5.253785066905908296e-03,-1.967166858062802115e-02,7.693526464405077772e-03,-6.403976710879220532e-03,3.834895789623260498e-01
-2.057524602593823748e-01,-3.029910337317494040e-01,-2.191152598581946886e-02,-5.204203738140526260e-03,1.795098032472274355e-02,-5.929691766460204504e-04,2.493557333946228027e-01
-2.437822225289130729e-01,-3.029736580852834260e-01,-1.903360871150655553e-02,4.408049450822810870e-04,3.094309106387534473e-04,-5.275207487145829174e-04,2.594618797302246094e-01
-1.864420747518528987e-01,-4.119447254116896939e-01,-2.310546045312075747e-02,-1.200658846981480544e-02,4.862549293255327698e-02,1.644672583019775314e-02,3.502861857414245605e-01
-3.364645397943462068e-01,-3.305459820525169512e-01,-1.707902776233247155e-02,2.477919200043259169e-03,9.866347658985757593e-03,6.395023489276779362e-03,3.171513378620147705e-01
-2.613677724068156905e-01,-2.818805611497692820e-01,-3.233302171833291050e-02,5.256481305696356771e-02,5.205850763213790144e-02,5.468380432253230894e-02,2.880385816097259521e-01
-2.909426226339600352e-01,-2.804900579755773560e-01,-2.287560721064563207e-02,9.465894810781061083e-03,1.142271928125952914e-02,6.317775743791777601e-03,2.644752860069274902e-01
-3.843240672614322562e-01,-2.160911157014173134e-01,-5.225639112003116482e-02,1.005764503449782798e-01,1.121069037500849359e-02,5.064705283504145755e-02,3.480313420295715332e-01
-3.159281368707309579e-01,-3.116203960404450024e-01,-1.049545542841368029e-03,-7.671615990721409976e-04,-6.256671438089535676e-04,-1.662105678061763948e-04,3.127517998218536377e-01
-3.158238512424810240e-01,-3.120513972840494588e-01,-9.952801653843212915e-03,-8.850506073319099878e-04,-8.673644701538354854e-04,3.903497547275229171e-03,3.040851354598999023e-01
-3.283004524379983802e-01,-3.280725685432890892e-01,-6.286747070058107401e-02,-4.908434746436945821e-03,-9.921917712188530088e-04,-4.203367911248315908e-03,2.655606567859649658e-01
-2.614762467270955737e-01,-1.971449689131382910e-01,-1.864076992105678787e-02,1.040747865780377451e-01,2.758360086356765120e-02,4.946016055219739499e-02,2.993356585502624512e-01
-2.963967801446474315e-01,-2.505837696018147209e-01,-2.670874972122389002e-02,5.431670641146245024e-03,1.039201462150743209e-02,6.124632467749636412e-03,2.509985566139221191e-01
-2.843519732779164477e-01,-2.482767855707186944e-01,3.728635730844226392e-03,-6.491774920342502364e-03,-1.019648590840900940e-02,1.470433520448766705e-02,2.738362252712249756e-01
-2.979977426092054738e-01,-2.991751118416820510e-01,-9.010799284800502518e-03,-1.112042402057261768e-03,-7.491081213470589424e-03,2.708002868728517226e-03,2.899123132228851318e-01
-3.152299391394006722e-01,-3.114742340192380166e-01,-6.766054631972107103e-03,2.753973711249584240e-03,-5.024345322104613321e-03,1.809900114140776774e-04,3.067640066146850586e-01
-2.919047019873741156e-01,-2.521044711816171069e-01,-3.131944238227138411e-02,-2.611352108040127656e-02,-1.778793812943187808e-02,1.871200939433096885e-02,2.513220608234405518e-01
-3.125275622272856713e-01,-3.162434245103780128e-01,-2.297709429592759145e-03,2.312443339373674092e-03,-3.562313313421863661e-03,3.158503237349993397e-03,3.122389912605285645e-01
-4.424759764119996497e-01,-3.400627718308261160e-01,-8.987200206769185851e-02,-9.952228243117061668e-02,-2.860662616020602164e-02,5.137124822075950226e-02,3.725490570068359375e-01
-4.138556399818277276e-01,-3.634722499358513104e-01,-5.938944790275343943e-02,1.473077194391370602e-02,-3.193744074239726616e-02,-4.555831789049417241e-02,3.467898964881896973e-01
-3.157227799218041975e-01,-3.209922662549038463e-01,-3.453216095241462558e-03,-1.276508221623764896e-03,-2.162606171813685751e-03,-1.186839962385053023e-03,3.149741291999816895e-01
-3.349574711359115109e-01,-3.422314470667994213e-01,-6.961077882378716164e-02,-1.325346647844342658e-03,-1.266782567260694731e-03,5.543729480905140207e-03,2.692474424839019775e-01
-3.201356822735195173e-01,-2.737337945608958045e-01,-3.317195256140731408e-02,2.154081699961172755e-02,-1.006965089288226062e-02,-3.216608961833526681e-02,2.756552994251251221e-01
-3.319807558749676146e-01,-2.892135250694753412e-01,-1.995413919973182404e-02,3.402259804883710388e-03,-2.046609862249737337e-03,-1.659512925311749584e-02,2.944802641868591309e-01
-3.182772209876457703e-01,-3.231891125691568334e-01,-9.485831647824988222e-03,-3.789913949852364520e-03,-3.302783760228652707e-03,-4.206205855058858106e-03,3.114833831787109375e-01
-2.822880601713471105e-01,-2.991696193066545328e-01,-1.854869376690021499e-03,3.311773963922935455e-03,-3.944811171055001217e-03,-8.264104089963905664e-03,2.897350192070007324e-01
-2.325212982912100712e-01,-2.384550623742667796e-01,3.967135622458151101e-03,2.614578568480583828e-02,-1.372705315629851007e-02,-1.157880656414170956e-02,2.457306683063507080e-01
-2.344409886362041340e-01,-3.385437437672959571e-01,-2.821830629816293734e-02,9.379856865544367039e-02,-3.798196938995351823e-02,-1.261642579312304002e-02,3.256277740001678467e-01
-1.894554608856065803e-01,-3.928019810353625685e-01,-2.804857308129865556e-02,1.952266023018293245e-02,-2.905362782748181424e-02,-5.883715074602108644e-03,3.224951326847076416e-01
-3.338554173462553454e-01,-3.236932759975560403e-01,-3.819826648486993048e-02,-3.159526544827553039e-03,1.132778983485408132e-04,7.728252713529254686e-04,2.907639741897583008e-01
-2.749210195077375074e-01,-2.766401564730315288e-01,-2.471729610967357549e-02,4.001681231584956169e-04,-3.700196229314534047e-04,1.626337410673630354e-03,2.510852813720703125e-01
-1.512912401747724678e-01,-1.904476918418661069e-01,1.288679613167334481e-02,-1.016558220790409056e-01,-1.532686940906050673e-03,1.398292547932313175e-02,2.578984498977661133e-01
-3.193845692084898991e-01,-3.166380009658488759e-01,-1.220659797689954695e-03,2.679623397776661770e-03,-8.196761614772601423e-04,1.127122133689902831e-03,3.168427348136901855e-01
-2.936369089390058473e-01,-3.203642396799066261e-01,-1.330829355586918283e-02,-9.781767460858151794e-04,5.959167715041983546e-04,5.694613874077602243e-03,2.947747409343719482e-01
-2.892983781501911045e-01,-2.955072653031616259e-01,4.732746802499632199e-04,5.518221657966957197e-03,7.918083033286891712e-03,8.354135432519544865e-03,2.937586307525634766e-01
-3.131335827730655774e-01,-3.139397143928286948e-01,-1.256566714047055444e-02,-7.323349664828600640e-04,3.751514352467624162e-03,4.779302300041101369e-03,3.011583983898162842e-01
-2.919997698574929856e-01,-2.782109102789928068e-01,-4.773831747687498628e-02,1.518287454012188717e-02,3.969995611719022259e-03,2.911785582093761281e-03,2.392696738243103027e-01
-2.529702285533334538e-01,-2.834175690689857974e-01,-1.607215429537292573e-02,3.147379567019239349e-02,3.793214280978458169e-02,2.425333456977977337e-02,2.707649767398834229e-01
-3.140285238986076366e-01,-3.144276334039624032e-01,-1.811309860201770761e-02,1.112804754714117814e-03,7.467510500002346070e-03,8.940534463511904187e-03,2.968080341815948486e-01
-2.638837345968060299e-01,-2.817962131739245590e-01,-4.085056376222362395e-02,3.325051226700296431e-03,-8.925117746107040506e-04,-7.840932769756981573e-04,2.325879037380218506e-01
-3.109627561361072434e-01,-2.228640428655875305e-01,-4.239449697834518638e-02,9.955932625219847051e-03,-4.104777951968193068e-03,6.239986480814250711e-03,2.381060570478439331e-01
-2.957973182690710745e-01,-2.841622024940920754e-01,-3.222197749351651819e-02,3.035923925593582515e-03,4.858439170409873699e-03,1.791988128294775195e-03,2.581641077995300293e-01
-3.103336838357715899e-01,-3.133371213129537702e-01,-1.053800726499865004e-02,-1.270009394171461479e-04,5.450927225085767241e-03,5.236065586011298331e-03,3.015929758548736572e-01
-2.775253569150237798e-01,-2.744339204459261827e-01,-2.564092996812381009e-02,3.477120345710934049e-04,1.600583828048395734e-03,1.480144054055550695e-03,2.503822147846221924e-01
-2.771287885018137720e-01,-2.730666553185304712e-01,-3.222283414787230349e-02,3.507452371223699229e-03,2.355538107275967526e-03,2.862295743331072853e-03,2.430611401796340942e-01
-2.923991746078323795e-01,-2.892619165040803964e-01,-2.128410405198685740e-02,-1.437587055657396813e-03,4.737357576439376466e-03,-2.403289400388273177e-03,2.697286009788513184e-01
-3.175402463512767559e-01,-3.180896335928490304e-01,-4.917205937147450800e-03,2.723854659264725222e-03,6.336469370625654254e-04,3.290124395746027918e-04,3.129360973834991455e-01
-3.093450202224289902e-01,-3.058196491744992751e-01,8.863808299036657345e-05,-4.495841684477033199e-04,4.793484322483359227e-03,-3.878928176235718530e-03,3.078724145889282227e-01
-3.261413711865903675e-01,-3.204490935239940885e-01,-1.008379401494408079e-02,-1.707815499081811366e-03,5.618189626687997498e-03,-6.950881312672593446e-03,3.136464357376098633e-01
-5.443612665252447469e-01,-4.945207910251447347e-01,-1.822350165645207909e-01,-6.023435777801496027e-02,-8.657810936037789104e-03,-2.767545333018985379e-02,3.591352701187133789e-01
-3.548450864215083045e-01,-3.461781974666511830e-01,-1.016386190607801443e-01,6.346157643652291028e-03,-1.273530504393779149e-02,1.451041813687944200e-03,2.502155601978302002e-01
-3.344455801260121097e-01,-1.671610460380021090e-01,-1.460804960432221522e-02,-3.236761695772544245e-02,6.235823424822903999e-03,-1.829888979998465365e-02,2.846761047840118408e-01
-3.414725999006116286e-01,-3.380730998028090295e-01,-5.824820606245986743e-02,-1.931384780902588489e-04,3.364879279485900442e-04,1.082224111054079507e-02,2.821641564369201660e-01
-1.819570350216371535e-01,-2.677644550380208766e-01,-4.654676217139608330e-03,4.635125306243084026e-02,5.825233664329486361e-02,2.471940828161002524e-02,2.692050635814666748e-01
-1.416725627004680743e-01,-2.761606222832222457e-01,8.971556658887824831e-03,-9.564778000933521832e-03,3.615220322263021369e-02,2.748263436985401344e-03,2.554576098918914795e-01
-3.246424160758676902e-01,-3.225233189578625148e-01,-1.195291373561127579e-02,1.443244868753195895e-03,3.889105371216745616e-03,-2.968121754999780357e-03,3.117605745792388916e-01
-3.272914672757016308e-01,-3.163253921349719611e-01,-3.013368153121845361e-02,-2.605812771980327638e-02,1.575708127024359403e-02,-2.736698015874984916e-02,3.003217279911041260e-01
-2.908409954034915090e-01,-3.101883637339827304e-01,-1.240068611310993218e-02,7.702775300505258077e-04,1.063533334327215838e-03,-5.542158491896513259e-03,2.887693345546722412e-01
-2.902693166876515463e-01,-3.131633847550123195e-01,-1.018343618474773504e-02,1.979861139824494725e-03,5.094711229900334695e-04,4.336289455421368268e-03,2.923243045806884766e-01
-3.028590148578117480e-01,-3.188574150797492956e-01,-4.540370797312121010e-03,-9.439667417945617244e-04,6.259173639355476368e-03,4.832071651793433745e-03,3.069410920143127441e-01
-2.917143705883145088e-01,-3.199398662489272849e-01,-1.119707037120543092e-02,-8.587605348056672784e-04,2.660812490025597776e-02,1.304676966086367774e-02,3.000686764717102051e-01
-3.019155181925388121e-01,-3.114258706485033557e-01,-2.002357531419729497e-02,5.021195056720750491e-03,8.438482786060562749e-03,1.067440220281233934e-02,2.878636717796325684e-01
-3.231746719136714963e-01,-3.230106099561829702e-01,-2.045966495189457945e-02,-6.172157987614485149e-03,5.152879147051083950e-03,2.671222971765562122e-03,3.029885888099670410e-01
-2.749844813445406211e-01,-3.254562472885709212e-01,-1.927328957910354190e-02,2.756776055225222677e-03,1.504084411101712197e-02,5.563779602797674223e-03,2.857204079627990723e-01
-3.373101615372530726e-01,-4.468747354966374763e-01,-9.952630743951831893e-02,1.249692753434864245e-01,5.408627812697797826e-02,3.279353337554066078e-02,3.917300403118133545e-01
-2.293232990686399075e-01,-2.235838075025086691e-01,7.757118968790305269e-03,1.033718017408556955e-01,5.297467713330476433e-03,4.591468887988443826e-02,3.055244684219360352e-01
-2.540092164327297786e-01,-2.973195899541218878e-01,-6.439912418024662522e-03,5.456484491994212024e-03,1.236531136996795420e-02,1.048703342300487742e-02,2.734348475933074951e-01
-3.057296118582120692e-01,-3.643472993873507759e-01,-1.099687465075499526e-01,1.980584194245684632e-02,5.699345393049053132e-02,1.259233860541592379e-02,2.542256414890289307e-01
-3.126340467738194517e-01,-3.138672767240598960e-01,1.858319015067333435e-03,-1.129222608645433055e-04,3.063367083577071912e-03,1.345551584489810019e-03,3.151641488075256348e-01
-3.161004978974721880e-01,-3.174308131910602016e-01,1.378867641836117874e-03,-9.606586869910554907e-04,1.992460105151833138e-03,-4.604425372891076757e-05,3.181696832180023193e-01
-3.157578442805528129e-01,-3.201196859492483338e-01,7.518228369789436982e-04,-1.227855095303729020e-03,1.735183293193316148e-03,1.765316119344350483e-07,3.187342286109924316e-01
-3.186466454508206647e-01,-3.190737021190900302e-01,-2.024097190531259916e-03,-3.162035050564729593e-03,1.015012733121945995e-03,1.147738296425614016e-03,3.168947398662567139e-01
-3.205788099675148661e-01,-3.176201450224457323e-01,-7.115657362936816943e-03,-3.064206280861979815e-03,3.764842691621416836e-03,4.728352476163479208e-03,3.122150301933288574e-01
-2.987706085127941891e-01,-2.988797779578509783e-01,6.136921076030366073e-05,3.409905993199723387e-03,6.248561080330041796e-03,7.846049773011254738e-03,2.994492948055267334e-01
-3.356171162908050953e-01,-3.414233000222894332e-01,-1.037426098289515874e-01,-2.052424523795580598e-04,2.039049821018748022e-03,-8.843135732097119270e-03,2.353571951389312744e-01
-3.132910455138304684e-01,-3.156211926150241931e-01,2.939388099502532326e-03,-7.513467531430567756e-04,1.246577528320212029e-03,-9.503685512849843699e-05,3.174119889736175537e-01
-2.852112434746018610e-01,-2.790363380431202245e-01,-2.848020352786462261e-02,2.750129141072108884e-03,-4.754587609444668565e-03,-1.484269510925937926e-03,2.538912892341613770e-01
-2.952322472675066312e-01,-2.906795705903156835e-01,-2.608021775315230717e-02,1.325833937656239981e-03,6.650681038045946902e-03,3.319384244421580074e-03,2.672249972820281982e-01
-2.971399520091654312e-01,-2.296705813089524040e-01,-3.795453052711969533e-02,6.581526880828347630e-03,2.838521353798578641e-03,-3.100837514014877488e-04,2.332306355237960815e-01
-1.796245316418952354e-01,-1.530656013531110637e-01,2.384267579199661480e-02,1.182278936579323619e-01,4.450071805725028251e-03,1.643719938642719189e-03,2.805377542972564697e-01
-2.961981804922907968e-01,-2.373836304318912571e-01,-3.689216788546806347e-02,1.426655509013580007e-02,-4.979273253161479399e-04,-1.577147295326613739e-03,2.367838770151138306e-01
-3.176557563931433625e-01,-2.670256345266012743e-01,-1.526159348383554493e-02,3.867645748191224104e-03,1.846374243809468943e-03,1.342105969989951242e-02,2.815863192081451416e-01
-2.846215541865003695e-01,-2.674020222613267550e-01,-3.881746465710661509e-02,3.657003459787288354e-03,-1.883127927297952465e-03,-1.089071228141731467e-03,2.377768903970718384e-01
-2.780623072591360545e-01,-2.038234432382015071e-01,-1.548926339945908004e-02,2.878301836640593733e-02,2.891690511632008607e-03,2.118624132247639083e-02,2.425282001495361328e-01
-4.853459101579523649e-01,-4.693027935018508900e-01,-1.221482228375512791e-01,7.591753735340937836e-02,-4.501432575819803994e-02,-7.455583942213331317e-02,4.079070091247558594e-01
-3.181135357128589414e-01,-3.253873991778136743e-01,-8.642022340536373304e-02,8.611431401699885498e-04,-6.374567731470324019e-04,-5.108720150729956049e-03,2.355880886316299438e-01
-3.274373186430210581e-01,-3.170406431864747909e-01,-1.987620561773645322e-02,-2.550515697342855496e-03,7.226403241681798005e-04,3.624848576403019783e-04,3.025322854518890381e-01
-3.271055665887555586e-01,-3.333455188301681638e-01,-4.915255604187462879e-02,-1.398541681665786099e-04,-8.613610398790404188e-03,-1.883681065766073387e-02,2.834049165248870850e-01
-3.387599918244565966e-01,-3.257402318835157518e-01,-3.885547151896265317e-02,-2.590553847959018753e-03,2.983027564325529523e-03,1.582918078861426285e-03,2.937037646770477295e-01
-2.408020971989936754e-01,-4.078881939276839397e-01,-5.307904403425428574e-02,1.129607489210624621e-01,2.857761876375373988e-02,1.866755702103744738e-02,3.691875934600830078e-01
-3.393849220403523104e-01,-3.336773735701411003e-01,-5.996008401063782078e-02,-4.857127878272598023e-03,-9.120324885324316427e-03,-1.755015177321832525e-03,2.772102952003479004e-01
-3.339907840963149965e-01,-3.235716031547962723e-01,-5.758300857637990711e-02,-3.380658263805912372e-03,-9.556363358866287391e-03,1.825620197613501470e-05,2.719156742095947266e-01
-2.761113552392290282e-01,-3.082522163536927651e-01,-8.856807812457345719e-05,-2.222136898994780084e-03,1.414682094629040460e-02,-5.595555925806404733e-04,2.944645583629608154e-01
-2.161955898766419470e-01,-3.037892453800140613e-01,-3.771007329908959704e-02,2.465209356909109709e-02,2.030632543420307547e-03,-7.813547612270389233e-04,2.387494593858718872e-01
-3.299454760234179496e-01,-3.177693271429479771e-01,-1.302682738154928299e-02,-1.618245816811464529e-03,7.794897509237996673e-04,8.973251122454517894e-04,3.110288381576538086e-01
-3.158802104104192487e-01,-3.162193791415823796e-01,-9.956754944649842676e-03,-1.565633170080322741e-03,7.510823805841943326e-03,4.910922748405164087e-03,3.064995706081390381e-01
-2.712336434214180914e-01,-3.624948079224916131e-01,-2.444898963327668540e-02,1.215018263807946149e-02,4.541219796480065740e-02,2.637562316484518693e-03,3.136936128139495850e-01
-3.502598421571724852e-01,-3.598885111492770017e-01,-6.424257591225443487e-02,-6.884773306154075463e-03,9.367376641262414871e-03,6.269151799319252864e-03,2.918491065502166748e-01
-2.710201103176442250e-01,-3.074303098106954124e-01,-2.738488131932151348e-02,2.220841172463251453e-03,-7.923098749680102014e-04,-5.718134206136503417e-03,2.639496326446533203e-01
-2.515661160977902822e-01,-3.226656793235125331e-01,-3.526826077499453649e-02,8.559488187566903494e-02,-4.846411847927659805e-02,-3.800950617153752570e-02,3.171411752700805664e-01
-9.899461224108063728e-02,-2.986033817809644608e-01,4.871313481429689896e-03,6.367726270055340532e-02,1.044191542615663729e-02,2.187876042449697460e-03,2.896035015583038330e-01
-2.585336441928880458e-01,-3.006645442380144750e-01,-7.971836452221325864e-03,-1.092044471477372465e-03,-1.384672520820724208e-02,2.359705748928511032e-04,2.751210033893585205e-01
-2.449083261714147253e-01,-2.833162839336726968e-01,-1.696326408174378408e-02,5.128200124761142682e-03,-6.587589200017075416e-03,-1.166174922877743179e-02,2.506114542484283447e-01
-1.534658655420104156e-01,-4.341552171031243246e-01,2.986251880150336824e-03,-3.089840362103071086e-02,-2.014617208940488319e-02,-9.090332009711566633e-04,3.889247179031372070e-01
-2.594832584936008768e-01,-3.307445102577782903e-01,-2.347532414438521786e-02,-3.406052405113503545e-02,3.356762888906449083e-02,-2.012865681574920254e-02,2.926983833312988281e-01
-1.971794466985621330e-01,-2.042299865277532600e-01,-6.886164737331251784e-03,5.484107009789205428e-02,-2.240970925018080043e-03,-2.629971178393351785e-03,2.160124033689498901e-01
-3.112395860047380003e-01,-2.533863267781902850e-01,-1.131234167615183250e-02,-1.158646407917425470e-03,5.951850242388135453e-03,-1.549326790699771111e-02,2.770956754684448242e-01
-2.976942884375628484e-01,-3.010433816324766254e-01,-3.436720250596117521e-02,8.046274047728731518e-03,9.967674565804553535e-03,1.306244786232830558e-02,2.669053375720977783e-01
-2.905433616231444249e-01,-2.764302814629532867e-01,-9.995071305101049797e-03,6.294208793487915052e-03,1.040583144806103179e-02,7.353826894653081592e-03,2.748691439628601074e-01
-3.980009094372283229e-01,-2.681542649519646493e-01,-7.460523415425998617e-02,3.983799112063670517e-02,-8.366332090887003414e-03,3.353743710393891631e-02,2.963081598281860352e-01
-3.121700796687456037e-01,-2.637464327792811147e-01,-4.511195238912557581e-02,6.449300647814219800e-02,9.007916235609678829e-03,7.925687795171389508e-03,2.713722288608551025e-01
-2.951211219428821475e-01,-2.728158758686179963e-01,-1.027164558820276019e-02,2.721218480126060945e-03,1.091044038410556201e-02,7.021301318996550286e-03,2.753367722034454346e-01
-3.623679142479318549e-01,-1.427825991870822486e-01,4.315287656318694820e-03,1.416635174106548219e-02,-1.539680395223422867e-03,3.071334116973714959e-02,3.249540328979492188e-01
-3.718766858530885844e-01,-3.629373221297200192e-01,-2.832083035248658676e-02,2.162061052516285956e-02,2.475058484737153661e-02,3.740039250141054261e-02,3.499655127525329590e-01
-2.961902545146468113e-01,-2.670324269172043019e-01,-8.796620524089970861e-03,1.160490407592311424e-02,1.072945528912186246e-02,1.198667661937971411e-02,2.761266529560089111e-01
-3.014981983930637988e-01,-1.258372559569547744e-01,4.353339392734467683e-03,3.076031884573585812e-02,-4.552108521957193635e-03,-1.457800340335618609e-03,2.712616622447967529e-01
-2.823295576709711763e-01,-2.902119626539276798e-01,-3.944797353992962607e-02,5.217359853303266126e-03,4.386210757156528209e-03,4.909240806262921489e-03,2.473454475402832031e-01
-2.266105861515925191e-01,-2.759710120715181403e-01,-2.737029109283498074e-02,-7.281265362568560551e-03,-1.438084107265904989e-03,2.569536893891316304e-03,2.283698618412017822e-01
-2.805015148158723770e-01,-2.531705466791049353e-01,-3.737058180112914907e-02,-1.833936812416443393e-02,-1.345547104275508256e-03,7.202562694558455048e-04,2.328746765851974487e-01
-2.583969967782727695e-01,-3.707830917452561992e-01,-2.337102538419072451e-02,-1.330553025377760046e-01,-2.800289296752689686e-02,2.295759543719497892e-02,3.890067636966705322e-01
-2.674640751411584416e-01,-2.458263137244388885e-01,-2.604630517508252363e-02,-8.126926671402280589e-03,4.140589671886254174e-03,-3.096078588317219965e-03,2.319597452878952026e-01
-3.290247028518858974e-01,-3.176542806775479733e-01,-1.013470666683324861e-02,-2.040023068396774539e-03,-9.961991020062815894e-04,-1.040671117519730883e-03,3.133893907070159912e-01
-2.948757474117829069e-01,-3.049547725602603787e-01,5.873135843928456445e-04,-6.714157136264174751e-04,-6.644750354155732133e-03,4.924769534752008147e-03,3.009727001190185547e-01
-3.293588245773345080e-01,-3.201871647269725063e-01,-1.731102814557256009e-02,2.403620683535622610e-03,-4.621676999736687441e-03,2.235567061318988018e-03,3.077212274074554443e-01
-2.958420311535955860e-01,-1.644365137295884793e-01,-1.542083159540449944e-02,-1.821173213137732352e-02,9.288765940685758280e-04,4.195202280714729979e-04,2.450564950704574585e-01
-9.720144654933299266e-02,-2.633447717550966294e-01,-1.819013238476650807e-02,-5.760707434812795125e-02,-6.464815704171322785e-02,3.191476916231163891e-02,2.693011760711669922e-01
-3.439796837076229963e-01,-2.996003781150978762e-01,-2.615183323761252621e-02,-2.376421341814423372e-04,3.694112260821718220e-03,-1.549442051687999547e-02,2.994001209735870361e-01
-3.964856325993496577e-01,-3.985600984286131188e-01,-4.801534456942768703e-02,-1.249752137176431653e-02,-3.192370388456416963e-02,9.468628625661274292e-03,3.548994660377502441e-01
-3.007157540639286419e-01,-2.570288250066168900e-01,-4.033649900642813368e-02,2.698707365820090381e-02,-6.400722767501755908e-03,-4.731733136134781519e-03,2.463853061199188232e-01
-2.771099461059512992e-01,-2.639103750042052776e-01,-3.788540888934696649e-02,1.851892683373886940e-03,2.400692087935197162e-03,2.730117910581163969e-04,2.329651266336441040e-01
-2.824064854111514311e-01,-2.517377510723233791e-01,-2.286018839202710873e-02,4.765299319523615650e-03,1.006770080101499799e-02,5.622929571584052259e-03,2.466007918119430542e-01
-2.419315321212541503e-01,-2.693095009697308861e-01,-3.127658581836492702e-02,8.562240477666266392e-03,-1.559724227640199405e-03,-2.065308043671763329e-03,2.261247336864471436e-01
-2.162373739980546494e-01,-2.782948668754018362e-01,-1.977343379835538872e-02,2.016758630930729976e-02,-1.245244495699205332e-02,-8.280632535832489066e-03,2.377653568983078003e-01
-2.530764078310227538e-01,-2.798382347974457951e-01,-2.384843688511462112e-02,6.581205235021702314e-03,6.781114379948892205e-03,7.736170837932317829e-03,2.446296215057373047e-01
-2.356205177107829618e-01,-2.087480377850170210e-01,3.587831475262981407e-03,3.786397181514590538e-02,1.859962596835675053e-02,2.458673680065270178e-02,2.422128170728683472e-01
-2.965979726082841328e-01,-2.110652264783898224e-01,-1.986619464077077346e-02,-1.161129782172532106e-02,6.162454500262319786e-03,-1.914142450372829235e-02,2.486850917339324951e-01
-2.701144060496540322e-01,-2.918943868501804317e-01,-4.778427599429233008e-02,1.431980163564265315e-02,1.407651623514856280e-03,1.740414789198761704e-03,2.353244572877883911e-01
-3.081032401601893067e-01,-2.983322051838697697e-01,-4.857743997830066274e-04,1.257350556390436072e-03,-5.911191378780688774e-03,-6.198285374476946406e-03,3.032211363315582275e-01
-3.571900877068810987e-01,-2.099583426641173367e-01,-5.060419797100082495e-02,2.199878332008996587e-02,-1.079004913989561713e-02,-3.228143780907177102e-02,2.747004032135009766e-01
-3.253332391252843347e-01,-3.202895096923881191e-01,-5.490850184374090892e-03,1.038435588739254622e-02,8.709319081238313040e-03,2.984423627787585048e-02,3.223887383937835693e-01
-2.933205098387316467e-01,-2.223503353455456855e-01,-1.894895670781970853e-02,5.546386974299780982e-03,-6.486923854151570995e-03,-1.068977034965390600e-02,2.478016465902328491e-01
-3.009492430299628984e-01,-2.550018563878317934e-01,-5.991652357677429430e-03,-7.127376932190566429e-03,7.678528848880026604e-03,-1.532646070879825802e-02,2.767536640167236328e-01
-3.102650625681295793e-01,-2.963685747128785297e-01,-1.346317967070656541e-02,1.731716301280912659e-03,-6.551990521496753490e-03,-1.608190340260326218e-03,2.903541028499603271e-01
-3.182772051048779471e-01,-3.179613711158548184e-01,-1.480634825150212164e-02,-5.662074584124533912e-03,6.962291352583736305e-03,3.553635966962379825e-03,3.037734329700469971e-01
-3.294715524652946370e-01,-3.230414796522208531e-01,-3.029057493927653222e-02,3.468548898262191742e-03,1.131098907248460905e-03,2.067960556608084311e-04,2.960859835147857666e-01
-3.108176558818740443e-01,-3.245552696904413503e-01,-1.310433848974387749e-02,8.283272343043779958e-04,9.568970961692036328e-03,-3.871928712809024221e-04,3.052687644958496094e-01
-3.259713435753679445e-01,-3.221080283896576302e-01,-3.608690712327156103e-02,-4.188584557601153155e-03,-4.513628203980908984e-03,9.957806799524709929e-04,2.881748080253601074e-01
-3.416548154034300677e-01,-3.338897715472188832e-01,-6.499325290392315990e-02,-2.162771171436176417e-03,-8.595423561234298224e-03,-2.610370812621316469e-03,2.733308374881744385e-01
-3.135268729794232212e-01,-3.156168258029532492e-01,1.417210757812842337e-03,1.174358921553398175e-03,-8.583139449005386520e-04,5.323326999165042556e-04,3.160056471824645996e-01
-4.096198904069670577e-01,-1.497830426599882636e-01,-4.138625338224327654e-02,5.721329215444723171e-02,-1.118141403523346608e-02,9.532485413505049909e-03,3.433631956577301025e-01
-1.879741380412222052e-01,-3.092303577601741571e-01,-3.363504053460525389e-02,6.063400362875310569e-03,2.320090225927247743e-03,2.275025649309697553e-03,2.395415902137756348e-01
-2.806283802390610038e-01,-2.751052398759132878e-01,-3.412766146597806527e-02,2.571824841142524888e-03,4.349148986668746435e-03,2.095003827749101696e-03,2.439700961112976074e-01
-2.484802837892955418e-01,-2.695478573225983943e-01,-2.591724082802981943e-02,8.862584710894398643e-03,7.407354178370347680e-03,8.488548566085090535e-03,2.351242750883102417e-01
-2.629666030716975023e-01,-2.406982102522937650e-01,-3.429172901121263495e-02,4.217259843411420156e-02,-6.365243060585759095e-04,3.277143174282003048e-03,2.303581535816192627e-01
-2.908071342451047370e-01,-2.856471271865133055e-01,-3.123433546438353359e-02,2.360653032439440774e-03,-5.537801697850782768e-04,-1.211447216300631314e-03,2.570745050907135010e-01
-2.546121444726923699e-01,-3.127787833322703825e-01,-1.337230260234692492e-02,1.818058025105083811e-03,-1.661213888691349949e-02,-4.617613782309715718e-03,2.766114771366119385e-01
-1.641149279793254478e-01,-3.076743021658120414e-01,-2.665346968817500217e-02,1.754974432233838422e-02,6.875007739301115806e-03,-3.840385927455417566e-03,2.456600368022918701e-01
-2.755664097799645496e-01,-2.896376912082219146e-01,-4.737577550363941681e-02,1.579111263490629719e-02,1.336464816154026838e-03,-8.486435634584120350e-04,2.371402531862258911e-01
-3.161276556604146748e-01,-3.165340608209143980e-01,9.177408763355043853e-04,-1.481782347326680285e-03,-8.531563023011505716e-04,-1.064398376587684901e-03,3.172679841518402100e-01
-2.868636829507729691e-01,-3.570644782520033811e-01,-3.518157889566356222e-02,3.742129771874119076e-02,-3.292492582233691456e-02,-1.679658894454175502e-02,3.069851994514465332e-01
-3.184950616312060001e-01,-2.937940374038038871e-01,-1.047579255928149378e-02,-6.870614712394711512e-04,4.709811454934165046e-04,9.226040213313584917e-04,2.964494228363037109e-01
-3.349133759203947736e-01,-3.197187868203287819e-01,-2.961723596984169871e-02,2.404327247181378550e-04,-4.682463731246212443e-03,-2.176233211271143882e-04,2.981004118919372559e-01
-3.265788340790574118e-01,-3.183865296326611194e-01,-1.322047248652952200e-02,-2.063695998818848316e-03,2.029315592928192507e-03,9.941778303826906416e-03,3.098630309104919434e-01
-3.015113788894075997e-01,-2.205418525923156237e-01,-2.497930848707743956e-02,7.155916854540144388e-03,1.079013658952117198e-02,1.175087878546108959e-02,2.480978220701217651e-01
-3.006402069024825541e-01,-2.133560015947923993e-01,-2.326597168646979408e-02,2.347989591967507977e-02,1.111709240190158696e-02,8.477400061188460068e-03,2.501697242259979248e-01
-3.237653538733848979e-01,-3.260498019762274047e-01,-1.447931439729524539e-02,-1.631223391987362279e-03,1.395210873803303612e-03,2.602821223467961104e-03,3.104895651340484619e-01
-2.991024694192650490e-01,-3.026187343304820310e-01,-1.750662879439007780e-03,-6.436705521259281429e-04,2.995331642393948748e-03,-5.261219294750396104e-03,2.993112504482269287e-01
-3.083151950513011164e-01,-3.047311784711824734e-01,-9.768421779575847674e-03,-1.196063920626080934e-04,4.851504557857001451e-03,-3.031766357691273277e-03,2.969364523887634277e-01
-3.135136269183091962e-01,-3.151758539060680597e-01,2.670026542706260830e-03,5.969258477180351945e-04,1.722661014003190215e-03,-9.499525526677453640e-05,3.170337975025177002e-01
-3.147563340880055183e-01,-3.170201910482256524e-01,1.846467322796696564e-03,1.492204033531981675e-03,1.387213927703211981e-03,3.470464799578947142e-05,3.177603781223297119e-01
-3.165477187391282365e-01,-3.196792319079172495e-01,-1.044740209719924318e-03,2.036322805943800111e-03,1.014317179183812792e-03,4.660250006796092122e-04,3.171058297157287598e-01
-3.160715389980918166e-01,-3.189662418636585728e-01,-1.233970422402363987e-04,2.375862286432497798e-03,6.120086792705056603e-04,-2.755986035416359389e-04,3.174341917037963867e-01
-3.002290362608432961e-01,-2.546435567801366706e-01,-3.189283012198887435e-02,-2.292017760760651710e-02,6.670960733538648310e-03,-1.445258855507180681e-02,2.533500790596008301e-01
-3.056387701493115117e-01,-2.790654113495529831e-01,-1.918647228893635703e-02,-4.902654869730968014e-03,9.210978371852666588e-03,-1.296860432840801249e-02,2.756451666355133057e-01
-3.120236683564129865e-01,-3.111121179675467863e-01,-3.090526711295116247e-03,1.942552212773111580e-03,3.075019235174220392e-03,-3.913194451219223491e-03,3.086171448230743408e-01
-2.960068024687351751e-01,-2.496935692219018066e-01,-4.054565654290229193e-02,8.148977728530052214e-03,2.729355235812941263e-04,3.788317184906843122e-04,2.361650913953781128e-01
-3.200529397545866517e-01,-3.177490207208676365e-01,-1.080055074651284364e-02,-3.002803786632145776e-03,-2.677050611580854039e-04,-9.799761042218967620e-04,3.081558048725128174e-01
-3.187625853494093775e-01,-3.192799547559830309e-01,-1.166408416399439263e-02,3.404062805724512517e-03,-6.248454269388489454e-03,-1.417769571956161399e-02,3.085831403732299805e-01
-2.830757736537387048e-01,-3.161896680288368011e-01,-1.434418224103023443e-02,1.279586563383990939e-02,-1.763621693170163221e-02,-8.300491517714713233e-03,2.895564734935760498e-01
-2.892802473296545163e-01,-1.832262874046782231e-01,-2.862770276803416891e-02,3.014870469261662217e-02,8.761202469739313037e-04,-5.619545490582090672e-03,2.331691086292266846e-01
-3.266932841625763140e-01,-2.226890781019339183e-01,-2.908217331889378920e-02,9.356786097664175628e-02,-7.170657750181064390e-03,-4.419666192547701961e-02,3.173571527004241943e-01
-3.153016535566597889e-01,-2.603053562647160701e-01,-1.550988745546261205e-02,1.192708459489847696e-02,-1.051696605108646404e-02,-1.235804974320351898e-02,2.786198258399963379e-01
-3.166699398049292458e-01,-3.147089190581607299e-01,9.188789936522001600e-04,4.382454870963484747e-04,2.159376534231943528e-04,-1.109067673260912120e-03,3.166198134422302246e-01
-3.172633883696645007e-01,-3.160398230260674790e-01,1.093792127767945210e-03,4.384575364652386668e-04,2.160420383487873374e-04,-8.999460177562863426e-04,3.177521228790283203e-01
-3.171939627635428360e-01,-3.157480055921928486e-01,1.789503997557562176e-03,9.612796364657354717e-04,7.196112508234225706e-04,-9.196044788035834510e-04,3.182737231254577637e-01
-3.099392897772335065e-01,-3.104429560198213034e-01,-3.564863108971666472e-03,1.191702856156282150e-03,7.306390804517285537e-04,-2.757482069581942540e-03,3.066733181476593018e-01
-3.211426298247757605e-01,-3.228337277928089444e-01,-1.061429704206476310e-02,2.713288426187625019e-03,8.367518243172450063e-03,-7.658611895417852776e-03,3.120319545269012451e-01
-3.039596243467792558e-01,-3.010531450927314556e-01,5.801394099933243620e-04,-7.044405428109998951e-04,1.214171161273914362e-03,-3.233229069846455233e-03,3.031584620475769043e-01
-3.044073562067211025e-01,-2.990090570872788178e-01,-2.287935377199881715e-02,-5.775888585473770015e-03,1.056580366575519438e-02,-1.023022885844839490e-02,2.802076935768127441e-01
-3.217214629895998046e-01,-3.181594893343153707e-01,-2.959349388216570009e-03,2.233792081169426718e-03,4.448340622265683705e-04,-2.331572551918159250e-03,3.170464038848876953e-01
-3.282176768351136031e-01,-3.183049789456314227e-01,-1.110695422242341523e-02,1.368887436722146349e-03,-5.008123882207174242e-03,6.295165407842409286e-03,3.125920593738555908e-01
-3.031967832466790913e-01,-3.517949168004851357e-01,-6.106356872196258556e-02,-4.696911549547525683e-02,-5.415617280433489972e-02,8.268186481436394508e-02,3.296715617179870605e-01
-3.024788463643821590e-01,-3.579953551501086628e-01,-6.300671731802631736e-02,-5.284861061280833605e-02,-3.475336887696989230e-02,1.595660752387325840e-02,2.940914630889892578e-01
-3.930711236131362307e-01,-5.198327309484078729e-01,-9.784323525449525882e-02,8.128284153674397716e-02,-7.176716506251072658e-02,-1.590312184863788489e-02,4.203362762928009033e-01
-3.241619012272897171e-01,-3.205404856843706018e-01,-1.338861586291040240e-02,4.991404126720559893e-03,-4.119013722643505293e-03,1.514207430963840405e-03,3.091928660869598389e-01
-4.796397507490752776e-01,-3.139841794147384402e-01,-1.072497826451027092e-01,-7.829738326284103878e-02,-2.500593203871193798e-02,5.493670100100547099e-02,3.657171428203582764e-01
-3.294797463022667294e-01,-3.351772724703980244e-01,-3.649146762306881842e-02,5.330267984000300156e-03,-4.317224281880214414e-04,-6.498854952562580119e-03,2.962370812892913818e-01
-2.782083938899743147e-01,-2.777382585088437605e-01,-3.469944896500826159e-02,-7.883992722276313451e-04,2.751893637194173774e-03,-1.436529562086235820e-03,2.433374673128128052e-01
-2.817546881836513473e-01,-2.903221228182855107e-01,-1.418398468018416958e-02,-1.049220130677243346e-03,3.407580906155270508e-03,-6.616092751100728989e-03,2.722670137882232666e-01
-2.857240481796736731e-01,-2.917563844981707066e-01,-3.083892940564419982e-02,-2.311249796801790810e-03,1.516860834276243875e-03,-4.576120818767033700e-04,2.579998373985290527e-01
-2.891632205900452335e-01,-2.889292972460618669e-01,-2.029758742727760801e-02,-7.790196209243051804e-04,3.923994173989123549e-03,-2.015247267627685163e-03,2.688607275485992432e-01
-3.017485645539748074e-01,-3.059889669653791944e-01,-3.513856837884382633e-03,-3.503015219424563103e-03,-7.282633297305763503e-03,8.109521663251790038e-03,3.010311722755432129e-01
-2.805411365045397121e-01,-2.858504939720363236e-01,-2.791225687473261607e-02,-1.668039359868602432e-03,1.895434743561647678e-03,-5.096039950133949073e-03,2.555149197578430176e-01
-2.801217447592733722e-01,-2.621014814842480556e-01,-2.227553249860572682e-02,-4.773039393305804345e-03,6.459692118260088739e-03,-8.196355187416814276e-04,2.497168183326721191e-01
-3.140672340053426437e-01,-3.267895841161933546e-01,-3.824720935628017626e-02,-1.123663762082751944e-03,-1.548566625098592110e-04,5.835561564300987408e-04,2.824048697948455811e-01
-2.592394254110923502e-01,-1.776124456838971133e-01,1.200869000071752568e-02,6.580012163642050271e-02,2.654775913513703067e-02,4.336857302218524723e-02,2.807902395725250244e-01
-2.774062599871047197e-01,-2.055369455182182448e-01,-9.801625642244904402e-03,6.897076151199321714e-02,3.235391535743355196e-02,6.237131795923622074e-02,2.943240404129028320e-01
-3.402117208258985670e-01,-3.425463492389789755e-01,-9.938359106024866052e-02,6.737828657082256404e-04,-2.607200432696920017e-03,2.246911615271845065e-03,2.420801222324371338e-01
-3.203316952387701977e-01,-3.293377593642592971e-01,-5.230046569070825879e-02,2.286933590636316439e-03,1.716879897426507170e-03,6.492446694660200697e-03,2.729226052761077881e-01
-2.769937298939297854e-01,-2.689011504400797836e-01,-3.875675632148337102e-02,6.657643916696526221e-02,7.066877885581847492e-03,1.819485359903965510e-02,2.633147239685058594e-01
-2.942055914946418160e-01,-2.988579572074802626e-01,-4.523993489875918761e-02,3.494543969381806725e-02,-2.483489259718625608e-02,-2.606085150373332882e-02,2.659232914447784424e-01
-4.597079027884694025e-01,-4.967482334350861728e-01,-1.287134030721573952e-01,5.141185258660262158e-02,-1.853962757295997410e-02,-4.709070888908067909e-02,3.725624680519104004e-01
-3.230515017815399625e-01,-3.248582276874582009e-01,-6.556615783153707522e-02,-4.293251567986437062e-03,3.111332032550076423e-03,-1.524024447291438822e-03,2.585700750350952148e-01
-3.641160165590150433e-01,-3.603725932671207888e-01,-7.345589628281584682e-02,4.921004825478598327e-03,-1.343420522154744126e-02,2.460609602008368563e-02,2.929841578006744385e-01
-2.647901469359406068e-01,-7.290593671281347943e-02,1.813641380934040426e-02,-4.855720976865651045e-02,5.936321540810501896e-03,-2.044565032644519303e-02,2.664789855480194092e-01
-3.222253331436859547e-01,-3.288739611780380767e-01,-1.440762766136788331e-02,7.651881621643367342e-04,6.452617380500154723e-03,1.253785344362438403e-03,3.114063143730163574e-01
-3.199410364018530073e-01,-3.288071573405996206e-01,-5.180430469494706758e-02,3.436650191359322780e-03,1.917143322371204876e-03,7.135310830843706945e-03,2.730429470539093018e-01
-3.154423264627685963e-01,-3.173691068676406379e-01,-5.350415906846087144e-02,1.973228937126778569e-03,2.109998008248541201e-04,1.436255588502339522e-03,2.629410922527313232e-01
-2.782535665327142693e-01,-2.999708306761357246e-01,-4.557635435400927970e-02,4.892962497259111671e-02,5.856891477030758131e-02,6.714801718160635924e-02,3.011034429073333740e-01
-4.622838082792134484e-01,-6.086322256057995483e-01,-1.761384015943963099e-01,5.679546199656179684e-02,7.251027861946032771e-02,1.529851724042297252e-02,4.139160513877868652e-01
-1.574583365536595947e-01,-2.600341541944988788e-01,5.097608257274871546e-03,2.722613833620134496e-02,5.673900510970440736e-02,2.273698925943757124e-02,2.589462995529174805e-01
-3.289029451890028710e-01,-3.263236697084976878e-01,-1.780138481610982204e-02,4.722801727850509134e-04,4.635795692189237198e-03,1.133547474927876220e-02,3.105463385581970215e-01
-3.369268295577109718e-01,-3.242115005366985603e-01,-4.149704903451936766e-02,2.082431872168011028e-03,2.042449430312652265e-03,2.005994223698274407e-03,2.893467545509338379e-01
-3.254282988224209139e-01,-3.304990004961654848e-01,-8.403088675843004007e-02,-3.371934070331310263e-03,1.273266507638501225e-03,-6.249553561768143861e-03,2.442920804023742676e-01
-4.081834964581707581e-01,-4.083321809941905522e-01,-1.366294957274837851e-01,1.882134053790730094e-02,1.038030213343572872e-02,-1.985239889904816604e-02,2.763155996799468994e-01
-4.770357941328691176e-01,-4.197554754737218285e-01,-1.216628695928740345e-01,6.522110597386285291e-02,-3.454675736741852354e-02,-2.924536996006009068e-02,3.579424023628234863e-01
-3.799752924838033508e-01,-3.158788154568140105e-01,-9.254753667020551577e-02,-2.100834470755634856e-02,3.531863363579918445e-03,-7.603126682065439179e-02,2.949638962745666504e-01
-3.456101353057614012e-01,-3.419923542542913086e-01,-8.395578937397824015e-02,-1.136420230106762819e-03,7.632481596066541599e-03,3.168127606783732817e-03,2.602656781673431396e-01
-3.252243114308521754e-01,-1.878624339256725062e-01,-2.715126461984079809e-02,-5.287929004482232534e-03,6.245253494530669976e-03,-1.634676170556060085e-02,2.603353559970855713e-01
-3.374140665523229776e-01,-3.411286337887305953e-01,-1.222043075252216560e-01,7.369263453859383264e-04,3.237844957274908352e-03,7.298518735305218122e-03,2.175346761941909790e-01
-3.576298722279452336e-01,-2.895624315558911199e-01,-6.557168072141941750e-02,1.773162431963181199e-02,-5.417267904481755381e-02,-5.533937314919686046e-02,2.983054220676422119e-01
-2.140887652301998734e-01,-9.861711780611731593e-02,7.107227329926130155e-02,9.506275340025024945e-02,-2.777301717331701406e-02,-6.508747792770781804e-03,3.021165430545806885e-01
-2.624297516206262060e-01,-3.312655514947780988e-01,-5.981927670480299830e-02,-3.786093582977568400e-02,2.952797269442342457e-02,-1.211055157168139905e-02,2.590217590332031250e-01
-3.197978697865789810e-01,-3.144771381283965050e-01,-9.043768562121606847e-03,1.276852392786137361e-03,3.423109515784345924e-03,-2.536207441176705586e-04,3.081934750080108643e-01
-3.240348342438486018e-01,-2.942650287600149239e-01,-1.643367703977019478e-02,-6.700082336088780503e-03,6.778797131224620180e-03,-1.660187629455669306e-02,2.957141995429992676e-01
-2.847629774086127274e-01,-3.038741906819620309e-01,-9.110251099285010534e-03,2.000205985530635036e-04,1.815388027841126567e-03,1.039327662089778101e-02,2.862722277641296387e-01
-2.950691157981078505e-01,-3.081298845150498567e-01,-2.663382914442069538e-03,-8.900691861882872868e-04,-7.610543778571797306e-03,6.843128360494631079e-03,2.996787726879119873e-01
-2.080044636004783620e-01,-3.009711733061338212e-01,-3.567180995268734445e-02,-9.400943668169403633e-03,-2.184701838289684027e-03,1.877488620254992189e-03,2.337789088487625122e-01
-3.177048020469359080e-01,-3.137594450678191094e-01,-2.710856778613546236e-03,8.748150321521867617e-04,-2.576517257257436230e-03,3.101234002523190446e-03,3.131214678287506104e-01
-3.096746669926296880e-01,-3.190406386679881523e-01,-1.294524878965402914e-02,-4.409616946284066613e-03,-4.024853248066678421e-03,1.008918405956134648e-02,3.022044599056243896e-01
-3.350594961588511111e-01,-3.273041578819999020e-01,-5.169308580869688696e-02,4.843599968572502232e-03,8.067847925735538092e-03,-4.416755339634431329e-03,2.801485955715179443e-01
-1.090486186492408277e-01,-2.855226840375453268e-01,1.433141093358436535e-02,4.070856401743894182e-02,-2.444440624797314995e-03,-4.189637630624861754e-03,2.705203294754028320e-01
-3.245809066960826939e-01,-3.152644957964762518e-01,-6.591082438775597296e-03,-1.626959172311465097e-03,1.834787157415102054e-03,-2.905252446074977507e-04,3.134646713733673096e-01
-3.389472955869581861e-01,-3.328398005644186974e-01,-5.474662731479698619e-02,3.958150438781922811e-03,8.540735914684394886e-03,-2.482351855482632912e-03,2.817017734050750732e-01
-2.436112866630854856e-01,-2.986475488299134562e-01,-1.920130083025245460e-03,2.142823382425193893e-02,-1.854354249419684630e-02,-1.104478041077207318e-02,2.784249186515808105e-01
-2.966758204732101167e-01,-2.934766896751147547e-01,2.933280559359596751e-04,-2.320748346148190488e-03,-5.456390381310016746e-03,4.316795444006610999e-03,2.956556081771850586e-01
-3.237043277650570872e-01,-2.738354608951919511e-01,-4.329640715919727545e-02,-9.359905736745409432e-02,4.266125900359486051e-02,-4.286948882392330878e-02,3.230906426906585693e-01
-2.852682235042827696e-01,-2.457502281308463488e-01,-3.733874935101300085e-02,-5.138614655606455958e-03,2.668600103058490700e-03,-4.583520215810403590e-05,2.309406995773315430e-01
-2.729009603325546207e-01,-3.183046191437148842e-01,-3.008597503133836337e-02,-1.805855569797243723e-02,3.394277984890697875e-02,-5.556958085448883942e-03,2.767175734043121338e-01
-2.794100112642929346e-01,-2.662118543263679582e-01,-3.490757509226641297e-02,-3.018912884414336889e-02,1.542048883104543168e-02,-1.244771752566266147e-02,2.462539672851562500e-01
-2.459743887216606362e-01,-1.969991053059387265e-01,-1.136408748936082458e-02,-6.111669251175612383e-02,3.080600277392002775e-02,-3.446256433349410148e-02,2.521234750747680664e-01
-3.043019617916007391e-01,-2.715968176908057363e-01,-1.952776418403717740e-02,-2.248044419428003524e-02,1.240444753966655003e-02,-1.503031065710078336e-02,2.747868895530700684e-01
-2.579323702039536537e-01,-1.844452010019315136e-01,-5.173410588254961917e-03,-4.063865287256905601e-02,2.449886517286335719e-02,-3.884896774630294813e-02,2.489894032478332520e-01
-2.781659397542386447e-01,-2.811705790179973574e-01,-3.262752771845903177e-02,-7.549145689204851684e-02,1.915638672986843052e-02,-3.567288618071814271e-02,2.881862819194793701e-01
-2.962970637049527345e-01,-2.983402267778446082e-01,-1.536560243992191044e-02,-2.377887434776703758e-03,-7.168167599752449555e-03,6.862921023941949243e-03,2.825120389461517334e-01
-3.260583633672107795e-01,-3.258421583083919160e-01,-2.177073380823069115e-02,-5.418775877908861734e-03,-7.047921314744260562e-04,1.843964111695158134e-03,3.043435513973236084e-01
-3.209431834078072532e-01,-3.214601810853842667e-01,-1.071852876909148988e-02,-1.880115236395015670e-03,1.151256390239413160e-02,1.517596901705522798e-02,3.122485280036926270e-01
-2.980034821758157371e-01,-2.314678531046530097e-01,-8.976609554538106384e-03,-1.839599644124669670e-02,-6.535715385410797128e-03,3.695334524200933300e-03,2.644187808036804199e-01
-3.778670100823913192e-01,-3.065823778023689106e-01,-7.872245944746605884e-02,9.826490667347961838e-02,5.466238316670636588e-02,4.148769251440078548e-02,3.410867154598236084e-01
-3.114019557932448112e-01,-3.197364904440876954e-01,1.019122335862765460e-03,3.115847709436582545e-03,-3.894469056776815683e-03,-6.111039610208423255e-03,3.169651925563812256e-01
-3.181197188769314677e-01,-3.283871130092601009e-01,-2.249155999032753650e-02,-2.947678049220395138e-03,-3.964236348428045961e-04,-3.421451739171695906e-03,3.009957075119018555e-01
-3.672738895885697130e-01,-3.579442038424380801e-01,-6.853754506639725408e-02,8.684653105329875541e-03,3.650536053275903561e-04,5.850912547396241829e-03,2.947417497634887695e-01
-3.507699766196835101e-01,-3.712784260002237602e-01,-3.968437785224879222e-02,1.914364662851557666e-02,1.767792659613712236e-02,4.434865735549782181e-03,3.250702917575836182e-01
-3.710666112479585887e-01,-3.743878602953387702e-01,-7.895583464988006894e-02,7.746966329602399115e-02,2.359169878604734649e-02,9.059344683273927445e-02,3.613942265510559082e-01
-3.452674623803927423e-01,-3.464563301742455970e-01,-3.488799303894823955e-02,-4.903770639542026112e-03,9.863495786145792463e-03,3.582961583008047179e-03,3.116221129894256592e-01
-2.321207090712083254e-01,-2.829336681544118437e-01,-2.443851186192194658e-02,-6.197223746373944908e-02,-2.657362457539748021e-02,4.988030061230878942e-02,2.781565785408020020e-01
-3.292784662160595510e-01,-3.213541260351679973e-01,-2.996242805814641752e-02,-5.117161013391349073e-03,1.009542770000745394e-04,1.327593237219212982e-03,2.955754995346069336e-01
-3.128326293008922288e-01,-3.089711172443869169e-01,-1.410627981215606397e-03,7.370620715254905253e-04,1.002565578763809631e-03,-7.691306483388189686e-04,3.095196783542633057e-01
-4.602779187721333098e-01,-5.164536942420470123e-01,-1.293689358502760900e-01,4.369226157049820036e-02,-5.500097252377256218e-02,1.546000548893719344e-02,3.830991387367248535e-01
-3.201406965012278949e-01,-3.640119629376187271e-01,-7.010300133014080171e-02,-1.115213509140945648e-03,-4.160849377442174535e-02,1.601922674424405280e-02,2.852724790573120117e-01
-3.211391408601942388e-01,-2.076461971758014335e-01,-3.795006200961173470e-02,-1.066747807654760613e-02,4.522746260825826446e-03,-7.322833480641650558e-03,2.479926645755767822e-01
-3.665656777418049850e-01,-4.007685299415831848e-01,-9.644892642101737801e-02,-9.683688695706113569e-02,-2.720134550580286664e-02,5.647750397189243987e-02,3.511305749416351318e-01
-1.506286038417633810e-01,-3.663083409613139829e-01,-2.452605787919148739e-02,-2.957660546758924050e-02,-9.885618084326465438e-02,4.738518705514829787e-02,3.581834733486175537e-01
-3.132924061285592421e-01,-3.149149559698840584e-01,-2.246744459601185406e-03,-9.579122330572178382e-04,4.477632468239254281e-03,-3.410073755560885433e-05,3.119609355926513672e-01
-3.185003610198940960e-01,-3.292031974376411485e-01,-6.120503578508712517e-03,-2.134922164581049345e-03,2.453928263697456418e-03,1.116491860810234563e-03,3.179222345352172852e-01
-3.341389537311223457e-01,-3.445774577758731194e-01,-6.824691060125975817e-02,1.310161644356948665e-03,2.268165069677898372e-03,-1.024575646285615094e-02,2.718797028064727783e-01
-3.202769864426804336e-01,-3.010216922969112252e-01,-1.020452305349361932e-02,1.245612418322600626e-02,1.901512311467029245e-02,1.802131548697783608e-02,3.050732016563415527e-01
-3.163515572717844893e-01,-3.233280135398651778e-01,-5.493393718646322199e-03,-1.697602054348971491e-04,6.608810363982852007e-04,-2.967520527048410090e-03,3.144486844539642334e-01
-3.153566181483990483e-01,-3.284800484536766207e-01,-9.164045734515124941e-03,-5.123802137523624867e-04,-5.109371308613479121e-05,9.088152790849032912e-04,3.129659593105316162e-01
-3.148101350830379008e-01,-3.280275270591315184e-01,-6.414705030810818887e-03,-4.523696676331897724e-04,-4.675907650590176981e-04,-3.049542849407113265e-05,3.152140378952026367e-01
-3.124870917602982079e-01,-3.214345411329704860e-01,-3.720475407115453326e-03,-8.975191758043772649e-05,-4.566086155548679314e-04,-2.953685797211759445e-03,3.133789598941802979e-01
-3.161217794625255095e-01,-3.258903952453051645e-01,-5.002665370476222506e-03,-1.226662258570011431e-03,-6.187941905126079526e-04,3.114611246297062727e-05,3.161256015300750732e-01
-3.293245775995776725e-01,-3.389021849189929880e-01,-5.357672366893861948e-02,2.428942073288316728e-03,-3.846816951837964214e-03,3.750148512877196356e-04,2.807705998420715332e-01
-3.099091178304193561e-01,-3.242257822982750892e-01,-9.028124419638627884e-03,2.459165538578523495e-03,-9.603951534423107875e-04,-8.486928854143269921e-04,3.083261549472808838e-01
-3.153947176862837432e-01,-3.271482901659292231e-01,-6.329622445049226664e-03,-4.155702934982380089e-04,-5.677612493181683926e-04,7.918456928576877323e-05,3.151087164878845215e-01
-3.002561998170369395e-01,-2.332061234864230559e-01,-3.132176836994243763e-02,-2.951869909380161212e-03,5.338045575236823916e-03,-1.039732846559721612e-02,2.433625012636184692e-01
-3.119059531248793982e-01,-3.007185626748864471e-01,-5.580657676260758482e-03,-8.680165619519968631e-04,-1.787002837245042167e-03,-4.339881360764203527e-03,3.010011613368988037e-01
-3.558015818041501688e-01,-3.630301430396913331e-01,-2.780500033051738762e-02,-1.765752624410295984e-02,1.965103159742562222e-02,-2.172195430456026408e-02,3.369188904762268066e-01
-3.070704330200573207e-01,-2.992998015750716334e-01,-2.506964782918222334e-02,-3.594146404756660279e-02,4.714312452468381875e-02,-3.660855561854500090e-02,3.032438755035400391e-01
-3.378045910728328938e-01,-2.978043027454289615e-01,-2.387052715942206138e-02,-4.699726664346786883e-04,-1.834029222791522685e-03,-1.618621069288028042e-02,2.973111271858215332e-01
-3.144256887562621450e-01,-2.955441470531921522e-01,-1.316473642465465499e-02,-9.995631496511187247e-04,8.431575888890339987e-03,-1.017333635541879796e-03,2.926529943943023682e-01
-2.810735999036288457e-01,-2.664482273866007334e-01,-3.567961070584343974e-02,1.465487673660400940e-02,3.827089957117427513e-03,5.493666099650318727e-03,2.400456368923187256e-01
-2.401831185717050454e-01,-2.831923104435392080e-01,-3.425384934190087161e-02,5.984100785092294136e-03,-2.086740257248095724e-04,2.268549879752879183e-04,2.306972444057464600e-01
-1.415271628029607931e-01,-2.018353774080529905e-01,3.047432971469213325e-02,8.763899909390859833e-02,-2.962206698895657880e-02,-2.715281202569604785e-02,2.673587501049041748e-01
-3.107549349652556359e-01,-3.103854848074716899e-01,-2.242742221989085794e-03,-5.781563380858498148e-04,2.537526499830182469e-03,3.957543741768195476e-03,3.084367513656616211e-01
-3.596381959817777085e-01,-4.157835760063922637e-01,-8.732538095492792252e-02,1.063271740852321928e-01,4.760716942904723303e-02,5.873099887065964114e-02,3.790242671966552734e-01
-3.220725264063175608e-01,-3.108728439737717952e-01,-1.419790277197402473e-02,8.752090445450607520e-03,7.155027662048364483e-03,1.910522691461884193e-02,3.048647642135620117e-01
-2.935508390913128540e-01,-2.949685392806550288e-01,2.646831729319343296e-03,2.291138343222502791e-03,5.827869717998451771e-03,8.106091642899576621e-03,2.974386513233184814e-01
-3.380759436973830301e-01,-3.400786131827508996e-01,-2.281489182031334884e-02,-8.258837804440205196e-03,6.365968174477678460e-03,4.088083468982935120e-03,3.168615400791168213e-01
-3.209480455043872693e-01,-3.299942511710052262e-01,-7.068418553577315855e-03,-3.962413395348681443e-03,1.873289455364933465e-03,2.297693655188746910e-04,3.185898065567016602e-01
-3.296719675058517596e-01,-2.491584031258747001e-01,-2.083976524665870356e-02,1.120294384282873555e-02,1.680715721808738461e-02,3.387462309561673629e-02,2.857639193534851074e-01
-1.262989451218999581e-01,-1.865240910348326675e-01,5.032574953550583707e-02,-8.921102095594715675e-02,6.608653491548994140e-03,-1.392099932604486980e-02,2.646673917770385742e-01
-3.432644427920937824e-01,-3.481596002765310338e-01,-5.025984701305591384e-02,-2.105205617123297526e-02,-2.124997208759531533e-02,7.063782142721517117e-03,3.002397418022155762e-01
-1.780156892866548157e-01,-3.359341672954191393e-01,-7.060584549944182164e-03,-2.578365017703606113e-02,-5.159063063888631034e-02,2.077363615640333977e-02,3.040306866168975830e-01
-3.184516675796252860e-01,-3.199370400933208014e-01,-4.832431209609891476e-02,-1.913980505561509534e-05,-3.785375548347628700e-03,-4.892014273173149116e-03,2.710849046707153320e-01
-3.145411033215784746e-01,-2.123614200160474641e-01,-3.349375650470567956e-02,-5.679919091956275347e-03,2.279724227283010888e-03,-1.122530301181608875e-02,2.473891079425811768e-01
-3.039440308119982781e-01,-3.375384101746785603e-01,-2.383655625607508655e-02,2.342894258350510569e-03,-1.536091089294674798e-02,8.940042357597939582e-04,2.995422482490539551e-01
-3.167986847233803527e-01,-3.207438038219387333e-01,-2.558916365229119139e-03,1.841265962392572668e-03,-3.114828207053238311e-03,1.881700266707959576e-03,3.163096606731414795e-01
-3.229908854132745311e-01,-3.229436152988676145e-01,-3.680959879265216506e-02,-4.613274826726134620e-02,-2.092233135960315862e-02,3.812372321406373027e-02,3.065034747123718262e-01
-3.001837495442485904e-01,-3.031872023483723755e-01,-8.996425433029281438e-03,-2.341671394146219599e-03,-4.553376651282693179e-03,5.792892724736506058e-03,2.930067777633666992e-01
-2.626206568416894482e-01,-3.057480404517858297e-01,-4.463061111218005750e-02,-6.387525313418192241e-02,-1.221586027764645296e-02,1.867321185153767577e-02,2.692858278751373291e-01
-1.750945214922248194e-01,-3.531075647534635542e-01,-3.155078166349392643e-02,-2.952162313220290171e-02,-8.791384535185393576e-03,-6.288798988597521511e-03,2.842731177806854248e-01
-2.832726126939936195e-01,-3.031992205463214241e-01,-1.664855992709121657e-02,2.899657966713202690e-04,-5.594046549443320790e-03,1.204557719698512094e-02,2.780787348747253418e-01
-2.926180002509675138e-01,-2.980093946147394646e-01,8.694830032227041094e-05,-3.539398628723871600e-03,-9.448003176850567134e-03,1.041445279736920825e-02,2.965031266212463379e-01
-3.086551681693540106e-01,-2.091143982971731263e-01,-3.714528938707023498e-02,-2.921358309404455383e-03,5.792544856919883307e-03,5.338899093868211196e-04,2.381738722324371338e-01
-3.237984633591361461e-01,-3.166021936585351471e-01,-3.758330044444119222e-03,-6.639010419353735207e-04,-4.395899123754415231e-04,-1.028233549710266381e-03,3.165113627910614014e-01
-3.152344807532243554e-01,-3.144113488523292421e-01,-6.837848838440796495e-03,5.555060659082992078e-04,-5.803157862121665483e-03,6.415944645238818135e-05,3.081513941287994385e-01
-3.204281927605795999e-01,-3.157498022707921348e-01,-9.979554385021460750e-04,-1.101223021580031948e-03,-7.404661080710013207e-05,-2.013409337535404867e-03,3.171418607234954834e-01
-3.285972651567199976e-01,-3.183429022624696958e-01,-5.509113179138325211e-03,-1.469954766381857810e-03,-5.577821367013278226e-04,-9.940114113878855025e-04,3.181012868881225586e-01
-3.115359217999980057e-01,-3.090779071034686076e-01,-1.731607986572478164e-02,2.390883149833734900e-02,-2.270578843774212138e-02,-3.813032931055469754e-02,3.057310581207275391e-01
-3.207201236717340809e-01,-3.297392014935358051e-01,-2.420573579811660658e-02,2.806829929570645553e-03,-1.788318538117844938e-04,-2.801712388702842955e-03,3.012037277221679688e-01
-3.204809145739426768e-01,-3.210603624939722400e-01,-8.118100303730724221e-03,4.236835659276559987e-03,-1.701042113502476780e-03,2.123289244135017370e-04,3.127531409263610840e-01
-3.281914603681934661e-01,-3.194770132923857586e-01,-1.561348640433010693e-02,4.748235777954741381e-03,2.082053067916414188e-03,1.452230432473761330e-03,3.084541261196136475e-01
-3.196248329076047945e-01,-3.289761074065276625e-01,-2.358947762246596525e-02,3.362632329612917637e-03,-3.802909731503239751e-04,-3.113893350029341839e-03,3.009254634380340576e-01
-3.084455524983116814e-01,-2.947508774203099202e-01,-4.131189774841947937e-03,-4.593526408554518027e-03,-4.755115458473437896e-03,6.201789962277545927e-03,2.981171011924743652e-01
-3.156166414212092652e-01,-3.187023202776980146e-01,-2.401337867765390710e-03,1.727007120532109922e-03,-5.093046262391471776e-03,-2.620454054152443197e-04,3.149076104164123535e-01
-1.936666545990538835e-01,-3.147068998817407759e-01,-9.458136907337683086e-03,-1.499250989776350872e-02,5.326575564921706002e-02,-2.013640628328650789e-02,2.851010859012603760e-01
-3.471859426892236478e-01,-3.469950266631263713e-01,-2.472137285565306764e-02,-1.693626163016436273e-02,1.897608166902255145e-02,-2.357929224494316120e-02,3.279185891151428223e-01
-3.231814488588838907e-01,-3.181004877505111406e-01,-8.482554607972814242e-03,3.757809489826145332e-03,1.568972480701564566e-03,-4.737127227882320483e-03,3.123768568038940430e-01
-3.723676212608028613e-01,-3.949374949947122015e-01,-5.377455480070714167e-02,5.483294866648039459e-03,1.247201912430225511e-02,-1.131346861268627549e-04,3.312981128692626953e-01
-3.383930381302011625e-01,-3.361325456183801297e-01,-2.892095129432525891e-02,1.426880372640152838e-03,4.036076320848779389e-03,-1.361051988436783869e-03,3.084461987018585205e-01
-3.260519909920410186e-01,-3.258216705736129981e-01,-2.687195395633007466e-02,5.549019193732238238e-03,-5.104689241107338883e-03,5.846192073244224109e-03,2.995211482048034668e-01
-3.217512000157821128e-01,-3.259741164700307725e-01,-1.831711375070818604e-02,5.086695597388347576e-03,-1.841636843787635477e-03,-2.104199356086205400e-03,3.057327866554260254e-01
-3.393740715249498607e-01,-3.269053715738660659e-01,-2.857659481327048945e-02,-2.101498739946386970e-03,-4.143442435914935010e-03,1.911634055478054063e-04,3.048608899116516113e-01
-3.130638781737670739e-01,-3.236610415754612724e-01,-7.384037727125647432e-03,1.361474261315854259e-03,4.237267042927238443e-03,4.030232447985558283e-03,3.112875819206237793e-01
-2.928359857010165435e-01,-3.137950362287907913e-01,-6.472542275292758607e-03,1.834800007018452112e-02,2.150644883704319610e-02,8.177012316834731190e-03,3.017338812351226807e-01
-2.486931900717025412e-01,-3.095667071455733277e-01,-2.217819810473212194e-02,8.563387711738940783e-03,-1.598398990677783738e-03,-6.681103528643228887e-03,2.629923224449157715e-01
-3.227273400466604825e-01,-3.184357927179945480e-01,-6.721947835215236200e-03,-2.989599054378849850e-03,8.929047797957261751e-04,2.239971156217579994e-03,3.139521181583404541e-01
-3.258370945032241783e-01,-3.225489374262432429e-01,-1.923337440879221982e-02,-4.339444562015986294e-03,2.571008607369294676e-03,3.519846581000761259e-04,3.050986528396606445e-01
-3.290783727912419687e-01,-3.240367285737198455e-01,-4.049967002447527054e-02,-5.182929797412352477e-03,-4.961877729945601313e-03,8.408160952833045564e-04,2.863647043704986572e-01
-2.354945659249841894e-01,-3.135148052210600111e-01,-2.504232681962087481e-02,-3.691057779961256797e-03,-3.581040561604593520e-04,2.017872085122427751e-03,2.585542798042297363e-01
-2.389379577890364259e-01,-2.874443642042605607e-01,-2.536668112836093503e-03,-1.632995391512734708e-03,-1.651586315066569041e-02,1.374059636921208874e-03,2.655887901782989502e-01
-2.973481663411610132e-01,-3.185286686207652318e-01,-1.594093211159802737e-02,-2.024872870716100555e-04,-1.175462092818801638e-03,5.515838375547759895e-03,2.927362918853759766e-01
-2.434754998219057498e-01,-3.173095253238632507e-01,-2.887778615475974919e-02,3.611556124967611487e-03,-1.333073683166320633e-02,-9.718435942459526314e-03,2.611586749553680420e-01
-1.513751015331753769e-01,-3.352842892061872471e-01,-1.891322557249169867e-02,5.661292003168671115e-04,-3.227919787113414651e-02,-1.632038305131870357e-02,2.822331786155700684e-01
-2.576099790072992612e-01,-2.918052160437160092e-01,-2.495413471359028690e-02,-5.939801111956543624e-03,-8.488412942087327287e-03,1.205618607185580948e-02,2.530055940151214600e-01
-2.993764695207130622e-01,-3.202110073680047297e-01,-1.639133732879780037e-02,-6.743528741594132826e-04,-1.700374235135461778e-02,2.117459788777342408e-03,2.954534292221069336e-01
-4.786315169256499108e-02,-2.572501540852339397e-01,2.795324633418826143e-02,7.963580100671220977e-03,-1.121393013972507742e-02,-2.027753955675549741e-03,2.569938898086547852e-01
-3.228685332059936242e-01,-3.190144670595155274e-01,-7.945925937090952962e-03,5.007763011228427838e-04,-8.490425186298835528e-04,5.200150449371773904e-03,3.131475746631622314e-01
-4.188273463218328274e-01,-5.160337059804382953e-01,-6.193129951241693743e-02,-5.627829522835647164e-02,-7.390607883162965408e-02,3.389183361202269262e-02,4.481634199619293213e-01
-2.603615093500242228e-01,-3.170441706194405684e-01,-3.462144171932524106e-02,-9.660430257768307799e-03,-2.236523754246685577e-02,8.828572328878438180e-03,2.626432180404663086e-01
-2.745830532394825108e-01,-1.822098944468646398e-01,-1.280988622751105810e-02,4.145416580297719977e-02,4.437846575304492391e-02,7.073204745167641083e-02,2.809803187847137451e-01
-3.865142560970315500e-01,-3.676257456624285602e-01,-3.359529698552221610e-02,2.721793159482999505e-02,3.149289376537860174e-02,2.640066026336366015e-02,3.543039560317993164e-01
-3.181117165140355807e-01,-3.269477834104246305e-01,-2.866568591334944793e-02,-1.658837416859275425e-03,1.418572110309146688e-03,6.813880785253926793e-04,2.939903438091278076e-01
-4.747154799118548651e-01,-3.972087223190920446e-01,-1.142359289982300685e-01,6.748735620050173856e-02,5.873225247315450731e-02,5.955304167635575713e-02,3.777101635932922363e-01
-1.635254136234246536e-01,-2.841814672551771226e-01,-1.309415208611861003e-02,1.878063104683326892e-02,-2.946259988651569670e-02,-5.723018545716321813e-03,2.431016713380813599e-01
-2.876509421907313957e-01,-2.958558802152016498e-01,-1.067766439285811053e-02,-2.822013446631966172e-03,1.568811889540342027e-03,-7.921942539112988152e-03,2.815557122230529785e-01
-2.853707611745970874e-01,-2.938981950955695810e-01,-7.345274022902803512e-03,-1.644578435067958408e-02,1.549828027804146455e-02,-1.608276321526325159e-02,2.864431440830230713e-01
-2.896355160145271390e-01,-3.009211841670719756e-01,-4.223573906187993998e-04,-2.270746216983574419e-04,6.535420807772892096e-03,4.730638516747630155e-04,2.952364087104797363e-01
-2.971561296404912067e-01,-3.105883801548764422e-01,-3.555653387725332681e-02,-1.826424554095875188e-02,2.185228120631541385e-02,-1.742123114794324329e-02,2.747225165367126465e-01
-3.283120186291467180e-01,-3.266596941109286556e-01,-1.656035368445907263e-02,1.828430681262805746e-03,-8.538015582287755700e-03,6.850615707202871787e-03,3.115224540233612061e-01
-3.710872321457470147e-01,-3.714823425789812728e-01,-8.077120015432318056e-02,7.075579232001620415e-03,-8.097397094158416408e-03,1.239009275379144605e-02,2.919001579284667969e-01
-2.814489457465610966e-01,-3.183036714891820385e-01,-2.034723431652710190e-02,-1.541522029108616069e-02,-3.736909810547739408e-02,2.178942818002712473e-02,2.923726737499237061e-01
-3.181844842449250144e-01,-3.179553039139613180e-01,-1.582780310894510434e-03,-1.498608892778079127e-03,1.027755651337498464e-03,1.739959931312783526e-03,3.165171742439270020e-01
-2.602993846057711225e-01,-3.030016672855324611e-01,-8.682423093171742767e-03,-2.211809013427393569e-02,3.268914806549508972e-02,-1.173287435824051268e-02,2.845444679260253906e-01
-2.333270313894331704e-01,-2.971292360917926478e-01,-2.613602506278639437e-02,-4.155761311340998125e-03,1.051322651383714522e-02,-8.026345738237605429e-03,2.465658932924270630e-01
-2.843078258036532691e-01,-2.584235165033846870e-01,-4.034680532151874166e-02,-1.720357121815379794e-02,1.368536330963327765e-03,-1.829628440105851095e-03,2.340422272682189941e-01
-3.379205959349581567e-01,-3.211722027212516872e-01,-6.579667239782810428e-02,-1.267069838152571348e-01,-2.899472484778603878e-02,1.086379586112037367e-02,3.475837111473083496e-01
-2.048778617546065939e-01,-2.991372409689826428e-01,-1.542690973607058202e-02,2.399150400609510736e-02,-1.861975991272326117e-02,-1.063836781789111695e-02,2.563989162445068359e-01
-2.216182628997119819e-01,-3.079992953516805243e-01,-3.996100413572656329e-02,-5.575631115035301760e-03,-7.237312296288130617e-04,-1.399307496731443546e-03,2.371781915426254272e-01
-2.921291326532501897e-01,-2.538131833972770979e-01,-5.131882587401714879e-03,-1.326398019939935835e-01,-3.286341805651766396e-02,4.532898785165676014e-02,3.674548566341400146e-01
-1.704491585472382442e-01,-3.308087340371664298e-01,-2.372437993951759250e-02,-3.584628788933787169e-02,-7.315467089661663314e-02,5.999789445160722684e-03,3.013134002685546875e-01
-2.571662051539402305e-01,-3.478071088736851002e-01,-1.590386478211952559e-02,-3.908972029624581575e-03,-2.456358698639309751e-02,9.633925945324504220e-03,3.007090091705322266e-01
-2.390220427826026395e-01,-1.567966190414197269e-01,1.725543066111159818e-02,4.701456107458924782e-02,-3.341392823332925421e-02,-4.789948245212605898e-02,2.612093091011047363e-01
-3.115275854696848978e-01,-3.125554142927114976e-01,-4.049788051903424613e-03,-6.733910950536679168e-04,-3.042770951480822713e-03,-3.539599445551049658e-03,3.081012964248657227e-01
-3.411717317924781723e-01,-3.498335415104152357e-01,-4.125413248082904216e-02,9.796971165914918067e-02,-1.092342754739123768e-02,-4.871622567153439248e-02,3.590200543403625488e-01
-4.274280626234725489e-01,-3.171103113924476635e-01,-6.684175708291206774e-02,2.168295985190647757e-02,-4.083638573530007365e-02,-6.445527601249183280e-02,3.482673466205596924e-01
-3.140311357576830442e-01,-2.916837779426901256e-01,-1.504345832380646342e-02,6.002741689757882561e-03,-8.765743846993459196e-03,-1.039125114866974037e-02,2.896100878715515137e-01
-2.709559334257978791e-01,-2.308122976350439615e-01,-1.267384374783497858e-02,1.218432937836191193e-02,-1.084375010894732608e-02,-7.410508179036287210e-03,2.427254617214202881e-01
-2.996754465402652889e-01,-3.594292739182122220e-01,-2.626206319875634687e-02,1.111658432020493255e-02,-3.676999351369666241e-02,-1.056400140318227224e-02,3.153165280818939209e-01
-2.839470205890665677e-01,-2.788757324144652272e-01,-1.882787146404935053e-02,1.160724012736069795e-02,-1.241181167894341367e-02,-1.369547711155665037e-02,2.653270065784454346e-01
-3.342502473016150666e-01,-3.935775765121529157e-01,-2.804993539263681002e-02,1.890296369413215632e-02,-3.681980595360396374e-02,-1.434336852078568064e-02,3.481388688087463379e-01
-1.600698279341493113e-01,-3.044546214874131462e-01,-2.460952755271250680e-03,4.207168882829790540e-02,-6.762367960747071860e-02,-5.547279071420808082e-03,2.959140539169311523e-01
-3.247318965178391248e-01,-3.260657405613407445e-01,-1.035684792200269877e-01,1.011341974273351684e-03,2.045858203862927199e-03,-1.488745674355476710e-03,2.218835502862930298e-01
-3.248520824784597583e-01,-3.210773735164175191e-01,-7.679069324044413003e-03,3.057471349961288654e-03,-1.910326371810438508e-03,2.940981745303448795e-03,3.154055774211883545e-01
-3.213548746482642327e-01,-3.241889926186179438e-01,-2.045759214037365381e-02,3.959331598467495140e-03,1.834092279988216913e-03,2.689927433717401346e-03,3.024546504020690918e-01
-2.952277539545898888e-01,-3.176852202151776439e-01,-1.469439222433224779e-02,1.687801398448228029e-03,-1.973154586646390721e-02,-3.343082958284353170e-03,2.944714725017547607e-01
-3.275283578766941539e-01,-2.936461135715512927e-01,-1.268336190812890951e-02,-3.092201864106769796e-03,3.050670918491586725e-03,2.456215898060810227e-02,3.024470508098602295e-01
-3.042681906069520936e-01,-3.386091829365614481e-01,-2.183476104167714205e-02,3.108003604738172540e-03,-1.854153776433982784e-02,-2.820204405954667651e-03,3.028715848922729492e-01
-3.274825873944184340e-01,-3.342586398386018232e-01,-1.012521567287061330e-01,4.990241832645269868e-03,2.867063182511081000e-04,-1.374322588868198865e-02,2.310858219861984253e-01
-2.801067691383167801e-01,-1.125052330835308867e-01,-7.032179347958966709e-03,-4.398966702506964394e-02,-1.001497274949362561e-02,4.321093785605591847e-02,2.619160413742065430e-01
-3.273369592033981701e-01,-3.287933461224398779e-01,-7.115967094762626344e-02,5.353338593947949003e-03,3.847600143413844667e-03,-9.759697506932275574e-04,2.571677565574645996e-01
-3.110070820243250322e-01,-3.192504879204261514e-01,-2.223203154041697438e-02,4.980079847043072938e-03,1.840395760428359482e-03,-2.694616979955095741e-03,2.931651771068572998e-01
-2.685725935258693742e-01,-2.468221908448001989e-01,-2.909944166973513213e-02,2.458134390269242284e-02,-8.442673043409202813e-03,-1.613509652577387737e-02,2.354132980108261108e-01
-2.452558145043533533e-01,-2.916561641097349944e-01,-2.624764013296743137e-02,2.476428459329328355e-02,-1.455893928496267836e-02,-1.691652805027883677e-02,2.522178292274475098e-01
-2.910196313432494297e-01,-2.392072872702133424e-01,-4.007424260129940907e-02,1.053151688975717017e-02,-7.597164447979014128e-03,-4.681922369687412447e-03,2.307112663984298706e-01
-2.350764198007926631e-01,-2.865433148452642409e-01,-2.729450824126450348e-02,8.723949781042267260e-03,6.062479399559628397e-03,9.669554906069612044e-03,2.390295714139938354e-01
-2.651398056954517024e-01,-2.341550098796979784e-01,-2.911098957411978327e-02,8.880490335091932932e-03,-5.593594928134632861e-03,-4.418740964754652896e-03,2.230367362499237061e-01
-2.559309504870315166e-01,-2.414472638852944719e-01,-2.006332395507831601e-02,2.276872093456332874e-02,1.021019380259685465e-02,1.160563873257850105e-02,2.338784784078598022e-01
-1.725331632094656009e-01,-2.878537445124578209e-01,-1.825472861837548755e-02,-3.289269329036062506e-02,3.513648047198929952e-02,-2.925000386038645794e-04,2.486803382635116577e-01
-3.011826734333143962e-01,-3.456825808833622338e-01,-2.412089623056901111e-02,-4.929125455466060179e-03,1.386229549308499141e-02,-2.970479619749859333e-03,3.029002249240875244e-01
-3.198578251033610265e-01,-3.195540127714228129e-01,-1.133690027753708751e-02,-1.059665959516424647e-03,4.783247486188198228e-03,1.629151714977118649e-03,3.084987699985504150e-01
-3.051793462636679388e-01,-3.326347086070283177e-01,-2.009717368719363129e-02,4.839155922429709371e-03,1.546729112906937431e-02,2.739772660504400433e-03,3.011032342910766602e-01
-3.327205635867132028e-01,-3.351565503602981777e-01,-3.094405822597448563e-02,1.779844150885515064e-03,1.340510932995573647e-03,-1.174628339483012275e-03,3.030332624912261963e-01
-3.157705169234869547e-01,-3.170824078066886154e-01,-6.816666195886084134e-03,1.413098614109777572e-03,4.974765260784734869e-03,-4.664389712111945488e-03,3.098467588424682617e-01
-3.204057943978199097e-01,-3.158959317534374978e-01,-6.005017705476206613e-03,1.702789900759521025e-04,5.193038905368445009e-04,1.902184089640854758e-03,3.121891021728515625e-01
-3.305089188148488955e-01,-2.624079292028636545e-01,-2.215326691775765244e-02,1.474580478834074029e-03,1.034136226095179988e-02,5.455355686836876883e-02,2.966096103191375732e-01
-3.289745173633417119e-01,-3.160731188736982111e-01,-5.774692842197670650e-03,-1.976438152974395099e-06,-5.579189939282900614e-04,4.885895005857470016e-04,3.169487118721008301e-01
-2.984579671897532593e-01,-3.086818991040254923e-01,-1.665637254171958848e-03,-1.226655932610987458e-03,5.687454978292316721e-03,-5.377881038319530863e-03,3.023456931114196777e-01
-3.265438907092726994e-01,-3.173157172342437327e-01,-6.033083675016592817e-03,1.780319287780197934e-03,-1.174823580965821427e-03,-6.387527631848794688e-04,3.160213232040405273e-01
-2.080387977382577580e-01,-3.467465683022141754e-01,-4.663033829070334368e-02,-2.771564371504854282e-02,3.769550891656303637e-02,-5.664277928070922744e-03,2.726622819900512695e-01
-3.189462016534642119e-01,-3.322610184989151505e-01,-2.608700989171641726e-02,-1.794026911076633405e-03,-2.664866607397600208e-04,3.964308475058589409e-03,2.998335659503936768e-01
-3.212491055077155711e-01,-3.191034237309438026e-01,-3.282657156217547167e-02,-6.816771465475378843e-03,5.109059133011135088e-03,-2.366091625511376490e-03,2.877634465694427490e-01
-3.410948759232196870e-01,-3.326316821065753437e-01,-5.938558978866106952e-02,-1.716757165568668980e-03,1.059483660524741452e-02,1.793379548558126117e-03,2.782136499881744385e-01
-3.044277582510575009e-01,-2.487808202784595746e-01,-2.328732092409807608e-02,-5.532622410989872404e-03,4.033041670243737477e-03,-1.030465514921630665e-03,2.581389844417572021e-01
-2.928120348854996724e-01,-2.560374960903153974e-01,-6.053646063058859550e-03,3.051477438771699885e-03,-1.017177325654078021e-02,-1.606857653349366005e-02,2.723054587841033936e-01
-3.529049333522800702e-01,-2.523172095722838737e-01,-1.978866097770196064e-02,-1.861923973139453098e-02,-9.060108818124818636e-03,3.572013334298384385e-02,3.044519722461700439e-01
-3.097687452112858342e-01,-3.240414205167351236e-01,-8.541968262441301807e-03,-1.333207450765894761e-03,-7.185928130885272736e-04,-2.108065952297158777e-03,3.086434900760650635e-01
-4.630242559565691529e-01,-4.634058942096159761e-01,-1.508184070802694732e-01,-1.484434454301034219e-02,6.533739737558725245e-03,-8.089368939032770545e-02,3.435291647911071777e-01
-3.865263759081949413e-01,-3.715866164547926287e-01,-1.101823845651147826e-01,-5.908697402318818098e-03,1.989612366808928695e-02,-1.777634153580751053e-02,2.733148038387298584e-01
-3.931466230428168895e-01,-3.927611107486824737e-01,-6.715124571634761841e-02,-8.608219141870220720e-03,-1.486812074084347193e-02,-4.619728520386203775e-03,3.272567391395568848e-01
-3.405726296299720346e-01,-3.389010759701275299e-01,-8.439579174886510660e-02,-6.645855131371237665e-03,1.507812812833515120e-02,-3.042664406180360117e-04,2.569357454776763916e-01
-4.006653559095835759e-01,-3.920359981628700474e-01,-1.193491913095318935e-01,-1.589560954389442407e-02,-1.691218117937900306e-02,-2.171179329363166419e-02,2.825171649456024170e-01
-4.091905335987195969e-01,-4.483386346035422854e-01,-9.179714371486238922e-02,6.264953336203649137e-02,8.003042899510516561e-02,2.246306212833736743e-03,3.817081749439239502e-01
-3.293437212748033804e-01,-3.264819227043390670e-01,-8.800696876304439642e-02,1.028489294772697840e-03,-7.309083143767803291e-03,-8.251507417620952949e-04,2.402632832527160645e-01
-3.172615073666401608e-01,-3.106396403565275799e-01,-1.081043301413239788e-02,-2.945156461798654969e-04,3.005349772918086779e-03,2.013599408721775206e-03,3.032595515251159668e-01
-3.287987162415108022e-01,-3.264390505290697408e-01,-2.285046659363901278e-02,1.459216825707962016e-03,5.605151492659083724e-03,-3.002953383620072820e-03,3.049846887588500977e-01
-3.316032326314720113e-01,-3.321753836546091354e-01,-6.019005294928225780e-02,-3.955781484378320667e-03,4.609645668532365639e-04,-4.951895212143216617e-03,2.719225585460662842e-01
-3.328920909010492091e-01,-3.326948501429458638e-01,-1.010545430907895392e-01,4.806225925012649501e-04,-4.309838800480325118e-03,-2.775506952976062279e-03,2.319105118513107300e-01
-3.205556193355505457e-01,-3.235479054061188853e-01,-8.441957156235932458e-02,6.439798577093982243e-04,4.317493990690691747e-04,-5.893961906252799445e-04,2.376523017883300781e-01
-3.641032344636523366e-01,-2.806991338392595958e-01,-5.882858426880341329e-02,2.963129526006020448e-02,5.748382787163667596e-04,-4.560858860705662571e-02,2.890729308128356934e-01
-2.140473057745089225e-01,-1.624248085750399639e-01,2.304809206618846362e-02,-9.160136365701618266e-02,4.082507599642819229e-02,-5.007696530558254644e-02,2.904053330421447754e-01
-4.846539487554311076e-01,-4.402408534631738202e-01,-1.240943631425738547e-01,-1.009794427972737080e-01,1.007320808400574419e-01,-9.806919094421094607e-02,4.537028372287750244e-01
-3.230463677645303844e-01,-3.239775268707988376e-01,-1.553143836212755868e-02,-4.271472224822680554e-03,9.951272164400867207e-04,-2.049663667129794837e-04,3.080754280090332031e-01
-3.190465778092105853e-01,-3.295990592127686081e-01,-1.004382650083546213e-02,-2.822510349278858736e-03,1.153135618492879860e-04,-5.887620420124843644e-04,3.144515454769134521e-01
-3.279064366339548564e-01,-3.372744225308270116e-01,-2.831208971173440614e-02,-2.603777749693040981e-03,-1.880979088864075674e-04,3.632632721497795758e-03,3.044850826263427734e-01
-3.063076936357774227e-01,-3.480856280093254651e-01,-6.748522024397654584e-02,2.927036839774045315e-02,-4.528665662300887518e-02,-4.564969068185999179e-02,2.893677055835723877e-01
-3.095823749528293090e-01,-3.065285135880953526e-01,-1.189811129075485363e-02,7.594985919705212656e-04,-4.376103901636554591e-03,-1.992951948852990721e-03,2.962891459465026855e-01
-3.182452488637635968e-01,-3.294722178325103501e-01,-6.527957102990061822e-03,-1.419302631184069961e-03,-2.357247450394112012e-03,-7.135426126073346042e-04,3.175178766250610352e-01
-2.700553918929196606e-01,-9.406789715742401581e-02,5.139256272941039594e-03,-5.785392718068318313e-02,-9.550646379845919784e-03,2.179373282907662301e-02,2.645990252494812012e-01
-3.132554835724660203e-01,-3.149336663006397363e-01,2.445381730470097548e-04,8.903488258625073489e-05,-3.300854451577375087e-03,-1.333552954105439404e-03,3.144029974937438965e-01
-3.149461588878380014e-01,-3.189282902947548348e-01,-1.018633054570589058e-03,-6.256602224612900541e-04,-2.890051243558395058e-03,-1.976043461618946871e-03,3.159974515438079834e-01
-3.139611043491631337e-01,-3.230703901355809204e-01,-3.204399106430944055e-03,-2.420315570330031606e-03,-1.679819847153640354e-03,-1.810545831679029240e-03,3.154668807983398438e-01
-3.309670672177846829e-01,-3.193505320740376852e-01,-1.328532718250213795e-02,-7.916687191798402841e-04,-1.006487133546150187e-03,-4.649919121618440983e-05,3.120435774326324463e-01
-3.035129198789859872e-01,-3.096113622274829780e-01,-3.064275957711998233e-03,4.663561780129754186e-04,-8.881312337815172250e-03,-4.343593734644562825e-03,3.040275275707244873e-01
-3.335864346149712278e-01,-3.204143648729029792e-01,-2.113367964733145477e-02,-3.517268307436644328e-03,5.411660682937335584e-03,3.089684967434969034e-03,3.063302040100097656e-01
-2.502853496539229061e-01,-2.742401931319712327e-01,-2.511786727069034719e-02,-5.590760683939574420e-03,4.388710869604798420e-03,-7.042307293298352873e-03,2.386805713176727295e-01
-3.225117084850529503e-01,-3.173971131092476750e-01,-3.442284946990614714e-03,-5.747541823055840198e-05,-3.580240101114980696e-03,-3.722675049778237464e-03,3.166695237159729004e-01
-3.251234713272437848e-01,-3.177453013272447113e-01,-9.935500659393581291e-03,-2.760704968364062657e-03,9.123967864904257343e-04,6.521442726459174624e-04,3.116071522235870361e-01
-3.278600038884373347e-01,-3.171688697479975727e-01,-5.631373367690567511e-03,-4.202744217674688181e-04,-3.671965300691476183e-04,-8.908557790119526771e-04,3.170235157012939453e-01
-3.190726381780366050e-01,-3.163757321177755877e-01,-5.381689951363288760e-03,9.331757349144714916e-05,1.141514214580438915e-05,-2.739458016412889448e-03,3.123873174190521240e-01
-3.285134636990035828e-01,-3.238518600011739967e-01,-1.425507814064214118e-02,-5.328793475177016729e-03,6.838418720107791509e-04,1.685567967229379934e-04,3.120926022529602051e-01
-3.251718978678936889e-01,-3.160534294414373280e-01,-6.655552299687200746e-03,-1.100512913245234965e-03,5.137674968679039602e-04,-5.652119633768659451e-04,3.140649795532226562e-01
-3.243316961001543319e-01,-3.151370900334299896e-01,-1.339265788665805479e-03,-7.899178245028503319e-04,8.989563698686683707e-04,-1.536711289044382462e-03,3.185125589370727539e-01
-3.237434546107016420e-01,-3.167046627946442650e-01,-2.559807804238950490e-03,-1.419838399335820794e-03,-3.387923252184624353e-04,-1.078011326589258054e-03,3.177382647991180420e-01
-3.333383644929300837e-01,-3.319520249779870924e-01,-8.071855899308935656e-02,-2.089621343871313642e-03,-1.018001345973389626e-03,7.074971190838180539e-03,2.522594928741455078e-01
-2.645523724613946803e-01,-3.131544106574756237e-01,-8.402713920033999528e-03,5.611277019271865805e-03,-1.831360837963794813e-02,-7.857447924998574307e-03,2.858496904373168945e-01
-2.702041107226928474e-01,-3.578301333831514497e-01,-5.045908139538196613e-02,1.562030287619182480e-02,-7.338394293454936212e-02,-3.506626741026270394e-02,3.095126748085021973e-01
-3.260239021089925693e-01,-3.241775985774559832e-01,-3.703969117237632114e-02,5.620248345251401684e-03,-4.993608928108175457e-03,-7.084374240342176986e-04,2.883622944355010986e-01
-3.213629749747488606e-01,-3.301984261657548991e-01,-7.354959427900414903e-02,3.232282259746871965e-03,-1.612004631781655757e-05,1.022300000352315908e-03,2.524154484272003174e-01
-3.308956840707873437e-01,-3.281373283796137352e-01,-4.486227423567656913e-02,4.447164126100173684e-03,-3.318059627697087389e-03,1.582150276569762150e-03,2.848396301269531250e-01
-3.244071540840027801e-01,-3.256547914278042910e-01,-2.179738275592199570e-02,5.051920872640227982e-03,-1.682472915152128518e-03,-7.216454225099480689e-04,3.033783137798309326e-01
-3.282438006982386636e-01,-3.233668071846205749e-01,-8.182770223516003250e-02,-9.655227547541617465e-04,-8.500144949619857851e-03,8.286621059758846183e-04,2.444678395986557007e-01
-3.202590424532331115e-01,-3.309041474597063659e-01,-3.267416848889848069e-02,-1.004277654976803080e-03,1.205615546971548366e-05,-6.154258030421243990e-04,2.930595576763153076e-01
-3.264186016361074749e-01,-3.185410457027207376e-01,-2.786030251232399224e-02,5.435419944355353826e-03,-1.110542714907883279e-03,2.128077371168874202e-03,2.948781549930572510e-01
-3.189044155871318398e-01,-3.251203505636315327e-01,-1.743130753695384949e-02,3.383520021339468057e-03,6.312272588557511169e-04,1.649522930018754337e-03,3.047003746032714844e-01
-3.267794575257334522e-01,-3.238618811982182932e-01,-2.057146285782687767e-02,1.352241192705684212e-03,3.047806384401944863e-03,-3.779059247887785362e-03,3.048846721649169922e-01
-4.626749180723046528e-01,-2.056086318432025495e-01,-6.238271539733417081e-02,3.390275730270791293e-02,2.368886842114908964e-02,3.637891908895488080e-02,3.640291988849639893e-01
-2.810238916104295104e-01,-2.760821190669326408e-01,-3.453707233602212878e-02,5.480568787849579744e-03,4.413582931725648119e-03,4.525792186857308975e-03,2.444833070039749146e-01
-3.072817322010498176e-01,-3.050301360994965849e-01,-1.200240092334911579e-02,9.675797494273221614e-04,6.245222458759854683e-03,2.414195618179174573e-03,2.943932712078094482e-01
-2.127630620250298699e-01,-3.527002095581944774e-01,-5.934964821152158287e-02,-3.507930533007411200e-02,-1.120462983124608930e-01,4.776300874966173116e-02,3.358348011970520020e-01
-3.184940852436800585e-01,-3.174271138731759589e-01,-7.583021222396402194e-03,4.307139034181551663e-04,-3.490843637045583803e-03,-3.528719610909666644e-03,3.104988932609558105e-01
-2.270551487238343658e-01,-2.716697623812405205e-01,-7.540990739662717379e-03,-3.407066745846046990e-02,-2.337388251007885623e-02,1.180135873617649614e-02,2.559486925601959229e-01
-2.810476781716577666e-01,-3.497961232936319664e-01,-5.298937685125224006e-02,-3.348422826384005267e-03,-3.179240336843582732e-02,1.094146733119058003e-02,2.753918170928955078e-01
-3.201503823859456754e-01,-3.128812254088513822e-01,-2.855080888943428707e-03,-3.008729899710062012e-04,-2.608515783320901685e-03,-2.285743562732337527e-03,3.137818276882171631e-01
-3.155305983103495748e-01,-3.239955328851023553e-01,-6.303370178721712236e-02,3.401198425759925387e-04,-3.305065410581350428e-03,1.266052932883488706e-03,2.569078207015991211e-01
-3.174675835739996232e-01,-3.139439934423394751e-01,-3.489340904540533250e-03,2.461387454309150406e-04,2.809803745362768942e-04,-4.062230086283074443e-03,3.123112916946411133e-01
-2.665325804929188358e-01,-2.848727305368414231e-01,-2.448343813110165357e-02,-4.908715481501547961e-03,2.027698466517971043e-03,-7.051263910610196077e-03,2.521847486495971680e-01
-2.956933624924454884e-01,-3.059251557779023578e-01,-9.403793712157160201e-04,1.551797842049539196e-03,5.725105537524835704e-03,7.388535338472646506e-03,3.004482984542846680e-01
-3.245121324080287306e-01,-3.172264154220285626e-01,-6.038329527235736238e-03,-4.703414493230150678e-03,2.297111736200819609e-03,5.163594668268558195e-03,3.151515722274780273e-01
-2.953779776961499848e-01,-3.099006964156906241e-01,-1.491388467686866059e-02,1.787856795909903082e-03,1.673550637411529369e-03,7.722422057929334560e-03,2.883418500423431396e-01
-3.251735169681246873e-01,-3.240354479395176623e-01,-1.476771978614910275e-02,9.339990604610686874e-04,8.204786014274524641e-03,-4.014246080304075849e-03,3.102461993694305420e-01
-2.486858532822085466e-01,-3.019745895809882175e-01,-7.609286261881509361e-04,1.201056714169755494e-03,1.915241559931307042e-02,5.846228309679284141e-03,2.805804312229156494e-01
-2.938272866504773595e-01,-3.184928914714617032e-01,-1.286554807905113118e-02,8.938802522153328203e-04,-1.536720557714378469e-03,-2.468334205981772417e-03,2.941185832023620605e-01
-3.205502856700807035e-01,-3.187382837805974867e-01,-7.581068159671411344e-03,7.722499185350443834e-04,-1.981570016325820839e-04,-9.929783350129859319e-04,3.120749592781066895e-01
-3.262030275930772327e-01,-3.162641322279428069e-01,-5.179804370651547307e-03,-1.154157766968415917e-03,4.590122637650964231e-04,2.084452179066876437e-03,3.161988854408264160e-01
-3.263801326336154274e-01,-3.262951452311992906e-01,-6.069455952519037245e-02,2.897604877185748842e-02,7.622724769036533232e-02,1.839212550556624387e-02,3.025420308113098145e-01
-3.283761862453394298e-01,-3.211503271727225717e-01,-5.134989758383759484e-02,1.544576769158683988e-03,-5.785651247109745154e-03,-8.060375233140157727e-05,2.736816108226776123e-01
-2.541161847722606670e-01,-3.154003970058838480e-01,-1.826422581411890622e-02,7.709234037917686057e-03,3.234004696322850120e-02,1.498637426132542506e-02,2.789724171161651611e-01
-3.501654761926757953e-01,-3.626301269260659987e-01,-4.374582787644781812e-02,-3.249006631662340605e-02,3.977452625340971437e-02,-1.653765221452874884e-02,3.264982700347900391e-01
-7.679892602336753360e-02,-2.776857079238602699e-01,1.758926416237396873e-02,2.839503340286359673e-02,3.853341608695125264e-02,1.327190045867075383e-02,2.750049233436584473e-01
-2.944871156775132892e-01,-3.107993802821508722e-01,-1.411033868516536893e-02,-2.031393440577004285e-04,1.038956937219967600e-03,-7.703182717846263593e-03,2.891922891139984131e-01
-3.045902312779945054e-01,-2.968129841453910900e-01,-6.075249200971966079e-03,-1.359787562019471865e-03,-8.546317666980451228e-03,4.677312473352512011e-03,2.951954603195190430e-01
-3.345630361050057067e-01,-3.242189233990452335e-01,-3.312117105957326779e-02,-4.510550255987790663e-02,-2.582356602797682144e-02,3.441211538873722303e-02,3.154563605785369873e-01
-2.659041395175600342e-01,-2.759274494068236772e-01,-4.056992646719539963e-02,-3.517575302723979086e-02,-3.963954653128627138e-03,3.348975390414659064e-03,2.385945469141006470e-01
-2.996730197104690019e-01,-2.999811271548771807e-01,-3.250203878312013517e-03,-4.583948388174970481e-03,-8.779456542042754150e-03,1.000438454383477220e-02,2.975776195526123047e-01
-3.614205228330986674e-01,-3.382985555484807616e-01,-6.015454190501035026e-02,-3.093618420635950786e-02,-3.764596226095112685e-02,4.876803580082340189e-02,3.139868080615997314e-01
-2.374330852339694431e-01,-2.943866643479119416e-01,-1.462998924498673525e-02,1.295055240775051519e-01,-3.201631581386883002e-02,-8.276662383868168757e-03,3.452101647853851318e-01
-2.746398881146080440e-01,-2.893554573859749568e-01,-2.688536173843528165e-02,3.639853064289052999e-03,-1.067559155146588544e-03,-6.073464350520845628e-03,2.557313442230224609e-01
-2.462411651728620976e-01,-2.824509370496876559e-01,-2.250836779561188328e-02,6.075687807949306171e-03,-8.422529894839096698e-03,-9.986004290301895084e-03,2.451357692480087280e-01
-2.039096379399736869e-01,-2.426902162562282750e-01,-3.207083698032880958e-03,3.881427786702763144e-02,1.138456389483215314e-02,1.262234073233625686e-02,2.344253659248352051e-01
-2.030658839403869931e-01,-2.984119555389523892e-01,-3.497884762030301076e-02,1.168462618999573099e-02,1.133500220792578407e-03,2.595746712806792228e-03,2.319573760032653809e-01
-1.969569149364688854e-01,-2.802582191846247905e-01,1.444328107683984230e-02,-1.022318332951048687e-02,-2.640285250328983438e-02,1.695768543739232083e-03,2.676799595355987549e-01
-2.982327214356429446e-01,-2.727915587258449293e-01,-2.262231897010774651e-03,2.777176728549695522e-03,1.135259600948197549e-02,1.031071739241344251e-02,2.853851318359375000e-01
-2.852240264843589057e-01,-2.376770309119973223e-01,-2.318773220090283860e-02,9.270391527262772727e-03,-7.219192695334703154e-03,-7.909077427162037113e-03,2.430360615253448486e-01
-2.894120711332039964e-01,-2.845885619718509507e-01,-2.984005820475366111e-03,-3.024442966651962484e-03,9.314276173292638725e-03,-1.020722631571814761e-02,2.851017117500305176e-01
-2.769502966168851388e-01,-2.233985846811127884e-01,-3.015287927855897498e-02,2.366067428087600955e-02,-2.666744326604855112e-03,-1.931561410841472213e-03,2.286314368247985840e-01
-3.705126567164080398e-01,-3.932464963725749718e-01,-9.593968339724351369e-02,-1.615315636947254468e-03,-5.051134935144116316e-03,1.368724641832698517e-03,2.867738306522369385e-01
-4.685045939698784245e-01,-3.072797967108314987e-01,-9.909838891595987298e-02,7.404449561801165758e-02,-1.369225792782709228e-02,-7.591684479157032039e-02,3.704014420509338379e-01
-3.178587276556603114e-01,-3.239539434612100921e-01,-1.299483683655899835e-02,-3.289466675895707029e-03,1.088104066527182962e-03,1.132851844767131721e-03,3.080214560031890869e-01
-3.194774867234120852e-01,-2.702746648192933532e-01,-4.329335232012077039e-02,1.177815908090467795e-01,-3.789656888034914628e-02,-2.914873330595412967e-02,3.370229303836822510e-01
-3.141858117786583415e-01,-3.130290053634445790e-01,-5.787484611573995297e-03,2.906240867586905243e-04,1.345595030401110009e-03,-3.749968077215670714e-03,3.078992962837219238e-01
-3.188301961903687864e-01,-3.256200531884387295e-01,-7.286954377988819065e-03,-3.194429544991771695e-03,-1.327444922479074137e-03,-1.554918663320304902e-03,3.150615394115447998e-01
-3.454027101741992123e-01,-3.382005707088961421e-01,-6.903909879877948019e-02,1.395852278863445462e-04,8.530077349937182155e-03,3.533115074489050320e-04,2.732343673706054688e-01
-4.144693304620882257e-01,-5.214924470976488591e-01,-1.111258793042215476e-01,2.390185172816389897e-02,2.603213545562206230e-02,-5.069482117482131123e-02,3.839176595211029053e-01
-3.194898710179970847e-01,-3.289250258720374243e-01,-8.457208069399285710e-03,1.766892342643211922e-03,2.797693821960601547e-03,-3.102376648480087342e-03,3.159536421298980713e-01
-3.162844968779256472e-01,-3.148214619925264746e-01,-1.304852416664392667e-02,-1.953100624957208528e-03,9.994043789059714467e-03,-7.009619829794944482e-03,3.032639920711517334e-01
-2.927487774359536221e-01,-2.892456877791255154e-01,-2.331950948319522210e-02,-4.477065275453813963e-03,5.611082142192220547e-03,-5.156832255287149142e-03,2.681322991847991943e-01
-3.134401887318414848e-01,-3.146622725917174179e-01,-5.710918427947769827e-03,5.744292454365603970e-04,4.776185084001807746e-03,-7.680678688808129919e-04,3.084575533866882324e-01
-2.857828684996014945e-01,-3.168119894347237731e-01,-3.922615615704727610e-02,-2.308550753845968213e-03,7.629868390466180809e-03,-1.218564750087339568e-02,2.646498680114746094e-01
-2.838762422940360741e-01,-3.093432379614937111e-01,-3.613274493027160417e-02,-2.710027158385283456e-03,6.699789853672081207e-03,-1.058964721524266114e-02,2.623505294322967529e-01
-2.784648979066061125e-01,-1.056058094257173452e-01,1.892655634914688911e-02,-3.771475006154911130e-02,7.288308390139323044e-03,-4.613726287685603056e-02,2.787967622280120850e-01
-2.908198971105377395e-01,-2.877258261929176442e-01,-2.196184330226894077e-02,-1.347471972645891171e-03,6.022289601505709071e-03,-2.660290101293884355e-03,2.675777375698089600e-01
-2.884306882000486905e-01,-2.680978598305132077e-01,-2.377297230545749596e-02,-4.252065340432779374e-03,-7.930276184426265917e-03,1.563905174184424245e-03,2.555897831916809082e-01
-2.946744881454152476e-01,-2.724668154408977361e-01,-1.140275056078776661e-02,-1.888350921897598636e-03,-8.999255063492144976e-03,6.885999924251473385e-03,2.735711336135864258e-01
-2.439659415927470376e-01,-2.872464297439525915e-01,-4.153215763005496663e-02,6.070381102412392496e-03,-1.904736076966839341e-03,-2.056462377175067007e-03,2.274822890758514404e-01
-2.592994987829810305e-01,-2.959982485837782118e-01,-3.785434555144154278e-02,2.978697706690763142e-02,-2.038993367406586113e-02,-1.251226888461789109e-02,2.507792413234710693e-01
-2.739302467034945843e-01,-2.853116085072952002e-01,-3.736894617534350371e-02,2.437871897421532361e-03,-1.949672346984860933e-03,-3.927966953657153863e-03,2.426081150770187378e-01
-1.945751853657882724e-01,-3.579053125994349216e-01,-4.414988392638211079e-02,2.562283286484457259e-02,6.220025228123546648e-03,-7.239203783477312585e-04,2.756097018718719482e-01
-2.320662404554039715e-01,-2.550587464527100390e-01,-1.763753278717097861e-02,2.438497851094810140e-02,1.183329543488457168e-02,1.070367348716051020e-02,2.323494106531143188e-01
-1.694289165693328991e-01,-1.875467734439716372e-01,2.717015926173510509e-02,9.147579034892149019e-02,-4.340167393672687834e-02,-2.868714149340204078e-02,2.752541303634643555e-01
-3.160963152280166777e-01,-3.155708990008553871e-01,-1.672807633713246922e-03,-8.080181062740546347e-04,-6.127420390624710271e-04,-2.791233991033033584e-03,3.142032325267791748e-01
-3.111422556686550545e-01,-3.120167176501246198e-01,-1.098574555865122759e-03,-1.317788762040789053e-03,-2.494316528799650230e-03,-2.094591753448700380e-03,3.105414807796478271e-01
-3.216387359064341034e-01,-3.151601341880981844e-01,-6.217048676776248950e-04,-1.280180975112290296e-03,3.406521190809253408e-04,-9.029316346189654972e-04,3.178393840789794922e-01
-3.181836608763853880e-01,-3.159435956486625896e-01,4.688793050078299274e-05,-1.389664287574983231e-03,-2.441809407020347519e-04,-1.839498742229282334e-03,3.171418607234954834e-01
-2.927934103972919533e-01,-3.047276277862343008e-01,-5.602448434951223799e-03,1.628173447840148115e-03,-1.180297973638518190e-02,-8.699738230982974330e-03,2.944510281085968018e-01
-3.137681173913933197e-01,-3.139697435577352702e-01,-4.464975566654871830e-03,-6.399856856990246120e-04,-3.579305821240688374e-03,-3.800306251077997625e-03,3.095380961894989014e-01
-3.090667926786397901e-01,-2.937785726079185644e-01,-7.930355925308579801e-03,3.664828190572344980e-03,-1.438700658740179120e-02,-1.282023901307227307e-02,2.957488298416137695e-01
-3.423729030062497847e-01,-3.292242403508001125e-01,-3.285323957878136247e-02,7.440724147477352501e-03,-2.902704863527763579e-02,-3.904881927703043876e-02,3.149186670780181885e-01
-3.181356505573022520e-01,-3.283534775757204760e-01,-8.990179142509824306e-03,-2.731795785501531845e-03,-2.496736255040668540e-03,-2.093484989237701793e-03,3.144651949405670166e-01
-3.201494157501034721e-01,-3.166222000730992137e-01,-4.687964507060771169e-05,2.261297901896670414e-03,2.058137590289666895e-04,-5.742409640874339676e-04,3.183794319629669189e-01
-3.162704641547192108e-01,-3.255005913752928581e-01,-7.196894042938606351e-03,-2.477153503399160631e-03,3.245831235012158517e-04,5.358849512271518772e-04,3.138216733932495117e-01
-2.671625585368041511e-01,-2.952544265321958572e-01,-9.137265643333725151e-03,-4.028842149674691404e-03,9.457491978350957701e-03,-8.177233359169916796e-03,2.741026282310485840e-01
-2.865959522254286074e-01,-2.718781545094173246e-01,-3.221277198588684554e-02,-1.432454550138718627e-02,-6.262522255803600058e-03,7.148607178989243097e-03,2.491385191679000854e-01
-2.739733344963442008e-01,-2.710457366101902132e-01,-2.214170325297928899e-02,-5.980680591788896903e-03,4.850105197940480367e-03,-1.571965405471560879e-03,2.507504224777221680e-01
-2.804763070890695098e-01,-2.826755696485339087e-01,-1.626656877329013540e-02,-2.550704121778235491e-03,2.915022363897035954e-03,-5.167546073621921351e-03,2.655518949031829834e-01
-3.120083933264092835e-01,-3.140191057187469159e-01,-5.778239928450223939e-03,-7.097907585045002766e-04,1.223394678557708981e-03,3.466869145034642282e-05,3.072502315044403076e-01
-2.796965523396929831e-01,-2.821206387427972473e-01,-1.931856358069339308e-02,-5.337585253575435548e-03,6.114407460210524725e-03,-6.838789282964866448e-03,2.622435688972473145e-01
-2.985255993606241720e-01,-3.036924482460814922e-01,-1.733191344994036709e-02,-1.948229249370019966e-03,1.496015529945196511e-03,-2.210225134219649895e-04,2.838445305824279785e-01
-3.008642885396764499e-01,-3.005566070871878992e-01,-6.194968083233776124e-03,-6.556323455333302064e-04,3.018309390690303295e-03,-9.544143900187030977e-04,2.945688366889953613e-01
-2.812013002724469413e-01,-2.842578118181979252e-01,-2.032043547002015949e-02,-3.149681477011372771e-03,6.025539488258233219e-03,-4.442627881710030716e-03,2.627992630004882812e-01
-2.937549747353014329e-01,-2.989082849038616208e-01,-6.358548499356214689e-03,-6.099665601920793365e-04,5.796592803123469355e-03,-3.079169954080735079e-03,2.902320921421051025e-01
-3.112330505688017945e-01,-3.118953968989984782e-01,1.573874437844485774e-03,1.608310097796557692e-04,1.281824730330870417e-03,-1.445381017650999292e-03,3.131566345691680908e-01
-2.927975927981771864e-01,-2.900160037723880091e-01,-2.170716927637367233e-02,-2.799365958570652815e-03,4.791033398957709848e-03,-5.254525633995377372e-03,2.700349986553192139e-01
-2.736730441254163759e-01,-2.845299414850679387e-01,-1.299455130111343282e-02,-4.673157478047109542e-03,9.531547197008596525e-03,-9.084554861907160120e-03,2.673704624176025391e-01
-2.183708449321292155e-01,-2.762715603110676987e-01,-2.792824470066923581e-02,-1.342814004310251969e-02,1.176977399795674705e-03,-3.551966909670258542e-03,2.263417541980743408e-01
-7.795998088185193686e-02,-3.234065590148035296e-01,3.396978514551479700e-03,3.285131654274457257e-03,-7.248957289796148767e-04,2.092069244561743646e-02,2.969490587711334229e-01
-2.376126865095749274e-01,-2.817741227193690801e-01,-2.511844260596815537e-02,-9.159684177890833889e-02,-4.215649586938674531e-02,4.736466706933271931e-02,3.061368465423583984e-01
-8.503975041620499831e-02,-3.460745967800666900e-01,9.606920929271650644e-03,-7.481098402935254521e-02,-2.831141901776093248e-02,-8.865540759472472637e-03,3.481863141059875488e-01
-2.655903140952192709e-01,-3.192607352649674546e-01,-2.991235204809403192e-02,-5.654204881756194449e-03,1.995174610678163585e-03,-4.831429886672154034e-03,2.669296264648437500e-01
-1.882858308732910380e-01,-1.476526086517858105e-01,3.002099005236857909e-02,-9.990113123111156457e-02,5.445571595896290390e-03,-8.677288398178752138e-03,2.658833861351013184e-01
-2.259666943225413505e-01,-3.014488318429580649e-01,-4.394982719737144938e-02,-2.905810333333016388e-02,-1.036625620313529929e-03,3.141926731915148027e-03,2.348034828901290894e-01
-3.066215267896264529e-01,-2.923602305330907369e-01,-4.610418135505528481e-02,-1.122908589381651015e-02,-1.147263706088521261e-02,1.044908600472418958e-02,2.558476924896240234e-01
-2.435592619783757962e-01,-2.627400241837704598e-01,-3.080686409621513633e-02,-2.687885700909744061e-02,9.950818152804777675e-03,-4.920493706500724852e-03,2.285811603069305420e-01
-2.899488093135073608e-01,-2.985220600822411918e-01,-3.742642228070058863e-02,-6.541527961703884168e-03,-9.936765453678664262e-03,1.058731229319980274e-02,2.583928406238555908e-01
-3.025866054844522646e-01,-2.840005193761161451e-01,-3.910952946896492644e-02,-6.645901726338514226e-02,1.411174418867245685e-02,-3.064159389477209144e-02,2.855401039123535156e-01
-3.135409810557582833e-01,-3.147044325013489963e-01,2.199910718326730796e-03,2.352341347075992493e-03,3.059682915438278767e-03,-3.646825401868093296e-03,3.164578974246978760e-01
-2.859536047014594740e-01,-3.182665594002487830e-01,-4.732178236781070524e-02,-5.870187980917211668e-02,1.057000760407575228e-02,-1.462657393715675880e-02,2.775155603885650635e-01
-2.386532619725002247e-01,-2.977952812014977302e-01,-2.506177967894507308e-02,-6.909881856408436884e-02,-9.878621976954063411e-02,4.447528551871411662e-02,3.335949182510375977e-01
-3.316374560262967952e-01,-3.392339396170042098e-01,-6.153906424370009232e-02,4.426099115101395608e-03,7.044250802272906259e-03,-5.076531869161167096e-03,2.744951546192169189e-01
-3.295468444836985311e-01,-3.598821904988973031e-01,-6.843318764507771990e-02,-9.430070141705712561e-02,-9.904191223573476088e-02,4.582265898891915712e-02,3.733985424041748047e-01
-2.640046884546384254e-01,-3.663658260500360919e-01,-6.771398479784868085e-02,3.117793847718882544e-02,-9.819053993974286021e-02,1.005962294590799500e-02,3.181891143321990967e-01
-3.134842565072629705e-01,-3.131852779586756785e-01,9.609815053338854884e-04,-3.355465335097285173e-04,8.899899150766218915e-04,1.599305079197532731e-03,3.143123686313629150e-01
-2.955952115899523336e-01,-3.140102034486652594e-01,-2.322877458240668602e-03,-1.488623826184789362e-02,-1.954220953948685238e-02,8.996615477593419147e-03,3.062706291675567627e-01
-3.121138700326255844e-01,-3.121147188150788510e-01,-9.602786820953224112e-03,1.450760041778366080e-03,-5.032300806159671971e-03,5.152543953549873490e-03,3.027790486812591553e-01
-3.245711763631101143e-01,-3.265519141791624058e-01,-2.338871439586434620e-02,6.603919880641799696e-03,-5.369978903221371905e-04,3.412122331781667749e-03,3.024532794952392578e-01
-4.870371149502105701e-01,-3.260048056464733834e-01,-1.099431988893537215e-01,-8.431585821602109732e-02,1.293615329288733779e-03,6.702329674966928108e-02,3.771151006221771240e-01
-3.185555861896289809e-01,-3.285449102231997598e-01,-3.469793685490399349e-02,1.443847016533354169e-03,2.011253345972906746e-03,3.213709773560489025e-03,2.890672385692596436e-01
-2.988521124139426610e-01,-2.588061895697534309e-01,-6.949345476744833716e-03,-1.691158212816304407e-03,-9.027100173340654038e-03,2.645493278832254658e-03,2.745822668075561523e-01
-3.286770324453233139e-01,-3.399062013517836767e-01,-5.533924082256366783e-02,-5.154052891154428141e-03,-4.981106987617287332e-03,-7.965247015707020706e-03,2.797381877899169922e-01
-3.237849307633959839e-01,-3.361571176977265485e-01,-5.726365706144490031e-02,3.697737501796781630e-03,-1.598421503997233964e-03,-8.579510550134084382e-03,2.734110951423645020e-01
-3.162248282308232628e-01,-3.032645965754720008e-01,-1.117789210766123587e-02,-3.127648388024533745e-03,-8.574143888847751693e-03,1.381041032594572913e-02,3.001503050327301025e-01
-2.835630519513329673e-01,-2.971349243669790807e-01,-2.850510386823990050e-04,-6.644740057785877320e-03,1.384685730790908426e-02,-1.318416808759219523e-02,2.924112975597381592e-01
-3.847584081902788999e-01,-3.859233208034090756e-01,-5.403726498324318284e-02,1.816431851255900440e-02,-3.534629564153766903e-05,6.621997536409468185e-03,3.329932093620300293e-01
-3.317424425502036867e-01,-3.311839875123013255e-01,-3.497832120679530976e-02,-6.365164599118454912e-03,8.505790712816100468e-03,-1.381462881472284455e-03,2.970653772354125977e-01
-2.590449709223500707e-01,-2.634137717301919812e-01,-8.371104659726458230e-03,1.011417235937897389e-02,-6.506063980848525961e-03,-6.922672349323836724e-03,2.540261149406433105e-01
-3.262581541409651509e-01,-3.338902350965519128e-01,-3.478935296940990907e-02,4.770362605010658973e-03,-6.282850926274432786e-04,-1.815967542371579651e-03,2.954930961132049561e-01
-3.144369935068177524e-01,-3.166816765272323919e-01,-5.241897585162469397e-03,-1.174363818683394180e-03,-3.693146618707543981e-03,4.871202492027099660e-04,3.103972673416137695e-01
-3.042081572814326340e-01,-3.022259717198924056e-01,-3.930702917482348235e-03,1.668280020781834436e-03,-4.796932341787086759e-03,-4.478053843901837368e-03,2.995209693908691406e-01
-3.352898500532490722e-01,-2.713285346360968520e-01,-5.575511789284992581e-02,2.309442600813426880e-02,-1.736392555548932695e-02,-4.548154808665244575e-02,2.702990770339965820e-01
-3.260003559547824947e-01,-3.389573290344103373e-01,-6.468019154614665367e-02,-1.749386789355315613e-03,2.908081576223251158e-04,1.041736281768832623e-02,2.686578333377838135e-01
-3.398988539747828108e-01,-3.464078200181628930e-01,-2.676331574334281371e-02,2.740552915460430384e-03,-1.239932266105411157e-02,1.997336178811752808e-02,3.190846145153045654e-01
-3.462114162210204737e-01,-3.092934688904015461e-01,-7.278141300356921750e-02,-2.788072196786479939e-02,-1.041289323470899475e-02,5.040478993030355487e-02,2.762456238269805908e-01
-3.257106256870391237e-01,-3.216492650652235108e-01,-3.592103374098820634e-02,5.389802071292671380e-03,4.259696503309011104e-03,1.895210691095872840e-03,2.880449891090393066e-01
-3.180661251351680763e-01,-3.139329886100959977e-01,-4.461309812030633815e-03,1.004308380335757470e-04,1.223168643909834316e-04,-2.958144374179418577e-03,3.116010427474975586e-01
-3.273971030603768928e-01,-3.332236876510245027e-01,-1.439811456256090416e-02,2.741618213138766105e-03,-4.505240061016936928e-03,4.975097648646194422e-03,3.162020444869995117e-01
-3.285096501541919789e-01,-3.174960672354932845e-01,-5.901565782370610247e-03,9.000532828538950880e-04,-5.175571428162383057e-04,8.260733149897306728e-04,3.172530233860015869e-01
-3.303707086279821237e-01,-3.187788113238321230e-01,-6.910360412984289935e-03,1.845212936568249487e-04,-6.699181529216601764e-04,-1.954131489701677385e-04,3.178254365921020508e-01
-3.260275528061845618e-01,-3.150452482701601165e-01,-4.090981798399367930e-03,-1.492261737265454622e-04,2.111003231270170680e-04,-1.887360884825885286e-04,3.165887892246246338e-01
-3.339818699286164483e-01,-3.196055445410790341e-01,-3.239349996717333369e-02,1.535197611963119583e-03,4.645472135562811293e-03,5.718028696444935142e-04,2.947868406772613525e-01
-3.279999482624156304e-01,-3.157396658661162370e-01,-7.904681020929116286e-03,9.861265774866899078e-04,1.370947367059038077e-03,4.119865411053019321e-04,3.141590356826782227e-01
-3.210384570225933154e-01,-3.179745302355629910e-01,-1.031696891425853968e-02,-3.789727397007303447e-03,-1.315699006154743634e-03,-1.632607160469157388e-03,3.092918992042541504e-01
-3.329688941124863688e-01,-3.278366866982748706e-01,-4.866629292101909421e-02,6.332547514851643959e-03,6.081460959016600845e-03,-1.870976346125616989e-03,2.822002172470092773e-01
-3.116015868985055337e-01,-3.135884629758668996e-01,-1.291724101175920070e-02,7.721859229230604521e-04,-5.397016316469132290e-03,4.352850544999460614e-03,2.999262511730194092e-01
-3.168991224823771713e-01,-3.164555697555394564e-01,-4.214122588860669261e-03,2.022205641196352533e-03,3.621831720441638473e-03,-3.243774348157878878e-03,3.125965595245361328e-01
-3.119230888445219119e-01,-3.119760216319071855e-01,-2.834473133444731507e-03,1.067063637729473219e-03,3.428787594321503016e-03,-4.884376143113792687e-03,3.092933893203735352e-01
-2.820725753595373919e-01,-2.408576337252347210e-01,-2.467339604110219131e-03,-1.331520506673384251e-02,1.181362912420263513e-02,-1.502996242676602617e-02,2.645413279533386230e-01
-3.138683041387754225e-01,-3.126262819144031702e-01,-1.971614089663342728e-03,-1.018922633491116484e-04,1.806168011607086092e-03,-2.246144517631762372e-03,3.113176226615905762e-01
-3.151356580215821657e-01,-3.202569752562065553e-01,-1.345358816429720328e-03,2.137025740354186239e-03,3.368259056358197372e-03,-3.200952999559926980e-03,3.165060281753540039e-01
-2.927708601565200963e-01,-2.479998591312958522e-01,-2.890218358059576387e-02,-1.782245008407857753e-02,7.488772174441791184e-03,-8.573857786237933098e-03,2.473037689924240112e-01
-3.153368059047602645e-01,-3.157176677074542415e-01,-2.793567693169157762e-03,2.463011497600057598e-04,3.331692345331068242e-03,-2.656033545679890081e-03,3.128212094306945801e-01
-3.195927614811576167e-01,-3.310610003949924773e-01,-7.415506450216768908e-03,1.813440122087195806e-04,-7.972367806189507682e-04,-9.503364102621163559e-04,3.180738985538482666e-01
-3.155555201166429513e-01,-3.137455232010339934e-01,-6.967511040273516310e-03,5.496956998260182090e-04,7.929181647879328734e-03,-5.914469103407050607e-03,3.081651329994201660e-01
-3.628485133482161062e-01,-3.940311691061643140e-01,-9.500700496444441923e-02,6.882402541819104824e-02,-2.527637257153410658e-02,-7.167864820567255990e-02,3.355649709701538086e-01
-3.887023729155382745e-01,-3.709019947582424259e-01,-5.877875388053466210e-02,6.711445611241505238e-03,1.121149833906275733e-03,-3.516212641891117846e-03,3.216670155525207520e-01
-2.096546993220078925e-01,-1.629184803484443611e-01,3.085956364889325121e-02,8.114632791190053152e-02,-1.201065415759819226e-02,-2.579519816738691171e-02,2.664090394973754883e-01
-3.186232655584912976e-01,-3.225943300798690405e-01,-6.714593160094595170e-03,-2.727019183713129142e-03,-2.238870394424356466e-03,-3.363545452020304336e-03,3.140265643596649170e-01
-2.962069985506654568e-01,-3.012073520777264757e-01,-5.038683765449808449e-02,3.543060317729922887e-02,-2.574074035457793105e-02,-2.577707240590522766e-02,2.634935677051544189e-01
-4.683197664987785447e-01,-4.325823783865944128e-01,-1.231788039694215187e-01,8.120391778230608149e-02,-4.828318596830181997e-02,-2.897614238971316092e-02,3.706209361553192139e-01
-2.995498553958579335e-01,-2.073256322105871130e-01,-2.570357282643287444e-02,2.327946760148591823e-02,-9.850189553791228667e-03,-2.242959870406393760e-02,2.483303695917129517e-01
-2.994146101458650677e-01,-2.916195131599495505e-01,-1.899220549172841999e-02,7.009895234923534113e-03,-8.099753769104047277e-03,-9.006653350582313061e-03,2.776673734188079834e-01
-2.901399810918980915e-01,-2.701844271620275073e-01,-9.348425812819305403e-03,1.317885034830378575e-03,-1.014657005293007064e-02,-8.841235314169998416e-03,2.723735272884368896e-01
-2.814914440862052447e-01,-2.668505866267824045e-01,-2.949233658368255462e-02,1.894056145994767138e-03,-6.032149294766749742e-03,-2.536877895485758778e-03,2.452909499406814575e-01
-2.907236511511788191e-01,-2.941470758595865487e-01,-1.933277406076061578e-02,5.974455007202111130e-04,-6.237188659096875448e-03,-6.828559611913637487e-03,2.735899984836578369e-01
-2.855453030913149837e-01,-3.147089121977465487e-01,-1.017797855972971122e-02,8.261603488324546773e-03,-8.899516953119577731e-03,-4.638742677095142493e-03,2.919166088104248047e-01
-2.872986659232591444e-01,-2.868296985686158984e-01,-3.745506606359780277e-02,1.592126795150361138e-02,-5.297506331679273026e-03,-6.252172191119270868e-03,2.515289187431335449e-01
-2.105553116653502144e-01,-2.438700063617893210e-01,-1.725832590402903710e-02,2.737416979422566815e-02,9.241565157839406563e-05,1.494577696922943372e-03,2.171819210052490234e-01
-2.300707110296264790e-01,-2.075364441099415702e-01,-1.187492064858888807e-02,3.264296375804581068e-02,5.530027330723603744e-03,3.558299313995669753e-03,2.157005518674850464e-01
-2.954589564693360648e-01,-3.164307555181374298e-01,-1.301954505835165032e-02,8.200572458434698887e-05,-7.562213492890739646e-04,-5.444132975504963230e-03,2.936422228813171387e-01
-2.460525271504448996e-01,-2.715428158365993383e-01,-3.266534212908095425e-02,9.648465297278974173e-03,-5.547103687355106920e-04,-3.426790277804292895e-03,2.279003709554672241e-01
-2.341553445775065856e-01,-2.934296275992768765e-01,-3.811343657031898702e-02,1.268369658524375922e-02,1.383157134256169426e-04,-2.945811434633785562e-03,2.325399667024612427e-01
-2.918344104278956519e-01,-2.278339032624631388e-01,-4.239282562179175207e-03,3.377242029905364040e-02,-2.164243494488719485e-02,-4.265129778155091894e-02,2.805086374282836914e-01
-2.751084112542209748e-01,-2.002433815103430437e-01,-2.454290179480975165e-02,3.761916607281815678e-02,-1.851224871367809994e-03,-2.058877243089268522e-03,2.321591228246688843e-01
-3.166957927027486686e-01,-2.302055784232087121e-01,-2.821061427849738679e-02,6.072275773916709606e-03,-3.311782340413870797e-03,-1.298124599174992760e-02,2.576861977577209473e-01
-4.055220702100756913e-01,-1.558870612029219782e-01,-1.965067822164304201e-02,2.389988407334711976e-03,8.132851153961553545e-03,-1.322089589801195807e-02,3.400401473045349121e-01
-1.954726238611477207e-01,-9.593313308438794484e-02,8.685435049268103169e-02,7.286779994131542537e-02,-1.043523121400610938e-02,9.862441513631936899e-03,2.793950140476226807e-01
-3.033640136204031057e-01,-2.675019275869679469e-01,-2.484349888028361542e-02,-2.072257157517872102e-03,-1.009736114616927895e-02,3.071081125839583790e-03,2.630940675735473633e-01
-2.623055005539597362e-01,-1.167069721093403206e-01,2.374679972613785717e-03,-7.913214499774941235e-02,-1.879296218654628826e-03,2.158391395832147397e-02,2.700210511684417725e-01
-3.069881178085431261e-01,-2.199104255479655545e-01,-2.283181928313174347e-02,-7.210458111887211620e-03,8.486819438839523361e-03,-8.463214536805603594e-03,2.533191144466400146e-01
-2.877809567733629614e-01,-2.497985579158009117e-01,-2.827400218602557636e-02,-4.548776686042284648e-03,-1.154436593235944053e-02,7.182824952974483160e-03,2.440215051174163818e-01
-2.894909444273466859e-01,-2.889819793114700164e-01,-3.985542207011202875e-02,-3.478816949621202012e-03,-7.063706190416868362e-03,5.620063810383821475e-03,2.499436885118484497e-01
-3.159818577279015495e-01,-2.603497519257249593e-01,-9.763226868959945515e-03,1.113375860264848721e-02,-4.690440001999368592e-04,1.346280084553279355e-02,2.841574847698211670e-01
-2.682295601206424740e-01,-1.490288750595454570e-01,1.622262219810266526e-03,-3.015949320078979354e-03,2.783703431041088458e-03,1.825633738131531361e-02,2.364586740732192993e-01
-3.685485116303686692e-01,-1.887508087566053261e-01,-4.200242917717478264e-02,-8.104998724368881260e-03,4.146409045947723263e-04,-2.287249728307349378e-02,2.863815128803253174e-01
-2.780585488498834024e-01,-1.614548425704823431e-01,-1.629591465393434579e-02,-4.260476246756884910e-02,-1.580467945654311090e-02,8.044916359927491503e-03,2.407958209514617920e-01
-2.711372188387496940e-01,-3.096502295285377127e-01,-2.912359782436318989e-02,7.780704191498183896e-03,1.179743359115680793e-03,8.344210307730318132e-03,2.641385793685913086e-01
-3.058909151504926593e-01,-2.315005539546384772e-01,-2.808432911892541628e-02,1.219772151339694813e-02,-9.018476877820988738e-03,-9.422676037982760655e-03,2.510000169277191162e-01
-2.632002670596785832e-01,-7.370389552721107185e-02,6.158759935100027727e-02,5.912157955251463176e-02,3.483423012700449014e-03,-2.693071330581633255e-04,3.006203770637512207e-01
-2.430126243015888754e-01,-7.687804180368877638e-02,3.409773747040334424e-02,6.744016186096808696e-02,-4.633268449274203192e-03,-3.351602110337132540e-02,2.746491134166717529e-01
-3.202184184997963756e-01,-2.265772061862636189e-01,-4.367485167487200615e-02,1.356452818374988441e-02,-8.810026799832622324e-03,-1.151291137891917622e-02,2.460317611694335938e-01
-3.146224044115851770e-01,-2.421016892545189425e-01,-7.736300431544884670e-03,1.081820120680512809e-02,-2.956079058667092363e-03,-3.586310032560023620e-02,2.853393256664276123e-01
-3.458741141947576092e-01,-1.507350362018702594e-01,-4.687207516500083160e-02,1.050815551116892656e-02,-1.496763782014928941e-02,2.128431269257896868e-03,2.648611664772033691e-01
-3.181691285451870854e-01,-2.299410630206780715e-01,-2.895919357102344494e-02,5.299192615253157761e-03,1.969735883195459711e-03,-2.485811713989146982e-03,2.569524645805358887e-01
-3.948256613420933481e-01,-1.926654400698422920e-01,3.945812921847924315e-03,9.575810283933296196e-02,9.341758100152275715e-03,-8.637259175642345715e-03,3.837527334690093994e-01
-3.452874032459328779e-01,-2.370379190618695231e-01,-1.761144352668614355e-02,1.162049964842179484e-02,-2.424955054630429860e-03,-2.964608866753369598e-02,2.944115400314331055e-01
-3.211516155039072506e-01,-2.324501580981719329e-01,-4.195370921578492340e-02,1.096829237751957217e-02,1.710192440621514237e-03,1.147043535300766972e-03,2.478463053703308105e-01
-2.067714303009274557e-01,-3.668277133180439797e-01,-1.445521443601058276e-02,9.533803580165942093e-02,-1.774364772815287955e-02,-7.081983415636605023e-03,3.489240109920501709e-01
-3.247913606602441106e-01,-3.182820911595369839e-01,-3.481096312809794924e-03,6.619729755179389269e-04,7.431314632082480819e-04,-1.187511353935436767e-03,3.181169033050537109e-01
-3.196894984278620400e-01,-3.159589142597024058e-01,-1.501066050230592808e-03,1.572914102482327438e-03,7.411997427865487428e-04,-1.184427614499692282e-03,3.163606226444244385e-01
-2.983955927058100643e-01,-3.060281072983615513e-01,-2.711231392093532699e-03,-1.087179668336064626e-03,5.682647603578617514e-03,-6.720346101859965213e-03,2.999670505523681641e-01
-3.170756158399855029e-01,-3.167440936703939114e-01,1.043667843539236584e-03,1.002102064647842359e-03,6.910493520854906488e-04,-1.079986580415773180e-03,3.179661333560943604e-01
-3.203775342822395844e-01,-3.181473204437961777e-01,-2.082264351925822154e-04,4.253836742409839973e-04,9.809093021653084773e-04,-1.152117727355196283e-03,3.190716505050659180e-01
-3.166854597588754650e-01,-3.181734960155192526e-01,-1.056756989300189353e-02,1.419367812482425081e-04,5.130744502185010172e-03,-6.837150384239223076e-03,3.072216808795928955e-01
-2.909938986116326065e-01,-2.736856459232845928e-01,-1.854352229084837989e-02,-1.870177901666334255e-02,1.359141257450166042e-02,-2.527078876202691962e-02,2.707996070384979248e-01
-2.866287174875109534e-01,-3.344021782542901944e-01,-2.174316065639156359e-02,-8.621309552289257040e-04,1.826386578368827465e-02,9.146631138870925729e-03,2.938623428344726562e-01
-2.796021115126798851e-01,-3.273907951094408020e-01,-1.500289066043888897e-02,9.639070013351156568e-03,-3.329532145453069358e-02,1.258812056585956879e-02,2.983642220497131348e-01
-6.838744286212579404e-02,-2.444825942195821278e-01,7.782397818059993977e-02,4.003465753615720324e-02,-1.657598658347872456e-02,-7.991390834442913330e-03,2.897561192512512207e-01
-3.170801496382896212e-01,-3.174292951487176495e-01,-2.412864131105113552e-03,-1.169851167124613808e-03,-2.350837769659894997e-03,-2.532953774267244617e-03,3.149054050445556641e-01
-2.688869897756931970e-01,-3.014412208787093927e-01,-1.120770942202609088e-02,1.830470853110710604e-03,-8.727712581276629578e-03,-7.970184284440998482e-03,2.761812508106231689e-01
-3.107776026562113492e-01,-3.199010712044420002e-01,-1.693131285288676513e-02,-3.220940442722329110e-03,-8.120251901103364006e-04,-6.351839170156543986e-03,2.987706661224365234e-01
-3.163979292804049437e-01,-3.155017725956313357e-01,-1.634923651092773378e-03,-2.541749411147189476e-04,-4.185456644548951263e-03,-3.218533328602139407e-03,3.144491910934448242e-01
-3.250085540801714856e-01,-3.196110992371404835e-01,-7.037579389736425828e-03,-1.887943776725637800e-03,-1.236036162260018391e-03,-2.895587553612008046e-03,3.153710067272186279e-01
-3.041168351724386487e-01,-3.510153123195923763e-01,-5.755403901431921376e-03,1.204535219888636273e-02,-7.985553603641516382e-03,2.956161530558339134e-03,3.253682553768157959e-01
-1.998860062176346375e-01,-3.318221581184721547e-01,-2.242256228854694333e-02,-1.226342672772369295e-02,-3.732437581462553361e-02,4.290102672345303086e-04,2.773901820182800293e-01
-3.311300524247497989e-01,-3.226276707255085752e-01,-1.688867994819145957e-02,-2.948465591517384059e-03,-1.289768055860426909e-03,4.023235262241958948e-04,3.101285099983215332e-01
-3.266967023312186136e-01,-3.237580341303060161e-01,-2.033456470108582770e-02,-5.320037793748544873e-03,-1.374933903030061159e-03,1.272230885375849358e-04,3.050520122051239014e-01
-3.199496457247594794e-01,-3.190176474496474457e-01,-9.344357509409956242e-03,-3.320586540114368965e-03,3.442009372777810137e-04,-1.240638113371658269e-03,3.102016746997833252e-01
-2.964267773438059028e-01,-3.076230124540942357e-01,-4.199448970261920877e-03,9.226962574337181991e-03,-1.299593888837161960e-02,-1.435877580724431203e-02,3.002909123897552490e-01
-7.101433126636240711e-01,-7.151583383962493157e-01,-2.090550384231651959e-01,-7.904551011129546181e-03,1.841974573404121449e-02,1.278854810397662620e-02,5.052954554557800293e-01
-3.255572450158850661e-01,-3.244799918613836542e-01,-1.017096331954322197e-01,2.725729054530086262e-03,1.604094354104740458e-03,-5.184947707636032100e-04,2.233799248933792114e-01
-3.232115172490502841e-01,-3.246183062587539858e-01,-5.199897400973438333e-02,3.082934024354069390e-03,-2.073524173775360621e-03,-2.317138411891796548e-03,2.720244228839874268e-01
-3.205607398657392970e-01,-3.227239452923760243e-01,-8.219593445955167277e-02,2.017017973539818061e-03,1.701424177528857492e-03,4.228548372905344133e-03,2.396093159914016724e-01
-2.895035666651871176e-01,-3.327577475832785847e-01,-2.307367967342466297e-02,2.742874024700575966e-02,-3.248948238554998091e-02,-2.215664873900414361e-02,3.021199703216552734e-01
-2.455870584271971357e-01,-2.874579939339610979e-01,-3.949853837134903456e-02,5.892466575603771094e-03,2.254280717718911212e-03,2.422458978092028540e-03,2.301994562149047852e-01
-3.605633164326685347e-01,-5.072763395853336910e-01,-7.610384832449829107e-02,-4.679959464220450303e-03,-1.131167961827428958e-01,-5.939783384156506474e-02,4.395589232444763184e-01
-3.371533938239800188e-01,-3.317121140233809107e-01,-4.905211717142540784e-02,4.975691163713266002e-03,-1.787590503155442150e-03,-9.866510171648011987e-03,2.860772907733917236e-01
-3.152623353307689724e-01,-3.137603315078341670e-01,-2.786979796227107009e-03,-1.756661882538911599e-03,-2.960018492611887070e-03,-2.283597940070741794e-03,3.118091523647308350e-01
-2.056124214810595152e-01,-2.198810458832674286e-01,6.725288302425552756e-03,5.475145377081289816e-02,-2.830461850029006993e-02,-1.524764898839400286e-02,2.457941323518753052e-01
-1.798226694017584781e-01,-2.900888482328417561e-01,-6.670216064425110725e-03,6.869408394630854842e-02,-6.069047303455872566e-02,-9.936290122647342335e-03,2.945099174976348877e-01
-3.460348136612574343e-01,-2.430347101262736176e-01,-4.025372482686401243e-02,-8.802624244311554462e-06,2.126749493423397833e-04,-1.007902816906318215e-02,2.700379788875579834e-01
-3.135626518449845523e-01,-2.983196350871653579e-01,-2.523517469855376949e-02,5.362461781113376028e-03,-1.073749307095451903e-02,-9.430512043165148808e-03,2.822570800781250000e-01
-3.299067325528756145e-01,-3.360055231807227427e-01,-1.695602561007292230e-02,-8.844997999060501053e-04,1.561138490005112929e-04,-2.007097129306216997e-03,3.160671889781951904e-01
-2.981576068472538976e-01,-2.359684580634436035e-01,-2.656114805900058884e-02,3.916359138097407974e-03,-8.278785906404491704e-03,-7.204436570732934697e-03,2.472834736108779907e-01
-3.040845966154706037e-01,-2.877450079057978782e-01,-1.663713403398242585e-03,-2.980577244660238562e-03,-7.447426388695010252e-03,-3.645376249977425997e-03,2.949861884117126465e-01
-3.183395430444472263e-01,-3.200983193335136812e-01,-8.913933555844244516e-03,4.534854202159880362e-04,9.104790395499653619e-04,-3.293347602937910391e-03,3.103661537170410156e-01
-3.225470458465874990e-01,-2.749075165562856471e-01,-1.337467464087541136e-02,5.570351400426304389e-03,-2.357681480472087390e-03,-1.745246499880260746e-02,2.900892794132232666e-01
-2.687091053284398345e-01,-2.821977424464634510e-01,-4.580887106317765856e-03,3.319329088999456012e-03,-8.099400127193462015e-03,-7.183583034742654395e-03,2.718327641487121582e-01
-3.158988617922078301e-01,-3.159983084818388521e-01,-1.864241702863894679e-03,-2.607893548814151259e-03,-1.322292409066026580e-03,-1.245257677602450109e-03,3.141326010227203369e-01
-3.637019220261594743e-01,-3.663984882989630432e-01,-4.051788323651792090e-02,-7.685899952384761709e-03,-1.910834859149797282e-02,1.777891751471480028e-02,3.279444277286529541e-01
-3.144157527294301202e-01,-3.016166930013646219e-01,-3.265689059494092383e-03,2.344559647416809961e-04,-5.537611151894601506e-03,7.447421429045425999e-03,3.053756654262542725e-01
-3.200514553150298758e-01,-3.166901542626141541e-01,-1.705232111310567289e-02,3.293546469869383479e-03,6.906384650934643647e-03,1.121674067859246109e-02,3.022488653659820557e-01
-2.419737592553638517e-01,-2.819412193443061043e-01,-2.127503481196585389e-03,-2.340375740548982994e-02,-3.636261380607536814e-02,1.986657680081334310e-02,2.747792601585388184e-01
-3.194190661633170003e-01,-3.298549995171834448e-01,-1.035779581979193176e-02,1.608740669609946914e-03,-1.201917406702981018e-03,1.142294041182008836e-03,3.144346177577972412e-01
-3.159088049442887458e-01,-3.162619865725785906e-01,1.426788607386236807e-03,1.078255350505109280e-03,-4.443652178139162684e-04,3.072329959398724039e-04,3.175192177295684814e-01
-2.193717494601759022e-01,-2.763192461565150415e-01,-2.878670095679963792e-02,1.476286960038398002e-02,-3.337479422096832279e-04,2.313740084974088857e-03,2.260292917490005493e-01
-3.014128706278383918e-01,-2.900417796156731232e-01,-9.712382164798943895e-03,1.968208084453156211e-03,7.385316798316257994e-03,8.651378885262712027e-04,2.864943742752075195e-01
-3.038282243814874883e-01,-2.727727532646433972e-01,-1.120249226455435898e-02,2.069810015478306623e-03,7.517706305914688414e-03,1.319279978726720440e-02,2.796626091003417969e-01
-3.195262495795551660e-01,-3.242589095874437444e-01,-4.162083458072507458e-03,-8.505445444074738069e-04,2.715330434610665339e-03,3.420804599062531298e-03,3.178503811359405518e-01
-2.816711263199296322e-01,-1.703946900226439853e-01,-1.188418956072220811e-02,-2.034654866589235070e-02,-6.046361226325452400e-03,1.551404077378346069e-02,2.392074167728424072e-01
-2.713103607774320358e-01,-2.456265181707394107e-01,-3.325939746152170584e-02,7.549553238482298659e-03,4.459372747994861004e-03,-6.058315086682537114e-04,2.268162369728088379e-01
-3.336729647364456985e-01,-2.378873788262383382e-01,-1.541019182514996588e-02,6.460965695096142040e-03,1.413942846331136746e-02,4.552231047067598763e-02,2.948269546031951904e-01
-2.902496024411087006e-01,-2.858371964225691619e-01,-1.288062430546457748e-02,7.950436411811191012e-03,1.012798150108933266e-02,8.751069156782574979e-03,2.765072286128997803e-01
-3.030139483319369553e-01,-2.750210954264298291e-01,-1.255304746521937465e-02,4.335038554073605832e-03,8.550449095652707873e-03,1.196482274469601488e-02,2.787929177284240723e-01
-3.026732443674758355e-01,-3.170492258207711078e-01,-2.213824988229090573e-02,3.005827193148145025e-03,8.471431633991083343e-03,1.197725904849319782e-02,2.891578972339630127e-01
-3.228470447201617910e-01,-3.131508970749834475e-01,-3.635499363969493802e-02,1.120968152691148969e-03,-2.821486040584080804e-04,1.709096816043206542e-03,2.817917764186859131e-01
-3.351039198288754406e-01,-3.234838503281572963e-01,-6.661458404553494139e-02,2.590951098559071252e-03,-8.143704072104525349e-03,5.679816407932900858e-03,2.634721398353576660e-01
-3.216123361973947103e-01,-3.257914772186149555e-01,-6.701431784640676792e-02,-2.357178214161091776e-03,1.791721268470142844e-03,2.226854594291747223e-03,2.567932903766632080e-01
-3.304208568867773033e-01,-3.290961188163351037e-01,-5.907109111782427036e-02,4.538686053187778076e-03,1.378285542209754669e-03,6.009876772492549896e-03,2.710144519805908203e-01
-4.001233517719736676e-01,-3.861842344285425499e-01,-7.301960569327450856e-02,4.917775617227274597e-04,-1.462782471720201457e-03,-1.181173619578068483e-02,3.210254311561584473e-01
-3.341750898478444420e-01,-1.422950263837635121e-01,-2.397565770525664219e-02,6.730974075251508829e-03,1.339189499930254837e-02,7.289458243943530702e-03,2.726791501045227051e-01
-3.132146584823017887e-01,-2.011393436150623326e-01,-4.255827526164296382e-02,2.431454079436808687e-03,1.142990824820857643e-03,2.365660586304803650e-03,2.356274574995040894e-01
-2.210252104707857712e-01,-3.064883698577392512e-01,-2.780704566072550454e-02,-3.172345535041302088e-03,1.100776386965618761e-02,3.445133266459579624e-03,2.481522858142852783e-01
-3.258127581692262797e-01,-3.239059296601339288e-01,-1.472258421583635957e-02,-4.092176086964887868e-03,2.773787301245558660e-03,4.352781952509926847e-03,3.103509247303009033e-01
-2.667582888993694779e-01,-3.207394155929963464e-01,-1.587964272751193895e-02,6.133257061560384860e-03,1.418028205153305799e-02,5.731480158481452522e-03,2.832161784172058105e-01
-2.366728991777825031e-01,-3.242285572210297784e-01,-3.513873945908477237e-02,5.287177754180139889e-03,1.023851947081291097e-02,1.207088179913933836e-03,2.575464546680450439e-01
-2.600373581904042997e-01,-3.216194749761348559e-01,-2.959757512828736781e-02,2.962859765080573093e-03,5.461821340900095863e-04,4.170416316888462226e-03,2.667681276798248291e-01
-3.154778239466261569e-01,-3.976645681661218346e-01,-7.834378574008524221e-02,1.169278730533058856e-02,5.758315239979094197e-02,2.110651922481570492e-02,3.068722188472747803e-01
-2.815547819128394469e-01,-2.967757038015686466e-01,-9.563637882725184447e-03,2.408524210460971128e-03,3.872445221274943214e-03,1.004254757575032478e-02,2.805632948875427246e-01
-2.702282518515335408e-01,-2.818647186575191643e-01,-9.684169222338945282e-03,3.788316798199352353e-02,-2.882275226262183410e-02,-2.440103464721499194e-02,2.821955382823944092e-01
-3.109651851203022455e-01,-2.674830651756421873e-01,-4.295722173467386718e-02,2.372966447950849642e-02,-1.223339354029540950e-02,-9.719686131929370157e-03,2.539430856704711914e-01
-2.933850816748519996e-01,-2.949083923558838971e-01,-1.077337378512305266e-02,2.783074671570322754e-03,-7.173998829349859628e-03,-7.087463976150486407e-03,2.839551568031311035e-01
-5.023121971370110295e-01,-5.754020970267057500e-01,-1.536069344444100926e-01,-6.983536504528274624e-02,-2.155035414595218510e-02,6.262716151342498372e-02,4.245173633098602295e-01
-5.604433091246292520e-01,-5.008390204030875870e-01,-1.703398291759455063e-01,-3.752056540318807892e-02,-6.182721119134047816e-02,6.905518687706641880e-03,3.851179182529449463e-01
-3.203975530041416331e-01,-3.706077748312648357e-01,-8.940563120826194865e-03,-1.475689799373861022e-02,-1.370085850222033802e-02,9.200967852475410574e-03,3.415190577507019043e-01
-3.255846042113634264e-01,-3.255490160305342107e-01,-9.883048553067869113e-02,-1.606871250898570316e-03,5.097639172938819678e-03,4.846868716822660961e-03,2.270804792642593384e-01
-3.317529903223553900e-01,-3.202569556612909762e-01,-2.465011866346186742e-02,3.538028440318395380e-03,3.167679523565686099e-03,2.110184107537281951e-04,3.016316592693328857e-01
-4.282760092047538381e-01,-4.133392444401329247e-01,-1.099600019904697357e-01,-6.974287696174466533e-02,-3.954107763284473581e-02,8.397327100680709866e-02,3.704467713832855225e-01
-2.290714323028623933e-01,-2.949811441027082592e-01,-3.023609283091602262e-02,-2.297432858898588309e-02,2.055412860074919482e-02,-8.588116232148506821e-03,2.450651079416275024e-01
-3.213327205078053139e-01,-3.518734713598256625e-01,-4.775245664766758491e-02,-7.298390445087505566e-04,-2.230889361361626175e-02,1.620519118172474710e-02,2.939672172069549561e-01
-2.761005379485829136e-01,-2.937089497727905507e-01,-1.198404122641036351e-02,-1.723030325564543818e-03,-5.873079852782202293e-03,1.234639640454512736e-02,2.743864655494689941e-01
-2.617556508782630798e-01,-3.071481314228824422e-01,-1.181095538239138043e-02,-4.181315594351965592e-02,-2.868693997153073591e-02,3.280888438875292218e-02,2.946549654006958008e-01
-2.666854299998205891e-01,-2.850990477286775571e-01,-4.123293925187396236e-02,-4.030440847849843869e-03,-1.366911031339621821e-03,3.868835728580190692e-03,2.354113906621932983e-01
-1.514853846391845948e-01,-2.673668503693166221e-01,8.695251960020577986e-04,-6.577744650683614580e-02,2.594204941260817160e-02,-1.660964592660801528e-02,2.648060917854309082e-01
-2.231394633965372853e-01,-2.985731969770414884e-01,-4.290323942571744320e-02,-6.426649011756082643e-03,7.831597839412186499e-04,-3.729513101412040930e-03,2.279006540775299072e-01
-2.293166213127222908e-01,-2.832527397080298326e-01,-3.376857775018898833e-02,-1.287865041042906937e-02,9.095172028410803983e-04,-2.826224936281761767e-03,2.285153567790985107e-01
-2.504485907819769541e-01,-2.660997817252676589e-01,-1.423687484736435582e-02,-1.971290217148226331e-02,1.232111531345045363e-02,-1.344014124006483006e-02,2.487992495298385620e-01
-3.180945786213493776e-01,-3.256906899617619255e-01,-1.556629757379773826e-02,-3.565405101533591220e-03,-9.337805547480521225e-04,1.455661132727952131e-03,3.064738214015960693e-01
-3.287440883349194154e-01,-3.296133280757351236e-01,-3.534954609881887921e-02,-6.582405145748575909e-03,4.910217293820406947e-03,1.416478338719236131e-04,2.941743135452270508e-01
-3.237854936589069643e-01,-3.299527119518663731e-01,-4.467867084113172349e-02,-6.401034477234925947e-03,-1.278851266355851286e-04,5.889339619653874598e-03,2.826428711414337158e-01
-3.125470804056952878e-01,-3.119179820185376539e-01,-3.377505822808601899e-03,-1.746520753006093130e-03,-3.670023616876676598e-03,-2.865170725587860411e-03,3.089755773544311523e-01
-3.105495418442838496e-01,-3.143275802506597105e-01,-6.155662813783546738e-03,-1.055484000045785620e-03,-8.391874838145563925e-03,-5.357417363336299150e-03,3.067908585071563721e-01
-3.239014912355496767e-01,-3.314871510786667752e-01,-3.053158637753358717e-02,-4.000376150730310977e-03,1.542480333659001840e-03,-1.103626831935287716e-03,2.973342239856719971e-01
-2.890610634967365478e-01,-2.508544210750399128e-01,3.282852061362473428e-03,4.842953538884301433e-03,-8.416047642508500681e-03,-1.331030540168689352e-02,2.767120897769927979e-01
-3.967275152937060900e-01,-3.203992565531154635e-01,-8.016042251914096139e-02,6.005901134348432674e-02,-5.679824535865709428e-02,-4.689417397078346483e-02,3.301125168800354004e-01
-3.418032246224320114e-01,-3.242342205440034153e-01,-2.932362369292160209e-02,1.894783427337946510e-02,-1.142377323103190446e-03,-7.173338465897961293e-03,3.061005771160125732e-01
-4.288021579021710217e-01,-4.515864076999265841e-01,-1.211495900425367533e-01,1.868958215122436262e-02,-4.055454208923387274e-03,-7.121267422738972175e-02,3.442235291004180908e-01
-3.164971865793689831e-01,-3.212048411788213098e-01,-2.055056820057674094e-02,-3.035497238720295116e-03,-2.614322441277880209e-03,5.651293460739759437e-04,2.984105944633483887e-01
-3.154609990402778563e-01,-3.186404884754734379e-01,-2.129522691028115644e-02,-5.785534621662220996e-03,-3.380024696753191737e-03,-1.836127560415111784e-03,2.960130274295806885e-01
-2.725305531079502686e-01,-2.956792945445329418e-02,2.874775270114157677e-02,-4.593723009152768030e-03,4.528744682817698562e-03,-1.095942658311317361e-02,2.776423096656799316e-01
-3.488251318988295768e-01,-3.462319288153672958e-01,-6.785529228604905705e-02,3.889994642925597660e-03,1.200396820773847427e-02,-4.827928214883940063e-03,2.806595265865325928e-01
-3.267962725051246631e-01,-3.253849907742027425e-01,-2.039244452728886103e-02,6.057627471150837419e-03,-9.027048168390678978e-04,-1.208058041461826729e-03,3.058917820453643799e-01
-2.710243428425588852e-01,-3.138937585079136783e-01,-2.377709014173673419e-02,-1.737379861528688674e-02,-2.933075108842463433e-02,1.619190502203198684e-02,2.790005207061767578e-01
-3.359577148000197910e-01,-3.394626338263658782e-01,-8.975743360423699135e-02,5.432563767538535829e-03,8.489727433021926339e-03,-5.615929186878657921e-03,2.487753182649612427e-01
-3.296474958575596470e-01,-3.202638915825971599e-01,-1.687722536431979226e-02,-1.409714025870145932e-03,-6.638579324126579230e-03,4.007148911721009760e-03,3.084878027439117432e-01
-2.801044307665409572e-01,-3.063946330889205649e-01,-2.736958381621962255e-02,4.760553173042769703e-02,-2.888403807748680593e-02,-1.115782196805143942e-02,2.844041883945465088e-01
-2.405449396530145445e-01,-3.033943729136090450e-01,-3.534156241135116838e-02,4.448433996855916291e-03,-1.046754430814098198e-02,-9.066432852678654383e-03,2.441107630729675293e-01
-2.411347375985221642e-01,-3.580636558251562018e-01,-5.962630890498546443e-02,6.205740408894295373e-02,-8.009359896230319742e-03,1.086258344201043637e-03,2.821180820465087891e-01
-2.205331929431476323e-01,-2.816031018000523245e-01,-2.731297983257680029e-02,2.071012764988630975e-02,-4.172351994777097860e-03,-3.949673480588979969e-03,2.329147458076477051e-01
-2.561684108783749414e-01,-2.923704172200936591e-01,-2.295287697422065953e-02,8.736180638976659418e-03,-1.239175870548638514e-03,-7.898910636673991612e-03,2.540938556194305420e-01
-2.677226270720894918e-01,-3.036611290952154207e-01,-1.337599576555367764e-02,2.161043120670569969e-03,-8.931328265406851541e-03,-9.906612023379394311e-03,2.750861048698425293e-01
-2.432742061192477434e-01,-2.892742033682094704e-01,-4.213345709518839799e-03,1.593563315135834713e-02,-3.164894908441514415e-02,-1.453081086912657270e-02,2.732455432415008545e-01
-2.879469354689422889e-01,-3.403337037569952317e-01,-2.328090639183036381e-02,2.962802528085082404e-02,-3.029277481664896174e-02,-2.088184374508960175e-02,3.055356740951538086e-01
-2.799463093004408432e-01,-3.031962527145289354e-01,-1.718205863811211875e-02,9.528790927253926943e-03,-1.188822245365305126e-02,-9.637381478902558654e-03,2.768932878971099854e-01
-3.001150297963273705e-01,-2.557652670182022914e-01,-2.517457280741416947e-02,-8.883365142946382867e-03,1.009755550911935196e-02,-6.493748441407053412e-04,2.567284703254699707e-01
-3.014407192961939264e-01,-2.227904108321841770e-01,-2.322149007563617529e-02,-7.781758026413805769e-03,5.888135066936617777e-03,-2.465703925959856178e-03,2.490254938602447510e-01
-3.185619111972868844e-01,-2.444327705090305336e-01,-5.327625584433764994e-02,-5.999408587473808313e-02,1.380628495227841958e-02,-2.156444879941551637e-02,2.626233100891113281e-01
-2.874191746709803263e-01,-2.694915661357961678e-01,-1.070395913379978969e-02,-4.207424322335135553e-03,1.107056371422727656e-02,-9.322516122594201593e-03,2.694686949253082275e-01
-3.229028775838029275e-01,-3.127723492357306068e-01,-7.945435476005485720e-03,5.817134598400936288e-03,4.316991428777016554e-03,-2.777444918921343538e-04,3.102705180644989014e-01
-2.807229897355879578e-01,-2.925676950382143926e-01,-1.453904427830127188e-02,-9.038481765433573631e-04,4.063738524588968518e-03,-7.266261471447944473e-03,2.726856172084808350e-01
-3.028887392310867233e-01,-2.425798118789718461e-01,-4.216505261767597434e-02,-2.926087130750725657e-02,5.608561112369881384e-03,-4.148864600331961597e-03,2.420839667320251465e-01
-2.963847386510731208e-01,-2.731729624929745692e-01,-1.428034351239432231e-02,-3.617589622230196669e-03,1.217644646871045462e-02,-8.960565932907716552e-03,2.725774347782135010e-01
-3.186529344622535675e-01,-3.475560091784455352e-01,-3.955278924207905611e-02,-3.394410249190208534e-02,4.589142178523964583e-02,-2.385429353960769744e-02,3.134978115558624268e-01
-2.231921775504306926e-01,-2.804511265123587616e-01,-7.625508446853335176e-03,9.910300632370555585e-03,1.405464050458363028e-02,1.033743629568581457e-02,2.515919804573059082e-01
-3.307741149906978650e-01,-3.418609710502757970e-01,-4.366768428595896312e-02,-5.610272931090478504e-03,-1.229440355383402874e-03,1.964086544239883499e-03,2.929960191249847412e-01
-3.047968443634542224e-01,-2.376782125148205471e-01,-3.179694243549621713e-02,1.599933580152022514e-02,-2.232223300903460328e-02,-3.750139010424459463e-02,2.592148184776306152e-01
-3.042082436202152018e-01,-2.518947948523834746e-01,-1.991382531313895532e-03,5.151976707353459611e-04,-2.057851555204481646e-03,-1.770928135305716022e-02,2.814535200595855713e-01
-3.201252485770190725e-01,-3.065715033366114284e-01,-4.588921870636170075e-03,3.209823035866599724e-03,2.834743732461409479e-04,-7.479151976466462230e-03,3.093042969703674316e-01
-3.114146248537780770e-01,-2.231662651217208304e-01,-3.701306466396203643e-02,-4.656673930377421868e-03,2.782120939386548055e-03,-2.564913778239605834e-03,2.428507953882217407e-01
-2.847027161321025179e-01,-2.511809692037196284e-01,-2.648034450496583592e-02,-4.782712825157019697e-03,8.902842542126448988e-03,-5.048896822954456950e-03,2.439862936735153198e-01
-2.605463954967067175e-01,-2.318407585449163977e-01,-2.187585013648149501e-02,-2.532173795816971759e-02,1.627508923944066474e-02,-1.784876466377546128e-02,2.336886674165725708e-01
-3.250937806389742057e-01,-2.248798032041723904e-01,-4.208722733073794187e-02,-4.925434029028762789e-02,-1.155886172089250728e-02,6.745258915996917709e-03,2.637984454631805420e-01
-2.988358709889128439e-01,-1.936535046752367040e-01,-5.353040950004633869e-03,-1.435811166642028160e-02,5.956566537802730245e-03,-1.714775158310318307e-02,2.606402337551116943e-01
-2.849218494804959811e-01,-1.345509950248144904e-01,-1.011809945513811315e-02,-1.340382023980581398e-03,-9.267921976308177026e-04,-9.094895974955266235e-03,2.388768196105957031e-01
-2.969988682438982064e-01,-2.381465551180982076e-01,-2.543877599871702255e-02,-6.557545282115444241e-02,2.480424227466757406e-02,-3.249353765749883605e-02,2.813186943531036377e-01
-3.000470229122449428e-01,-2.432855338304017456e-01,-3.060225273541483659e-02,3.918524812388837070e-02,2.394460414610505988e-02,5.846713845928470932e-02,2.776868045330047607e-01
-3.229272087760355348e-01,-3.249636793131234214e-01,-3.732018139847168015e-02,-4.156063470496892086e-03,4.417076153668435322e-04,-4.333880109828241144e-03,2.868203222751617432e-01
-3.059038834312503563e-01,-3.132669069404935280e-01,-5.628007244620258920e-03,1.173322270116442531e-03,4.709158016967056846e-03,7.193100523809578192e-03,3.043955266475677490e-01
-3.267046237253530272e-01,-3.249119362827409541e-01,-1.619069278055695893e-02,-5.428140492447453176e-03,-9.845241302073467170e-04,-2.081601941554750597e-03,3.097898662090301514e-01
-3.246742939731314115e-01,-3.294315495540021121e-01,-5.100496694904990691e-02,2.683120687643569899e-03,4.660771388884658167e-03,-5.862449999883521078e-03,2.764223515987396240e-01
-4.169557375567997659e-01,-4.410395787786112742e-01,-5.607911367598639174e-02,-7.705850421486967750e-02,-5.164306265024303649e-02,7.756918289938040389e-02,4.282163679599761963e-01
-5.644207626944821588e-01,-4.284024048142013874e-01,-1.687870535283409190e-01,1.082493674862185402e-02,-4.244093628249328426e-02,6.124043378387376141e-02,3.717795014381408691e-01
-2.871992786513424267e-01,-2.747592257272248317e-01,-3.632194625797369181e-02,1.711858234192718950e-03,4.621463001223387844e-03,2.584790062458638526e-03,2.450840175151824951e-01
-3.401782867957879319e-01,-3.482418016982518072e-01,-7.095507376780452180e-02,3.941471223746475443e-04,-3.749758495824753821e-04,-1.035558249700829249e-02,2.739336490631103516e-01
-3.267107637412658971e-01,-3.355241989418877857e-01,-4.658283846714247889e-02,-5.064402965357004370e-03,1.472342503205511296e-03,1.267147007515853326e-03,2.847920060157775879e-01
-4.259545201573581852e-01,-4.043537761247034679e-01,-1.131424707997202572e-01,-5.172288962806063234e-02,-8.657666200308651236e-03,5.917196897469009093e-02,3.321379125118255615e-01
-3.013259372826254667e-01,-2.060713424429146401e-01,-2.583788105767426124e-02,-3.235936838837650403e-02,-8.204983793097442649e-03,5.304226842341292630e-02,2.655360698699951172e-01
-4.348004346380285878e-01,-2.175819999462208498e-01,-7.732023925465900116e-02,-6.819315697220100503e-02,1.255435586758332257e-02,2.165805911731513711e-02,3.363861143589019775e-01
-3.534781809825007226e-01,-2.469816136185887800e-01,-1.214185595124150918e-02,-2.790092503571636046e-02,1.243335919925075278e-02,-3.459138841128954478e-02,3.128733038902282715e-01
-2.888686069942901780e-01,-9.659330247983566320e-02,-4.993979739811693630e-03,4.889640362217177044e-03,-1.158050736018044827e-02,-6.320159263969975239e-02,2.746450304985046387e-01
-5.135753963062305028e-01,-2.685464924619966887e-01,-1.110952515087918202e-01,-8.364148096633269858e-02,-2.531152820723456612e-02,-6.659998695791666257e-02,3.995329141616821289e-01
-3.396122067736088157e-01,-2.534035985092526477e-01,-5.208571243056903111e-02,-1.297367237245567462e-01,1.743574468146829454e-02,-4.257216711029921004e-03,3.417270779609680176e-01
-2.828269367347169827e-01,-2.290845847438899296e-01,-2.124984225806036964e-02,-1.068798925982321520e-02,-1.104707509815381142e-02,7.939024642026816514e-03,2.411450743675231934e-01
-2.778145084794877429e-01,-2.796225804482221911e-01,-3.110425099989827524e-02,-4.750160381375320880e-03,-4.714178436734498684e-03,5.288236804556192480e-03,2.480595707893371582e-01
-2.282320410819481671e-01,-2.382317716899284843e-01,-7.098219538105521309e-03,-4.456488218378646532e-02,-1.633565112225695420e-02,1.535673037342937149e-02,2.422345429658889771e-01
-2.983467197278725225e-01,-2.195300142359876971e-01,-2.430404198472169153e-02,-8.863509671883344418e-03,-1.203833599971728362e-02,1.333555788369765981e-02,2.468122392892837524e-01
-3.088192026186349359e-01,-2.805517573356515193e-01,-3.465168534554835533e-03,2.688397823892601634e-03,1.391739595984296113e-03,2.253020000918899354e-02,2.948879003524780273e-01
-4.272972198055189352e-01,-3.449106757208326712e-01,-1.009991907216826190e-01,-3.647427455402372370e-02,-5.963474756282331757e-02,7.936194898097514994e-02,3.463096320629119873e-01
-3.231311581732544957e-01,-3.284266852248024504e-01,-3.988756707427421055e-02,4.198210690745599570e-03,-6.145739680934950025e-04,-2.201046756607785010e-03,2.860479652881622314e-01
-3.175590610686216952e-01,-3.288557652723333447e-01,-2.829866819130874567e-02,1.492557309183682171e-03,-5.950359460490194487e-04,-4.044465158846141661e-03,2.951672375202178955e-01
-3.786586844654503681e-01,-3.710992968239766876e-01,-1.103981989094199034e-01,-8.510940354847645883e-03,7.235117393793096333e-03,1.804674652622268935e-02,2.671036422252655029e-01
-3.306778809193661739e-01,-3.201505681684270743e-01,-7.561606019069189166e-03,7.167866059667271725e-04,-3.658001051641171617e-04,6.828787259859205126e-04,3.179886043071746826e-01
-3.243894613805665128e-01,-3.173465281605439836e-01,-3.652989609167239804e-03,2.169794563563383523e-03,-3.791279150410398376e-04,-5.429680398260627048e-04,3.172979652881622314e-01
-2.686173700414474785e-01,-3.202828219352389927e-01,-3.083166791560695841e-02,-1.031410251896468710e-03,1.767771022740049656e-03,-4.609258477481557523e-03,2.675312459468841553e-01
-3.230100176901998799e-01,-3.134352273914063902e-01,-5.739667296322414902e-03,-2.536407731161922853e-04,1.811345824250885006e-03,1.191333365861347009e-03,3.126158118247985840e-01
-3.261034496374137781e-01,-3.143702888454001365e-01,-4.810520832349257647e-03,-4.453578143314790511e-04,3.907375280255734838e-05,1.622910668223408279e-04,3.155910372734069824e-01
-3.249610563555305198e-01,-3.146125886809193473e-01,-4.565019424113470059e-03,-3.014854660124945888e-04,1.610822760536881283e-04,2.912876938275427738e-04,3.153501451015472412e-01
-2.883433642215994519e-01,-3.105833376575644067e-01,-6.736368923591223856e-03,-2.539474642394120435e-03,1.271844704945703994e-02,-7.271951200132791004e-03,2.944882214069366455e-01
-3.266596519313577085e-01,-3.140947565752265636e-01,-3.812168833241952326e-03,9.518779872321733509e-04,-4.536829123871369360e-04,-9.917917561698779121e-04,3.167619109153747559e-01
-3.265550654165724764e-01,-3.155159406238212672e-01,-4.213117376441977147e-03,2.128230327475354178e-03,1.251397011884805652e-03,-8.549554875275935072e-04,3.169988989830017090e-01
-2.432672029034345651e-01,-3.758010013809172101e-01,-5.698048657211174373e-02,-2.789116827273351029e-02,2.396523591451986748e-02,-4.414170383857276073e-03,2.847322225570678711e-01
-3.207990728815675596e-01,-3.154649050537904342e-01,-2.364710155005028680e-03,1.688309765599960415e-03,-2.516405545581378104e-05,-9.149505467790604914e-04,3.158185780048370361e-01
-3.474828802265764738e-01,-3.646637255952090428e-01,-3.948351428066207425e-02,1.144005552273050751e-02,4.063287521856393664e-02,1.442132290770760036e-02,3.262209594249725342e-01
-1.948055106578697737e-01,-2.864506423660839185e-01,-1.348873222030494423e-02,-2.071859610634742624e-02,2.151262819284660913e-02,-1.208625892725891278e-02,2.469935119152069092e-01
-3.209725009909102922e-01,-3.314050425326081073e-01,-3.544543680197623226e-02,-4.374540224537772776e-02,4.482852843640792312e-02,-3.525051493823287002e-02,3.164030313491821289e-01
-2.758117192585081701e-01,-2.981849550312369868e-01,-1.752104884507718618e-02,-2.479254372312927630e-03,9.791918133029034119e-03,-9.681267619567422017e-03,2.712576091289520264e-01
-2.677251094524732422e-01,-3.013813144700793756e-01,-1.105347500620501577e-02,-2.580629011497903840e-03,9.255908188052840851e-03,-8.681190155460170865e-03,2.759614884853363037e-01
-2.923216802960904026e-01,-3.188326418456650657e-01,-1.253192033431121954e-02,-1.673206593451605998e-03,6.001677777462032437e-04,5.661617981775133278e-03,2.941229045391082764e-01
-2.639687234904664059e-01,-3.202288346696835486e-01,-1.353133846127174689e-02,-8.888631469562563447e-04,-1.202657896822564854e-02,3.175072823409179953e-03,2.836199104785919189e-01
-2.629969652415504733e-01,-2.952267889845627824e-01,-1.331102059724587061e-03,1.616040387908576148e-03,-6.455056861818045562e-03,-1.105794065957734287e-02,2.800730168819427490e-01
-2.930440959117533439e-01,-3.176278746165275835e-01,-1.349097524842965412e-02,1.008043568595807507e-03,-1.837578776689259650e-03,-5.006727741259982961e-03,2.927715182304382324e-01
-3.156684103143778675e-01,-3.175879937304526557e-01,-6.216412643506197266e-03,-3.465466938158153105e-03,-1.579407486238385816e-05,-2.848419740578099317e-03,3.105134665966033936e-01
-3.210249202102373189e-01,-3.244953722670080865e-01,-1.297483974009341900e-02,1.583916411041501283e-03,-6.427474996654852259e-03,5.793496283400019140e-03,3.101743459701538086e-01
-3.208184675411664410e-01,-3.200866826560174183e-01,-6.342689006337165480e-03,-4.405395964084243745e-04,1.134235790838812770e-03,2.720985026901467149e-03,3.141529560089111328e-01
-2.522938910441346883e-01,-2.752933840275573751e-01,-2.258008802561237149e-02,1.770478686671300012e-02,9.119494269843712170e-03,7.832664027603566601e-03,2.448563575744628906e-01
-2.415635098739133402e-01,-2.844099017203262636e-01,-3.570677865224536340e-02,6.474175503477209992e-03,-1.947614654565804409e-03,-1.969865534415768480e-03,2.306117713451385498e-01
-3.267067328977671381e-01,-2.701076059155228526e-01,-3.568538959309300318e-02,-1.585887859769460201e-02,1.156998840586641319e-02,-4.096831625364009272e-02,2.785976529121398926e-01
-3.156047519367059517e-01,-3.159005719056684480e-01,-1.773318255526620812e-02,-2.042644468300677026e-03,-1.453957145108576536e-02,1.487537876505945662e-02,3.002102971076965332e-01
-3.204956570420643969e-01,-3.271070344939960295e-01,-7.407673295465044827e-03,4.338856177728182308e-03,-2.619559729102756505e-03,2.114217807599793730e-03,3.165884017944335938e-01
-3.135704147391611962e-01,-3.155420714123310932e-01,-4.398815176545473049e-03,2.949563730256431811e-03,-3.359454984938791983e-03,3.735487967096507052e-03,3.103262186050415039e-01
-3.083044206546628474e-01,-2.948152769653397676e-01,-4.526709623262958893e-03,-4.587351905517727570e-03,-1.221630224263517243e-02,1.097453227476424820e-02,2.987261712551116943e-01
-3.299340277681427347e-01,-3.298172506572945029e-01,-3.683817033984726486e-02,6.125327326925312198e-03,4.134055089093096810e-03,4.423239664805543331e-04,2.933178842067718506e-01
-3.250794979280454133e-01,-3.215428845152449311e-01,-1.702310081008095999e-02,6.109380250716457336e-03,-1.392777057111773201e-03,-1.460237476110645347e-03,3.065060675144195557e-01
-2.886328118693820555e-01,-3.342870480023143465e-01,-2.171765153591750930e-02,-3.835963163599375586e-02,-2.763412661421195404e-02,2.769927029073127739e-02,3.074424862861633301e-01
-2.888037303341153272e-01,-2.802820460518309353e-01,-8.110482006351116269e-03,-1.798354131092681687e-03,-7.957255486670516270e-03,3.339543008772650947e-03,2.769520878791809082e-01
-3.154875090536616855e-01,-3.157161240165309857e-01,1.657818741123917583e-03,9.501119451949298464e-09,-7.754701008548628731e-05,-1.104081327643903466e-04,3.172597885131835938e-01
-3.180604324865757837e-01,-3.179963620311928585e-01,3.658194716894547227e-04,-5.951220182904170446e-04,-7.557217486494525137e-05,-1.093217236678015788e-04,3.183959722518920898e-01
-3.159780535625549280e-01,-3.159978106251006835e-01,4.204478600597083560e-04,7.340409965521275612e-05,-5.484979543625649333e-08,-4.366041850184515646e-04,3.164093196392059326e-01
-3.128990506642512770e-01,-3.132078414785665066e-01,-1.560708737018523529e-03,5.197445299203056509e-05,-1.143227264451250635e-04,-1.125374807331718571e-03,3.114990293979644775e-01
-3.136787665290940441e-01,-3.142065665222414927e-01,2.638355754103566264e-03,-9.108940040970427837e-04,-3.771962604488740003e-04,-5.537723186888386748e-04,3.165874183177947998e-01
-3.138531752049649182e-01,-3.137966519114661623e-01,2.689520677742779364e-03,-9.666541106988356825e-04,-4.861030239582328494e-04,-4.685571979557831470e-04,3.165210187435150146e-01
-3.526175842798618398e-01,-3.654289845536471959e-01,-4.156305584038760825e-02,8.802216873402357675e-04,1.674872972714651007e-02,-7.565408254537440850e-04,3.189822733402252197e-01
-2.013002802580349526e-01,-3.172738531682096630e-01,-1.340918885916916881e-02,4.011306337876838560e-03,5.950884996843224667e-02,1.993074673967943841e-02,2.870665788650512695e-01
-2.325860037030492433e-01,-3.378091800403378864e-01,-5.446984462369117153e-02,1.627545014371530041e-02,6.255964608374929570e-02,4.189864051252432942e-02,2.816762626171112061e-01
-1.878597729877280464e-01,-2.787101309011441597e-01,8.509396232660532133e-03,1.843146491622926070e-02,5.709613267680744425e-02,6.366698962847843618e-03,2.749100029468536377e-01
-3.300685751716685989e-01,-3.193435651233425543e-01,-3.605856327904513603e-02,-5.731999470076610224e-04,-2.238555947213608801e-04,5.083991220055572233e-04,2.888002097606658936e-01
-6.257265192918858299e-01,-6.634640120234146510e-01,-2.205907883913392764e-01,1.454045146272843654e-02,6.297745073049730580e-02,1.375201593550753713e-02,4.403952658176422119e-01
-3.315889518325288998e-01,-3.424165702859577332e-01,-6.820950310975090747e-02,-2.108488072461796488e-03,-1.845049662548530443e-03,-7.881246707433052848e-03,2.693466842174530029e-01
-5.497488156848764351e-01,-4.482117416279181032e-01,-1.551693616709302892e-01,3.897986928894318914e-02,-8.433336299052559236e-04,1.650742860924299740e-02,3.623757660388946533e-01
-3.463292373130773538e-01,-3.338495756220584143e-01,-4.304962975330095531e-02,4.581327187834347524e-03,5.920975364321541014e-03,2.552113399264967393e-03,2.975518703460693359e-01
-4.017478388402745404e-01,-3.632840355769123009e-01,-5.690895639999518640e-02,-5.657915203694054151e-03,-1.231169623703940938e-02,3.471047842460172478e-02,3.336086273193359375e-01
-3.261716310671168850e-01,-3.324756522357725785e-01,-6.349398932483060753e-02,4.296097015181768626e-03,2.717784650861564621e-04,-4.287156122620298764e-03,2.660938501358032227e-01
-3.236555120915785566e-01,-2.663337116213844724e-01,-1.159432084384806605e-02,1.303711477199932564e-05,3.615341286820510265e-03,-1.718388630982930695e-02,2.893184125423431396e-01
-3.358175076762933697e-01,-2.128421020782724493e-01,-2.362051070213477821e-02,1.361719676345738393e-02,-4.225421457156535755e-03,9.742615751657358880e-02,3.213763833045959473e-01
-4.537623175604283410e-01,-4.077247359158812090e-01,-1.259181271453125028e-01,-1.382541549206226829e-02,-2.764078847100249689e-02,6.344658575405558165e-02,3.308322727680206299e-01
-3.282055553557605698e-01,-2.269474192367004206e-01,-6.007587478475354126e-02,-3.109511018035800850e-02,-2.071916646023266168e-02,7.364530572288421895e-02,2.746923565864562988e-01
-4.572555825677563357e-01,-4.811953327853661921e-01,-1.432548798155988401e-01,7.089951210102973800e-02,2.327698166187391893e-02,8.287352880103708574e-02,3.794685602188110352e-01
-3.912589719227463347e-01,-3.621591970880891909e-01,-7.143383862307745025e-02,-1.008451430470076564e-02,9.861436688939370296e-03,1.067592906957160435e-02,3.078422248363494873e-01
-3.034199103597841063e-01,-2.189297250634927861e-01,1.827894753677894446e-04,-3.005210920560814989e-03,-3.212638052246229343e-03,-3.977438865213276525e-02,2.801174819469451904e-01
-3.283667636156802350e-01,-3.186331210094167088e-01,-5.353248978674257641e-03,4.009949834927382072e-04,1.080947753360207405e-03,-1.037553140648488819e-03,3.182696998119354248e-01
-3.257015881631197263e-01,-3.187289541417115402e-01,-4.770308515242183134e-03,7.192370481868634200e-04,-2.224291071339524063e-04,-6.032028433392329228e-04,3.175067901611328125e-01
-3.220886713320536554e-01,-3.145022248014086585e-01,-2.577592857722632580e-03,1.679325915703593422e-03,7.417530856622021017e-04,-1.064599114253349677e-03,3.158076107501983643e-01
-3.270240252848339857e-01,-3.206310157304966824e-01,-5.523339090104273374e-03,1.058174679866903277e-03,1.273214821876620956e-03,-3.047704780584593529e-03,3.184089958667755127e-01
-3.291681266142362228e-01,-3.182538053635063369e-01,-9.989431225065931175e-03,3.027063918114188384e-03,9.059735890825277877e-04,-1.819901300828565525e-04,3.139117658138275146e-01
-3.260338633808878561e-01,-3.180605129744942805e-01,-1.688887683734469070e-02,4.246795934840842147e-03,-7.090664876593089343e-04,-6.290284969062963924e-04,3.053294420242309570e-01
-2.926876498903548951e-01,-2.945270974092725758e-01,2.189386529787146207e-03,-2.230797873401509611e-03,5.193207705238838713e-03,-7.740125314411051491e-03,2.962664663791656494e-01
-2.775832427188200668e-01,-2.375303788136060579e-01,-1.046771578663113766e-02,1.883089300771386906e-02,-1.031043899065865743e-02,-3.939504994111633646e-04,2.522684633731842041e-01
-3.779430113060618934e-01,-1.648853101632236084e-01,-1.616295195017902753e-02,-2.389913830062486214e-02,1.879698729828731610e-02,-4.959864534907142131e-02,3.306840360164642334e-01
-2.439021924608387459e-01,-8.746685850426973163e-02,8.423808225621998158e-03,6.640824158207016270e-02,-3.778439415180344287e-03,-7.792506474534285389e-04,2.488825768232345581e-01
-3.015398196717359869e-01,-2.721150043091821735e-01,-4.958952500385879758e-02,6.028614230673512431e-02,-1.657579392061021145e-02,-1.815882705592301513e-02,2.639089524745941162e-01
-3.062187839041442539e-01,-2.693433247080498361e-01,-1.638884900906659170e-02,4.576931168639419151e-02,-1.744749761706628627e-02,-3.884413575060041007e-02,2.939352095127105713e-01
-4.011413053096255510e-01,-2.759766793133534568e-01,-6.842804028342963640e-02,9.986717726848368115e-02,-3.270864164292060228e-02,-4.097366926395961534e-02,3.505521714687347412e-01
-3.599806978087607412e-01,-3.605556470536463998e-01,-4.327735574042521072e-02,3.348936225599975086e-02,-3.686764907467342950e-02,-3.593706208693801113e-02,3.343652486801147461e-01
-2.841480794162092316e-01,-2.914778371448255578e-01,-3.053162153158744951e-02,5.343883967574188099e-04,1.246974089576931462e-03,-4.990174515036788390e-03,2.575154602527618408e-01
-2.962248771101962386e-01,-1.942553841242309898e-01,-2.922610965967828434e-02,-1.124115508854329343e-02,5.468373907938891068e-03,-7.151989229414077234e-03,2.346969246864318848e-01
-2.903228988099908481e-01,-2.852364024112183927e-01,-3.072211364642787879e-02,-3.039430001229851807e-03,-3.743431765947231556e-05,-1.844194513383852528e-03,2.571690082550048828e-01
-2.679858273717232731e-01,-2.674202150489314311e-01,-2.998910817029654119e-02,-5.119910742680609805e-03,2.073482040722221358e-03,-1.655004900352047975e-03,2.379241436719894409e-01
-3.121305536520585511e-01,-3.120290375140636896e-01,-8.542428363177423378e-04,3.181867529510122822e-04,1.914643762451908844e-03,-1.324633086030008828e-03,3.112521767616271973e-01
-2.817527447147537556e-01,-2.806389191243146009e-01,-3.771152263590774045e-02,-9.735043308396267806e-04,2.260767468828154148e-03,-1.774667283343674433e-03,2.435429394245147705e-01
-2.642992009454266933e-01,-2.774819087105383497e-01,-2.862653932178213512e-02,-1.820499020151884880e-03,4.298447567190896192e-03,-6.342507425992793824e-03,2.429161220788955688e-01
-3.485702350344814238e-01,-3.166275460816530551e-01,-7.330871035778324663e-02,3.741393478766880110e-02,2.497380997473996195e-02,6.915454140873637974e-03,2.724162340164184570e-01
-4.597816432147900922e-01,-4.431194906250427445e-01,-1.379309671193106601e-01,-1.907508804395349625e-03,4.867622293249465604e-02,8.372999832189810532e-02,3.558847308158874512e-01
-4.351099056867054893e-01,-5.559129788602310551e-01,-1.340504415625607681e-01,8.884144127620313691e-03,2.296425406200816935e-02,1.403097068813395458e-02,3.794845938682556152e-01
-3.894311014890815548e-01,-3.596497081749869262e-01,-8.618934035211850420e-02,1.051221872375820987e-02,1.035761712627626327e-02,7.260396591256040345e-03,2.909003794193267822e-01
-3.196244767400926445e-01,-3.273502020705729709e-01,-3.081969734354395030e-02,-3.440466390324420668e-04,3.659855567417956857e-03,-1.233335070773466577e-04,2.928134202957153320e-01
-3.249699069007656593e-01,-2.958472899257643673e-01,-6.998222319573865757e-03,5.489124051675801832e-04,9.226084799172706158e-03,1.422914057846996240e-02,3.058719038963317871e-01
-3.212393014951239190e-01,-3.220016406630598071e-01,-1.326961339363239012e-02,-2.440270046880305219e-03,-4.155292648423173328e-03,-9.925515003478936962e-03,3.089431822299957275e-01
-3.306107480626399586e-01,-3.215179204581636863e-01,-3.536313664584239680e-02,2.394599544777003533e-04,-5.774505451265114992e-04,4.646837447221865568e-04,2.908109724521636963e-01
-3.383270406483452897e-01,-3.818614903123394022e-01,-3.383999378431903904e-02,2.794808367998708951e-03,-1.740648828315327981e-02,-6.422147654372945165e-03,3.300293982028961182e-01
-3.137998744946057239e-01,-3.278046668115570661e-01,-5.935340754883422498e-02,5.135339551299587628e-03,1.279303124739557262e-02,-3.684788212649221079e-04,2.628176510334014893e-01
-3.304864692433964191e-01,-3.250296117914047156e-01,-6.925520888713759815e-02,-1.359478572021487371e-03,-5.697142867145462298e-04,6.929516818588643198e-04,2.585614025592803955e-01
-3.263617239144661619e-01,-3.360475118783839976e-01,-2.911742043398882207e-02,1.293809364600925077e-02,-1.127811099847397282e-02,-1.058184232468292220e-02,3.042149543762207031e-01
-3.486270349150420444e-01,-3.522673449639790455e-01,-5.099929931659902271e-02,1.748260048069473493e-02,-1.963412838041858968e-02,-1.730494530234348355e-03,3.029214143753051758e-01
-2.956814025474326368e-01,-3.168147443624848014e-01,-6.108010588891210624e-03,2.540910232771098360e-03,-2.246863934375764940e-02,-5.140534576749144526e-03,3.033680617809295654e-01
-3.382888792711234993e-01,-3.398925986185308279e-01,-5.329316925297292173e-02,3.386630176586099324e-03,-8.054378870718602312e-03,4.812992976184563183e-03,2.863227128982543945e-01
-4.858867229011739619e-01,-2.867278931436298417e-01,-8.578514009065291157e-02,-1.327720898890497742e-02,1.535588709372185355e-02,-5.819530768021445588e-02,3.625715076923370361e-01
-3.915052023084540922e-01,-3.448980130683810263e-01,-9.037236798241740643e-02,-3.859784882216157897e-02,1.590686128674248870e-02,-9.297946954705829659e-02,3.316357433795928955e-01
-3.459689349690434623e-01,-3.464209760286440787e-01,-9.281231820511506858e-02,3.561829612133421506e-03,-8.815634854824876826e-03,4.385214389022812354e-03,2.540311217308044434e-01
-3.203585733822400528e-01,-3.236846699413136186e-01,-9.840996312921596045e-03,-9.449576506603113955e-04,-1.778739036107605505e-03,-6.353805081366342179e-03,3.124073147773742676e-01
-5.611376470669471317e-01,-4.767349409590073139e-01,-1.364612928755803423e-01,-3.255465960502298278e-02,2.062920648720489164e-02,-1.565407122079061006e-02,3.960066139698028564e-01
-3.889332745614142439e-01,-3.908933098100806358e-01,-1.272024567294504915e-01,-1.108053410826907725e-02,7.411020740199075578e-03,8.802421776816308704e-03,2.641693055629730225e-01
-2.466904470020043205e-01,-1.324166878143616666e-01,2.554908556897822480e-02,-5.214828714336446069e-02,7.013583448455411144e-03,-5.072823405918460565e-02,2.684939205646514893e-01
-3.218968637689111345e-01,-3.294609763063057195e-01,-2.509780622435264785e-02,1.336589605931197584e-03,8.951130110882401418e-04,2.742667924242402078e-03,3.007029294967651367e-01
-1.993434949204072049e-01,-2.013502208571475993e-01,3.642097329944804507e-02,1.205565740390969892e-01,-6.310837525673719528e-03,-7.881923856401176418e-03,3.161796033382415771e-01
-2.518469932948212975e-01,-1.468343245958419474e-01,2.194395175514549101e-02,6.781795497943508833e-02,1.411384155652987277e-02,3.213993879429012657e-02,2.733714878559112549e-01
-2.123441950749072604e-01,-2.077002800031362562e-01,1.552243548596998757e-02,7.860652540413262668e-02,3.352919391104947078e-02,2.013018004049851872e-02,2.720511555671691895e-01
-1.211183457665996194e-01,-1.693547162344770651e-01,5.065574734390096423e-02,9.614021851100205962e-02,1.753653976168179085e-02,1.909235442200272678e-02,2.643176317214965820e-01
-2.787324153792515302e-01,-2.979522160727335334e-01,-1.449897239909289648e-02,2.463110246962011297e-03,7.774688907228021091e-03,9.144027679407869258e-03,2.751683294773101807e-01
-1.977130434687956739e-01,-2.816806098918852586e-01,-1.472147785401844988e-02,4.571084697044342643e-02,4.526763626258055451e-03,1.659151676444361317e-02,2.511126697063446045e-01
-3.030375050871083054e-01,-3.113223917538578966e-01,-1.158302068780595051e-02,2.064563754264683588e-04,-6.942071566221902877e-03,-8.717901021807736295e-03,2.963135838508605957e-01
-2.927606300935678973e-01,-2.973297183933271137e-01,-1.510886498698491009e-02,6.558947451610251667e-03,-8.677050877540594398e-03,-6.874490146051089219e-03,2.808499634265899658e-01
-3.249046748286055220e-01,-3.276543278853136787e-01,-2.285120579170984989e-02,5.902456363206499100e-03,-1.481886357610127621e-04,-8.518259114499179482e-03,3.039681911468505859e-01
-2.708630708646063145e-01,-2.939548066736198395e-01,-9.605678259065164593e-03,2.501548902548734674e-03,-8.095632979815027899e-03,-9.679041078243941915e-03,2.744412124156951904e-01
-2.961869645657245198e-01,-2.997870490990250381e-01,-2.899713199854775381e-02,1.598903073227786291e-03,-3.994284181254335181e-03,-8.903282489816480988e-03,2.695526182651519775e-01
-3.063803341851077944e-01,-3.103769124394459844e-01,-5.547327039967381301e-03,-4.624917581811768992e-04,-1.756415754773190882e-03,-5.007643289054642191e-03,3.029915690422058105e-01
-3.175914927894679662e-01,-3.149639854471920630e-01,-2.323734307879216088e-03,-8.275888793959795169e-04,-2.486353331191555258e-03,-3.297577702150936239e-03,3.140470087528228760e-01
-2.815596936402183781e-01,-2.799556555325318774e-01,-1.449225690637412356e-02,3.602933972217948512e-03,-5.497156923120742611e-03,-3.290618101050583194e-03,2.665732204914093018e-01
-2.953515898167460296e-01,-3.167436538404342916e-01,-1.185484749747639510e-02,9.455179163405480036e-05,-1.109361948956425706e-03,8.320666478732732167e-06,2.947818338871002197e-01
-3.276268031954252535e-01,-3.154132317088235160e-01,-1.539551318992199436e-02,1.687301763836575362e-03,-1.930340461335603840e-03,-6.025464493141775802e-04,3.063411414623260498e-01
-2.785658692497134936e-01,-3.783987325708867422e-01,-3.325697224069187885e-02,-2.195412142598084093e-02,-2.975257678368961600e-02,1.327917118028006452e-02,3.150611817836761475e-01
-3.010047999751188086e-01,-3.030819494473689923e-01,-8.231025769156380401e-03,-5.957205371088128247e-03,-1.469818178913842588e-02,1.042820386219374569e-02,2.956514060497283936e-01
-2.702414732096419803e-01,-2.534211340421996805e-01,-2.102712113238150438e-02,1.745093287596921616e-02,-8.765254535304255884e-03,-5.361750967716300519e-03,2.437810152769088745e-01
-2.776823633096134891e-01,-2.530095841642781007e-01,-2.270527388837706440e-02,5.951052156033827430e-03,-9.095869590216642403e-03,-3.736875320863304855e-03,2.443919181823730469e-01
-2.880400464673314453e-01,-2.558933902105935410e-01,-2.640089782500321114e-02,4.001782212477437289e-03,-9.223333102892618263e-03,-3.177158356782156141e-03,2.478127628564834595e-01
-2.939156860051914677e-01,-2.569886796990441535e-01,-2.502277132702071527e-02,4.839745525952441653e-03,-7.801037295361194952e-03,-3.216292045300083065e-04,2.529639005661010742e-01
-3.224400661263892576e-01,-3.329786565536075882e-01,-5.714930564410961034e-02,-8.940767794835256278e-04,2.605405806714598588e-05,-7.020374015308337295e-03,2.709913253784179688e-01
-3.334918298461804209e-01,-3.440120354244896039e-01,-6.771512582679117820e-02,2.941926160729376512e-03,1.620405221933560614e-03,-7.442239637022907313e-03,2.715584039688110352e-01
-3.240764754167535511e-01,-3.360273676895485506e-01,-6.263073910181160553e-02,-7.464201222704389170e-04,-1.706207310650731000e-03,-9.059692569213212421e-03,2.681004405021667480e-01
-3.250604838728380352e-01,-3.303431018388977569e-01,-4.128932962479170410e-02,-6.261737708657212631e-03,4.245464672448548242e-04,-4.093700567961059723e-03,2.867428660392761230e-01
-3.221496742509734057e-01,-3.259756037092489400e-01,-3.184991395500541556e-02,-1.114214648476940855e-03,6.629545715948293415e-03,1.395592925054182053e-02,2.934606075286865234e-01
-5.462754634819736443e-01,-3.912973889602421873e-01,-1.391917637210528247e-01,6.128181385303013012e-02,1.729163706867894307e-02,7.294198131819483455e-02,3.934098184108734131e-01
-3.707317676624398706e-01,-3.678126534425337213e-01,-1.277907175173146892e-01,-1.109243786313842588e-03,-1.137203104291139438e-02,-1.425053196495762800e-02,2.435581982135772705e-01
-3.035164976099491985e-01,-2.662343521801530111e-01,-1.354844075694047745e-02,-2.301887009422267944e-03,8.182349339042341296e-03,-7.990101450652114037e-03,2.739873528480529785e-01
-3.046886539615533129e-01,-2.351998107066357591e-01,-4.593824850297140161e-02,-7.791096768532674091e-03,-4.542375325259629532e-03,-4.404309149019344088e-03,2.325992286205291748e-01
-2.702426973427232704e-01,-1.944639783430171520e-01,-2.421308028595522965e-02,-2.474242087522564304e-02,-7.168523311032069453e-03,3.272148092904878132e-03,2.228273451328277588e-01
-2.969455795927016251e-01,-1.418040683646585309e-01,-1.798455128833534311e-02,-1.358233567955423500e-03,3.416277587513709673e-03,1.798829546940684202e-03,2.421981841325759888e-01
-4.502305823371426374e-01,-1.927033220535572799e-01,-3.796572192754110731e-02,-6.113787327449393683e-02,1.637902317025824450e-02,-3.166372179995805003e-02,3.809714913368225098e-01
-2.307316618043192546e-01,-2.798812409198838669e-01,-2.336879110165335227e-02,4.507811885556654505e-03,1.113918617864657033e-02,8.007993947969744078e-03,2.371337711811065674e-01
-9.216055517959031995e-02,-2.952697475651780423e-01,5.674193774373090249e-02,6.510675117570746684e-02,-6.688798808114413200e-03,1.809959510300559711e-03,3.263885378837585449e-01
-6.674214358936159108e-02,-2.102509223521026871e-01,7.454776849121605431e-02,1.000931601906656643e-01,1.796470841528949314e-02,1.492095836775838257e-02,3.041808307170867920e-01
-1.853411948797597242e-01,-3.859826203757599217e-01,-2.629748099289258567e-03,8.692932687455776075e-02,-1.881786490591989131e-02,-2.663166924361397552e-03,3.661334216594696045e-01
-1.880935253855525180e-01,-2.729629487368055996e-01,4.572625996200480047e-03,6.647523932820738335e-02,1.967936064492756959e-02,3.682115576462770268e-02,2.813549935817718506e-01
-3.853082602040663884e-01,-3.836011593972186162e-01,-1.116688405070174472e-01,-7.916389539011336671e-03,-3.566580086249001181e-03,4.600542808549268770e-04,2.732052803039550781e-01
-3.169583632655602612e-01,-3.149201886515382576e-01,5.026746315193175718e-04,-1.179786560839596928e-03,-7.608367398896819433e-04,-9.667651294615928854e-04,3.164606392383575439e-01
-3.145924145431777119e-01,-3.157093418021210685e-01,-1.993009889423580372e-03,-1.532463115891800898e-03,-2.181146533899642071e-03,-3.064890153119109641e-03,3.132383823394775391e-01
-3.162707606557619844e-01,-3.114962277089657339e-01,-1.000011314727411449e-02,-6.283348564134919132e-04,-2.365941762870360943e-03,-3.010339847381130439e-03,3.039858043193817139e-01
-3.205511795784755646e-01,-3.160248693400388165e-01,-3.212015376767607400e-02,-3.293301572278908504e-03,2.412041413043030194e-04,7.922480190489929143e-04,2.862551510334014893e-01
-1.440544308850512933e-01,-2.749346303344975539e-01,-1.445745082528906988e-02,2.059712209838272454e-02,-5.827195386947832574e-03,-2.734402018912950125e-03,2.286563068628311157e-01
-3.218101136264384654e-01,-3.197869799530161927e-01,-3.430690496578303605e-02,-3.623395294940177491e-03,1.806040358566605086e-03,-1.855838449359644175e-03,2.866008281707763672e-01
-1.650477204141957976e-01,-3.361565100248810056e-01,-1.794435826096821285e-02,-1.651064604182866935e-02,3.610078947801128452e-02,1.078474318667946904e-03,2.842875123023986816e-01
-3.238697148384896973e-01,-4.695761192435244924e-01,-9.041453174222283118e-02,9.313884957085369343e-02,-7.208518725745936828e-02,-1.871664873392003782e-03,3.890648484230041504e-01
-2.544544825134184007e-01,-3.030751803955002988e-01,-9.686501470435537886e-03,4.345072158418747908e-03,-9.598831628178346523e-03,-1.040245799300077226e-02,2.735576927661895752e-01
-2.574259433083891935e-01,-3.089439267742105644e-01,-6.832067187421297927e-03,5.176034983436552392e-04,-1.313936471379120903e-02,-4.659118671731127606e-03,2.809721231460571289e-01
-1.897510156725542851e-01,-2.869251987459748299e-01,-2.528127671748706118e-02,1.424285793286522370e-02,5.055273664770364075e-04,2.437670263189885105e-03,2.304397970438003540e-01
-3.266420530618936446e-01,-3.141244632943073212e-01,-1.731940024238309839e-02,-2.670858731182240101e-03,-1.274658796858784164e-03,-1.528812079255444274e-03,3.033125698566436768e-01
-3.206739824172112341e-01,-3.349750396205041225e-01,-3.635765928022852145e-02,1.989161317017509173e-03,1.060633801815887185e-03,4.430133003284952332e-03,2.918568849563598633e-01
-3.133288950336153844e-01,-3.276030200166853423e-01,-8.510296099921127455e-03,-1.355212798936521927e-03,4.397153548208744241e-04,-1.556930475477420663e-03,3.122218847274780273e-01
-2.933879679879743962e-01,-2.236648233887759962e-01,7.216431497928221805e-03,-6.396827936576115169e-03,-8.480749661743412771e-03,4.184613325210131268e-02,2.825899124145507812e-01
-3.544183813964844054e-01,-2.870946958528359239e-01,-1.781941950415477649e-02,-5.814667318156120299e-03,-2.164270362262728578e-02,4.456470191900663291e-02,3.203668892383575439e-01
-3.246631285003802603e-01,-3.333727604807764644e-01,-4.163640401506363276e-02,-7.131162212302326678e-04,-1.361260731169961153e-03,1.672067921076107267e-03,2.875074148178100586e-01
-2.943743263200671034e-01,-2.946641975458096363e-01,4.781961326387862421e-03,-3.618255852409888243e-03,-7.699974186650949091e-03,6.467280384979343273e-03,2.998731434345245361e-01
-3.165991584959709226e-01,-3.274172825403167675e-01,-2.422496478291868982e-02,1.856492834248980395e-03,5.797936548167494314e-04,-2.847584088653168366e-03,2.979904711246490479e-01
-3.295005994393481741e-01,-3.338515323627869180e-01,-1.690152907441386243e-02,5.147245067071335410e-04,-2.983020396464012083e-03,-1.306042144822655701e-03,3.148488700389862061e-01
-3.058533808630794493e-01,-3.040816670959877732e-01,-8.311716120301682054e-04,-1.158638570758142167e-03,1.056061847792178756e-03,-4.897943196234917700e-05,3.041523694992065430e-01
-3.151266941656065135e-01,-3.161370439726501891e-01,2.978926580514684730e-03,-5.331734383730841022e-04,1.477085437000067369e-03,2.653860526671088975e-04,3.186239302158355713e-01
-3.225757998968215023e-01,-3.240315433825126101e-01,-4.074562836764189511e-03,-1.860661660105852140e-03,3.158769197846912971e-03,1.317700744297915175e-03,3.193028867244720459e-01
-3.220937169430247993e-01,-3.253993256603815443e-01,-1.335294477087134446e-03,-2.523634458793669148e-03,1.716182760639428737e-03,1.126683686011038842e-03,3.224731683731079102e-01
-3.037779579939380858e-01,-3.008173786703661756e-01,-5.813772028450042706e-03,5.265990217714611437e-04,4.686852809657549371e-03,1.885099875479041582e-03,2.966254651546478271e-01
-3.136970859872198480e-01,-3.145256325388885998e-01,-4.559105274268754338e-03,-7.571886785831174332e-04,4.756164407257230768e-03,8.124403990066688449e-04,3.096686601638793945e-01
-3.146240800137902194e-01,-3.150693368024340413e-01,-1.573018952646970670e-03,-6.738160503483184380e-04,9.626540344153186471e-04,1.361922829733420428e-03,3.132894039154052734e-01
-3.013028777389070711e-01,-3.049546257867137844e-01,6.261599038395460060e-04,4.116227597031090661e-04,3.081842134733553742e-03,9.507138987681809216e-04,3.038235604763031006e-01
-3.136662649589654350e-01,-3.131306402247371334e-01,-1.819659447700711086e-03,3.420551576879139592e-04,2.200875632524366358e-03,3.140860555524154982e-03,3.116505146026611328e-01
-2.890545325255570730e-01,-2.299501643527639139e-01,-3.606684215360977941e-02,-1.224428125892320848e-02,-2.887444085220135064e-03,2.333499102453460484e-04,2.302571684122085571e-01
-2.616617311028575643e-01,-3.307766636276522343e-01,-3.103195269290257019e-02,-5.039387019221817270e-04,1.625510811851160883e-03,1.992235723442815389e-03,2.718961536884307861e-01
-2.948558647578542469e-01,-1.970206045045127530e-01,-3.188618269381515713e-02,-1.304101667543057855e-02,-1.892699620171113322e-03,3.884677846860019185e-03,2.314374744892120361e-01
-2.999454403234113609e-01,-2.309239187852879516e-01,-3.759811361156867315e-02,-7.840851586219383176e-03,5.142068076949135938e-03,1.381679232316438896e-03,2.361185401678085327e-01
-2.788723306226656429e-01,-2.196495443777652379e-01,-2.681954749121173709e-02,-1.438136764344180585e-02,8.167525326439056474e-03,-1.799713300599897715e-03,2.300890833139419556e-01
-2.378663114661169198e-01,-1.756338499531417408e-01,-8.104586850579603707e-03,-5.484405139185297151e-02,4.128069232362651525e-03,-8.568687929667598291e-03,2.272876799106597900e-01
-2.804233055319437229e-01,-2.231384687810576417e-01,-2.992912271959879966e-02,-1.122342091068158354e-02,3.713202857747097390e-03,-2.550269781388308306e-04,2.282516658306121826e-01
-2.819980420243461405e-01,-2.559206503418329781e-01,-3.931344639697195720e-02,-1.149334098865246491e-02,3.071048274540418010e-03,-6.657285997834298244e-04,2.316747158765792847e-01
-1.964786669827882915e-01,-2.472639900789819767e-01,1.063940147735822905e-02,-9.213831881290404646e-02,3.665511294300156236e-02,-3.651134113012052124e-02,2.991555333137512207e-01
-1.799778321722686480e-01,-2.849355697649793573e-01,-7.686108741018576884e-03,-1.632052094915408327e-02,5.529475880601712051e-02,-4.192564083437533111e-03,2.623132765293121338e-01
-1.749391204778786013e-01,-2.798321338356380417e-01,-8.935754152996161492e-03,-5.254859258888024132e-02,6.463083724126690577e-02,-1.478471766818290935e-02,2.782867550849914551e-01
-2.186827785314712502e-01,-3.177826746281652293e-01,-2.536291072836799332e-02,-1.045838838352893506e-02,1.652125355408844837e-02,3.512981277000629230e-04,2.598051130771636963e-01
-2.388240068657131732e-01,-3.102789833251040630e-01,-8.259660300853899351e-04,2.557242256970333619e-04,3.027782971236704992e-02,6.444786415352518096e-03,2.857097685337066650e-01
-2.808076906515772353e-01,-3.079876343240116054e-01,-7.228513712138062708e-03,8.138629993061133848e-04,1.312732190094633052e-02,3.825843476972726719e-03,2.891073524951934814e-01
-2.582614975844356175e-01,-3.062009822773111289e-01,-5.575073172575079061e-03,-6.072694599098163015e-04,1.429539095470750212e-02,-5.502872464895089237e-03,2.810112237930297852e-01
-3.308111269684409494e-01,-3.397963583732401260e-01,-4.603992443591770067e-02,-5.547321093271028944e-03,2.329351689511319212e-02,-1.963732602064790014e-02,2.942975759506225586e-01
-1.939152137592773106e-01,-3.115663591462892734e-01,-3.751305810816882302e-02,5.481378037558557251e-03,-6.546205316335660176e-04,2.419236398321278803e-04,2.383189350366592407e-01
-2.207536115554542544e-01,-3.546091149588286306e-01,-4.190278143776393627e-02,2.450414361784624545e-02,2.184030989303275758e-02,4.797161462907063682e-03,2.777525484561920166e-01
-2.076234205735243421e-01,-3.650238164061955781e-01,-4.836409243476821884e-02,-2.715942185516511710e-03,1.849295755516454365e-02,-6.692716401802416455e-03,2.763844728469848633e-01
-1.895109356889792263e-01,-2.766499992423472332e-01,-8.955953571158026261e-03,1.747557744903990851e-02,1.744950666259297012e-02,8.017379652856104072e-03,2.407263815402984619e-01
-2.158773916341665822e-01,-3.807497809678822565e-01,-3.807777649687132948e-02,8.670652832284667447e-03,-2.776258750957299667e-02,-2.591160456514606837e-04,3.010778725147247314e-01
-2.300649230966340109e-01,-2.924702915282159088e-01,-3.625591635227107257e-02,-3.301343615240950879e-02,1.035615394057425899e-02,-5.077128478080891044e-03,2.392066568136215210e-01
-2.050370483933264820e-01,-3.293948477994090851e-01,-4.624348465291958088e-02,-2.705754030330577778e-04,-1.545654049982241474e-03,-3.126922511938274619e-03,2.458946853876113892e-01
-2.975711006171862794e-01,-2.949016863544798861e-01,-1.818912657273560884e-02,-1.342857960329169043e-02,-1.869307178639432326e-02,1.975241110733995387e-02,2.829759120941162109e-01
-1.968373521509753643e-01,-2.709331474958094343e-01,-1.794202276809550578e-02,4.877663830690223690e-02,-2.997442925324237534e-02,-3.181853970275203697e-02,2.522285878658294678e-01
-3.459454131132636001e-01,-3.663708291221218216e-01,-6.447559533838403967e-02,3.297171872858125838e-03,-1.395719962267170586e-02,-4.003722332151929582e-03,2.933542430400848389e-01
-3.296929784167818012e-01,-3.372229571481875077e-01,-5.498394612952020588e-02,-4.478717502708061057e-03,-4.274624897940386414e-03,-8.944860703600595112e-03,2.791869044303894043e-01
-3.231874604643835691e-01,-3.285055296291012894e-01,-5.010693017312703446e-02,2.467576056387149695e-03,6.416713479108800263e-04,-2.208329571054701117e-03,2.758398950099945068e-01
-2.099853769223122557e-01,-2.731406673940611207e-01,7.088869290682753288e-03,2.602982089829684528e-02,2.771090117785432461e-02,9.052429195537050818e-03,2.634414136409759521e-01
-3.231329073933215668e-01,-3.292269133671144044e-01,-4.375875266027959287e-02,4.056680141784591888e-03,-6.770158831034723971e-04,-2.384901096056810978e-03,2.825904786586761475e-01
-3.312361494437240372e-01,-3.344683979581621891e-01,-7.004828014206626596e-02,4.312775262444807668e-03,7.820317187307442366e-03,1.853658042409867717e-03,2.632932960987091064e-01
-2.693690230747599057e-01,-2.032276960655164944e-01,-2.389737607875275227e-02,2.265804742973342653e-02,-1.331099346514985843e-03,-2.960251863203851828e-03,2.235328853130340576e-01
-2.857615364437546268e-01,-1.818763802336232083e-01,-2.155745115561710779e-02,2.783298850254041501e-02,-3.716294679347072281e-03,-6.068739183520251157e-03,2.358494997024536133e-01
-2.901796298693802290e-01,-2.038426698543001625e-01,-3.506060405079725051e-02,3.606794142240089818e-02,9.492955349624803037e-04,-2.842866249907687742e-03,2.333307266235351562e-01
-2.735309180166510812e-01,-2.785782032999199465e-01,-3.941120596841932167e-02,7.965765649338089893e-02,1.371252085221325023e-02,1.933445048131328392e-02,2.770212590694427490e-01
-2.531883548799726547e-01,-2.562314186503590885e-01,-9.521558904044963301e-03,3.211298406343329054e-02,-2.878666322337352507e-02,-2.102245790812883389e-02,2.589012086391448975e-01
-3.535202495546517776e-01,-2.606416802621943640e-01,-5.833123421161320876e-02,8.448004765773349523e-02,-3.624341510231894169e-03,-7.434552709682826915e-03,2.999368309974670410e-01
-2.906067585718827839e-01,-2.462962081007696591e-01,-3.374175938702600464e-02,2.439967452744172191e-02,9.818411923932192018e-03,7.174282130311378583e-03,2.424682825803756714e-01
-2.861969350503147935e-01,-1.903773725896390490e-01,1.933910663160787191e-03,1.018400582440239094e-01,1.922613291503930816e-02,2.676956896666393693e-02,3.145872652530670166e-01
-2.674564270284491840e-01,-1.233370073820582724e-01,7.188791210683470601e-03,6.853683139666330582e-02,-6.129790506134102923e-03,7.624821346861984823e-03,2.664539813995361328e-01
-2.636382755506860298e-01,-1.144605887249506154e-01,8.001838101743680154e-03,8.618009685670133257e-02,-2.384132552117172038e-03,-4.988481778477482252e-04,2.789596915245056152e-01
-3.261883033917682972e-01,-3.207919080208883056e-01,-9.573589160494971884e-03,-9.452777283055828169e-05,6.263643264826655776e-04,4.641679916436759062e-03,3.140561282634735107e-01
-3.108218939678978332e-01,-2.997527135180689251e-01,-1.027921634560474695e-03,-9.945258816321648522e-04,-1.867132748663372695e-03,7.521082995365011882e-03,3.047109842300415039e-01
-3.170006183991017079e-01,-3.180051494923844535e-01,-6.918041476852904159e-03,2.019693832475714587e-03,-3.791473918476384857e-03,6.663860409679634583e-03,3.108895123004913330e-01
-2.927927475578367966e-01,-2.274114379854239032e-01,-3.958567680436758662e-02,-6.628634086467835584e-02,-8.465525125796083405e-03,1.057586136278860015e-02,2.560580074787139893e-01
-2.028496744641722360e-01,-3.001616260155033356e-01,-1.673657856137733546e-02,7.125868416438700670e-02,3.069650642557670769e-02,1.605844593433254988e-02,2.846973538398742676e-01
-3.064467392450129779e-01,-3.131126311552299146e-01,-8.743938954504121286e-03,1.731074493858798238e-03,1.342991761347583045e-03,2.131455429644563398e-03,3.011376261711120605e-01
-3.163153820691087525e-01,-3.155721614551434406e-01,-7.006676887304635892e-03,-8.727759825760743285e-05,-2.629687065610316569e-03,-3.214089871497724299e-04,3.089718818664550781e-01
-3.241298253879294489e-01,-3.316846045054356318e-01,-9.043859005661597505e-03,-2.137011526049449085e-03,-2.840708187626092346e-04,2.441318164302885146e-03,3.189803659915924072e-01
-3.132285316417871002e-01,-2.988170536985392256e-01,-6.053964608125628200e-04,1.420183221554068920e-03,1.049721533502837598e-03,8.025734474888317552e-03,3.060035109519958496e-01
-3.185118998062683726e-01,-3.188716650095638205e-01,-6.864608123487742075e-03,-1.692998301180216375e-04,2.198540708562261078e-03,-6.851233758100588466e-05,3.118507266044616699e-01
-3.254803680214524153e-01,-3.338483917700039161e-01,-2.769851029940223475e-02,3.506362751103426264e-03,2.962211802550263951e-04,-2.830019214191512207e-03,3.021540641784667969e-01
-3.002789554435257302e-01,-3.042230938975422072e-01,-1.631931815277243292e-02,8.871273239881229296e-04,1.023068450122267391e-03,-4.377596879175425261e-03,2.860622406005859375e-01
-2.930724504911778050e-01,-2.961292212548561342e-01,-1.713957177052749525e-02,-3.529002986305645063e-03,6.774697934365894215e-03,-7.834879866943079280e-03,2.781204283237457275e-01
-2.906895340922109883e-01,-2.882513721991497579e-01,-9.324651503034603328e-03,1.288250487280255541e-03,1.011288340950079528e-03,-4.889411814827023537e-04,2.801693975925445557e-01
-3.141776619064354792e-01,-3.138990453081390575e-01,-2.223678049725480443e-03,-1.342805306799238550e-04,1.488339343257242056e-03,-1.783076330796119855e-03,3.118408024311065674e-01
-2.893211123041891097e-01,-2.891720330569143571e-01,-2.123360626062470446e-02,-3.443026801464366192e-04,3.278583659720786959e-03,-1.256256223992305038e-03,2.680826485157012939e-01
-2.975676335586785459e-01,-3.029179294675672374e-01,-5.906487934915827243e-03,-3.800659287100092900e-03,1.050949315970927354e-02,-1.034712152129050461e-02,2.955523431301116943e-01
-2.726062070303318374e-01,-2.871015158610208395e-01,-8.671327107100779141e-03,-7.107321938193202591e-03,8.332314619334342878e-03,-9.180596769230917747e-03,2.725990116596221924e-01
-3.004734698656303937e-01,-2.923458260235409223e-01,-1.295168182218450759e-02,3.025365679523483835e-03,7.974230635532068498e-03,-1.142762319267194137e-03,2.839367985725402832e-01
-2.127908864085108209e-01,-3.218225151209259671e-01,-3.156707853364815186e-02,-5.676701146798284608e-03,1.775762094900332211e-02,1.211097979475280785e-03,2.560003101825714111e-01
-1.957052410181384650e-01,-3.167766274003444016e-01,-3.971589257836535825e-02,-6.637321656086606764e-03,-6.807251234460629137e-04,3.906574211137790850e-04,2.408543378114700317e-01
-2.470150910637192998e-01,-2.952656661509327485e-01,-2.473821156399055865e-02,-2.904889712694701774e-03,8.355528901920993273e-04,-9.925526449952022309e-03,2.505654990673065186e-01
-2.164113461389012838e-01,-3.057339108416301521e-01,-3.784954137141935404e-02,-9.087662837036833766e-03,2.301090566001689575e-04,-4.319230215888539108e-03,2.368888407945632935e-01
-1.218253730942582963e-01,-2.593079262169949439e-01,-4.848068809463701445e-03,-3.486142417245659958e-02,-1.533796744589686597e-03,1.157108218824532070e-03,2.287455201148986816e-01
-2.492638704732436927e-01,-2.885748753058771099e-01,4.153993986181214737e-03,-3.936037325427040219e-03,1.544009533358610062e-02,-7.551828005330902399e-03,2.768769264221191406e-01
-1.859191978640387100e-01,-3.003002184681236031e-01,-3.489907535338634958e-02,-4.162616083691288334e-03,7.920109016977407157e-03,-1.558327524577941825e-03,2.311090230941772461e-01
-2.260990783569217788e-01,-3.013110931507911872e-01,-4.041514666457174387e-02,-5.848784385248315988e-03,2.406676253688381468e-05,-1.996393049937352816e-03,2.328424751758575439e-01
-2.262477886961118401e-01,-2.871724508541689258e-01,-3.600374012586329830e-02,-1.220498030760705163e-02,8.545968047832526817e-05,-9.616435531779567647e-04,2.279141247272491455e-01
-2.954721734156597751e-02,-2.442208591998744627e-01,4.956057954479725636e-02,-1.567219049395219416e-02,1.991867856165132483e-02,5.234823886879505159e-03,2.670851945877075195e-01
-3.158630344840123172e-01,-3.288760475872943845e-01,-8.701154106679820366e-03,-9.757535324093401328e-04,-1.732957696640447507e-04,1.313950183255458478e-03,3.138837218284606934e-01
-3.177436804933685410e-01,-2.980149637385614003e-01,-9.125114440322740217e-03,-1.688721160031817024e-03,9.847120865427408832e-05,1.382167072347240079e-03,2.992662787437438965e-01
-2.997304494598549418e-01,-2.566549556223466366e-01,-2.991441959260543459e-04,3.027898702379142049e-03,-9.460223291817221672e-03,-1.278309024169529962e-02,2.817848026752471924e-01
-3.175902114560545386e-01,-3.194441731283625963e-01,-8.446626075366475694e-03,-1.993266534606149328e-04,-1.360657360111877743e-03,-4.184269672078282792e-03,3.101685643196105957e-01
-3.142992720968471598e-01,-2.363865416753239690e-01,-2.189742164905833510e-02,5.201608469345858979e-03,-7.932642333361460997e-04,-6.963047773290363370e-04,2.624346017837524414e-01
-3.325976556200803125e-01,-2.911257777468140295e-01,-1.062506136596938489e-02,5.671684409305322678e-04,4.117032602259788551e-03,-1.812798263138678395e-02,3.050756454467773438e-01
-2.997125040247248240e-01,-3.118033994143421528e-01,-4.031658240196911436e-03,-1.410796279370643341e-03,-1.057038759197565653e-02,-2.895973870278809124e-03,3.025140166282653809e-01
-3.221122965359053958e-01,-3.149524493927443602e-01,-4.575751884128703706e-03,-2.208563603997628581e-03,1.264782444100085530e-04,-6.090277359597307070e-04,3.140429854393005371e-01
-3.200137723496584430e-01,-3.161632840860273408e-01,-1.518704245801222319e-03,-2.176012270209327741e-03,3.476561376746843901e-05,-9.457908538471996055e-04,3.166140615940093994e-01
-3.229351036849050782e-01,-3.237913848012543561e-01,-7.955775886949900677e-03,-4.030314528879360564e-03,-1.805295901796975149e-03,-2.447589775513496751e-03,3.155295550823211670e-01
-3.154102372327126647e-01,-3.254642458699493757e-01,-3.513025145499198976e-03,-5.097526559788452798e-04,9.535905276162178965e-04,3.751446196582517242e-05,3.170493245124816895e-01
-3.092743400514294527e-01,-2.974309394354076042e-01,-2.640128814631298448e-03,1.984842317485580477e-03,6.113366032233049849e-03,5.380148940701586467e-03,3.012374341487884521e-01
-3.185022316437231549e-01,-3.205161909459071090e-01,-6.556933979455475958e-03,-8.117160679874271898e-04,1.944802633664537107e-03,2.292158599284589324e-04,3.129786849021911621e-01
-3.113548145552866853e-01,-3.004935218173266365e-01,-1.540693064940074075e-02,-1.679664034036977213e-03,2.635607262881136878e-03,1.599346724766758168e-02,2.920366823673248291e-01
-3.154060065921474587e-01,-3.198933747334379851e-01,-1.968307333887420185e-03,-1.996215448099014026e-03,1.545866118976704914e-03,3.190391429222443715e-04,3.157360851764678955e-01
-3.163248617975036314e-01,-3.241679937632103159e-01,-3.314340049329594917e-03,-9.799549655125604219e-04,1.388349228194221425e-03,-5.985745013944820773e-04,3.170202374458312988e-01
-3.058042430544301027e-01,-2.978002269604694274e-01,-2.750632666125851777e-03,8.647207561535617771e-04,6.184556860640074739e-03,4.390203960242747803e-03,2.994239926338195801e-01
-3.138968257158978314e-01,-3.156665090494851222e-01,-5.499817974150278399e-04,2.154014036504063058e-04,2.762256091206110199e-03,1.841346970124343703e-03,3.142882585525512695e-01
-3.200194274032352459e-01,-3.218300494534305223e-01,-8.318803228354015866e-03,-3.853129242967994091e-03,2.199356520605859171e-03,2.709611747775499731e-03,3.127395212650299072e-01
-2.645610537498529480e-01,-5.005114809069588500e-01,-9.305821835699751299e-02,3.783567216548210793e-02,5.767266972611072989e-02,1.266793672070184659e-02,3.745750188827514648e-01
-3.154704083941793913e-01,-3.141513209706623955e-01,-3.879398344440621038e-03,-1.139450898985538323e-03,2.453589846135180528e-03,-8.062433558919224197e-03,3.112822473049163818e-01
-3.652492286515582887e-01,-3.177366861921381846e-01,-3.113527580611960555e-02,-8.422393865541392272e-03,9.042032847526653219e-03,-3.656203290362525921e-02,3.201302886009216309e-01
-3.094527525046510963e-01,-2.926700154995376946e-01,1.520625080826232267e-03,-1.387646613970734092e-04,1.758504680193173630e-03,-8.470801226794775693e-03,3.033013641834259033e-01
-3.007490027157899704e-01,-2.888965104327491096e-01,5.116721528704432087e-03,-1.162092464340105631e-03,2.581719319191016181e-03,-8.728967573798868465e-03,3.005356490612030029e-01
-4.096098779178293792e-01,-3.346912681455086469e-01,-3.370724534413571671e-02,3.983802307703465835e-03,-4.424729938584298465e-03,-5.341831455148419311e-02,3.569599092006683350e-01
-3.219038349948751820e-01,-2.166977315692529826e-01,-2.515567748663893877e-02,-9.070303800289534341e-03,-2.338813854263507071e-03,-7.308859741410198875e-03,2.614030539989471436e-01
-3.142979632480863428e-01,-3.131137439191490346e-01,-6.741362042907234065e-03,8.220579433045866304e-04,-6.410968538595432267e-05,-1.003743055456054328e-03,3.069744408130645752e-01
-3.021289402587298834e-01,-3.036269566259380825e-01,-6.730358330203828343e-03,2.023462292422947470e-04,-1.056409192372648100e-03,-1.816438932190298557e-03,2.961730062961578369e-01
-3.124970277425577203e-01,-3.127290609278180478e-01,-1.131466029475364232e-03,-1.635112875150333136e-05,-1.098443873243167175e-03,-6.847724429763656540e-05,3.114874660968780518e-01
-3.165459701634866785e-01,-3.156394664319975840e-01,1.672473212061931225e-03,-4.907287408609668214e-04,-2.009363556112087491e-04,-7.212289218072896529e-04,3.177699446678161621e-01
-2.941645012343063192e-01,-2.730336993451568106e-01,-1.120836454763043943e-02,1.974836288369318221e-03,-1.040640081126621361e-02,-8.742348860218901799e-03,2.740391492843627930e-01
-3.067272008057190247e-01,-3.065914217472205383e-01,-1.287301135300761290e-02,2.969319617510506591e-04,-1.867679196075216954e-03,-4.644930757773642685e-03,2.939147055149078369e-01
-3.138100651856698398e-01,-3.129359753357299212e-01,-1.775902225015807412e-03,1.109070444372048886e-06,-1.484124839199377167e-03,-2.973948606940737382e-03,3.116512000560760498e-01
-3.201728998050968333e-01,-3.265571570759540632e-01,-6.862008515407497233e-03,-2.222942585400815383e-03,-1.546756622927225253e-03,-1.199925852762331711e-04,3.165861368179321289e-01
-2.262963194608145490e-01,-2.929086414882160483e-01,-2.403085456221773497e-02,4.457895114708798623e-02,-1.447093163220449646e-02,-9.780424262559270568e-03,2.563180327415466309e-01
-2.595443805547590355e-01,-3.011335482196263458e-01,-8.374717138966952801e-03,-5.070413519186744988e-03,-1.285224970789633839e-02,7.629146492177623154e-03,2.756974399089813232e-01
-2.991766288918269456e-01,-3.404468818313929335e-01,-2.458729508768647820e-02,-1.247835722884686662e-03,-1.511304425985369668e-02,3.228259717798131513e-03,2.985901236534118652e-01
-2.709581084705846576e-01,-3.210876562183655469e-01,-2.101717415827167312e-02,-3.088960514871106223e-03,-1.007315858950687086e-02,8.515376046568804216e-03,2.793983519077301025e-01
-1.826276287100574713e-01,-3.484043141482987549e-01,-4.995758556954218998e-02,3.087924951963908621e-02,-3.053706969345032409e-03,-6.987908698131801641e-03,2.647865116596221924e-01
-3.198092523180888214e-01,-3.218912661273836129e-01,-8.382704744938906938e-03,4.862861318599255925e-03,6.031177322115606086e-05,2.239026814696754367e-03,3.126103281974792480e-01
-3.112405924560700532e-01,-3.129383804002234815e-01,-3.132318778991532993e-03,8.103135200194323600e-04,-3.131871561138039294e-03,2.541741658033380095e-03,3.090428411960601807e-01
-2.807141949143167614e-01,-2.751089890508567892e-01,-3.485870790986678180e-02,3.441584000797791223e-03,-4.463202033369379623e-03,-2.560583421951738697e-03,2.433376908302307129e-01
-2.833054383543168742e-01,-2.716930149881426337e-01,-3.424733997207499159e-02,2.225593026290979912e-03,-4.908566398065541091e-03,-1.549164007277467701e-03,2.436533570289611816e-01
-2.811655466618210308e-01,-2.608207568758094119e-01,-2.249501414264154509e-02,1.343743120941400492e-02,-5.358271611983415721e-03,9.560821026594257992e-05,2.503789365291595459e-01
-2.778143212315190569e-01,-2.175211885329359496e-01,-3.045408967441814996e-02,1.341087069754059308e-02,-2.362073729752741866e-03,-4.943448654101978987e-04,2.246447205543518066e-01
-2.699164192152960218e-01,-2.687712679051635911e-01,-1.315098356096919274e-02,7.512807871222404801e-03,-1.210142884276205547e-02,-1.510817202910543638e-02,2.587067782878875732e-01
-2.853579709430753009e-01,-2.237765989536970590e-01,-3.603461500084462199e-02,1.191941848532517174e-02,3.403452435588813778e-04,8.553315710855083917e-04,2.258970737457275391e-01
-2.460517095793210152e-01,-3.006979183099373620e-01,-2.230865130785977812e-02,5.301561380143812729e-02,3.276045643780827604e-02,1.606608118304566832e-02,2.787470817565917969e-01
-2.849767854553501567e-01,-2.354334672766795200e-01,-2.937263891448554931e-02,1.406572959917978642e-02,-3.323062586208448861e-03,-1.512923186728180533e-02,2.375665903091430664e-01
-2.944843078992853691e-01,-2.700654253505217484e-01,-1.097869305690082897e-02,5.705487373549610053e-03,-1.233879278997902437e-02,-9.275490273827641935e-03,2.736079692840576172e-01
-3.150599110001154335e-01,-3.188920940836290630e-01,3.044084369984156879e-04,1.433875591306268092e-03,1.313377222114742084e-03,-3.536109182344391927e-04,3.173162341117858887e-01
-3.172975389430235937e-01,-3.233242902658611251e-01,-1.472811388185085724e-03,6.157903532684241279e-04,1.363185099330411132e-03,-6.782666310406516592e-04,3.188935220241546631e-01
-3.164864828115616646e-01,-3.225798744857086287e-01,-2.621924456579327600e-03,9.584677512400827928e-04,1.081875955445597143e-03,-2.963560434143047488e-06,3.169650733470916748e-01
-1.928465943252506698e-01,-2.888948486107743019e-01,-3.188924092123568421e-02,-1.206233037025822817e-02,3.869979909524168932e-04,-3.074554168617380217e-03,2.259591072797775269e-01
-3.127064698333911763e-01,-3.006365213128315839e-01,-2.082093639778848093e-03,-6.237294695395608282e-04,5.403575810007207013e-03,-8.394560347668979239e-03,3.052607774734497070e-01
-3.187525321072212092e-01,-3.201735430005411831e-01,-7.851042252686124545e-03,3.293578995896555891e-03,1.589156075461634976e-03,-5.768930805942209476e-04,3.116804063320159912e-01
-3.184061097789842587e-01,-3.320207574992780075e-01,-1.366167032663717640e-02,4.027186506923274281e-04,3.222802023193751045e-04,-1.174533821332429976e-03,3.117827177047729492e-01
-2.995655922155002759e-01,-3.103282085874309315e-01,-4.206393287666365666e-03,-1.129715784763363770e-03,5.466874699687160680e-03,-8.340753456584436287e-03,3.013866543769836426e-01
-3.206889575690679561e-01,-3.163915861919632255e-01,-7.416739402617888999e-03,-4.523712998948708954e-04,6.120532406223885835e-03,2.336726201502559337e-03,3.113536238670349121e-01
-3.314096106126923069e-01,-3.204745020877119988e-01,-2.586399924831289665e-02,-3.521615621480976566e-03,-4.637812316511313523e-03,-2.782887928827072928e-03,3.004355132579803467e-01
-3.172728073366355428e-01,-3.168797035826146913e-01,-8.577075413039980667e-03,-1.383904102134903870e-03,5.785283423300759467e-03,7.073265071410868993e-03,3.089143931865692139e-01
-3.190722039920225184e-01,-3.043465264239345602e-01,-2.741145472125672278e-02,3.434481427053738545e-02,1.491277865939049339e-02,4.402235772010013037e-02,3.016748428344726562e-01
-3.245849098517055165e-01,-3.253275041067851814e-01,-1.569651310404443501e-02,-6.550277618878013255e-03,-4.985465329280141036e-04,2.659631272358233461e-05,3.094696104526519775e-01
-3.393613191607600110e-01,-3.357378857002421002e-01,-5.981053299472430251e-02,-4.360772563820071099e-03,-5.083050571019765741e-03,-5.431675524122761209e-03,2.781580686569213867e-01
-1.646514701032188166e-01,-2.682757095364072253e-01,-9.695607460735888861e-03,4.193949272267724626e-02,5.087624971406583957e-02,2.447477628506717837e-02,2.562137246131896973e-01
-3.017213622346110458e-01,-3.299445455657739612e-01,-1.212395949584013644e-02,4.524771591789394747e-03,1.516305756483292237e-02,4.329273652970325181e-03,3.060130178928375244e-01
-3.321083137313510236e-01,-3.269419870452791033e-01,-1.908132710389864872e-02,-1.686666316959771657e-03,2.041699561607965546e-03,-1.446147488281582542e-03,3.105200529098510742e-01
-3.226263100301580700e-01,-3.163705552698763968e-01,-2.257320764388115464e-02,-3.476553886728166870e-03,4.863477546691558182e-04,1.011530557033684871e-03,2.970420420169830322e-01
-2.915007224884805792e-01,-3.109110950336426149e-01,-3.406752652191147313e-03,3.380740843407470300e-03,1.533133087035335081e-02,7.350799274347922727e-03,2.997806668281555176e-01
-3.310463221653892618e-01,-3.334400912776331327e-01,-2.587686476522504941e-02,-5.545297186212532620e-03,4.176269530988665178e-03,2.361518432410831050e-03,3.066364824771881104e-01
-2.979688187968164148e-01,-3.063645637256469101e-01,-5.295689981560949833e-02,3.701391161209777875e-02,1.050193175319239468e-02,1.442507129465950277e-02,2.592751383781433105e-01
-3.102471536376383288e-01,-3.090620313469452651e-01,-7.338301243922706885e-03,-1.363681543230007903e-03,-5.215085670589073366e-03,-1.324593486089480510e-03,3.024708628654479980e-01
-3.235052157241535276e-01,-3.181191492036373192e-01,-4.452258807570247390e-03,-1.862425807114615828e-03,4.488443694949957987e-04,-6.308323490828239338e-05,3.164117336273193359e-01
-3.167008225892034567e-01,-3.167917646170298474e-01,-3.345741031260840437e-03,-2.589511352943139194e-03,-3.732879532693955931e-03,-4.474363780578886549e-03,3.135951161384582520e-01
-3.152398049413978054e-01,-3.127223705542372389e-01,-1.081193416553855036e-03,-2.467167084082353529e-04,-2.646787086701651338e-03,-3.481301566186527797e-03,3.129994571208953857e-01
-3.168927694428355646e-01,-3.142191017825785027e-01,-1.344777412098263625e-03,5.310570954720227922e-04,-4.193351438092371951e-03,-3.565953861169334806e-03,3.143656551837921143e-01
-3.255245215936226622e-01,-3.198031284887655201e-01,-9.151293953218453403e-03,-2.480664333411309458e-03,-1.059950881043846644e-03,-1.345632075655412037e-04,3.135865926742553711e-01
-3.280909051470238813e-01,-3.228532974745204065e-01,-1.476405299861668907e-02,-4.568908302373504704e-03,1.460503848067247002e-03,5.847697465224076501e-04,3.108538389205932617e-01
-3.201077299241280594e-01,-3.215030718958213352e-01,-1.046079118974954647e-02,-4.335033513105075210e-03,-1.523164800434928003e-03,9.367038257511857381e-05,3.104490339756011963e-01
-3.057253036470093388e-01,-3.018811154081373349e-01,-1.793279673262601626e-02,-4.939611547037735641e-04,4.584668508200290954e-03,1.295341232375593794e-03,2.860101461410522461e-01
-2.795523083492627014e-01,-3.313697189544966837e-01,-1.880783514140341173e-02,-3.008846766466922659e-02,3.304514305070729158e-02,-2.062108543135449459e-02,3.024093508720397949e-01
-3.202196965841671572e-01,-3.224520208936413335e-01,-1.156762997074442523e-02,-1.401807612349352788e-03,4.233604039468718411e-03,7.561553610893792521e-03,3.101471960544586182e-01
-2.904898565097665530e-01,-3.012553766918865117e-01,-1.761075962455496691e-02,3.509764394493105569e-03,8.740201076715813783e-03,9.613988279979212084e-03,2.793921828269958496e-01
-3.127657232515553831e-01,-3.130368398142230890e-01,3.867802516049900774e-04,1.373459401129739123e-04,3.099804237008382379e-03,1.358941930292522932e-03,3.133430778980255127e-01
-2.980984291739924297e-01,-2.978303492700127286e-01,-5.278790160419155608e-03,9.145999051040646028e-04,1.905889716674053673e-03,4.026166832098074765e-03,2.927916646003723145e-01
-2.884831768420283993e-01,-2.916119421762515818e-01,-1.065449222103262428e-02,-1.294025609174120081e-03,4.234231567031178497e-04,1.257071411875067485e-03,2.794246375560760498e-01
-3.222577864814085702e-01,-3.190215559933638478e-01,-1.431624579005083553e-02,-7.063919841885504336e-04,2.970275106184765493e-03,3.129021732954116296e-03,3.064298033714294434e-01
-3.407676845299664192e-01,-3.288658341614274505e-01,-8.695482282002453545e-03,3.453509934097760518e-03,1.825611037962600325e-02,1.011083618955773041e-02,3.283346593379974365e-01
-3.219698484762503199e-01,-3.148592197478156107e-01,-2.001369645951434073e-03,-6.670024473678192844e-05,2.150101193514450740e-03,2.951715011971603117e-03,3.165363073348999023e-01
-3.189270733095023735e-01,-3.164612434383897721e-01,-8.104455384324332767e-03,5.778024606729475782e-04,-3.823102281003320103e-03,5.720701401256364851e-03,3.098279833793640137e-01
-2.076426761635498386e-01,-2.755337156329913384e-01,1.452019480537156126e-02,1.030429553339696699e-02,-3.080323241874179802e-02,-7.687271715603800253e-04,2.687289118766784668e-01
-3.997688751552166408e-01,-4.119725518175186840e-01,-6.698313744433226358e-02,-3.677371775186814937e-03,-2.673037567920456478e-02,-9.410217374109882196e-03,3.426459431648254395e-01
-2.910348841961572508e-01,-4.455737138162519928e-01,-7.435028303856527909e-02,-2.111686734582955347e-02,-8.950563858355553570e-02,-2.992990015173756929e-02,3.638400733470916748e-01
-3.135363465388468218e-01,-3.108012973140506507e-01,2.735722585314043220e-03,-1.791990654360948705e-03,8.949292823998870406e-04,2.160245882733243580e-03,3.149547874927520752e-01
-3.162195002754631945e-01,-3.138487900958291110e-01,4.628162296083371263e-04,-9.134974152947288484e-05,1.049679428312109931e-03,2.423847495649145232e-03,3.155368566513061523e-01
-3.247071692974299872e-01,-3.171944276322304357e-01,-2.787589007104573913e-03,-1.350639321894094328e-03,1.800416520161677073e-04,1.397701343586668990e-03,3.182476758956909180e-01
-3.169054520696076849e-01,-3.131435888614257923e-01,2.282737101260978729e-04,1.746003312303635738e-04,1.432238186237386798e-03,2.377095205284830877e-03,3.153064250946044922e-01
-3.209100347177663570e-01,-3.158231774738791131e-01,-9.661550381374062191e-04,-1.960223089942881355e-03,2.655495839665136153e-04,1.398009265442068903e-03,3.174587488174438477e-01
-3.116225833441964577e-01,-3.111065110435660142e-01,-1.494343113572105253e-03,-1.136928297103730881e-03,4.438130320231573230e-03,3.624257059234060017e-03,3.100356757640838623e-01
-3.417994146553015589e-01,-3.336368411924798272e-01,-7.454982744296281827e-02,2.218703076995398593e-03,-8.530825131058891730e-03,2.646407425786000567e-03,2.637453973293304443e-01
-3.246097131884436160e-01,-3.252720361382329117e-01,-5.202865330098491170e-02,3.882130433244494229e-03,-3.779578055466753170e-03,-2.951476818831099466e-03,2.731219828128814697e-01
-3.343662775380066843e-01,-3.372150415048786876e-01,-1.168037855115737211e-01,2.614422019634289347e-03,-3.067442733614651317e-03,4.501139960025539455e-03,2.192506641149520874e-01
-3.214073215306490483e-01,-3.185757862376786820e-01,-5.172744020764569184e-02,3.616691001658924737e-03,-3.809440845701701252e-03,8.060424547302553816e-04,2.684331834316253662e-01
-2.054907874293445402e-01,-2.891738400237488515e-01,-1.391931282580141649e-02,-1.216674377977866074e-02,1.370115538198147555e-02,-7.883106017720464820e-03,2.468348741531372070e-01
-3.049279832599954831e-01,-2.596478658780669857e-01,-2.655237175166572094e-02,9.498583280731293793e-03,1.141464049448778252e-02,1.709913899913468455e-02,2.616812586784362793e-01
-2.802192609114543265e-01,-2.260211623047575780e-01,-2.611256389253927002e-02,1.656567276730914334e-02,-4.215829052419272846e-03,-4.477637640305522602e-03,2.338210344314575195e-01
-2.980422473859488663e-01,-2.200354233114466818e-01,-3.903619773253666492e-02,5.258120027815406904e-03,-5.662566159808434885e-04,8.963474347561662097e-04,2.303286194801330566e-01
-2.663777971970787140e-01,-1.932353282047852283e-01,-1.093377200922590609e-03,5.660490839431611687e-03,9.043994148715839634e-03,1.984125170436942115e-02,2.405090779066085815e-01
-2.802902954642786382e-01,-1.274182382363324151e-01,-7.925001758992605838e-03,4.243215027373076209e-02,-8.556395530384723830e-04,1.613305065126833734e-02,2.491990327835083008e-01
-3.149659229241394409e-01,-2.757251919954555319e-01,-2.852496968371534547e-02,-1.185413700368192222e-03,5.349735819551692563e-03,2.134571569776878928e-03,2.691687941551208496e-01
-2.813251392826706110e-01,-2.305851806277031679e-01,-3.287097519477968910e-02,1.435664636252843851e-02,4.337588047487334238e-03,3.470186091121573498e-03,2.289287447929382324e-01
-2.818197465333596718e-01,-2.877980436977545242e-01,-3.621460374132925986e-02,-8.704659828869568475e-03,4.346278363075506586e-03,-6.594320269137236672e-03,2.494801878929138184e-01
-2.755104094148914662e-01,-2.265014634147500538e-01,-1.497161757753756595e-02,-1.092172697059235267e-02,9.683570039952698119e-03,-1.055972152268187976e-02,2.418414652347564697e-01
-2.664546537783356595e-01,-2.592268423378278897e-01,-1.783212821273810755e-02,-6.786235119144851807e-03,8.482065338812560043e-03,-6.583137964896820619e-03,2.460740059614181519e-01
-2.123655427895603243e-01,-3.038107863457628621e-01,1.387404856289883859e-02,-1.453309653056589212e-01,1.826255749544719587e-02,-2.784243360821715869e-03,3.802922666072845459e-01
-2.811532301777742160e-01,-2.453400595996597655e-01,-3.647210856578267379e-02,-2.526538654592759559e-02,1.045184636919851062e-03,-1.941481030776879310e-04,2.330387085676193237e-01
-2.403608515659702294e-01,-2.589477783018855894e-01,-2.813032991585734388e-02,-2.374109377469977439e-02,-2.236643840980771965e-03,2.540888841073204400e-03,2.259585708379745483e-01
-2.783122578588378970e-01,-2.764788873952118142e-01,-3.315855523345270783e-02,-6.423727299211976979e-03,-7.073034822403566867e-03,5.634016112270523111e-03,2.449966222047805786e-01
-2.641344743017298713e-01,-2.398161778721101256e-01,-2.718898600413668931e-02,-1.094597219014323448e-02,-3.811559337321161842e-03,3.942890431770404940e-05,2.266615629196166992e-01
-3.214468087230264448e-01,-3.130023203734416115e-01,-1.638058830043345737e-02,7.719951908130093113e-04,1.787573523634779227e-02,-1.987090778020264917e-02,3.044758737087249756e-01
-3.349227242025140105e-01,-3.484169542211315029e-01,-4.695242642591543336e-02,2.145113560084082119e-03,-8.578566046466300134e-04,8.266153799555032034e-04,2.949796319007873535e-01
-2.336719262443795742e-01,-3.210438044728997076e-01,-3.656296224831018238e-02,-2.963128323080489214e-03,1.349647408753924631e-02,7.543095617370473578e-05,2.535357773303985596e-01
-1.416865532324869115e-01,-2.141642987158432487e-01,2.569189481630504424e-02,-7.530187877914353012e-02,4.473293789530030651e-02,-4.742330876431177095e-02,2.741549015045166016e-01
-3.582158913444938309e-01,-3.592578393809565118e-01,-2.714141624748303561e-02,-9.519474550089786213e-03,2.642446599341362334e-02,-8.612517146364115361e-03,3.354780077934265137e-01
-3.213632648318107132e-01,-3.221919049314816430e-01,-1.355590935123368590e-02,-1.042055760220319703e-03,1.303964633002621838e-02,-9.614813909651836327e-03,3.095025122165679932e-01
-3.708246689227778226e-01,-2.344960402841996250e-01,-5.108326874246263416e-02,-1.410419117256454108e-02,5.519275729053844254e-02,-4.701445126067151786e-02,3.059358298778533936e-01
-3.675156060612828623e-01,-3.172263082624092734e-01,-6.886960025923136164e-02,-1.226155236361342604e-02,1.505919409864420362e-02,3.598267659383397321e-03,2.790518999099731445e-01
-4.125622705283722436e-01,-4.886782290952570440e-01,-9.422492831376400035e-02,-6.657441846618773751e-02,6.707016248575353723e-02,-1.086501803569860924e-01,4.399649202823638916e-01
-2.687011620693011138e-01,-3.084914593748865896e-01,-3.444642123173274895e-03,-6.611248021067782192e-03,-2.918535917594610243e-02,6.930409870629487996e-03,2.921121418476104736e-01
-2.509061037557754892e-01,-2.092928828893262927e-01,-1.498267830612068363e-02,-5.452754250123422602e-02,2.843926103385469376e-02,-5.691049379838502426e-02,2.619857490062713623e-01
-3.126243268664796737e-01,-2.935091502615547188e-01,-9.539056653049216017e-03,-5.017722439246548490e-03,8.946902745435615645e-03,-1.205560124872403008e-02,2.952697575092315674e-01
-5.262776955778130095e-01,-3.858946693856052934e-01,-9.801427728242007031e-02,-6.729295501804151425e-02,5.911724736954237364e-02,-1.021757998089035252e-01,4.454046487808227539e-01
-3.192481040285914951e-01,-3.243802032393796608e-01,-1.278358867922435582e-02,3.159286763361592986e-03,2.479038293238127171e-03,-2.410190696337001070e-03,3.091689646244049072e-01
-3.800613575546156753e-01,-3.262444596302045419e-01,-4.626867264664613622e-02,-9.436922367141291693e-03,1.243224321850016061e-03,-3.497753635501936464e-02,3.166894614696502686e-01
-2.756318513134082271e-01,-3.655215879937649404e-01,-5.140448255530410959e-02,-2.393988566651293268e-02,-2.243583686493328538e-02,5.805670863759064895e-03,2.860845923423767090e-01
-1.456513489499466352e-01,-2.785564033967109498e-01,5.072557935600602308e-03,6.406852862397481585e-02,-4.448108016074502069e-02,-7.754566222981495310e-03,2.807914614677429199e-01
-2.941150418744006845e-01,-3.082783434368898678e-01,-1.216261660164627556e-02,5.126128190769134625e-03,-8.217979491211698309e-03,-7.054469183394567605e-03,2.900377213954925537e-01
-3.190592098553679534e-01,-3.234283947194994679e-01,-1.263264217615164831e-02,1.940105740207004326e-03,-1.129872551606441594e-02,-9.997932459919289458e-03,3.097568750381469727e-01
-3.362101748491824749e-01,-3.282355034065680410e-01,-2.092971978069285699e-02,1.831849715317266161e-02,-1.419155098412252548e-02,-1.523385291098608429e-02,3.150527179241180420e-01
-3.283223527962846888e-01,-3.177625503206989999e-01,-9.910176790380170742e-03,-3.857870313348386523e-04,-9.333976983411989767e-04,-2.418967088969688119e-04,3.132709562778472900e-01
-2.399793869783899414e-01,-4.063370737672952759e-01,-6.083194104123104684e-02,9.212058498853221977e-02,-2.955931355924047016e-02,-3.799556151872822418e-02,3.492593467235565186e-01
-2.893178682706801785e-01,-3.574271650055632632e-01,-4.981816344124337381e-02,2.251000334712060028e-02,-7.514180814118139040e-02,-4.169895278530899585e-02,3.193532824516296387e-01
-3.349305446971013733e-01,-5.275423156267384783e-01,-1.143943018908853693e-01,2.353477896883246143e-02,-8.531759580710866764e-02,-3.183754192410726686e-02,3.933868706226348877e-01
-2.940300656163663540e-01,-3.186739096304659902e-01,-1.418268958058027662e-02,4.196811636466519189e-03,-1.467660267044376167e-02,4.351136562494595413e-03,2.942349910736083984e-01
-3.177828387469961990e-01,-3.297929128709370938e-01,-7.024234125244527283e-03,1.721862332990514721e-04,-2.203965503474977262e-04,-6.360632762337034172e-04,3.169366419315338135e-01
-3.157308647806684188e-01,-3.288171124873452422e-01,-9.343021439617016366e-03,6.029099869588380040e-04,2.712406082961157472e-04,7.312577950745014843e-04,3.131407797336578369e-01
-3.193826371208691728e-01,-3.335564363910082375e-01,-2.998250248234923809e-02,-1.313593714509217469e-03,2.079655823732024834e-04,3.585133794896470157e-03,2.968149185180664062e-01
-3.114341458087512837e-01,-3.079812478523289432e-01,2.112308075997160195e-04,-5.612064377370387484e-04,-3.267482276920881563e-03,-4.497430838992929128e-03,3.100844025611877441e-01
-3.184868071720229898e-01,-3.291501537107756059e-01,-1.179430946431309080e-02,-1.953863384851533148e-03,-6.876794332544370605e-04,-9.618323113834217897e-04,3.121858537197113037e-01
-3.162426873634320290e-01,-3.200835435996242095e-01,-6.454889081570880371e-03,-4.780899248055616758e-04,-1.054609734461939155e-03,-1.956659766575844276e-04,3.117326200008392334e-01
-3.182732375852356244e-01,-3.297926460354552725e-01,-7.046661050839980733e-03,1.503092879647403672e-03,9.918089124959258811e-04,-2.912305002756520830e-04,3.171589672565460205e-01
-2.928649157030459027e-01,-2.683481119828462491e-01,-4.928841551512797015e-03,-3.233739802012176954e-03,3.770981769525671989e-03,-2.598177993995393759e-02,2.802644670009613037e-01
-3.169266830722519690e-01,-3.272555280615170314e-01,-4.655190890842236806e-03,-2.562317968860909623e-04,-4.959684165444345301e-04,3.516051658293890174e-04,3.175639808177947998e-01
-3.153399283359890615e-01,-3.262025369980044998e-01,-3.954899110283960351e-03,-5.720037030038660226e-04,-8.244207153145018292e-04,6.666127278745805074e-04,3.169628381729125977e-01
-1.712438016257119278e-01,-2.862086688077425389e-01,-2.893149712527820494e-02,-4.060404711476507666e-02,-4.190373719329910235e-02,2.254874913469549075e-02,2.481326311826705933e-01
-2.616251117846408736e-01,-3.043846103778763412e-01,-1.037619304822343103e-02,-2.505018212515914503e-03,-1.390803426377365364e-02,8.401054400764020741e-03,2.766017615795135498e-01
-3.066922233880012283e-01,-3.122308510592941011e-01,-2.571503943306380213e-02,-3.565866132723933407e-03,-6.850781949325667787e-03,1.067291509592963213e-02,2.847029268741607666e-01
-2.168571620885203499e-01,-2.985732530184005418e-01,-2.154312752554427002e-02,-6.861416188488596649e-03,-1.602978818381530987e-02,3.779506095240958100e-03,2.484760433435440063e-01
-2.302141706823230827e-01,-3.054545060417060420e-01,-1.574526937404804872e-02,-2.130369536827784495e-03,-2.921809322646064244e-02,3.892459972447180529e-03,2.653580307960510254e-01
-2.639002992507460399e-01,-3.162562396281572430e-01,-2.011798841058576315e-02,-3.645287203205576807e-04,-1.215305007165251930e-02,-4.579744837252200905e-03,2.746649384498596191e-01
-1.977330335674591100e-01,-2.956027377754500418e-01,-3.100238927206627748e-02,1.242660257868656755e-02,-4.986547165277293615e-03,-5.559254709075381329e-03,2.330794781446456909e-01
-2.317950499344981208e-01,-2.873198220387545021e-01,-3.404260087723665062e-02,1.410780008428487269e-02,-6.055774383319140794e-05,-3.002871240619071382e-03,2.319339215755462646e-01
-2.302180092344633666e-01,-2.886594126456485943e-01,-4.051051576006567401e-02,1.070885798833402271e-02,-5.165218443965673535e-04,4.495210445618201545e-03,2.256026715040206909e-01
-1.885498103217977395e-01,-2.969830909963837584e-01,-2.973201424196511566e-02,3.272334386516139587e-02,-4.466566422994967984e-03,-5.144306436267186838e-03,2.399035096168518066e-01
-1.107816317726390970e-01,-2.252861553195800448e-01,1.583110142037862100e-02,8.627046546464478549e-02,-2.564095152132150890e-02,-1.047579761365346161e-02,2.612837255001068115e-01
-3.168160189608727473e-01,-3.257085068102461012e-01,-7.955943646538038427e-03,-1.012182546691504925e-03,-6.385396993981103152e-04,3.707841287109946409e-04,3.134084641933441162e-01
-3.160132101915736347e-01,-3.280316541794203733e-01,-9.188572597607025383e-03,-6.761602228342605695e-04,-1.825992897503041107e-05,1.284436352955533852e-03,3.130170702934265137e-01
-3.040977657081174734e-01,-2.967633282515705351e-01,-3.059973717570663165e-03,-5.643640303203738490e-04,-9.223762824291641821e-04,-4.789604341619410101e-03,2.975599765777587891e-01
-3.128629790670321986e-01,-3.191093793578836380e-01,-3.021436659159770777e-03,-6.131783500429890911e-04,-1.167253364938905958e-03,-2.418123869384421112e-03,3.130478262901306152e-01
-3.166199974252827398e-01,-3.273906591892917772e-01,-5.968980925042055574e-03,-1.130209556358184966e-04,8.358443663680507809e-04,-2.663985625637778354e-04,3.161776661872863770e-01
-3.215575925362389453e-01,-3.302510251234336836e-01,-7.918030999178760077e-03,-6.441611368794354945e-04,-1.088185963693706843e-03,-1.388312704464385100e-03,3.180920183658599854e-01
-3.188585260816751976e-01,-3.297760301718304365e-01,-1.035263690623242083e-02,-2.058044212476283559e-04,3.036019357796479121e-04,9.985551041916443903e-04,3.141123652458190918e-01
-3.199453825675298013e-01,-3.280024142395551734e-01,-3.124961061161457554e-02,4.513590585240799232e-04,3.516380118646395166e-03,2.628427054803660762e-04,2.928721606731414795e-01
-3.147400915066996818e-01,-3.257100198553945503e-01,-4.003122119474650242e-03,-2.991959082418599487e-03,3.073682186894435581e-03,5.009929054043117625e-04,3.164530098438262939e-01
-3.486685210862748852e-01,-3.377227779860520473e-01,-1.837780709673583757e-02,4.395383043140447914e-03,7.791728420586694313e-03,1.318322037610214666e-02,3.261257112026214600e-01
-3.211994490029277394e-01,-3.308319065963505889e-01,-6.267013577629848564e-03,3.881881315450992669e-05,9.336137307626465962e-04,-8.985137168560104054e-04,3.198653459548950195e-01
-3.149138217867055722e-01,-3.273003411376234073e-01,-4.581474853396688696e-03,1.006293084566919259e-04,-4.625482358434184339e-04,-8.810037184409446427e-04,3.167120516300201416e-01
-3.153772182964928450e-01,-3.298501245243623536e-01,-1.196114597871389407e-02,-7.069916937065596650e-04,3.342368265555184634e-05,1.403992442365561727e-04,3.109077811241149902e-01
-3.176846197439333608e-01,-3.302993883568644540e-01,-2.723700508262666409e-02,-1.863515471495299234e-03,3.647597059045613486e-04,-3.777136034341547783e-03,2.970462739467620850e-01
-3.344870099519988149e-01,-3.152936823515207765e-01,-1.731122101563037363e-02,-4.019162812670726281e-02,-3.025161436925452585e-02,4.007446627943067607e-02,3.275525569915771484e-01
-3.236588418695143243e-01,-2.019335397285834666e-01,-1.470306131243187542e-02,-2.864749263203483429e-02,9.187696893187898180e-04,4.926502995228634885e-02,2.870691418647766113e-01
-3.108111189889065651e-01,-3.104980972313980403e-01,-2.285104788969871681e-03,-5.700430780891952700e-04,2.707948791303152296e-03,3.648333053428965377e-03,3.084715902805328369e-01
-3.175498206357255659e-01,-3.174884852074169594e-01,-5.278686078414723815e-03,-2.530977710157649493e-03,5.519678326592348735e-03,6.455933557637704746e-03,3.126175999641418457e-01
-3.209483041244504120e-01,-3.247390823052874742e-01,-9.130111328103068802e-03,-6.107946961548737716e-03,3.556052732121393108e-03,4.248831499421293172e-03,3.140557408332824707e-01
-2.979986889931660610e-01,-2.914780468843513606e-01,-1.116001601944829891e-02,4.358861978523802250e-04,8.005698421167439793e-03,7.818447695465269428e-04,2.839775383472442627e-01
-3.049906949201592887e-01,-3.078344180050053835e-01,2.169802304468365639e-03,1.243782390618177261e-04,1.622952322868352268e-03,1.783440964950038128e-03,3.086205124855041504e-01
-3.117216315363362522e-01,-3.116005155583668751e-01,4.386608843218259279e-03,-3.229649145900149077e-04,1.171486893400773078e-03,8.753654155381569626e-04,3.160583376884460449e-01
-2.910977116080368243e-01,-2.913466427869837450e-01,-1.100393907212149358e-02,1.892149760352999184e-03,5.169215394653699051e-03,1.568995717838697884e-03,2.803936302661895752e-01
-3.194570784528487084e-01,-3.167096219549572211e-01,-1.079324117651991877e-03,-2.829940675674578326e-03,1.294973923499534701e-03,1.967969266695919657e-03,3.170771002769470215e-01
-3.172736843008533980e-01,-2.884723021163119183e-01,-1.588834713413775357e-02,-2.592070422733595703e-05,7.531796393509610638e-03,-1.978423395611101504e-02,2.903907001018524170e-01
-2.957902923560623010e-01,-2.528327536547983478e-01,-6.925872138915212251e-03,-3.441757849389429601e-03,8.433463310191515253e-03,-1.792377928445874208e-02,2.721980810165405273e-01
-3.951332724389811091e-01,-3.782633499898900853e-01,-4.314442368513446424e-02,-3.702357637818769198e-02,2.187974232481998751e-02,-3.557470275323952602e-02,3.571943342685699463e-01
-3.062778257856381137e-01,-1.996527279340613026e-01,-3.709131201413137791e-02,1.825894371591885732e-03,-5.018837118943656741e-04,-5.614186491067073466e-03,2.350182235240936279e-01
-3.033478967843641350e-01,-2.975261441775746141e-01,-1.580035118680878092e-03,-1.103598220405793565e-03,6.506590819298284194e-03,-4.267478204259680247e-03,2.992093265056610107e-01
-2.673420153734646365e-01,-2.899131959705690265e-01,-4.553851623931662318e-02,-1.603288754038101338e-02,1.399966526802573236e-03,-2.636987242197410489e-03,2.356067001819610596e-01
-2.512097584933879468e-01,-3.179802804000362304e-01,-2.553584996503982518e-02,-2.508692771446277493e-04,5.575912097765264126e-04,-5.122364894018050988e-05,2.654364407062530518e-01
-3.168748188907724028e-01,-2.203393507213187441e-01,-4.246016317671799656e-02,6.481908466030185563e-03,-3.102909013841539075e-03,-4.857619602812726037e-04,2.414278090000152588e-01
-3.113557297425897374e-01,-2.178661000820420190e-01,-3.325382495075548950e-02,-3.499974889525352129e-03,4.032883608679434240e-03,-8.639365990324056679e-03,2.457453906536102295e-01
-3.187537530260149410e-01,-2.177069904073137274e-01,-4.138878505665460894e-02,-1.241540792559842933e-02,-2.835771466594015112e-03,4.386241706709719640e-04,2.441353499889373779e-01
-3.119233492361649929e-01,-2.263682174415474202e-01,-4.096054455762668245e-02,-1.696510671903045733e-02,3.201126410359455068e-03,-7.116432409149056441e-03,2.420834153890609741e-01
-2.872645104789098847e-01,-1.894082557312583293e-01,-2.316258749215899249e-02,-1.399360125877277886e-02,2.899901227932013843e-03,-3.453551107844498539e-03,2.326588034629821777e-01
-3.779619749474597556e-01,-1.533980627625403104e-01,-2.370090779321074037e-02,-6.931693411583841891e-02,1.357705090939923843e-02,-3.054576068051046214e-02,3.378494679927825928e-01
-2.658211667437088699e-01,-7.141779945759978154e-02,1.805584953826812333e-02,-3.840375206349708886e-02,-6.325929915966617759e-03,1.344629698057759996e-02,2.613028585910797119e-01
-3.415261379263212493e-01,-2.295356063045399242e-01,-3.977647223699312673e-02,-8.962926629049292049e-02,-6.851718810802546328e-03,4.320625770461026388e-02,3.156628310680389404e-01
-3.238771552722865543e-01,-3.279970170712022681e-01,-1.329655465009879634e-02,2.687188315094506553e-03,-1.634393641669357015e-03,2.601009076653620997e-03,3.127408027648925781e-01
-2.321014046782362839e-01,-1.033337944017240773e-01,2.956133863577667387e-03,-8.512261382721283964e-02,-3.553946317313363187e-03,-8.066288066942893520e-03,2.520635128021240234e-01
-3.331264690318260224e-01,-3.247030163840710082e-01,-3.517503782616110408e-02,-8.438601377513104546e-03,-1.353723090764933322e-02,5.455100217502967079e-03,2.952776849269866943e-01
-2.302231736695048436e-01,-1.701901636938662477e-01,3.589708617674741697e-03,-6.645205513904316186e-02,-3.128243234589631050e-02,4.312493752440273165e-02,2.569019496440887451e-01
-3.496868430389241111e-01,-3.540443984295073565e-01,-6.518202760754449043e-02,-5.732578781131036916e-03,-5.945843133096848782e-03,-1.345677818960205711e-02,2.880097627639770508e-01
-3.696173847333111273e-01,-3.629063137414544893e-01,-5.654762924636697052e-02,-1.998376707507742642e-02,-7.562180470764823768e-03,1.419068730381320420e-02,3.129383623600006104e-01
-2.936384235650080221e-01,-2.263249528246999431e-01,-2.422972705494375045e-02,-4.969150970168238583e-03,-1.078661117832931636e-02,1.375647373342539850e-02,2.448839843273162842e-01
-3.295101542834537600e-01,-3.388361366332287017e-01,-5.173035409742646196e-02,4.092121329883567616e-04,1.767033758194986280e-03,4.733892058841099489e-04,2.825768887996673584e-01
-3.261272805365434402e-01,-3.276246956008508904e-01,-3.246824896189495768e-02,-5.132682288089234282e-03,2.575314312757536871e-03,3.551026327727169283e-03,2.946427762508392334e-01
-3.414380937034607322e-01,-3.509437271390584145e-01,-9.934790369243012842e-02,9.232822600553910542e-04,7.177459190392981078e-04,2.904450825330118745e-03,2.470397651195526123e-01
-2.151944959942234670e-01,-2.956348775077221047e-01,-2.093482557034334612e-02,-7.216887141171997658e-03,1.004969529729153599e-02,-7.559504951859574544e-03,2.458952516317367554e-01
-3.383206832048353818e-01,-4.308295951570810800e-01,-8.392371088399597223e-02,-5.152874259963052817e-02,8.330465044433481292e-02,-5.750491077731143289e-04,3.543943166732788086e-01
-3.374755548823841211e-01,-3.410166724196482813e-01,-1.184952279531043540e-01,9.330034629702842457e-04,-3.140998719942165660e-03,3.455753953927798508e-03,2.209262251853942871e-01
-3.301973169969820709e-01,-3.093967279260634862e-01,1.894108947519013153e-03,1.824589260782084887e-02,2.343993255378835590e-04,7.401003053051508247e-03,3.239952325820922852e-01
-3.139946393961998705e-01,-2.505428135413638735e-01,-4.979119426288830530e-02,6.422390624044736936e-03,-1.126961276350108530e-02,-4.867849453200513710e-02,2.543205618858337402e-01
-4.129070253583158046e-01,-4.391801458084772514e-01,-1.156278860857465063e-01,3.364828861221577823e-03,-4.552096179715858087e-02,-6.712737564617665686e-02,3.415322899818420410e-01
-4.595525034554678312e-01,-3.629128588180304815e-01,-1.062498433918948881e-01,7.664244166885535170e-02,-8.614901847126387596e-03,-5.420123771247151861e-02,3.559172749519348145e-01
-3.229312375501480759e-01,-3.101101798820984912e-01,-2.048282444844973238e-02,-4.067221098288116565e-03,-1.694771361099579573e-03,-1.178710003278503685e-02,2.970467507839202881e-01
-3.167645914323994338e-01,-2.830485530264545968e-01,-1.122782354459100906e-02,-1.964260019945324870e-02,1.267975851351405524e-02,-1.486911757333997906e-02,2.940936684608459473e-01
-9.957803068476689390e-02,-2.376593766942464714e-01,5.809400388353228029e-02,-9.566803812041518862e-02,4.481718426182982121e-03,-4.593924050109565033e-02,3.155108690261840820e-01
-3.156169893393482861e-01,-3.170698237932204622e-01,-5.763106862262667995e-04,2.892904557243981822e-03,5.757889595427883624e-03,-3.948883685261896093e-03,3.160408139228820801e-01
-2.010847832586415418e-01,-2.291145109821818293e-01,1.748758875517308908e-02,-4.271753218840336486e-02,3.182602524536549266e-02,-2.605827561649637358e-02,2.554138302803039551e-01
-2.774275602633906601e-01,-2.634266198550523352e-01,-2.130472918107514935e-02,4.873148548338268778e-03,6.609749238865858349e-03,1.749338202406941272e-03,2.498408704996109009e-01
-1.665570450412685588e-01,-1.515951109221684023e-01,8.064181837751083215e-02,-1.003243909876076478e-01,2.083424878959231133e-02,-5.087994524049095114e-03,2.986760437488555908e-01
-2.820243342971079370e-01,-2.990061822778870559e-01,-2.083462809469641130e-02,-1.127474098682458917e-02,1.773948664657342550e-02,-1.707676916024799055e-02,2.741244435310363770e-01
-2.941701699730604469e-01,-2.910457625753972155e-01,-2.334427176227446554e-02,8.585932495231598897e-04,5.044739153021741453e-03,2.759206894123308104e-03,2.694655060768127441e-01
-2.187604183842672689e-01,-2.800089276055687249e-01,-3.022088561188104872e-02,1.174158829210781262e-02,3.121639135738741699e-03,5.831525219307420911e-03,2.266961634159088135e-01
-1.905272655411669180e-01,-2.190284312268260536e-01,-3.067345069435067906e-03,-9.673412779881633561e-02,-5.241166468791361860e-03,-1.224263766193673872e-02,2.643877863883972168e-01
-3.927182641107717087e-01,-3.856680266349174491e-01,-7.354866136764712237e-02,-6.443254042054670332e-03,1.245171262108294222e-02,3.973953685226363185e-03,3.167108893394470215e-01
-3.173254947606082843e-01,-3.255214756215583649e-01,-2.532880768714501629e-02,5.541159429838531450e-03,9.526121357265824588e-04,-1.993949393504800861e-03,2.963599264621734619e-01
-3.889955864089036375e-01,-3.542259012154407305e-01,-8.696567544555078300e-02,-4.409968162393300417e-02,7.266764588825477822e-02,-8.127301983960923126e-02,3.513140082359313965e-01
-2.306884584665513660e-01,-9.547981929708881932e-02,1.800848282078440499e-02,-7.568905754117635776e-02,1.235339902527068934e-02,-3.582934722179616921e-02,2.607702314853668213e-01
-3.958194107679893770e-01,-2.886232208244047248e-01,-9.458344240081242860e-02,-1.378497713059682328e-01,1.110311751859891644e-02,-5.281337314003177463e-02,3.683586120605468750e-01
-3.276161959605151663e-01,-3.161463145791830742e-01,-5.426360336335811496e-03,-1.599871523018462900e-04,-1.452554962763962572e-04,7.172237000738172362e-05,3.166109919548034668e-01
-3.273770698036637672e-01,-3.188481492038246490e-01,-4.931843163925669904e-03,-1.170604443359991300e-03,5.324489966609776337e-04,2.575908167731758621e-03,3.183055520057678223e-01
-2.886747226180469972e-01,-2.979613158114822191e-01,3.475211320895232880e-03,3.882631640152048118e-04,7.613786902639668730e-03,1.903886013318854082e-03,2.972139716148376465e-01
-2.954186914469436598e-01,-3.097601439018082825e-01,-1.323267351031637284e-03,9.496761874664495827e-04,7.417219610559622027e-03,2.008484555289919132e-03,3.018201589584350586e-01
-3.208753612188101068e-01,-3.124270949852639423e-01,-3.718361723661467444e-03,3.034638070289259640e-04,1.699202410845773335e-03,2.100174605379335428e-03,3.130537867546081543e-01
-3.033059593395314169e-01,-3.221726170592830729e-01,-5.741993347690432792e-03,-1.470846714767679551e-03,5.219069604315262553e-03,-1.759618259829219837e-04,3.075753450393676758e-01
-2.701083755105766482e-01,-2.503652003591807507e-01,-2.779226206827500878e-02,7.798508980777827011e-03,3.967687215578150073e-03,2.179357201687620853e-03,2.335952222347259521e-01
-2.120384408964254841e-01,-3.036185275208131973e-01,-3.748657056475654392e-02,-7.973425088985379092e-03,1.101240189132342891e-03,-3.024607180689269006e-03,2.346541136503219604e-01
-1.726140453278761921e-01,-2.528444318966017734e-01,-1.305261401789994946e-02,-4.917524027879256743e-02,6.471829721532400791e-03,-5.417471209576152098e-04,2.282095253467559814e-01
-2.062389384690030414e-01,-3.373779597137563924e-01,-3.567861024918728141e-02,-2.776229344289638315e-02,2.597688989634435938e-02,3.852054930159164690e-03,2.702527046203613281e-01
-2.966548775533869864e-01,-3.241170623106988669e-01,-1.780659974495613085e-02,-8.269577696739974053e-04,1.282571645048468170e-02,-2.982742906517172558e-03,2.944326102733612061e-01
-1.956530684066725145e-01,-2.951295161552695001e-01,-3.580424885906507981e-02,-1.484737483400073478e-02,7.426408684105243602e-03,-1.298974221787940709e-03,2.284299731254577637e-01
-2.140965958376109257e-01,-2.991119824610924960e-01,-2.031834942163326940e-02,-7.489273362330991016e-03,6.596287940496964319e-03,-9.914866732332166741e-03,2.486874908208847046e-01
-2.443662952660223819e-01,-2.646582083680836250e-01,6.620275074697645756e-03,-2.931342949519948060e-02,3.198779095083793128e-02,-2.865588095037558194e-02,2.767850756645202637e-01
-2.974243263017575800e-01,-3.137072127831926904e-01,-2.289454237633978262e-02,-2.773584536597762263e-03,7.698872681055780182e-03,-1.035599078416013508e-02,2.839445471763610840e-01
-2.912237853237556462e-01,-2.901732833666199607e-01,-2.227232616212920790e-02,5.816293632146271684e-04,3.712944655867783401e-03,2.151074078607993160e-03,2.685325145721435547e-01
-2.050204171778104434e-01,-2.983926917601895656e-01,-2.110794935716089893e-02,1.284078673953578838e-03,-1.630898290689692873e-02,-4.943513438011078870e-04,2.460043281316757202e-01
-1.931491102240404101e-01,-3.038180019530740683e-01,-3.555997865738477759e-02,-3.870262923029917437e-03,-9.544884604059788308e-03,7.473067054638239583e-04,2.341838628053665161e-01
-1.849038931607270564e-01,-3.080394697780495794e-01,-3.425192366907942043e-02,-6.470286946333408777e-03,-7.525840565487374595e-03,1.813551182249196147e-04,2.381273061037063599e-01
-1.470013255544367903e-01,-2.904279179465856786e-01,-1.832478297947651158e-02,1.605156345325904317e-03,-3.989064025660289496e-03,3.389447824234116907e-04,2.358819395303726196e-01
-2.134474663750867141e-01,-3.238875519157147220e-01,-4.735044174995911570e-02,1.027192446663057618e-02,-4.918604128068854164e-03,-2.588389218029960373e-03,2.419467270374298096e-01
-7.941717525457352156e-02,-2.722815048121152159e-01,3.879955423439848672e-02,-5.844081627519371464e-02,6.319281348714131732e-03,-2.658486866433051009e-03,2.904455661773681641e-01
-2.169280403160075144e-01,-3.216378258579388194e-01,-2.720804062614270991e-02,-1.762366029381984495e-03,-1.275846890747235791e-02,3.955566793353185000e-03,2.595533728599548340e-01
-1.525861631882852176e-01,-2.994861813984478482e-01,-2.142158009706232602e-02,1.343507261950808301e-02,3.779954857887313138e-03,2.503117284581360662e-03,2.421879619359970093e-01
-3.150185911258464588e-01,-3.196170712959330307e-01,-8.024588620954037355e-03,1.505014568201405245e-03,6.859758552562974197e-03,-7.777755772165603938e-03,3.098509609699249268e-01
-3.145747487522158048e-01,-3.136269764281674477e-01,1.835017192623661364e-03,3.422784117849891417e-04,1.454806697820038627e-03,-5.209360581814548264e-04,3.159488439559936523e-01
-3.080608693404261467e-01,-3.069279213235083792e-01,-5.922675083433415200e-03,1.017366607124460071e-04,3.939762653994025900e-03,-4.867611179796798096e-03,3.017683625221252441e-01
-3.139241116995958314e-01,-3.128142797681867093e-01,-5.659266767793408315e-03,1.635055362441706914e-03,3.192466334983154203e-03,-9.560790754953863964e-04,3.077785968780517578e-01
-3.175136382380419620e-01,-3.160003048023886096e-01,1.447646135084440511e-03,1.011482228318234724e-03,6.098449695588995401e-04,-8.577498946693005479e-04,3.182173669338226318e-01
-3.210483830821059259e-01,-3.166357130829809963e-01,-2.158142707710808406e-03,1.985713496128777011e-03,-3.932738961186919196e-04,-9.747783665147824288e-04,3.167308568954467773e-01
-3.117342283333164876e-01,-2.916101122447396499e-01,-2.156178348104095810e-02,4.840880888568673164e-03,-1.305898283782975892e-02,-1.026924215644993074e-02,2.822478413581848145e-01
-3.030837879447139116e-01,-2.548833925176890447e-01,-1.057426118925713920e-02,5.602360974161138714e-03,-6.271016313386491153e-03,-2.754268504739875931e-02,2.761774063110351562e-01
-3.107936822543316824e-01,-3.149092936986121471e-01,-1.180539057816459847e-02,-3.263305257797698752e-04,-6.241427265376564386e-03,-6.616037498457864353e-03,3.014796078205108643e-01
-4.380946461095435174e-01,-4.143366687242593938e-01,-8.547424865678801553e-02,-4.164413830642283744e-03,-4.747590849332058126e-03,-3.300777249899910191e-03,3.415850698947906494e-01
-2.838650897149203045e-01,-9.922532790585722462e-02,9.131304741915174938e-03,-3.229705181859801881e-04,-2.022403156149209236e-02,-6.424683302049266631e-02,2.818692326545715332e-01
-3.133251186452788439e-01,-2.904454635229765658e-01,-6.509337581342089507e-03,3.697145449920206874e-04,-1.250284311962075474e-04,-1.351023033479778652e-02,2.969639599323272705e-01
-3.233655955533017989e-01,-3.237641373415564017e-01,-1.069017203835509466e-02,-1.198012245500371152e-03,-2.313524916765846793e-03,-1.259216032945813420e-02,3.136666119098663330e-01
-3.419237748921310494e-01,-3.497334184751002550e-01,-6.074812809689672521e-02,2.806922286603705935e-03,-1.506594897023033749e-03,3.255703022725633857e-03,2.852697968482971191e-01
-3.029993318062152441e-01,-2.659755986123866212e-01,-5.371040355210604522e-03,2.088668933865251310e-03,-7.728408314512320680e-03,-9.729849548607918258e-03,2.817983925342559814e-01
-3.212817923694097910e-01,-3.064643226029257761e-01,-7.637251848728099368e-03,-2.275953157750574586e-03,6.335600022488862160e-04,-5.813635116456577177e-03,3.066972196102142334e-01
-4.214232393209724759e-01,-2.212228127968317026e-01,-4.836604285386597590e-02,5.990864258139996096e-02,-1.714742517237137498e-02,-5.448360126616037108e-02,3.537234663963317871e-01
-3.193247649920830655e-01,-2.925522074960075214e-01,-1.728866364921941012e-02,-5.261545226429335202e-04,-7.649108493520323515e-03,-7.863308169564053179e-03,2.902036309242248535e-01
-3.472926440821326177e-01,-3.396462209910644514e-01,-6.860393130184852528e-02,-3.926955072829784073e-03,-5.533062821800429840e-03,-2.450218931853804290e-03,2.752290070056915283e-01
-3.263947589932493787e-01,-3.259559859339501431e-01,-6.499944311300595579e-02,-4.569360845143029086e-03,1.645559941151980565e-03,-3.382435616004243317e-03,2.613773047924041748e-01
-3.259790747988945414e-01,-3.293910546734326594e-01,-9.160718074667412170e-02,5.037527947013872680e-04,-2.425744218288375517e-04,3.823458572953518896e-03,2.361912280321121216e-01
-4.990145260248389780e-01,-5.044610973377814389e-01,-1.502894997297058166e-01,4.569837084377650904e-02,-1.754751518724571521e-05,7.886978743893308108e-02,3.853109478950500488e-01
-3.148429285420149548e-01,-3.286324962621984813e-01,-3.290456388613738348e-02,-3.535457961932529820e-03,-1.000447150424707207e-03,-5.864631152415089588e-03,2.893283367156982422e-01
-3.376623129131645085e-01,-3.347900654352055083e-01,-3.628264285157406510e-02,-6.562447091469132514e-03,-5.096543052897080199e-03,-3.498079662925332976e-03,3.003600239753723145e-01
-4.152032712851139729e-01,-3.893419161234971115e-01,-1.273515245417999042e-01,1.381633861744284431e-02,-1.669740620754278778e-03,5.429893035170173243e-02,2.924198508262634277e-01
-3.468670819346812983e-01,-3.746315153024546429e-01,-3.541374546598516360e-02,1.190315545678248890e-02,1.422378910307887760e-02,9.564636892454896067e-03,3.282191753387451172e-01
-3.382124659292099489e-01,-3.401507797288767510e-01,-9.388205235923963166e-02,-2.173270041286475343e-02,3.585635787455803900e-03,-2.238836635671931710e-02,2.512646317481994629e-01
-2.322475785458929798e-01,-2.493795327221016156e-01,-2.835776162147995993e-02,3.564564326643614167e-02,4.978279291103097741e-03,-7.779435130433890594e-03,2.223180979490280151e-01
-2.541663426945711679e-01,-3.118015743575567322e-01,-1.457926601998532634e-02,7.203559457614880021e-03,-2.497327693112087396e-02,-4.407846931093892945e-03,2.767984867095947266e-01
-2.183750121098317065e-01,-2.728615667711904447e-01,-1.503687963705346853e-02,6.951268869544764695e-02,-4.680604006940480843e-02,-1.774210133068719261e-02,2.782214581966400146e-01
-3.239025701127066226e-01,-3.334536385933421498e-01,-1.782585639457551219e-02,-4.932548842218004680e-03,-5.931924116458008045e-03,-1.894186142737035801e-04,3.112494051456451416e-01
-2.357478119169261199e-01,-2.850270340179742456e-01,-1.907321903983333344e-02,1.188285854298192987e-02,-1.233840520694499780e-02,-1.046405392737651506e-02,2.475129961967468262e-01
-2.587364462174526203e-01,-3.107288575680191567e-01,-1.024629988361924759e-02,1.930199268082493714e-04,-1.229114031896675827e-02,1.529996332544233516e-03,2.789812088012695312e-01
-2.800665689852976370e-01,-2.772176002168414422e-01,-3.455999844916587960e-02,1.133582522900397627e-03,2.901558520996283270e-03,1.431394816151118372e-03,2.441667616367340088e-01
-3.183953137172752523e-01,-3.003518335797077943e-01,-8.855385932612119815e-03,-2.725428061221284778e-03,-6.216821113775371915e-03,-1.628261000139775982e-02,3.024714291095733643e-01
-2.921239119354643310e-01,-3.605362081834973531e-01,-3.694072864743425111e-02,4.647317260490139296e-02,-2.489104199621197666e-02,-1.640796987876623828e-02,3.104867041110992432e-01
-3.007022868706857865e-01,-3.128445694598677163e-01,-9.315770520176291924e-03,-5.189382772069295411e-04,-9.151978366139972357e-03,-7.642686400513721244e-03,2.983604371547698975e-01
-3.082421184586180418e-01,-3.230312989466829210e-01,-6.977692194471529774e-03,1.328691279282716211e-03,-1.037488130084625836e-02,-4.463531027243726121e-03,3.095519542694091797e-01
-2.725524333871958138e-01,-3.022054284090754384e-01,-1.301064579503621865e-02,3.059003080590656787e-03,-8.024361498900501460e-03,-1.117035282817082503e-02,2.766459882259368896e-01
-3.354131427427424761e-01,-3.311271169172935736e-01,-3.228734646944711462e-02,-1.293978941926707087e-03,7.197901457757326441e-03,-9.978842521707453200e-03,3.017674684524536133e-01
-3.156445012762303381e-01,-3.181328570728046978e-01,-2.956325152522171207e-03,-1.971967584334052316e-03,-3.531949700595569779e-03,-1.948440462121400025e-03,3.140360713005065918e-01
-3.152137116192318400e-01,-3.142259195156997809e-01,-1.576071623428321189e-03,-3.708515663058140955e-04,-1.796872744327692503e-03,-6.194383458059232175e-04,3.131628632545471191e-01
-3.148848488565787473e-01,-3.158499235855608545e-01,1.897846328813818095e-03,-1.564245217427492158e-04,-7.517374350562277402e-04,-1.036544750264562508e-05,3.172691166400909424e-01
-3.177471034193717347e-01,-3.203762645094591077e-01,-2.941160590812230691e-04,-2.892349826265796457e-03,-1.519295294977445181e-03,-1.341981702734305329e-03,3.188343942165374756e-01
-3.171703397124399637e-01,-3.174067096462998006e-01,-3.313731017498489084e-03,-1.604240372805573354e-03,-3.073112502960680722e-03,-2.320870860735475133e-03,3.140580058097839355e-01
-3.130719071334641113e-01,-3.109291843080457252e-01,1.069386445772702032e-03,-4.444974624719291977e-05,-1.095852593230313638e-03,-1.436184022656453608e-03,3.130910694599151611e-01
-3.166909899231816761e-01,-3.157974053669661552e-01,7.644710994162973172e-04,-7.890424117355781392e-04,-2.112415432512176438e-04,-1.106612990915783763e-03,3.170185685157775879e-01
-3.130082802244137374e-01,-3.115232595262263371e-01,-1.580057070729640190e-03,-8.168297382573279190e-04,-1.575004669213558124e-03,-2.279195002441414177e-03,3.107286393642425537e-01
-2.883590413044111456e-01,-2.539357220444442564e-01,-2.474037143466242816e-02,-4.129732207173292084e-03,-7.997756513512907506e-03,5.085542218194472226e-03,2.488489151000976562e-01
-3.262927981158687540e-01,-3.307730342076214414e-01,-2.796216891207004007e-02,2.191395549412707665e-03,9.807803657014755021e-04,2.457251663133041620e-06,3.006245493888854980e-01
-2.680392067149400814e-01,-2.438033290918421025e-01,-3.673951494651278571e-02,-4.754714348346829322e-02,-1.315973399188904167e-03,-2.268217033750656239e-03,2.351254969835281372e-01
-2.794198443105377350e-01,-2.377889516859305052e-01,2.540965709007914075e-03,-1.026145638755870948e-02,-1.331582958988407686e-02,1.151396988228363914e-02,2.659742236137390137e-01
-3.021975098662585402e-01,-1.853089135965454159e-01,-4.056559913555729535e-02,-1.494003875084964628e-01,1.364034880582637270e-02,-1.973034604775983879e-03,3.450560867786407471e-01
-9.744662257222332091e-02,-1.792225056554464790e-01,3.741488669821245450e-02,-8.487252671562055262e-02,-2.378725001178304266e-02,2.192490013587084299e-02,2.462782561779022217e-01
-3.140740474554157835e-01,-3.223239372062733366e-01,-2.567512965762464017e-03,1.482737485191320311e-03,8.381464086329057329e-04,-1.048676501182838435e-04,3.157261610031127930e-01
-3.178549212887004094e-01,-3.276530600916359726e-01,-4.996632859384314562e-03,3.637893944382554370e-04,7.898626271497903324e-04,-3.758058730424636783e-04,3.178748786449432373e-01
-3.158604634178663884e-01,-3.261368874124606076e-01,-4.141869740711734416e-03,5.675683744518479580e-04,4.311137824636398922e-04,3.338287776052694441e-04,3.169846832752227783e-01
-3.055060164130300460e-01,-2.996822954563495012e-01,-2.581523421139347851e-03,-5.174071208700291562e-04,6.336822532122530702e-03,-4.178200937020508030e-03,3.003442287445068359e-01
-3.099849437664901064e-01,-3.003714441071063113e-01,-4.158020102499437876e-03,-1.117765292503808015e-03,6.227726007424505723e-03,-5.044352416014379406e-03,3.014612793922424316e-01
-2.766427305878859655e-01,-2.768444773737929743e-01,-2.370616315317228273e-02,-3.650075783351896174e-04,3.213901397880772294e-04,1.217928673635329008e-03,2.530477046966552734e-01
-3.203030224632587020e-01,-3.245932412109333587e-01,-4.486779421442765869e-03,1.086833995743419082e-03,2.374488302625143380e-03,-3.318684416474070639e-03,3.180671632289886475e-01
-3.152713661926116462e-01,-3.192123536537330719e-01,-6.498712500620035248e-03,4.355016515430145714e-05,3.470692098985318579e-04,-1.798746216005172672e-04,3.107626438140869141e-01
-2.967968190820418073e-01,-2.882055637166057727e-01,-9.671057579492770007e-03,-1.285214290457461269e-03,7.051056195698786160e-03,-8.509663774006667996e-04,2.832040190696716309e-01
-2.930668065664378541e-01,-2.772233269096534003e-01,-2.582139120276008559e-02,-2.126467528276560978e-02,8.638719717816883623e-03,-1.434657952512557837e-02,2.638843357563018799e-01
-2.894959215732174629e-01,-2.893213192798394506e-01,-9.946695790840981433e-03,-2.388347656268859000e-03,4.905799611636730596e-03,-1.413018030712641674e-03,2.796324193477630615e-01
-2.993103639443506214e-01,-3.051973660173367686e-01,-3.086694049064836465e-03,-6.608387717764227899e-04,2.674960903326393385e-03,-4.986496988780437720e-03,2.993732690811157227e-01
-3.057842970916424541e-01,-3.031825165299163460e-01,-9.913623439174151786e-03,1.465414652547297942e-04,3.544684333626925768e-03,-4.175589642273156918e-03,2.947312295436859131e-01
-3.593330944784056125e-01,-3.518361034619462702e-01,-4.736665062679518146e-02,-8.929690300824504740e-03,3.163361113967852901e-03,-3.847648744441985874e-03,3.087946176528930664e-01
-3.137261430074008151e-01,-3.157715015894675403e-01,-1.843596608672920523e-03,1.713527501563515609e-03,3.429767106901730322e-03,-1.494731213298883341e-03,3.129914104938507080e-01
-3.159465552703166757e-01,-3.236817023017238837e-01,-6.040175934552832748e-03,1.980248196801220710e-03,7.338759145361604952e-04,-2.693282418775619184e-04,3.138671219348907471e-01
-3.114925767727395045e-01,-3.131387613695814642e-01,1.248580677746968792e-03,1.503077740531051100e-04,1.136459786189709074e-03,-1.386399037127570948e-03,3.135829567909240723e-01
-3.077738957402199604e-01,-3.094156116319626837e-01,-6.517339360546159366e-03,3.752823603764867386e-04,3.848770196130312134e-03,-4.777142656077600080e-03,3.022682666778564453e-01
-3.496669790358117869e-01,-3.051194589033317528e-01,-2.744259554870168150e-02,-4.448988496413728774e-03,1.376819903848770961e-02,3.719218559162894289e-02,3.102202117443084717e-01
-3.031999330163890338e-01,-2.584927538856144347e-01,-3.557879806878716522e-03,4.104885353698898252e-03,5.411193824584620109e-03,1.419368603374723294e-02,2.813018262386322021e-01
-3.370606524117119585e-01,-3.070727255827591651e-01,-1.765674811938974798e-02,-6.624360906087489037e-03,-7.911530890666946180e-04,2.703283729430692658e-02,3.092987537384033203e-01
-3.214477680026027739e-01,-3.035277865153203081e-01,-4.577207409311168096e-03,-7.490950259256535203e-04,2.995167868730159067e-04,8.866014837920415531e-03,3.086867928504943848e-01
-3.176506031633017924e-01,-2.973082420069440568e-01,-1.282555559771800247e-02,1.378427040188161387e-03,6.347918072780064230e-03,-7.967270906091630800e-04,2.953976094722747803e-01
-3.017682345142032041e-01,-2.111199151168434429e-01,-2.327423495931163488e-02,-2.110593665213369649e-03,-1.750794355575755650e-03,1.183000650616117602e-02,2.469279617071151733e-01
-3.218185298621421553e-01,-3.208147655834567291e-01,-4.579519284847285987e-02,4.063809868273213569e-03,9.469073766596093622e-03,-1.949586108015545841e-03,2.761209309101104736e-01
-3.066397269701113260e-01,-3.066436525715716677e-01,-1.233558881731047774e-02,-1.759558244935305370e-03,-6.345339067175731311e-03,5.626560032300990943e-03,2.946881949901580811e-01
-3.243777776747994168e-01,-3.309101728385545060e-01,-1.296159185899933841e-02,2.580760941381550488e-03,-4.237647808419433594e-03,-2.391880899420568279e-03,3.148777782917022705e-01
-3.371411633209165370e-01,-3.285771908981157674e-01,-5.411482401955927668e-02,3.674560551399051311e-03,-1.515304568242056144e-03,5.271054113460195943e-03,2.790773510932922363e-01
-3.192015823305205391e-01,-3.106178514667274904e-01,-1.447077114123518360e-02,5.008203347257475513e-03,6.059884731500396471e-03,1.708177295059002147e-04,3.008393645286560059e-01
-2.625707602920683281e-01,-3.087401243548273944e-01,-1.183698622846643400e-02,-3.497531681988489457e-03,-9.581865078154939291e-03,4.670310095377195291e-03,2.774037122726440430e-01
-3.949546033655037536e-01,-3.954828112242326221e-01,-8.408974482322503774e-02,2.804114423100866754e-03,-5.646020839612253279e-04,-9.953315398793306443e-03,3.116459250450134277e-01
-2.941242346641593786e-01,-3.076912678209070551e-01,-1.091356282628513918e-02,-1.402888987040429563e-03,5.982486609188446183e-04,-7.206143817663979850e-03,2.905123829841613770e-01
-2.633437564870163561e-01,-3.020250097201158668e-01,-2.032075025046875538e-03,2.947613002849785481e-03,1.579583985638847998e-02,-1.842648368764709206e-03,2.840293645858764648e-01
-2.923587683193741849e-01,-3.160261176026908925e-01,-1.177997117540321992e-02,9.041876567563122925e-04,-1.749680642947368291e-03,2.519370469680606416e-03,2.931822538375854492e-01
-3.158390404659977002e-01,-3.163350545591304686e-01,-4.436779194423590145e-03,1.343609175864225258e-03,3.351435121813604065e-04,-4.368586448649823713e-03,3.117516338825225830e-01
-2.541203233015520424e-01,-3.032590390536022973e-01,-4.631141188915680051e-02,-6.230831709611274472e-02,9.119978680651910641e-03,-1.130601939912636959e-02,2.609417438507080078e-01
-3.248786328869250339e-01,-3.278468351624345134e-01,-2.427888224101121262e-02,6.748918728882439232e-03,9.805857374513803071e-04,7.330779021067705247e-04,3.023282885551452637e-01
-2.347821502770532920e-01,-2.665017387248768133e-01,-1.086591631596228735e-02,1.608051880738220196e-01,3.664370456429577594e-02,-1.815468575063983875e-02,3.752853870391845703e-01
-2.966376268778991299e-01,-2.919711083507958160e-01,-5.073542479941695049e-02,8.647640882852856981e-02,1.738027783617032002e-02,1.492412345381504898e-02,2.887058854103088379e-01
-3.931077549610271782e-01,-3.072147349253779858e-01,-5.232633092498850669e-02,1.322068977761622632e-01,-4.104063343860109292e-02,-4.025304846279967319e-02,3.957129716873168945e-01
-2.245636386659603523e-01,-1.338738774831900458e-01,3.433587678529612108e-02,1.212561982366115454e-01,-2.142146635689867740e-02,-2.772878370190065903e-02,3.155416846275329590e-01
-1.724184543247969104e-01,-1.263482990856004406e-01,3.425432993129447212e-02,1.236192970170623545e-01,5.260489290277486213e-03,-5.665602548599446737e-03,2.852002084255218506e-01
-6.176940813539070346e-02,-1.799233151416148035e-01,5.384150153597995481e-02,1.036209550205559882e-01,4.596541124467216910e-03,-8.153232446469416616e-04,2.706721127033233643e-01
-2.433136868702691358e-01,-2.001106243793189521e-01,-1.440418150329739189e-02,6.322828042510779400e-02,-5.158020268375886758e-03,-1.375977792079881475e-02,2.387838512659072876e-01
-2.889756181360323417e-01,-3.198831884657303837e-01,-2.035756885274883632e-02,-1.946695722349942471e-03,-1.357077434596785231e-02,8.139186820527210056e-03,2.866633534431457520e-01
-2.187920441133518468e-01,-2.758037479677620807e-01,3.780093462828482131e-04,-2.166110440473242860e-02,-2.931828809712762329e-02,1.652852893282611910e-02,2.618911564350128174e-01
-3.306495579064400725e-01,-3.192258094021364068e-01,-2.005013772450497944e-02,-4.094114080440187757e-03,-2.145664885753793480e-03,9.694014648225732786e-04,3.051576912403106689e-01
-3.344195734703748757e-01,-3.207608038780425663e-01,-1.473973688497023926e-02,-2.481776941334566493e-03,1.929500831487323880e-03,1.062899055817697648e-03,3.131267428398132324e-01
-3.247041608313910865e-01,-3.184854156878938469e-01,-1.016737904779710377e-02,-4.530675531035983916e-03,3.255278077485805003e-03,2.383228857776755263e-03,3.116511702537536621e-01
-2.859445366690375745e-01,-2.002566783857086530e-01,-2.937492158683138732e-02,7.127479289302096621e-02,-4.459566017237940119e-03,-8.947474687369413524e-03,2.583130002021789551e-01
-2.861157729527438187e-01,-1.350494921835897200e-01,-1.541911834442705187e-02,1.147299152636974129e-02,-4.081653639018219606e-03,-5.737643226994046559e-03,2.361105531454086304e-01
-3.083991623555904504e-01,-1.640530463083417489e-01,-1.366752139870314187e-02,9.057436518180860289e-04,-1.230591092048883986e-03,6.357543202325343333e-03,2.555140554904937744e-01
-2.716025590366908937e-01,-1.290271455930925293e-01,-7.830188036332008661e-03,8.237585049924031622e-02,3.378845013996082183e-03,-9.052564920536955396e-04,2.696112096309661865e-01
-3.217108825195096333e-01,-2.383347925103090625e-01,-3.203750561028495536e-02,6.387466010282169711e-03,-3.397166879663850950e-03,-1.485623439776636613e-02,2.598644793033599854e-01
-3.146868191176882545e-01,-2.340197686523469156e-01,-8.143724962023063396e-03,1.043795654618837748e-02,-6.458972230818093045e-04,-1.474437070730734260e-02,2.769985795021057129e-01
-3.326734790206729575e-01,-3.230929106156273933e-01,-3.463801241915007156e-02,1.454555989951031476e-03,3.286245569166289324e-03,-2.657028855855128602e-03,2.934646606445312500e-01
-4.171732422257284911e-01,-1.401064477153539378e-01,-5.207442283552143891e-02,5.292830192353341345e-02,2.178676623305731558e-02,9.299144928913073704e-03,3.449551165103912354e-01
-2.522173888623352456e-01,-1.166059453986337674e-01,1.722558260715115197e-02,4.815587942267057081e-02,-2.774888240507335929e-02,-4.310010133524014297e-02,2.632304131984710693e-01
-2.128355429875098959e-01,-2.320160850956224374e-01,-3.180902355601161746e-02,-8.566699205772337899e-02,-3.798338132437765330e-02,5.963745325639064482e-02,2.713397741317749023e-01
-9.956172856150591333e-02,-2.993390268998127879e-01,1.255848464080824844e-02,-5.066828366055682598e-02,-4.374589721645979340e-02,8.211054006908817884e-03,2.975335121154785156e-01
-2.904802737287520698e-01,-3.054297509917239806e-01,-1.690094101340072763e-02,-1.691541399809273066e-02,-1.242713700262707346e-02,1.294662055945335413e-02,2.845760881900787354e-01
-2.488123171619369134e-01,-2.646706139131635993e-01,-1.456394443272443495e-02,-1.600831291191389880e-02,-7.517844276215089085e-03,1.044570424463902442e-02,2.451616972684860229e-01
-2.815663015292435012e-01,-3.191941988103648153e-01,-4.398105805655383449e-02,-5.138288113114092975e-02,-2.446722963025376590e-02,2.261511411322928572e-02,2.793802320957183838e-01
-3.122248232219052566e-01,-3.166192112078607956e-01,-2.392580478179257009e-02,-3.857139961434432381e-03,-7.455315955903568659e-03,9.268535692479077173e-03,2.913273572921752930e-01
-2.457564387449724386e-01,-3.682224048666471461e-01,-4.518431166749969918e-02,-3.027784268660798847e-02,-2.581361314142432625e-02,8.064165600624522215e-03,2.910922765731811523e-01
-3.170929671828652818e-01,-3.176084120521484033e-01,-2.419102105655684953e-03,-1.119904774070668799e-03,-2.305647171672659673e-03,-2.477753437324588508e-03,3.149924278259277344e-01
-3.203987338585910227e-01,-3.268679907760945191e-01,-3.338298794053978780e-03,-2.160291628803281960e-03,-1.423790523983709368e-03,2.900336175977871267e-04,3.203758001327514648e-01
-3.162722527559079788e-01,-3.200921297907620700e-01,-1.071372367972278639e-03,-7.542101735440744602e-04,-1.515767741338866709e-03,-2.777864314096481035e-04,3.171420097351074219e-01
-3.149180398337927955e-01,-3.180394436113579415e-01,-1.635858599388362311e-04,-1.172280500983948056e-03,-1.572828717718679267e-03,-2.189501899419030086e-04,3.163451850414276123e-01
-3.173759487158824832e-01,-3.213282781712726854e-01,-2.120593299492934403e-03,-2.391208039160013475e-03,-1.132254000091830479e-03,-8.359004737282794669e-04,3.172863721847534180e-01
-3.174393663050391057e-01,-3.194776316223357226e-01,-1.377495878840034882e-03,-2.729446922827219110e-03,-1.177277058051989225e-03,-7.052705451898276653e-04,3.171300590038299561e-01
-3.179952044435346292e-01,-3.285318911884032023e-01,-6.256014611862065200e-03,-3.805672159419377291e-04,-6.512396250636200753e-04,-1.224262751774089319e-04,3.171415925025939941e-01
-3.197703236164757268e-01,-3.257357040414838867e-01,-5.627137952664923448e-03,-1.685873952205923327e-03,-2.334526981119924415e-03,-1.568688423811082089e-03,3.172188103199005127e-01
-3.076441211414145949e-01,-2.978282793028547704e-01,-1.682726550563062862e-03,1.081235047006396440e-03,-6.881913730858850789e-03,-5.651013016830898524e-03,3.015739619731903076e-01
-3.031889435778239439e-01,-2.957839098156556656e-01,4.432644317675649148e-04,1.470815105775718796e-03,-7.708952728133084895e-03,-5.968056506797756768e-03,3.004838824272155762e-01
-3.153790114874516770e-01,-3.177611055985026800e-01,1.913026031205022903e-04,-1.021965957925984742e-03,-1.338997093089470567e-03,-3.059029871424347288e-04,3.167819678783416748e-01
-3.175397198730696147e-01,-3.243773276621780277e-01,-3.617546122163861622e-03,-1.884083615335416240e-03,-5.945601072399707551e-04,-6.125837876779555884e-05,3.174146711826324463e-01
-3.255489693703303988e-01,-3.234611934130842137e-01,-7.123570647822097257e-03,-3.923095280447777555e-03,-6.582765642699188327e-04,-7.683980404404867860e-04,3.174642324447631836e-01
-2.707267927971641619e-01,-3.055154368910002471e-01,-2.015400249192247917e-02,2.053725666613857165e-02,-2.470313513453037055e-02,-1.939413329057081484e-02,2.773779630661010742e-01
-2.985738564083393332e-01,-2.938956269139028077e-01,1.401627839564795197e-03,1.249966065283992763e-03,-7.753671424709235836e-03,-6.499130184411827486e-03,2.981871664524078369e-01
-3.145963938188298670e-01,-3.186274441354383091e-01,8.596981831229255633e-04,-3.270333732816821598e-04,-9.431778185658332928e-04,-1.468964759443813295e-04,3.174956142902374268e-01
-3.228180546050802846e-01,-3.209828356054048037e-01,-9.715014428859189421e-02,-8.336091796813189982e-04,4.463378910921196596e-03,4.069187436545431032e-03,2.250038832426071167e-01
-3.354576886636269073e-01,-3.269998283246928761e-01,-5.213546288317769117e-02,4.016500625168248004e-03,1.278978825504681338e-02,2.524269933940570271e-03,2.801873683929443359e-01
-3.300425324262659110e-01,-3.290200246004266749e-01,-7.176003059208529988e-02,4.738554338946622362e-03,1.310880717786053412e-03,-3.979826888852705524e-03,2.580054998397827148e-01
-3.252309685671483930e-01,-3.233112340228569970e-01,-1.009252077349702126e-01,-1.820047860455989322e-04,5.268086538494399194e-03,-1.187751566405852903e-03,2.235480695962905884e-01
-3.468383193857101920e-01,-3.439047157321001302e-01,-1.130210917186404707e-01,1.500709220539215823e-03,1.685270537561503121e-02,-1.477655979196055213e-03,2.342189699411392212e-01
-3.321353700698057576e-01,-3.314818670001850598e-01,-8.169554743846613176e-02,1.149429788862823144e-03,-8.762467802298806079e-04,-8.388877059410368431e-03,2.505479156970977783e-01
-2.264089536273445613e-01,-3.085322279281488278e-01,-3.035408758949090235e-02,-1.844492928732733086e-02,-9.007000594532448695e-03,5.347583559105732569e-03,2.502643167972564697e-01
-3.264408824629715933e-01,-3.179705169815802979e-01,-6.385459638071994126e-03,-5.295966677341176895e-04,6.692505218277162689e-04,7.535226572931253775e-04,3.159115612506866455e-01
-3.165206664199862185e-01,-3.177047794438038197e-01,1.344588068061508546e-03,8.927635546858027999e-04,1.125137172035716414e-03,-8.128490143515960118e-04,3.184717893600463867e-01
-3.157148129539263381e-01,-3.164814922155240184e-01,8.020852919390364377e-04,9.551429939007278569e-04,1.839805220683201226e-03,-3.619734687681802230e-04,3.169218897819519043e-01
-3.163440708712457194e-01,-3.191430010323196287e-01,-7.603204770004201585e-05,1.434363146007808622e-03,1.615390693168113371e-03,-1.517638574629281794e-04,3.176988959312438965e-01
-3.108288264864328410e-01,-3.113951684630987815e-01,6.353425017604774627e-04,-2.510812680550059844e-04,6.356034542169682836e-04,-1.168832346599434557e-03,3.117565512657165527e-01
-3.346196623155843208e-01,-3.243549860665145834e-01,-9.919709187534542227e-03,-1.412251928162499334e-03,3.585541159144359398e-03,2.328670100884198913e-04,3.197611570358276367e-01
-3.152240050542802763e-01,-3.141923984800147895e-01,3.553729954351159126e-04,6.187241109219983326e-04,1.765050303906417171e-03,-8.694624702321638535e-04,3.150850832462310791e-01
-4.017137738972010319e-01,-3.702391189569804730e-01,-8.304286934281440713e-02,-3.516099345131390008e-03,1.812845926208243169e-02,-5.845472369927792386e-03,3.060020506381988525e-01
-3.537857709118634730e-01,-3.585050811542773719e-01,-8.192470693682621374e-02,1.018041116535378307e-02,4.139009169284688615e-03,-4.759623869813511300e-03,2.750345170497894287e-01
-3.315267580799439173e-01,-3.408617359435543448e-01,-6.443796608575466656e-02,1.093404982404919644e-03,-3.042424770612967271e-03,9.410930825710610639e-03,2.724222540855407715e-01
-3.334646458935787150e-01,-3.426692151702824263e-01,-3.019714511873580753e-02,7.681784964999080305e-04,1.368971255458224312e-03,4.370581401384691228e-03,3.080779910087585449e-01
-3.214660371087486590e-01,-3.158927508859331601e-01,-4.043349007068186562e-02,-5.991757764659179190e-03,5.512022925226445040e-03,-1.242315948711963719e-03,2.786531150341033936e-01
-3.980099491528694688e-01,-2.528545700470289370e-01,-5.884645358490642186e-02,-2.210238990183310825e-02,-5.050770995840123123e-02,-7.019856958921155687e-02,3.328253328800201416e-01
-3.405546794945630840e-01,-2.986963764339677363e-01,-6.565680564911630102e-02,1.188369617121764858e-02,-2.712361172133657267e-02,-5.146069413120143987e-02,2.763865888118743896e-01
-3.151249329044980008e-01,-3.172105530607889357e-01,-9.342354344343689609e-03,7.825337781332859658e-04,-8.097568396619099843e-03,6.035125255266895854e-03,3.073318898677825928e-01
-3.289645036104332232e-01,-3.169597834595461183e-01,-1.035054727992509860e-02,6.007375304396297792e-04,-1.518885725987088788e-04,1.358414330065518165e-03,3.127951025962829590e-01
-3.196299071314867568e-01,-3.186603032608351649e-01,-1.243145483306501431e-02,-8.929466603964435157e-04,-1.896750048326471512e-03,-3.778488266686256831e-03,3.068060874938964844e-01
-2.726042755930455641e-01,-3.208110353216852562e-01,-1.799250114338560302e-02,-3.744586247424575888e-03,-1.046588830631268313e-02,5.421412955823834597e-03,2.826374173164367676e-01
-2.498328058736608015e-01,-2.672091287793987302e-01,-3.376540473499003991e-02,-5.597890830062287465e-03,6.580154621806937522e-06,1.004351243052415549e-03,2.254740595817565918e-01
-2.480872215379937296e-01,-2.872139938916151713e-01,-3.972307964499940947e-02,-1.098201763071341396e-02,-7.543996935401878212e-03,1.269895991706647626e-03,2.315956056118011475e-01
-2.795851469819181090e-01,-2.832612403819296798e-01,-3.263578578100845284e-02,-4.240222642638193616e-03,-3.878109895711737230e-03,4.256901263417669189e-03,2.491158992052078247e-01
-2.697556993653363322e-01,-2.719130412616467263e-01,-3.591500347629475454e-02,-1.878291433040269690e-03,1.147090161366024597e-04,1.616082110876363234e-03,2.349660843610763550e-01
-2.938477127063497951e-01,-2.763312939739989149e-01,-4.858387857561166645e-02,-1.584522253247037590e-02,3.732425803967555876e-04,-1.062944427843972401e-03,2.385834306478500366e-01
-2.698926744139961142e-01,-2.441642607964393807e-01,-3.179212107676884780e-02,-7.843365982477243370e-03,3.702105464138231560e-03,-6.769065331924298918e-04,2.268367707729339600e-01
-3.111836764940396072e-01,-2.975517688697083551e-01,-1.143211216543177366e-03,6.200763671719324022e-04,2.328934334057254467e-04,9.359742912711049856e-03,3.038891255855560303e-01
-3.191838561471371793e-01,-2.961270532364783103e-01,-1.778619146749904623e-02,-1.483483585281514286e-05,7.352176419913720312e-03,1.390111246251525719e-02,2.918300628662109375e-01
-2.909359817154480443e-01,-2.432403385839148890e-01,2.878839927224985384e-03,3.195150499902932426e-04,-1.056925558690677280e-03,1.584889409454936018e-02,2.744914591312408447e-01
-2.931990999315152169e-01,-2.528253889558524370e-01,-1.826579388388982483e-03,2.822118481515341250e-03,7.424858332258310600e-03,1.359121511588242889e-02,2.747865319252014160e-01
-1.455936700034484166e-01,-2.818295689029759465e-01,-2.004240849011890147e-02,4.203963377554149894e-02,-3.930343029978332521e-03,-1.379268695634607326e-03,2.382896840572357178e-01
-2.216346323188395917e-01,-2.827616433542489705e-01,-3.373419907879404711e-02,1.532151128747436149e-02,-2.973649070926720744e-03,-4.894136029275636922e-03,2.265645712614059448e-01
-2.697654116903528410e-01,-2.792303539652055688e-01,-1.751847663101377406e-02,3.714782717318018679e-02,-2.797290772645647655e-02,-2.226823026666101962e-02,2.721774280071258545e-01
-1.110988221749728000e-01,-1.654594727339518956e-01,3.921694297296553222e-02,1.267417292561429099e-01,3.115963025920943583e-03,-3.755998868462726405e-04,2.862536013126373291e-01
-3.302852509736055042e-01,-2.665563177168835396e-01,-5.119742609858873861e-02,1.433719467294536087e-01,-1.438960214110619350e-04,-1.751265168882865444e-02,3.560226261615753174e-01
-4.122905959654294961e-01,-2.047272651742610972e-01,-6.742480013362781022e-02,1.125300241584526184e-01,-1.164756922311554251e-03,4.660473981029988411e-04,3.583674132823944092e-01
-2.812646260021504641e-01,-2.797832717274005843e-01,-1.674319797833362378e-02,2.222817526462173704e-02,-1.243400021950406137e-02,-1.578868454049387610e-02,2.688417136669158936e-01
-1.585133101587923865e-01,-1.687194027045509914e-01,2.187006303995560341e-02,1.079476088210286899e-01,-6.193124154750474092e-03,-2.201677068999334432e-03,2.637631595134735107e-01
-2.768498758588971986e-01,-2.833655190821998127e-01,-4.034879977666619433e-02,-3.672595558606463889e-02,-2.139138349135697934e-02,1.499062539157766660e-02,2.522092163562774658e-01
-1.578392717763602293e-01,-2.348282857300751370e-01,8.739283576536721609e-03,-9.948226542613934631e-02,-1.807925086029276221e-02,2.951402660679828052e-02,2.824613451957702637e-01
-1.940292562155135903e-01,-3.382530945628264840e-01,-3.800211823073176842e-02,-5.938251858313479611e-03,-2.076253727812585326e-02,-1.636380985601155590e-03,2.627829611301422119e-01
-2.059522925291303597e-01,-3.206726189379208170e-01,-4.096371842453383483e-02,-4.257060434918752065e-03,-1.449275111521750471e-03,-1.167305595300853959e-03,2.436683923006057739e-01
-2.172059386498494116e-01,-3.030663634739678147e-01,-1.291700074565649281e-02,1.070069234679543041e-03,-2.585609937333065503e-02,1.900947419885052562e-03,2.620423734188079834e-01
-1.978882673213047672e-01,-2.700520806525450457e-01,-1.404135462951061619e-02,-2.901042925378312376e-02,1.827362083694625966e-02,-7.211560699916542798e-03,2.365523427724838257e-01
-2.166199050160644846e-01,-3.011234801746076606e-01,-3.433664967277427760e-02,-1.117250669154814732e-02,-9.218578917812308635e-03,5.367708056133587043e-03,2.376709580421447754e-01
-2.440957909342043597e-01,-3.108901164283921492e-01,-4.451917057550494605e-02,-4.226617174818222619e-03,-7.795947930968406651e-03,5.878644847504753586e-03,2.407540082931518555e-01
-2.837050513892155346e-01,-3.401561895435585847e-01,-4.737872512908863909e-02,1.493833971418913678e-02,-1.333512729091476667e-02,-1.011307765400566369e-02,2.718225717544555664e-01
-2.498678086911785001e-01,-3.043614990706281498e-01,-9.941415372339557077e-03,2.194485271864600809e-02,-3.458164668663448599e-02,-1.536688114038784782e-02,2.816905081272125244e-01
-2.739223581870798840e-01,-3.079317258172382110e-01,-2.885724286502985847e-02,2.994035694626575803e-03,-2.174728548394681132e-04,-9.185477885733395534e-03,2.642502784729003906e-01
-2.355063195300387546e-01,-3.331063788270895998e-01,-4.043558629067781074e-02,6.736354395379938811e-03,-1.571145299015104177e-02,-3.295527993104386405e-03,2.598586976528167725e-01
-2.219672714600464114e-01,-3.049875911951132612e-01,-2.521949998946237947e-02,9.596882588981279702e-03,-1.767308653387485856e-02,-8.640539245655290412e-03,2.517407536506652832e-01
-2.726769013338816161e-01,-3.541148882736461223e-01,-3.163543312182584555e-02,-4.419227554261788773e-03,-2.687454980660162335e-02,-3.101162129105667319e-03,2.943080663681030273e-01
-2.233429686630081235e-01,-2.948937173976703408e-01,-2.023727747312320524e-02,3.803213990754001489e-02,-2.238427361287049708e-02,-1.658258982987341479e-02,2.599446773529052734e-01
-3.680056798283410924e-01,-3.162108092328723696e-01,-4.601154497862836035e-02,4.011475343723783227e-02,2.127662963148359981e-02,3.713463365559554336e-02,3.162402510643005371e-01
-3.157978032842785887e-01,-1.515681109807357207e-01,-1.283994052293890853e-02,-3.083023055503209334e-02,-2.087808835314120329e-02,5.056237409047215081e-02,2.843044698238372803e-01
-2.919799380640214492e-01,-1.223031089497903651e-01,1.709419081434804255e-02,-6.849678504143867815e-03,-5.764972024709466179e-04,4.715610296562774278e-02,2.805123329162597656e-01
-3.080560203412873177e-01,-2.495742082064914547e-01,-5.362067485394694799e-03,5.181200414098460771e-03,-6.993294826181667293e-04,1.945315979814892307e-02,2.802836894989013672e-01
-3.013203721867048768e-01,-2.161524145086206050e-01,-6.091687593688915880e-03,-7.594437301235333442e-03,-1.054070561911192756e-03,4.069207022030751908e-02,2.727882564067840576e-01
-4.030549050737868289e-01,-1.867567562875079301e-01,-2.859229464365994899e-02,-2.075857118667711124e-02,-4.067102290712163067e-03,4.590119005164448873e-02,3.371568024158477783e-01
-3.419589432542630703e-01,-2.946270602089912094e-01,-2.625515031392919307e-02,4.159060226621259099e-03,1.623091495938073494e-03,1.629290495741057485e-02,2.963486313819885254e-01
-3.633754708319626436e-01,-4.753247215138844406e-01,-7.573528161938311576e-02,-2.913050854555045144e-02,-7.507298184897494286e-02,-1.938070095491666381e-02,3.847740590572357178e-01
-3.165997454843361147e-01,-3.182234125062544661e-01,-1.118792431685025623e-02,3.353736980231171471e-04,-2.667214415222586565e-03,-1.450199174004257723e-03,3.062725663185119629e-01
-3.151027934390383534e-01,-3.349685689206388650e-01,-3.154129877676692395e-02,1.245334370179697163e-02,-2.230780765462960641e-02,-2.138372256633358590e-03,2.973328530788421631e-01
-3.309002359026640416e-01,-3.576170385589986234e-01,-6.438558932739563145e-02,3.732059731383029905e-02,-2.888257881158693210e-02,-2.211111211887586969e-02,2.949780523777008057e-01
-4.168364216917951892e-01,-4.272622514533397364e-01,-1.046478691800917238e-01,8.800968366140027310e-03,-6.792190314071734625e-02,-3.029893727841726642e-02,3.430041074752807617e-01
-2.733406174149404788e-01,-2.720507145900412094e-01,-3.685135627000868386e-02,1.909927132277828080e-03,-1.330116356492011369e-03,-2.880819312028741778e-04,2.358819395303726196e-01
-2.751642238480867531e-01,-2.767853948012413134e-01,-3.301755098875960859e-02,5.994308197882950752e-03,-4.170419779601264483e-03,-2.850015400291618008e-03,2.433403730392456055e-01
-2.967453433729596579e-01,-2.834601687211255605e-01,-3.696653273766453696e-02,9.617394567519524026e-03,-8.884298896795176856e-03,-5.274596234194756789e-03,2.545742690563201904e-01
-2.835796071745272373e-01,-2.983323764880208562e-01,-3.284577341573413634e-02,1.179600158368694120e-02,-1.041549303326764001e-02,-1.127939479370230862e-02,2.605929374694824219e-01
-2.418390542057375636e-01,-2.661429663006021351e-01,-2.967521962576860628e-02,7.955119798435099365e-03,-6.961604435076970687e-04,-3.031019062957059518e-03,2.257862985134124756e-01
-2.390715614433861769e-01,-2.676374489650783506e-01,-3.125607746274422505e-02,1.107022528114439026e-02,-1.930910269074961676e-04,1.800934100972249137e-03,2.243149876594543457e-01
-2.781226069448957117e-01,-2.746408765089202730e-01,-3.824644760384177111e-02,2.168252408710190544e-03,-3.030619285762539521e-04,-2.276451090999862404e-04,2.381848990917205811e-01
-3.002996314781810616e-01,-3.015313080218724462e-01,-1.379163240504463483e-02,-1.044671234724111513e-03,-5.060275298973741093e-03,-1.243432189174084861e-03,2.872733175754547119e-01
-2.627493828136474585e-01,-2.694869077933592649e-01,-3.370970997178421302e-02,5.721616252134456224e-03,-4.620716512088523468e-04,-1.600806885825981985e-03,2.327106893062591553e-01
-2.957399606697512784e-01,-2.284763572630868489e-01,-2.188583986241512958e-02,-5.115049795036976342e-03,8.148192460025535308e-03,-1.039917171671866578e-02,2.483991831541061401e-01
-2.988411879218121903e-01,-2.950742896053052400e-01,2.317265915854349601e-04,-8.512486904595010758e-04,6.001885564181787432e-03,-4.515073648248204771e-03,2.974955737590789795e-01
-2.915336062806438422e-01,-2.498142619754035454e-01,-1.936533542308671585e-02,-1.361111982526826310e-02,1.278159158432960740e-02,-8.064812268103368695e-03,2.563247978687286377e-01
-2.892010565396081478e-01,-2.534134590475410342e-01,-2.919671496849299275e-02,-4.291969095304787145e-03,7.721883943870186569e-03,-5.671922864511371593e-03,2.447626143693923950e-01
-3.361449839206579471e-01,-2.293416657042539886e-01,-1.703503312314605389e-02,-3.312800193939565221e-03,1.164883873215231090e-02,-3.842775301226734191e-02,2.898727357387542725e-01
-3.303162751638398786e-01,-2.896687146115324296e-01,-4.912557531596462024e-02,-6.152155141328147225e-02,1.803438378262392158e-02,-3.397348907442549609e-02,2.916911542415618896e-01
-2.952811823932274815e-01,-2.760606019106159881e-01,-1.223746237857761821e-02,-2.660686333288351992e-03,1.170566107938552335e-02,-7.686017026141081336e-03,2.750498950481414795e-01
-2.693504953891003861e-01,-8.077925663541310475e-02,5.373758134970066380e-02,-6.649460581403271453e-02,-8.709732301620585690e-03,-9.118042362294971614e-03,3.045677244663238525e-01
-3.709903279200166271e-01,-2.706372883058627554e-01,-2.824090864906600440e-02,-2.052239725060509348e-02,3.596814140315525519e-03,-2.977539854304046829e-02,3.116311728954315186e-01
-3.149550660705643934e-01,-3.148426570245112521e-01,1.479786711067437865e-03,1.973856662509704989e-04,9.883773352735174019e-08,2.924361420258535108e-04,3.163792490959167480e-01
-3.153054117412130708e-01,-3.158395984857291783e-01,1.940721963711533604e-03,1.114042230213427135e-07,2.475502393053609818e-04,4.056057591770139141e-04,3.175146281719207764e-01
-3.110599970162819528e-01,-3.124473464073442841e-01,3.267829376011388565e-03,-1.756814333891791049e-04,9.694816398920286975e-04,2.720549523282557859e-04,3.150287568569183350e-01
-3.163322595266827575e-01,-3.147653956797665797e-01,2.075691711014127083e-03,-4.595419092892448617e-04,7.601537283407780541e-04,1.074102351122794424e-03,3.176365792751312256e-01
-3.140651607218357677e-01,-3.136091657396009591e-01,2.337340836671836231e-03,-6.100553843041514081e-04,2.107347614544549826e-04,9.850679164962036424e-04,3.161813318729400635e-01
-3.100863648850852861e-01,-3.121296975932860152e-01,4.549372184748934345e-04,-1.121679813064369513e-03,1.529301907247412884e-03,1.184438997223852437e-03,3.115920722484588623e-01
-3.197091816725259883e-01,-3.153554630429503680e-01,-1.714239509276654916e-03,1.674534448463617896e-03,-1.514364743633020210e-03,1.345506667500590611e-03,3.158733844757080078e-01
-2.301269970360262374e-01,-3.027742127421663709e-01,-9.024556639939285141e-03,-6.114776502914020043e-03,-2.874292247902850150e-02,7.617403520929787175e-03,2.701686322689056396e-01
-3.220907221412168120e-01,-3.157115158106704178e-01,-4.231719942146494606e-03,1.887100386395787824e-03,4.707003532861065895e-04,-7.134551902397621949e-04,3.147383332252502441e-01
-3.276261453572707483e-01,-3.251733068483099176e-01,-1.759150917251572910e-02,4.931287566465803428e-03,4.811192734273312451e-04,-1.878179597311412574e-03,3.089518547058105469e-01
-3.222228111013663021e-01,-3.198680634662670608e-01,-9.090415063692791620e-03,3.716626991726236073e-03,-7.847180274712338421e-04,1.505925857875164324e-03,3.120419681072235107e-01
-3.179090804730040354e-01,-3.185432028360012935e-01,-6.112525221822484589e-03,3.214330733740044035e-03,-1.137641056995051907e-03,-6.641647991109314716e-04,3.121720850467681885e-01
-3.183413083785983089e-01,-3.151984750255592549e-01,-1.634940011542918015e-02,-1.150248610268102527e-03,-1.007472558439117399e-02,9.731626661632611711e-03,3.014174103736877441e-01
-3.209962341496133131e-01,-3.168763618107091062e-01,-4.202480869965857790e-03,1.311695913172002733e-03,-1.890536839568465050e-03,3.238868976961567850e-03,3.148292601108551025e-01
-2.352126492160434845e-01,-2.828388707417553438e-01,-3.662686238079015943e-02,-7.816416296080132275e-03,5.704675135369824922e-03,-6.454345241215078514e-03,2.270866781473159790e-01
-2.061284487252129372e-01,-3.037341040713050777e-01,-2.384385396192711948e-02,-6.012432596885659841e-02,2.374524288592637714e-02,-1.194227461438650273e-02,2.711285948753356934e-01
-2.176622329040857062e-01,-2.815821847075693496e-01,-2.963401550720684563e-02,-2.444191632707998565e-02,-2.091706960665622173e-03,-1.114194677816218726e-03,2.307990342378616333e-01
-2.973264044571173326e-01,-2.473445355239541343e-01,-4.343247879387815424e-02,-2.834355036441138509e-02,-3.360838296845471921e-03,1.242066426657175955e-03,2.381570935249328613e-01
-2.478291173654616208e-01,-3.028495333548090751e-01,-2.653780052794321720e-02,-1.806360618267769877e-02,3.567290496489968626e-02,-1.659521317273120883e-02,2.641881704330444336e-01
-2.733492709952282662e-01,-2.970099186019372617e-01,-1.134335415289552951e-02,-8.134796065467469681e-03,9.425081388127923981e-03,-8.229550556990230387e-03,2.758157849311828613e-01
-3.172052655288777334e-01,-3.174131394964178066e-01,-9.246925854256488053e-03,-1.019268915945929820e-03,4.145618618175360079e-03,-2.198010788677348497e-03,3.081745803356170654e-01
-4.318508461861765291e-01,-2.867086278432193769e-01,-7.713603668008295333e-02,-1.047582588110189394e-01,4.422088766529974624e-02,-5.558269922405221358e-02,3.787643313407897949e-01
-2.834461193028621762e-01,-1.079151603140524607e-01,1.269371231172322645e-02,9.014185947193087065e-03,-1.857685855875835026e-02,-6.591749441185205949e-02,2.843283712863922119e-01
-2.922826315460502200e-01,-3.502751397043823989e-01,-1.845253614246028517e-02,6.295517963119013835e-03,4.054411457002776026e-02,-2.241339513519302346e-03,3.151056766510009766e-01
-1.806917475025755504e-01,-3.086977372320864887e-01,-1.527391457522855878e-02,-1.123429602361071186e-02,7.593630114109127527e-02,-8.865010319290640359e-03,2.878131866455078125e-01
-3.759186012878289462e-01,-3.834282379963769305e-01,-1.079556894054594096e-01,7.213155118629471438e-03,-2.087360258942902794e-02,1.613403903378316656e-02,2.758930027484893799e-01
-2.054302906943635543e-01,-3.022743285048276607e-01,-1.432173439160891459e-02,-5.081794338166124858e-02,5.777607725646524695e-02,-3.125821425874790449e-02,2.917221486568450928e-01
-2.881869809338118427e-01,-3.923698881851953590e-01,-5.638437592936093590e-02,1.819025627896598066e-02,3.388475320116361711e-02,3.857195817651888799e-03,3.053165674209594727e-01
-2.474013575437265799e-01,-3.438897748944829136e-01,-6.200549997339152575e-02,-5.814270025242473938e-02,-5.152594496424204619e-03,3.985213349032133527e-03,2.680283784866333008e-01
-2.232802206197239125e-01,-3.106130379887743764e-01,-2.640021355550631332e-02,2.343284998211746391e-04,-7.194759554416009853e-03,4.608988447078456348e-03,2.525906264781951904e-01
-1.799190065295149521e-01,-2.752946740898845057e-01,2.979428404417422405e-03,-1.596999285925911755e-02,-2.789299408072907008e-02,7.594643582093991811e-03,2.515246272087097168e-01
-2.324486075840082877e-01,-2.804778414283619070e-01,-2.442015851549528271e-02,-3.319429283851503543e-02,-1.806430379170470904e-02,8.911922218736699833e-03,2.451466917991638184e-01
-1.156677702017660514e-01,-2.254225323885985788e-01,1.898311604689742471e-02,-8.425010139413953436e-02,-1.779796063622417213e-02,1.309157923637427334e-02,2.602196335792541504e-01
-5.467058192263963418e-02,-2.783203730177851720e-01,4.452475411757297885e-02,-2.088737376837733820e-02,2.024629463215557069e-03,-5.520132971306948577e-03,2.888884246349334717e-01
-2.157682294264484657e-01,-4.202350538814633163e-01,-7.314952852252948334e-02,-9.741231049738917347e-02,-1.823215181201251131e-02,1.751565636005938606e-02,3.488447666168212891e-01
-3.382251606484387163e-01,-3.462126165473345951e-01,-9.059141814709545382e-02,4.803969158947343624e-04,3.281847617836950934e-03,-1.080508189710331461e-02,2.524826526641845703e-01
-4.105448345789684539e-01,-4.030858120004453538e-01,-8.270880665847007984e-02,-1.019671036275936237e-03,8.333177295675203711e-03,-3.907267211227348079e-04,3.244975507259368896e-01
-3.248721806013359359e-01,-3.295038273943739493e-01,-6.713947855269397635e-02,-4.406214197586859078e-04,-9.805678905643248726e-04,1.268178344464132795e-03,2.600953876972198486e-01
-3.156776516868859961e-01,-3.249488136957494056e-01,-4.926072049917820661e-02,3.227627153626952145e-03,-4.848182336120528580e-04,-7.771867277314955733e-03,2.715641558170318604e-01
-3.237714229450989745e-01,-3.348624335365174565e-01,-5.619090724914369006e-02,-3.137153641016862584e-03,1.449545089080949214e-03,-9.340909454921293015e-03,2.738387584686279297e-01
-3.257699165770048810e-01,-3.180808678969638259e-01,-3.111811816388448948e-03,-1.311715270950630612e-03,9.431934746674226029e-04,9.224018403108297020e-04,3.188993930816650391e-01
-3.179392143529036208e-01,-3.142962563093778527e-01,9.256924958203349707e-04,-4.922018832321125009e-04,-4.229709788268620633e-04,9.091875826345299175e-04,3.170650303363800049e-01
-3.204048448875730370e-01,-3.162166665481942474e-01,-7.204872139755513771e-04,-1.150661646453213531e-03,6.358637805283307368e-04,1.339451244781775978e-03,3.176276087760925293e-01
-2.953438765529329824e-01,-3.038224816108028303e-01,-1.628727943650182253e-03,-1.223483986882052676e-04,7.218000502312611234e-03,1.542110988519736735e-03,2.983190417289733887e-01
-3.199479888587339893e-01,-3.183077025243901126e-01,-8.863710261050039563e-04,-1.954139721483431728e-03,-3.526233310442636586e-04,7.217136118314623587e-04,3.182656764984130859e-01
-3.187052535024252897e-01,-3.156462940443096610e-01,-4.484384558513049290e-03,-1.013878686667051519e-03,2.585653704578808748e-03,3.210340967179850860e-03,3.127890527248382568e-01
-2.997783657934945389e-01,-3.078071437652716291e-01,-4.951895607248180120e-03,5.720267638976005587e-04,8.624126349082073331e-03,8.549974780481670728e-03,2.996625006198883057e-01
-2.627038442710493138e-01,-2.664839542082333979e-01,-2.709154435882685230e-02,-4.208623143081995782e-03,-1.549470912565800761e-03,3.225428361850577515e-03,2.377175539731979370e-01
-2.673004146399542980e-01,-2.804909278893425451e-01,-2.836557467539310706e-02,-2.398682432338110262e-03,-2.422456477500806171e-03,5.559103549567202644e-03,2.460550665855407715e-01
-2.596764208656618944e-01,-1.603630108780876584e-01,9.834288921121370208e-03,-7.553251681790708327e-02,1.006533894424267196e-02,-1.332034292972352103e-02,2.714495658874511719e-01
-2.870293054122643461e-01,-2.927794602179955019e-01,-2.000326093296020402e-02,-2.092742682598576053e-03,-4.380113759532612734e-03,6.396516511768005238e-03,2.703051269054412842e-01
-3.117580646015800094e-01,-3.194193094338953487e-01,-1.083802262289620955e-02,-6.925511167023064730e-04,-5.714663746056586335e-03,4.877029947185702007e-03,3.051028549671173096e-01
-2.737887346764248941e-01,-2.764722875600443830e-01,-3.296434167067954779e-02,-8.560536741396890161e-04,-1.364240402790517590e-03,2.608871445502280052e-03,2.422355413436889648e-01
-2.911092712113565462e-01,-2.880218474644833382e-01,-4.059789099823649106e-02,-1.118596648068071603e-02,-5.800768607119463627e-03,6.792380400392219152e-03,2.502134740352630615e-01
-2.434482237028832430e-01,-2.930569911610191869e-01,-3.889868713214122975e-02,-1.151026814615215346e-02,-7.818219457643306447e-03,5.387414692497615766e-03,2.347698807716369629e-01
-2.790303027115279000e-01,-2.573589120332887004e-01,-1.900555462997810530e-02,-1.646198213336119709e-02,-1.644734983680316148e-02,2.236079121670958569e-02,2.560702562332153320e-01
-2.759699215672966610e-01,-2.504349544409185668e-01,-3.300163269041447855e-02,-6.783746588613090781e-03,-2.455907712979422692e-03,6.313681786581078290e-04,2.316004782915115356e-01
-2.702891100036945993e-01,-2.491497361791643050e-01,-2.114434300978601522e-02,-6.730693521577451634e-03,-6.166709246720496716e-03,4.986282127406712651e-03,2.399537563323974609e-01
-2.350207217882835653e-01,-2.706146120351561324e-01,-3.291790730239146923e-02,-9.213736352676060379e-03,4.997398636991765876e-03,-7.179265943754569064e-03,2.231374531984329224e-01
-2.729580736661766927e-01,-2.477107884938214988e-01,-2.199617311699436639e-02,-6.474650135573564724e-03,6.955864058288360220e-03,-5.732464264101395750e-03,2.401097565889358521e-01
-2.444136601263268982e-01,-2.920806196249804421e-01,-3.905908071701377771e-02,-2.038629975513084336e-02,2.636809885963984149e-02,-1.085615431790116873e-02,2.406604886054992676e-01
-2.937376642907793545e-01,-2.424875523605219407e-01,-2.675350052254035771e-02,-6.887608172499996850e-03,8.966483032091483035e-03,-6.024529554474808771e-03,2.464072704315185547e-01
-3.642502668876225203e-01,-2.081010161306243722e-01,-5.660384445236765760e-02,-2.597614142604033963e-02,3.800767891801175042e-03,-7.979436025357753565e-04,2.702955305576324463e-01
-3.207474323822515627e-01,-3.147109000237449106e-01,-1.648063022469475891e-03,-1.890797591585510447e-03,5.968849457109352353e-04,1.169082088927811403e-03,3.161494731903076172e-01
-2.656343746747880097e-01,-8.356327072194494332e-02,7.960232295452074336e-02,-2.080756607295815644e-02,2.190830564888277335e-02,1.831934249321077665e-02,3.053296804428100586e-01
-3.230687390667322245e-01,-3.189797374013101372e-01,-6.375175787112136172e-03,-5.374503268599206338e-03,3.933355709222334864e-03,2.594303344503125306e-03,3.149124085903167725e-01
-3.210938662027001400e-01,-3.151101618910198132e-01,-1.802001531269720180e-03,-1.987914380592053446e-03,1.522036789274742183e-03,2.829759223503872795e-03,3.164101541042327881e-01
-8.182508414676173403e-02,-5.696053677735156417e-02,7.263709238300225524e-02,-1.232815205700165534e-01,8.035007090274061056e-03,-1.237290864904469923e-03,2.577391266822814941e-01
-2.950934902741901289e-01,-2.755277700202827251e-01,-1.283771762410354511e-02,-3.109421346043186526e-03,-1.113909852582541452e-02,7.324533413683058554e-03,2.740269899368286133e-01
-3.152981193779149649e-01,-3.280944549932006682e-01,-4.897166088169591092e-03,-2.253316401407294068e-04,-2.456728835934526931e-04,-7.712662693916394734e-04,3.169962167739868164e-01
-2.966334286921907260e-01,-2.159122228273277211e-01,-4.056159841558576451e-02,-5.313452539138216468e-03,2.791649497482590492e-03,-4.070635593306498080e-03,2.271036207675933838e-01
-3.168135371095218700e-01,-2.145783411428499043e-01,-4.598978351962609845e-02,-7.764907231797909572e-03,-4.172389169625493536e-04,-1.937025366055328995e-04,2.372579574584960938e-01
-3.468652520282775042e-01,-3.187876232727475667e-01,-3.198428339384448704e-02,-3.515406272864477627e-02,-1.940368342600843135e-02,3.918330863094939692e-02,3.170807361602783203e-01
-2.974011597681002761e-01,-2.574360849924530736e-01,-4.568512648125461206e-02,-6.612944902305775176e-03,-1.551155810160462613e-03,1.196656375194415185e-03,2.346082329750061035e-01
-2.214573174855501148e-01,-2.839979588368160002e-01,-3.176704783201569904e-02,-2.462205891067500638e-02,-8.716067936521900046e-04,-9.124087262707756933e-04,2.314748317003250122e-01
-2.422947461651762668e-01,-3.206954122501416982e-01,-3.743718610090732146e-02,-6.053755476478137054e-02,-4.115785123864019253e-04,-2.122263415709785273e-03,2.741945683956146240e-01
-2.542745684839957110e-01,-3.414333917638504579e-01,-3.553857511127098134e-02,-5.285057932749306908e-02,-2.280856868745094121e-02,1.447654593453985734e-02,2.916775941848754883e-01
-2.049742754926634769e-01,-2.980937983544327818e-01,-1.203423018038107806e-02,-3.227084669798729183e-02,-2.430602480005460489e-02,3.800183329364261071e-03,2.623041868209838867e-01
-1.627654519082468165e-01,-3.576060516306449055e-01,8.996042103654677824e-03,-1.107376382383359475e-01,8.426318118324054030e-03,-5.098483972568386077e-03,3.714975714683532715e-01
-8.542930969939487029e-02,-2.182482392043618713e-01,7.443873587640320588e-02,-7.100687929042415192e-02,-3.597094051070739290e-02,-1.214711857098398811e-03,2.888671755790710449e-01
-2.594335124026173056e-01,-1.846464558858308125e-01,-1.838146909752114144e-02,-5.237824046043188658e-02,3.446243539187306658e-04,1.518386839391886248e-02,2.336537241935729980e-01
-1.489564561207544491e-01,-2.937451613714333609e-01,4.810372721996386547e-03,-1.122872894489626711e-01,-1.100381729029476299e-02,7.846821307500754378e-03,3.244148194789886475e-01
-3.152828869642714804e-01,-3.164248243796258797e-01,1.161191106765796510e-03,-6.830444592372984184e-04,-5.636460899536001280e-04,-1.519203492345662290e-05,3.170202970504760742e-01
-3.099189248883349457e-01,-3.103246022320514386e-01,-4.498689579157388874e-03,-8.441158463757277410e-04,-2.987249778718151574e-03,-7.470755026742969748e-04,3.056733012199401855e-01
-3.248368790856982491e-01,-3.246526138112969528e-01,-2.001252592079891257e-02,-7.149004601722607594e-05,-4.644269245558225144e-03,-3.280994768893826397e-03,3.048914074897766113e-01
-3.002901223525616392e-01,-2.971959589726128614e-01,-8.552410734668225434e-03,-1.048534380127805589e-03,-2.010534547931042571e-03,-4.312454142313436496e-03,2.903256714344024658e-01
-3.095610922252576280e-01,-2.602887564636434670e-01,-1.383420356329745360e-02,3.690656846350312808e-03,-9.396153211367587466e-03,-1.172833930611667623e-02,2.757342755794525146e-01
-3.147462340826763239e-01,-3.128982558217053289e-01,-4.361332581668264652e-04,-4.864482163289938913e-04,-2.386237326958219867e-03,-1.719113742322875456e-03,3.134327232837677002e-01
-3.108987983508021968e-01,-3.113015323646625143e-01,-5.221354168149783259e-04,5.356065056553735784e-04,-1.169542677026814363e-03,-2.176379758643935420e-03,3.106091022491455078e-01
-3.107920511384653639e-01,-2.821724895877242845e-01,-2.116951146047130194e-02,-5.418658175325152641e-03,8.889699004187505416e-03,-1.318686365269475247e-02,2.779537141323089600e-01
-3.105811924771020305e-01,-2.968818543413259126e-01,-1.008492981861258686e-03,-3.900154768153525674e-04,3.416919539473704023e-03,-7.117658881493215024e-03,3.032646477222442627e-01
-2.971984844798966074e-01,-2.639257698505084737e-01,-4.149215601869363224e-02,5.607681839796980865e-03,-4.271456422801138582e-03,-3.248434005160733950e-03,2.411752194166183472e-01
-3.162726289342807640e-01,-3.193124544848961466e-01,-9.560394906415525806e-03,-2.954604418894488335e-05,-1.100634993109933513e-02,-1.151799813849402158e-02,3.094760179519653320e-01
-3.042007386665254165e-01,-2.096331819049311040e-01,-2.033765931620495904e-02,2.837955653348350326e-03,-4.909125017971736372e-03,-1.327034088793230954e-02,2.515984773635864258e-01
-3.247288480606764782e-01,-3.041189935143641665e-01,-1.267264597334005760e-02,2.045174398222086680e-03,-4.918035595436165940e-03,2.235231170499518000e-03,3.024442195892333984e-01
-3.185082562728957511e-01,-2.994580547592097797e-01,-1.463798802117846631e-02,-1.966159414757530713e-03,6.058215206664423896e-03,-3.841031794018490673e-03,2.950884997844696045e-01
-3.114294330423847956e-01,-2.979065355620554301e-01,-1.319015789968641661e-02,-3.973491895167096375e-04,8.122758006870501452e-03,-9.911628582394444321e-04,2.920579314231872559e-01
-3.233143454977858156e-01,-3.188107487646308913e-01,-1.795562855569343697e-02,3.931187540242122355e-04,1.567865290850050308e-03,-2.161194938469906349e-03,3.031680583953857422e-01
-2.998692129617179791e-01,-2.548371072771431489e-01,-2.972807270941152380e-03,1.372184945524785238e-03,1.831735184689341428e-04,-1.549161137091401193e-02,2.784442901611328125e-01
-3.489534229612342164e-01,-3.459032941835351593e-01,-4.206525469371072412e-02,-5.644063792380559635e-02,2.947501327530237594e-02,-2.298923843127359534e-02,3.271117210388183594e-01
-3.442026920714282845e-01,-2.686378726518790505e-01,-3.132334563000374605e-02,-2.957507114527379091e-02,2.141142079370116427e-02,-3.368887563555401227e-02,2.955758273601531982e-01
-3.152612740520741030e-01,-2.604266317837486411e-01,-1.791437585115188136e-02,-1.444879485952957690e-02,1.419320835116306273e-02,-1.526573153267326427e-02,2.775731980800628662e-01
-3.067348985044262566e-01,-3.023673687782096886e-01,-6.216808913266341774e-03,-1.188554285916304390e-03,1.032773368316069508e-02,-7.591001775593134854e-03,2.991901934146881104e-01
-3.286076792178223016e-01,-2.729801978561935405e-01,-4.316995725012739982e-02,-1.764381749182207179e-02,4.203940147661144357e-03,-1.179807077520074812e-02,2.647554278373718262e-01
-3.221429427487568775e-01,-3.204083592240535294e-01,-9.450401637772609664e-03,5.457844610371410422e-03,2.488440367788291759e-03,-1.415490787386619815e-03,3.120115399360656738e-01
-2.402786525630176695e-01,-2.667930191028152209e-01,-2.213887986970955457e-02,2.116787112991434447e-02,1.272876642450993835e-02,9.030741457968992705e-03,2.369531095027923584e-01
-2.009303647787864522e-01,-1.516879643563028290e-01,1.057706440604716525e-02,-9.577044610249303702e-02,3.465691328340180649e-02,-3.060874164225734287e-02,2.658476829528808594e-01
-2.962703289045849342e-01,-1.623356521293178867e-01,-9.756085049910351303e-03,-5.320046498971347376e-02,2.143047812539640787e-02,-5.089392185156976084e-02,2.815918326377868652e-01
-2.232312885714178297e-01,-3.012756232578291393e-01,-2.050050537545758389e-02,6.392262535330757271e-03,-1.104973666865370109e-02,-8.603819216345794108e-03,2.524353861808776855e-01
-2.194417755628305933e-01,-2.833280032170283347e-01,-2.751070615576203804e-02,1.447785123860159673e-02,-4.260676423541900903e-03,-5.246462098198670029e-03,2.322640717029571533e-01
-2.335797091058199881e-01,-2.871480013505204876e-01,-3.513465699109163953e-02,1.062673594852928637e-02,1.196174174556243310e-03,3.394990769128674452e-03,2.307769805192947388e-01
-2.468625307738832597e-01,-3.200462592435018294e-01,-5.533942260180257922e-02,1.572166535814283062e-02,3.471379103033590038e-03,2.852415232253505562e-03,2.384437173604965210e-01
-1.759530208716264810e-01,-2.860193354019441303e-01,-2.464524046834742910e-02,2.433603654373256084e-02,9.266271621841307799e-04,1.372396680885540343e-04,2.311750203371047974e-01
-2.447661068874136259e-01,-2.984161058126255095e-01,-3.410312609244436910e-02,1.018261235481560285e-02,-9.668784804395131813e-03,-6.888971919205058234e-03,2.435018867254257202e-01
-2.495250113441665196e-01,-2.936633471315959198e-01,-2.372900896907753632e-02,2.781958455627073917e-02,-1.716006540311984518e-02,-1.732550445372382786e-02,2.588512897491455078e-01
-2.105758522176027769e-01,-2.884799992777202227e-01,-2.073287202354517911e-02,1.573929678603249241e-02,-1.317977848243356495e-02,-6.798415134792158698e-03,2.414579093456268311e-01
-8.803354008103619899e-02,-2.657520336040752884e-01,9.998522024404571384e-03,7.441385396585664669e-02,-1.939929169424466776e-02,-2.199361057010542492e-03,2.763549089431762695e-01
-2.234407775090210546e-01,-3.648977861410478418e-01,-5.132899847883784505e-02,1.125379549907762067e-01,-4.054633579556843337e-02,-2.411368325113730574e-02,3.444557487964630127e-01
-2.076218735953510031e-01,-3.299597715231468720e-01,-1.080742351346430929e-02,1.533435110431638319e-02,-4.890795149318719059e-02,-2.221149912341212080e-03,2.927055656909942627e-01
-2.121880845547081951e-01,-4.016720029696844163e-01,-5.561619430093181493e-02,8.104504300081785684e-02,2.726342530228878860e-02,-7.799683937457071135e-03,3.349687457084655762e-01
-2.369527091356277149e-01,-3.003040734451208893e-01,-2.873000916559365070e-02,-2.718732125631710683e-02,1.151821451530040015e-02,-5.489095286148727368e-03,2.515295743942260742e-01
-1.819225577316403164e-01,-2.870618941936213253e-01,-3.028248889278253864e-02,-2.497853100763492221e-02,2.838366710911713331e-03,-1.878880879413592059e-04,2.277902215719223022e-01
-2.230580251674815495e-01,-2.877708933087627652e-01,-4.055740999310813999e-02,-1.463867522667983666e-02,3.328378083204581572e-03,-2.831590029450397131e-03,2.236169278621673584e-01
-2.363168015321106263e-01,-2.845873891063842587e-01,-2.320671357227363507e-02,-1.027118994332775967e-02,1.111916548907947513e-02,-7.177675993255011773e-03,2.426414340734481812e-01
-2.769259265089875077e-01,-3.004010105904344474e-01,-1.850501838652376940e-02,-8.354564551491531349e-03,9.466928444126720965e-03,-9.619996474225862154e-03,2.723137736320495605e-01
-2.506843591941511629e-01,-2.867245308773058166e-01,-2.578143457662299132e-02,-3.416352216044693524e-03,6.348487818349352572e-03,-8.721054151125630025e-03,2.457027733325958252e-01
-2.541470008339119513e-01,-2.929716425185652229e-01,-3.086736092417141641e-02,-2.023418683719192118e-02,1.258892178244778656e-02,-7.173180391476955374e-03,2.487729340791702271e-01
-2.979999262829746143e-01,-3.164591913929601374e-01,-5.218877797058624202e-03,4.581497878410108887e-04,5.868730320529144846e-03,4.009173296441436167e-04,3.026061058044433594e-01
-2.961647507140737767e-01,-3.169825104255785675e-01,-1.572250704762989670e-02,-6.276110900754744556e-04,1.216876128722969115e-03,-5.227636042421927864e-03,2.915596365928649902e-01
-3.246604198202170388e-01,-3.164747459833021637e-01,-6.873181606158379475e-03,-8.992031476272722805e-04,-1.913339200196867830e-04,1.657548246037418148e-04,3.137786686420440674e-01
-2.667400787158655251e-01,-2.501221386285785719e-01,-2.326707285314522089e-02,7.982330506982125706e-03,-5.322380668484730064e-03,-3.092655486941619982e-03,2.362500131130218506e-01
-3.317037289600405225e-01,-3.199211993655555197e-01,-2.584229711815788644e-02,2.154361336146682574e-03,-2.646158402550314714e-03,-7.325242497288620694e-04,3.002045452594757080e-01
-3.003009763056169179e-01,-3.244154025736795677e-01,-2.042105589212367400e-02,-1.718519059758114205e-03,1.335479786690268143e-02,-2.079370186196798954e-03,2.936329245567321777e-01
-3.226467987928048897e-01,-3.148421051455833064e-01,-2.472755793758663057e-03,-6.845673960229260073e-05,3.531128357329157714e-03,-1.446394874870362071e-03,3.164129555225372314e-01
-3.227250764674708949e-01,-3.180072022972229573e-01,-3.583162069693140994e-03,2.412597291225239285e-04,2.252823605490080535e-03,-3.076789249519058106e-03,3.168784379959106445e-01
-3.350534008419423504e-01,-3.260929665243504916e-01,-2.754648685709654155e-02,2.955434255578228125e-03,-3.113550128519563566e-03,-7.728352320367195194e-04,3.032201826572418213e-01
-2.903564882657206914e-01,-2.325717247174199087e-01,-3.593023655155722085e-02,-1.277742289621805992e-02,8.706361957483612496e-04,-3.105698331975063810e-03,2.321439981460571289e-01
-2.920315485493069629e-01,-2.559942395251159075e-01,-4.273776969184400754e-02,-6.802318016796271745e-03,1.323736383324242193e-03,-2.250482853910067919e-03,2.337123602628707886e-01
-2.652837394644119717e-01,-2.319913336114948765e-01,-3.197559530608920508e-02,-8.235287738228336263e-02,-4.811374110723523438e-03,1.008911439693608615e-02,2.617145180702209473e-01
-3.247260912325213855e-01,-2.752171533148576321e-01,-4.787210936780381121e-02,-5.710678900766173044e-02,1.356286257120419350e-02,-2.203519378676779134e-02,2.778211236000061035e-01
-1.570509830675994312e-01,-1.912912803994173960e-01,1.305849630682712204e-02,-6.414771972941354927e-02,-4.305698042154446764e-03,6.281696332524762090e-04,2.198541015386581421e-01
-2.751621295857674121e-01,-2.454927317359709704e-01,-3.422170322185574820e-02,-6.918410473041920576e-03,1.465915999354538935e-03,-6.841225593008501069e-04,2.278935015201568604e-01
-2.760954184214955420e-01,-2.479795841760117914e-01,-3.677875134087402187e-02,-6.097172514847229614e-03,-1.516637761479365173e-03,6.811692813381407417e-04,2.268351763486862183e-01
-2.373391818269715015e-01,-2.681819802533375041e-01,-2.927784710648276278e-02,-7.732229225875394095e-03,-5.062552916743286863e-03,1.969064494771182328e-03,2.256676107645034790e-01
-3.394717689761732604e-01,-3.212439091386351531e-01,-3.493654014594990698e-02,-8.748742145300822046e-03,-9.519685148265110211e-03,2.253089780910763618e-02,2.992446422576904297e-01
-3.049837538023630334e-01,-2.544537828554211401e-01,-4.302962803397214486e-02,-2.503064033211795450e-02,-7.019836409500899987e-03,8.152609315366520989e-03,2.452825605869293213e-01
-3.208965630531331881e-01,-2.147979174985406858e-01,-1.025793696172042080e-02,3.571486385966328447e-02,1.343650844807475764e-02,3.971666112138602656e-02,2.896471321582794189e-01
-2.729369237553171956e-01,-2.312555721686148646e-01,-2.985966581099497308e-02,2.755414962559266795e-02,7.736996978797905898e-03,5.068723643960536610e-03,2.307085841894149780e-01
-2.952199564036985246e-01,-2.963605845018095208e-01,-4.414150901503832714e-02,5.782386100240249904e-02,2.113622467220903703e-02,1.332831392220850016e-02,2.742845714092254639e-01
-2.847559126735358381e-01,-2.411074304316340455e-01,-2.082937840264503793e-02,1.946941456425264894e-02,8.188941423839428760e-03,5.830216896588985391e-03,2.479571253061294556e-01
-2.781356833318195942e-01,-2.011910888162971867e-01,-2.872618511135918706e-02,7.212988171986782493e-02,-2.883766219004510229e-04,-4.143899269313939572e-03,2.541550397872924805e-01
-2.892192356911529316e-01,-2.388730627164371567e-01,-2.752569375898916704e-02,1.014554588850681907e-02,9.744891162129950407e-03,1.126891006933284679e-02,2.425234615802764893e-01
-1.326048371414005889e-01,-1.648417663667024469e-01,8.534890948672457789e-02,9.361874270842135415e-02,1.794158492418965190e-02,3.771518082139438399e-02,2.951196730136871338e-01
-3.036488988588202931e-01,-2.683365240574141497e-01,-9.699208210806664621e-03,2.946446194553558294e-03,9.476890614375326621e-03,1.507376758581016954e-02,2.797328233718872070e-01
-3.109420223610594447e-01,-3.228282145008012916e-01,-2.749634048657886853e-02,-2.589528056209782284e-03,2.378196860234666442e-03,1.668383237880064884e-03,2.896502315998077393e-01
-3.689279348510360879e-01,-3.610414003245271952e-01,-5.297868892987989131e-02,-2.391085819130396150e-03,1.776127524213508974e-02,4.878444975362338648e-03,3.137344717979431152e-01
-3.543496882372897949e-01,-3.440184069353618423e-01,-4.207488946614057479e-02,8.206104819610309182e-04,3.298947429248917651e-03,-6.428925681199246581e-03,3.074975609779357910e-01
-3.422913281289325926e-01,-3.832543969785339177e-01,-6.255864469916835868e-02,2.854131624537099756e-03,1.945228939630696402e-02,2.005679719131563121e-03,3.042346835136413574e-01
-3.668752146839722172e-01,-3.598183984555223258e-01,-5.960065868705441416e-02,4.168092099039537833e-03,-1.310788015954724318e-03,1.122420050594092993e-02,3.045230507850646973e-01
-3.445601150431174542e-01,-3.415421395476958555e-01,-1.190140031319052716e-01,1.247433032879011411e-03,-4.860494793817410168e-03,-2.412071888109401999e-03,2.242598086595535278e-01
-2.783271677001418754e-01,-2.208642620679726887e-01,-3.175241128163097670e-02,1.207295164101081578e-02,2.701701666960719221e-03,7.655859336469389453e-05,2.244802415370941162e-01
-3.430751736534526364e-01,-3.450927695799149708e-01,-1.049358820670878434e-01,1.428979531998296796e-04,-1.529223774375319637e-03,-8.069589865484385824e-03,2.395773231983184814e-01
-3.499848448594632400e-01,-2.139566104952074221e-01,-2.805338983142288689e-02,5.047000274837003947e-02,-1.213247221974845906e-02,-4.451748307610664535e-02,3.039415180683135986e-01
-3.108866626963363577e-01,-2.240077864428557108e-01,-2.819417370879198637e-02,6.791217343855441083e-03,-3.776979051047844524e-03,-1.348829084768801180e-02,2.522497475147247314e-01
-2.021624915882848095e-01,-1.134975527580303206e-01,1.390467632180268642e-02,1.036690032407506651e-01,-5.035421863336699867e-03,-1.908638263972180921e-02,2.622968554496765137e-01
-3.250311516986091886e-01,-2.037186637639320508e-01,-4.436894537214289280e-02,-2.333327687193825230e-04,-1.224737689635627949e-03,-5.283646282285088883e-03,2.439847886562347412e-01
-2.771190245663343599e-01,-1.261881150688226316e-01,-5.981157265745939977e-03,-4.521188471997174621e-03,-2.101597267800750946e-03,-4.326352389486176273e-03,2.355918586254119873e-01
-2.875631065731198421e-01,-1.563794461857344609e-01,-2.385314846284114498e-02,6.805819048474652522e-02,-7.810341948082553595e-03,3.828772224875180361e-03,2.574497759342193604e-01
-3.167825838886896284e-01,-2.128341194427122163e-01,-4.712998732319634287e-02,1.453406892049483945e-03,-5.318705297337695224e-03,-7.840492735153027984e-03,2.361428737640380859e-01
-3.274349005447868000e-01,-2.166029537194576471e-01,-4.357781203355082233e-02,-3.196982207853791592e-03,-4.158667193933735830e-03,-2.226481150885010422e-03,2.479829639196395874e-01
-2.981756602793345090e-01,-2.466260387335169890e-01,-4.667036419996214991e-02,-2.870254335921794062e-02,-2.816431520213446855e-03,1.711543275811946464e-03,2.354811429977416992e-01
-3.421333339819978558e-01,-1.397473869838734006e-01,-3.090878599903801316e-02,-5.254386154520998206e-03,-4.801659404633883263e-04,-5.264190694175810772e-03,2.738612294197082520e-01
-3.081804419416122043e-01,-2.623605396702612946e-01,-5.116654547807586439e-02,2.703155325477096804e-02,-3.872995833505744629e-03,-4.468592407986395933e-03,2.422318607568740845e-01
-3.668751124502548366e-01,-3.551839349985893568e-01,-1.341461690755191838e-01,-1.633783232057640119e-04,-9.391894755740698778e-03,-6.048806141373747232e-03,2.279320806264877319e-01
-2.844951898000555590e-01,-2.773782094100092355e-01,-3.623157239058280576e-02,1.121651135719855044e-02,-4.886638884831416910e-03,-5.255633968160969803e-03,2.458668798208236694e-01
-3.205432947473400573e-01,-3.158701997280267681e-01,-5.451227603266778354e-02,1.517094387234083639e-03,1.892967517314300728e-03,1.664158489877762108e-04,2.637591660022735596e-01
-3.290332319173377429e-01,-3.244543027916874656e-01,-1.148092050301863232e-01,-1.473470433362803053e-03,-5.537721099970909812e-03,3.608666938100352456e-04,2.122048288583755493e-01
-3.189494270841254364e-01,-2.076275246662797058e-01,-4.088896284408427562e-02,8.676907450422370605e-04,-1.354317233618828340e-03,5.103997712487917497e-04,2.424139231443405151e-01
-3.113115364994198941e-01,-2.053649566189685027e-01,-3.855683168895521207e-02,-8.803913443304193717e-03,-3.256308539223596731e-04,3.702745100343343351e-03,2.387390881776809692e-01
-2.923307877408359845e-01,-2.018922367049501565e-01,-3.578431371315304865e-02,-1.837806753166641022e-02,3.823089822851081978e-03,-2.700029793771284003e-03,2.277553826570510864e-01
-2.955370749311666545e-01,-2.642490868815953187e-01,-4.633617367361905770e-02,4.925338386392529542e-03,4.464774874391697415e-03,2.870077605872258571e-03,2.354576885700225830e-01
-3.286293382661081286e-01,-2.086606629346979269e-01,-4.873218154126293666e-02,7.297767598367481141e-04,-8.889969023051185045e-04,3.073958611033237361e-03,2.432865053415298462e-01
-3.022113099472679698e-01,-1.641388499467591189e-01,-2.879503589107687556e-02,-7.013170378526410731e-03,-1.040707999322958675e-03,2.921373960956655073e-03,2.371615767478942871e-01
-2.671406142029595365e-01,-1.909360383078783641e-01,-1.249090263139870927e-02,-4.024677504289220914e-02,1.091944075377439607e-02,-1.752148873719307914e-02,2.395542860031127930e-01
-2.839140448026197250e-01,-2.223107137100875097e-01,-3.870143964110650536e-02,-1.059923487013840308e-02,1.915805599798174694e-03,-1.311851602618030075e-03,2.217464447021484375e-01
-3.620354880555449184e-01,-2.072178439436713204e-01,-5.606732167187830629e-02,-3.002929609326282154e-02,4.188329885936690512e-03,-4.446681005993815758e-03,2.702461183071136475e-01
-3.136914250015172545e-01,-6.339942021787964288e-02,8.721533652291918459e-03,1.214624573430534392e-02,9.684096440958380164e-04,1.485604051788535357e-02,2.949683666229248047e-01
-3.204265713651984759e-01,-3.160546813402442257e-01,7.704025647908840924e-04,-1.450543376946486279e-03,4.879452416382226601e-04,1.654027109787920263e-03,3.190573751926422119e-01
-3.245023285855583861e-01,-3.223322517698857248e-01,-3.313453665116289359e-03,-2.040265862748111541e-03,7.086564999359087512e-04,2.809816138220359773e-03,3.201681971549987793e-01
-3.149800688563831330e-01,-3.138573662491389582e-01,2.352102726668220400e-03,-7.813349581271960284e-04,5.660821254595568928e-04,7.399690036853356087e-04,3.167793154716491699e-01
-3.173162674662400318e-01,-3.154070954545399874e-01,2.444152941542321322e-03,-5.252273690919204022e-04,4.037914834010153668e-04,9.421810871573674208e-04,3.188163638114929199e-01
-3.950224282330477288e-01,-3.228318869475646502e-01,-4.567855430423700680e-02,-1.824024544724632199e-02,-9.398239539975875717e-03,3.510350104691266349e-02,3.270981013774871826e-01
-2.606040594101306507e-01,-1.238822979735884483e-01,-2.510689376150371244e-03,-1.162936341210709691e-02,-9.194261580091943678e-03,6.514543032363279140e-02,2.518117427825927734e-01
-3.651193555990157602e-01,-3.210535207204820995e-01,-3.868940480742460997e-02,3.069759000725399371e-03,-2.115495853663508594e-03,4.194314871156624991e-02,3.153304457664489746e-01
-3.634870692187474606e-01,-2.981924492240401459e-01,-8.424798184741619234e-02,7.742596820612467762e-03,-7.869395631240911487e-03,4.912563928122889306e-02,2.676016688346862793e-01
-3.476014207422347124e-01,-3.621636549919703407e-01,-7.130051085240746156e-02,1.064258444336981142e-02,-1.614966884433337996e-03,-2.321268370566638428e-02,2.873010933399200439e-01
-1.747365784291417812e-01,-4.335072647250282074e-01,-5.106147191842025368e-02,-5.168337409871393701e-02,7.321197106853966421e-04,2.042347058974411378e-02,3.514651656150817871e-01
-4.224376894684021555e-01,-4.334047941341060417e-01,-8.583672283984553064e-02,-5.402143324817093237e-03,-1.197352763922974669e-02,-1.482618008974737750e-02,3.439318537712097168e-01
-2.006356200670427747e-01,-3.576893946548041492e-01,-3.962894412795983645e-02,-2.397135496497554928e-04,-1.067583881613776153e-02,-3.668383590119625361e-03,2.761488854885101318e-01
-2.405576702991404914e-01,-3.080974120590435628e-01,-5.605527696289969164e-03,5.948424615493339354e-03,3.298362710879532839e-02,1.317109213811877826e-03,2.810833454132080078e-01
-4.785522141259686557e-01,-4.479702044765733748e-01,-1.030872055193144121e-01,1.222275543505390531e-03,-2.550029571739315104e-02,-2.744998357496912077e-03,3.638744950294494629e-01
-2.167301296018956380e-01,-3.394519862737738203e-01,-2.839302731208701025e-02,-1.674262199997034184e-02,-2.783056363108139461e-02,-6.035132990567200657e-03,2.773417234420776367e-01
-2.136909645039438976e-01,-4.302975537593788369e-01,-7.284685026726386847e-02,-7.033338528375833627e-03,6.954002344813570158e-02,2.023308431834453663e-02,3.363736271858215332e-01
-2.187036860821425510e-01,-3.264317413307479265e-01,-4.580982312910003573e-02,5.458026980943116169e-03,3.806514496310662698e-03,2.828800335403747982e-03,2.455198317766189575e-01
-2.627809255424065071e-01,-1.039473388066163989e-01,6.709291561758773392e-02,4.809835594991695995e-02,2.267764866919535008e-02,8.331915600795450350e-03,3.005682229995727539e-01
-3.007480671794802163e-01,-1.198886080315630515e-01,-3.098254372850856031e-03,5.136499496946006493e-02,1.073218044409472542e-02,3.541968155808713527e-03,2.752653956413269043e-01
-2.847873201902130225e-01,-2.476121134305775406e-01,-2.869094540373851032e-02,2.195486260972449172e-02,1.069917066498043620e-02,1.286247960078035039e-02,2.444027513265609741e-01
-2.099859009016760147e-01,-1.083901040660177756e-01,2.526092293004253420e-02,8.732586640986676751e-02,5.593928252464024260e-03,7.882035390145262360e-03,2.547947466373443604e-01
-3.336130730284832535e-01,-3.296057895193035825e-01,-5.247603951465995564e-02,-4.204578043916061374e-03,6.690339366782554857e-03,2.989444954386529830e-03,2.795382440090179443e-01
-2.846844153779212183e-01,-2.349689220276870438e-01,-2.389081648349195008e-02,8.149431903987236145e-03,8.118468234583977455e-03,8.756069682201819346e-03,2.411357015371322632e-01
-3.241730472080658343e-01,-2.557047855984959095e-01,-3.076153128945974258e-02,-4.358569206669582127e-03,-6.968134018094833751e-04,6.039753699710576724e-04,2.659856975078582764e-01
-2.999271024545691611e-01,-2.404329565125751800e-01,-2.998788892798601169e-02,3.942128845403795184e-03,8.183528463830528482e-03,8.613810236978158841e-03,2.466111332178115845e-01
-3.165750329182754896e-01,-2.289124709146912739e-01,-3.951442847929570457e-02,4.051681570413507780e-03,3.314929674112359562e-03,1.073406404566832999e-03,2.454488426446914673e-01
-2.402429669458907568e-01,-2.509658527306547482e-01,1.619829534816805139e-02,-3.100778848758594525e-02,-2.769284567308146275e-02,2.203475441349218855e-02,2.743512690067291260e-01
-3.040589286398541757e-01,-3.034680084544139622e-01,-1.809392159997832983e-02,-2.923893626387421858e-03,-7.754447365049117920e-03,7.239604848365012967e-03,2.863051295280456543e-01
-2.930753698361030501e-01,-2.881689424584087389e-01,-1.178580494976669280e-02,-1.541341470447386494e-02,-1.775311111248873211e-02,1.642512806190611629e-02,2.832584679126739502e-01
-2.915626612268208961e-01,-2.545158320000330265e-01,-2.590536451191527423e-02,-9.437171870853228173e-02,-2.614751941457276255e-02,4.588478360674366763e-02,3.117529153823852539e-01
-1.711269905725797680e-01,-2.108766199024565136e-01,1.217257082505507348e-02,-8.678040341267809210e-02,-2.790779742996525592e-02,1.690195398997831194e-02,2.612487971782684326e-01
-2.390999886503678007e-01,-3.514175401890704542e-01,-4.417971151612395952e-02,-9.594718307235952648e-02,-5.376741863921453285e-02,2.276390518983038153e-02,3.321853280067443848e-01
-3.132416284806749940e-01,-3.591878516271365673e-01,-6.133961531214515706e-02,-1.304398073279575826e-02,-3.795530557905005958e-02,2.199404488654597110e-03,2.863326668739318848e-01
-3.270904270276997483e-01,-3.295908464074382427e-01,-4.916627016675870210e-02,-4.793019678271994918e-03,-2.887108040911672696e-03,4.734503669183472672e-03,2.794712781906127930e-01
-2.242754545047673242e-01,-2.261680193189763433e-01,-5.853778036979728761e-03,5.249834627635802109e-02,-3.413671169023774904e-02,-4.890592342296831707e-02,2.589682042598724365e-01
-3.419609966166883841e-01,-3.369366271368571253e-01,-6.196169316966396168e-02,-3.977717145573197999e-03,-8.096164196214504158e-04,1.513354596505848146e-03,2.776226401329040527e-01
-3.413144264392131144e-01,-3.491168978806127865e-01,-4.018161987919885436e-02,-2.823938744627205611e-03,-7.264057752830050665e-04,-3.341889602671540074e-03,3.052055537700653076e-01
-2.461722785948872172e-01,-2.973633817218252484e-01,-4.331051249539602521e-02,-1.079656170161054363e-02,-7.408071176031857073e-03,3.673804770911908227e-03,2.339080423116683960e-01
-2.215331983710573938e-01,-3.058191192980635464e-01,-3.767601477466361870e-02,-2.675192950758937052e-02,-9.013680500072212415e-03,7.209507862179330949e-03,2.427978962659835815e-01
-1.943700289491544775e-01,-3.031503938407824061e-01,-3.766857144476623565e-02,-2.415480258311631517e-02,5.801382717963817631e-03,1.290025048589257383e-03,2.351401299238204956e-01
-3.645036093137133393e-01,-3.512641949312649281e-01,-8.277007339422373655e-02,-5.987902881375688387e-03,4.589581250465425005e-03,-6.925884937610993393e-04,2.756651639938354492e-01
-4.132007778087313787e-01,-4.023636675215918612e-01,-1.283275662276146534e-01,3.118615167759567885e-03,-7.922864840049026816e-03,1.463461485256048640e-02,2.811458706855773926e-01
-3.376659043441259112e-01,-3.218854129632009453e-01,-3.132616955544154091e-02,-1.226177065182300916e-03,-3.738084433429276435e-03,-1.466426915289766346e-03,2.988507151603698730e-01
-3.437434993332559308e-01,-3.820108174020606095e-01,-3.338711227087712285e-02,-9.672733195716579427e-03,2.327205845929124911e-02,-1.725205753133142103e-02,3.353510499000549316e-01
-3.244459348836560286e-01,-3.271310737922084044e-01,-2.641293480877490718e-02,5.563702937327617663e-03,-7.981469114981146282e-04,1.458851397375345027e-03,2.995535135269165039e-01
-3.339556319772031268e-01,-4.371663192090662342e-01,-9.268864943715449112e-02,2.588528389763715756e-02,6.935974044060778942e-02,-7.858114417901188725e-03,3.322517871856689453e-01
-4.038784135464633662e-01,-5.068809706347521260e-01,-1.307627533178152002e-01,-4.398993376078022544e-02,4.838424714558579171e-02,5.784559749077134404e-03,3.553338348865509033e-01
-2.071387561275931100e-01,-3.324537707848470580e-01,-1.743246027666034426e-02,-2.382460591434175032e-02,5.681635593710469834e-02,1.766188809583797703e-03,2.947233617305755615e-01
-3.433351139165274901e-01,-3.661548484017271843e-01,-7.610977996228263098e-02,-2.319640373850287776e-02,5.365102600921122650e-02,-4.026303779535533520e-03,2.971973717212677002e-01
-3.189199939139070739e-01,-3.148023824754231925e-01,-7.299879619211330217e-03,-9.954053234851663757e-04,4.502129206247443283e-03,2.779020748778239600e-03,3.097222447395324707e-01
-3.035167235194972113e-01,-2.961758345458587183e-01,-1.100529889161117048e-02,3.311103201685508274e-03,7.784456398811782571e-03,6.922661074321429311e-03,2.895306348800659180e-01
-3.101063922073361567e-01,-3.113746172804210954e-01,-3.475815086945388543e-03,-1.081972053032973901e-03,2.781274246087617544e-03,7.644094131074029600e-04,3.073129653930664062e-01
-2.979153491422136257e-01,-3.065623975046571914e-01,-1.671376283199557666e-02,2.442351260353146751e-03,6.157893088577099869e-03,9.928892505623640105e-03,2.863705158233642578e-01
-3.123570303290944539e-01,-3.128057428847786925e-01,-3.881718460617689104e-04,9.390840167482931240e-06,9.864281811883238073e-04,1.307559139606280767e-03,3.122063577175140381e-01
-3.102198380449304183e-01,-3.120470412024288764e-01,4.005284755103644123e-04,-8.594832720389352124e-05,1.646228337665417993e-03,1.009949829408390279e-03,3.115559816360473633e-01
-3.047599582227750736e-01,-3.089423635138395241e-01,-9.145251998879555533e-03,-1.644656695619202901e-04,3.104228792625884741e-03,4.487333607578656257e-03,2.978780269622802734e-01
-2.682141561752869885e-01,-2.908413517722457375e-01,-5.961586788644696044e-03,3.561504487391179558e-03,7.787752183049326780e-03,1.194784640954856328e-02,2.754463553428649902e-01
-2.442409921769083669e-01,-3.159268231396298310e-01,-3.121631068903912842e-02,9.592870694321048441e-03,1.388733330291631353e-02,1.870233477104087366e-03,2.581750452518463135e-01
-3.001021593010252952e-01,-2.881809212168666701e-01,-3.924225534560252249e-02,1.038171049642611955e-02,9.407369112597747593e-03,9.691491772308416866e-03,2.568089663982391357e-01
-1.060144949548170873e-01,-9.480114835561742614e-02,5.609760464228619181e-02,1.171077860981120239e-01,-1.410410067715668972e-03,-2.669049471189000738e-03,2.564337849617004395e-01
-1.934515000652540506e-01,-2.794218213553720798e-01,-2.212256468140916255e-02,1.310638088495771625e-01,6.371697502731302285e-04,-8.578967844025977424e-03,3.212925195693969727e-01
-3.151808887482318577e-01,-3.158766114764510746e-01,-8.676538163061575659e-03,4.998069427355318834e-04,6.878200923945817537e-03,-4.949877325824970399e-03,3.072048723697662354e-01
-3.150361450431755639e-01,-3.206256174798990388e-01,-1.632689280336746540e-03,1.368248434999310955e-03,3.243980384738660676e-03,-1.955642442555216923e-03,3.163121640682220459e-01
-3.120544920735268679e-01,-3.153939558556509981e-01,5.676432918884921630e-04,-8.764605405163479826e-05,3.222116045863720937e-03,-2.447786181730703375e-03,3.143833279609680176e-01
-3.166107085546503441e-01,-3.194730261837179786e-01,2.079667818860875261e-04,1.783266562916831352e-03,6.470807652800696389e-04,5.804960789511671168e-04,3.182780444622039795e-01
-3.209391889771421869e-01,-3.228281137885601892e-01,-9.133491220960354706e-03,3.730804116557138398e-03,1.264594453802754233e-03,1.679870476745017732e-04,3.128289878368377686e-01
-3.189535292683994272e-01,-3.207474507909011119e-01,-7.777410048289079558e-03,2.755638316201730088e-03,9.553523388013424739e-04,9.531850761415092783e-04,3.121221959590911865e-01
-3.179809984309743820e-01,-3.261876307157084431e-01,-4.077922926456090114e-03,2.812533545531362578e-03,3.007619165849081001e-03,-2.245113562175150151e-03,3.181895017623901367e-01
-3.178083050168151735e-01,-3.260196810746485152e-01,-2.369739856275041023e-02,2.516499462093427491e-03,-1.574128097662844334e-03,1.796015997728634935e-03,2.983618974685668945e-01
-3.084469362723890051e-01,-3.033859649822082116e-01,-1.301968233323949620e-02,-4.868588353346457536e-04,-7.364674342892710626e-03,2.626042457376079158e-03,2.932436466217041016e-01
-3.219407523762934376e-01,-3.161867097042794783e-01,-2.920330810704280244e-03,9.499417686085889290e-04,-6.792555101193671315e-04,1.421465288124776870e-03,3.161987364292144775e-01
-2.758453988077586572e-01,-2.512166911807360292e-01,-2.053872665599998371e-02,-6.281115267401579487e-03,-6.772972201178551616e-03,5.911106363392457791e-03,2.446650713682174683e-01
-3.225691156486319988e-01,-2.759293529700616587e-01,-1.185719569097518078e-02,-5.367408055823369960e-03,-2.839994136335260121e-03,1.034875699277812422e-02,2.909597158432006836e-01
-2.226228181945809625e-01,-2.933045451764962341e-01,-3.203795008915077958e-02,-3.047633249468024649e-02,2.076131653417705170e-02,-9.768270929781238884e-03,2.432183027267456055e-01
-2.884276750421249647e-01,-2.854825819500071971e-01,-9.726411276933966121e-03,-3.719321478429194958e-03,-6.076308657307313496e-03,4.768321327680689718e-03,2.776377797126770020e-01
-2.868367153980964646e-01,-2.947126355000014297e-01,-2.195305660454560659e-02,-2.811345867431134116e-03,-7.308506202895156609e-03,7.886063014611642205e-03,2.695961892604827881e-01
-2.727704795257318571e-01,-2.787651366837466949e-01,-3.189522371312339399e-02,-3.367421430258320508e-03,-1.943075571916676614e-03,4.553873953120730726e-03,2.441482096910476685e-01
-2.869325526203342913e-01,-2.724436422212248021e-01,-2.486468452357701309e-02,-6.542280029875651576e-03,-6.812630988012960583e-03,1.191528514705892348e-03,2.556644678115844727e-01
-3.189711487276871149e-01,-3.193851342030956664e-01,-7.057862417161073210e-02,-1.568549534630153328e-03,-2.715326169044441425e-04,-5.894103446162412933e-03,2.488245815038681030e-01
-3.512321614457690755e-01,-3.624794941318419395e-01,-1.141122465531677899e-01,4.389479311028818861e-04,3.915606376780841197e-03,-2.633503741232773657e-02,2.472781836986541748e-01
-3.460782350781472783e-01,-3.466436298782474834e-01,-1.099630622008807290e-01,4.093187331770234199e-04,9.119019218448383207e-04,-1.402169198820899312e-02,2.376489341259002686e-01
-3.272221274714270378e-01,-3.322465393839773018e-01,-6.875188113430460990e-02,-7.416989842030194023e-05,9.774046485144683317e-04,7.405999847377563866e-04,2.610273957252502441e-01
-3.281561024996590414e-01,-3.311271736682473987e-01,-8.548433695365928453e-02,2.171414503297496110e-03,4.776653636453361863e-03,-7.659506508412131792e-03,2.446998357772827148e-01
-3.345099410377802007e-01,-3.297005149744056673e-01,-8.260218421782772324e-02,-2.909152584170865679e-03,5.112817379207508679e-03,-1.336610810583358584e-04,2.497458308935165405e-01
-3.367311899096304684e-01,-3.226032009699104641e-01,-2.493682760123847042e-02,-6.430320741174197323e-03,7.773150415092079137e-03,-2.397500688192272158e-03,3.055042624473571777e-01
-4.042505687404876480e-01,-3.993166279665144036e-01,-1.189866226256966475e-01,2.810218566495554637e-03,1.865048414847342295e-02,2.270015501618871667e-03,2.847368121147155762e-01
-3.298266686338656717e-01,-3.201516450463648411e-01,-5.508078511630398744e-02,-2.664603483147090675e-03,7.200070484647822996e-03,-8.923426846270567222e-04,2.703700065612792969e-01
