sxx,syy,szz,sxy,sxz,syz,smises
-1.526441539819296117e-02,-1.526441539819296117e-02,1.505288307963862371e-01,3.034205526711241223e-86,0.000000000000000000e+00,0.000000000000000000e+00,1.657932400703430176e-01
