sxx,syy,szz,sxy,sxz,syz,smises
3.189295522425288076e-02,3.189295522425288076e-02,-3.037859104485055584e-01,-4.182751085057629074e-85,0.000000000000000000e+00,0.000000000000000000e+00,3.356788754463195801e-01
