sxx,syy,szz,sxy,sxz,syz,smises
2.424584781672887712e-01,8.260732560621303344e-01,2.664911253668567070e-02,9.448884063873037864e-02,-2.960924674319922317e-02,3.844763638450216653e-02,7.395800352096557617e-01
2.222067108716382633e-01,7.854682622946687065e-01,-4.325115383971750438e-02,1.429670673157567434e-02,-8.411898042491013083e-02,-7.079520388350080129e-03,7.478269934654235840e-01
3.242494444530070186e-01,7.749194029840920095e-01,1.471586946181596689e-02,6.717449975578373630e-03,-1.992794053828079309e-02,-1.151070812165361050e-02,6.634275913238525391e-01
2.297684963358172794e-01,9.291503375599715620e-01,-2.808919036767426602e-02,6.895217136021447590e-02,-5.555603964326633754e-02,4.133158303022352320e-02,8.744221329689025879e-01
3.364005703969862315e-01,7.594570876680362126e-01,1.792070378638677131e-02,3.812649286593660508e-02,-5.032094501871466063e-02,-2.742521909252157442e-04,6.535280942916870117e-01
3.162143633578870516e-01,9.266412690260056317e-01,1.843406994934215781e-02,2.615116484468475722e-02,-6.027576904323686535e-02,-3.946017422495887682e-03,8.099784255027770996e-01
6.647359493556126431e-01,5.871086651009700397e-01,-2.916957204096681799e-03,-3.894694000198362094e-02,-1.594814529618917773e-02,-4.269701183878810147e-02,6.408908367156982422e-01
6.423274648623440441e-01,5.835758398221646548e-01,1.686374037776161572e-03,-2.714420014597913877e-02,-1.714020845173670066e-02,-3.967844954133931124e-02,6.197168231010437012e-01
6.615134088372456311e-01,5.740212088601625018e-01,-4.429934530609080934e-03,-6.734056412906425614e-03,-1.084382666987628897e-02,-1.576855519938962294e-02,6.277781128883361816e-01
6.621834731984754807e-01,5.842351674573331710e-01,-3.706136303616658356e-03,-7.688139397785879840e-03,-2.553929389867605568e-03,-1.189525853068436854e-02,6.310319304466247559e-01
6.422770756683748861e-01,5.856350058430426220e-01,-4.906531258332569312e-03,-7.766521854142323248e-04,-8.348325517955427003e-03,-7.454318479654616081e-03,6.211076378822326660e-01
6.344798907753834705e-01,6.055512440004839902e-01,-3.333575626336349185e-03,-1.142561077499174363e-02,-8.680766091541742419e-03,-1.349927488495641925e-02,6.247849464416503906e-01
6.369634812464501916e-01,5.733775226094049993e-01,-4.487091750762173259e-03,-3.907626139206330472e-03,-7.373264735831352480e-03,-8.629329454027079641e-03,6.124925017356872559e-01
6.027593228152778870e-01,5.617812402427012630e-01,4.208189401998740919e-03,3.523061230137980449e-02,1.497252749495248635e-02,-1.269877680867082317e-02,5.833481550216674805e-01
6.245758966841843396e-01,6.333661960668360846e-01,-1.208386731176291917e-04,-3.305883713565793171e-03,1.659568108969124243e-03,-1.057576904624439118e-03,6.291732192039489746e-01
5.922045131791719985e-01,5.896046449558244307e-01,-6.870074717305663103e-03,5.398139792719466173e-02,2.083775870679732689e-02,-3.300827729652619502e-02,6.088126897811889648e-01
6.203865489467412786e-01,5.536450882310213206e-01,-7.445568085002352010e-03,4.239805038966615314e-02,1.617356775047835982e-02,-9.872119585118112328e-03,6.026566624641418457e-01
5.768502555965645540e-01,6.148420419302143003e-01,-2.149207716042544902e-03,4.874819278567463221e-02,1.597185094904450542e-02,-2.338346297720349590e-02,6.068078875541687012e-01
5.983787707110918008e-01,5.662126621360479284e-01,4.450916060657450490e-03,3.644692626319877976e-02,1.759286881283910961e-02,-1.635586908912758930e-02,5.834353566169738770e-01
6.475388802138750677e-01,5.442329330727959658e-01,1.088553382433410377e-03,8.824633586700710020e-02,4.711411824968730899e-02,-4.405207140879099231e-02,6.305800676345825195e-01
5.991806628860807393e-01,6.049476654808308984e-01,-3.852844434498126081e-03,3.286193686072443401e-03,3.557220712745576795e-03,-5.742697995027968606e-03,6.060772538185119629e-01
5.921570119516619268e-01,5.966467055080311166e-01,4.309444330457601335e-03,5.309399058906244528e-02,1.975158496559288601e-02,-2.351461410263559759e-02,5.995917320251464844e-01
5.267339454855916037e-01,6.125300931188026876e-01,1.750662596890495415e-04,6.882764874360346175e-02,7.850419591320952073e-02,-6.827850309651574412e-02,6.135864257812500000e-01
6.125623968513218554e-01,5.827815981309266702e-01,7.876364350924480728e-03,2.142524319518212747e-02,1.050310220476565609e-02,-1.141728790796077767e-02,5.921344161033630371e-01
6.352916781142149416e-01,6.100102599078350840e-01,-8.935826552003978129e-04,2.232851730834452958e-02,1.237226528173093927e-02,-1.954348610886504425e-02,6.264087557792663574e-01
6.033809685192772498e-01,5.556128175355551368e-01,-7.088276128006942844e-03,5.268966194879529802e-02,3.750807912397222110e-02,-3.508806454477189640e-02,6.016944646835327148e-01
6.131843418510133370e-01,5.841388862422878248e-01,-4.722799178584480284e-03,2.005276131049127039e-02,1.530767726382045377e-02,-2.275293347658314744e-02,6.067683696746826172e-01
6.367768799339175168e-01,5.733825823110939579e-01,-1.843552302697948342e-03,2.640678084414678148e-02,1.245807571749327908e-02,-2.963396692822746481e-02,6.136465668678283691e-01
6.436068670697795424e-01,5.722238843231901573e-01,-2.680957822902896304e-03,2.372585135484216873e-02,2.546395894342025693e-02,-2.765963933589420110e-02,6.185294389724731445e-01
6.108647346975629722e-01,6.472725070583731366e-01,9.333500524302873469e-03,-6.140496008942273633e-03,3.118406080751006185e-02,-3.220516138709590345e-03,6.229986548423767090e-01
5.585461007640017961e-01,6.609902802127420873e-01,3.081037720453888573e-02,-2.475818904196618042e-02,2.747628575291428260e-02,1.408418184903097170e-02,5.897135734558105469e-01
5.545822401608652141e-01,6.771251987406688988e-01,-1.079844956228154240e-02,8.170737432899523485e-04,1.449820983618664225e-02,1.189642289440692724e-02,6.364060640335083008e-01
5.107405924570701528e-01,6.226650394054671356e-01,3.308066844192814049e-02,1.276395560600965609e-02,-8.229628809813451656e-04,5.489017988363220808e-03,5.428895950317382812e-01
5.158969205421822801e-01,6.816874092036051547e-01,1.425134968318853002e-02,3.096886192850143490e-03,2.950707760333692864e-02,6.511515245965515154e-03,6.042109131813049316e-01
5.353449247089662189e-01,6.790269564446339556e-01,-9.059478661994857518e-03,-8.355457949949770050e-03,6.181125201726442309e-02,8.425846263388775056e-03,6.380643844604492188e-01
5.955693782286313187e-01,6.827998633326287647e-01,4.519386987137058442e-02,1.231831516569771752e-02,5.573986371146684091e-03,-1.733702401209670572e-04,5.992331504821777344e-01
4.635695971853618924e-01,7.322352422196962696e-01,1.385495942689662918e-03,-5.088081949461953010e-03,5.256479882526805814e-02,-1.342278079269738737e-02,6.472060680389404297e-01
5.689207123429322888e-01,6.833065285307082792e-01,1.053213451789675181e-02,1.405614004734325080e-02,7.465551071365528202e-02,-1.302467554594450259e-02,6.376328468322753906e-01
6.321926880199788545e-01,6.046542341277916233e-01,1.663492319525616825e-03,2.019646277077789907e-03,-2.743376968415573054e-03,8.172658193796705425e-03,6.174113750457763672e-01
6.303058395825240634e-01,6.195013849009107787e-01,-5.279223689980461209e-03,-9.026636093317516683e-04,-1.033390029675305315e-03,-1.517495589604722465e-03,6.302622556686401367e-01
6.328248740311048781e-01,6.228108513707141247e-01,1.609389587370080310e-02,-2.585078209003172610e-03,1.357612790503481804e-04,-6.146651464017390855e-03,6.118944883346557617e-01
4.707526909574942797e-01,6.439670667575407847e-01,1.815258538006181421e-02,-1.277357456270432068e-01,-3.513866224175109243e-02,-4.279098159828563855e-03,6.049423813819885254e-01
6.256269927475561765e-01,6.346546539501267681e-01,1.418996533457543840e-01,-7.050156105437733328e-03,-5.848372764675832322e-03,3.132352627654786358e-03,4.885915815830230713e-01
5.285957023796249432e-01,6.103775129556128221e-01,1.366499781068597486e-02,-1.891632433687611414e-01,-7.776731596988166364e-05,-8.276721996805063960e-04,6.490794420242309570e-01
6.152408292870784612e-01,6.232871405392973463e-01,-1.398733782631111922e-02,-7.269232507087560347e-04,-4.061301296710153426e-04,-2.728772734440271155e-03,6.333089470863342285e-01
3.364125043578483076e-01,6.840420710052450559e-01,-7.676048026639165078e-02,-2.273695374503965361e-01,-4.210341350860598991e-02,1.543319632690055669e-02,7.722128629684448242e-01
4.287981199276469368e-01,5.938707141218528829e-01,5.879048546526044472e-03,-2.469856378659440743e-01,-9.594313776692892440e-03,1.967504677788252734e-03,6.776542663574218750e-01
7.206282977943294643e-01,4.814211852965242233e-01,-8.618657845807897733e-03,-2.510964254097217477e-02,1.435201461156949444e-02,-6.060186353744251297e-02,6.542990803718566895e-01
6.618828203100559637e-01,5.527119034423695343e-01,-4.192661912071848906e-03,3.685145790950959156e-03,8.333974799028422489e-03,-4.360033096853198342e-02,6.235469579696655273e-01
6.773767529714891378e-01,5.814366801424237785e-01,-4.742889983162135170e-03,1.732931404437565437e-02,-3.043360514741804898e-03,-3.059737180789531830e-02,6.424845457077026367e-01
6.772411539189369112e-01,4.847627054644962907e-01,-4.643970319462786822e-03,7.463009009338023025e-02,3.418425191552019321e-02,-5.086929163788064812e-02,6.314623951911926270e-01
6.828660579046426093e-01,5.251844119799345956e-01,-1.860336469253265346e-03,3.787473053070875700e-02,1.805134549162023400e-02,-4.320677066018906859e-02,6.297828555107116699e-01
6.776741581005334414e-01,5.407724364006583073e-01,4.019664605876160923e-03,3.135660797169189523e-02,2.017063160503325403e-03,-2.751240730504104365e-02,6.209353804588317871e-01
6.784710340314676902e-01,5.593277549736298537e-01,-1.770702483178787645e-03,-7.920838613784840151e-03,8.091446329227727080e-03,-4.311818755332683106e-02,6.339083909988403320e-01
6.242513468932353593e-01,6.204662021343514411e-01,2.421680417608573777e-02,9.768185450088954364e-03,1.095916164639157593e-02,-2.796902437404919645e-02,6.006479263305664062e-01
6.475592302180384063e-01,6.098897385489735479e-01,1.892619568055675661e-02,5.233320976578214635e-03,1.388441953430299795e-02,-1.810132233632514784e-02,6.120144128799438477e-01
6.466897481257711799e-01,6.288751460604086185e-01,3.183288186632382555e-03,2.957441857056491638e-03,1.280634258109880630e-02,-3.780771377036784217e-04,6.351950764656066895e-01
6.612766109134735615e-01,6.054500233891599859e-01,6.621586819199476448e-02,2.504382705904031545e-02,1.003655065673851078e-02,-6.432558698006793536e-03,5.712281465530395508e-01
6.764737097856358128e-01,4.394192652962605194e-01,1.749445093997031853e-02,5.089119130533620999e-02,-9.239175840885955129e-03,1.294656118481220947e-02,5.854598283767700195e-01
6.235335894926866684e-01,6.382654712765631899e-01,1.110399360094216359e-02,7.546241174093907232e-03,9.981469555749170400e-03,-1.347230082837076563e-02,6.207443475723266602e-01
6.223434397901581594e-01,6.469603506184578023e-01,6.078375122904833283e-02,2.871686186656161044e-02,1.185108715370046008e-02,4.284499188265297222e-03,5.768271088600158691e-01
5.966119193976726631e-01,6.368984902131249459e-01,-2.713017457778521546e-03,-1.615467875026518202e-02,1.786549223579197640e-02,1.585515539332293597e-02,6.224570274353027344e-01
6.468044167082790397e-01,5.374520571328721408e-01,-5.887784276213392509e-04,1.801729373093617637e-02,-8.459570894571872765e-03,1.904296314442203639e-02,6.021282076835632324e-01
6.174775474872641334e-01,6.368780665711514244e-01,-2.966129692516528138e-05,-6.265157081066492425e-03,2.529384263756434895e-02,2.203179123795389119e-02,6.302101016044616699e-01
5.744906257176098929e-01,6.456300737912920029e-01,1.611633472764179009e-02,-3.785404726750221660e-02,2.475237660089208910e-02,3.016783619525766069e-02,6.045098900794982910e-01
6.444389004169688295e-01,5.796793177905722461e-01,-1.455658425253747446e-03,2.058166289129437915e-02,-1.905088564103405921e-02,2.075655998668846439e-02,6.190297603607177734e-01
6.015841758783500026e-01,6.252850387750700234e-01,1.647610689546774587e-03,-4.397412216280564834e-02,1.783668169633888592e-02,3.146367947407199828e-02,6.200243234634399414e-01
6.187294314630743530e-01,6.188227885570312115e-01,-4.262926605588857054e-03,-1.523667579492052511e-02,2.323675001737781839e-02,1.588741566815097747e-02,6.255007386207580566e-01
5.887674296398798246e-01,6.294659734640637438e-01,6.303694771438161926e-03,-5.828754463259949725e-02,1.733268813084529528e-02,1.761973372834714849e-02,6.137188076972961426e-01
4.633453494038191067e-01,5.885914105780392092e-01,1.387621238771247212e-02,1.489143354189598478e-01,4.249642543030488938e-04,2.417786696639162916e-02,5.850504040718078613e-01
5.514965678883170241e-01,5.811239101207625879e-01,2.252033419038662609e-02,1.536888760433877121e-01,-3.492706885035322395e-02,2.340889675995345975e-02,6.103525757789611816e-01
6.237549018886516805e-01,6.144529562691490865e-01,-1.337741316635787658e-02,5.874847164603071940e-04,2.904871578829142011e-03,6.077898476799420456e-04,6.325543522834777832e-01
6.037992804132630287e-01,5.488650789109573713e-01,4.088536609022053181e-02,1.003827966896100321e-01,4.564212119973806280e-04,4.561274406436183898e-03,5.650307536125183105e-01
5.849258364413787437e-01,5.532283451616254455e-01,3.580228697067688870e-02,1.034126409853404621e-01,-1.903737974064815403e-02,-1.277976350220439566e-03,5.641899108886718750e-01
5.111807334018237947e-01,5.659717964154020731e-01,3.383978534394427307e-02,8.132750664523545614e-02,-6.155806544855111327e-03,7.987674649074585909e-03,5.264580249786376953e-01
5.105939032990491899e-01,5.675359300022204678e-01,3.125729660350962114e-02,8.013068644360132886e-02,-8.110996273696328279e-03,8.127262597650092291e-03,5.291112065315246582e-01
5.030050698267688469e-01,6.296644424550322805e-01,3.534179864159708861e-02,9.907552004762876230e-02,-6.437409501070602384e-03,8.753770130582590875e-03,5.690233111381530762e-01
5.200918887830304760e-01,5.842191443703121934e-01,2.628039848802593559e-02,6.564075229619503737e-02,-2.172039829397685168e-02,3.123859190729081844e-02,5.448833703994750977e-01
6.426645928348628800e-01,6.315231437331157993e-01,3.207776488529695547e-02,-1.813792637112183375e-03,2.320286666431678035e-03,-7.421670552132133419e-03,6.052510738372802734e-01
6.311991155445928481e-01,6.076892356310603649e-01,1.532095938284039338e-02,-5.160888273454746454e-03,2.571746395493399069e-03,1.167483160139920310e-02,6.048868298530578613e-01
6.298444904599225236e-01,6.026377714321792256e-01,1.252688036727128695e-02,-2.117873796177789213e-03,5.893713068428785284e-03,7.065502158450493592e-03,6.043951511383056641e-01
6.732538284989276756e-01,5.627264062190168170e-01,1.125868701803356409e-02,-3.210663132595831248e-02,5.525893639898551068e-04,9.274434851371821803e-03,6.169576644897460938e-01
6.403847466865351112e-01,6.070195399819816595e-01,3.088516136476482377e-03,-1.058345742379301901e-02,1.157488780531297327e-02,6.360900329803936826e-03,6.219771504402160645e-01
6.455185937899543536e-01,6.103688708700025778e-01,-3.865488520149396034e-03,-7.248372709694122368e-03,1.584553754678905829e-02,1.722264623949402301e-02,6.339638829231262207e-01
6.149637179431055589e-01,6.297343778487897170e-01,-1.281185878764040664e-02,-7.529293683974457420e-04,-4.927904515038259749e-04,-1.927522087855113465e-03,6.353003978729248047e-01
6.559581397654496993e-01,5.974351713478633918e-01,2.088756783809264661e-03,-1.319837826980895489e-02,7.586494992746303616e-03,2.663087250685611598e-02,6.289090514183044434e-01
6.411240940376427000e-01,6.644510528305056507e-01,7.806585878527932953e-02,4.279359729920414850e-03,1.295056755756929766e-02,7.156184130442557042e-04,5.755630135536193848e-01
6.264955570589958445e-01,6.745837579074822621e-01,1.037598515410785294e-01,6.641936045819121261e-03,1.417548490066087089e-02,-1.856169777121893100e-02,5.499739050865173340e-01
6.568681294679280525e-01,6.429647038195265285e-01,4.407527447840736690e-02,8.786911642540969763e-03,-2.240225832685823967e-02,1.973396877128570648e-02,6.083534955978393555e-01
6.164190449680143624e-01,6.145404327149680546e-01,-1.531508589827162981e-02,1.282310753678339891e-04,1.258446999871817374e-03,1.655692706033900781e-04,6.308007836341857910e-01
6.344332474270595323e-01,6.414289033250736294e-01,4.268948965310920274e-02,4.277388835209004194e-04,-2.568460375562369932e-02,1.977904161400880281e-02,5.979151725769042969e-01
6.318147616951466095e-01,6.318933920239226953e-01,5.499434417254200902e-02,-2.478219530614692630e-03,4.603495443326222070e-03,-8.423817346253531166e-03,5.771152973175048828e-01
6.271716163908265251e-01,6.421305032396060763e-01,1.126194647675248239e-01,-5.979954549618841757e-04,1.100206082373450869e-02,-1.694201065393829281e-02,5.233642458915710449e-01
5.963876505132897909e-01,6.431770372054054219e-01,6.015433423315269534e-02,2.383457304044276498e-02,1.456379774203114472e-02,-4.324312904891144081e-03,5.632247328758239746e-01
5.629108828286324417e-01,6.645440827414682561e-01,3.968284078780087709e-02,9.892062701754631912e-03,2.683750720270835360e-02,5.567457303606634239e-03,5.829421281814575195e-01
6.036138008180259584e-01,6.685464085128818290e-01,-9.300599465145997780e-03,2.141948747650507939e-02,2.215230862271433052e-02,-1.067964250334899577e-02,6.502839326858520508e-01
6.428528060864919791e-01,6.471876924008200804e-01,2.607123296634172860e-02,5.588198892273565747e-03,2.501671228188028385e-03,1.444476924445202556e-03,6.190562844276428223e-01
6.179368312912714156e-01,6.543855146383200649e-01,1.050130601777055084e-03,3.310328714986248561e-03,1.777436075157313652e-02,-1.129011583384526181e-02,6.369658112525939941e-01
6.116258569155338387e-01,6.225974864878079940e-01,-6.321204876660380112e-03,-1.497478481067789600e-02,1.350589532534813599e-02,1.490328465739682029e-02,6.250160932540893555e-01
6.072832922185520399e-01,6.213519997732791511e-01,-6.280301801502297110e-03,-7.316058235511590548e-03,1.260697882863590601e-02,1.935658778798531390e-02,6.221347451210021973e-01
6.086988776858295314e-01,6.199586787605905203e-01,-8.162507394823326212e-03,-6.405604918668955650e-03,4.243703934288913307e-03,3.677063852418739707e-03,6.227424740791320801e-01
6.015094338157664922e-01,6.295110833240936676e-01,-4.907582888268424703e-03,-2.351027881061590330e-03,3.692406047478306950e-03,9.513514106051767019e-03,6.211564540863037109e-01
6.607318315894106231e-01,5.093904877233740303e-01,-1.195158116672623283e-02,5.939864267313281487e-02,-3.229824006922886459e-02,6.036583940136783233e-02,6.310694217681884766e-01
6.096661850605417099e-01,6.299537970181707802e-01,6.161325914787962876e-03,-1.283482046254637993e-02,-5.294983057544276270e-04,2.552338454906249955e-04,6.143033504486083984e-01
6.422455743231879621e-01,6.256265902820137281e-01,3.938849214936585019e-02,2.256049042742573271e-02,-4.590508138020653155e-03,-5.480587580327629139e-03,5.961327552795410156e-01
6.252016842787482265e-01,6.140958509037772739e-01,9.462624648553574769e-03,1.839682711459969533e-02,1.432729187601885362e-02,-2.623793162846684707e-02,6.132830381393432617e-01
6.520382867009764105e-01,6.154546915137487639e-01,1.185662922797248164e-02,-2.117597985966313510e-03,1.194017331216473514e-02,-1.804974370269705336e-02,6.238343715667724609e-01
6.327555989860484953e-01,6.367402579809348095e-01,1.933620369756239299e-02,3.789579758588341400e-03,-5.929091683661198882e-03,-5.338217019341994288e-03,6.156114935874938965e-01
6.399701617800956921e-01,6.364330957661901156e-01,2.257673648611530082e-02,-2.435030707831429067e-02,-3.703130743167976080e-02,-2.010286382070040553e-02,6.213763356208801270e-01
6.299646678559308599e-01,6.251047269764984371e-01,6.321262204986410893e-03,-4.946860135993636463e-03,5.305795085700707250e-03,-1.150559302865627152e-02,6.216742396354675293e-01
6.361802989165896705e-01,6.364457775194432010e-01,2.320380824512174867e-02,-1.366934845230764750e-02,-7.793084384305457718e-03,5.853603384561077184e-03,6.137984395027160645e-01
6.250379996404349381e-01,6.431146396634643825e-01,1.240491846726204939e-02,1.202842542963964388e-02,1.064341830420520267e-02,-1.485102497398200008e-02,6.230216622352600098e-01
5.818278641058285405e-01,5.936324737529208306e-01,2.021133680587794412e-02,-1.840553843117975806e-03,1.566545819636023249e-03,7.260111625156476581e-03,5.677655935287475586e-01
5.106788789099763193e-01,5.204644987644903020e-01,2.365525973952498084e-02,1.591119979737428691e-01,-1.950163936985733690e-02,1.776762374591650540e-02,5.657662749290466309e-01
5.575418209017664051e-01,5.169498084783954450e-01,2.775834248647057745e-02,8.280013729639781883e-02,7.668772734887878764e-03,-1.986486776038414934e-03,5.306308865547180176e-01
5.713082949242003217e-01,5.543519767839540924e-01,3.294231714335127403e-02,3.886645611827917873e-02,9.416796107399923871e-03,-3.195432272472908605e-03,5.346262454986572266e-01
5.829894021417726391e-01,5.258648914942246622e-01,2.617625487989222455e-02,6.580766195233417326e-02,-1.156254285517150336e-02,2.862329434995699445e-03,5.430598855018615723e-01
5.655308149241143889e-01,5.145519159627292005e-01,2.881681069689812080e-02,8.497206383976591004e-02,1.780383341817829649e-03,-4.440348557336851903e-04,5.338262915611267090e-01
5.564041952987257567e-01,5.601135908988377210e-01,2.740360061377278278e-02,3.956994202892084866e-02,-1.185520313325343945e-02,8.185249173889965271e-03,5.358522534370422363e-01
6.281791125470729265e-01,6.347973052929556381e-01,4.848173361778485013e-02,3.928051191263298714e-03,-8.958857719092178790e-03,-7.252678853872934414e-03,5.834160447120666504e-01
6.572126923226604411e-01,5.101158701456505185e-01,2.028086623419206314e-02,-6.433291561907766680e-03,8.986554544423860924e-03,2.333940325411294406e-05,5.779233574867248535e-01
6.542417952109242929e-01,6.315288246380293957e-01,4.404882271662197146e-02,1.094707146441038954e-02,2.577965764272786755e-03,4.773846947526610984e-02,6.051515340805053711e-01
6.324553035304323334e-01,5.985059108738558509e-01,1.176044029980644057e-02,3.964863940257483746e-03,-8.080171908392502420e-03,1.009894707990031601e-02,6.048896312713623047e-01
6.404510992578087425e-01,6.171185095700264522e-01,-4.606021146690286727e-03,1.628517632311531765e-02,-1.625236509245939556e-02,6.678517619001056276e-03,6.350701451301574707e-01
6.378909082461448055e-01,5.989173894399735243e-01,2.467151449235854832e-02,2.659271999197521542e-03,3.135024621154405833e-03,4.897899324687893588e-03,5.947943329811096191e-01
6.404291265364157049e-01,6.190187195635054040e-01,1.490735832206774303e-02,1.825168767300185124e-02,-7.139070199589551448e-03,1.174039412469921745e-02,6.163675785064697266e-01
6.420367507105936289e-01,6.027492817990207641e-01,1.597151793892581662e-02,3.776753656634381645e-02,-2.032574154678328405e-03,4.410512060142218055e-02,6.156557202339172363e-01
5.869670746636330705e-01,6.906797465109727474e-01,8.631038414371061673e-02,-6.934188460504436824e-02,-3.913513034536760665e-02,-4.894865549333562299e-02,5.827051997184753418e-01
6.435654769045612289e-01,5.893870010750313915e-01,1.658864826265643577e-02,1.749791965513306999e-02,-1.287402889805680864e-02,4.205538005240380683e-02,6.072794198989868164e-01
5.950904757382382559e-01,6.477524373497766108e-01,-7.434216547212990633e-03,-4.046608473826041920e-03,-1.362108395291244424e-02,-7.216621584560226933e-03,6.311112046241760254e-01
5.835896372609332694e-01,6.434457609086499108e-01,-1.268367400742986817e-02,-6.418940162687360694e-03,-1.294573329383047131e-02,-1.671491837291326499e-02,6.295075416564941406e-01
7.291243285436884713e-01,3.572653224717015630e-01,-7.398993508294066102e-02,-2.669067329044772507e-01,2.682838880031690118e-02,4.793011360911022395e-02,8.410678505897521973e-01
6.124519994551225199e-01,6.098074611034549619e-01,-5.034118915725582788e-03,3.824963362257312489e-03,9.418771696191265488e-03,-6.667026067451437173e-03,6.165277957916259766e-01
6.098100549219616084e-01,6.098666007428590330e-01,-6.250422468161598299e-03,2.377713232967258380e-03,5.392387873449345191e-03,-7.502873728289702164e-03,6.163103580474853516e-01
6.099046201808727696e-01,6.153026467476210293e-01,-1.106816823727080346e-02,4.476492788251320437e-03,5.337852839085456200e-03,-3.483376090817896439e-03,6.238352060317993164e-01
7.881666708584527115e-01,3.790813942121448732e-01,7.952745097473040703e-02,3.062631441008222682e-02,5.629958111093410350e-02,-1.050081519032564498e-01,6.519427895545959473e-01
6.224912537977760341e-01,6.211706478770981921e-01,-7.228841853475220791e-03,-1.707796942062073564e-04,7.786490909781836750e-03,-7.561123392703632089e-03,6.293417215347290039e-01
6.168889420129597401e-01,6.092634414004827192e-01,-8.051748975049122237e-03,3.460205973440339238e-03,9.052652247331552382e-03,-8.349959527372469159e-03,6.215580701828002930e-01
6.223702738993089900e-01,6.283019057059637813e-01,-1.164336052663106358e-02,-3.612793660705611201e-04,3.718094828995534892e-03,-2.519243858475989951e-03,6.370479464530944824e-01
6.187145979614074864e-01,6.163051700085544482e-01,-3.891814575566532319e-03,4.732572096180067377e-03,1.366102183440570834e-02,-1.374360457768659602e-02,6.223649382591247559e-01
6.267800310791967755e-01,5.974507544991172203e-01,-1.003747028521551066e-02,1.967493832687493022e-03,1.147924774939395806e-02,-1.057554190647541983e-02,6.232670545578002930e-01
6.193615911867056401e-01,6.200945948256754159e-01,-9.843337971705667933e-03,2.127264666403811712e-03,1.445740658997494293e-02,-1.193548359454512861e-02,6.304193735122680664e-01
6.150900432500505666e-01,6.172465668337241418e-01,-6.967244658635185495e-03,3.394963535327381356e-03,6.529882825748787797e-03,-5.071465970662433938e-03,6.233305931091308594e-01
6.174371263618890771e-01,6.207342665767511258e-01,-1.107401818334574628e-02,1.404963881071167209e-04,7.066804376213010712e-03,-5.194045734010110070e-03,6.303492784500122070e-01
6.175025240269351734e-01,6.093045458832976324e-01,-1.178124990437462438e-02,1.794230272688444915e-03,5.654767030240692542e-03,-3.164835905398314872e-03,6.253335475921630859e-01
6.173533417480663310e-01,6.169188558240783493e-01,-1.193377976066117840e-02,-9.110799407996021454e-04,6.690622509323113434e-03,-6.507892089154605937e-03,6.292796730995178223e-01
6.128325304125004092e-01,6.109670464410978941e-01,-9.514460375623035038e-03,2.611986978036070703e-03,7.909536809185374953e-03,-5.388778861427691649e-03,6.216538548469543457e-01
6.588139347528852996e-01,6.166201812874412269e-01,7.627847623180028513e-04,-5.237252165963697179e-03,-7.347594843866916275e-03,-1.572773397458824760e-02,6.387740969657897949e-01
6.289292952745892951e-01,5.223487611487989124e-01,-2.484356587192981802e-03,1.000706245854312421e-01,-6.625010835510201923e-02,4.092642043749894487e-02,6.252845525741577148e-01
6.044353569279963256e-01,5.572898854806840330e-01,6.832404004984637957e-03,4.781010152087796644e-02,-4.169647743917249960e-02,2.536809124838786469e-02,5.875214934349060059e-01
5.852813892606253399e-01,6.138135075209075753e-01,3.748058144208865627e-03,5.262308712916238113e-02,-3.225857567804742143e-02,3.591066812911607870e-02,6.090037822723388672e-01
5.680658676853733713e-01,5.893705490908939248e-01,2.583848242723102429e-02,8.572919232921955013e-02,-2.613072863281211411e-02,3.092975333694360229e-02,5.770470499992370605e-01
5.647342998161974936e-01,5.252590275824182697e-01,2.171732632696865561e-02,1.144685096551459613e-01,-2.651622743910941535e-02,2.271030895289972637e-02,5.638756155967712402e-01
6.060723858215339988e-01,6.195092030178850351e-01,1.500568809024893646e-02,-3.595523442155491856e-02,3.796477966584176078e-02,4.058624790767526719e-02,6.087909936904907227e-01
6.099691333000470950e-01,5.562545759707914206e-01,8.937325157786946139e-03,-5.705968173563651796e-02,2.696720976493142269e-02,2.365165820670899963e-02,5.877649784088134766e-01
6.124773999079973219e-01,5.740563708395453046e-01,5.766800221312873287e-03,-7.118004797326302202e-02,2.762109837548755442e-02,3.324575124894169065e-02,6.058613061904907227e-01
4.502700930495778797e-01,6.073853005067897382e-01,2.472958931452368114e-02,-1.406637371881812870e-01,4.999571611623301187e-02,3.315421242020010623e-02,5.854775905609130859e-01
6.128725575055917751e-01,5.627550524284572475e-01,3.056551605671309346e-02,-7.324707070332604764e-02,2.609300677464132870e-02,2.461307704822894571e-02,5.765109062194824219e-01
5.029922431487452439e-01,6.267446111175345447e-01,2.802241337941835386e-02,-1.775508872867812560e-01,2.345247563953355152e-02,4.363070272848663250e-02,6.337377429008483887e-01
5.487669603311140509e-01,6.269751854492545684e-01,1.648353261717666607e-02,-8.805494335751326562e-02,4.157019992719803575e-02,2.434119878441163079e-02,6.010772585868835449e-01
6.666767832609528099e-01,4.515469263432446700e-01,2.453155268159834534e-02,1.742614791022346898e-01,7.431314395537838569e-02,-1.017304208112196490e-01,6.776447892189025879e-01
5.005575697301406501e-01,5.282583705943666441e-01,2.136557032699748504e-02,-1.536226675330344404e-01,2.916841592542933348e-02,2.060254260099598361e-02,5.641736388206481934e-01
6.858122212611945656e-01,6.242376344493825169e-01,3.705686449780210001e-02,4.356556466585274900e-03,-2.036061638621411082e-02,-2.824428300138856485e-02,6.232350468635559082e-01
7.110814315234078586e-01,6.474741087869531064e-01,3.797920276986060939e-02,-2.331566901203549827e-02,-2.320701070923225293e-03,-3.864318395957917762e-02,6.484020352363586426e-01
6.541579631000740136e-01,6.370832111049384849e-01,3.193377610124742416e-02,-3.684858177806629286e-03,5.376546036102450516e-04,3.538529480206407951e-03,6.139293909072875977e-01
6.554998321663787486e-01,6.096670563536976672e-01,6.574265556348202200e-02,9.722426364384554372e-04,-1.729787543813557545e-03,-4.796797115040922423e-04,5.682398080825805664e-01
6.602786451455022743e-01,6.230717615761561801e-01,6.648647140042801551e-02,-1.106382348259048708e-02,9.856675537807861685e-04,-7.957909642192573848e-04,5.764133930206298828e-01
6.548526661883024014e-01,6.369600207812193826e-01,2.823200847369083943e-02,7.738929719936644448e-03,-1.218670995279315557e-02,-3.286935275124753392e-02,6.209896206855773926e-01
6.767600503602471118e-01,6.078969415834348800e-01,6.463212140345309109e-02,1.493428947826640901e-02,-3.638522362576296614e-03,-7.089786183904435782e-03,5.815060734748840332e-01
6.692339366747391827e-01,6.628629781086188277e-01,4.079832697079999182e-02,1.533180836037451381e-02,1.383214076521188489e-02,-5.608603496213460798e-02,6.337856650352478027e-01
6.441564456527948401e-01,6.092909364037810693e-01,4.303403990981613525e-03,-7.957219978072867239e-03,1.437552303486509635e-02,2.415585408280016000e-02,6.252033114433288574e-01
6.228461069442423614e-01,5.821924719510500612e-01,-8.412004767074043876e-03,-3.552206789970183826e-02,2.560557869029250234e-03,1.052989142617133562e-02,6.153164505958557129e-01
6.289143156151086878e-01,6.099950564828376942e-01,-5.642235399027695220e-03,-9.463147381864147820e-03,1.551717942331586400e-02,1.422794778315006857e-02,6.265883445739746094e-01
6.090993527143844233e-01,6.077370500600979275e-01,-1.451937029425254266e-04,1.281749845733302917e-02,-1.057616096012552881e-02,6.023516141037011523e-03,6.093341112136840820e-01
6.294096000856324036e-01,6.005930855654499911e-01,-2.612628530488658729e-03,-9.307648111538103369e-03,1.555743550398017323e-02,9.957160315002974715e-03,6.191552877426147461e-01
5.975294038370642102e-01,6.239883934702583623e-01,3.885465857516978705e-03,-4.683199831895497323e-02,1.597479634105148164e-02,3.567101593450378028e-02,6.164276003837585449e-01
6.082986208672809259e-01,6.300892426934594504e-01,-1.073044245880311331e-02,1.068082924813818120e-03,5.083140675305885745e-03,-5.194305808055747070e-03,6.303353905677795410e-01
6.149833273270757239e-01,6.269494370852656262e-01,-1.336385224653285908e-02,-1.675390403038523254e-03,3.637237376439313294e-04,2.485752837147755124e-03,6.344364285469055176e-01
6.448438763848337585e-01,6.052556159386197621e-01,-1.474134687075134842e-03,-3.643100306225353913e-02,2.659886280311865581e-02,3.290737449503816636e-02,6.348704099655151367e-01
6.187414799606758553e-01,6.458356065421260173e-01,1.323611668921476081e-03,3.487974272259920100e-02,-3.608308398555779006e-02,2.279748725548384758e-02,6.385782957077026367e-01
5.898465160904217131e-01,6.320198024557731609e-01,9.133923189577120016e-03,2.102995853768051954e-02,-2.931661946899579568e-02,1.917944143606644877e-02,6.070461273193359375e-01
6.253173984989561784e-01,6.333126638358501648e-01,9.709102579030293168e-03,9.192027429325464252e-03,-2.400947365721274943e-02,1.914462792145486814e-02,6.221268773078918457e-01
6.286717785925387547e-01,6.354576928479376274e-01,1.021883876601281660e-02,3.133465817786439470e-03,-7.445832359842071389e-03,3.247207748981353718e-03,6.220564842224121094e-01
6.243784650045929308e-01,6.171505576978129071e-01,-4.481702493100148121e-03,1.293519902777491744e-02,-1.480977959021011377e-02,1.795825045214200985e-02,6.269764304161071777e-01
5.483361286062322648e-01,6.824795488848716118e-01,-1.588052664192463048e-02,-2.018255358678070280e-02,-5.227018995264505474e-02,-1.525615789447725724e-02,6.497212052345275879e-01
5.321841945298138032e-01,6.897821919949276293e-01,1.405769386627619966e-04,-5.394049433289323410e-03,-2.052725325182430324e-02,-5.095718903196234766e-03,6.270453333854675293e-01
5.803685203793497172e-01,7.162503710996015460e-01,4.543697562362231102e-02,-3.719893376169583488e-02,-2.199821096391098990e-02,-9.157221014050402879e-04,6.187961697578430176e-01
4.565225663876782414e-01,7.424465889463682799e-01,6.673709067429756114e-03,-7.193135816554291351e-02,-4.913071888216541394e-02,-3.447770265614676782e-02,6.626229286193847656e-01
4.979213280648077111e-01,6.883345568123317992e-01,-1.569783735116514478e-03,-1.655427853877605021e-02,-5.314588180232091702e-02,-7.667559955656512265e-03,6.247641444206237793e-01
6.174773219169416016e-01,6.525583040862021900e-01,-1.795010187708279137e-03,-5.545330177550105918e-03,-2.208286957013179397e-02,-9.438259740661246802e-03,6.389648318290710449e-01
5.814745097471725188e-01,6.919928309592002780e-01,2.131619914197646626e-02,-3.825872463374185156e-02,-1.846531890170055937e-02,1.616022241586249865e-03,6.271533370018005371e-01
6.238513617333811823e-01,6.699426435456465878e-01,-2.784459992942744933e-04,-1.996172975605378652e-02,-2.323728747258212504e-02,-3.259085126008942103e-03,6.505970954895019531e-01
6.366611109203368368e-01,6.442115624556846720e-01,1.327010635855178089e-01,1.559157449100339850e-03,3.572242994082717830e-04,1.907396314875850485e-02,5.088585019111633301e-01
6.355101774418063787e-01,5.853760429317512726e-01,-9.835137382789571614e-03,-2.235271999423181846e-02,-1.473148926025708190e-02,-5.038612647439935470e-03,6.235834360122680664e-01
6.390412276099701749e-01,6.109400214092300940e-01,-6.342606440256526312e-03,-7.732793524374478693e-03,-2.819531574888264544e-02,-2.074961347394114336e-02,6.348463296890258789e-01
6.206116777266692530e-01,6.191140143602724688e-01,1.240506078097053377e-02,-6.237208151244234312e-03,-7.114207577885966506e-03,-1.056753266993537381e-02,6.079557538032531738e-01
6.244269702438443037e-01,6.331216405350671428e-01,-1.929858489146674128e-03,-1.405474727094264964e-02,-2.283489672384734007e-02,-2.189326011946277420e-02,6.335923671722412109e-01
6.211018823276326373e-01,6.174577822692111084e-01,1.319770525489694091e-02,-1.035895091899116140e-02,-5.963188038964483025e-03,-1.187089998594515437e-02,6.067922711372375488e-01
7.285171707596173052e-01,4.650570058294903331e-01,-1.621931751948862965e-02,8.104440730095585632e-02,-3.247783316286024027e-03,-4.345698923125157487e-02,6.732288599014282227e-01
6.843173188993683098e-01,5.941319874166050008e-01,2.737644605120770347e-03,-7.344242624146242460e-03,-5.700530682157717126e-03,-3.116089339761278498e-02,6.437298059463500977e-01
6.329122203776508249e-01,4.752871281384475344e-01,2.658128023377465121e-02,-7.312820228536032197e-02,-1.924743297324826245e-03,8.270606941979379706e-03,5.596154332160949707e-01
6.514334113573734264e-01,5.957150977924989821e-01,-7.827848311180274354e-03,3.876059385451017299e-03,3.488719705708673291e-03,-9.245645276961927603e-03,6.335101127624511719e-01
6.574474524917042206e-01,5.027805699192590128e-01,-4.703247713559788323e-03,-3.179784825555405370e-02,-1.342246538820209001e-02,-2.191459962751531737e-02,6.041251420974731445e-01
6.557411858555824979e-01,5.048580026682565336e-01,-4.535223974986291040e-03,-1.231898841726692360e-02,-1.335915925347477828e-02,-2.503392742241880922e-02,6.016451120376586914e-01
6.417573287723516984e-01,5.846298338810178574e-01,9.149999096643546270e-03,-1.856372028664942872e-02,-1.750137370167339709e-02,-1.207335130642084656e-02,6.080347895622253418e-01
6.710198306654735489e-01,5.572981214855693421e-01,1.841872743643130361e-02,-1.865161120768899297e-02,-1.642992337526284069e-03,-2.109718697155819542e-02,6.057994365692138672e-01
6.695655554905373119e-01,5.934861962018411763e-01,-2.067783001440615109e-03,-8.841329324908503082e-03,2.436092354902152750e-03,-3.150340786002969740e-02,6.395401954650878906e-01
6.294321248925378587e-01,5.846076812687255320e-01,-7.772816263220516664e-03,-2.348241568875099328e-02,-3.143863342623422034e-03,-4.534743930338516228e-03,6.174322962760925293e-01
6.434261328332381291e-01,5.123632772212121100e-01,3.333641572171702760e-02,-5.233279494624148293e-02,5.584412289471449818e-03,-4.216033090394326679e-03,5.637285709381103516e-01
6.780806001119756843e-01,5.333221475033398384e-01,-1.191304725897124328e-04,1.380898853867752523e-03,-2.681146160073664617e-02,-2.965336455756714673e-02,6.225230693817138672e-01
6.547167397346526085e-01,5.993564455206463748e-01,-7.474916487700822287e-04,5.836722050954228601e-03,-3.888296139002592276e-05,-3.596202601946973249e-02,6.327664852142333984e-01
6.679244791902337886e-01,6.244253179656189534e-01,-3.027067113471448856e-03,1.075673697918048087e-02,8.329221734584503403e-04,-5.165358056731668077e-03,6.506239771842956543e-01
6.787636891125763405e-01,5.592748951330032137e-01,-2.819621426936369524e-03,8.531606120050744257e-03,-8.387846853575279052e-03,-5.649409395249054000e-02,6.382758021354675293e-01
6.958234437513373116e-01,5.540569357555964469e-01,2.805827327263205051e-02,1.488046402994339622e-02,1.882429907224719354e-02,-3.377449660317620450e-02,6.135885119438171387e-01
7.397352382079656063e-01,5.538539942057361110e-01,-3.908792750771827862e-03,-8.034940556478166462e-03,1.329357088983969433e-02,-5.282082492794483441e-02,6.770692467689514160e-01
7.102021730991980863e-01,5.586197814661494343e-01,-1.108009008327803802e-02,-4.778151720115734850e-03,-2.720069352937759533e-02,-3.447970350896286534e-02,6.631336808204650879e-01
6.270797339024778427e-01,6.102261540617928137e-01,-1.514178757794748531e-03,-2.206374438293678270e-02,2.243969352223394026e-02,2.176007295713478992e-02,6.238684654235839844e-01
6.001900293917876716e-01,6.597225777424267079e-01,-2.078368248674800078e-03,-1.173892079990673278e-02,1.048838213274662888e-02,1.231460182621185555e-02,6.350781917572021484e-01
5.597422655495774002e-01,5.571254512165559891e-01,2.624065346580134461e-02,-3.539686568184310933e-02,-6.084233486249391969e-03,-7.605518462896255528e-03,5.359833240509033203e-01
6.194254393320953733e-01,5.893838441511130011e-01,-1.553684772429453353e-03,-3.222986917094478043e-02,1.866435307033112792e-02,2.817729143271396203e-02,6.118869185447692871e-01
6.089825363729436392e-01,6.167515731701986859e-01,-5.671057011499169853e-03,-6.973304348693438320e-03,1.313056129996719237e-02,1.231511579298095668e-02,6.194778084754943848e-01
6.146446660297223419e-01,6.203816822352997695e-01,-1.130167579643076570e-02,-1.818805573255617616e-03,5.649869735306943877e-03,7.697709157425598227e-03,6.290597915649414062e-01
6.752852840753290620e-01,4.115231728128546651e-01,2.630754504510141034e-02,-1.711468807655683322e-01,-1.901354096498848387e-02,-1.469614421310505743e-02,6.396663784980773926e-01
6.237514600711869805e-01,6.184661218696049234e-01,-6.316370221187916911e-03,-2.704241328784563834e-03,1.056743275054591001e-02,7.149263200865479083e-03,6.278483867645263672e-01
6.223158884420050274e-01,6.297912602070168120e-01,-1.085410623913757311e-02,-1.083713310816768194e-03,2.758272541395528216e-03,-1.299990664456424127e-03,6.369652152061462402e-01
6.262312738766310227e-01,6.137538042521204495e-01,1.752890834771309025e-02,-4.530529914528100971e-02,-1.426366668910406844e-02,2.258951116484469307e-02,6.094080209732055664e-01
6.328831444393794303e-01,6.112074151445132664e-01,1.512862204197645832e-02,-7.995366013372893349e-03,7.935800728513566979e-03,1.334772117887321778e-04,6.075203418731689453e-01
6.329258753993591835e-01,6.255664556857924996e-01,3.632228346276145103e-02,-1.169491394841420777e-02,1.073091229892884435e-04,-9.515770206257162175e-03,5.935329198837280273e-01
6.512316115176719489e-01,6.120737230640382887e-01,2.368157685590360773e-02,-1.147160777984155763e-02,-2.998470088212362369e-03,9.291727400947554297e-03,6.094748973846435547e-01
6.308359550282605088e-01,6.278668200160629764e-01,5.395873578949966776e-02,-7.758312404562384308e-03,1.430044071695372489e-02,-4.135789759475004546e-03,5.761325359344482422e-01
6.400977029374549376e-01,6.252390560997285185e-01,5.507182554956380205e-02,3.668904233208924569e-03,-1.555059734649170446e-02,1.010996633012991750e-03,5.784049630165100098e-01
4.667112168549992224e-01,6.916116634937932162e-01,-1.705270572155709319e-02,-2.447147287318081864e-03,-3.863302189323621766e-02,7.046249503133675436e-03,6.309127807617187500e-01
4.197857765304134348e-01,7.028339955841413911e-01,2.202850356655944308e-02,-9.365776569364166193e-03,-2.001646874852393634e-02,-2.407498484874608883e-03,5.936279296875000000e-01
3.661519010768695681e-01,7.080083543190637263e-01,2.976388584529882086e-02,1.193291295560246039e-02,-5.033348229436200583e-02,1.217679531885421801e-02,5.945515632629394531e-01
3.494919942947082303e-01,7.426493449601139218e-01,1.975850936901946131e-02,1.817803651543612939e-02,-9.790735312174704552e-02,1.654536763417295900e-02,6.507719755172729492e-01
2.926543136693945946e-01,7.376099614753102163e-01,3.033024779722065523e-02,-7.196647128336004784e-02,-1.147267289239961019e-01,-2.410400964120147302e-02,6.635429263114929199e-01
3.610153674743521446e-01,7.071800512337631517e-01,2.875806532464386667e-02,-1.623685967940124639e-02,-5.323183738615273192e-02,-1.404168231140452694e-02,5.959227681159973145e-01
6.061503481176622188e-01,6.068206168673717649e-01,-6.151991537817536049e-03,-1.315732419482602486e-02,1.001792714092568197e-02,7.998234998832060363e-03,6.134634017944335938e-01
6.022599309797974643e-01,6.345622149520937505e-01,1.115478662031821333e-03,-5.518440561099598879e-02,2.853433957857283779e-02,2.347242768228981896e-02,6.285442709922790527e-01
5.852993470034278944e-01,6.346005134358121413e-01,2.766261462179231412e-03,-3.941900045953477399e-02,3.289869808619039215e-02,2.428877052072881543e-02,6.165819764137268066e-01
7.190570292480280568e-01,6.269121937138809608e-01,2.887620902635523734e-02,2.467251865370453587e-02,3.804852647393715086e-03,-3.580631958404009718e-02,6.534214019775390625e-01
6.886060267078416564e-01,6.309741601143076251e-01,1.084478459205495682e-02,5.605916873395339062e-02,3.129333496865279590e-02,-4.370900221002371744e-02,6.646188497543334961e-01
6.665608117696378843e-01,6.598087313221393524e-01,7.109294738215593545e-02,-2.194877649644812363e-03,-6.948431598716916895e-03,5.706189801970774911e-03,5.923376679420471191e-01
6.195923030955423627e-01,6.273862352460229941e-01,-1.083346026629794512e-02,9.449322634644965286e-04,1.349135749828151397e-03,2.342572792902379835e-03,6.343780159950256348e-01
7.143301074423429320e-01,5.679877083678660510e-01,6.629885968540832897e-02,1.007330903001173866e-01,2.801673936054392688e-02,-7.987406660217774568e-02,6.312384605407714844e-01
7.119724929508413069e-01,3.744113852384600150e-01,3.196302734640188437e-02,-6.060358786820419646e-02,-7.256487216621864376e-03,-1.449183519738095685e-02,5.988506078720092773e-01
5.824089539617345324e-01,6.453976137647037259e-01,-1.246219686819816097e-03,6.786588094183035151e-03,-3.266782078239497539e-03,-7.252416387939709247e-03,6.178289055824279785e-01
6.048104609160064316e-01,6.367693057807524148e-01,-3.656060836788432855e-03,3.669190552732397304e-03,1.928732985333775352e-02,-1.348147159169819052e-02,6.264187097549438477e-01
5.604095206566149789e-01,6.497368000568038982e-01,-2.898761112612890933e-03,4.056913179608340886e-02,2.979995856224000247e-02,-1.562770135404026664e-02,6.196359395980834961e-01
5.714824965032790915e-01,6.409036392995164366e-01,-2.713681446111282369e-03,1.636050361266959061e-02,1.807468937808471079e-02,-1.802851730463211552e-02,6.141173243522644043e-01
6.187627411165033120e-01,6.350606025984422143e-01,8.521870452526059125e-03,5.769501309688042368e-03,4.377662010403406481e-03,2.686750225815229699e-03,6.186955571174621582e-01
6.177775554671997016e-01,6.096455026765688068e-01,-4.435100558151494621e-03,-1.321962941944002058e-03,-1.133357775356587729e-02,-1.069959579600941561e-02,6.187801361083984375e-01
5.797054149786511346e-01,6.336609336343250742e-01,-3.219643145578321430e-03,1.943235432281989125e-02,2.045782196177882428e-02,-2.032750738461606976e-02,6.146485805511474609e-01
6.148864024390938710e-01,6.253041822244941317e-01,-2.408603569676648348e-03,1.242287118649644528e-02,1.596380759359287277e-02,-1.299451290949494957e-02,6.239603757858276367e-01
6.136196284604142903e-01,6.000042781088247290e-01,-7.343915363517139472e-03,-1.027532423144075086e-02,1.159199338909236432e-02,7.831069422089770651e-03,6.150043010711669922e-01
5.703935205333641179e-01,5.787229362280950085e-01,3.006734068639244084e-02,3.276216905307620733e-03,7.922870519821734745e-05,-5.477164900115149377e-04,5.445690751075744629e-01
6.196990269626670989e-01,6.171920601709595111e-01,5.154843870492864522e-03,-9.207183908426879587e-03,1.170885822114609703e-02,3.736908746663400969e-03,6.138710975646972656e-01
6.222326735890523208e-01,6.186509967214234296e-01,-5.056155523382510619e-03,-6.496467598123146191e-03,1.476462836745489303e-02,9.409694903809249361e-03,6.263414025306701660e-01
5.959781785079997229e-01,5.945432950794071747e-01,-1.165667390230828993e-03,-2.909390123335658246e-02,1.979400987377651772e-02,2.769872770098294815e-02,6.014502644538879395e-01
5.772990587939257345e-01,5.631836753254777506e-01,2.990304502070023629e-02,1.219273583725776801e-02,3.015142432368304089e-03,-5.908998991949077507e-04,5.409151911735534668e-01
5.938985727801824321e-01,5.648772131452937106e-01,2.439734983710578620e-02,3.512830919082804426e-02,1.304801558804983934e-02,-1.625189455533194299e-02,5.600457787513732910e-01
5.893800305976448772e-01,5.232777536470846202e-01,2.973227866419558829e-02,2.405816393519657689e-02,3.262692559152862663e-03,-2.596251664778807897e-03,5.313846468925476074e-01
5.909423214441194006e-01,5.311799394357862303e-01,2.284215444208259616e-02,2.474754982255130201e-02,7.510345118285549626e-03,-6.143161414974914088e-03,5.426583290100097656e-01
6.050996688733140116e-01,5.866535597427596782e-01,4.367281095176978045e-03,5.635395678422568805e-02,-3.724983378744507051e-02,3.461972158910731762e-02,6.061550974845886230e-01
5.523413345856387213e-01,6.197055198852347013e-01,1.047435982088557038e-02,1.339600284591457302e-01,-1.741386135199205279e-02,5.272604492828381756e-02,6.306709647178649902e-01
5.792769989695698563e-01,5.587626098630009697e-01,1.646430044779145785e-02,5.265896962315413238e-02,-2.016490141750697240e-02,1.648547433788894942e-02,5.621274709701538086e-01
6.126804155785222639e-01,6.179195582117695817e-01,-7.259210342724753406e-03,8.440903508167190220e-03,-1.330104450138100934e-02,1.680689138793255155e-02,6.238529086112976074e-01
6.196158238314262157e-01,5.900499828435568084e-01,3.580061791356947687e-03,4.251207936666413084e-02,-4.170913930398364999e-02,3.861168118341577055e-02,6.142262816429138184e-01
6.135800645539049025e-01,5.977055252210288216e-01,-8.310490382564761358e-03,1.553398608180119912e-02,-1.887399583381276988e-02,1.715398389239683463e-02,6.162816286087036133e-01
6.119526384227658156e-01,5.916550033926066821e-01,-8.618547083609151560e-03,3.857767859069453908e-02,-1.769911618714544582e-02,2.171005669264575513e-02,6.162328720092773438e-01
6.149883530087111305e-01,6.059466410200406994e-01,-5.720369564092941950e-03,-4.863292606726285494e-03,-7.592119137903555366e-03,-6.841521911167521355e-03,6.165493726730346680e-01
6.080126961487003490e-01,6.155751058505118944e-01,-4.149979425728755889e-03,-7.672633471657424806e-03,-1.146928451936939618e-02,-1.310305844745751104e-02,6.168598532676696777e-01
6.171058977765345732e-01,6.174836573508032389e-01,-6.776739383805741035e-03,-1.014482535498550594e-02,-1.210426406666418805e-02,-8.638307116826584447e-03,6.248499751091003418e-01
5.585749636270647134e-01,5.617804986520591459e-01,3.267279510848541957e-02,-3.417296858988404934e-02,-1.989857290485920732e-03,-8.747184268759828274e-04,5.308358669281005859e-01
6.094319641533119114e-01,6.088881813120784470e-01,-2.563166689630802519e-03,-2.385910595518598177e-03,-7.332170852303378748e-03,-7.734164423657351357e-03,6.120157837867736816e-01
6.099818757541266567e-01,5.924629739808209283e-01,6.123357103496318565e-04,-1.268704568044238742e-02,-1.427921312540705694e-02,-1.137908624304031710e-02,6.020346283912658691e-01
6.102655364726916609e-01,6.176184863814999648e-01,-1.147170036392447523e-02,-5.137833868445601526e-03,-5.434582580832810969e-03,-5.257054496711367070e-03,6.256465315818786621e-01
6.886761565831286402e-01,4.642623985249840768e-01,2.735969666888882212e-02,-9.391131949389597278e-02,2.035041892094477736e-02,2.772506556206554701e-02,6.076996922492980957e-01
6.867593653794914488e-01,4.413570583130744240e-01,3.059027542256298471e-02,-1.067056294481769502e-01,8.639498014016111851e-03,1.944207083570187802e-02,6.043764948844909668e-01
7.481224466470433043e-01,3.437362505489247599e-01,2.317350059005218732e-02,-8.803019130392976399e-02,1.107676863781495089e-02,3.918669555812819699e-02,6.512623429298400879e-01
6.962120639978317538e-01,4.302256121373197462e-01,2.618725129817056629e-02,-6.644621856245601366e-02,2.403817260916734158e-02,4.075100070194258295e-02,6.011865139007568359e-01
6.536351205388332142e-01,6.579718140003817384e-01,1.067022147751915950e-01,-1.186646903095567654e-02,3.878175869976589057e-02,2.443697318370345942e-02,5.552047491073608398e-01
6.164377912057329434e-01,6.546676885813946800e-01,3.873975307984034444e-02,-2.043684217561833258e-02,3.677577243607141333e-02,1.428693019608356755e-02,6.026645898818969727e-01
6.273191196723095775e-01,7.041720923043718328e-01,6.190535486049530967e-02,-4.746770511260317571e-02,2.341926179971979410e-02,4.268285271447253698e-02,6.188079118728637695e-01
6.456952561021838122e-01,6.706977182892825962e-01,6.425111238760522481e-02,5.212207542711978607e-03,-9.099086502338829541e-03,3.438392217472853278e-03,5.946472287178039551e-01
6.282373372861160821e-01,6.460291893474084945e-01,5.021185627810431651e-02,-4.172598510932380191e-03,-1.323909530661436171e-02,1.525010353334607660e-02,5.882090330123901367e-01
6.229688633735708247e-01,6.444398861920181965e-01,9.645669876771173490e-02,-1.929215439999409226e-02,2.019267632331719908e-02,1.623676530812531021e-02,5.404734015464782715e-01
6.082021435078974747e-01,6.244069611903886319e-01,-1.623371115704247414e-02,2.374548555259844290e-02,-8.001705613993216962e-03,3.763075864573944135e-02,6.375213265419006348e-01
6.034962284635023710e-01,6.472850669255834077e-01,7.211042158546898673e-03,1.064824744882202946e-02,-1.231797469410880405e-02,1.009139696051180972e-02,6.202297806739807129e-01
6.043781563368306742e-01,6.267051570689126105e-01,1.391808887442075315e-02,8.955275497542989835e-03,-1.203909600373600716e-02,9.290173534181420112e-03,6.027098298072814941e-01
6.003495278140621449e-01,6.327082372175468761e-01,1.549542286825916770e-02,1.530843131758066397e-02,-1.219851774122125525e-02,1.395600121172098536e-02,6.031254529953002930e-01
6.151120075241151008e-01,6.185626667876349405e-01,5.055931912819733309e-02,3.313606593854291626e-02,-3.337567422551174917e-02,3.069485900822498115e-02,5.745798945426940918e-01
6.190873402488306088e-01,6.282857420691365657e-01,-1.202987553194906356e-02,-2.164684979460092511e-03,2.187046194001484797e-03,-2.598714699425303930e-03,6.358045935630798340e-01
6.266010845313668698e-01,6.475079569476662744e-01,6.419691197937960059e-02,2.221175596001427610e-02,-2.540280976505078156e-02,-5.880876008276555815e-03,5.762060284614562988e-01
6.024077295271249577e-01,6.433728235985838317e-01,6.389600023953834196e-04,-3.765932333164849488e-03,-1.126830024063265635e-02,3.327062239773461490e-03,6.236280798912048340e-01
6.044927235524986120e-01,6.435952906008191032e-01,-5.368102135628938232e-03,-2.755670037580754909e-03,-1.457035078042626108e-02,1.779905610162537928e-03,6.308529973030090332e-01
6.055318228668703506e-01,6.340660668787031495e-01,2.801946807589339450e-02,2.572671114516615707e-03,-9.425111453114504156e-03,2.542407000898446248e-03,5.925532579421997070e-01
9.721431994415191680e-01,3.473532793568689936e-01,-3.689814725785112159e-03,-9.426176253668587524e-02,1.247720556504300533e-02,9.038019026180900417e-02,8.857485651969909668e-01
6.116368901343030018e-01,6.314545809246325803e-01,3.220540820187889341e-02,-5.381766091315882440e-03,-4.783703192637930174e-03,-6.931240991085049069e-03,5.898442268371582031e-01
5.969476919546194971e-01,6.400867436059254345e-01,-3.150508796603279649e-03,-2.954865307753724944e-03,-1.622560838675889128e-02,-1.089473881175651027e-02,6.237295866012573242e-01
6.008460455302773173e-01,6.367227953465746104e-01,-1.122519588602355345e-02,-1.263678871056826128e-03,1.984545621640156771e-03,-5.474841899815095086e-03,6.308597326278686523e-01
6.428009692136141817e-01,6.320593080017469223e-01,5.105864997988174281e-02,1.100728446115552782e-02,-1.339727432692619687e-02,-5.605011935448360070e-04,5.872145891189575195e-01
6.465798900558666906e-01,6.326153629420137037e-01,7.290924383572489065e-02,7.709917842921127154e-03,-5.572617600037473029e-03,-9.315006168259054933e-03,5.672863125801086426e-01
6.407838332024373695e-01,6.111959797841577391e-01,-2.312428115414133512e-02,3.013371108364796061e-02,2.125223878207617781e-02,-2.404640358026467750e-02,6.540791988372802734e-01
6.238710761420098727e-01,6.345263217620050744e-01,4.838855033398536953e-03,-4.712082391185683922e-03,3.925542179701440107e-03,-9.308191486156568509e-03,6.247264742851257324e-01
6.303479334513915067e-01,6.278951562270707054e-01,4.807003553869482193e-03,-6.102141960925500574e-04,6.354257285318386413e-03,-4.830177199312804710e-03,6.244720816612243652e-01
6.358794121022459667e-01,4.870968723500450070e-01,3.116908950071284323e-02,-5.644929461709004281e-02,2.604181029806234768e-02,4.178489906817817179e-02,5.609567761421203613e-01
6.326492258524762935e-01,6.483570492909401795e-01,-1.275988159741864303e-02,1.945883089082259612e-02,1.574125754515358702e-02,-1.376304305232090887e-02,6.552748680114746094e-01
6.629810812799006303e-01,4.554333707177140589e-01,5.667328143623417969e-03,8.527968112366930697e-02,-1.535042773945833119e-02,4.431581957197130300e-02,6.059124469757080078e-01
6.261969767159498712e-01,4.660731084681247749e-01,3.077056101984265712e-02,1.028969616663250319e-01,-5.650984786430611993e-03,8.343595793699056656e-03,5.629372000694274902e-01
5.882911844406083501e-01,5.577505597450262975e-01,1.630025027665837900e-02,4.474812227245678065e-02,-2.659520722343357985e-02,3.275284993404033174e-02,5.674369931221008301e-01
5.864093361917135372e-01,5.141404132197302523e-01,2.935511190092637834e-02,2.029265621268669939e-01,-6.947091950191431470e-03,2.806448826936913665e-02,6.334980130195617676e-01
6.317808474862135482e-01,5.155219817744554067e-01,3.568568403341876305e-02,5.880647516561889054e-02,-7.939078656638343112e-03,3.093041964628668542e-03,5.568991303443908691e-01
5.797583134785289083e-01,5.788638223274107375e-01,3.758618220078580041e-02,8.669596167106163875e-02,-1.156760885718288896e-02,1.075007975690551662e-02,5.628171563148498535e-01
5.785030531495641837e-01,5.266134962165018862e-01,3.272225931345928984e-02,6.850906501769184198e-02,-1.350793224352458965e-02,7.825729311753940390e-03,5.357802510261535645e-01
6.844245013480070305e-01,5.939633652381446360e-01,-8.468634423771770336e-03,7.271324226073651352e-04,-2.184571365039776267e-02,2.112862004346529807e-02,6.545049548149108887e-01
6.704460734124799703e-01,5.939637529050322273e-01,2.479895703091550274e-02,3.679510244360727905e-02,-5.096863662896403829e-02,8.597591786812384951e-02,6.382474303245544434e-01
5.845707495802080489e-01,5.524795704259358731e-01,-4.393196825011325135e-03,1.235607627996952451e-01,-9.473510785929039821e-03,3.492995226288606730e-02,6.154178977012634277e-01
6.673740455306853558e-01,5.809232208044177170e-01,-4.735994305331614473e-03,4.502701293568073249e-02,-2.126628616166671010e-02,4.388794790377565508e-02,6.436759233474731445e-01
6.346567931047069067e-01,5.567104691228093039e-01,6.886257826106745306e-03,2.238736720771567976e-02,-1.737908668330702053e-02,1.274838437880996926e-02,5.950935482978820801e-01
6.359053428576211253e-01,5.733745990354609523e-01,-7.528181444794501687e-03,1.204726552501739559e-02,-2.634747417863265301e-02,1.566295661529028965e-02,6.172004342079162598e-01
6.643517200719755156e-01,5.494242745734138067e-01,3.703066447772351832e-03,3.311147448615359840e-02,-2.488903577639761666e-02,2.352616685018835835e-02,6.168842911720275879e-01
6.482036906188407555e-01,5.749599947320704896e-01,8.405892255400337909e-03,3.025495832145804614e-02,-6.616448454774252579e-03,3.009212013590770174e-02,6.110963225364685059e-01
6.641847735003904019e-01,5.720487237055903451e-01,7.229056392316079993e-03,2.514084829836707100e-02,-2.672097611916951498e-02,4.572404218542269055e-02,6.243883967399597168e-01
5.815519910388136093e-01,5.573465721717083543e-01,3.415642251212286373e-02,4.677328679756131979e-02,8.748290302250499514e-03,-3.810544990741348680e-03,5.420463681221008301e-01
6.202675980838543435e-01,4.832226033207669413e-01,3.519986492014098856e-02,1.010771307509607669e-01,2.949076290578269907e-03,2.776601729368390753e-02,5.602621436119079590e-01
5.680909073993288816e-01,5.923062926514867099e-01,3.694532809853223743e-02,4.007685003789761280e-02,9.346118350933435570e-03,-7.979217317391550796e-03,5.484846830368041992e-01
5.800106068895729550e-01,5.793167647455922387e-01,3.050698987471700541e-02,9.514190091676696936e-02,1.640830151436452680e-02,-1.354430160043689803e-02,5.745323300361633301e-01
5.396399397237272577e-01,6.515624077029722461e-01,1.693787391388118513e-02,1.128099400304679589e-01,7.089912155091572521e-02,-3.680114099050555559e-02,6.336935162544250488e-01
4.698007874131248096e-01,6.741898266742661905e-01,2.297406825860304203e-02,6.921946056236918943e-02,1.467621272333357804e-02,-7.871535731014822276e-03,5.898826718330383301e-01
5.033416834383965810e-01,6.210508196721981067e-01,3.579685899271467520e-02,1.790523314271892930e-01,6.766515380703780856e-03,2.926034365575833594e-03,6.195402741432189941e-01
6.253871141018454427e-01,6.320376806073246811e-01,7.583243650144344539e-03,-4.923845417554362008e-04,1.252795506695899078e-02,2.804899666687815651e-03,6.215543150901794434e-01
5.511360515938731330e-01,6.267165407721944081e-01,1.172579531629647231e-02,1.624100876295696549e-01,3.179929488975454660e-02,-2.540008391157418458e-02,6.492649316787719727e-01
5.110848910018165325e-01,5.800533762185728914e-01,3.431082600249318881e-02,8.106819776910841047e-02,-3.683655638265011679e-03,-7.129941756420996035e-03,5.337245464324951172e-01
6.400865783147053900e-01,6.152163699501858041e-01,-1.763656231847710032e-03,2.732975469194650481e-03,-8.365499001869202908e-03,2.381847070587745849e-02,6.313173770904541016e-01
6.455769874551717802e-01,5.743503612901815769e-01,2.090473124379016445e-02,3.718542611408299364e-02,-2.884205798963107234e-02,3.206179370508229626e-02,6.004357337951660156e-01
6.345773665047561574e-01,6.280849318098183920e-01,5.277224946887898449e-02,1.180130902157098052e-02,-6.293120039522061976e-03,1.737339256385973113e-02,5.798311233520507812e-01
6.068276314664970972e-01,7.395188898062663441e-01,5.609909792178763288e-02,6.876538802595270373e-03,5.508438572732671928e-02,3.588806859884517003e-02,6.380394697189331055e-01
6.495427671045510554e-01,6.306190917416281128e-01,2.467426697414354386e-02,-6.042999269315610031e-03,-1.630081815123254202e-02,1.792792808169670418e-02,6.171424984931945801e-01
6.590681118856522858e-01,6.125089583766254453e-01,3.098981507278997238e-03,5.443847312797228145e-03,-8.458212797330316246e-04,2.377206272492368710e-02,6.353803873062133789e-01
5.645869293444968351e-01,5.784194057427222146e-01,3.590443016944483423e-02,4.767699325054528675e-02,5.516361479782697086e-03,-7.686142825370638997e-03,5.423073768615722656e-01
5.770475158058854248e-01,5.676660070028016758e-01,2.494935470585485371e-02,-1.078201799856638721e-02,5.854632748478268318e-03,2.771210858378713674e-03,5.479009747505187988e-01
5.641144262582383773e-01,5.106578383461475301e-01,3.093549516074806105e-02,8.272129356155391577e-02,9.329054378628210201e-03,-9.134848669708236016e-03,5.288434028625488281e-01
5.948756726071097178e-01,5.551949633257038386e-01,3.599313006168175511e-02,4.278822514727367160e-02,-6.715961015361489317e-03,9.977775624283903577e-03,5.455949902534484863e-01
6.235276819983051055e-01,6.270889853096972555e-01,-3.235602431927275813e-03,-1.718624531529538242e-03,3.930269371912192139e-03,-1.605166427375282834e-03,6.286015510559082031e-01
5.796435850701944226e-01,5.099153675286050014e-01,2.983090569066731979e-02,7.763970075176375440e-02,-7.989965329158627352e-03,1.128552127622283428e-02,5.361678004264831543e-01
5.471539934209842526e-01,5.460750162736922597e-01,3.640405332906543334e-02,8.316534341023401611e-02,1.291387528986690306e-02,7.250254122427743537e-03,5.307758450508117676e-01
6.340752908115263597e-01,6.220678381677819946e-01,2.549589204618230021e-02,-5.676803170128881483e-04,3.336377980912397061e-03,-1.028725558935181077e-02,6.029572486877441406e-01
6.320711678043592352e-01,6.318023058081109200e-01,1.873307831276649349e-02,-1.332929926414236452e-04,-6.627407210221946711e-03,-1.540995197786489308e-03,6.133170127868652344e-01
6.189229216111722387e-01,6.416358258377409252e-01,3.839298976239696737e-02,-1.686516664542520375e-02,7.706033174391607211e-03,-9.085915205380276985e-03,5.932921171188354492e-01
6.351726967021630310e-01,6.299396116713976701e-01,3.063814450360990982e-02,-1.046462048743451029e-02,-1.172762746503431923e-02,-6.349575255374038420e-03,6.026507616043090820e-01
6.263218080286070411e-01,6.431366438235250893e-01,5.647209476057513111e-02,3.201720400418169021e-03,-1.248968658463494447e-02,-1.773007184683694087e-02,5.796853899955749512e-01
6.317301809245041699e-01,6.280235336148660696e-01,1.516156826409470471e-02,2.641057323172767667e-03,-9.044704904898368675e-03,1.620705577995811431e-03,6.149466633796691895e-01
6.645735074247763885e-01,5.581735266652338989e-01,-1.632208962193015811e-03,-2.867040543972463381e-03,8.843256096398575614e-03,-1.278513736561805690e-03,6.201055645942687988e-01
6.864928559469898328e-01,6.317774601110942578e-01,8.154876603894772868e-02,-1.370642844879579880e-02,8.785038762473823884e-03,-6.660811557743387921e-03,5.803271532058715820e-01
6.555019904233743144e-01,6.326317537113426148e-01,3.556698586891693381e-02,-1.799343779315087900e-04,-1.826897662013874518e-02,-1.009544748937188201e-02,6.098946928977966309e-01
6.081000485317107351e-01,6.465775948744810764e-01,3.612095267504500384e-04,3.967939771491983008e-04,-2.053376077853296885e-02,-1.520242770374139471e-03,6.288748979568481445e-01
6.163829459788308096e-01,6.166279033533578202e-01,-1.284980525198248236e-02,-3.875000928623911029e-04,3.012564356936078911e-03,-3.697031557111748589e-03,6.294098496437072754e-01
5.507928396373779067e-01,6.480552692795737979e-01,-2.671931865958598884e-03,6.107361850671411303e-03,1.018357899016151570e-03,-3.837006424707965096e-04,6.080542802810668945e-01
6.207296066330386664e-01,6.780995866954349083e-01,1.296273617843290982e-03,-2.160665341628832323e-02,-1.814277861539823067e-02,-4.685385172988092845e-03,6.519047021865844727e-01
5.357255820279582803e-01,6.839689617661917076e-01,2.533321977958752358e-02,-1.506450614954059006e-02,-3.344539912471349019e-02,-1.198739263589452056e-02,6.021681427955627441e-01
5.412911136523921307e-01,6.661353399973384271e-01,-1.742999470150941033e-02,-3.724769158658838841e-02,-3.573128797571802767e-02,-2.135090894065333825e-02,6.378623843193054199e-01
5.745870303300396609e-01,6.393229161915054970e-01,6.512636142258498850e-04,-2.234990206806668558e-02,-1.407973408302972546e-02,-1.190829959975647605e-02,6.109549403190612793e-01
8.987208728872675412e-01,7.749608327403982866e-01,1.318565432943257787e-01,-4.258658755181739947e-02,3.320432893052253226e-02,1.127124214587554712e-01,7.452187538146972656e-01
6.181250120192212094e-01,6.536762902261610275e-01,3.767202408948844283e-03,-1.394518016014802304e-02,-2.622291542228152861e-02,-2.325760637399691341e-02,6.362465620040893555e-01
5.441344562790286776e-01,6.605670335056255116e-01,-2.528476014031277863e-03,-2.867194769973591822e-02,-2.393028240780247992e-02,-1.999552022413750643e-02,6.176001429557800293e-01
5.361065719569177990e-01,6.992590239318956513e-01,-1.327383468318477089e-02,-6.679177537309722440e-03,-3.393651993357926777e-02,-3.397899300304334930e-02,6.520144939422607422e-01
5.763949119823412737e-01,6.396775207611284930e-01,1.708931424415233158e-02,-3.389773159647669482e-02,-3.238511194641165158e-02,-1.785129534224328199e-02,5.998094081878662109e-01
5.571938548765291710e-01,5.960023749696070627e-01,3.992277367654284426e-02,-4.703874147472071610e-02,-1.384762543453192055e-03,-2.632910347763848559e-03,5.438882708549499512e-01
5.560936882983719132e-01,5.615826622141424362e-01,3.675821841575427351e-02,-3.755264845937045237e-02,-9.696974053917401925e-04,-3.661704740935310069e-03,5.261784195899963379e-01
5.728913047834495176e-01,5.830623937780681221e-01,2.847293564631864227e-02,-8.585246793599826676e-02,-1.751743496036143460e-02,-1.733471125351346287e-02,5.709344148635864258e-01
5.260488116107367995e-01,6.713997744179337479e-01,1.764383699257154881e-02,2.020301536156400568e-02,-4.697283358039048423e-02,1.498427247496173301e-02,6.016785502433776855e-01
6.351917257096195701e-01,6.304503470729563297e-01,1.551294223454446897e-02,1.535140010319573610e-02,-7.931681692160944333e-03,3.030118257978661918e-03,6.180691123008728027e-01
6.112732434982980356e-01,6.309217330050542749e-01,1.178915865244367644e-02,2.116541401839307224e-02,-1.680325224276174936e-02,6.520598186412407925e-03,6.114447712898254395e-01
6.346497013022101008e-01,6.381934695107194244e-01,2.019924618775637004e-02,-1.382042834213741481e-02,5.171524134292572168e-05,3.862679833769788393e-03,6.167310476303100586e-01
5.632885609646292036e-01,6.490969292665667023e-01,-1.930004565539433781e-03,6.208051259267068772e-03,-2.609697553050531818e-02,1.189238215503377917e-02,6.147508621215820312e-01
6.217227220410608268e-01,6.423991323898188277e-01,1.838745405611796890e-04,-2.439378478845108172e-04,-1.030233728014439028e-02,1.193192404492710089e-04,6.323826909065246582e-01
5.992267710669848535e-01,6.441532456712117938e-01,1.132988171278381806e-03,3.085340251317822673e-03,-1.082534541733133626e-02,-1.681393866777595655e-03,6.220879554748535156e-01
5.968674303540367765e-01,6.443796007199644738e-01,-6.403989988042091408e-03,2.036695204553152887e-03,-6.618818578745717419e-03,1.409808696402300001e-03,6.284953355789184570e-01
6.579726701273554967e-01,6.274677124155771946e-01,1.808081111088383208e-02,6.282150383121500037e-03,-7.160366987384134997e-03,-1.052142553405364077e-02,6.256808638572692871e-01
6.331451117213127144e-01,6.252827142669254989e-01,1.764655092064204567e-02,-5.039808563995384037e-03,-2.703693097596712898e-03,-1.915372419129093612e-04,6.116855740547180176e-01
6.335520619974368550e-01,6.256196880223945378e-01,5.660192550732462413e-02,4.156765097592629923e-03,4.642614032420428090e-03,8.440305636921394475e-03,5.733131766319274902e-01
5.757332410778027709e-01,6.387892014374845218e-01,-9.184085656795237806e-03,-4.380362267232891147e-04,1.649593500832153420e-02,9.260588174200223843e-03,6.197265982627868652e-01
6.282868074660323821e-01,6.158781197516473016e-01,-1.389595809265148363e-02,-7.545987176151800488e-04,2.965369215830444480e-03,9.142272646821290654e-04,6.360932588577270508e-01
6.322729651464883416e-01,6.302590931357234805e-01,5.325149490329922353e-02,-5.436589027697326555e-03,2.777064551962882179e-03,-1.174005675092329622e-02,5.784713625907897949e-01
6.281809651150412899e-01,6.284976275688841652e-01,5.232055854717909682e-02,1.692206209386434759e-03,-1.081262073690728693e-04,-1.108891703474488774e-02,5.763463973999023438e-01
6.292108790977042343e-01,6.269561621888853908e-01,4.295010488926775949e-02,3.035652047116300673e-03,-6.478380252872169114e-03,-8.163149398236306531e-03,5.854386091232299805e-01
6.332407532476432843e-01,6.333396521223640940e-01,5.678591632341223328e-02,5.434831329765608260e-03,1.928750589656670188e-03,1.367899445589139742e-02,5.770773887634277344e-01
6.601845959619296877e-01,3.488494033102732539e-01,3.147817195740920670e-03,-2.238826991510504960e-01,-9.455397799996810701e-04,-3.331494234714602043e-02,6.912097930908203125e-01
6.496261134793265279e-01,6.260952504769515814e-01,1.011875826825092695e-02,1.386987520945376882e-02,5.228937754206118040e-04,-8.845928875375094758e-03,6.287192702293395996e-01
6.329390492018170944e-01,6.155596505447582523e-01,1.539239818492438294e-02,-3.008417121037461946e-03,-3.743387105276589025e-03,3.200750422198385230e-03,6.091249585151672363e-01
6.405473301325625979e-01,6.233446945313670939e-01,2.219445426805632948e-03,8.174552706683695796e-03,-1.266317809952661674e-02,-1.941040735908459991e-02,6.313393115997314453e-01
6.257962031863353314e-01,6.247730085922680310e-01,-2.566363699393503506e-03,1.898644454562249066e-03,3.119786469621463072e-03,3.887049876877037621e-03,6.279195547103881836e-01
6.607131317065565446e-01,5.785480227146239107e-01,-3.840732991538087227e-03,2.719971387419472218e-03,1.055933825476973627e-02,-9.394299316666267913e-03,6.280137300491333008e-01
6.414310629771123873e-01,6.159800039676459615e-01,-5.207688166197765867e-05,4.123831394566470319e-03,-4.523601856921462966e-03,1.308922646123886722e-03,6.292372345924377441e-01
6.424544212121330311e-01,5.830465391977346368e-01,-1.118941855051514001e-03,1.081146594240309407e-02,-4.950249118966085129e-04,-9.116259713230191741e-03,6.165090203285217285e-01
6.346191718112359492e-01,5.869661647253660020e-01,-4.306576348509505436e-03,1.384866159615509573e-02,1.486949364412774172e-02,-1.705020595275413137e-02,6.181917190551757812e-01
6.291548302095177903e-01,6.165224599079991430e-01,7.261503435607719048e-04,-8.055100516004949857e-04,-3.238457053373870216e-05,1.292944336002309824e-03,6.222142577171325684e-01
6.362939007685562975e-01,6.362096134182588791e-01,2.569388745938044893e-02,-1.001646595801812360e-02,-1.543313435155340731e-03,7.266069985531233011e-03,6.109398007392883301e-01
5.918768939303272747e-01,5.658431551269444970e-01,2.984313929812226762e-02,-7.942205011924642621e-02,1.474174089218942447e-02,1.216839298849096106e-02,5.674042701721191406e-01
4.220891964920347461e-01,6.290278873681292016e-01,2.522648617299316776e-02,-1.698427345153276091e-01,-4.034538635849754633e-03,-2.766841164025671002e-03,6.075041890144348145e-01
4.023870208560553219e-01,6.733303105956469636e-01,6.370900035262416772e-04,-2.201502992357656785e-01,1.654905034122489474e-02,1.744303116775167140e-02,7.005694508552551270e-01
6.098295512402944762e-01,6.383641914685725949e-01,-1.048294366392632515e-02,4.332145157791083070e-03,6.952588042237169488e-03,5.062575800180011375e-03,6.352797746658325195e-01
5.057263912203014966e-01,5.725873919055876060e-01,3.239294920368102071e-02,-8.743547933334769318e-02,4.824962276661234201e-03,1.371664511642983492e-03,5.321398973464965820e-01
4.486545349382237702e-01,6.579554598473784655e-01,3.411815608411633560e-02,-1.090878360409394537e-01,1.145314909687350328e-02,1.023099468835928297e-02,5.820809006690979004e-01
4.653407588008716123e-01,6.674641158130112384e-01,2.196307243322948022e-02,-9.494336576931082516e-02,1.872227250714180932e-02,1.444933499667398584e-02,5.964689850807189941e-01
6.388565471358126358e-01,5.960180983368612573e-01,-7.024295644538436356e-03,-1.077016020587206677e-02,-6.492251063121998178e-03,-7.627390291279905095e-03,6.260811686515808105e-01
7.530549816241343120e-01,4.928608479820749122e-01,-8.539275591141853861e-02,-3.445020696062653931e-01,2.294501335088926577e-02,2.401602541594014678e-02,9.549299478530883789e-01
6.394059467899441129e-01,5.820733282633691053e-01,-6.075468957747742760e-03,-8.971402378277721495e-03,-6.593498988157437540e-03,-1.068804005959570098e-02,6.193873882293701172e-01
6.453751947716700466e-01,5.713716360726357468e-01,-6.288886011417194055e-03,-3.797499318212042840e-02,-1.779262232249873010e-02,-3.221381239135037450e-03,6.222735047340393066e-01
6.327022760156186809e-01,6.220341074211264143e-01,-8.118685344439047213e-03,5.698382476330043217e-03,-8.295395558012813586e-03,-6.709855158277691113e-03,6.358992457389831543e-01
5.922367645740356235e-01,6.409632045315620807e-01,-1.065844304454732772e-02,-1.257379198713623122e-03,-2.366907359409631522e-03,3.009409029026112676e-04,6.286936402320861816e-01
6.455747024048853477e-01,5.569374781860760848e-01,-6.553023696675930321e-03,-1.671831614374365976e-03,-3.149944814894379413e-03,-2.962639171268470484e-02,6.148135066032409668e-01
6.405701176457205825e-01,5.560031145596099345e-01,-5.760030124611625890e-03,-2.059660177818711108e-02,-1.610778067474744751e-02,-2.621816405262915317e-02,6.118408441543579102e-01
6.540666679593426514e-01,4.959914055973587699e-01,5.640700842768131551e-03,-8.586001549071986538e-02,2.870025750187102376e-02,3.931810161470258164e-02,6.100562214851379395e-01
5.954220718647265098e-01,6.217728152068404679e-01,1.291603781103767279e-03,-2.876673129105361548e-02,2.553637114367403316e-02,3.342402280147898502e-02,6.141103506088256836e-01
6.687333496646958864e-01,5.587486822078330251e-01,-3.493633454492606205e-03,-1.821271135852544493e-02,1.111882301612234641e-02,2.446032186088474211e-02,6.270661950111389160e-01
6.327565750511457976e-01,5.655018588644074029e-01,-5.485380214387602926e-03,-1.684741328164776966e-02,1.734616162466879122e-02,2.767176414330456066e-02,6.107393503189086914e-01
5.931292472073829147e-01,5.483595507458047802e-01,3.077101264516374224e-02,8.340955477114362498e-03,-2.072354101957107897e-03,9.283043212069394317e-04,5.415705442428588867e-01
6.987694853054967625e-01,5.712341318629221565e-01,9.694988740294840923e-03,-3.546274810718905157e-02,2.477926488053338802e-02,5.788145074108768523e-02,6.472041606903076172e-01
6.980711417894200910e-01,5.470321150571956226e-01,7.673278809170291925e-03,-4.427440133666026012e-02,1.546743997658495129e-02,9.444496011467646418e-03,6.340748667716979980e-01
6.155964542508424175e-01,5.786370488113091737e-01,1.300819465188157720e-02,-6.895769552207406394e-02,3.814577510804127020e-02,6.461425613812203650e-02,6.110344529151916504e-01
6.363397728443653811e-01,6.439585286303881606e-01,6.365317528865499508e-02,2.027707482778345199e-02,1.935098972970248493e-02,4.376826038691495648e-03,5.786237716674804688e-01
6.706508957412109506e-01,6.623771995822284042e-01,7.400382423074336469e-02,5.246574386871045298e-02,-2.085805591447901976e-03,-2.449600573295543371e-02,6.009916067123413086e-01
6.353312090326346251e-01,6.478493284379687189e-01,7.553790567987800353e-02,-1.022388019263001293e-03,3.312169711295263191e-02,3.364565922448759655e-03,5.690879225730895996e-01
6.301007705618278942e-01,6.339017324801741182e-01,-1.216367068045176580e-03,4.169973254225705153e-03,1.107720762714131842e-02,1.115845157640965937e-02,6.338526606559753418e-01
6.241131601479830149e-01,6.352748924003042141e-01,6.472416192776431210e-02,-2.571615124534345695e-03,4.076109603992627249e-03,-1.137201816142629704e-02,5.654573440551757812e-01
6.057287779868596456e-01,6.475800814726180299e-01,7.347846892838488797e-02,1.107720769279569618e-02,2.614053561795228256e-02,3.034111565044414829e-03,5.565635561943054199e-01
6.234379557683976669e-01,6.319540847633293712e-01,4.033334818561007395e-02,-8.953305832551082272e-04,2.470935793321269412e-03,8.777489404164567563e-03,5.876232981681823730e-01
6.323155175716569376e-01,6.482366248056464775e-01,7.589999535859581759e-02,-2.469017484187726371e-03,-2.137965352531267984e-03,8.525345210111615751e-03,5.647658705711364746e-01
6.534770048500315731e-01,6.387986336591490177e-01,8.656313361530348915e-02,-1.540522305762107805e-03,-1.459560403057558534e-02,6.256426280420925023e-03,5.604007840156555176e-01
6.231152299287703311e-01,6.285860764925781385e-01,4.332235397719969017e-02,1.369085717612092282e-03,-1.728089938093321917e-03,6.146065230831578713e-03,5.826573371887207031e-01
6.374988713015080632e-01,6.450682320130374237e-01,2.084365957804906744e-02,3.097172135710767743e-02,-6.265356873348807039e-03,8.583552752314919931e-03,6.230611205101013184e-01
6.489271783155075024e-01,5.103539993574084388e-01,1.946017491564727697e-02,-8.407398750757596670e-03,1.305427929314475349e-02,3.555106527500661738e-05,5.735218524932861328e-01
6.512454795511349870e-01,5.125355066554164729e-01,1.935169480218840166e-02,8.000202756296932727e-03,-1.079145656096164654e-02,3.710051510137975933e-04,5.756926536560058594e-01
6.058446086524257312e-01,6.456295529571305369e-01,3.031982151819212490e-03,3.874508820669263220e-02,-2.233882621021427914e-02,2.035344680501515249e-02,6.294379830360412598e-01
5.823727358028260026e-01,6.591313584968057082e-01,-6.670011962481570134e-03,3.338112013687899449e-02,-2.353110073384190315e-02,2.366650942634614119e-02,6.362088322639465332e-01
6.516689338881660465e-01,6.187938052981882819e-01,6.692140212955610679e-03,5.471606499278418995e-02,-5.277493274990672362e-02,4.789322656848820497e-02,6.481439471244812012e-01
6.193350973173026297e-01,6.110595470276544150e-01,-5.427094212552441288e-03,1.454834034989690127e-02,-1.512755490975943584e-02,1.207846037485148065e-02,6.220813393592834473e-01
6.010638381936382890e-01,6.050202030043682067e-01,8.501799877052240717e-03,3.342039574539591024e-02,-1.673033103165026680e-02,2.607752093864670884e-02,5.997669696807861328e-01
6.600785033032063875e-01,5.921532523693960881e-01,-7.770121439038268907e-03,5.583362773985030281e-02,-3.400129097243773796e-02,5.294174030886890370e-02,6.530702710151672363e-01
6.265367750825593385e-01,6.232355448290711752e-01,8.526567145979713214e-03,1.416166235188169586e-01,-1.901247209709648611e-02,4.985773918627246087e-02,6.697872281074523926e-01
5.580991028897007711e-01,5.547468485448016073e-01,3.168717484151073460e-02,-3.969241665421734816e-02,2.240536814234529630e-03,2.168933329296806028e-03,5.292558073997497559e-01
5.771299528036262227e-01,5.138074627815586437e-01,3.364776187163914800e-02,-7.887406448715227059e-02,-1.875337554969146300e-03,1.108433070311734114e-03,5.325838923454284668e-01
5.857687471394553702e-01,5.283584391066782349e-01,3.144789443911677473e-02,-1.102517017158254620e-01,-5.513384486597579584e-03,-1.479455077779125334e-02,5.621013641357421875e-01
5.571267270769413305e-01,5.894014419289144158e-01,2.925915081801816475e-02,-4.828608100406482639e-02,1.420462398794161869e-02,1.604253116691842923e-02,5.523537397384643555e-01
6.385758082764190213e-01,6.004390717058670779e-01,-6.138399042743603040e-03,-4.164330782335974590e-03,-6.817446532413733336e-03,-1.086893089507936887e-02,6.269524693489074707e-01
6.278716227027442143e-01,6.221374588535060202e-01,-1.024017521428555177e-03,5.228613699375709266e-03,4.797995067893892109e-03,-2.034852042316891065e-03,6.261788010597229004e-01
6.249668049301639883e-01,6.263254131663500424e-01,2.759681666276564416e-02,-1.556614473663968075e-03,9.391116675807512082e-03,-5.476613545901400440e-03,5.983529090881347656e-01
6.316401767041560644e-01,6.518175907100793864e-01,6.387651145178141476e-03,-1.046164403469907606e-02,-4.678140996488478441e-03,-1.202814747586244785e-02,6.362325549125671387e-01
6.276756029948429294e-01,6.202189820368051443e-01,4.623771571955270776e-02,-1.584808912935786913e-03,1.583554372578941261e-03,3.881028088916592313e-03,5.777978301048278809e-01
6.321558226892280974e-01,6.209961570937443387e-01,2.976917394993133792e-02,4.868784074241982486e-03,4.327639531306229359e-03,6.855926458172650895e-03,5.971097946166992188e-01
6.369521730920770786e-01,5.996486065982890024e-01,-9.194150958158231468e-03,1.760128470523615856e-03,-8.344653587505744194e-03,-8.341680597145389097e-04,6.285008788108825684e-01
6.225284728375682919e-01,6.426466012641932624e-01,-3.676111895438149979e-04,3.243554316345239068e-05,-1.034074450078868029e-02,2.334842054099256492e-03,6.334610581398010254e-01
6.414680350333268333e-01,6.460702755469297509e-01,4.556161928263319227e-02,-6.710738394680617128e-03,1.547558993890909076e-02,6.291603355273612933e-05,5.989338159561157227e-01
6.257389150118404242e-01,6.284268793992848767e-01,1.816598936622199068e-02,-1.216122022549756196e-02,-1.561683051146434305e-02,-7.477278275376115536e-03,6.100232005119323730e-01
6.249148891485738488e-01,6.324167696133873307e-01,7.882198559689856943e-03,-7.162654424987299328e-04,1.372981635099869077e-02,2.116794569366370858e-03,6.212849617004394531e-01
6.106222488449387642e-01,6.286454027686807500e-01,1.098333888392710733e-02,-1.251970235329255207e-02,-6.693975755217970204e-03,-1.237278725595996123e-02,6.097236871719360352e-01
6.148445203388169800e-01,6.392686974597188154e-01,-1.356673834396748823e-03,-2.386021825854922965e-03,-1.518382313784316824e-02,-1.089762871780552977e-02,6.296154856681823730e-01
6.241797343231781925e-01,6.231159086006934356e-01,1.934154992686837327e-02,-1.771157976503524509e-02,-1.669422440713505887e-02,-5.672038359850294434e-03,6.058552861213684082e-01
6.097725436704366508e-01,6.355777906947157607e-01,-5.332400007307391832e-05,-1.186842741102352335e-02,-9.407348015826415971e-03,-1.767900760887427050e-02,6.244325041770935059e-01
5.517507251314580641e-01,6.832277002752906725e-01,-1.460788362612508440e-02,-1.609266881015398477e-03,5.267801422968590441e-02,7.923665282927119108e-03,6.488701105117797852e-01
5.513338695213443330e-01,6.388185263363577171e-01,1.178572981016923205e-03,2.961835973278970774e-02,2.724829294709938191e-02,-1.796554614317794063e-02,6.035577654838562012e-01
5.468310115123230508e-01,6.553570449377087437e-01,1.055693530629092658e-02,3.421426096636279168e-02,1.761938246882057899e-02,-2.320186991675396784e-02,6.030138134956359863e-01
4.535461006459614586e-01,6.561391703526954222e-01,-3.165362526698634049e-04,4.928655885200929759e-02,5.970426611601174077e-02,-2.412818418515442001e-02,5.989261269569396973e-01
5.640503569428049202e-01,6.497364124464908297e-01,7.454719473012294539e-03,4.100549610432991515e-02,2.012331781445203180e-02,-1.654330783115496792e-02,6.098471283912658691e-01
5.247903594845593211e-01,7.166076703474181242e-01,1.144181939585586782e-02,6.362602446963208647e-02,4.169085558969061467e-02,-2.624387492072536784e-02,6.466955542564392090e-01
4.786939844834764424e-01,6.753694719331384544e-01,1.589163866731391206e-02,2.498821364478829091e-02,5.488346473872157683e-02,-7.166794264340590852e-03,5.957793593406677246e-01
5.364125104246630915e-01,6.607710547569752846e-01,1.645095145725461450e-02,-7.392725200001355745e-02,-3.772612776424393716e-02,-2.400229271318674723e-02,6.106394529342651367e-01
5.692654801623036054e-01,5.803513907995203613e-01,3.191932777116385234e-02,-8.986497897198378326e-02,-2.729073271449120389e-02,-3.393784766174421513e-02,5.698575377464294434e-01
5.053815660739500171e-01,5.536033003317896162e-01,1.804255901860707390e-02,-1.930539638042845785e-01,-3.398064817752276950e-02,-1.816654774087629598e-02,6.161076426506042480e-01
4.107750006162256828e-01,6.709632036482009454e-01,6.817348978975124041e-03,-1.300780386293546309e-01,-4.836466081517453580e-02,-3.976880741649634760e-02,6.312746405601501465e-01
4.848135987221116050e-01,7.288458699283042463e-01,7.923416140284383902e-02,1.099331181907162308e-01,-9.881018559764068176e-02,3.237388031325941912e-02,6.258684396743774414e-01
7.124992883858188852e-01,6.627863516810903466e-01,1.025022971534923499e-01,1.931796749567781923e-03,-8.485015692050291991e-02,5.483552191504091275e-03,6.049322485923767090e-01
6.195464804196721964e-01,6.663141395921278187e-01,1.247864935346144066e-01,2.025338410506477994e-03,-4.391246981593046120e-03,1.063763015207379965e-03,5.197951197624206543e-01
6.299254229043913522e-01,6.686154561791448625e-01,6.808884361548406261e-02,5.351208232977028821e-03,-4.060513902046315217e-03,1.006257464050300601e-02,5.825237035751342773e-01
6.532281040429597230e-01,6.731629678118903337e-01,8.431920704059880922e-02,3.702606562751973706e-03,-1.553006640486235927e-02,-1.074290103231517399e-02,5.800920128822326660e-01
6.510521598761702666e-01,7.313931482440100273e-01,6.192130721759381284e-02,5.851951810326562475e-02,-4.445832028598224045e-02,3.341232985115281245e-02,6.483930945396423340e-01
6.895865330345454236e-01,5.227225804900513806e-01,-1.074281459161496866e-03,8.874993996589529074e-03,6.728919028843917578e-03,-2.516795636363304209e-02,6.260047554969787598e-01
6.511741039429668199e-01,5.329058444036172126e-01,-5.220777838955525940e-03,7.296381209711613747e-02,1.621324791739231844e-02,-4.212296352500783519e-02,6.239340901374816895e-01
6.684072593238380433e-01,5.262283864441095194e-01,1.088830418875974537e-03,3.896894753458844066e-03,-7.500553427427175766e-04,-2.222875267571533531e-02,6.100653409957885742e-01
5.789314822316302678e-01,5.784257462308384223e-01,2.212714797912529452e-02,-1.715098362375318611e-02,-9.423116723774407205e-03,-1.076655053341804211e-02,5.578945279121398926e-01
6.874817782656982290e-01,4.819765788640667514e-01,-3.915045684028284345e-03,2.918361788005552696e-02,2.399941530438776116e-02,-5.163233007255551427e-02,6.248655915260314941e-01
6.573193897204863134e-01,5.884408131841090128e-01,-3.950246683162073058e-03,3.274561117515384367e-02,6.073167532227002896e-03,-1.911937994710344313e-02,6.331655383110046387e-01
7.673903405007023171e-01,5.542176621566599071e-01,3.465134925541418776e-02,2.648986262150249821e-02,-1.617044841878893455e-02,-3.934400512345249956e-02,6.585457921028137207e-01
3.621377592544607338e-01,7.898796115614945546e-01,1.605744759555699508e-02,-2.534748555778929685e-02,1.666934596822566145e-02,2.828356713811938997e-03,6.734632849693298340e-01
4.445897741392461633e-01,7.064170025166290889e-01,3.098653480819479888e-02,6.844156774290764862e-03,1.876036662849832337e-02,3.267506466728385423e-03,5.908824801445007324e-01
3.287521644121495501e-01,7.071100227269024874e-01,3.164549696889140673e-02,-2.624879105049924763e-02,2.512807493159439215e-03,-3.663336944266754307e-03,5.881886482238769531e-01
3.687091213215474284e-01,7.083463634467774828e-01,1.065111703159432599e-02,-3.745978521583490095e-02,1.967654765906042338e-02,-1.605930923820711453e-02,6.093551516532897949e-01
6.186914087835074794e-01,6.096153543200264480e-01,3.790035247271034136e-02,4.767154506378838696e-02,2.525060121992958942e-02,-2.413169707701080802e-02,5.853262543678283691e-01
6.266249634972658189e-01,6.439587193348081939e-01,6.260688503790190484e-03,2.318618294077239364e-02,6.744326209452344498e-03,-2.769703764249026572e-03,6.306170225143432617e-01
6.335845338227150680e-01,6.274181446204135648e-01,2.372081316506657878e-02,3.139312920620284005e-03,1.224490269599165515e-02,5.048825067580061179e-03,6.072618961334228516e-01
6.396006085481164005e-01,7.037736852645031238e-01,8.222395317072578313e-02,3.534504200137366520e-02,2.544317274272190482e-02,-4.618212715461694762e-02,6.021990776062011719e-01
6.068335606438258756e-01,7.041236111620684524e-01,5.138628724886679100e-02,5.337957967360750650e-02,1.846503315399391359e-02,-3.636512452203009577e-03,6.177679300308227539e-01
6.067775575767464513e-01,6.699111916465564365e-01,-1.567464113015670790e-03,1.019536341626600326e-02,1.248101903236973655e-02,-7.774797296092165501e-03,6.429907083511352539e-01
6.059849575410058975e-01,6.426452238813148421e-01,2.090472660936260052e-02,-2.137476175981192859e-03,1.654536890057626761e-02,-1.418064345499410461e-02,6.054339408874511719e-01
7.657081684588784576e-01,3.520736428228553039e-01,2.065095580580117440e-02,-1.101847885961333984e-01,5.698850903955850200e-02,8.761134548515085718e-02,6.980077028274536133e-01
7.402426759348974539e-01,3.859081327881667689e-01,5.903437765376007285e-02,-6.192957242937571771e-02,4.611982472707760322e-02,1.186470545058819770e-01,6.390151381492614746e-01
7.592010519863894302e-01,3.828514998468863784e-01,-2.749229660811092213e-03,6.698067864633358570e-02,-4.981758595876741719e-02,1.122656023507810075e-01,7.029671669006347656e-01
8.068240232709948945e-01,3.393619083572241291e-01,6.196044050557941718e-02,8.284789128927448620e-02,2.628614895399586718e-02,1.812804694144035111e-01,7.391881346702575684e-01
7.053416457210047730e-01,4.639659821173036103e-01,2.043348191597516017e-03,-3.078441775945954528e-02,-1.519107589478726345e-02,5.470972628006155747e-02,6.290042996406555176e-01
7.474730674250330553e-01,5.472896018702659848e-01,1.755863804184570887e-02,3.893120893129414783e-02,-2.230883752167738682e-02,4.017441810423780235e-02,6.615236997604370117e-01
7.381456349503310310e-01,5.519018755456053249e-01,-5.820885661809493961e-03,-1.646085733374916954e-02,1.166074941344283356e-02,7.508602157357853468e-02,6.839212775230407715e-01
6.002312653468717674e-01,5.784211867469307711e-01,3.111233909992960900e-03,-2.846436248055095319e-02,-1.423809549368582235e-02,-1.484982424262881393e-02,5.896652936935424805e-01
5.969326077361786220e-01,6.230121011660028074e-01,-7.357095074680020108e-03,-2.577986866432936328e-02,-2.001064384737663571e-02,-1.737144249903403367e-02,6.210524439811706543e-01
6.078870721367348740e-01,5.928674578543571272e-01,4.384987115968408400e-03,-1.630485557006107131e-02,-1.619323417030307452e-02,-1.621519720310377749e-02,5.981212258338928223e-01
6.123495367198668049e-01,6.025661475836376901e-01,6.460970729139092761e-03,-5.202222716514175171e-02,-1.325907690861008112e-02,-1.385713263604963080e-02,6.086800694465637207e-01
6.020530599764107871e-01,5.894499623172345659e-01,2.798122343763920217e-03,-9.862811059308928402e-03,-1.819268759312417036e-02,-1.475139024507441873e-02,5.946851372718811035e-01
6.096841103509283988e-01,6.316893825297827947e-01,-1.366976451483092880e-03,1.783991001265550908e-02,-1.918916249386088541e-02,7.932032989166315148e-03,6.241492033004760742e-01
6.170960108962781909e-01,6.297878663214028228e-01,-9.793642035703931104e-03,1.962490419114077192e-02,-1.443042800923214145e-02,2.082571910220494191e-02,6.357588768005371094e-01
6.149358472754257177e-01,6.526235923910120862e-01,4.815499390982691530e-04,2.966229408808492007e-02,-1.287925770990571393e-02,1.867519096289805419e-02,6.374287009239196777e-01
6.252868912735833895e-01,6.257867907797882712e-01,-4.468108008112592344e-03,1.074417043749743839e-02,-2.100864914125549765e-02,2.378976306115192230e-02,6.326726675033569336e-01
6.269856004956878559e-01,5.601493652584251803e-01,-1.003878405721514433e-02,4.651728736063956426e-02,-2.728042326097134332e-02,5.790092373079126081e-02,6.216692328453063965e-01
6.291864786070068272e-01,6.648513403917217790e-01,2.646111825974489795e-02,6.381786286564897215e-02,-1.640816568064097647e-02,4.405692438046963227e-02,6.363134980201721191e-01
6.576215836480580057e-01,5.899829526446317418e-01,7.297403706565619430e-03,8.687062859189832731e-02,-4.555390725588488038e-02,2.947025481948740977e-02,6.441894173622131348e-01
4.787366023893341871e-01,6.151637110508103579e-01,5.518652245118715882e-03,-1.260594347295228568e-01,2.882219183587423489e-02,1.686759726825781333e-02,5.984362959861755371e-01
4.609758905931826689e-01,6.917351529790649600e-01,1.849959496301500916e-02,-5.960446700587664765e-02,1.245381004916042145e-02,7.516652502027755707e-03,6.020244956016540527e-01
4.279631727085319581e-01,6.814775301800429785e-01,3.331491468459985006e-02,-7.195044052647578403e-02,2.580321611665515116e-02,9.529982458722590505e-03,5.812626481056213379e-01
4.529555257825459424e-01,6.285755131777633897e-01,-1.133345865894419546e-03,-1.308664126280544571e-01,5.580875998187931342e-02,3.992248274592881396e-02,6.182956099510192871e-01
4.139642746077242252e-01,6.266883192837254812e-01,2.884460072591982227e-02,-1.376015063022383300e-01,-1.639582888216114262e-03,2.149016204056102756e-04,5.764577984809875488e-01
5.956244633206247974e-01,5.576759723663324841e-01,2.523555138140581855e-02,-3.968953069616467516e-02,-8.657699472779348260e-03,-7.452985690404152763e-03,5.570058226585388184e-01
4.693624527643556199e-01,6.226591785906743226e-01,3.513784178649714818e-02,-8.604122397447672155e-02,2.527631982625691554e-03,5.843210782075597583e-03,5.485863685607910156e-01
4.971190412009365289e-01,5.812803854547137217e-01,3.153217951497971905e-02,7.749159438406431899e-02,-2.712460735833342913e-03,4.505646797568593396e-04,5.301662087440490723e-01
3.797420796614008887e-01,9.294685327940978015e-01,-9.149065374664089312e-03,-6.172579242243713543e-02,-1.076465391329897436e-01,-2.468544400506340192e-02,8.457191586494445801e-01
5.711744014554235305e-01,6.228288780235434752e-01,7.428087401520899746e-04,6.059540179795251148e-03,-2.085048219650676490e-03,1.400260648671345851e-02,5.985291600227355957e-01
5.397287225304665537e-01,5.927737900347664901e-01,3.695892580666976235e-02,4.939112184989740556e-02,1.866940364392921962e-03,-1.230222354889937315e-03,5.381395220756530762e-01
5.677017419349638105e-01,5.977026190918621751e-01,2.488476739805589588e-02,7.287753057557321001e-02,1.032621209329879532e-02,-1.868736295152407384e-02,5.737040042877197266e-01
5.787029524721598595e-01,5.753862348138900629e-01,3.357975305350696660e-02,1.723968060788938148e-02,2.215457667187740055e-03,-1.370835626452589825e-03,5.443108081817626953e-01
5.682731631213148171e-01,5.611025148627071246e-01,3.111758858115021287e-02,3.055318977822800430e-02,2.882431441975311787e-03,-2.117104577039877113e-03,5.362598896026611328e-01
5.899323917009139384e-01,5.540051901399953849e-01,3.303824611081673801e-02,6.225081766695381158e-03,2.157798625153604065e-03,-1.128013644576530419e-04,5.399485826492309570e-01
5.645672403055438382e-01,5.677975380645949866e-01,2.184536099224848593e-02,3.068919148499110044e-02,1.385644676729919783e-02,-1.617738280889188460e-02,5.481762886047363281e-01
5.674608227832065310e-01,5.900432393280361509e-01,2.458785308510513801e-02,4.138606321472410726e-02,1.261211709943915564e-02,-1.908175401392988788e-02,5.605250597000122070e-01
6.092012761963123690e-01,6.264623833148178500e-01,-1.084108394416044563e-02,2.431404015857107585e-03,4.573948439318996535e-03,-5.063476718907489009e-03,6.289757490158081055e-01
6.316953012828364633e-01,7.391467776863320793e-01,6.510422440963925528e-02,-6.188164347121561867e-03,-3.819217468211704575e-02,-3.794523175450241308e-03,6.308615803718566895e-01
6.609131176125981888e-01,6.257653332749348873e-01,8.057610217379246320e-02,-4.775755995552383171e-03,2.148086950860624705e-02,3.846372153110703615e-03,5.649123191833496094e-01
6.590000000710198869e-01,6.310135931275844268e-01,4.988919082088510981e-02,1.402693962035500737e-02,-3.911280917221483496e-04,-1.212843673394637875e-02,5.964766740798950195e-01
6.329480596141876525e-01,6.364462997116101528e-01,2.762105076116344593e-02,7.864147734116202007e-03,1.109923536303964418e-03,-4.487350502593018611e-03,6.072892546653747559e-01
6.276928881973239394e-01,6.304932025811105234e-01,6.648320284744224651e-02,-2.761998678982117809e-03,-1.385292173268744785e-02,5.841411405650874349e-03,5.632376670837402344e-01
6.506073152929268133e-01,6.334783456094374987e-01,1.082802225694103893e-01,-1.344254902420928197e-02,2.210602186526320484e-02,-1.979236701197169268e-02,5.369412899017333984e-01
3.920504752262635173e-01,8.111406208284250852e-01,1.153537172299190505e-02,3.060603131351848083e-02,6.383994989235862449e-02,5.562971665781542632e-03,7.035822868347167969e-01
4.591662708226580403e-01,6.946781727448317900e-01,1.788195223018873570e-02,3.344309986289262238e-02,2.546176049406673192e-02,-1.011674662189241715e-02,5.997772216796875000e-01
4.769320764403747748e-01,7.061052616455307795e-01,5.201929942655891814e-04,-5.673635256269498467e-03,4.133027336501361726e-02,-2.483217613572718911e-03,6.276217699050903320e-01
4.473427596040775445e-01,7.305833552402059006e-01,1.924006789919213700e-02,-2.785094074410721099e-02,5.037618233713282712e-02,-1.460530366692034190e-02,6.287555098533630371e-01
4.208788260584157559e-01,6.926546125372543550e-01,2.164879846677164599e-02,4.077191690316291951e-03,2.410315087654888930e-02,1.389098586884842225e-03,5.861282348632812500e-01
6.192857583075834782e-01,6.238030009573320989e-01,-1.252602039143990709e-02,-4.468726471916283733e-04,2.056991759794444142e-03,-2.420837725804229987e-03,6.341068148612976074e-01
4.669576351712575457e-01,7.347024879638803796e-01,-6.175297188251105407e-03,3.767626410564370310e-02,3.969912606281535833e-02,-1.599767386312431205e-02,6.572483181953430176e-01
6.125177829313863676e-01,6.131550964336928145e-01,-1.151487392403266474e-02,1.078487358651809792e-04,-1.973510156592206150e-03,-2.422278111333997942e-03,6.243750452995300293e-01
7.019715449368308935e-01,4.217320980391833785e-01,1.832009579572035918e-02,1.544570607718395439e-01,2.658112504818441885e-02,-4.847813042092884162e-02,6.595970988273620605e-01
6.171532798319363522e-01,5.312502438369945956e-01,2.788063066464691042e-02,9.478777846951230712e-02,1.585870305695583765e-02,-1.320535526957600063e-02,5.763966441154479980e-01
6.964683210813387149e-01,3.951759128750590988e-01,3.085607556931641016e-02,9.406266070083858788e-02,4.271695407603194952e-03,6.356745183089731327e-03,5.999934673309326172e-01
6.379419229506346767e-01,4.920065611738971834e-01,2.668745906546277080e-02,6.506178261629590176e-02,2.566391598549125699e-02,-4.670244667153056195e-02,5.717900395393371582e-01
5.683841435028227362e-01,6.029154119131039380e-01,1.685855969992933190e-02,-2.442924400866640366e-02,2.228162330626780666e-02,2.130109045455690076e-02,5.736364126205444336e-01
5.913831822638739855e-01,6.105795604099746310e-01,-5.357385150507432137e-03,-3.297988923656273302e-02,2.826146915900182646e-02,1.825564489395685441e-02,6.120310425758361816e-01
6.038857716105634488e-01,6.132450821484463077e-01,-4.207536481650064886e-03,-1.315773582870955090e-02,1.299252102285533908e-02,1.426562330295174166e-02,6.141601800918579102e-01
5.957552615658097128e-01,6.088816927824655112e-01,-5.213435161092516701e-03,-2.314722629497469736e-02,2.519334329489018864e-02,1.880723920616319406e-02,6.113892793655395508e-01
5.560263772234986801e-01,6.122754633583219475e-01,1.587181947255161818e-02,-3.191533929725300089e-02,1.965721380961212017e-02,2.055784832272618962e-02,5.751495361328125000e-01
5.635667173522783679e-01,6.093361442175517784e-01,4.951696620014822692e-03,-3.086898281082426157e-02,1.556010725094619622e-02,1.420557832355007037e-02,5.864328742027282715e-01
6.241905633982839374e-01,6.345237768552085544e-01,-3.008952385940011354e-04,-1.873911374768201955e-03,1.027021679523480030e-02,2.707266490586424188e-03,6.299986839294433594e-01
6.056609012733260577e-01,6.204567761391860392e-01,-1.094335214735614459e-02,-8.094903884213832876e-03,4.102283379013282535e-03,4.021153093417804275e-03,6.243704557418823242e-01
6.115435774330697516e-01,6.269048816494202647e-01,1.027810855567246051e-04,-3.896078837144834051e-02,2.334036041453321775e-02,3.466016317101349581e-02,6.271207928657531738e-01
6.465087462931742301e-01,6.637340824855191279e-01,7.307080392869125252e-02,3.741550336109718787e-03,-5.026195150602144612e-02,4.847588230205882899e-03,5.888096094131469727e-01
6.121626990358232101e-01,6.303550061840194063e-01,7.252133834087404196e-03,-2.957660276257630897e-03,7.501863748800328274e-03,1.252562094304432092e-02,6.147505640983581543e-01
6.082967265717098559e-01,6.464114043461086645e-01,1.291800427914036042e-02,-6.691295461740299523e-03,1.650386520642263197e-02,8.407357215015320503e-03,6.162667870521545410e-01
5.751519632091315337e-01,6.531944861335352570e-01,-5.155426312788757848e-03,-3.361533488212335025e-02,3.575122303912395966e-02,1.005174128345992859e-02,6.290178894996643066e-01
6.482782206698881611e-01,4.912100967875075996e-01,4.285356901081005532e-02,6.865383830718269076e-02,-7.898961682190014030e-03,6.265850749673390965e-03,5.572804808616638184e-01
6.400199277010213406e-01,6.297392893146210868e-01,1.193183377793141653e-01,1.125031710144833424e-03,1.116902824486709633e-02,-1.502502958320641336e-03,5.160111188888549805e-01
5.431743057459242907e-01,4.969193858821095988e-01,-4.805860929860128472e-04,1.677626204912468222e-01,-4.306128877820657869e-02,6.177223765745604861e-02,6.115525960922241211e-01
6.101293073891070895e-01,6.456789188387206391e-01,1.550520719771708578e-02,2.285394621685489167e-03,6.118009610184240582e-03,-5.013418503173793818e-03,6.133381128311157227e-01
6.464382418582155232e-01,6.343607067517459397e-01,7.343759309849051675e-02,-1.649206590093988496e-03,-1.301391123897309085e-02,-2.536910083227245701e-03,5.675303936004638672e-01
6.116892682083614474e-01,6.453675247112551361e-01,8.208780502442836191e-03,-2.158230157930018247e-05,2.287832607606590449e-02,-1.251978959810182146e-02,6.226456165313720703e-01
6.085496982483799000e-01,6.839313038918968246e-01,8.816016638184709375e-03,4.410597818477293361e-03,2.755685969390381240e-02,-1.205313790612630659e-03,6.425827741622924805e-01
6.295760790162107101e-01,6.578880530715058850e-01,6.181481830093882301e-02,-1.052012523812336994e-02,-8.925885790825621724e-03,4.603385005065336807e-03,5.829781293869018555e-01
6.513589546664086960e-01,6.638251863385284945e-01,9.583497693476006329e-02,-2.503792449116832284e-04,-4.929910346274136990e-04,1.584792802109489737e-02,5.625317692756652832e-01
5.852882229452815999e-01,7.297323556813304357e-01,5.032478458695233137e-02,2.094932018158784937e-02,8.929744101639007850e-03,-1.449098779371822340e-02,6.216977834701538086e-01
5.208596762767476740e-01,6.354952918649015015e-01,2.368691862651262081e-02,-6.645908794872484870e-02,-1.840573804806378000e-02,-2.022876206807001920e-02,5.768969655036926270e-01
5.831503998192177907e-01,5.755326357907661894e-01,2.619948207455169431e-02,-7.675264001337112063e-02,-2.507006293143048542e-02,-2.522180955128795407e-02,5.722556114196777344e-01
5.604736543899575540e-01,5.508253937686089508e-01,1.477688064740734220e-02,-1.863414330366078286e-01,-4.375534810170099431e-02,-4.080647248644226482e-02,6.383741497993469238e-01
5.789959722725629421e-01,5.965898880896687295e-01,2.841469795364165440e-02,-8.341232970924496171e-02,-2.352934600063357265e-02,-1.523178251534554502e-02,5.799705982208251953e-01
5.704006890625759052e-01,5.864585539136478731e-01,4.713254342876282976e-03,-6.208484157763725225e-02,-3.261442150308189319e-02,-2.501972171188164215e-02,5.881976485252380371e-01
5.742102467998103643e-01,5.834283691788660908e-01,1.649944429702165927e-02,-7.019931740454171676e-02,-2.147482998503170981e-02,-2.740810391935229184e-02,5.785225033760070801e-01
5.847678992459838243e-01,5.031752694679917370e-01,3.682803749381841074e-02,6.861680448689966294e-02,-3.977472638615964055e-03,-2.823811656790984302e-03,5.257221460342407227e-01
5.512912300200405458e-01,5.989719411858678288e-01,4.107186767435022645e-02,4.122006315703025808e-02,-6.369209110552410784e-03,8.151771112209604819e-03,5.406877398490905762e-01
5.571100906697437072e-01,5.586827020611033756e-01,3.485181445427537605e-02,3.430535679203800675e-02,3.538511477194824281e-03,8.134859881865132494e-03,5.266347527503967285e-01
6.151764665323842252e-01,6.139323603674595731e-01,-1.430695898684819500e-02,6.977094413046963694e-04,2.635054587044952643e-04,2.472562834917639237e-04,6.288637518882751465e-01
5.562715613999621445e-01,5.615145373250427507e-01,2.631761715623942566e-02,3.945634367586905999e-02,-6.790749514037491830e-03,7.041216731003343242e-03,5.372287034988403320e-01
6.283872294930346047e-01,6.254769367599757324e-01,1.635676760141197006e-02,5.802196129023371764e-03,-4.584354795687114840e-03,-6.594631670261206016e-03,6.108216643333435059e-01
6.140659784241415675e-01,5.626885171883050374e-01,-9.077351181325243878e-03,-8.993115820874393596e-02,-2.309412017386844318e-02,-5.956895802005012647e-02,6.288401484489440918e-01
5.068664902218812385e-01,6.828170095873788981e-01,8.852091741189560548e-03,-1.132765144713409611e-01,-5.162931707684949301e-02,-1.537195813802597587e-02,6.432753205299377441e-01
5.382733902683670690e-01,5.682468935233716545e-01,1.725512205104379193e-02,-1.231102907319231582e-01,-4.301884218737573456e-02,-3.120348291214133582e-02,5.847362279891967773e-01
6.191801431480861151e-01,5.169271304190481420e-01,1.585261532141685192e-02,-1.365497156559975223e-01,-4.576134487143813934e-02,-4.487027879341701914e-02,6.172742843627929688e-01
6.259802495016368873e-01,6.304920603643198174e-01,7.445081364594541284e-03,-1.936833539007112599e-03,-1.325977662752381506e-02,1.312322450939539279e-04,6.212371587753295898e-01
5.650319342501994857e-01,6.397634173348327735e-01,8.335284817660104650e-03,-6.445732140849622094e-02,-3.001913199025578113e-02,-1.793015449335001038e-02,6.109262704849243164e-01
5.551526094838984404e-01,5.895244970198814105e-01,1.521175379426142893e-02,-5.822469194403560172e-02,-2.625249690786960258e-02,-2.099962261753855058e-02,5.699449181556701660e-01
6.050483890611697557e-01,6.392195084145335660e-01,-8.472467604142219777e-03,-4.810675293914335598e-02,-3.963855030592719486e-02,-3.111250462159785915e-02,6.427290439605712891e-01
6.152125346674158779e-01,6.239759273324905209e-01,-1.378276984007764661e-02,-3.629760122907998770e-04,-3.461272622957182413e-04,-2.343284480508486898e-03,6.334360837936401367e-01
6.175595087571847941e-01,6.192746460011833154e-01,-4.066159053919937705e-03,-8.976463223347984702e-03,-2.153854878382844076e-02,-1.967337143928681031e-02,6.247256994247436523e-01
6.334076386705693729e-01,5.938056392081165757e-01,-5.818672333648022832e-03,-1.198376618720526331e-02,-1.627659926221632428e-02,-1.265857069754553442e-02,6.217477917671203613e-01
6.115492387759415838e-01,6.169932734537125762e-01,-1.002948831135963559e-02,-5.013428596110445189e-03,-2.099907795181127704e-02,-1.758872164892061676e-02,6.261789202690124512e-01
6.239731986570720146e-01,5.988667487100605147e-01,-1.034419612554049461e-02,-9.831486471616315836e-03,-2.765912137505569142e-03,-2.112780526836089811e-03,6.224064230918884277e-01
6.217694090926336736e-01,6.315755009557910693e-01,-4.129573767722993782e-03,-3.231482352872649434e-03,-4.712173738898602950e-03,-1.090357251154032252e-02,6.312193870544433594e-01
4.005756852275946245e-01,8.541716781243589018e-01,-1.311215108922586525e-02,2.380377225266162855e-01,5.122502688980588165e-02,-1.950866059066960062e-02,8.622840046882629395e-01
6.006024408755634703e-01,6.180180702479091126e-01,-8.618629281657796959e-03,-3.698918682934546065e-02,-3.940321150814865558e-02,-3.138639493161533151e-02,6.275199651718139648e-01
6.099375166579830143e-01,6.534125189389768940e-01,3.496501759253939356e-02,-7.965657206534233412e-03,-4.123353480629656474e-03,-1.010841492723840371e-02,5.983546376228332520e-01
6.296741489650454771e-01,6.300691212500159066e-01,3.498119808709737599e-02,5.195136025355253859e-03,-1.217993443917129992e-02,-4.121023396421545464e-03,5.953752994537353516e-01
6.498235482331070623e-01,6.450393668504239564e-01,4.029647321867307896e-02,-1.125132767253836201e-02,6.090588051106529677e-03,1.162629885346863970e-02,6.078870296478271484e-01
6.506761958009971147e-01,6.064678180738555247e-01,1.361057717769176278e-03,-9.869462257555323276e-03,-4.558382639898686702e-03,1.684039005316002868e-02,6.293367147445678711e-01
6.507252596179331494e-01,5.465221821480812370e-01,-3.490921614643593962e-03,-5.481132564137518488e-03,8.201209087957118254e-03,3.142759833960725308e-02,6.115069389343261719e-01
6.492946827804222387e-01,6.023696424937972083e-01,3.632269700121693035e-02,-1.726724686817628605e-03,7.909336825996577443e-04,1.836192396265276831e-03,5.909262299537658691e-01
6.337164925547854599e-01,6.346200142022134782e-01,1.077385107203296388e-01,-3.726855942539563597e-03,1.098925836179938040e-02,1.701531504544540312e-03,5.268220901489257812e-01
6.178367973409152336e-01,6.054411206441918658e-01,-1.273195925510184345e-02,-3.509648022247681323e-03,-4.562450899370252763e-03,-2.977300467927065149e-03,6.245640516281127930e-01
6.578315410326425194e-01,5.683247121733053797e-01,-4.792552735329747016e-03,-1.552489823982384186e-02,-1.894029324114774801e-02,-2.620634660115356979e-02,6.258053779602050781e-01
6.635753996964396384e-01,5.136606817355806598e-01,4.912394699616018379e-03,-5.990874445265159665e-02,-1.712271641034134387e-02,-4.003986128008667905e-02,6.115753650665283203e-01
6.296619668446763463e-01,6.335769974106288949e-01,7.670495876766564303e-02,-1.071506775397647630e-03,-9.512948540588846494e-03,4.180694296704037631e-03,5.552197694778442383e-01
6.574858446321776295e-01,6.072623896402259414e-01,5.707469894062899840e-04,-9.395848473139664647e-03,3.919998216494298892e-04,-2.032888598585896878e-02,6.344859004020690918e-01
7.294285477153038544e-01,4.177860479684801787e-01,3.025218148420844022e-02,-3.136019917162044535e-02,1.384447185487345730e-02,2.373515300714246906e-02,6.109755039215087891e-01
6.989274195797878786e-01,4.486896933368634821e-01,2.535101217554325270e-02,-5.641704932538398054e-02,1.005389765545500191e-02,2.382729252769806225e-02,5.994372367858886719e-01
6.809994254656448476e-01,3.840841897299442365e-01,1.572769768006648805e-02,-1.331751328543768209e-01,1.134472969960417278e-02,2.938909594447215029e-02,6.240191459655761719e-01
6.818494180247087755e-01,4.396470316290799762e-01,-2.170148000074001438e-02,-1.079032916323079960e-01,4.592460999428759488e-02,6.375105435011944877e-02,6.608277559280395508e-01
6.475988843060848099e-01,4.822688328365893895e-01,2.220220449170068333e-02,-7.900229013167323067e-02,9.295583889861029972e-03,1.638353628050850247e-02,5.786594152450561523e-01
5.935212275779980784e-01,6.588602803395841034e-01,-6.461936550810454261e-03,-2.002919023549608584e-03,1.044187471285936732e-02,-3.405917109893091647e-03,6.354724764823913574e-01
6.221981733303865170e-01,6.290623638301071630e-01,8.108849230085146687e-04,3.467199819641819496e-03,8.964734277180008357e-03,8.404438015252254941e-04,6.250711083412170410e-01
6.112092203779672106e-01,6.544249482647922500e-01,-6.079204348633016064e-03,1.433560062739335818e-03,1.158120890050299591e-02,-1.343768607892135286e-02,6.407334804534912109e-01
6.302313439714071208e-01,6.306705964543168896e-01,9.824785250737455566e-02,-1.651106124881316067e-03,1.233592878680993092e-02,-2.443835220686748494e-03,5.326564908027648926e-01
6.675348702521766153e-01,6.261550720166231265e-01,9.247259810857949569e-02,6.660918274211854659e-03,2.511328725191286533e-03,-6.780135141460087202e-03,5.557903051376342773e-01
6.831537144734218803e-01,6.683349611049489436e-01,1.293454164179588251e-01,2.021786363264772152e-02,-7.810531026903708325e-04,1.560567193942868046e-02,5.483385920524597168e-01
6.650609265168165862e-01,6.610277804097637322e-01,1.098496401990094462e-01,6.067764696952912713e-03,-5.121422249638412846e-03,2.785605851194747698e-02,5.554760098457336426e-01
6.298095057505467276e-01,5.409058163917572770e-01,-4.341667846604224668e-03,2.516627383717916222e-02,2.360867151325532834e-02,-3.672103051298009763e-02,6.010745763778686523e-01
6.158888949810635838e-01,6.189059170169750601e-01,-5.492465468339646772e-03,3.611041331637812428e-03,1.962840450591723032e-02,-1.262814777791546224e-02,6.242371201515197754e-01
6.017913492752433591e-01,5.844939774074766614e-01,7.288788692951408965e-03,2.322666910047908873e-02,1.685593173647380663e-02,-1.496121228275444637e-02,5.887202024459838867e-01
6.234251673581998610e-01,6.084093527916665245e-01,-5.609399566248174374e-03,4.384850969043919793e-03,1.114243834672339235e-02,-4.039897637630639020e-03,6.220479011535644531e-01
6.212325966900744678e-01,6.081623292586064711e-01,-1.299341580951279829e-02,5.206474951625366179e-03,3.546384105117754860e-03,-2.398012996307088193e-03,6.279014945030212402e-01
6.269752555257439575e-01,5.784701877930915614e-01,-8.004229130770312839e-03,-5.453665110406595226e-03,-1.221544110564082124e-02,-1.027003859517204402e-02,6.128664612770080566e-01
6.084241345083144514e-01,6.126912673144901955e-01,-8.507179375198348215e-03,-1.657289922498323439e-04,-9.738730092646874243e-04,5.156642504233964822e-03,6.191427111625671387e-01
6.225611013328700150e-01,6.148150627693504955e-01,-3.303868604083715077e-03,1.407880960744429220e-02,4.597272741472199949e-03,-1.575563503097275261e-02,6.231546998023986816e-01
6.081297317527460944e-01,6.082150153628120837e-01,-1.182544902766885508e-02,1.956377792291707010e-02,1.703168477618944437e-02,-2.418554178233853907e-02,6.230334043502807617e-01
6.888791522410142587e-01,4.613044671936833985e-01,-1.908539745172621593e-02,6.256367713812470421e-02,2.890378444555664547e-02,-2.116468143275072877e-02,6.383431553840637207e-01
6.645784529771743276e-01,5.353621078067982708e-01,4.782203838626375436e-04,-7.458433588043505372e-04,1.939216461102367950e-02,-2.622167917037549270e-02,6.124589443206787109e-01
6.074679138013830970e-01,6.218725803533263763e-01,4.642836820710760648e-03,-1.011780043931337358e-02,-8.912130585207346870e-03,-1.291233023043223370e-02,6.110111474990844727e-01
6.229951924646798256e-01,6.238922005816194272e-01,1.707630876046767332e-02,-3.586046273040410792e-02,1.052317334195172586e-02,2.371844983920153721e-02,6.111954450607299805e-01
6.260719717287492880e-01,6.378274159623404937e-01,5.762087233157964228e-03,-2.098615394070861735e-03,6.754212032587167229e-03,1.901906159712133879e-02,6.272557973861694336e-01
6.262356325124867062e-01,6.301774173892652486e-01,6.361994619468214207e-02,1.207937415716563026e-04,1.071040880042016009e-02,4.449252324629279949e-03,5.649541616439819336e-01
6.024263610400619751e-01,6.300707591130558782e-01,-4.625984241634739647e-03,-1.485301063646111454e-02,2.002569594739255637e-02,1.104073524621463839e-02,6.231283545494079590e-01
6.222347814431045121e-01,6.574005053681958310e-01,1.332220726478144934e-02,1.634777777664437855e-04,1.167828098623729417e-02,1.170150397705317299e-02,6.278885006904602051e-01
6.247423785001851027e-01,6.441685558333831718e-01,2.771975969774648219e-02,-5.338311673794404050e-03,3.397362222675459793e-03,-4.539306557307258398e-03,6.071187853813171387e-01
6.312325892316255072e-01,6.417406690968626704e-01,-1.269274320567426173e-02,-1.122299581442269718e-02,1.725045316779929769e-02,3.394136832737048009e-03,6.502475142478942871e-01
6.111189997037332899e-01,6.288967316940857755e-01,2.064100236766075458e-02,-9.401868802810832426e-03,7.498649248628220035e-03,1.619827744528454846e-03,5.999328494071960449e-01
6.384433370750600689e-01,6.367769175378646951e-01,6.434839745550363643e-02,-9.975121739575066107e-03,1.800859987793436423e-02,-3.400901184265685620e-03,5.744016170501708984e-01
6.932379052771813210e-01,5.452030294383602982e-01,-2.258872330847316867e-03,-1.598177514576867332e-03,-4.784926369335256932e-03,3.074356514494188536e-02,6.368548870086669922e-01
6.335385056802732562e-01,6.026905652627028154e-01,3.478713855500620289e-02,2.305287532914507005e-04,2.221423163053510078e-03,1.780067449891840339e-03,5.839597582817077637e-01
6.324960601141730310e-01,6.176098158708483998e-01,-1.140867133009670908e-02,-2.197896879198887703e-03,-2.321065095161956200e-03,4.956011672188611814e-03,6.366741061210632324e-01
6.341053934359892619e-01,6.224166987585012523e-01,2.318413561455889838e-02,-6.884877885175083373e-04,2.102765175571345152e-03,-5.496236254475799637e-03,6.052485704421997070e-01
6.165480939220492340e-01,6.157046011734945701e-01,-1.515075040114471916e-02,-2.063158327287334002e-04,3.944466725039430066e-04,-5.410486802181960339e-04,6.312786936759948730e-01
6.505303122136527616e-01,6.099760306301960089e-01,1.906917850429973305e-02,1.371380114336913543e-02,-2.391734579514506655e-03,1.061703606672566996e-02,6.129428148269653320e-01
6.599602676872597939e-01,5.568946573849583581e-01,-3.638648944479794256e-03,5.089058877117219604e-03,-5.633627338341107293e-03,2.827588152068002958e-02,6.206152439117431641e-01
6.398831799923017094e-01,6.036089572010613358e-01,-4.423123658705008232e-03,3.606156440424329503e-03,2.330961525881416856e-03,7.978681542591715969e-03,6.271530985832214355e-01
6.333427148824172237e-01,6.247436167253117567e-01,2.180281109983694954e-03,-7.379942666420305671e-04,-2.186810452953819820e-03,6.681873948002832984e-03,6.270266771316528320e-01
6.320314222774801038e-01,6.243876658656113410e-01,-1.112600160372290148e-03,-3.076893266057146616e-03,-6.930812921633160151e-03,2.238373707906123142e-03,6.295059323310852051e-01
6.613375809607913158e-01,6.284311167699099254e-01,1.431537727651425174e-01,1.010903976436120649e-02,9.566186629876483397e-03,-4.413976512341313482e-03,5.031751990318298340e-01
6.275527788619698066e-01,6.299005488685137655e-01,1.565905242913120943e-01,2.738428411579645581e-03,6.627426474087567444e-03,5.294067450378848539e-04,4.723047614097595215e-01
6.361719446954776647e-01,6.347948905641984663e-01,1.325047887313896555e-01,-4.087201145637231817e-03,-1.070027789559124635e-02,3.002455757701150748e-03,5.033980011940002441e-01
6.209444756719469938e-01,6.343267175916770251e-01,1.051072486032459952e-01,4.599623786033775995e-03,3.835453885175962863e-03,-9.253128835693801707e-03,5.230054259300231934e-01
6.109417332977924442e-01,6.162652855207310099e-01,-6.010037843818261116e-03,1.038327518342672430e-02,-2.242303786559999776e-02,2.297440755514596616e-02,6.223804950714111328e-01
5.794782688700573781e-01,5.806649408518165245e-01,1.889324242378265239e-02,-7.330530373945543887e-05,5.327137965047184977e-04,1.507344479150660643e-03,5.611861348152160645e-01
6.053960656621437675e-01,5.958269085289824574e-01,-9.203751314695862717e-04,2.095342710868898159e-02,-1.649683513203037064e-02,1.314420286844775188e-02,6.037889719009399414e-01
6.283541981210147842e-01,6.003606609617347933e-01,-1.046954110962666773e-02,6.146195526737540001e-03,-4.581320718558670735e-03,2.192133464451719894e-03,6.254495978355407715e-01
6.278200986412710849e-01,6.025896833704866840e-01,-7.420210724784492839e-04,6.083649924073081944e-03,-9.496391237119896495e-03,1.212075270402520298e-02,6.170011162757873535e-01
6.361809394482114133e-01,6.185876884670954423e-01,2.690872892063433941e-03,1.851642319433775830e-02,-8.256354205838090099e-03,2.196867222303176131e-02,6.270207166671752930e-01
6.268726864421900746e-01,6.093378260414065162e-01,5.511156748654821858e-03,1.300775408595800445e-02,-1.414475551308361917e-02,7.514844613820001462e-03,6.138235926628112793e-01
6.198122004972680399e-01,6.100471757746354085e-01,-1.024366794902098476e-02,1.832144063607213640e-03,-7.784541198196677676e-03,6.619195185535802460e-03,6.254890561103820801e-01
6.204353726308148298e-01,6.215683008736121451e-01,-8.992007597003359720e-03,-2.061827753639578712e-03,-7.549472858246153613e-03,5.602129453084421506e-03,6.302151083946228027e-01
6.364144097045225656e-01,6.168807610395015129e-01,1.383105579704135835e-02,-1.306998033180341301e-02,2.449891602494233588e-04,7.276201093968990077e-03,6.135973930358886719e-01
6.023897162603014666e-01,6.312079175858090752e-01,-1.028411764769321390e-02,-4.241776470627300205e-03,-1.059147565153879117e-02,-1.580753344146100243e-04,6.278904676437377930e-01
6.892420213556540443e-01,5.354846601392775352e-01,3.142459683687259808e-03,-1.846096384282940083e-03,-3.009314234380919533e-03,2.057419122575067719e-02,6.246505975723266602e-01
6.328302210592104959e-01,6.227365279442684809e-01,-3.950270154179646998e-03,-1.570105177016887935e-03,4.628877828049595897e-03,8.054450238268850287e-03,6.320048570632934570e-01
6.341815303110776014e-01,6.032570099251607365e-01,-5.339355542854917758e-03,-3.837238877904085559e-03,3.462282581537171836e-03,5.225958332438997503e-03,6.247627139091491699e-01
6.331630736561232320e-01,6.049862373524161896e-01,-4.739374471553425838e-03,-3.658781344796778207e-03,6.747167042882094672e-03,9.143672866138910851e-03,6.246334314346313477e-01
6.374460394396356255e-01,6.064479433077576420e-01,-8.443896774499526359e-03,-2.918366237674295538e-03,5.510481796863728014e-03,1.330618795958612294e-02,6.314753890037536621e-01
5.966699247596333189e-01,6.062467558153774583e-01,4.053147799240486293e-03,9.835660940218939573e-04,1.447688964341918095e-03,6.623493288298545889e-03,5.975806117057800293e-01
6.444558434787398538e-01,6.018663648984877712e-01,-1.800979725232743078e-03,-1.660127469134393399e-03,9.425161200115529008e-04,6.515657180022038295e-03,6.261599659919738770e-01
6.628043488497533664e-01,5.832787562097030420e-01,1.237950681271182685e-02,-3.455307454906886983e-02,2.314911062351340115e-02,2.140281919629277371e-02,6.198508143424987793e-01
6.450940087541974233e-01,5.966823298073119508e-01,2.495261082061261959e-02,-6.360669314612952662e-04,6.172412389650539432e-04,5.037060718747592147e-03,5.974742174148559570e-01
5.615989459238279746e-01,5.276321867239770480e-01,9.232486229063197047e-03,1.319480924804460054e-01,-3.358399245332448907e-02,1.649446242047444486e-02,5.864564180374145508e-01
4.951438006790586654e-01,5.927202786468968032e-01,3.438003106774634166e-02,8.097333653673868814e-02,-5.030400426050958378e-03,-4.572019878379469937e-03,5.353436470031738281e-01
4.295797932738553704e-01,6.326444973107876457e-01,1.920260851534139057e-02,1.386062163766652311e-01,-1.499498963117421903e-02,5.133151995134174576e-03,5.927617549896240234e-01
4.670883133109237084e-01,6.372045003767603522e-01,3.102702845318294766e-02,7.141940407638000532e-02,1.461877801042793870e-02,-1.405566403359739119e-02,5.566022396087646484e-01
4.868758786545043793e-01,6.414249302658144858e-01,3.757980594669557695e-02,6.042966820824658553e-02,-1.118602982487186190e-02,1.412123227170169982e-03,5.536490082740783691e-01
4.299537282768961521e-01,6.179452641902607457e-01,2.357527125290748149e-02,1.443071830808174416e-01,-2.640575194908664422e-02,2.037650028728765425e-02,5.853981971740722656e-01
5.244084502053076857e-01,6.358375817505739214e-01,3.687533921049740426e-02,5.600179996004715777e-02,-2.111709432439698095e-02,1.341133435874665263e-02,5.618864297866821289e-01
5.545254916040712745e-01,5.966909023524152866e-01,3.142528975324543339e-02,3.896951041060702642e-02,-1.112221101196800635e-02,1.584036496926178803e-02,5.505889654159545898e-01
5.862254603361733984e-01,5.751526570675097316e-01,3.297392318050990090e-02,8.229230059250818019e-02,-6.931476631945163516e-03,1.466122187876047617e-02,5.667352676391601562e-01
5.291674557822098057e-01,5.730604985615587177e-01,2.784729709019218014e-02,6.623967033129055104e-02,-9.942824204679503661e-03,1.383667475479437477e-02,5.378540754318237305e-01
5.500029863960806953e-01,6.814079191487748544e-01,1.611020432862830809e-02,-8.727647611035167785e-02,4.578236129805159094e-02,3.401102306286933608e-02,6.364548802375793457e-01
6.671934107605982378e-01,5.081173598543090586e-01,1.720540546604942822e-02,-8.870174540302774510e-03,-8.919343542135229220e-05,-5.413165317989615489e-04,5.870510935783386230e-01
5.276112508263064438e-01,6.562372769547758500e-01,-2.142427128226154220e-03,-6.776188128030616320e-02,3.527377189547573066e-02,2.494927621073490462e-02,6.202409863471984863e-01
5.690078963100833054e-01,5.894555812372601622e-01,9.308717017966150475e-03,-1.040509176145429926e-01,5.044411412691492819e-02,3.460437066492063479e-02,6.073152422904968262e-01
4.646717565914080805e-01,6.268639362144273752e-01,-2.495145690719180465e-02,2.409030613065985815e-01,-1.737092747331871884e-02,-2.267294725775755374e-02,7.224960327148437500e-01
6.196288649276218141e-01,6.184082760507725318e-01,-1.216176289406711852e-02,5.450166090246790504e-04,-2.026130626095586085e-03,-4.025020790640113089e-03,6.312301754951477051e-01
3.702428446583549415e-01,7.204231760155650477e-01,2.016519680793732450e-02,1.454168678038091911e-01,-3.576198804680569970e-02,4.712564613071920649e-02,6.646114587783813477e-01
2.227760371204769441e-01,7.809655457080655339e-01,-6.989667403905885923e-03,1.250659496855575648e-01,-6.698475310413620765e-02,3.954529654560554053e-02,7.467914223670959473e-01
6.233941436242081968e-01,6.156500527530981426e-01,-1.404747086448643323e-02,5.424785332133156158e-04,-2.969842773464572653e-03,-6.809774806521958152e-04,6.336277127265930176e-01
3.647724253608642386e-01,8.873876269601610467e-01,4.383660306604181267e-02,1.664179553164452374e-01,-7.295592064461443871e-02,-7.067854942119033979e-02,8.111049532890319824e-01
3.730512570274331918e-01,7.776779171809645730e-01,-1.112946822093230370e-03,9.183389594789280463e-02,-6.744135426886538331e-02,4.542972986190695756e-02,7.072873115539550781e-01
4.109894610750010613e-01,7.070535791065806208e-01,-5.594601222587036737e-03,2.434694067171712939e-01,-6.675449429628799169e-02,-2.977979889712731396e-03,7.587878108024597168e-01
6.295005955662582586e-01,6.226570373088318178e-01,4.668724967774984247e-03,-1.424834192913558735e-02,2.446856306172210532e-02,3.419525268289852482e-02,6.261779069900512695e-01
6.266125314108821343e-01,6.239358225500460930e-01,1.602039054474424518e-02,-1.931960465190742798e-02,1.727800821717561525e-02,2.799899575876101457e-02,6.128317117691040039e-01
6.243703849611744738e-01,6.462874434757855946e-01,2.744667787453747287e-02,-2.925955794471616053e-05,6.848125598296532588e-04,-4.448964187807658878e-03,6.082284450531005859e-01
6.439551957551418182e-01,6.274990719071560363e-01,1.399973920374913972e-02,1.681744842163102700e-04,2.724831576679710970e-03,6.384756654394942860e-03,6.220070123672485352e-01
6.055799220503564895e-01,6.460829611887759505e-01,2.522401631078668993e-02,-8.511450164238064386e-03,2.598745771811628458e-03,-4.408152163425952709e-03,6.018766760826110840e-01
6.118676412077856952e-01,6.589809897423570817e-01,-3.154696502434106709e-03,-1.582035228326637150e-02,2.437889311041487039e-02,3.699047203853408992e-03,6.418899893760681152e-01
6.504601208943341373e-01,6.305716223853415903e-01,1.353703575913628443e-02,-7.379538108070941849e-02,2.447709473360135113e-02,1.586096406991238661e-02,6.420969367027282715e-01
6.762161251200988765e-01,4.691590917954021056e-01,6.585910840319897375e-04,6.356726887324316844e-02,-1.565878824416172196e-02,4.850902397272503080e-02,6.158644556999206543e-01
7.308884862445830244e-01,4.692402626196519044e-01,4.239858984287359078e-04,7.478834747289354878e-02,-1.049942299486240904e-02,5.041925852141738301e-02,6.600381135940551758e-01
6.465852441359836167e-01,5.431730020764530265e-01,4.951473420447549678e-03,1.709253979443285665e-02,-9.188928902048436667e-03,2.682056265790310270e-02,5.994355678558349609e-01
7.393961144870450086e-01,4.531213624224523229e-01,1.984943784291481883e-03,1.449997697075216911e-02,-2.419934809972350623e-02,4.197562135219011503e-02,6.498458981513977051e-01
6.990946086235700907e-01,5.522354209415932802e-01,1.531531744253927796e-02,-1.287107909286992237e-02,1.380852844299007044e-02,3.209725615458858955e-02,6.267871856689453125e-01
6.505897803971487647e-01,5.620362821254395458e-01,-2.935317796527725509e-03,1.331068144291101298e-02,-1.135238857233127584e-02,1.969494900873434637e-02,6.157488822937011719e-01
6.347686771430373076e-01,6.422697528748972928e-01,2.446769029869749756e-02,9.296280437801862639e-02,6.027074573337119767e-02,-2.089731874660340563e-02,6.443877220153808594e-01
6.551513551146546099e-01,6.292852632046295192e-01,3.155616585000220464e-02,1.834130587806774570e-02,-7.929638701223343635e-04,-4.093665237129613665e-02,6.159939765930175781e-01
5.680278980101066688e-01,7.050633866036585262e-01,1.398644554137878915e-02,1.076748623115445294e-02,4.529990309983831370e-02,-3.128092829262927449e-02,6.411735415458679199e-01
6.003703211820659025e-01,6.471317253323535246e-01,4.716952645565869462e-02,1.007473002199136408e-02,9.745492247744631797e-03,-2.677758261438175063e-03,5.785301327705383301e-01
6.390726278820085815e-01,6.355472489287645743e-01,1.369713415349477215e-02,1.292151754980570486e-02,4.600679361791217524e-03,-1.735679656359125859e-03,6.240798830986022949e-01
6.297212176420788898e-01,6.280536345723760627e-01,4.393730269600182314e-02,6.553393699649908343e-04,-2.157630634544834003e-03,5.985104867506896818e-03,5.850567817687988281e-01
6.215769028376127991e-01,6.145803752543202991e-01,-1.438028604767527252e-02,2.124099547936756684e-03,-3.081336783840476958e-03,-5.723479319997082718e-04,6.325219273567199707e-01
6.928570885698722703e-01,4.349945880650889496e-01,1.879570377149136773e-02,3.357934006768262519e-03,-2.894573622957111896e-04,-2.417067294530827679e-02,5.906127691268920898e-01
6.934303779518460331e-01,4.955105214227142896e-01,2.626235046902125614e-03,-1.046136395432841273e-02,-2.957496312905098530e-03,-2.466229181495423195e-02,6.179304122924804688e-01
6.675374100288905543e-01,5.098809607280556655e-01,3.005606332484422882e-03,-3.311585817907447635e-03,-2.846823898061735282e-03,-2.185501342142398898e-02,6.026445627212524414e-01
6.260235341894764272e-01,6.163719844739726783e-01,-1.363703563864704371e-02,2.653356266555851987e-03,-2.224785825066423126e-03,1.734276603704875731e-04,6.349182128906250000e-01
6.219352458145638307e-01,5.993802670619152728e-01,-8.460263659103572920e-03,-5.313371499607351910e-03,-9.196777968647732934e-03,-9.492133259296530248e-03,6.199172735214233398e-01
6.169235591133652719e-01,6.060308845713848758e-01,-6.300884888320312793e-03,-5.124914112470554083e-03,-8.893431987371617012e-03,-6.164849218042647329e-03,6.181980967521667480e-01
6.230997925172869767e-01,6.200472427549552634e-01,-1.294877643570935266e-02,5.777481622375076065e-03,-2.805439364535445949e-03,-1.633215858491099100e-03,6.346316337585449219e-01
6.177568159609494458e-01,6.220935520132515606e-01,-8.117898090909680953e-03,-1.387040416961920477e-03,-9.845983148308362978e-03,-1.060419254006028135e-02,6.285588145256042480e-01
6.895998301830658095e-01,5.806373589495659182e-01,5.493912450767152178e-02,3.969122600444963123e-03,4.711352234428604381e-03,-8.620341146060349694e-03,5.880898237228393555e-01
6.283839056988101968e-01,6.265089778535071208e-01,2.785699859876772377e-02,5.664137289940230106e-04,1.669093522437902800e-03,-9.882977599324474852e-03,5.998436808586120605e-01
6.588656058361480605e-01,5.663635191722879991e-01,-9.036407754441921902e-04,8.574120296701263563e-03,1.652548961801264191e-02,-2.661165437598949149e-02,6.212780475616455078e-01
6.187221839927923295e-01,5.890128692315137471e-01,-6.993791377831348743e-03,-2.734152235103702241e-03,-1.130361275000418657e-02,-7.728248915690101063e-03,6.118810772895812988e-01
6.872110629273713300e-01,5.165016886388381634e-01,4.994301024048852788e-03,3.870368309826987402e-02,3.445286056357474425e-02,-7.257559924272376228e-02,6.340009570121765137e-01
6.951908397405137663e-01,6.400312468576655478e-01,2.297556132991129818e-02,2.769855999878024708e-02,1.990698284854231729e-03,-1.393362582765534513e-02,6.486392021179199219e-01
6.632230624127073426e-01,6.217655448227267234e-01,2.134858551820117967e-02,-6.839042326092643377e-03,2.935847137555052094e-03,-2.077052649040715335e-02,6.233550310134887695e-01
6.998518258415187265e-01,5.775423459536944693e-01,1.554485897161411723e-02,2.992504874656709904e-02,6.513841536611262618e-03,-3.456281839321495575e-02,6.371310353279113770e-01
6.274946784886749063e-01,6.258394357505067118e-01,3.188521262276428070e-02,-1.797169134349708161e-03,7.890636887226970195e-03,3.238935225027435132e-03,5.949751734733581543e-01
6.161233450163110525e-01,6.174220994756505210e-01,-7.044249748090314345e-03,2.171893130291618033e-03,1.543383903791419910e-02,-1.500668071921489218e-02,6.249426007270812988e-01
6.150148260851482362e-01,6.438355471885319758e-01,1.988854631247261029e-03,1.840879928628525494e-04,1.049965613430504582e-02,-2.004985106421091484e-02,6.291550993919372559e-01
6.065107329583928619e-01,6.361972588645139481e-01,-5.233514487060775267e-04,1.381086225716009544e-02,1.487670014768150556e-02,-1.019901790446037064e-02,6.236510276794433594e-01
5.441554134837280898e-01,6.387392948559016403e-01,-1.201704285736282518e-02,1.522212994459651823e-02,3.575536728047851859e-02,-1.613063025630160838e-02,6.133432388305664062e-01
6.062675375453074889e-01,6.345613424482875464e-01,-4.377150662890516575e-03,6.139523201077082964e-03,1.135336804336073944e-02,-7.966514180751466806e-03,6.258235573768615723e-01
6.032358083952189531e-01,6.366012286417536137e-01,-4.491533577500539387e-03,5.626712002433544545e-03,3.474940763007396995e-03,-2.836818586462666689e-03,6.252025365829467773e-01
5.793121444581452728e-01,7.243918854087478820e-01,1.646483283856192692e-03,3.453252615776680745e-02,3.619859251241333564e-02,-1.195326967576868481e-02,6.681994199752807617e-01
4.650507861239954188e-01,6.497167090460749250e-01,1.370020627948642655e-02,9.699550465811085376e-02,-4.487760156729129341e-02,2.452916954952154630e-02,5.976950526237487793e-01
4.494091157234356704e-01,5.899831387667107130e-01,1.955207233965688962e-02,1.508371041918405431e-01,-2.677728358462634281e-02,1.959198238210592413e-02,5.801060199737548828e-01
4.486832483593354848e-01,6.832740305405806680e-01,3.148097378263314816e-02,1.588790902507346836e-01,4.320762459383360038e-03,2.187727103105303363e-03,6.346340775489807129e-01
6.227280299403301633e-01,6.274588179708227020e-01,-6.416658555703613764e-03,-3.824279095431183662e-03,-2.937454551634675805e-03,6.770224752087455715e-03,6.316874623298645020e-01
6.221746718802588783e-01,6.201151556903528039e-01,-6.777776286153447405e-03,-1.352747088593952117e-03,-7.686764296728315973e-03,9.123261614684496576e-03,6.282694935798645020e-01
6.248946174155753930e-01,6.336928203058987963e-01,7.229101999983961191e-02,-1.698183254543485492e-03,-6.463923627925651470e-03,1.024837168263594868e-02,5.574577450752258301e-01
6.330236369605757307e-01,6.240893236999164317e-01,5.107672148576936078e-02,-3.133292699829409462e-03,-1.138571334299165461e-02,-3.784013217096910461e-03,5.779308080673217773e-01
6.351444894151178078e-01,6.249815706064025811e-01,1.191819327421165808e-01,7.028261465989310564e-03,-9.176707414847501063e-03,-1.610340748858712977e-04,5.113490819931030273e-01
6.328804592812680152e-01,6.373702692734110054e-01,1.070289518360604819e-01,4.390460255950069841e-03,-4.885874714753810077e-03,7.000518312217087966e-03,5.283724069595336914e-01
6.250176067458953488e-01,6.310042945520597524e-01,1.025165646216306126e-01,-2.319911537668071545e-03,-1.357173278916382585e-02,4.219663899255202653e-03,5.261115431785583496e-01
6.309630321795864916e-01,6.304592780823402576e-01,9.023363391312078097e-02,-1.096993052466170397e-03,-1.399737550476987287e-02,2.491179291790884473e-03,5.410417318344116211e-01
6.267807036836039458e-01,6.295439487871585804e-01,7.674254112402129069e-02,-4.969651140732245578e-03,5.290664385807697899e-03,8.192428368963947799e-03,5.517507791519165039e-01
6.272262243820008187e-01,6.363420084443837110e-01,1.083583522952531464e-01,-4.247083848550446716e-07,-1.426370951935346937e-02,1.607299511776298390e-03,5.240753293037414551e-01
6.372285344230743664e-01,4.432268037649598202e-01,1.768019625551559004e-02,-1.059108897645840014e-01,-1.572038475478177225e-02,-3.381408498870545898e-02,5.823283195495605469e-01
5.185727147296899098e-01,5.202099733724563357e-01,1.212483657261237413e-02,-1.487278671767034710e-01,-4.080849577916897258e-02,-4.541299976901204405e-02,5.786746144294738770e-01
5.269691935828995089e-01,5.346914146777865806e-01,1.335289429683084172e-02,-1.445805601681330599e-01,-1.709470137058966693e-02,9.287663799191357011e-03,5.759111642837524414e-01
6.379940041361328307e-01,4.980972597956765391e-01,1.843080191167639770e-02,-1.712028010767545627e-01,-8.999755710369259038e-05,-3.489195969492493721e-02,6.390135884284973145e-01
6.089682445121098464e-01,5.576702561637478794e-01,2.012162223164454256e-02,-1.915663607378384481e-01,4.448462424006085266e-04,1.071625557978433301e-03,6.551810503005981445e-01
5.742447497819224145e-01,6.452793220681717345e-01,-8.240680327452842846e-03,5.163537277366833655e-03,1.741529365411103453e-02,-1.095356454732989912e-02,6.221427321434020996e-01
5.427015430561363818e-01,7.477476460217051812e-01,2.001266330600914856e-02,7.614166135045073724e-02,6.500315498843496631e-02,-2.354999542361433870e-02,6.739106774330139160e-01
5.743350443289679808e-01,6.788553014816998132e-01,3.910116534194263416e-04,5.433985448882548870e-03,8.795840562402262863e-03,-1.143587621376641536e-02,6.332756280899047852e-01
5.344261507773846454e-01,6.412523217000822839e-01,3.439211621702575883e-03,2.331325720287686157e-02,1.545888415896915641e-02,-1.159365615796692506e-02,5.939974188804626465e-01
4.758957089733978352e-01,6.879566347513206281e-01,-7.204031141204769728e-03,3.126678114239641454e-02,3.537685549093220333e-02,-3.120112271523465576e-03,6.225097179412841797e-01
4.330626573136804325e-01,7.590237373612027660e-01,2.160442721630656537e-02,8.985274794019947053e-02,3.891093088730845223e-02,-3.934482362744370215e-02,6.656385064125061035e-01
3.718465951654274515e-01,7.377658629329069129e-01,2.457825364016036351e-02,1.409859307203567558e-01,5.637266446687387751e-03,1.137933700961261084e-02,6.645895838737487793e-01
4.302901949377868074e-01,6.032575228725091110e-01,1.890840586223480058e-02,1.470944623439123244e-01,-2.620162157098563510e-02,6.363802351407690273e-03,5.808611512184143066e-01
6.289417000882671083e-01,6.136545682054307393e-01,6.940264985340782733e-03,-1.207752050242998955e-02,-1.310715345226362745e-02,-3.620698229183797259e-03,6.153073906898498535e-01
6.109651471449092375e-01,6.119071492698635595e-01,-6.319789449543311566e-03,-2.378025281861670392e-02,-1.312876848157901698e-02,-1.821168603044965792e-02,6.203480362892150879e-01
6.098305493947822065e-01,6.483620649862891216e-01,-5.152124371457789120e-03,-1.681171669418203216e-02,-1.368945008450962210e-02,-1.329045886054474462e-02,6.366510987281799316e-01
6.272283591100507039e-01,5.893278579466969536e-01,3.903005161006362078e-02,-3.374369608869022541e-02,-1.632178599421059764e-02,-2.790700127720467313e-02,5.759099125862121582e-01
6.348934035102277162e-01,6.184372107340199154e-01,3.728534379106179797e-02,-2.506004644245710209e-03,2.620018002234388889e-03,-7.798653827682725101e-04,5.895872116088867188e-01
6.501994809271874898e-01,6.241271311367591057e-01,3.358794565511369346e-02,-1.367612833148968039e-02,4.216197005875624293e-03,-4.323340556019642823e-03,6.045523285865783691e-01
6.267748929455049245e-01,6.264330615287407866e-01,4.484563365783117428e-02,-1.398562211008465153e-03,-3.709296406577698105e-03,1.056718790726961043e-04,5.817989706993103027e-01
6.009620381996203520e-01,6.262852317598467389e-01,-8.468281515587650077e-03,-4.647767919783473041e-03,4.608492588765076246e-03,7.773331309097303819e-03,6.227271556854248047e-01
6.009267984765841453e-01,6.176705947072475000e-01,-7.473193544131617738e-03,-6.427785616338901886e-03,9.922669227019999868e-04,9.151642970047186437e-03,6.172487139701843262e-01
5.489897731172889150e-01,6.315638776544616473e-01,3.977637600895866932e-03,-9.592593205628748357e-03,1.044877577869049272e-02,1.690437291448459653e-02,5.918796062469482422e-01
5.802814677003151900e-01,6.373677011799712133e-01,-3.714014335658710753e-03,-5.874724986603411386e-03,2.460612301430481832e-02,2.158775316235502992e-02,6.172241568565368652e-01
5.621657673456661453e-01,6.151923583766654158e-01,5.033253334562282078e-03,-7.097957252331632376e-03,1.031835159154946384e-02,1.493634024004502486e-02,5.864223241806030273e-01
5.783455481218952032e-01,6.568293812588456015e-01,2.674269361195641403e-02,4.524533365754900005e-02,-4.472526061162406669e-02,2.075006326663483489e-02,6.059302687644958496e-01
6.322790310185288920e-01,6.316440962539238146e-01,3.824173777789979800e-02,-7.786967716956224098e-03,1.506754716310433444e-02,-1.210283538418535990e-02,5.948159098625183105e-01
5.776125654135618737e-01,6.454348515216258297e-01,-1.198712747084185182e-02,8.301734851561973563e-03,-8.802387632625786884e-03,1.691464735696569105e-02,6.273062825202941895e-01
5.909670516699342402e-01,6.678234858672620344e-01,-1.284565438606255494e-02,2.740809775060104939e-02,-1.682498772558486608e-02,7.870927090784346838e-03,6.482223868370056152e-01
4.991959091155950823e-01,6.902502379341874938e-01,-3.636674632030267862e-03,2.135345632846571279e-02,-7.343263604858171756e-02,2.640025392090909924e-03,6.348043680191040039e-01
6.190879213066854403e-01,6.148091090053136032e-01,-1.443690743651221409e-02,-2.033199832308661952e-03,-1.874452728158595462e-03,5.912429734937934590e-04,6.314153075218200684e-01
5.793114499717234578e-01,6.859670340006118749e-01,-2.038827229503936689e-03,2.002631179742095716e-02,-1.482539434126175192e-02,-2.928102351085032275e-03,6.428344249725341797e-01
6.245367986717730302e-01,6.294231633911802071e-01,2.928954933175220710e-02,-4.481236756341011075e-03,-7.044504092457176507e-03,2.400661787128264158e-03,5.978947877883911133e-01
6.173474649211494469e-01,6.087570064139211645e-01,-7.916316192833006138e-03,4.449432493413349801e-03,-7.350649612854151874e-03,7.767138839937483968e-03,6.213370561599731445e-01
6.071006848918593102e-01,6.164547863727116717e-01,-1.073476398681005861e-02,4.351795604046838906e-03,-7.269787297731292522e-03,8.519651625875397996e-03,6.229129433631896973e-01
6.163177178362618802e-01,6.201283296469459749e-01,-1.258465515937262635e-02,-2.200406325486616195e-03,-2.818443003991842350e-03,4.119541939725986264e-03,6.308870911598205566e-01
6.098076149376203681e-01,6.051033077188083809e-01,-1.158204667083789774e-02,4.418672695413019928e-03,-7.811631394007401662e-03,8.035458751072246594e-03,6.194024085998535156e-01
6.161355750818772181e-01,6.226816748644409261e-01,-7.016205226457628008e-03,2.070068490417412838e-03,-8.479836444616984867e-03,9.661169793164323116e-03,6.268562674522399902e-01
6.192951066200200749e-01,6.160311151132318308e-01,-1.383828173734968914e-02,-2.743334389750188770e-03,-3.178703168722338789e-03,2.144887961018311206e-03,6.315605044364929199e-01
6.269477813624712015e-01,5.275576048639163407e-01,1.602903949168454911e-03,1.040721525813438075e-01,-2.511331541195536282e-02,4.971226062937782186e-02,6.169120669364929199e-01
6.362897550883565012e-01,6.179630131817580585e-01,-3.581068597762304684e-03,2.828588182685772695e-03,-2.176331230103713960e-02,3.330332188048917841e-02,6.346778869628906250e-01
5.540884676728915492e-01,5.880162805440292129e-01,4.762257753546161876e-03,1.044141744796357185e-01,-3.698382248239492909e-02,4.474230392824873892e-02,6.036255359649658203e-01
6.036577431749193812e-01,5.893655230330948624e-01,-2.923000952523069351e-03,2.541678468428794010e-02,-2.075909411152056933e-02,2.492407693780462202e-02,6.037959456443786621e-01
6.044843803108748137e-01,5.961473794654956748e-01,-5.686231261178675833e-03,3.253716477776975868e-02,-2.064351084874466516e-02,1.523016228467961516e-02,6.102794408798217773e-01
6.149506291377837552e-01,5.683309571193531085e-01,1.649205753730093038e-02,5.765685971559792594e-02,-2.509790226425604939e-02,2.190142309496745029e-02,5.879862308502197266e-01
5.267438288615026165e-01,6.149803696640726569e-01,3.537738510225862942e-02,3.240323869534082052e-02,4.964226378684447917e-03,-7.361821701980125233e-03,5.440308451652526855e-01
6.105135500717522312e-01,6.235671762335406321e-01,-1.091051870298842541e-02,1.182251124958461162e-03,3.199416403040864203e-03,-6.146708780897116794e-03,6.281706690788269043e-01
5.879249695598578462e-01,5.180251643078827017e-01,2.105953077589256539e-02,5.975279205030051971e-02,-1.351233405572885120e-02,1.423219928384017452e-02,5.463197231292724609e-01
6.176839817804697930e-01,5.906914924036171799e-01,-5.772061608476652950e-03,1.375020217552493373e-01,3.291542314886642534e-02,-9.134909790821084050e-03,6.578893661499023438e-01
6.615562529032843475e-01,5.673614999816940507e-01,-6.503025472072543334e-03,1.179118800177900508e-02,2.289929281098849329e-02,-1.946774606263675100e-02,6.287888288497924805e-01
6.469918519343262897e-01,6.082464323133560669e-01,6.059598383872277783e-02,7.062965454661317317e-03,1.557656778499532518e-02,-3.020457471409812491e-03,5.688111186027526855e-01
6.363650065738547523e-01,6.448014544546393223e-01,7.217650695846900000e-03,2.043542351567614532e-02,2.539760024977497782e-02,-2.725891520063231446e-02,6.376695036888122559e-01
6.456416074771744729e-01,6.406459982146093246e-01,-2.801491179840576162e-03,1.521995153212008824e-02,2.448439417430016418e-02,-1.908423975058691144e-02,6.487295627593994141e-01
6.279220303659411861e-01,6.195058292030153346e-01,-1.120310598460655394e-02,-1.205041614196612201e-03,7.602230912868063011e-03,-4.266264783817894676e-04,6.350992321968078613e-01
6.649803597306251923e-01,5.851622044599147365e-01,1.309609827189844866e-02,1.043736277608290769e-01,2.211390372793643755e-02,-4.618584008667214746e-02,6.479505300521850586e-01
6.343125990258898783e-01,6.343219235538480882e-01,1.132961710217733620e-02,2.927289316360032895e-02,2.847328613544714004e-02,-3.698362466338504795e-02,6.302537918090820312e-01
6.475992923352684727e-01,5.513882432614745088e-01,6.286548121637536291e-03,5.343831148751532201e-02,2.349500030430833747e-02,-4.880124219377537237e-02,6.133554577827453613e-01
6.256210843660403587e-01,6.298228201664960446e-01,3.285624976161166666e-02,2.107315231635480558e-03,6.051034285844925260e-03,-8.397409555755944079e-04,5.949821472167968750e-01
5.035890325065768280e-01,6.875064945145984430e-01,5.260464094527128598e-03,5.572503851492429869e-03,2.130322990902150035e-02,-3.501510646565024308e-05,6.125870943069458008e-01
4.221014158462514376e-01,7.338572775914760093e-01,1.624521368478198946e-02,5.089373972147046704e-02,3.030918559636435958e-02,-1.538159965099198181e-02,6.321987509727478027e-01
4.900909457874850217e-01,6.746692131010081361e-01,1.950094846926658798e-02,2.068832561602077305e-02,2.228683991638851641e-02,-5.544031427698302601e-03,5.875807404518127441e-01
4.212051267709405189e-01,7.108236146595763305e-01,1.775166191286353667e-02,1.239115694504025131e-02,1.752578919007498001e-02,-4.403635812894607891e-03,6.041038036346435547e-01
4.137344576308729094e-01,7.003755914468425825e-01,3.697018663279932893e-02,-9.267583328300268292e-03,-4.062102104344681060e-03,8.145727378341136374e-03,5.767294168472290039e-01
5.018679047772287571e-01,6.890104029388186557e-01,6.228777581622213511e-03,1.327059123815151065e-03,1.421966969098541200e-02,1.433207583110371547e-03,6.115992665290832520e-01
6.650524307249625622e-01,6.541641377948088643e-01,6.082403372423939025e-02,-2.562294984171227183e-02,4.085368810895527621e-03,-1.042473556897255578e-02,6.008138060569763184e-01
5.709054254689804875e-01,7.310212179394128817e-01,9.174418751745166967e-02,1.991870375593905729e-02,8.531125756992304077e-02,-2.628740204446084264e-02,5.975376367568969727e-01
5.633322856446969507e-01,6.644270199128238241e-01,4.011088427050885086e-02,9.191209987097574349e-03,2.722322120867355991e-02,4.682756809340508398e-03,5.825961232185363770e-01
2.711953577172984686e-01,9.805584653976778808e-01,-5.365023859842366072e-02,5.246667080834341995e-02,-1.101981835291411943e-01,3.933919089391770159e-03,9.401541352272033691e-01
6.397077522946503780e-01,5.873667802714245267e-01,-6.665712464598627651e-03,-4.220710172348873107e-02,1.863375750993997645e-02,3.939927622577793498e-02,6.306737065315246582e-01
6.621181990603890455e-01,5.852965890378196701e-01,-7.824315935696046775e-03,-3.366908637219578199e-02,1.647948639113712074e-02,3.485858787046049179e-02,6.411859393119812012e-01
6.431590392771593390e-01,5.874067567627621056e-01,1.501855868690787910e-02,-4.411658822272745278e-02,1.868371339943141612e-02,7.956928932048652064e-03,6.080497503280639648e-01
6.361634026228111249e-01,5.823975909878890134e-01,2.731115081183321802e-02,-7.717441669213832844e-02,7.170955297377575033e-02,3.887864247614532948e-02,6.153742671012878418e-01
5.842503867184434263e-01,5.872468678459938918e-01,-2.834492442098379694e-03,-1.700751031806388702e-01,4.982618849585172816e-02,5.319872141187971526e-02,6.701878309249877930e-01
6.185880957217788634e-01,5.850651217035258700e-01,3.670938702253601083e-03,-5.291192799363668431e-02,1.688843222503732394e-02,2.786059284016872972e-02,6.084540486335754395e-01
6.329242591057228084e-01,4.871615371120391336e-01,-6.503458924739580205e-03,-9.619375613557105964e-02,3.241526010905778493e-02,6.810666639149494384e-02,6.178489923477172852e-01
4.184271227560971695e-01,6.788599064258240556e-01,3.619905495386183114e-02,-3.424157431844290778e-02,8.986311901225342916e-03,7.897248221457313366e-03,5.633960366249084473e-01
6.452045777646365776e-01,5.832050737433722709e-01,-5.410782268182867671e-03,-2.615234377006081176e-02,2.976350271465546052e-02,2.763460213267442817e-02,6.275403499603271484e-01
6.212570839420455959e-01,6.235519543348552185e-01,-1.884553000751354457e-03,-1.126358808822696712e-02,1.627932104055155238e-03,1.068008032070000453e-02,6.248772144317626953e-01
4.913189030603142826e-01,6.188640994137437623e-01,3.499693804843728717e-02,-7.865963824836812168e-02,3.906925802039813364e-03,1.740273243440929171e-03,5.489226579666137695e-01
6.449813994599928879e-01,5.677954227647826757e-01,-3.593791341121588268e-04,-1.839820736003558097e-02,1.417039995908982684e-02,1.836245627103874276e-02,6.125687956809997559e-01
6.235064015086501099e-01,6.037626000777356339e-01,-9.621056626408497348e-03,-3.628757996892147206e-03,3.885722282736322076e-03,5.699216413301568321e-03,6.236361861228942871e-01
3.618276626113761107e-01,6.962006299284300148e-01,2.032761562620832851e-03,-9.455711836282815197e-02,-1.344720489949192445e-02,-3.055170303706035428e-02,6.258827447891235352e-01
6.311585534262545982e-01,6.049779831072127356e-01,-1.020764045937783138e-02,-4.673151592939691658e-03,7.320270004203845854e-03,6.968239370838608289e-03,6.289806365966796875e-01
5.183967975133464412e-01,6.386686546271187481e-01,3.159097244519443182e-02,8.510580204582730846e-02,-2.790194144576937929e-02,2.046536301090453105e-02,5.790641903877258301e-01
5.311921655487611416e-01,5.923662311037781736e-01,2.453478137180742369e-02,1.095770976990359524e-01,3.132797763655448958e-02,-2.366089947083316672e-02,5.762668848037719727e-01
6.167655522233776999e-01,6.164298468916624696e-01,-1.553450407396866906e-02,1.418573337246260018e-05,-7.373311527036708127e-04,5.778658886971449514e-04,6.321343779563903809e-01
5.635402437530161457e-01,5.620533957548303761e-01,3.523056206063784890e-02,3.384539957096713292e-02,1.928424220357789287e-03,-8.740307663431295254e-03,5.310411453247070312e-01
5.625275047669715534e-01,5.579456919664773640e-01,3.123710834587678509e-02,3.723559615534952766e-02,-4.147823664184791502e-04,2.547360427621614149e-03,5.329499840736389160e-01
5.531015459536761103e-01,5.920059330156186572e-01,3.217279899896019479e-02,4.442436813287613945e-02,1.338524487298769876e-02,-1.098279309455571506e-02,5.476921200752258301e-01
5.853355895810892218e-01,5.015027968163324745e-01,2.891953553775600261e-02,7.365291293677896090e-02,-5.653226501152958453e-03,5.293920424238066254e-03,5.351963043212890625e-01
5.609950061831551205e-01,5.787258046016025004e-01,3.305278219828705621e-02,5.007764651676439860e-02,-6.278769873979254436e-04,-5.335921212031434382e-05,5.439878106117248535e-01
5.546646219018993573e-01,5.305262372911305757e-01,3.008976695202547624e-02,8.280217027642636229e-02,5.200785287070005224e-03,-6.547337276049415393e-03,5.328014492988586426e-01
6.236134317420879425e-01,6.231110583987329310e-01,2.247533926480799193e-02,2.706858567593495128e-03,-9.063031314440455483e-03,1.522178755630952153e-02,6.016882658004760742e-01
6.300938062205304613e-01,6.026642558009497330e-01,-3.467042512296292234e-03,-2.304940610884862161e-06,-9.147081886147875179e-03,7.111660636789832353e-03,6.206256151199340820e-01
4.435784917752133572e-01,7.021981997547106502e-01,2.371223726247506658e-02,9.150509774149528583e-03,1.324959793488816179e-02,-2.693498372269709641e-04,5.937470793724060059e-01
5.351635181932397067e-01,6.727856100290796615e-01,2.874940589169650007e-03,3.135672275246238760e-02,1.651670644433001628e-02,-6.740274461300183907e-03,6.159789562225341797e-01
4.989702835136470283e-01,6.587307475855765926e-01,3.272364742178457409e-03,6.117014216759364409e-03,2.362071754524569175e-02,-4.605547800481541929e-03,5.935338735580444336e-01
4.474696952958969742e-01,6.720764324972408055e-01,1.441357570130857857e-02,3.079213232856027604e-02,3.168048062224361472e-02,-1.721515253794864836e-02,5.848056077957153320e-01
6.356981966617132329e-01,5.742942942419759778e-01,-2.967525631147827081e-03,1.749196707334121220e-02,-1.765571997819428279e-02,1.687246913485383748e-02,6.124988794326782227e-01
6.295906928423624649e-01,6.046493989945177505e-01,-7.839723335731130227e-03,8.065598225175843461e-03,-6.270180201446093511e-03,1.262365947470048440e-02,6.259652376174926758e-01
6.194105804028049445e-01,6.078474960564810292e-01,-7.372423465909661022e-03,2.253303110875699150e-03,-9.405470014538754725e-03,6.563109171436889121e-03,6.214120388031005859e-01
5.970839804566312470e-01,5.632603473152462126e-01,3.744883856238112596e-03,4.077700837487505114e-02,-1.380190328990419345e-02,1.348508133643088087e-02,5.824360251426696777e-01
6.258807347845358748e-01,6.060805213514586232e-01,-7.172676070947847649e-03,2.399856229684013686e-03,-1.132758310565393917e-02,5.381186243567480029e-03,6.237813234329223633e-01
5.527379753721418654e-01,6.403997890928002645e-01,1.488766584992473607e-03,8.702459286644825820e-02,2.409970280466632725e-02,-1.565610443015487754e-02,6.205492615699768066e-01
5.672352468990348173e-01,6.251777545720771379e-01,8.701387998496512566e-03,8.372664603768070757e-02,3.467320896377235062e-02,-1.255338278701566453e-02,6.105654239654541016e-01
4.904019932683256200e-01,6.463312900488892287e-01,2.574878228942123481e-02,7.264117001556233411e-02,3.423188692183038589e-02,-2.626831034550800026e-02,5.780012011528015137e-01
4.538242460344682483e-01,6.611850638890323095e-01,3.490739731045416905e-02,8.399735213573053527e-02,-3.911632269506484794e-03,2.544418825605930523e-03,5.714794397354125977e-01
4.110509528532151347e-01,6.722850460540676920e-01,3.025870791389417835e-02,-7.572385504178040516e-02,-1.660429641365849737e-02,-1.104937296490399352e-02,5.754281878471374512e-01
6.030545265471856098e-01,5.893350540864661369e-01,5.993791569804785002e-03,4.837489635902384594e-02,1.667529808013631931e-02,-1.763164237965435602e-02,5.977169871330261230e-01
6.341840102934666046e-01,5.185220527597838025e-01,7.060910387128693788e-03,4.694041255982957239e-02,3.016258145924469863e-02,-3.545766283366767052e-02,5.892691016197204590e-01
5.282139168069837076e-01,5.856286760113224021e-01,2.588232752680152959e-02,6.789523746129368098e-02,3.888879722409881862e-02,-2.105692278583122870e-02,5.515171885490417480e-01
6.158775942591416808e-01,6.161046948212693941e-01,-1.451501906496938110e-02,5.286529099758072777e-04,2.679716324947977878e-04,1.773158565696954497e-03,6.305145025253295898e-01
5.607894489006324257e-01,5.893890994930932603e-01,2.035654763871630468e-03,3.819071961469801962e-02,1.899285488154421955e-02,-1.777979440924535789e-02,5.791459679603576660e-01
6.328397927138386114e-01,5.864417288847418863e-01,-3.752756944086776958e-03,1.859108885503744577e-02,1.608420322012732093e-02,-8.306839067220352438e-03,6.163491010665893555e-01
6.348779478417568845e-01,6.215149617701436480e-01,6.324145937143310636e-03,-6.719638350373731764e-03,3.083245894919181378e-03,-1.412721013932194836e-03,6.221166253089904785e-01
2.652370973418626265e-01,7.030061406234693333e-01,-2.073830776641027995e-03,-1.710062423905590046e-01,1.666374044535889540e-02,-7.449663717753034556e-03,6.847234964370727539e-01
6.148245314987696997e-01,6.314733277824979840e-01,-8.556159705064292353e-05,1.353970288572148989e-02,1.429223779695398301e-02,-2.077424547977865105e-02,6.253691911697387695e-01
6.097573568809727673e-01,6.447634883413675411e-01,-6.125293498808526138e-03,6.444903583355168948e-03,2.640463971793500023e-02,-2.039643142112514823e-02,6.368365883827209473e-01
6.671882031569319471e-01,6.480483490656708812e-01,2.807464135470788547e-02,8.071958961052841386e-02,2.079815062182408664e-02,-1.264720177311984750e-03,6.461032032966613770e-01
6.360218492676261715e-01,5.831378973805303456e-01,6.981822725132258434e-04,1.526572360476143378e-02,2.333639564710604519e-02,-2.254057474316837825e-02,6.137520670890808105e-01
6.219064203567800098e-01,6.097921766243911135e-01,-1.958100701320741877e-03,1.429231071912227813e-02,1.175774274517589826e-02,-1.586160069302759018e-02,6.193370223045349121e-01
6.064483986105086988e-01,6.871093603631437396e-01,4.140029579236848001e-02,7.912357756116612795e-02,-2.893961411153787855e-02,4.050920787279586183e-02,6.305394172668457031e-01
5.546860625854869165e-01,6.701254452252631832e-01,-2.827729457203775887e-03,4.667443163974965142e-02,-5.380878522389522661e-02,2.186618073517367436e-02,6.365241408348083496e-01
5.614821877969105035e-01,6.326246408618666495e-01,-1.011443001544010123e-02,7.710803064026548748e-02,-6.536873541130076848e-02,3.793929111909918189e-02,6.382970213890075684e-01
3.098450665289902983e-01,8.633052843676727317e-01,-1.915649869167423969e-02,-8.564967300718932114e-03,4.904656433673936639e-02,-4.531902195451559257e-02,7.811835408210754395e-01
4.224764381529238499e-01,6.858455547833592902e-01,1.629151903685233105e-03,1.497068334712927662e-01,3.894719219007666822e-02,-1.385059736963357817e-02,6.554971337318420410e-01
3.594687217107471744e-01,8.143163658541126004e-01,-8.331315161303193273e-02,3.025528824902366520e-01,6.394417941069094335e-02,-2.679299268764267009e-02,9.451853632926940918e-01
3.454397110894616985e-01,8.129956356364672621e-01,-3.341857779189771893e-03,3.002955466803344242e-01,6.624485368927909845e-02,-1.629773520529055261e-02,8.875957727432250977e-01
3.942656886914273628e-01,8.281005603272084681e-01,5.201060518907385521e-02,8.650910769849799731e-02,1.189516548524573586e-01,1.930323628902452793e-02,7.210071086883544922e-01
4.056970299954747450e-01,6.833402032127047221e-01,2.285064994658453363e-02,1.574291081581044582e-01,6.190417951532251051e-02,-1.841297856025747928e-02,6.456136703491210938e-01
3.562780114937988962e-01,7.470107339398953661e-01,2.439620802616121464e-02,1.295698435641952362e-01,1.134689410219933969e-01,-2.365893006872035048e-02,6.951003670692443848e-01
4.051040068529070948e-01,6.897566651931742454e-01,4.197516252551880545e-03,2.446177232843317340e-01,4.799889871353246740e-02,-7.913645923435876084e-02,7.490561604499816895e-01
6.006446151226970676e-01,5.826920052803495897e-01,-2.527923641781948394e-03,-4.899368434401715072e-02,1.702675962848067617e-02,2.418979426958949713e-02,6.026086807250976562e-01
6.270272825561489238e-01,6.031263774385751120e-01,-6.542164841992992308e-03,-1.482592245643046943e-03,6.960236788288351982e-03,6.769138090477535251e-03,6.221961379051208496e-01
6.198881279001671185e-01,5.876769655596607578e-01,9.958499982153201646e-03,-4.002233350155576935e-02,8.451273159931233653e-03,1.045904319949340737e-02,5.989599227905273438e-01
6.415913016123834245e-01,6.258929501769699977e-01,8.664451203644341071e-03,-3.979884963215865080e-03,1.389329123157280292e-02,1.431006336575033414e-02,6.262170672416687012e-01
6.329555850728466604e-01,6.000845478579794889e-01,-1.630824537554476095e-03,7.335334150782136338e-04,2.335127319628647544e-03,7.844732648812404938e-03,6.189696788787841797e-01
6.318636967272209803e-01,6.242167150816201326e-01,-7.155654373026676396e-04,-9.335102382475073330e-05,2.121115683504817655e-03,7.789115391506285825e-03,6.289461255073547363e-01
6.167288852303239866e-01,6.132563183809948137e-01,-1.216706198109451798e-02,-1.244118754938734143e-03,3.018484659383687940e-03,-2.216980506022727532e-03,6.272041201591491699e-01
6.224803050208879140e-01,5.692051104207250800e-01,-3.919599768531067951e-03,-3.070208612590989705e-02,6.599319782479251724e-03,1.151607402999915014e-02,6.043177247047424316e-01
6.342639559052360987e-01,5.745855811810912650e-01,-1.031319201133318320e-02,6.053157422126222847e-03,1.133623255309568895e-02,1.708602638914466856e-02,6.180170774459838867e-01
6.518580340462589717e-01,5.981538691753538473e-01,4.102881969561544828e-04,-1.285753617365818779e-02,1.122622041739276474e-02,5.343004083736056439e-03,6.270905137062072754e-01
6.255739364464704133e-01,6.225891205147300322e-01,-9.830418631874171531e-03,-4.999900790765330651e-03,5.141672871702925897e-03,7.926499789747201707e-03,6.341875195503234863e-01
5.308519357244146919e-01,7.355365680779557547e-01,-6.944138906505192832e-03,-2.517757267841216895e-02,-4.702997210542895351e-02,-1.070758392572331713e-02,6.708801388740539551e-01
5.340022814541920404e-01,5.651182953132315445e-01,1.986575876585994216e-02,6.846478928847964107e-02,6.418784289215163398e-03,-2.805522436696751640e-03,5.436100959777832031e-01
5.248088556006871297e-01,6.389544768999051438e-01,2.781099808841425158e-02,5.807927283474589170e-02,-1.870835628529747205e-02,2.396061413065717419e-02,5.741586685180664062e-01
5.124342561291883591e-01,5.402139200612483538e-01,1.780509118173856375e-02,1.509363452593430188e-01,2.829890765610378056e-02,-1.795045701739117483e-02,5.752258896827697754e-01
6.142434604814768218e-01,6.223979470642737599e-01,-1.070221674934151990e-02,2.390050137980367917e-03,4.537054004588500153e-03,-6.597068568159686168e-03,6.292290091514587402e-01
5.618621613819984040e-01,6.350956480424696515e-01,3.831233510457443536e-03,5.419998989868276412e-02,-2.688595043603817999e-02,2.897174278685672733e-02,6.092025637626647949e-01
4.980923422862304495e-01,5.818053446918907134e-01,2.984196909635322692e-02,7.916644331754515984e-02,-1.698155828679872355e-03,4.246099533906323373e-03,5.332257151603698730e-01
6.073417364017364983e-01,5.792788429610591372e-01,1.837271166271159384e-02,6.932598784553592464e-02,-2.750803023905475098e-02,3.415719479618131715e-02,5.927329659461975098e-01
6.170512221927235696e-01,6.115879424955332766e-01,2.328194005801698108e-03,1.272395847987158046e-02,-1.944845065480955287e-02,1.372129231221048615e-02,6.137923598289489746e-01
4.968172455634751739e-01,6.032451845004227486e-01,6.132265965920868922e-03,1.273845033321787945e-01,-4.499525245250757949e-02,1.661774909545525938e-02,5.999198555946350098e-01
6.146272299125417060e-01,6.172917297342486176e-01,-1.445830464279163063e-02,-2.716254955157294706e-04,-3.668537941816303366e-04,1.727388769952191254e-03,6.304296255111694336e-01
6.159822543846691367e-01,6.381251357281904069e-01,-2.929088808825086598e-03,3.013683476946033349e-02,2.615025807227599683e-02,-1.750445541296672888e-02,6.347767114639282227e-01
5.413839556126525121e-01,6.373058219542327985e-01,-2.472415383329795713e-02,5.835223381919597829e-02,6.149990445531499511e-02,-1.680530167662466073e-02,6.374875903129577637e-01
5.539689900831135105e-01,6.781474159436802207e-01,-6.535703322640640245e-03,1.201237957771772447e-02,3.234494320002183343e-02,-1.608414590449249934e-02,6.352447867393493652e-01
5.361004141567689008e-01,6.401445058797087251e-01,9.860686943574281660e-03,6.692821486371883233e-02,4.369280776643122421e-02,-2.646406671712410105e-02,6.031351089477539062e-01
5.317116453750098115e-01,6.914379549615963239e-01,1.781833789275316660e-02,3.824615416758701814e-02,4.773612315758472835e-02,-3.850702463597717451e-02,6.223776936531066895e-01
6.138259562916453804e-01,6.307750860246610358e-01,2.971168616835651033e-02,-1.077907007389139341e-03,-2.373474809468476782e-06,8.511004785150272237e-04,5.927753448486328125e-01
6.576462420409323606e-01,6.907663863605275623e-01,2.148814958777478523e-02,2.983970466426707699e-02,4.212038443434992785e-02,-3.658196612427905975e-02,6.624741554260253906e-01
5.449391867951161039e-01,6.867884424691119705e-01,2.985900951271058812e-02,1.171110042896742094e-02,9.222667815696425353e-02,-2.086297341301271424e-02,6.210693120956420898e-01
6.888983991756849612e-01,3.537517231780720195e-01,7.163144523885844883e-02,1.336811213242511398e-01,-5.762567337414012392e-02,1.166092429667168889e-01,6.251671910285949707e-01
7.233462625993407613e-01,3.846384313035487446e-01,-3.764390609432399781e-03,1.740056764125290367e-02,-3.722810748829357037e-03,4.913729442504557315e-02,6.366539001464843750e-01
7.252572257265035294e-01,3.971307424009907217e-01,-3.649755776449492561e-03,4.599487085775575551e-02,7.940168959389410849e-03,5.034327649305277153e-02,6.433799266815185547e-01
6.721728458735054534e-01,4.926195146303599115e-01,1.303332926118710988e-02,5.046480143902731114e-02,-1.773528321443604977e-02,4.718652902467411481e-02,6.030066609382629395e-01
6.954198750549362984e-01,4.145079319159883924e-01,2.725213665364523141e-02,8.826719105114207153e-02,-2.866835063616717666e-02,3.812300317542920841e-02,6.065165996551513672e-01
7.228382508016115704e-01,3.637366990585447213e-01,3.422889324278716172e-02,7.925081869454683736e-02,-2.121283606937275461e-03,1.129174820593186954e-02,6.124493479728698730e-01
7.445278459783748470e-01,4.206498466578328932e-01,5.685703654753848646e-03,6.561563976857928693e-02,-1.466718826267754839e-03,2.679169969218890557e-02,6.531202197074890137e-01
6.872958578646726213e-01,4.369449095932702032e-01,8.298883560731162845e-03,2.814353430840309603e-02,-1.590717927074025359e-02,3.660315716911170109e-02,6.007325649261474609e-01
6.881450666286744733e-01,4.108773612206098047e-01,3.219533427528581404e-02,9.419136806357547576e-02,-4.347692924466931008e-02,4.478354915981314771e-02,6.029736399650573730e-01
6.447613459111120049e-01,6.138084374756314077e-01,-9.021773923980069831e-04,-1.351451224884457451e-02,-7.035314358610142427e-03,-1.616906742508390782e-02,6.319296360015869141e-01
5.336906547904330944e-01,6.046782352511026470e-01,2.196812840414280599e-02,1.406937293862450811e-02,-1.033307085199648527e-02,1.335321644724855004e-02,5.519729852676391602e-01
5.539910982986993027e-01,6.089156429807304205e-01,2.430235102294531213e-02,3.345822267650376547e-02,-1.099761060515266030e-02,1.346944878808043963e-02,5.629789233207702637e-01
5.400462189990543616e-01,6.282968180580101869e-01,1.328910594480098295e-02,3.565646562737011943e-02,-2.602840868016810180e-02,3.021838332535688523e-02,5.833814144134521484e-01
5.078562451976879055e-01,6.339106541299247555e-01,2.202266321077972488e-02,1.703529542228231913e-02,-9.737072324946315777e-03,1.397387748897363502e-02,5.611650943756103516e-01
5.408229162067934581e-01,6.325336657058582279e-01,9.365460992718899202e-03,1.365867354264700684e-02,-1.517355630538069246e-02,1.512507331048279155e-02,5.844098925590515137e-01
6.156925583043031391e-01,5.667280029865437996e-01,5.193637906344361621e-03,5.653104643289135617e-02,1.536589207505455364e-02,-3.275103497281658255e-02,5.989383459091186523e-01
6.442002194539621085e-01,5.820384128690762049e-01,3.920978131457364402e-03,-5.297169726800834283e-02,2.487096730575228190e-02,2.468049396545885302e-02,6.213869452476501465e-01
5.882064716242862978e-01,5.353376852110630635e-01,2.682665264882699852e-02,-5.501777620947822384e-02,1.513907412214323019e-02,1.219610206339147643e-02,5.463310480117797852e-01
5.947394928900927580e-01,5.614096352307508253e-01,3.257730470859676597e-02,-1.220587831264554751e-01,1.438353535996211852e-02,2.690454818222500627e-02,5.881221890449523926e-01
6.142146746688834646e-01,6.158223298428955328e-01,6.416622761471868497e-03,-3.643858407960544332e-02,2.432331412846745061e-02,3.419691849353340141e-02,6.161693334579467773e-01
6.174603721974409876e-01,5.438644657474029920e-01,-1.008518695939208953e-03,-3.439589815491423536e-02,2.483431593039947885e-02,3.233039598240387835e-02,5.924006700515747070e-01
5.901867475077613445e-01,4.729083448314368443e-01,1.725776538363499313e-02,-1.612555697535572041e-01,7.975452464158412288e-03,4.900754490939428221e-03,5.942075252532958984e-01
6.126811401304881333e-01,6.416923627833033272e-01,4.221863796613861686e-02,-1.728672482068425997e-02,3.668088854653282077e-02,2.566673221692818141e-02,5.913782715797424316e-01
6.422658992283277746e-01,6.394286435128830881e-01,9.949362992637161840e-02,-1.880266101778742260e-02,-7.031629568479549203e-03,1.457465072890189346e-02,5.430617332458496094e-01
6.858462131228757475e-01,6.428442219325825047e-01,4.590836802188480448e-02,-6.460605458771603729e-04,2.826810323334664338e-02,2.344438543292874308e-02,6.228149533271789551e-01
6.404659570075483810e-01,6.367230879213519046e-01,1.938390063145367659e-02,-7.631646358099479499e-03,6.799198352870698377e-04,-7.784999019085068507e-03,6.195080280303955078e-01
6.507941474204742560e-01,6.448819165903622030e-01,6.868230802544078584e-02,1.141509048255507849e-02,6.068401638998711760e-03,5.822144232367895342e-03,5.796987414360046387e-01
6.032680924298452485e-01,6.145239206315640246e-01,-5.007537161869635156e-04,2.057053134899100577e-02,2.157738660027480257e-02,-2.093259222245193868e-02,6.127316951751708984e-01
5.116240176881678980e-01,7.038482955551327303e-01,2.415155217722042558e-02,-8.850248485218190075e-02,5.281854409173005610e-02,6.087468046166807228e-02,6.413019895553588867e-01
6.174466092994026489e-01,6.621320328141837575e-01,6.130244763660580576e-02,-8.600471621072693432e-03,-2.984448176405458172e-03,5.228737463569032781e-03,5.800648927688598633e-01
6.049280661447659080e-01,6.651357989076602806e-01,4.926399100382727880e-02,-1.404451268710744938e-02,3.949904561467173364e-02,-3.620507852300937964e-03,5.925828218460083008e-01
6.389450642288125870e-01,6.380257930152365420e-01,1.016663329930874715e-01,-1.301935071555433872e-02,-2.769771539882968925e-02,-2.507071887209014541e-02,5.411755442619323730e-01
6.478209657777243002e-01,6.441272994800137930e-01,6.650731355928551913e-02,-4.255475004972065177e-03,9.515642938164252385e-03,8.050763243007890563e-03,5.799245238304138184e-01
5.848521977893180734e-01,6.389857862341521422e-01,3.626585995478631697e-02,-3.640819633280267809e-02,-2.440077198826596377e-02,-1.635879368101682968e-02,5.832152962684631348e-01
5.339539972318421146e-01,6.623697821880842884e-01,7.836808988446020141e-03,2.539350444654099592e-02,-4.099571662969190428e-02,6.148438261609628051e-03,6.065818071365356445e-01
6.089984681393435517e-01,6.197319710020249284e-01,-6.241787636728834965e-03,2.531493030692505072e-03,-9.537678694326583162e-03,8.799103359075827191e-03,6.210989356040954590e-01
6.050622461216724757e-01,6.218125253322441814e-01,-1.149679489355182049e-02,3.142407157615221928e-03,-4.214332729803495735e-03,5.446828709541430731e-03,6.252400279045104980e-01
5.859727527187410523e-01,6.171247254203476862e-01,-7.303138734265468557e-03,3.645545180727174928e-02,-2.867326380894116844e-02,1.844998353985125364e-02,6.155510544776916504e-01
5.040472242861804286e-01,6.356544108102615276e-01,2.565390815203294483e-02,4.444228078341429244e-02,-2.901307983618521200e-02,1.277491820450617210e-02,5.639865398406982422e-01
4.950246101183415348e-01,6.939197069896669845e-01,1.198846819301302435e-02,1.143649209423801966e-01,-4.567716682871576089e-02,3.105777308149114055e-02,6.460245251655578613e-01
4.685494843539956822e-01,7.594814780049733427e-01,-1.687600875124706246e-02,-4.969978980315226808e-02,-4.090389975078040363e-02,-1.108277997166816180e-02,6.886967420578002930e-01
4.504378530358257304e-01,7.551250186953782917e-01,-7.847188930756310299e-03,4.502097288348633208e-03,-7.803161133733670096e-02,2.472200211046747531e-02,6.801868677139282227e-01
6.151822078774809022e-01,6.615510998553981725e-01,1.732476818654571371e-03,-1.001621769656328882e-02,-2.053870623199951714e-02,-3.892580286431844040e-03,6.391616463661193848e-01
6.069123796390983872e-01,6.893978530485820322e-01,3.058169786563258441e-03,6.180557443773300810e-03,-2.094447740657753160e-02,-6.787033132894334684e-04,6.501422524452209473e-01
5.321180925630226710e-01,6.839753772159309353e-01,4.780125523836165069e-03,3.020867925461717240e-03,-1.739017384654879816e-02,-4.616485200683939985e-03,6.182432174682617188e-01
5.581123197852821960e-01,7.194885066926638428e-01,9.854186874842407740e-03,6.947131029769559873e-02,-5.778534320976398686e-02,1.257534511275099423e-02,6.633819937705993652e-01
4.659521705562142957e-01,6.504347533593417552e-01,-1.870928215612199796e-02,-7.927908190991220239e-02,-3.847973015474044634e-02,-4.272429232787631516e-03,6.178143024444580078e-01
5.449273067727719022e-01,6.538919995901548710e-01,2.698459027591026960e-03,-5.157551995606911993e-02,4.872123683659461413e-02,3.011084293628118330e-02,6.187007427215576172e-01
5.405814772132261359e-01,7.536832570468174897e-01,2.111126039224425766e-02,-3.024264032934408444e-02,4.375136654819311577e-02,2.335440586394341329e-03,6.591391563415527344e-01
6.357146944076653705e-01,6.414152255226783783e-01,2.603904896822056836e-02,-1.645750438064156815e-02,-1.188260950748266237e-02,-3.825787645449958436e-03,6.135897636413574219e-01
6.404686113700458483e-01,5.842659390639968198e-01,-3.514679520020103087e-03,-4.014191719646022921e-02,1.936557253220710581e-02,1.580799729453978911e-02,6.232082247734069824e-01
5.528419514539507640e-01,6.816225956908529282e-01,3.253317026204216589e-02,-1.720432705799786882e-02,2.580353154105404986e-02,2.084021942670572294e-02,5.987485051155090332e-01
6.371536209547673524e-01,6.979994255100154810e-01,5.470159120560968979e-02,1.884166310015990622e-02,2.377570014421868938e-02,-5.098243113403768713e-03,6.174392104148864746e-01
5.950647110883507951e-01,6.125420789454231185e-01,-7.095962850717785209e-04,1.422427729840709983e-02,-1.461804806232089304e-02,1.755264446073103238e-02,6.064959764480590820e-01
5.818510241400771665e-01,5.853323138460267971e-01,1.328586880843873885e-02,1.522115601712989083e-02,-9.385457659933500035e-03,9.198036006427500605e-03,5.713763236999511719e-01
6.058177921735139471e-01,5.953176335076439951e-01,3.318412638510459534e-03,3.529838785070339019e-02,-1.465289705056916671e-02,3.076945503417819958e-02,6.033338308334350586e-01
6.100401121365124357e-01,5.903638648020465007e-01,-9.240896703353040920e-04,1.971399719033787440e-02,-1.848990261067421509e-02,1.579497313494803573e-02,6.038070321083068848e-01
5.612166330575775186e-01,6.053831983944845119e-01,8.500492186628960667e-03,3.748230197756080573e-02,-1.467587652805512309e-02,1.338970563540165838e-02,5.807375907897949219e-01
6.534151501037771537e-01,6.367062589630994029e-01,2.132452016934915928e-02,1.507676311523759157e-03,-1.129951208282291720e-03,3.337231411019127552e-03,6.239393353462219238e-01
6.772893552489437363e-01,6.418366629798053502e-01,2.421118854418946587e-02,5.381972772612864803e-02,-2.814058520724507101e-02,3.282583768545890152e-02,6.472345590591430664e-01
6.403368209106266029e-01,6.366837700520682208e-01,5.352097747866829680e-02,1.048139618897939510e-02,8.770047929380039506e-03,-1.159488841585768794e-02,5.858209133148193359e-01
6.313593588232393472e-01,6.317862400628805331e-01,6.548533140022555488e-02,-1.055858593167357693e-04,-1.672722764434443447e-03,-1.153417985184404526e-02,5.664474368095397949e-01
6.716975489540760735e-01,6.636216559323037112e-01,7.610322246838802096e-02,-2.114161760626530676e-02,-4.519505332425258898e-02,6.456195303597574674e-03,5.979812741279602051e-01
6.403565506594868229e-01,6.506683438726565960e-01,2.397340738999936827e-02,1.220603842344562644e-02,7.268656650861396104e-03,-3.771497446356217569e-03,6.221243143081665039e-01
6.011007831926760137e-01,6.269437912180891859e-01,7.433237582262275378e-03,1.976515497446209441e-02,-2.992961246925857771e-02,2.240126329938458768e-02,6.114048957824707031e-01
6.303169346643878734e-01,6.751561635116666293e-01,2.129125881202281745e-02,1.090314045291871162e-02,-1.573506154595869996e-02,1.685347402516083892e-02,6.341786980628967285e-01
6.203249488120062827e-01,6.309853049112792434e-01,2.673365986636211389e-02,6.369385155796995768e-02,-1.276963697694841193e-02,3.869739297885634033e-02,6.131431460380554199e-01
6.570078727170282074e-01,6.321333454105630967e-01,1.938644163691705113e-02,1.083109673719655046e-02,-2.141475513556164237e-02,3.783905724610380980e-03,6.269688606262207031e-01
6.213024653068061065e-01,6.660013546433720677e-01,6.082451257641230402e-03,2.179038023970941013e-02,-5.840351855856997822e-03,5.300862728068947080e-03,6.400034427642822266e-01
6.117203696337981667e-01,6.007331395329215118e-01,-9.769823521388165677e-03,8.025775126915544230e-04,-8.862015526686656958e-03,2.200512310499149783e-03,6.162745952606201172e-01
5.941525481925408192e-01,6.917482405482955343e-01,7.604653768859770402e-03,8.207240016307738861e-02,-4.174628453554460328e-02,3.198444080628484731e-02,6.628067493438720703e-01
6.287155400071757771e-01,6.211594690285018316e-01,1.443013477094001740e-02,5.742773969769891101e-02,-1.573265282072695836e-02,5.359551121894114145e-02,6.261117458343505859e-01
5.967312744420955051e-01,4.510436337870791235e-01,2.347512627819514641e-02,1.205316759719229913e-01,1.326440008302688656e-02,-1.443356318280645395e-02,5.577343702316284180e-01
6.290240964140356716e-01,4.956398381040760803e-01,3.234638464215006115e-02,3.433179615176727706e-02,-5.835148502893038481e-04,-1.375256076652985049e-02,5.461983680725097656e-01
7.031598563870860019e-01,4.249711615033326395e-01,2.667836952285429497e-02,1.308045100157213259e-01,1.260437568710020238e-02,-2.637610131672894417e-02,6.330243349075317383e-01
6.604741970049001765e-01,4.838033245165885843e-01,3.459933678693322134e-02,1.642214691575792640e-02,6.063840601236613476e-03,-2.126370415223604454e-02,5.609223246574401855e-01
6.902077491198026493e-01,4.569614948087964423e-01,3.406552506794408020e-02,2.888048062580412384e-02,5.620400059984710130e-03,-1.927074016412489224e-02,5.793054699897766113e-01
6.765546020759191093e-01,3.746569265373020374e-01,2.335679175712751521e-02,7.674245403007554089e-02,1.577847896990566129e-02,-3.208157591085103455e-02,5.849046707153320312e-01
7.119683477822165152e-01,3.854601984615935173e-01,2.783177966959432537e-02,7.610308768910710453e-02,8.447098869991081019e-03,1.295204795626935662e-02,6.077554225921630859e-01
6.374926314776453440e-01,6.180278291987166828e-01,1.849698956775619463e-02,1.553610811889813165e-03,-5.743115364043361454e-03,-6.340725833320303567e-03,6.096824407577514648e-01
6.449380596442308988e-01,6.228379760179358904e-01,2.321625462323667621e-02,-1.363030723832101346e-03,1.078791260575476772e-02,-9.980695651464510307e-03,6.115062236785888672e-01
6.220061407741290793e-01,6.237821741482555415e-01,1.017836549370043642e-03,2.910324424329687755e-04,-1.749060409862625157e-03,-6.270936776876505792e-04,6.218867301940917969e-01
5.648210430550988370e-01,5.903976517535913793e-01,2.427380922447491818e-02,4.282419623920134116e-02,1.219564016783259049e-02,-1.881068433596172831e-02,5.600717067718505859e-01
6.240033080854329173e-01,5.844295821976603911e-01,3.250489599980532773e-03,-3.878514948749550717e-02,-3.158519162850086538e-03,-9.988351310594931198e-03,6.059510707855224609e-01
6.425292361451788725e-01,5.953614562512157260e-01,-6.364060415263050885e-03,-4.525414242214568020e-03,-6.622894119634909448e-03,-1.149952930545367763e-02,6.271125674247741699e-01
6.074654397396284100e-01,6.096494935209632038e-01,-6.655628234086830020e-03,9.151490771725770065e-04,6.351828108436840571e-03,-7.321047346546512638e-03,6.154470443725585938e-01
6.549237231648488144e-01,5.573949327276743748e-01,-6.481256259299628120e-03,-5.301383380594573876e-03,-6.161333787010987370e-03,-2.755435886815079879e-02,6.204339861869812012e-01
6.707468306207351461e-01,5.588721187552105896e-01,1.399301098347416339e-02,-1.483854871923549756e-02,7.364684698624302320e-03,-4.594757239076124183e-02,6.144299507141113281e-01
6.396209845601764643e-01,6.025751449628380385e-01,-2.324167096779516939e-03,3.447035691241548145e-03,5.916324698447261547e-03,-4.587697881798759834e-03,6.244103908538818359e-01
5.804499016942393785e-01,5.852185748517276798e-01,8.338170431872626853e-03,-2.117592967756822681e-02,-1.150824986207943552e-02,-1.156201361228982594e-02,5.763735175132751465e-01
5.902815498263452865e-01,6.270382849807631942e-01,-7.129793831319675146e-03,1.202699818707443418e-03,5.013359809111046610e-03,-1.071397134656190339e-02,6.169557571411132812e-01
5.707578422447083799e-01,6.003014560353998608e-01,2.553752128183983672e-03,-3.845911889946756340e-02,-1.605088287539881489e-02,-1.283412726445537153e-02,5.884045362472534180e-01
5.769487532806696350e-01,5.131826807995298889e-01,2.338658761300760336e-02,-7.299330773681296514e-02,-1.042822264645823331e-02,-1.041180482207193156e-02,5.402168631553649902e-01
5.982906991936569607e-01,5.820416110601056570e-01,1.421210316370752347e-02,-2.765313071001723744e-02,-1.102293989463508199e-02,-1.005200390543869830e-02,5.786905884742736816e-01
5.964671801268779383e-01,4.717518684619873004e-01,2.429140607983243383e-02,-1.722558987807013831e-01,1.574571653063585805e-02,3.094868511659876198e-02,6.035010218620300293e-01
5.901089379923495359e-01,4.136224223412069412e-01,2.391806883908220716e-03,-2.750873345917710933e-01,3.196302926034333414e-02,3.340433144232751034e-02,7.115239500999450684e-01
4.993986739094284366e-01,6.184202436862560326e-01,3.389092243267866067e-02,-7.355322009663467497e-02,-2.503522855484919662e-03,-6.746832151924898359e-03,5.501405596733093262e-01
5.533512737385168911e-01,5.778958336060096013e-01,2.676244473507016775e-02,-2.960107433987422057e-02,-1.709230019568582296e-02,-2.022946576630984400e-02,5.436505675315856934e-01
6.060920742770096181e-01,5.828334900176121991e-01,-1.869378751904349212e-03,2.344936189586463438e-02,2.020681857480436869e-02,-2.251897257148456274e-02,6.003445982933044434e-01
5.116857746023986131e-01,5.698519357280059650e-01,2.222560709813886648e-02,-8.367469777743755110e-02,9.511432801252663397e-03,1.236510696111588724e-02,5.414416193962097168e-01
5.152112596562608005e-01,6.562253490882370421e-01,3.857243835344359439e-02,-1.009046516055629450e-01,-4.870084204442411135e-03,-3.777016751032424412e-03,5.873172283172607422e-01
6.150033812235173869e-01,6.286234115872435524e-01,-1.340029323420038887e-02,-5.046158406629985566e-04,-4.009049820289441071e-04,-2.666049195165053586e-03,6.353409290313720703e-01
6.446008966204525015e-01,6.265032175190579089e-01,6.332189775150909306e-02,-5.176687910166674796e-03,1.327998947469903948e-02,-2.638504257837797511e-04,5.729770064353942871e-01
5.944861198077867614e-01,6.233079879113205823e-01,-9.273285357018767883e-04,1.409596325070335519e-02,1.142392301496266208e-02,-1.000727530431112268e-02,6.113892793655395508e-01
6.247511404876948671e-01,6.434787469170792917e-01,1.360149183353936975e-02,-5.254010096273062369e-03,-1.598865886765209882e-02,1.474589869822976775e-03,6.214147210121154785e-01
6.324745124729600487e-01,6.597074811571195241e-01,3.136603436736834505e-02,-2.706822485555135816e-04,-9.340781235826179155e-03,3.443208731968590893e-03,6.154189705848693848e-01
6.238315188922595178e-01,6.493237004827374648e-01,8.150265178587556836e-02,2.338677752411170985e-02,-3.173011538349113092e-02,3.600102890195413467e-03,5.597282648086547852e-01
5.187153591958906240e-01,7.391762365555363257e-01,1.243775041794847880e-02,3.035249413537356375e-02,-5.371055234626546243e-02,4.496865663094824078e-02,6.588013768196105957e-01
6.127844714951765637e-01,6.468587301799400002e-01,2.235460203983630212e-03,9.236150323781427279e-03,-2.133042230123070870e-02,1.242610238250385635e-02,6.299359202384948730e-01
6.274227222990199637e-01,6.565976475033528104e-01,1.973925659640762831e-02,-6.155181303770119322e-03,3.392379147979363626e-03,-1.997556691320878739e-03,6.229122281074523926e-01
9.488803455795484787e-01,5.889010203791835707e-01,8.242587558576269791e-02,-3.912169942065203687e-02,-3.272965443523763451e-02,-1.566261724649757880e-01,8.061161637306213379e-01
6.715945715187111587e-01,6.567685175122756069e-01,5.157266171076230199e-02,-2.115408808397224727e-02,3.509805269844392533e-02,1.255270292884587240e-02,6.172238588333129883e-01
6.572419430484842673e-01,6.264111935105719509e-01,2.943883090378390799e-02,1.636337114248726226e-03,-3.431793505346373944e-03,-1.385584119139706208e-02,6.134744882583618164e-01
6.672568141097298122e-01,5.783407149341940334e-01,2.969667283133159419e-02,4.326781525216351343e-02,4.362502662899399308e-02,-3.283160020810257929e-02,6.101304292678833008e-01
6.767355782836628197e-01,6.037091522252613363e-01,6.459716366786272257e-03,2.090842858245833477e-02,4.211103880425122459e-02,-1.014125551848888210e-02,6.423354148864746094e-01
6.535334213221959399e-01,6.244207640734829035e-01,7.660030118325511506e-02,7.145215845346825426e-03,-1.175990305554797631e-02,6.375798680875045810e-03,5.635541677474975586e-01
5.219625264578886537e-01,4.428007741893366100e-01,9.101557006449378928e-03,3.336990865512157733e-01,7.898986434470303686e-03,-2.453579105589853010e-02,7.515001296997070312e-01
4.359487185598149850e-01,5.611526554694528102e-01,-1.217838239533392541e-01,2.942919685390767426e-01,6.162972664752519592e-03,-2.044451127545943506e-02,8.110259771347045898e-01
6.949634476275454720e-01,5.372679583560517891e-01,-8.192432236813929070e-03,1.325185930499457321e-01,-2.169893631453140639e-02,4.168190837885882294e-02,6.839004158973693848e-01
5.869000866114351123e-01,5.557892845218210809e-01,3.232336647363670545e-02,1.910135487799101139e-01,-1.201558688168624005e-03,-1.108099034132659436e-02,6.333254575729370117e-01
5.149771617710992011e-01,6.146772635730185508e-01,2.776386771077232751e-02,7.189051031788243340e-02,4.142326353524113103e-02,-2.801514094517928988e-02,5.647115111351013184e-01
5.713836405166203836e-01,6.415307252505795255e-01,1.792126398255100561e-04,1.571048400606817053e-02,1.871192421163459310e-02,-1.943097588036427764e-02,6.117082834243774414e-01
5.015717684497408291e-01,5.452080698383073853e-01,2.652294056077381113e-02,1.476288623239288000e-01,5.039731741384050924e-03,-4.497666439265124265e-03,5.602005124092102051e-01
6.224839952398100174e-01,6.470285876327281915e-01,2.027568141976954230e-02,-4.690721257284390967e-03,-1.601082417643125144e-02,-2.545357776569231057e-03,6.155426502227783203e-01
6.334570741483349643e-01,6.452960521708204222e-01,1.012005192455499580e-01,1.139677621105294331e-02,3.044663847472810214e-03,1.507822381805499524e-02,5.392940640449523926e-01
6.260615042995165691e-01,6.294646319132169987e-01,1.286229588862943807e-01,-1.203528357481319869e-03,-3.998923309988544096e-03,9.580620791786169810e-04,4.992039799690246582e-01
6.396263516573650332e-01,6.122740634634515899e-01,9.046535473934247396e-03,-5.341791298256738131e-03,-8.950529811580221901e-03,-2.980819647126256664e-03,6.176437735557556152e-01
6.055121294897152229e-01,6.285336926802872481e-01,-1.183204070925725215e-02,-4.510663030363458448e-02,-4.228698650983554047e-02,-2.554937431646314705e-02,6.397520899772644043e-01
6.295908736045094933e-01,5.940106692444353520e-01,1.690900906925074665e-02,-4.826983521644798159e-02,-3.036848389071701571e-02,-2.986735777307581927e-02,6.060350537300109863e-01
6.810349646536347779e-01,6.673802779653589257e-01,8.341515401120952466e-02,1.163150363860805322e-02,-1.701114199870140328e-02,2.940233197250548356e-03,5.920097231864929199e-01
3.006088617580772171e-01,8.387411762139010962e-01,-3.010341818398543090e-04,-2.521193949609151774e-01,3.702837734985824081e-02,-2.243646830808636999e-02,8.592895865440368652e-01
6.945734914591416009e-01,4.585088268933271149e-01,-7.454911085380100388e-03,6.932764593032654521e-02,-2.847864700505465738e-02,5.799891378144002296e-02,6.401484012603759766e-01
3.982594079251652874e-01,6.657948491654237522e-01,-1.620398898101221841e-02,-3.975309969684982514e-01,3.779009268843110374e-03,-7.710854632247640152e-03,9.102486968040466309e-01
3.618018994648987130e-01,6.942717008310029803e-01,1.260335271873413987e-02,-1.977109594145888272e-01,5.741447296128415756e-02,3.644910060970832366e-02,6.926164031028747559e-01
2.618984728024010833e-01,7.006058371522159156e-01,-2.444101679722693321e-02,-2.634437686011990576e-01,6.241428261989685408e-03,8.580367053224088533e-03,7.801405787467956543e-01
3.927511552233457492e-01,7.160777510666322954e-01,-8.773464270233621853e-04,-1.904706626321737983e-01,-2.544699017247575162e-02,-1.095801090447858644e-02,7.056161761283874512e-01
3.957714184561118009e-01,7.126603076402306947e-01,2.870989274775126443e-02,-1.887356347456716765e-01,-1.773962325482766542e-02,-2.837648433083624858e-03,6.777182817459106445e-01
6.883360999835289595e-01,3.721763769574231717e-01,2.618647693363540530e-02,9.596435481205171925e-02,-3.185730289324031645e-03,2.597236130767260551e-02,5.989454388618469238e-01
6.826603697395872139e-01,5.146230738174542019e-01,9.860179106608746302e-03,-4.456475715618015560e-02,-2.713372518738417505e-02,-4.228274604964250144e-02,6.175526976585388184e-01
6.817356512329781904e-01,6.130307695997407880e-01,6.389393996848752311e-02,-4.718085111128080163e-03,-9.696922361457501263e-03,-1.414861275048211750e-04,5.868124961853027344e-01
6.430821237620996111e-01,6.276727888524146204e-01,1.456794293140528662e-02,-1.283546592822627612e-02,-2.491237543201039149e-03,6.168300033642588106e-04,6.213666796684265137e-01
3.724845655876022898e-01,7.161312096074761158e-01,8.523239545252248028e-03,1.267853829449713289e-02,4.233733228800771325e-02,8.934675720539775410e-04,6.176543831825256348e-01
3.172315378084178406e-01,7.231488655926068265e-01,2.716419698348976342e-02,-1.002381246061709308e-02,-9.920067111878396598e-03,2.455497311943043940e-03,6.060248017311096191e-01
3.056872382022279289e-01,7.349140602155954660e-01,2.699006609877135920e-02,1.389979848247593139e-05,-8.600329725039048204e-03,4.213380632084950429e-03,6.179054975509643555e-01
2.910336112467530323e-01,8.513542128907936046e-01,-6.304666198168717983e-03,1.812743438422633390e-03,1.345444831882382924e-02,1.653325764075394555e-02,7.552132010459899902e-01
2.938910823113012327e-01,7.706280550713759947e-01,3.211574729879956847e-02,3.722385226268937197e-02,6.291977005868009274e-06,-1.169450496010563008e-02,6.520503163337707520e-01
2.755884135388602663e-01,7.641113988389721667e-01,1.492478008439585002e-02,-1.463646444741502177e-03,4.201702328240549539e-02,-4.524054068415464709e-04,6.627546548843383789e-01
2.943285564305599400e-01,8.193519693878250632e-01,2.059210536277167325e-03,5.674051238957213660e-04,1.901589198536316958e-02,1.366978169380154138e-04,7.180564403533935547e-01
5.394461160277502776e-01,7.535988134460899213e-01,-1.288672879293273343e-02,7.607090557046838897e-02,5.848780909415293716e-02,-3.032119611390549779e-02,7.068220973014831543e-01
2.832389633779994198e-01,7.733302391155862932e-01,-2.336269460417261801e-03,2.705494914909940124e-02,1.583775350241375598e-02,5.579639444414293513e-03,6.817201972007751465e-01
8.167220283695381111e-01,3.175673058013558370e-01,-8.042138380977531531e-02,-1.596370173608423482e-01,1.674263890820448797e-02,2.414434492870635648e-02,8.277983665466308594e-01
7.506007598911381695e-01,2.814789836008185775e-01,-3.930023422336281769e-03,-8.984842464260744954e-02,1.919770346935155414e-02,9.478110300996170356e-03,6.789834499359130859e-01
7.527476112058766322e-01,3.405486254656487910e-01,2.951326970430495633e-02,-6.340052651265495887e-02,4.083415397177847864e-03,-2.713664762648496792e-02,6.396698951721191406e-01
7.573774638192154463e-01,2.346861616038705134e-01,3.642651952967090878e-03,-9.479902035588202991e-02,-1.579257956777483859e-02,-2.536602471237790063e-02,6.906452178955078125e-01
7.098533433964870909e-01,2.551628938231025323e-01,-2.833654854403566681e-02,-1.605886778421642402e-01,3.137699984275036519e-02,-7.439046101072563887e-03,7.046315073966979980e-01
8.155635032796293427e-01,3.446876801106623089e-01,4.567703695286623455e-02,-2.513541433322604574e-02,-2.903194967303955945e-02,-6.735878511972344385e-02,6.855390667915344238e-01
8.804377270352258256e-01,1.121303671055369766e-01,-1.200236268556809649e-01,-5.817392921443251957e-02,2.884902730890789510e-02,7.274035814431696438e-03,9.139832854270935059e-01
9.739119563275651092e-01,1.655007197022232979e-01,-3.142519742527688509e-02,-1.155004023400995061e-01,-2.547434930472239692e-02,-3.031907652722418481e-02,9.466949105262756348e-01
6.648227739856417129e-01,6.193862501417364275e-01,7.515849368905119787e-02,3.681806329234772832e-03,9.671645725738141006e-03,1.549219623112325049e-02,5.692253112792968750e-01
6.592952557261065882e-01,6.295118985696175340e-01,6.091821659045448811e-02,-7.904484683281171910e-04,2.467194840372604215e-03,2.120254411498708955e-02,5.852258205413818359e-01
6.388454897782736008e-01,6.262179043736268991e-01,7.280448987508808534e-02,1.779321040403442772e-02,7.646806335880234999e-03,1.741168610776299558e-02,5.616483092308044434e-01
6.366939316625389589e-01,6.319351491104312490e-01,8.069884015727030180e-02,-6.840944583775433220e-03,-4.426333555137358568e-04,2.879651790379419030e-03,5.537807941436767578e-01
6.553709876246678334e-01,6.395910259442550982e-01,1.028080279604090541e-01,3.295853054062959902e-03,-8.140450476289771975e-03,5.674092138247977674e-03,5.451452732086181641e-01
6.585798147659664981e-01,6.069655989991347145e-01,6.699209227366098585e-02,1.816240317479020372e-02,1.287964036266499822e-02,-7.602431751273452942e-03,5.690047144889831543e-01
6.081475959450349800e-01,6.139868656846035888e-01,-7.864262004613986612e-03,6.995853882788805825e-04,-1.149370512129320758e-03,-4.264383778307036070e-03,6.190006136894226074e-01
6.229668921957713934e-01,5.114123417393663384e-01,2.496367320655390465e-02,-6.088395294370509830e-02,-1.664107571527077487e-02,-1.548930991249404011e-02,5.621506571769714355e-01
5.510005342861492572e-01,5.916442026896973072e-01,3.067058495820934594e-02,-7.248645662271178611e-03,6.817104324647899755e-04,2.763064521934252733e-03,5.419642329216003418e-01
5.592958480280922906e-01,5.590980033417910500e-01,3.413067076359521668e-02,-3.556103662963869955e-02,-7.200064056485715354e-03,-6.655651033382093372e-03,5.289393067359924316e-01
6.216099105745728215e-01,5.855999181489761618e-01,2.174418519132470529e-04,3.642562011669872764e-03,1.356162186152872449e-02,-3.055346071807911630e-03,6.047053337097167969e-01
5.602184998809790484e-01,5.429122092107245834e-01,2.521209371285076939e-02,-7.686718934713296369e-02,1.441822129381612437e-02,1.707232497172714303e-02,5.445145964622497559e-01
5.740685960422262646e-01,5.895996803459432334e-01,3.995791265018788785e-02,-8.971474039428875558e-02,3.422583075918134501e-03,1.017449895225481724e-02,5.641831755638122559e-01
5.719167927415494956e-01,5.170316808345714055e-01,2.536774214754861090e-02,-7.557314462657298282e-02,7.855487850416965553e-03,8.139815256766731039e-03,5.378183722496032715e-01
5.622221371039339832e-01,5.224717413020933954e-01,2.268560093826044177e-02,-7.657859338636119340e-02,1.497400287266478953e-02,1.287791384211728861e-02,5.385127663612365723e-01
5.749019401040807997e-01,7.112983423107825942e-01,-1.100906415402558292e-03,-1.170633439485459504e-01,-7.806737807736269241e-02,-6.804738564008791513e-02,7.086849212646484375e-01
5.553370138262174738e-01,6.055257453672610035e-01,5.219225788272052746e-03,-5.158140520443189186e-02,-3.138931388927801436e-02,-2.409426255200633124e-02,5.877394080162048340e-01
6.133888071573521117e-01,5.615725478258470904e-01,-4.653993864063787900e-03,-8.877501215389038691e-02,-3.116360471626014594e-02,-5.108992778516304595e-02,6.221126914024353027e-01
5.439247578243695536e-01,6.463264882458216176e-01,1.607977979985686368e-03,1.707048136061191683e-03,-3.053678326976451071e-02,2.144764409612465866e-03,6.024515032768249512e-01
6.316517264843681811e-01,5.978480810771322762e-01,-1.676973642427775912e-02,-5.127763199000211908e-02,-3.559410626890548851e-02,-3.779275799871408686e-02,6.447076797485351562e-01
5.909501389816554928e-01,5.104135386735406676e-01,3.240325454613607326e-02,-7.349181735926173242e-02,3.303909861412484585e-03,5.825280390253434123e-03,5.383446812629699707e-01
6.818990180757440456e-01,4.141325293022872223e-01,2.441852189925042271e-02,-1.647978699429163973e-01,2.582454466219045227e-03,1.682753428482887739e-02,6.405254006385803223e-01
5.802546285617135036e-01,4.958839302321026432e-01,2.908802649376979188e-02,-7.230749973462748115e-02,-3.056656111825912722e-03,-1.387659935763550095e-02,5.298033356666564941e-01
6.128068813565278328e-01,4.906754953982944700e-01,3.207313395170652282e-02,-8.135202391257104204e-02,-8.928736109349657418e-03,-1.332523202971735467e-02,5.494253635406494141e-01
5.797143239918101099e-01,5.145971896380349131e-01,2.966931895737939806e-02,-6.655424656236336167e-02,6.149956257524641845e-04,-7.748368789623860491e-03,5.333310961723327637e-01
6.544244881934437874e-01,4.462356062202174622e-01,3.117459736048322494e-02,-1.024315110345130481e-01,-1.387220540753502686e-02,-7.967659585972510297e-03,5.781641006469726562e-01
6.453312476068049364e-01,4.656732648333925528e-01,1.434171735356998267e-02,-9.617429019866524653e-02,2.006231647924076184e-02,3.696702527768666591e-02,5.917078256607055664e-01
7.679690452596279471e-01,3.140743557162153365e-01,2.271826647379848740e-02,-1.491029064407694560e-01,-3.363248096105588870e-03,9.114740978073118671e-03,7.000942230224609375e-01
6.716233898089191134e-01,5.024126842126697134e-01,6.529433917255078601e-03,-3.308808200099967040e-02,1.991702594308962515e-02,3.566947313443051548e-02,6.055845618247985840e-01
7.760081114088785981e-01,3.250242352233482235e-01,2.391835769502581588e-03,-4.014232464375196152e-02,1.307855691437767587e-02,4.041455170685608750e-02,6.806082129478454590e-01
7.584330489706532230e-01,3.608462398790733272e-01,1.915459923996082336e-02,-1.293250471824874681e-01,-8.482275924978916869e-04,3.422595516036810309e-02,6.814483404159545898e-01
7.619685102068518567e-01,4.884076939639441228e-01,-2.691473891450107958e-02,-8.068163901656091874e-02,5.410176151820474816e-02,8.394694117430677449e-02,7.285709381103515625e-01
7.248256754378863409e-01,5.102560649703256068e-01,-4.409549052657668611e-03,-6.345746283291441026e-02,-1.128323273019167863e-02,5.442488706667167331e-02,6.653578877449035645e-01
6.159069323156030062e-01,6.209359147096136233e-01,-1.265021201082716651e-02,2.336174097621482402e-04,1.066796341186062566e-04,-1.480861517597243694e-03,6.310920119285583496e-01
7.633554832253330868e-01,3.551310810492919190e-01,-4.324280253852230693e-03,-4.531398402021781513e-02,3.797152201238328945e-02,9.258631422690656587e-02,6.919508576393127441e-01
6.082144808442971895e-01,5.917715878913509808e-01,7.461176329224217252e-03,-1.559377225187392850e-02,-1.764958608053863315e-02,-1.599993303431434047e-02,5.947510600090026855e-01
5.271478274238419193e-01,6.247588244047517225e-01,1.035933325688898066e-02,-8.929041150781803771e-02,-3.923648847536174988e-02,-3.514794543608614624e-02,5.994042754173278809e-01
6.453757090029349497e-01,5.590323957586371684e-01,-1.033360445311692910e-02,-5.109386218704807525e-02,-5.359166488954186097e-02,-6.414924734882464230e-02,6.399899125099182129e-01
5.820203538974162427e-01,6.069586112061898797e-01,-2.027437218489913651e-03,-2.824912263108631666e-02,-2.855678251030170298e-02,-1.949319442289039819e-02,6.018964648246765137e-01
5.577548515677804852e-01,6.205979764169551327e-01,-1.531280854192407226e-03,1.841541707281620088e-02,-2.682719935092492229e-03,-1.188657035617648496e-02,5.944412350654602051e-01
5.471006766823565126e-01,6.500004508204968445e-01,8.505055342113654326e-03,2.029635457171907742e-02,2.417503480501616286e-02,-2.045651424425246750e-02,6.002828478813171387e-01
5.469747452949837996e-01,6.439513192462742452e-01,5.393511535630390874e-03,1.854720225785979823e-02,2.527796811571150770e-02,-1.201727940136152611e-02,5.988468527793884277e-01
5.602496816404262114e-01,6.357396001570545518e-01,7.061710512903052184e-03,3.764363687921069151e-02,2.831881288356384932e-02,-1.791604953527553210e-02,6.009123921394348145e-01
5.461733336054844790e-01,6.457685377605686394e-01,3.449713211667149171e-03,2.765358900948811441e-02,1.998532930578595518e-02,-1.106823548273846818e-02,6.019806861877441406e-01
6.280051517480854661e-01,6.287000170142190703e-01,1.564085370306895761e-01,1.473547856969253554e-03,6.649873974603344798e-03,1.116455766786116294e-03,4.720958173274993896e-01
6.711924497011876323e-01,6.706604630055456040e-01,1.224431174545801970e-01,-1.809911101605412784e-02,1.290978325088630758e-02,1.137411255906061076e-02,5.501863360404968262e-01
6.331209093418123102e-01,6.323496688826188983e-01,1.134491422791052972e-01,5.196687417035827927e-03,-4.765960718494549088e-03,-9.663732212881432498e-03,5.196998119354248047e-01
6.265237987137372011e-01,6.319003748635075857e-01,1.339384796856862847e-01,4.209187069042995798e-03,-6.289682528811552271e-03,-1.035379162809600337e-02,4.957933723926544189e-01
6.753563335605481388e-01,6.570252013910778954e-01,1.617363358013118591e-01,1.239101612347427717e-02,2.449981692006557993e-02,5.655491531044172081e-04,5.069404244422912598e-01
6.849772846756261302e-01,6.854046126168897857e-01,1.635359399568809269e-01,-4.803788061386352407e-03,1.669491089798685532e-02,1.653998029016759408e-02,5.233069658279418945e-01
7.150353077609645780e-01,6.648726809637185431e-01,1.513515020217812146e-01,-8.801631441757978153e-03,-4.224284908546012754e-03,6.625013269205256086e-03,5.407379269599914551e-01
6.390182853266190843e-01,6.501561716137230773e-01,1.314547932266697527e-01,1.846052256971998998e-02,-2.357134384720320367e-04,-5.781139001867553230e-03,5.143157839775085449e-01
6.323412731332225256e-01,6.566327696219907972e-01,1.301699331806876470e-01,8.390787955374094317e-03,-8.438846768568080553e-03,-4.178480165094162341e-03,5.152105093002319336e-01
6.270443672023131576e-01,6.296553555049794193e-01,1.341901726690409302e-01,3.365470262005325087e-05,3.415536663138300615e-03,-1.728875428981329569e-03,4.942093491554260254e-01
7.862310633043680941e-01,7.826571722835027334e-01,1.229726379726187036e-01,-1.006755007122200618e-01,9.846542620263538936e-02,8.555854672002274680e-04,7.050172090530395508e-01
6.339426093656871375e-01,6.777615561541953104e-01,6.651109816663436369e-02,-2.912757171602479815e-04,3.023693835945666722e-02,-1.390530221586722126e-02,5.933683514595031738e-01
6.316742027549443472e-01,6.375872492047850448e-01,9.958286528565823970e-02,4.406233578630314521e-03,-1.025587467874072498e-02,1.033691832239092868e-02,5.357208251953125000e-01
6.535188259978426117e-01,6.872857074470013483e-01,1.037565609535087696e-01,4.680623217765124411e-02,1.691590595427287444e-02,2.594089683853307085e-02,5.756667256355285645e-01
6.246562466584302253e-01,6.393660660338716939e-01,1.174493275436993556e-01,-8.746095804979783957e-04,-7.322429613544071542e-03,-8.996645885338832790e-03,5.151137113571166992e-01
6.190889458448708416e-01,6.298095350549198779e-01,1.181642544761824509e-01,7.986843315305747204e-03,-1.026227161065278691e-02,-1.211377090413284525e-03,5.068751573562622070e-01
6.274639027926172119e-01,6.230793595333302681e-01,-9.263988239054221641e-03,1.588847835896333490e-03,6.832522520451540099e-03,8.794280335913697705e-03,6.348460316658020020e-01
6.189581711271341380e-01,6.043946605248666781e-01,-7.909866407329380067e-03,-4.635014082482744394e-03,6.922018449084716731e-03,5.513616456965303100e-03,6.199561357498168945e-01
6.298357679099670925e-01,6.077043905992252082e-01,-6.777241943207723551e-03,-3.064832972847793616e-03,1.081159150196777698e-02,1.149631703143660227e-02,6.264600157737731934e-01
8.625161885155749886e-01,3.135715256419865371e-01,-2.641789663585758507e-02,2.735557450098753396e-01,-9.264019849593178868e-02,-4.384887618598450054e-02,9.271361827850341797e-01
7.750216664300180192e-01,3.737344476554869122e-01,1.379084052803170035e-02,1.007915955493209476e-01,-1.212140143047976898e-03,1.292986619577991478e-02,6.826524734497070312e-01
6.360219246635989698e-01,6.250355553860070801e-01,1.179152079243744877e-02,-7.856563362406473322e-03,1.784831717782294283e-03,-1.223081497283871368e-02,6.193301081657409668e-01
6.732563339649595413e-01,4.095900671454822395e-01,2.904544875456216424e-02,9.332913608404157235e-02,1.081173311340678225e-03,-5.886776567994351020e-03,5.838744044303894043e-01
6.246616630537707993e-01,4.337289250395299778e-01,1.346719023260323223e-02,1.290766151939213569e-01,2.486750272148821952e-02,-3.349678425940186971e-02,5.903562903404235840e-01
6.818599561919630458e-01,4.357303046540356717e-01,1.772485299267412273e-02,1.011881441695012956e-01,2.516915592458780077e-02,-3.486381627907928632e-02,6.119280457496643066e-01
6.302303357797802708e-01,4.328740664170526165e-01,2.770718298971108773e-02,1.196887974832650803e-01,-6.968516370786715687e-03,6.449795035603283697e-03,5.712430477142333984e-01
6.272511685662622849e-01,3.238059989872691391e-01,-4.385244589247994096e-03,2.563087754913859762e-01,-6.701935195359276509e-04,-1.746702775127302598e-02,7.052487134933471680e-01
6.653798044368635090e-01,4.678133955662868715e-01,2.369210024774648371e-02,1.943578646390246301e-01,1.749310959357383219e-02,-1.422077250488903988e-02,6.624721288681030273e-01
6.218657002255304489e-01,6.265367461226922785e-01,-6.561024393052283799e-03,-2.794084926763058287e-03,2.496175622086360506e-03,-6.762790999537210889e-04,6.308096647262573242e-01
4.691104604596826877e-01,6.774864688170743054e-01,3.400757656324271405e-02,6.588545261699037259e-02,1.188495933756247500e-02,-8.279934537307796424e-03,5.805619359016418457e-01
4.733820014373726903e-01,6.564642636463515757e-01,1.527330259520898181e-02,1.320406964693363883e-01,3.477536706512655146e-02,-3.022466604435746287e-02,6.212303042411804199e-01
6.199904615391648166e-01,6.205913137027857518e-01,-6.027111228413151167e-03,1.149056731119177377e-04,1.265679446373160516e-04,-2.009692645235536430e-03,6.263279318809509277e-01
5.297962070286884595e-01,6.230698780606855891e-01,1.177553979929835126e-02,-6.724813480768701557e-02,2.644567657517604697e-02,2.812661626430836351e-02,5.860046744346618652e-01
6.225490155080778409e-01,6.062438515103382164e-01,-2.457528562032129660e-03,-9.611686174081739836e-03,1.923023677927004210e-02,1.878245206768074799e-02,6.189936399459838867e-01
6.230394831949545020e-01,6.269717602949029800e-01,-5.760676886270466035e-03,2.421600411233094333e-03,9.734289037409037809e-03,9.204229109939149334e-03,6.312160491943359375e-01
5.924162175906068084e-01,6.120546775500521619e-01,-5.898508310625827367e-03,-8.118609282771199406e-03,1.535969823707262517e-02,1.359583734681537107e-02,6.095705032348632812e-01
6.041633041675988913e-01,6.217961999370724691e-01,-2.557012978893713484e-03,-1.558325513573974828e-02,1.357045258154285748e-02,1.197129417914266809e-02,6.171139478683471680e-01
6.110934307000688293e-01,6.169120802945895488e-01,-6.253172216967861630e-03,-4.358219467196721396e-03,4.468306938084762661e-03,8.956169363207739861e-03,6.205645203590393066e-01
6.104743280684823414e-01,6.180230154808761256e-01,-1.089097506893482725e-02,-3.684338013013909938e-03,6.009208566615534264e-03,8.130274760540989396e-03,6.254515647888183594e-01
5.975664022550030152e-01,6.552958694241572957e-01,6.123223479731559893e-02,1.672034527706269327e-02,-1.163962748732707414e-02,1.039301190387703112e-02,5.687868595123291016e-01
5.654637155186458264e-01,6.389873741190756906e-01,1.904921789198710247e-03,-3.171290949885200664e-03,-2.060450717111199544e-03,-1.166064709162328156e-02,6.040612459182739258e-01
6.415511692345192696e-01,6.504530140926082504e-01,3.268821686193529308e-02,-3.024238824734218692e-03,-3.127647773755516691e-04,-5.859666242646062451e-03,6.134688854217529297e-01
6.258313546028486662e-01,6.394560264869859623e-01,6.913413880364382980e-02,-3.017004443924391904e-02,-3.265770767216193138e-02,-7.462057738411206551e-03,5.690162777900695801e-01
6.193203349319202911e-01,6.225191539549209674e-01,-9.013605763623977474e-03,-1.794319480893373248e-03,6.435661282220896682e-04,3.469040090866871702e-04,6.299483776092529297e-01
5.850303341963650761e-01,7.255906266502223367e-01,6.409081498001090171e-02,1.129713601537071094e-02,-1.879259833839988861e-02,-5.265265343927789769e-03,6.048835515975952148e-01
6.334360324872676529e-01,6.455110714886405088e-01,5.707821850511574091e-02,-1.089006097054548021e-04,3.282498707714077459e-03,1.293108462973638177e-02,5.829474329948425293e-01
6.116826100546111089e-01,6.593882184015886772e-01,8.448064625927731441e-04,-8.719811466323262612e-04,-2.883555903483508986e-02,1.227764221998799664e-03,6.379970908164978027e-01
6.174856438827817096e-01,6.102207474420846545e-01,-8.888772382659559934e-03,1.779184231819718430e-03,7.628688686767519378e-03,-5.370745935429326566e-03,6.229909658432006836e-01
6.357385781516258216e-01,5.579138545402428928e-01,5.096816349479504904e-03,5.761723057349189131e-02,-2.756392868633932014e-02,3.270724821876277999e-02,6.083863973617553711e-01
4.963184428269774573e-01,6.508737636883948907e-01,1.276389480499218188e-02,7.287432658378981132e-02,-3.333845032338599718e-02,2.323364069074356289e-02,5.944190621376037598e-01
4.646132488959869300e-01,6.392034189168623870e-01,3.932959797983870409e-02,6.575496410366266087e-02,-6.522963401173802189e-03,1.325184711233296517e-03,5.465366840362548828e-01
5.421712393645397032e-01,6.066895500694343690e-01,2.048579560330399119e-02,2.030906752853439690e-01,-1.075431179706614650e-02,1.034172425769832628e-02,6.590765118598937988e-01
6.481448027484594254e-01,5.691250353519028415e-01,-8.843036194793429949e-03,-6.051590791655400876e-03,8.373234396065853957e-03,1.136579749760891281e-02,6.218278408050537109e-01
5.224765534592058502e-01,6.280182160876319752e-01,2.280050045429171668e-02,4.476342335906159653e-02,-1.061499682152259108e-02,1.426896231344126909e-02,5.661377906799316406e-01
5.176269712735630524e-01,6.462407502133631354e-01,7.201286244769511402e-03,1.196004396266447944e-01,-2.341871363455291094e-02,1.200510415722660235e-02,6.226669549942016602e-01
5.258547950296641460e-01,5.996806305620367983e-01,1.265048371089977364e-02,9.916779264610793565e-02,-3.166632055949356039e-02,2.023787282201391577e-02,5.834864377975463867e-01
5.720897599811640699e-01,5.624667602557187340e-01,3.025966849673272785e-02,1.139380356896649293e-02,-6.576537552051619833e-04,3.679315479176763974e-04,5.374472737312316895e-01
6.226002158333370229e-01,6.179533550094887806e-01,1.515362822691133649e-01,-1.020694078599222124e-03,2.802055176670221765e-03,-1.046127534901498306e-03,4.687897264957427979e-01
3.620083387043575573e-01,7.734275187205594815e-01,1.499129785357972144e-02,-2.948346322321832112e-03,1.445308402762590996e-02,3.320955081111445252e-03,6.581351757049560547e-01
2.042836058610629224e-01,9.074607357576139899e-01,-7.381059209610013605e-02,-9.442863475750311666e-03,-5.622311857654228862e-02,-2.309425791882119966e-02,8.824367523193359375e-01
2.515933326581539786e-01,7.705151051667085138e-01,-1.095836521677506781e-01,1.620961838982917791e-01,-2.576152466147181228e-02,3.126212546977119588e-02,8.190846443176269531e-01
1.088555019566681270e-01,7.946401404218375042e-01,-8.012712736902183330e-03,1.519742516979352177e-02,3.597162207678235996e-02,2.839736484651808092e-03,7.541247606277465820e-01
2.238355296845292719e-01,7.631804818234940724e-01,1.338560184401360598e-02,1.730873492145374726e-01,-3.229761631097829207e-03,-2.267185965420645023e-03,7.339016795158386230e-01
6.312445900156580247e-01,5.782106182074309153e-01,-9.034981388691187831e-03,-3.185006347738651017e-03,1.087166240143875445e-02,1.159935194007661111e-02,6.161189675331115723e-01
3.914883866045905658e-01,7.575527437696594202e-01,3.022900751727009006e-02,-5.106172523623190435e-02,4.966858524305481359e-02,2.048823052770401554e-02,6.428356766700744629e-01
2.711161845684358362e-01,7.834696039746297247e-01,-9.447107015710942690e-04,-1.155311063863299625e-01,6.152103132183620732e-02,2.540571109358484569e-02,7.274941205978393555e-01
3.044086697087932669e-01,8.033488134627871924e-01,1.672886067263368304e-02,1.780547581755107141e-03,1.239264754411724956e-01,-4.591728526179240238e-02,7.263910770416259766e-01
4.095263090528520333e-01,7.540959155396567137e-01,3.053191865278526151e-03,1.621092767244320179e-02,6.979087477805086259e-02,-3.744154032568231070e-03,6.629099845886230469e-01
1.787841649648114484e-01,8.012418961826732744e-01,-2.437746695839793087e-02,6.719459636256200352e-02,-1.292990662487545489e-02,-1.858767973645239491e-02,7.551630139350891113e-01
2.254182226184764382e-01,8.586104752835522769e-01,-2.962170694524368653e-02,-1.122333958985309715e-01,1.651472765896109043e-02,-7.187944004984297627e-03,8.162286877632141113e-01
5.982707290056067384e-01,6.355542493182979591e-01,-3.415700242339447801e-03,2.699197106900858793e-03,-7.896595999265306962e-03,6.821715767499316602e-03,6.214483976364135742e-01
5.430895480490522953e-01,6.737786300727641731e-01,-7.045578209133873671e-04,9.860327990157912587e-03,-2.679594200503420537e-02,4.232308752510481609e-03,6.215779185295104980e-01
6.021238074936763329e-01,6.329388275320225743e-01,-3.904628935624765429e-03,8.824880382134039697e-04,-7.830132593736435082e-03,5.433334642064036220e-03,6.222295761108398438e-01
6.124257905023835491e-01,6.037061366523306383e-01,1.102839984338666035e-02,-6.222529138866454701e-02,-2.186204524173766817e-02,-2.329018468176806758e-02,6.092519760131835938e-01
6.238429698622767194e-01,5.866750817231507487e-01,-5.889047843446570951e-03,-1.084234000461068922e-02,-1.916503887482552682e-02,-1.755133775516651631e-02,6.139354705810546875e-01
6.068838129172331453e-01,6.162023286929432242e-01,-1.137010274749722383e-02,-7.603724873511527073e-03,-3.170419699200489449e-03,-4.600909800623951933e-03,6.231797933578491211e-01
5.852907123793865685e-01,5.585901162112233420e-01,1.396069963028062633e-02,-5.729880664299127901e-02,-1.995451536321485655e-02,-2.607736105626667911e-02,5.700527429580688477e-01
6.156892156514481851e-01,5.645798570680835571e-01,-1.040929014266200880e-02,-4.107437414567083334e-02,-2.381160987471950263e-02,-2.939636618908399168e-02,6.098907589912414551e-01
6.135828690238795957e-01,6.143449948304636754e-01,-6.451935945906317471e-03,-3.600765619247038585e-02,-2.376115198793525563e-02,-2.608389817114364212e-02,6.265307664871215820e-01
6.111700255563103923e-01,5.557711958946792707e-01,7.133252040072701750e-03,-4.843082066852907180e-02,-2.353387512918839880e-02,-3.243727513324118350e-02,5.884906053543090820e-01
5.827294285367773385e-01,6.207389100760800638e-01,-3.346206964037368170e-03,-2.357716227673484558e-02,-1.092293740037587890e-02,-2.089761274202100311e-02,6.087211966514587402e-01
6.076967724236098656e-01,6.378936702758960520e-01,-8.353706491471768469e-03,2.421586305286025070e-03,5.510390857375190368e-03,-1.187525459117306711e-03,6.317798495292663574e-01
6.066826696649672002e-01,6.331994078121186975e-01,-9.165907627681268988e-03,4.760311468897163563e-05,5.815233365688993357e-03,-4.295991286344596019e-04,6.296069622039794922e-01
6.183738317208562485e-01,6.341200202109982254e-01,-5.805382130953107289e-03,1.055777144336779222e-03,5.475485106788484727e-03,1.240618770066225385e-03,6.322768330574035645e-01
6.238489925225408905e-01,6.477772182763623654e-01,2.791636334694480581e-03,1.986278166539083481e-03,1.141018782678532122e-02,1.002592371528702184e-03,6.336805224418640137e-01
5.706807889888015906e-01,6.419480956529295401e-01,-1.066370650721737423e-02,7.059819107570089285e-05,1.784376753661581771e-02,-8.960119445427878939e-04,6.208292245864868164e-01
5.949266472635700298e-01,6.413400430565524557e-01,7.136495130664388675e-03,-2.123653197746546654e-03,9.938431837804186444e-03,5.347373834845868534e-03,6.126405596733093262e-01
6.457639257023470858e-01,6.887761873007807178e-01,8.846487043116962878e-02,2.473450271583053223e-02,-6.146199590436433879e-03,8.577050238529714335e-03,5.818697214126586914e-01
6.337902348533782648e-01,6.394207770995696816e-01,1.196921311304755542e-01,-3.430180619153616085e-03,-6.691855756130163715e-03,1.731230585728413957e-02,5.179691314697265625e-01
6.201838137524793293e-01,6.258319810810356598e-01,-5.055777694830010383e-03,-2.769839077606717562e-03,-1.735943097226654236e-03,4.556061637347622734e-03,6.281577944755554199e-01
6.365944976257542631e-01,5.444136172866500534e-01,7.895911231275032360e-03,1.207774751917188583e-02,-1.573532037776107645e-02,1.585441859598606118e-02,5.896946191787719727e-01
6.854592999939408404e-01,7.060312403595238040e-01,9.169973673331838215e-02,1.592935558732875428e-02,1.272939610183265388e-02,-3.826694389843518507e-02,6.089571714401245117e-01
7.054323332318339634e-01,9.534335573852927848e-01,1.094296698289102254e-01,2.480587588963918677e-02,4.853254124454959434e-02,-2.570180747162851762e-02,7.585691213607788086e-01
6.366238652140205900e-01,6.659428122255364180e-01,1.227051523880851591e-01,7.304285106245687366e-03,-6.965342597049241878e-03,1.442728510342234163e-02,5.300657153129577637e-01
6.598983638804433172e-01,6.427038319996959403e-01,1.037841512328479543e-01,-4.071685545887947927e-03,-2.308075254073585492e-02,-6.834930417579748035e-03,5.493492484092712402e-01
7.033009755070175339e-01,6.861671150820225495e-01,1.344296573450476928e-01,2.544724363662078151e-04,2.658164948178712815e-03,1.144641292002411721e-02,5.608704090118408203e-01
6.357291775137587919e-01,6.904346185876396591e-01,1.632210897178142384e-01,6.623577116262999512e-03,-5.375158584353140201e-03,-2.080835993640992032e-02,5.036095976829528809e-01
6.375164692284613910e-01,6.877980088954914750e-01,1.579616672507328512e-01,-4.586769262328478473e-03,-7.496843678590041360e-03,1.180845759641370972e-02,5.072118043899536133e-01
4.933055022507468190e-01,6.724210541960609078e-01,4.661658049092909373e-03,-3.450836360877916620e-02,4.174012434525053994e-02,2.330069211904863685e-02,6.072946786880493164e-01
6.099246786493390804e-01,6.580874384787035458e-01,6.343269755182401326e-06,-3.365756594641148517e-03,-2.507275004853538360e-03,4.770017313429206728e-03,6.354655623435974121e-01
6.264947340514646079e-01,6.703548896374429411e-01,1.886087190229057686e-02,-3.972232691353911466e-02,2.652189786708382749e-02,3.631700200458922584e-02,6.392136812210083008e-01
6.048530692483119475e-01,6.294336820046240177e-01,-8.326379851046949998e-03,-8.088032700866668728e-03,1.857077432467135747e-02,1.888217474786260328e-02,6.276671290397644043e-01
6.543033439106251681e-01,6.086905245549105725e-01,-5.567891149702797193e-03,-1.911074184444022314e-02,2.244136848613472249e-02,2.278897904437770378e-02,6.415423154830932617e-01
5.847156817692759079e-01,6.424086011412207808e-01,1.864707388414321709e-03,-9.249234731679319838e-03,1.201717167506451481e-02,9.580217652012178869e-03,6.145204305648803711e-01
6.575734534052868341e-01,6.160298491480258321e-01,-2.333154456716945990e-03,1.807869156352008219e-02,-1.544730549870169771e-02,1.837055182865574010e-02,6.422588825225830078e-01
6.002265746344778163e-01,6.123951572514755304e-01,5.341574162511464330e-03,4.212576946783906651e-02,-3.854423082197092065e-02,4.485237198965587313e-02,6.140773892402648926e-01
6.288756715018866128e-01,6.321466503068086107e-01,2.105964857796421841e-02,-4.984100382345964773e-03,-2.793932840949596690e-03,9.030700190987438550e-03,6.097391247749328613e-01
6.600384216609037624e-01,6.651946467293299303e-01,6.084841137680774281e-02,5.316940641738194390e-02,-1.280586714943716085e-02,2.273771380156840854e-03,6.092070937156677246e-01
6.268092149273866154e-01,6.419449465112342379e-01,7.533623598431554713e-02,-6.420399987889320072e-03,-1.251912809553004657e-02,6.306192882915585655e-03,5.598317980766296387e-01
6.309544833631977045e-01,6.250563221720388807e-01,7.446083643192874524e-02,3.055771207633203694e-03,-1.449469155637435509e-02,6.007822680542513304e-03,5.542600750923156738e-01
6.233594906064315877e-01,6.828092695872687301e-01,3.365791706373005843e-02,2.998150699411130521e-02,-3.118334246664878837e-02,1.906254947452536153e-02,6.269320845603942871e-01
6.423346035480960170e-01,5.722983369646672536e-01,-8.099786859086133273e-03,-2.323011201369768255e-02,1.944808741333159743e-02,3.792272986951832070e-02,6.240864992141723633e-01
5.595071853331534673e-01,6.813567698645277559e-01,-7.673171995775607268e-03,-3.733034635204473314e-03,4.199973949673066476e-02,8.849285226282930031e-03,6.412645578384399414e-01
5.892616826556374976e-01,6.585520488842864228e-01,-2.032518517417591930e-03,4.399391567670497306e-03,5.424349818987306109e-03,-3.434629280912931070e-04,6.289258003234863281e-01
5.936086755939774529e-01,6.584937670715476088e-01,-6.724362445706899560e-03,-4.940651343921210852e-03,6.676678800002962440e-03,6.461006736314841604e-03,6.355270743370056152e-01
6.378869670272764303e-01,6.372845403824600741e-01,2.362818717318704298e-02,6.844847794561433399e-03,3.956251933190870970e-03,-2.002449821223960605e-02,6.150891184806823730e-01
6.071725901645292911e-01,6.342795958997452521e-01,3.908878272592009040e-03,3.251737026254284107e-03,6.356629581917930434e-03,-8.660719458410799654e-03,6.175698637962341309e-01
6.093538293666564964e-01,6.104671989571810453e-01,-5.376049205957411647e-03,4.134793229023549233e-02,2.061736458810051187e-02,-2.064765388348616115e-02,6.214995384216308594e-01
6.075265479922949963e-01,6.206114473545951693e-01,-1.138979079035129516e-02,3.078399175738466640e-03,1.286417749630077573e-02,-1.183162729210235874e-02,6.263161897659301758e-01
6.302739108733107498e-01,6.148971275835463102e-01,3.703210590276007075e-03,2.377082438123399952e-03,6.609859840426619837e-03,-6.168491242017835365e-03,6.192373037338256836e-01
2.638328479327615717e-01,8.720949676739436773e-01,-1.294412423214894026e-01,2.584976904985769597e-01,-2.762005617044420436e-02,-2.682685374462619090e-03,9.831756949424743652e-01
6.578262859747889824e-01,5.622282854629934157e-01,3.515438082432598144e-03,-1.166133029684451872e-02,1.922510379725045696e-02,2.486209130690106295e-02,6.148837208747863770e-01
5.882079761942513585e-01,5.547873269019372167e-01,1.013752611863955044e-02,4.601267066131146943e-02,2.200761238092091565e-02,-1.793816663985390095e-02,5.698532462120056152e-01
5.982852366915132336e-01,6.102873302964486601e-01,-6.024806909351587692e-04,1.741097670069395240e-02,1.372197965820404209e-02,-8.008242731840791578e-03,6.063539981842041016e-01
5.818232418095243830e-01,5.644751126426357235e-01,1.130320645723076334e-02,4.252075533003753238e-02,1.842101510164443137e-02,-2.552377028487179400e-02,5.694673657417297363e-01
5.804100648965906384e-01,5.966202921148074934e-01,2.869011281680378112e-03,3.987237373274271635e-02,1.745755502021267488e-02,-2.426441036257784636e-02,5.921389460563659668e-01
6.159806184749114788e-01,6.740121696266846429e-01,4.929806124700397696e-03,8.652003245534200734e-03,1.368535897014852391e-02,-3.960966170865029383e-03,6.426853537559509277e-01
5.919958580411972537e-01,6.171227770094614984e-01,-4.869417354390170871e-03,8.652291518965845446e-03,1.079278822171156858e-02,-1.318672149711147372e-02,6.107148528099060059e-01
5.794153496227548716e-01,5.892369103900561011e-01,2.129908215745379696e-02,6.824843879846309580e-02,3.274265935279754847e-02,-1.197700951058124595e-02,5.785256624221801758e-01
5.924878368959727304e-01,6.049291356286933263e-01,-2.159899683188304387e-03,1.091750879180240601e-02,9.405591206962955059e-03,-1.101665345973500479e-02,6.017856597900390625e-01
5.800144004432268297e-01,6.238257314451092217e-01,1.416492575036515378e-02,5.787279462437899813e-02,3.891655945692542445e-02,-2.531679404662186619e-02,6.028347611427307129e-01
6.640669035675912379e-01,5.188857354591630555e-01,-1.157264913535072104e-03,5.252041695946054953e-03,4.571245097553983811e-03,-1.775565826068092531e-02,6.067239642143249512e-01
6.206096001243052163e-01,4.893023651277995656e-01,-2.825011203683058802e-03,9.127051587639008201e-02,3.652626124734699442e-02,-5.834267182863021872e-02,6.027070879936218262e-01
6.685140864186143173e-01,5.387977191913940755e-01,2.528497953769709428e-02,-4.269466100692688448e-02,-9.186360078764617410e-03,-4.235670542013748874e-02,5.985286831855773926e-01
6.591932902935773164e-01,5.582367227919687869e-01,2.755428000986476222e-02,-5.688414999801736510e-02,-2.645902877087840288e-04,-4.850203251174650676e-02,6.017947793006896973e-01
6.332634530732622613e-01,5.447875966099526845e-01,5.679187385583261971e-03,-1.515845043069856228e-02,2.059650337228655786e-02,1.473444356418966358e-02,5.905736684799194336e-01
6.623258969568225352e-01,5.606876928057822340e-01,-5.754089682159957420e-03,8.900337181789530830e-04,-7.268589314208134117e-03,-2.759491062592930519e-02,6.254630684852600098e-01
6.347416118470176061e-01,6.125358589817240240e-01,2.875065329590881236e-02,-4.749384067118100732e-03,-1.120548286096843642e-02,-7.066732302254881762e-03,5.956977605819702148e-01
6.910042612408187068e-01,6.995450260393589748e-01,6.509775569564951736e-02,3.450605662165404791e-02,4.411505778906907316e-02,-3.867603452173866418e-02,6.411517262458801270e-01
6.165506556040973862e-01,6.352294065767127851e-01,-3.136106311386721579e-03,-8.240365246469445043e-03,-2.076411795971787669e-02,-1.198069685094882778e-02,6.307640671730041504e-01
6.624781219701620927e-01,6.649714007183492592e-01,2.256225246079140989e-02,-5.198567868768310535e-02,-2.329405923459412428e-02,-3.838855457824796868e-02,6.521123051643371582e-01
6.415710090499798790e-01,6.606114135265306331e-01,2.780061207630829534e-02,-5.965840310918039610e-03,-8.144627727983314025e-03,-1.033386527366256203e-03,6.237564086914062500e-01
5.937448526544806260e-01,6.121524581861453873e-01,5.259413732173479072e-03,-2.282045329741858291e-03,-1.845831705153860901e-03,-7.282054049752189825e-03,5.980564355850219727e-01
6.163802652713817887e-01,6.757582457884913074e-01,5.853197739083476625e-02,-4.428396472953150670e-02,-1.575140299580359698e-02,7.540590274330433163e-03,5.955186486244201660e-01
6.279259844878720687e-01,6.399136631065041048e-01,4.427286831599869243e-02,-7.282382651592558993e-03,-2.347337283779710193e-04,-1.174704816869379803e-02,5.902241468429565430e-01
4.654285075994260557e-01,5.938627909400586713e-01,1.836133099277525993e-02,-1.335862584551124055e-01,3.726353054723890307e-02,2.789894119936701944e-02,5.777714252471923828e-01
5.156021979422600321e-01,6.010822174681552665e-01,-1.087087064014896631e-02,-9.798478062682963730e-02,3.642401624328386184e-02,4.754380619728766633e-02,6.074932813644409180e-01
5.922631860866530706e-01,6.827480843120418141e-01,1.030622125735608519e-02,-8.262164001944764802e-02,3.981699303393730627e-02,4.738305764533317505e-02,6.568793058395385742e-01
5.470216688604592203e-01,6.503447792732156563e-01,2.446263122735964357e-02,-5.569221923572984650e-02,1.839019189293544798e-02,7.613137447647215159e-03,5.901096463203430176e-01
6.061761634279017041e-01,5.857297134525040194e-01,-1.553346794032411937e-02,-9.556362292124651048e-02,3.676292814091411398e-02,1.047638593938110020e-02,6.371892690658569336e-01
5.263462823533489043e-01,6.368603134996473347e-01,-4.183849003182193993e-03,-3.331711812406029649e-02,4.045840105930724462e-02,2.393931490287061481e-02,6.018858551979064941e-01
5.528547396551168891e-01,6.399249147537576787e-01,3.052365465804396383e-03,-5.579967129789827063e-02,2.935878894648521684e-02,2.758499972939205611e-02,6.098726987838745117e-01
6.156985105960806059e-01,6.157531078183897666e-01,-1.077885105046305636e-02,-2.590247644258793398e-03,3.418903706873101331e-03,5.161579247060303979e-03,6.266124844551086426e-01
5.893250684433442022e-01,6.227857736733561911e-01,-1.569229404765115632e-03,-2.770877210824297405e-03,9.786263662811961472e-03,1.369284820614058602e-02,6.090322136878967285e-01
6.295929902504674436e-01,6.189335091239109854e-01,-4.955089697591730236e-03,6.447784587053173675e-04,-1.348317632792653102e-04,1.273274845830590484e-03,6.292909383773803711e-01
6.174382703965659580e-01,6.202081523865142776e-01,-1.144375351023418919e-02,2.901373556900902731e-04,5.238653774842761367e-03,6.809174410857370130e-03,6.304473876953125000e-01
5.909307901396069207e-01,6.170691687727881680e-01,-2.090918129824703708e-03,-3.346931178864448030e-03,9.649772659581907358e-03,1.447406610182797905e-02,6.072890758514404297e-01
6.597692455056789473e-01,4.443083786076557073e-01,2.693532488919481160e-02,-1.056778743922321545e-01,-4.750693768671291825e-03,1.700637297294417538e-02,5.873584747314453125e-01
6.730288431377127178e-01,4.689573785307143972e-01,1.903198083806273422e-02,-2.015179137448938895e-01,9.649219285889644102e-03,2.206250933025342628e-02,6.778369545936584473e-01
6.694441722946231632e-01,5.707138737886701119e-01,-3.142845517140002709e-03,-1.773316637766684731e-02,2.661769434500052198e-02,3.900671580540489292e-02,6.350982189178466797e-01
6.282331320293399468e-01,4.437477758190999655e-01,1.887867717201313633e-02,-1.463133001920740028e-01,1.718112473506799853e-02,1.515792553990692564e-02,5.989393591880798340e-01
6.850182534812127022e-01,4.215946439200767837e-01,2.641112073410994965e-02,-6.593916427095233845e-02,-1.711643594689145906e-03,-9.893136563244989135e-03,5.856696963310241699e-01
6.011493054507964784e-01,6.045291657705330612e-01,-1.352526021827726854e-03,2.784698934758921256e-03,-7.868639563570662548e-03,6.597892037462914014e-03,6.044798493385314941e-01
6.633891204535957709e-01,6.770734050051643305e-01,7.327838331488012447e-02,-1.356676427658104825e-02,3.276550161655882032e-02,-4.969235596745940654e-03,6.002833843231201172e-01
5.944687083471833500e-01,6.061170487403181317e-01,-1.580668494506831667e-03,1.814194351847627992e-02,-1.329036617675119838e-02,1.615277188883811055e-02,6.038655042648315430e-01
5.792578600758720997e-01,6.264333225073777101e-01,-9.507344143046547735e-04,5.273723272836285114e-02,-2.774527342599241234e-02,3.541250116346959798e-02,6.169719099998474121e-01
6.073429483387307037e-01,5.832631786049369271e-01,1.294183423439232428e-05,5.552647264682268602e-02,-2.949751233653461618e-02,2.003151364281531913e-02,6.065219640731811523e-01
6.034463552759901095e-01,6.167092964140927780e-01,-5.314483063353969694e-03,4.688413545077270428e-03,-5.810344132013166296e-03,8.004956817204906747e-03,6.157914400100708008e-01
6.689259877915065822e-01,5.521486060451379352e-01,5.054659697894092751e-03,-2.018595317759130925e-02,5.841194949690030683e-03,1.472712916682678182e-02,6.154773831367492676e-01
6.815604617566493051e-01,6.289857296056486913e-01,5.245280770461735464e-02,-1.860291654939288941e-02,-2.897765410210793348e-03,3.246109437636390121e-02,6.080213189125061035e-01
6.977181452284959562e-01,6.684171897282416008e-01,6.459873973837593208e-02,8.234658050666955609e-03,-1.395774076172322763e-02,1.575229185174005855e-02,6.202257871627807617e-01
6.340737775748906957e-01,5.969288122638625183e-01,2.692849153455539879e-02,-3.286056221117903808e-03,8.270217583693261539e-05,5.949667206310958398e-03,5.895687937736511230e-01
6.830426343138809031e-01,6.018135780397044776e-01,-1.301550352941327482e-03,-3.373349264746793811e-03,-4.690370705496805202e-03,2.536123636618042507e-02,6.491272449493408203e-01
7.125060720095919287e-01,5.644970720596822478e-01,1.739520804186206471e-02,2.156653878101809710e-02,1.022818308439363624e-02,1.319558627090270872e-02,6.359518170356750488e-01
6.567291206885952359e-01,5.938026251374360909e-01,2.605817559628031965e-02,-8.930730585571873548e-03,1.132702777099448346e-02,2.956785978209575810e-02,6.043729186058044434e-01
6.635882368213326110e-01,6.470009920289010452e-01,4.209097241962961311e-02,2.078096011998745857e-02,-2.285929189794482994e-03,8.478682046421982116e-03,6.146152615547180176e-01
6.019072112789969342e-01,5.983913059114243094e-01,-7.739081060948782564e-03,-5.112220492997397725e-02,1.200614872853392884e-02,1.488399542160069415e-02,6.152032017707824707e-01
6.323206884802921035e-01,5.983719319052059893e-01,3.062766010678286133e-03,-9.218949648251351103e-02,4.303260656893569819e-02,4.745699644027943226e-02,6.430895328521728516e-01
6.245968314468129945e-01,6.131604352117173695e-01,4.893938874148684448e-04,-6.256963609469434751e-02,6.504061791649839996e-02,4.377245376113849534e-02,6.424072980880737305e-01
5.812032421913454483e-01,6.532749407717469703e-01,-3.191972111130536582e-03,-3.572086374923827412e-02,3.996062711488138769e-02,9.314889155275842339e-03,6.306419372558593750e-01
6.301530307412015475e-01,6.001787954411055281e-01,-7.773203298828468277e-03,-4.898298810892073168e-02,2.917383064807203483e-02,5.826115079373020422e-02,6.392663121223449707e-01
5.964174275056031149e-01,6.138606840159506195e-01,-6.747999517361269461e-03,-1.279817440201474511e-02,1.438557734455791007e-02,1.670641692334599859e-02,6.136639714241027832e-01
6.446686480302370459e-01,6.392833383152203286e-01,6.001424134013666478e-03,1.372170493491375182e-02,-9.950655043953079981e-03,-7.228229822330187529e-03,6.367920041084289551e-01
6.290371595259081072e-01,6.362012872786173556e-01,2.631251819305291395e-02,1.689661743557531806e-02,-1.028637267490816951e-02,4.323527015054263144e-03,6.073518991470336914e-01
5.148139672505976927e-01,6.165740698791398744e-01,1.484057036973829291e-02,-5.835423191692871298e-02,3.546424164597921508e-02,2.376159398319910993e-02,5.717416405677795410e-01
6.070018890219545105e-01,5.704119822699370568e-01,4.647266572481045799e-03,2.838065242435426627e-02,1.753721940831847598e-02,-1.560958411069736027e-02,5.883874893188476562e-01
4.912529399798175600e-01,6.172304844603676566e-01,2.346900419057434961e-02,-6.220210941090499601e-02,3.090148876730368713e-02,2.338139874685609201e-02,5.565379858016967773e-01
5.567007857675256854e-01,5.881888960916614728e-01,2.861627603083194415e-02,-8.836289688583399971e-02,1.738452750921588158e-02,7.741130472347475949e-03,5.665717720985412598e-01
5.047581922915650443e-01,5.937069798869647475e-01,3.045298378564520458e-02,-6.592787038651723441e-02,3.076419781595453231e-03,3.863438617248741991e-03,5.368229150772094727e-01
6.017190464004440464e-01,5.563225191716584250e-01,3.791038036711963377e-02,-3.676003165181261634e-02,-9.416750161433853905e-03,-6.175927513277289053e-03,5.466081500053405762e-01
5.572988820705148116e-01,5.887161995610159515e-01,2.980871589404648914e-02,-8.771975935210732378e-02,1.812904599702579861e-02,8.470533350392104796e-03,5.657656192779541016e-01
5.413572403116889697e-01,6.276199206071707559e-01,2.355828268162568628e-02,-3.353663607034276101e-02,1.331187110641223609e-02,1.268114881685953287e-02,5.697472095489501953e-01
5.416560296414322240e-01,5.971360182270510908e-01,2.786403673456555596e-02,-2.798174095385918062e-02,1.549386357049479038e-02,-2.910930505591789296e-03,5.464978814125061035e-01
5.455209135122223163e-01,6.425436536738993176e-01,-6.077660465627410247e-03,6.485428939933458869e-02,-6.537743969105866415e-02,4.663575031675963600e-02,6.317891478538513184e-01
5.778448961846254228e-01,6.672844152922690064e-01,-2.809797444408568268e-03,-3.080891044601597687e-03,-1.437101111248681971e-02,2.855743164799251499e-03,6.306863427162170410e-01
6.814971835551593138e-01,6.913879880040465498e-01,8.718474795615993589e-02,1.058753389368729744e-02,3.598271265938500496e-02,-4.811820904605251803e-02,6.085638403892517090e-01
6.096767912022236224e-01,6.398640945319468143e-01,-2.222052695460663418e-03,4.983767208655966695e-03,-2.896039239486693576e-02,1.316050980443814709e-02,6.300105452537536621e-01
4.528814210080541747e-01,6.409415077582526488e-01,3.166474205196900815e-02,-1.010023596683618796e-01,1.493341546523998045e-02,2.247785789112270293e-03,5.685883760452270508e-01
4.966486374011022664e-01,6.254189433449324209e-01,2.871852674882685585e-02,-7.474639272764306563e-02,-1.131941297682525875e-02,1.984753382278858704e-04,5.594117045402526855e-01
5.716309275869716489e-01,5.842985293089114629e-01,3.119876923570652494e-02,-4.492421993145919584e-02,1.130940046898147415e-02,1.228700012338313288e-02,5.531406402587890625e-01
5.474460935526549443e-01,5.550810266885110034e-01,2.071102139077740656e-03,-1.052597804849822877e-01,3.469107878478806112e-02,3.829984661306106569e-02,5.855817794799804688e-01
5.656828938736614409e-01,5.869794811909617716e-01,4.148490676313260073e-02,-8.457848902196812846e-02,8.292544647548496378e-03,7.510626252174411842e-03,5.551907420158386230e-01
4.970906754414183837e-01,6.295746025576810512e-01,3.927806413074547143e-02,-6.321443369499503417e-02,6.000434532978764224e-03,8.788457288941731171e-03,5.478367805480957031e-01
5.696875466760760176e-01,6.401568522068473710e-01,-8.813862692172380608e-03,-1.054995523533253446e-02,-1.764832095256127151e-02,5.941964520538592365e-03,6.178758740425109863e-01
5.381582087685323756e-01,6.364573901463784766e-01,-6.751006692438998869e-03,2.977345644473969669e-02,-1.983992934399241362e-02,8.366550562437530952e-03,6.034924387931823730e-01
5.938015000359941897e-01,6.409691116885598561e-01,-3.283914974315571556e-03,3.805503917157717839e-03,-7.423161478631063771e-03,-3.041937130534401196e-03,6.222020387649536133e-01
6.113577920641795060e-01,6.406587068268283502e-01,-1.084192037137504672e-02,-2.150696730586296873e-03,-9.391625131559779363e-03,1.715055359968037851e-03,6.375808715820312500e-01
5.460790227788343554e-01,6.685695424235427176e-01,-3.534718224806721043e-03,6.470086060090454207e-03,-1.519870907362077736e-02,5.536768044812847081e-03,6.207352280616760254e-01
6.168378165410031144e-01,6.341035055186221570e-01,-1.172991890140628879e-02,9.950192887616471707e-04,-1.072566921407711607e-04,-3.766872490324942859e-04,6.373786926269531250e-01
6.138021936070204854e-01,6.295169830395844768e-01,-6.947567853321900966e-03,3.390495003519520927e-03,1.289745642832365591e-02,-1.249530874816816815e-02,6.295506954193115234e-01
6.274066794603782027e-01,6.481907391719854417e-01,3.869248887474613374e-02,3.262346830893626641e-03,1.070933609091063131e-02,-8.396981485138213812e-05,5.996901392936706543e-01
6.220046305800712716e-01,6.307510797357142041e-01,1.453687766332262266e-02,-1.448135228396817652e-03,-3.390507195038956409e-03,2.951979237448040805e-03,6.119425296783447266e-01
5.985474696857920884e-01,6.437670565813943258e-01,-1.601694004883635891e-03,4.052405233295873314e-03,7.634507086535145814e-03,-4.858349933776191440e-03,6.242253184318542480e-01
6.027149761822578888e-01,6.304714609974992889e-01,-2.369779212678668756e-04,6.381382536593776904e-04,5.632533914002997751e-03,-4.933308944761616993e-03,6.174355745315551758e-01
5.996034085275909753e-01,6.452825446945231747e-01,-8.650270308737550984e-03,2.403685834783596004e-03,8.602329269429104600e-03,-7.417804620271878195e-03,6.326515674591064453e-01
5.688879536502797762e-01,6.647026673108457073e-01,6.104333239498266339e-02,2.137916036391716498e-02,-2.793294014229154645e-02,2.383809798487198425e-03,5.652208328247070312e-01
6.000367740324148436e-01,6.315702158654523668e-01,2.949746569358702164e-02,-5.506690918551392783e-03,-4.597571641446415898e-03,1.275389180246638832e-03,5.870773196220397949e-01
6.357708626834416288e-01,6.545410114070484564e-01,7.626233689035988306e-02,1.252986405783165606e-02,1.488722386653871209e-02,-3.036112885434379127e-03,5.701470971107482910e-01
6.522247612837617226e-01,6.782926103803853524e-01,6.874173728105587022e-02,5.009025833907514852e-02,-1.807139097629755289e-02,-1.482651700009418030e-03,6.040327548980712891e-01
6.029843553942088041e-01,6.516300851484029266e-01,2.537382891650158401e-02,6.772339072599616039e-03,-3.007272320994299353e-03,-4.190674389890867123e-03,6.035859584808349609e-01
6.330827430049749127e-01,4.912636665155695193e-01,5.160428973430220001e-03,-7.465605369712195738e-02,2.806406696137288617e-02,4.051752127115752083e-02,5.910634994506835938e-01
6.599495628308295059e-01,5.011728020365843195e-01,5.090890590865815302e-03,-6.953345462715064540e-02,2.609002283885051773e-02,4.245547330356399390e-02,6.099407672882080078e-01
6.957008634763290900e-01,4.449211919827975037e-01,-1.658291431056452270e-02,-1.058326166567293350e-02,1.102698552373009358e-03,2.278049566400699652e-02,6.273028254508972168e-01
7.129714806314038089e-01,4.429493859991427973e-01,2.163177442889074875e-02,-4.208515687715675552e-02,1.020890919619539712e-02,1.974280782773494419e-02,6.090821027755737305e-01
7.416904515208423421e-01,4.257151225217870594e-01,-1.101756602074094316e-02,-5.516657610386112992e-02,3.272203653587064942e-02,3.142736901899487872e-02,6.662416458129882812e-01
7.428508419659156647e-01,4.096377808649780405e-01,2.467396319960329931e-02,-5.810326298238301101e-02,4.132508625568843963e-02,3.679775400096008120e-02,6.378217339515686035e-01
6.592778887269702404e-01,5.830240170124409982e-01,-8.395186878095262095e-03,4.313598715550730732e-03,8.699427326299825729e-04,-5.760664723495286660e-03,6.331247687339782715e-01
6.405753232621768101e-01,6.270007861934288051e-01,2.952027222022690633e-02,8.017002993317704634e-03,-1.447607708811209223e-03,1.625435274962156937e-02,6.052020192146301270e-01
6.791788652455115205e-01,5.327273957974497653e-01,-1.517021378969402035e-02,-1.309463047708057763e-02,1.204021572565921495e-02,-1.917588936003178368e-02,6.355569958686828613e-01
6.338539738931464607e-01,5.996925548927025673e-01,-8.236560215728605527e-03,9.737929529099033019e-03,1.575337030069811142e-02,-4.296984295105301527e-03,6.265755295753479004e-01
6.612638679499298622e-01,6.093067803655938253e-01,1.659514021526364846e-03,1.876133003544496261e-02,4.031264911061186243e-03,-1.774790114038213990e-02,6.368327736854553223e-01
7.148166332412220214e-01,6.037210979135716471e-01,3.543691609344251647e-02,5.139037470182329648e-02,5.743849734520117128e-03,-5.415980978342407881e-02,6.443948149681091309e-01
6.324141449402960191e-01,6.240462554343162438e-01,-3.302567870536898820e-03,-3.892761051957218700e-03,7.652758668933476276e-03,-6.933688968612964493e-03,6.318635344505310059e-01
6.199519007324898467e-01,6.300405248807018355e-01,-9.928761950862174945e-03,-5.771302049581418471e-04,2.083016590179054967e-03,-9.816024989420103590e-04,6.349983811378479004e-01
6.502071331904221152e-01,5.920930676013032024e-01,8.198453916472003833e-04,-5.355457560544703635e-03,3.509801283583225372e-04,-9.457895539186788117e-03,6.226534843444824219e-01
6.485202108975329782e-01,4.987799031613056044e-01,-1.604457046163909606e-02,1.484221058187248921e-01,1.671491075499078466e-02,-5.388933803657618843e-02,6.634712219238281250e-01
7.105236691749370337e-01,4.811143630335328880e-01,1.448541869829161888e-02,1.114369240031246322e-01,3.163953438112180466e-02,-3.910863343790938612e-02,6.498203277587890625e-01
6.096470936088639325e-01,6.195192911097280319e-01,-6.180848054205045905e-03,2.703480118993203257e-02,1.831615100037004354e-02,-2.537206177063876938e-02,6.249411106109619141e-01
6.354406068409489405e-01,5.420573955461953641e-01,1.808671378018877895e-02,6.089722976168349122e-02,3.329707888953200440e-02,-3.545618533249220855e-02,5.919617414474487305e-01
6.467594474104125801e-01,5.053471077881318552e-01,1.881624840721346503e-02,6.231466971165360025e-02,1.660677590358424632e-02,-6.247947449401726125e-03,5.814679861068725586e-01
6.375192039806955036e-01,5.121490357152589379e-01,2.515537711721615999e-02,6.046142200735817734e-02,1.269553156947836325e-02,-1.393075341300354687e-02,5.709356069564819336e-01
6.405029701890549987e-01,4.551195043175069177e-01,1.788400181817390022e-02,8.721501579178052299e-02,2.248281872018538519e-02,-3.074207611463673079e-02,5.777276158332824707e-01
6.767427477286009907e-01,4.227647210725908322e-01,1.608259078023832611e-02,7.673217181574958079e-02,2.253294366391339273e-02,-5.434508305702682313e-02,6.010244488716125488e-01
6.778369965166386457e-01,4.882186949468059756e-01,2.654178044441096729e-02,4.546215221214335023e-02,1.846135764877684243e-02,-2.068859274016829689e-02,5.874946713447570801e-01
6.173696610797085871e-01,6.204083886705857864e-01,-1.214516641789276097e-02,3.959460448236832783e-04,1.199910023094463837e-03,-8.757522411220865308e-04,6.310452818870544434e-01
6.141331073818308006e-01,6.109323405525058925e-01,-1.208777882572181772e-02,4.035330610387540158e-03,4.677426771242622870e-03,-5.011314687347799557e-03,6.247785687446594238e-01
6.187015293219058076e-01,6.170556925578557506e-01,-7.699128122589049550e-03,4.443190775830750845e-03,6.717375398360435172e-03,-5.550185344956660473e-03,6.258087158203125000e-01
6.126174627637088754e-01,6.098752498783116538e-01,-8.285317900465993812e-03,3.591015271454235745e-03,7.995305178266980464e-03,-5.327207383586072230e-03,6.197908520698547363e-01
6.195180152359565096e-01,6.242382886460040581e-01,-6.018167642220573210e-03,6.830767206205336402e-04,8.030075842753817486e-03,-6.589151131781584465e-03,6.281684637069702148e-01
6.577070499889909883e-01,5.959547868479186938e-01,8.452062543113925130e-03,4.490694208080236310e-02,2.461891053629279916e-02,-6.807094181278444678e-02,6.379824280738830566e-01
6.072677170757985188e-01,6.222888666387063061e-01,-5.508693141077436461e-03,2.271166927484822261e-03,-8.501134248394968257e-03,1.214024320636557762e-02,6.209666728973388672e-01
6.091026678891980906e-01,6.319774770960888688e-01,-1.159618165003778456e-02,2.220996907026606367e-04,-4.827512017382064487e-03,6.119600884328898517e-03,6.325907707214355469e-01
5.809831500153083139e-01,6.296570862032256910e-01,-6.992410073799859571e-03,6.467195993924588701e-03,-9.779386832668209711e-03,1.115250250118778562e-02,6.144013404846191406e-01
6.122651440948325696e-01,6.195592117847337210e-01,-1.242944736552042961e-02,1.148817899846982411e-03,-5.582739404788733539e-03,7.021613510121845272e-03,6.285685896873474121e-01
5.863263120865732647e-01,6.234230798344672086e-01,-7.056939160190178750e-03,2.186819877304680727e-03,-9.584367931232063570e-03,1.187173199793385703e-02,6.133556962013244629e-01
6.341760921983868871e-01,6.227847713440590738e-01,1.644076907620295458e-02,-9.564655195229532225e-03,-8.040691999192750225e-03,-1.872787016549532987e-02,6.133599877357482910e-01
6.408502942971192606e-01,6.355985827323856752e-01,7.540155532054804155e-02,6.361205061768137464e-03,1.452337386224639496e-02,9.823147388632632107e-03,5.637676119804382324e-01
6.896717505658199743e-01,6.359130459472527308e-01,1.014126607560179028e-01,-4.186581892040614622e-02,2.044943459927479890e-02,7.599528941664311990e-03,5.692106485366821289e-01
7.076810204817274297e-01,6.687355320291101801e-01,1.070812892081067780e-01,-1.591620047749060796e-02,2.084246958102968852e-02,9.327394297612093960e-03,5.840978622436523438e-01
6.523049702652171655e-01,6.181767356769027888e-01,9.957832862454291112e-02,-6.803715246849659747e-03,-3.454575043356444830e-03,1.392760133265036684e-02,5.371819734573364258e-01
5.591513928583435877e-01,6.279380022717162557e-01,2.363203061109192538e-02,4.442770377955587019e-02,1.595374623329878783e-02,-1.270546574417701427e-02,5.792395472526550293e-01
5.626853721107446527e-01,5.816236975515577390e-01,3.567510141291613257e-02,-1.015089058961833185e-01,-8.499418357905531504e-03,-5.839367959434529909e-03,5.650755167007446289e-01
6.679296272293464565e-01,3.108312346344185295e-01,1.568027470379096400e-03,-2.461208310356134132e-01,-1.332034966956024448e-02,3.452613496952589966e-03,7.182582020759582520e-01
4.165749741558050778e-01,4.574879026681372141e-01,-1.135505205505377146e-02,-3.546028773635218068e-01,-1.506845672179591431e-03,5.639178622365128950e-03,7.613393664360046387e-01
3.701110219962815417e-01,7.475071637487534781e-01,-1.636398707653041740e-02,-3.301098275254991110e-01,-2.953448204078935879e-02,8.227072225414784265e-03,8.760036230087280273e-01
7.235948969089158744e-01,4.072421353228988794e-01,-3.613572584620805550e-03,-3.572691387939334051e-01,-4.855428815522850466e-02,1.171879002092519710e-02,8.884059190750122070e-01
6.093135355225534067e-01,5.357356511131847743e-01,3.476960641453219480e-02,-1.958815485099723863e-01,7.137498529804127152e-04,9.628164904176348196e-03,6.392410397529602051e-01
6.811084458399072616e-01,5.008798509540532962e-01,1.180335449334618536e-02,-1.448609142640557290e-01,-2.940466100084737286e-02,-3.388732155762747000e-02,6.548410058021545410e-01
5.104211938959438699e-01,6.730859888774156641e-01,2.098455279110866822e-02,4.180774250947570658e-02,2.567344996921268330e-02,-1.878486222313109286e-02,5.948964953422546387e-01
5.963821351581649610e-01,6.538544891881896692e-01,-6.900892092061294836e-03,1.841159095637104120e-03,6.598191391017857628e-03,-3.265656444201269111e-03,6.341122388839721680e-01
5.388848177558704933e-01,6.440791573562352212e-01,6.164684826209854140e-03,1.471490172396570581e-02,2.232208530952704481e-02,-1.391243559023492594e-02,5.946602225303649902e-01
5.586238801646745689e-01,6.554160144525710274e-01,-2.349100020107242059e-03,6.478716789362315778e-03,2.600154196859300743e-02,-3.386599830656368028e-03,6.168838739395141602e-01
5.724370649460622795e-01,6.547348468504459174e-01,-8.849325709444078036e-03,5.408918977762050551e-03,1.193479200387412634e-02,-3.444922555232058682e-03,6.269418597221374512e-01
6.117960409056910631e-01,6.126690995840944343e-01,-1.313820439354185243e-02,3.869406565292555535e-04,1.672295725912342898e-03,-2.693961401562836293e-03,6.253957152366638184e-01
5.773593877467698698e-01,6.445979613069316994e-01,-8.478286122470757302e-03,8.306462400304711821e-03,1.203224399144546715e-02,-8.554398781599385423e-03,6.228792667388916016e-01
5.620641466286586674e-01,6.451039492808964271e-01,3.535471219570929247e-03,5.683905094296890989e-03,1.631503222111734463e-03,-1.108748126284365629e-02,6.047344207763671875e-01
6.350497017400023037e-01,5.950960689075441845e-01,-3.825987773259320601e-03,4.406937876672377581e-03,6.554593466662133466e-03,-5.725712694764994656e-03,6.200956106185913086e-01
6.543814754555759006e-01,5.469223010051431633e-01,9.907380720692915421e-03,1.692068912920408758e-02,3.117829809558755449e-03,-2.015235260722614621e-02,5.997884273529052734e-01
6.354181081592450431e-01,6.133291968970192576e-01,3.033720219002389307e-03,4.518556952243089897e-03,8.688225632643721205e-03,-5.803697322768459552e-03,6.219469308853149414e-01
6.319070698238276051e-01,6.075522754744028253e-01,-5.026586151683776205e-03,3.478966435738208539e-03,1.408350744417324191e-02,-1.835934978663327291e-02,6.264246106147766113e-01
6.541874701571619433e-01,5.465694383494934527e-01,-6.621379378624392409e-03,1.735594333440797568e-02,5.587842883763833798e-03,-2.110702872595894217e-02,6.160104870796203613e-01
6.565430083418778429e-01,5.655686944758455681e-01,1.325342450504585212e-03,5.589779588441848648e-03,1.343738313459488798e-02,-2.713885631440709698e-02,6.171090006828308105e-01
6.225545202891655805e-01,6.232044482826275544e-01,-9.299808537797660257e-03,-2.881201122241426084e-03,3.781363625006542873e-03,-3.677447668974750082e-03,6.322652697563171387e-01
6.564662520059857398e-01,6.118814652517134967e-01,-3.712153456493338943e-03,-2.016088586814782785e-02,-2.509078288788722105e-02,-2.323120934363031090e-02,6.427413821220397949e-01
6.387916872198382556e-01,6.043940584831197782e-01,-3.665120561146595346e-03,3.144243732261358011e-03,-6.573325745465982868e-03,-1.400670941325309928e-02,6.265642642974853516e-01
6.293949521636005295e-01,6.185556345266705058e-01,-2.550518142786672993e-03,3.220016812980218759e-03,-1.010237144547505156e-02,-9.336720308916753031e-03,6.270737648010253906e-01
6.476620564112384182e-01,5.883716492818246158e-01,3.697135749826191420e-02,-4.086976134435803959e-02,-1.339952326050912121e-02,-2.556861125946171057e-02,5.897129178047180176e-01
6.548751728800107363e-01,6.125614428417216484e-01,-1.909144069561441448e-03,-2.365240751292540730e-02,-2.108706487297224222e-02,-2.424934598690732523e-02,6.404228806495666504e-01
6.236223201515133097e-01,6.412167240827565395e-01,3.119765399647994597e-02,-2.241340200946675965e-02,-4.396256659169517356e-02,-9.999156838646492892e-03,6.077047586441040039e-01
6.212738947525664468e-01,6.428819693119334211e-01,-1.878074000232182739e-02,-1.552268623401660726e-02,-2.584438444234413157e-02,-9.170525273294203791e-03,6.534111499786376953e-01
4.785305241225504269e-01,6.707179925361557160e-01,2.506113318151448333e-02,-7.722317237674683477e-02,-2.737275358814121942e-02,-1.350341084458899464e-02,5.919516086578369141e-01
5.406267494617127412e-01,6.663523795312552567e-01,1.689308366993885757e-02,-3.407955893297244521e-02,-7.797323887010354504e-02,-2.697941714155684470e-02,6.163262128829956055e-01
5.847364921296547280e-01,5.986962810796229162e-01,-6.000055724328823281e-03,-6.869520324303243775e-02,-2.747075845230095847e-02,-2.716117202608482259e-02,6.132253408432006836e-01
5.469565890138164965e-01,6.446417212664075080e-01,-1.689617128530329637e-03,-1.588956423148299435e-02,-2.683254123007551215e-02,-2.358688506873744817e-02,6.072363853454589844e-01
5.818199498557554694e-01,6.664846976453531191e-01,-6.447647464277173057e-03,-6.506004198891955637e-02,-2.787650861199231223e-02,-2.651659073603646402e-02,6.482064127922058105e-01
5.284647710202781123e-01,6.596609335967599241e-01,7.938135593498774067e-02,1.618346202480686891e-01,-1.484616075464786633e-01,3.715351657596097090e-02,6.531779170036315918e-01
5.736103947000290582e-01,7.159908250358997250e-01,3.130629673671098123e-02,2.457747833817690297e-02,-3.654562564635693844e-02,1.233975242133645428e-02,6.307575702667236328e-01
6.103226407519153351e-01,6.562612526030249249e-01,1.605499373218771675e-02,-1.728653056667515053e-04,-2.626547266519595539e-02,9.546224331315016076e-03,6.204090118408203125e-01
5.906594992627514085e-01,6.667421668131408019e-01,-7.689055807764633155e-03,2.836867305170878706e-02,-1.777370392178772782e-02,1.195042452350780597e-02,6.427472233772277832e-01
3.701789557779364692e-01,9.065637982740263334e-01,6.681901942056073240e-02,1.806218369299381066e-01,1.446596276176469742e-01,-9.183133846201867179e-02,8.534662127494812012e-01
6.076735161915034489e-01,7.339002364293847336e-01,4.269099004409671050e-02,6.372480353660470165e-02,-2.277772632790814322e-02,3.172873856764128059e-02,6.505486369132995605e-01
6.198968756076719266e-01,6.030805073934861760e-01,-3.340758296766610513e-03,4.434102050793800251e-03,-1.887384722934462578e-02,1.601793884261165299e-02,6.165425777435302734e-01
6.149453732294360986e-01,6.153028321747089358e-01,-5.449723023835284508e-03,1.881053227264557412e-02,-1.241808379773156126e-02,1.319352789166959063e-02,6.222204566001892090e-01
5.890870298846268005e-01,6.148245080065406487e-01,8.201733560949719948e-03,1.637860221130253702e-02,-9.858752198416302626e-03,1.127059647946433187e-02,5.954142212867736816e-01
5.825463404102737552e-01,6.041354814405435203e-01,5.842606353277934872e-03,2.793284573909951551e-02,-1.659198354704671460e-02,1.565355547894976135e-02,5.911053419113159180e-01
5.840254138631484349e-01,6.176662986159210389e-01,-8.554649700352690012e-03,2.013247249202687258e-02,-1.053098543106886949e-02,1.368016916230402162e-02,6.118233799934387207e-01
6.194778913158279776e-01,6.169276839634220133e-01,-1.519357328184983702e-02,-1.566357009468321464e-04,1.617962325546477712e-03,-7.354230259070525678e-04,6.334077715873718262e-01
4.445711931753048018e-01,6.786662209551401759e-01,1.910238047538104222e-02,5.034401596204558099e-02,-2.339823257862263042e-02,1.480325328179844281e-02,5.876459479331970215e-01
5.634560945263168419e-01,6.608071757108525679e-01,1.420191214012545000e-03,4.425225016332344496e-02,-2.735109260448671115e-02,2.494934428744684934e-02,6.245501041412353516e-01
4.611065937431523265e-01,7.189137265365843632e-01,2.313234264626151671e-03,2.518008562057235875e-02,-4.502294097448981264e-02,2.218251112808056896e-02,6.361568570137023926e-01
4.897550392710782186e-01,6.437912865012146435e-01,8.474729279976944696e-04,6.826251697085869430e-02,-6.087963125341768617e-02,3.049933393052920577e-02,6.049431562423706055e-01
6.305652023247108051e-01,6.250545783847019088e-01,2.316122791575014883e-02,5.936365263071369247e-03,-1.324782356290855195e-02,-3.751761141301598185e-04,6.051903963088989258e-01
6.193131701022016600e-01,5.944780652422940737e-01,-2.323019520833580209e-03,4.953927565840314517e-02,-3.656858832024171418e-02,3.585043359092508763e-02,6.219645738601684570e-01
6.353490524210960722e-01,6.568926908910135420e-01,7.562678051415822056e-02,9.927781263049900717e-02,-5.777262918257939500e-02,1.056544617441529561e-02,6.047543287277221680e-01
6.385894388799532306e-01,6.325985930482505015e-01,2.112791118641377253e-05,1.107980438559392350e-02,-2.367070824567668250e-02,2.702808978500679735e-02,6.389213800430297852e-01
5.435534155167267567e-01,6.750281570455477498e-01,-1.352464975807932124e-03,1.042861652598197492e-02,-1.697321670769577975e-02,5.552839578627254136e-03,6.221996545791625977e-01
6.216061857307534355e-01,6.210757703272935526e-01,-1.284532627468482069e-02,-1.565114612272645606e-03,1.049765900520357662e-02,-6.146647945762616534e-03,6.345421671867370605e-01
6.116697793611322043e-01,6.127607871290658981e-01,-6.047192213987973020e-03,3.609071795095189928e-03,3.777661504677704007e-03,-7.405428054391032834e-03,6.184624433517456055e-01
6.256927937185284838e-01,6.081999761053463738e-01,-4.016709200286183723e-03,2.624365838349058608e-03,1.374291021554603642e-02,-1.121407630121746581e-02,6.219238042831420898e-01
6.209682341665122562e-01,5.946010518908604325e-01,-5.587957718498626214e-03,7.588892517823996216e-03,1.273498706887315687e-02,-1.293977715349402952e-02,6.147430539131164551e-01
5.119905923280454463e-01,6.282786255103903761e-01,1.767229154986565964e-02,3.588578787568744155e-02,-1.661310740920179246e-02,2.048366136577318281e-02,5.668393969535827637e-01
4.917398383802097372e-01,6.366223418158498681e-01,2.388800819434372391e-02,2.816662338382566397e-02,-2.559285973274347953e-02,2.021304569236397064e-02,5.596700906753540039e-01
5.000185160193073575e-01,6.761204595023926345e-01,2.453750905652324343e-02,2.657217640119695357e-02,-2.219300989768860713e-02,1.205922524247179418e-02,5.872472524642944336e-01
4.464905381778221938e-01,6.679245392691430805e-01,1.745559208216668212e-02,-3.428414306513480575e-04,-3.126319876215730847e-02,9.040156734122634791e-03,5.755732655525207520e-01
5.142362361128222092e-01,6.528892717171996818e-01,6.695330250024666974e-03,1.909834562900079510e-02,-2.097583073521091038e-02,1.881480153667910993e-02,5.921745896339416504e-01
5.073605023148819448e-01,6.646857859269886815e-01,1.622525292806570318e-02,7.008746573506613019e-04,-1.225748800883054131e-03,8.728248240960160761e-03,5.860610604286193848e-01
4.594453387622723373e-01,6.767358910855916232e-01,1.776122985011979738e-02,-3.389483286707077603e-02,2.839529436170444565e-02,1.212099119627596013e-02,5.870093703269958496e-01
4.255089705462368199e-01,7.060545764238816968e-01,2.311606045132968967e-02,-2.575606600861527970e-02,2.167964978886554456e-02,2.710938555943862103e-03,5.974425673484802246e-01
4.942635943630864226e-01,6.668987330450808493e-01,3.288670313664920908e-03,-2.087097643493996194e-02,2.238610328695629301e-02,6.691648804118530136e-03,5.988015532493591309e-01
5.198954028087541257e-01,6.672590438781675903e-01,6.450447521483215763e-03,-9.527224544085645397e-03,1.970198771090059253e-02,5.996151594659516852e-03,6.021208763122558594e-01
4.464515631626796988e-01,6.862611884018053887e-01,9.066561368621883776e-03,-1.667141432493518538e-02,4.776620172574465306e-02,1.071871916097084931e-02,6.014372110366821289e-01
4.754683264321489800e-01,6.903758642185758854e-01,1.570682210825835590e-02,4.930501915604502267e-03,1.829041902305456697e-03,4.832797520408058014e-04,5.970391631126403809e-01
4.335481513317736013e-01,6.903605813768720623e-01,2.525566491105035727e-02,-1.672635548261976624e-03,2.915976338870283555e-02,2.171395896192047231e-03,5.831666588783264160e-01
6.225366536850253096e-01,6.254302140210598049e-01,-5.029489720231206107e-03,-6.549172310682464370e-04,4.786498111286520071e-03,5.270985092144035407e-04,6.290742158889770508e-01
6.176548612475709632e-01,6.280033746569937403e-01,-1.285268664730443433e-02,-2.537737319182056632e-03,3.823181312811797881e-03,-2.052134875127462846e-03,6.358045935630798340e-01
6.029263810145472080e-01,6.296308845772241591e-01,1.972837826473838874e-03,7.032777149183763038e-03,1.227706481602135538e-02,-7.313010161614031182e-04,6.152305603027343750e-01
6.260379731831329231e-01,6.299688251817326945e-01,-6.914932852830624199e-03,-3.766785718571074963e-03,2.555291416622014131e-03,-2.999882913468515395e-03,6.349976658821105957e-01
6.232723698118924904e-01,6.306562127118988670e-01,-8.404103270143903348e-03,-2.069460373298957680e-03,4.578622718519567703e-03,-6.599642313424216450e-03,6.355629563331604004e-01
6.267085160688596890e-01,6.251887082025993081e-01,5.210836175698563277e-03,7.203144983070415737e-04,-3.586525003430770121e-03,-4.758344355450126219e-03,6.208262443542480469e-01
5.751583348022769604e-01,5.863569599619347095e-01,1.893915337310747571e-02,4.503337487178271301e-03,-1.883024947438216058e-03,8.130389825699005715e-03,5.621421933174133301e-01
6.312186062260057851e-01,5.757139567134045288e-01,-4.391093032325432688e-03,-1.837345471300746644e-02,2.265121092543458808e-02,2.249791111028806231e-02,6.130837202072143555e-01
6.262503657500987364e-01,6.233445191408112374e-01,1.048254085900368615e-03,7.689612450657342790e-04,1.820298270801239864e-03,7.995040023628669087e-05,6.237636804580688477e-01
6.319455022565305669e-01,6.113000606923243430e-01,2.967277039595628274e-02,-1.792215097369064675e-02,2.452474662882356271e-02,2.828690854373918859e-02,5.965676307678222656e-01
6.267819211582037475e-01,6.207148301331583129e-01,3.218950092110234307e-02,-2.198204579984925147e-03,4.960481318206140132e-04,-4.840913976951489832e-03,5.916544795036315918e-01
6.105245449634985055e-01,6.115688261689862237e-01,-3.424909176261148325e-03,-2.890397576522328593e-02,1.880793268247632835e-02,2.355443881060568373e-02,6.187149286270141602e-01
6.973101812721738124e-01,4.829960096843874950e-01,7.662874842099598460e-03,-5.297553133811439691e-02,1.216504279021060099e-02,4.771476497274842327e-02,6.240481138229370117e-01
5.859158360777348973e-01,5.483872684314402557e-01,6.098133454496112993e-03,-5.391010058553340895e-02,2.032793094560255906e-02,1.834801335461462915e-02,5.716692805290222168e-01
6.308698176440145078e-01,6.078526328664346501e-01,-6.077029955667390126e-03,-6.504344733495075886e-03,1.209522378962549563e-02,8.533041940778826259e-03,6.263821721076965332e-01
6.615590287431984962e-01,5.649852767110372653e-01,2.903854371837000237e-02,-1.178128108881923951e-02,1.133896846584226022e-02,2.103284909738331598e-02,5.919907093048095703e-01
6.540042714929837908e-01,6.025079847201730843e-01,3.834445249946094592e-02,-1.123486564287118003e-02,1.089654970999447657e-02,3.451522171698007818e-02,5.952255725860595703e-01
6.289337868116701147e-01,6.222694168021646322e-01,-1.317775397702669604e-03,1.735389236731649416e-03,2.972638814135576766e-03,5.462331864758410670e-03,6.270456910133361816e-01
6.301027972785926412e-01,6.458733805741935230e-01,2.320006803240404203e-03,-8.760050992630528249e-03,1.856044618016298650e-02,1.153939489970604894e-02,6.371213197708129883e-01
6.689134507008268615e-01,5.013037893301567349e-01,-3.621694150236109966e-03,-1.434385738093965634e-01,5.342583857494192373e-02,7.524676864510619623e-02,6.744970083236694336e-01
6.706290517687554242e-01,5.107139920906599295e-01,1.954350571639523748e-02,-5.155199702856629734e-02,1.977662034968140706e-02,5.138109125183779047e-02,6.020241379737854004e-01
6.722073623384366980e-01,6.054692315572567374e-01,2.111685512977856671e-03,-1.110605965912674908e-01,5.977914617967139410e-02,5.826109523172653265e-02,6.831312775611877441e-01
5.714283354620963706e-01,5.925143804693733252e-01,2.917414898131820422e-02,-3.819717740939613387e-02,6.709058514199290300e-03,7.094411256893040814e-03,5.572982430458068848e-01
6.018319243681836683e-01,6.367704711517525595e-01,-9.896657768864003391e-03,-1.813738079139550884e-03,-8.374639810439048464e-04,-5.245774108551916511e-03,6.299999952316284180e-01
6.506345041959897824e-01,4.678228063530783798e-01,2.700852196646852388e-02,-9.076505604238174763e-02,2.670227140503381169e-02,2.440467157794090625e-02,5.804860591888427734e-01
6.277264772196538001e-01,6.200639662853011380e-01,-1.146089230836999651e-02,9.402441925505319615e-04,2.470516381411963502e-03,4.524145956869890430e-04,6.354077458381652832e-01
5.937395319405909255e-01,5.673362660296750182e-01,2.464065665833553576e-02,-3.167505534232917946e-02,9.273098070836517659e-03,6.149591187399925697e-03,5.593978166580200195e-01
6.023391220634529697e-01,5.767667344516915762e-01,1.484022645897947745e-02,2.413714017177397836e-02,1.796579708090309188e-02,-1.368042653592952719e-02,5.779815912246704102e-01
5.671196462661194371e-01,6.014055238500281009e-01,2.157293763300877076e-02,3.072022932067671949e-02,1.361817021945313511e-02,-1.658141888229488700e-02,5.671980977058410645e-01
6.395639555051485514e-01,6.687107585175382507e-01,1.878845911038029559e-02,7.615399692261649867e-02,4.586511248135445584e-02,-3.397142899520814996e-02,6.568688154220581055e-01
5.791527625892018971e-01,5.056744175581554535e-01,3.119273956936130521e-02,7.390245815209897651e-02,5.067058317634747650e-03,-2.640285408213077951e-03,5.309225320816040039e-01
4.865774808793288941e-01,5.967142501006483801e-01,2.740116384328400434e-02,7.649463206216473854e-02,5.967816662125617275e-03,-3.691262433890971171e-03,5.396732091903686523e-01
5.595145962768308667e-01,5.970731187966054065e-01,2.927915367999034402e-02,3.756050625903510631e-02,6.517179132421529152e-03,-7.662239329041262495e-03,5.540857911109924316e-01
6.269693774958948751e-01,6.173405549345173382e-01,-1.004479724522611139e-02,-2.476372278274395456e-05,-6.192381323900400698e-03,5.142145271247005635e-03,6.324084401130676270e-01
6.257549892818786708e-01,6.177988919802848145e-01,-1.189221289516134705e-02,7.301683919246605920e-04,-4.844486871099718678e-03,4.448830082980383821e-03,6.338102817535400391e-01
6.271440036589275291e-01,6.015004469579727786e-01,-1.007983804866219302e-02,9.759691799040646066e-05,-7.132545106272444521e-03,-1.254285356510928095e-04,6.249190568923950195e-01
6.266654547116542462e-01,6.183526760403199596e-01,-2.250294217400750085e-03,8.990018415902371364e-04,-2.508431963386712621e-03,2.226033738981466822e-03,6.248297691345214844e-01
6.400316788407214297e-01,6.238121569842233205e-01,1.767306302460525114e-03,1.762787491400684013e-04,-1.691573442948623345e-03,5.878542436783473595e-03,6.304002404212951660e-01
7.225253623520906388e-01,5.515080927444828696e-01,2.601414251676997802e-02,4.448058478470919008e-02,-1.097966608305352143e-02,4.275403616297129145e-02,6.379970908164978027e-01
6.313983831365167498e-01,6.239750438559172885e-01,1.659830456074318228e-03,-3.697793586117103636e-03,-2.147047585041536068e-03,6.599071975811388914e-03,6.262080073356628418e-01
6.269437459375672983e-01,6.167877388409626072e-01,-9.763870658785256396e-03,2.186110084354493178e-04,-4.880076913630054108e-03,3.192429137981900311e-03,6.317716836929321289e-01
6.371159482000787744e-01,6.076820203510417961e-01,-1.009277778062334097e-02,1.517105216532314848e-05,-5.189849077582196595e-03,4.982072607148239386e-03,6.331278681755065918e-01
5.911405769557889212e-01,5.838448095888811862e-01,2.118444401426400336e-02,7.884148301892668353e-02,3.936971850351590058e-02,-4.985121289564779790e-02,5.928728580474853516e-01
6.030598610100997847e-01,6.260872722359740461e-01,-1.062378556096699178e-02,-5.469085208557356058e-05,-1.005361201109565171e-03,-8.427017570065113358e-03,6.256880164146423340e-01
6.187126393518267431e-01,6.101532135688568781e-01,-1.098143813691132564e-02,-1.114967956988300365e-03,-5.893961249209232756e-03,3.988590870743790630e-03,6.255827546119689941e-01
6.584269593218621264e-01,6.121527896802589908e-01,2.090860978406866577e-02,-2.711453818258440559e-03,-1.048944383381995860e-02,3.939050112068132742e-02,6.197397112846374512e-01
7.041879907921283488e-01,5.872239793240188188e-01,2.029651876176075120e-02,-3.053043480723195355e-02,-2.480399934387487321e-02,9.476872164751726224e-02,6.580142974853515625e-01
6.326542670959431902e-01,6.257426207937180074e-01,4.198241665249347054e-03,-4.078627026351745906e-04,-3.976736479642165424e-04,9.224265978803910040e-03,6.252338290214538574e-01
6.306301419339963577e-01,6.215781757500156157e-01,3.778785723403788044e-03,-8.758643147808810097e-04,-3.890348738995348383e-04,6.762228482733205308e-03,6.224871873855590820e-01
6.374686221915040196e-01,6.282265529084798406e-01,2.375659153861958695e-02,1.206543719451363093e-02,3.309689851752319924e-03,-9.357481606722157716e-03,6.097443699836730957e-01
6.458313791782502866e-01,5.994311626235445667e-01,-7.096612998035545239e-03,-2.076218099211596738e-03,-4.423549470707783225e-03,9.878866106985715462e-03,6.312973499298095703e-01
6.312949327394079546e-01,6.264170194837337391e-01,3.454385311609853293e-03,-1.024897091433168094e-04,-1.289963092673455372e-03,9.561055640939392433e-03,6.256390810012817383e-01
6.390755713673733629e-01,6.004271469148257934e-01,9.230627022587256647e-04,8.006969578578985948e-05,-1.115960072197467231e-03,5.969287518740082343e-03,6.198220849037170410e-01
6.137566193627297384e-01,5.954032765027336138e-01,9.039648885446782689e-03,1.275921573866076707e-02,1.691048715343703920e-02,-1.514852928650936743e-02,5.974575877189636230e-01
6.004813563593746073e-01,5.685104235476239332e-01,9.255170006987500919e-03,1.792998971163789132e-02,1.100265631084436195e-02,-9.803022525609305857e-03,5.773078799247741699e-01
5.805928680119960550e-01,5.844842656506262779e-01,2.385277896930854125e-02,3.318181471182492237e-02,7.005523900656561095e-03,-9.458136025817963019e-03,5.620141029357910156e-01
5.844862351163000458e-01,5.186395370415007866e-01,2.131704455903943307e-02,6.753413946135536361e-02,1.718061326121006482e-02,-1.652938990980876155e-02,5.475401878356933594e-01
5.928819985262715475e-01,6.077709835150286732e-01,8.059206153129327976e-03,9.061175363831846033e-03,1.455310129678759508e-02,-1.424897656813087568e-02,5.936645269393920898e-01
6.136930785259456789e-01,5.957112121327117205e-01,-8.816065697911601440e-03,1.238050640201907374e-02,1.815894522699307637e-02,-1.904136980075507232e-02,6.157791018486022949e-01
6.219657950263701718e-01,6.135729761176443864e-01,-9.863124613853246903e-03,2.872767872813768771e-03,6.060068324099255298e-03,-3.727328800950454636e-03,6.278152465820312500e-01
6.219181225557084414e-01,6.111293545969296304e-01,-9.779165833365910387e-03,-7.254945263496135558e-04,6.565800366961971335e-03,-4.591036214247051252e-03,6.265275478363037109e-01
6.135962839520820999e-01,5.340514040996385825e-01,1.494732861609465724e-02,1.114924647725647894e-01,3.472999414024798698e-02,-3.023117266267806233e-02,6.006167531013488770e-01
6.074249718212243465e-01,6.267283597295852937e-01,-5.148135506785667115e-03,4.331146044922631715e-03,5.971350631876285939e-03,-1.050694874543151372e-02,6.228463649749755859e-01
6.170370256717248036e-01,6.160265554460238047e-01,-7.609231064373833675e-03,5.773038310637579329e-03,8.577764503543779465e-03,-8.825779312415014607e-03,6.245856285095214844e-01
5.841792895562762933e-01,6.132922390890220843e-01,-5.620269704135760769e-03,2.046543721953387324e-02,1.866974824867687413e-02,-1.508422761745743974e-02,6.073439717292785645e-01
6.058376961116190840e-01,6.257356225732264576e-01,4.355513873052663243e-03,6.116707678804829060e-03,1.154501468462871758e-02,-1.118691818089075952e-02,6.123989820480346680e-01
6.228944570649047607e-01,6.276790809745661504e-01,-3.776337119844208612e-03,-3.532083620858841866e-03,6.349298230592249903e-03,-3.696092841724222654e-03,6.292352080345153809e-01
6.227664156436768517e-01,6.279842578936249975e-01,1.653674628629520083e-02,1.354806958871766429e-02,-1.041971929717082877e-02,3.435328809982763666e-03,6.096036434173583984e-01
6.315209974441848839e-01,6.406267075090010810e-01,2.346121511663312731e-02,1.176765709460358619e-02,-1.431600829370890775e-02,1.091303163103487378e-02,6.137947440147399902e-01
6.300373014291121843e-01,6.169468948510837825e-01,3.041413835501993734e-03,1.956246721765568779e-03,-1.013895120272671757e-02,6.069224396861931138e-03,6.209009289741516113e-01
5.739662494723039021e-01,6.210532409281713795e-01,-6.575581848514144845e-04,3.592695108295386464e-02,-2.756212567272889324e-02,2.077223442942130460e-02,6.057332158088684082e-01
6.544822400905875304e-01,6.571893224161926561e-01,3.404743550493666282e-02,2.518702118911273283e-02,-2.227952302653445418e-02,5.371633056785618532e-02,6.314070224761962891e-01
5.719083526766953751e-01,6.909157030701298385e-01,5.242932631581220804e-02,3.450736744765877523e-02,-2.669140763480460851e-02,-6.127478490522734848e-03,5.930137038230895996e-01
6.211765229977203040e-01,6.332856798279860033e-01,2.143033038500408161e-02,5.211617132806295460e-03,-2.695276391239246217e-03,7.880803318209233729e-03,6.061304807662963867e-01
6.300664564028525261e-01,6.451324545543455358e-01,5.448800632412786893e-02,7.841509297479691033e-04,3.064499143199716884e-03,-6.695730873800318991e-03,5.833984017372131348e-01
6.314612814812430308e-01,6.328101791524003428e-01,3.179726290350098905e-02,4.231849375892247217e-03,-2.353866066982289104e-03,8.291602147173858517e-03,6.005699038505554199e-01
5.391165847938894640e-01,5.911411398708329434e-01,2.349910344635081083e-02,-2.260015597874947407e-02,-7.699259411461495048e-03,-1.029951215494205076e-02,5.453632473945617676e-01
5.545548240552838903e-01,5.958456433462230306e-01,3.108220238532438673e-02,-3.768387944228359515e-02,6.543778089352197611e-03,9.447633287167238325e-03,5.495448708534240723e-01
5.728783428556230017e-01,5.758056594085052549e-01,1.300624251802062759e-02,-2.661284166180344357e-02,-1.355736901826685124e-02,-1.386404950631608610e-02,5.642313361167907715e-01
6.120358706086415079e-01,5.565212552688068026e-01,1.650901973014728963e-02,-4.908193521950980631e-02,-2.656689831587918244e-02,-3.005051929499767682e-02,5.802820324897766113e-01
5.266778965762874964e-01,5.337457549780735278e-01,1.268413840537951920e-02,-1.596402826574216949e-01,-1.624084989277294749e-02,-5.630350332555169451e-02,5.955073237419128418e-01
5.887248711238542986e-01,5.287103959641608064e-01,1.924100678411783116e-02,-5.891950785348377961e-02,-1.471313830541058458e-02,-1.468893449221790777e-02,5.526731014251708984e-01
7.288766874113709049e-01,3.966486330984914099e-01,2.638835876506290257e-02,-3.522611542991550826e-02,-2.656482741431660105e-02,-2.320451195872432967e-02,6.147634387016296387e-01
8.270186358962273721e-01,3.191521126692186128e-01,1.095186173073720015e-02,-2.246775951777247107e-02,-9.358295398367381382e-04,-4.704682307960290043e-03,7.148593068122863770e-01
8.514322933332878485e-01,1.144735096336153835e-01,-1.000284043094928910e-02,-4.269834770246126732e-02,-3.512829752645539594e-02,1.786924596256216774e-02,8.126905560493469238e-01
8.353998531931171589e-01,2.576447859841151655e-01,1.305529797274462833e-02,-1.741027003739356593e-01,-3.815975786444436579e-02,2.694156764163987798e-03,7.938912510871887207e-01
6.562581909099659550e-01,5.044201204214965317e-01,2.114240010649831580e-02,9.114165884300561016e-02,-1.336458195197638872e-02,1.633498210341224194e-02,5.968658328056335449e-01
7.272924141071583914e-01,4.073714306573579802e-01,1.645685633790078262e-02,5.735107173281653314e-02,-7.783279502915240421e-03,2.291789953357092902e-02,6.259794831275939941e-01
6.873655827783898831e-01,3.981594618424965093e-01,2.114718204050314299e-02,3.608312937990840880e-02,-1.269960390809645769e-02,2.179506264935050092e-02,5.836330652236938477e-01
7.474825968440629298e-01,4.208597269564202104e-01,3.049055467135730613e-02,9.630850753905438599e-02,-4.304630476498251708e-03,5.862426120896050558e-02,6.517407894134521484e-01
7.224212746413345432e-01,4.871097702694219822e-01,2.461187362277350577e-03,6.313808202040620265e-02,-8.569192239960894686e-03,5.874855454336602029e-02,6.533244848251342773e-01
6.793557954917366359e-01,4.872632220161405292e-01,4.157264285428730055e-04,4.955994076659489544e-02,-1.528382713317971882e-02,5.465220487173556158e-02,6.200562715530395508e-01
6.541695336096371438e-01,6.244909281024711989e-01,3.763695287872276252e-02,2.543243364469546276e-03,6.629788858168964016e-03,7.815941354390615672e-03,6.025196909904479980e-01
6.543015117710839768e-01,6.399680605895335939e-01,3.117181799571466794e-02,-4.711649290587581820e-03,5.959509814600060136e-03,-5.943216968350952673e-03,6.163145303726196289e-01
7.216095226543076668e-01,5.662097900489498903e-01,1.232321315236073467e-02,1.080039536544610129e-02,-2.121338845928143549e-02,7.413185437328206895e-02,6.596967577934265137e-01
7.347626342297464141e-01,5.793837369824470507e-01,3.433226591531179928e-02,3.087811405719430649e-02,-4.669296970267219210e-02,2.796249907726184106e-02,6.462661623954772949e-01
5.548357844162872254e-01,6.764244224586322130e-01,-5.172239888459717605e-03,-1.977684877122598897e-03,3.361727028114264160e-02,1.374108598391106384e-02,6.328127384185791016e-01
5.799126122201331279e-01,5.984811633080969751e-01,5.258837597186427626e-03,8.154613615741710883e-03,-7.625860580392407675e-03,1.173748534333370931e-02,5.848329067230224609e-01
5.580077691260297845e-01,6.553768814027354228e-01,4.702589120825773072e-04,5.983163336853290597e-03,2.477261098049837740e-02,-5.246683301754561692e-03,6.137155294418334961e-01
5.989523711291815378e-01,6.471064416472169789e-01,-1.191830798301374283e-03,-3.083912916369249864e-03,8.481140365858737262e-03,4.072871340264490672e-03,6.258476972579956055e-01
5.516874003982328301e-01,6.499527085399094961e-01,-2.281475286957435067e-03,-1.065227223863332399e-02,5.805759867650845014e-03,-6.214941381067750140e-03,6.095333695411682129e-01
5.631218057155930046e-01,6.853940942042917595e-01,3.550453720650714740e-03,1.222535818821287625e-02,9.844861360911555739e-03,-9.227110945479377797e-05,6.302617192268371582e-01
5.986951117077354834e-01,6.338390557922066737e-01,-4.473166387500671082e-03,-6.297630910332669514e-04,9.871719487509301311e-03,-8.279240223497544900e-04,6.217237114906311035e-01
6.583874028830338787e-01,4.779971455646845335e-01,2.586502295037423904e-02,7.089133235766678642e-02,-6.978227691812540455e-03,1.846762426895994305e-02,5.785933732986450195e-01
6.309550981202667330e-01,5.090632059816673216e-01,4.234462326374477392e-03,4.396672965152127049e-02,-1.768571939112368110e-02,2.042969084300855220e-02,5.824379324913024902e-01
6.281210167890006746e-01,5.058995945392348315e-01,2.171769533862549784e-02,4.856558237833354108e-02,-1.729851640344270275e-02,1.270861135885180924e-02,5.630325675010681152e-01
6.313369574975424836e-01,6.184253074187309185e-01,-9.922870083085844062e-03,2.636268263731728393e-04,3.126512387121413612e-03,4.409365385717521450e-03,6.349716782569885254e-01
6.991164396203018994e-01,6.846902011065210125e-01,1.545508959952237582e-01,-1.559126042221408576e-02,1.076132783204235104e-02,1.618918239796256556e-02,5.392278432846069336e-01
7.077878029901550905e-01,6.972199118541224649e-01,1.390184297916031153e-01,-3.639621410517949931e-03,-1.159947793148815784e-02,-2.019268390145946210e-02,5.650364756584167480e-01
7.035599869151577535e-01,7.141726500865539506e-01,1.199065130199247209e-01,5.394575508338923017e-04,-1.946853900461717468e-02,-7.606978174951799232e-02,6.045295000076293945e-01
7.204844726262927823e-01,8.811029924978979189e-01,1.192648263158281319e-01,-8.410007401598888765e-02,-5.654526242990304263e-02,-1.043529372990918518e-02,7.176124453544616699e-01
6.787188338778991081e-01,7.125597461394456156e-01,1.097742645971711006e-01,8.094839422608759993e-03,-5.026799807667988243e-03,-7.976426509411374544e-02,6.028732061386108398e-01
7.216486141182696379e-01,7.330085239132692054e-01,1.188195908339182982e-01,2.101560639594984847e-02,3.523406410511812498e-02,4.635432722967563340e-02,6.179606914520263672e-01
6.171439017948419092e-01,6.198585141972035029e-01,-1.499200470867828594e-02,-1.010460094028135889e-03,-1.032087383299314922e-03,2.084814777267525020e-03,6.335127949714660645e-01
9.644812284865400542e-01,9.158191874678386357e-01,1.139201047425428825e-01,-8.657132640206632174e-03,5.035605167752425781e-02,-6.936393477296286247e-02,8.406534790992736816e-01
6.347722496566449157e-01,5.846742578463662854e-01,1.602544986206844158e-02,6.616370535001017683e-02,-5.746478831439480461e-02,5.981949241112502480e-02,6.230040788650512695e-01
6.181459862071947420e-01,5.608612210108957497e-01,1.848773130391595521e-02,6.099148482233573976e-02,-2.628360902112754360e-02,3.072883116817682822e-02,5.870140194892883301e-01
5.752477405275380207e-01,5.676745448461728571e-01,1.241095031729400056e-02,4.789485651380935571e-02,-2.287799185482862138e-02,2.273714010771706734e-02,5.679639577865600586e-01
5.785761802214567373e-01,5.797830827088106265e-01,3.671632922582218628e-02,8.598763245597237925e-02,-1.058066974549045670e-02,1.101885677008189457e-02,5.631600618362426758e-01
5.725241293039010637e-01,5.913397521409570201e-01,3.353439076668351948e-03,1.654489104717154213e-01,-4.773420892067146287e-02,4.784808632131191258e-02,6.563860177993774414e-01
5.593755264422242135e-01,5.985723096028090495e-01,1.160718283312200949e-02,4.191382517602047081e-02,-3.012939245576229039e-02,2.729488487013223899e-02,5.773092508316040039e-01
5.276364046383372752e-01,6.051459217844730176e-01,1.545976580584318416e-02,4.941164729124073590e-02,-1.509602558145550777e-02,1.479061019081629770e-02,5.627571940422058105e-01
5.743683398707815080e-01,5.148696284795237776e-01,3.314055360129514183e-02,-7.591302540976524460e-02,3.769279637996662824e-03,8.878523750321167321e-03,5.308791995048522949e-01
5.831936785130047429e-01,5.284647147493304331e-01,2.554403503441166068e-02,-6.131437764889442754e-02,-2.861607508999759741e-02,-2.518676086158637070e-02,5.468884110450744629e-01
4.603061601425282312e-01,6.801396114761323330e-01,2.500592324759887131e-02,-6.599661071587052674e-02,1.873697306808490629e-02,1.181434105873185349e-02,5.899535417556762695e-01
5.041836868158414697e-01,5.898393762204315882e-01,1.992781988253750081e-02,-1.254129639889677295e-01,-2.569937696315405251e-02,-1.435072246293362871e-02,5.771519541740417480e-01
5.562622631247103877e-01,5.977577835937741835e-01,3.738166186501096222e-02,-4.054925768366466482e-02,-7.716015926950646996e-03,-5.612639994459735909e-03,5.456152558326721191e-01
3.727469331670331676e-01,7.827298311799628650e-01,8.752051921033732196e-03,1.225445230205869651e-01,1.538262643813878908e-02,7.438027105438007984e-03,7.040861248970031738e-01
6.037712151997169929e-01,6.090032328684216179e-01,3.439162753878954870e-03,-3.497867138474263730e-03,1.095249731865006494e-03,-1.154307539218620005e-02,6.033298373222351074e-01
6.072345607206321993e-01,6.125808904222849183e-01,-1.048855772338386227e-02,2.524462024774065932e-03,-4.306622928944059230e-03,2.998184386718826325e-03,6.204955577850341797e-01
1.825404475591853592e-01,7.774674706952418024e-01,1.737421620598134098e-02,1.416403006037665613e-01,-2.587336427008119638e-02,2.585522348487485217e-02,7.373462915420532227e-01
6.020424814628635435e-01,6.250634215278505490e-01,-1.047064491047866586e-02,1.059060707833040351e-03,-8.644430238290985019e-05,8.066005776739264277e-03,6.245009899139404297e-01
4.849437809595212867e-01,6.559909721147191286e-01,1.854614366117568469e-02,1.157046896678479327e-02,3.150205885732152225e-03,-1.336046212527325187e-02,5.722995996475219727e-01
6.064520886478274031e-01,6.208714249771535298e-01,-8.203310324769841344e-03,4.532202986041618947e-03,5.840540513932920494e-03,-7.077757171942897912e-03,6.222429871559143066e-01
1.182112513348037575e-01,8.529400835433168515e-01,-1.758084969136164410e-02,1.241065002391203431e-01,2.033291296334978696e-03,2.399375960534734509e-02,8.402280211448669434e-01
9.371392462700133263e-01,2.728542362197916016e-01,-1.786501569394804978e-03,-1.525006372407450295e-01,-3.990569639017897685e-02,1.336810652038756056e-02,8.799003958702087402e-01
6.186802006160271317e-01,6.236662464257387573e-01,-1.387619217913144132e-02,-3.565302859450315181e-04,1.449422009304766499e-03,-2.471452663516456472e-03,6.350837945938110352e-01
5.901473334374951474e-01,6.236583391502130702e-01,-9.688770115520717319e-03,-1.793370607052334259e-03,1.279830381630597596e-03,9.487431897918391713e-03,6.175047159194946289e-01
1.910862611288781099e-01,7.551786062990577530e-01,-9.191791559474360440e-03,2.380010918688824639e-01,2.510012831040179040e-02,-9.187912934005518228e-03,8.020995259284973145e-01
6.222320560635956621e-01,6.169749678115794556e-01,1.436606092593101791e-01,-2.703927715250285932e-04,5.873876491036468962e-04,-9.999794866933301839e-04,4.759691357612609863e-01
6.128511471489774820e-01,6.226111732284621558e-01,-1.206653204764956966e-02,-2.480100273329946515e-04,4.562384536686676928e-03,-7.087130518800855219e-03,6.300237178802490234e-01
2.845549911365873874e-01,9.709377680714803560e-01,-3.518712561401166061e-02,-5.038370794572279154e-02,8.404230792517038140e-02,-1.383678760922528450e-02,9.067530632019042969e-01
6.497430480589962976e-01,5.996192077259231423e-01,-7.715308725314673488e-03,6.099846585126504888e-04,-3.916853578791897311e-04,9.922607020274242309e-03,6.341186761856079102e-01
6.603432603227012976e-01,5.611133797573896187e-01,-6.697372858664840667e-03,2.462437452828036138e-02,-1.501260527675999865e-02,2.808855464498255169e-02,6.272650957107543945e-01
6.573688098140999525e-01,6.267640000905834174e-01,3.401008358791879349e-02,-6.064934308587714533e-03,8.541857510938576092e-03,-4.691015787975315299e-04,6.089046597480773926e-01
6.346280053270656474e-01,6.053718527710998387e-01,1.819523472769218886e-02,3.088205668416318505e-03,-6.186875404382691061e-03,8.470545056425667421e-03,6.026355028152465820e-01
6.408846990881658101e-01,6.035558138626472280e-01,1.789464886012603895e-02,4.286920189856843408e-03,-4.621956297455896701e-03,7.362279793778870977e-03,6.054224371910095215e-01
6.207870960584165321e-01,6.089828888671811047e-01,-7.096310784875159428e-03,3.851208327552044577e-03,-6.389937278120118129e-03,8.099212085096181568e-03,6.223576068878173828e-01
6.278126015258728154e-01,6.071553334191323037e-01,-8.310730938339616625e-03,2.920841123119291213e-03,-8.188011751131214766e-03,6.564190355514125212e-03,6.263346076011657715e-01
7.227071461338834268e-01,6.247512181444625501e-01,2.783734736757481620e-02,1.990091147230368604e-02,-1.573853409993508168e-03,3.170957940858258606e-02,6.546639204025268555e-01
6.119698649654117251e-01,6.151187186344426738e-01,-1.356783942940242849e-02,1.502807101007742419e-03,-3.258225530331531304e-03,4.614817744616769510e-03,6.271997690200805664e-01
6.666124920179229418e-01,6.193909738068803517e-01,8.716618064768633101e-02,1.145718667501554287e-02,1.878066619850216751e-02,2.739218189327205857e-02,5.606500506401062012e-01
5.548687077282328239e-01,5.996494599864312658e-01,3.994134539718863230e-02,-4.539331297045915564e-02,5.687273040095616565e-03,2.626674424582393832e-03,5.445307493209838867e-01
6.231135047640489200e-01,6.239977714406808040e-01,9.203901086723892400e-02,2.949387234749382622e-03,1.132006067819580318e-03,6.422252106230634354e-03,5.316617488861083984e-01
2.452722141223865338e-01,9.750834215784431880e-01,-5.068552744955900913e-02,-4.347341108082859729e-02,2.289815085913279695e-03,1.789675852380524790e-03,9.175531864166259766e-01
6.064110182243970248e-01,5.821702969300432962e-01,-3.237375640125272902e-03,-4.604780170159951391e-02,2.730258239961452088e-02,2.359608332612007225e-02,6.064225435256958008e-01
5.228809174368874713e-01,6.374579024846341868e-01,1.776468723886343026e-02,-3.417941961732413186e-02,1.010766729864910271e-02,1.608246399805115037e-02,5.750931501388549805e-01
6.024134142077015586e-01,5.795650195621585565e-01,1.119642069254278560e-02,-2.468489176659593651e-02,1.934186780269711928e-02,1.722032720286092652e-02,5.834305286407470703e-01
6.241789440850489257e-01,6.233866370314925520e-01,8.360259199622127602e-02,8.034541136848536271e-04,8.462789299924500241e-03,1.662102705237677005e-03,5.403889417648315430e-01
6.021235907151684108e-01,6.238200021452702249e-01,-9.165519866987270614e-03,1.059426134314389069e-03,-8.684408002015255653e-05,8.132871350859703988e-03,6.225830912590026855e-01
6.160076508109602056e-01,6.280810166622811108e-01,-9.383150656985417282e-03,-2.163568272157904981e-03,2.589765771196055858e-04,4.959375125480617241e-04,6.315259337425231934e-01
6.456284289026390510e-01,5.088461874888793313e-01,1.774424747254982337e-02,-7.682092855739342842e-03,9.021363560817660665e-03,-3.698200323941118950e-04,5.722640156745910645e-01
5.957530226415957975e-01,6.366173608750356205e-01,5.179279730891384048e-04,-4.957715763807114817e-02,2.640925610227188441e-02,2.339386848750200226e-02,6.256248354911804199e-01
6.237021241636425684e-01,5.220187080444265160e-01,3.296654867449394510e-02,1.299251939627991959e-02,5.649606094867535427e-03,-5.326475185538321689e-04,5.475792884826660156e-01
5.194597071236217722e-01,6.351484320595630617e-01,1.986699111637874049e-02,-4.587778210604938345e-02,1.958814042069139533e-02,1.573728436629773936e-02,5.735698938369750977e-01
4.111092519384121347e-01,7.150401198535925040e-01,-1.585643262232561135e-02,-1.795449682082463361e-01,7.678686978265060470e-02,-1.578478618602604383e-03,7.203103899955749512e-01
4.661250402455342501e-01,6.603887252366685834e-01,3.415409007276742903e-02,-1.500290431671340470e-02,-7.456910674597549450e-04,6.685806731474979413e-03,5.559357404708862305e-01
4.043980833881343218e-01,6.922843961128997137e-01,2.232686744598832984e-02,-1.635127667599739487e-01,5.498911592296786000e-02,2.749452495731224966e-02,6.560476422309875488e-01
6.344064061691161438e-01,6.160824585108832796e-01,-1.126466399902015247e-02,4.940662733752370619e-05,-1.787063582202571719e-03,-2.268399784724072659e-04,6.367145180702209473e-01
5.513896878384610956e-01,6.937689631830139536e-01,6.372788816366214970e-03,-8.964189002255382177e-02,3.858158642395398408e-02,4.679648131610359557e-02,6.557871103286743164e-01
6.218077740158844957e-01,6.283626605763135142e-01,-6.699939677215327460e-03,-4.028876756307300452e-03,-2.897433309087791425e-03,1.489749267005062005e-03,6.318743824958801270e-01
6.112391272387528440e-01,6.221482553587679432e-01,-1.324143370667535402e-02,-3.683464107267668064e-04,-2.973579502405413778e-03,5.498884427043165476e-03,6.300993561744689941e-01
6.034486914572581018e-01,6.363316836736104820e-01,-7.354354037035160108e-03,-3.715994630060005278e-03,-7.823841650963779190e-03,-4.768463171135343438e-03,6.281241774559020996e-01
6.207126594181595625e-01,6.354959081735980231e-01,8.598983864304132751e-04,3.676038633159408003e-04,-7.348311946415720698e-03,-2.676119368324069835e-03,6.275215744972229004e-01
5.785122313390742566e-01,6.640624375373658239e-01,6.271814086152183165e-02,-1.274767029756109123e-02,-1.025017193873847994e-02,-7.376001785080971672e-03,5.643178224563598633e-01
5.445575534355042713e-01,6.653824151265479436e-01,3.071481753029053907e-02,-1.129080006085649013e-02,-4.164478293972543460e-02,-8.183362419019821893e-03,5.886460542678833008e-01
6.073362228853597111e-01,6.206046408486790567e-01,-8.097447607599839170e-03,2.517273023158209718e-03,-8.004709070420909164e-03,8.761423346306926666e-03,6.225287318229675293e-01
5.870347760256757752e-01,7.119703172352058740e-01,1.616166403102264892e-02,-4.049036857764763686e-02,-6.371269018394049022e-02,-1.302715028538574057e-02,6.560737490653991699e-01
5.713310528242177000e-01,7.088065683639077630e-01,2.584684729208625020e-02,-5.162527785555182103e-02,-3.431051331017934136e-02,-6.699299431886398745e-03,6.349055171012878418e-01
5.633478364826632889e-01,6.380516576264576578e-01,-1.225617448971871859e-03,-9.130404538946080423e-03,-2.954575319916594514e-02,-1.066755032887231093e-02,6.080378293991088867e-01
6.081024752579768933e-01,6.364851497820249726e-01,2.082066311656843860e-02,-7.265223442759976592e-03,7.410900083154596703e-04,-8.084675057243176713e-03,6.022709012031555176e-01
5.574054068419647123e-01,6.620947920485762417e-01,-1.849625412970068439e-03,-2.532942723240672045e-02,-2.148763439592284857e-02,-7.638424181053926620e-03,6.210950613021850586e-01
6.197384488358076426e-01,6.255936148769689620e-01,-1.016552874898923875e-02,-2.649882216613772597e-03,2.929449334508502263e-03,-3.256674733167856921e-03,6.329140067100524902e-01
6.157760813714283632e-01,6.194607039127023596e-01,-1.233442243837207242e-02,1.696474120631128249e-03,-4.793336663618022117e-03,7.060141996908654398e-03,6.301411390304565430e-01
6.330264693665049736e-01,5.154120739199172796e-01,2.408092874588080301e-02,-5.511221003247291500e-02,-1.495034819991427136e-02,-1.786732173346730276e-02,5.690056085586547852e-01
6.148474159400354466e-01,6.260399965288101498e-01,-1.152388018822697591e-02,3.409057638061751172e-04,-2.040255445953145438e-03,-2.234349694142508721e-03,6.320639252662658691e-01
6.195698808343247377e-01,6.162300871942727465e-01,-1.365351378811413552e-02,-3.864923626777357762e-02,-3.099637407247787455e-02,-2.357913242492421305e-02,6.386702656745910645e-01
5.988128402962566987e-01,6.311935738968106335e-01,-7.001608246028578897e-03,6.554682741899403933e-03,-9.522982108343670121e-03,7.427153330884914660e-03,6.230913400650024414e-01
5.772259377214608023e-01,6.026376602707773644e-01,2.438435129852267735e-02,-2.065550828244419254e-02,-8.991214807402461706e-03,-1.173058330306499947e-02,5.676826238632202148e-01
6.098870270218559320e-01,5.970169523452580895e-01,-6.702659871863081431e-03,1.164188213363118651e-03,9.337423630367590668e-03,-1.826031800194917801e-03,6.104822158813476562e-01
5.873300797527145622e-01,6.046448244477466982e-01,5.224677246205011727e-04,3.304482011525131102e-02,-3.280281860463257065e-02,1.635042042813304730e-02,6.017552614212036133e-01
5.925166674572720504e-01,5.325749856250422409e-01,2.601537463117803428e-02,-1.918794363176794526e-01,2.840789549274239188e-03,2.572180355803640669e-02,6.348400115966796875e-01
5.191653097915279735e-01,5.439218969249340896e-01,3.145223857563467229e-02,-9.711548976800479793e-02,-1.066301185945098045e-03,-1.388074816264495441e-03,5.280667543411254883e-01
6.236246429834400029e-01,5.467250014172257977e-01,1.956715598692015945e-02,1.012917801774455666e-02,1.153268730977036888e-02,-1.444153076579474202e-03,5.701405405998229980e-01
5.940263899668961622e-01,5.758873042254913921e-01,3.046530090151178261e-02,-3.345434719881738850e-02,-1.771332202332846079e-02,-2.021103542876256584e-02,5.596712827682495117e-01
5.571351881832696806e-01,5.959024455589139180e-01,2.903164567691007836e-02,-3.986874910115685566e-02,-1.803463345783330729e-02,-1.748529003992513320e-02,5.545546412467956543e-01
5.932895795035925124e-01,5.577975195649007567e-01,2.979815962841952937e-02,-3.610129935583038935e-02,1.598892002301537107e-02,1.369084472594790138e-02,5.513818860054016113e-01
6.090369295294227880e-01,6.620193065638609875e-01,-2.558020902853341827e-03,7.360006174006080912e-03,-2.426462730355513978e-02,-9.945852145082831851e-04,6.412417888641357422e-01
6.574461205679313913e-01,4.610139035298395083e-01,3.552119949415194489e-02,-1.511077467424824967e-02,-5.988457181496267649e-03,-1.657311172648293736e-04,5.513644814491271973e-01
5.416939217794822792e-01,6.764142682557354735e-01,3.279415279093644831e-03,8.567400292327321393e-03,-1.913416517308531156e-02,-1.854146096330138186e-03,6.179838180541992188e-01
5.134481047832167855e-01,6.488975423813234666e-01,3.397496586822423836e-03,6.113664854620212002e-02,-4.832171083676083806e-02,3.023726276048088746e-02,6.070792078971862793e-01
5.744827482494149207e-01,6.416916981936957587e-01,1.290926831583805168e-02,-3.029421168084205085e-02,4.308982100301625429e-02,3.232188031486619290e-02,6.075212955474853516e-01
6.307852119758172726e-01,6.069020250664864946e-01,2.013436299331244905e-02,4.378537179791866345e-03,-7.993528836864053494e-03,7.193401691717879465e-03,5.994038581848144531e-01
6.142993250714458009e-01,6.285765718462712481e-01,-8.172018679840298283e-03,-1.741606570348875910e-03,-9.593403581364229023e-04,-2.783597034258970294e-03,6.297592520713806152e-01
5.066588568328900255e-01,6.543147109560494279e-01,-2.389982925238010036e-03,4.770146461230276302e-02,-6.153294713003513300e-02,2.236605681008102878e-02,6.130113601684570312e-01
6.215062605941835683e-01,6.322098385801386833e-01,-9.658961240369745571e-03,6.833859971032233424e-04,-2.722853488054949225e-03,4.429087431822103203e-04,6.366035342216491699e-01
5.090983936167517987e-01,6.926505525821766707e-01,6.566382883905763634e-04,6.954798135056825849e-03,-5.832902055648452738e-02,2.733521498365110505e-02,6.309703588485717773e-01
5.876528174045717590e-01,5.866208038540355885e-01,1.161327714646159803e-02,8.517719596103760088e-03,7.562627765945966959e-03,-7.260262164545888165e-03,5.759995579719543457e-01
6.233220937657564242e-01,6.249776036966419035e-01,-5.123361453067354354e-03,-2.957446841423980264e-03,2.422759208497884346e-03,-4.501213585764935257e-03,6.293579936027526855e-01
4.917811818753121678e-01,7.007677881511558127e-01,1.597562962209908566e-02,1.092302885016956451e-02,2.621826906096340684e-02,-6.096306261479255036e-03,6.099466681480407715e-01
5.622714727142463786e-01,6.649338303763264735e-01,-3.884427103200416287e-03,6.708418859228107781e-03,-2.713730387196446048e-02,1.007285101610752576e-02,6.259741783142089844e-01
5.858091050940381628e-01,5.759395333998658106e-01,1.861969213731318185e-02,-6.245122996906242105e-03,6.947622177035697386e-03,2.367956862673355114e-03,5.625672936439514160e-01
5.454033978838719321e-01,6.354548422821528764e-01,5.879706971095466361e-03,4.065749999024231842e-02,2.474450851169524013e-02,-2.872101437773719526e-02,5.975371599197387695e-01
5.184236166196760642e-01,6.206016895794582711e-01,3.678853503598816799e-02,1.209273738389886332e-02,-4.061970714305849313e-04,4.506918965022416526e-03,5.404862761497497559e-01
5.831519066819308428e-01,5.827434407175122733e-01,2.549278570046353831e-02,8.487264322909221503e-02,2.870558979988277817e-02,-3.219754492084586639e-02,5.813331604003906250e-01
6.007834385171355596e-01,5.460654012199053220e-01,2.903705250004262606e-02,1.642066867268583696e-01,6.755667565977835354e-02,-2.025640407965753273e-02,6.280265450477600098e-01
5.458804904746380471e-01,6.509069122867778834e-01,-2.138119462708143459e-03,-3.078604585048168307e-03,-2.452307084575518822e-04,-7.579481345929418683e-03,6.075461506843566895e-01
6.482988805207703376e-01,6.026626477881580346e-01,-1.080090128259936222e-03,6.086161506603082055e-03,-4.588556278877230915e-03,-1.845191830559994930e-02,6.287576556205749512e-01
6.367863303006483511e-01,6.164052763114320488e-01,-9.426849581481322460e-03,-8.425596322423234853e-04,-5.061266182219694224e-03,3.382482718509381790e-03,6.363565325736999512e-01
6.157540285444588202e-01,6.309717801250755986e-01,-1.198327689432848731e-02,1.033415560563128669e-03,-8.337558329959632655e-04,1.729476457828491021e-03,6.354940533638000488e-01
6.275111135007105378e-01,6.250792132683361535e-01,1.881278662820223824e-02,-2.309212111002057095e-04,-1.043879788375797748e-03,-4.175308568011955150e-03,6.075319051742553711e-01
9.315436517447280851e-01,9.512995451804457936e-01,1.021321912435380064e-01,-6.235448385197363795e-03,3.692036538713299593e-02,-2.461791892988422770e-02,8.430442214012145996e-01
5.972629421613085965e-01,5.926977574342842114e-01,3.148363060421432991e-03,2.793520481765640259e-03,1.395452519678397688e-03,4.101412446986762951e-04,5.918703079223632812e-01
5.403973958682465328e-01,6.485102273589070654e-01,1.633141851016262081e-02,1.365809531482766459e-01,4.417404645801546043e-02,-1.488736771678819334e-02,6.367682218551635742e-01
4.527747728342987887e-01,5.430790832235584675e-01,2.327869043500868651e-02,1.824853151460756606e-01,7.943036523560247780e-03,-3.195252056302356862e-03,5.757861137390136719e-01
5.260763843929331385e-01,6.237630599535093356e-01,2.864319330046161127e-02,6.753411642755390021e-02,3.941064528241464138e-02,-2.453054968332280331e-02,5.707210302352905273e-01
6.321272612492777609e-01,6.291432956800921961e-01,2.882940539914474742e-02,1.596896284782306236e-03,-1.975593312712967814e-03,-4.032992013166114900e-03,6.018680334091186523e-01
6.239088012335110012e-01,6.091964958412532383e-01,-1.314269747698704194e-02,1.434399989098612740e-03,-5.714397917507148782e-03,4.630171475207289951e-03,6.299579739570617676e-01
6.514500679111053794e-01,6.607771082300112342e-01,1.094043263575232294e-01,4.576029014750741981e-03,-3.410782344940892913e-02,-3.357095167806432856e-02,5.530733466148376465e-01
6.399010615985523120e-01,6.505609985872553569e-01,1.133502245617899473e-01,-2.188473002484224873e-03,-1.006827753105334067e-02,1.474925047926963460e-02,5.328729152679443359e-01
7.510439981462251335e-01,5.644869574693702763e-01,-3.251636566300286635e-03,-4.198907066308592978e-02,-2.067372238467214338e-03,4.833103238845273819e-02,6.894606351852416992e-01
6.935437286563684856e-01,4.147762328803508147e-01,1.929114098404827171e-02,-7.014510031113008193e-02,3.131719295929862729e-02,3.644711174793435760e-02,6.050261259078979492e-01
7.405037192467387452e-01,4.754583748157569234e-01,-2.137217749843656200e-03,-8.267137953701515773e-02,2.861134649827084750e-02,7.621309992826073854e-02,6.821406483650207520e-01
5.707448893618034536e-01,5.799033158663557952e-01,3.149740690827579348e-02,-2.756588202827111363e-03,6.975263398000591461e-04,2.986614799514953223e-03,5.439314246177673340e-01
7.099883296456321879e-01,5.126429958522091823e-01,8.176788507848753440e-03,-6.299610178380633807e-02,-5.819072290092163185e-04,6.479083165981616710e-02,6.461311578750610352e-01
6.123156145844933507e-01,6.170343321472765430e-01,-1.273731540079975355e-02,4.997538503492744179e-04,2.262305031039692563e-03,3.181110563546324637e-03,6.274626255035400391e-01
8.778984358359898099e-01,2.992638028365729452e-01,4.976827240184539258e-02,-1.229001143246830907e-01,-1.043994165435355517e-02,8.393860477676827470e-02,7.798783183097839355e-01
7.743385819845092222e-01,2.448411143830236669e-01,6.861950019544094115e-02,-1.848190172580559815e-02,3.534602237225030474e-02,8.807613774570875742e-02,6.578567624092102051e-01
6.861129910629508721e-01,2.373175364431488743e-01,-1.660846220849365729e-02,-1.888772328660627275e-01,-2.631618297817145749e-02,7.491862653055835278e-03,6.993757486343383789e-01
6.960995862226539987e-01,4.221518613104237039e-01,1.769504685612477424e-02,-1.605259084694285118e-02,7.124207825350860161e-03,2.565578647495430492e-02,5.935761928558349609e-01
7.394560850381329820e-01,3.999904860986746580e-01,2.776582432459218097e-02,-5.053372888910330311e-03,-7.867273110824293467e-03,1.565026279641909546e-02,6.173675060272216797e-01
7.369232682061408468e-01,3.425615938789283721e-01,2.328440846787505070e-02,-2.271387440451772964e-04,1.588361929437506065e-02,6.692053608071135695e-02,6.305250525474548340e-01
6.171415516746139307e-01,6.197401525962175084e-01,-1.391422365427813501e-02,-2.754002198709430390e-04,5.378838183812675519e-04,-2.007670985077999667e-03,6.323695182800292969e-01
6.092158875364892534e-01,6.054766502673284423e-01,-8.052033949467019003e-03,2.201725616934035405e-03,1.104525675185147890e-03,1.868071224904648356e-04,6.154217123985290527e-01
6.608724559226858419e-01,6.189832258726764014e-01,3.103912726572521930e-02,7.649283288892846054e-03,-6.734944554053138958e-03,-1.456373135593585361e-02,6.107449531555175781e-01
6.413102187742967253e-01,6.117595622109440745e-01,5.522505543715250376e-04,2.981019790727853364e-02,2.424926172418042161e-02,-2.619318452231708672e-02,6.316624879837036133e-01
6.195452144630928526e-01,6.260425099706952157e-01,-4.386156924598372253e-03,-1.434187521746439634e-03,7.853175318373607425e-03,-8.938853066920018214e-03,6.275486946105957031e-01
6.088196573696682545e-01,6.143540337200620316e-01,-6.975092207094468755e-03,2.196869539917793799e-03,1.102088479387761241e-03,4.455360458371096510e-03,6.186432838439941406e-01
6.247413060987208056e-01,6.347523344814665069e-01,-1.551703168292284385e-03,6.203369838076662132e-03,8.415066267931627098e-03,-3.431684421883252675e-03,6.316456198692321777e-01
5.893165085000671155e-01,6.380125656819422009e-01,-6.511175854095219151e-03,3.354410675281878644e-04,6.950102689872775762e-04,1.025288732511470471e-02,6.218629479408264160e-01
6.218074533329779330e-01,6.276457414902214538e-01,2.092806427561944016e-02,-1.574524341694433270e-03,-6.171722827463214413e-03,-1.722284832468517655e-03,6.039278507232666016e-01
6.321233026379382558e-01,5.990052504215848117e-01,-9.218325984900299641e-03,-1.849694861108500024e-04,7.722616922060966498e-03,-1.734213871340643375e-03,6.255908608436584473e-01
6.400620531574797711e-01,6.243805266938138310e-01,-2.450380146244768298e-03,-1.502602720620060603e-03,7.615947346286748056e-03,-6.972511671076739130e-03,6.350741386413574219e-01
6.422314884751118003e-01,5.621544708720033201e-01,-3.125373614437210179e-03,1.807878386720271000e-02,1.639172814896084143e-02,-2.667313198941730773e-02,6.124871373176574707e-01
6.208553126810198997e-01,6.441122838008719320e-01,3.091076805863313126e-02,-3.218405356152201618e-03,2.152257803028491227e-03,1.357729461495947761e-02,6.024066805839538574e-01
6.309740506083298950e-01,6.047057931132777675e-01,-1.224222166429478342e-03,4.368392296328058033e-03,1.611764676534406743e-03,-6.770072124210308080e-03,6.196454167366027832e-01
6.046616000117017720e-01,6.167584060306869898e-01,-7.576769628200474838e-03,2.049045117508241625e-03,1.391591440312089272e-03,8.246942102934541260e-03,6.185553669929504395e-01
6.151971261609436858e-01,6.231657465723838829e-01,-1.439049656981727932e-02,8.773833770040616754e-04,-1.800302818836700745e-04,2.718767223197298723e-03,6.336289048194885254e-01
6.592883456680883603e-01,6.293308766167670099e-01,5.893736101603802569e-02,-7.040684006505191312e-04,2.525639846436797051e-03,8.467937729561581320e-03,5.861480236053466797e-01
6.165996383605510944e-01,6.190534023176593736e-01,-1.498336009991441120e-02,-1.096938677457894029e-04,4.122666117285648298e-04,1.644698529814503677e-03,6.328203082084655762e-01
6.612804809645623783e-01,6.058823963254812428e-01,8.112659478529909984e-02,-7.012508706307981482e-03,-2.050984094649808964e-02,-2.826203223687295471e-02,5.579550266265869141e-01
6.538658979722407061e-01,6.344615977709208154e-01,2.685556508013081656e-02,-6.350839353480670912e-02,-7.404274305663688556e-03,-3.217269230848943812e-02,6.298582553863525391e-01
6.868940636055101967e-01,6.056966247627751931e-01,4.529393110434631886e-02,-4.987867589444488353e-02,3.577834964506915964e-03,-1.319533509790166322e-02,6.116958856582641602e-01
6.675270731319907780e-01,6.021790976391921957e-01,-9.990557966582547245e-03,-1.147272034466559863e-02,-1.530948355466967351e-02,-2.047470772693653351e-02,6.491392254829406738e-01
7.461335950400909134e-01,5.433515636906187662e-01,3.944249855280318462e-02,-7.907137035412280593e-03,-4.073140772301364620e-02,-4.677873998992480159e-02,6.394982933998107910e-01
6.433036717039530838e-01,6.000591272709883128e-01,-1.494833751222612861e-02,-3.221575155705930921e-02,-8.855317759202892963e-03,-1.666480923886162063e-02,6.410007476806640625e-01
6.328009099823442840e-01,6.161939639011491110e-01,-4.751460717611621920e-03,-1.050870776782685326e-02,-2.004966962239180736e-02,-2.005047233226576672e-02,6.315887570381164551e-01
6.174768579960044912e-01,6.233469636064763453e-01,-1.342796401654200444e-02,2.959660124936007095e-04,1.115734087666353947e-03,2.450539217471404008e-03,6.338776350021362305e-01
1.871957710529504049e-01,7.795653760341327843e-01,-2.448068117778368080e-03,-1.401367730650794896e-01,5.113217600406468229e-03,3.029577260201126582e-03,7.471457123756408691e-01
6.257362712356144829e-01,6.249905759913538805e-01,9.601749740369502906e-02,7.128467460057596496e-03,-1.202085318922547011e-02,7.272748065958144215e-03,5.300492048263549805e-01
5.454946643039937371e-01,6.631791419164662083e-01,7.132480855678857701e-04,5.725228453815758367e-04,1.791684338690387082e-04,-9.030911774797475500e-04,6.121701598167419434e-01
6.309560083096049654e-01,5.971861080975711111e-01,-1.079855572084065241e-03,-7.875187109576884531e-03,-8.457872222932597689e-03,-1.019408863302701841e-02,6.164238452911376953e-01
6.368878968078708347e-01,5.527599227439798923e-01,1.115139868129971790e-02,5.197553396762408934e-02,1.557327512722728874e-02,-3.353948725890063681e-02,5.984883904457092285e-01
6.132509166745615525e-01,5.766616404410392915e-01,3.805239799238058218e-02,6.481330050607234106e-02,2.947302122096262175e-02,-2.785391594481372024e-02,5.733077526092529297e-01
6.426939866034554472e-01,5.529825027548587180e-01,3.102649133741031129e-03,1.959369972850587283e-02,1.617587154216803408e-02,-1.322077402404603190e-02,6.018368601799011230e-01
7.162609173141571972e-01,4.524578737294974173e-01,1.703770065247839360e-02,9.938653035240715972e-02,3.278590800589906845e-02,-6.094277472578375765e-02,6.465661525726318359e-01
6.168497145954501271e-01,6.325434494461981139e-01,-1.237326724377185716e-02,5.710684017349085652e-04,-1.058617213739737259e-03,3.501711301354099677e-04,6.372184753417968750e-01
6.326585555871362399e-01,6.249132449327086114e-01,9.890737019812961828e-02,-1.438043975577322662e-03,-5.644993060271416389e-03,5.949756533119650477e-03,5.301172137260437012e-01
6.884090077795238516e-01,4.320024425377613775e-01,1.567487385536403544e-02,4.349375351473818568e-02,7.538232732190086952e-03,-1.720124205409171922e-02,5.937637090682983398e-01
6.895770704103969528e-01,4.970152263689898708e-01,1.877106803466777052e-02,7.048242179296139442e-02,7.736801262032335681e-03,-3.060288053518509660e-02,6.130102872848510742e-01
6.250369945270370931e-01,6.304784460468240148e-01,7.005472925504158122e-02,2.076663547786672219e-03,-7.488735005873116933e-03,4.222627672924699968e-03,5.579332709312438965e-01
6.126090935998880216e-01,5.808464738964205232e-01,-1.228271702505484564e-02,8.264502520865713020e-02,4.341667497605043724e-02,-5.145549337300191900e-02,6.369764804840087891e-01
6.885562066372089562e-01,5.429608201891609198e-01,-1.538094874841910986e-03,5.755106463187049937e-02,1.059115397479568413e-02,-7.836379054084019469e-02,6.524179577827453613e-01
6.050610430162797204e-01,6.229305468857770922e-01,-1.075165263059640886e-02,1.414722588328419495e-04,-9.182396479434313597e-05,-9.515589978462583171e-03,6.251564621925354004e-01
6.276129039090116990e-01,6.251288883285468501e-01,-2.854062991410277750e-03,-1.592052804198155602e-03,1.646907242614765272e-03,-3.626630594587465679e-03,6.292725205421447754e-01
5.998591784795462845e-01,6.478147735917060279e-01,3.165806478921129319e-02,-1.672235286703870278e-03,-4.971779431966375819e-03,-4.523629370767135241e-03,5.937546491622924805e-01
6.255884087169245600e-01,6.303202334668907003e-01,7.234605562137114143e-02,-3.459553324793471392e-03,-6.251864641232352145e-03,-4.759756454337626952e-03,5.558223128318786621e-01
6.086195249147279274e-01,6.315233647268844175e-01,1.998614181516839006e-02,5.101751683307395764e-03,-5.597520971595717869e-03,7.333249250119620345e-03,6.006906032562255859e-01
6.203433097009187769e-01,6.304315665310262773e-01,-9.173076703471283455e-03,4.274853223383426131e-04,1.711462303343522576e-03,9.627273689293877178e-04,6.346302032470703125e-01
5.777993880967824403e-01,7.472236559579438220e-01,2.401954070061773638e-03,4.383056194045047149e-02,-3.655465323919455251e-02,-1.248697925230675063e-02,6.837491989135742188e-01
6.291808948651853584e-01,6.284456677759604482e-01,2.875403282695748741e-02,3.878602083468654389e-03,4.163181377048685849e-03,2.147761230476319654e-03,6.001520156860351562e-01
6.447504297662804973e-01,6.557014622134427206e-01,4.234456093100330554e-02,7.478130683593989941e-03,-7.829871295099018538e-03,9.698627108454035278e-03,6.084764599800109863e-01
5.510334145732573852e-01,6.493126447242476562e-01,1.100215537441773250e-05,8.073964733840698375e-04,-3.162050072627754088e-02,-1.203489776057338695e-03,6.086414456367492676e-01
5.388058991752454618e-01,5.990371347675838010e-01,2.365921609606347342e-02,2.346853717960913424e-02,-8.563794317976590811e-03,1.127436032588764389e-02,5.498049855232238770e-01
5.804043513271267551e-01,5.858575994261838726e-01,1.682713565852056448e-02,2.268722723358734469e-02,-1.318736602119607686e-02,1.689643580975143389e-02,5.688977837562561035e-01
5.937310627081735515e-01,6.094916138139638839e-01,-5.535883636622718207e-03,8.575860837488518892e-03,-1.852425957891794608e-02,1.598432491619517989e-02,6.089586615562438965e-01
6.090574302559566000e-01,5.827568092576568271e-01,1.979618598418586561e-02,1.633983032187477993e-02,-1.794701095642787028e-02,1.648859062265556688e-02,5.787965655326843262e-01
5.989271126876511975e-01,5.591560110240052506e-01,1.739566180357515757e-02,3.526876083621267866e-02,-1.894114710080176123e-02,2.044276159841963356e-02,5.680617094039916992e-01
6.450542547936337634e-01,5.839658664381699449e-01,1.587133177505323234e-02,3.287107460424205929e-02,-8.045741953349186404e-03,3.645198335384764593e-02,6.071154475212097168e-01
1.925701684248379286e-01,8.603458597756177273e-01,-2.978141002831896644e-02,-9.935313299096687478e-02,-9.430354582144024125e-03,8.036679013089133641e-03,8.209258913993835449e-01
6.158963545597593292e-01,6.125920772181132623e-01,-1.499351540040261277e-02,-2.865357341884005931e-04,3.031044635208912153e-04,-1.569527992247916242e-03,6.292505264282226562e-01
2.040568109590106260e-01,8.305191310662081161e-01,-4.773506182126507902e-02,-1.707846634989179935e-01,2.564709892303717112e-02,1.772232151644065248e-03,8.384970426559448242e-01
5.906590837569675179e-01,6.485479949018843060e-01,-9.994857063858164636e-03,-1.233779676667908290e-03,-2.426090695657813143e-03,4.575530751329799986e-04,6.316093206405639648e-01
5.843961611270567236e-01,6.241115803900006975e-01,3.116961878440349665e-03,1.414291111555400146e-03,3.907533857407288866e-04,-1.327874916330254104e-02,6.025645136833190918e-01
2.341625141138085620e-01,8.206084544366309963e-01,-1.373100646805733294e-01,-2.127110327387760902e-01,-4.081926270761225550e-02,5.371729324986400378e-02,9.214947223663330078e-01
1.706037058498408310e-01,9.439442725727895667e-01,-5.734084971244307605e-02,-8.112320758519903086e-02,1.938992820509242640e-02,1.097485533046603685e-02,9.206113815307617188e-01
6.179599858047872818e-01,6.955310397214652385e-01,1.025998408911432680e-01,-3.595366420368217852e-02,-2.539050794448042669e-03,1.184839939507918542e-02,5.620577335357666016e-01
6.568386757514859120e-01,4.514332888971542279e-01,4.933233150112353860e-02,-1.621059889447807600e-01,-9.291773282032358972e-02,-8.399788150579973189e-02,6.421630382537841797e-01
6.468252864918230260e-01,4.542484162756285082e-01,-2.331109907853856633e-02,-1.783482536626009862e-01,-3.711460383746653137e-03,-9.461326233162986599e-02,6.924135088920593262e-01
6.772540370204631621e-01,4.790843217479984761e-01,5.473624661294806959e-03,-3.762974341702103598e-02,-8.398276339278107003e-03,-5.610450879229032795e-02,6.093737483024597168e-01
6.200950439812938919e-01,6.152469743692992044e-01,-1.412417575956809168e-02,-1.017058064380810950e-03,2.113705010768715357e-03,-5.771926304118312162e-05,6.318222284317016602e-01
7.299119371735640627e-01,5.102908696167696156e-01,8.602048104935311468e-03,-7.161195388709973297e-02,-2.280278789912491832e-02,-4.753186194596156766e-02,6.586570143699645996e-01
4.917885134137477965e-01,7.149602728405768381e-01,4.618676392160792066e-03,-3.585289141967141352e-02,4.050271481703329735e-02,1.113768303924036855e-02,6.364058852195739746e-01
8.564383076543098383e-01,2.907825888118590330e-01,1.541205285643726386e-02,-7.012958185942133604e-02,1.354096595480743653e-02,-8.056978258240542201e-02,7.657279372215270996e-01
5.381591500226271529e-01,6.040212849619520652e-01,3.360667886202794996e-02,4.520868171209663916e-02,9.179108687427607952e-03,-5.083610619960794198e-03,5.464464426040649414e-01
6.266566968969315976e-01,6.301969437003116514e-01,7.388699875085846802e-02,-4.250488326390430491e-03,6.043520157350113983e-03,1.375810754446043539e-02,5.552075505256652832e-01
3.717390838604651693e-01,6.849981621201426396e-01,1.642341142697817391e-02,-1.317889026895401328e-01,4.754131497922591681e-02,1.741226494073144088e-02,6.288731098175048828e-01
6.200083662445571298e-01,6.159312540005974501e-01,-1.524743842266873539e-02,-4.121539583517158114e-04,1.611140344564732920e-03,-7.214437910846409341e-04,6.332348585128784180e-01
5.144723317032455778e-01,5.426919230099225278e-01,2.092811354570761617e-02,-1.473002728669993711e-01,1.059963737628555162e-02,2.033569122371117754e-02,5.700698494911193848e-01
6.174314539810511482e-01,6.234074476115492036e-01,-1.136393549728070829e-02,-8.415121114884292633e-04,1.199682300449331739e-03,-2.757370954528211553e-03,6.318277120590209961e-01
6.270105478326533088e-01,6.275439304936392126e-01,1.375765824490243761e-02,-4.799381822826483297e-03,5.057852163277865021e-03,-3.785098909100254039e-03,6.136736273765563965e-01
3.511261300936569518e-01,7.561431391117624523e-01,2.710008289309606688e-02,-1.504351653263734101e-01,-1.084360420133673869e-02,-7.943438251109980613e-03,6.846181154251098633e-01
4.907046014702693970e-01,6.358747808754867670e-01,3.750262693738354303e-02,-7.495373710985434035e-02,6.897421909053280502e-03,9.841544401632748573e-03,5.563679337501525879e-01
6.240840487081557031e-01,6.065133086014741215e-01,-1.233930126309162878e-02,-3.751886647096051614e-04,8.700191353649956022e-03,1.296720142626155853e-04,6.280035972595214844e-01
5.186719424155863400e-01,5.641278905446234226e-01,7.516798204532659788e-03,-1.699398507490377519e-01,2.494816062812101748e-02,2.047051325593591750e-02,6.134687066078186035e-01
4.777344225851287152e-01,6.718363854680957648e-01,2.401589411032473143e-02,-1.509618226314745904e-01,1.340388995489609665e-02,4.347430591142479456e-02,6.373234391212463379e-01
6.272261672505397012e-01,6.333785904254322086e-01,3.256000267709191487e-02,-5.192045994940336882e-03,7.848604827078910912e-03,-4.527993076867755338e-03,5.980397462844848633e-01
6.897074252159958174e-01,5.433034212968372856e-01,1.067862050589396539e-03,2.389709757134370061e-02,7.378521345139126345e-03,-2.661016061707895120e-02,6.315376758575439453e-01
7.218851309065541511e-01,5.560161756567590929e-01,1.187613246930570021e-01,-6.703826349251353067e-02,7.303293646819830100e-03,-9.213016965158249416e-02,5.747500658035278320e-01
7.440251360372653888e-01,3.536533244386148023e-01,2.066647512570535250e-02,-6.021384698302312960e-02,-2.239929985369737767e-02,-1.186168277357100287e-01,6.692168712615966797e-01
7.962406810649290678e-01,5.701085736165101281e-01,8.547328977451895682e-02,1.851433443774362642e-02,-1.079686664369974014e-01,-1.445066182063574067e-01,7.030257582664489746e-01
6.242727144597679523e-01,6.237571770272793970e-01,-1.101569024955600939e-02,-2.827752463498455979e-03,3.630694652451467701e-03,-3.536588838404713941e-03,6.351103782653808594e-01
7.707697232620263073e-01,4.258361885744015862e-01,3.183963880858975415e-02,-1.294477307132253507e-01,-2.918393683902586674e-02,-9.778101858319541984e-02,7.011588215827941895e-01
6.678755775261410177e-01,6.478502280796996082e-01,7.527205314837470684e-02,3.686909196176434839e-03,7.440682337660329063e-03,1.117158478003144918e-02,5.833473801612854004e-01
6.156074296419298264e-01,6.173181376391894126e-01,-1.450066039050301736e-02,-1.266198082669576109e-04,1.449651566069546098e-04,-2.353163400372766754e-03,6.309784650802612305e-01
6.227744023125350026e-01,6.073417590408503042e-01,5.821151771764898619e-03,-8.240569375551435108e-03,-1.334572952809066210e-02,-1.076953500997253517e-02,6.102738976478576660e-01
6.337861129514638092e-01,6.256861341242352381e-01,2.899597079981830472e-03,4.111220067954515019e-04,-1.416710526683343050e-03,-1.077711990668154748e-02,6.271588206291198730e-01
6.936728642762950425e-01,5.494392914968093677e-01,7.370950532990638848e-03,-6.033712767008312522e-02,-2.475356154102967277e-02,-6.200604235183418411e-02,6.458483338356018066e-01
6.173772630520972804e-01,6.546550422381536283e-01,2.508441061437671760e-02,-2.372945375434058410e-02,-3.540207720959415855e-02,-2.482010721789355140e-02,6.177192926406860352e-01
7.426636415570869731e-01,5.710192924566244166e-01,2.670846160021222992e-02,5.950059002586655880e-04,-1.879441477905434421e-02,-2.048252950503614070e-02,6.492174267768859863e-01
6.053101430303906572e-01,6.110674097186361564e-01,2.544573667506988546e-03,-1.737663047987371423e-02,-6.746906345431691494e-03,-1.021969045326135729e-02,6.067829132080078125e-01
5.633343293196697577e-01,5.516004711878996769e-01,3.115849221800420787e-02,3.681854589014551399e-02,5.873673913322946831e-04,-1.399871281155476736e-03,5.302622318267822266e-01
5.334303627394967329e-01,5.778165058032234125e-01,1.460350304868407445e-02,1.100264638814062307e-01,3.850332768845295128e-02,-2.799686866345272446e-02,5.807724595069885254e-01
6.108643250916043765e-01,4.666144891857407773e-01,1.354200292502333314e-02,1.090490185270429901e-01,2.938425832227836709e-02,-4.070815155509402428e-02,5.785111784934997559e-01
5.765787996562059536e-01,5.129521052057735009e-01,7.454313713751492543e-03,1.348783474115399506e-01,4.251254592019378109e-02,-5.394360916096137271e-02,6.003896594047546387e-01
5.413925868872505598e-01,4.784568072999713650e-01,1.670052018471218647e-02,1.780922603686415640e-01,2.330757148455068345e-02,-1.452535199808369440e-02,5.862200856208801270e-01
6.025452179917976103e-01,5.508294887447980903e-01,2.233883613419285208e-02,3.910736445607127659e-02,9.904051852847603823e-03,-1.085071892717144257e-02,5.608420372009277344e-01
5.706021288432576721e-01,5.907300606119054720e-01,2.409350110530672495e-03,1.353667037901341852e-01,-7.025662785150870761e-03,-4.821191390367564333e-02,6.299034953117370605e-01
5.876178022986084937e-01,5.378471837661902288e-01,2.437012749016448376e-02,1.097499825319966094e-01,2.388725489814551642e-02,-3.640791289023117411e-02,5.775079727172851562e-01
5.391403260239746587e-01,5.908760073814330882e-01,3.018886463455405789e-02,5.240107080466147732e-02,1.054489483316020659e-02,-8.755717750206221464e-03,5.448305606842041016e-01
5.816151642792198873e-01,5.216838163528044747e-01,1.970552616774240429e-02,6.628092784131137116e-02,2.926565109470215600e-02,-3.296552150048433216e-02,5.519667863845825195e-01
3.638137745040187498e-01,7.721233853321252116e-01,3.377672046826662999e-02,1.191770323516594111e-04,-5.070328165322107727e-02,-7.652991234890228409e-03,6.467508673667907715e-01
4.726392593300770550e-01,7.464487640122691170e-01,-3.626345577988110414e-02,1.978719462391668321e-02,-7.266392328197487926e-02,6.448700160282576843e-04,7.002228498458862305e-01
3.051593999776543997e-01,7.394581033956353355e-01,1.455286893452023556e-02,3.871319396829286941e-02,-3.187460831970256869e-02,-3.522056412742406630e-03,6.378549337387084961e-01
3.828918615210564758e-01,9.319863289210241764e-01,5.305484477081928718e-02,-5.857184355796756642e-02,-7.005098464189968288e-02,3.396568596888024233e-03,7.851476669311523438e-01
6.167170101493506529e-01,6.160904195836951480e-01,-1.508728287714777849e-02,9.773080283629082964e-05,3.630090752980483075e-04,-6.071312301346639415e-04,6.314924359321594238e-01
3.824527285658994025e-01,7.513743682868863072e-01,-3.674587538954371402e-02,-1.039456409825397776e-01,-1.008748231302224740e-01,2.238921115668731157e-02,7.286475300788879395e-01
3.826177740947559469e-01,7.490584662890783507e-01,6.316379998504573212e-02,-9.922112555622505936e-02,-6.372380493643983734e-02,-9.759793825845708773e-03,6.288028359413146973e-01
3.294496068127726884e-01,7.559865172530451094e-01,1.428707843234877650e-02,-1.696306462797130543e-01,5.565143126207993535e-02,3.590339822378614543e-02,7.177546024322509766e-01
5.142216944540615176e-01,7.565278711530204481e-01,9.080085595766118622e-03,-3.717914096057112899e-02,-4.905707827692610407e-02,-3.187053775751012147e-02,6.713368296623229980e-01
4.339935789131975086e-01,6.799026433810346770e-01,3.800691169311803952e-02,-5.186410441036257840e-02,-1.323305021536679005e-02,-2.634389617436074058e-03,5.685676932334899902e-01
3.523441655348718560e-01,7.610091631877704543e-01,1.770448758379855603e-02,-1.325177638359683607e-01,-5.020986882251954331e-02,-1.141578614755774448e-02,6.902052164077758789e-01
3.625538185091973231e-01,7.077054985634316786e-01,2.754803833852353945e-02,-9.511707064921853805e-02,-1.615516403134511017e-02,-1.214146454254623995e-02,6.126608848571777344e-01
6.218171758108770319e-01,6.236520428424183748e-01,-1.079375149166356129e-02,2.370528296468373507e-03,2.048503243306773296e-03,2.726079238083003141e-03,6.335712075233459473e-01
4.415685925335118278e-01,6.643102417639996649e-01,3.242436741939730416e-02,-9.625952458616865437e-02,-1.898192660958618327e-02,-1.098942153426310173e-02,5.808504223823547363e-01
5.139417884592274444e-01,6.751806373476525458e-01,1.576609655023125667e-02,-3.818376794192589879e-02,-2.357244317017731516e-02,-5.073282483323367578e-03,6.005167961120605469e-01
5.121285269563142784e-01,6.561996093288624543e-01,6.233756773413035024e-03,-4.526048092428795050e-02,-2.904697454374761262e-02,-2.680153617536694399e-02,6.003352999687194824e-01
5.270827142997357440e-01,6.357662880060023225e-01,-1.623708293383374635e-03,-5.541043803720387823e-02,-6.892023521773715973e-03,-8.571790107103008025e-03,5.986469388008117676e-01
6.411432184394596501e-01,6.394700493302601929e-01,7.039958515780692094e-02,-2.563886955910118885e-03,2.129536354555674332e-03,-7.305372025206906955e-03,5.700785517692565918e-01
4.853314925593879559e-01,6.595770149519297743e-01,4.248402939357243113e-03,-1.000835560597693186e-01,-4.055659795962220787e-02,-2.900865412915917818e-02,6.189815998077392578e-01
4.794274321680034867e-01,6.946949434407676538e-01,1.343981621052625641e-02,-9.642153871261628650e-02,-2.692277749791343461e-02,-5.498571165344761508e-02,6.347697973251342773e-01
5.819398178779984221e-01,6.231241700128608008e-01,-2.491917718617897570e-03,-3.832683120171822069e-03,-9.666503100644971045e-05,1.110262539091925842e-02,6.064156293869018555e-01
5.227940771474028914e-01,6.408899959587458506e-01,2.374741265790070166e-03,-8.946444290134723809e-02,-5.834205460504545554e-02,-4.930266740331647884e-02,6.227018833160400391e-01
5.934969388155731940e-01,5.765527377280073029e-01,1.017911063771315128e-02,-1.755111558339709013e-02,1.784908275187919655e-02,1.757217611998451376e-02,5.774679183959960938e-01
5.986732914260121108e-01,6.240818954890759995e-01,-6.977922642922684826e-03,6.578069006420795076e-04,1.521187135256766524e-03,8.642792161880763838e-03,6.189346313476562500e-01
4.426154997432695248e-01,7.438053983413015491e-01,9.013818691073038902e-03,-7.634420919751955248e-02,-3.224375704011726851e-02,-3.594547832426247397e-02,6.586370468139648438e-01
4.309984492962048441e-01,7.403404451020740851e-01,3.182838328651016457e-03,-9.507090648527231902e-02,3.946599919033712267e-02,-7.513537686439746011e-03,6.655955910682678223e-01
6.290481322029721767e-01,6.284022059359501977e-01,3.290991749410920875e-02,-1.821330313854620936e-02,2.327259799068013418e-02,3.383319436233585276e-02,6.008745431900024414e-01
3.395557346078485472e-01,7.138400427568099005e-01,5.208866175790433095e-02,-1.246217318293063314e-01,1.498692533588177334e-01,5.091079470233726700e-02,6.723617315292358398e-01
2.788933808542722326e-01,8.674809301870733957e-01,3.160741730323879395e-03,1.781058543586444207e-02,3.675923263045335898e-02,3.261849480966951681e-02,7.700349688529968262e-01
3.743533826863714165e-01,7.285338664639009476e-01,1.201999828162103601e-03,-3.543938435468484832e-02,3.343640770477045859e-02,1.091936017248363276e-02,6.358680725097656250e-01
3.801023477018568575e-01,7.505550785320077578e-01,1.402014373786897306e-03,-8.265786965663951547e-02,7.509972549626520166e-02,7.766575110569040857e-04,6.770217418670654297e-01
6.200073027063537356e-01,6.026348432248871401e-01,-8.094055776014574821e-03,-2.766932621424123689e-03,1.161865784303680281e-02,1.588577007642100799e-03,6.199491620063781738e-01
6.597597395710007584e-01,4.601903023244265922e-01,-2.785424924057233742e-02,-1.202254248653194385e-01,6.974852337524260759e-02,4.854213854087548186e-02,6.636567115783691406e-01
3.980488689963703197e-01,7.617943887935012537e-01,1.814011795957004569e-02,1.364885238977580316e-02,5.814647961595098558e-02,3.060215848946045217e-02,6.544791460037231445e-01
6.087472717987565396e-01,6.342886515316396023e-01,-9.694567901732176196e-03,-5.060162298838983500e-04,5.323021876971843064e-03,3.061489789476455267e-03,6.316901445388793945e-01
4.358093700868279075e-01,6.810297312770313694e-01,1.483200075278046093e-02,-5.062648239497499758e-02,3.214175395884266012e-02,1.555949137152558108e-02,5.933817625045776367e-01
7.608985615202794595e-01,3.891339618413059975e-01,2.927521680383782243e-02,1.739152558513613611e-01,-4.962233759266616862e-02,2.576286754505354229e-02,7.082427740097045898e-01
8.832011531170336216e-01,3.092066258649738275e-01,-4.105322406640188326e-03,1.251062659163900970e-01,-2.516945706679771591e-02,8.743365272902445251e-02,8.241738677024841309e-01
8.516333790870663778e-01,4.762924043676048935e-01,3.651462384184250842e-02,1.396929111756919917e-01,-1.652894824271523150e-02,8.365734656178396011e-02,7.613866329193115234e-01
9.671381542609318593e-01,4.199206962730065440e-01,5.796809171266859018e-02,8.157077953189130481e-02,2.430394322081654360e-02,6.523291056502171503e-02,8.142621517181396484e-01
7.508778867491220366e-01,4.147318710832315070e-01,2.066250084873294535e-02,1.421384015999505035e-01,-3.867768499913037256e-02,7.736271844877654069e-02,6.955591440200805664e-01
6.218426890633602655e-01,6.297139839415687446e-01,1.309638054177314492e-02,-2.517188409820105433e-03,-7.755541393056548591e-03,3.237235880635593293e-03,6.129082441329956055e-01
6.251544403698153785e-01,6.280894905968379405e-01,5.016562236675181641e-03,1.531894284725777251e-03,5.737687818950946116e-03,1.943003856762982396e-03,6.217048168182373047e-01
7.069587478798214919e-01,4.420994617493964052e-01,5.653582100319148873e-02,1.101172126023028941e-01,-7.831009995991308759e-02,1.050912750010336572e-01,6.394038200378417969e-01
6.286197057600035887e-01,6.239803260090144299e-01,6.222242459194760045e-02,-1.145708038901758824e-03,-9.068834655572453537e-03,-2.423995833771624194e-03,5.643296837806701660e-01
6.347371558220369359e-01,6.409384554533109624e-01,3.796277593070551681e-03,-7.261485813512670584e-02,-4.615708321990633772e-02,-8.403773884299993446e-02,6.674089431762695312e-01
6.407814946579879489e-01,6.075890196421547262e-01,2.015451869307904875e-02,-6.220931313533022318e-03,-1.115230203250048430e-02,-1.036935026714559064e-03,6.051213741302490234e-01
6.052951774693356990e-01,6.116704863824502514e-01,1.074244325321521698e-02,-1.703553358857421915e-02,-7.990685539100835996e-03,-1.203795686214598724e-02,5.990166664123535156e-01
6.192820170243213962e-01,6.153719321011529297e-01,-1.199162126065972389e-02,6.622185271218689485e-04,-5.812163283490384344e-03,-3.392047204516890433e-03,6.294366717338562012e-01
5.936438676961970362e-01,6.008201239291163231e-01,1.635056711795479512e-03,4.633042824889967506e-03,2.514807982489222337e-03,-1.338790408971468962e-02,5.961505174636840820e-01
6.272736840546776493e-01,6.065557229518234728e-01,-1.009705306080599385e-02,-4.932423374438076047e-03,-9.246977614096360543e-03,-7.473376070343512589e-03,6.276645064353942871e-01
6.879549685358086197e-01,6.015871480982726283e-01,-2.194364515305524677e-04,7.909935415361529776e-03,-1.590032608030890948e-03,1.685123914859641345e-02,6.501188278198242188e-01
7.383928988947265903e-01,5.588419996298272796e-01,2.814674175588965932e-02,-2.694311130673596177e-02,1.463562997170816254e-02,2.694482958155666047e-02,6.435536146163940430e-01
6.661061909657708391e-01,5.839849773852631154e-01,-2.508278067258118416e-03,-2.863364381660532532e-02,2.095246151507681315e-02,3.405333112072161245e-02,6.372890472412109375e-01
6.786716951517481888e-01,5.440539587350980977e-01,3.456892508715447843e-03,4.078299306141080008e-03,3.807559678648633240e-03,1.821191454808016377e-02,6.198624968528747559e-01
4.470615891502366934e-01,7.124576961068487257e-01,4.278975842329596491e-02,8.730120496866007607e-02,8.737347180805583868e-02,-3.904761141634529448e-02,6.257027983665466309e-01
5.912950926085059900e-01,5.807810383335436644e-01,2.111477735264166711e-02,5.720084720790244610e-04,6.884275411618237354e-03,-1.683485731521911378e-03,5.651308894157409668e-01
6.860470587866851488e-01,5.134050532493206198e-01,1.608279012135005459e-03,-1.724783732077079731e-02,1.416463183775823649e-02,2.541755204612318117e-02,6.192990541458129883e-01
6.574777189847045289e-01,5.701925950674284760e-01,-1.554893041693095057e-04,-2.182244790394318942e-02,6.973336770098008917e-03,3.163245921926297749e-02,6.223141551017761230e-01
5.990814437545745053e-01,6.103559248083753053e-01,-7.287498822530436016e-03,2.574164595365341108e-03,5.493045220373411579e-03,-7.498553078842585054e-03,6.123120188713073730e-01
3.889317977157894513e-01,8.731987892799761841e-01,-3.148609816855540977e-02,2.245769245760877164e-01,5.239240557446987745e-02,-2.516570606148121544e-02,8.810786008834838867e-01
6.693760412335274523e-01,5.840781762383944198e-01,-1.719794497682003431e-03,-2.768830301667978000e-02,2.644462094440152081e-02,3.551435769506423173e-02,6.392057538032531738e-01
7.045761272894983662e-01,4.507165695676287887e-01,3.334593960394482970e-03,-2.232164877387162946e-02,4.718436329836370245e-04,4.648080034356132789e-02,6.214051246643066406e-01
7.824089645310994268e-01,3.969645595774234370e-01,9.845509415296049838e-03,-9.716679767480432273e-02,2.264350899837032360e-02,1.142293529715732864e-01,7.187828421592712402e-01
5.722502805862259567e-01,5.251271359419129592e-01,2.470256430478112719e-02,7.051025759151446914e-02,1.863653512634017018e-02,-9.709455441676865736e-03,5.408020019531250000e-01
6.248173265873934179e-01,3.663931752333569603e-01,1.787130729191899192e-02,1.479989088314825341e-01,-2.212260633758334621e-02,2.254230638058224087e-02,5.890846252441406250e-01
6.371584088556144776e-01,6.063499211545290146e-01,-1.087070821439928281e-02,8.398912779842864678e-04,8.153005576708236349e-03,4.405752156665039857e-04,6.333468556404113770e-01
5.599924620971643563e-01,5.890443238625813205e-01,2.036897510190638361e-02,3.886664548955189730e-02,1.609548610977214189e-02,-1.529490674373566381e-02,5.601119995117187500e-01
5.097027924275039368e-01,6.164838008548345627e-01,3.205847680691759072e-02,1.855377724697585273e-01,3.245164266479732846e-03,-7.755526997368202349e-03,6.277216076850891113e-01
5.870563495489872219e-01,3.634062206184945909e-01,9.569585586044482284e-05,2.895487628479025410e-01,-1.098178238286995692e-02,1.818439131899439801e-02,7.184271812438964844e-01
5.752206692415846589e-01,5.236809317587514112e-01,1.802079876285167526e-02,6.882458901490706715e-02,1.091382579897180044e-02,-1.296901096244486989e-02,5.472499132156372070e-01
7.693212253012031709e-01,5.815417629859769288e-01,-1.634343498427781594e-03,5.780176232642958434e-02,-1.487856275604793402e-02,5.937519720321332573e-02,7.114263772964477539e-01
5.510120637058758541e-01,5.931415349990458719e-01,3.432246313904846469e-02,-6.858523378349652005e-03,1.497406875308611570e-03,5.106843289249378588e-03,5.392003059387207031e-01
6.581565050325273170e-01,6.484825883365639143e-01,4.956413019919347906e-02,2.222262486173947477e-02,-7.372057867895295781e-04,3.857677922247709085e-02,6.087186932563781738e-01
6.283953455580307823e-01,6.267891859213260419e-01,4.008451941281226949e-02,2.519388440445313043e-03,-1.379312877830689375e-03,-6.374372143007261092e-03,5.876342058181762695e-01
6.077313671131353567e-01,6.318204679104866273e-01,-4.523872841458387306e-03,1.162303930505142503e-02,-1.402569658833191513e-02,1.634572406197228739e-02,6.260849833488464355e-01
6.279230811894074282e-01,6.485624502938690528e-01,2.910411323217187984e-02,-1.115565272834031629e-03,-1.192625960563763535e-02,1.777825759179005316e-02,6.105309128761291504e-01
5.961284073124446525e-01,6.463845331553477180e-01,-3.838400988742995956e-03,2.965493795703620650e-03,1.113891330814203995e-02,-6.174432080105879059e-03,6.270174384117126465e-01
6.232989497267046319e-01,5.764121869595677516e-01,3.201685145540367206e-03,4.179093420184604168e-02,-2.784374561082845340e-02,4.638072349389624899e-02,6.096420288085937500e-01
7.183399124597007468e-01,4.729384190266115451e-01,2.368978906912566629e-04,4.604838873433967500e-02,-2.085541782148377446e-02,2.706362746428205360e-02,6.399483084678649902e-01
3.406505638651279311e-01,7.326186278313666644e-01,3.236081324899164890e-02,-3.625430117629280941e-02,3.256242337892547179e-03,6.430819774623616931e-03,6.112448573112487793e-01
5.544576936525736910e-01,6.397912444064461912e-01,-2.251742445771254264e-03,-1.860168502318132119e-03,8.281554795232118436e-04,9.608186430472780148e-03,6.041544675827026367e-01
5.921264720367386269e-01,6.006737547981690906e-01,2.963451850319376302e-03,-1.074590288618039674e-03,1.409811840598409203e-03,7.686883397754513611e-03,5.936400890350341797e-01
6.754101112047706801e-01,5.248692496118145812e-01,-2.414431069538369723e-03,2.869394068959858768e-02,-1.898411424650131227e-02,2.512958590069279408e-02,6.208977699279785156e-01
6.366003140151963446e-01,6.273748012633124649e-01,2.252865595992115111e-02,-4.130306026913131701e-03,-8.264974729493120009e-03,4.829751076676493463e-03,6.097787022590637207e-01
4.666891873996837914e-01,6.887056870421663923e-01,1.517621284119075042e-02,-5.068165391005524309e-03,2.218945835664188401e-03,8.129582311616053922e-03,5.947173237800598145e-01
6.480561091202701185e-01,5.619945644047676936e-01,-1.821498440357682824e-02,3.370033380507340970e-02,-1.420110790819906232e-04,7.598287734312583405e-03,6.305266618728637695e-01
6.265492510687651340e-01,6.221034738534805264e-01,-8.172039224289495696e-03,-1.955940793846368611e-03,-8.171753182305929383e-03,6.921260134323991425e-03,6.327911019325256348e-01
6.184937381657024114e-01,5.769618147669640651e-01,2.226691884485432205e-03,5.993304369401643295e-02,-2.628782844936202942e-02,3.761877736388535842e-02,6.107452511787414551e-01
6.247436396219994137e-01,5.778084782709556055e-01,2.574997866819916936e-03,-4.431759188182465663e-03,1.190709294873115373e-02,1.366138376317411000e-05,6.004826426506042480e-01
5.821067299954810759e-01,6.214603924193971007e-01,2.413216375506954670e-03,-3.803014227010805080e-03,-1.665851470834037705e-04,1.264131822105903774e-02,6.007738709449768066e-01
6.226220781648338365e-01,6.361890594991221892e-01,1.648077550696180893e-03,-1.750711605626436781e-02,-7.575720231880902697e-03,-2.070756877539209687e-02,6.297583580017089844e-01
6.275904396389595519e-01,6.232445636474720496e-01,3.192705071724671884e-02,-3.612986768016105462e-03,6.561811284174217003e-03,-4.324062434710819794e-04,5.936446785926818848e-01
6.339546682227341634e-01,6.113594094405253587e-01,-6.731504929120668557e-03,4.164179811904856338e-03,-4.042101520163561730e-03,3.522800483877364369e-03,6.298024654388427734e-01
6.358139434516967281e-01,6.280524901370052593e-01,7.284191570047882092e-02,-5.498334837841558622e-04,-7.737669158323454144e-03,1.221850216930134812e-02,5.596933364868164062e-01
5.430627127184359804e-01,6.228330335678703422e-01,1.745075394227629806e-02,-8.302504075065348516e-03,-2.308590801696483788e-04,1.330456950189605470e-02,5.703485608100891113e-01
5.541446942692704880e-01,6.468209753650875360e-01,-3.120419178991973297e-03,-4.410813880522648257e-03,1.323691191768457988e-03,1.223519171270149621e-02,6.093367338180541992e-01
6.336424593923569715e-01,6.245317491179973590e-01,1.942568417998002950e-03,5.592706159950320589e-03,-4.975440089412481136e-03,-6.215370881736347573e-03,6.274205446243286133e-01
6.357381146735551214e-01,5.956817799386542323e-01,-4.526973521097710229e-03,-3.617985238470238125e-03,-8.106044100496079957e-03,-1.497311210942404124e-02,6.219374537467956543e-01
6.396500936069211551e-01,6.014761914021524714e-01,-7.601827820862494534e-03,-1.288880050359995921e-02,-9.633568671299769584e-03,-9.175861612178074292e-03,6.298519968986511230e-01
5.451981015423519317e-01,6.700392600174096547e-01,-1.856700281484546800e-04,-8.080811696339364886e-03,7.626102118114039654e-04,8.066458145356865742e-03,6.176633238792419434e-01
6.824168467517603975e-01,5.825012324758636062e-01,5.693554069871986645e-03,-2.054538149861608737e-02,-1.922105386577132799e-02,-4.011209709707980187e-02,6.383759975433349609e-01
6.392442785350740397e-01,6.128571739448209765e-01,4.477469262151700935e-03,2.317647461644134748e-03,2.745930479751302646e-03,-8.021183992803967164e-04,6.220258474349975586e-01
6.342145517715697123e-01,6.265492002837481644e-01,2.253411066095539761e-02,6.323047660051387721e-03,5.267275465503784906e-03,8.294593258573457195e-03,6.082208156585693359e-01
6.132806861347921412e-01,6.083780073692265367e-01,-8.801723625720181410e-03,-5.435996485065703546e-04,4.925083047667204623e-03,-1.016164920619170697e-03,6.197075247764587402e-01
5.557756762513379467e-01,6.391854414704816190e-01,1.764069815284874387e-04,2.041065233324928282e-03,-1.120184269555073771e-03,-1.373246459679121519e-02,6.021396517753601074e-01
6.315250976804814842e-01,6.134464175910164796e-01,-1.564709357581561822e-02,5.434263336446221518e-03,-8.471693673609777958e-03,4.166097663857751439e-03,6.386036872863769531e-01
5.918732518979140655e-01,5.972198807970973133e-01,1.629922885277851341e-02,5.755084969757773977e-02,2.442414534865476258e-02,-3.904051618709223487e-02,5.921906828880310059e-01
5.973311509733626457e-01,5.954969683366214683e-01,-8.007744074138178902e-03,1.421765928963282521e-02,1.134237687184602890e-02,-1.216589189059093939e-02,6.056109666824340820e-01
3.347935147019365232e-01,7.745092388166650021e-01,3.681722091586431267e-02,-1.440688462648785032e-03,5.091913513294384422e-03,2.445050301949977870e-03,6.428581476211547852e-01
4.105315816102653170e-01,7.123878680558711762e-01,4.067316460575354231e-02,5.273860613018563001e-03,-1.139940845382687558e-03,-4.983926741544981304e-03,5.828536748886108398e-01
3.599459355678095718e-01,7.463308778619739403e-01,1.544401427851743724e-02,2.678125809440804611e-02,1.467219601038848541e-02,-2.721464725211646812e-02,6.372634172439575195e-01
4.274430159300138254e-01,7.015364264959977891e-01,4.174678107569718133e-02,-1.696855623129576995e-02,-3.635906240769149790e-03,-4.191305144685516376e-03,5.749449729919433594e-01
4.268326784508491567e-01,7.184794150795641432e-01,3.293608177932988434e-02,1.033624456302202101e-02,1.524319104523120041e-02,-4.031906934564054648e-03,5.967891812324523926e-01
5.971138890830942625e-01,5.255510258658505629e-01,3.340594821249276425e-02,1.934051142355573336e-02,-1.949082993709643852e-03,6.344207455052262509e-04,5.326181650161743164e-01
5.844992321779634015e-01,6.206998567962086488e-01,1.424206943076322673e-03,2.235137205049922242e-03,6.745345198784618570e-04,-1.553383710294625047e-02,6.026067733764648438e-01
4.893630321758727919e-01,6.836479175315839374e-01,1.145461732953628742e-02,1.596572672645908252e-03,2.926039878799946078e-02,6.693024975620420064e-03,6.014183163642883301e-01
4.335448683733080233e-01,7.040115135508748789e-01,1.943338014961287774e-02,1.333369658547075079e-02,2.068085556807166062e-02,-6.311559314934525079e-03,5.988153815269470215e-01
4.440333197711484048e-01,7.016818163514522144e-01,3.367467836662502156e-02,9.033258392105033077e-03,1.350200987366592491e-02,-3.719731061331579998e-03,5.842418074607849121e-01
5.792584866092214124e-01,6.232689829392621395e-01,1.143908386485981143e-03,3.780451083148853465e-03,-2.508081580723091905e-04,1.170245865617479224e-02,6.017062664031982422e-01
4.123097366074398029e-01,7.033601377447588066e-01,3.725470598184582594e-02,7.449407748127187708e-03,2.147476663294772131e-03,-4.284104847560146583e-03,5.785947442054748535e-01
3.386662675380730514e-01,7.480462707313878523e-01,1.748983993975244955e-02,-4.664663442417065625e-02,-1.190009499346865798e-02,7.272892752793636874e-03,6.397974491119384766e-01
6.049909767948675743e-01,6.325299375899184895e-01,9.760806847550207443e-04,-2.630711687798321756e-03,-7.093092040050742730e-03,-3.585907248894429529e-03,6.184145808219909668e-01
6.024300622825400353e-01,6.564332268542492077e-01,-4.529800483478452211e-03,1.560688329125151964e-02,-6.374159698416048854e-03,3.292141392602762531e-03,6.363800168037414551e-01
5.496675132031070277e-01,6.714671156105627148e-01,-7.953561216949012191e-04,1.527712505279726733e-02,-1.799342567727238440e-02,4.225790911966851963e-03,6.217842698097229004e-01
5.217268980699343306e-01,5.756217912302540318e-01,2.372839137179288960e-02,-6.968588545221439390e-02,-1.584216862493132219e-02,-1.331616637764763099e-02,5.418486595153808594e-01
6.118894245405548382e-01,6.004473019773294284e-01,-5.466801768435614051e-03,-1.737679407384832252e-03,8.249571442162496535e-03,2.574604022045171546e-03,6.119059324264526367e-01
5.395569611896249285e-01,6.828748095559221687e-01,3.336075726433518351e-03,-5.123846018029788209e-03,-1.630369323515396679e-02,-1.714627446950358052e-03,6.211343407630920410e-01
6.024470040054662467e-01,6.344633590251886890e-01,-7.926162652270141162e-03,7.780728272990988098e-03,-7.028309192149769132e-03,6.577322209714419471e-03,6.273611187934875488e-01
5.578021910687653850e-01,7.241524846514237890e-01,2.538580617488273017e-02,-6.413950874078802253e-03,-3.776457029977352275e-02,-1.210610241933175041e-02,6.360415220260620117e-01
5.503181954696294564e-01,5.946809993230447455e-01,2.990562899578846912e-02,8.079332412393007423e-02,9.104216759741389636e-03,-2.103911305010468247e-02,5.630661845207214355e-01
6.077393813836832193e-01,6.138636645971300432e-01,6.774912301880042786e-03,1.187140888691456085e-02,1.358290370787702643e-02,-1.030636153358555421e-02,6.051208376884460449e-01
6.092923732290367322e-01,6.110726036257686511e-01,-1.195530571084235660e-03,1.692566076386278068e-02,2.937245835337812597e-02,-3.340394815481585039e-02,6.169121265411376953e-01
6.293850134749479075e-01,6.460966894194305477e-01,2.635837622440556638e-02,6.896769088153424307e-03,2.193815321473184879e-02,-1.375849292123550996e-03,6.128541827201843262e-01
5.801869441997673515e-01,5.912557383990277859e-01,1.967837437234576381e-02,-5.047584002045125279e-03,-1.397744782566918411e-03,-6.039887094776262436e-04,5.661977529525756836e-01
6.361257881253026270e-01,6.101248569501334096e-01,2.758367874741596282e-03,2.460563254841386521e-02,1.988599690788540875e-02,-1.651242544432551806e-02,6.238452196121215820e-01
9.258687499477797900e-01,5.805051235742701987e-01,1.005158179154229670e-01,-1.170862853953490296e-01,-6.503237499688563350e-02,-1.668528473246133903e-01,8.079427480697631836e-01
6.328658282877361874e-01,5.733377191930517647e-01,-9.220940654392273395e-03,8.642819428492772016e-02,4.659186810846367016e-02,-4.581261957181498312e-02,6.425068974494934082e-01
5.677531234008289518e-01,6.019810253758750562e-01,1.798233781076058468e-02,-4.644966149510254376e-03,2.683001422119968607e-04,1.275502017842970563e-02,5.681461095809936523e-01
6.229671301467216704e-01,6.295013139596292717e-01,1.201828789254602015e-01,-8.654618903311265730e-05,-4.560856845565651636e-03,-3.206358067846097962e-03,5.061751008033752441e-01
5.592975652078568949e-01,6.473695931087244393e-01,8.244884595366430702e-04,-4.363240634553121854e-03,3.372351235067036902e-04,-5.760932269296432234e-03,6.074469089508056641e-01
4.670594562862278032e-01,6.742355905496568713e-01,1.334830017614113684e-02,-8.103511325804110127e-03,2.116048912274990073e-03,7.914900941757033138e-04,5.856502652168273926e-01
6.429344491322060984e-01,6.325430264646231260e-01,1.293237645188601292e-01,-4.215232552930829341e-04,-1.183279884246067094e-02,2.702662960480131833e-03,5.089295506477355957e-01
6.252884228116716292e-01,6.197983515345719674e-01,1.064324871427321240e-01,1.175500816395604877e-03,1.037480721050762673e-02,-2.062242856840711819e-03,5.164619088172912598e-01
6.209988559062760149e-01,5.075848746828766078e-01,3.330531142668458067e-02,-1.653515783641489739e-02,-5.385183390202752905e-03,-1.930188748101216214e-05,5.408335924148559570e-01
6.234363077037508027e-01,6.285403222728583872e-01,1.022001812380640140e-01,6.993732092592459641e-03,-5.225583938580318291e-03,1.139707235281120674e-02,5.243966579437255859e-01
6.315535413680033461e-01,6.333754680720309338e-01,1.183127873304672950e-01,8.141018358283458973e-04,6.362475228073712075e-03,5.669240364068076771e-03,5.143678784370422363e-01
6.124352904870558056e-01,6.242352734796445812e-01,8.300864747729341797e-03,-7.808851835930698260e-03,5.311367519477291042e-03,1.266782165233224303e-02,6.107335090637207031e-01
5.217245996206539838e-01,6.566816722182206023e-01,1.881150992691132950e-02,-8.883193416882083707e-03,1.471179774559376358e-04,1.274442247377731950e-02,5.828642249107360840e-01
9.831660595676429137e-01,2.535055830848466640e-01,-3.381166531956714127e-02,-1.234754176517345314e-01,-8.077331752321463901e-03,3.896932497538683343e-02,9.354622960090637207e-01
6.082222204073761684e-01,6.509068170210609017e-01,9.750425208770729935e-03,-6.461754878945741298e-02,5.127931035710042718e-02,2.885571729714157124e-02,6.391000747680664062e-01
5.499362198144298608e-01,6.582166527736683648e-01,9.227640974346140723e-03,-2.677349855258690653e-02,1.859907717331547861e-02,1.452314369054457516e-02,6.053590774536132812e-01
6.298903569648686140e-01,6.189087191738115168e-01,-7.266839783977685485e-03,1.365357264795077344e-03,7.098047673327304193e-04,-7.372294109365359373e-03,6.318726539611816406e-01
5.283478504763067241e-01,6.194666886351820612e-01,3.258351970632050731e-02,1.358367764780366721e-02,1.953654689031928283e-03,-5.436710584257539031e-03,5.476422905921936035e-01
5.358038839234253725e-01,6.849244995867682650e-01,1.298936013066465112e-03,-1.426547533553287027e-02,1.927170995108686002e-02,4.514344550916320371e-03,6.240385174751281738e-01
4.321507244409965587e-01,6.870674419733827643e-01,2.079361188350387080e-02,-6.653288994255243671e-02,1.763143675097595189e-02,1.894695605756189019e-02,5.952717661857604980e-01
4.837894108700857565e-01,6.878962091555100855e-01,1.642164175262472714e-02,8.878514353320489947e-04,2.192910604555873416e-03,5.044550929835101271e-05,5.962398648262023926e-01
6.098170684713964951e-01,6.755528013119262987e-01,-2.698426899516881416e-03,-1.355580687118467485e-02,2.275139427343758625e-02,9.628345682739410105e-03,6.497251987457275391e-01
4.210788493871561733e-01,6.969745880962828766e-01,3.651070112515303334e-02,8.542871428121238606e-03,2.211127736289383427e-03,-8.112047373629625120e-04,5.747585892677307129e-01
6.920970860401103320e-01,4.798130499072131849e-01,2.923378090051076406e-02,1.176166393747262728e-01,7.099360837204238273e-02,-4.827686839894181070e-02,6.382399797439575195e-01
5.520532236698620920e-01,6.501358867833773036e-01,-8.294168800871137837e-03,-1.259169277580766966e-02,3.399510015565183202e-02,1.419001654410069133e-02,6.189640760421752930e-01
4.997227435702178977e-01,7.244615287866658093e-01,6.550662884043489953e-03,-4.348971920702458804e-02,5.507430663887610822e-02,1.823585459684221033e-02,6.483304500579833984e-01
6.144745662184205592e-01,6.166526690969520441e-01,2.226391372893227194e-02,-6.775663857539408752e-02,-1.658800851577185015e-02,-3.502491746273393713e-02,6.085118651390075684e-01
2.138052784407802331e-01,7.766158801002864820e-01,4.145189237175328500e-03,-8.549637493752011708e-02,-3.273269238285599070e-02,-1.455278949838320970e-02,7.102749943733215332e-01
6.236463033945354173e-01,6.148452593777661290e-01,-1.376340129226127917e-02,-3.323711480671745488e-04,2.515988965576832718e-03,1.462733068537003407e-04,6.330703496932983398e-01
6.023208941804268912e-01,5.896715730565043057e-01,3.493605055604531717e-03,-8.466943984374451955e-04,7.476666943462760041e-03,-9.907239844890564605e-04,5.927496552467346191e-01
5.544245509276655159e-01,5.937811289635381851e-01,3.056675391990298918e-02,7.639355435483104022e-03,9.579531646720734978e-04,-3.018263026091783444e-03,5.447919964790344238e-01
6.020216166354910303e-01,6.391039248097769576e-01,6.700939976999831238e-03,-8.439383675554197606e-02,-6.227142348438940295e-02,-2.912446528122316844e-02,6.429638862609863281e-01
5.034690818968560189e-01,6.518359341807555829e-01,9.955859643419884275e-03,-9.428270568921943984e-02,-6.642183726590135395e-02,-1.970647405855283779e-02,6.163256764411926270e-01
5.722206860919074600e-01,6.020104274032183067e-01,2.099728425305408264e-02,6.006699306362982618e-03,8.239937443791817443e-04,-7.089964048741269516e-03,5.669361352920532227e-01
5.974043281397184435e-01,6.280911226828413962e-01,-3.987380093411485582e-03,-3.724191316257102063e-03,-1.631516165379582120e-02,-1.110991340385276797e-02,6.182870864868164062e-01
5.895251096851326089e-01,6.271084734458078902e-01,-1.059748765320506214e-02,-7.296195019944982409e-03,-6.263286795805223656e-03,-7.892750789961157712e-03,6.201439499855041504e-01
6.238528154839377837e-01,6.108846839515101879e-01,-1.301210222656257187e-02,1.292005166924264275e-03,5.711830457057968935e-03,-3.663930859045105588e-03,6.305944323539733887e-01
5.836210582543396308e-01,5.831719443472370701e-01,1.516745980711131647e-02,-7.358619422725549974e-02,-2.321633944535532804e-02,-2.521219091060186365e-02,5.853658318519592285e-01
6.099560476429378708e-01,6.154629917823651875e-01,-5.783848255443535535e-03,4.090489950652673873e-03,5.723686941631093809e-03,-5.336030969863057340e-03,6.187008023262023926e-01
6.158912152607147750e-01,6.218062420332661766e-01,-1.264934283189689257e-02,3.764570499014205786e-04,-5.689136313950475012e-03,-6.563548602596520204e-03,6.316983699798583984e-01
6.043863342814136397e-01,6.416083651438693192e-01,5.423815584298274928e-03,-2.271986627198360406e-02,-2.505195459279386389e-02,-6.516553538921429634e-03,6.212849020957946777e-01
5.759134978092097512e-01,6.341250800495447093e-01,-3.732728937274387704e-03,-1.586845257666157430e-02,-1.338977613517400300e-02,-1.764353460666132425e-02,6.126561760902404785e-01
6.018580056260864897e-01,6.625324234198459727e-01,-2.762933962095204254e-03,-1.784104121542283081e-02,-3.737988708023676915e-02,-2.652492857328477005e-02,6.427987813949584961e-01
6.106338482591170402e-01,6.089491422753474659e-01,-1.243772844849716508e-02,-3.737573075775919504e-03,-5.110902649497860509e-03,-6.431637181170776763e-03,6.224272847175598145e-01
5.896982127012071473e-01,6.150246896011858366e-01,-6.076789131390480936e-03,-2.410054597655444247e-03,-1.410186363817027798e-02,-1.250566443843962976e-02,6.097223758697509766e-01
6.106113438105424951e-01,6.279423192585368296e-01,-2.619459384740729924e-03,-8.764058669333260609e-03,-1.715153885962716548e-02,-1.027196074649971980e-02,6.232252717018127441e-01
6.885435583974827134e-01,7.091110631372082862e-01,9.165587476249525967e-02,-4.252922999614395377e-02,-1.274088623757856087e-02,-3.044793774470588507e-02,6.145476698875427246e-01
6.640847646072887134e-01,6.641325938760389569e-01,1.145455644311869636e-01,-1.254816363581871472e-02,-2.707910809896278692e-02,1.968405709588560634e-02,5.530408620834350586e-01
5.111143769597841224e-01,7.171566484834566158e-01,1.026314801168186075e-01,-3.305436041470604519e-02,-8.947105184435659442e-02,-2.879300917235974588e-02,5.685565471649169922e-01
7.170308205273073776e-01,7.354965891717255566e-01,8.445658504218761520e-02,2.047192590892011818e-02,-4.099691363405275762e-02,-3.662660086843246010e-02,6.499970555305480957e-01
6.354721003668648560e-01,6.837929020938694480e-01,1.122942704528936408e-01,-2.707992682600145196e-02,-6.111929576065628679e-03,-2.495243992046668885e-02,5.527297854423522949e-01
6.690721720086654223e-01,7.009799984056070965e-01,1.215158533687710762e-01,6.220199738220191614e-03,-1.510323065274766716e-02,-1.381472045982816768e-02,5.654027462005615234e-01
6.141607148515810799e-01,5.238084651235270783e-01,2.562456413047720094e-02,-6.175589346741180291e-02,2.943681165753753853e-02,1.757751182162151440e-02,5.624327659606933594e-01
6.263819775512333710e-01,5.202205669200790084e-01,2.511270804177578864e-02,-1.509115278114383785e-01,1.406532703725311105e-02,4.519861283532933954e-02,6.196842193603515625e-01
6.185949659850746851e-01,4.387183208313714111e-01,1.846873643185265035e-02,-1.192832986665159356e-01,2.171808595489385998e-02,2.447410095523442145e-02,5.748529434204101562e-01
3.880268738063378797e-01,7.161448062024124983e-01,2.341710305761746103e-02,9.413760170396212948e-03,3.354745298557291339e-02,4.976732231355481852e-03,6.032852530479431152e-01
2.026268216882272655e-01,8.644781412556764577e-01,-8.105936800360541428e-02,-4.833089765453794234e-02,8.046030982805552068e-02,-2.275916759651629845e-02,8.568933606147766113e-01
5.087537795431807952e-01,6.238454726948551299e-01,3.411848012590190660e-02,-1.536747043087673820e-02,9.641701291668709718e-04,-5.456833178204682257e-03,5.421733260154724121e-01
1.940195027635513436e-01,9.918422374274350473e-01,4.442909649235438074e-04,9.787000036605613199e-03,5.179547502333679831e-02,2.543866310486816301e-02,9.158101677894592285e-01
1.928690628387837169e-01,7.881604227433027798e-01,-3.441702632194898470e-03,-1.342014251434200944e-01,6.648027069741622996e-02,2.058655437445205266e-02,7.604815363883972168e-01
3.127549757169378886e-01,7.859432903583949415e-01,7.527721758679328801e-03,-1.304115755004841073e-02,5.214972991212816350e-02,7.642303558714403332e-03,6.858170628547668457e-01
5.139049602756929902e-01,6.198504940826328191e-01,3.305916123653501737e-02,-1.511866622115585340e-02,1.453046583967244291e-03,4.173687837007777034e-03,5.423328280448913574e-01
5.548720597788314723e-01,5.955727054364815531e-01,3.148150325069182243e-02,-8.968066227008636079e-03,-1.132189259536624639e-03,-3.772491243030526471e-03,5.451461672782897949e-01
5.172799322641058462e-01,7.543436866566358701e-01,2.140499847404614409e-02,9.018845719410207781e-03,8.959615685307904809e-02,2.908085627278121643e-02,6.682130694389343262e-01
5.174197591348194125e-01,5.857085782256730155e-01,3.198087860699538876e-02,-9.670119003796032175e-02,-1.868839852574126926e-03,-2.357201644593445375e-02,5.506315231323242188e-01
4.123550734002877638e-01,7.745877468743420646e-01,4.266007010446770664e-03,-9.691864732577917807e-02,9.746346303532664457e-02,2.766548079842302832e-02,7.103137373924255371e-01
4.010723275567120716e-01,7.620531162876866826e-01,1.173480875336196938e-02,-1.166591122239293704e-01,6.031711951297236834e-02,1.252264578710019817e-02,6.889464259147644043e-01
5.711178732812577374e-01,5.947465336264898816e-01,1.896044611276642700e-02,-6.945423278654399950e-03,-6.727246581377255025e-04,-1.226635162222691582e-02,5.648719668388366699e-01
4.743255162801336411e-01,6.609319793442429702e-01,3.414860324735075059e-02,-1.467015073879877375e-02,7.736855984882526393e-04,4.859338645806105146e-03,5.580643415451049805e-01
8.614895719217243730e-01,4.526205717584105281e-01,3.381098231656609610e-02,-2.053047972153230483e-01,-1.770761877700673809e-02,9.479390701821328868e-02,8.174118399620056152e-01
7.776628354823369449e-01,3.464219928102285073e-01,6.003053196349694698e-03,-1.065496637153452025e-01,2.583078252987145579e-02,5.136747195313295933e-02,7.018777132034301758e-01
6.224360094718244252e-01,5.778480157443894871e-01,7.124363027505298263e-05,-4.591848472888241522e-03,1.406012889976975509e-02,1.490169173921398452e-04,6.018574237823486328e-01
8.446544437585999932e-01,3.145313761280966736e-01,-1.082814100963275239e-01,-3.040177935851159363e-01,-7.733498042741406009e-03,-3.417179170355270218e-02,9.822967648506164551e-01
6.887613116054800422e-01,4.606261754132096597e-01,2.923509334393525894e-02,-9.615766792737609481e-02,-2.958185507053063493e-03,6.882070926692030084e-03,6.037107110023498535e-01
5.406475755591384491e-01,6.419859445806757048e-01,8.190834829608972800e-03,-3.564700260284536792e-02,-3.200925747872215149e-02,-2.949075238821684958e-02,5.976896882057189941e-01
6.742472237732428653e-01,4.479830115538812052e-01,1.632150625648554065e-02,-2.030997212808938468e-01,8.333991728938686117e-03,4.231669600632440020e-02,6.815611720085144043e-01
7.480457950545507106e-01,4.754202921605212295e-01,2.503712533224455861e-04,-5.872807998401546187e-02,4.283844372829700292e-02,7.752103302721258249e-02,6.808343529701232910e-01
7.344728088862326754e-01,4.592254359310421474e-01,4.013422364276819643e-04,-1.446954863236447897e-02,-9.671665337858850568e-04,5.454558457449593806e-02,6.497132778167724609e-01
9.813011530720434639e-01,2.637568187421104327e-01,-6.119557607713321801e-04,-1.275705492934426921e-01,-1.543123791762128494e-02,6.673863875764719789e-02,9.150717258453369141e-01
4.752137107344552858e-01,6.875418897393664741e-01,1.329270335921417523e-02,6.149714128960967474e-03,5.393497611917887069e-02,-9.837874214504807938e-03,6.047014594078063965e-01
6.151990558540623155e-01,6.514985005600018031e-01,2.612549750446330199e-02,4.160495421353589338e-03,-5.619999524819638791e-03,-8.424203298075005550e-03,6.083320975303649902e-01
4.047442649910066303e-01,7.009608381786840425e-01,3.296186540087819861e-02,-4.948502722599328919e-03,1.848889455307222525e-03,3.590236699597027133e-03,5.798421502113342285e-01
5.625762258686046735e-01,6.561817635473758958e-01,-7.550821076774905105e-03,-6.437704792996365444e-03,3.555314915793075098e-02,-6.668021915453198160e-03,6.254787445068359375e-01
6.089377208612422043e-01,6.347336890028573153e-01,-3.669958240122395132e-03,-1.946879212672147138e-03,5.226576541602085367e-03,8.018926465608811061e-03,6.261330842971801758e-01
2.397920836751880336e-01,7.325598504696946289e-01,-9.577753735935806700e-02,3.349860745812011653e-01,-3.897070902659617586e-02,4.699382574162802584e-02,9.319942593574523926e-01
6.282108877322819529e-01,6.312079400619451386e-01,5.539511071898084449e-02,-2.232317985652256583e-03,1.035123701012208818e-02,-8.854217747352677303e-03,5.748175978660583496e-01
6.113619777052963222e-01,6.268636214543763518e-01,-6.211404604835712995e-03,-1.393457410675156931e-02,2.194448101764075176e-02,1.424051280940717180e-02,6.275716423988342285e-01
4.287156739023627594e-01,6.904595845894518913e-01,3.866757153536892755e-02,9.791026828762178225e-03,-1.154872923306250179e-03,1.478364967383791152e-03,5.683645606040954590e-01
5.615708057995854041e-01,6.865655964844871173e-01,1.924760743739206692e-03,1.399333136682019869e-02,2.672930524090478405e-02,2.964796789910933983e-03,6.336697936058044434e-01
5.937464349983863077e-01,6.376168513485631628e-01,-9.952914072657303990e-04,3.574748595905784775e-03,7.119211829401804470e-03,-4.194863539294214710e-04,6.180006861686706543e-01
5.002878509937238594e-01,6.611799010488093042e-01,2.135639096258240555e-02,1.298812404997671567e-02,-5.130765620912009547e-04,1.723812402376369637e-02,5.776817202568054199e-01
5.884363962748156984e-01,6.314276477147133804e-01,2.285563306882287815e-03,-1.095405010850334336e-02,5.724577577326786862e-03,1.516697670401487101e-04,6.091623306274414062e-01
5.447512082898247066e-01,6.500661087548533779e-01,5.544392804226971894e-03,-6.672817998401144035e-02,4.127625759060010724e-02,1.499581703665548403e-02,6.146262884140014648e-01
6.285479098921280539e-01,6.520522004984610209e-01,3.027354780415369984e-02,-3.978856906025884758e-03,-1.010861641883174431e-04,-1.092365820427646655e-02,6.106981039047241211e-01
4.991852378831119763e-01,6.215395864780384194e-01,3.179649040892867928e-02,1.330585375419159402e-02,4.802999482712631114e-04,4.683500987934982249e-03,5.396364331245422363e-01
5.775495306494278225e-01,5.752539198914026208e-01,2.591702051789640526e-02,1.837533408185890171e-02,4.889521343247433920e-03,-4.397095053132006777e-03,5.515251755714416504e-01
6.694636976206471690e-01,6.870607848053882361e-01,3.190738779626522970e-02,2.918662809599470997e-01,4.929302048593921931e-02,-7.353342916816835162e-02,8.349105119705200195e-01
5.782077860789388568e-01,5.790444014945861362e-01,1.887294023678232069e-02,-3.305338318948480261e-04,-1.461482325865823099e-03,7.899821082044861153e-04,5.597612857818603516e-01
6.080081757252617791e-01,5.865509811822388064e-01,6.926998113429005954e-04,3.069277557181867080e-02,2.503201059404669068e-02,-1.949592518055213303e-02,6.017536520957946777e-01
6.257621897638537822e-01,6.260799857807484159e-01,2.215307637271085595e-02,-3.574734369837353001e-03,3.780023769946018811e-03,-6.104463091263082238e-03,6.039278507232666016e-01
6.108120903571886418e-01,6.570129092177177110e-01,7.227368584877047475e-03,-1.011669685676102465e-03,2.916927038746132753e-02,-2.199518860831048504e-03,6.300041675567626953e-01
5.805084008006061724e-01,5.795640880540435802e-01,1.888532860115033074e-02,3.811364187984531398e-03,-5.273186824718259849e-03,1.848608711101118159e-03,5.612738132476806641e-01
5.703074957915273968e-01,5.749687085551768995e-01,2.954869139792215549e-02,2.557798883572056248e-03,-1.002989829192132845e-03,-2.532772795065471876e-04,5.431254506111145020e-01
6.304174290030452044e-01,6.232357697128396712e-01,3.780560194158844034e-03,-1.533055820108481307e-03,8.360119825824392434e-03,-1.237388009680170063e-02,6.236193776130676270e-01
6.302108486990256608e-01,6.184084771190787588e-01,-6.213548562942095010e-03,-8.122474549879608180e-04,7.213179040353868803e-04,-1.425318369611474636e-04,6.306089162826538086e-01
5.704753356513332374e-01,6.373177540344203695e-01,6.164419941591114949e-04,2.195632876366987798e-02,7.273262109968472652e-03,-2.922334943905098570e-03,6.073947548866271973e-01
6.225373394071507249e-01,6.274450517666430027e-01,-5.437404788043997961e-04,-3.914469057898261987e-03,6.353884997848788588e-03,-3.650267287624798119e-03,6.257148385047912598e-01
4.918808133486287648e-01,6.269152328486755632e-01,1.712838301957658738e-02,-3.413166952165339052e-02,-1.627031996834231789e-02,-1.555718019280165863e-02,5.592380762100219727e-01
6.340888374575506248e-01,6.102028720487293612e-01,2.098295435659924824e-02,7.872202596739494643e-03,1.844230097528927470e-02,-2.004067504972155411e-02,6.035195589065551758e-01
5.637486541086256242e-01,6.508103302199311768e-01,-4.285302604933094450e-03,3.503518517710136476e-02,2.238118476945073765e-02,-2.359230377996025460e-02,6.217324733734130859e-01
5.711510112029656305e-01,5.911118261711559851e-01,1.900917644886113145e-02,3.134254867637515599e-03,-2.137775181800259921e-03,7.747207614270431274e-03,5.625864267349243164e-01
5.668783746732316553e-01,6.447002088310039847e-01,1.545422740693136454e-03,1.937404519978341844e-02,-2.657557132361172345e-02,2.388176762741039613e-02,6.120528578758239746e-01
6.167648544259481946e-01,5.939587774190611125e-01,-1.039440372239730515e-02,8.672754511943138456e-03,1.208077126715718756e-02,-1.070886382466975512e-02,6.168900728225708008e-01
7.027412700220138086e-01,5.765221350749369922e-01,-2.968774564642895353e-03,2.992941219743776304e-02,4.470704364824980000e-05,-3.164913838182156769e-02,6.561830043792724609e-01
6.208865734539851244e-01,6.182766559563223074e-01,-1.460860409718051089e-02,-1.510887293629215814e-03,-1.970913430181364407e-03,2.928872810571272762e-03,6.342291235923767090e-01
5.597029882508912646e-01,5.974843196078152285e-01,1.049789739609657824e-02,1.471971763943087097e-01,3.479560512312466353e-02,-3.616114356054725421e-02,6.295708417892456055e-01
6.137776285011911082e-01,6.293941891359822183e-01,-7.047909209668579145e-03,1.212412004249958843e-03,1.348374300055724465e-02,-1.234968378485504399e-02,6.295798420906066895e-01
5.707106853188574913e-01,5.748541855680943113e-01,3.105287136362377964e-02,-4.095407289682041069e-03,-6.922042623895855113e-04,-1.924594249533640236e-03,5.417994856834411621e-01
6.028554780184192108e-01,5.637980965847178005e-01,2.387612673786859707e-02,3.126450796857654230e-02,1.194803033426356485e-02,-1.289909616546387749e-02,5.639051198959350586e-01
6.055366489536655461e-01,6.284247204893309569e-01,-1.652075191019408695e-02,4.287557423323573591e-02,2.617542912490750801e-02,-2.182757245565384793e-02,6.408718228340148926e-01
5.661139627581791567e-01,6.134745009178577124e-01,-8.543831960705072781e-03,3.242755047002812002e-02,2.337547494690499911e-02,-1.850820637585523509e-02,6.045761108398437500e-01
7.260400084937128629e-01,5.406913126951110593e-01,-2.835095234646506368e-02,-6.566234727933364934e-02,-1.165562948360828084e-02,-4.766926937777712231e-02,6.955528259277343750e-01
6.803207510736577479e-01,6.114662125206984378e-01,-1.961989573009897958e-02,-6.509917489246500044e-02,-1.281596606044420675e-02,-6.131815292580532900e-02,6.862579584121704102e-01
6.455735759624785519e-01,6.137485765988782704e-01,2.007521062175382509e-02,-4.046138806050359610e-02,-2.821490185953276150e-02,-1.346469287850171961e-02,6.166020035743713379e-01
6.268710463533428978e-01,6.244930460103134129e-01,7.003100730549827180e-03,3.581632844985142578e-03,-1.893915255876022115e-03,-1.544289840847150926e-03,6.187279224395751953e-01
6.296790228901798514e-01,6.114682274950253849e-01,1.961611725303902265e-03,-1.492845763035113155e-02,-1.334583132846373262e-02,-1.305412849271633292e-02,6.201965212821960449e-01
5.559511943495718533e-01,6.012003953304043691e-01,5.396449889174370629e-03,-3.511009551414433910e-02,-1.153662161839311313e-02,-1.175865250018616644e-02,5.784310102462768555e-01
6.462456532840938905e-01,6.238079948847354839e-01,3.485353892673448417e-02,-1.992309190197097402e-02,-5.821463288258633788e-03,6.042620750755942939e-03,6.016539931297302246e-01
6.254670588572242007e-01,6.280978142473201409e-01,9.189102825697509358e-02,-1.582929197334375249e-03,9.913389564474401564e-04,-5.682458675581317925e-03,5.349965691566467285e-01
5.800557639958123790e-01,6.216627130716034788e-01,1.697878899103888450e-03,-4.504094848956957838e-03,-1.988439744278838045e-03,-1.335100390080506960e-02,6.007496714591979980e-01
6.081589142288781336e-01,6.134212059246010318e-01,-7.645448557383305310e-03,-2.022676839186921070e-03,-1.150735409817925207e-03,-1.177496549698711588e-04,6.184654831886291504e-01
6.306369097515018840e-01,6.106289052199308509e-01,-9.013475826316341699e-03,5.335668023838228274e-03,1.532456076402183374e-03,-9.972968873062863782e-03,6.301949024200439453e-01
6.159053901761057936e-01,6.231507284838114780e-01,-1.375626199811191830e-02,3.209276774572644795e-04,-5.134531897337508239e-04,-2.599037922592376416e-03,6.333322525024414062e-01
4.768786248679226514e-01,6.312767297966203062e-01,3.812554936842310616e-02,-3.187237097125566326e-02,-5.543184381656568807e-03,-7.692770524018341556e-03,5.360997319221496582e-01
6.751512466157123527e-01,5.397625980054332473e-01,-1.883664676286550543e-02,-4.751845928741418174e-02,-6.909674311244527745e-03,-4.380722283994036709e-02,6.470437645912170410e-01
6.475362953279028000e-01,5.281782563903434369e-01,3.792975277403576317e-03,-4.125490106846192023e-02,-2.955320764130546854e-02,-6.345662471176471975e-02,6.096082329750061035e-01
5.656843915939893108e-01,5.919649310312099511e-01,1.030121251292109852e-02,-1.065453421904837134e-01,5.073249153349114471e-02,2.896285853338184321e-02,6.066551804542541504e-01
7.274020395129632277e-01,3.231934194982118425e-01,3.162325813421512644e-02,9.863980679925542575e-03,2.103785346854033719e-03,7.927787137615372598e-03,6.055961251258850098e-01
6.152859993786005122e-01,6.918254190208024124e-01,4.569198737614726946e-02,-8.274995063899433234e-02,3.852464396324330187e-02,1.900482344693484689e-03,6.315836906433105469e-01
6.459871633865823526e-01,6.539064929793485526e-01,4.762395982568917718e-02,4.541219606258154774e-03,7.077631905457533630e-03,9.516999684246492744e-03,6.027634143829345703e-01
6.422634652541953093e-01,6.397609732940419125e-01,2.950007126380960187e-02,-2.640241090854032399e-03,1.355846861651332277e-03,-4.326039814925327145e-03,6.115834712982177734e-01
5.216090100844997801e-01,6.062599993397556064e-01,7.675070333304945258e-03,-1.042370326277212156e-01,4.693573749605863682e-02,3.251951022602107833e-02,5.976423621177673340e-01
6.735695286716063546e-01,5.604323644515449843e-01,1.085702502289148663e-02,1.837964761164491423e-02,-2.222357592867635345e-02,2.958317431421707625e-02,6.181675195693969727e-01
6.537254731581365608e-01,5.132297673887131761e-01,8.185622242559476014e-03,1.748132032363174451e-02,-1.699081169564626084e-02,1.703260700314881970e-02,5.902697443962097168e-01
6.700847904732692983e-01,5.123149310963760472e-01,1.672527114691735317e-02,1.754595218644556739e-02,-4.830078341173102592e-03,1.578184988726719779e-02,5.919715762138366699e-01
6.741323928745048821e-01,4.210808657033954794e-01,2.140009750785581977e-02,4.823829160074812050e-02,-4.835803135541297433e-03,7.632440306827726305e-03,5.763205289840698242e-01
6.384472459679023659e-01,4.984548683651861545e-01,2.562120802867207114e-02,2.732355695234434806e-02,-1.408862605014829690e-02,1.972998066365855979e-02,5.597907304763793945e-01
6.414038729055294707e-01,4.999235217592735703e-01,2.684508064732477051e-02,5.148043794401815920e-02,-5.723591195068088514e-03,2.124432517787434166e-02,5.658216476440429688e-01
6.275518661400607545e-01,6.295456788275275439e-01,2.845661268474786176e-02,3.126018230420132566e-04,-8.088810055808130567e-04,5.741605754877797743e-03,6.001788973808288574e-01
6.578915832584422141e-01,4.704706911896037735e-01,3.206731126028605772e-02,-1.639135411335450321e-02,-3.133872875465130298e-03,2.109447665155962941e-04,5.570688247680664062e-01
4.148201028788741640e-01,6.649817106548224777e-01,3.451232313186908263e-02,3.543365485503516266e-02,2.078060514329758534e-03,-6.971186909432307115e-03,5.534244775772094727e-01
5.137113781107127686e-01,6.495442426030851868e-01,1.951768632030320694e-02,-8.442815127975213108e-03,1.571662916780476550e-03,1.278448903170124190e-02,5.749063491821289062e-01
6.326439670556918138e-01,6.276100756557253524e-01,2.449476057749561120e-02,-6.939513288818235405e-03,-2.090217542957014101e-03,9.161044454807528575e-03,6.059858202934265137e-01
4.851998329295504897e-01,6.711230696544653318e-01,1.400162140808225431e-02,4.210317160659333806e-03,-2.372722622539461673e-03,6.642426672245968359e-05,5.867469310760498047e-01
6.510965433232134281e-01,6.031464059717335235e-01,1.822525181582468345e-02,-9.262018257278377756e-03,-4.148063199429117762e-03,-2.543596646318081050e-03,6.105795502662658691e-01
6.387246138944941976e-01,5.988553720442358896e-01,-6.823138238858938998e-03,-2.488970233800526319e-03,1.732782441038995891e-03,4.609870296806988128e-03,6.266381144523620605e-01
5.658988528995152478e-01,6.401777122339691317e-01,4.761376612791301532e-04,-3.383944379766509313e-03,1.636776020289507647e-03,1.286520312891045216e-02,6.064305901527404785e-01
6.371996069454761713e-01,9.134476057286090578e-01,1.097111959154915550e-01,1.647087093609077568e-01,1.467733815374537010e-01,-7.849490710335610411e-02,8.153361678123474121e-01
6.571166759362632170e-01,6.017565949999477137e-01,-7.994973961364670867e-03,1.072142624120571734e-03,-3.671723735895057674e-04,1.094973104215785781e-02,6.395163536071777344e-01
6.642198489752219048e-01,6.041071836831162223e-01,3.594236787878091199e-02,4.963370519712130904e-03,1.312922114842080164e-02,9.490999659006380679e-03,6.011987924575805664e-01
4.640804318713316334e-01,6.623792392316047994e-01,1.968699056528255831e-02,-9.113306643606379834e-03,-1.842057392612163683e-02,-1.187758151884583599e-02,5.715076327323913574e-01
6.476803876937975435e-01,6.043144975407223063e-01,2.263917511445834307e-04,-1.936280984787114344e-03,8.990761944571773120e-03,1.467263623265585397e-02,6.276140809059143066e-01
6.917374047234075007e-01,5.341355131202292217e-01,1.380215593875327995e-02,9.748156149794108549e-03,-5.930584593036543513e-03,4.095075585965387427e-02,6.188797950744628906e-01
6.744570209114606474e-01,4.567915342303342507e-01,1.408154566343522429e-02,1.907654481887818224e-03,-9.256555072092779307e-03,2.224624359044572418e-03,5.831088423728942871e-01
6.331146450024360828e-01,6.375311300993657948e-01,2.142803498587392275e-02,5.795403024938031427e-04,-6.459319849599981338e-03,3.623456216661832298e-03,6.140416264533996582e-01
5.928182423414671831e-01,5.659841291627389914e-01,1.974858962151665454e-02,6.462906693177948234e-03,7.832018637085071816e-03,-1.789590273212772042e-03,5.604194998741149902e-01
4.406500697398151867e-01,6.815748605898901413e-01,1.854546519882344091e-02,-3.052772973766269479e-02,-1.338701266667466014e-02,-1.288102989218522197e-02,5.845885276794433594e-01
6.564860223490438518e-01,4.060018106560143725e-01,-2.083508373079412390e-03,1.088469673277599054e-01,-2.945319154089391482e-03,2.927331524845983371e-02,6.079759001731872559e-01
6.028821264380719303e-01,5.763059366780035608e-01,2.081660518826744521e-02,4.257902570170290363e-03,-5.934628612716992546e-03,9.648375768804371561e-04,5.693859457969665527e-01
6.488859346252848770e-01,5.106533426457070535e-01,1.096035999868466559e-02,6.003049977071484716e-02,-2.304037130581158138e-02,2.367092517525898332e-02,5.932618975639343262e-01
6.061003983177184473e-01,6.132408142134159190e-01,1.232526810215017754e-03,1.493350763856486109e-02,-6.529395675121838979e-03,8.444839864076517794e-03,6.092996001243591309e-01
6.544545843379374617e-01,5.442607431293393638e-01,-3.856146328280241065e-03,4.827603154955758397e-02,-3.997424813561142182e-02,5.209246891131329160e-02,6.268176436424255371e-01
3.793802954870496569e-01,9.194892003825628768e-01,5.244294264126825311e-02,8.085363194679419385e-02,-8.311472426376209643e-02,7.973254829367028285e-02,7.966149449348449707e-01
6.868319204117823151e-01,5.223195259773690813e-01,-1.185814574751919981e-02,1.277789269211114798e-01,-3.632787082175722992e-02,7.018540828237961049e-02,6.841114163398742676e-01
6.068157169930903372e-01,5.685058117042020021e-01,7.239266015090839446e-03,3.125127833490404933e-02,-1.516238547975147337e-02,1.614907826662611776e-02,5.851426124572753906e-01
6.478448650467552028e-01,5.551978475192556051e-01,-9.583935697315970614e-04,1.660817543199089030e-02,-1.107894852141234031e-02,1.797867486861651209e-02,6.095775961875915527e-01
6.337328665066113143e-01,6.020547287172832718e-01,-8.681227516157297153e-03,3.192153661193311998e-03,-9.040684373820537245e-03,8.677816440311989649e-03,6.275751590728759766e-01
6.407090991258717061e-01,6.041318440892198272e-01,1.401706407046954261e-03,3.010635147183091023e-03,-1.514949601593292353e-03,8.852656034591272968e-03,6.220425367355346680e-01
6.026389162021572599e-01,6.472322956530713878e-01,-1.774283598233783454e-02,9.033329983907024963e-03,-1.795043463870997849e-02,-7.740527121624011077e-04,6.447792053222656250e-01
2.895163711457596767e-01,8.923220354861121084e-01,-8.621432821476693320e-02,2.351314562739047209e-01,6.294269623700499139e-02,-9.406390191929785149e-03,9.534422159194946289e-01
6.026952877087096150e-01,5.759534642581759512e-01,1.455185137033965237e-03,4.623935620957660315e-03,-1.326802258606188910e-02,1.357714076391478312e-03,5.888330340385437012e-01
6.170990097888335857e-01,6.411481129883369601e-01,-4.480476300718350124e-03,-1.188220926646600195e-03,-6.611024894052323561e-03,7.743400800013739392e-03,6.341948509216308594e-01
5.497111260562410617e-01,6.483708386361251019e-01,-2.680863300848768116e-03,1.476861443623802769e-02,-2.681932763506601411e-02,1.330232936187592148e-02,6.105018258094787598e-01
6.070734947685227922e-01,6.399185105008023955e-01,2.258993220291583004e-02,4.832221805134579058e-03,-3.381945837548261564e-03,1.048431396936746118e-03,6.016684174537658691e-01
5.743203955634675895e-01,5.748180035696452972e-01,3.300820243592761383e-02,-1.936044483207328276e-02,-3.555585590107398922e-04,1.105368577026803094e-03,5.426020622253417969e-01
4.840047125828466079e-01,6.535446382654839237e-01,4.026228151648436615e-04,7.527706910329555468e-02,-5.909672257673007773e-02,2.826420629532889334e-02,6.119464039802551270e-01
6.072860409385143488e-01,6.400094941257377101e-01,9.449784001115235643e-03,7.525517993666980959e-03,-5.530246340092335317e-03,5.247380341593939172e-03,6.151313185691833496e-01
6.233712811330723857e-01,6.291360907328753527e-01,-5.432818111921811077e-03,6.976925432945589459e-04,-7.704700901631836123e-03,5.539347174618648555e-03,6.319211721420288086e-01
8.405459830316162062e-01,3.011345508259771209e-01,-9.063108764549127061e-02,-3.201789362598779221e-01,-7.779856306987212484e-04,2.998932845001768543e-02,9.828587770462036133e-01
5.810122976287288576e-01,6.322425509005087374e-01,-8.163897154644939036e-04,1.425349631100205662e-02,-1.784012638299871389e-02,2.006154210438974850e-02,6.113330125808715820e-01
6.098157524009667485e-01,6.246549326607475638e-01,-1.238886220098445179e-02,2.012976525613608281e-03,-4.870046261021275177e-03,6.716745126735007565e-03,6.299289464950561523e-01
5.837484249117301793e-01,6.172007307371973894e-01,7.409802547682087237e-03,2.170892676300389262e-02,-1.364875747818965201e-02,1.156819783925143279e-02,5.957677960395812988e-01
5.519974227186215110e-01,5.955302953656498310e-01,3.153756026037474181e-02,8.084440741931103389e-03,-4.351553142551554303e-04,3.260790119137388279e-03,5.437455773353576660e-01
6.193278667245348812e-01,6.155861290611518433e-01,-3.453273307714721518e-04,8.485076950407002480e-03,-5.762259575038060182e-03,3.830548302493916226e-03,6.181017756462097168e-01
5.936537404192789857e-01,5.517443416887171104e-01,3.522802394618601562e-02,-7.056288245827498952e-03,-5.212761750779128754e-03,-2.130030428173716305e-03,5.389219522476196289e-01
5.941666059605348327e-01,5.902362538997854013e-01,6.226802577861234589e-03,1.160690325386209108e-02,-7.596076414628246884e-03,6.456383951071799875e-03,5.865834951400756836e-01
6.090272958243407864e-01,6.185132780767924610e-01,-1.149729249843817191e-02,4.298213680206495677e-03,-5.357357812106224373e-03,6.315769904960396273e-03,6.255303621292114258e-01
5.301790598711688673e-01,6.542856990942902407e-01,1.712879319662974353e-02,-7.319842953003329045e-03,-2.276533249868077473e-03,-9.193182209973560504e-03,5.854278802871704102e-01
5.908706560756225024e-01,5.517742583125548883e-01,3.123876258900604164e-02,-7.782894211322670570e-03,-2.151473953356741308e-03,-1.264498979702582699e-03,5.413290858268737793e-01
6.115855310045853477e-01,6.169760706141298456e-01,-9.303020032968234432e-03,4.431593911731547195e-03,-8.346891150660335282e-03,7.778940107263680390e-03,6.239615678787231445e-01
6.682130162166032283e-01,5.571350945113708875e-01,-8.760059328517533217e-04,-4.530975622835012318e-03,1.094123213485002476e-03,-8.997657417546654638e-04,6.210998296737670898e-01
6.373308298230309088e-01,6.371021756206372011e-01,1.225497635912959349e-01,-1.318672262699569029e-03,1.057713721950201500e-03,-1.872041720074004920e-02,5.156954526901245117e-01
6.005227367930420224e-01,5.770171882811007125e-01,6.267784099333428838e-03,-2.792810017982647747e-02,-1.544055280718922667e-02,-1.439548955533019939e-02,5.860034227371215820e-01
5.304365947408103965e-01,6.481900761051941906e-01,1.893489359106420578e-02,-9.508373289223463407e-03,-1.528312422895376039e-03,-1.103712016196651581e-02,5.799781680107116699e-01
6.168423521716220881e-01,5.880446020644163330e-01,2.990365556338636654e-03,1.282645893229405684e-02,-1.303618543024645179e-02,8.344338974308735876e-03,6.009811162948608398e-01
5.632555983586898796e-01,6.018768215896073137e-01,7.624556827781125978e-03,-1.201651911205655655e-02,5.278506851191574339e-03,9.986235041941441196e-03,5.766216516494750977e-01
6.090510065046645938e-01,6.170999796099048140e-01,-7.764978671074007632e-03,4.932843176401181763e-04,-1.220763583047226744e-03,-4.762472329814837133e-03,6.209385991096496582e-01
6.465661530967757864e-01,5.283832028721663354e-01,-1.549667916983465954e-03,-1.047002594195035607e-01,2.908930326999170993e-02,2.463822599832301077e-02,6.282286047935485840e-01
5.976211103892219434e-01,5.771387098836280316e-01,1.148137720053155064e-02,-3.464122741859032573e-02,1.973651509707076424e-02,1.855814955436859218e-02,5.811846852302551270e-01
6.394762290505506819e-01,5.713607705850115570e-01,6.944208354204561839e-03,-3.376840213703288796e-02,1.701559283736629041e-02,3.412635780963622217e-02,6.078113317489624023e-01
6.106513149147883013e-01,5.938064863044909547e-01,-9.815215004373434304e-04,-2.735889474078374156e-02,2.154451033454545320e-02,2.838029741565597022e-02,6.083830595016479492e-01
6.503182945058871844e-01,6.364757287580982137e-01,1.839466622224722459e-02,-8.892583723262317136e-03,-4.232156011171593971e-03,-1.272624668164768630e-02,6.257383227348327637e-01
6.169557331081284568e-01,6.234615489423791512e-01,-1.363976585241211126e-02,-1.182022505722171138e-04,3.790667012611925250e-08,-2.115062762270235666e-03,6.338840723037719727e-01
5.983240528177430351e-01,5.893450344802378948e-01,7.962112659430919948e-04,1.273128246293184739e-02,-1.041847247813010996e-02,8.232099099671159881e-03,5.939445495605468750e-01
5.855243904480083028e-01,6.147515979199058567e-01,-5.785704684082904059e-03,1.472313330940289676e-02,-1.788158306713169554e-02,1.266934504770609107e-02,6.081737279891967773e-01
6.163212504705383177e-01,6.298217980278848493e-01,-1.192909390788604584e-02,6.219167039407882827e-04,6.915598429172616080e-04,-1.380216391406703354e-03,6.351147890090942383e-01
6.285556497046920210e-01,6.268435689195377414e-01,3.382373592900839165e-02,-1.477712619834904055e-03,6.685997596626048209e-04,-6.028323516189036321e-03,5.939761400222778320e-01
6.302257167725570097e-01,5.539957857225148441e-01,6.355328138004379124e-03,6.891716446419742306e-03,-1.585877976071534481e-02,1.229648971425300816e-02,5.906084179878234863e-01
6.300137934937761752e-01,6.184885721651579571e-01,-1.279975855829462716e-02,-2.276004139705891695e-03,1.988291685330430530e-03,8.570042396164799471e-04,6.371523737907409668e-01
6.268304834788054336e-01,5.834333577660086867e-01,-6.682302383804683554e-03,8.385450375443283255e-03,-1.053790075729400984e-02,1.113428087902888775e-02,6.137142181396484375e-01
5.923809141012718049e-01,6.253734039508592746e-01,-6.638320338086312056e-03,2.517178083532593119e-02,-1.874626729340200457e-02,1.379325272144043407e-02,6.190327405929565430e-01
5.268974743406742434e-01,6.209783602593561547e-01,2.165534230167931451e-02,-1.073040855894059030e-02,-8.986437328670349514e-03,-1.312768440371073903e-02,5.592487454414367676e-01
6.046142843005622991e-01,6.360650386811916857e-01,-9.494878991328115081e-03,2.572626491778962445e-04,-4.548629214778649940e-03,1.871532068649966107e-03,6.304809451103210449e-01
6.258407082273174105e-01,6.069537337848011083e-01,-6.880435731435874391e-03,3.205913070103615960e-03,-8.467594437602933219e-03,6.994876747733826811e-03,6.238070726394653320e-01
5.689646079218328989e-01,6.095410553333018289e-01,-3.405175551226824471e-03,4.348959417329219951e-02,-3.127944563718102616e-02,3.056830909383514289e-02,6.032336950302124023e-01
6.215000559953640646e-01,6.158228663879453668e-01,-1.133103786481109987e-02,7.259450838026345124e-03,-1.886898626533164980e-02,9.555120750558291146e-03,6.312010884284973145e-01
6.085963657945225869e-01,6.034177119527153188e-01,-9.345198488895145594e-03,-1.342344191284639042e-03,-1.115445677244443533e-03,-5.164282445137516331e-03,6.154410243034362793e-01
5.574119967390855912e-01,6.493265520776736466e-01,8.085487682369385531e-04,-1.319987024771739027e-03,1.108869249442279506e-03,-8.504646442040733265e-03,6.079815626144409180e-01
5.742684428911044581e-01,5.651231645837777595e-01,2.557031569386869485e-02,-2.550381456806795691e-02,8.513014057920266844e-03,7.387251772831815964e-03,5.463219881057739258e-01
5.514113031966294542e-01,5.655889617386992141e-01,2.498072501269460455e-02,-7.643705017794534540e-02,9.643914206035610406e-03,2.291750453308158061e-02,5.515217185020446777e-01
6.206374518535500151e-01,6.200275611721149938e-01,-1.115541324685714875e-02,-1.164494342771922250e-03,-2.815572991958992504e-03,1.096808256795624159e-03,6.315130591392517090e-01
6.240505196917363051e-01,6.272966878553720704e-01,3.335557852938431100e-02,-2.515213594618327317e-03,2.563665981304377728e-03,-6.216516308847013124e-03,5.924552083015441895e-01
5.976497948073273836e-01,5.552033975363751539e-01,3.210133248297819542e-02,-3.927895156685611011e-02,5.051375925725835707e-03,4.614302884010341305e-03,5.499183535575866699e-01
6.072628581593694230e-01,5.768203462386174429e-01,6.026812313647211816e-03,-4.522871053959848925e-02,1.481960035817254592e-02,3.259649258280249845e-02,5.950561165809631348e-01
5.796863211049931852e-01,6.017287641897777206e-01,1.482646587538238858e-02,-3.224268807951322091e-02,2.130798902927951571e-02,1.789399716037652632e-02,5.809000730514526367e-01
6.161291347146139463e-01,6.298938720728930463e-01,-1.269004581479327154e-02,-4.236577784756662807e-04,5.734972166257304573e-05,2.621267848540426333e-03,6.358299255371093750e-01
6.015962168403959920e-01,6.344072166812804170e-01,-1.018723532904125539e-02,-5.152328444944599467e-04,-2.341613596003950821e-03,-3.540960090153593039e-03,6.288748979568481445e-01
5.675994542207077886e-01,5.168110788335744665e-01,1.524232526811419852e-02,-1.358518005070645795e-01,4.406816488614112570e-02,3.666241861294700782e-02,5.872393846511840820e-01
6.090763048629397325e-01,5.351698814984657826e-01,1.827169017313085009e-02,-4.925552253157512023e-02,1.300623864216348541e-02,1.390467326463295204e-02,5.649901032447814941e-01
7.173269956112042767e-01,3.281486460955156392e-01,3.120219633733167797e-02,4.094939029077483000e-02,-7.593896928221469458e-03,1.809522880826049118e-02,6.011555194854736328e-01
5.547758332250857238e-01,6.245056717994816875e-01,5.038839040207243603e-03,7.712747520661423530e-03,-1.266780329921418126e-02,1.641810087100038437e-02,5.889606475830078125e-01
7.101968500654225469e-01,3.931127268932270713e-01,3.432798982793477949e-02,4.578811197193597728e-03,8.007358549609085033e-05,-8.634589459037190010e-03,5.859354734420776367e-01
6.296976702205220322e-01,6.161121030367734397e-01,-6.666156352165997223e-03,4.098838949222133126e-04,7.557301140463030305e-04,-1.529018180370672760e-04,6.296827793121337891e-01
7.161764822188552149e-01,3.937553748744092030e-01,3.330752767685490889e-02,1.676783408611006842e-03,4.374745212831925890e-03,-9.120306233213136202e-03,5.919538736343383789e-01
7.068235053012132951e-01,4.198292541897635233e-01,2.884891830370905907e-02,1.598210202579549224e-02,2.000432441358210734e-03,-1.903515189530445573e-02,5.910209417343139648e-01
7.010628586089400205e-01,4.181012983646863468e-01,3.562170175651996340e-02,2.841213055345985505e-02,7.925932993768687249e-03,-1.131945001048078984e-02,5.810159444808959961e-01
5.915606649899545211e-01,6.003512788257923116e-01,3.319539473541632812e-03,2.178608424851392195e-03,1.705620305342360260e-03,-6.262158652317812053e-03,5.928039550781250000e-01
7.123348816488217494e-01,4.130794943013493814e-01,3.599467302780651190e-02,-3.974397473871906297e-03,-4.013325625992694191e-03,1.978831967262351284e-03,5.871106386184692383e-01
6.272014884144661018e-01,6.361209481060168258e-01,9.895505962171047276e-02,-2.566538685001395169e-03,9.849751393217576895e-03,5.278959647710259944e-04,5.330545902252197266e-01
6.274774378236582795e-01,6.264540585227402758e-01,6.352929602667184428e-02,-6.448286025289089521e-03,-7.336462653419202617e-03,-1.308940635013258746e-02,5.641468167304992676e-01
6.082198596205338204e-01,6.485880730294131258e-01,-1.821993133594046466e-03,3.113008096075430345e-02,2.209133408384542779e-02,-2.245652112180852172e-02,6.358389258384704590e-01
6.042408205163658508e-01,6.472464004662762393e-01,1.843083372703985257e-02,-3.822815955724574808e-03,3.607812731787844035e-03,1.628449021223211902e-03,6.085283756256103516e-01
5.755389834671529314e-01,7.362520554614554458e-01,1.494704302667271278e-02,-8.019613764927338573e-03,7.421173075742912295e-02,-1.620077597378305131e-02,6.690956354141235352e-01
5.799999212697545259e-01,6.237240551610395700e-01,3.002334883534685250e-03,-4.187263964699908594e-03,-1.840203730988418341e-03,-1.185768623447745231e-02,6.004592180252075195e-01
6.121413581927424019e-01,6.583329938563716732e-01,2.682171515842191045e-02,6.212953988922273289e-03,-3.093995177336222088e-03,-6.187312202626174019e-03,6.099417805671691895e-01
5.948812555359465071e-01,6.042631066099588555e-01,4.960159142061104642e-03,-4.075050927144724909e-03,-1.624061295206632571e-03,-4.084609185119094646e-04,5.947164893150329590e-01
6.261709869603360179e-01,6.910450643434840057e-01,9.642326248371663189e-02,4.150793858819277343e-02,1.464737194061623785e-03,-3.291954602818387976e-02,5.723935961723327637e-01
5.913454914222606718e-01,6.054196006830001586e-01,3.835177812706702660e-03,2.609223986056468606e-03,1.654025785852661964e-03,-6.556644387789103273e-03,5.948047637939453125e-01
5.633399168907236021e-01,6.471040728456868285e-01,-2.223990202319670040e-04,4.036601996330961215e-03,2.482232923316731246e-02,-7.096917955696165764e-03,6.114521026611328125e-01
5.496513300582468453e-01,6.542694010835461427e-01,6.230657917226156695e-03,3.878328228248297677e-02,1.288141279176498177e-02,-1.343177965307416032e-02,6.071688532829284668e-01
6.326388586007238857e-01,5.770417818727807679e-01,-3.644496134069252768e-03,-1.999443046248672307e-02,-1.994315069152500022e-02,-1.995767736021150304e-02,6.133184432983398438e-01
6.072263420880629203e-01,6.211989057360773892e-01,-7.986686495125738805e-03,-3.361241422131267930e-03,-8.290780250284967429e-03,-1.124445353898743082e-02,6.228144168853759766e-01
6.327718351819713316e-01,6.349996324535757131e-01,1.478323289426614617e-01,-3.509149147777109162e-03,4.900539525804054573e-03,-9.331367083974030988e-03,4.864379167556762695e-01
5.714804058745014403e-01,6.045818559416175075e-01,3.296727674152566401e-03,-2.586140395680128559e-02,-1.455051241574153650e-02,-1.717616171241419937e-02,5.884409546852111816e-01
4.626497707785153790e-01,6.466640139796144826e-01,3.218512558495972842e-02,-1.103839586073275814e-01,-5.215788550426415232e-03,-4.117272084655837841e-03,5.788428187370300293e-01
6.282220597589416311e-01,6.235188620411800109e-01,5.593863539076987523e-02,6.426199700341374689e-05,-1.420653482850511677e-02,-1.500229241399849041e-02,5.710688233375549316e-01
5.966978091089455427e-01,6.011388352646040989e-01,-1.695838683882511244e-03,-6.374734047049569058e-03,-9.337772934456641666e-03,-7.111915406148811535e-03,6.010718941688537598e-01
6.301689509182054616e-01,6.234187020266490631e-01,6.788491648683891988e-03,2.242578898637751297e-03,-1.015497411028994795e-02,-1.502291643874877590e-02,6.208400130271911621e-01
6.276786462689821766e-01,6.252942198294344500e-01,1.302603580975164599e-02,-5.757032235826744886e-03,6.153650832279159745e-03,-4.394423276809040699e-03,6.136846542358398438e-01
6.276133102447561951e-01,6.242604966935598743e-01,-1.109000352597916406e-02,4.099377464441085819e-03,5.116438038026105520e-05,2.051787968159236603e-03,6.370829939842224121e-01
6.070235720199536056e-01,6.465010435271654199e-01,1.465915443385773509e-02,-1.318717780491295878e-02,-1.033537200533296910e-02,-3.118136942015344503e-04,6.137439012527465820e-01
5.860471151324386785e-01,6.267597794097234942e-01,5.699795250457273532e-04,-1.471254893427477797e-02,-1.608951695939052698e-02,-1.587464943496915901e-02,6.086537241935729980e-01
6.207389142943140481e-01,6.136246719082524281e-01,-1.410905110473098523e-02,6.288948866791259145e-04,-3.196294028680633954e-03,-1.920646735137056292e-03,6.313548684120178223e-01
6.317238035511706373e-01,4.450130363244120257e-01,2.595584215459284527e-02,-1.088979786306823599e-01,-3.816120201278450606e-03,1.003455067972587079e-02,5.697669982910156250e-01
5.668841165664042503e-01,6.438517205258635911e-01,5.769264012905894745e-04,4.078037527158276734e-03,-1.211229311440238345e-04,1.142003276247957437e-02,6.088155508041381836e-01
5.515520208446091921e-01,5.579098956139540988e-01,3.036510381275048243e-02,-3.983893768013458542e-02,2.185051434019550255e-03,2.231626463726998650e-03,5.289428830146789551e-01
6.557196258774848907e-01,5.315669493080417141e-01,2.148288128534453501e-02,-1.799869006276562378e-01,4.064524965107400162e-02,3.958366554555933781e-02,6.676604747772216797e-01
6.250320139421227106e-01,5.335769146285256337e-01,5.704584069595231011e-03,-3.019714835024091271e-02,2.447113962482258889e-02,2.747816064261993790e-02,5.848821401596069336e-01
5.360200652110088670e-01,6.349232581976510525e-01,2.242056301250189287e-02,-6.287840319497882413e-02,-1.179066027998394717e-02,-1.689963295967918111e-02,5.809456706047058105e-01
6.261987298392299728e-01,5.690901161810955067e-01,7.544726644620580736e-03,-4.090022622588002088e-02,2.167936332311936123e-02,3.807659362383693236e-02,6.012001633644104004e-01
5.622910391956507103e-01,5.295829350327099228e-01,-5.038443077020893224e-03,-1.247781887920309390e-01,2.028942216532543183e-02,2.596671263631378235e-02,5.952670574188232422e-01
6.187353692024920582e-01,6.079382845005226743e-01,4.233631924844938332e-03,-1.369666087278986755e-01,4.571327935305129209e-02,3.553560923405212069e-02,6.613857746124267578e-01
5.967929902884624438e-01,6.016202877351294331e-01,-4.083045543005481282e-03,1.288104213090276659e-02,1.162506293631659395e-02,-1.232889496539440154e-02,6.044296026229858398e-01
4.903136246827942690e-01,6.867126797936852212e-01,1.600075806511552790e-02,-1.417307122137856715e-03,2.179714413313145829e-04,-1.248953320510469206e-03,5.972526669502258301e-01
6.313292739686178212e-01,6.243029742462242737e-01,1.345401526207767873e-03,2.881493384300882511e-03,4.712988401815749605e-04,6.936211052943558678e-03,6.266358494758605957e-01
6.070099534258057705e-01,6.207510330490104700e-01,-8.009046190253332753e-03,3.567907115359748166e-03,3.569964424505440905e-03,-6.379168319118851301e-03,6.221629381179809570e-01
5.819497253766836575e-01,6.009148048067773917e-01,1.233637178070595697e-02,4.255260599496379047e-03,6.439334886080757929e-03,-9.410402049829307350e-03,5.797121524810791016e-01
5.521738963807383271e-01,6.282741448599301615e-01,7.129477486295554556e-03,3.721620205763995909e-02,1.515139275973721548e-02,-1.268136789807075213e-02,5.913281440734863281e-01
5.592803516853350754e-01,6.015810838348628620e-01,1.499369766235392198e-02,7.123881607940488192e-03,2.402586806760945767e-03,-1.152895448962784619e-02,5.671237707138061523e-01
5.251857982329972696e-01,6.810395016942292212e-01,9.839430965824957909e-03,3.565440884987668840e-02,7.246523125194750947e-02,-8.194597582094774804e-03,6.244675517082214355e-01
6.300581233065891684e-01,6.283318673414178823e-01,1.140329835530295433e-01,5.620517301023232604e-04,7.752943288653463966e-03,5.246781264685556299e-03,5.154201984405517578e-01
5.911145799291237513e-01,6.118676378952555561e-01,7.174988923909220162e-03,-1.434646362136666499e-03,2.451207344516597060e-03,-1.294447595372886541e-02,5.950307250022888184e-01
5.162498992100202910e-01,9.027356907297836575e-01,7.990136784943580039e-02,-1.248243381880206893e-01,1.308025176226305653e-01,3.369821526539721473e-02,7.809556722640991211e-01
3.837573877213642515e-01,7.668909886522603525e-01,3.399494121293245019e-02,-8.738873170978578298e-02,5.376225500418547847e-03,-5.859630791371151989e-03,6.528636813163757324e-01
6.359389883566267665e-01,6.274904744879233887e-01,9.914544363100313840e-02,2.093194632158399023e-03,-7.821708271784784047e-03,8.893369183242778517e-03,5.330267548561096191e-01
6.323105030546142258e-01,6.234675217641260092e-01,1.004861022419936689e-01,6.172891714434425477e-03,4.976542055436432820e-03,-5.708519505083596915e-03,5.277299284934997559e-01
6.202197820351325053e-01,6.238179221582214051e-01,1.284520764603350185e-01,-4.792036962751824829e-03,-4.903281299567575392e-03,-4.292067927791914797e-04,4.937199950218200684e-01
6.380817898580541936e-01,6.392170259183437286e-01,1.274910168166959457e-01,2.247777479890220996e-04,2.783525533369044912e-03,1.456623849031208826e-02,5.118044614791870117e-01
6.289946137379304192e-01,6.177355998316754748e-01,1.482666046569276475e-01,-2.054591763684642251e-04,9.598789537995752047e-03,-1.228398789164651716e-03,4.754941761493682861e-01
6.224930184369622532e-01,6.112145375439761441e-01,-1.079007954859212415e-02,-5.972392710215458688e-04,-7.483856491808844186e-03,5.005441576502942837e-03,6.279143691062927246e-01
6.256690403018347890e-01,6.280625824945874625e-01,1.586311690080044468e-02,-5.147420052146114457e-03,-4.833689622307671060e-03,3.935659634922300705e-03,6.111665964126586914e-01
6.027546787715483134e-01,5.794280686422226267e-01,1.018160096277315185e-02,-4.926835303648946333e-03,-1.069527847258439426e-02,-6.196809282765716395e-03,5.817176699638366699e-01
1.529168171063011727e-01,9.513674933135770617e-01,-3.786958711748095174e-02,-1.283350335411536092e-01,-2.754730329710898193e-02,-2.867880687839056628e-02,9.383016824722290039e-01
6.314135247546621699e-01,6.305991529538335083e-01,8.308265577867379736e-02,3.426449464786640847e-03,3.330270911153604147e-03,2.097802325062876963e-03,5.479986667633056641e-01
7.667452610012918113e-01,3.409735136245018450e-01,1.062892288451505740e-02,-6.899534801044715504e-02,4.339297944383219835e-03,6.126357563107639320e-03,6.674658656120300293e-01
6.498881359228539933e-01,5.244585640364054502e-01,1.832346469194090499e-02,6.377056186873321375e-03,9.674691300060231022e-03,-4.254195217288795142e-03,5.795228481292724609e-01
6.237376622492795120e-01,6.288929564783897197e-01,2.942405317384932939e-03,3.586621343086533482e-03,1.541519062164981198e-02,5.014692911866560840e-03,6.240518093109130859e-01
6.297216627306362335e-01,6.303627623973780958e-01,1.772738967057602144e-02,9.919509025206076341e-04,5.523861215075481432e-03,9.586408194091990131e-03,6.126173138618469238e-01
6.595118225242970755e-01,6.147863126516677212e-01,4.542153235088092211e-02,5.200871555657579171e-05,-1.115263931162465381e-02,3.960035307783273811e-02,5.972599983215332031e-01
6.624572885098642949e-01,4.954139751158821436e-01,7.806169432046927703e-04,-4.701114844050525293e-02,1.603373610838757651e-02,4.688823278102338676e-02,6.076081991195678711e-01
6.867521801871906417e-01,5.008386328639340412e-01,1.927590523137506784e-02,1.727410259866555414e-02,-1.292631565244580817e-02,8.360760016687805718e-02,6.151119470596313477e-01
6.188625432503226387e-01,6.195497705959291945e-01,-1.516983812793476494e-02,1.641943719047847397e-03,-7.961740676481744673e-04,-1.861757211097373865e-03,6.343923211097717285e-01
6.267275134046613738e-01,6.265872260380025427e-01,-3.938078674812217628e-04,1.657641797482089542e-03,-1.299836143055129335e-03,-3.114345253635983444e-03,6.270850300788879395e-01
6.267121129023731640e-01,6.181638263858615367e-01,-1.208801051028313145e-02,-2.013998184739464962e-04,-4.939558529441612222e-03,-3.445614350166190804e-03,6.346549987792968750e-01
6.379632950090284860e-01,5.877217706400714725e-01,1.564820927455540245e-02,-4.532465487871505105e-02,9.865615453800843579e-03,2.558733490177528269e-02,6.057667136192321777e-01
6.276745468118517524e-01,6.323453381523753691e-01,4.587778322062480152e-02,1.773643223898106259e-04,9.998203227623885664e-03,3.551457693624586719e-05,5.844028592109680176e-01
6.541099370860725681e-01,6.427621362650370873e-01,6.665774418016523484e-02,4.214881419824518215e-03,-3.278051283967639475e-03,-9.509076089346953867e-04,5.819371342658996582e-01
6.325294829452138279e-01,6.158779228148395513e-01,-1.276801008780265034e-02,2.579400212536111462e-03,-1.024968748465237721e-03,8.253665349996045257e-04,6.371546983718872070e-01
5.789978067229981651e-01,6.497827234934111518e-01,5.789575856109457908e-02,-2.083230243649541319e-02,-2.237498094202316698e-02,-7.889961937957492080e-03,5.625252127647399902e-01
6.204205079676787804e-01,6.235554530745690549e-01,-1.567817789661030137e-03,-1.433403716868932466e-03,-4.356463762779577871e-03,-4.122741808772418040e-03,6.236531734466552734e-01
6.166223150528334918e-01,6.493771925388365229e-01,-3.696912393784224093e-03,-1.072439520445106487e-02,-2.072860535550291247e-02,1.958510674704290380e-03,6.386179327964782715e-01
4.554682462825054845e-01,6.998227686327787023e-01,-1.342270773447196142e-02,-1.101580830967846536e-01,-1.719822091885791354e-02,-7.640821974890896207e-03,6.569706201553344727e-01
6.265247361645573942e-01,6.370262113318103658e-01,4.225832670421236781e-02,-2.142947225586611798e-02,-3.230709853033865431e-02,-2.043871270549572905e-02,5.944538116455078125e-01
6.323717052769244340e-01,6.246889769876448062e-01,-3.358855232524549095e-03,-3.080518255856000420e-03,1.192756889411906865e-03,-3.597691056485643937e-03,6.319808363914489746e-01
6.111593014852020334e-01,6.277458744043298289e-01,-1.009165545557572097e-02,-2.420934740447747624e-04,-3.173562280640970096e-03,-5.029891503393084905e-03,6.297925114631652832e-01
6.151658551417600318e-01,6.189941316284224282e-01,-1.470149640200230090e-02,1.237686230793679518e-04,-5.156030961631226069e-04,-1.648456657658535669e-03,6.317973136901855469e-01
6.039841964782690642e-01,6.330810343907502524e-01,-9.466523485331501675e-03,-2.691080949674146822e-03,-3.277325826894671862e-03,-7.153789204915035269e-03,6.286695003509521484e-01
5.578203522351272703e-01,5.543316003485377896e-01,2.936287590035174810e-02,-3.950036831824990657e-02,-2.480244278878488383e-03,-1.950553991377458694e-03,5.311746597290039062e-01
6.020874166945924255e-01,6.348533420467290522e-01,-9.353355623659631579e-03,-5.114166871210544963e-04,8.885180855584085902e-04,-5.234444610499433548e-03,6.285325884819030762e-01
5.089143613496883711e-01,6.114513772286200854e-01,2.471663870140117236e-02,-1.941381061115721451e-01,-4.312294472324613992e-02,-2.377188836337386368e-02,6.441679596900939941e-01
6.022435913082163639e-01,6.373589760944496918e-01,-9.061611410944914180e-03,1.512461277116925861e-03,3.434041385903443947e-04,8.046988863448217150e-03,6.297577619552612305e-01
6.002317845715129385e-01,5.794722048478844201e-01,1.550953873774918446e-02,-2.642622210474027122e-02,-1.776213298240102156e-02,-1.313445679743489164e-02,5.777123570442199707e-01
6.349679660974942852e-01,4.742400055515751389e-01,5.459619601013543377e-03,-9.497309691231910211e-02,9.441929815682904847e-03,-7.666668679999427173e-03,5.902864336967468262e-01
6.200269771767252802e-01,6.352995829627210433e-01,-1.143986136450708679e-02,5.702166185728063837e-04,1.091309970511476681e-03,2.144249757636210261e-03,6.392543315887451172e-01
5.851254601812208023e-01,5.870984596040644821e-01,1.346277660331718362e-02,-5.038517661888482560e-03,-9.887522010477260703e-03,-5.463626172326960934e-03,5.730523467063903809e-01
6.358594934874929328e-01,5.371539345455047521e-01,1.687177576377052457e-02,-3.625116212460174209e-02,-2.772637693576825851e-02,-2.914569639979297869e-02,5.835993289947509766e-01
6.357540643589637552e-01,4.565110918504535209e-01,1.194809751439485090e-03,-9.762612326607417179e-02,-4.868830667534465410e-03,-6.072816355946175637e-02,6.006501913070678711e-01
6.222116906614885146e-01,6.048533329666569980e-01,-9.197084931421573017e-03,9.532648361082674731e-04,-8.841163134264825793e-03,1.225738455037571296e-03,6.231050491333007812e-01
6.382503081157806513e-01,4.214918448172446652e-01,3.228994076286073600e-02,-1.110570311249787223e-01,7.539992783591805293e-04,1.193255890613815606e-03,5.655370354652404785e-01
6.555960440878003670e-01,5.128159148231685727e-01,-1.203415605943797262e-02,-6.235612759510356790e-02,-4.807002441915813468e-02,-4.441557044479575722e-02,6.287345886230468750e-01
7.074241294284003834e-01,5.107711506480459018e-01,8.109577212925656031e-03,-5.050400887564737706e-02,9.480222684627165677e-03,-6.544254924341801061e-02,6.410622000694274902e-01
7.026093414566929596e-01,4.536370601346101372e-01,8.597524063608752432e-03,-2.199066498102902195e-02,3.645891626044918225e-03,-6.634143152223519191e-02,6.209219694137573242e-01
6.084657912057294116e-01,6.112035018957999721e-01,-4.049429199540932611e-03,-2.113530310865325071e-02,-1.291800487432708325e-02,-1.650004414901935432e-02,6.160492897033691406e-01
6.678152788985904920e-01,5.308374371282358339e-01,2.795821992924996113e-03,-4.458600918462663626e-02,-1.005018706716631106e-02,-1.367979177737303244e-02,6.137988567352294922e-01
6.487866474826499141e-01,5.430762249085783200e-01,1.019741852416217176e-02,-6.076981871824256587e-02,-1.867995568495284947e-02,-4.976753372176694751e-02,6.091153621673583984e-01
6.861023955439403688e-01,5.540772011535931574e-01,4.534149361702766168e-03,-1.031083066205200766e-01,-4.612237329219169568e-02,-4.938528124182070544e-02,6.614939570426940918e-01
6.092248758698263211e-01,6.034841914925622719e-01,-8.112925238564161479e-03,-2.043383881528068168e-03,-6.142897492827662171e-04,6.636546930884988779e-04,6.144997477531433105e-01
5.425473113694889715e-01,6.451920108397150022e-01,4.160247831511532102e-03,-1.533941294397154868e-02,-2.008692287527058529e-02,-1.429950253463832359e-02,5.984888672828674316e-01
6.301558173383362549e-01,5.856391532701797908e-01,-6.820673370229624055e-03,-1.809908707980931869e-02,-2.234106237450727075e-02,-1.893424676003690327e-02,6.188055872917175293e-01
6.022384507523864672e-01,6.624703932796496275e-01,-1.278888153223078916e-03,-8.939395669217013729e-02,-3.863117013100455382e-02,-3.262342989541439781e-02,6.601938009262084961e-01
6.201791018962352631e-01,6.287835870914593173e-01,-1.209388274723649515e-02,-1.976231901940265047e-04,-1.959794688762558218e-03,2.146169077034152783e-03,6.366388201713562012e-01
5.813456088541556488e-01,5.908323733846656545e-01,1.275123635309610703e-02,-1.038781719827480549e-01,-8.809427049522039477e-02,-7.165305915980919871e-02,6.323290467262268066e-01
6.073939115437934078e-01,6.177297151985142731e-01,-9.248037962477528851e-03,3.362223369883511853e-04,-9.615549322103951295e-04,7.991297811124113692e-03,6.220307946205139160e-01
6.285470442591647444e-01,6.444182871069470409e-01,5.080372988290304814e-02,-6.594028063306644691e-04,-6.442747603627611841e-03,9.885161212102214212e-03,5.861976742744445801e-01
2.749564584985947358e-01,8.236826638987753135e-01,6.748492367111114110e-03,-1.466239499222705689e-01,-3.072660778213171309e-02,-9.864458934598665379e-03,7.666999101638793945e-01
7.491059575139202842e-01,3.828115816238983893e-01,3.001557161984536037e-02,1.361811619538436657e-01,-5.691601061534347361e-02,8.860316288165395737e-02,6.904850006103515625e-01
6.516275756492232452e-01,6.259231436767838108e-01,3.326011676642581794e-02,6.415719384722064818e-04,-1.141909217462459304e-02,-6.094118045436598859e-03,6.063399314880371094e-01
5.787929116162353615e-01,6.478660082037961399e-01,2.848043588020932049e-02,-3.923367246498336153e-02,-1.774465179057000894e-02,-1.636905053103078836e-02,5.932899713516235352e-01
6.367106308314823826e-01,6.001458532604441176e-01,-9.336814199835730133e-03,1.697553459065181405e-04,-4.704140889799699084e-03,-5.436180552771225586e-04,6.286168098449707031e-01
7.017320643614377573e-01,4.074988560574951402e-01,3.306244662084700803e-02,2.274470718244381295e-02,-2.343474503803798063e-03,1.625652485490312882e-02,5.825021266937255859e-01
5.924383763151750415e-01,6.767855659244763622e-01,-1.190820505953149588e-03,-3.160533505793592518e-02,-3.564823602311359418e-02,-1.742950622561595386e-02,6.459887623786926270e-01
3.570183906878201530e-01,7.428392139789451454e-01,1.452796574830211851e-02,2.903452119270919993e-02,-1.728463638442409231e-02,2.178569119766942883e-02,6.349381804466247559e-01
6.457985569296290640e-01,4.670247344211793106e-01,3.222543582609782575e-02,8.839601375200524525e-02,-9.064823600340049872e-03,1.345974156913053860e-02,5.683069825172424316e-01
3.763554880358875865e-01,6.692642521892502305e-01,8.776286387688403412e-03,1.300908184826314318e-01,3.776450473302292443e-02,-3.132443049201996677e-02,6.217476725578308105e-01
3.488591602133552794e-01,7.784433050607338922e-01,1.463003628012116142e-02,1.352751837323281914e-01,4.511194123914551851e-02,-1.172592652935228880e-02,7.079880237579345703e-01
5.455531257394327094e-01,6.307521335656174344e-01,9.074662943197031595e-03,-3.723869308330170214e-02,-6.704237357732823442e-03,-2.171391561289261543e-02,5.886297225952148438e-01
3.263026769228408730e-01,7.365117478504219495e-01,2.894436265133626396e-02,6.801620965133477192e-02,-3.853008651753131062e-04,3.471831515840783158e-03,6.265682578086853027e-01
4.098404979602560116e-01,6.855633835380744445e-01,2.915780400235878922e-02,5.889460858021688255e-02,1.811232904889743811e-02,-1.266536668057626977e-02,5.811854004859924316e-01
7.688381730452160667e-01,3.574838661393640593e-01,2.310906576806953661e-02,1.096174590755288059e-01,-1.310617317583274814e-02,3.407229802845358063e-02,6.772085428237915039e-01
5.695320229586220417e-01,6.415871136501156702e-01,6.934285296319286918e-03,-2.086108378915678754e-02,-1.822518761605973134e-02,-1.457570557631923322e-02,6.043058633804321289e-01
6.436568462247366229e-01,5.816023535563511482e-01,-4.324381879758865121e-03,3.092926334951894701e-02,-1.742789597156968462e-02,1.080214779191485987e-02,6.226165890693664551e-01
6.110933826901858712e-01,5.070681415713768070e-01,1.199462884011437414e-02,1.191837619134896581e-01,-3.180416147516874903e-02,3.037810078396488769e-02,5.965203046798706055e-01
6.546026850017500065e-01,3.834265103179433365e-01,-1.975668224198368073e-04,1.331139107280455702e-01,-2.053929334150490782e-02,4.265441439561533377e-02,6.201736927032470703e-01
5.578765979951687548e-01,5.240226682888708964e-01,6.900954978519613370e-03,1.280952851078556165e-01,-2.249656806489104890e-02,2.912711605003551196e-02,5.825428962707519531e-01
5.671046521987075373e-01,6.597262708719411339e-01,1.791753042320654021e-03,4.033637491932615116e-02,-3.099400372576435400e-02,3.287161303904788390e-02,6.257173418998718262e-01
6.314618577190215243e-01,6.021176718752632162e-01,-8.469624170817091624e-03,4.781528219228924569e-04,-8.062413814886367630e-03,4.505065318333511073e-04,6.259324550628662109e-01
5.798363912546938836e-01,6.015534144459240284e-01,1.054102002115436809e-02,3.272387131066509941e-03,5.645534151910475314e-03,-1.206882634961405076e-02,5.809448957443237305e-01
6.280326719657709500e-01,6.284087288395442394e-01,5.112651234715609450e-02,3.324269376648396855e-03,1.940609403135081998e-03,-6.728447162746028706e-03,5.772504210472106934e-01
6.240974943045438650e-01,6.153592686982010118e-01,2.099485007597612363e-02,1.144159975969957083e-02,-1.072341159356803020e-03,1.091756092862257096e-02,5.994104146957397461e-01
5.060063660378311123e-01,6.767014532738158117e-01,3.039897115693412921e-02,3.153460765843799085e-02,-2.724151468247606317e-02,7.778263240687265795e-03,5.847342610359191895e-01
6.194472625095304164e-01,6.312802879671568501e-01,-1.078771029621761190e-02,1.485561089554079473e-03,-3.883313097296373865e-03,5.849624721131555828e-03,6.363554596900939941e-01
5.936257505808262280e-01,5.568021425919156275e-01,2.911789724981533878e-02,1.075225869046004049e-02,-3.884196357742873001e-03,1.185633331031162073e-03,5.473884940147399902e-01
5.760313762247691871e-01,5.741150483499419810e-01,2.736785441973715871e-02,2.136182269299799485e-02,-4.006405605592435783e-03,2.105062166106971486e-03,5.490121245384216309e-01
6.252538448978647301e-01,6.250201228529581599e-01,-1.623808447015984147e-03,3.540545997366832329e-03,-5.302840730847751746e-03,-5.183406902931190531e-03,6.269224286079406738e-01
5.534481449964717692e-01,6.335843376678097494e-01,-2.092939041676289413e-03,7.209558649132875863e-02,-6.045667392847531990e-02,4.670183185923428015e-02,6.266323924064636230e-01
5.077760566162180522e-01,5.923858800634781430e-01,-6.110162791042206276e-03,1.212566971431756624e-01,-5.886552380898436160e-02,4.360009686644794602e-02,6.123116612434387207e-01
5.261269200165499260e-01,6.458703291183753858e-01,2.085849708460013607e-02,5.288078239966437916e-02,-1.434879295859192369e-02,2.292948492482319717e-02,5.837133526802062988e-01
6.169941964674802160e-01,6.306645768880366765e-01,-1.175291439576048313e-02,1.050648637727303420e-03,-1.123668584049347950e-04,-1.844491145890632009e-03,6.357032060623168945e-01
6.355006452179213783e-01,5.823361815043047729e-01,-1.615425177816154356e-03,1.419624446594811573e-01,-4.423136050626508275e-02,3.440886874181849769e-02,6.668977141380310059e-01
6.237175039072275773e-01,6.275886483130734828e-01,-5.955346544207984483e-03,-2.769941814416583808e-04,-7.720182838087873319e-03,4.343712881080421737e-03,6.318038105964660645e-01
5.911906394073924709e-01,6.142678768855321936e-01,8.138164316191187631e-03,-1.113393873344924526e-02,1.354535643384588949e-02,1.457821024444725354e-02,5.962364077568054199e-01
6.019803543619679509e-01,6.484217746849392228e-01,1.338623330700750014e-02,9.569455103302374616e-03,-1.374161056697735007e-02,3.613706533903941840e-03,6.138529181480407715e-01
4.907409965634782489e-01,6.707294235489797973e-01,1.432972345982924667e-02,-4.712549659419328074e-03,1.767831882140553348e-04,-9.149085382381372603e-03,5.877328515052795410e-01
5.657190374138919564e-01,6.447821315419519639e-01,-1.697432283350286397e-03,2.512830416634985811e-02,-2.477771879323577633e-02,1.211474280558408681e-02,6.142072081565856934e-01
6.128140077115024065e-01,5.815891571808209370e-01,4.532214812043300345e-03,6.175372781563759350e-02,-2.085725654182951291e-02,1.531649263366413431e-02,6.045144200325012207e-01
6.341254340800293043e-01,5.808750166101241952e-01,-1.257347652590962150e-02,5.488671674057150895e-02,-3.388588800790222344e-02,2.504178761065348896e-02,6.332312226295471191e-01
5.425461673550072694e-01,6.658332699775617591e-01,-1.255178743108931183e-03,2.113970393347648288e-02,-1.773658031158199117e-02,1.798108013411772732e-02,6.174283027648925781e-01
6.889411088172187059e-01,3.971393228956519583e-01,2.588528926502947636e-02,1.937800168473890750e-01,-8.303519511051748320e-03,3.104129191254078809e-02,6.686254739761352539e-01
6.157071295874858574e-01,6.243392724803855653e-01,-1.401683152054117310e-02,-3.052512068691258691e-04,2.255567650657032473e-04,2.479326666276942485e-03,6.340990066528320312e-01
6.516736952951962536e-01,5.057545016739092292e-01,3.261223092752951747e-03,6.474688300103458027e-02,2.134127376233348888e-02,-2.899623295214497076e-02,6.029763817787170410e-01
6.026158480070803458e-01,4.611864202291805492e-01,2.115021793494481495e-02,1.427265662321157424e-01,1.587215445599329117e-02,-9.610360002573705221e-03,5.813894271850585938e-01
5.415709669874798626e-01,6.306789229672440378e-01,-2.007116751558235546e-03,1.148712180844323888e-01,5.841200259922568749e-02,-6.787512440103220246e-02,6.445910930633544922e-01
6.548107953660178282e-01,6.159002733253886586e-01,2.906253837866429324e-02,-1.842823616330250885e-03,2.200172006812141368e-03,-9.247776028224031705e-03,6.074602603912353516e-01
6.223261198479888012e-01,6.294738608133155777e-01,1.156380963898345771e-02,3.697992360842074916e-02,3.539982654484297164e-02,-4.242561918914084657e-02,6.250672340393066406e-01
6.229786746274028619e-01,5.395921710222258971e-01,7.446477030916442974e-03,5.489295194717286330e-02,2.150212178756482490e-02,-4.205937834920614460e-02,5.918106436729431152e-01
5.741890870709814854e-01,5.976240345576200319e-01,9.196517830550976491e-03,1.554000207008652580e-02,9.086067269003674993e-03,-1.066402121575769565e-02,5.782038569450378418e-01
7.706918718557203007e-01,3.168649731292331739e-01,-2.699781938989420649e-02,2.740558357429016545e-01,2.908463605980395050e-02,-5.443928523515789708e-02,8.467603921890258789e-01
6.178297944762229932e-01,4.472331410601859680e-01,3.880775783626594366e-02,1.948366998617561130e-01,4.349691383828667435e-02,-5.801453328551853944e-02,6.286871433258056641e-01
7.292680066591723520e-01,3.762211442374269743e-01,2.170521717370382797e-02,1.848862209096785447e-01,1.655587673564222484e-02,-9.999966357866869882e-02,7.133408784866333008e-01
7.411006748419076695e-01,4.575353887500183125e-01,2.555322587082464736e-03,3.117500105010631573e-01,6.700261832753304225e-02,-5.113749842252175021e-02,8.539965152740478516e-01
6.658232309944998040e-01,4.928259143677418130e-01,2.208884229905561103e-03,2.453061898444470201e-01,6.371429097482944615e-02,-3.609645018377242304e-02,7.430486679077148438e-01
6.369879916522969143e-01,6.418185984312485548e-01,7.237196461243206036e-02,1.904733420196199484e-02,3.400697390439243184e-02,-7.886784328439455302e-03,5.712149143218994141e-01
6.051356484879365505e-01,6.199597602830313470e-01,-9.253346840853937660e-03,2.043234378727542926e-03,-6.240906541991949209e-04,7.315246953911468987e-03,6.220736503601074219e-01
6.156399778404326728e-01,6.128755801587815188e-01,-1.474046416204249921e-02,-7.270473622841657543e-04,-4.785785322578255531e-04,4.879523078364110181e-05,6.290045976638793945e-01
6.295354244891212536e-01,6.612776509899748190e-01,6.557762643941938974e-02,3.827053539674965706e-03,4.167676319721496173e-03,2.124972965724712583e-03,5.805745720863342285e-01
5.217840399247510863e-01,6.750265980153395962e-01,-6.226276297478183785e-03,-3.774485680757294626e-02,4.423392894497332750e-02,2.294833737973176260e-02,6.284231543540954590e-01
6.408290275713434125e-01,6.506116368947346684e-01,7.179084848904082605e-02,5.976762737447643796e-03,-7.293829125255339024e-03,-9.936225252455630971e-03,5.744822025299072266e-01
6.167596979628978682e-01,6.159621639422473427e-01,-1.558875604259002401e-02,-2.454439361592739900e-04,-7.321395093418577851e-04,6.683101105919928963e-04,6.319525241851806641e-01
5.996162149207877601e-01,6.011099268652948524e-01,-2.969664717968334422e-03,5.286020132412377719e-03,-3.581152370751287083e-03,6.071789184966469403e-03,6.035271286964416504e-01
6.287119104112923740e-01,6.430830598281783717e-01,9.022606481237854803e-02,-5.567086486081990367e-03,3.024392204081788674e-03,-6.829526777596232022e-03,5.460518002510070801e-01
6.333280626603732255e-01,6.345590024258558337e-01,4.666986758725649720e-02,-6.660185349402632585e-03,1.104133909869275953e-02,5.423717940744461190e-05,5.876991748809814453e-01
6.310329900920548241e-01,6.320167196007382415e-01,1.750490468040971637e-02,4.849116029340098271e-04,-3.569622575260765398e-03,2.647314220497795807e-03,6.140693426132202148e-01
6.610851927629403102e-01,7.228564528305467807e-01,5.687913434573854676e-02,-5.112377348907728644e-03,2.551932517237263942e-02,-1.077528626836509254e-02,6.392055153846740723e-01
5.843283138222253870e-01,5.794603151621947612e-01,1.759910385100182939e-02,2.445611219243872176e-04,-1.785983768047684364e-03,-2.276524291137827373e-04,5.643197298049926758e-01
5.548003109472692262e-01,6.161864080264464194e-01,9.368472404809868870e-04,-3.853498699086102541e-02,2.723580698309210901e-02,2.968858182791807299e-02,5.948587656021118164e-01
6.184091926575617792e-01,6.160323967855161342e-01,4.503813544540880009e-03,-2.207227554441404394e-02,3.396405584994280358e-02,3.284039220602803788e-02,6.193416118621826172e-01
6.170688193852273962e-01,6.187490446314138914e-01,-1.698964452540385750e-02,-1.285399243932794366e-01,2.890945118912380610e-02,4.842634129118964653e-02,6.798591613769531250e-01
5.797156381121956192e-01,5.904696973165342033e-01,2.042664330632054659e-02,4.368803543284499949e-03,1.433053691951067512e-03,-6.312932760140787820e-04,5.648000240325927734e-01
6.394459398237198888e-01,6.175851181840497084e-01,4.797490964274120362e-03,-9.934361606498092259e-03,1.854501009540981613e-02,3.476538849537781639e-02,6.279620528221130371e-01
5.802114868243604118e-01,5.781737533146693586e-01,1.941525361731238908e-02,3.670408999504816590e-03,1.446844015865367912e-03,-6.429890733397526474e-03,5.599326491355895996e-01
7.502888474722025913e-01,4.832976101961732884e-01,1.703071545499090789e-03,3.112732472750928125e-01,-1.854600044261959721e-02,5.273964810526467900e-02,8.554814457893371582e-01
5.787854767997575589e-01,5.714881973253109759e-01,3.087569691737124256e-02,3.367130096231189546e-03,2.534165020389767681e-03,-3.444923980473099646e-04,5.443471074104309082e-01
6.212038767561098851e-01,6.197960556903201468e-01,-1.461297143039436142e-02,-1.402572918844724199e-03,2.367650140363265505e-03,-2.433629281549190299e-03,6.351459622383117676e-01
5.836993486577978230e-01,6.446736149734315635e-01,3.719746860301298419e-03,-7.990164591560607044e-03,9.763322388164198326e-03,1.747921013029160586e-02,6.138827800750732422e-01
5.801678890626669194e-01,5.796792454017803964e-01,2.056962785475008326e-02,1.087274962776971220e-07,-1.638237799984599034e-03,-4.177683175556522405e-04,5.593617558479309082e-01
4.383982343689274419e-01,6.570354620602751883e-01,1.564237226025083638e-02,-8.379124255440298374e-02,4.702839853972085732e-02,2.645743289610091864e-02,5.905529856681823730e-01
6.137138720809351966e-01,6.120843339500529057e-01,-1.282655893547718362e-02,8.686261814050044629e-04,2.227677830851277057e-03,-1.726836597525129675e-03,6.257480978965759277e-01
5.467343350016881098e-01,6.649488215241794453e-01,9.606772298270616073e-03,-3.343835775638388796e-02,2.673926764079445628e-02,1.742819943627657575e-02,6.102356314659118652e-01
6.200127330764163558e-01,6.152920142576379092e-01,-1.427805613998517353e-02,4.238594101654305052e-05,1.232909654840177657e-03,-1.351080990373655427e-03,6.319515705108642578e-01
6.235376335103813839e-01,6.282904436846910023e-01,-3.278097441985483584e-04,-2.909313904014639799e-03,6.452717124965518143e-03,-3.561105727292556214e-03,6.264057159423828125e-01
5.929277424584800116e-01,5.974369643912033068e-01,7.984541058383753942e-03,-7.532628133055959893e-03,9.055808518922271733e-03,9.838588151390116263e-03,5.878121852874755859e-01
6.109044433100776494e-01,5.950124094339926950e-01,-7.486940290845622847e-03,-8.900692365719560517e-03,1.234033095523906151e-02,1.070218489330291255e-02,6.114500164985656738e-01
5.743608500860035715e-01,5.716502478578817659e-01,2.976561734804045178e-02,2.107149540664405608e-03,1.008241651708511672e-04,-5.237462088133512227e-04,5.432580709457397461e-01
5.918970694609747563e-01,5.796998221641169735e-01,1.838874316076444249e-02,-4.603186558986152067e-03,-8.475419655708974842e-04,-1.316017206729727142e-03,5.675705075263977051e-01
6.041601536672411843e-01,6.166724516551623791e-01,-3.374438822025260798e-04,-5.043566754030251627e-03,1.162081508726924006e-02,1.418582383060971314e-02,6.117374300956726074e-01
5.915691935342654029e-01,5.849326051922387748e-01,1.113437877538331344e-02,-1.099392406981352299e-03,-5.531601628624345859e-03,-2.563133101006295333e-03,5.772448778152465820e-01
6.176268387844719987e-01,6.098859872211843669e-01,-1.330985212849961075e-02,2.161954078973207100e-03,4.751070813271309271e-03,-2.606472907843490356e-03,6.271834969520568848e-01
5.977224050835341362e-01,6.095932328491441288e-01,-3.548619522971141471e-04,-1.248407988053126631e-02,5.542102380427792706e-03,8.187845770469050558e-03,6.047295331954956055e-01
5.796909203916827957e-01,6.438464140002344571e-01,4.090618065023088334e-03,-4.884348750122062544e-02,4.131106181082284945e-02,1.586340296859576129e-02,6.207990050315856934e-01
6.321821167844767775e-01,5.275906802634361403e-01,4.692933140334698550e-03,-5.061841029122233354e-02,1.678349990172601017e-02,2.065453238212408213e-02,5.906467437744140625e-01
6.418320507997078428e-01,5.815049562779944781e-01,-5.108814904272840351e-03,5.985006183686852367e-03,8.099407444532458894e-03,-9.598374097573317276e-03,6.194549202919006348e-01
6.310322597683253321e-01,6.250947303878209294e-01,-1.578516806176044618e-04,4.969493673186262117e-03,1.215683129136254509e-02,1.067748162368790943e-02,6.289260387420654297e-01
6.314821672994901380e-01,6.012791864171471712e-01,-9.032517652927618546e-03,-6.780077317570304060e-04,-7.854089301353370939e-03,-4.735011159611065266e-04,6.261093616485595703e-01
6.089483219490539057e-01,5.876855822516955374e-01,-2.472664796374868246e-03,-2.061191236500473437e-02,1.559526595419534999e-02,3.501352533983736331e-02,6.057798862457275391e-01
6.104973371755766376e-01,6.047657980257675758e-01,-7.819453764796591155e-03,-2.109640864296217014e-02,2.008105024242509001e-02,9.778811981767962166e-03,6.177672743797302246e-01
6.526679503824304174e-01,5.788464107959385707e-01,-6.841771785626671321e-03,-1.778687860874578371e-03,8.554431958789444901e-03,1.647817311547070118e-02,6.267058849334716797e-01
6.297200571608055908e-01,6.162056911576436757e-01,-1.274020446836099385e-02,-4.667027905225304570e-04,2.567479079898952153e-03,5.113789195434649678e-04,6.358274817466735840e-01
6.552655190935807727e-01,5.295250522838359508e-01,4.337263920335288070e-03,-6.845061139307029828e-03,1.061822129873897687e-02,1.838791590005719664e-02,5.993024110794067383e-01
6.790862713411487395e-01,5.542137152897078645e-01,-1.252277441950355730e-02,-2.041335916294116301e-02,1.409551412995064396e-02,7.187863496095910076e-02,6.518427729606628418e-01
5.946923607845288062e-01,5.895657041543186372e-01,2.706891458849669529e-03,9.564164202517755169e-04,1.926442524852446225e-03,-7.489308183501041695e-03,5.895933508872985840e-01
5.932255293800484663e-01,6.119822951329346727e-01,4.942155131741843288e-03,2.363792789160763189e-03,2.123103827754665475e-03,-7.056290189860928846e-03,5.980327129364013672e-01
7.092965426014754549e-01,6.141927909044277989e-01,3.901065845620083072e-02,-3.967759764913392911e-02,1.025269531205142033e-02,3.282946159589104212e-02,6.347068548202514648e-01
6.362933587271523139e-01,6.397553003961905516e-01,5.680519607360334788e-02,1.245091471003847115e-02,-2.474866554505180207e-04,-8.720936203195712305e-03,5.818230509757995605e-01
6.278278168920914393e-01,6.245408097514980605e-01,8.102471358911028654e-02,-6.069574679039499974e-05,6.055014095819252762e-03,-1.862032045151625721e-03,5.452774763107299805e-01
6.451422248031819517e-01,6.185912885588266130e-01,5.560442686587108163e-02,1.102508111252547586e-02,-2.465572394521338851e-03,-5.504335813030351333e-03,5.771315097808837891e-01
5.562716084638615888e-01,6.712726267007205205e-01,-6.355513527450618039e-03,2.058963294879919553e-02,3.184710329081652525e-02,-8.898217048101076873e-03,6.316876411437988281e-01
5.934063788653195504e-01,5.556780049160340296e-01,3.334738952605142970e-02,7.130267156943332491e-03,5.393374820860328753e-03,-4.726718212128354466e-04,5.424019098281860352e-01
6.378227979128421321e-01,5.398666043100681655e-01,3.895503001376143803e-03,1.432472081800148858e-02,1.862327430336108147e-02,-1.545681000536986219e-02,5.930724740028381348e-01
7.019468621489153293e-01,5.972535980219794149e-01,-6.759223313048068338e-03,-5.471152239412489099e-02,2.166644955015694166e-02,6.141923173272746672e-02,6.787735819816589355e-01
7.375315200349542577e-01,4.667553006760049583e-01,-9.828758368948142810e-03,-1.535009845869472755e-01,2.556724726856193092e-02,7.370034031344578629e-02,7.200303077697753906e-01
6.342670063648767620e-01,6.189665075860858456e-01,-1.119129446570510389e-02,4.150579166027934292e-04,2.217280519043541946e-03,3.949763307278276190e-04,6.379579901695251465e-01
6.612318859513961478e-01,4.669384557109155232e-01,3.629229329039007634e-02,1.431476046426831752e-02,-4.236303793281367969e-03,-2.009810135751934654e-04,5.545687079429626465e-01
6.283308977788779615e-01,6.162803632767271944e-01,-1.219715319965414269e-02,-1.011009127992095407e-04,2.225774283269405570e-03,3.514538712232479476e-04,6.346006393432617188e-01
2.643997879243212834e-01,7.325343617267734420e-01,-1.041847644373866677e-02,2.149217404228890016e-01,-4.622189667224553024e-03,-1.549642010219647384e-02,7.501236796379089355e-01
6.305439148982351361e-01,6.384429426333554369e-01,4.072710910672511231e-02,-4.317718181925765805e-04,2.097437131044270660e-03,9.921008920002357540e-03,5.940659046173095703e-01
6.295406941618011398e-01,6.325959406227147364e-01,2.356974807877804112e-02,3.484269985374521036e-03,-9.471425450787504877e-03,-6.393133284525349090e-03,6.078566312789916992e-01
6.290452496990350806e-01,6.284003443719834436e-01,1.560699244679203401e-02,1.269731711523147764e-03,6.078236845451088360e-03,1.070656125253110179e-02,6.134907007217407227e-01
6.436327636024722354e-01,6.335963777489272974e-01,4.137521310445468892e-02,-3.143512779631546170e-03,5.764299164240960748e-03,2.209072451382356264e-03,5.974230766296386719e-01
6.222255842835758832e-01,6.066632576491134410e-01,-8.756171066035323136e-03,2.064493501925793498e-04,9.541555435095789434e-03,-8.875150236168199416e-04,6.235673427581787109e-01
6.956924905230219558e-01,6.630780278761998492e-01,3.807275570068824333e-02,-3.114352549767673145e-02,1.892723564868696931e-02,1.581399052567915992e-02,6.456115245819091797e-01
7.667706705694609104e-01,3.387086855607450153e-01,4.745787176444565825e-02,6.472979045414838095e-02,8.239002650813231909e-03,-1.015913217557605219e-01,6.606613397598266602e-01
6.475666944450970686e-01,5.983826814619972456e-01,8.435873721948600190e-02,-1.579587452088663038e-02,-9.489557757451901141e-04,1.063479690482189814e-02,5.413057804107666016e-01
7.108648318015391432e-01,7.827906890667731821e-01,1.274790644675545259e-01,-1.111764880536738817e-02,-1.185871350208082473e-02,3.426327105171945997e-02,6.259292364120483398e-01
7.072134845158972727e-01,7.073762734313615574e-01,8.967036746687051529e-02,1.810097210367101958e-02,5.699238006552601737e-02,4.547102418134037205e-02,6.311815977096557617e-01
5.980109969531441916e-01,5.831244966899992166e-01,1.075387660607202145e-02,7.207309543570817115e-03,1.100467394385745354e-02,-6.151203145203955683e-03,5.805023312568664551e-01
6.030068076709846903e-01,5.769035940483508984e-01,9.971834439802707006e-03,4.450470441647006933e-03,1.269052447122659757e-02,-4.140599575506255514e-03,5.809352397918701172e-01
6.248531727023911575e-01,5.797407494045241361e-01,4.223952103163397531e-03,-3.508976056498924485e-03,-1.074968507871558974e-02,-1.281480417509446926e-03,5.996717214584350586e-01
6.078765821941838343e-01,6.186573121855406532e-01,-9.206264702236066633e-03,3.861911761159300509e-03,5.749542457996767962e-03,-8.442873494748816612e-03,6.228305101394653320e-01
6.482872895351107223e-01,5.716960933887599294e-01,-4.858680927682990092e-03,3.334263483015348275e-03,6.065050228980543509e-03,-1.100587666270061264e-02,6.188277006149291992e-01
5.725610561099994111e-01,5.929056297260746344e-01,2.012808707320390411e-02,8.397981190700036166e-03,8.196590683046395395e-04,-1.145881131746509865e-02,5.634204745292663574e-01
9.183402033336912629e-01,7.236457048165241268e-01,1.066464330034573860e-01,-4.501116732014917576e-02,3.323946008789811779e-02,4.757006622600851858e-02,7.449172735214233398e-01
6.650603078893666531e-01,4.890075140890395855e-01,-1.180311466225381078e-03,2.825129898745682225e-02,2.374402126985954500e-02,-5.650543516758085860e-02,6.092962622642517090e-01
5.802499634160913633e-01,5.933137957355861802e-01,1.817537298817367697e-02,-8.965848499022753895e-03,-2.302754480039276297e-03,-8.222025746393515563e-03,5.691232085227966309e-01
6.347855890965764525e-01,6.166614422347214131e-01,-1.139526165597787299e-02,8.164526767253695982e-04,4.994021601174789817e-04,9.516591393663785081e-05,6.373142600059509277e-01
6.252847298884581795e-01,6.238583773843457969e-01,-3.275391810778627288e-03,-3.552907318046014118e-03,1.083988108986436551e-03,-3.954489522864541862e-03,6.279184818267822266e-01
6.302928931364675247e-01,6.191401215599247054e-01,-1.162577313204005147e-02,1.040185023920253801e-04,3.407148648084873453e-04,3.959039433670308891e-04,6.364162564277648926e-01
6.219167657778852387e-01,5.741065224132075873e-01,3.056653409956922030e-03,4.952040448273876787e-03,1.228755686041399856e-02,-1.929371262921175103e-04,5.968353748321533203e-01
6.299863396129073978e-01,6.382756548187596968e-01,3.355069785090919465e-02,-6.088746133745986423e-03,7.192440381244662173e-03,2.540092652303664513e-03,6.008610725402832031e-01
6.137585489756988144e-01,6.141976245673809176e-01,8.669961332200493143e-03,9.751968914492205667e-03,1.229878444822241589e-02,-7.846618231744166908e-03,6.060708165168762207e-01
7.289386674138718103e-01,6.174174429024796851e-01,4.482751177368049511e-02,7.054094320251451389e-02,2.938123305639262287e-02,-2.514386549961838274e-02,6.508199572563171387e-01
6.306789300971934464e-01,6.167133990783685293e-01,-1.221086959436801234e-02,5.705708566445871419e-04,-1.309641155726822773e-03,5.280867236968590436e-04,6.360275149345397949e-01
6.487777711427583638e-01,6.085476214010920870e-01,8.668130089137587868e-02,3.910211829377084614e-02,3.598171715542316379e-02,-2.591141473066929310e-02,5.526688694953918457e-01
6.375963727709829110e-01,6.324847712772757591e-01,2.828178607150344526e-02,-2.656635482579156830e-03,1.748935192525578018e-03,-7.572839167393391295e-03,6.069416999816894531e-01
6.307391493666608673e-01,6.147312523979966414e-01,5.699026233325232838e-02,1.045840759974115677e-03,3.976835922375038072e-03,-1.441712198726690687e-02,5.665102005004882812e-01
6.237541907480792513e-01,6.156344447652546403e-01,-1.398393781816864578e-02,5.258321828301088571e-04,-2.787977693150747813e-03,-6.818803979377955054e-04,6.337374448776245117e-01
5.835895495792733367e-01,6.011219267163468993e-01,-7.933314315674899753e-03,8.022518257603057645e-02,-7.647490455788813479e-02,2.817337602481781791e-02,6.323070526123046875e-01
5.795617663038542533e-01,6.053663954953032444e-01,1.040573578176967606e-02,2.726028014055561707e-02,-1.595049267944194382e-02,1.490891484291003398e-02,5.856199860572814941e-01
6.647696111534360242e-01,5.517987255164662486e-01,4.756456052034674364e-04,1.472474490276997911e-03,-1.991365231883200290e-03,2.026230056947460594e-03,6.156571507453918457e-01
6.226501162972837289e-01,5.383350049975215157e-01,1.806167097434108193e-02,8.473738381798701785e-03,1.321459170595420951e-02,-1.775182116744127101e-03,5.678107142448425293e-01
5.491154638782783648e-01,6.020432698161948259e-01,2.565541545899646669e-02,3.992967890138601067e-02,-8.276039359665242692e-03,9.307372099770108362e-03,5.565661191940307617e-01
6.055277247215701264e-01,5.323787285684572490e-01,2.210582322119042376e-02,5.145841778401634425e-02,-1.486288795528057510e-02,1.384451150390663896e-02,5.587815046310424805e-01
5.972584130283666859e-01,5.731064715544562649e-01,1.979263141273168713e-02,3.485060934241130531e-02,-2.073206153937904098e-02,1.712617172679316985e-02,5.708907246589660645e-01
4.130242908569928817e-01,6.430944802422612350e-01,1.889881433656104281e-02,1.508322495990703505e-01,-4.336049781829015570e-02,3.973314847904025476e-02,6.144683957099914551e-01
5.474020667406329643e-01,6.000402286079297154e-01,3.866409906428819321e-02,9.668400756942562013e-02,7.803604962442643386e-03,-3.230858348502810892e-03,5.626913309097290039e-01
5.608694434346903623e-01,6.254251395793853918e-01,4.441742403328730049e-03,2.654304155261181207e-03,2.614917796653294570e-03,-1.401614288521969148e-02,5.918874740600585938e-01
6.076641865979400814e-01,6.138706543938906579e-01,2.740133838058989024e-03,1.172996305213786124e-02,1.334267826733300140e-02,-1.126512146721172537e-02,6.091417074203491211e-01
6.291809202207148122e-01,6.218987435406632125e-01,-1.156976182040181378e-02,-2.198785549688456566e-04,-1.474004424266382989e-03,-2.574047493474544094e-03,6.371616125106811523e-01
5.595123134794237618e-01,6.126554404972543999e-01,7.687780742947347701e-03,3.659328501023126345e-02,2.129029413047359154e-02,-2.149419226893467538e-02,5.860232114791870117e-01
5.096716800440863615e-01,6.306506643236633458e-01,1.880304380093605898e-02,2.402524458083507217e-02,1.289331963987566144e-02,-1.986404947514112257e-02,5.642577409744262695e-01
6.106895490919963532e-01,6.231545678144139178e-01,-1.110310711185596988e-02,-8.562328002882328834e-04,5.112673801414122435e-03,-7.760491927703501262e-03,6.283258795738220215e-01
6.130736193518308008e-01,6.131634499282002659e-01,-1.183498644998570715e-02,3.512570369211178573e-03,3.735818925763409199e-03,-3.918540892618563136e-03,6.250534653663635254e-01
5.904071052971797684e-01,5.951032371773189444e-01,3.502112440327498355e-03,-2.122843619221577351e-03,6.589072456732015344e-04,-1.748660307128954835e-03,5.892874598503112793e-01
6.276460130778744873e-01,6.224187199628812284e-01,-1.117937751955255798e-02,2.315946237383844069e-03,-2.361917433425496284e-03,-1.824003637177648574e-03,6.362614631652832031e-01
6.412380968808366610e-01,5.021447634155897788e-01,-5.403738023864901319e-03,1.460342399293756421e-01,3.169063516023980925e-02,-3.820761452718190315e-02,6.472398042678833008e-01
6.222143964118480586e-01,6.192780591336879414e-01,-1.467894669046193590e-02,5.160215119898825357e-04,-3.574976273695421470e-03,-1.320751943886151747e-03,6.354652047157287598e-01
5.904035864852652526e-01,6.119979583352253005e-01,1.653032436274515238e-03,3.866954757940736093e-02,1.674897987070409627e-02,-1.970434952227104880e-02,6.052268743515014648e-01
5.482954418995915624e-01,6.518308400743748621e-01,-1.317905799848806403e-03,5.659747570825773150e-02,5.931569368416893945e-02,-2.796976239632056882e-02,6.262672543525695801e-01
6.270911603315658667e-01,6.214445402873955970e-01,-3.283542780702419783e-03,-2.657183398573623786e-03,-7.635800534396379458e-03,-5.952478400620193032e-03,6.278113126754760742e-01
6.332638050243292183e-01,6.223760433295567607e-01,1.441608365798802138e-02,4.484320949081760203e-03,-6.405865652764576937e-03,1.413423532884979222e-03,6.136306524276733398e-01
6.345760744603203829e-01,6.547532165271772175e-01,6.550315239209369977e-02,5.215845093268034124e-03,1.840793179114438502e-02,4.385010690145890147e-04,5.803723931312561035e-01
6.573393808973421182e-01,6.137162061301294491e-01,4.427303926447651028e-02,2.791194983370325761e-02,3.518752201867388074e-02,-3.104234216992344392e-02,5.999600291252136230e-01
6.121428534478619010e-01,6.348399355526420651e-01,1.685667235704613187e-02,3.386558048301494765e-03,1.514746095566479184e-03,2.670835653291699259e-03,6.070047020912170410e-01
6.071414160970228791e-01,6.251182960307191117e-01,-3.265850240102841084e-03,7.847494348928216179e-03,2.111351167422515981e-02,-1.272397339159136824e-02,6.212094426155090332e-01
6.396706493657010606e-01,6.614099931742594141e-01,3.534181847326389736e-02,1.480747064555845531e-02,-1.281914604742931396e-02,7.537093544353317548e-03,6.165588498115539551e-01
6.193109075409605202e-01,6.140495937170031837e-01,-1.437394074802433863e-02,-4.609619588370046065e-04,-1.792530304443668921e-03,-6.635546177556170700e-04,6.310798525810241699e-01
6.168157355157349864e-01,6.141569810945224361e-01,-1.497262734581916721e-02,1.300836207888701193e-04,-3.126213771205367010e-03,-5.958496826506075577e-04,6.304873228073120117e-01
5.914918284711854213e-01,6.212089170696887264e-01,-6.343856203926967474e-03,1.071666902274538875e-02,1.291267798208422558e-02,-1.295169327335308693e-02,6.143326163291931152e-01
6.147392819827315336e-01,6.322675143595244407e-01,3.176172123052400931e-02,-1.433495727925909779e-03,6.781251154885523103e-03,-8.923902521623096329e-03,5.922598242759704590e-01
6.186828202073317851e-01,5.493185539970690812e-01,1.678831078223774753e-02,-1.062301516621691651e-02,-1.409188765112696050e-02,-1.707517547945778353e-03,5.712105035781860352e-01
6.124625634706275523e-01,6.083454846437424957e-01,-7.817749926186834397e-03,-2.146927884118415061e-03,-1.305731351969439296e-04,-1.192257674124499447e-03,6.182467341423034668e-01
6.124944206896308918e-01,6.661319644418872699e-01,-8.517531738764239080e-03,1.739387760883569223e-02,2.955784703766534474e-02,-1.869364679096327184e-02,6.530079245567321777e-01
5.976252262035296470e-01,5.960647580313712668e-01,7.310891437320665709e-03,1.380683670687107845e-02,1.563822133494116584e-02,-1.518004706674017101e-02,5.912268161773681641e-01
6.108737539686417417e-01,6.095388400236412263e-01,-9.611793738386165131e-03,-2.006162057532393916e-03,-8.519670796899615761e-03,-1.156050465913244880e-03,6.200077533721923828e-01
5.480805946696725162e-01,6.707571053009793172e-01,3.489422698911726073e-03,1.741707965360238253e-02,2.164303991514497996e-02,-1.180246950750676004e-02,6.173903346061706543e-01
6.122036323915869271e-01,6.124026786792783339e-01,-1.211300983549040700e-02,-1.615696557097923147e-04,-2.455730800417753497e-03,-2.028356187798502699e-03,6.244406104087829590e-01
6.561266901148851138e-01,5.054386225434941426e-01,8.002596525688743245e-03,-2.232468360198707272e-02,-1.777671806409731464e-02,-1.206561295568028130e-02,5.899043083190917969e-01
6.308524205931121953e-01,5.801138653216829644e-01,7.668659808833355740e-03,-2.084839893515607820e-02,-1.474172855906748583e-02,-1.361266949277768409e-02,6.015187501907348633e-01
6.223903232252985251e-01,5.797809424633493247e-01,1.498253956930095665e-03,-4.086163682851674805e-03,-1.306884842166712232e-02,-1.794278560816500940e-03,6.011978387832641602e-01
6.044696272352413358e-01,5.944830343112290638e-01,4.242024871541683062e-03,-2.115870614411030897e-03,7.024584473883509206e-03,-1.742926401363158965e-03,5.954403877258300781e-01
6.188981069725274509e-01,6.101052871938021926e-01,-1.432501144533759874e-02,-7.103478582291192353e-04,-4.250505580994944771e-03,-3.532058248469777118e-03,6.289468407630920410e-01
6.036572738082659484e-01,5.572531547478127845e-01,1.754173163600847296e-02,-1.360597599704554787e-02,-1.084917792429348701e-02,-1.445456063178449362e-03,5.651560425758361816e-01
5.848008788718419559e-01,5.932903123229966713e-01,1.032090965792242798e-02,-7.733616652545525876e-03,-7.813964967421567834e-03,-9.226778112639976923e-03,5.793050527572631836e-01
5.817789547056625432e-01,5.845966738579335686e-01,1.745125787190127120e-02,-5.795534325336810198e-03,-1.899883437496551570e-03,-5.619886126531357592e-03,5.659241676330566406e-01
5.844400868153691864e-01,5.818394317113100289e-01,8.686873515461823736e-03,-6.678124113337045170e-03,-8.766828628334909224e-03,-5.274364870311873052e-03,5.748469233512878418e-01
6.139861121477143691e-01,6.168318569200623713e-01,-1.458146018590772419e-02,6.071130681675177996e-04,-1.806569122800681247e-04,-1.537990190005570018e-03,6.300018429756164551e-01
5.685220225613533129e-01,6.049381522599022176e-01,1.686377527730587023e-02,-2.774016048458393877e-02,-1.265970184426208102e-02,-2.003283420646907384e-02,5.742260217666625977e-01
6.035792473696517391e-01,6.092931870739433098e-01,-8.987428073151670915e-03,-2.647140521499806963e-03,3.396248752079181416e-04,-9.063484903429320193e-04,6.154628992080688477e-01
5.838469592804257369e-01,5.910055441086343730e-01,1.832096071552885563e-02,-1.375801947104330139e-03,-1.831705909981287683e-03,-5.538231124419920777e-03,5.692337155342102051e-01
6.158722542227716978e-01,6.296256982588600559e-01,-3.428056215060482081e-03,-5.397977622548287644e-04,4.787882124224099138e-04,2.741807581695279803e-04,6.262917518615722656e-01
5.924055323385160055e-01,6.136183261536618527e-01,-7.876968572773479504e-03,4.415425125083767728e-03,4.154601099829226436e-03,-7.414799771781684264e-03,6.113901734352111816e-01
6.191403633490264458e-01,6.311237870116568338e-01,-1.013098097579534507e-02,1.206858377530979675e-03,-2.642322344415078388e-03,-3.138535640501602733e-03,6.353909969329833984e-01
8.192219826741563571e-01,1.423763507208334611e-01,-9.811835483517383771e-03,-1.580509921382747263e-02,1.864536152633525581e-02,-3.668451199496571696e-03,7.655859589576721191e-01
6.167069238042759416e-01,6.320273784810882534e-01,-3.755379259028190919e-03,1.179101038582496680e-03,9.180079390175060940e-05,1.578287857597101673e-04,6.282660365104675293e-01
6.308865524626258159e-01,6.133328140798098849e-01,-8.469840307518627931e-03,-3.543114872996819351e-03,2.886380952958974774e-03,3.099248989323800593e-03,6.308352351188659668e-01
6.199794774705286171e-01,6.306599945598978518e-01,-1.086481071935796461e-02,8.720082458705493604e-04,-1.517397886665414674e-03,-1.813259851894581578e-03,6.362667679786682129e-01
6.302092470371942756e-01,6.066635443774748282e-01,-1.102959570955353019e-02,8.412036277222659881e-04,5.139911861123801218e-03,4.412662063359502787e-04,6.298612356185913086e-01
6.071217716275612020e-01,6.345968177778052999e-01,-9.976559472707424714e-03,-1.755787134682063651e-03,-3.606995546475797332e-03,-2.959810150718072790e-03,6.313434839248657227e-01
6.351241751222951315e-01,6.016018356640573383e-01,-9.558928582500847426e-03,2.183558272320296027e-03,-9.400657789285834370e-05,1.047983740199542662e-03,6.286066770553588867e-01
4.640462458811603352e-01,6.648525642041692718e-01,3.193246406347982624e-02,1.445685117181308259e-02,-1.198622255874457572e-03,5.015279635479049682e-03,5.608239173889160156e-01
6.084125311481349829e-01,6.311904785357317360e-01,-1.103839811166384965e-02,2.189204774645633000e-04,-4.333101286633978498e-03,3.220519197932824890e-03,6.312176585197448730e-01
6.086190823776960190e-01,6.302854190909059628e-01,-1.059431520369263913e-02,4.050404305987814692e-04,-4.871281893160205392e-03,3.848403181712253558e-03,6.304180026054382324e-01
6.196652763118429830e-01,6.307211945421944410e-01,-1.028569149917457626e-02,-6.250153230674242990e-04,-3.003835051996084794e-03,2.700849720745821490e-03,6.355904936790466309e-01
6.092937644986575751e-01,6.279171245406840463e-01,-1.076855999161324684e-02,-3.309707111934621785e-04,-4.770491111367512402e-03,3.615040137636299413e-03,6.296662092208862305e-01
6.198772147915125874e-01,6.274209366308854952e-01,-9.826094221933590056e-03,-4.045732439234356803e-04,-3.304853782124537401e-03,3.524232290306215671e-03,6.335645318031311035e-01
6.105762605774452956e-01,6.160612636997010449e-01,-7.069926377773094739e-03,-3.947818964266924628e-03,-1.047267415333225267e-02,-1.251791041677780512e-02,6.210882067680358887e-01
6.120050076844758546e-01,5.899143161070724561e-01,6.028991187252363826e-03,-2.314601402025294463e-03,-6.394029380281428601e-03,-1.614410314437991854e-03,5.953612923622131348e-01
5.947682298823787628e-01,5.903283167839579182e-01,5.176367352423438817e-03,1.121132118249739182e-04,-1.667739353502455070e-03,-3.974353062285256429e-05,5.873916149139404297e-01
5.770939191178570127e-01,6.024538080603192292e-01,9.754270770036821414e-03,-2.070197022145096183e-02,-1.112740957563919907e-02,-1.244536051442276907e-02,5.822601914405822754e-01
5.641615928984277106e-01,6.020325646933667452e-01,8.392317313849317895e-03,-1.122660175666649954e-02,-7.093795283691446164e-03,-1.273414733796336684e-02,5.765212774276733398e-01
6.463560362305063034e-01,6.019619398355986473e-01,-8.240147315042356535e-03,2.905941936519672135e-03,1.713923633441315577e-04,1.392614401288536172e-03,6.335913538932800293e-01
5.785133123468723104e-01,6.030982357070160393e-01,1.002520124415440250e-02,-2.808515745526021703e-03,-5.483359798366752198e-03,-1.109207826090266753e-02,5.815860629081726074e-01
6.467789673279212836e-01,6.010819435598759863e-01,-9.797421131337746836e-03,2.101042776345994016e-03,4.749810831238266730e-03,1.054061604211925084e-03,6.350287199020385742e-01
5.981903602214919680e-01,6.164835140599408403e-01,-5.341206412279142501e-03,7.183140026064817156e-04,-3.648562756821496691e-03,-8.134401291658592548e-03,6.130787134170532227e-01
5.965927828295642943e-01,6.169422906349576463e-01,-5.479117563248925293e-03,-8.533836117441746805e-03,-5.034921224723959421e-03,-8.107725881225307657e-03,6.129015088081359863e-01
5.817449722140357604e-01,5.994349136777898934e-01,9.987211030432152636e-03,-5.102180621762679100e-03,-6.388223015631988057e-03,-9.276934763179679744e-03,5.811995863914489746e-01
6.395199047142394733e-01,5.675146306883882552e-01,1.941377249519149473e-03,-5.132173711138922345e-03,-1.171944949909794684e-02,-3.116706847222254820e-04,6.052052974700927734e-01
6.881571359451057468e-01,4.646081110296232941e-01,1.525625591227069977e-02,5.833502517705244084e-03,9.212622943070231454e-03,-1.928830568778453240e-03,5.938950181007385254e-01
6.234006562481251290e-01,6.064348626949100929e-01,-9.350661935763449062e-03,-3.428938130147737070e-04,-8.607961879260706689e-03,-1.090244989973175463e-03,6.246224045753479004e-01
6.088351945335932491e-01,6.119827831599617962e-01,-8.364510772791045046e-03,2.299121568310724326e-03,-1.064450146273022545e-03,-5.085408925063798595e-03,6.188577413558959961e-01
6.045887611210954971e-01,6.024465694747724864e-01,-3.131237807047604349e-03,-1.695358972757461712e-03,-4.457952902926972175e-03,-2.437885618191708206e-03,6.067226529121398926e-01
6.377301466664838658e-01,6.009939448457102262e-01,-9.559215034846746395e-03,9.612723787977051114e-04,-5.419300789028714919e-03,-7.495334520213715402e-04,6.297988891601562500e-01
5.546590933014985403e-01,5.883697729943564436e-01,3.231355074974973096e-02,9.060465318161705500e-03,4.356684208951229031e-04,-4.581626056568696877e-03,5.402774214744567871e-01
6.173089684062348370e-01,6.160594725734040988e-01,-1.525316365383244666e-02,-1.260864600341491195e-04,2.095305663952293370e-04,-4.157927600708750601e-04,6.319388747215270996e-01
6.222273062553771439e-01,6.168083276864807507e-01,-1.214439090715219161e-02,-2.141334995247579608e-03,5.982138381594069403e-03,-4.048212686010037656e-03,6.318144202232360840e-01
6.197069428107195854e-01,6.169356122119267205e-01,-1.410736933819328742e-02,-3.264693420080465791e-05,1.028650198328448810e-03,-8.476875865207172652e-04,6.324374079704284668e-01
6.312808665162826793e-01,5.975012219360911203e-01,2.032570678145440013e-04,3.216235895601339198e-03,7.064257225064607577e-03,-7.404272035984846116e-03,6.151647567749023438e-01
6.027522480659658344e-01,5.988542847915415690e-01,-3.528524129355226080e-03,-2.102892620750027638e-03,-6.246049970321413541e-03,-4.078321633520940771e-03,6.044902801513671875e-01
6.153454001621389002e-01,6.340905819681712519e-01,-1.170665350351152156e-02,3.170551960180638743e-04,1.554161488653746620e-04,-1.365257149870846131e-03,6.366363167762756348e-01
6.205227059080471452e-01,6.183241870928350981e-01,-1.449131433312444983e-02,1.559164669496544827e-03,-2.081182045467264499e-03,-2.618044268075749893e-03,6.339498162269592285e-01
6.200410351025509303e-01,6.152354921770617491e-01,-1.529027636712460003e-02,-3.039822153188452233e-04,1.706762532852795647e-03,-1.025483552814703079e-03,6.329518556594848633e-01
6.621388205909886082e-01,4.831379754919188363e-01,1.777655986238291241e-02,-1.993086934588458176e-02,9.099748197549731299e-03,7.255261099594733764e-05,5.773584842681884766e-01
6.772400927771924373e-01,4.471925519647588221e-01,2.362909291151493729e-02,-2.988077712482811385e-02,9.716025616248668076e-03,2.241312890234658725e-02,5.781318545341491699e-01
6.341319588163673027e-01,5.389667530167593368e-01,5.514557798969310642e-03,-1.093803433161449380e-02,1.562093402098798170e-02,1.943864827951253746e-02,5.887429714202880859e-01
6.477905526023810534e-01,5.321059777870309482e-01,6.049023059648495071e-03,-6.691392382369979429e-03,1.618926975007650357e-02,1.877952530372430442e-02,5.940994024276733398e-01
6.292690453589070421e-01,5.208477645992579674e-01,2.494333506815610280e-02,-5.262042387389863352e-02,1.144089196741309399e-02,1.788545563785888526e-02,5.666586756706237793e-01
6.321165209992809508e-01,5.097170012624542279e-01,2.108391794481434545e-02,-1.760168965603630190e-02,1.321537958305554240e-02,5.129731196498977901e-03,5.613240599632263184e-01
5.757588170736129829e-01,5.771009294979778659e-01,2.820244614966127550e-02,-1.710042221814482913e-02,7.236526619255807292e-03,4.151940260629192504e-03,5.492182970046997070e-01
5.791633052071928356e-01,5.751861827983971720e-01,2.591307088844835294e-02,-1.474007120776483918e-03,4.365190176992914811e-03,2.098492933383692364e-03,5.513421893119812012e-01
6.026536704702842862e-01,6.034441432531693073e-01,-2.305945726007951890e-03,1.648959936888330668e-04,2.484405223592450838e-03,-4.452662580545788118e-03,6.054196953773498535e-01
6.138921343531430486e-01,6.193292849877882755e-01,-1.399758151075231050e-02,-2.611119547375877117e-03,-2.428496644312494457e-03,-4.799019761787241649e-03,6.307108998298645020e-01
5.751386714697989122e-01,5.701283378333712459e-01,3.266774801521044047e-02,-2.173480326920961426e-03,1.279281163453981041e-04,2.397939614587819466e-04,5.399965047836303711e-01
5.780275594274096873e-01,5.637293965475254076e-01,3.024833544769062188e-02,-1.130547358688142011e-02,3.494505578752208231e-03,1.143401036423539584e-03,5.411638021469116211e-01
6.015584209888706901e-01,6.014251380417856563e-01,-3.225129004772175900e-03,-2.469572690990580032e-03,4.729142863310923164e-03,2.426098372101715556e-03,6.048021316528320312e-01
6.016891700895070638e-01,5.596114787345964903e-01,4.912348213794770491e-03,-1.339277791288189488e-02,1.083740533318942358e-02,7.262236952053977360e-03,5.777982473373413086e-01
6.498074960174337056e-01,5.428654428084348504e-01,-2.103951949233406893e-03,1.101595479276298341e-02,-1.898515229641157143e-03,2.110193876548629045e-03,6.058849692344665527e-01
6.316828785874846197e-01,6.245127724737234987e-01,3.866548904273353626e-02,-1.864901626547464924e-03,4.498953417929534709e-03,-1.341154269604145216e-02,5.899828672409057617e-01
5.990460344354801014e-01,5.816318078640128064e-01,6.962986289802908235e-03,-4.994320670332334788e-03,9.411654382202800859e-03,8.123639117370689763e-03,5.840320587158203125e-01
6.102579350998282859e-01,5.960939509405197567e-01,-4.648182762589325723e-03,-8.767242687453200012e-03,9.695315201085078632e-03,1.117147339957728740e-02,6.086769700050354004e-01
5.999160529912213047e-01,6.018256585971304418e-01,9.180791802388010847e-03,-1.567748868488955810e-02,1.056319309445299601e-02,9.258272670262780724e-03,5.928145647048950195e-01
6.489280429426876884e-01,5.524199650053241983e-01,1.164949179230101439e-03,3.530147932464527006e-03,-8.561973493335647140e-03,1.774213168155321227e-03,6.055272221565246582e-01
6.237396011710549804e-01,5.382419113727807680e-01,1.579131308884290652e-02,8.498648367209751461e-03,1.263084072657837814e-02,-1.818806652031043592e-03,5.706470012664794922e-01
6.249885526801550739e-01,6.165598828832670186e-01,-1.046848305072767271e-02,-3.393227480484356691e-04,1.059573716749567102e-03,-3.452116182795948806e-06,6.312878727912902832e-01
6.571250057701809588e-01,5.241791663640456012e-01,1.750809807375569571e-02,7.422185356739247931e-03,1.244494309459417622e-02,-4.438401815948496074e-03,5.851828455924987793e-01
5.711409498535595652e-01,4.774221342610932006e-01,2.036706911557079058e-02,-3.016628876190580177e-01,-1.973743942691314271e-02,-6.952893037576929336e-02,7.410736680030822754e-01
5.102273502518936965e-01,6.267694205207967606e-01,1.927567069054947346e-02,9.905525433479306363e-03,-7.733982363954280509e-06,1.549995772874552397e-02,5.593274831771850586e-01
6.278734874457464477e-01,5.731725870072220674e-01,4.542512737800707967e-04,1.006929356661952213e-02,-1.251380698623700237e-02,3.074827948788258275e-04,6.025785803794860840e-01
5.005357258705465107e-01,6.472935088417040017e-01,1.385366833256462815e-02,1.451400537784372329e-02,6.733430042272456903e-05,7.585954028021824232e-03,5.750011205673217773e-01
4.534689080490977853e-01,6.506988121752129706e-01,3.467283124545594841e-02,8.974740854462436024e-02,-1.297157124668381909e-03,1.289042143115722407e-03,5.666239857673645020e-01
6.321006354326650367e-01,6.140085545690453506e-01,-9.553844665408539605e-03,-2.048186339419247499e-03,6.468427955168775355e-03,-4.525157134341472112e-03,6.329600811004638672e-01
4.642890607666323444e-01,6.629160884597981029e-01,3.724528310302921419e-02,1.439372917254552048e-02,-1.066305294819611896e-03,6.688237339567620204e-03,5.544372797012329102e-01
6.270135898467422697e-01,6.163455293350241782e-01,-8.648875284054668988e-03,-9.927072838553979348e-05,2.745211387828982476e-03,2.494395254411221527e-04,6.304142475128173828e-01
6.249300447685195437e-01,6.156499876093920465e-01,-1.430968962232964659e-02,-2.086453336012592582e-03,2.120827657874705709e-03,4.493806530150788975e-04,6.346719861030578613e-01
7.598913627357074541e-01,4.863226524719894694e-01,-3.635287032963074871e-02,-2.599460797815190127e-01,1.899980537759693444e-02,5.328499973414461272e-02,8.386501073837280273e-01
6.679765705842255485e-01,6.259220488666703552e-01,1.163455417508861278e-01,1.588815651688780389e-02,2.010516831411742270e-02,1.624815336909953001e-02,5.344424843788146973e-01
4.573306036665553131e-01,6.796978823317788576e-01,2.047662712428716114e-02,-1.443051595587098272e-02,-1.736915727863549280e-02,-1.316266633784277454e-02,5.826492905616760254e-01
5.791577576100658264e-01,6.250530675341061659e-01,-3.827967357722394937e-05,3.807390899049501853e-03,-2.691539127349204161e-04,1.192250360364962604e-02,6.038435101509094238e-01
6.021794582347483882e-01,5.902738255930070066e-01,2.960833654406247462e-03,-6.101277820154970416e-03,-1.204194681267100123e-02,-2.318098334755008209e-03,5.938294529914855957e-01
6.310957237897599770e-01,6.275428766725705820e-01,1.007243368219140067e-01,1.505568985531474668e-03,-7.282187254553424208e-03,1.122436130770431729e-02,5.291180610656738281e-01
6.144724262775285162e-01,6.317179678882691718e-01,7.734873031357653028e-02,6.621227243688486419e-03,-2.858977543439413307e-02,1.047146580851002380e-02,5.486117601394653320e-01
7.408556031665217700e-01,5.098265620846165191e-01,7.042207005261702513e-03,-5.330704220158142409e-02,-2.612454050218929527e-02,-5.933515995885654815e-02,6.659269332885742188e-01
6.291018164680703961e-01,6.318748718415458931e-01,3.967927993830477895e-02,-5.456960094491220686e-03,-7.115138796330598703e-03,3.761692979025008706e-03,5.910539627075195312e-01
5.112219492467723336e-01,5.383276521050319730e-01,1.990202565738952156e-02,1.554421792129493385e-01,2.126274579915884283e-02,-1.698090785897931818e-02,5.745918154716491699e-01
5.616594541282786679e-01,5.940685091185425870e-01,3.321940442018112005e-03,4.485159945521765418e-02,1.478051120755954732e-02,-1.986849020281885453e-02,5.820317864418029785e-01
6.131919458648387167e-01,6.139873252474954413e-01,8.435071415772155135e-04,1.017558590266705136e-02,1.042639964728703933e-02,-5.621082425081546687e-03,6.133431792259216309e-01
6.035516297266277919e-01,6.016128600823220651e-01,-2.558477942408377004e-03,7.222242701609057555e-03,5.509397410302266200e-03,-6.547460175258221736e-03,6.054537892341613770e-01
6.012486024435229615e-01,5.927893414454927790e-01,3.715837620972550770e-03,6.579801616828882815e-04,6.744040102495829289e-03,-1.600418202560738084e-03,5.934708714485168457e-01
6.131425408893600437e-01,5.696484443817401155e-01,1.044162870663262188e-02,6.285744131148717981e-03,1.126831623025477055e-02,-4.820110274467589127e-03,5.826622843742370605e-01
5.759362524775517578e-01,5.791998000782745404e-01,2.010705674339030580e-02,-7.119376095228392709e-02,-1.905544036246106451e-02,-3.030600342363077779e-02,5.743005275726318359e-01
6.608927717862469464e-01,4.430647217210849087e-01,2.040645779523975190e-02,-8.130842064645174561e-02,-3.057325357813638761e-02,-6.101914477558287309e-02,5.932648777961730957e-01
6.179510812692373678e-01,5.808469120934396379e-01,1.810079915003265372e-02,-6.880179854666583494e-02,-3.125488048502727406e-02,-2.778413788711512830e-02,5.986548662185668945e-01
5.445243383575915086e-01,6.673477780502827805e-01,-1.077361737520876606e-03,-1.008872460406052760e-03,6.879699734937295020e-04,-9.446208132260507442e-03,6.164832711219787598e-01
5.912103242408872639e-01,5.907904936504274618e-01,3.919021019137880479e-03,-2.009955751247918376e-03,-6.604578554506746781e-03,-1.617435869384652126e-03,5.872099399566650391e-01
5.994292139467652936e-01,5.181579428009995825e-01,1.522052866830009288e-02,-1.268125220077594983e-01,-2.963580545251275067e-02,-4.479947745494555766e-02,5.977671146392822266e-01
5.528136531701590695e-01,5.882076145918093690e-01,1.013315971722827946e-03,-1.593122949118588316e-01,-1.021062796868909238e-02,-2.602468768061061075e-02,6.354153156280517578e-01
6.354961755281500757e-01,5.005841440492295735e-01,2.408600967187135566e-02,1.899526000051243377e-02,-1.179788525671859011e-02,1.032890068473266663e-02,5.579938888549804688e-01
5.897487975444578590e-01,5.906544046341923870e-01,1.201478601423772163e-02,-2.194175106785818067e-03,-4.817606652793816717e-03,-4.251479385374109209e-03,5.783069133758544922e-01
6.554734903258874201e-01,5.100892281766681302e-01,1.560779408032131332e-02,-6.177816013977417697e-02,-4.969870815919633783e-02,-6.380526955731168071e-02,6.071335673332214355e-01
6.272810738523804108e-01,6.257875265195381731e-01,2.775187770972387113e-02,4.225438147665684999e-03,-4.771186728438550975e-03,-4.077254954824616716e-03,5.989271998405456543e-01
5.868797653666065761e-01,6.091852602241957237e-01,2.889962670738932538e-03,6.578485505605836947e-03,-7.269024427048804103e-03,-1.191988090059314769e-02,5.960556864738464355e-01
5.896014206061455099e-01,5.909026946827421467e-01,1.308737210184651722e-02,1.143559183176747797e-03,5.403371772672729313e-03,-5.375113016592195439e-03,5.773201584815979004e-01
7.094500168416236763e-01,4.929097367084900871e-01,9.950970578657680754e-03,-4.662275662425695993e-02,-2.371993451017869250e-02,-3.674876614855254048e-02,6.300628781318664551e-01
6.693008154650794683e-01,5.136136619185917018e-01,1.741565924841670387e-02,5.307823389243802696e-03,-5.439081578449988554e-03,2.009032118833293731e-02,5.908356308937072754e-01
6.179701782341942007e-01,5.417598383377285609e-01,2.662781313169260144e-02,2.902714187927223424e-02,-1.111189982571218759e-02,1.176134253088595080e-02,5.601254701614379883e-01
5.961619173315456655e-01,5.564661867496922820e-01,2.966155785921659183e-02,-6.279793591911413640e-03,-5.005333599692282642e-03,3.019233724299369903e-04,5.479092001914978027e-01
5.826743197223873683e-01,5.733813310973062682e-01,1.948491742383601233e-02,9.889320339047706632e-03,7.435292350126749238e-03,-2.020149014489323099e-03,5.590227246284484863e-01
5.282912715956691319e-01,5.502660239025904954e-01,3.299191978202997699e-03,1.210846170122956977e-01,1.497331401903882926e-02,-2.983393657151672124e-02,5.787602066993713379e-01
6.794541250799447374e-01,4.570826105175420095e-01,2.752290557849657038e-02,1.539052397084849852e-02,-1.523507270355112242e-02,1.585460095133879588e-02,5.758936405181884766e-01
5.997410120803556843e-01,6.113326255749638172e-01,-1.407079394543930828e-03,2.077592810541215376e-03,4.499666635859944815e-03,-8.745483768042490794e-03,6.072765588760375977e-01
6.221872527216366633e-01,6.235034024881624948e-01,-6.805649096457921932e-03,-8.223781017046137174e-04,8.187402290540487376e-03,-7.782397064877572858e-03,6.299574971199035645e-01
5.898316774610418145e-01,5.557612068918622583e-01,3.038554703968526782e-02,6.607887370194697602e-03,2.465203228728373493e-03,-8.274919064997621589e-04,5.433520674705505371e-01
5.758852701230344762e-01,5.649826969099618346e-01,2.463062147614780706e-02,1.290524778762205949e-02,5.515740184752869132e-03,-2.443631767939922518e-03,5.464423894882202148e-01
6.829733591241415880e-01,4.474653406150403967e-01,1.020463012165184757e-04,1.666986052255230513e-02,-7.034507265266940965e-03,6.721391214239957890e-02,6.127730607986450195e-01
6.136781095256969021e-01,6.357881093180492993e-01,9.014112485616565529e-03,-9.001855182996119573e-03,1.112431464482416428e-02,1.004473066675984176e-02,6.167605519294738770e-01
6.829215916086341931e-01,5.071502790347457434e-01,-2.362111520816778665e-03,5.765076874279227194e-03,1.879181667515866100e-03,2.809124250245548238e-02,6.184931397438049316e-01
6.617456533467472868e-01,4.577170821885809815e-01,3.433288331231332258e-02,1.683956529507722039e-02,4.641025647056243666e-03,-5.815833440354262239e-04,5.551401972770690918e-01
6.978384152316925437e-01,4.484573836727043794e-01,3.362589721272402077e-03,1.114766160026326933e-02,-1.227594508807709761e-02,6.885007811559894220e-02,6.215660572052001953e-01
5.938029893530519798e-01,5.530110813244450974e-01,3.081356641673338448e-02,9.921352198266635350e-03,-4.650672567721312461e-03,3.206186759504259481e-04,5.440736413002014160e-01
7.121127420158657184e-01,4.970281382924063296e-01,7.928988349709342742e-03,6.445739002344810786e-02,-9.059227861660849868e-03,6.081318213358163222e-02,6.438030004501342773e-01
8.843693756295860631e-01,3.538660567784418509e-01,-3.044284715485540138e-02,-1.497394265803084490e-01,6.654472670618249985e-03,7.987493466949900645e-02,8.482586741447448730e-01
6.087602049072924348e-01,6.133068423196263996e-01,-8.400110762282697596e-03,-7.282982366647205346e-04,-7.696856508333590899e-04,4.715339010616029572e-03,6.195027232170104980e-01
6.157251062998645441e-01,6.241935454355085344e-01,-1.339521070528743030e-02,-3.052163109744786707e-04,2.255306122678003876e-04,2.699328494472897060e-03,6.334145665168762207e-01
6.181779194381673559e-01,5.966380324159294979e-01,-7.074975633848068490e-03,4.002035946824934569e-03,5.939008433326265456e-03,-1.447601858814015312e-03,6.148962974548339844e-01
6.974220186686129752e-01,3.760298668006264999e-01,3.376245727341131708e-02,9.183521608352661347e-02,-1.977659842935492948e-02,2.303153731749842115e-02,5.987551808357238770e-01
6.476133881645932400e-01,5.209999260184429160e-01,1.657461733543585947e-02,-5.558459134113983777e-03,-1.212247329260729076e-02,-3.130019135417598086e-03,5.787104964256286621e-01
6.160166738537942166e-01,6.200247080696834612e-01,-1.197054491464427661e-02,7.565250013638297015e-04,3.202990565602274829e-03,3.992871757817317846e-03,6.300645470619201660e-01
6.899192747801284886e-01,4.750705163302493261e-01,1.624529402818392088e-02,-3.528472093801616918e-04,2.501557458328399278e-03,6.295539338026540522e-04,5.960528254508972168e-01
6.101289614301133035e-01,6.174813983746131330e-01,-1.254939061318371962e-02,-1.444177898150416934e-03,1.651600144906100820e-03,4.473612039930977870e-03,6.264463663101196289e-01
5.589992809231433268e-01,6.228681242726366030e-01,4.588223294672177932e-03,-6.577542186029903745e-03,8.605770439002699210e-03,1.659650746855403924e-02,5.899480581283569336e-01
6.100223160594310245e-01,5.971990535142440715e-01,3.945707131367937048e-03,9.973880546532722362e-04,6.699098515591306313e-03,-1.542673088930252316e-03,5.998884439468383789e-01
6.159159168668719708e-01,6.170069355366125663e-01,-1.502140783236566302e-02,6.483352458736476600e-05,4.801507879313721009e-04,3.238058647927145243e-04,6.314843297004699707e-01
6.451539765148126548e-01,5.926647095696466749e-01,-3.165742897310530601e-03,-1.486493317082121166e-03,1.700717070897822536e-02,-1.992385734558531352e-02,6.253870725631713867e-01
6.594633740153241774e-01,5.463757390042893736e-01,1.760586151645315844e-03,1.547563864115661381e-02,1.564691745160105493e-02,-2.128497281760078491e-02,6.113884449005126953e-01
6.232636878274706582e-01,5.140687097401275274e-01,3.191953625371474201e-02,1.508904709618364912e-02,3.321969793050539438e-03,-9.434080314620781321e-04,5.456724762916564941e-01
7.324520032633928812e-01,5.595580892093391379e-01,3.289300919913906718e-02,-1.574950558980962086e-03,2.407455071086319481e-02,-3.518053446452209382e-02,6.354406476020812988e-01
6.544323422022635395e-01,5.207052224451490519e-01,1.442528025483091891e-02,-3.961049521885544669e-03,-1.011331398545354740e-02,-3.698118260889328174e-03,5.850646495819091797e-01
6.682609127212857381e-01,5.507667742560771185e-01,7.205960531231903055e-04,-3.063184022702822740e-03,-1.830697975774663163e-03,2.041425873880466178e-03,6.172791719436645508e-01
7.003122111050784637e-01,3.890952855491361939e-01,3.703845746645351156e-02,3.738009383748812711e-03,-7.323452867072553990e-04,1.112610310053463360e-03,5.748158693313598633e-01
6.216198289802454813e-01,5.128371975611032418e-01,3.508681677754937889e-02,1.258766416541613059e-02,-6.153250910263983846e-03,5.278090211003721695e-04,5.409619212150573730e-01
7.583894687286240055e-01,5.586910986185814609e-01,-1.081006503531833918e-02,3.422126596739728799e-02,7.886170321741005004e-03,-4.110366202195461088e-02,6.976445317268371582e-01
5.622301247071570529e-01,5.576505699916485259e-01,7.908482546193085216e-03,-2.525863303985633745e-01,-8.554060690735504346e-02,-2.969592394360127952e-02,7.216312289237976074e-01
6.592241865331744943e-01,5.641552029481551322e-01,-4.614103004158598420e-03,2.183273615952354557e-03,7.442691309633147657e-03,-1.238996235404505979e-02,6.222941279411315918e-01
6.239908686864990006e-01,5.491718422264423305e-01,1.870842516267734457e-02,-9.393589880579011550e-03,-1.086890699298581620e-02,-1.420928012529536991e-03,5.721042156219482422e-01
6.208443978872547619e-01,6.158543497606097095e-01,-1.435672862096198932e-02,-3.443935628361837679e-04,1.638715545762382993e-03,1.103117260996055310e-03,6.327303647994995117e-01
6.192864088634719710e-01,6.151127501183830670e-01,-1.511016872859732851e-02,6.629291381027676471e-04,2.024959670015161629e-03,1.372441965466106436e-03,6.323353052139282227e-01
6.208787117863451277e-01,6.169045628540714699e-01,-1.469649948357210079e-02,7.448441770934478834e-05,1.514368493207359596e-03,1.194833454891780673e-03,6.336063146591186523e-01
4.495267247466408489e-01,7.496775521082115201e-01,-1.053359197165854022e-02,5.105319189557197546e-02,-7.535554478352587959e-02,1.075913074493591026e-02,6.819350719451904297e-01
5.575291283683621035e-01,6.574022120778683087e-01,5.439475951984573676e-02,4.907267291015619814e-02,-4.588127042518385518e-02,2.229584433980769109e-02,5.730614066123962402e-01
4.332485480660997479e-01,6.773960364802709133e-01,1.820254081652666889e-02,4.810149634196637242e-02,-2.513589426608837246e-02,1.541296735645004273e-02,5.854511260986328125e-01
3.428789175985664239e-01,7.407315646226265704e-01,3.347358580274989448e-02,3.906423091893066607e-02,-3.497275493521757525e-03,1.335593340677839391e-03,6.178480386734008789e-01
3.418927821196985350e-01,8.030241743531887355e-01,4.323504683858947484e-03,-1.624074422994980984e-04,-6.459634572513441031e-02,2.091076907403482954e-03,7.034132480621337891e-01
5.801392664389320997e-01,5.802013857771171068e-01,1.920875653343701028e-02,-5.900684412660874012e-03,-5.571085014699218331e-03,-1.127625519877793314e-03,5.611410140991210938e-01
3.794936813192364977e-01,7.302270435608767540e-01,3.877883171463725187e-02,-1.163952088378594762e-01,-8.207789007778983070e-02,-5.409620950719463278e-02,6.543956398963928223e-01
5.850340565132198245e-01,6.322142375487157517e-01,-4.609241214255876962e-03,-3.189081246660699538e-03,-1.451638819361251997e-02,-1.369400836274588598e-02,6.155890822410583496e-01
6.155233355078575386e-01,6.305039692129356110e-01,-1.256232299104526051e-02,3.691354657711803954e-04,-6.321183281847427362e-05,-2.682788243936156617e-03,6.357256770133972168e-01
4.525079417220519984e-01,6.940525080581005923e-01,4.379445737255349691e-04,1.570712245963035462e-03,-5.526743056778614382e-02,-6.049586143066342653e-03,6.174032688140869141e-01
2.240373095019615457e-01,8.586148323847032637e-01,1.361232420993679915e-02,-3.595654874247071475e-02,-6.849633499334314979e-02,-3.812051179399469913e-02,7.764094471931457520e-01
1.885170015130008259e-01,8.339084762501659531e-01,-1.963182048901784826e-02,1.167244427346529334e-01,-1.072902883968595948e-02,6.764661617158496988e-03,7.972138524055480957e-01
6.101033761510039621e-01,5.493714254123364116e-01,1.956546255449487237e-02,2.262967095751084595e-02,-1.808757756641860351e-02,5.476994848659932046e-03,5.649483799934387207e-01
6.566195664011453825e-01,4.281193997440135290e-01,1.766096329755267869e-02,1.913469749086684213e-01,-1.178347412110681766e-02,3.780274613469761236e-02,6.549984216690063477e-01
7.706844292562089471e-01,3.666439223310579143e-01,-4.093985596357330170e-02,1.935823531146356469e-01,-5.592247781486317515e-02,7.151349305052091820e-02,7.944812774658203125e-01
6.266143724394401815e-01,6.279154410187803848e-01,5.706901880168091523e-04,3.782215010840628429e-04,-5.386565161352383987e-03,8.074401988620023667e-04,6.267665624618530273e-01
5.807154903133106005e-01,5.695153000198110993e-01,2.930828548313191284e-02,-4.975487133799248382e-03,6.714080961266222800e-05,-1.112650940144212881e-03,5.459647178649902344e-01
6.124551486796613320e-01,6.357298732266111196e-01,6.123351331022042210e-03,4.156646645552097841e-03,-1.220872571311405058e-02,-8.510801808880540803e-03,6.188767552375793457e-01
5.620841488664779506e-01,6.051649055058935245e-01,3.345397513120074162e-03,1.628940069286831729e-02,1.548040249788023908e-03,-1.230563261300468385e-02,5.825575590133666992e-01
6.473908304022566451e-01,4.995616696596883455e-01,2.658958135057998273e-02,6.594154633210681793e-02,-1.812623491133458567e-02,2.148045594228177244e-02,5.752303004264831543e-01
6.342423071983368521e-01,5.251282165262679547e-01,1.907052381639562366e-02,1.821301744603176162e-02,-1.060614152690302937e-02,4.583850766921481390e-04,5.696942806243896484e-01
7.327334908629221655e-01,4.980433445602760467e-01,-4.101494907299330084e-03,5.717352897392481703e-02,-2.218852036461502197e-02,6.599441829016404470e-02,6.703928709030151367e-01
6.141970545437740459e-01,5.534746461677829688e-01,3.373023967187138705e-03,4.468348303576391567e-02,-2.711751726527131950e-02,3.210180101286903842e-02,5.924440622329711914e-01
6.333888264028783022e-01,4.281768274167972455e-01,2.328260709581625454e-02,1.164585343150323082e-01,-2.142290418901081003e-02,3.970523215310740872e-02,5.795986056327819824e-01
5.905750250454004924e-01,5.888681401554108907e-01,1.084610905035848782e-02,-5.673342763474494401e-04,6.099591461404852387e-03,4.544382818329873071e-03,5.790280699729919434e-01
5.475020270857355875e-01,5.886542623320832890e-01,3.084868296465043125e-02,7.889001686186811885e-03,-2.051811023338910838e-03,2.013440973553140036e-03,5.386066436767578125e-01
6.033159331148161275e-01,6.029235447651433155e-01,-3.673022337104980828e-03,-6.063754970801485617e-04,3.772369984774568991e-03,1.909085726343995185e-03,6.068379282951354980e-01
5.983260179349298991e-01,6.003616112535063998e-01,8.877243422494185410e-03,-2.997078887210162350e-03,9.424789924352125481e-03,1.020553425258826849e-02,5.909820199012756348e-01
6.025427628766533150e-01,6.306007938383140221e-01,-9.325287362975276384e-03,-2.513934795183322512e-04,4.499660378499542308e-04,5.061260601285974721e-03,6.264305114746093750e-01
6.496926684044703748e-01,6.278059197143477377e-01,7.089606851013391386e-02,-5.766085218405149655e-03,-4.058251413356151957e-03,-6.975738308253825667e-03,5.684291720390319824e-01
6.144962468538486267e-01,6.199790048276453414e-01,-1.465742792528995642e-02,-8.053718633057978726e-04,-2.808708032638023290e-04,2.777082181231637931e-03,6.319329142570495605e-01
5.946682385650506886e-01,5.992532414601847712e-01,3.084473946408372580e-03,-3.322976512747800003e-03,1.682214490342140174e-03,7.138572811912505256e-03,5.940532684326171875e-01
7.100012605068810601e-01,6.081501467650214376e-01,8.756839469146188160e-02,-8.402413755541604523e-02,-6.957056600042058059e-02,-1.113837373318504603e-01,6.382164359092712402e-01
6.243349461313798532e-01,6.302262253821271365e-01,8.617232576343369921e-02,-1.186063099277099991e-01,-1.163969998464286226e-01,-8.936938269580058103e-02,6.321645379066467285e-01
6.634030218502611209e-01,7.098118512157081117e-01,1.101177328586963045e-01,-2.388840451036689308e-02,-2.613427145787715691e-02,-3.868974867856998096e-02,5.849849581718444824e-01
6.253019464715587894e-01,4.721263686436614204e-01,2.839853017992716167e-02,1.544893488214987842e-02,-6.903108562886941732e-03,2.221842706754110358e-02,5.391339063644409180e-01
7.451865893092285420e-01,6.622432684265556757e-01,1.220011147398541995e-01,-2.575327139334400092e-02,-1.568180456814350157e-02,-4.278219819948052283e-02,5.931012034416198730e-01
6.665586399336146384e-01,4.942231380115179040e-01,2.421883960610599074e-02,-3.657083998246499906e-02,1.008825891338208970e-02,2.771579836181593121e-02,5.815703868865966797e-01
6.309257453446847075e-01,6.218522674146481632e-01,-8.752968095409818794e-03,1.401045858172841885e-03,-1.974485159761295500e-04,-1.348882485923085872e-03,6.351996064186096191e-01
5.884507901344999681e-01,5.923409721778833958e-01,1.227881551234816238e-02,1.614076989825124955e-03,-2.720016685111152719e-03,5.603646611017704636e-03,5.782343149185180664e-01
6.152504018346207637e-01,6.173449408046818299e-01,-1.537180516343111814e-02,3.294089785140429062e-04,-1.083685170228620076e-03,-9.330221372872724104e-04,6.316772103309631348e-01
6.175649550199349136e-01,6.157181894039797099e-01,-1.572455868148353586e-02,4.126113430223388428e-04,-8.803545902824389978e-04,-9.723942188833749811e-04,6.323726177215576172e-01
6.093661363425683097e-01,6.016170046456859044e-01,-1.760771654039039458e-03,-2.530391385539763633e-03,-5.800770023949528356e-03,-5.938381952721994567e-03,6.074753999710083008e-01
6.151745027121168219e-01,6.114863857113168599e-01,-1.277742401455422838e-02,-1.571352695146821868e-03,-4.937654543420316212e-03,-2.769233842464636098e-03,6.261987090110778809e-01
6.153472426761006364e-01,6.164340060025672585e-01,-1.471661811306246292e-02,-6.187422236792913767e-04,-6.561749461150991709e-04,1.144007490795484731e-07,6.306098699569702148e-01
5.670571014855918524e-01,6.391863716730261658e-01,-2.673262932375020107e-04,4.439723273403278769e-03,-9.581463808393412076e-05,9.030061192341055226e-03,6.068641543388366699e-01
6.308670824641702257e-01,6.189741044020802274e-01,-8.504088018162436757e-03,1.076145502337072903e-03,5.900521907809943905e-04,2.355788376207915234e-03,6.335251331329345703e-01
6.203478161337739882e-01,6.201062113534305809e-01,1.236394799980369275e-01,-9.374322466752606220e-03,-2.159003286030735172e-02,8.508768993348671868e-04,4.982603788375854492e-01
6.155029629646604494e-01,6.129511914174611276e-01,-1.535290753394286112e-02,5.221473411258212077e-04,-5.824900104595297961e-04,-1.769375682994332646e-03,6.295927762985229492e-01
6.966927625149130776e-01,4.023989310026826471e-01,3.366593190590205786e-02,-6.955352898783347809e-03,-1.487643193295180508e-03,3.145100065914136086e-04,5.755352377891540527e-01
4.565327334971190920e-01,6.628093270060242403e-01,3.275355657721346070e-02,1.498437763811453875e-02,1.399639303350024618e-03,-6.032295216186383917e-03,5.570845603942871094e-01
5.866022768102943097e-01,5.839778941755651154e-01,2.590801937750070172e-02,1.152853443014611665e-02,8.684411441104598547e-03,-8.655213466893385207e-03,5.601456761360168457e-01
5.785873275785156089e-01,5.760512030764433078e-01,2.577618361276035053e-02,1.570117233866503634e-03,4.301327469344504856e-03,-2.591016698656579010e-03,5.516227483749389648e-01
5.856695814995264149e-01,5.847330267047559094e-01,1.111167424485454136e-02,7.281216480578986405e-03,5.383704809993406989e-03,-7.970029425228029873e-03,5.744702816009521484e-01
7.522786117741677714e-01,5.656612182093495589e-01,2.024656885356357350e-03,-5.193529520095053337e-02,8.495436530836555575e-03,4.570778540703201304e-02,6.872208714485168457e-01
5.873423353714970485e-01,5.845179630014407657e-01,1.083416080130122916e-02,1.249753064322122430e-02,9.285674981137545178e-03,-8.247243834826134892e-03,5.759102702140808105e-01
5.740606625129405227e-01,5.843914798111334852e-01,1.787037152631715253e-02,1.082507761900684644e-02,1.981386945832463910e-03,-7.562720907281304979e-03,5.619031786918640137e-01
6.394663898288384107e-01,6.280942319136234575e-01,-2.314710824896537567e-03,-1.268809989235068422e-02,3.337534941283224182e-03,-3.864137578938400819e-04,6.365773081779479980e-01
6.626226585124566082e-01,4.610777642914561936e-01,4.097722552431748433e-02,-1.374642564243435360e-02,-1.043106500239549027e-03,9.589063852827513787e-04,5.498607754707336426e-01
5.771475559004621836e-01,5.668354177651412362e-01,2.357039041373520938e-02,-2.809133647878852766e-02,7.796302891122632896e-03,8.679236244601165606e-03,5.510182976722717285e-01
5.888576372469931375e-01,5.531522522347361859e-01,2.961345185934682878e-02,-7.597009738874878869e-03,2.528032035113884825e-03,1.145992614129691736e-03,5.424547791481018066e-01
5.924977836174927237e-01,5.664527349844868942e-01,5.003702046961211458e-04,-1.665153181203559984e-01,5.557189834130832340e-02,5.837608015249631799e-02,6.621108055114746094e-01
6.815756524448599585e-01,4.631036977278895073e-01,2.550706828413884519e-02,-5.160022090662365335e-02,9.511296423505842187e-03,2.348382435409395244e-02,5.871430635452270508e-01
6.306422146109098570e-01,5.393850139354645634e-01,4.939910955191584296e-03,-1.528145498613063709e-02,1.407044998408171245e-02,1.611581758501526990e-02,5.872010588645935059e-01
6.327251653145644639e-01,5.710824586577218920e-01,4.036559453776122908e-04,-8.224209731099350884e-03,1.323662750446571307e-02,-2.735892253489571315e-04,6.044675707817077637e-01
6.558740626509101945e-01,5.175403788584606035e-01,2.702505079812511646e-03,-4.928556655369130228e-03,1.060137348940845721e-02,2.493070671729636853e-02,5.980705022811889648e-01
4.810991841755475340e-01,6.865146350658504204e-01,1.691913050742799296e-02,-5.041550477878122168e-03,-9.799069446584773163e-04,-7.919094438715157738e-03,5.943699479103088379e-01
6.131129001701399739e-01,6.092759549052304546e-01,-1.059146893224738317e-02,4.059616516587174345e-03,6.297480849072921612e-03,-4.638455146334252537e-03,6.219820976257324219e-01
6.205376264707889167e-01,5.107603347835198981e-01,3.286486427522289366e-02,-1.070768346402790894e-02,-8.402674922107864625e-03,1.438879031789720275e-03,5.417187213897705078e-01
6.168775733975555564e-01,6.123457652501278492e-01,-1.244465116726567455e-02,-1.527127968902862324e-03,2.507136183992706574e-03,-2.957013980511249539e-03,6.271101236343383789e-01
6.039764217491692122e-01,6.030646975963387391e-01,-2.146914761580409614e-03,6.677484164200617536e-04,4.472217657137809999e-03,-2.499373420456322582e-03,6.057341098785400391e-01
6.117442814484138625e-01,6.128187072398910695e-01,-1.319577829858470386e-02,3.932788130478932233e-04,1.429913332803874624e-03,-2.225799363032410216e-03,6.254951357841491699e-01
6.091678023795145114e-01,6.115450496619885268e-01,-8.671665420363627863e-03,-1.951623983570139817e-03,9.686929734472037598e-04,-4.743240518808349709e-03,6.190975308418273926e-01
6.255696119926230647e-01,6.157672689628042040e-01,-1.390553362302882068e-02,-1.166681656592939232e-03,2.024925346709466160e-03,-1.431701561352305852e-04,6.346437335014343262e-01
6.186441435032378200e-01,6.257544331462514542e-01,-4.002375817633352373e-03,-2.194920667821612624e-03,3.349690321675367660e-04,-3.635243017281806870e-03,6.262754201889038086e-01
6.166490638966338755e-01,6.203263590411003392e-01,-1.259854088005263328e-02,-2.325245486373280174e-04,2.125664674600359280e-03,-4.928648104049283829e-03,6.311628818511962891e-01
6.048259182676146706e-01,5.855855847366741029e-01,1.641532462804962123e-03,1.232947098254024224e-02,-1.247287812867280132e-02,7.093483830692613040e-03,5.947014689445495605e-01
6.107778994175020459e-01,6.204999560665892533e-01,-1.291478331710205207e-02,6.204790504441369927e-04,2.455595594349930470e-03,-4.918593196651888100e-03,6.286831498146057129e-01
5.295760258556830857e-01,6.027808305549156032e-01,3.308833657516480065e-02,2.624652960766058959e-02,-6.486633228982562624e-04,3.194243924903889843e-03,5.387974977493286133e-01
6.168757773659959698e-01,6.263687124072521151e-01,-1.272407600198804944e-02,-2.118800103578048592e-03,2.138482270390575524e-03,-4.517905386854206666e-03,6.344692707061767578e-01
6.366456578265783373e-01,6.182107288157375757e-01,-9.238551192577715288e-03,3.106604829318683827e-03,5.679048040663599133e-03,6.964590516345361970e-03,6.370797753334045410e-01
6.207637283347664514e-01,6.172231314863348972e-01,-1.135012095466325643e-02,1.082799893071936456e-04,4.452180687468881327e-03,2.915543410033592190e-03,6.304184198379516602e-01
9.800613441387461267e-01,3.448728715288548186e-01,-5.329326878175388860e-03,2.299307815913861214e-02,-1.220678220653595610e-02,-8.000920747868313365e-02,8.773755431175231934e-01
6.275139602060086919e-01,6.191810799707093693e-01,9.207395053460171175e-02,-4.135158655705249535e-03,4.879117524691859928e-03,-2.232204198973853672e-03,5.314521193504333496e-01
6.264926041600662465e-01,6.201019244772026928e-01,-1.251857886140722576e-02,1.789525242439357362e-03,1.471032458427553018e-03,1.220653950425699226e-03,6.358560919761657715e-01
6.266437849531888427e-01,6.166152520531398284e-01,-6.268729310432596957e-03,2.774982314167799904e-04,2.481947602589303949e-03,-4.282810755769438202e-04,6.279736161231994629e-01
6.275933274885737712e-01,6.220866700393709037e-01,3.901332406657315177e-02,-1.581009692296562932e-03,7.321106445428157000e-03,-1.540775409378227151e-03,5.859957933425903320e-01
6.161914553983022236e-01,6.207074705418214045e-01,-1.226810131089828282e-02,-3.512889146033591954e-04,2.971651089892603844e-03,-2.544929848807414140e-03,6.307663917541503906e-01
8.979664322788339925e-01,6.374128908157369322e-01,1.201931270724170830e-01,5.395757220628501910e-02,-2.554318798293499226e-02,1.505506148277893919e-01,7.408481240272521973e-01
5.707102596376185666e-01,6.033074660813561030e-01,2.273846711943988685e-02,5.479712202927475469e-03,-1.684693159150330629e-03,1.471796089218920314e-02,5.656381249427795410e-01
6.157187692716554750e-01,6.156738151662620728e-01,-1.466236601976883547e-02,-1.171612268271408604e-03,2.035833626031555014e-04,-1.394322539314337469e-03,6.303666234016418457e-01
6.135395297972728867e-01,6.204099421077097221e-01,-1.269336790205971566e-02,-1.495758520666427534e-03,1.773716804926289735e-03,-3.158642624842635666e-03,6.297327876091003418e-01
6.955368880845784751e-01,4.219048207584141785e-01,3.482028311966617329e-02,-5.638924033791193821e-03,3.158568654529918165e-03,1.842383144977663076e-03,5.751201510429382324e-01
6.310437507394852652e-01,6.278209875926311634e-01,1.058046806803362716e-01,9.344559377514700602e-04,-1.620020528965863309e-03,-1.735463035330542594e-02,5.245071649551391602e-01
6.121588254696972431e-01,6.175041043173340460e-01,-1.324517576557676657e-02,8.281270320223116767e-04,2.301334174716575774e-03,-3.741434291246765066e-03,6.281414031982421875e-01
6.107835795782636801e-01,6.174985647065259764e-01,-1.326780853122916382e-02,1.865723639344486328e-03,-3.226482797585545487e-03,5.201628825691611245e-03,6.275337338447570801e-01
6.300104357942517552e-01,6.198477472060189841e-01,-1.074256135676787682e-02,-1.122104862690612810e-03,9.199681688287026033e-04,-6.374905712758803305e-04,6.357384920120239258e-01
6.159939755120371618e-01,6.255555930866820713e-01,-1.281875723857872629e-02,-1.952212310378855257e-03,-2.160920627797086274e-04,-2.076582303330196458e-03,6.336669921875000000e-01
6.184243028167411005e-01,6.295758719548139037e-01,-1.029765658625730884e-02,-3.737791636018651014e-04,3.460980754019531060e-03,-3.982508581493009181e-03,6.344374418258666992e-01
6.291286585151395494e-01,6.254222244130797081e-01,9.295207030866775577e-02,-2.186456716554947287e-05,5.246068961504895233e-03,-8.831434575803860957e-04,5.344124436378479004e-01
6.158570591164838071e-01,6.304619158897253328e-01,-1.177243083004964053e-02,-1.364205847489855699e-03,-5.517258456413206202e-04,-1.887408281631777285e-03,6.350713968276977539e-01
6.330108423587381683e-01,6.332714212612194915e-01,7.095421921729488934e-02,-1.293250141182604581e-03,-1.010669426425625690e-02,9.316626174691835377e-03,5.626953244209289551e-01
6.166747455972410030e-01,6.103021092421656579e-01,-1.225431951987421275e-02,-1.829710746272576087e-03,5.084154912311258240e-03,3.773928142179921660e-03,6.258711814880371094e-01
6.187784722992411002e-01,6.278640301529804235e-01,-8.119351806601393662e-03,-1.251248478250613534e-03,-1.337198148682064436e-03,-2.142813344206158724e-03,6.315084695816040039e-01
5.628181428051297619e-01,5.981275775333343425e-01,2.554714965094029289e-02,3.443941544300535562e-02,-8.177563399550759338e-03,1.261069148764278232e-02,5.595654845237731934e-01
5.699191756137511611e-01,6.487899358566042718e-01,-7.753363591758766216e-03,5.931286623857270554e-03,-9.909194340841009571e-03,8.143404235456459805e-03,6.213587522506713867e-01
6.817438007008165268e-01,5.077891580864190013e-01,2.103134181766036503e-02,-7.667005418953767686e-03,8.106095307875919864e-03,-3.642173548938555270e-04,5.934990048408508301e-01
5.974931903598612593e-01,6.306312245220828672e-01,-8.147341996484480653e-03,3.851941744173538115e-03,-8.331786850191010355e-03,1.089874844769444205e-02,6.233597993850708008e-01
5.427102529995404545e-01,6.451147887271240222e-01,1.096170814653296688e-02,6.054469528680771727e-03,-1.397711365037505524e-02,1.439124687063606835e-02,5.907741189002990723e-01
5.479023514589690391e-01,6.358805852910207612e-01,1.001185788112557429e-02,8.307060713622511569e-03,-1.296373171825524265e-02,1.210625937524463513e-02,5.878264307975769043e-01
5.631325281542896022e-01,6.204574734240910772e-01,1.615947558621211311e-03,3.498370689733398819e-02,-3.093521060254420321e-02,2.521225198507019705e-02,5.993542075157165527e-01
6.861504653117213026e-01,4.223167463686511303e-01,3.942723373648521212e-02,-5.644667748298066653e-03,1.127417640697148246e-03,1.844259765895698211e-03,5.633305907249450684e-01
6.256974970582183104e-01,6.325803682744568501e-01,-4.915337490104976226e-03,7.445086649869350455e-04,5.402508428142670932e-03,-5.487318008043840694e-04,6.341533660888671875e-01
6.630477220168067287e-01,4.560168419440036591e-01,3.576328382420174146e-02,-1.722990620267816561e-02,5.368324668752012807e-03,8.685486732632249213e-04,5.544904470443725586e-01
6.604593348017830934e-01,5.082808934442460957e-01,1.657109586268190604e-02,-1.546321985562576148e-02,1.496584215685228293e-02,7.790090861821168848e-04,5.840852260589599609e-01
4.956605363907080064e-01,6.872987355802975262e-01,4.855496950261994904e-03,1.690838484361524910e-02,-5.502076199289148567e-02,3.195898320206977394e-02,6.202220916748046875e-01
6.282025665873272047e-01,6.307207978583677654e-01,3.632488458278126942e-03,1.230354878307174512e-03,-5.205356155090646447e-03,-4.299245158609394865e-03,6.259458661079406738e-01
5.128268511935275553e-01,6.725132815452967705e-01,1.549651961291925728e-02,-4.304665371427952685e-03,2.992194970843913351e-02,3.727982785900993065e-03,5.958501100540161133e-01
6.167367803388594805e-01,6.238563964872338996e-01,-1.420926972048491832e-02,2.372850847450546719e-04,3.386400739448361722e-04,2.064798776966306031e-03,6.345462799072265625e-01
6.050636255638222050e-01,6.861622841959020835e-01,6.366308305374962506e-02,8.066054768256698815e-02,-4.011876378398629428e-02,1.861115134645534991e-02,6.074408888816833496e-01
6.222436970061364647e-01,6.335059942030292213e-01,6.751017130291520063e-02,-2.133248693646975060e-04,1.079553009101476800e-02,3.544347800928479130e-03,5.607951283454895020e-01
6.024931512846840587e-01,6.469377111725126417e-01,-7.310870078208298040e-03,-4.537433926457390410e-03,-9.729567988177281052e-03,-6.984136022103239758e-04,6.334713697433471680e-01
6.220678877964466169e-01,6.366510548328307983e-01,4.548939684932806760e-03,2.558871858924520806e-02,-8.185350924140097004e-03,-7.217028045320797794e-03,6.267928481101989746e-01
4.349300822162247560e-01,6.246992533292303751e-01,4.761698333004515948e-02,-1.815522749249714463e-01,3.679682133112344156e-02,3.395091202042366946e-02,6.049194931983947754e-01
6.247361107020152904e-01,6.332564754626596182e-01,1.431193553859849699e-02,-3.673222665998204794e-03,3.894294880120040617e-03,-3.164858602823224600e-04,6.147987842559814453e-01
6.028705587508162989e-01,5.571708043061252003e-01,3.043183115101805170e-02,-3.379724337576142656e-02,-1.050079576558870728e-02,-1.026778708592909414e-02,5.546963810920715332e-01
6.232723748706578970e-01,5.563744220072320834e-01,1.429265608861474135e-02,-4.258106869463456484e-02,-3.128294176267733262e-02,-2.940775341328538336e-02,5.878451466560363770e-01
6.203807191190209291e-01,6.308489027991528442e-01,-9.784064023026228796e-03,9.869238910299340639e-05,2.192138740280076548e-03,-7.849554640683973662e-04,6.354763507843017578e-01
5.751956515473193310e-01,5.709018239175844833e-01,2.920708655144060861e-02,-2.025260263505821844e-03,1.386677060432002289e-04,8.854979101119412775e-04,5.438678860664367676e-01
5.743847838418585372e-01,5.779715247920914623e-01,3.439219154250217070e-02,1.957753437761711179e-02,-9.170679987236116852e-05,1.940327285188292840e-03,5.428653955459594727e-01
5.926593446268919596e-01,5.766770927179779571e-01,1.907015838986653167e-02,7.618734922647167271e-03,-1.118235777607481420e-02,1.180715593676635996e-03,5.662562847137451172e-01
5.785911265061567388e-01,5.835132831481553151e-01,2.077226606062737568e-02,2.497778686933114015e-02,-1.429897587086170589e-02,1.814959339763771995e-02,5.633871555328369141e-01
5.696325587158237447e-01,5.750257205660163073e-01,3.243986588862424192e-02,2.596522369215745630e-03,-9.609808878391808411e-05,-2.141980124268312634e-04,5.399283766746520996e-01
5.750077358924398085e-01,5.793711971086957790e-01,2.658703275012164191e-02,1.745145347716028743e-03,-2.216185031709842941e-03,4.314835615358998504e-03,5.506877899169921875e-01
5.911758607228300155e-01,6.121378524562814949e-01,1.270407922353111729e-03,9.390679717597045237e-04,-1.071517084597290240e-03,1.147304211311429151e-02,6.009945273399353027e-01
5.764566620201241332e-01,5.599195521147876109e-01,3.030541281047027802e-02,1.524184944255535870e-02,-2.839216267950030095e-03,5.433362211041682351e-04,5.387438535690307617e-01
6.314026107607455529e-01,6.281434848279604521e-01,7.398804764239064191e-02,4.522994749143706070e-03,3.406698215776503540e-03,1.025962779826830769e-02,5.561626553535461426e-01
6.155571312372200010e-01,6.162910045951424109e-01,-1.189674480739055795e-02,4.287096569559492132e-04,2.802316522210127146e-03,-2.691985395447084404e-03,6.278576254844665527e-01
6.113582099250221003e-01,6.164823991823218385e-01,-1.238908292216661655e-02,3.669248287206371703e-04,2.215804095149452157e-03,-2.711250747012779443e-03,6.263548135757446289e-01
6.140359441831125809e-01,6.161974322272558702e-01,-1.434586567023804493e-02,-1.940059150384774945e-04,3.088845211350655946e-04,-1.453678045838370557e-03,6.294707059860229492e-01
6.472297973744920441e-01,6.002143219288661458e-01,-8.616056803732896618e-03,-3.699013190725014468e-03,4.707687663238229424e-03,-7.708447851889143427e-04,6.337338685989379883e-01
6.160112809987039473e-01,6.160956390342561262e-01,-1.480108122599466114e-02,1.738732126392820304e-04,9.413023980371953070e-04,-1.119119839799390418e-03,6.308596730232238770e-01
3.658402371187887692e-01,7.225455509989702207e-01,-7.252682493624817983e-03,3.660298752740306916e-01,1.569803696261536444e-02,-2.899326348531149414e-02,8.970596194267272949e-01
6.154150132552771435e-01,6.161534653073441614e-01,-1.514462537945487908e-02,5.277754286169973304e-04,1.336204946607880747e-03,-1.282745203233039838e-03,6.309379935264587402e-01
6.179682844843555900e-01,6.314863201030203044e-01,-1.212904967554057079e-02,-2.639962836061949744e-03,5.739673124895701244e-04,1.627307325024056426e-03,6.369873881340026855e-01
6.156441041913661705e-01,6.334031146628817943e-01,-1.155076482292860529e-02,-5.322998340191295499e-04,-7.348670809818700234e-04,-2.243811293841413456e-04,6.362623572349548340e-01
6.187227719963332984e-01,6.309883240486129363e-01,-7.368046570863651112e-03,1.021821317829510554e-03,-9.161412031521049297e-04,5.410522389740705495e-04,6.323179602622985840e-01
6.161732506806879561e-01,6.289652388424223917e-01,-1.263202349011466330e-02,-3.094467048133531933e-04,4.004015918123331522e-05,2.254637569245301378e-03,6.353101134300231934e-01
6.158154028116200607e-01,6.312825417516122473e-01,-1.194000152706176099e-02,8.350741014861595311e-04,-6.253574650653636029e-04,1.511733633037454184e-03,6.356381177902221680e-01
6.128972199565139167e-01,6.150927441101688986e-01,-1.511033228602254308e-02,-7.338426586833793905e-04,-2.020116262010265666e-03,6.496617902399310545e-04,6.291202306747436523e-01
6.491508174187206048e-01,5.525444130313028612e-01,-1.949068617018712146e-05,1.344047362012067799e-03,-8.625603103825079526e-03,4.684785928290268993e-04,6.068526506423950195e-01
6.187633324710184457e-01,6.306188840133654105e-01,-6.476227558366853820e-03,9.420675230063444957e-04,-1.009106067421920759e-03,7.993389252560036736e-04,6.312568783760070801e-01
6.695803138765854534e-01,7.146973382237280514e-01,8.389174203634647276e-02,-1.518229589607956141e-02,-4.206438725374137683e-02,-4.255707267180444675e-02,6.188087463378906250e-01
6.855402907180344618e-01,6.643082522610823659e-01,1.321461669781237025e-01,-8.897586338993342808e-03,-2.904954367364958809e-02,7.659693601769126253e-03,5.457941889762878418e-01
6.212570217285874330e-01,6.198831115161604899e-01,4.744418533729294341e-02,8.030664003934423825e-03,-5.500713396949872235e-03,9.548597689347501638e-03,5.736135244369506836e-01
6.402099097251106041e-01,6.264811206133766852e-01,7.003208481034511879e-02,-4.395385678968086532e-03,9.755771071693905908e-03,8.671047724340566129e-03,5.639436244964599609e-01
6.282464032090043782e-01,6.250847668679762048e-01,4.489413142963244452e-02,-6.531833584305334929e-03,1.696790953596325965e-02,3.460586717159497023e-03,5.826604366302490234e-01
6.296113437468364715e-01,6.216000836027801846e-01,-1.248021595036458153e-02,-1.050434100516674024e-03,2.197876025140499141e-03,1.103249485477989346e-03,6.381404399871826172e-01
7.970225434974405054e-01,3.641951230468539746e-01,2.187447596664315874e-02,1.116167073425599722e-05,1.272919492119226233e-02,-4.505169071680885373e-02,6.776900887489318848e-01
6.243571007938994999e-01,6.230193530154104486e-01,-1.006669576258539811e-02,-2.521565160021766155e-03,-3.210655267613715669e-03,3.433157173770986798e-03,6.338233351707458496e-01
6.331592238469317957e-01,6.291939102899601899e-01,5.267896405129313120e-02,-5.492332087823730870e-03,8.467084579865074082e-03,2.295656637746494588e-03,5.787854790687561035e-01
2.751014740851861484e-01,7.544688892903378408e-01,2.020248144754427377e-02,1.166577625176226478e-02,2.819414697150223522e-03,-2.875897190750378255e-03,6.460757255554199219e-01
6.322241107413374417e-01,6.405328163558041688e-01,9.568055223006310950e-02,-3.613116198320642444e-03,7.522944028239355457e-03,-8.189061787093608255e-03,5.411248803138732910e-01
6.613719035704097582e-01,6.829575245204362322e-01,1.659433320286123337e-01,1.868130053333168575e-02,2.365086856077005042e-03,-2.205614424660047590e-02,5.090507864952087402e-01
5.924145081078108221e-01,5.676018724277631655e-01,1.843485662091975952e-02,-4.155370961397422853e-03,6.400219422902596149e-03,2.840390357043102911e-03,5.621612071990966797e-01
6.349327792319943153e-01,6.330521924334733264e-01,1.550741703028123974e-01,-4.221875863429504043e-03,7.508473128141587502e-03,4.802411822590590398e-04,4.791541397571563721e-01
5.031840276954357982e-01,6.643362054831640773e-01,1.507080381817887949e-02,-2.066912076650346750e-02,-5.687994304551803300e-04,-7.091854489590839090e-03,5.867866277694702148e-01
6.265181488010742594e-01,6.281160563934797825e-01,1.376683288239213265e-01,1.504826900588608586e-03,3.790162405004394736e-03,-4.760807840565120692e-03,4.897710978984832764e-01
6.363068240275252530e-01,6.296651408046359810e-01,1.364178813569694171e-01,-4.086586208893491605e-03,8.968539988045668918e-03,-6.151023396881213044e-03,4.970089197158813477e-01
6.909557527324019510e-01,4.105105449367744685e-01,3.408032680823902538e-02,8.210441689044369051e-03,2.379536626571157067e-04,-1.842903597164190395e-03,5.710778236389160156e-01
6.217278920296137601e-01,6.323590054615937373e-01,-9.567785493554525900e-03,5.898411100410209116e-04,2.233618103563313455e-03,3.423781661746801977e-04,6.366906762123107910e-01
6.207809430185419197e-01,6.366008753664337272e-01,-7.378612483114221909e-03,2.723116402193707518e-04,6.476236125880818588e-03,-6.683132520868152043e-04,6.363171339035034180e-01
6.164258464588227016e-01,6.301116821263150758e-01,-1.259708246431212597e-02,-1.637546060728389688e-03,-5.032289801529537957e-04,-1.918813599588174799e-03,6.359919309616088867e-01
6.209249516586592410e-01,6.289100515176597739e-01,-6.404138613899823529e-03,7.322560673089765658e-04,-2.005931742584021911e-04,-1.686818198617479102e-03,6.313676238059997559e-01
6.069233353177894141e-01,6.265460853754554194e-01,-7.004454151566530395e-03,2.005775309165095874e-03,4.200138210765382539e-03,-8.068150722793918095e-03,6.241791248321533203e-01
6.143362560669589634e-01,5.904081251487389714e-01,-6.952431344609155683e-03,4.884847741130147157e-03,9.551934259771240748e-03,-1.960706602148351574e-03,6.099694371223449707e-01
6.147350840497629587e-01,6.212676583532327212e-01,-1.417168146397834727e-02,-1.915071860996292452e-03,1.782849040312241642e-04,-2.367856369194872371e-03,6.322204470634460449e-01
6.107179733480644357e-01,6.230036319253956512e-01,-1.269270286183699081e-02,1.882901663792438526e-03,2.657076249938249320e-03,-4.834780050651673287e-03,6.297243237495422363e-01
6.303279252216645867e-01,6.162861933072600884e-01,-1.110758263720251771e-02,-2.723165186530492597e-04,8.380303302213886699e-05,-6.862026319145025097e-04,6.345325112342834473e-01
6.119761105525816092e-01,6.272932371193900014e-01,-1.234560008446650148e-02,-7.933633356134130914e-04,2.789612785099252444e-03,-5.259322489509806256e-03,6.322050690650939941e-01
6.316871507337126213e-01,6.249205157143753464e-01,1.888912530535563628e-02,-4.705866332606679946e-05,-5.059752445344932199e-04,-4.137752721824160956e-03,6.094856262207031250e-01
6.339167871463651238e-01,6.286515294821934940e-01,6.737268798332235464e-02,6.312035143406113285e-04,-4.633003301862595046e-04,-1.303063800533385379e-02,5.643829703330993652e-01
5.886794802745710653e-01,5.954680421165772231e-01,4.860212823804499482e-03,2.432948592444398976e-03,3.358699005393726519e-04,1.999707915386097091e-03,5.872685909271240234e-01
6.248125672456243951e-01,6.304209663846848111e-01,-2.165771908304303661e-03,1.957914819836896123e-03,3.738798567680056816e-03,1.259302068119722440e-03,6.298474669456481934e-01
6.296141858940587088e-01,6.105861094200064620e-01,-1.115173783149175923e-02,-1.157426174145071004e-03,4.077070461402801729e-03,5.743140089310882351e-03,6.315879225730895996e-01
6.309969671422326343e-01,6.196421277626884550e-01,-1.010697690273598681e-02,9.331812435007518381e-04,3.825207257711375959e-04,1.900933090748604644e-03,6.355135440826416016e-01
6.262033258924232237e-01,6.179654540145438357e-01,-1.282003300713230320e-02,6.423549391428771092e-04,8.510019884911242333e-04,1.526094263772943566e-03,6.349526643753051758e-01
6.302292479442661577e-01,6.091636450677702097e-01,-1.092709598041397001e-02,-5.618496857904529702e-04,4.715075322337269718e-03,5.447448555300801569e-03,6.310115456581115723e-01
6.293915832634013885e-01,6.219272843294042508e-01,-8.490680777130055201e-03,5.844664716489804618e-04,-1.615662475088864105e-04,-1.718167533230393045e-03,6.341909170150756836e-01
6.368535576725503633e-01,6.190318725982781878e-01,-8.588763439613289474e-03,1.654761515317391008e-04,1.058742342194042736e-03,3.739605929508518344e-03,6.367542147636413574e-01
6.310464557827943910e-01,6.199883361280238425e-01,-6.618036234512458815e-03,6.622949946213246581e-04,5.251328951526323431e-04,-1.595860165167291246e-03,6.322156786918640137e-01
6.242523957745947927e-01,6.186934998633137894e-01,-1.389994156371510137e-02,-2.412643411238716488e-04,-2.537548800912856582e-03,1.863820041716886429e-03,6.354146599769592285e-01
6.212448734770921188e-01,5.846931336054947970e-01,1.031803111516627069e-03,3.961226549934274317e-03,-1.481176986964492966e-02,1.930269623661040861e-03,6.033629179000854492e-01
6.233651101172795750e-01,5.846837970955024444e-01,4.580946263407381647e-03,3.497116846173698151e-03,-1.226720133267422512e-02,1.281951500997498619e-03,6.007893085479736328e-01
6.324998544571942549e-01,6.202824580558868872e-01,-8.834676574238142788e-03,1.828893876666118552e-04,-2.889550003580908634e-04,2.024706355565486157e-03,6.353238821029663086e-01
6.346789440542388583e-01,6.087407600350595027e-01,-9.854606585916414474e-03,6.430585401925414772e-04,1.275119695061270814e-03,6.396755179813241182e-03,6.320657730102539062e-01
5.689138178905984722e-01,5.681305217432555121e-01,2.231734960395409528e-02,-2.773328611430944668e-02,9.200065340956218446e-03,6.224082556009239223e-03,5.486508011817932129e-01
5.880219765132064236e-01,5.666972599503983243e-01,2.410949251017724393e-02,-9.464506101207876415e-03,8.595805412434544615e-03,4.299278129731930187e-03,5.540511012077331543e-01
6.493440600180204747e-01,5.525384010839878846e-01,1.188827128073555173e-06,1.378148606426601907e-03,-7.990541522059930318e-03,6.811358309471670074e-04,6.069234609603881836e-01
6.388138182101518181e-01,6.350400755077012516e-01,3.550095545648396245e-02,1.301567983620682128e-02,7.425063119947958659e-03,-1.047921577906223319e-02,6.022681593894958496e-01
5.648720662261522696e-01,6.100802343120355076e-01,1.420682693397690155e-02,-3.069505094424838584e-02,8.335307323627444420e-03,1.378066937820640950e-02,5.777328610420227051e-01
5.503673136472116978e-01,5.846412542599997986e-01,6.405792093178375168e-03,-5.516110817424873386e-02,1.998587484133045045e-02,2.312911152664404169e-02,5.724019408226013184e-01
5.870057419790186692e-01,5.847434660513661786e-01,1.401532409181571737e-02,-1.271000381504465079e-02,9.750420138960503788e-03,1.147074459029770108e-02,5.728799700736999512e-01
6.932814124816755186e-01,5.084271021170126970e-01,7.906379390727474865e-02,9.349914170932735469e-02,8.861707719659528415e-02,-1.232041280275970457e-01,6.270698904991149902e-01
6.533811151395383376e-01,5.053868606391441753e-01,7.255717888138324412e-02,1.706598956654528931e-01,9.912733282435659543e-02,-1.250133952064793330e-01,6.610887050628662109e-01
6.929918159144213829e-01,4.370380983979448297e-01,4.008245009548272453e-03,6.897455949919991010e-03,3.096312964492721736e-03,-6.423165815383613531e-02,6.135237216949462891e-01
7.009970033279324664e-01,6.301191251934143978e-01,5.590072266855039551e-03,5.495424450311810205e-02,3.027745676195233229e-02,-4.220893987480013598e-02,6.756333112716674805e-01
5.060111238200442063e-01,6.227160528711215282e-01,3.486022944502592535e-02,7.872108014599775438e-03,-4.712199815125836001e-03,6.469034600368154739e-03,5.394135117530822754e-01
6.427511020663979613e-01,5.652176913993510743e-01,2.046667513822764128e-03,-4.967589916841371606e-03,1.256158488787972698e-02,4.786865442977565827e-04,6.061235070228576660e-01
6.233000773978657483e-01,6.056130382422684200e-01,-7.978717548634994827e-03,-8.669775824463247355e-05,8.717229752196522033e-03,4.303622590541657028e-04,6.228072047233581543e-01
6.252131505914267917e-01,5.789247060379333343e-01,1.697911305631683021e-03,-5.059126456274098092e-03,1.100387800214033818e-02,1.465430850452038858e-03,6.020787358283996582e-01
3.894088275156524226e-01,6.955307322907191558e-01,1.798854790793391611e-02,-7.856694484468523809e-02,-5.012150816662344632e-02,-5.034719522524541864e-03,6.095033884048461914e-01
6.243984944569878071e-01,6.047813328800651922e-01,-7.899753454583824386e-03,3.843930284097266288e-04,-7.314107948886428012e-03,9.811434728009417027e-04,6.228529810905456543e-01
6.307462424830895253e-01,6.200284206065428405e-01,-5.627816879659297555e-03,5.567081925532760007e-04,6.952537678442282558e-04,4.606599279041837013e-05,6.310852766036987305e-01
6.134232436088113971e-01,6.094595582970578906e-01,-1.294177642046473453e-02,-6.633706646311039040e-03,-5.626937400403160539e-03,-4.587986953736611015e-03,6.246249079704284668e-01
6.212102604986046162e-01,6.199155436712470157e-01,-1.481924486998525969e-02,2.839407841909945794e-03,-2.768545093843282831e-03,-2.064599125567876704e-03,6.354303359985351562e-01
6.247046472906871983e-01,5.789462564138987410e-01,1.681912692970854994e-03,-5.061477724488011240e-03,1.077902453386327293e-02,1.465708949112336278e-03,6.018093824386596680e-01
6.057896545521729292e-01,5.667804292084146489e-01,4.098445693368424347e-03,-8.795011612260242653e-03,1.106341514605002282e-02,-7.499126843167368880e-04,5.836809873580932617e-01
6.801669668738313801e-01,4.923993790284255656e-01,1.147787908425629277e-02,-1.069791557936240756e-01,-2.011022062546935149e-02,-4.192188493140287797e-02,6.306051611900329590e-01
6.158493596090254263e-01,6.243231736108512120e-01,-1.146812479046216415e-02,-8.606196248668883430e-04,-4.652044485676260096e-04,2.828557780415168893e-03,6.316183209419250488e-01
6.241886642215811465e-01,5.106038795364344907e-01,3.154487363072411288e-02,-1.341526143334532961e-02,4.374343022169473010e-03,4.567943893096445304e-04,5.453538298606872559e-01
6.160377817253548383e-01,6.144910686017361900e-01,-1.469714409708389180e-02,9.718910324152924647e-04,-2.163343458015802231e-03,-3.182650254087656706e-04,6.299766302108764648e-01
6.169796132599465466e-01,6.117548417071316802e-01,-1.198253108726998750e-02,-6.178652699356372048e-04,-4.540243844919766326e-03,-2.283162692327799295e-03,6.264288425445556641e-01
6.174763585252706077e-01,6.116828294133130894e-01,-1.264283835147217427e-02,-5.465573395438199592e-04,4.899848443242044681e-03,3.244365682257781443e-03,6.273257732391357422e-01
6.209858850224680982e-01,6.177338528362399384e-01,-1.389075930049954444e-02,6.123434608902146668e-04,1.780028444959547412e-03,1.086749391150563246e-03,6.332680583000183105e-01
6.350746879728438321e-01,6.007306204524891502e-01,-9.466772600314421471e-03,-5.294260517090560326e-04,-8.483197899987027875e-04,-8.796663792580625401e-04,6.280782818794250488e-01
6.291948695418599913e-01,5.698090961019541822e-01,8.978765109814823564e-03,-2.635944130188033405e-02,1.612997056294541293e-02,1.099118942109392552e-02,5.954746603965759277e-01
6.391879237544747516e-01,5.652357267170633470e-01,-3.505678053842831154e-03,-5.262082930002034975e-03,8.470680708417298310e-03,1.118312482890762636e-04,6.093387603759765625e-01
6.404371277151069686e-01,6.067756553397307684e-01,-9.328251498672501807e-03,2.707427883883468250e-03,-2.223688336039373117e-03,1.209887542193253257e-02,6.339811086654663086e-01
6.305046334987840506e-01,6.108776311698319583e-01,-1.493706131729943820e-04,-4.509109158069400311e-03,7.657150034274002627e-03,2.013824700066033091e-02,6.222422122955322266e-01
2.542402855607196477e-01,8.363045928195949053e-01,-6.815367140362443843e-02,-1.460675277152112816e-01,-7.177140798780247410e-02,-2.087966427774447936e-02,8.433025479316711426e-01
7.732662607417235545e-01,1.515891070460750334e-01,-1.588710858935638015e-02,-2.059613039208587348e-01,5.299749596304852151e-03,1.159941686693523322e-02,8.039869070053100586e-01
8.146026195433827555e-01,1.809893083606713693e-01,1.355600766360209875e-03,-5.855960854494549755e-02,-5.913728460693132988e-03,6.109259292818861042e-02,7.544149756431579590e-01
3.554249798261148729e-01,7.602316532367828783e-01,6.639260838821992028e-03,-1.447207760889046846e-01,-1.407048660379058708e-02,-3.534493094057532692e-03,7.001245617866516113e-01
7.682150350128984506e-01,2.353957564656733170e-01,2.721934755117083604e-02,-2.091868203154218231e-01,3.295679914555883772e-02,5.762369366965650053e-02,7.633160948753356934e-01
5.919958961139942799e-01,5.955372590654274267e-01,1.139605655285147456e-03,-1.156322265711481889e-02,-7.680448461489463273e-03,-8.406361425977502619e-03,5.933011174201965332e-01
5.132642264446490854e-01,5.854907987135362646e-01,2.519458624591697227e-02,-6.930077098233682065e-02,1.243116200766120061e-02,1.208795842103935203e-02,5.422084331512451172e-01
5.597790521595458202e-01,6.048081404155835061e-01,1.763156564002266169e-02,-1.756495544850483759e-02,-1.706008474586577246e-03,-1.035083803907066273e-02,5.671151876449584961e-01
5.609693386966674300e-01,5.934951723839951843e-01,2.620054629672580182e-02,-5.062315240767029968e-03,-3.624745731338299779e-03,-9.384368248476200255e-03,5.520958900451660156e-01
5.752553139754084111e-01,5.704213750518348780e-01,3.213373851182649288e-02,-1.742408209480584115e-03,-2.657104284084240266e-04,3.883545567901071729e-04,5.407298207283020020e-01
6.061900703616538433e-01,5.947232482598814318e-01,7.140862677396053737e-03,9.953106637504708016e-05,8.876052452218719663e-03,1.931256912913416855e-03,5.936074852943420410e-01
6.716075902272402587e-01,5.010801998698416471e-01,-9.832302064264886177e-04,3.072908763932760429e-03,-4.124892112129139969e-03,-3.254946349887927887e-02,6.082931756973266602e-01
6.947576071105925344e-01,4.733403196779391586e-01,1.648364543620683964e-02,-7.029462071805433337e-03,-1.094226050031725300e-03,2.156899806076329374e-04,5.992091298103332520e-01
6.906957178601910163e-01,4.449950441120756883e-01,-1.265005953051567822e-02,1.371135721667359961e-02,1.316307062386257859e-02,-5.937095387801622631e-02,6.276226043701171875e-01
6.369220223886904453e-01,6.018647392658765805e-01,-9.114494149111418420e-03,-9.121727909435061593e-04,-6.018342673499375503e-03,7.258126618772387222e-04,6.293303370475769043e-01
6.252294973923627763e-01,6.200686364847703969e-01,-6.791103460992542473e-03,1.280363467761210482e-03,-6.438743580861982889e-03,8.872136593033765409e-03,6.297462582588195801e-01
6.169221737166854513e-01,6.201575813276996030e-01,-1.210609988789734803e-02,-5.693391045219744952e-04,-1.129726972345806903e-03,7.055933391574473711e-04,6.306571960449218750e-01
7.650875586253573779e-01,4.546582848632316209e-01,8.696789335129573306e-03,5.919655002039478364e-02,1.029777409816492843e-02,-5.424956208653448908e-02,6.733107566833496094e-01
7.584227793227941161e-01,3.655049392132260766e-01,1.777837819799438224e-02,2.295778261629940684e-02,1.959540752456443921e-02,-1.698498731279392965e-02,6.446120738983154297e-01
6.096704526786850264e-01,6.041849832720168623e-01,-7.700366282806458962e-03,3.034506781648588485e-03,-6.033280448330747767e-03,1.861066689654285915e-03,6.147661805152893066e-01
6.986635843358884879e-01,4.269234352554830414e-01,2.208198068399835901e-02,9.528979948644474094e-04,-5.091666769936463444e-03,-3.163901155719928832e-02,5.923128724098205566e-01
6.346572682296167667e-01,6.747689723757547275e-01,-3.165160386502385848e-04,6.638549469086871269e-02,-3.132565063335634309e-02,1.344148239120755879e-02,6.685637831687927246e-01
6.469344011478174172e-01,5.989171720326441628e-01,-8.337995122492281030e-03,-3.626193141597863854e-03,-2.541411749903724443e-04,-9.280082642438223757e-04,6.326653361320495605e-01
5.667189534606862367e-01,6.544939574981895047e-01,-5.311483480985312866e-03,1.976205998814923454e-02,-2.355102295812061541e-02,1.855949350907705464e-02,6.237003803253173828e-01
5.870101413587319739e-01,6.574076409140077182e-01,7.877061568484944321e-03,9.988469277399697477e-02,-5.202834982214106507e-02,2.184498195714856122e-02,6.485397219657897949e-01
6.277597849377608563e-01,6.226468638223126018e-01,3.218023335347058866e-02,-3.597333225690245873e-03,-6.305431840882539177e-03,-7.935831529511962450e-04,5.931745171546936035e-01
6.357611045470392686e-01,5.993761522704488254e-01,-9.535183507290045934e-03,-9.971347279954709784e-04,-5.571290375707213180e-03,-9.338299716976553424e-04,6.279735565185546875e-01
6.078988856172622413e-01,6.287932696610314398e-01,-5.918609643946359800e-03,1.753144655031714299e-03,-4.487598390582860086e-03,7.925117030028782164e-03,6.247334480285644531e-01
6.295380525714324715e-01,6.285642163056749387e-01,2.393725530381485278e-02,-2.640126576498474844e-03,-7.242486967899397152e-03,9.475057730231097866e-04,6.052639484405517578e-01
6.224688672430370717e-01,6.285114570519059196e-01,1.637983374122825575e-02,-7.507331872674560553e-04,1.544775676545643043e-03,-2.643021549079368950e-03,6.091572642326354980e-01
6.372857392071722415e-01,6.025599936665886336e-01,-8.664753524576629395e-03,-2.340160489760294803e-03,8.250311723570800254e-03,-4.096083744474810504e-04,6.294822692871093750e-01
4.136636073731571051e-01,7.003565087407470635e-01,3.768429068055939579e-02,-1.099278468990323027e-02,-4.412088248722751370e-03,-4.875090641897529380e-03,5.760521888732910156e-01
6.203985872291550852e-01,6.289198655285096473e-01,9.141379955844608496e-02,-3.809297212608126100e-03,1.987596230304803768e-03,-5.827877045241444676e-03,5.334439277648925781e-01
6.225549120994977592e-01,6.283275708496275369e-01,6.304165661576099922e-03,-1.971111686293900832e-03,3.001644732335345071e-03,2.117876283843269508e-03,6.191993355751037598e-01
6.236421674495048473e-01,6.055632726153851175e-01,-9.857736444088882610e-03,-1.825842071163985612e-04,8.007542709637292810e-03,8.718315763686335877e-04,6.248125433921813965e-01
6.306957779045906376e-01,6.166847472582107637e-01,-1.192989439076258540e-02,-4.797654624458958113e-04,-1.319738651640958412e-03,-6.444085699323131092e-04,6.357415914535522461e-01
6.163426649700234350e-01,6.313418470600519194e-01,-5.189290178113370455e-03,9.214059266396036228e-04,-1.650034774491736245e-03,5.661828623937846744e-04,6.291749477386474609e-01
6.148500116793443881e-01,6.375077282955997626e-01,-1.049230632450465217e-02,9.656114537209500338e-04,4.886599091759268737e-03,4.516187179742728146e-03,6.370799541473388672e-01
6.263542887229470724e-01,6.309698414880897666e-01,9.446651640671988037e-03,2.688381053442065330e-04,-1.437430992380718574e-03,1.063650183324853097e-03,6.192362308502197266e-01
6.176889583812691376e-01,6.312382060322255795e-01,-9.313275008565546909e-03,1.262978243006125743e-03,2.685890839200657122e-03,2.419394356053457176e-03,6.339201927185058594e-01
5.630586752865635036e-01,5.761895225923685526e-01,3.099267957355478220e-02,9.415935312400590049e-03,-1.342402902892828617e-04,-2.173103375232545570e-03,5.390114188194274902e-01
5.774370533043108322e-01,5.621853178272462337e-01,3.267965628928576338e-02,1.155626905433219595e-02,2.392825832068391952e-03,4.300051044854230403e-04,5.376830697059631348e-01
6.266216382837059840e-01,6.158917513140235167e-01,-1.103632130588494409e-02,9.856876173131006585e-04,2.514910418888319297e-04,1.202212131208516737e-03,6.323671936988830566e-01
5.623313562461572657e-01,5.761545399908578613e-01,2.965159124236260713e-02,1.068716884191032480e-02,7.915637828074929914e-04,-3.357599497674407067e-03,5.400745272636413574e-01
6.305476450412854650e-01,6.028331044836021668e-01,-1.019953214543278808e-02,-5.874466583675411885e-04,4.694806726282831771e-03,-2.235759383448535326e-04,6.274028420448303223e-01
6.054162652277055301e-01,6.060576478372482478e-01,-8.782838898265588057e-03,5.089666885427083284e-04,5.687536306332410157e-04,7.467502378336711780e-04,6.145228147506713867e-01
5.744241062953308052e-01,5.706236169062531838e-01,3.132355454084773116e-02,2.038103487595557990e-03,4.265135150157517663e-05,-1.624258377553172434e-04,5.412219166755676270e-01
5.627903021304526687e-01,7.326212668915141890e-01,2.416559135248741441e-05,2.220922163366106407e-03,-4.145319625682737652e-02,-9.887946066346192317e-03,6.682713627815246582e-01
6.279865277742835428e-01,6.150995024591101590e-01,-1.190188744030062917e-02,3.088004324070553908e-04,1.976991666491679112e-03,5.363162009961597857e-05,6.335526704788208008e-01
6.147835460914357064e-01,6.167940942196312726e-01,-1.537979240401027292e-02,-9.424771995662810853e-04,1.024556256510969184e-03,9.944565664729916772e-04,6.311779618263244629e-01
3.701897797433067461e-01,8.746065272260129531e-01,1.800685450019762213e-02,-1.798734713352636572e-01,-9.280773193128899479e-02,-4.533857475488755479e-02,8.277596235275268555e-01
4.269414835296415633e-01,7.080592017293381168e-01,3.585143915169375362e-02,-2.130419319141689180e-02,1.739484105392164305e-03,3.675484375446462244e-03,5.859454870223999023e-01
4.305637617111984228e-01,7.302393109005627103e-01,4.295127721085656436e-02,-1.623556020523989896e-01,-8.657188199002621709e-02,-3.468242500543106122e-02,6.792477965354919434e-01
5.710487326886464210e-01,6.425953952013065962e-01,-5.033006148930430079e-03,-2.870654326535156120e-02,-4.012975849944863671e-02,-1.452591924764170574e-02,6.214033961296081543e-01
5.877759884657912659e-01,7.323419929468570899e-01,8.716071450632079110e-03,-1.726748621702297454e-02,-4.912847599642140850e-02,-4.450668635367871495e-02,6.737951636314392090e-01
4.895676557369776360e-01,6.782783814072204098e-01,1.372858562943252148e-02,-2.650396055556259595e-02,-6.656203215183571775e-02,-2.207920729729118819e-02,6.072000265121459961e-01
7.372205352737324358e-01,6.163544842189400130e-01,2.839473879306103621e-02,-1.479158397672607553e-02,6.120011131825918958e-03,4.423080855153019818e-03,6.574169397354125977e-01
6.392817524718432676e-01,6.387071102624506391e-01,3.919710302712436922e-02,4.640100307869418628e-03,7.562339187456664294e-03,9.507166255567032001e-03,6.002202630043029785e-01
6.321499820676552694e-01,6.228898836463971911e-01,1.641988880881206647e-02,3.848470796061564426e-03,-1.362894663786761525e-04,-2.384403671533687381e-03,6.112030148506164551e-01
6.303211822851422230e-01,6.303149288906506609e-01,2.494936030436650798e-02,6.317841002488681391e-03,-1.874094979799849087e-03,9.567447776431876882e-03,6.057029962539672852e-01
6.322462454339520255e-01,6.237409081070288686e-01,2.291204819798237091e-02,-4.843220737546164302e-04,1.514328967833068144e-03,-5.530617827548794940e-03,6.052084565162658691e-01
6.352431864941681106e-01,6.216464733007643906e-01,6.228139571325086443e-02,2.696346490023037844e-03,6.093449210856652582e-04,-6.500377767816716348e-03,5.664180517196655273e-01
6.313277827828623900e-01,6.303578761001316089e-01,6.162287472523392262e-02,5.539875930743285055e-03,-1.833248318358806142e-06,-1.334502480284831955e-02,5.697704553604125977e-01
6.334014596077979231e-01,6.281298050669443800e-01,5.315868374864557433e-02,-4.794986289379981996e-03,2.595870214088398607e-03,-1.167949444706089385e-02,5.780562758445739746e-01
6.145688029647312645e-01,6.289773139320026241e-01,2.989820403311305164e-03,2.439386726890616693e-03,-6.572998234135801927e-03,9.520404977247220318e-03,6.192477345466613770e-01
7.292871665962692429e-01,6.414304801635021258e-01,4.739503462403810152e-02,2.930891903664850986e-02,-4.401929498466420482e-02,4.705157388097819943e-02,6.540784239768981934e-01
6.064539522898735324e-01,6.320147238709714621e-01,4.220751075291739873e-04,1.190662120543736074e-02,-1.563937227355934739e-02,1.756361529869083019e-02,6.208890080451965332e-01
6.306788807354644089e-01,6.307925505847091774e-01,6.887350085617660600e-02,-1.647753677573951222e-03,-8.403491509582881880e-03,6.995889432816357334e-03,5.621885657310485840e-01
6.296944392705079441e-01,6.301286318653664953e-01,9.988325472156994733e-02,2.837746281226473030e-04,6.050270885459033306e-03,-1.245302224950912973e-02,5.305708646774291992e-01
6.232843077230649786e-01,6.286131694761821764e-01,6.728328709783509831e-02,-1.832786225279079122e-03,-8.582585950945379729e-04,-1.356935735625053666e-02,5.591896176338195801e-01
6.436944648311765382e-01,6.422808276026641394e-01,6.419576477390320779e-02,2.431769815794488851e-02,-2.861143612454912760e-03,4.409300772955941985e-03,5.803951025009155273e-01
6.254889238102048221e-01,6.245577445569501229e-01,7.159840770548653310e-05,-3.913678201235314298e-03,-4.389743639600051511e-03,4.120030064860673476e-03,6.250759959220886230e-01
6.342583466501359180e-01,6.280127526275155470e-01,1.005356185838736649e-01,-4.934463240782144267e-03,4.128452968416363063e-03,-1.222766145148797452e-02,5.311669111251831055e-01
6.164512589537096687e-01,6.145735901377066268e-01,-1.429258313956088822e-02,-3.829628922722830612e-04,-2.920009859696045141e-03,5.242965898429477554e-04,6.298283934593200684e-01
6.310496308591467818e-01,6.207736147992745090e-01,-7.314963277315678081e-03,7.471467971729954397e-04,-5.832394890201480966e-04,-3.528532032797529255e-04,6.332915425300598145e-01
6.349456115167833037e-01,6.158003705305370445e-01,-1.062910927622007229e-02,-1.328850194576063016e-04,5.039171793150112920e-04,-9.983797086589654701e-04,6.362211704254150391e-01
6.268013367804357028e-01,6.262115959434964019e-01,7.194795005279808198e-03,4.000178119593713472e-03,-1.937169916454519782e-03,-1.637498062479761634e-03,6.193662285804748535e-01
6.317083990179243047e-01,6.217992957218856365e-01,-1.069499661716383221e-02,4.571607866637071235e-04,-1.003512670612574285e-05,-1.958703483457028757e-03,6.375161409378051758e-01
6.308332314747520098e-01,6.159596504605472367e-01,-1.199927058468391872e-02,-7.955470513112166331e-04,-1.859488383269702503e-03,-1.129315093708621034e-03,6.355389356613159180e-01
6.306167868300112112e-01,6.222856010625192891e-01,-1.101744878925442483e-02,6.024533450968974288e-04,-1.809412318934409958e-03,-2.601429166483708050e-03,6.375339627265930176e-01
6.352971303721633989e-01,6.065480335523889543e-01,-9.632946034043521344e-03,-1.575663180727957273e-03,-1.676411625294037082e-03,-3.383551754540900514e-03,6.310866475105285645e-01
6.347124356398841094e-01,6.209052415458853336e-01,-9.966619518575081660e-03,8.756011062220585414e-04,-3.974664405996224635e-03,-4.795480469940491437e-03,6.379805803298950195e-01
6.343127610854918386e-01,6.161054695241368062e-01,-1.105140168672202883e-02,3.720309700324165615e-04,1.795973569051038249e-03,-7.402343662858093965e-04,6.364650726318359375e-01
6.291039105224442984e-01,6.208634899793701312e-01,-1.043531866846586498e-02,3.628113284993433017e-03,-5.124812535700907536e-03,-3.652410327766413434e-03,6.355836391448974609e-01
6.277738872129965397e-01,6.206788184997192870e-01,-8.549693669421876141e-03,2.849605490031000433e-03,-2.135402238251461748e-03,5.573542478406160079e-04,6.328366994857788086e-01
6.264813650163421066e-01,6.191101073039574354e-01,-1.296038703978880102e-02,8.280062746392299238e-04,-1.063612520631314557e-03,-1.050544033991628349e-03,6.357950568199157715e-01
6.155424577370439687e-01,6.203085601526834303e-01,-1.270013939400882474e-02,9.292405229283882137e-04,6.593960097268652606e-03,6.258066152347779854e-03,6.308377385139465332e-01
6.299225526938677655e-01,6.149966590158196800e-01,-1.260365627944831646e-02,5.686699001303570237e-04,2.478557759871118874e-03,-5.367748246008681592e-05,6.352100968360900879e-01
6.173787555627070489e-01,6.201845055911408000e-01,-1.309683518463344853e-02,2.650650212808170988e-04,5.771258355793354200e-05,1.178627517068572437e-03,6.318866014480590820e-01
6.231365380319645597e-01,6.144687745128087908e-01,-1.412169083409686721e-02,5.010031714309635823e-04,2.305353797729294083e-03,5.230576166556755819e-04,6.329826712608337402e-01
6.155046956941190306e-01,6.198804908459285556e-01,-1.481191323937958160e-02,9.334927139304959520e-04,7.386082621491941438e-04,1.608386160963568706e-03,6.325253248214721680e-01
6.176142247199164492e-01,6.201598727020827262e-01,-1.415947026031227907e-02,1.572411276861330641e-04,1.035027722252812241e-03,1.202151797996540202e-03,6.330564022064208984e-01
8.067828154208221969e-01,1.769343598133943929e-01,-8.138947062645296437e-02,4.172293820294042249e-02,6.370544043939330159e-02,5.671824790754256135e-02,8.082039356231689453e-01
6.227635942644894618e-01,6.273587212087998743e-01,-4.184464090120854074e-03,2.627364425017723361e-03,3.263059634245658175e-03,2.486366643102020692e-03,6.293147802352905273e-01
6.041852067926974934e-01,6.025760884648784232e-01,-1.883453570902415830e-03,3.326305329766795463e-04,-3.876134207095528923e-03,2.396003862704899987e-03,6.053174138069152832e-01
6.092310306416391930e-01,6.006983373970267159e-01,-2.514451560857666745e-03,5.877925445621186643e-03,-6.717637423466026395e-03,5.734184493329017203e-03,6.078019142150878906e-01
6.151715819106504668e-01,6.159268680317685485e-01,-1.473161372915882117e-02,-4.725094788286352421e-04,1.574652254899014067e-04,-2.096284903006297808e-08,6.302817463874816895e-01
6.076561014412962258e-01,6.099923349334731570e-01,-1.239833313851135266e-02,3.195684342574817757e-03,-3.256254508605529313e-03,2.357716749923490212e-03,6.212895512580871582e-01
6.109194316462167595e-01,6.113836888299191141e-01,-4.786163993453773635e-03,7.349915745670532749e-04,-7.964847032616772723e-03,8.204156008325890967e-03,6.162574887275695801e-01
6.075506361250638809e-01,6.132147876075497717e-01,-1.159297473379494736e-02,2.843967756000037508e-03,-3.395244526872555953e-03,3.818888523087638626e-03,6.220775246620178223e-01
6.171886189649792298e-01,6.255873976770767175e-01,-1.079629279311999923e-02,6.754057350331498129e-04,5.190929940790585569e-03,6.283520630392266937e-03,6.323848366737365723e-01
6.183927618754369027e-01,6.254942636233885578e-01,-1.199666013351091687e-02,3.105607357870311647e-04,1.772965568198129433e-03,1.210309690452134610e-03,6.339811086654663086e-01
6.171528401071080250e-01,6.255454412883205695e-01,-1.111623676786627213e-02,6.317383611174842923e-04,9.563224914979008735e-04,1.136762260382486118e-03,6.325133442878723145e-01
6.155160492445179710e-01,6.202974783850380147e-01,-1.300186290336763362e-02,9.055965690457758264e-04,7.564490851299464618e-04,6.076864622535623275e-04,6.309264302253723145e-01
6.093180532292332696e-01,6.206127825427183442e-01,-1.229270813666333284e-02,-4.004907035220007291e-04,5.122337431179427476e-03,6.757735943147896544e-03,6.275066733360290527e-01
6.148487951484300496e-01,6.255492823105373024e-01,-1.373576987734098642e-02,1.668691780514108781e-03,-5.770673380348659504e-04,2.480587994079045885e-03,6.340244412422180176e-01
4.883956848429935604e-01,6.432033294564380999e-01,-4.478286520325447384e-03,7.103773017904686793e-02,4.087135322801949827e-02,-1.571605861836370896e-02,6.033923029899597168e-01
6.878472061112208547e-01,5.072087684761167337e-01,-4.635857961355238643e-03,1.033766401778781346e-01,5.511860266626150001e-02,-5.423144095683821164e-02,6.611138582229614258e-01
5.511813997507373220e-01,6.385217868883297232e-01,7.021646045332119446e-03,2.544621386597192836e-02,1.429866311946947043e-02,-1.644254771300537876e-02,5.955100655555725098e-01
6.158231135244620624e-01,5.686627534211535773e-01,1.030837636702813809e-02,2.158918885819093372e-02,1.117217582437740261e-02,-9.565930635994380690e-03,5.851180553436279297e-01
4.969863351148733899e-01,6.298912803664716842e-01,1.801209952962551375e-02,2.885017980348264857e-02,8.060686489557121470e-03,-1.707370692308876267e-02,5.606287121772766113e-01
5.318085250748115778e-01,6.192707616920962721e-01,2.012846534982370983e-02,1.145293898420039411e-02,8.677630100363492235e-03,-1.430422358575872063e-02,5.616511702537536621e-01
5.360918057454963082e-01,6.019943148079893724e-01,1.868024239972126965e-02,1.790087769489473804e-02,1.009503051015058113e-02,-1.652197492763946007e-02,5.551959872245788574e-01
6.297952465508802611e-01,6.188965114200694062e-01,-4.813224943387983679e-03,-1.276222831660273017e-03,3.237003483664515247e-04,7.959148807470509167e-04,6.292355656623840332e-01
5.365340691125859429e-01,5.849586008446274743e-01,1.960223554700063486e-02,2.247338496465562524e-02,6.433704964722101842e-03,-9.822099722181187181e-03,5.445405244827270508e-01
5.629693900948293805e-01,5.997626385460369525e-01,8.465055092077344856e-03,1.400389933750393993e-02,7.173056222103355375e-03,-1.266826504837337795e-02,5.748521089553833008e-01
7.449159175512914954e-01,6.007642626053961710e-01,2.485969764331519283e-03,4.848537893382958569e-02,-8.360745528803005880e-03,7.276451005849228493e-02,6.986455917358398438e-01
6.876086111918302546e-01,4.391503883647954187e-01,-4.441869757390026763e-03,6.034202025405765828e-03,-7.883413100286265976e-03,6.751898594124332298e-02,6.186209321022033691e-01
4.651734781942873376e-01,6.614017529533985362e-01,3.607509621425564195e-02,-1.667135281501190558e-02,-9.395070338188147348e-04,-6.232038095343664028e-03,5.547838807106018066e-01
6.648929841614215075e-01,5.353830274780609910e-01,1.180627164131475837e-03,6.725143006622446781e-03,-2.851699158529907158e-03,1.970785303990376866e-02,6.104546189308166504e-01
7.552823767004119837e-01,4.972763215532081116e-01,-1.717877853689542267e-03,6.246850181344254516e-02,-1.389054021551918046e-02,5.632002375365113139e-02,6.827206611633300781e-01
6.867553294241621753e-01,5.636288278317533873e-01,-2.292056968374256432e-03,1.372897194616906451e-03,-7.017579225768921271e-03,1.965645374998218134e-02,6.375100016593933105e-01
6.346777610853927554e-01,6.279700133196407519e-01,6.833706639449765863e-02,4.150515764907478089e-03,-1.907593280607645155e-03,-1.293466708518583967e-02,5.635178685188293457e-01
6.554495829301643095e-01,6.767048258049059850e-01,5.938046876049191125e-02,2.111083486317055086e-02,1.740204334357390442e-02,2.422617194632820797e-02,6.102671623229980469e-01
6.164813071602819328e-01,6.454818211997159771e-01,1.941063235619122640e-02,-2.316350656998688792e-02,3.264398743173980294e-02,3.548495368270926376e-02,6.190588474273681641e-01
6.297337111772383089e-01,6.287058525697740707e-01,5.044390984215785245e-02,4.166672768656518380e-03,-2.218149176161614798e-03,-8.401213446464557422e-03,5.790171623229980469e-01
6.138148482517045146e-01,6.176550270943517162e-01,-1.420510533006996701e-02,2.319361373305445226e-05,2.563302132640493582e-04,-1.558174124625564269e-03,6.299547553062438965e-01
6.316101459772732740e-01,6.079279151333842890e-01,-1.025163780096272070e-02,-8.841208094209988529e-05,-2.784598176601899445e-03,5.086891783679920072e-03,6.304344534873962402e-01
5.782297793393522678e-01,5.821263635166756822e-01,1.815659808969610767e-02,3.222576626397263919e-03,6.309170600076710773e-03,-1.506516210292319210e-03,5.621715784072875977e-01
6.313784752753563989e-01,6.198202307640225950e-01,-1.031759575790802685e-02,-1.108296574727488408e-03,-1.548830870367941519e-03,2.176649038956019085e-03,6.360154747962951660e-01
6.315339087788767181e-01,6.152830985125837815e-01,-1.169232525188573790e-02,-1.698101730794047276e-03,-2.025275029932821404e-03,-3.878928145117193889e-04,6.352735757827758789e-01
6.197374763406651166e-01,6.160614248430921203e-01,-1.481367699132252191e-02,6.342200966115274085e-05,1.704107846008165060e-03,-1.309959330349942143e-03,6.327320933341979980e-01
6.129020742913110498e-01,6.145276592333213106e-01,-1.506275218261798887e-02,8.664879071864286663e-05,1.724102440748134747e-03,-2.678012747237952192e-04,6.287865042686462402e-01
6.330861947801881273e-01,6.159982852961145561e-01,-1.106257824345108220e-02,-4.098298978920047347e-04,7.644664037087093341e-05,-5.896006930900069562e-04,6.357783079147338867e-01
6.183956459835939778e-01,6.325672269189909214e-01,-8.580601999877424113e-03,1.167064960204647339e-03,-2.662071334564261940e-03,-1.073858269465068332e-03,6.342034935951232910e-01
6.159322432574290129e-01,6.309520905233931831e-01,-8.926156247080652140e-03,-1.294987352638487469e-03,-2.151814552635967961e-03,-9.137633141234085448e-04,6.325190067291259766e-01
6.072144659812033218e-01,6.345209549261965343e-01,-8.928451368219458839e-03,2.257920633343630472e-06,-4.383355380648618765e-03,-1.792596453356358564e-03,6.302933692932128906e-01
6.188364271433343111e-01,6.310197299940898397e-01,-1.135420118164265357e-02,3.013581807012435162e-04,-1.623892667812241964e-03,-3.809057833789294468e-04,6.363765001296997070e-01
5.968875515175274815e-01,5.991965621505335182e-01,2.777761118902433157e-03,-8.648688991106618512e-03,9.708345797579122707e-03,8.469433503306060193e-03,5.958740711212158203e-01
6.095855248548858185e-01,6.004641250889884985e-01,-6.255408860268985016e-04,-3.270067976229749148e-03,6.237012762931608625e-03,6.111532673323781528e-03,6.059171557426452637e-01
6.271187042232680975e-01,6.112383188018519764e-01,-7.552010315353852032e-03,-4.102180953718798789e-03,9.278756423161020964e-03,-6.881994583783235080e-03,6.272408962249755859e-01
5.872863599033957271e-01,5.904593733803450428e-01,1.400086404230327375e-02,-6.261659098051558341e-04,2.507585740803699309e-03,5.090947390465028546e-03,5.749636292457580566e-01
6.330444759761676421e-01,6.082089208489556142e-01,-1.120686193863584812e-02,8.224311209763789663e-04,-4.629332050925570076e-03,-6.202546308795494137e-03,6.323432326316833496e-01
5.993985708980615890e-01,6.009203127790543331e-01,-1.727781931051997066e-03,-3.088281454399684559e-03,5.178640708783425160e-03,6.112529888780496475e-03,6.020723581314086914e-01
5.926385700635589115e-01,6.002788110548058498e-01,4.466090451376525383e-03,-2.824520726451008033e-04,1.980123145153894412e-03,7.261139234096524071e-03,5.921732783317565918e-01
6.165458981085971679e-01,6.157917325739287184e-01,-1.503165411137102891e-02,-1.355064354461287804e-04,4.322264682148337306e-04,-4.314446737123331117e-04,6.312017440795898438e-01
6.244166135334109358e-01,6.191620928212697716e-01,-1.481167234404151545e-02,-4.493145901201498231e-04,2.002528721235559070e-03,-1.921816054309147476e-03,6.366358995437622070e-01
6.175462475954753838e-01,6.153966409686097983e-01,-1.427269356105803633e-02,-1.310990082044598704e-03,1.679927431887688486e-03,-3.630050354768092190e-04,6.307579874992370605e-01
6.167725586832784046e-01,6.151786603463308412e-01,-1.438588496226528290e-02,-8.367738910151767536e-04,1.537896207838139462e-03,-2.662711528316016483e-04,6.303704977035522461e-01
6.157536673075876266e-01,6.157531262555007157e-01,-1.449561615417949145e-02,3.718926366554934845e-04,3.310681841153050422e-04,3.468818331929271048e-08,6.302496194839477539e-01
6.158910728651361133e-01,6.160518387832144560e-01,-1.550538573326121217e-02,1.843786719247261612e-04,9.219244586618217030e-04,-6.466937517438233829e-04,6.314799785614013672e-01
6.170921422946050727e-01,6.148663396166733630e-01,-1.397812772529821723e-02,1.183967292830972391e-05,3.056807653636031078e-03,-5.345990136015149564e-04,6.299832463264465332e-01
5.074143850865273642e-01,5.947626005854039777e-01,3.541866612408633985e-02,7.838007799816194832e-02,-1.011594793915637086e-02,-8.330761494491304570e-03,5.390576720237731934e-01
6.281010341191956003e-01,6.203389538759421784e-01,-1.105376635297200538e-02,-5.045194741945141850e-03,3.537009935429675806e-03,-3.487949232911337089e-03,6.354276537895202637e-01
6.358952316365957813e-01,4.885113613362762619e-01,1.551021412569808522e-02,2.284837338641734425e-02,1.972709375040884033e-02,-2.077757072949902931e-02,5.649721622467041016e-01
6.114011634594439526e-01,6.172141152481387394e-01,-1.337743129783830476e-02,-2.224439429860050344e-05,2.207883580901192494e-03,-3.848686826110018534e-03,6.277523040771484375e-01
5.891444073219564981e-01,5.988747392015943971e-01,1.004460632866238656e-02,-6.055869800291049758e-03,8.188221385092182836e-03,9.037988217042791997e-03,5.845017433166503906e-01
6.234557755888541219e-01,6.246818136825169621e-01,1.317370530048401767e-01,3.662915445107833064e-03,-1.932243274719133664e-03,-3.001348970532876324e-03,4.924125671386718750e-01
5.851022088937558596e-01,5.831583954835276584e-01,2.598661851004419043e-02,-1.538985221294076298e-02,7.502118155791920491e-03,8.121346631518405051e-03,5.591104030609130859e-01
5.756521978923021532e-01,5.865309089598256254e-01,1.934924299486712185e-02,-4.290804575060673184e-03,1.629648895711449273e-03,6.846941199892500607e-03,5.620027184486389160e-01
5.766586743232913204e-01,5.799254443333704545e-01,2.783726161420185807e-02,-1.349915428918544054e-03,1.799516863478254746e-03,4.039562370976025954e-03,5.505203008651733398e-01
7.156798251800358113e-01,4.146473354108456411e-01,1.775061663057464489e-02,1.249721733383281873e-02,1.234096828223910742e-03,-2.404439157191539181e-02,6.081396937370300293e-01
6.158918593279426590e-01,6.232752105194950820e-01,-1.418192227152531570e-02,3.152210308221645597e-04,-4.966475276469908958e-04,-2.738967829383509058e-03,6.338163018226623535e-01
6.201539391086893227e-01,6.149601112390642443e-01,-1.443135185664790043e-02,5.284601220838980231e-04,1.356079901492720802e-03,1.487179387645083065e-03,6.320146322250366211e-01
6.265748563678031902e-01,6.164861518276072427e-01,-1.266574069825548987e-02,1.600737120983086910e-03,5.018122665409552839e-03,3.672305068690112900e-03,6.343539357185363770e-01
6.296411055006672086e-01,6.218863501666199722e-01,-9.964515883825519893e-03,2.932270454632915141e-04,9.388871205953895887e-04,-1.169762265329294992e-04,6.357660293579101562e-01
6.050198763377476752e-01,6.369118632744699138e-01,-8.776089887312654714e-03,1.084149365108690206e-03,-2.161660919105287519e-04,-4.458995107541005934e-03,6.303975582122802734e-01
6.272207572951224996e-01,6.173953993516201333e-01,-1.207703961505274259e-02,7.654639045293173049e-04,5.872521280901373680e-03,2.619777235024757251e-03,6.345413327217102051e-01
6.016052867053600650e-01,6.470426028987277256e-01,-7.198132555997882598e-03,2.668248503279598352e-03,1.074762044167245105e-03,9.425325604562923183e-04,6.327685713768005371e-01
5.954684639277072478e-01,5.903523304855036180e-01,3.114356024550291036e-03,-1.842354087166432966e-03,-1.569341382852457341e-03,-7.240192289622682936e-03,5.899608731269836426e-01
4.248592473984085793e-01,6.401973226624682045e-01,2.759496976937320101e-02,-1.480577918843453966e-01,-1.800953726294992480e-02,-7.111172428804182072e-03,5.971797108650207520e-01
6.163901169611917252e-01,6.278004069790562580e-01,-1.316379413489471295e-02,1.147072109206902701e-03,9.242736943451301986e-04,-2.797222848617029762e-03,6.353595256805419922e-01
6.242687766240799796e-01,6.159458895868883399e-01,-1.397672564681695651e-02,6.878676973122790916e-04,2.582230329242100626e-03,1.474660443759306244e-03,6.341470479965209961e-01
5.495876873183912492e-01,6.232552774095412307e-01,1.954733641054273718e-02,-8.170273899423772038e-03,-2.785096960236039480e-03,-1.147293496110904192e-02,5.709946751594543457e-01
5.501227330697086026e-01,6.676984066479711988e-01,7.814160041238471521e-04,3.400282335054177676e-03,8.336230126350499319e-04,9.713149826754615204e-03,6.168540120124816895e-01
6.094126037928737638e-01,6.369928303073579823e-01,-1.076393023434185636e-02,1.367933311978263315e-03,6.393841382345855431e-03,-2.268806907323146684e-03,6.345296502113342285e-01
6.185488141627573100e-01,6.303795497530657599e-01,-9.336389887167173551e-03,3.128677606945536645e-04,2.313971980910657558e-03,-4.915893692451963129e-03,6.339534521102905273e-01
6.052856164445317155e-01,6.303973300565307580e-01,-9.788323261044340473e-03,-2.211364663954250526e-04,-2.691737129389808474e-04,-7.703438879216729755e-03,6.281484961509704590e-01
6.183652625334543629e-01,6.328319033726170773e-01,-9.907603487250171703e-03,9.093619107908720259e-05,3.929050085733448022e-03,-1.479762870150535311e-03,6.356712579727172852e-01
6.077511184796280386e-01,6.352135706428991835e-01,-1.137057329173196685e-02,-5.732209571472558123e-04,7.105824745138438966e-03,-1.631947046065073976e-03,6.334263086318969727e-01
6.260355911934626372e-01,6.109874882028329957e-01,-1.242718256502706176e-02,-1.672806794323190112e-04,4.884790126788972515e-03,-3.275761006079598494e-03,6.311555504798889160e-01
6.263254209382809190e-01,6.112208147991649021e-01,-1.243636676029019617e-02,-7.064046076536897303e-04,5.081158533660775842e-03,-3.952923453628581427e-03,6.314446330070495605e-01
6.259895872944007955e-01,6.183650585468364325e-01,-1.188475436296065890e-02,-9.275704063057727293e-04,1.526085419767467255e-03,-1.194307461483472233e-03,6.341073513031005859e-01
6.078062318340073933e-01,6.236281231179093831e-01,-8.595476897828469021e-03,-4.307730012648603585e-04,-1.113009764239839688e-03,-7.312250098535865404e-03,6.245948672294616699e-01
6.078345159376282725e-01,6.222102241897650154e-01,-1.042270323152677536e-02,-8.068469297555113566e-04,-1.510258241301179341e-03,-8.749155626172363739e-03,6.257595419883728027e-01
6.302487216577911111e-01,6.213330925239468616e-01,-8.460475709842762981e-03,7.277073623923259633e-04,-3.486484331515931658e-04,-1.592782863419018842e-03,6.343058943748474121e-01
5.651621364398863312e-01,6.463580159274253667e-01,1.381278705330835077e-03,-1.387663236392898880e-03,-2.327369938777505091e-03,-8.695846426273712640e-03,6.086601614952087402e-01
6.246199484743679697e-01,6.157961515386183304e-01,-1.256596540718246668e-02,-9.386993715367195545e-04,2.713482145630038110e-03,-9.430289837211368277e-04,6.328418254852294922e-01
5.828203343639581924e-01,5.716224513260412810e-01,3.348651919818623757e-02,-1.648641106803365106e-02,-2.471593219412535677e-03,-2.075339714357389044e-03,5.445992350578308105e-01
5.718879789361185351e-01,5.747712228078127872e-01,3.216455708785642686e-02,-2.093424206299804476e-03,-7.892640833592283987e-04,-8.812853514422676720e-06,5.411846637725830078e-01
5.813902071472265565e-01,5.726434816986311072e-01,2.586431255893656411e-02,-1.761175113616970933e-02,-5.466830926427875166e-03,-5.189972326637964234e-03,5.522024035453796387e-01
5.603696382821965472e-01,5.728015369915842037e-01,2.837206739874592598e-02,-1.446133222273288978e-02,-1.151053092006822489e-03,-3.170470925942191730e-03,5.389352440834045410e-01
6.086620187878006849e-01,6.402264900672988146e-01,-1.087196538849327654e-02,-9.612343646914280363e-04,-5.836874002461626097e-03,1.798438571541624001e-03,6.359941959381103516e-01
6.086915183983108157e-01,6.317241343273251042e-01,-1.200712559648980937e-02,-2.096546801857219100e-04,-6.368779811102548601e-03,2.962603497134181762e-03,6.326466202735900879e-01
5.706206809693861182e-01,6.368383843961810120e-01,-9.357148196307230048e-03,6.845216098278158502e-04,-1.278280808786936250e-02,4.595833458617423241e-03,6.162133216857910156e-01
5.266199896238803468e-01,7.519535289103600473e-01,5.708429274356940919e-03,-2.585028182332014743e-02,5.318769369732519181e-02,-1.352041411237164294e-02,6.712248325347900391e-01
5.980491221387906897e-01,6.406681064985864094e-01,-2.993882664458491494e-03,3.770460098573327453e-04,9.860796171536331811e-03,1.681988338655958674e-03,6.236870288848876953e-01
6.236846808612866999e-01,6.211668194800047393e-01,-9.778597191706372982e-03,-2.526973221788065844e-03,7.369261142167697100e-03,4.842315260448527142e-03,6.324077248573303223e-01
5.528704716895208593e-01,6.877258452654912979e-01,-9.182357022148535108e-03,-2.384215427969419224e-02,4.450001881166212175e-02,1.526726508581306360e-02,6.467074751853942871e-01
8.977787465988598115e-01,6.725082068214274233e-01,1.178994715363662626e-01,4.903705514580777251e-04,1.495665644937555286e-02,-9.113210171638835844e-02,7.133454084396362305e-01
5.083045815530728984e-01,6.635056863405373040e-01,5.028891299663496017e-03,6.972795180566165700e-04,2.056752014117714869e-02,-5.514962623898241219e-03,5.973646640777587891e-01
5.700249787543796298e-01,6.419780934031672492e-01,-1.051238876058407934e-02,5.730459160881977041e-04,1.213989519034007307e-02,-2.380998046031751816e-03,6.200261712074279785e-01
5.567041275526294353e-01,6.672333027338245293e-01,1.994935796606478462e-05,3.149372223029808272e-03,5.358184713550921902e-04,-1.100861637788862375e-03,6.194175481796264648e-01
6.168034105779305332e-01,6.153799279765315156e-01,-1.512114920181117927e-02,1.425570616698130632e-03,-1.809813969214924424e-03,-3.319879800878715965e-04,6.312268972396850586e-01
5.088477885342043150e-01,6.602861032007295572e-01,5.246384526586989061e-03,1.160555941957884920e-03,1.942885307500722206e-02,-3.498721484165827431e-03,5.949669480323791504e-01
6.211539144176769778e-01,6.155766113265959127e-01,-6.293069553217345291e-03,6.420208461512455153e-03,-5.739726452153094162e-03,9.216291466602716254e-03,6.250589489936828613e-01
6.170927085040697202e-01,6.048676312501273244e-01,-1.111006562263239239e-02,5.840452396195140380e-03,-7.209320202790407695e-03,4.774797571449901183e-03,6.224427819252014160e-01
6.213929680505811959e-01,6.200684423364449804e-01,-6.341001095692577749e-03,-9.038312157705754657e-04,9.383428545885328558e-04,1.163618508993586589e-03,6.270800828933715820e-01
6.164799007244528006e-01,6.035712786735948354e-01,-8.924515715282688166e-03,-3.331879710328516757e-03,-7.512707682859272144e-03,8.930574237112545027e-04,6.192166209220886230e-01
6.083293188513132499e-01,6.107687755134465490e-01,-5.291881842359347221e-03,9.717965690022109179e-03,-7.525233601455409878e-03,8.315845679308601218e-03,6.153815984725952148e-01
6.184354671269629566e-01,6.110354311361323454e-01,-1.116178131165279641e-02,1.153438294302789723e-03,-5.954917870874766941e-03,4.598526647284137230e-03,6.260688900947570801e-01
6.205269856184990607e-01,6.180022325867442490e-01,-1.428130449223286025e-02,1.618959682658911280e-03,-2.592543223115652360e-03,-9.818157291602814477e-04,6.335740685462951660e-01
6.207814289454971490e-01,6.202883132476578742e-01,-1.301086376130994315e-02,1.836638902866887836e-03,-3.375927117813946020e-03,-3.294650233556795527e-03,6.336065530776977539e-01
6.334220659946209198e-01,6.214506267063903966e-01,-1.118712990622894310e-02,-1.486500458999093699e-03,1.240274685212679785e-06,1.189604861628432587e-03,6.387161612510681152e-01
6.219778536067616104e-01,5.284274519024665384e-01,3.185209891091445034e-02,-1.227619970329874889e-02,5.570023770055548308e-03,1.169086648093503947e-03,5.498571395874023438e-01
5.744471176042942329e-01,5.777113049095122799e-01,3.455932472796896526e-02,-1.660849123131248953e-02,1.817831998819089507e-03,1.883837063115774077e-03,5.423097610473632812e-01
5.740206537742456039e-01,5.611156073485005225e-01,3.123556765171719984e-02,-9.574181911074529372e-03,2.111066361424165970e-04,2.529730786503366964e-05,5.367053747177124023e-01
5.664485649942490042e-01,5.839773399671569498e-01,2.402681106660420340e-02,-9.886288179240558180e-03,5.537206161571217589e-03,8.450620564476702193e-03,5.519384145736694336e-01
5.748814463077533965e-01,5.756473800086147063e-01,2.671596871408810081e-02,-1.733691698012375729e-02,3.595322581227117405e-03,5.618637780817041343e-03,5.494915843009948730e-01
6.283135228931322480e-01,6.151180920705016097e-01,-1.334526729947782542e-02,4.759038106986521036e-04,-2.082519042304532830e-03,2.893630402905936704e-04,6.351748704910278320e-01
6.236037835711142341e-01,6.178647390748057688e-01,-1.384715810130549007e-02,1.150490724212920425e-03,-3.093995461122662615e-03,-5.719354494597702699e-04,6.346274018287658691e-01
5.746771760459945533e-01,5.606481677485357640e-01,2.898932642123247527e-02,-1.123751003006098238e-02,2.907832792353608458e-03,9.610288510362377393e-04,5.391878485679626465e-01
6.188575296728218156e-01,6.397618699686546950e-01,-9.569133227675274966e-03,8.629726638091421388e-04,-2.714797195749949800e-03,1.829134127435634799e-03,6.391621828079223633e-01
6.168680008126149472e-01,6.313668751288931125e-01,-7.896048667614008476e-03,-1.132819366197710363e-03,2.116837452569484378e-04,7.104327651872528520e-04,6.321425437927246094e-01
6.249603375764272162e-01,5.785244755225895652e-01,5.896135293499971120e-03,-4.232324837762316098e-03,-1.451223204417869533e-02,-1.010270743335150989e-03,5.977780818939208984e-01
6.195740324041172364e-01,6.328055556896658995e-01,-7.997406417052321803e-03,4.524531838344232290e-04,-1.677721520941162460e-03,-1.870262737681402214e-03,6.343061327934265137e-01
6.156271339272755272e-01,6.313723243298781096e-01,-1.197297163280175436e-02,-9.355852893608809133e-04,6.486503428718610759e-04,1.399560081073789606e-03,6.356266736984252930e-01
6.235196044647441926e-01,6.202392207693844250e-01,-8.622021105068600200e-03,1.968560916647851648e-03,-2.683966405018189862e-03,-2.527487762830337228e-03,6.305493712425231934e-01
6.653892997734529580e-01,5.513108241029156531e-01,-4.159449579184681944e-04,-7.000764227404544446e-03,-7.144501220820208623e-03,6.627853766523421732e-04,6.169748306274414062e-01
6.181166028555632463e-01,6.296316683453647700e-01,-5.135135471353191594e-03,-2.168251631096713029e-03,2.078631775347630772e-03,5.265250617585333099e-04,6.291105151176452637e-01
6.154899824731424607e-01,6.151418761626381571e-01,-1.529803317237060645e-02,7.264576470945704328e-04,-1.545640451662053712e-03,-1.539549497671916347e-04,6.306210160255432129e-01
6.250273103488743764e-01,6.168878757492948228e-01,-1.259652470906513777e-02,-1.597186901367045678e-03,-5.238897276347512753e-03,-3.368378744570695894e-03,6.336911916732788086e-01
6.274375696688285764e-01,6.161819341812557749e-01,-1.242995848428668504e-02,5.056025454228744694e-04,-6.690206972403826488e-03,-6.028674657483580959e-03,6.345070004463195801e-01
6.176059073389745802e-01,6.104175146795548512e-01,-1.218874020506449662e-02,-1.272148157397707353e-03,-4.546191040414888224e-03,-2.744755021140271589e-03,6.263028383255004883e-01
6.283499892630872719e-01,6.167644726796311927e-01,-1.336375882229989820e-02,-8.565493956525599374e-04,-2.964355642016068895e-03,-8.115894967891850234e-04,6.360241174697875977e-01
6.159431979135902013e-01,6.158702950362501261e-01,-1.183673737248797098e-02,-7.036607881376654230e-04,-4.925398089361683086e-03,-2.510978210290895022e-03,6.278176903724670410e-01
6.223996438757615213e-01,6.162034059328228564e-01,-1.236535029584984180e-02,-3.406333447249696963e-05,-4.049941480960360558e-03,-1.427780122489940521e-03,6.317334771156311035e-01
3.759014178977735376e-01,7.718308977773481461e-01,-5.424785744270188559e-03,-1.886313533242393592e-01,-6.816089862822816148e-02,-1.093789365921482917e-02,7.577533125877380371e-01
6.338457141682100060e-01,6.331454357769950025e-01,2.212289636955300232e-02,-8.226432915577780794e-03,-6.826654769398309529e-03,2.968854739477739518e-05,6.116532683372497559e-01
6.308270105071391853e-01,6.210081971640681875e-01,5.359404847866644506e-02,-5.595755797326562033e-05,2.376773536510338753e-03,-8.302217764995971708e-03,5.725821256637573242e-01
6.174955672461466261e-01,6.172350377278063016e-01,-1.553250629185914944e-02,8.954073274702441460e-04,-6.648694490281793377e-04,-5.945631938652168411e-04,6.329016089439392090e-01
6.250719071260442128e-01,6.223878156517996807e-01,-6.824528344833880045e-03,4.771931744816827708e-06,-1.276630505861249976e-04,3.475673713665949557e-03,6.305874586105346680e-01
6.327679670422162728e-01,6.244229825241849330e-01,-4.039459746059126388e-04,-3.820236123249269155e-03,-1.215067053655587365e-03,4.833154219679130885e-03,6.291349530220031738e-01
2.769353609776277203e-01,8.264857800507143804e-01,-3.823702300663467391e-02,-2.381424836210488671e-01,-6.801209605963669247e-02,-1.336787783449149176e-02,8.712582588195800781e-01
6.085796710878016436e-01,6.130496515873913310e-01,-8.010375158548743713e-03,2.131648895986657140e-03,1.191283370885308371e-03,-7.007908553245507867e-05,6.188516020774841309e-01
6.152696591168451690e-01,6.166868200279298495e-01,-1.500887488176594342e-02,7.640018375708561153e-05,-5.168968773014230014e-04,-2.769336028162835191e-03,6.310071945190429688e-01
6.167462286324780774e-01,6.163508646917351674e-01,-1.571968512372157178e-02,8.501837285122348409e-08,-5.450193305100625631e-04,-4.551386969957910578e-04,6.322695016860961914e-01
6.158437482423306797e-01,6.206917590138345542e-01,-1.234675770485460511e-02,-8.952171184434486162e-05,1.492212183755714560e-03,-5.270506452961800335e-04,6.306344866752624512e-01
6.032977337955498509e-01,5.993702521864361366e-01,-2.677288064129146328e-03,4.919451797738240949e-03,5.763020557010793167e-03,-3.182531372753621100e-03,6.041885614395141602e-01
6.001437721704061534e-01,6.009988761855534767e-01,-2.969973021996308304e-03,3.676116487920245111e-03,3.633856953030223727e-03,-6.767159142447084531e-03,6.037219166755676270e-01
6.090203061887080604e-01,6.030365862269014832e-01,-9.636597658646717246e-03,6.958317223991652804e-04,1.123475848026877534e-03,-5.086894387956348261e-03,6.157541275024414062e-01
6.156058133429963553e-01,6.162767244547985301e-01,-1.470520011313586339e-02,-2.094743358732636842e-04,8.862415539647632359e-04,-9.584474963965635775e-04,6.306508779525756836e-01
4.116552945175219191e-01,6.992378708044115765e-01,3.315176915008311020e-02,-3.979248898703288337e-03,-1.232722068495550275e-03,-2.734637694832882469e-03,5.787004232406616211e-01
3.408883002152888753e-01,7.236423103758555797e-01,-7.826324776120896498e-02,-3.535007755047582800e-01,-2.383483324966316833e-02,2.775597040042367472e-02,9.281834363937377930e-01
5.980503260925816855e-01,6.115877190642412531e-01,-7.258674909236706441e-03,1.880399298434471626e-03,5.212046010139389021e-03,-8.069471046209709605e-03,6.124246716499328613e-01
6.160345027361844306e-01,6.243887681543227597e-01,-1.200039273373826321e-02,-7.921616867176425967e-04,4.314107549433569247e-04,-2.632777756501207805e-03,6.322718262672424316e-01
7.060602226227770117e-01,8.859253563397684328e-01,1.156405843871238237e-01,9.304079076750980393e-02,1.305359171865060897e-01,-7.734331781623181301e-02,7.630054354667663574e-01
6.281363322017649020e-01,6.168698512466651573e-01,-1.203514578598241513e-02,4.504372631341357208e-03,-4.626434269215991962e-03,-1.648240362235611984e-03,6.347181797027587891e-01
6.115088241410420178e-01,6.137240963021493023e-01,-1.268659203769045840e-02,1.041437848687020058e-03,2.238663973951830755e-03,-2.792379291148447146e-03,6.253393292427062988e-01
6.217506112291312226e-01,6.156067210545645985e-01,-1.155228856001416782e-02,2.710402467990490863e-04,7.342318261860936168e-03,-6.008330024126587975e-03,6.304677724838256836e-01
6.192026661797388476e-01,6.166598073436821981e-01,-1.397657583446981766e-02,6.282008848121979931e-05,1.947271493620079258e-03,-4.201362773599137809e-04,6.319210529327392578e-01
6.278602203580663232e-01,6.249083625517666274e-01,-2.385016799104411334e-03,-2.577672518473770897e-03,-2.722121622207621886e-04,-3.147525649789368121e-03,6.288141608238220215e-01
6.157955067848948083e-01,6.111838073080616551e-01,-1.240004083941642632e-02,4.689562836117173094e-04,2.780094127534505841e-03,-2.201577797408731628e-03,6.259331107139587402e-01
6.219083694995534151e-01,6.241459830740163639e-01,-1.008061490655581816e-02,-2.254319693627292176e-03,2.980220161255266956e-03,-3.289005909950196583e-03,6.331694722175598145e-01
5.957078941681053230e-01,5.925108498252418254e-01,7.676869162627109056e-03,1.671207033388031130e-02,1.512263655182272647e-02,-1.466133545775906780e-02,5.882852673530578613e-01
6.067283779999492754e-01,6.105195578925802780e-01,-7.960366647249805805e-03,3.447689763023767742e-03,1.049360333399354181e-03,-4.659649972939228398e-03,6.166774630546569824e-01
6.089798873497126452e-01,6.179281462604307995e-01,-1.191334854816228361e-02,2.531791386493011456e-03,4.235952305296697071e-03,-6.133383994493103383e-03,6.255639791488647461e-01
6.275225918049464058e-01,6.270628436804623895e-01,6.454833815039540124e-02,4.047068601681138092e-03,7.443854110748921935e-03,-5.608313814132574043e-03,5.630196332931518555e-01
6.168848390189938247e-01,6.211277341118897066e-01,-1.432025925995744631e-02,-6.464884254397905688e-04,1.005725415469678908e-03,-1.216034499737341738e-03,6.333441138267517090e-01
6.212126592474425113e-01,6.301014460264949824e-01,-9.306967574702673662e-03,2.367809902019215359e-04,-4.296014334187947190e-04,9.123871005936694527e-05,6.350112557411193848e-01
7.582222984821395118e-01,8.704683938229493823e-01,9.656362526527717538e-02,9.722354327087753822e-02,-2.889347306442556777e-04,-3.836612023952971906e-02,7.466145753860473633e-01
6.137107625883967410e-01,6.197604501572061553e-01,-1.446157524327751354e-02,-5.288612159220435274e-04,1.445211775599829055e-04,-2.335470695225996644e-03,6.312326192855834961e-01
6.233389237790131210e-01,6.167498990763556899e-01,-1.454786307675298707e-02,1.072680389290836230e-03,-2.783340675184753626e-03,1.510830699805918137e-04,6.346390247344970703e-01
6.012243792679885512e-01,6.406429001417370817e-01,-5.649573516868067191e-03,9.511395072131271188e-04,-1.338992845307161901e-02,-1.679385307540593722e-04,6.279430985450744629e-01
6.300981101957838781e-01,6.218172767973904058e-01,-5.987319785009992401e-03,4.734588439005568521e-03,1.343734278734828912e-03,-4.393048680699015475e-03,6.320890188217163086e-01
4.195975445511150315e-01,7.911312740857067149e-01,4.461460829277175133e-03,-9.365442209476873212e-03,-6.135036979085983777e-02,2.981653197404579136e-03,6.900679469108581543e-01
5.941102830536353352e-01,6.023010277568113802e-01,2.257655170354755381e-03,-4.859782652392391836e-03,-2.307461673270433996e-03,-1.290478638906478702e-02,5.964819788932800293e-01
5.083153507025042206e-01,6.848369668145989353e-01,-4.747752218955625381e-03,-4.402481691107849090e-04,-3.082897121487642236e-02,2.083637391157991577e-03,6.227561831474304199e-01
5.669344440651822303e-01,6.449892585174470394e-01,3.149986730070719609e-03,-1.637118283474615910e-02,-1.466746790061829696e-02,-4.930544256923369111e-03,6.078436970710754395e-01
6.493460002995268265e-01,5.586964861518692871e-01,-4.799319959599923635e-03,-3.377239005793072381e-03,8.153179221140640070e-04,-1.330657175662698427e-03,6.138949394226074219e-01
5.614608413936593712e-01,6.558844133718142455e-01,-8.761438506842023077e-03,2.758908685837592467e-03,-9.276985364569353618e-03,1.502921111431376874e-03,6.230565905570983887e-01
5.114247151037170092e-01,6.627445877402124985e-01,-3.059779011631014178e-03,1.189708415947730294e-03,-2.795615749021615470e-02,-7.204915528949111395e-04,6.064603328704833984e-01
6.255491167946135578e-01,6.272671146891346527e-01,6.964994661988316293e-02,3.916365760724316650e-03,-4.422994428441081628e-03,-5.591021991949975123e-03,5.569383502006530762e-01
6.117976873845797359e-01,5.964164945894070424e-01,-5.814167759726762696e-04,-1.101828884478050531e-02,-9.802923616405886248e-03,-5.872399755844539236e-03,6.054598093032836914e-01
6.167761396458323331e-01,6.399259561502894655e-01,-8.476370659753873493e-03,-4.820616656019483318e-04,2.876930287432283469e-03,2.590562852691742548e-03,6.371787190437316895e-01
6.172541577525900713e-01,6.322760936807939602e-01,-1.037860967117160138e-02,1.961459602136769297e-03,6.213834605277568195e-03,3.559897981738561774e-03,6.354070901870727539e-01
6.158708214503856304e-01,6.313280165653215592e-01,-1.243791342977818015e-02,1.718555382848462217e-03,-1.066173543709504406e-03,1.102150675529664199e-03,6.361907124519348145e-01
6.166608575744128018e-01,6.305468864162806497e-01,-1.262713184970953861e-02,-6.234462561222205938e-04,-1.397812681354702706e-03,1.134783485490224215e-05,6.363501548767089844e-01
6.204071592426072534e-01,6.172628787252267824e-01,1.306083943775121492e-01,-1.725673297342068119e-03,-1.793257564447211334e-03,-2.668762488146252023e-03,4.882751405239105225e-01
6.057209776668880385e-01,6.404284782013468513e-01,-9.344242140485514714e-03,1.191528482031765706e-03,4.974058597487266212e-03,2.697862235176054935e-03,6.332120895385742188e-01
6.218321039948395690e-01,6.303005023104144566e-01,-9.013278517312539595e-03,1.169033699662977823e-03,1.710864222064607462e-03,9.623912408878753429e-04,6.351342797279357910e-01
4.845559588207044577e-01,6.586124272363091947e-01,1.876735649179378518e-02,-1.159632402520375562e-02,1.579739849971781643e-02,1.541206815658443738e-02,5.746241211891174316e-01
6.106899185366410077e-01,6.158441998637194104e-01,-1.372746111455347418e-02,-1.316462186579296515e-03,-2.199655557998841590e-03,-3.269985788255877230e-03,6.270517110824584961e-01
6.106954779785127574e-01,6.123507417022908683e-01,-9.355392207172408270e-03,6.501655064082944961e-04,6.878794624305736155e-03,-4.853609747693866938e-03,6.210523843765258789e-01
6.130742577159288276e-01,6.117310293606108562e-01,-1.264300088946807010e-02,7.424351835637690595e-04,2.896588293169625582e-03,-2.271010479405873896e-03,6.250805854797363281e-01
6.252597476544695665e-01,6.221163798701409009e-01,-8.202989898412060832e-03,3.942184442111452969e-03,-2.728363524731865306e-03,-2.575343342044015410e-03,6.319672465324401855e-01
6.205036712929120624e-01,6.195803621778090964e-01,-1.219145841986563061e-02,9.642674526095072621e-04,-2.369934668484824543e-03,-4.593399162731389741e-04,6.322500109672546387e-01
6.207212123613335963e-01,6.257376433065185983e-01,-1.190974276258438547e-02,6.569117597340217406e-03,-5.513401134805503805e-03,-6.061682966770810636e-03,6.354144215583801270e-01
6.193047838777181457e-01,6.229108164488781352e-01,-1.458581826627641798e-02,1.077250343323621568e-03,-8.716166016979601987e-04,-3.111404166481483019e-03,6.357286572456359863e-01
6.236226646028031340e-01,6.170803637651949280e-01,-1.126435599094915974e-02,2.456396175939391975e-03,-2.908906104934073315e-03,3.032670326882965905e-04,6.316758990287780762e-01
6.178944745981637121e-01,6.051547855070211757e-01,-9.478004007522189411e-03,2.243175442832894082e-03,-7.984982449752445199e-03,-6.386309194699466354e-04,6.212677359580993652e-01
5.496104056624353529e-01,6.218593213247127771e-01,1.842216561734322244e-02,-8.508210976191742450e-03,-2.996267939282543178e-03,-1.260762809987822294e-02,5.713838934898376465e-01
6.134122122021565815e-01,6.185229760675263755e-01,-8.153218342116852480e-03,-5.502197471703212418e-03,-8.068086332413524145e-03,-8.860919152747219474e-03,6.245542764663696289e-01
6.086206298110292678e-01,6.217253388112925494e-01,-1.204927677262362939e-02,-1.625619104543124614e-03,-5.674641385478629285e-03,-6.850631458179080868e-03,6.275204420089721680e-01
6.133648459372105233e-01,6.192847057882154838e-01,-1.459734491434627746e-02,1.366705684590184956e-04,-2.010079207773858513e-04,-2.909495590256019632e-03,6.309632062911987305e-01
5.679197435885156020e-01,5.910018207221026110e-01,2.032945720513285037e-02,2.656885404027866521e-02,1.385839598218203787e-02,-2.291384663080732464e-02,5.632907152175903320e-01
6.264764117297494384e-01,5.852099879542280725e-01,-9.172897003097535418e-03,2.928447269780819033e-03,9.665618858822083714e-03,-1.081594767880311378e-03,6.163046956062316895e-01
6.138496135520028485e-01,6.235731800286667958e-01,-1.405148444185388978e-02,1.927837404079053374e-03,-2.202381036671181174e-04,-2.956349886908012786e-03,6.328485608100891113e-01
5.580043651230126578e-01,6.577010321013418981e-01,1.014214737497909358e-03,2.508943766945430365e-03,2.392635259037612441e-02,-4.437476815681421806e-03,6.144126057624816895e-01
5.959335474241818087e-01,6.677692971625788232e-01,-1.137516746261224565e-02,1.028118567396505562e-01,3.317797787958753908e-02,-3.494735276391219142e-02,6.754907965660095215e-01
6.116451401028791812e-01,6.103801488945127529e-01,-1.254392021680139635e-02,2.483022436348143042e-03,4.145584091779990626e-03,-5.384565890499174411e-03,6.236834526062011719e-01
5.065751575543004925e-01,6.179558428812544912e-01,3.339074458820406877e-02,-6.263926201441130659e-02,-1.750286067417748562e-04,2.346714456668082868e-03,5.484527349472045898e-01
6.085010666664354417e-01,6.297499135037503137e-01,-7.335845946636943005e-03,5.271207462174483556e-03,5.614013263977082543e-03,-7.623157964125873952e-03,6.270124912261962891e-01
5.853764146326999596e-01,5.839536082097541714e-01,9.080643100495666697e-03,-8.394060783810306653e-03,-7.744036717787954223e-03,-7.562196633156388625e-03,5.760744214057922363e-01
5.598546222573346220e-01,6.486909642647366026e-01,3.651996663270873356e-03,6.539871889444625642e-03,-6.077057655834299270e-04,-1.326229891095646873e-02,6.060703992843627930e-01
4.797528079579027604e-01,6.650260353287855697e-01,1.769732133649953854e-02,3.088437187340602533e-03,-1.163469256363814411e-04,-1.548971743949328905e-03,5.774632692337036133e-01
5.652384740995128887e-01,6.222383616390282368e-01,1.273402570863579886e-02,1.626487880154801335e-01,4.228613758370263626e-02,-2.798262936872874390e-02,6.535137295722961426e-01
4.730816375631858306e-01,6.707529114952952565e-01,2.372719169648523918e-02,6.934568913390405653e-02,2.359125034261447609e-02,-1.898584168823450047e-02,5.890631079673767090e-01
6.186286116592589757e-01,6.254932106274013748e-01,-1.205229619390807416e-02,-5.962303239280856374e-04,1.236134249780229764e-03,-8.733909176825424081e-04,6.341473460197448730e-01
6.000413319902631049e-01,6.034094662368363338e-01,-3.869805551460991921e-03,8.646917915970437794e-04,-2.446100106333579192e-03,4.307730609466640416e-03,6.056648492813110352e-01
6.128549498394659789e-01,6.122323572698622485e-01,-1.223207148442917447e-02,7.019851964122400100e-04,-1.808348082007980038e-03,4.186684263248164565e-04,6.247854232788085938e-01
6.617475396937744225e-01,6.285283745803682542e-01,3.135745593435151912e-02,2.541140895432244303e-03,-2.688995091652389576e-04,-5.481569596835479848e-03,6.145436167716979980e-01
6.274601961994283883e-01,6.263633146601068624e-01,3.301780901081791120e-02,3.312323806998981792e-03,-2.974587796375661921e-03,-6.329075695011223031e-03,5.940459370613098145e-01
6.075359740659482810e-01,6.066856135981256726e-01,-9.000427686176259989e-03,1.854579851885955520e-03,-4.925726145492105405e-03,1.161933424485624361e-03,6.161823868751525879e-01
5.267413090633290551e-01,5.930293817259733036e-01,1.982230565338116701e-02,5.697169630987578698e-02,-1.013809083416188604e-02,1.281294771893433729e-02,5.527222156524658203e-01
4.727775892318569206e-01,6.331467516734086143e-01,3.366994953649099509e-02,3.833625985360217953e-02,-7.954708958921929279e-03,1.143001525514636234e-02,5.421659350395202637e-01
4.340484408060660826e-01,6.535503325554480325e-01,3.634771125246544221e-02,1.039098624067969906e-01,-1.125815501675412993e-02,2.478685840103203586e-03,5.713435411453247070e-01
6.272363996749433790e-01,6.078299801480545606e-01,-1.314396421596875086e-02,-1.279885195369962099e-03,-4.890362288021699033e-03,-4.402204851703691788e-03,6.310078501701354980e-01
6.626631150355328792e-01,4.603243773296453178e-01,2.135759336437886846e-02,-5.574547507465936469e-02,1.014022796247931839e-02,3.314193656196665755e-02,5.791192650794982910e-01
9.032696836972118337e-01,6.056458258171006914e-01,1.165083358014923354e-01,9.987973363359174683e-02,3.906310030363879804e-02,-1.420189104813539827e-01,7.539417743682861328e-01
7.633099129836435903e-01,4.437246160916262228e-01,3.001055987408640657e-02,1.247267285001120024e-01,4.439556035040043841e-02,-6.833983354468897709e-02,6.870990991592407227e-01
6.282831589990588439e-01,6.264698058422464300e-01,4.190351077450404915e-02,-5.352888120565688600e-03,-5.787722536694413222e-03,5.043689380964670906e-03,5.856994390487670898e-01
5.564168441984751468e-01,6.499834418541858838e-01,-8.837952724773390223e-04,-3.462174198901848054e-04,-3.018264681625427428e-04,8.977591304205190595e-03,6.096932291984558105e-01
7.651854774094994927e-01,8.466344906787839353e-01,1.193051356595291601e-01,1.110629104146590718e-01,-1.728262881720667721e-01,1.363756020951631120e-01,8.116700649261474609e-01
5.367686799843307544e-01,6.256007474035647498e-01,3.524538113461206379e-03,1.405473886180257370e-01,-5.927525492191612622e-02,3.945555565037035806e-02,6.434914469718933105e-01
6.164984107942105274e-01,6.039190641517200309e-01,-9.598659904992312697e-03,-4.162861440740226772e-03,-1.216609333416279921e-02,-1.074508020361739091e-02,6.205822229385375977e-01
6.937288912795099849e-01,4.026287840967531784e-01,3.737873767172178452e-02,-6.561860407164295424e-03,-1.028502846162535804e-03,-1.557073623128505573e-04,5.697399377822875977e-01
6.098437258189234322e-01,6.458691308362702888e-01,9.666931430004699344e-02,-8.063719510804055746e-03,1.365195984443644435e-02,-5.784840081054918280e-03,5.329049825668334961e-01
2.962084583630330559e-01,6.892854745509181535e-01,-1.866075465365252262e-02,-2.649998831409299815e-01,-4.884471333587424302e-02,-1.417200209925377312e-02,7.719163298606872559e-01
6.430651267065422561e-01,6.636207260702139399e-01,1.023746024162509594e-01,2.590338508346402835e-02,1.223814780579367354e-03,-8.836964125145393284e-03,5.532944202423095703e-01
6.374487272440887420e-01,6.275362416922589670e-01,1.164212933244139769e-01,-2.622654499857009821e-03,4.116311168475627973e-04,4.870277624580374512e-03,5.162320137023925781e-01
6.298211392695751698e-01,6.244201421421542442e-01,2.174258268391182636e-03,2.910976480946857875e-03,-6.147325350934686183e-03,-7.928252155120503464e-03,6.252257227897644043e-01
6.082232108339116206e-01,6.312436824668087310e-01,-8.086127235606255237e-03,1.081948771087464607e-03,-6.470937782180066766e-03,-8.182046171429606732e-03,6.283986568450927734e-01
6.175898193466747843e-01,6.213249343101734379e-01,1.513619667153701664e-01,-1.858348786420722931e-03,2.863689425970167984e-03,-1.086908785941633968e-03,4.681477248668670654e-01
6.246936549518982140e-01,6.321457150311544648e-01,1.109415974763887092e-01,3.361708941739812145e-03,-1.285651320960910695e-03,-9.028496912909605987e-03,5.177920460700988770e-01
6.261343526344638200e-01,6.260702986644478552e-01,-1.399108560133477397e-03,4.589910062961011401e-03,-5.230404922865937445e-03,-5.098794109800189149e-03,6.276792883872985840e-01
4.960074529368994067e-01,6.389285585615182006e-01,5.389225377740536338e-02,-1.445113315669222798e-01,-9.814680415441794092e-02,-3.541651334139141183e-02,6.118756532669067383e-01
6.164370939446000008e-01,6.205553840987060310e-01,9.056713836851787436e-02,-9.258202033054923480e-03,1.150862019805636710e-02,3.849799127619711343e-03,5.286027193069458008e-01
6.270836147802135718e-01,6.257597432107470103e-01,1.413473213403582118e-02,4.553737213702433763e-03,-3.994523837216867705e-03,-3.144629893705629814e-03,6.124021410942077637e-01
6.273546371172152858e-01,6.263780028720707937e-01,4.110853508258610622e-02,3.962133566346194395e-03,-4.450883243864274356e-03,-5.647917452373410994e-03,5.859310030937194824e-01
6.214447153720092931e-01,6.275681717882690691e-01,6.922007031865901050e-02,1.910099189671904223e-03,-5.715197502765218332e-03,-5.537341013700392695e-03,5.554925799369812012e-01
6.336293763945939350e-01,6.241484886942099131e-01,1.054586575923630587e-01,3.003741213977691345e-03,1.200837711813899748e-02,6.444866355156938197e-03,5.240524411201477051e-01
6.243573870173290130e-01,6.431311541941679977e-01,5.540525142548752280e-02,1.889643687301734284e-03,-4.522975475547144457e-03,-8.676206387523822602e-03,5.788249373435974121e-01
5.344766299876417825e-01,6.479549937667412607e-01,2.360823808009226976e-03,-8.715308251088068475e-03,-1.631594557516468161e-02,-1.616225627383623478e-02,5.985134840011596680e-01
6.118843144060870376e-01,6.460097487801809146e-01,-6.345288884829103360e-03,-1.379547409035868609e-02,-4.835718526431156614e-03,-8.920957158253787003e-03,6.366707086563110352e-01
6.447750140595506219e-01,6.302939417670139211e-01,3.659025912394697766e-02,-1.522917319131772374e-03,-1.349744558489595139e-02,5.084665356449150943e-04,6.015359759330749512e-01
6.329123799607162537e-01,6.309632038348216287e-01,2.207138695382382387e-02,-4.166146902306133368e-03,-3.539374594498934101e-03,8.021182123143568224e-03,6.101004481315612793e-01
6.228732975480754108e-01,6.249532704970199859e-01,-1.092146333237342670e-02,3.512013807513754242e-03,-3.264774156548677034e-03,-3.534144635853158668e-03,6.349211335182189941e-01
5.399261178574952247e-01,6.300483695792868932e-01,1.043358475565359100e-03,-1.708387460143664938e-02,-1.865911372619644473e-02,-1.848683427445479283e-02,5.916310548782348633e-01
6.229929599749123303e-01,6.270243244967932394e-01,9.729778660721999373e-05,2.507438470960238544e-03,-3.665660926046125038e-03,-2.520853557001673066e-03,6.249836683273315430e-01
6.254512288476161697e-01,6.302005769878264996e-01,7.553995078586894785e-04,2.109149356485425647e-03,-4.683423599371728391e-03,-1.535238111480500579e-03,6.271527409553527832e-01
6.693191030604499492e-01,4.769963614570977284e-01,1.509526476747391488e-02,-4.996980179795409288e-03,-3.421066401326551694e-04,-8.467909133599975944e-04,5.824535489082336426e-01
5.791449728304418620e-01,6.272994315568534152e-01,-1.084324371997097414e-02,-2.064857353134540077e-03,-1.262947630688542738e-02,-9.994233304148383498e-03,6.161221265792846680e-01
6.078425719341227218e-01,6.281954557207244383e-01,-7.515769139709582713e-03,-6.411324370806331316e-03,-8.089740963901507001e-03,-1.102373030935907897e-02,6.263295412063598633e-01
5.692224834661774313e-01,6.464803987697639309e-01,-9.960750156311315440e-03,-5.207573028257386077e-03,-1.083953707402705857e-02,-7.758771822224390380e-03,6.219187378883361816e-01
6.129002467598377857e-01,6.102825616258787944e-01,-1.128983914402592603e-02,-6.210268607160658030e-04,-3.622725062265780890e-03,-5.379867727977336381e-03,6.229875683784484863e-01
6.256789193897165369e-01,6.153169657290337158e-01,-1.055746484802783103e-02,-1.429638750473726555e-05,5.797780384552178286e-04,-9.608576670127858986e-04,6.311222314834594727e-01
6.198756854741279687e-01,6.133071337206864593e-01,-1.440781611145114383e-02,4.852979239432280638e-04,1.323092771930325104e-03,-3.258271593458634857e-04,6.310298442840576172e-01
6.329683903096611219e-01,6.448442114355060761e-01,1.389657200964788952e-02,1.268527241371721764e-02,3.135150710052546363e-02,-5.291660663278734134e-03,6.279000043869018555e-01
6.281505311036255090e-01,6.209077863518429607e-01,-6.874626538869554881e-03,-4.247566839734229563e-03,3.949725698243989822e-03,-8.232118838321983087e-05,6.315148472785949707e-01
6.245068832710818363e-01,6.172315079819293837e-01,-1.002337830624072668e-02,-5.267498167455558116e-04,6.691362176495560532e-03,-4.896045230444781224e-03,6.310881376266479492e-01
6.200375454358351135e-01,6.277981620268179297e-01,-1.078364182609109490e-02,-3.354735020336751345e-04,1.836659651762647576e-03,-2.181709874879983121e-03,6.347565650939941406e-01
6.248478190598949489e-01,6.191758532580436958e-01,-1.294146625773479053e-02,-7.589432902130262325e-04,9.578776536856490036e-04,-1.646975262561503747e-03,6.349822282791137695e-01
5.769567441715541811e-01,6.281194992309878655e-01,4.233692411396150490e-04,-1.350022588721795647e-02,1.423335108170657726e-03,1.336130959636575369e-02,6.046435236930847168e-01
6.246131730278716709e-01,6.149564307816000053e-01,-1.518216754998702456e-02,-1.084024824434786554e-03,2.561487790277921540e-03,-4.571915835646843488e-05,6.350403428077697754e-01
6.280053849352376094e-01,6.078036358468165146e-01,-8.009707192631387862e-03,6.906118033543699438e-04,9.242900753774388467e-03,-4.973247386009000889e-03,6.264236569404602051e-01
5.668900040099824622e-01,5.743612736354015702e-01,2.609438849105072400e-02,-1.230750547981092173e-02,3.318061314862423214e-03,5.228796207602354543e-03,5.450922846794128418e-01
5.908153756276335322e-01,5.899048399560751221e-01,1.510682784850941873e-02,1.008783614717020201e-03,6.398024613648809270e-03,-4.054610540314703727e-03,5.754060745239257812e-01
6.249940229722648066e-01,6.276443379390148625e-01,4.940764310461565056e-02,-3.688582236151499976e-03,6.197251740826017694e-03,-6.162144453715976723e-03,5.771499872207641602e-01
5.889225683017147439e-01,5.899919468867672601e-01,1.466186326615237512e-02,-3.458634196619496785e-06,4.695439602336939043e-03,-5.755739639006552701e-03,5.749400854110717773e-01
5.839800997780734138e-01,5.842788149030007094e-01,1.342800925408360602e-02,6.522990267030379791e-03,5.543831425607242090e-03,-6.601083042992053271e-03,5.710085630416870117e-01
6.268597109701513626e-01,6.275660208719487931e-01,-4.196061630439951173e-03,-2.481011109718554101e-03,3.332678667112887877e-03,-2.695985417904917837e-03,6.314675211906433105e-01
5.648273489212649601e-01,5.846550858789189009e-01,2.240046356213182266e-02,6.827232306543817159e-03,5.473838220869624641e-03,-6.991189653513332075e-03,5.529479980468750000e-01
7.222139556636060220e-01,7.203549199637834244e-01,9.120490135922182384e-02,-4.324499287926587832e-02,-4.289000596723788888e-02,-4.316001771781922264e-02,6.432108879089355469e-01
7.000835201370255723e-01,5.892008852308573408e-01,2.582356269418173422e-02,-5.370142326206699124e-02,3.784274298823237220e-03,-2.518430366477962187e-02,6.346297860145568848e-01
7.140982385405649779e-01,6.054306246441398809e-01,3.319855887282380236e-02,3.042605886461473633e-02,9.128023351167642574e-03,-3.965337868286355344e-02,6.396762132644653320e-01
6.154287328085774611e-01,6.162801706453313599e-01,-1.501630949789073410e-02,1.701739352511433474e-04,1.176208250301586733e-03,-1.147337848334356982e-03,6.308776736259460449e-01
6.247833642866118531e-01,6.288622436852858710e-01,1.310405986267015876e-02,-5.393133313255107225e-03,6.261146762785312764e-03,-4.529735630959841677e-03,6.139459013938903809e-01
6.693135372843105335e-01,5.516692233894006092e-01,-3.511821812055559988e-03,-3.747529722345053008e-03,-9.481694168334844040e-04,1.917022652167050395e-03,6.224434971809387207e-01
6.282813383792773543e-01,6.252523493396591192e-01,6.967996272277832137e-02,3.024393612812347528e-03,-7.779493907540154310e-03,-2.739524769913773052e-03,5.573008060455322266e-01
7.240175446233956258e-01,6.328517976109597765e-01,3.808941975324642293e-02,1.648000947712838704e-03,-1.669166395724875143e-02,-1.548952090176643030e-02,6.464048027992248535e-01
7.182815821418049307e-01,6.208669815287696236e-01,6.661575319159496189e-02,-2.421876645031528080e-02,1.401312929015240821e-02,-1.658353595067924360e-02,6.114327311515808105e-01
6.307264516595701975e-01,6.300573738234909182e-01,2.627475850015320580e-02,4.733387773893149575e-03,7.352856283028218545e-03,2.950940349913497036e-03,6.043288707733154297e-01
6.088409629614188745e-01,6.064877546069776804e-01,-8.784603448838468331e-03,-2.603343148913151057e-03,-5.166619220664915926e-03,-1.289928422672223041e-03,6.165378093719482422e-01
6.274893226343580821e-01,6.264587130023278050e-01,4.113324460596451404e-02,4.077022457965279005e-03,-4.406252260769660464e-03,-5.620079361411428609e-03,5.860145688056945801e-01
6.950468713992072889e-01,6.664405622886735436e-01,1.052675705267186457e-01,1.925663973425242523e-02,-3.683517418508809593e-02,-3.533882617390169539e-02,5.837088227272033691e-01
7.087748408540879286e-01,7.190378017091806351e-01,8.907876552919907764e-02,-1.765077989097596153e-02,-4.110318832092377944e-02,-4.951614451496785807e-02,6.354896426200866699e-01
7.278910041759608651e-01,8.142152528615731466e-01,1.082829298707916887e-01,-1.201659458378842409e-02,-7.975310671470459134e-02,-1.470750179907651944e-01,7.275034785270690918e-01
6.268678393580300323e-01,6.196723907929448938e-01,-1.290770310750560812e-02,7.101573864706330541e-04,-1.827732804166370961e-03,-1.791253182190015924e-03,6.362249851226806641e-01
7.285981041996926200e-01,6.560782127967943467e-01,8.090847236942427800e-02,-5.258247974015396037e-02,7.558794130245973485e-03,-1.505891645496649535e-02,6.220426559448242188e-01
6.249708377862590591e-01,6.277112337046771851e-01,2.172546367595568073e-02,-1.421246532482653598e-03,5.483143183976585053e-03,-7.182749035836697750e-04,6.047011017799377441e-01
6.246325653403104194e-01,6.232798861255998135e-01,1.276959647038927170e-01,-9.789979405330846880e-04,-3.987607742146945244e-03,2.044315391333835670e-03,4.963252246379852295e-01
7.348462509422972744e-01,5.295498201672186322e-01,9.417899790863359932e-02,-2.251170611509002370e-02,-9.122771820603971932e-03,-6.351121561046471631e-02,5.787447690963745117e-01
6.801764776218002240e-01,7.375295039715961121e-01,1.096235253418278988e-01,-2.566165777867211381e-02,2.230891053082962455e-02,3.881583379872347722e-02,6.078911423683166504e-01
6.266625837478483341e-01,6.262299869691689835e-01,2.133260599367581278e-02,-2.403729305178295243e-03,1.529927996188688117e-03,-1.358374563186309086e-03,6.051384806632995605e-01
6.629701805381876811e-01,4.559912112619139424e-01,3.498712290194466723e-02,-1.723269996239525786e-02,4.961040225380036577e-03,8.744315198833906271e-04,5.551493167877197266e-01
4.847457934575981064e-01,6.876408008513705816e-01,1.583005610886195624e-02,7.452051268764917774e-03,-2.295853890466225539e-03,8.254826006093377369e-03,5.971397161483764648e-01
6.482929988191120652e-01,6.431535674132898839e-01,5.402389078529129529e-02,-7.128454600927589153e-03,1.395105437713807170e-02,2.280267956369492598e-03,5.923511981964111328e-01
5.910569448638183232e-01,6.410775243677581114e-01,3.858628975803579664e-04,3.206152774298087760e-03,-2.703120403940850649e-03,-2.767087268430095965e-03,6.172648072242736816e-01
6.901134717097312521e-01,6.927990867449010937e-01,1.410209579236548771e-01,6.777833603147600042e-03,-1.037503127925550224e-02,-2.324513907875939978e-02,5.523279905319213867e-01
6.315482493044932699e-01,6.082797919661344643e-01,2.164667977902151597e-02,7.027754795315355012e-03,-8.926283185748635357e-03,6.893947263808423986e-03,5.990489721298217773e-01
6.205707519018159868e-01,6.315918381086178535e-01,1.004011516571917673e-01,-5.253599309525571262e-03,5.892675838814674834e-03,2.345340436814671858e-02,5.275110006332397461e-01
6.238189886379954530e-01,6.146941657014381999e-01,-1.412716151106996332e-02,-4.799120850142766874e-04,-2.704763004617182290e-03,-6.259950562152221873e-05,6.334509253501892090e-01
6.302180385586106937e-01,6.240537592839993097e-01,8.690821713295454609e-02,-1.116418147139116310e-03,-6.662289887715946816e-03,1.304400273160947034e-03,5.403854846954345703e-01
6.973240915874736601e-01,6.518673380445544341e-01,1.015707230954599471e-01,-4.287041663281730870e-03,2.913508618125933147e-02,3.126903996454612200e-02,5.791738629341125488e-01
6.201502460093203384e-01,6.269550704210882230e-01,-1.082622465922938870e-02,9.009726433468705610e-04,-1.505889399155327336e-03,-2.285253047655823842e-03,6.344258785247802734e-01
3.995546186161533786e-01,7.248304428156371326e-01,2.927114921457713015e-02,3.823773402600285504e-02,-6.119062335487911175e-02,2.630502130445172733e-03,6.156285405158996582e-01
6.489697046349341969e-01,5.518740792179508414e-01,-3.502994145609228394e-03,-1.862683385652034573e-03,1.390186258287876616e-03,2.632422634953824800e-04,6.097641587257385254e-01
4.431592685941269649e-01,7.005833464132535937e-01,3.696949984368541609e-02,1.675728655523577720e-02,2.599572802521238536e-05,4.262615718525646080e-03,5.802734494209289551e-01
4.444272425530208515e-01,6.897430902352950088e-01,2.739835064750512084e-02,8.159271033589569552e-04,-2.122427038748887773e-02,-1.773425944204624883e-04,5.811628699302673340e-01
6.206869551240532523e-01,6.228997770845494664e-01,-1.141371922938810846e-02,1.195702503752472555e-03,-3.268334144102422612e-03,-3.537998500919018168e-03,6.332682967185974121e-01
6.256279576544521159e-01,6.259402494079676638e-01,2.775279823363785425e-04,3.350709089989927728e-03,-4.266076946105801064e-03,-2.293881892606615142e-03,6.255897879600524902e-01
4.456943306505034008e-01,7.058235974738200635e-01,3.136425848673912720e-02,-1.645172902002383156e-02,1.654479503583443367e-02,5.740264867862688095e-03,5.906335711479187012e-01
3.586788946793893484e-01,7.140614552965678374e-01,2.522857771563480345e-02,4.841320438747527544e-02,1.792719699143259515e-02,-7.108870929334910882e-03,6.034364700317382812e-01
2.646253135004424384e-01,8.899314165540191945e-01,3.819523602962393571e-03,1.778057466183664143e-02,4.450230240674776447e-03,-5.725573069302975111e-03,7.894409894943237305e-01
4.155703219799699588e-01,6.964053462072083978e-01,3.833066048716698981e-02,-6.020777497276435901e-04,2.629363302706501371e-03,7.359810681769984701e-04,5.719647407531738281e-01
3.926974934100989634e-01,7.203732978820837074e-01,3.919969378775267632e-02,7.796976795774704545e-03,2.256094525411474899e-03,-3.434411315269011045e-03,5.902523398399353027e-01
6.086301023819297162e-01,6.020093793927610015e-01,2.465636343001287312e-03,-3.246266785590684340e-03,1.044751689482923546e-02,-7.202253775436184488e-04,6.031804084777832031e-01
6.140207592257109770e-01,6.152824628090171055e-01,-1.331461529850941350e-02,2.339442317598518402e-03,3.959740877939480451e-03,-2.631956161860380967e-03,6.280342340469360352e-01
6.194562664938851881e-01,6.308333027079858768e-01,-9.744246726075822540e-03,2.590552450631799868e-04,1.740302711650629263e-03,1.022387294465828492e-03,6.349752545356750488e-01
5.488141947137634702e-01,5.979736845385503763e-01,3.529059965844227875e-02,-4.150389412447145349e-02,4.676911389096549861e-03,3.763034369389038191e-03,5.446498990058898926e-01
6.078891900436722562e-01,6.189334954582375037e-01,-5.851321728637615127e-03,3.618413420643259819e-03,5.864807255395844757e-03,-1.008713687660403417e-02,6.196978688240051270e-01
5.861536553649119297e-01,6.178232813831110448e-01,-3.042166732336593071e-05,1.705563839853452973e-02,2.385271044117720854e-02,-2.440387641911919911e-02,6.062550544738769531e-01
6.171824530875945625e-01,6.184381750536328548e-01,-1.419182223426268541e-02,-1.621235650658248584e-03,-3.822396805170512953e-08,-2.196537761917023539e-03,6.320207715034484863e-01
6.171498865549027713e-01,6.190301718687516441e-01,-1.447114627339318726e-02,-7.110393047103252297e-04,8.791518790602346513e-04,-2.043482462820127819e-03,6.325762271881103516e-01
6.270497832615506972e-01,6.245338085780656190e-01,-1.535944870865779688e-03,-2.055923732567634457e-03,4.276023546917598339e-03,-7.372337155807981825e-04,6.273866295814514160e-01
6.801039566820665794e-01,6.335881351205058243e-01,1.385393893553064637e-01,1.652612109611865943e-02,2.228592892106104686e-02,-2.999410400255123413e-03,5.221119523048400879e-01
6.212219784246361121e-01,6.162062440657349871e-01,-1.395454082051433842e-02,-1.253966264838207159e-03,9.171061286421012008e-04,-9.881721140020322588e-04,6.326916217803955078e-01
6.157918475804017300e-01,6.200491604172042592e-01,-1.485466661383849640e-02,-4.217406516585927396e-04,1.132540711695857001e-03,-1.912631748940692156e-03,6.327980160713195801e-01
6.163543432237414965e-01,6.200289402849030740e-01,-1.444787800281738255e-02,-5.995071694573599194e-04,7.046786372215463942e-04,-1.819467141305450590e-03,6.326574087142944336e-01
6.167179772366289114e-01,6.234291760673696947e-01,1.274471881198455114e-01,2.578537315748148529e-05,-6.143014553771956269e-04,5.115482848066527782e-03,4.927414953708648682e-01
5.927886586578886563e-01,5.614448553806824505e-01,4.039166096920587812e-02,-4.509395005006976154e-02,-4.142060760041903038e-03,-2.822852770386369975e-03,5.431265234947204590e-01
5.574141936615728543e-01,5.959521553939337579e-01,3.645844400685521736e-02,-3.975943669213810594e-02,-6.747476926841435713e-03,6.284729151222190335e-04,5.457442998886108398e-01
6.274798815645017402e-01,6.254213424406138699e-01,3.938285516127798536e-02,-1.602757961160169910e-03,7.309521624602267724e-03,-1.137481305191218950e-03,5.872168540954589844e-01
6.178138852596728459e-01,6.350045664212610186e-01,-1.021613786463382301e-02,2.791733553606925647e-05,3.209234353568063327e-03,4.966057969706873243e-03,6.368817687034606934e-01
5.431983981696288932e-01,6.258992197315685901e-01,1.202956083144224309e-02,-4.339507653927666270e-02,-3.065256514817101680e-02,-3.234846726097236058e-02,5.869542360305786133e-01
4.955769304798404162e-01,6.426154815029417877e-01,2.343775814907833599e-02,-4.729429411307872061e-02,-2.213040923675257607e-02,-1.702581613635567939e-02,5.683375000953674316e-01
6.318175493639635043e-01,6.260134847920499901e-01,6.297096386536860102e-03,7.641802829490662412e-04,4.534822772314587268e-03,1.536076743986216145e-02,6.232578158378601074e-01
6.608964457842056994e-01,4.668412552506334134e-01,3.334125149641903318e-02,1.440707222093921130e-02,-5.795862299066438864e-03,3.695235554682306219e-04,5.571593046188354492e-01
6.214857308927025370e-01,6.252477141794211546e-01,1.281594372871580068e-01,3.420185420574566558e-03,-4.755734390858873547e-04,5.161497925696472734e-03,4.953348040580749512e-01
5.255779951500386682e-01,5.421021457104273633e-01,2.095020893657173477e-02,-1.362412696720572969e-01,-1.377993025593188259e-02,-2.020733382711320872e-02,5.663395524024963379e-01
6.161902662547305010e-01,6.257798320118872493e-01,-1.342043058905312281e-02,2.330720418088990612e-03,2.098781461507408274e-04,-2.056447981694701967e-03,6.344828009605407715e-01
5.212314153913416570e-01,5.952532638359292472e-01,3.240131975580906598e-02,-2.412590201884044425e-02,-1.516851816927164854e-03,-2.726198853577953968e-03,5.314071774482727051e-01
5.213809840711284282e-01,5.874781358624642236e-01,3.209960871757683298e-02,-6.696566121166368235e-02,-7.931831046029042855e-04,1.733787137492817133e-03,5.381164550781250000e-01
7.480061903795179878e-01,4.190985521018283921e-01,2.181729353613259814e-02,-6.149154695862253661e-02,-1.844983019378040184e-02,-4.120487069849926992e-02,6.435369849205017090e-01
6.190408136468439348e-01,6.303751724567407955e-01,-5.508449690673433707e-03,1.347453916692670098e-03,8.303820275262275598e-04,-9.363264444773369008e-04,6.303009390830993652e-01
6.234531877361019214e-01,6.198173273507778802e-01,-1.363810087557210116e-02,2.137301046331829303e-03,-3.078914717423446908e-03,-1.005370129385242542e-03,6.353167295455932617e-01
7.023991592381242377e-01,4.007084915678080228e-01,1.690998784929570453e-02,-2.960974189072291402e-02,1.727983593978010216e-03,-1.896364741643585469e-02,5.981847643852233887e-01
6.237161733614663417e-01,6.259295160564040117e-01,7.036529144050418516e-02,3.921416425558096192e-03,3.008277938294038993e-03,5.092657311579274100e-03,5.545970797538757324e-01
8.016342570115091437e-01,2.125954512286770126e-01,-1.113013113681538546e-01,-2.283004631778778049e-01,-5.743782457079734532e-03,-3.330108604020672741e-02,8.957972526550292969e-01
7.006609068974402055e-01,4.517246563132394921e-01,2.377767884057002679e-02,-1.786975496374947764e-02,-1.096108997308297296e-03,-2.807217449483537589e-02,5.957894921302795410e-01
6.330423703174841155e-01,6.229221833134265252e-01,1.880718744125253750e-02,3.217528351351003077e-04,-2.694138228234700888e-04,-4.387169040405300424e-03,6.092859506607055664e-01
6.991714880752248895e-01,4.102563949216576078e-01,3.247136403203354504e-02,6.331866891375657544e-03,3.210102494380946605e-03,-1.396981607123028548e-03,5.792221426963806152e-01
6.293238945083720060e-01,6.242808373673348621e-01,3.379734807263046203e-02,1.731613746122486830e-03,-5.417647673971849077e-03,-3.340004285752831269e-03,5.931311249732971191e-01
6.198084741765654826e-01,6.180269488469118944e-01,-1.480798551758949477e-02,2.954214972152617667e-03,-3.120102929816994265e-03,-1.288202296273286100e-07,6.337713003158569336e-01
6.783551196991780552e-01,4.451675322146001479e-01,1.064451885848999302e-02,-4.312090425012508194e-02,-1.299326002688828800e-02,-2.835319240919277617e-02,5.941451787948608398e-01
6.839419604406762332e-01,4.446969480122584528e-01,1.610568784619303973e-02,1.348685393978153388e-02,-1.229952907582257220e-02,-4.675812638543680498e-04,5.869132280349731445e-01
6.581590814527591426e-01,5.158135845299740563e-01,1.574256189933992411e-02,-1.581709309251653692e-02,-7.011659999104859556e-03,-2.572840127271443580e-02,5.868560671806335449e-01
6.831634234589445409e-01,4.188380916448221636e-01,3.403049194902652008e-02,-2.349994966247261063e-02,-4.964603955542833819e-03,-1.292236516319483948e-02,5.673542022705078125e-01
5.642916021757280465e-01,5.300218207542033433e-01,3.131319913147895262e-02,-2.103002985920158219e-01,8.661489114926720911e-02,9.885857847176821034e-02,6.719222068786621094e-01
6.211662901191263852e-01,6.301708857580998746e-01,-1.152097173308846978e-02,8.546684586743184125e-04,-1.077056344061246137e-03,-1.373480381059718125e-03,6.372461915016174316e-01
5.964207726717902780e-01,6.457048123343122059e-01,-8.334912048531373241e-03,5.472626498573056287e-04,2.468160375129754575e-03,4.848155196781840648e-03,6.309142708778381348e-01
6.202039473494750377e-01,6.293192020277187382e-01,-9.516759602317459432e-03,-7.414240491838653899e-04,-4.297999467293029947e-04,9.128023519845640738e-05,6.343291997909545898e-01
7.062022063833572894e-01,4.189035573253149791e-01,3.635385624436648921e-02,-2.708089309507972706e-02,-8.416674477509586416e-03,-1.232682300720019768e-02,5.845162868499755859e-01
6.824968592967786130e-01,6.169396141805747469e-01,5.996496266959294719e-02,1.100988456221652367e-01,-3.034557372444797105e-02,4.136003122674111049e-02,6.287225484848022461e-01
7.492179083711403287e-01,3.711769056935829147e-01,6.072593205388499005e-02,1.343938099820892740e-01,-6.832996430505508534e-02,1.283043974622818384e-01,6.886480450630187988e-01
6.862099686546796473e-01,5.074652488090687363e-01,1.427508164447821581e-02,-9.053480187215287578e-03,-9.775201046357881798e-03,-2.101287501244388650e-02,6.043165922164916992e-01
6.249724801695976106e-01,6.272765448420042356e-01,8.559474809777811721e-04,2.459627769204295348e-04,-5.060395433614456491e-03,6.408176004430719049e-04,6.253343224525451660e-01
6.380621390842482477e-01,5.783322709082114876e-01,-6.833428393102691789e-03,4.689083607053099768e-03,-9.624774132036871890e-03,8.750313801600476116e-03,6.176666021347045898e-01
6.515062590793929687e-01,5.448418912913248757e-01,1.720589224554758268e-04,1.065620661148636641e-02,-7.655270606285513590e-03,2.999444710292826013e-02,6.077457070350646973e-01
5.802805770363145266e-01,5.797947975193906700e-01,2.848226980943646680e-02,6.784137926793285867e-06,-4.272228842699256172e-03,-4.890136578916994860e-03,5.516702532768249512e-01
7.299328457289473437e-01,4.944815818516250516e-01,9.775696860894311779e-02,-9.719978364770799281e-03,2.656303272333267879e-02,1.066067547889955752e-01,5.854333639144897461e-01
7.214658537451835718e-01,6.276172070451701002e-01,2.994779961482124664e-02,-6.893594162635408029e-03,3.895936441374095709e-03,2.646167872233865653e-02,6.514564752578735352e-01
6.160082781289515363e-01,6.238965790181456583e-01,-1.394399339003266070e-02,1.098415777354543954e-03,1.634456657970561233e-04,2.826568575640433980e-03,6.339550614356994629e-01
6.188779275754763276e-01,6.144349493414089647e-01,-1.461348401588791202e-02,4.860699015566821170e-04,2.620036983840280578e-03,2.213319922556142478e-04,6.312986612319946289e-01
7.105586642152188492e-01,5.636487412790692764e-01,6.306388939628632118e-02,7.333589221096777078e-02,-4.567635511237384122e-02,4.329164379600987378e-02,6.113301515579223633e-01
6.186516197248013160e-01,6.333511803178702992e-01,-6.222973214218552318e-03,4.407670620489250292e-04,-7.844072995096324679e-04,1.957215871131283153e-04,6.323545575141906738e-01
6.546151841960399231e-01,6.269560575044329509e-01,1.649018857142187100e-02,4.619101704270964052e-03,3.521829340452347929e-03,-3.232847094487125220e-03,6.248608827590942383e-01
5.493498316227314326e-01,5.872295313954931650e-01,1.664957969706143404e-02,-5.444936577690554641e-02,1.847020652252533840e-02,1.832622010580391494e-02,5.624127984046936035e-01
6.372733922604170154e-01,6.096833739232587757e-01,-9.879435949753934132e-03,-1.175369146434848949e-03,1.107669595058289247e-03,6.676127105881795969e-03,6.339200139045715332e-01
6.074469215874878092e-01,6.280012526568345965e-01,-5.146315371312160103e-03,-8.278884973034597583e-03,6.177236064008623066e-03,1.047925187000817333e-02,6.236456632614135742e-01
6.426411859740724930e-01,5.819252443370044325e-01,-4.943265886415193489e-03,-5.489511570718191326e-03,1.541122951122269723e-03,8.773175926472436340e-03,6.197271943092346191e-01
6.242651133131936758e-01,6.056684054860270727e-01,-4.828569816198335918e-03,-1.790414076479067591e-03,8.973815850495879889e-03,9.332660108235720300e-03,6.204177141189575195e-01
6.211282441192564896e-01,6.239377180687027957e-01,-1.163120129390826651e-02,2.708382262281498233e-03,3.761174351654642846e-03,3.695458179621354672e-03,6.342519521713256836e-01
6.974373423591777588e-01,6.300864420572220848e-01,1.051060956857964857e-01,2.425828902995504771e-02,6.157792519883259312e-03,-1.182738163207381829e-02,5.637350678443908691e-01
6.262617977399396185e-01,6.272601760737972487e-01,2.849719359172742106e-02,2.920388764893615784e-03,-8.428280063367297320e-03,3.218010084727518285e-04,5.984641313552856445e-01
6.257928748530130481e-01,6.287176693474505473e-01,7.090975556140460823e-02,6.486659586557030899e-03,3.542207037585996289e-03,5.797301760663620129e-03,5.565891265869140625e-01
6.180777458911095312e-01,6.195557871920990278e-01,-7.012750834168968161e-03,-5.123074795320467067e-04,-9.359086890994897621e-04,-1.157514009489643125e-03,6.258367896080017090e-01
6.053299338994223566e-01,6.277635890346071612e-01,-7.897845317017704314e-03,-7.634152010356123463e-04,6.873146150065667474e-03,8.334434948989400890e-03,6.250283122062683105e-01
6.952230726079391410e-01,6.915125341806288572e-01,9.896682371428161540e-02,-4.429593006111774830e-04,-9.296576258359749712e-02,3.349178817260431602e-03,6.158611774444580078e-01
6.325634823075056978e-01,6.183053823810784611e-01,1.108691102019426777e-01,-1.075962100473076659e-02,3.743116490486657691e-03,1.625574981923157830e-02,5.158604979515075684e-01
6.879670080857526182e-01,4.563692719608127835e-01,1.337171363317973816e-02,4.459389212331243968e-03,-3.508609021643560415e-03,1.914769653559550422e-03,5.937922000885009766e-01
1.989663748156720313e-01,7.741961164131717643e-01,1.482444087528955734e-02,-7.251441914205326855e-02,-2.787759670391093403e-02,-9.094582824302317736e-03,6.993397474288940430e-01
3.175397853966530071e-01,7.573072807556266994e-01,2.556620628944594742e-02,-9.237297172767726383e-02,-1.086818029380334089e-01,-3.606458866273440367e-02,6.870079636573791504e-01
6.291858272312529365e-01,6.274492970004783565e-01,3.290035171201055597e-02,-2.564950504408772540e-04,-5.946203650733477251e-03,2.684493700505402635e-04,5.955085158348083496e-01
3.787211324844602101e-01,6.994660226870298425e-01,-2.069324860417121048e-02,-1.239128997136819677e-01,-8.637262084046452848e-02,1.503140533171395607e-02,6.779682636260986328e-01
3.588218087625871244e-01,6.924388600979489716e-01,1.555686465631678228e-02,-2.763108574087057290e-02,-3.281002416630347807e-02,-3.670491437398709818e-03,5.909403562545776367e-01
1.699332424336323366e-01,7.722264953154915901e-01,-4.901139761592993027e-02,-1.173117942711427442e-01,1.435107415483885714e-02,1.001601951791739921e-02,7.647011280059814453e-01
4.451580061582034453e-01,6.632722969778843680e-01,3.381284383807758864e-02,-1.244148202771134561e-02,-6.492744965383833583e-04,-4.832664977599599766e-03,5.541070699691772461e-01
3.624083549217095856e-01,7.195023571544367780e-01,1.514167209499034383e-02,-1.603776020552788797e-02,-3.515608846601880194e-02,-8.558053613896372466e-03,6.138536930084228516e-01
6.585940305467683498e-01,5.122772596537760181e-01,1.866772022212714877e-02,6.261404912138874776e-03,-7.853489644573830031e-03,6.514912341149981401e-04,5.810217261314392090e-01
5.547027889837236048e-01,7.323285728252515447e-01,-4.576505147565784748e-02,6.645141399377652025e-02,-6.618254182099737870e-02,7.381592799379230532e-03,7.247912287712097168e-01
3.662519642045505286e-01,7.262203783848141248e-01,1.677291190627117068e-02,-2.191521329990264375e-02,-2.345183177000295660e-02,-3.244062397320765512e-02,6.194854974746704102e-01
3.760014698822753965e-01,7.932743809895619336e-01,2.911698662161976703e-02,8.854726334505241478e-03,-1.484246983663700149e-02,-8.541779393825250184e-04,6.633923053741455078e-01
6.323065502974214436e-01,6.363898737480828682e-01,1.195815321602777259e-01,-4.733406423477688578e-03,5.435463159746247233e-03,-6.417179750704921255e-03,5.150501132011413574e-01
3.127019042873336874e-01,8.037253255075945679e-01,2.599209948014008509e-02,-7.744625295909839113e-02,1.829025617737329787e-03,-9.866359549490251804e-03,6.945384144783020020e-01
3.743357578344916337e-01,7.640280705066979650e-01,3.143537215656405648e-02,8.472432473708615963e-02,-4.804341080450596872e-03,1.139376786542966929e-03,6.516703367233276367e-01
6.200892034352671889e-01,6.313636327877498733e-01,-1.062233783817184696e-02,-1.380551877836917133e-03,-1.007479673002963398e-03,4.561679330175982925e-04,6.364310383796691895e-01
2.148120339200954299e-01,1.000561216601251191e+00,-7.312767549187415561e-02,4.768869761740836960e-02,-2.236616681780244018e-02,-5.703334211437619157e-03,9.669438600540161133e-01
4.122138133792238590e-01,7.126673458084991086e-01,3.877084570655803253e-02,1.007488960455790034e-02,4.475261680051704528e-03,6.447188797396823231e-04,5.850641727447509766e-01
4.151030671448662224e-01,6.916074689582047963e-01,2.135952937385615646e-02,1.148599188982700643e-02,-2.440312005528190442e-02,-2.442755945092910629e-03,5.852868556976318359e-01
6.356507201874752599e-01,6.345539249367243562e-01,1.239808286613813260e-01,-6.595881700670156063e-04,-5.025334988310359990e-03,-1.099288339555499344e-02,5.115522146224975586e-01
6.286684057410329984e-01,6.333469081312662619e-01,1.004740985233766315e-01,-2.663615859012346751e-03,1.395943037905251517e-02,1.893792095703272825e-03,5.311298370361328125e-01
6.569765006118626349e-01,6.719743735086526337e-01,1.216941126866943335e-01,-2.789708575387441630e-02,-6.329731455408708039e-03,-6.375498912653612682e-03,5.453046560287475586e-01
6.851998167561120789e-01,6.852928405148372981e-01,9.592146566226933402e-02,-5.537837663816865506e-03,1.049037360518033889e-02,1.288383344338088488e-02,5.901049971580505371e-01
6.245129939233406979e-01,6.269401826346621132e-01,7.628311862173942082e-04,-2.078909081732944076e-03,-4.909747595662360478e-03,-3.014538594958631823e-04,6.250357627868652344e-01
3.822313228427984821e-01,7.180637260964932711e-01,3.097498731905989899e-02,1.467385447618360095e-01,-6.510500488592296797e-02,5.114128719609622314e-02,6.627869606018066406e-01
5.099500383260474612e-01,8.261799369529921888e-01,7.436047925597255581e-02,-6.732078243100789172e-02,-1.464145206061852333e-01,2.236031940804182258e-02,7.119648456573486328e-01
9.075682317340415528e-01,3.266277741149417602e-01,-6.776903988600729845e-02,2.585034571847768525e-01,-3.311978877138164329e-02,3.414592710545323595e-02,9.640655517578125000e-01
6.159631027827002780e-01,6.160015089814921962e-01,-1.506422484426012121e-02,-1.457646989851263668e-04,6.012165081950265454e-04,5.773673368397901811e-04,6.310482621192932129e-01
5.810709802292198800e-01,5.697275250879008102e-01,3.008446787485674623e-02,5.376423394239299158e-03,-4.442280161630914439e-04,2.944935425201071271e-04,5.454835295677185059e-01
6.635946476357970081e-01,6.322866376653171194e-01,5.652233138784018562e-02,-7.316424573417347650e-03,-2.334576347390216258e-02,-6.078781024590976072e-03,5.936474204063415527e-01
6.160121863368583917e-01,6.237358614809547230e-01,-1.413945339608657648e-02,1.113345825919701730e-03,1.487814296777573066e-04,2.983437049002508456e-03,6.340727806091308594e-01
6.320588504899987692e-01,6.292818767717522910e-01,1.113567622620514341e-01,4.946354355651086734e-03,4.336748217607999840e-03,1.777633840109464018e-03,5.194532871246337891e-01
6.296192164410925329e-01,6.331515155970965925e-01,1.071654107215806451e-01,-7.360834957985025202e-04,1.148683623307376368e-02,1.122616096923278973e-03,5.246114730834960938e-01
6.460460694810856719e-01,6.323412821100758974e-01,1.323256285128843190e-01,-5.421816485155987742e-03,-1.054946557833379324e-02,3.919936279807873653e-03,5.074684619903564453e-01
6.167923115751454688e-01,6.152838015431563168e-01,-1.557983603752394197e-02,-7.809775631135214974e-05,-8.424910633350549821e-04,8.496646176034245400e-04,6.316226720809936523e-01
6.151319720973413840e-01,6.155998257212735858e-01,-1.459359921297737062e-02,-5.346677636331807325e-04,-4.937969312488597233e-04,1.540943687045084149e-03,6.299665570259094238e-01
6.182708350127048558e-01,6.276485501016281221e-01,-1.095740864199606923e-02,3.656150005483032803e-04,1.114184826887256200e-03,2.379647754262810989e-03,6.339857578277587891e-01
6.157131961766817430e-01,6.218673558666381052e-01,-1.244052449926175141e-02,-4.287649094205515091e-05,2.608853484643583207e-05,1.451805180659636145e-03,6.312583088874816895e-01
6.150982729739401522e-01,6.217378654954611727e-01,-1.438662378567717726e-02,-2.063873327265511055e-03,1.067927316337219531e-04,2.362376249873439880e-03,6.328541636466979980e-01
6.370071047241520068e-01,6.232357003232977810e-01,2.891118979122309085e-03,4.379248225173801995e-03,-2.931674807327650477e-03,-1.047766740853176871e-02,6.276724934577941895e-01
6.438966419887904857e-01,5.693835382411600587e-01,-6.855141385198937343e-03,2.317406542527766843e-05,-7.868830923014965076e-03,-1.220540678102293754e-02,6.173923015594482422e-01
5.157167210057462814e-01,6.202260930015875973e-01,3.573768707803209876e-02,-1.583664773624217717e-02,-8.263579435774341263e-05,4.710379558397102644e-03,5.406323671340942383e-01
6.267132061078382055e-01,6.269137691328913187e-01,2.544606012996813993e-02,4.592814242851293513e-03,5.558875867817807646e-03,3.372433103978674396e-03,6.015254855155944824e-01
6.306682384221551363e-01,6.071422346972740192e-01,-1.174315628473998618e-02,-9.821046781122017271e-04,-5.475761577942139455e-03,-6.703014933475308530e-03,6.311577558517456055e-01
6.120139902654072595e-01,6.257768081842360886e-01,-1.608440688601792123e-02,-7.327125309956505211e-03,4.601929372126053325e-03,1.167634461142358880e-02,6.355903148651123047e-01
6.274945886342787604e-01,6.182606905901392169e-01,-1.090365118922137500e-02,1.622869337215424078e-03,-5.803387272352849603e-03,-5.682901154186440276e-03,6.339941024780273438e-01
6.551035653266752412e-01,5.256777608919869227e-01,1.668164897308349603e-02,-7.167060733735828443e-03,-1.141362997359953238e-02,-2.644800184948189244e-03,5.850394964218139648e-01
6.336085279806826787e-01,6.243850828785243445e-01,1.480769188466764530e-01,-6.011508205308319433e-03,9.551644854293045786e-03,-1.716424604269773356e-03,4.813924431800842285e-01
6.012587455774167644e-01,5.881209332034287307e-01,-4.077584834374980982e-03,-3.877216564305488444e-02,1.597256157075600119e-02,1.872936795492755394e-02,6.041352748870849609e-01
6.282559078145504294e-01,5.840765354293150358e-01,-8.057016284583995436e-03,-4.764635073885315972e-03,-1.243749814933903242e-02,-6.048504369656093616e-03,6.159350275993347168e-01
6.280489515352196683e-01,6.197503328242192078e-01,-1.146734085785178214e-02,1.453516240313821760e-03,2.039917236347874897e-03,1.566199718154416901e-03,6.354282498359680176e-01
5.221857295762546425e-01,5.914241554427522862e-01,3.057059263283462558e-02,2.395361832499348642e-02,-9.299145757768093696e-04,2.031774716485783543e-03,5.312761664390563965e-01
6.286496952728745091e-01,6.257960624701224273e-01,7.090681940114879067e-02,4.240775491947955909e-03,2.560929322090071177e-03,5.029705554196641469e-03,5.564559102058410645e-01
5.620273456108640930e-01,5.937892922879338675e-01,2.935826444778927291e-02,5.620329231215474147e-03,3.529878627367844923e-03,-7.975969118540321076e-03,5.495332479476928711e-01
5.700567201839219500e-01,5.767415299298701559e-01,2.849014512488978745e-02,8.949263914720426843e-03,4.218758637578006419e-03,-6.623471504329809384e-03,5.453298091888427734e-01
5.618817449485382642e-01,5.782755807943669168e-01,3.328748031473860447e-02,1.204111942331397705e-02,4.223471671747240966e-04,1.675940102453147857e-03,5.373920798301696777e-01
7.217013518235632086e-01,6.277253335536209233e-01,8.273403458130434984e-02,-4.823826799768034940e-02,1.778973356986966389e-02,-4.244195355912570855e-02,6.086027622222900391e-01
6.238720459515503247e-01,6.261260325199315968e-01,8.472119996632987426e-02,-3.305964600555259380e-03,-1.421962845929548337e-03,5.666650732157475778e-03,5.404064655303955078e-01
5.764156166032834427e-01,5.739845828644156711e-01,3.455514583904861770e-02,1.768503132478790180e-02,1.240100269730962665e-03,-1.922128945943890653e-03,5.415306091308593750e-01
6.084577846340410989e-01,5.667120800181846274e-01,5.008312035281015095e-03,1.012406126258278902e-02,-1.478315112452266086e-02,1.387252653323090348e-02,5.850153565406799316e-01
5.749594419375481102e-01,5.672434444907399342e-01,2.453634788939107469e-02,1.261732737412479127e-02,5.238503618538030947e-03,-3.020655543134002311e-03,5.471429228782653809e-01
5.769992792938366533e-01,5.596461000036128119e-01,3.330107290794681596e-02,1.182582946781619501e-02,1.072445546295160796e-03,-1.108957822695251375e-03,5.356311202049255371e-01
5.743118893924733515e-01,5.762076757348558731e-01,2.882851594204749457e-02,1.836691345439270609e-02,5.536385706350243491e-03,-6.640729467606256396e-03,5.475637912750244141e-01
5.761372884557105500e-01,5.618826675054270359e-01,3.022234116960187400e-02,1.267152323055784242e-02,2.859888643927385038e-03,-9.245885772533550930e-04,5.394008755683898926e-01
5.592334179296913899e-01,6.501086276373346795e-01,-4.019231485325847064e-03,-1.299234900481683642e-02,-6.757129735884546615e-03,-1.548138447199269921e-02,6.148657798767089844e-01
4.542854855982882967e-01,6.618085996234466251e-01,3.445894028880897020e-02,-8.454656510246581769e-02,-1.318842691728626913e-02,-5.757739172392676305e-04,5.730715990066528320e-01
4.381433363181351237e-01,6.790009798250359330e-01,2.202771429705124850e-02,-4.921868185762397901e-02,-2.432148516453138537e-02,-1.906539158532466471e-02,5.843986272811889648e-01
6.018766858764490468e-01,5.805000232828997353e-01,-6.913821358645433346e-03,-2.513166246142061258e-02,-1.666463965511282355e-02,-1.926874617107863716e-02,6.015901565551757812e-01
5.513181216204746660e-01,5.972887349246467359e-01,1.120013427627686298e-02,-4.038620926239166325e-02,-3.643474161434837044e-02,-2.460270592828448996e-02,5.739005208015441895e-01
6.085022679645213373e-01,6.059649102150459488e-01,-4.806194111079631348e-03,5.531971113757629295e-03,-6.403544998860056028e-03,7.488657171024714482e-03,6.123566031455993652e-01
6.278166154829036838e-01,6.255361936729160188e-01,2.048360355858469539e-02,-5.119884000096370721e-03,-4.252450978942502215e-03,5.537105113986638336e-03,6.063814759254455566e-01
5.815662365456972793e-01,6.669683872774239131e-01,-1.839312766617678951e-02,-9.963403474454847475e-02,-8.533472507246291083e-02,-2.769288236636401751e-02,6.873210072517395020e-01
6.204625837140645972e-01,6.281019221970955968e-01,6.064245714273774901e-03,-2.818697082154754570e-03,3.509296857512386042e-03,-5.213848489939673770e-06,6.183025836944580078e-01
6.171771803195259531e-01,6.201669589069958022e-01,-1.345047807060290035e-02,-8.549950101363873846e-04,-3.094568135380970121e-03,4.399522262299384798e-03,6.321982145309448242e-01
6.690082830084738141e-01,5.342504808403134575e-01,-8.823187291153555822e-03,-1.128107111641114130e-01,-3.591005903738158506e-02,-2.418830538917544903e-02,6.558008193969726562e-01
6.186107899122563758e-01,6.286465238024721014e-01,-1.229385894491002995e-02,-1.130574820645621845e-03,-1.752158327251106392e-03,2.174750583939644936e-03,6.360033154487609863e-01
6.577124811383060488e-01,5.998408957287579835e-01,-5.816441429166707699e-03,-2.268115072935818211e-03,-1.788278774784968737e-03,9.220257903301073629e-03,6.367890834808349609e-01
6.433908720211701793e-01,6.250711125820258562e-01,-8.337799348711594227e-04,-4.653291505222385024e-04,7.209114730798895764e-04,8.466064147665108147e-03,6.354338526725769043e-01
6.218314068626922264e-01,6.282777368787593186e-01,-5.646437568245510352e-03,-3.595297705739498861e-03,-2.702016613462412172e-03,2.442980587670466955e-03,6.307880282402038574e-01
4.771620544266556574e-01,6.532352835359338528e-01,2.754834596679422987e-02,8.330693508285287596e-02,-3.005920197763488344e-02,1.752709050778807412e-02,5.803202390670776367e-01
6.174084301759089621e-01,6.151635084172538681e-01,-1.296297731059686820e-02,1.527201542268317872e-04,-3.553524690462735343e-03,4.698858009138039485e-03,6.293347477912902832e-01
6.204685157956251196e-01,6.246193645339279676e-01,-8.758848136865726719e-03,-2.891561768407946171e-03,-3.903608093932287981e-03,3.847687501344673050e-03,6.314042806625366211e-01
6.403597586643938744e-01,5.703660579687752641e-01,-5.416680033694776242e-03,2.380152688796524554e-03,-1.530005010349656325e-03,1.085531214982097745e-02,6.140875816345214844e-01
5.744446664145093084e-01,5.700005470305881117e-01,3.063428941291101992e-02,4.159745035112746327e-03,-3.077267845604680745e-03,4.882712364524999151e-04,5.416768193244934082e-01
6.380731715456233744e-01,6.178378647819084968e-01,-8.676837079609367454e-03,-1.671177303167526221e-04,-1.734437075914500078e-03,3.728327552309358001e-03,6.369134187698364258e-01
6.213022227295033062e-01,6.197568430927977712e-01,-1.289331484543665418e-02,1.804023638304353902e-03,3.354975894726166044e-03,1.974957187135364337e-03,6.334678530693054199e-01
5.863330449051088467e-01,5.865881594228350426e-01,1.341306183555324161e-02,-1.289356839675030557e-02,7.649442623131197036e-03,7.352118884842029009e-03,5.737769603729248047e-01
6.161881028417862671e-01,6.151636264531274989e-01,-1.143681615587044398e-02,4.595494186733896456e-05,2.983686971491844586e-03,2.826036159401704162e-03,6.271536946296691895e-01
6.084338796053998522e-01,6.018285563195173715e-01,-9.581706654781474430e-03,-6.718975740114930357e-04,4.051447403536368938e-03,1.320772736174730556e-03,6.147849559783935547e-01
6.388719782655578605e-01,6.017906284309275655e-01,-4.921606863281802191e-03,-4.548792716572711475e-05,-1.887345371735078608e-03,7.436462392924513692e-03,6.262180805206298828e-01
6.491607412456594783e-01,6.200662400916079342e-01,3.485335156873548001e-03,-8.171515138173364445e-02,6.486641770815693153e-02,4.452967440992867953e-02,6.614841818809509277e-01
5.704251622671150379e-01,5.749895227957694255e-01,3.143955286473770760e-02,2.138389301539660951e-03,-3.752557045808058199e-04,-8.557384994060066594e-04,5.412973165512084961e-01
6.977236798754435920e-01,4.794866637577028801e-01,2.524846687208315288e-03,-1.582717816050099521e-02,-1.776904727483235441e-02,-5.218225217877540262e-02,6.237614750862121582e-01
7.931078733156198268e-01,1.400070345505724234e-01,-3.952004518250357146e-02,-1.950405006003871622e-01,-1.793531274674363407e-02,-3.106906461166946201e-02,8.330685496330261230e-01
6.138902519639123367e-01,6.056655346576044208e-01,-8.549947157014570198e-03,5.079915674506980386e-04,4.287595395319249506e-03,7.453155211952748474e-04,6.184154152870178223e-01
8.106661360733531385e-01,1.635898740651851035e-01,1.209108843751904860e-02,8.692777468469707614e-02,-7.573080387438755820e-03,-1.188681787763756076e-02,7.503039836883544922e-01
7.417874897439094006e-01,4.744721195900101773e-01,-4.204838482120221155e-03,-2.478136520995541034e-02,-1.499306630600371303e-02,-4.514815469786173652e-02,6.611948609352111816e-01
6.242815382793357459e-01,6.242354127352069959e-01,1.024439012944633465e-03,3.252285155541158237e-03,6.465866371690504565e-03,6.040324438982448176e-03,6.234478950500488281e-01
6.192028631288666318e-01,6.169823592482045482e-01,-1.476546404721817973e-02,6.222162336545269132e-04,2.040879778821517478e-03,8.230764008101670165e-04,6.328734159469604492e-01
8.337363914725661740e-01,2.034044010762377508e-01,-6.137898544964498493e-02,1.322785784321844731e-02,-5.934592572939536778e-03,-6.113927642458006489e-02,8.038499355316162109e-01
7.507352690482418378e-01,4.725491974545547591e-01,-8.436370774938306560e-03,-3.139120280157134402e-02,-7.380722581347565724e-03,-4.254135050124278894e-02,6.716301441192626953e-01
7.934458004833222500e-01,2.476267454803975920e-01,5.555936187825960548e-03,9.351915070018401721e-02,2.461600627800675581e-03,-3.905954801075264392e-03,7.175967097282409668e-01
6.270051396674669597e-01,6.268572616567518185e-01,1.355311693075450519e-02,4.700671944672717671e-03,4.117754617605511383e-03,5.775059863340256845e-03,6.135551333427429199e-01
6.241637378893650778e-01,6.180330196209012916e-01,-1.429682499400330986e-02,1.011692796435570722e-03,2.384881897732631009e-03,1.193197216475429820e-03,6.354365944862365723e-01
7.850815592478131988e-01,3.804237333827389933e-01,1.969563614688851771e-02,6.934533145541216248e-02,1.685350509812051298e-02,-5.833507264802099967e-02,6.821521520614624023e-01
6.314211004491880885e-01,6.189225540605576281e-01,-7.187041360626977848e-03,4.017234802382589252e-04,-2.179263833737300196e-04,-2.129878240419937844e-03,6.324627399444580078e-01
6.312226902370333681e-01,6.251314978467805705e-01,-2.507896251169039470e-03,-2.176673278706306577e-04,-4.984467572561809834e-04,2.974831292211876053e-03,6.307287812232971191e-01
6.314352005309397109e-01,6.096787207930831620e-01,-1.084510661209281412e-02,3.191747594779798859e-04,4.609930537004688043e-03,5.400319254643560357e-03,6.318030953407287598e-01
6.323698237580581694e-01,6.017279270469353403e-01,1.078073984608074465e-03,1.431058514518696772e-03,-8.957054354864727331e-04,6.855144226895881938e-03,6.166633963584899902e-01
6.326020843138784322e-01,6.181545730279072171e-01,-8.656567039247331508e-03,-6.618993831685591371e-04,1.229419271205246236e-03,3.500198305052894775e-03,6.341919302940368652e-01
6.278562860870953166e-01,6.179094517067303949e-01,-1.170486236758838672e-02,3.414602683782613736e-04,2.004351972319433437e-03,1.322264652415124173e-03,6.346601247787475586e-01
6.488214599953072703e-01,5.680183925098372111e-01,-9.401309191721662906e-03,-2.465799193613649274e-03,3.628201494899339127e-03,1.321085963173307398e-02,6.222388744354248047e-01
6.376655964633145546e-01,6.018916542999037667e-01,-9.503596805585767804e-03,5.944667730059825577e-04,4.338703433892685847e-03,-3.962042067532400066e-04,6.300904154777526855e-01
6.283741688236296197e-01,6.284827579303711165e-01,2.816248396868864523e-02,2.363432322508001154e-03,2.472092595704903327e-03,5.649665895784229674e-03,6.003749966621398926e-01
6.292257097362621288e-01,6.232824179501540440e-01,-5.069032658825967097e-03,3.691374857457170675e-03,3.095205435044547006e-03,1.038557605469842514e-02,6.316553950309753418e-01
5.667507813241731141e-01,5.771705836538090217e-01,2.738199859488366084e-02,1.166942189023228299e-02,-2.360932647752338794e-03,5.223058448968240230e-03,5.451187491416931152e-01
6.385118241139866591e-01,6.084566429313961189e-01,-9.821603744079976384e-03,-4.019979583495325646e-04,-1.789418010090957668e-03,6.513968546975685420e-03,6.339488625526428223e-01
6.167217666087785322e-01,6.282899650078959120e-01,-1.063149467673296655e-02,-1.647293600690718498e-03,-2.861210438486961900e-03,4.803810791101931731e-03,6.332970857620239258e-01
6.155583113394019756e-01,6.269671089031970679e-01,-1.169445512113509444e-02,-2.166060791934395319e-04,-4.359910322858430790e-03,6.032149739365365478e-03,6.331656575202941895e-01
6.299601291683796234e-01,6.202019749566843876e-01,-9.109277790734282565e-03,-1.916724307860095023e-04,-9.401812423679539428e-04,2.069305784368890601e-03,6.342589259147644043e-01
6.278388737535375297e-01,6.252506727769306938e-01,-3.984084649000019240e-03,-2.130594615597300543e-03,-2.301524681455165838e-03,2.110897841356890008e-03,6.305668354034423828e-01
5.943773908086797952e-01,6.205964483854824465e-01,-7.453096035333228730e-03,1.375147345326631007e-02,-1.582234112889143243e-02,1.844192383468479593e-02,6.172564029693603516e-01
6.190002317797655973e-01,6.216808852463566737e-01,-1.463728934012270555e-02,-1.374441580145927292e-03,-1.820654768217272023e-03,1.871531649864576928e-03,6.350026726722717285e-01
6.050203768524218262e-01,6.224229960488842917e-01,-6.198764320684613249e-03,2.557563549900235267e-03,-4.612666320848323245e-03,7.907421364254305085e-03,6.203221082687377930e-01
6.265986271476322589e-01,6.156879984997556399e-01,-1.369193561068821063e-02,-2.368552689599818118e-03,-2.342621797747354746e-03,-3.309778646828611596e-04,6.349320411682128906e-01
5.701636861266368150e-01,5.795645091729226817e-01,3.221150220093360605e-02,2.953094558616915603e-03,-8.260829497104221850e-04,2.970103365679038678e-03,5.427640080451965332e-01
6.249165503909657193e-01,6.252251615619472958e-01,8.276681401192531595e-05,-3.861795116493138384e-03,-4.374173868204826038e-03,4.101652994313521178e-03,6.251102089881896973e-01
6.171914198375392235e-01,6.216775219482003623e-01,-1.267711028669799012e-02,-8.738215006974189587e-04,-3.528050451482337650e-03,6.045611138319427307e-03,6.322416067123413086e-01
6.172016831638709178e-01,6.217216624982675466e-01,-1.391978796825321663e-02,-6.001626068516276559e-04,-9.665648500813160465e-04,1.097069356749544181e-03,6.333994865417480469e-01
2.540872419214993405e-01,6.961980047363214297e-01,-8.137261984286103811e-03,-2.381614993682646675e-01,2.462922419568671500e-02,-1.358781394240220208e-02,7.434327602386474609e-01
5.110271348920579770e-01,5.774582917713674268e-01,3.084563377920163108e-02,-7.766588043437472333e-02,-7.720773043007223002e-03,-6.233191506780275636e-03,5.341140031814575195e-01
4.494673493360323291e-01,6.564893217904808065e-01,2.454249161347205055e-02,-1.832292776023787262e-01,-3.359406035331444218e-02,-3.742689669853729167e-02,6.478386521339416504e-01
5.624543128304386741e-01,5.587912775824117606e-01,2.243894493200232487e-02,-3.549248524646210490e-02,-7.757103036428296579e-03,-7.360142612214968030e-03,5.420092940330505371e-01
6.219653337743402677e-01,6.240861284718420832e-01,-8.646305780979135491e-03,-2.364884470959993483e-03,-3.946924687848689557e-03,3.860784979166294404e-03,6.317603588104248047e-01
5.012954796646634792e-01,6.273963571147862517e-01,3.592707865918565169e-02,-1.795281188634396397e-01,3.768248829998781593e-03,-5.347937085480436838e-04,6.228057742118835449e-01
6.318727455766144363e-01,5.731272664127565752e-01,-1.199680792021984299e-03,1.027283897497664397e-02,-1.845427116699611958e-02,2.036412866708683586e-02,6.079670786857604980e-01
5.752679331152297237e-01,5.793037424793642254e-01,2.843018258070778570e-02,1.647882509643743693e-03,-2.028883139890121177e-03,4.375950147917189760e-03,5.489377975463867188e-01
5.576965655754413387e-01,6.148348421284977050e-01,2.802106828073563927e-02,-9.663827611175522525e-02,1.693931692941125222e-02,1.333035031063837736e-02,5.860856771469116211e-01
6.548394245752366949e-01,6.317106207635055926e-01,7.907429883267896864e-02,2.766157633357468892e-03,-8.826507854617970938e-03,-7.018472620469084523e-03,5.649142265319824219e-01
6.169948636625267602e-01,6.150719428877149397e-01,-1.560195109842116290e-02,4.503099568446834299e-04,-8.212862345201819847e-04,1.082224446258255078e-03,6.316424012184143066e-01
6.192440087156457773e-01,6.163164827424640890e-01,-1.526333568904786331e-02,-2.128012352098352354e-04,-3.616099585604224840e-04,5.117820278757841601e-04,6.330496668815612793e-01
6.169265370803065363e-01,6.196489907708200295e-01,-1.470822980440605887e-02,8.310438763303829935e-04,5.130760410883279492e-04,1.403703508190579747e-03,6.330072879791259766e-01
5.437693241944137057e-01,6.316089619153231194e-01,2.555579859077838911e-02,-2.999054122643142473e-02,1.596295605511003843e-02,1.706884710765322818e-02,5.710670351982116699e-01
6.262435788114149027e-01,6.303405324200335169e-01,1.048671442796494935e-02,5.549704568000659449e-03,6.353518579345140277e-03,-2.522157614310631141e-03,6.180037260055541992e-01
5.916783862664052318e-01,6.120452086044902984e-01,5.621336553940980973e-03,-2.849833937047434405e-03,2.600966150227618668e-03,5.984148856782190232e-03,5.966287851333618164e-01
6.025728332797708475e-01,5.783746689746303016e-01,6.984720860781890028e-03,-2.631996611892396722e-03,1.092711240942803932e-02,7.368351082105676839e-03,5.843290686607360840e-01
6.109496514828182123e-01,6.166655661516307063e-01,-1.050691870092324010e-02,-6.364980064914814092e-03,4.420087977829474137e-03,7.632150438488960291e-03,6.246182918548583984e-01
6.153486259018199345e-01,6.121619846592286640e-01,-1.488366263399426570e-02,9.913422041208398694e-05,1.920394733716258016e-04,1.670003742973924770e-03,6.286517977714538574e-01
6.151867048841975771e-01,6.167606333943089769e-01,-1.437832895949187062e-02,1.354271740436037560e-03,2.594760158792559388e-04,1.803302973781372278e-03,6.303657293319702148e-01
6.106959639923075223e-01,6.098249068414911545e-01,-1.147356968783547204e-02,-3.545610563300299889e-03,4.726347792178102296e-03,6.409163602242063350e-03,6.219177842140197754e-01
6.164039173723935283e-01,6.149971202895615496e-01,-1.526475119466008668e-02,6.163398477993049709e-04,1.458516802909169685e-03,-4.748273494915673993e-05,6.309723854064941406e-01
5.967611659029579130e-01,5.967852300808715871e-01,-1.832153267253278095e-03,-7.834807278896007907e-03,5.623467173999449446e-03,8.009026652567186738e-03,5.989990234375000000e-01
6.646799109220471458e-01,6.081238692087101994e-01,-1.206341235042540649e-03,-1.210381982793776456e-01,5.390059670672418812e-02,4.506231187003766070e-02,6.838871240615844727e-01
1.203308573389573199e-01,1.024322509484330013e+00,-1.561167635154564470e-02,8.364946387840550834e-02,-2.552515037457534462e-03,1.810947091904825668e-02,9.902359843254089355e-01
6.126703972159771583e-01,5.982951946419801104e-01,-7.809521761866777823e-03,-1.416555246080611515e-02,1.278962285270378307e-02,1.238693548527652205e-02,6.146832108497619629e-01
5.920070455572293833e-01,6.023897200618295589e-01,1.032059946795338412e-03,-5.374234546874889426e-03,3.438914781550567266e-03,1.225063207602884903e-02,5.967139005661010742e-01
6.190806050584803932e-01,6.195456579676054121e-01,-1.477393996921944064e-02,1.187775013890978500e-03,2.260472826733485405e-03,2.282874168507746226e-03,6.341149806976318359e-01
4.167081779734252422e-01,7.413041126395303326e-01,2.316322108621382547e-02,1.580575847804447931e-01,-8.689451635113181610e-03,7.148902245104113602e-03,6.806685328483581543e-01
6.171535979385061044e-01,6.014282284058936057e-01,-9.138421526621864910e-03,1.222652345579300056e-03,7.966272585847115548e-03,1.227922311353137931e-03,6.187404394149780273e-01
6.195488063465753870e-01,6.205864737097388506e-01,-6.480186602853599265e-03,-4.127710018534729887e-03,-9.903096782306391663e-03,-1.119825413466825695e-02,6.271240115165710449e-01
6.240129704632717544e-01,6.217252643508144327e-01,-1.292334722051446949e-02,2.417035075434934444e-03,3.361330049716709095e-03,3.217414423919439520e-03,6.358603835105895996e-01
6.080618740692788071e-01,6.110566489326578754e-01,-1.207553400743022198e-02,-4.068567556989029915e-03,-3.153247952426760804e-03,-2.034662375565942944e-03,6.217141151428222656e-01
6.084355235945246854e-01,6.159227026761697754e-01,-9.392823740798417198e-03,1.070019158179602407e-03,-9.742885786476761277e-04,-7.635095067660906988e-03,6.217514872550964355e-01
5.062281206941288136e-01,8.085087959030723415e-01,6.166257742671049646e-02,-9.662404166252318294e-02,1.198838493816244272e-01,8.174530596200738075e-02,7.173336744308471680e-01
6.210443562659002659e-01,6.293176268251439165e-01,1.178826149330546857e-01,-1.088146580580686080e-03,-1.538918619800586519e-03,-1.356196559238556296e-02,5.079029798507690430e-01
6.327491930535988907e-01,6.268092640280276129e-01,6.014665570500954406e-02,-6.628790435753591052e-03,8.002413317484614874e-03,8.338632357337602552e-03,5.701230168342590332e-01
6.292602706531341683e-01,6.218534845526425547e-01,1.631502383167759973e-02,2.701225019808489291e-03,-2.544435827757959238e-03,-1.750787329595456356e-03,6.093170642852783203e-01
6.119833554393080410e-01,6.153623121843645460e-01,-1.359978250038573755e-02,-3.193882644846128527e-04,-2.319063685125914882e-03,-3.227089678279240759e-03,6.273174285888671875e-01
6.159329178789458847e-01,6.156959962781833884e-01,-1.199472905125825717e-02,2.505525391230199045e-03,-5.417302519719583917e-03,-3.944981158724573597e-03,6.279315352439880371e-01
6.297086288833392276e-01,6.251409085649530795e-01,-1.758665392956826334e-03,1.524270814634416443e-03,1.303737612380627669e-03,2.980352634008586431e-03,6.292266249656677246e-01
6.113908622763319922e-01,6.168952423417515263e-01,-1.356483466979535590e-02,-3.395207241158702404e-04,-2.137123075768540634e-03,-3.244780687467127556e-03,6.277623176574707031e-01
6.278203228759190457e-01,6.263362285432724219e-01,-1.839330277292217097e-03,1.147842036223777279e-03,1.739046657084852626e-03,2.716816445980043196e-03,6.289469003677368164e-01
5.583798287981555086e-01,6.763166243919442877e-01,1.952436874230972785e-02,-1.324446626229197968e-02,-3.446617809611041139e-02,7.714935429975602020e-03,6.099948883056640625e-01
6.468652602731566059e-01,5.590491743106653644e-01,-9.551407084977814321e-04,-5.420222115201146947e-03,7.502052969885078873e-03,3.208246647081527958e-02,6.114234924316406250e-01
6.299489599016925290e-01,6.044857605294415848e-01,-9.268672510667930187e-03,6.105140912621185656e-04,7.316472840896674421e-03,5.318603405114272079e-04,6.270036697387695312e-01
6.379174340673294807e-01,5.847732240675127535e-01,-7.296074524969442532e-03,1.202517370206717664e-03,-1.036152907127832132e-02,7.443472262047946299e-03,6.207479834556579590e-01
6.298443107548147291e-01,6.262793166405662415e-01,-3.513817319712453369e-04,1.068486197301917292e-04,-1.960798834897942806e-04,4.246371298963018057e-03,6.284639239311218262e-01
5.728666446585963801e-01,6.478900065115427154e-01,6.233270969106391446e-02,-2.486370573365256562e-02,-2.365749919761768114e-02,-7.638361909047385739e-03,5.552333593368530273e-01
6.327973641867024046e-01,6.335205895391925468e-01,5.445562734057363130e-02,2.563171487493466540e-03,1.539908559835429305e-02,2.651968576276742678e-03,5.793532133102416992e-01
6.276775184133173147e-01,6.229783035247234979e-01,-4.270297241324938486e-03,-3.458433386930632406e-03,-2.241686868321184599e-03,2.652129000127892954e-03,6.296685934066772461e-01
6.288280235273999708e-01,6.324997385073473088e-01,1.549990278195101379e-02,1.255401379784689547e-03,2.661330163430113572e-03,3.132975684448049535e-03,6.152172684669494629e-01
6.300441673784183960e-01,6.308176157178605470e-01,5.331434421085551323e-02,5.485779232538782156e-03,1.153880039928188370e-02,7.057080413773965041e-03,5.776703953742980957e-01
6.182219495905136863e-01,6.515353447317855373e-01,3.654182530712435373e-02,1.996896041398890133e-03,-1.705759748796960643e-02,2.080150497530782860e-03,5.997809171676635742e-01
6.609225133318479273e-01,5.542484343748885767e-01,1.890510742010881318e-02,-8.266107323213159330e-03,-1.592707665697068453e-02,7.863689438778114632e-03,5.968505740165710449e-01
2.697439940109765955e-01,9.206041972954008834e-01,1.768386476037792088e-02,3.717551602262168103e-02,-3.957575983686492660e-02,-7.124718294232120809e-03,8.125308156013488770e-01
5.970577090543605081e-01,6.469636796190214589e-01,-5.888900886474368601e-03,6.100881553650400538e-03,-8.902019466959574037e-03,7.391006250175788383e-03,6.297929286956787109e-01
6.154926116833991934e-01,6.160409608256871561e-01,-1.450215570325491532e-02,-1.009712570346550002e-03,-4.698890901434958850e-04,1.501200177144585736e-03,6.302774548530578613e-01
6.038598435190443148e-01,6.076088300823041521e-01,-7.962480583071362972e-03,8.681618147222175310e-04,-4.547607143530430114e-03,1.169950416884110245e-03,6.137611269950866699e-01
6.245936654322001846e-01,6.165171055504677922e-01,-1.411358241327614893e-02,-1.246440726442603038e-03,-2.508746219425437088e-03,1.596699369334424190e-03,6.347320675849914551e-01
6.133958814549003158e-01,6.071793846362510960e-01,-7.237166685451379422e-03,2.257348166663057654e-03,-1.422826764326040800e-04,1.129970149965363584e-03,6.175637841224670410e-01
6.168076811640686996e-01,6.168627692149404318e-01,-1.542793751927296064e-02,7.566923005074700347e-04,-2.373929146224397057e-03,2.195499424231335019e-03,6.322893500328063965e-01
6.193713552117221521e-01,6.135914573616667589e-01,-1.553103062766242326e-02,1.559433184374828599e-03,-1.529169381916956104e-03,1.429756201443982281e-03,6.320484280586242676e-01
6.189800421967193156e-01,6.167618970371069320e-01,-1.524243399974539726e-02,-1.133959897878612311e-04,-4.904464117856602171e-04,7.409682450971645127e-04,6.331182122230529785e-01
5.625332011451953385e-01,5.782365143494958559e-01,3.132112765119843267e-02,1.187171272931243811e-02,-9.524688879768598371e-04,3.249495189117664919e-03,5.396590232849121094e-01
6.168567732800164238e-01,6.149164285346508940e-01,-1.436905913218583519e-02,1.037777490790939283e-03,2.256163199816671857e-07,7.713993114686878419e-04,6.302618980407714844e-01
6.163507361310565091e-01,6.144221940600240739e-01,-1.115404611761011688e-02,-1.129951568758869995e-03,-4.949872739594817807e-03,4.517496262042328126e-03,6.266533136367797852e-01
6.534915693303058326e-01,6.551174573525453404e-01,5.387741158597908475e-02,-3.475405408408639013e-02,-2.663925762756538806e-02,-8.120964463600272368e-03,6.053635478019714355e-01
6.219228781456214161e-01,6.266632209018109245e-01,1.107597942855347295e-01,1.818871138331447758e-03,-5.030027504455459458e-03,1.726227928232680273e-02,5.145027041435241699e-01
6.428538234730003520e-01,6.512057666320416605e-01,6.629289641012031664e-02,3.139075858236261857e-03,1.714909611707676057e-02,9.272710867988523051e-04,5.815686583518981934e-01
6.292779355959353671e-01,6.311759044537137431e-01,8.159664068279953719e-02,3.579449627926575492e-03,-7.643460413228195943e-03,-1.020448264881537725e-02,5.491120219230651855e-01
6.240931931420611312e-01,6.334994559251504453e-01,9.766711139393885466e-02,2.985552258547594616e-03,8.030407873175722522e-03,2.512450549797201529e-03,5.314167141914367676e-01
6.367670352777768938e-01,6.228701856878129384e-01,6.228836223615791257e-02,2.837526334952122399e-03,1.026803296630355786e-02,5.788381416622499949e-04,5.679585337638854980e-01
6.254929685759798019e-01,5.767229434667596744e-01,-8.566403168521197209e-04,4.770206426556798489e-03,-1.239452585340614262e-02,6.380785007800192712e-04,6.038838028907775879e-01
6.168885212622772229e-01,6.190436908892118506e-01,-1.496514567451828759e-02,-2.617841379611928572e-04,-7.259450585303617396e-04,1.706516902789964249e-03,6.329423189163208008e-01
6.296477877865860329e-01,6.156058776924427933e-01,-1.563982931579499525e-03,3.538752780577290999e-04,-9.535584271866288106e-04,-7.398707391706610967e-04,6.243130564689636230e-01
6.310317854147475813e-01,6.092636257928261134e-01,-1.277163087619664905e-02,-1.745020405807720231e-03,-5.875623821889199017e-03,-7.022484917747479419e-03,6.334058046340942383e-01
6.404858200729945938e-01,6.028948343138031962e-01,-1.602175043935172294e-03,1.532984648130484000e-03,-4.112593776887310884e-03,-1.909103401481550971e-02,6.250636577606201172e-01
6.290478924595275245e-01,6.215571579648295764e-01,-7.849484945199991515e-03,3.570600497402269275e-03,-1.549334608194879743e-03,-2.969372224390455072e-03,6.332420110702514648e-01
6.227583207466915738e-01,6.216624156126331346e-01,-2.955419451787566487e-03,-1.331601672316120710e-03,-9.411009508088770403e-03,9.255217082770727383e-03,6.255886554718017578e-01
6.294109868644262029e-01,6.173348964008467110e-01,6.286104862025965190e-03,2.550458264657955079e-03,-1.849616434730795306e-03,2.989313862035093000e-03,6.172212958335876465e-01
6.305888261209822154e-01,6.094026477077449933e-01,-9.654819051538587882e-03,-2.111849372313792054e-03,-2.179030076957120567e-03,-4.203209310369738008e-03,6.299818158149719238e-01
6.161767250308263222e-01,6.150321244418281985e-01,-1.496829069736382856e-02,-1.081337633789386131e-03,-1.665355869277870913e-03,3.843367796276643349e-04,6.305832266807556152e-01
6.121224568762635432e-01,6.258868843271252480e-01,-1.048806585683093040e-02,-8.519950332664112495e-04,-1.952822660709955822e-03,-3.765463233226423994e-03,6.296501755714416504e-01
6.014079498046865924e-01,5.858931923062100644e-01,3.139845614206104862e-03,3.394185116976331917e-03,-8.065087612323379798e-03,1.527454122255321456e-03,5.908638834953308105e-01
2.814865400675957141e-01,7.596553064059663463e-01,1.687565101049526284e-02,4.209965339925970246e-02,-3.192293609728837078e-02,1.023530740713476418e-02,6.586968898773193359e-01
6.007243049956429992e-01,6.607021083098640890e-01,-6.574742384040321852e-03,-9.388044947760782952e-03,-8.673919687387310687e-03,2.665338193673559916e-05,6.397843956947326660e-01
6.167920408619969042e-01,6.157492708990677244e-01,-1.564848895330933631e-02,-5.690184258317750260e-04,-9.991963212464234981e-04,8.759626043460559328e-04,6.319247484207153320e-01
3.556174722558755885e-01,7.316165671383854097e-01,1.753337401721216660e-02,2.374524270506759085e-02,-2.242019832502059259e-02,-9.683574337669028070e-04,6.212872266769409180e-01
6.461028310669022501e-01,6.318998197470142575e-01,3.763675002951610837e-02,5.355533416871408075e-05,-1.072302334164056993e-02,2.950943214992989266e-03,6.017987728118896484e-01
6.196013599967367114e-01,6.312234734832238292e-01,1.558754763811093236e-02,6.772056714903224982e-04,2.730882319604848677e-03,2.096417407928352714e-03,6.099382042884826660e-01
6.174629772675042094e-01,6.309588230988398827e-01,-1.037928368180046634e-02,-1.176648658714660048e-03,-2.587640575100016646e-03,3.031800690686353890e-03,6.347386240959167480e-01
6.308076014280261656e-01,6.084507711402803443e-01,-1.067009991870981889e-02,1.570889170689489462e-03,-5.703654096529104864e-03,4.834345921808511776e-03,6.307353973388671875e-01
6.183046077624750891e-01,6.311887537818153815e-01,-3.651665695468875317e-03,6.085631953318770913e-04,-5.144400661243516548e-05,1.699257976134755624e-04,6.284983754158020020e-01
6.237934512157292666e-01,6.160309283552402038e-01,-1.340484583191103862e-02,-9.021878518471553553e-04,-3.032468034692752546e-03,4.321108687421828815e-04,6.333768367767333984e-01
6.235595990763442842e-01,6.160275186636204880e-01,-1.421690700029898391e-02,-8.637364101239266125e-04,-2.565443715357092723e-03,3.114896697027461385e-04,6.340615749359130859e-01
6.246798650935165842e-01,6.273624734636453759e-01,2.151204698506992141e-02,-9.831320315076420412e-04,5.636158508670460407e-03,5.798914770325592008e-04,6.045956611633300781e-01
6.083138925209650161e-01,6.354179741312501184e-01,-7.242002694116844719e-03,3.183346886864703729e-03,-7.011456580483115680e-03,-3.057225914253238874e-04,6.296871900558471680e-01
6.191251744901112852e-01,6.306870904211779871e-01,-5.750552594950608665e-03,-2.560790782523030603e-04,2.209847709496174024e-04,-1.530739198383281356e-04,6.307364702224731445e-01
6.329505096451241153e-01,6.097441247262553876e-01,-9.363664230436274938e-03,-2.885152908041222711e-03,3.373988174026543358e-04,-1.172732784589701482e-02,6.313779950141906738e-01
6.304972497242369300e-01,6.190482022599428369e-01,2.442921305807543852e-02,1.610499522698166912e-03,7.556217937895563616e-06,4.764952088355882756e-03,6.004886031150817871e-01
6.190464405498518063e-01,6.173654046347012425e-01,-1.491425006290408861e-02,-4.096558726539257719e-04,-2.326188476351330209e-03,1.281367892709006379e-03,6.331389546394348145e-01
6.177944250104603352e-01,6.239977052611704877e-01,-1.321647335394238176e-02,-2.777732163681153037e-04,-1.428431896361513848e-03,2.795493691705017072e-03,6.341587901115417480e-01
6.330573238691515892e-01,6.104574226118134606e-01,-2.097207136457057697e-03,3.842705702613330443e-03,4.262037511519094213e-03,-6.402758569898896017e-03,6.243391633033752441e-01
6.226126102752964631e-01,6.205947825730856460e-01,-7.487789603808525651e-03,-1.257810083446809623e-03,7.529146003643070670e-03,-8.911965708224518085e-03,6.294221282005310059e-01
5.921102954421472164e-01,6.195505080129312114e-01,-7.466049959725051810e-03,1.568488032912078922e-03,6.753032068428978588e-03,-1.015295987318289017e-02,6.141259670257568359e-01
5.144536670370030151e-01,6.301388528193232474e-01,2.960605256089932080e-03,3.185287838014776857e-02,-2.222532309478951126e-02,1.904412983511221888e-02,5.829186439514160156e-01
5.877710483986133827e-01,6.141033054956283044e-01,2.422301220308675784e-03,2.489062912104574379e-03,1.128538054037783256e-03,-1.166932498128313810e-02,5.993087887763977051e-01
6.288696725814104660e-01,6.071741614561031453e-01,2.170010782829123741e-02,4.853034285374820123e-03,-1.308090264086343713e-02,6.355597372333560841e-03,5.972084403038024902e-01
5.763134563138859745e-01,6.003830967353462889e-01,9.473808629866076192e-03,2.269764668973007007e-02,8.883560987219370902e-03,-1.306601346188968060e-02,5.812268257141113281e-01
5.940630232502280839e-01,5.982086536370997409e-01,3.556964892115765942e-03,-1.030199295345276536e-03,1.925680036678555085e-03,-7.482588919126549262e-03,5.927435159683227539e-01
6.130605515867965094e-01,5.967492607003521687e-01,-6.367908927251253459e-03,4.017338274440412742e-03,9.417749283195190821e-03,-6.905820458942423141e-03,6.118100881576538086e-01
6.165975234802387739e-01,6.081835542670680494e-01,-3.988564477114098228e-03,4.193360098487514294e-03,7.693706329232493507e-03,-6.516525590012414368e-03,6.167122721672058105e-01
6.150236477751146458e-01,6.170747267777038081e-01,-1.450184050828728921e-02,9.503605438988175060e-04,2.253564375753435692e-04,1.493514834775851131e-03,6.305611133575439453e-01
5.907067844984091876e-01,7.511203158815340508e-01,1.037264668386078670e-02,5.609838076734117995e-02,6.799310808508299275e-02,-2.002453415173563109e-02,6.929118633270263672e-01
5.378632514304068080e-01,6.509712147971817853e-01,-8.860500459632048020e-04,-1.483459307810924832e-02,1.833051665165296926e-02,9.145709873832102293e-03,6.048968434333801270e-01
4.890922090970949432e-01,6.381433126065818584e-01,2.154512920027479295e-02,7.593994067315895657e-02,6.490276048357945804e-02,-3.358004422652183935e-02,5.863663554191589355e-01
6.013983415153416612e-01,6.381341855210534986e-01,1.071362385056079392e-02,1.424608902791106579e-02,6.478300851732896005e-04,-3.823167652491240003e-04,6.103833317756652832e-01
6.405511540225719003e-01,6.461456474585383081e-01,4.795583119059748656e-02,1.380105323360134202e-03,-3.370600570782421833e-03,3.484810329815230434e-04,5.954459905624389648e-01
6.298081729013599306e-01,6.586670381898553916e-01,-2.176855080164241674e-03,9.484386102223757442e-02,4.787531383747976876e-02,-3.405835776436683116e-02,6.751432418823242188e-01
6.314070774253178753e-01,6.186333398105390291e-01,-8.811223862084716085e-03,4.333654544313752968e-04,-1.939124732492615577e-03,4.267104801301124274e-03,6.339803934097290039e-01
6.457159911806926722e-01,6.235367919963304972e-01,-4.154320821062040814e-03,3.083536254098827919e-03,-5.216958598066011484e-03,6.436614859687845441e-03,6.392528414726257324e-01
6.280059450217851946e-01,6.199684492813378744e-01,-1.063602210069913845e-02,-4.944950716545966048e-04,-2.296295258626399657e-03,2.456967218344946295e-03,6.346886754035949707e-01
7.432670073015852363e-01,4.833569995585485501e-01,5.967688264844783763e-03,-7.572664284628914666e-02,1.752848641393196414e-04,5.728689867220999876e-02,6.682671904563903809e-01
6.369542809397238381e-01,5.966403737040956168e-01,-7.823489519286075389e-03,3.990751354546923785e-03,-7.233094158847401187e-03,1.258939880650330155e-02,6.261391639709472656e-01
6.313923503048961550e-01,6.193214403856631689e-01,-8.945621839128836683e-03,-2.759792966972661834e-04,6.666470305415454507e-04,3.856466406702104954e-03,6.344250440597534180e-01
6.206755550422399237e-01,6.326444016571671769e-01,-5.921812131355397302e-03,1.340972422378409979e-03,-2.602148493425657737e-04,-4.195310943962575262e-04,6.326715350151062012e-01
6.557468258922646287e-01,5.700086294741247839e-01,-7.613228744494715539e-03,-1.497423012390722242e-03,-3.425392370811078651e-03,9.873295328216010608e-03,6.251853108406066895e-01
6.310307153129139923e-01,6.206553786799756667e-01,-8.919096526729008989e-03,-1.437892019312925847e-04,-2.404344573808823472e-03,4.606311494086454995e-03,6.348896026611328125e-01
6.356439626218629568e-01,6.204883701717365252e-01,-1.031485628634859486e-02,5.720995785715174767e-04,-4.051970912182381937e-03,4.616269295245040323e-03,6.386053562164306641e-01
6.308440342684287216e-01,6.204284199405862843e-01,-1.038984091424305367e-02,-1.408987334070755000e-04,-9.903739353723120618e-04,2.069971300249160914e-03,6.361024975776672363e-01
5.824189751244643887e-01,5.792421814163237759e-01,1.915826432390932421e-02,4.710055816134854352e-04,1.522537435889944604e-03,5.693155920514779726e-04,5.616866946220397949e-01
6.474591948990094936e-01,5.852356993705076782e-01,-7.063169737338947929e-03,5.121530993405242621e-03,-5.862149953268427395e-03,1.046578482713172824e-02,6.261429786682128906e-01
6.194832238081888764e-01,6.165322648415684226e-01,-1.293740858251857251e-02,7.504117470463599754e-04,1.070121941856310875e-03,1.376673266206362642e-03,6.309589147567749023e-01
6.482186121829105474e-01,5.368199773990616208e-01,1.030170664249369095e-02,5.533873816757450652e-03,-1.672302499017601363e-02,1.626399582111190401e-02,5.916155576705932617e-01
6.267017007481282542e-01,6.291448878164659364e-01,2.942286344430322664e-02,3.213884440989865903e-03,7.783880039095990300e-03,4.076844808182603780e-03,5.987235307693481445e-01
6.655768661306743494e-01,5.581150646641611646e-01,9.866098547237911465e-03,-1.225933951924922105e-02,6.455438738968129284e-04,-4.156154126075472383e-02,6.137385368347167969e-01
6.319915058453275947e-01,6.194923508691178027e-01,1.660141137500292796e-03,4.954300251298682407e-03,1.242112273886175318e-03,-2.124741212073716801e-04,6.242384314537048340e-01
6.255961189867423888e-01,6.236683600016297291e-01,7.824332378937770560e-02,6.191456946492561973e-03,-4.414338630979134682e-03,-8.368962080994375892e-04,5.465521216392517090e-01
6.281847304107709418e-01,6.331596236736253269e-01,3.191991562785534420e-02,2.577055124935181962e-03,-5.791395277614172499e-03,1.175263534811694455e-03,5.988718867301940918e-01
6.308489812601337787e-01,6.200560402440391528e-01,-9.088689276212313928e-03,2.410395139423387675e-04,8.235772869518432878e-04,1.876605658367068701e-03,6.346201300621032715e-01
6.191649575672772965e-01,6.277372543220620660e-01,-9.053308682611782565e-03,-6.242801427247420248e-04,1.424348028613939970e-03,1.662420187915756480e-03,6.325602531433105469e-01
5.859244757778451218e-01,5.847468143560456966e-01,3.219145023870934041e-02,-7.194026469496957177e-02,2.729999281202385303e-02,2.492944906945400094e-02,5.706102252006530762e-01
6.079464669292327095e-01,6.282279898396806450e-01,1.911654914484067769e-02,4.335769230583405402e-03,-2.378301518919379021e-03,7.037996084388310931e-03,5.994133353233337402e-01
6.460426022733590790e-01,5.994949695850293470e-01,-8.518169287028365400e-03,3.078779767151516161e-03,5.321684910253393847e-04,-8.274833514746354800e-04,6.325975060462951660e-01
5.963931238744306640e-01,6.458815001881217377e-01,1.825031237240037907e-02,1.333177713409988696e-02,-2.970211310824755896e-02,1.074075338950053471e-02,6.073182821273803711e-01
6.718538993587395147e-01,4.379831101980281582e-01,4.250295689443434055e-02,-1.613138840343519287e-01,-4.231052292487713640e-02,-1.192484842739907347e-01,6.555066704750061035e-01
4.239014019308373071e-01,6.741974675894840674e-01,1.628795561883467080e-02,6.324418346566257343e-02,-2.176053458225348652e-02,1.392856313715318262e-02,5.872162580490112305e-01
5.993374778923103996e-01,6.358557940289006893e-01,-9.100806418663009989e-03,1.538019288419738674e-03,1.594062425526549366e-03,2.752789472476503945e-03,6.275247335433959961e-01
6.164890672507155056e-01,6.274822966081965436e-01,-1.107347582655371365e-02,-2.217195814902435825e-03,-4.161011873675492245e-03,5.708904339160167721e-03,6.332606077194213867e-01
6.074523184343811888e-01,6.269454375242256017e-01,-9.059940432120938691e-03,4.765773242770088812e-03,6.106355980350817829e-03,-7.880437228187533658e-03,6.267786026000976562e-01
5.771147479162042071e-01,6.466494046555857356e-01,-7.479692466816789675e-03,1.420514254792976105e-03,-1.800287276677960124e-02,6.802592376509502929e-03,6.231793165206909180e-01
6.732356195862527759e-01,6.132834022340770685e-01,4.160653675202302670e-02,6.867344661501218438e-03,-4.719146109413649599e-03,1.299962323750581024e-02,6.044809818267822266e-01
6.050676306734469323e-01,6.238727950525906341e-01,-8.259861219235720142e-03,1.802427595197502138e-05,-3.769750958324984461e-04,-7.978129850784948171e-03,6.230965852737426758e-01
5.908426484896387443e-01,5.530861803600541915e-01,3.474795813511288856e-02,-5.571838791021360357e-03,1.916130929045462353e-03,7.103513069657428798e-04,5.383087992668151855e-01
6.021556012020794491e-01,5.510577822178993612e-01,1.954873861546907454e-02,-1.265236420878853262e-02,1.132528826887141404e-02,1.538768141101117155e-03,5.595926642417907715e-01
6.271877180446425726e-01,6.276173579745059072e-01,1.574606100618308746e-02,4.318132889786092596e-03,4.554135152931113040e-03,4.587547714764056081e-03,6.118047833442687988e-01
5.706466300515988799e-01,5.803188539037009708e-01,2.556891975579428378e-02,-8.288885840928681900e-03,3.078222469121455473e-03,4.474802369857686091e-03,5.502454042434692383e-01
5.820314836916435919e-01,5.216262374822274728e-01,3.084002380323519477e-02,-2.749060637604887336e-02,1.591282902574631206e-03,3.759912023404715252e-04,5.257767438888549805e-01
5.535876822972285449e-01,5.636600135044282922e-01,2.659345098707549537e-02,-3.698882282168140107e-02,1.525307223034721299e-02,1.346691328062383543e-02,5.371024012565612793e-01
5.796665607500020023e-01,6.063076487635898904e-01,-4.779891073887210240e-03,-2.578757803157906772e-02,7.871431356592458600e-03,1.069303071342554007e-02,6.003178954124450684e-01
4.905370242544165871e-01,6.023161502973796155e-01,3.721930899434067186e-03,-2.615393573083365508e-01,2.155566286434108456e-02,1.300614145205519073e-02,7.148490548133850098e-01
6.190092377415765679e-01,6.155286639739064869e-01,-1.384290894226875013e-02,2.271961169838018074e-04,1.880486516945967593e-03,1.023464686119073745e-04,6.311275959014892578e-01
6.240028283006502363e-01,6.175897686925373442e-01,-1.399629526984097483e-02,4.335209605917565929e-04,2.716062338249882954e-03,9.523767126783076482e-04,6.348369121551513672e-01
6.149232065915808398e-01,6.264390235179684296e-01,-1.146286801036155989e-02,1.039006255568865854e-03,4.832621406024846175e-03,6.394738078557326948e-03,6.323776245117187500e-01
6.189194670896465134e-01,6.144270082145848466e-01,-1.362794004604295228e-02,-1.765574722366693812e-03,-4.442798404172206526e-03,-2.578713144434602138e-03,6.303833723068237305e-01
6.139610827639307988e-01,6.260033140437600840e-01,-1.184608953589738611e-02,3.339687219895526819e-05,1.773445404818268980e-03,1.333150983406081137e-03,6.319260597229003906e-01
5.777343317402634515e-01,5.752585007164062736e-01,3.564081867509388823e-02,-1.781331238994494567e-02,2.263338499912416306e-03,2.192699790934932343e-03,5.417666435241699219e-01
5.711657967822556525e-01,5.777773335571736446e-01,2.783758473194247740e-02,-1.032360096208067082e-02,4.836861157068863583e-03,4.070487816789052429e-03,5.470659136772155762e-01
5.891320486153690528e-01,5.852429917821121430e-01,1.430493329191773189e-02,-4.466856223167940676e-03,7.092620591363210138e-03,1.136807928769723551e-02,5.734145641326904297e-01
6.068283233975333424e-01,6.182180127000334036e-01,-8.692775956316123320e-03,-3.024363084438794354e-04,9.052491311637274546e-05,-7.176002343715613165e-03,6.214187741279602051e-01
6.154668665140081707e-01,6.201872220988667861e-01,-1.470141390945667315e-02,1.742645911154605673e-03,-1.342823201707755250e-04,2.647704662070159837e-03,6.325655579566955566e-01
5.879072353562350139e-01,5.996229222829634331e-01,1.161299675591942471e-02,-1.900167320123408166e-03,4.419649307588091602e-03,8.006873430287036325e-03,5.824652314186096191e-01
6.271267623361077570e-01,6.232742471962525732e-01,3.866665566703952894e-03,4.491824218549203204e-03,5.685012349869848942e-03,5.719613620737326251e-03,6.215484738349914551e-01
6.241904662430981521e-01,6.064458199533575566e-01,-8.694900341069899952e-03,-2.195918581371875491e-04,7.812211892287112582e-03,-2.470615266441723618e-04,6.243491172790527344e-01
6.011323706002047462e-01,6.102970962607618954e-01,-1.607059831387702697e-03,-1.401807868630611589e-03,4.867851326620722084e-03,4.980316294348538855e-03,6.074982881546020508e-01
5.873997302977880253e-01,5.801938513989615132e-01,2.540775019152591296e-02,-1.108534909334213912e-02,8.593699634040637483e-03,5.639005108911832563e-03,5.590374469757080078e-01
5.757000421926122824e-01,5.822047225486460809e-01,1.841544305235426338e-02,-1.209374135632634850e-02,1.501918990270348451e-03,7.140522754480652275e-03,5.610988140106201172e-01
6.116196401550213491e-01,6.094689531895767232e-01,-9.727296603154633736e-03,-2.706635338965996101e-03,2.792421013285894746e-03,3.848349465147410647e-03,6.203467845916748047e-01
6.210753901320628101e-01,6.200494791066675226e-01,-1.218057708949787932e-02,1.905479693993605058e-03,2.263204564563443301e-03,1.059978362058916750e-03,6.327670216560363770e-01
6.124327591654203928e-01,6.155729369266608186e-01,-1.458843819524785479e-02,-4.212344439300353500e-04,1.955339076534981860e-03,5.356212328766003956e-04,6.286073923110961914e-01
6.116402101912149503e-01,6.106474165357165251e-01,-1.190320974455200131e-02,-1.767538520054696711e-03,2.317282097312002576e-03,1.126654494143529200e-03,6.230711340904235840e-01
5.480122886058881315e-01,6.315972695268743387e-01,3.828066977168420593e-03,-2.261192414270475973e-02,1.079257697527021519e-02,1.693705759787180604e-02,5.927499532699584961e-01
5.878176222090840675e-01,5.602287032083121954e-01,2.933526917842660398e-02,-4.048980127829544112e-02,1.205314253920874989e-02,9.247326316988749642e-03,5.503330230712890625e-01
6.312652521047845688e-01,7.020296081626027362e-01,9.329728960248750980e-03,-3.971956660012413570e-02,1.182885161577548055e-02,-3.674178769410622186e-03,6.640899181365966797e-01
6.368256263703004905e-01,5.987975365003763706e-01,-9.316713915424434944e-03,-3.578946377539912586e-04,5.752072427370501402e-03,-1.752036519560352858e-03,6.280791163444519043e-01
6.653327140659190952e-01,6.525784925146239646e-01,7.354094644873188091e-02,-9.722775859515397912e-02,1.108277533562908035e-01,5.623672834629533240e-02,6.461641788482666016e-01
6.029137239731090503e-01,6.099538316061756671e-01,-8.771833041552323795e-03,-1.993968012665043969e-03,5.024201196173592836e-03,1.219745785432321339e-03,6.153106689453125000e-01
5.987453370316626611e-01,6.222352768150037905e-01,-7.634746635359346278e-03,2.661869094362193273e-04,1.434944704421798516e-03,7.558466829688561574e-03,6.186034083366394043e-01
6.250302888868345397e-01,6.237268792279879737e-01,-1.056859702439943982e-02,4.445346464287439417e-03,3.450352482296895843e-03,2.484310727878501820e-03,6.350375413894653320e-01
6.228236948950824914e-01,6.175051296097520126e-01,3.905364406980971204e-03,-7.156556099946814395e-03,1.069286747900635715e-02,4.256189869028744431e-03,6.167231202125549316e-01
6.733324566899434593e-01,6.043133811283131207e-01,7.879446538985290793e-02,-8.752822418492876844e-02,1.218988908307752916e-01,5.117314616820330814e-02,6.265957951545715332e-01
6.172609917192410922e-01,6.156032640001631862e-01,-1.429045415571889022e-02,6.104706544942310568e-04,2.826958685226217856e-03,5.289067625221336995e-05,6.307440996170043945e-01
6.201132351344703642e-01,5.439500812158397647e-01,1.985153802901334918e-02,9.731914298817468528e-03,-1.183649619634172256e-02,6.320735356082576471e-04,5.666592717170715332e-01
4.384850187969948077e-01,6.247594277512313887e-01,2.665867657423987014e-02,-1.818244705602732325e-01,3.935313830328161788e-02,3.562165578363235552e-02,6.234139204025268555e-01
6.107696900453056799e-01,5.854603047357255230e-01,2.126601233807867697e-03,9.450688812611333749e-04,-1.161166875092002441e-02,1.074059743373645664e-03,5.967354774475097656e-01
6.265516079620918610e-01,6.293591703532033232e-01,7.332308514922392106e-04,-2.173664522139077699e-03,-4.448373283100222342e-03,5.313649611067952682e-04,6.272861361503601074e-01
6.177404923822965577e-01,6.045287748230496749e-01,-9.388331256380999523e-03,-1.238621647074315216e-03,-8.225901821369278888e-03,6.713288009412236162e-04,6.207967400550842285e-01
6.211212326763491109e-01,6.317016234847346867e-01,-1.025290721447869036e-02,9.036387831462812338e-04,-1.032650381338449073e-03,-1.579188538097026280e-04,6.367347836494445801e-01
6.186551939438549308e-01,6.276963396180976762e-01,-1.225469968186748693e-02,-5.430709011083262924e-04,-1.350394523316573222e-03,1.921603397044134793e-03,6.354924440383911133e-01
6.207456563288857865e-01,6.307948043347447742e-01,-3.316560713946703487e-03,6.137430363147343502e-04,-1.248367573230923025e-03,1.544631760240055239e-03,6.291573047637939453e-01
6.158328876252417983e-01,6.277686897727637882e-01,-1.297078666690365534e-02,-1.521381272643003262e-03,1.789433448850907935e-04,2.789636680149778364e-03,6.348796486854553223e-01
5.794396087048157007e-01,6.339957409802257082e-01,-1.387212493739298225e-03,1.156278683947227909e-01,-5.036812349122131438e-02,4.780339977516414457e-02,6.531459093093872070e-01
6.209338913250561642e-01,6.283252484553030204e-01,1.792534657001620957e-02,5.399354181714276744e-04,4.931044086878595864e-06,-1.094120670407319794e-03,6.067416667938232422e-01
5.699752088595738675e-01,6.495707011015467991e-01,-1.003139703445055098e-02,1.650487247795780113e-04,1.744027475123279686e-02,-2.218615033466077302e-03,6.243687868118286133e-01
5.898072386323960359e-01,6.483865509562182217e-01,-2.906346389223712912e-04,4.493208446266037243e-02,1.668498401270876105e-02,-1.550397834568159952e-02,6.275568008422851562e-01
6.021051876707741446e-01,6.304062784335435765e-01,-1.024725872259568682e-02,-4.324960581272283867e-04,-9.038823515924864112e-04,-8.129877587331210340e-03,6.271427273750305176e-01
6.243139361032827850e-01,6.324634182078733291e-01,-2.008917797238218839e-04,2.090574566128999574e-04,1.089138571350943378e-02,-3.277932243471714038e-03,6.289379000663757324e-01
6.315077175592436198e-01,6.260114737228622550e-01,2.247535568080216706e-03,-4.996641754115200857e-04,-2.392611353517112936e-03,6.297848138058774470e-03,6.266393661499023438e-01
6.351549283191829653e-01,6.010512708699901063e-01,-9.568747152046364057e-03,2.438319877192025604e-03,9.320552231013325400e-04,-7.122584137987788893e-04,6.283838152885437012e-01
6.203583266219017123e-01,6.338887893506381932e-01,-1.066017225675519597e-02,2.765639886498532860e-03,2.066375890327337966e-03,-4.955569930950062645e-03,6.379771232604980469e-01
6.242635838048601338e-01,6.193871549329933446e-01,-8.796206822525132196e-03,8.940931418616283400e-04,-7.838057996245739387e-03,5.648841173458675306e-03,6.308596134185791016e-01
6.248420741810591927e-01,6.299136641821685423e-01,3.189277013831559593e-02,-3.468591427368385074e-03,-2.572764174336376886e-03,6.869309364559598313e-03,5.956671237945556641e-01
6.063789199956325371e-01,6.339568878294045140e-01,-1.204058769289262365e-02,-3.383728765101053060e-04,3.117010392015860665e-03,-4.627285185854602620e-03,6.327335238456726074e-01
6.482460191376362424e-01,6.004869564753495537e-01,-9.063391359801553637e-03,2.431017100893329442e-03,-4.862764006888431120e-03,-7.101222994709960584e-04,6.348498463630676270e-01
6.298212854481392009e-01,6.406522857142554761e-01,2.351290768810049281e-02,1.823846430715258052e-02,1.301660323305661553e-02,-1.413378416309924758e-02,6.135141253471374512e-01
6.206517061490652853e-01,6.281075736647734331e-01,-7.761399990449391328e-03,2.087828759174364772e-03,2.690730897694292283e-03,-2.989635402703685971e-03,6.322227716445922852e-01
5.755508665855169070e-01,5.599845529009582767e-01,3.153488031809292824e-02,1.358618516685563410e-02,-4.309381089134355211e-04,1.697181474074670009e-04,5.369187593460083008e-01
6.353229062269132310e-01,5.999431364447026516e-01,-9.352580806264554347e-03,2.789176873845422436e-04,5.489668954813782357e-03,-9.053724169437412424e-04,6.278079748153686523e-01
4.603526176988766982e-01,5.504841121737155119e-01,-1.025410580635996993e-01,-3.312854942332644770e-01,-1.757540020563633232e-02,2.069648642863428437e-02,8.409336209297180176e-01
6.505709309751408487e-01,5.550215982066231124e-01,-5.401214876387172570e-03,3.483697212675271066e-03,3.135670390572664829e-04,-1.313803350211962184e-03,6.138349175453186035e-01
5.760950071516368620e-01,6.379042175049958185e-01,-8.339753190091447888e-03,-5.563292649891841794e-04,1.644096628665343493e-02,-9.908362830656792034e-03,6.185581684112548828e-01
6.242416170664923936e-01,5.857883352871546823e-01,-7.782026488339532921e-03,-4.236622623232308427e-03,1.227914407829828851e-02,7.844032484259992263e-03,6.142637133598327637e-01
4.253000354317207354e-01,7.196541544356545028e-01,-1.415962640037137787e-01,-4.002392585247182555e-01,-7.490533399816147811e-03,-1.781831169430908579e-02,1.027900338172912598e+00
6.203654952948478574e-01,6.114784357927802727e-01,-1.169028276126116150e-02,-8.676658496635441609e-04,4.812988855455169190e-03,2.142397353395263885e-03,6.277275681495666504e-01
6.027521319308806191e-01,5.999606907871503081e-01,-4.746617489694182623e-03,1.336195728535920267e-03,4.636890871345751043e-03,-3.922443467508144460e-03,6.062035560607910156e-01
5.627687762498909674e-01,6.054100196669695011e-01,1.359886860276882103e-02,-1.344272354479675476e-02,6.896753043237710545e-03,1.401760158925063719e-02,5.727978944778442383e-01
6.386164617386737019e-01,5.650293689269965114e-01,3.522566421436112982e-04,-3.253111532133561978e-03,1.246656437040549043e-02,9.183465503830892890e-05,6.052489280700683594e-01
5.709232471641708662e-01,5.748251431091039310e-01,2.980736069414330336e-02,-1.947382189211388634e-03,8.737185073859091112e-04,2.088597001727445264e-06,5.430899262428283691e-01
6.319908757116280418e-01,6.181947647727861206e-01,-9.241892007997409841e-03,6.738881624868383116e-04,2.372262007998167648e-03,3.542833386793320903e-03,6.344912648200988770e-01
6.325070158487458016e-01,6.178284592756810856e-01,1.769943209798613415e-02,2.868870404559149711e-05,2.569317373959429177e-03,-1.649374642898167754e-03,6.076242923736572266e-01
6.264788719857434796e-01,6.178737164862276865e-01,1.691178627465872442e-02,1.574464741555617504e-03,3.409217688291870090e-03,-1.928164067376494798e-03,6.053545475006103516e-01
6.369977553184889008e-01,6.061920612540028230e-01,-8.566735136409653339e-03,2.990359403420606325e-04,6.158626929871449315e-03,5.166048972824887828e-03,6.308799982070922852e-01
3.970214958634333824e-01,7.176998193280008653e-01,3.651520265917279628e-02,-9.087539812345772627e-03,1.137615097089099154e-03,2.625538651523425665e-03,5.904898047447204590e-01
5.917126170995659074e-01,6.096267953247676008e-01,2.208366922954452249e-03,1.262316619373106711e-03,1.023535692171300641e-03,1.116730156348836808e-02,5.989813804626464844e-01
6.259683958007385973e-01,6.316510092389453490e-01,5.359766219430139866e-02,2.476135775714772332e-03,-8.821845133551463325e-03,-7.290408813068443260e-03,5.755904912948608398e-01
6.266821131209286966e-01,6.105782841976399311e-01,-1.164684772509899657e-02,2.675349192100727404e-04,5.109438849142520188e-03,1.847710837889410653e-03,6.305017471313476562e-01
6.460934277214887000e-01,5.646734491058998939e-01,-2.005194299244450473e-03,-2.354484741222063766e-03,1.029990538125192048e-02,4.181875034261111680e-04,6.117420196533203125e-01
6.070714583109058093e-01,6.341501133621777475e-01,8.876932671620035853e-02,-1.139150886945916041e-01,-1.147122096049158213e-01,-9.433091596808326762e-02,6.233031749725341797e-01
6.263608692030125935e-01,6.204424659178016110e-01,1.758757482213213486e-03,1.550194221586750161e-04,3.151865559399194723e-03,2.096741982792920886e-03,6.216986775398254395e-01
6.063306585777090696e-01,6.097491529330372195e-01,-7.767812807066953873e-03,-1.680223753825635163e-03,1.429687515873398051e-03,4.788933997071667843e-03,6.158825755119323730e-01
6.276960954867283338e-01,6.027117556830097200e-01,-9.286433441908770181e-03,-2.834400392892818046e-03,6.625560446363994334e-03,-1.196771830636410468e-03,6.249931454658508301e-01
6.105745085088097879e-01,5.848171962424817405e-01,1.840618612433564394e-03,-6.812805813958025015e-03,1.166363848398613810e-02,1.546647313736520656e-04,5.967314839363098145e-01
6.234333946729653242e-01,6.303554712821519690e-01,-9.386171070351889689e-04,-4.021441435243619522e-03,6.012078537565255024e-03,-4.021962107933822923e-03,6.280252933502197266e-01
6.321555458989783771e-01,5.796205359032986504e-01,-7.630379595353287137e-03,-8.094476388018027185e-03,1.228487857249388124e-02,7.963355409254175774e-03,6.158850193023681641e-01
6.480223549828854068e-01,5.206864047765522585e-01,-1.589354996028247147e-03,-4.952681428259404772e-02,2.604493449237865396e-02,2.960226892687940758e-02,6.062289476394653320e-01
5.948142468990618159e-01,5.586618440422106424e-01,2.988143745987376088e-02,6.017522337485190810e-03,-6.440329185055338954e-03,4.125324482291663729e-03,5.480114221572875977e-01
4.724013968857140311e-01,6.195228449198956211e-01,3.367291417227985528e-02,-4.215368907974871571e-02,4.120760049008200497e-03,1.710384764554502080e-03,5.329768061637878418e-01
4.649031648742756873e-01,6.614086920361997857e-01,3.783277917605065710e-02,-1.707094438348334339e-02,4.679047831721589584e-03,7.699013850215418245e-03,5.532115101814270020e-01
4.674665440769370517e-01,7.013058368201741111e-01,1.919968199085081428e-02,-1.573356057147259346e-01,3.750204459201590679e-02,1.538405748693966874e-02,6.630528569221496582e-01
5.940613465077809741e-01,5.903689566271248523e-01,3.073627389227062690e-03,2.027902385633927832e-03,-1.658137863103542045e-03,7.042768552446019084e-03,5.892939567565917969e-01
5.551013497696777321e-01,5.644708738382394619e-01,2.267965985918879435e-02,3.974446575786328567e-02,-8.681926722811143804e-03,8.231071645392397038e-03,5.419570207595825195e-01
4.978927371157227388e-01,6.709662433489342881e-01,2.003140156289434648e-02,-2.513489193652883660e-02,1.543372040363934911e-02,1.491057028822530620e-02,5.867605209350585938e-01
6.604884424236999729e-01,4.577527304040216460e-01,3.434133439153908007e-02,1.667370268730602317e-02,4.080234000346899016e-03,-5.688768283024106618e-04,5.541701316833496094e-01
4.165604870769188395e-01,7.423209215318004039e-01,1.825105728674614181e-02,-6.387585428983524882e-02,3.226349477477503946e-02,2.282942017641140936e-02,6.414440274238586426e-01
4.605801035008111888e-01,6.757287964425540139e-01,1.718532938852729286e-02,-1.884669374863564423e-02,1.890884923547016608e-02,1.644089497669926070e-02,5.841513872146606445e-01
5.057381329267572889e-01,6.396604179874918472e-01,1.667516526308909786e-02,-1.990211430300622628e-02,1.245505317440219820e-02,1.726163309891221367e-02,5.702295899391174316e-01
5.391318345865773187e-01,6.609740756433228892e-01,6.497675687947346290e-03,2.959069929217378672e-02,-1.695250517514709787e-02,1.613875672601800676e-02,6.063929200172424316e-01
5.743942380627498068e-01,5.829015545629115946e-01,2.607998727513244352e-02,1.658845418147699910e-02,5.148540184398251937e-03,-6.416246869153892536e-03,5.535468459129333496e-01
6.386642414135955681e-01,5.662090249137746722e-01,-4.131244803078637506e-03,4.169412192016661196e-03,-8.427074060176870107e-03,3.752856446335524256e-04,6.100225448608398438e-01
5.809907038055160955e-01,5.803462630928145627e-01,1.796401249234147457e-02,-8.649472588938526699e-04,1.684733866029165372e-03,-5.589476122762790074e-04,5.627151131629943848e-01
6.492675878635594255e-01,5.152046317932557074e-01,3.653017097648980638e-06,1.099585849974715063e-02,-1.114101101763336106e-02,2.271518546742439665e-02,5.956150889396667480e-01
5.664295527020430931e-01,5.934720995253733866e-01,1.800848421666412236e-02,5.533744215301261357e-03,1.875466330689682130e-03,-7.773353633721257101e-03,5.626822710037231445e-01
6.096742589773763710e-01,6.051651298163345238e-01,-8.932497012307694106e-03,9.054457020993808601e-04,-5.307882199213615100e-03,9.702682758377479755e-04,6.164374351501464844e-01
9.404160545720356978e-01,7.648088004321921263e-01,1.387839773335263205e-01,-1.273220200177964216e-02,2.097447381874262620e-02,1.292164498254259053e-01,7.645758986473083496e-01
5.359624930416041488e-01,5.943676091783101079e-01,3.226613874502920476e-02,1.745991641824647111e-02,1.660318705625255203e-04,-3.975533948504180425e-03,5.361918210983276367e-01
5.355119728719452965e-01,5.982517405849718806e-01,1.813204296394832493e-02,1.792650521851837583e-02,1.354392001431145923e-02,-1.676483513606113682e-02,5.535667538642883301e-01
5.871024499222200488e-01,5.659031583099182194e-01,2.437953201002368564e-02,9.121023258364620301e-03,8.880429339950089360e-03,-5.970562721713773384e-03,5.529649853706359863e-01
5.633235160700266198e-01,6.024660687291187866e-01,1.128047389384334576e-02,1.237703574921559559e-02,8.368440978420831761e-03,-1.211834644308105134e-02,5.735871791839599609e-01
5.804650681825946901e-01,5.933134631684625626e-01,1.943780411344658843e-02,1.018530412630477226e-03,1.651088821215339645e-03,-6.833500996618748630e-03,5.676938891410827637e-01
7.468872184643641221e-01,4.679644722309532767e-01,4.676928596899682100e-02,-1.531329309063750831e-02,1.123703881310654518e-02,7.446926407293323613e-02,6.248227953910827637e-01
6.482887547022253560e-01,5.560959005847605496e-01,-2.748109454757341474e-03,3.077138419541419496e-03,8.751747242399443225e-03,-3.062891207235264417e-03,6.104210615158081055e-01
6.301021572704436080e-01,6.185306081587534921e-01,-5.444264619589245235e-03,-8.941151446878845173e-04,-6.496896436768937475e-04,-1.443744723412881742e-03,6.298482418060302734e-01
6.731143732414951453e-01,5.072875250255670654e-01,8.081177234229242057e-03,3.350374250305267892e-02,-1.822739619837698485e-02,2.037969452923605110e-02,6.042330265045166016e-01
6.280304666248019974e-01,6.295043625065840365e-01,1.936502117956945268e-02,-4.284508400398080383e-03,-4.683266404202302870e-03,7.211890536656449628e-03,6.096308827400207520e-01
6.315666507825056231e-01,6.088086360144476794e-01,-1.027697643684383211e-02,1.867863751368097828e-04,-2.413586128210422430e-03,6.534836014905946733e-03,6.308881044387817383e-01
6.675368398428545014e-01,5.553237326770732452e-01,-3.576646354946422246e-03,2.613981365674406042e-04,7.823901634935768535e-04,-3.404723711629768258e-03,6.226670145988464355e-01
6.959954646512855891e-01,4.365336307842496710e-01,3.212318240829670213e-02,7.846454876717170318e-03,-1.783360216344166433e-03,4.725021128468152171e-03,5.797055959701538086e-01
6.474968379550083419e-01,5.745909255963018714e-01,-8.299797764012128987e-03,7.592390719417036436e-03,-6.593099974999351055e-03,1.300821207808167818e-02,6.232046484947204590e-01
6.282396831862417930e-01,6.214114454412480448e-01,5.222517612768817763e-03,-2.758224033327103756e-03,-7.777382803751238744e-04,-3.176561295681156697e-03,6.196755766868591309e-01
5.090111926906353279e-01,6.200990964132251371e-01,3.930919528022303044e-02,-1.621238482528663399e-02,2.074991373409380228e-03,-4.687524211247999333e-03,5.347953438758850098e-01
5.705422529885944005e-01,5.788725173087378995e-01,3.053740356463302552e-02,-4.739233858193923725e-03,-5.632541404373641149e-04,-4.125688805931208673e-04,5.442810654640197754e-01
6.279760567533505533e-01,6.206318060951087068e-01,-7.990288482023433225e-03,-1.630617017654817282e-03,-2.076426985934026401e-03,-2.173210848013136347e-03,6.323539614677429199e-01
6.322841325562280623e-01,4.808538281271819148e-01,3.374353506460658902e-02,3.754329066164834722e-02,2.885864290279427802e-03,-3.365213841277888210e-03,5.429846048355102539e-01
6.976369313361618918e-01,4.038681194388948903e-01,3.614472042919653072e-02,-1.018508228256231364e-02,4.686889463812382237e-03,1.084659866163374719e-03,5.743926763534545898e-01
5.914390209443234347e-01,5.384979921330926844e-01,2.161097601480566066e-02,-1.770322287493493463e-02,9.579071775095175309e-03,4.773437483187454623e-03,5.464643836021423340e-01
6.281032430988812143e-01,6.228862161236436989e-01,-8.051901035911301907e-03,-3.789915922047206853e-03,-7.139089814438970413e-04,2.948775769477876216e-03,6.336185336112976074e-01
5.079868147563963987e-01,6.820979944985168242e-01,2.034262866788094648e-03,6.329650035699889042e-04,1.891434806496757742e-02,4.973132087763724139e-03,6.128159165382385254e-01
6.245082870557731036e-01,6.127390192664557977e-01,1.131403133513880777e-02,-4.377475209130932132e-02,7.621441253054876165e-03,1.665755669268375108e-02,6.129308342933654785e-01
4.645733806486187500e-01,7.211684899468808752e-01,5.142494840416067525e-04,-1.375666928988241583e-02,2.553462685637318541e-02,2.253775624373338324e-02,6.358575820922851562e-01
6.010570548536440239e-01,5.994955985940719767e-01,-1.072296459901256327e-03,-4.001996600788289629e-03,5.522601509248019867e-03,7.903576527418595607e-03,6.016219258308410645e-01
2.586549829892454411e-01,8.720390320324065137e-01,-1.245133569293666587e-01,-2.888432013129070275e-01,-3.642903250403893567e-02,-7.353221414659569764e-03,1.006241440773010254e+00
6.016722940823693300e-01,5.971415336638464799e-01,2.224864478809707169e-03,-4.930239297301609869e-03,1.295241910609491905e-02,1.455478982246613973e-03,5.976824760437011719e-01
4.402325516548170614e-01,6.870324884851031211e-01,2.903095891512014193e-02,-4.615026802746990259e-02,2.009755003386048261e-02,8.446498760022919799e-03,5.824918746948242188e-01
6.262580876862304802e-01,6.456985271856039432e-01,6.505309453396779240e-02,7.135757860991563152e-03,1.036322507279005892e-02,6.418987418886278225e-03,5.716971158981323242e-01
5.772153911574524621e-01,5.717013137279174373e-01,2.942524310225891337e-02,-9.241924948509908089e-03,-5.751884568218175280e-03,-5.400783444016303905e-03,5.454602837562561035e-01
5.761944165093328962e-01,5.796035894981379499e-01,2.605713607693216360e-02,-2.196261847953705215e-03,2.741506135816237921e-03,3.747057389420503475e-03,5.519214868545532227e-01
4.406732133637349946e-01,6.837663206321845655e-01,1.614898762902861051e-02,-4.686126374487084578e-02,2.016665803618047925e-02,1.513187366244123783e-02,5.924600362777709961e-01
4.621895916653119274e-01,6.624283463080942180e-01,2.679395201241180358e-02,-2.268264218025897033e-02,1.421941587384374824e-02,1.044937965350437384e-02,5.650890469551086426e-01
5.039198098303653284e-01,6.644257142959697493e-01,1.862710291775299121e-02,-8.835811987602717327e-03,-1.168401544147189882e-03,6.028317509882421057e-03,5.826755762100219727e-01
6.098363975827497674e-01,6.298777598072977657e-01,-1.063066390458766719e-02,4.256897969763303994e-04,5.377341675933691723e-03,-4.683898614425300276e-03,6.308479309082031250e-01
6.198766937769298879e-01,6.222445721672299479e-01,-1.108019214060423918e-02,-2.015982390456810911e-03,2.674727284544406274e-03,-1.990607592674273080e-03,6.321801543235778809e-01
6.159917999535126087e-01,6.267782362822682529e-01,-8.485407140452039254e-03,-1.339105728789915725e-03,-5.387112933057200160e-05,-1.634121953660754969e-05,6.299439668655395508e-01
5.915161972026896642e-01,5.814936056718174040e-01,2.034066807457834969e-02,1.269513016284246629e-03,-6.637308845374279877e-03,1.666078846904734366e-03,5.663591027259826660e-01
6.268263239629721095e-01,6.293371499409240455e-01,-1.995979196047659165e-03,-1.645581179955039929e-03,4.085499081405126812e-03,-9.565869109798083450e-04,6.301298141479492188e-01
6.119934672046130064e-01,6.295085619737796900e-01,-1.131124207474815124e-02,1.848893256348381649e-03,5.257862696022318205e-03,-3.820682959857793666e-03,6.323525905609130859e-01
6.197820704839528405e-01,6.298800387518517230e-01,9.784027231363068289e-03,2.426073553961216199e-04,1.781511014781948614e-03,-2.678500880656579236e-03,6.151345968246459961e-01
5.806379081265382602e-01,5.790333803876820395e-01,1.893442568710590468e-02,3.445340209374193625e-03,-1.712353117873224861e-03,6.288178559843461690e-03,5.610482692718505859e-01
6.176467857672783834e-01,6.264697242586988457e-01,3.802693510707166880e-04,-1.195534329663443620e-04,-2.496980177992895369e-03,4.301345395054474198e-03,6.217846274375915527e-01
6.120599769658384703e-01,6.179184258506779104e-01,-7.595415482679279684e-03,2.249822108259735658e-03,5.556024339666015485e-03,-5.487117969605199638e-03,6.227643489837646484e-01
6.133397041766357471e-01,6.415197022140753935e-01,2.554096949982226361e-02,4.068938735386468109e-03,-3.845383570728857798e-03,-3.998743044044129587e-04,6.024617552757263184e-01
6.184211900625073977e-01,6.292198843903965555e-01,-1.045004771829777246e-02,1.093439310869017030e-03,2.805103253588204018e-03,-3.795935093932558627e-03,6.343950033187866211e-01
5.156802328931843205e-01,6.582045880513118785e-01,5.294602495691080879e-03,2.207185521185695692e-03,2.162929546124755381e-02,-4.258644429274376260e-03,5.958368778228759766e-01
6.060273658402015595e-01,6.298330247963980222e-01,-9.694861754061145920e-03,-5.792404272929802518e-06,1.142323044199909649e-04,-7.216171295962649744e-03,6.280879974365234375e-01
5.775923544964590706e-01,6.312461900849817287e-01,-9.202428266769591136e-03,5.319297157914514539e-03,1.198381671076736120e-02,-1.217790535495956103e-02,6.161584854125976562e-01
6.204494779459844844e-01,6.171798481479561227e-01,-1.292686932867048721e-02,-1.519523487871863839e-03,-6.284247881489103682e-03,3.916440808777738557e-03,6.318835616111755371e-01
5.729075416461375525e-01,6.388261751965436108e-01,-9.451597627188668138e-03,3.510932864424061006e-03,1.160984508775684577e-02,-9.334184823992563995e-03,6.185292601585388184e-01
5.958103423645872976e-01,5.875811306648879295e-01,1.274130439960213801e-02,-9.373850987904972648e-03,-7.205359779201736710e-03,-6.455314704206772079e-03,5.794681906700134277e-01
6.026347210296973955e-01,5.633992394672937554e-01,2.017080543907806556e-02,4.349599032947372261e-03,-1.140629192553285938e-02,1.937190706737133752e-03,5.642771720886230469e-01
6.015179791134895870e-01,6.119410556459395911e-01,5.368935952968445502e-03,-1.393824757023857941e-02,-1.766648053576113514e-02,-1.675345734741865572e-02,6.033881306648254395e-01
6.726604502738613434e-01,4.600977572298587948e-01,1.626701148318032697e-02,3.439408687084500541e-03,8.826993252509225327e-03,2.117324931379510698e-03,5.803388357162475586e-01
5.989309960268391908e-01,6.117919302779195601e-01,-5.775249244690694450e-03,-1.625983861771530120e-03,-4.441531771785220233e-03,-8.153663962255456102e-03,6.114562153816223145e-01
6.590459308618268341e-01,4.650729125982830947e-01,3.208058539182950808e-02,1.280354518034615939e-02,-2.278924474390646437e-03,1.332521690035645082e-03,5.564255714416503906e-01
5.967995362673170767e-01,6.023132017332065713e-01,-1.551904402917969605e-03,-2.523242849900572855e-03,-9.286497857138371892e-03,-4.673917920890691483e-03,6.014127731323242188e-01
4.426580159086560551e-01,6.537682416284594789e-01,2.994886926454393139e-02,1.070099714572635280e-01,4.167172958658998776e-03,4.176743611887519941e-03,5.800700783729553223e-01
6.800741730461148382e-01,4.834801089368676585e-01,-1.073376458305380643e-01,3.670002214026217291e-01,-4.719372300821202820e-02,4.788988918885768442e-02,9.599456787109375000e-01
6.736158989129370500e-01,4.364975516909139763e-01,1.643379848817305700e-02,9.493622785589468649e-03,-3.068679530455447734e-03,2.155682275073894996e-03,5.767114162445068359e-01
7.080949660006579105e-01,4.232580167699881990e-01,2.921235019320345128e-02,-1.210213079573546971e-02,-4.239004898414575583e-03,2.263818704934423415e-02,5.921769738197326660e-01
6.845835434899611993e-01,4.941565993137199131e-01,1.899931700753682007e-02,2.994990882812417418e-02,-1.239231692536289092e-02,-5.429799214894661871e-04,5.963826179504394531e-01
6.575064543207786993e-01,4.965582841506946954e-01,1.819380997460245952e-02,1.072204086964972936e-02,-1.166211538872705990e-02,2.481505203428702004e-03,5.766282677650451660e-01
6.817766274231402690e-01,5.336278564276604186e-01,1.960152604738973903e-03,1.302030812936663326e-02,-5.354817491444839248e-03,1.692563786629383213e-02,6.203535795211791992e-01
6.849450205832510186e-01,4.362659995972366644e-01,1.879845931572049489e-02,3.432327288844172746e-03,-9.340582062714217551e-03,2.839437222811292631e-03,5.833156108856201172e-01
6.967389461763919822e-01,4.389857456684302384e-01,9.416264491970971484e-04,-6.391728806330733252e-03,7.120558792261916584e-03,6.323810808388055649e-02,6.192725300788879395e-01
7.432901075479707576e-01,4.197126874527385421e-01,-1.615353511959738420e-02,-1.517909703693134937e-02,-1.726026337207385228e-02,3.750387194439044197e-02,6.644718050956726074e-01
7.063365853674052897e-01,4.336526170799350766e-01,3.029666977780498538e-02,-5.408380401151103613e-03,-3.180025038686336205e-03,2.358542766337435106e-02,5.906167626380920410e-01
5.138043872246652599e-01,6.242828134861008182e-01,3.499863660434349155e-02,-1.558133609329812909e-02,1.299162659903719316e-03,7.040559386552073390e-03,5.433601140975952148e-01
6.860906865900217033e-01,4.581409300309560173e-01,2.503431374902775897e-02,2.353575146712461388e-02,-1.260091722650887036e-02,2.154475189967505061e-02,5.846363306045532227e-01
6.246048611795472771e-01,6.269658749487833083e-01,3.275888558413225793e-02,2.105771345589920601e-03,-3.572880860789768957e-03,-6.227011035240468707e-03,5.931715965270996094e-01
6.272970213775825865e-01,6.213988222313522325e-01,-1.209323047531385420e-02,1.638311877718197102e-03,-2.493061474018066093e-03,-2.560355607650153121e-03,6.364980936050415039e-01
6.598503437215473832e-01,4.635179288994375479e-01,3.935292682559488053e-02,-1.513227834435411021e-02,3.839778015663940051e-03,-2.501315171842347909e-04,5.499737262725830078e-01
6.118799131003115344e-01,5.157502415841339616e-01,3.493106348374275250e-02,-2.616654109677289675e-02,8.260225815807341332e-03,8.776922751048493732e-03,5.377163290977478027e-01
5.589573104135878712e-01,5.763377408682317515e-01,3.304607145968235793e-02,-1.041586238629087918e-02,7.302405600052733290e-04,2.074755639027443983e-03,5.351310372352600098e-01
5.706162338022393588e-01,5.748019058506064205e-01,3.038392162800263030e-02,-4.255382264182407982e-03,5.906757211756729232e-04,2.712598339005050253e-03,5.424086451530456543e-01
5.703881574511274755e-01,5.802112807610880774e-01,2.964380799093663255e-02,-5.407107771311047556e-03,3.517827819531517256e-04,6.983070153147371163e-04,5.458042621612548828e-01
5.939776425877831834e-01,5.694992236057192514e-01,2.064025977010575108e-02,-7.042853682873734950e-03,1.135143826486145237e-02,1.600303306861010312e-03,5.619818568229675293e-01
5.682084483422031873e-01,5.586503916482884469e-01,2.794446860750465778e-02,-3.346497342445031026e-02,1.296973381070272435e-02,8.829455298287054721e-03,5.393615365028381348e-01
6.242981872636651497e-01,5.420760201212726503e-01,2.077105468269357935e-02,-8.248082047516180557e-03,1.171015396926219400e-02,1.347698891162479569e-03,5.674531459808349609e-01
7.136910745233771003e-01,3.906396313857615210e-01,3.700130397888978795e-02,7.017471546011924861e-03,-1.828566161335889529e-03,1.457445604578424571e-02,5.869077444076538086e-01
5.779972690329904239e-01,6.382391896734518344e-01,-9.793487101781350734e-03,-4.200688121812958323e-03,-1.254275292619143681e-02,-9.501926397746104230e-03,6.207515597343444824e-01
5.918536461828788342e-01,5.268650400049594840e-01,2.992943465012659621e-02,-1.834689880190561520e-02,-2.962741524678202867e-03,-1.288606464269713252e-03,5.333899259567260742e-01
6.839915023158569252e-01,4.893300144099458349e-01,1.778364746168087374e-02,1.352117655228526503e-03,-1.128743665230958404e-03,6.767467947867820575e-04,5.933394432067871094e-01
6.212936341207305757e-01,5.421687205426589662e-01,2.021476914222924970e-02,-8.960132025576848791e-03,1.329289678438563826e-02,1.404675607894120435e-03,5.663683414459228516e-01
6.925634805917635362e-01,3.762708930595744516e-01,3.014228505836319405e-02,-6.254927900729669032e-02,-3.785081451007673518e-03,-1.424998085148765706e-02,5.845625400543212891e-01
5.954579741865599907e-01,5.257663615606140706e-01,3.044646454495592014e-02,-2.009598396644510926e-02,4.545489046779499324e-03,3.792334020693673624e-04,5.347825288772583008e-01
6.031445674901740883e-01,5.691444405139866047e-01,2.078208590059593686e-02,-4.637105052226643889e-03,7.286273716342485558e-03,1.771672452279833337e-03,5.663346052169799805e-01
6.366677407639849129e-01,5.012724949027657084e-01,3.737811826683501426e-02,-4.224000253790847342e-02,1.078470136653134548e-03,-1.850269173437306706e-03,5.492771267890930176e-01
5.619595408043613904e-01,5.754243489325218119e-01,2.962542104212589900e-02,1.346423302556233430e-02,6.674031766985461011e-04,-3.310188141432867086e-03,5.397284030914306641e-01
5.751301760904216076e-01,5.619348781186628283e-01,3.185727917021741185e-02,-1.165567688017167536e-02,-3.769893534121894246e-04,1.261687843649804900e-05,5.371767878532409668e-01
5.797472170232802480e-01,5.772170868278243550e-01,2.751108462306889324e-02,-1.540147190905496880e-03,3.058779699039945038e-03,2.472554753641343413e-03,5.510240197181701660e-01
5.979657716638824283e-01,6.408759060953324038e-01,-7.465204005948078425e-04,3.852010463156958536e-04,-9.499754500504518917e-03,1.354970991372931493e-03,6.215023994445800781e-01
6.284949163678845707e-01,6.276463418788531534e-01,3.254035201911265052e-02,-7.660478268717193758e-04,6.323333353030808138e-03,-1.391500973594245530e-03,5.956377983093261719e-01
6.009957200790483345e-01,6.406150102179042349e-01,-9.836076361647905220e-03,3.554442004430700269e-04,9.798914366770808751e-04,-5.805521844169954761e-04,6.315774917602539062e-01
5.128204377088076971e-01,6.501617823810310615e-01,-2.319531006273578555e-03,6.981643443154244254e-03,-2.383677237754765199e-02,1.061636055339259047e-02,5.976376533508300781e-01
6.255494411193155413e-01,6.157835903527448806e-01,-1.507391519636774868e-02,-1.680130047376093014e-03,1.787422846381334475e-03,-1.187699061855897751e-03,6.358141899108886719e-01
5.694349524936024309e-01,6.476882870091495992e-01,-8.360434979042152825e-03,2.400996430048516189e-03,-1.258751484541847758e-02,4.644137594002897655e-03,6.210820078849792480e-01
6.532107895470545822e-01,7.273626861631490303e-01,5.783626078153675243e-02,6.771441568397353061e-03,2.327180704401184824e-02,-1.093696850433990711e-03,6.370897293090820312e-01
5.746858337761155955e-01,5.699112513923920709e-01,3.087888219983536686e-02,3.973564095976897179e-03,2.058909697005884259e-03,-5.575174096073421803e-04,5.414918065071105957e-01
5.746783686386678358e-01,5.696940720249130674e-01,2.986670960670823050e-02,2.582338387020477292e-03,3.206226138309669797e-05,7.513389004559926964e-04,5.423566699028015137e-01
5.984512956223981828e-01,6.374301024284773076e-01,-9.597810052357380606e-03,2.009968940925707572e-03,1.033773564445407064e-03,-5.072057039168230766e-03,6.285193562507629395e-01
5.683747289912581824e-01,6.486681204493365271e-01,-8.631252891420027051e-03,-1.947528458150600160e-03,-1.212797021594210801e-02,-3.507234234082081108e-03,6.214517354965209961e-01
6.082281637701374422e-01,6.366244833723806451e-01,-8.862390513696805083e-03,1.420511593718131902e-03,-5.714719345773166224e-03,-6.033251395036207630e-03,6.319362521171569824e-01
6.293190435173268149e-01,4.713511170080745827e-01,3.629955341140755909e-02,3.140990964870467306e-02,4.783169100283368724e-03,-1.748819280941230547e-03,5.347760915756225586e-01
7.038939170513587307e-01,4.176989043163379933e-01,-1.084802412265606919e-01,3.771161665187752199e-01,-2.332857994576415656e-02,1.429893227702185195e-02,9.686370491981506348e-01
5.888779282143041804e-01,6.695051598319017305e-01,3.221316080320668629e-03,7.814186667017490595e-03,-2.577813561509765400e-02,5.582355037231430395e-03,6.316521763801574707e-01
6.174499084711546626e-01,6.325907875420136994e-01,-4.299437870827926833e-03,8.078677761009898798e-04,2.592191768436704442e-04,3.629974798433144366e-04,6.294584274291992188e-01
6.092696792007635809e-01,6.473514024711439774e-01,2.513354519803112641e-03,-4.693182539247789387e-03,7.694486329853683811e-04,-3.229192152306742825e-03,6.267446875572204590e-01
6.518680501206438604e-01,4.396969317347256268e-01,2.052660849679027733e-02,-3.702392348074937806e-02,-1.838435827440688952e-02,-2.166444530936968010e-02,5.623081922531127930e-01
6.620132219509987648e-01,4.650452522666324029e-01,3.369180107077091035e-02,1.274771841093156124e-02,-4.380147544548845286e-03,1.348264169049326680e-03,5.571135878562927246e-01
5.313045499418080908e-01,5.453051194395140966e-01,3.805277755803837536e-02,-2.360545260117607458e-01,-5.938774541859899447e-02,-6.953522827438726739e-02,6.653198599815368652e-01
7.111768743878980059e-01,3.651519637824522380e-01,1.320638508256299914e-02,-2.771202056353764751e-02,-1.823515766139644076e-03,-5.656181650591741994e-02,6.142413616180419922e-01
4.271103188306009102e-01,5.194770833606552340e-01,4.727843422360877845e-03,2.741982077415798802e-01,-3.638811327294341758e-02,3.608326242276276713e-02,6.777794361114501953e-01
5.601793021519623217e-01,6.384026967847487022e-01,-2.878056614952773096e-04,3.483757025870705404e-03,1.635982799372052944e-04,-7.015303634637122011e-03,6.035462021827697754e-01
6.331587818228046061e-01,3.168218953529670645e-01,1.799411645833737250e-02,2.035456148635467477e-01,1.013613658643150971e-02,2.350817946437949377e-02,6.404341459274291992e-01
7.605667264158069152e-01,3.402277595655221476e-01,1.462628142350552718e-02,-7.264953225355579025e-02,-1.967576443471039105e-02,2.485200338100434711e-03,6.607404351234436035e-01
6.556693199692822382e-01,3.852004364110295787e-01,-7.570864690621031956e-02,1.806874857711455173e-01,1.313003071261987197e-02,9.954741857614492206e-02,7.337862849235534668e-01
7.096213055818039184e-01,3.830959962646824368e-01,1.577067658834002684e-02,-3.118565658418125455e-02,3.162122691351972156e-04,-2.520925051358430605e-02,6.052372455596923828e-01
7.284456170935920127e-01,4.404956549296717983e-01,7.426126444151415207e-03,-9.231707306601481811e-02,-1.746464707606735361e-02,-5.539277762692738916e-02,6.563948392868041992e-01
6.202802305139321071e-01,6.202290171336820590e-01,-6.295549314146720032e-03,7.016842160058055266e-04,-3.717925953936615860e-03,-2.656799653549075154e-03,6.266013383865356445e-01
6.209779579888142775e-01,5.076601152341950751e-01,3.570353283984001314e-02,-1.245030116427231839e-02,3.703324283012075172e-03,4.409410414853008500e-04,5.381187796592712402e-01
6.195417965640691582e-01,6.204806396236670629e-01,-1.233211292485297816e-02,3.757183199754561618e-04,-6.307858850032153561e-03,-5.627169281739744823e-03,6.325136423110961914e-01
6.296068760764922390e-01,6.051236844918668201e-01,-2.874553230521104119e-03,-6.902265745717382252e-04,-9.027863669752196965e-03,-8.434777198808246848e-03,6.209721565246582031e-01
6.810581892012661509e-01,4.294906303526502267e-01,3.991285777643160948e-02,2.422150424087227139e-02,-6.461738501250473277e-03,8.668376970308163884e-03,5.614026784896850586e-01
6.290200166527186720e-01,6.205640823445667253e-01,-1.134642053007806073e-02,3.428884256026912443e-03,-1.319643067267115824e-03,4.794621434964133310e-05,6.362124681472778320e-01
6.195113942367757032e-01,6.111721666754381665e-01,-1.212590894128590113e-02,-4.565071733867754488e-05,4.107938714338775846e-03,3.125826923815788142e-03,6.275729537010192871e-01
6.247861712624919184e-01,6.200462472957726234e-01,-3.746896910002128767e-03,2.045302393218948866e-03,-4.454588276025879881e-03,-6.374315670674477298e-04,6.262350678443908691e-01
9.800050003743515648e-01,2.734265746495404548e-01,-5.210263959639316322e-02,-9.690713475104616170e-02,7.282491672727695910e-03,-6.396908322901448396e-02,9.358645677566528320e-01
5.785421763394180683e-01,5.615769288124869973e-01,3.440010662074738379e-02,-1.081677075184312234e-02,2.240173841856639338e-03,5.467751233774753323e-04,5.362032055854797363e-01
6.256147182991542710e-01,6.059903484335610324e-01,-8.648900020344907347e-03,-4.718724695449357485e-03,-8.644462322754469311e-03,-7.568929732429664076e-03,6.250529885292053223e-01
6.255513776237171530e-01,6.057717752694764535e-01,-1.318853615689941083e-02,-2.534640205652595110e-03,-4.923887661972314693e-03,-2.072235484286756926e-03,6.291667222976684570e-01
6.202241288440044631e-01,6.172890420795773547e-01,-1.105779361446157516e-02,1.595797676521927598e-04,4.877031171202905573e-03,3.038036109616051514e-03,6.298981904983520508e-01
6.677329599805110760e-01,6.442888010726510739e-01,9.542230699795767324e-02,8.746527663909930972e-03,2.829864119062905706e-02,-2.737695094997649736e-02,5.652894973754882812e-01
5.193335661527175295e-01,5.921166630104974793e-01,3.591234156129169408e-02,-2.150441049201227278e-02,4.245263720536832444e-03,3.115014134407202966e-03,5.250226855278015137e-01
5.733128759976161559e-01,6.704971175564513608e-01,-7.812985447309961362e-03,-1.082452134178068896e-02,5.243123358272395312e-02,1.726556100687434009e-02,6.427450776100158691e-01
5.907187485133181815e-01,5.555104919219200355e-01,3.164637555553528880e-02,-8.512892082575064176e-03,4.622389268667329888e-03,1.071702246513338936e-03,5.425887107849121094e-01
5.875327488706536538e-01,5.993616253433677876e-01,1.161293791590106705e-02,-7.961719535737052725e-03,7.701816196964368644e-03,8.023017445669479095e-03,5.824064612388610840e-01
5.908501692146511663e-01,6.084951016588109329e-01,-2.817495708817452371e-03,-3.576486921358662530e-02,2.677584472391752665e-02,2.141202324437509533e-02,6.087622642517089844e-01
5.551042043431724249e-01,5.915336216153133098e-01,3.579296235194051601e-02,-1.003020784016532552e-02,-4.317143310463074937e-05,-3.548879706643191020e-03,5.387662649154663086e-01
5.634423637833892995e-01,5.757845674369147515e-01,3.042136024604275013e-02,-1.207568111811959354e-02,-1.347592587560601622e-03,-3.350361466223015974e-03,5.397397279739379883e-01
6.073597303719779905e-01,6.164752793662761077e-01,-1.164842160053741749e-02,-3.898567135329068616e-03,3.020321372199515856e-03,5.205598142685867978e-03,6.237395405769348145e-01
6.532419738598957970e-01,7.069809591304124785e-01,2.766232149945629937e-02,-3.636031849802762173e-02,-2.196785777486398236e-02,-1.715981710297031582e-03,6.582390069961547852e-01
6.931936819562996011e-01,4.318774020568607597e-01,2.026891291195015432e-02,-1.653263601526153625e-03,-4.454863435262628769e-03,-2.454817003761488106e-02,5.891886949539184570e-01
6.041264967559293320e-01,5.720772818037204166e-01,1.974135345207095327e-02,6.227731448949277299e-03,7.340014143949598509e-03,-1.796140249972721014e-03,5.692905187606811523e-01
6.102999044555248442e-01,6.074809809068162370e-01,-4.857734730215834684e-03,-2.237694587358483173e-03,6.197943895974114374e-03,4.167606245982004645e-03,6.139016151428222656e-01
5.892152333313183110e-01,5.958850028312572267e-01,1.572047999224668313e-03,2.021552038009927482e-03,7.391839195123449391e-03,-1.397442097734705353e-03,5.911602973937988281e-01
6.172703073608605262e-01,6.151946235787641992e-01,-1.417817843638452535e-02,-6.477759210129452826e-05,-3.855024913607398799e-03,-2.678301022218790729e-03,6.304656267166137695e-01
6.258384345244483171e-01,6.086965208496490920e-01,-1.368943725940918732e-02,-6.381196351554764253e-04,-5.666235299973449227e-03,-3.618828912613796748e-03,6.312399506568908691e-01
7.028341190704616714e-01,6.639597130779992806e-01,3.911666605896108040e-02,-6.377826732916370978e-02,-2.116397778828846363e-03,-9.411529408184744760e-03,6.547614932060241699e-01
6.016212398882144763e-01,6.373970636675114765e-01,-9.596484209078326444e-03,-4.686079849199118038e-04,-5.112655089494382629e-04,-5.624560785229993677e-03,6.299445629119873047e-01
6.262468854780147698e-01,6.288613471989210613e-01,1.379057279611400899e-02,1.927987962488325949e-03,-6.663932665794108229e-03,-1.026219226784541062e-02,6.141425967216491699e-01
5.420987644502390790e-01,6.134954402260024420e-01,3.459335272602487299e-02,3.225094739215848133e-02,-3.134378750947286289e-04,-5.561579265355772600e-03,5.496425032615661621e-01
6.244344940315453840e-01,5.862397028151844491e-01,-7.203830256331089643e-03,-4.653084033416440661e-03,-1.351049258609275834e-02,-7.567664316502655669e-03,6.140723824501037598e-01
6.280861184210734249e-01,6.068678510305132168e-01,-1.210281346111297118e-02,4.754192256598792745e-04,-5.759974478159225926e-03,-6.565887664608938482e-03,6.300300955772399902e-01
5.831734953859806225e-01,6.387001425418080691e-01,4.647746228005400493e-03,-8.036262506580157949e-02,-6.846616683737112574e-02,-2.977734642773476395e-02,6.371783018112182617e-01
6.340888809651764602e-01,4.796975028596104917e-01,3.278175792549464784e-02,2.725822189454167946e-02,-6.343925727076094902e-03,6.472241284390438604e-04,5.430666208267211914e-01
6.196973490764264847e-01,6.095726340439362456e-01,-1.271090572100425087e-02,-1.120186901833695190e-03,-5.619768467766208392e-03,-2.672503717997052990e-03,6.275027394294738770e-01
6.632240926637936740e-01,4.415135979854749593e-01,3.885591516729630657e-02,1.659278798528818211e-02,4.522215341453933272e-03,-1.357113704028752033e-03,5.490491986274719238e-01
6.156906840487759158e-01,5.893160647550022002e-01,-7.886410323919124110e-03,-5.006300038900886838e-03,-1.176365639870045714e-02,-8.392029184330469793e-03,6.113910675048828125e-01
6.356451539908142268e-01,6.182438018588543027e-01,-8.790049619298578865e-03,-6.207627727227289956e-03,1.349771257285116649e-03,-2.833011846124576950e-03,6.360272169113159180e-01
6.969743468218473348e-01,4.179244977266012850e-01,3.615616106576013955e-02,4.374224824850652532e-03,1.107725141348503157e-03,-3.108674607626827724e-04,5.746387243270874023e-01
6.389201279173766235e-01,5.439802088315065509e-01,9.506650692765128419e-03,1.212550839665864529e-02,-1.394318684657916939e-02,1.607980774744297361e-02,5.892524719238281250e-01
6.418031398618918582e-01,5.657846989724767406e-01,-8.005925045682371621e-03,1.039513363666828144e-03,-2.812536252964292988e-04,-1.434857531598998474e-02,6.158362627029418945e-01
6.318845297726753962e-01,6.193759749895368927e-01,-6.238746463355537841e-03,1.008919630628236962e-03,4.320488206571414529e-04,-9.262722987123430665e-04,6.319667696952819824e-01
6.360412428642387983e-01,6.134685054974008400e-01,-8.794917851917105622e-03,2.778618973790124552e-03,-1.137100716615835946e-03,-3.019474071244861429e-03,6.338942050933837891e-01
6.224810316959110690e-01,5.466919927948161728e-01,1.656934206083593430e-02,1.041371260627822586e-02,1.342715761654098179e-02,-2.067352317173585304e-03,5.725648403167724609e-01
6.584685613198566490e-01,5.932179592678163971e-01,-9.146822949052280105e-03,-3.446428016646754799e-03,-2.192889770690417250e-03,-9.656378809214256551e-03,6.377581357955932617e-01
6.255254206749396584e-01,6.089674599604695260e-01,-5.755221666777332601e-03,-3.584979439797009865e-03,-1.267030164864714654e-02,-1.344465366001462887e-02,6.240185499191284180e-01
6.482035366169973667e-01,5.648181714933595554e-01,-8.063455572855704467e-03,9.049190115374273861e-04,-1.606926872361287215e-03,-1.354652983053546665e-02,6.192553043365478516e-01
6.435617038515845101e-01,5.717972221444784786e-01,-8.261926166834077101e-03,-6.384649203205939975e-03,-7.370055248379640128e-03,-5.838341194511706585e-03,6.193818449974060059e-01
6.296558178530489158e-01,6.198743439727218973e-01,-1.019941215097808218e-02,-7.986540511992467608e-04,9.330999781635720101e-04,-2.838460170411450040e-04,6.350247263908386230e-01
6.606657941300762005e-01,4.832975506984616421e-01,1.692393406037195902e-02,1.660874614006882868e-02,1.500644591208043048e-02,-1.707503133598422748e-02,5.779805779457092285e-01
5.014479802043951828e-01,6.293408958554825849e-01,3.318134902792346796e-02,-6.048923264514921572e-02,3.560124366915223913e-03,3.846185851962793511e-03,5.536943674087524414e-01
6.269287100955751590e-01,6.275613113858520276e-01,-2.417286353949832378e-03,3.347274975739454421e-03,-8.742756082733433784e-03,1.854885996182457399e-03,6.298794746398925781e-01
4.570136912303955357e-01,6.644148892341998902e-01,1.167956090533728286e-02,-1.731047972566172322e-01,1.808512331631681458e-02,-1.147818022796784007e-02,6.518993973731994629e-01
6.782834764710379272e-01,4.526042971802478609e-01,2.112148665895352551e-02,1.396310057838867462e-02,6.012980608000915474e-03,-2.396541192640206167e-02,5.804322361946105957e-01
6.294374683453786146e-01,6.242325272775315348e-01,-3.533131803030165052e-04,1.849739173139071857e-03,-6.817429990531280329e-04,-3.644423721792098680e-03,6.272455453872680664e-01
6.876795252201406417e-01,4.182248466793433428e-01,3.838317940962482355e-02,6.572882318446038145e-03,4.271900417667601375e-03,2.971484322832802522e-04,5.651727914810180664e-01
9.433639627244853054e-01,2.226427608031190664e-01,-9.921463629397547779e-02,1.216425914745772191e-01,-1.220244394901795655e-02,2.752507605813798303e-02,9.497952461242675781e-01
6.540846517499939727e-01,5.252973118638600836e-01,2.948873281967911986e-03,-6.789921141452523283e-03,-1.616569175537414457e-02,-1.261143620539356171e-03,5.980242490768432617e-01
6.272790492467197332e-01,6.237482572074058984e-01,-7.010946434511000636e-03,2.740299541498540745e-03,-2.002909308437113289e-03,2.521959315358489155e-03,6.325743794441223145e-01
6.269620119346972498e-01,6.273389850622080877e-01,-2.448978943828672428e-03,2.873028928228590472e-03,-8.585634030635929531e-03,-6.870726111818167316e-03,6.299072504043579102e-01
4.549456752358803646e-01,6.652041362252631984e-01,3.875550445394115862e-04,-1.461492419648707242e-01,5.332851000588877122e-02,5.570801892057032634e-02,6.544670462608337402e-01
6.049148526058827358e-01,4.651346244371872274e-01,5.301150213483935003e-02,-2.349687781241742990e-01,3.524165411893485922e-02,5.837038950693342054e-02,6.531223654747009277e-01
7.511306382088276390e-01,2.358179760717430684e-01,-1.119096823088950865e-01,1.829539971035051837e-01,-2.809714941828258053e-02,3.394934005599987287e-02,8.196905851364135742e-01
3.511879979573948596e-01,6.999945596020265004e-01,1.844145487252546456e-02,-7.420706548126225488e-02,5.581050700471475168e-02,2.896982232970403588e-03,6.118334531784057617e-01
6.223321076501169280e-01,5.571940493566560626e-01,5.336188749568315792e-03,-7.398859216724853159e-03,-1.626127107849089856e-02,-1.430781576366550734e-02,5.884799957275390625e-01
5.799553475311420847e-01,5.801139001442203735e-01,1.218217730436893520e-02,-1.905509713342491696e-02,-1.249469917964336242e-02,-9.806300368545935522e-03,5.694757103919982910e-01
6.112300943771552530e-01,5.888695065341276180e-01,-1.464873027500868119e-03,-7.891747613771891989e-03,-1.002837758339788533e-02,-4.886249716493676516e-03,6.022915244102478027e-01
6.285159738347612102e-01,6.269753714039739689e-01,3.875217992411789103e-02,1.021845210213702957e-03,-8.528576636419179461e-04,-9.215073845705494190e-03,5.892157554626464844e-01
5.807154193549276533e-01,5.782913618454319504e-01,1.883154682845922245e-02,-2.972353904545612085e-03,-1.461794056286898303e-03,-6.616246933311483759e-03,5.608222484588623047e-01
6.207837660945568770e-01,5.076317215040350161e-01,3.486152129525038612e-02,-1.657068468557628543e-02,-6.020863083992871248e-03,-2.879387727838082518e-04,5.392056703567504883e-01
5.760390805614666876e-01,5.880487827209863738e-01,1.933817476095939236e-02,-5.479214901836485310e-03,-1.306109836461902740e-03,-6.278953493587123742e-03,5.629914999008178711e-01
5.946341122373625110e-01,6.007815557630207248e-01,4.135107455840503210e-03,2.438722291665322800e-04,-1.721225124325316590e-03,-7.561368318415146415e-03,5.937486886978149414e-01
5.707995901727583865e-01,6.035608098778943997e-01,2.036065689361554742e-02,-4.634221990172189033e-03,-5.477260579111807408e-04,-7.777627878980893777e-03,5.677465796470642090e-01
5.569241450924676817e-01,6.241497190873129819e-01,4.730084988328886464e-03,5.427979248388736973e-03,1.281969933642508564e-03,-1.372222249792174296e-02,5.892515182495117188e-01
5.849355750421987299e-01,6.297901182642953177e-01,-8.775045345111698314e-03,-4.071185258751472240e-03,-1.360450574642360633e-02,-1.082052538374903700e-02,6.181351542472839355e-01
5.601986484421097590e-01,5.952474376774982145e-01,2.193620398142581696e-02,-5.204779624210531010e-03,-4.040439436381645065e-03,-1.070819396089983493e-02,5.570409297943115234e-01
6.006870501686926156e-01,5.688862784501607095e-01,2.041404116041545258e-02,-3.401193799832820473e-03,-1.114330501815835074e-02,-2.273424456190797829e-03,5.654181241989135742e-01
5.706260816560871918e-01,6.021600796904350572e-01,4.158086637398694663e-03,-6.853275134815786825e-03,1.168546921972996174e-04,-9.974737973239427430e-03,5.832519531250000000e-01
5.708729904111801146e-01,6.023093140635681353e-01,1.856104010336295795e-02,-5.723002649212898321e-03,-2.662104784179984609e-03,-1.238632948094772063e-02,5.691916942596435547e-01
5.843291423300672749e-01,6.095221389650771204e-01,1.967651990249230654e-03,-6.266106066541016206e-03,-1.684403810284016215e-03,-1.229525538103647293e-02,5.958446264266967773e-01
5.670375133095630904e-01,5.866073874269023269e-01,2.177435313378900394e-02,-9.798489600012266071e-03,-5.198723626138005739e-03,-8.389263072822717576e-03,5.558289885520935059e-01
6.192143076935745505e-01,6.161025098858196047e-01,-1.486902371154619207e-02,-2.007632430281923398e-04,1.828185203362189901e-03,-1.314239258770148787e-03,6.325452923774719238e-01
6.156009425382469313e-01,6.139483196636619233e-01,-1.482170298152646337e-02,-1.590069320916234232e-04,1.583783384783780425e-03,-1.964625881263310869e-04,6.296041011810302734e-01
6.470233714174955519e-01,5.218530568890829002e-01,1.628665764375014646e-02,9.537619795786675056e-03,1.154372446266120449e-02,-7.396477841222590544e-04,5.789828896522521973e-01
6.085271239020504375e-01,6.042302978078553100e-01,-7.293552850627382789e-03,5.817349758580885911e-03,6.045177478957440217e-03,-1.375854395359805363e-03,6.138601899147033691e-01
6.190433467171567727e-01,6.207396054568227184e-01,-1.205392997699350488e-02,-1.037179974124348512e-03,2.829129568538799044e-03,-2.889411518759760125e-03,6.319884657859802246e-01
5.900886197220452933e-01,5.816413217963918303e-01,1.901600602965725084e-02,4.787996048247779995e-03,7.743732823466912413e-04,-1.466925451114903028e-03,5.669640898704528809e-01
6.115440412054176100e-01,6.026269361499752009e-01,-9.317283092892425511e-03,-6.125266797357220919e-03,-1.010718639241849938e-02,-9.352115668187456141e-03,6.170035600662231445e-01
5.464945340643140304e-01,6.027260588496463622e-01,2.126094870362238431e-02,-8.609261194501720282e-03,-5.355332182498516273e-03,-1.204814511440463649e-02,5.561572313308715820e-01
5.971886029818567199e-01,5.388832256345947869e-01,2.940790301215734370e-02,-1.600942590056523770e-02,-9.123257783065583798e-03,-7.900052545566062234e-03,5.421029329299926758e-01
6.085977761840217770e-01,5.615851888105786172e-01,4.281085495012104669e-03,-9.848059350622960506e-03,-1.792692474815503478e-02,-1.521200200260362269e-02,5.839072465896606445e-01
5.626198486263900289e-01,5.947048648532239357e-01,2.978640258566694898e-02,-3.404166263826625266e-02,-1.565293135107896291e-02,-1.263776794279984975e-02,5.538299083709716797e-01
6.351392530041795048e-01,6.258428744372135366e-01,3.236993914790986526e-03,-1.009846573982870754e-01,-4.646244702820129246e-02,-4.836871744647697202e-02,6.615142226219177246e-01
5.839167996580142406e-01,6.134357150827254301e-01,-3.008323102825560813e-03,-6.144635322688021123e-02,-4.596623082724086290e-02,-4.821902445053539293e-02,6.223493814468383789e-01
4.513458436911656491e-01,6.813257193693986746e-01,1.994543391598346815e-02,1.378904752984855264e-02,-2.732884740985639868e-02,1.240341333953434363e-02,5.843654870986938477e-01
5.322658671157081134e-01,6.412768269410964450e-01,1.007292137265969334e-03,7.965742140985745956e-02,-5.549215779373412039e-02,2.252694783421427607e-02,6.179227232933044434e-01
5.248974465530623634e-01,7.353069858409749804e-01,1.021014202256675940e-02,6.294630475116250179e-02,-5.324055835706164447e-02,1.766190420790578891e-02,6.624171733856201172e-01
6.268314740634600701e-01,6.191065447833641322e-01,-1.168895312039519574e-02,-9.046765305206214483e-04,2.331226869266590177e-03,-1.719281017146506024e-03,6.347149610519409180e-01
5.163572130902464030e-01,6.773766042596476300e-01,-1.580460781411607840e-03,9.084148935711985548e-03,-2.448195060604313120e-02,7.323581223989746904e-03,6.162720918655395508e-01
6.157670694548222912e-01,4.898810390101571155e-01,1.526870589858836391e-02,1.983829948202368854e-01,4.417282393228640081e-02,-1.115414462875731899e-01,6.797770857810974121e-01
6.769819294819023892e-01,3.788545685473141411e-01,1.261949569254638970e-02,-1.584012837072188984e-01,8.821567865637484213e-03,1.234056854345446340e-02,6.388708353042602539e-01
9.516739186622554802e-01,1.747365877622938379e-01,-9.886154176073630451e-02,4.093254398283675127e-02,-8.207579015670216430e-03,5.158963699272851172e-02,9.509306550025939941e-01
5.957711148426563241e-01,5.206242445090381032e-01,2.842759439963182810e-02,-1.159809882664528113e-01,1.706754461095156758e-02,3.932129392741949775e-05,5.710694193840026855e-01
7.680000587284934177e-01,3.399214704376340990e-01,1.804853312911192109e-02,4.251612886017439724e-02,1.190827721391695543e-02,-5.032506574710282621e-02,6.618810296058654785e-01
6.445226639461879570e-01,5.700822487305021724e-01,3.122073755754684043e-04,2.049711194588418797e-03,1.045088563260102021e-02,-5.678473218611526522e-04,6.106835603713989258e-01
6.265857409876287587e-01,5.854117266320227886e-01,1.036392477365644105e-03,2.308356242989270321e-03,1.103372519868439650e-02,-2.981660267483724532e-03,6.063487529754638672e-01
5.815201486672580966e-01,6.321072050803046016e-01,4.247889538839089152e-03,7.192467651140968532e-02,5.826883478967616325e-02,-2.611075863578435699e-02,6.267020106315612793e-01
6.312107588476512099e-01,5.246805813192946255e-01,2.278478934528921362e-02,-4.334142721160567230e-02,1.130355092918989938e-02,7.949496874469689708e-03,5.682635307312011719e-01
6.540547450224156734e-01,5.258788198756920718e-01,2.226456150802008649e-02,-7.093128778191576042e-03,-1.356701156102024623e-02,-2.323814875649002961e-03,5.790742039680480957e-01
6.388511774064482562e-01,5.729089058851404292e-01,-5.705136266014321222e-03,1.378378519565451659e-05,7.498649331901241326e-03,-1.145108602494094609e-02,6.147029995918273926e-01
6.189324575764636460e-01,5.456414552871715617e-01,1.978347731809171339e-02,-9.693984415903959817e-03,-1.158191519354588583e-02,-1.930503149229132820e-03,5.666871666908264160e-01
6.397708394324745917e-01,6.139481526226931996e-01,2.260024321549369830e-03,1.211202896213350519e-02,2.300771304614186372e-02,-3.442157168370959391e-02,6.294500231742858887e-01
6.390573695534440546e-01,4.852598112493894389e-01,2.341197415628015754e-02,2.105542570281222423e-02,1.840808405133368547e-02,-2.379121335386813474e-02,5.585989952087402344e-01
6.433086449422300568e-01,4.914206236325140420e-01,2.385656940475450183e-02,4.597835243255560950e-02,1.694444618807570968e-02,-2.138621233580265818e-02,5.668147802352905273e-01
6.162715379435772522e-01,5.180909042101816686e-01,5.951650548554343612e-03,1.311439510101730377e-01,3.319673609727484542e-02,-7.251881509326442432e-02,6.268073320388793945e-01
6.204749881301094838e-01,6.195087429075438745e-01,-1.313625068155799269e-02,1.242490222071794071e-03,-3.376870240536497970e-03,-3.295570545443480583e-03,6.331850886344909668e-01
6.505827290650577632e-01,5.244556267489355328e-01,4.999032837841088650e-03,6.473962788067044727e-02,2.512151590299921411e-02,-4.082722271051154178e-02,6.088746190071105957e-01
5.924493226818405844e-01,5.808959519928892368e-01,1.986199371377328493e-02,-1.307086241888832370e-03,-6.386382026649380962e-03,-1.414482260223357294e-03,5.670166611671447754e-01
6.358261378312879408e-01,5.485894085896654282e-01,3.714206778463624570e-03,2.999720398389827195e-02,1.744549311421511942e-02,-1.357787879422337309e-03,5.963643193244934082e-01
6.090378177029018847e-01,5.861670230227621348e-01,6.913899189710137616e-03,1.903529420419625834e-02,-1.549197549957678256e-02,1.352109305047484965e-02,5.930098891258239746e-01
4.962888197756423758e-01,5.446821590698620597e-01,2.012161957759117659e-02,-1.429506846996915215e-01,2.603371782054057088e-02,2.201080215243680221e-02,5.629492402076721191e-01
6.197356345575930625e-01,5.295255243162608760e-01,3.108085146166250645e-02,-1.014992490305706083e-02,-1.229152463534677678e-02,-8.813835697467426594e-03,5.500409603118896484e-01
6.108530472772294440e-01,5.876423431732614722e-01,2.986804802373788092e-03,3.018824101811480609e-04,-1.263963180892425930e-02,-1.295200827911073939e-03,5.970056056976318359e-01
6.012920375110812898e-01,6.038463685670695247e-01,-3.397838858635926496e-03,-6.468905327071802422e-04,-2.428008862342737311e-03,-4.453723247311969224e-03,6.060358285903930664e-01
5.921161404182702093e-01,5.568652742107245146e-01,2.951367515219116555e-02,4.159693989187567692e-02,-1.161510002364786118e-02,6.841616389246480551e-03,5.510607957839965820e-01
5.973465696680783088e-01,5.425734742624864770e-01,2.864588847706378560e-02,2.933619885745233219e-02,-2.425539962409790310e-03,1.183841616181291814e-02,5.461602210998535156e-01
5.936730740086110236e-01,5.781358865957502147e-01,2.007155508439767422e-02,1.406865925758682802e-03,-5.005394172690354020e-03,1.718077056480195883e-03,5.660723447799682617e-01
6.031001746045960843e-01,5.953103116825768648e-01,4.477616658361271984e-03,3.816690084984903850e-03,8.737529433126084379e-05,-1.563410173924572764e-03,5.948088169097900391e-01
6.162283133529725676e-01,6.198108013440837283e-01,-1.162101136709192684e-02,-1.083524256438807894e-03,5.910418436629882172e-03,-6.607898879418143412e-03,6.298382282257080078e-01
6.703910591490853665e-01,4.609640257883192982e-01,1.664185609702373281e-02,-1.571698129751877560e-01,-1.312729237171100967e-02,-4.406535610336318604e-02,6.440374255180358887e-01
6.787875692320908261e-01,3.616284730257619540e-01,3.141003107495932145e-03,-1.594314924462344740e-01,6.340281420620566717e-03,3.114175670677753194e-02,6.496814489364624023e-01
6.169550086282762358e-01,6.196055457145464018e-01,-1.441954036632325797e-02,-5.962847658429098530e-05,1.538588921886954383e-03,-1.907440501461799649e-03,6.327182054519653320e-01
5.919070184049464167e-01,5.925720386059494249e-01,2.995700122119415720e-03,-2.605599386593834312e-03,1.493638989681300494e-03,-6.609758307811402318e-04,5.892682075500488281e-01
7.200393704032632680e-01,4.593689120967057171e-01,5.445001562457696398e-03,1.662324338287330186e-02,-3.193245157297833897e-02,-5.233499151685284262e-02,6.359445452690124512e-01
6.812584399924836998e-01,4.207880627477414981e-01,1.652041725125447114e-02,-7.162403842315755165e-02,-1.701809149767471649e-02,-4.194579152236044273e-02,5.984263420104980469e-01
5.526870571221943473e-01,5.920906960069611813e-01,3.371245985536130974e-02,6.510131950559223946e-03,3.665410849294199009e-04,1.559447217597304371e-03,5.398811101913452148e-01
6.798507181354580542e-01,3.116772227964725306e-01,1.663181918411904547e-02,-1.710024474294010721e-01,-2.980780552115540934e-04,9.965470884354673403e-03,6.474991440773010254e-01
6.338686604476867492e-01,6.127275879492001254e-01,-8.507230267704946058e-03,-1.313679018334431192e-04,9.401032975207178821e-04,-1.013499191967043474e-02,6.323164105415344238e-01
6.194886379742361449e-01,6.231750855349410534e-01,-5.689574874909619773e-03,-2.199440857092311175e-03,8.355142732967210661e-03,-7.253600527214491486e-03,6.273339390754699707e-01
6.251979023763855059e-01,6.247842904814449039e-01,-1.087357291695417727e-02,-4.203905374507854384e-03,4.461660016306506597e-03,-4.962803840650241265e-03,6.360114812850952148e-01
6.160929708713751562e-01,5.735919946845715600e-01,4.156139024978855456e-03,1.885889658607526340e-03,1.295086224075039406e-02,-6.612487765292308917e-03,5.923766493797302246e-01
6.395311783716509657e-01,6.028224380729404475e-01,-6.085217963233024996e-03,3.266409897530345250e-03,5.643147525466722485e-03,-7.872288006701134294e-03,6.283165812492370605e-01
6.285013650681222641e-01,6.194952588737183685e-01,2.554934010817178081e-02,1.827012216600864668e-03,-3.203324285832893394e-03,3.585623923850844372e-03,5.985661149024963379e-01
9.430788165217491859e-01,4.661755439870811091e-01,7.906513967325967673e-02,3.200610137060216215e-02,1.436637561992613844e-03,-1.443114271095906620e-01,7.921251058578491211e-01
6.390257118735712671e-01,6.100887233316986125e-01,-9.141530366236161331e-03,9.134871690613155558e-04,4.154840995312679419e-03,-7.345516595473011029e-03,6.343644857406616211e-01
6.772874706005267420e-01,5.554107122486637849e-01,-1.969406993930222782e-03,-1.273789107580234302e-02,-8.069460309465601236e-03,-2.331892744772542936e-02,6.291038393974304199e-01
6.289382141228623269e-01,6.158304243548388124e-01,-9.749551590511273957e-03,-4.550133128343329984e-05,2.966765743235078630e-03,9.934433343438654144e-04,6.322590112686157227e-01
6.303338252562977750e-01,6.079687719619375486e-01,-1.034462734118030136e-02,2.329651080099851088e-03,6.919005412334796289e-03,-4.734555073916396108e-03,6.299741268157958984e-01
6.486104517131822123e-01,5.578969950706598180e-01,-6.448782960962740063e-04,2.199083801878426025e-04,9.491525264560112321e-03,-4.297566502697097658e-04,6.092094779014587402e-01
6.468417270479788206e-01,5.915446291566791581e-01,-7.568546147826760162e-03,2.341815068072101579e-04,-7.480436730295810617e-04,1.909774935275410221e-03,6.285987496376037598e-01
6.392045397471353141e-01,5.702937743702153339e-01,3.787300259970871608e-04,3.297042691695486940e-03,1.273077009967405610e-02,-4.419769539651786190e-04,6.077372431755065918e-01
6.281341851958585076e-01,6.199204771372005540e-01,-1.144219424255532580e-02,2.526484625817994279e-04,2.042245091645417641e-03,-1.905107850624750175e-03,6.355279088020324707e-01
6.344521224306145513e-01,5.800166803397712734e-01,4.593434503163795757e-03,-3.457780017001871320e-02,2.962597833334614655e-02,3.213504609616139179e-02,6.121408939361572266e-01
6.326005065201892874e-01,6.173637045999351702e-01,-9.511880375216719141e-03,-2.724276320765632239e-03,8.865435453209076239e-04,2.699918290220491238e-03,6.346678137779235840e-01
6.071601017375817255e-01,6.448313088175564589e-01,1.062225462562843559e-02,-1.571936406811002759e-02,3.669636864746198684e-02,2.650067718718912904e-02,6.218013167381286621e-01
5.948955858174831413e-01,5.594022188634970583e-01,2.439449161967782720e-02,5.294982871087291869e-03,9.214831337881810788e-03,-5.228221669407910090e-03,5.539883971214294434e-01
6.107669774247119765e-01,5.862793166511968135e-01,-2.318183539689377959e-03,9.614923806005646820e-03,-1.054278010512848737e-02,6.287467996279065899e-03,6.018217802047729492e-01
6.003309523077735577e-01,5.573748426486250240e-01,1.227168191723621016e-02,1.728445439116806787e-02,-1.171467628679188563e-02,6.723579022708255776e-03,5.690709948539733887e-01
6.090148766449241524e-01,6.139297086861456032e-01,-7.321865857617793072e-03,-2.577326706434139765e-05,1.088781655911943719e-03,-4.734196848094824814e-03,6.188660264015197754e-01
5.964636547428220359e-01,5.987872677674695998e-01,1.147631342087890305e-02,-5.025709242068353809e-03,-9.301874797156389416e-03,-9.352008155353053534e-03,5.866622328758239746e-01
9.397383916941532966e-01,7.462043733069303464e-01,1.339544168400575441e-01,-4.807870083954188939e-02,4.026478004833811955e-04,-1.700983919210571071e-01,7.902734875679016113e-01
6.300941227217512486e-01,6.210235232254083249e-01,-9.811689487253305586e-03,-1.555707685008971344e-03,3.272663478314337664e-03,-3.773256034377955783e-03,6.354836821556091309e-01
6.302564538593947718e-01,6.150197091292091134e-01,-1.377405583652507870e-02,4.946948520212439806e-04,-2.710628386458973846e-03,2.947531509387557179e-04,6.365669965744018555e-01
6.244578912602580800e-01,6.280387346915926594e-01,6.266755786554001340e-03,2.024024671906131563e-03,3.996303545216308394e-03,-2.102704980117837529e-03,6.200485825538635254e-01
6.309684432694042666e-01,6.198779286658925303e-01,-1.057880670445510152e-02,-7.750851589628529820e-04,8.898427908946608070e-04,-1.152826680975543123e-03,6.360809206962585449e-01
6.348262431304020348e-01,6.075268815669270239e-01,-1.029996250072440223e-02,7.290547389270019734e-04,2.520132281566666698e-03,-4.201699707392130695e-03,6.319772005081176758e-01
6.458731101888210979e-01,6.006580838994075577e-01,-7.148231670002780369e-04,1.367687921970944277e-03,-2.613442515314760156e-03,-3.799396101764378631e-03,6.252633333206176758e-01
6.182175527898214895e-01,6.220230395969108539e-01,-1.346161289375658043e-02,3.391523604827551344e-03,-2.187400006069806918e-03,-3.560967631258165050e-03,6.336590647697448730e-01
6.234656013127347629e-01,6.055346363117680708e-01,-8.811372951890494853e-03,1.238689233600964322e-04,-9.076156360286720751e-03,-8.726072772261384643e-05,6.237031221389770508e-01
5.996011708801762818e-01,5.881498872130622724e-01,3.330622407266781160e-03,-2.636262235301719842e-03,-7.982153406942676249e-03,-1.639155402212822505e-03,5.908144116401672363e-01
6.305600778094754277e-01,6.229657545683088271e-01,-6.928637106403678914e-04,-2.975821731653351641e-03,2.678133654764102822e-03,-5.231982375004784643e-03,6.275939941406250000e-01
5.848286022650737159e-01,5.872526721063080490e-01,1.343173241161660370e-02,-1.250179033447387442e-02,-9.921962410529268014e-03,-7.241174703017941132e-03,5.734168291091918945e-01
5.956222300682152415e-01,4.759711844122966884e-01,1.149922438038136763e-02,-2.186625134632268763e-01,5.966224955015823200e-02,5.666842232401787804e-02,6.703563928604125977e-01
5.578562898439937134e-01,4.601922980751671499e-01,1.756059447152180653e-04,-2.525980331832576309e-01,5.391637672352516883e-03,-2.706095770612527724e-03,6.764666438102722168e-01
6.131625125565692835e-01,6.133088181816210849e-01,-1.122513287009607730e-02,-3.000514778366538890e-04,-2.747151519460807462e-03,-1.755504170021164210e-03,6.244865655899047852e-01
6.092840749776805565e-01,6.112103714849616010e-01,-9.826513306668172021e-03,-1.042003135559443992e-03,-1.551514340579994043e-03,-8.218075881419749720e-03,6.202477812767028809e-01
7.180568153231108308e-01,3.354470736635159489e-01,1.908164539516421510e-03,-1.580742061774340901e-01,4.938236018617250117e-02,9.914158482635003489e-02,7.049957513809204102e-01
7.239574444216057003e-01,2.070338551855352427e-01,-1.053014158002136824e-01,-2.118819470226184221e-01,6.346745763585241729e-02,5.723277898583125495e-02,8.263230323791503906e-01
5.660513902533498287e-01,6.016723862147184132e-01,1.570894216668861088e-02,3.386896302734000979e-03,1.159470902567215746e-03,-1.026117888656971622e-02,5.693010687828063965e-01
6.022713570805316996e-01,6.095410663357228032e-01,-7.395286619463703470e-03,2.123218108418006844e-03,5.335807680428954203e-03,-1.023171226322984895e-03,6.134170293807983398e-01
6.927434734907162994e-01,4.250695560150472008e-01,3.112700568927406763e-02,-6.306339755495578292e-02,5.894996141262386774e-03,1.748899517824619582e-02,5.875721573829650879e-01
5.931142120968716513e-01,5.483148560952549877e-01,3.512518867761887931e-02,-3.733711130266400419e-02,-2.863901053702008846e-03,-1.575669343781671561e-02,5.415835976600646973e-01
6.172344043991421225e-01,6.134010069852265934e-01,-1.620653014343670373e-02,4.857863057253515430e-04,3.263537489347236292e-03,-3.261548886617737200e-04,6.315590739250183105e-01
5.629962543738722403e-01,5.656353913609837303e-01,3.264743502491335159e-02,-9.803381340591210691e-02,2.689125925735217151e-02,2.961165499970451129e-02,5.624129772186279297e-01
6.199806551551886313e-01,6.196379440269936811e-01,-1.207338074699898511e-02,-1.127912394496506437e-03,3.142665140794878142e-03,-3.263712368699569783e-03,6.319345235824584961e-01
6.132922622330695406e-01,6.090396158476205635e-01,-6.889140035574004006e-03,2.117808483341513618e-03,3.981183158359418578e-04,-1.020567053759908636e-03,6.180798411369323730e-01
5.214723925529454185e-01,5.906287573254072054e-01,3.185069915651816963e-02,-2.328372769606915429e-02,-1.409503565033673597e-03,4.528577561880048775e-04,5.291553735733032227e-01
5.612369100804958100e-01,5.772352409752585789e-01,3.449012119848482438e-02,-1.085779783885058164e-02,-1.020387449543294286e-03,-8.336495846284729117e-04,5.352607369422912598e-01
5.524218794688018352e-01,5.916214127117599419e-01,3.500344189781773308e-02,-5.892499447191302045e-03,-1.571456875915300299e-03,2.734145281894806326e-04,5.381940007209777832e-01
5.846966421066440711e-01,4.727669472852527588e-01,2.585340841472022477e-02,-1.807939398660128039e-01,-9.139196441872011675e-03,-3.408844550252006569e-03,6.005228161811828613e-01
5.834343241010045977e-01,5.858443236484157657e-01,2.335260901392421928e-02,-1.067482217174628781e-02,-7.085361252438318602e-03,-8.425030758899406877e-03,5.619186162948608398e-01
6.224207493976396943e-01,4.948556491440179728e-01,1.820166055727118204e-02,3.217257113979919703e-02,1.320946161147079634e-02,-8.092907719529163560e-03,5.550689101219177246e-01
6.090605592152095182e-01,6.111001457192734021e-01,-4.724794793915576552e-03,-1.111620637180964254e-03,-6.297044716595650779e-03,-7.925154545724753807e-03,6.150606274604797363e-01
6.237872976549516668e-01,6.240476889204028543e-01,1.594850125711294586e-02,-2.664897992835872382e-03,2.666495433681965836e-03,4.571058671918104728e-03,6.080556511878967285e-01
7.189566386689763000e-01,3.213969586951085367e-01,3.186061902731290862e-02,-2.424070071031475537e-01,-3.004214953543902101e-03,8.564198003050674246e-02,7.451893687248229980e-01
6.237652741457435646e-01,6.150081411810691678e-01,-1.451840878531746037e-02,-1.095097293333482241e-03,2.621182074749445461e-03,-5.426430981596132519e-05,6.339696049690246582e-01
5.568326201392291841e-01,6.024178051560623581e-01,1.824563697047149047e-02,-1.055598062134492816e-02,-1.876520359117100217e-03,-1.350688723347304165e-02,5.635580420494079590e-01
6.325833095101406345e-01,6.190295322315900739e-01,-6.032362924392409287e-03,-2.774753798921207864e-03,1.053633439801811940e-03,-4.043733632962393638e-04,6.319690942764282227e-01
5.298236276327419336e-01,6.502140066480341929e-01,2.020615244853030124e-03,8.133224429293171853e-03,1.623708589117737328e-02,-1.523207115285332876e-02,5.985797047615051270e-01
5.527146354844455489e-01,6.817271582015256293e-01,-6.870200973199347416e-03,1.476989771998644257e-02,3.110561374212467839e-02,-1.026760165937076752e-02,6.370606422424316406e-01
6.377047395653154815e-01,5.985947887502378606e-01,-7.690004237753955696e-03,4.999480932483343519e-04,5.636643269664481926e-03,4.681148943158479911e-04,6.268327832221984863e-01
6.299050418134419793e-01,6.158184813399047997e-01,-1.312523038234308936e-02,-7.685120822188636113e-04,1.929075722641113112e-03,9.183568996436806790e-04,6.361161470413208008e-01
6.339892060084946213e-01,4.786410530579569000e-01,3.584399184757319778e-02,-2.755398795632965983e-02,1.775490029231631016e-03,8.428952232710378066e-04,5.397029519081115723e-01
6.118106784357650874e-01,6.113713391496130578e-01,-1.245786728292502810e-02,1.596881897863149796e-03,4.505957289272689674e-03,-3.230449308525299313e-03,6.241289973258972168e-01
6.190134907225289806e-01,6.144129376702778256e-01,-8.821571210531953255e-03,3.714399552325031370e-03,5.887754561083687575e-03,-7.258013716431263931e-03,6.257899403572082520e-01
6.084480323544599889e-01,6.355507878872885819e-01,-1.035989153203759061e-02,-1.708200202646096514e-03,6.082599876687658398e-03,2.887346523031790891e-03,6.329091191291809082e-01
6.075463194232547659e-01,6.401139208585568952e-01,-1.036003381486994002e-02,-4.420143704849991383e-04,6.583473865489347134e-03,2.150255511949734997e-03,6.349307894706726074e-01
6.178889159154631328e-01,6.314768189345492111e-01,-9.595335273700711376e-03,1.156987352328444794e-03,4.174801374538829324e-03,3.653017725012393593e-03,6.344632506370544434e-01
6.365808148301694835e-01,6.213901938684190940e-01,5.901506312556092926e-03,-7.965615142027895196e-03,5.284070242509930626e-03,-2.800960318016442949e-03,6.234616041183471680e-01
6.073154940706173566e-01,6.119024561943409157e-01,9.390470577775311689e-04,1.374315992099654771e-02,5.553111450847364114e-03,-5.193113693693956513e-03,6.092904806137084961e-01
6.236580811112484302e-01,6.104984361024194950e-01,-1.362315417578818799e-02,-1.097959154961332959e-03,-5.980279765953184362e-03,-4.187399217069548603e-03,6.309339404106140137e-01
6.375935034095254750e-01,5.997778876856485475e-01,-1.025043499235600564e-02,-2.713077390220653036e-03,-7.368633173656683952e-03,1.059120156731189832e-04,6.299350857734680176e-01
6.255704185667367856e-01,6.457954354214081594e-01,-1.975370725515124271e-03,-2.920094075678747805e-03,4.456711035655087742e-03,3.516792144983690773e-03,6.379946470260620117e-01
6.067386666340706114e-01,5.956981367609319733e-01,3.425647118150798587e-03,-1.450070868773497721e-03,7.036394783746796264e-03,-1.311162187462440150e-03,5.980030298233032227e-01
6.276088668499560930e-01,6.223104646222819003e-01,6.835302683795729806e-03,2.798101764576901677e-03,-2.089517295145729842e-03,-8.975588598160994100e-04,6.181729435920715332e-01
6.121201133238743930e-01,6.132072928785338162e-01,-1.166693896589515722e-02,-1.975820549344557405e-04,-2.459038741793328781e-03,-3.138865804625353556e-03,6.243696212768554688e-01
4.714498620339457879e-01,6.836010820954661060e-01,1.724606462825734043e-02,-1.229299673853726099e-01,2.766037184580850961e-02,3.728127084626047666e-02,6.320359110832214355e-01
5.962518451489684512e-01,6.406909546964194568e-01,-8.410886356662206076e-03,-1.247967885097212969e-03,6.790035882886531933e-03,-2.467760514901610764e-03,6.281908750534057617e-01
6.298485312185861940e-01,6.242759129808850282e-01,2.686326764683222290e-03,1.093152730158366073e-03,-3.514313217922364861e-03,-3.300295747940649050e-03,6.244532465934753418e-01
6.310429186097231691e-01,6.000865573081393123e-01,-9.599110323031567749e-03,-1.285316165053288200e-03,-4.885560098303728602e-03,3.653602111244058930e-04,6.257998943328857422e-01
6.239457514180949405e-01,6.054707126514027316e-01,-1.113230498940082080e-02,1.239235961699464302e-04,-8.224130688054973742e-03,-8.729832037882366655e-05,6.262071132659912109e-01
6.176497865640363516e-01,6.039150423458755634e-01,-9.645639920215776097e-03,1.431361042117042627e-03,-8.232831017343237440e-03,-8.830264467267475792e-04,6.207126975059509277e-01
6.244760610654506161e-01,6.309254560017050206e-01,3.296856388582958264e-03,2.437493082147272269e-03,1.174750319724430885e-02,7.074553878064659962e-03,6.248947381973266602e-01
6.231159576200469008e-01,6.333323469275661255e-01,2.647391086663586357e-02,8.600987754405143215e-04,-6.328886425501099346e-03,4.227551357086750108e-04,6.019173860549926758e-01
6.388982836896264228e-01,6.540305611470921265e-01,-1.431023484185856010e-02,2.912008262394984448e-01,5.446361467407090373e-02,-6.167136949268202384e-02,8.435031771659851074e-01
6.134048402212064488e-01,6.093337919168830830e-01,-7.955730629823021260e-03,1.389714657381538754e-03,-4.591863126424374289e-03,-8.870330304155977369e-04,6.193927526473999023e-01
6.191572858700545856e-01,6.171723263049820885e-01,-1.453432727154158055e-02,4.145799701476457467e-04,-2.595649648910390486e-03,-9.834099187455713504e-04,6.327201128005981445e-01
9.187059098042495986e-01,5.620429770757827681e-01,8.786224834260714101e-02,-1.463902185972219827e-01,1.711204094438716072e-02,-1.397025948775622306e-01,8.030552268028259277e-01
9.536534245355672290e-01,2.166272826079330416e-01,-8.213908435388816986e-02,-1.128257827409043096e-01,-2.358001089563529096e-03,2.025006024089286844e-02,9.445122480392456055e-01
6.183477093465362673e-01,6.332939984090757424e-01,-1.029118856447186481e-02,4.715355392929246933e-04,4.497842837221019234e-03,-1.226588553316283444e-03,6.362954974174499512e-01
6.181226807047174310e-01,6.396321832485677428e-01,-9.011352176154230342e-03,-1.322866528806607893e-04,4.026777847168609183e-03,2.136808226117174053e-03,6.382095813751220703e-01
6.197860339539924546e-01,6.208128511854239528e-01,-1.465938747600870062e-02,-1.622205970945992271e-03,2.319422198739767068e-03,-2.400221759507320876e-03,6.349920034408569336e-01
6.241236585008862470e-01,6.184330029270447282e-01,-1.289449870757014560e-02,-3.494322415179424704e-04,2.754612761970789015e-03,-1.698398331932356869e-03,6.342170238494873047e-01
6.250176495274553101e-01,6.255331305201250469e-01,1.390317896545756327e-02,-5.692252738988665042e-04,-6.196156980294947186e-03,3.951080989965896628e-03,6.115056276321411133e-01
6.210792822279098679e-01,6.245174993926102536e-01,-9.319647840715705733e-03,-2.971273023426517206e-03,4.117708979939597655e-03,-3.973504591359075522e-03,6.322236657142639160e-01
5.996145485511297224e-01,6.405085018795123597e-01,-1.003887533682273903e-02,-1.758837562722164512e-03,-6.269857494317580132e-04,-2.304322669893560849e-04,6.311032772064208984e-01
7.501649840297948124e-01,5.664427413981293347e-01,1.888216108830897966e-02,-3.055392519621315250e-03,2.551233152808523100e-02,-3.272081864624242636e-02,6.628484725952148438e-01
6.097609694501763267e-01,6.110108082241622052e-01,-9.172428657312214906e-03,2.032154893366420762e-03,1.079130921038259092e-03,-8.172943592606491878e-03,6.197337508201599121e-01
6.155264845392958151e-01,6.191099895984456536e-01,-1.429135680502702233e-02,-1.800232643397379454e-04,1.445553859500870082e-04,-1.496344267845028855e-03,6.316226720809936523e-01
5.072406044418099613e-01,6.713038138509495045e-01,3.414366809944280323e-03,1.738349723104121863e-02,1.879816450161406888e-02,-9.284802846128476297e-03,6.046835780143737793e-01
6.170213400735431453e-01,6.349480557717864793e-01,-1.207337819712478444e-02,-8.363173817399330084e-04,-6.695589027238268987e-04,-3.905240838902833547e-05,6.382496356964111328e-01
6.076215008942003060e-01,6.354737592196972873e-01,-1.130310055631100763e-02,-9.334613974261898438e-04,4.766952413778699320e-03,4.963303246084588109e-03,6.334244608879089355e-01
6.218053669244476556e-01,6.302269710133140412e-01,-1.055930685470224395e-02,3.925912871149824196e-04,2.063980567581292277e-03,-9.807342147297531086e-04,6.366299390792846680e-01
6.231391459685806655e-01,6.311632061532915783e-01,1.223983478948398318e-02,2.068656887147818629e-03,-2.355232391625227111e-03,9.746827079829525810e-04,6.149768829345703125e-01
5.911643800072403643e-01,6.362293028926166993e-01,-1.119860514968457066e-02,-4.188196194222428871e-03,-2.408824893559149798e-03,-5.366148774369159345e-03,6.262378692626953125e-01
5.694551643365001192e-01,6.570369579476784683e-01,-8.420244910943897043e-03,1.042116200228585064e-03,1.238360400357760467e-02,4.964963925340083392e-03,6.267050504684448242e-01
5.914605830396770791e-01,6.236363905474724412e-01,-7.470010395510873202e-03,2.134590262911582707e-03,5.821201705124161990e-03,-1.174157595208350988e-02,6.160788536071777344e-01
6.348818883023648052e-01,5.920314226808478519e-01,-8.766207996313724049e-03,-3.465515555349579866e-03,4.918197026750076133e-03,1.892874519442706849e-03,6.234242320060729980e-01
6.915942174613904925e-01,6.640675994833922235e-01,9.996653776817771009e-02,-1.034231855273913883e-02,3.790584437795261469e-02,-1.845669191243467372e-02,5.832228660583496094e-01
6.165189793196762524e-01,6.338809988272756657e-01,-1.206504465960756001e-02,2.469770949131358940e-04,-1.352460089349069800e-03,1.676958266001339539e-03,6.374534368515014648e-01
5.711407212301694569e-01,6.372860201125860602e-01,-1.034768110540784658e-02,-4.647882462573992338e-04,1.231611562027385906e-02,3.904034079897953074e-03,6.176310777664184570e-01
4.494513558702564193e-01,8.138065540015728683e-01,5.713181927192284570e-02,9.127627450058911629e-02,1.172974298087826606e-01,1.608081716782204865e-02,7.047402858734130859e-01
6.050518583359010272e-01,6.909480359899924373e-01,-1.384180704910670245e-02,7.841562288413304882e-02,-2.738262402818248537e-02,3.452673240732697518e-02,6.839889287948608398e-01
6.083348319520245351e-01,6.299883571012951933e-01,-8.956873110688989836e-03,2.078431280112279234e-03,4.466064498976522919e-03,-2.387231286594081008e-03,6.284698843955993652e-01
5.615161556112941987e-01,6.576893434580455278e-01,-1.055616175021018011e-02,-9.027235788854129361e-03,4.384388935275587706e-02,3.614534482608790147e-03,6.305430531501770020e-01
8.887515916381538705e-01,5.704039954936888090e-01,8.637724774702326691e-02,-1.223550464455356451e-01,-1.523604117796576764e-03,9.647639576158378860e-02,7.500387430191040039e-01
6.203050191899136534e-01,6.311142153397273358e-01,-9.563010191053433751e-03,1.346214398068751447e-03,2.126823469988076143e-03,6.976493915173140672e-04,6.353576779365539551e-01
6.242920487140553032e-01,6.260594510922296019e-01,2.510164804805159466e-02,-3.443574228619854954e-04,6.999120223467973460e-03,-1.024643350861660467e-02,6.004611253738403320e-01
6.349943664087437378e-01,6.262783435663774600e-01,4.467116190651709839e-03,-1.359724894445059326e-05,-3.059324719055195145e-03,9.542038951787276679e-03,6.264551877975463867e-01
6.083797742278024279e-01,6.316353600590985939e-01,-9.894648940747041710e-03,6.853023456927138674e-04,5.546623487836994416e-03,2.581657785499700663e-03,6.303142905235290527e-01
6.236818437769362511e-01,6.151755609565177085e-01,-1.393492694640546814e-02,4.223969349660718618e-04,3.065983700939209008e-03,3.918511743309795290e-04,6.334295272827148438e-01
6.288498128475188409e-01,6.276365385010702624e-01,4.828680400406570872e-02,1.482714602224369325e-03,-2.474338610303071506e-03,-1.197019430171906464e-02,5.803493261337280273e-01
6.321864836461290604e-01,6.294854620754648522e-01,4.957712927783158863e-02,-2.591788459399140942e-03,-7.472577079587485252e-03,4.469727745985163994e-03,5.814765095710754395e-01
6.280427674162792906e-01,6.272414127169692044e-01,3.325784791774727411e-02,-3.152522287988680696e-03,-5.106851138114066983e-03,-6.672716880754466298e-03,5.945878624916076660e-01
6.323487337630254723e-01,6.014985568524964243e-01,2.684358868332292758e-04,-1.195024225284643847e-03,-5.948474241347337550e-04,6.218993600334182456e-03,6.173320412635803223e-01
6.239994732850967507e-01,6.094024971103202404e-01,-1.151610766784955109e-02,-1.718205246563814063e-03,5.079135329166403583e-03,1.874625464580432924e-03,6.284213066101074219e-01
6.207368856311410443e-01,6.166653079360725487e-01,-1.283805867824944213e-02,-5.402659711097475395e-05,1.756866134289475096e-03,6.140724549293961410e-04,6.315572261810302734e-01
5.888953316371365876e-01,6.137636569954185717e-01,1.376173044432571491e-02,-1.822609980339721242e-02,1.707935887816828049e-02,2.048734605755658453e-02,5.906187891960144043e-01
6.279266880880512991e-01,6.282089361631273405e-01,5.587494244639196195e-02,1.284608430238723354e-03,6.300935132680255367e-03,-2.512504261796464321e-03,5.723178386688232422e-01
5.471303782707519492e-01,6.127448858085312589e-01,1.377529407172023435e-02,4.193046009032634636e-02,-3.059909434124515049e-02,3.248602986329551801e-02,5.788075327873229980e-01
5.645313044781200551e-01,5.884259647657729131e-01,2.574777679925871476e-02,8.895695985660909133e-03,-5.760339473065469347e-03,8.796633085928888887e-03,5.516355633735656738e-01
6.184495588171896596e-01,6.237568257470493815e-01,-1.326786165045401589e-02,1.052715028600369760e-03,1.200135745326338585e-03,2.488575643643095234e-03,6.344083547592163086e-01
6.155990463505333077e-01,6.162030950492995984e-01,-1.453558971004759170e-02,7.848925641920816501e-04,3.486715073734529807e-04,1.616320659959084860e-03,6.304448246955871582e-01
5.819961808995064434e-01,5.996038219023489546e-01,7.704121639975913816e-03,5.464230385611452967e-03,-6.033413424894808197e-03,9.407658758678326058e-03,5.836930871009826660e-01
6.209280848133224007e-01,6.236811510066175845e-01,-1.089373351270539469e-02,1.900724745636854030e-03,2.259492141148399923e-03,2.729228733589621550e-03,6.332411170005798340e-01
7.054594517663781428e-01,6.430115368545480381e-01,5.776219980493241257e-02,2.591590589171274828e-01,-9.543509629467251953e-02,6.491806026464144730e-02,7.902031540870666504e-01
6.162342787645623821e-01,6.155315446868863116e-01,-1.416001776901004705e-02,1.648972912907204326e-03,1.695576998167018295e-03,2.756518707917345848e-04,6.300567388534545898e-01
6.384406463264551412e-01,6.432781125500985908e-01,5.089818850809874062e-02,-3.031255227322021944e-03,1.097989930479329086e-02,9.423618236558630899e-04,5.903081297874450684e-01
6.158723344398704391e-01,6.140939567001574284e-01,-1.093546390703675764e-02,1.876641843923129152e-03,3.380828828493609439e-03,4.493618856563682401e-03,6.260046958923339844e-01
6.114635446806030439e-01,6.081326687151487054e-01,-9.934422419455357645e-03,-2.234957610204391446e-03,8.680186224225221181e-03,1.322052125432922288e-03,6.199378967285156250e-01
6.176211820525266960e-01,6.197800430789668358e-01,-1.478226709680618978e-02,8.480129288509742017e-04,4.155342902392028526e-04,1.646492682077740476e-03,6.334941983222961426e-01
6.186372020008320538e-01,6.244123841962576638e-01,-3.137251685174313742e-03,1.674397597626979583e-03,1.388005847928171785e-03,5.467525390352748378e-03,6.247652173042297363e-01
6.469228628623180377e-01,5.915090541421682557e-01,-8.818035131550661099e-03,-2.732055870229371363e-03,-4.215288613103860410e-03,1.357729649181737891e-03,6.299293041229248047e-01
6.260046926480582474e-01,6.205855408603924150e-01,-1.118566202843063184e-02,-3.617326774786220125e-03,3.900194081078688091e-03,-4.059482079129113526e-03,6.346039772033691406e-01
6.238518239405470567e-01,6.287220268851622107e-01,-1.949104781005406295e-03,3.721936648569035624e-03,6.271585789850808550e-03,5.471001991291691603e-03,6.284486055374145508e-01
6.171598209071236241e-01,6.271311273694741839e-01,-1.115345968697445400e-02,2.177138925618154943e-03,-1.514877285985494486e-04,2.664202401348310877e-04,6.333692669868469238e-01
6.210692762685149360e-01,6.229910092038380975e-01,-9.936452969134368374e-03,-1.192303650401476843e-03,5.347102083368166815e-03,7.636302956014263607e-03,6.321784257888793945e-01
6.029161949151796707e-01,6.353162920717022599e-01,-1.349486638752117607e-03,-5.249590447012899945e-03,9.519456692284206448e-03,1.970862049996736660e-03,6.213945746421813965e-01
6.502835752691862314e-01,3.218020484136594472e-01,-1.670406089030912478e-02,2.619376680295278370e-01,-1.764580431356471343e-02,2.959195580341743292e-02,7.369360327720642090e-01
6.179337720429290970e-01,6.306916072299989517e-01,-8.600423547998392593e-03,5.136708759547426069e-03,3.410468106697938945e-03,1.959092260934575981e-03,6.331087350845336914e-01
6.195565066644294072e-01,6.156660480727540463e-01,-1.413800049433394657e-02,-1.043722783281539205e-03,2.594142159884059353e-03,-4.536027355423640482e-04,6.317772865295410156e-01
4.774032162048345573e-01,8.062524156753376747e-01,7.602517382446377647e-02,7.594817005959282608e-02,-1.284099983208079887e-01,1.375414745348025602e-01,7.244057655334472656e-01
6.304755181916030793e-01,6.168416253204850319e-01,-1.221969761522906373e-02,8.173864838085347084e-04,-1.699986361568916419e-03,9.527467571763964809e-05,6.359962821006774902e-01
6.261048611713653234e-01,6.159878066065465063e-01,-1.173586282435740147e-02,-3.065409959549331652e-04,1.790207131914371827e-03,-1.314540158687252684e-03,6.328547596931457520e-01
8.423689116692590906e-01,8.437450246840488832e-01,1.306545968143386083e-01,1.296315865398729728e-01,1.064277523115286644e-01,-1.403279614001854692e-01,8.068382740020751953e-01
6.355031737376816148e-01,6.024044259640289889e-01,-9.645699115060468731e-03,-5.052363608835270945e-05,-5.095951684923408394e-03,1.343429280902143710e-03,6.293188929557800293e-01
6.276367906136123276e-01,6.251119443840347234e-01,-3.656410115704999964e-03,-1.486363961301789566e-03,1.369532777434355925e-05,-3.450868356547653112e-03,6.300681829452514648e-01
6.154573883643913446e-01,6.200264137130792053e-01,-1.320646865237756762e-02,-3.967572036937912954e-04,2.276289472805754100e-03,9.801800230194036411e-04,6.309757828712463379e-01
5.661641356260502800e-01,6.351922745771151346e-01,-2.829141109590760372e-03,1.424960165082972234e-02,-2.643727547336009384e-02,1.006524293306294837e-02,6.089373230934143066e-01
5.778951866416424110e-01,6.381689458705988027e-01,-9.647156057894512582e-03,3.972260972309593109e-03,-1.076039341952927074e-02,9.336267611591363147e-03,6.204099655151367188e-01
6.093446489861361615e-01,6.260985597343715625e-01,-1.284346572583622281e-02,1.675350738657626530e-03,-3.055137248463225558e-03,5.249590996866643211e-03,6.308263540267944336e-01
6.273798249978310704e-01,6.222156094126956027e-01,-5.264561027284786476e-03,1.286079927208669304e-03,-6.170557864763027804e-03,9.446544566248131145e-03,6.303851008415222168e-01
5.082434473557072563e-01,6.665656792663070540e-01,5.741388080240383829e-03,3.024290461714417705e-02,-2.363618779404712614e-02,2.303991770681311849e-02,6.026142239570617676e-01
6.184422680407718476e-01,6.317040789920886912e-01,-7.568048706313168505e-03,-4.189675799704914612e-03,4.139687430041508881e-03,-2.197081615819617122e-03,6.328391432762145996e-01
5.840913098307027873e-01,6.370018272016537697e-01,-8.757186760012303228e-03,-7.543515377612835734e-03,9.889371945897444671e-03,8.427638483308304285e-03,6.215416193008422852e-01
6.500417740080548512e-01,5.886393272931762510e-01,5.111154935094802676e-02,4.480972637279029280e-02,2.435740621949257501e-02,6.035717346450830603e-04,5.775089263916015625e-01
6.299780514873871695e-01,6.245725381387792208e-01,-3.445672543718802938e-03,-5.061170110880280036e-04,5.954578759833939776e-04,-3.559731491122094822e-03,6.307699084281921387e-01
6.233479412080161763e-01,6.258962337376170471e-01,-5.486071476565934635e-03,-3.313277797567458147e-03,-7.674558387596413893e-03,4.570603949030605309e-03,6.303280591964721680e-01
5.794036459738233225e-01,6.276030017948681650e-01,-1.059535564178909484e-02,2.705818490729448855e-03,-1.092433803976020079e-02,9.389745254423211354e-03,6.160390377044677734e-01
6.263189284997957573e-01,6.262319270174345753e-01,1.352342841137854634e-02,-5.884662914649224988e-03,4.960415124137895412e-03,-3.967637650108968815e-03,6.129355430603027344e-01
6.167704212337947745e-01,6.283992658836842216e-01,-8.900092531937242590e-03,-2.004231977674270949e-03,6.168097171203815871e-04,2.051792054379208800e-03,6.315856575965881348e-01
6.174671954773661708e-01,6.159245535330410970e-01,-1.244256098455970294e-02,-7.970784786566346199e-04,-3.495909472474318519e-03,3.712841535872310212e-03,6.292033791542053223e-01
5.990249236848901315e-01,6.354625575936467818e-01,-6.967289512777807836e-03,3.530255548741616754e-03,-8.642084306232471203e-03,4.390656667753670660e-03,6.252635121345520020e-01
6.163438624943605726e-01,6.257766632828017928e-01,-1.205457079122046471e-02,1.074155674112059174e-03,-2.728945437389091073e-03,5.225862729684934392e-03,6.332526206970214844e-01
6.217920198328901193e-01,6.283315276275860395e-01,-1.250838099737472398e-03,2.497114822415082581e-03,4.633361424367020594e-03,3.504072143657377663e-03,6.264339685440063477e-01
6.230897283138017162e-01,6.305047866499079445e-01,5.056130300124528354e-03,1.721906218595401156e-03,5.810380302248909466e-03,1.855993090486546650e-03,6.218711733818054199e-01
6.086362544212932102e-01,6.320026923997091872e-01,-5.241327106012938497e-03,5.565759536373954784e-03,-7.622465372653148934e-03,1.285060158944591711e-02,6.264969706535339355e-01
6.085980912288235789e-01,6.262170986489580260e-01,-7.972886020498282100e-03,4.197644718721304201e-03,-8.629022836820746459e-03,9.219208019166154344e-03,6.259910464286804199e-01
6.205086202419346497e-01,6.292849159619280375e-01,6.115227732801653548e-03,-3.812295223568089222e-03,-1.360844184607182118e-05,-3.843859849654511062e-03,6.188992857933044434e-01
5.474198145504510782e-01,5.922998441445452844e-01,3.394185501636937108e-02,8.691245468158916368e-03,-1.491509515990691818e-03,5.044243653195870994e-03,5.376135706901550293e-01
6.244496225023400404e-01,6.200026020808806493e-01,1.165167975071057516e-01,-3.725085361259549560e-03,-1.532482079684538423e-02,-2.412067306289817671e-03,5.064784288406372070e-01
6.325614142910511717e-01,6.444735451336238707e-01,3.458410859201499488e-02,-1.696493793857144217e-02,-6.891339694338143203e-03,3.450889980909116906e-03,6.048830747604370117e-01
6.286307855296529024e-01,6.310877534356641450e-01,5.726299393829392681e-02,-1.109774537085677585e-03,-1.222707423665896770e-02,-4.808793812038570509e-03,5.730555057525634766e-01
6.007259342686401826e-01,6.161336298609118023e-01,-8.088216547705695536e-03,-4.471968934655553576e-04,1.215783445553544374e-03,8.079385826877659785e-03,6.168252229690551758e-01
5.899956120817099192e-01,5.532212768231878908e-01,3.437756742002878729e-02,9.921427199181348522e-03,-4.669753159857780236e-03,3.206224561467870167e-04,5.385093688964843750e-01
6.354769774347290845e-01,6.240418652066911376e-01,1.004212294100843561e-01,-2.662612474547929996e-03,-3.497096863966309838e-03,5.636776719265835719e-03,5.295755863189697266e-01
6.311141090683896060e-01,6.189495493308907470e-01,-1.176962032429063054e-02,1.419591027814316600e-03,9.184727986833866095e-04,-6.608090958366910628e-04,6.368963718414306641e-01
6.210857085809957656e-01,6.261321136632420625e-01,1.031444125934248279e-01,-4.438005259658497903e-03,4.492302449694182166e-03,-2.567629925997020907e-03,5.206167697906494141e-01
6.192441599010367614e-01,6.197124809685989888e-01,-1.420019729896326854e-02,1.152025701179216132e-03,1.807176006997157592e-03,1.705994952139208362e-03,6.336964368820190430e-01
6.447333350329380597e-01,6.467734988810330821e-01,4.520108689947111014e-02,-8.281439634539329965e-04,-8.626426269194319152e-03,4.338397399725367302e-03,6.007894873619079590e-01
6.018032588994979282e-01,6.447941487490753687e-01,-5.378145505433584717e-04,3.136402575110060643e-03,1.721892155767486277e-02,-8.386346538027535102e-03,6.258499622344970703e-01
6.370965785101653234e-01,6.570053864795548648e-01,3.152767368102549206e-02,3.546139148881533205e-03,4.456638383656964450e-03,-6.206024750343267643e-03,6.159375309944152832e-01
6.256255430000502438e-01,6.085557931561871303e-01,1.032604280864551916e-02,3.956825484175729990e-02,-2.469740441670367423e-02,2.221063239054960406e-02,6.135051846504211426e-01
6.209951855892117401e-01,6.211291308485666907e-01,-1.383420466412982330e-02,2.885162118805338106e-03,1.375037975724561871e-03,1.349617038774509649e-03,6.349248290061950684e-01
2.470057295733484870e-01,7.745186054425075017e-01,-7.738880366629424801e-02,-1.393785737747161024e-01,-1.412270848936845492e-02,-3.533119263602826909e-02,7.856502532958984375e-01
6.177391732487753639e-01,6.078927806168761272e-01,-7.345508890285346038e-03,-5.980218465144974006e-04,4.817943697539945822e-03,8.795633973699758809e-04,6.202789545059204102e-01
6.157301517065778551e-01,6.190996009192826222e-01,-1.479585924263643326e-02,1.296488522391173008e-03,1.310523592144279426e-04,2.915779439390913264e-03,6.322416663169860840e-01
6.264071505309817267e-01,6.172673991902437596e-01,-1.337813537167370503e-02,3.147773411463798340e-03,2.508671764800285680e-03,-2.617588377434180492e-04,6.353031396865844727e-01
6.263984769940039721e-01,6.237642502339657558e-01,2.469429932491118418e-02,2.448961081111541895e-03,3.688862036108468429e-03,8.291148939140241189e-03,6.006121039390563965e-01
1.037347142852517445e-01,8.074723052326203687e-01,-6.909356605744765290e-03,1.300659015985264691e-02,3.458124177708776781e-02,7.075175065761264009e-03,7.678530812263488770e-01
5.068886332449599186e-01,6.750656949634166182e-01,1.833496787753308155e-02,2.194943571095478094e-02,-4.788727982513711775e-04,1.017293711636051319e-02,5.923581719398498535e-01
6.699471232701460499e-01,5.422370214137726130e-01,2.613319603405384051e-03,6.122732876159613265e-03,9.037382521878143185e-03,1.523059393354678909e-03,6.138268709182739258e-01
6.661516958409037237e-01,5.256663070661949932e-01,-9.261154704229390688e-03,-3.984884102577165681e-03,-9.463245922441189742e-03,-1.810024054986008463e-02,6.183301806449890137e-01
6.261178358814792899e-01,6.244686986200607137e-01,4.047021841979692169e-06,-5.224453797523298700e-03,5.530800403281291820e-03,-5.939925271392964938e-03,6.255143284797668457e-01
5.123306398507845305e-01,6.736125504031841293e-01,6.239572726896014387e-05,1.134409426599832134e-02,-2.526804091778086028e-02,5.325959165250326345e-03,6.110947728157043457e-01
6.259735502610739299e-01,6.259402927125790050e-01,1.597535206077638215e-04,-4.501170569500852377e-03,5.526845147928353442e-03,-5.901338251830437476e-03,6.260023713111877441e-01
5.605307851454329748e-01,6.574363177464859209e-01,-7.349851147258945616e-03,-4.465485773461498782e-03,-3.987479504959202947e-02,-1.457913165876880898e-02,6.264002919197082520e-01
5.476747320070878278e-01,6.283795991563565497e-01,6.203050886103622652e-03,1.784443285724482062e-02,2.485644469593427386e-02,-1.698971515692802858e-02,5.891340970993041992e-01
6.154777912789595185e-01,6.241171654433850247e-01,-1.099321614947068593e-02,5.110787848150510427e-04,-5.531780758376767231e-04,-3.322621089474812970e-03,6.308626532554626465e-01
6.260906420267589034e-01,6.158067175820155503e-01,-1.320652115008891236e-02,-2.012141720639809388e-03,2.505531600897468580e-03,4.793258430195208451e-04,6.342427134513854980e-01
6.315081333570534694e-01,6.171089311518918041e-01,-9.789619040441510656e-03,-1.661823640048360222e-03,1.693263980664519181e-03,-6.650822413960185168e-05,6.342340707778930664e-01
5.015035266795476732e-01,6.708845159733380914e-01,3.077799073423759246e-04,1.742412158942528450e-03,-2.542580195369314316e-02,7.900032790434191599e-03,6.057358384132385254e-01
5.588138479871074260e-01,6.504170325710922906e-01,3.863099176313372629e-02,5.109945128036635920e-02,3.039791375125683315e-02,-2.121466956207954807e-02,5.818827152252197266e-01
4.535713373051697417e-01,6.806127951507816576e-01,1.712046770430580844e-02,1.259793104587449836e-02,-2.386973844340728804e-02,1.406522999231130631e-02,5.864371657371520996e-01
4.403123234115130513e-01,6.886763050453358348e-01,2.418097907624500165e-02,6.315619840204229722e-04,-1.774265397440633746e-02,-2.098192706292488063e-03,5.823751688003540039e-01
5.923332268180420135e-01,6.919980869759474462e-01,-3.020397302240995785e-02,-3.477193199990795125e-01,-4.215216999926969799e-02,-2.197008478461622699e-02,9.105138182640075684e-01
5.719057467716580634e-01,5.777336580912045827e-01,2.793326531631745713e-02,1.741475644706709860e-02,-3.170535789382125137e-03,5.134241567550298750e-03,5.478405952453613281e-01
4.468681230227196099e-01,6.890449911249809656e-01,2.209182569308054678e-02,-7.370910384076694542e-03,-2.311642902866432869e-02,-8.649762018237599007e-03,5.864691734313964844e-01
4.211835831955221265e-01,6.911602174822765177e-01,3.599724898027917286e-02,9.892826122408073658e-03,2.228345728270692081e-03,-3.711703832041500159e-03,5.706111192703247070e-01
5.907790003337312079e-01,5.628385026826021598e-01,3.345661226268936694e-02,3.859546051619795054e-02,4.184364837981751142e-03,-1.598156672507616317e-03,5.480383634567260742e-01
6.283969435643652623e-01,6.236273660679340081e-01,-7.894580569870579545e-03,-2.997938704511979042e-03,3.110652752047737011e-04,-3.446504629004807415e-03,6.339697837829589844e-01
5.628304879292690410e-01,5.790422118055418288e-01,3.423148774346734813e-02,1.023580051413616916e-02,1.793170575074673934e-04,9.866933762068968734e-04,5.371839404106140137e-01
6.531566599827720587e-01,6.779649195749550827e-01,6.007841015663795137e-02,4.578005983423282660e-02,-4.387412720922328167e-03,2.551738755258311717e-02,6.126737594604492188e-01
6.260318841250637201e-01,6.281707398615081761e-01,4.477553428805369773e-02,-3.999830379281107615e-03,5.809603626834291060e-03,-4.925194061518128191e-03,5.825193524360656738e-01
5.024500198585575284e-01,5.229731872500151812e-01,2.261021021192383129e-02,1.606270607583431265e-01,-1.684306043950541468e-02,1.645665435976241542e-02,5.653157830238342285e-01
6.085573503907047987e-01,6.506349035587911667e-01,2.030083065240062545e-02,-7.973801443080822879e-03,1.031213947953448992e-02,4.777803450676891377e-03,6.108574867248535156e-01
6.024785999826163252e-01,4.595445764655914367e-01,1.869966196944566894e-02,1.435719028369604189e-01,1.659395485691035968e-02,-1.186712759523972198e-02,5.838435888290405273e-01
5.716494499897508685e-01,5.681143045817791393e-01,2.811245968971942677e-02,1.553396282425173469e-02,-3.687624082580170156e-03,1.538475472421047029e-03,5.424898862838745117e-01
6.202959420100904175e-01,6.250610078490078658e-01,-9.587813304211323384e-03,3.646833070995454673e-03,-3.579108204799348603e-03,-3.589122308019616035e-03,6.323722600936889648e-01
5.936878000355313434e-01,5.539381933274983849e-01,1.789196681152738222e-02,1.338428691912740831e-02,-1.497191680550151796e-02,8.077053266495598863e-03,5.582461953163146973e-01
6.290348206047048363e-01,6.252442083327240940e-01,7.733208194361262944e-02,2.823838824163212892e-03,6.515844438507239003e-03,3.108880715117886412e-03,5.499811768531799316e-01
5.710349269979361209e-01,5.794926774916246970e-01,3.499326795209978247e-02,1.700133102248774924e-02,-4.382732229363673205e-04,1.177826805025931206e-03,5.411263704299926758e-01
6.262322368015180718e-01,6.188715188600609762e-01,-9.254308774563513307e-03,3.968411630001673907e-03,1.961016438771086626e-03,1.297183223343525245e-03,6.318888664245605469e-01
6.286373409918494248e-01,6.344307071468286985e-01,2.387349454266024518e-02,-2.471313497933438907e-02,1.565407219164012542e-02,3.423837869827242586e-02,6.126668453216552734e-01
6.283306479908030706e-01,6.263643379264602906e-01,4.915385429756735647e-02,6.070117624238176215e-04,7.399738575591461968e-03,7.693798460025527176e-03,5.784926414489746094e-01
6.192256958333798300e-01,6.174542150656349149e-01,-1.144174763992322763e-02,6.242860960772453815e-04,4.076707671916300971e-03,3.040154061619890821e-03,6.298460960388183594e-01
6.320352065272032416e-01,6.183505790115940703e-01,-6.195734951873588248e-03,6.873128039178258994e-04,6.226413288983473088e-04,-1.397017106430710996e-03,6.315065026283264160e-01
6.349087265808485148e-01,6.080027754348062974e-01,-1.036014332843177010e-02,-1.594586296709314286e-03,2.065901739601186046e-03,6.282592068878912160e-03,6.323552131652832031e-01
2.298752164468344794e-01,7.744762525752820759e-01,-6.356755409128223011e-03,-1.189073456488602548e-01,-1.386533342425591737e-02,1.333195096739927502e-04,7.239072322845458984e-01
6.253012268317190703e-01,6.237736356427425743e-01,3.713431250722709631e-03,3.772311218119724519e-03,5.772270520730375838e-03,5.701539973303843163e-03,6.210188269615173340e-01
3.857420329071475362e-01,7.017061065454810453e-01,2.256471781924118680e-02,-9.057681675815169864e-02,5.447766589837664541e-03,1.046052343952214719e-02,6.095176935195922852e-01
5.807053211282676708e-01,7.315850968770719609e-01,8.134075743992141838e-02,7.963137757718381782e-02,7.387828736741790248e-02,-1.248959389354897288e-02,6.191438436508178711e-01
6.248638091287842533e-01,6.210013554693256665e-01,-1.090549666038503895e-02,2.867044717746283430e-03,3.521414468925570737e-03,3.134106207106637614e-03,6.339189410209655762e-01
6.655737336712395091e-01,6.214505560113544602e-01,5.523344326542434235e-02,1.274493488071121866e-02,1.343324436037096788e-02,-1.318900103086886703e-02,5.908319950103759766e-01
3.638748568271090167e-01,6.439064329817008048e-01,6.290351181045428230e-03,-2.314853597347243108e-01,1.729338822702544947e-03,-1.519598460104833702e-02,6.840156912803649902e-01
3.766074587770531501e-01,6.001843410240370602e-01,-1.536548261676706773e-03,-2.671240847969047483e-01,6.160960613918498724e-02,4.230806163851003054e-02,7.129843831062316895e-01
4.237975262295686774e-01,6.614722604470193446e-01,2.740063119889507570e-02,-1.598371787495755092e-01,9.159620524323629914e-03,-1.030481848479130116e-02,6.205218434333801270e-01
4.706923440292608563e-01,6.280327818155018171e-01,2.296392118203144372e-02,5.558669154864875200e-02,2.089259890756229102e-02,-2.424366036694841284e-02,5.549819469451904297e-01
6.345262539914565680e-01,6.158531610347812713e-01,-1.091244920643408278e-02,-9.273606926208075886e-05,-7.330029035896750474e-04,-1.018227716130475470e-03,6.363114118576049805e-01
3.594357007926967107e-01,6.902995868395611634e-01,2.301927732612829569e-02,9.784013091040121013e-02,1.797685566817160477e-02,-8.352525436803825282e-03,6.032013297080993652e-01
4.148788659416118296e-01,6.665735344259428041e-01,3.056435024394354993e-02,3.700186501913867859e-02,-6.114472186247738722e-04,-7.589113458588782161e-03,5.586224794387817383e-01
4.680835998919786745e-01,6.602741515073342615e-01,3.333719022082065608e-02,1.257106110402326365e-02,1.435513706087391574e-02,-4.814889257446646614e-03,5.573667287826538086e-01
6.317828463359559388e-01,6.055521606784252109e-01,-1.013591079841119624e-02,-2.094630186795275097e-03,4.125850281659260502e-03,4.271822133366812158e-03,6.293081641197204590e-01
5.301452541444218181e-01,6.235920486558422793e-01,3.198107875805444866e-02,1.292036645266850768e-02,2.916505975295752978e-02,-1.199126901341138023e-02,5.540177822113037109e-01
4.721458495658601429e-01,5.991019031937572237e-01,2.839748042857331845e-02,6.820430227520264677e-02,5.133902681559020242e-03,-7.622178696845450553e-03,5.325183868408203125e-01
5.041520615867847166e-01,6.574071655886788434e-01,2.628761391455980423e-02,9.807539440957397867e-03,8.159257987096707812e-03,-1.271237714228905594e-02,5.710077285766601562e-01
6.284978170490391758e-01,6.276588264359214131e-01,-7.570488438794487074e-04,8.882856556472003198e-04,-1.407290543335229949e-03,-5.364296110455261425e-03,6.289110183715820312e-01
8.955805451606053680e-01,7.539762616291344477e-01,1.064251752965030273e-01,6.459935821797156696e-02,-8.913561754175970686e-02,1.403506209552144446e-01,7.915300130844116211e-01
6.195099028657664597e-01,6.167109480794082943e-01,-1.099693256015427112e-02,8.406175079946554473e-04,3.470246126953620541e-03,3.518297571961051095e-03,6.291719079017639160e-01
5.832311235795901716e-01,6.115606425017676706e-01,3.385087600183966927e-04,5.962175616655887057e-03,-5.631390999541698765e-04,1.093719466517669228e-02,5.979514122009277344e-01
6.019241146567414491e-01,5.993092032198364949e-01,3.631707092131508663e-03,-4.150170261558889032e-03,-6.853480777510620459e-03,1.282229463087802227e-03,5.971546769142150879e-01
6.242915407325919652e-01,6.064126543932538693e-01,-8.456541296441577593e-03,-1.127378795612914505e-04,-7.820085278268350260e-03,-9.066049575593342156e-04,6.241497397422790527e-01
5.887204636098533062e-01,6.115431512967479666e-01,-7.546604063117134942e-03,7.560530686789691292e-03,-5.789393486016891979e-03,8.573711437097316160e-03,6.084046959877014160e-01
6.452282765883152749e-01,5.673058657259952842e-01,2.468692265297944832e-03,-3.866675767888165353e-03,-8.995086766133147602e-03,-3.229880401944884897e-04,6.077946424484252930e-01
5.984451824250727192e-01,6.118786929986679279e-01,-6.212254662870009270e-03,3.994139078348436962e-03,-5.598805557742189340e-03,8.150728757943761019e-03,6.117637753486633301e-01
5.974217149472257349e-01,5.813525741144300873e-01,-1.185061633821038463e-04,6.197643592348653710e-03,-1.045964622037740162e-02,8.724815058375186977e-03,5.902392864227294922e-01
6.257164267703594351e-01,6.260817355460932543e-01,2.214798904969200732e-02,-3.519111829088704055e-03,3.789641472758576921e-03,-6.126992579662948225e-03,6.039108633995056152e-01
6.795923468237736742e-01,6.158119751714188350e-01,8.992399858247235311e-02,2.180179439895301580e-02,4.484466391181943234e-02,-2.863116899726161207e-02,5.692852735519409180e-01
6.092554814944127761e-01,6.067354305568589679e-01,-1.133652538521617847e-02,7.008590982512702579e-03,-5.776029638175049497e-03,5.619741086941984140e-03,6.196120381355285645e-01
7.435854788765005052e-01,5.218982428453202704e-01,8.791937556268158982e-02,-6.070590971656725232e-02,-6.930466339183791180e-02,-1.042800148771857449e-01,6.259220838546752930e-01
6.334346932545830144e-01,6.182884360077223196e-01,3.185123337507922425e-03,3.612381105946951311e-03,-2.840264196942447490e-03,-7.092600265871632989e-03,6.229865550994873047e-01
6.280633494015435137e-01,6.229767424495794570e-01,-5.220931924691307735e-03,3.827517854054213967e-03,-2.194022986729390369e-03,-2.472201969091698207e-03,6.308171749114990234e-01
5.659766653225779542e-01,6.063955750451933691e-01,2.002587727762994430e-02,1.823871499602277083e-02,-1.181018078652774569e-02,1.254422270372364603e-02,5.689034461975097656e-01
3.054218554334157121e-01,9.807700235992411475e-01,-1.644081245617895481e-02,-3.160455227111082233e-02,5.223894277572714573e-02,1.760915282781178514e-03,8.878359198570251465e-01
6.884154540405234002e-01,6.070909168412859103e-01,1.107335081797511389e-02,-6.467411209298493113e-02,-2.785712132854309755e-02,-5.599414375496068741e-02,6.592448353767395020e-01
7.007781828629355836e-01,3.764715120444228624e-01,2.260236375243063200e-02,-1.460967718989461817e-01,-5.279642492409408749e-02,-1.103000381768421412e-01,6.738351583480834961e-01
6.055186567688057853e-01,6.355452227949397459e-01,-8.881508398863868781e-03,-7.421844433035900519e-05,5.690959530968758319e-03,-1.028108028843614363e-03,6.300300359725952148e-01
4.842987863652715719e-01,6.747433906050179786e-01,1.836036122734785447e-02,6.629598319322588772e-03,1.504265102146248347e-03,-9.455175742634876895e-03,5.852435827255249023e-01
6.987115669681464025e-01,4.781918956062720105e-01,-8.738875953859470691e-03,-1.403889544830011146e-03,1.617762219860925318e-02,-6.923836189227207394e-02,6.389688849449157715e-01
7.389029597210057254e-01,5.396257200541809684e-01,-1.889977017222427280e-02,-1.404898807094186533e-02,-1.725512025125690643e-02,-3.804851953005710524e-02,6.846838593482971191e-01
7.354381858080705214e-01,6.297441785282376081e-01,3.662312924995186902e-02,-2.747980489265093931e-02,-9.005914122287421789e-03,-3.337308665097298704e-02,6.568890213966369629e-01
6.227167017853358910e-01,6.269322623490205526e-01,-7.665306318854037126e-03,3.206828550506645586e-03,3.786502755231630022e-03,7.350518125003116261e-04,6.325600147247314453e-01
6.243966132351416176e-01,6.193970377989411746e-01,-4.437996029175439450e-03,1.091623889188332239e-03,5.364499701073529962e-03,7.684831683774831067e-04,6.264229416847229004e-01
6.307676388724857697e-01,6.266098026599056237e-01,9.254290429955847053e-03,5.355809147158566152e-03,5.444549322157191302e-05,6.032172664148190144e-03,6.196024417877197266e-01
6.294418634105414245e-01,6.238459296303968671e-01,2.679462233696416895e-02,1.834016497815358976e-03,-1.532715230831602779e-03,-4.084127546587036812e-03,5.999248623847961426e-01
6.241332406769579677e-01,6.324465146394302462e-01,2.789087501732862018e-02,2.042115278682336832e-02,-3.018853015615824420e-02,2.351637754473425573e-02,6.051239371299743652e-01
6.453359922032863016e-01,6.328718055491301397e-01,3.401768001568894473e-02,5.451278661111529610e-03,2.568076053084455100e-03,3.493127675121130392e-03,6.053027510643005371e-01
6.327083914688824695e-01,6.395359825567363821e-01,3.333842931156566491e-02,-6.881156184406472809e-02,7.676731004135906034e-02,5.775330939159985938e-02,6.366115808486938477e-01
6.288828562539152678e-01,6.271877335516813368e-01,3.748840832994615457e-02,6.658857704901302924e-03,5.719242959279144216e-03,6.666764930181597916e-03,5.908572077751159668e-01
6.321722280029985486e-01,6.070981986060908220e-01,-5.527761992560387139e-03,-2.624253938330368269e-03,1.283846382681734684e-02,1.099102205682229820e-02,6.262410283088684082e-01
6.285618724253458911e-01,6.287275116745238979e-01,4.047543017468985260e-02,3.428104042793212944e-03,-6.586633005608300874e-03,-7.187744262954707522e-04,5.883111953735351562e-01
6.280831308862362405e-01,6.223529835061196724e-01,3.683991671620168162e-02,3.649244266855695366e-03,6.051957534981545345e-03,8.308989332843469064e-03,5.887023210525512695e-01
4.906651004081773459e-01,6.504658923553640060e-01,1.353286881811655018e-02,-5.338825845429259059e-02,5.510691782448295939e-02,2.795919969876076508e-02,5.911378264427185059e-01
6.267968972536429595e-01,6.278401798785409049e-01,1.902645123562662910e-02,-5.849600139478297774e-03,-4.950129117079750569e-03,6.869996462666330336e-03,6.085538864135742188e-01
6.263839987305968027e-01,6.202111100062559501e-01,-1.159968521595411417e-02,2.872285578154475821e-04,2.471276481011626912e-03,4.525535942648202027e-04,6.349348425865173340e-01
6.263811848309377428e-01,6.238184511341136051e-01,-2.609548564917518743e-03,1.697165188909049690e-03,3.120082787954649162e-03,3.887418522028379415e-03,6.277795433998107910e-01
6.489085518621212634e-01,5.985384761986631830e-01,8.030034331818480808e-05,3.464469385269496613e-04,3.642343958221459029e-04,7.477616311559729702e-03,6.253017187118530273e-01
6.232201337539983177e-01,6.267502070313752949e-01,1.129662084908372721e-02,3.380128628854964234e-03,-2.894174875346731089e-03,2.382148364044982258e-03,6.137584447860717773e-01
6.273896398277196695e-01,6.106072980427739161e-01,-9.243520393349469177e-03,-4.508289738383176176e-03,3.712580874439420225e-03,6.182446385539578856e-03,6.285827159881591797e-01
6.544714752263141033e-01,5.429385345575508115e-01,-3.570090589323393626e-03,-8.419070619680930553e-03,7.262489388391448787e-03,3.087601596566840953e-02,6.126139163970947266e-01
6.197574256212464716e-01,6.072030099311238605e-01,-9.107395823077291119e-03,1.790082635800609775e-03,7.457949770476236806e-03,1.136543704032206615e-04,6.228242516517639160e-01
6.315163845390087127e-01,6.073745559906127411e-01,-1.341097789175127453e-03,-9.917073649700987661e-03,6.416358800755492774e-03,6.760727819079903958e-03,6.215856671333312988e-01
6.370386021676885946e-01,6.152465733352260324e-01,-3.922433641231903856e-03,4.349711513628897255e-03,8.742948668553086325e-04,1.310036239733633273e-04,6.303944587707519531e-01
6.278410411748811537e-01,6.281787173757745757e-01,1.873567364704248339e-02,1.803054853501773278e-03,-9.332957047100755603e-04,7.853961345173059855e-03,6.094362735748291016e-01
6.376509178363972685e-01,5.821629078250466494e-01,-9.115010386156974231e-03,-3.262310059752028448e-03,1.224876400605614743e-02,1.669219439406921524e-02,6.219447255134582520e-01
6.276861276542156087e-01,6.248516090816463864e-01,4.806090501927373637e-03,1.148444197258075743e-03,-1.190724109869042893e-03,-7.592814185931409839e-03,6.216133832931518555e-01
4.010962479792336555e-01,6.904651851164764764e-01,3.703294068653778526e-02,7.394779018031868989e-02,-1.145529118909563611e-02,7.223404882541435007e-03,5.818763971328735352e-01
6.313323829267902809e-01,6.171972127819478349e-01,-5.970923289536134160e-03,-7.909801212727088273e-04,-9.645377796974676258e-05,1.183378871021409200e-03,6.303594112396240234e-01
6.782730073721003894e-01,4.902439259725229204e-01,5.642924878086269525e-02,-1.289031284895642282e-01,6.887093766179894216e-02,7.775054695481063705e-02,6.223608255386352539e-01
6.590073667698779225e-01,5.724038886845910223e-01,-5.083920399664709766e-03,-8.960714937196060173e-03,-4.646223703889926920e-03,-1.093883536415286330e-02,6.258349418640136719e-01
6.283293502146911624e-01,6.253012017689546509e-01,-2.315972458887927132e-03,-3.525854391232691870e-02,2.219006509821122922e-02,3.444362834049894545e-02,6.360650658607482910e-01
6.289671144209383336e-01,6.250673025764369450e-01,7.139805208724703256e-03,2.874634891788034954e-03,4.314122865455589234e-03,1.081290248268302646e-02,6.202344298362731934e-01
6.294251346207672126e-01,6.231323525175110900e-01,4.807777153811698678e-03,1.158796301560408720e-03,-1.331188788329360851e-03,-7.454050567502261589e-03,6.216364502906799316e-01
6.054127662993843417e-01,6.849823678137894056e-01,6.933020596578465256e-03,-7.280877703493389419e-02,5.126726837001828463e-02,6.209125790341348677e-02,6.689428091049194336e-01
5.425075645925954149e-01,6.041794397332415079e-01,1.884077397925509878e-02,-2.315683430474353016e-02,8.115693077566548883e-03,2.114907667297789146e-02,5.598874688148498535e-01
6.284742884094547399e-01,6.280766985891375054e-01,4.024154092648224434e-02,-1.456426132191740441e-03,1.980868994379558236e-04,-7.005728429562340688e-03,5.881647467613220215e-01
5.441994279009230162e-01,5.821753632553687829e-01,2.172635946290890629e-02,-2.268909637352398839e-02,5.745983748174443052e-03,1.031073911556134454e-02,5.442646741867065430e-01
6.168810722767684718e-01,6.245201853770994127e-01,1.354944183046271622e-01,-1.438349340195330898e-03,4.636341111660030926e-04,1.700682208696527743e-03,4.852673113346099854e-01
5.854847213071577849e-01,5.757531906260238141e-01,2.784054043174827298e-02,-1.358829103410765134e-02,6.880743800212855976e-03,5.894216532495413080e-03,5.535658597946166992e-01
6.252597500084537963e-01,6.275076409661031196e-01,6.741208651520003148e-03,2.480949702213170512e-03,-3.079608799854804957e-03,3.645465665126980913e-03,6.197155714035034180e-01
6.102363610141208206e-01,7.298707760963079050e-01,2.994514263021019751e-02,-1.938545956886669579e-03,-2.076345537024051544e-02,-1.659861659126093004e-03,6.494505405426025391e-01
6.270346912208057955e-01,6.284062745365346370e-01,7.521675262477911517e-02,-4.807779312016791833e-04,2.953109815021526599e-03,-5.857650883426229575e-03,5.526224374771118164e-01
5.859240402980263607e-01,5.828734766437809744e-01,1.315550310583318838e-02,-8.904999005774591123e-03,7.799950023653137547e-03,4.487273411615946145e-03,5.716700553894042969e-01
6.280588553489574455e-01,6.070469236597308971e-01,-1.328378983510908329e-02,1.108015458292279732e-03,-6.508613486969739605e-03,-6.368587144378284708e-03,6.312990188598632812e-01
5.917801333237445727e-01,6.011181066287221153e-01,1.053593527633522875e-02,-1.650300977083184531e-02,8.487684401079853905e-03,9.655710100552864286e-03,5.870881676673889160e-01
6.269074175680181549e-01,6.307727728075489537e-01,3.912452419446610374e-02,4.312875679698854360e-03,2.264702388679482644e-03,7.583019676247515321e-03,5.899316668510437012e-01
8.614276420881110674e-01,5.840612185371271137e-01,8.446151485947656079e-02,1.527492558986439652e-01,-6.634134545843677067e-02,1.148657167376674754e-01,7.667379379272460938e-01
6.368498976242318310e-01,6.245193201005376782e-01,4.775559198641809999e-03,8.976640450710065763e-03,-6.263253703734285999e-03,1.418973951030823820e-02,6.267691850662231445e-01
5.597860362230930864e-01,5.967997786772905044e-01,2.455717052564088121e-02,-6.181990285512702944e-03,4.883722499894620553e-03,9.290860927320131885e-03,5.550639033317565918e-01
3.976665737375291165e-01,6.807181756262210559e-01,3.394110643567821439e-02,-7.730713619880358323e-02,9.822126922972395160e-03,1.405390326247945958e-02,5.780818462371826172e-01
2.503609538669006040e-01,8.625539369287544833e-01,-2.767312080902195603e-02,-2.744502428108822056e-01,2.210894193581058181e-02,-2.856881119825014498e-02,9.231345653533935547e-01
3.828326939560422471e-01,7.326429442461315222e-01,2.486390398819249281e-02,-8.821109806583334045e-02,5.845911770555678455e-02,2.952139659063771765e-02,6.418259739875793457e-01
5.082614577973759706e-01,6.692096922167081186e-01,1.171280440743660556e-03,1.011067035333995971e-03,-2.955559837965240910e-02,-6.186030620940266567e-03,6.061340570449829102e-01
6.671328579383219992e-01,7.250687313442187865e-01,1.116318945898089887e-01,6.603646477649062485e-02,1.120574113022226453e-01,-1.418488704480845748e-02,6.288704276084899902e-01
2.328450927813603966e-01,8.015049020973534777e-01,-1.285155330403336960e-02,-2.261691881067229015e-01,-1.659623974869343238e-02,-2.337616142384111272e-03,8.232610821723937988e-01
6.647977913722253884e-01,5.816807040860259015e-01,8.926593655385894888e-03,2.336923254502618411e-02,-2.115595168569442061e-02,2.992603397567366111e-02,6.230803728103637695e-01
6.083665741908388380e-01,6.308986323505235694e-01,-9.432943792175685349e-03,-1.477902689631504802e-03,-6.007585880703786123e-03,-6.069153176887980700e-03,6.295471191406250000e-01
2.740573511697367293e-01,7.757669120820642750e-01,-1.014341441525185017e-02,-2.061108139444395582e-01,2.175788082775067037e-02,-2.305710669506412427e-03,7.771421670913696289e-01
7.618016402160492362e-01,3.796760996084836415e-01,5.050007095044362071e-02,-6.973676376095912233e-02,2.841831471774110621e-02,1.110344059013112783e-01,6.589094996452331543e-01
6.634438508730449158e-01,4.603683404466981655e-01,3.915069892784900363e-02,-1.653199917907415828e-01,5.218458821510783829e-02,6.061293375787010079e-02,6.366997361183166504e-01
6.207379849349268230e-01,6.255480148471848079e-01,9.194706859060225446e-02,2.517167333549315180e-03,8.770994468108313886e-04,6.586664602303110919e-03,5.313547849655151367e-01
6.253042408521302109e-01,6.406317376359426108e-01,-4.712913017302478025e-03,2.367256487971510729e-03,5.702845543312757420e-03,-1.510765692530086080e-03,6.379140615463256836e-01
6.181867198470928360e-01,6.365958396323772028e-01,-9.594192675794421810e-03,1.309150934548715785e-03,3.374226884667369877e-03,-2.262574752396184687e-03,6.372278332710266113e-01
6.301019056737168222e-01,6.204871609403667110e-01,-9.125058485513037887e-03,6.873548990664961572e-05,6.635012337022588684e-04,1.964325185451987373e-03,6.344844102859497070e-01
6.304734961056492892e-01,6.146337508223662649e-01,-1.279691742662575349e-02,-1.176372195774170928e-04,-2.610262547894478830e-03,-4.221872352552111739e-04,6.355151534080505371e-01
6.261854519269383079e-01,6.267298815519908306e-01,-2.723912507371362146e-04,5.924245776242639903e-04,8.445202561673736345e-04,3.890860644045412813e-03,6.267690062522888184e-01
6.307141773428329712e-01,6.239634110270708689e-01,4.057740660688907708e-02,-6.740178447743756232e-04,1.199912614794308892e-02,5.020159459093718503e-03,5.872240066528320312e-01
6.186468112765451943e-01,6.267904523140401807e-01,-1.224287289099279530e-02,-9.763236394025494314e-04,8.383042322720885009e-04,-5.662196051523396209e-03,6.350803375244140625e-01
6.152771046953621203e-01,6.196537454375943277e-01,-7.178953560694034675e-03,6.141610992263644118e-03,-1.132193973038303145e-02,1.069055232450525847e-02,6.253283619880676270e-01
6.161552649372319390e-01,6.279608298620585893e-01,-1.202669825463065223e-02,-2.184973611218861162e-04,-3.704733971634741074e-04,-2.078382441261546545e-03,6.341778039932250977e-01
5.700771766088859049e-01,6.492037857233836640e-01,-9.249019494830701404e-03,-2.648913687593249400e-03,1.197015410988962886e-02,4.290431162493143005e-03,6.230779290199279785e-01
6.351155694002571517e-01,5.951917100362017488e-01,-8.986736113586468733e-05,4.083411279807198577e-03,7.465930510708186640e-03,-6.301390269646758510e-03,6.164871454238891602e-01
6.299655689471898024e-01,6.250239516020388297e-01,-2.862148045944812313e-03,-1.653088433643908582e-03,1.338641815297608511e-03,-3.596488424107485357e-03,6.304129958152770996e-01
7.464119798308999076e-01,5.913477758190128775e-01,9.575572511034685652e-02,-5.555349537706635865e-02,4.342474132194237141e-02,-1.659703155821452558e-01,6.663776040077209473e-01
6.316911812838197360e-01,6.230682330179744266e-01,2.462470688661788643e-03,4.694310632430850026e-03,6.255801824303593335e-03,-1.070004230389806285e-02,6.253833174705505371e-01
6.283597232054525250e-01,6.167983466157658246e-01,-1.331693217778245897e-02,1.174297660666813936e-03,-2.794462103721677675e-03,7.234323848327907239e-04,6.359977126121520996e-01
5.885374731800461223e-01,6.388208363098653031e-01,5.974759829578402126e-04,4.545167064764758791e-02,1.879403838324237089e-02,-2.243508089091220473e-02,6.217175126075744629e-01
6.194871938212731521e-01,6.193719320300988818e-01,-8.628753905179642469e-03,-1.636163608455322742e-04,2.601625685865957549e-04,1.151332858888666488e-03,6.280617117881774902e-01
6.529424905295693193e-01,6.348316585464449657e-01,1.626014734121900007e-02,5.817957990882920323e-03,-3.502241879570600069e-03,1.991788849331138818e-03,6.279425024986267090e-01
6.285121998556975065e-01,6.157732136153312164e-01,6.168156252560452746e-03,9.757533602270283216e-04,2.882867907623391270e-03,3.682522959307779945e-04,6.160961985588073730e-01
6.338652833584973445e-01,6.082629221271145248e-01,-1.187402961784572719e-02,6.057021046277455498e-04,4.523765951945150215e-03,-3.448753677196427121e-03,6.334038972854614258e-01
5.451170695718059456e-01,6.499167193808259579e-01,-4.258772268526833660e-03,-4.395720241419269654e-03,9.410514348979526515e-04,-4.107648170369075711e-04,6.086314916610717773e-01
5.953533193500705201e-01,5.726554558734071598e-01,1.831419847826964986e-02,-8.480952110413286088e-03,-1.176030989827776298e-02,-2.291361804135299586e-03,5.666023492813110352e-01
6.358801515413149419e-01,5.727303733659382390e-01,-6.076236006773760856e-03,1.031632546414617321e-03,6.405707001966939700e-03,-1.102525508042937787e-02,6.132270693778991699e-01
6.243822353689619797e-01,6.204676604205041635e-01,1.259599832005281472e-01,3.999518958983537195e-03,-3.496338219533609484e-03,-3.713282021945501013e-03,4.966034591197967529e-01
6.341241725015425157e-01,6.032205069024578759e-01,-1.098478101805838714e-02,5.897297673899232987e-04,4.599899328894936634e-03,9.770489237061876029e-04,6.302791237831115723e-01
6.258617131580267445e-01,6.056175484008012866e-01,-8.110288294415179955e-03,4.401698305720847838e-03,8.712713588745576998e-03,-6.974864640315494961e-03,6.244420409202575684e-01
6.267731274114896056e-01,5.832511818750880650e-01,-7.307977190352088481e-03,4.282575916174429127e-03,1.360742282731706651e-02,-7.711485856100393395e-03,6.141217350959777832e-01
6.032827496676971268e-01,5.902914222152381152e-01,6.067388922505745352e-03,-6.768330320959788614e-03,-4.151526057375145217e-04,-1.937947774167535827e-03,5.909531116485595703e-01
6.267274329336206540e-01,6.252101681861870208e-01,5.777171759187571531e-04,5.296975051656243293e-03,-4.829930818432640743e-03,-4.933122131099346511e-03,6.255740523338317871e-01
4.249263519839671654e-01,5.685679332636558447e-01,3.558130646499235716e-03,-2.723166127737148834e-01,-5.739623976845210224e-02,-5.607844794063378963e-02,7.074577212333679199e-01
6.262765136434419455e-01,6.158010440601808799e-01,-1.188856300373564157e-02,1.096653311830501475e-03,1.516679708609352075e-04,-1.691964986346700724e-03,6.330020427703857422e-01
6.327678925636176510e-01,6.167415258965333047e-01,-5.896751246280695913e-03,-2.204633267876762986e-03,-1.139037799241265399e-04,-6.766141796748638242e-04,6.308168172836303711e-01
6.374780342400887534e-01,6.004002988368790650e-01,-1.029719619983543444e-02,-9.427326895806561937e-04,-5.127494348709743174e-03,-8.368511814845548159e-04,6.301215291023254395e-01
6.229820370172214350e-01,6.274161138669067661e-01,1.193149181177452500e-01,2.312477290471196423e-03,-5.022501641673474300e-03,-1.581130357841856659e-03,5.059967637062072754e-01
6.234106084866584130e-01,7.090055058725256432e-01,5.278927571597685775e-02,-3.319647300930875927e-02,-3.199136858186367449e-02,-2.943637199265512327e-03,6.230407953262329102e-01
6.315172614652133642e-01,6.194902804409833097e-01,-5.776850776358033457e-03,-1.244606134798654758e-03,-9.551414620761424943e-04,-1.399388833512197304e-03,6.313770413398742676e-01
4.733886783001168275e-01,5.969206336795126466e-01,1.254169153406775594e-02,-2.417713787834237515e-01,4.847648443482804881e-02,1.026614323052774252e-01,7.061144709587097168e-01
6.547467629473637807e-01,6.861431209022735844e-01,7.989208500201200325e-02,-1.706148836103623528e-02,5.823021552941472917e-02,4.640872752239846855e-02,6.058042645454406738e-01
6.348395123746395363e-01,6.074338965147720870e-01,-9.915941180002219024e-03,5.572183722320647823e-04,-2.474659968254437712e-03,5.080832902569113602e-03,6.315754055976867676e-01
6.161245148245572123e-01,6.120618700467959084e-01,-1.224063243772133269e-02,-4.980164124057360770e-04,-4.921606872947638898e-03,-2.216028748421663714e-03,6.264140605926513672e-01
7.191106638301155707e-01,6.810329817993385770e-01,6.780998632778939550e-02,2.237799783449684887e-01,-9.889439259245008662e-02,7.767017625935354608e-02,7.736363410949707031e-01
6.282279755938220411e-01,6.147501324521225108e-01,-1.213618780045933043e-02,-1.176764180909349496e-04,-1.959047431294996464e-03,-4.223299192862204851e-04,6.337422728538513184e-01
6.312306996954771821e-01,6.262125699611631457e-01,-6.155934912712712759e-04,-3.266020270966793395e-04,-2.527833021875360302e-04,4.048557145622848352e-03,6.293917298316955566e-01
6.392951235853137071e-01,5.689275751927469482e-01,-9.828030976608836955e-03,-1.133795349299511566e-03,5.984429807739841470e-03,1.375667144523301869e-02,6.175065040588378906e-01
6.326661802274602397e-01,6.160319911600122822e-01,-1.086652479560795692e-02,5.649126414521919151e-04,6.258268715008504705e-05,-7.019941104266867304e-04,6.353808641433715820e-01
7.118097641975053014e-01,6.207773294207598047e-01,1.118431468710568977e-01,-1.003329274877258134e-02,-3.142128623078236510e-02,5.543396063654078276e-02,5.710631012916564941e-01
6.209451461433096453e-01,6.242542984096346448e-01,1.107425583193032970e-01,-4.582207006047400895e-03,-1.354851061425646486e-04,2.084128818008976723e-03,5.119394659996032715e-01
6.223231402648699007e-01,6.333793080807147424e-01,1.265014358159001207e-01,-4.111849099094139030e-03,-3.876246788256749228e-03,-1.677042806571117650e-02,5.023771524429321289e-01
5.987417782269719435e-01,6.704651142901083549e-01,9.277184772873392493e-02,-6.560686540516132148e-02,6.714954703627078192e-02,6.732369975629383385e-02,5.809277892112731934e-01
6.310363217924900292e-01,6.201353688990889346e-01,-9.990853394624521489e-03,1.674554845620830873e-04,-7.594816736013525410e-04,1.813598796408436844e-03,6.356559991836547852e-01
6.289169093285216228e-01,6.246058128014547739e-01,3.648816081228134500e-04,-2.646571061758194818e-03,-1.096471881649408548e-03,4.218646131943502506e-03,6.264698505401611328e-01
6.342121054755912590e-01,6.297831225408794253e-01,3.877060422946099205e-02,-1.741393039766568282e-04,2.890806053712319853e-03,7.626192524995756457e-03,5.934076309204101562e-01
6.306750996406657039e-01,6.203617392316553847e-01,-9.007171410481740192e-03,2.858500716270035726e-04,-8.607292002155849612e-04,2.089723603728691533e-03,6.346006989479064941e-01
6.307119789370150276e-01,5.744633958188707368e-01,6.871264890344119802e-03,-2.950946582039833468e-02,-1.750111244018295181e-02,-1.246058234228469841e-02,6.010391712188720703e-01
6.668894769994965221e-01,5.615514679838841117e-01,8.556719629762288282e-03,-3.179922371541283876e-01,-1.272938784964816432e-02,-6.336417338540735467e-02,8.312875628471374512e-01
6.300980943534191248e-01,6.265781384027565570e-01,7.354199606654510113e-04,-9.311978180577778043e-04,-1.049537439085410518e-03,4.288800912553275731e-03,6.276587843894958496e-01
6.315749749600826357e-01,6.206929779906212863e-01,-9.199093798104740483e-03,-4.492672234958374443e-04,-2.683432347035760290e-03,2.600374355145750830e-03,6.354364156723022461e-01
6.350538011139454930e-01,5.270698829775797289e-01,1.047308436758154215e-03,-8.069936898465014663e-02,-2.599121955569406311e-02,-5.014729089369231174e-02,6.117763519287109375e-01
6.278813537080081275e-01,6.223453373562961577e-01,-2.641314663814120500e-03,-3.654198195551940954e-03,-3.704215298562380399e-03,5.634918422677765229e-03,6.279135346412658691e-01
5.472064205479834076e-01,6.587833829446440026e-01,-8.307275925163226660e-03,8.954365327099166050e-03,3.248058415264953175e-02,-8.198451543023144508e-03,6.217994689941406250e-01
6.537043597998020150e-01,5.987933011794609461e-01,-6.973270444805390600e-03,2.379205525333907573e-03,3.277952800612183855e-04,-6.699997314161462540e-03,6.351248621940612793e-01
6.149124322630914463e-01,6.128420558758617132e-01,-1.418604668960687931e-02,-3.431608793386263859e-03,-4.564185736152898305e-03,-4.825567093423407256e-03,6.281993389129638672e-01
6.110393637455918681e-01,6.108982819855558466e-01,-1.173116944551161334e-02,-2.043561187061295435e-03,-4.526110326084304379e-03,-5.522365522799919241e-03,6.228328347206115723e-01
5.069279809301461270e-01,5.316315201229402376e-01,9.068084158839084807e-03,-2.384383892733515919e-01,-7.574497878789027139e-02,-4.825871766955335679e-02,6.749302744865417480e-01
5.614131656128100722e-01,5.779042783817109896e-01,3.077236604810906773e-02,1.271253489028076160e-02,-7.428740865098552989e-04,2.649488627978576448e-03,5.395461320877075195e-01
6.024406755393685309e-01,5.360380513569145133e-01,3.651747093748808348e-02,4.329254661043922814e-02,4.402565445044273780e-03,-1.892682128891765665e-03,5.411018729209899902e-01
5.562963884953959770e-01,5.802384315814356208e-01,2.847386673380092326e-02,8.169320688750472681e-02,2.428193685177754135e-02,-1.282998137637406978e-02,5.604382157325744629e-01
6.231883707391944194e-01,6.198265535282404537e-01,-1.450242456990602502e-02,1.349308473019677048e-03,-3.419007412814315666e-03,-1.228601895316450490e-03,6.360519528388977051e-01
5.971305340991989175e-01,5.309909735482722937e-01,3.341574903391608675e-02,2.355511653735077593e-02,5.281677613650935434e-04,3.401255855114166705e-03,5.353176593780517578e-01
6.211497371039995663e-01,6.190459466848652337e-01,7.723691322278908311e-02,1.423233445500076376e-03,-5.416506818998869342e-03,-1.867396003967127091e-03,5.429602861404418945e-01
5.966493033246454969e-01,5.271164592046981845e-01,3.199655661665329331e-02,1.742650507179222333e-02,4.031249965321437897e-04,-1.115442158663079763e-03,5.341543555259704590e-01
6.067898225568002513e-01,6.278492824556909380e-01,-1.182508433247447810e-02,-1.048267758228834615e-03,-4.536565558235336644e-03,-5.318472019866896626e-03,6.295279860496520996e-01
6.305928923450551116e-01,6.277874274573738145e-01,8.972425519757842860e-02,-3.444834841329571466e-03,8.319858403822903356e-03,1.994006366458356272e-03,5.397078394889831543e-01
5.747108146547278418e-01,5.734366224500981879e-01,3.272221143687525924e-02,1.950867353195723242e-02,-3.437190653536178965e-04,-5.319190587278297289e-04,5.424072742462158203e-01
6.208121946572993100e-01,6.245526639335892138e-01,-9.586669905482403387e-03,3.651153946671019217e-03,-3.474445903924117465e-03,-3.692056004296801180e-03,6.323699951171875000e-01
5.401942870187068646e-01,5.966678555116564642e-01,3.284852469298815691e-02,4.747196679165636979e-02,2.123886167005961320e-03,3.208464187687198963e-03,5.441008806228637695e-01
9.058308579439171559e-01,3.566290695334838334e-01,3.465933245459945633e-02,-1.334353245063222768e-02,-1.091972972821463050e-02,-1.103083398037062457e-01,7.870890498161315918e-01
6.246588728540950486e-01,6.245629121533042838e-01,2.620876852892917164e-04,3.822777586190399032e-03,-5.205383758288239550e-03,-5.066971531734518371e-03,6.245107054710388184e-01
5.826934660539291322e-01,5.876144358866446371e-01,2.775982503916557542e-02,1.209191565084552153e-02,-9.207836642534609345e-03,8.668622676887095813e-03,5.582336187362670898e-01
5.940976682047196533e-01,6.061059424902395243e-01,7.084177742975927838e-03,-1.342802577788936198e-03,-1.635897860297147845e-03,-7.670955124548283280e-03,5.932689309120178223e-01
7.193948010370865287e-01,4.509742672261696783e-01,-1.005667871741104391e-01,-3.496400501021184049e-01,-2.611411144130985906e-02,-9.031689279322529379e-03,9.451598525047302246e-01
6.230899313002072892e-01,6.274451624738168753e-01,-1.202319148133901283e-03,2.721147491704641128e-03,4.567235668604154898e-03,3.546999457823728913e-03,6.265789866447448730e-01
5.979229669130116109e-01,5.573716547397543630e-01,3.894353846462722535e-02,3.771198435033521618e-02,9.671429278434407958e-03,-9.656648713422014488e-03,5.442995429039001465e-01
5.381290576340919118e-01,5.901949319557873164e-01,2.660442128855111665e-02,2.058049424257901716e-02,4.001591155932783701e-03,-8.484969181803215035e-03,5.408659577369689941e-01
6.304796216144437082e-01,6.055483743742752223e-01,-9.201291864606164772e-03,-1.369399355423310816e-01,-8.966271648744648937e-02,-6.047088800615454951e-02,6.965710520744323730e-01
6.209564725827451115e-01,6.236414963869574279e-01,1.106770752941451663e-01,-4.344188277504754982e-03,-1.451743791746565467e-04,2.097110297144365223e-03,5.116954445838928223e-01
6.283589916297855904e-01,6.259988930469919666e-01,2.789962111423016644e-02,4.917610312491577096e-03,-5.042151723758574698e-03,-4.138878035326302128e-03,5.994498133659362793e-01
5.765436061107124255e-01,5.760145719046149138e-01,2.976436422535955195e-02,2.064330724759606828e-02,-5.297752902598484859e-03,5.665757959882372803e-03,5.478480458259582520e-01
5.815096440565922231e-01,5.683878735536833648e-01,2.623287605009189116e-02,1.020624139406823422e-02,-5.815107649528870708e-03,3.257940499200810431e-03,5.492395162582397461e-01
5.806311703442079697e-01,5.763728063201833951e-01,2.687736915194377518e-02,1.857629612140271336e-02,-5.938771128550440065e-03,4.883721356928119595e-03,5.527349710464477539e-01
5.694049889633829853e-01,5.796545245523343493e-01,3.032079553675259831e-02,4.984781894829377891e-03,-2.529237922955203193e-04,4.616204832014720954e-04,5.443505644798278809e-01
5.314698285466744609e-01,5.998529257499898293e-01,3.204986646674684581e-02,1.719560153826199880e-02,-1.394461439374324084e-03,5.437077049876712365e-03,5.378010869026184082e-01
5.404919920843361814e-01,6.209991544608959302e-01,1.924368472166304578e-02,9.051364048870396556e-03,-1.837917148847175363e-03,1.367914717346857024e-02,5.665357112884521484e-01
5.824769190527760987e-01,6.377550367446023216e-01,-8.843300101236073463e-03,-2.307380176717820867e-03,-1.247276128586805900e-02,-1.135581043645061614e-02,6.215077638626098633e-01
6.295583661947077303e-01,6.286246909952604156e-01,2.478122093584955721e-02,-5.250671231890759356e-03,-7.826408246891514153e-03,2.524167322169575643e-03,6.045470833778381348e-01
6.194704907520786064e-01,6.294906582500674475e-01,-9.623596183106652990e-03,-1.230354143371088565e-03,-2.197747533675493883e-03,9.227658652352304465e-04,6.341805458068847656e-01
5.696051573559424153e-01,5.750146033560491476e-01,3.130752212142756674e-02,4.240271613462807780e-03,-4.577979215116414840e-04,2.028095319828698839e-03,5.410844683647155762e-01
6.258237627789373647e-01,6.257133012701068253e-01,6.484778295371546042e-02,-4.968323391987164266e-03,-5.263980315933511692e-03,2.899134820893353986e-03,5.610833168029785156e-01
6.193532022871504061e-01,5.958799124928578772e-01,-6.114312736214322364e-03,-1.039150281993033755e-02,1.145459510363733106e-02,1.116616924299636097e-02,6.149556636810302734e-01
6.840490264598628745e-01,4.289794069426430267e-01,2.225031357423251643e-02,-2.951788282050429521e-02,1.194094624420847031e-02,2.327513598247218235e-02,5.821513533592224121e-01
5.911249704411023487e-01,6.126108211608576326e-01,5.126418706636715061e-03,2.406452356622146641e-03,-1.682893918376714712e-03,7.310804165480467610e-03,5.971874594688415527e-01
7.294969884814841432e-01,3.781901427874189703e-01,1.563738162093747386e-02,8.174887944615398527e-02,-3.314755210052639650e-02,1.042109185446146863e-01,6.619312167167663574e-01
6.282561255639039777e-01,6.180080023399985301e-01,-1.083665277575507346e-02,-1.430026563106627339e-03,-2.297306036266628416e-03,2.458047899688352560e-03,6.340624690055847168e-01
4.281018549365785963e-01,7.836941219298592110e-01,2.219871611180113113e-02,3.172495384984296840e-01,-3.105816456440657972e-02,5.117822034826615546e-02,8.650043606758117676e-01
7.590556603414380099e-01,2.832845147690933318e-01,-2.982973287106799321e-02,1.480425568849471629e-01,2.354129358045453646e-02,-3.167493171057837731e-02,7.374223470687866211e-01
6.167171060602485433e-01,6.115736392898484253e-01,-1.163446053985250916e-02,1.754097387296357780e-03,-5.683311708689264309e-03,2.543640898346404000e-03,6.258959770202636719e-01
6.258407871386874044e-01,6.256434481887557242e-01,-1.485961623123921438e-03,-4.605109842095384334e-03,-5.662612751455769165e-03,5.452780274895802255e-03,6.274265646934509277e-01
6.300792356686144569e-01,6.246343998999919211e-01,-6.282073884472660907e-05,1.570055850286669087e-03,8.441320252138136094e-04,3.889065359764794921e-03,6.274811029434204102e-01
6.281053913660498145e-01,6.245890153295167169e-01,-2.351886541219483373e-03,-2.309363006828866506e-03,-3.679223955607162973e-03,5.790646032186958815e-03,6.288314461708068848e-01
6.848923561233325463e-01,4.957544076430161484e-01,-1.511878133388155909e-03,3.419350834557479124e-01,-1.891650435013420700e-02,1.136652961581584645e-02,8.540015816688537598e-01
6.192937292387235004e-01,6.090219234671754300e-01,-1.168075809372237650e-02,1.861877371795416566e-03,-6.084992177705401614e-03,3.034831597201831377e-03,6.260209083557128906e-01
6.244290928247482331e-01,6.201943077279442607e-01,-1.012501256769282598e-02,-2.708488643865084294e-03,-3.394558963705707026e-03,3.090319032723512493e-03,6.325147151947021484e-01
6.607855253048449118e-01,5.477044523217131644e-01,9.340134600919758334e-04,6.326591300922255329e-03,-7.136705403970194234e-03,1.527024409164062964e-02,6.120024919509887695e-01
6.033422724654898817e-01,6.097301699564968702e-01,-8.689230323054908389e-03,-2.595370008710041424e-03,-3.912486732118890861e-04,1.046663687473331711e-03,6.152697801589965820e-01
7.649207267257569498e-01,4.586424241374248423e-01,1.209437505141225389e-02,-7.873160776434323660e-02,4.584101639585847626e-02,4.005619553082790524e-02,6.780068278312683105e-01
7.972896879234687706e-01,3.644089966376043987e-01,8.059489846775069744e-04,9.719762558326768345e-03,6.069417767601699779e-03,4.588851232171808903e-02,6.954860091209411621e-01
6.056813787962650464e-01,6.100711640566713889e-01,-8.577995637687296782e-03,-2.852217321629720026e-03,-1.204180273454010961e-03,-4.358513036269387290e-03,6.165355443954467773e-01
6.245977656090345720e-01,6.217223686070337818e-01,-9.806918311971613011e-03,2.748107559264710131e-03,-3.926591703488642449e-03,-3.382102892236938524e-03,6.330534219741821289e-01
6.211361926345757567e-01,6.189348042213136392e-01,-1.434996752390887975e-02,2.229018634147965187e-03,-1.895788602084018523e-03,-2.433470808164326336e-03,6.344226002693176270e-01
6.223312271761634040e-01,6.183100320346026635e-01,-1.046463725945845358e-02,-3.547084617471185338e-04,-3.873850231465107360e-03,-3.302197340259756340e-03,6.308568120002746582e-01
7.042905149725271485e-01,8.210026885004565456e-01,9.715475379898702579e-02,1.586264712367546625e-01,-1.262433979686687358e-01,1.181394211533757510e-01,7.862987518310546875e-01
6.000483367057232176e-01,6.002053014732661174e-01,2.316274333853340917e-03,-2.639887961291274496e-03,-6.826055600303139806e-03,-8.513414603547188320e-03,5.981267094612121582e-01
5.857363937603169424e-01,6.134752501507336753e-01,1.922635663533345252e-03,-1.205340418326577775e-02,-6.220930096686306914e-04,-1.349034792404149759e-02,5.989868640899658203e-01
5.431111238493756543e-01,6.481696034111910087e-01,-4.025988090372245587e-03,1.688202547960222441e-02,-1.815529950136970591e-02,1.027781908759126291e-02,6.083078384399414062e-01
5.360199788040087565e-01,6.917255936220628731e-01,-4.887162794776633845e-04,9.729759809823618211e-02,-5.387937245555440152e-02,2.906087874463373147e-02,6.597471237182617188e-01
5.343711792366327984e-01,6.513295425093181823e-01,2.690849122366467672e-02,1.569174416406656225e-01,-6.587601927962807857e-02,2.194159218177648557e-02,6.472110748291015625e-01
4.939798079378504014e-01,6.432598771444176800e-01,2.143093169457849223e-02,2.383876100703136713e-01,-8.079915526046542451e-02,8.958557585391438427e-02,7.282013893127441406e-01
6.158637637267307952e-01,6.282183557732204937e-01,-1.174014880245682901e-02,1.835303309419552414e-03,-5.374512265828861220e-03,-5.398910563375040016e-03,6.340168118476867676e-01
5.673818125209829644e-01,7.483145377010977928e-01,7.804280516281314473e-02,8.286106399753816187e-02,-1.336032263900109596e-01,5.518187168382003571e-02,6.663401722908020020e-01
6.149678308500041712e-01,6.351194299825584366e-01,-9.005765070765114899e-03,-7.486580915327786280e-03,-6.213077943174842056e-03,9.130839600343562375e-04,6.345152854919433594e-01
6.156061793904458179e-01,6.237109835601150065e-01,-1.333647716252028825e-02,8.937363494002987423e-04,-5.096948989032681074e-04,-2.900273145362909730e-03,6.330564022064208984e-01
5.164043012287330425e-01,6.608633344852496982e-01,5.713699193107629748e-02,1.620536511107319722e-01,-1.244585591063742530e-01,3.691828420508495856e-02,6.538218855857849121e-01
4.718360608847118609e-01,6.626548275523407305e-01,2.168829201881644630e-02,1.177874853285852848e-02,-1.401156695165992755e-02,1.615595866847744158e-02,5.716027617454528809e-01
6.022598514382322410e-01,6.373771713606354306e-01,-6.024075613989321454e-03,-3.977743066146859421e-03,-9.285395897626827141e-03,-3.501892005619714702e-03,6.268546581268310547e-01
6.302656902724000920e-01,6.266879862249002953e-01,1.018385949646480326e-01,-1.983137499457285260e-03,-2.611578446235267737e-03,5.680088492557473778e-03,5.267698764801025391e-01
5.887616176600795059e-01,5.568340255959727259e-01,3.453226642548007375e-02,-7.913809782170627694e-03,-5.996278418004202283e-03,1.387730067674113055e-03,5.392549037933349609e-01
6.207498100659398776e-01,6.217244277586655432e-01,-1.312789893185639656e-02,-1.275009192025372074e-03,-2.072815469203311608e-03,1.099280080090172997e-03,6.343824267387390137e-01
7.309848712017550376e-01,5.086681034173410332e-01,-3.557472048130616571e-03,-6.885950909652022167e-02,-1.551775659748333251e-02,-5.200227912570345307e-02,6.698777079582214355e-01
6.295332877333762456e-01,6.267542475028083926e-01,2.062507677225589031e-02,-3.168501426761898606e-03,-6.815685119883885951e-03,3.266617142436165598e-03,6.076892614364624023e-01
6.103142374507496415e-01,6.225034201543582224e-01,-1.340349863801010288e-02,-1.630146222756165484e-05,-2.850859559848155107e-03,6.135209359016836200e-03,6.300097703933715820e-01
6.207288992154345042e-01,6.158644477738579592e-01,-1.297022375491363455e-02,-1.340001317954123703e-03,-5.338591146077791309e-04,1.087706044560882244e-03,6.312887072563171387e-01
6.206687491405034063e-01,6.203272702683015893e-01,-1.248882877938184421e-02,-2.219696335918781675e-03,-7.350193109199656136e-04,2.649787460590074129e-03,6.330165266990661621e-01
5.899146884967938487e-01,6.086726383320190115e-01,-1.298865046494568354e-03,-8.095551903404397606e-03,4.058789638683018945e-03,8.480784591302631750e-03,6.011964082717895508e-01
6.016432746871297477e-01,6.098721776883915258e-01,-2.212118003115604026e-03,-2.374475788517915102e-04,2.974795023210900780e-03,5.472893333731887987e-03,6.081074476242065430e-01
6.331791239023177864e-01,6.288949990294465664e-01,2.523656119908135320e-02,-3.154817875735918542e-03,-7.916967173911203595e-03,2.510819880120074548e-03,6.060072779655456543e-01
6.100632461998297673e-01,6.009956449677374968e-01,-5.605682349627660876e-03,-1.755304481542819791e-03,7.272078998440370708e-03,3.064546036341499712e-03,6.113459467887878418e-01
5.852780461662531186e-01,6.060638382988750017e-01,1.130413217767300971e-03,-4.196893907019329586e-03,5.726118223367425344e-04,1.074135264759797613e-02,5.951490998268127441e-01
6.092216040063360705e-01,6.098740655855585668e-01,-4.712561144365690069e-03,-1.516352729921792387e-03,6.895319932552316199e-03,4.865201885038127408e-03,6.144401431083679199e-01
6.036748534586047210e-01,5.977359281887174580e-01,4.375609154132764633e-03,-3.442343855286035190e-03,3.077384106589638657e-04,1.485271665566039595e-03,5.963875651359558105e-01
5.900306377241162359e-01,5.983090488061393319e-01,2.088160414418060995e-03,-1.464121155358590227e-03,7.218451397043448327e-03,1.376240360190463538e-03,5.922672748565673828e-01
6.263485663152428273e-01,6.180650602162520713e-01,-1.243960728415105521e-02,-8.774848898704038077e-05,-7.640878608597560838e-04,1.244547239171332406e-03,6.346920132637023926e-01
5.768546936739087361e-01,5.725584046985126019e-01,2.944880470390842664e-02,-1.762894217001243977e-02,-5.785294992367516140e-03,-7.293439505295830003e-03,5.463626980781555176e-01
6.154746844940093276e-01,6.150404598888363772e-01,-1.504732399825592370e-02,-7.012698715815193296e-04,-1.564990378812845936e-03,2.838079122199923220e-04,6.303122043609619141e-01
6.245486703874187917e-01,6.235845273547448997e-01,1.442872421280438910e-03,8.906410758734817183e-04,1.382170740786195680e-02,1.281553994280532245e-02,6.234815120697021484e-01
3.960359581360902714e-01,6.713697854748410521e-01,2.855367774886985455e-02,-1.242472886951865862e-01,-3.859335686672091259e-02,-3.638832400511796128e-02,6.056278347969055176e-01
5.683584848090326158e-01,6.688313993116377087e-01,-2.699540989226090204e-04,-1.064909578513508620e-01,-5.524926243861669195e-02,-3.179542555812132909e-02,6.608904004096984863e-01
5.819965254665686594e-01,6.676728560140149371e-01,6.078794096509632094e-03,-1.070210120082167315e-01,-6.336159645915685756e-02,-3.172406794841903244e-02,6.616554856300354004e-01
6.237654227438784726e-01,6.136042881432426377e-01,-1.337011473133098427e-02,3.873677158318680064e-03,-4.300168007400452692e-03,-3.584566182201191602e-03,6.322261691093444824e-01
5.345247024576246231e-01,6.253943107414090541e-01,1.715602477958882988e-02,-1.563233204176199889e-02,-1.544877640231042066e-03,-1.104895785828702293e-02,5.692514777183532715e-01
6.144380590883020687e-01,6.317116684052630493e-01,-1.307287729033457246e-02,3.465227793854754154e-04,-7.254946073804349315e-04,2.802339083455061917e-03,6.363436579704284668e-01
6.159134613694399185e-01,6.164631413964468676e-01,-1.517723745145055370e-02,1.190645275214765171e-04,-1.370019438713276526e-03,-9.420122232744410290e-04,6.313723325729370117e-01
5.221068681589470240e-01,6.232034511904445129e-01,2.834026393801042376e-02,-1.073139069650234055e-02,-1.194974437076896760e-02,-1.499524744440401680e-02,5.526233315467834473e-01
6.327667640249109438e-01,5.372409933709492158e-01,3.187630616145298301e-03,-1.821645349286324378e-02,-1.784938878693278358e-02,-1.852536365847872249e-02,5.901990532875061035e-01
5.391079594501759775e-01,8.928996222070892941e-01,8.494930451785565051e-02,-1.110503055036190789e-01,1.374380169986679223e-01,4.335655139350196724e-02,7.690316438674926758e-01
6.203065076709497472e-01,6.249885267854582427e-01,-1.369797103829462070e-02,2.703237574443584108e-03,-8.989647453892411419e-04,-2.205684612736084384e-03,6.363890171051025391e-01
4.915135867212520604e-01,6.327186889184001073e-01,3.543441352867160443e-02,-5.653800673526121479e-02,-8.786250106807357019e-03,-5.055364252725568462e-03,5.497687458992004395e-01
6.165022849568049246e-01,6.228019639881494651e-01,-1.442191407211346199e-02,1.190853614452806958e-03,-1.537491620101044502e-03,-1.614419038144655587e-03,6.341125965118408203e-01
5.326437632481537676e-01,5.451900024197091632e-01,1.407322056662296816e-02,-1.299844940654870940e-01,1.211558149915505957e-02,1.410684082732790653e-02,5.721050500869750977e-01
6.302720092707494448e-01,5.847452804705499663e-01,-8.445693884248761663e-03,1.577776418906724114e-03,-1.230390174594948524e-02,8.971119478836131825e-03,6.177842020988464355e-01
6.250829698752286001e-01,5.833586541271572612e-01,-8.441436028124305047e-03,4.691671675293619323e-03,-1.250852330152282636e-02,9.283507742105854069e-03,6.143734455108642578e-01
5.782391586726369770e-01,5.704361929248779051e-01,1.782281227506454790e-02,2.542341228600922265e-02,-1.932895756401516868e-02,1.748047036251402023e-02,5.601170063018798828e-01
6.205041609294859040e-01,6.094339953221442618e-01,-1.359433359269812680e-02,4.600370670304797455e-04,-6.247601446335168673e-03,4.509938113518667351e-03,6.287786960601806641e-01
6.154799000555720712e-01,5.867840527125787187e-01,-8.972979237919731510e-03,6.583393333437927326e-03,-1.235148179082301914e-02,9.879065924224217365e-03,6.113314628601074219e-01
6.142868013980370412e-01,6.082193633424555212e-01,-6.777999988011096377e-03,7.214188984738882301e-03,-1.256813710958541025e-02,1.370485959058375183e-02,6.190181970596313477e-01
6.249513027222348693e-01,6.287005666468594711e-01,4.671515792120106703e-04,-3.402838718415116936e-03,-4.826930280880068445e-03,3.641570174776392259e-04,6.264510154724121094e-01
7.268066224846319034e-01,4.706338779619164137e-01,9.758909967197360036e-02,3.356528447948235738e-02,-1.248411193612393791e-02,1.387603239132801924e-01,6.016323566436767578e-01
6.088465464389839488e-01,6.257098305301437291e-01,5.030384889242067725e-03,6.474374973621646601e-03,-9.649357212586159513e-03,1.320796057302210842e-02,6.131795048713684082e-01
6.285594475988428576e-01,6.175727467393172798e-01,8.321298497299678409e-03,2.568772144925617496e-03,-3.229565469921445286e-03,2.219763670291723199e-03,6.148719787597656250e-01
5.991889108604235847e-01,5.869566459514217183e-01,5.527848911136190591e-02,1.149322848501295735e-01,-4.750481856451856805e-02,1.240770918059918709e-01,6.179957389831542969e-01
5.827711057291651287e-01,6.118569512504310470e-01,9.024234350531623594e-03,1.982058827775055529e-02,-7.730204843962387891e-03,1.115005735312503583e-02,5.902966856956481934e-01
6.512056384539737230e-01,6.171256175588798465e-01,-8.261375417158878243e-03,1.011411186655997857e-02,-1.001821085784495961e-02,2.637048120795083134e-02,6.451959013938903809e-01
6.213970161374138268e-01,6.336064623041759436e-01,-2.548265841823826872e-03,4.593365910011052052e-03,-1.225506388446277045e-02,-1.159140735627994107e-02,6.308658719062805176e-01
5.030227195593013345e-01,5.292521742522160455e-01,2.636130824458915445e-02,-1.634204647821557999e-01,2.139594326033460517e-03,9.261431389659010444e-03,5.663801431655883789e-01
6.264526655307403047e-01,6.306973715435093553e-01,4.192268762209794275e-04,1.817945761193497838e-03,-6.482156650125671382e-03,-2.275439006786318229e-03,6.282871365547180176e-01
6.141931271991807328e-01,5.210083467781964073e-01,4.742921140447370343e-02,1.465845421363669021e-01,-4.863351101009423527e-02,1.085966846136343089e-01,6.196994781494140625e-01
6.520566379066825569e-01,6.322426969484761239e-01,4.428274995976233530e-02,7.583317547463238814e-03,-2.794215955614036320e-03,-7.710653928317088603e-03,5.984259247779846191e-01
6.895819716941212763e-01,5.000786270927467525e-01,1.913919397262264788e-03,7.835712152865574034e-04,7.695186603196608674e-03,-3.163282366303984267e-02,6.177902817726135254e-01
6.165863890175024009e-01,6.313837042940488864e-01,-1.103309758386361583e-02,-1.147415330353394099e-03,-4.578927224958582141e-03,2.917666976921891656e-03,6.352201700210571289e-01
4.607754639401591135e-01,6.770772705365633026e-01,3.190971251599744596e-02,-1.931614582544369935e-02,2.491669425679570934e-02,1.460908163855337803e-02,5.719255805015563965e-01
6.260997340700703573e-01,6.161254930607016345e-01,-1.190928983645667127e-02,-3.955309858926780997e-04,5.081170553450687494e-03,-4.241052521455457303e-03,6.331849694252014160e-01
6.403801529478219123e-01,5.938851710162011965e-01,-9.206974998866135351e-03,-1.697068368048869303e-03,3.908138651411255686e-04,-1.025127015685605228e-02,6.278909444808959961e-01
6.514979989062240628e-01,5.331537318472487907e-01,-3.299522369727303506e-03,-9.629680229687307856e-04,1.159845802925736462e-02,-5.265251567228311502e-03,6.047835350036621094e-01
6.303135086851401336e-01,6.177603791299540736e-01,-1.013673878144061291e-02,-7.620301121562681802e-05,2.661212717114897451e-03,-3.123888200723618294e-03,6.343066692352294922e-01
6.299552436909640063e-01,6.116186399767205017e-01,-1.197517998118152738e-02,8.338215955921627178e-04,5.131587134803104397e-03,-3.919135918884830878e-03,6.330618262290954590e-01
6.141741195440357792e-01,6.163747873943706823e-01,-1.430988124646026538e-02,-4.015856486976505935e-04,2.527965857598385934e-04,-1.334898391973486382e-03,6.295920014381408691e-01
6.160047671339002884e-01,6.162816200849370318e-01,-1.465902155875808965e-02,1.185600813126960342e-05,8.717957516338170057e-04,-9.591812080327335403e-04,6.308062672615051270e-01
6.098013628778865547e-01,6.311051316862301697e-01,-1.193206369982552362e-02,1.671403217598796311e-03,-4.780436929790088559e-03,5.557313915060722864e-03,6.327884197235107422e-01
6.185142977079769455e-01,6.218972484882210328e-01,-6.987213543130310622e-03,2.881188322288215234e-04,-1.907457322318675374e-04,2.443035555175999008e-03,6.272143721580505371e-01
6.215504221652244921e-01,6.159687925361150285e-01,-1.521340080602212597e-02,-6.062450144424927139e-04,1.115218887268281268e-03,-7.023430602391060422e-04,6.339964270591735840e-01
6.217038000177699253e-01,6.144425443026162448e-01,-1.557652108440998884e-02,-2.533608380239332769e-03,2.837373863119638066e-03,9.576275225111672662e-05,6.337151527404785156e-01
6.220382297693644036e-01,6.096718651896153585e-01,-1.220572804009867340e-02,2.456747402446082112e-05,7.596566043087657483e-03,-3.639483107964037231e-03,6.283214688301086426e-01
6.175296507947436453e-01,6.098177259536622374e-01,-8.779602751055048948e-03,1.124590163125792353e-03,7.912852673275858409e-03,-4.354050899257629233e-03,6.226887106895446777e-01
5.661481564336970917e-01,5.766639801532448262e-01,2.542206957936760103e-02,1.268165811886541421e-02,-2.602986337818322636e-03,5.051789084840547020e-03,5.465902090072631836e-01
6.126700115119838586e-01,6.152002410656707276e-01,-1.494063173766513319e-02,-1.082165034435055018e-03,-1.883670800265059510e-04,3.846308603011573614e-04,6.288828253746032715e-01
6.192309821989896435e-01,6.159056161424725229e-01,-1.506441408912079227e-02,-1.090068100325650591e-03,-2.120812307820981943e-03,1.311829216484294933e-03,6.326568126678466797e-01
6.157076761812321219e-01,6.144131754820603142e-01,-1.389244258392369202e-02,6.993642477785400437e-04,-8.572494910984377055e-08,-4.349727417493839151e-04,6.289554834365844727e-01
6.190260693500223566e-01,6.203692928994535283e-01,-1.458222890875116029e-02,-1.384569074053360657e-03,-2.381224772430850546e-03,3.395432474279705230e-03,6.343261599540710449e-01
6.084159054103808195e-01,5.987371560634335843e-01,-3.416700716469933674e-03,1.918594464379908904e-03,7.414542393197285156e-03,-4.449389121933625298e-03,6.072449088096618652e-01
6.101869638923421713e-01,6.326223127259733570e-01,-1.008311563219038698e-02,-6.464546902325025296e-03,-1.453101278785709841e-03,-1.268704882818284026e-03,6.318946480751037598e-01
6.040626081526286884e-01,6.234375965937645203e-01,-9.347685877117928310e-03,-1.550823961522234664e-03,2.757332146378449434e-04,-8.094269276063119703e-03,6.234872937202453613e-01
5.415292955265543773e-01,6.260393763733892447e-01,6.250803700422025155e-03,1.783061217058344236e-02,2.036200648048785283e-02,-1.291163716738884075e-02,5.844649076461791992e-01
6.094508773373062960e-01,6.044050303579761030e-01,-7.835236874423001652e-03,-2.517454994941377248e-03,9.756647616701573942e-04,-4.468627662948364146e-04,6.147969961166381836e-01
7.137733214911035073e-01,3.831973253462433449e-01,3.716794347665908216e-02,6.589241919287580629e-02,-1.483247309706413157e-02,1.279843729644102035e-02,5.979821681976318359e-01
5.275484193767694396e-01,5.498597797162606549e-01,3.172104155034954909e-02,8.426357122887552509e-02,-3.265935935713783125e-03,2.184306871895173689e-03,5.279701948165893555e-01
6.154873262157170011e-01,6.311145217019336062e-01,-1.203500512345356821e-02,1.367840328494450983e-03,1.334784762232951716e-04,-1.333912794174562950e-03,6.354886889457702637e-01
6.166675927657316869e-01,6.191380558914557630e-01,-1.484130829851654232e-02,1.578314756954379155e-04,-2.043142839970238291e-03,-2.564984429966474504e-03,6.327732801437377930e-01
6.161182793914767863e-01,6.191473234354291089e-01,-1.490331869209132742e-02,-1.382279103743219240e-04,-1.821001765380518989e-03,-2.558834554620524702e-03,6.325650215148925781e-01
6.162488059362922765e-01,6.164543188244441252e-01,-1.474618056419679801e-02,1.291587323555964538e-04,-9.272300665588472171e-04,-9.373356910777491408e-04,6.311019659042358398e-01
7.728473184782247429e-01,3.442673356618419223e-01,3.596874717151515854e-02,8.335342119888614065e-02,-2.455051267266306417e-02,2.204888904583555964e-02,6.595221161842346191e-01
5.752435593449901630e-01,5.697299630940443338e-01,2.895390674299980205e-02,-3.644482023360949997e-03,-2.479503829303858747e-03,-1.148661488446695673e-03,5.436111092567443848e-01
6.109741731353348637e-01,6.165784845036021977e-01,-1.086650565552393921e-02,-1.260712351049437987e-03,-3.301063113066430698e-03,-5.265383990327546747e-03,6.247582435607910156e-01
6.994512220759905308e-01,4.071657432531131660e-01,3.707886845356145322e-02,5.014864796439315320e-02,7.626351455866266357e-04,1.581171798555871394e-02,5.821190476417541504e-01
6.215550662291537964e-01,6.307180643059082659e-01,-1.059431943017730138e-02,1.791648753352582208e-03,-1.721732337105057100e-03,-6.105046940998709983e-04,6.367957592010498047e-01
7.461691068741886923e-01,1.967707993984159076e-01,1.002039819414013433e-02,1.869822788085548082e-01,-9.134391050526111458e-03,-1.795350586134282196e-03,7.378764748573303223e-01
6.734304096241847670e-01,2.494034583946238282e-01,5.324240355179699069e-03,2.277123200245496359e-01,2.122274149619135866e-02,-4.155431602938131769e-02,7.106053233146667480e-01
6.189947287656092367e-01,6.271243935732793151e-01,-1.245511056152542873e-02,-2.862908575344903827e-04,-2.159279723747036320e-03,-2.529573555569743660e-03,6.355799436569213867e-01
6.815724925854931282e-01,3.500356263352222275e-01,2.202887501369105161e-02,2.455916580135842076e-01,4.618438207804788018e-03,1.920565258282152729e-02,7.129991650581359863e-01
5.599078248049490503e-01,6.188872597024489552e-01,1.367395574349300480e-02,-1.445911900740899925e-01,4.811013796110691354e-02,5.180351743074506493e-02,6.417016386985778809e-01
6.152508027420690029e-01,6.287435665749310232e-01,-1.312568978314987422e-02,-7.086938651941005396e-04,6.762205952638609355e-04,2.889940508393446829e-03,6.352523565292358398e-01
6.188554820764747832e-01,6.307976326553783597e-01,-1.090261892255445231e-02,3.598784742139582481e-04,-1.661769430198496624e-03,-6.099506366213971456e-04,6.358209848403930664e-01
6.533509741564748063e-01,6.930663921527384641e-01,7.310906451027598951e-02,-2.125993991445414982e-02,5.562844998908259009e-02,3.789283804591345867e-02,6.133919358253479004e-01
3.634506677253484530e-01,5.972054816655947285e-01,-3.803119960951506506e-03,-2.771517214594097500e-01,-4.965820917663289237e-03,-2.198425354604983603e-02,7.122690081596374512e-01
2.443656029121052675e-01,7.579148530118899885e-01,-1.104990320819629890e-01,-2.031092578132337179e-01,1.801762009477013080e-02,1.564482795281863653e-02,8.350871205329895020e-01
6.035864524376365337e-01,6.087917052733650136e-01,-8.951743331872319409e-03,-2.300574510110411594e-04,-1.247712852093057134e-03,-4.276353406124284474e-03,6.152058243751525879e-01
4.427364746004004981e-01,5.739669690144605374e-01,-1.595641001264802572e-02,-2.783932795851474795e-01,-4.767698425391406897e-03,3.321630007828880321e-02,7.236723899841308594e-01
5.343685481215814104e-01,6.331158868830886188e-01,9.131001833171503712e-03,-1.581061892291283910e-01,3.924353799084116107e-02,4.378637828087311723e-02,6.502737402915954590e-01
5.953561660398242195e-01,5.989650707852161027e-01,9.053722179026335581e-03,6.032761001992383888e-03,-7.708510706706034853e-03,9.439208274559416148e-03,5.885866284370422363e-01
6.216000306885096638e-01,6.303104043712586257e-01,-9.277738251588840690e-03,3.809074121358982617e-04,-2.512820102115622626e-03,7.879417605830742882e-04,6.352944374084472656e-01
6.040096751757257909e-01,6.314169391566877287e-01,-1.024972789433853393e-02,6.324787446576422010e-04,1.894620489448434273e-04,7.472763149694104656e-03,6.285457611083984375e-01
5.972025538288406876e-01,6.023903873484492966e-01,-3.327641739614917160e-03,3.462385368691819811e-03,-2.877401056778194476e-03,5.620908221765364733e-03,6.032698154449462891e-01
5.926383045864594967e-01,6.011461872756257430e-01,4.065429883773952202e-03,5.114328004749051429e-04,-1.742155293722907764e-03,7.219292485324022707e-03,5.930128097534179688e-01
6.114277121022728689e-01,6.238406437285989314e-01,-1.312128896236169906e-02,1.418783286610719166e-03,-3.076721233868860185e-03,5.960104357783864090e-03,6.309587955474853516e-01
5.871675032070824418e-01,5.907921479031872369e-01,1.148515225516816285e-02,1.056691943978485234e-03,-3.779253546224564924e-03,5.747289226008662349e-03,5.776289701461791992e-01
5.962387616675126623e-01,6.006393034896433392e-01,-2.317567608973947202e-03,7.593300022649049179e-03,-9.302563276264108616e-03,8.029871056095507637e-03,6.012895107269287109e-01
6.155236394612291217e-01,6.285902001333025790e-01,-9.526690893478628741e-03,2.345758546871793814e-03,5.936222625372996123e-03,8.187104535692081575e-03,6.319408416748046875e-01
6.233912415707882904e-01,6.264771088029233992e-01,-5.504543645785786588e-03,-4.085632493037954713e-03,-4.271062328403721700e-03,1.833326851256199350e-03,6.305354833602905273e-01
6.078644529633107085e-01,6.290077068260038207e-01,-1.060968719036531338e-02,2.373988050367896918e-04,4.648071669784305422e-03,7.932174232279150944e-03,6.295138001441955566e-01
6.090696471367048614e-01,6.095217681630963336e-01,-5.549514316571135808e-03,-3.059301253629041761e-03,6.630611276183981731e-03,7.723170032422969379e-03,6.151208877563476562e-01
6.148515940828179760e-01,6.125741321806857931e-01,-1.519303907452668190e-02,3.978176379288768947e-04,-5.730096950563787466e-04,1.653606375314037617e-03,6.289166808128356934e-01
6.143803117743107389e-01,6.219913243647872125e-01,-1.155420827810876849e-02,2.499533838645311146e-04,2.274674239015006538e-03,5.048102647363019585e-03,6.298477053642272949e-01
5.832672767808838588e-01,6.258044677156062718e-01,-1.015897956368622124e-02,-7.501566869462536133e-03,1.247144383113549249e-02,9.013753410260505472e-03,6.165111660957336426e-01
5.969245482866740726e-01,6.116303027453053875e-01,-7.108923852876980476e-03,-1.674429633221979907e-03,4.729560290404405225e-03,8.112777522188066928e-03,6.117421388626098633e-01
5.680205193047069834e-01,5.742902598780343926e-01,2.525968069487383172e-02,-1.166735528656650915e-02,-3.138608585633594333e-03,-6.175853027170515215e-03,5.464283823966979980e-01
5.763099320582740770e-01,5.612817028254045715e-01,3.077102503455175775e-02,-1.342288003080202748e-02,-3.149523251074950753e-03,-7.719006178868349647e-04,5.387133955955505371e-01
5.760088154649773973e-01,5.785906766863141426e-01,2.648340328717918579e-02,-1.358590567699345881e-03,-2.335217105280339676e-03,-4.433421563602041662e-03,5.508942604064941406e-01
5.749574104194680180e-01,5.762146664800846807e-01,3.571125655020784828e-02,-1.740003136627085029e-02,-1.971530949349703434e-03,-8.647193418251563008e-04,5.407292842864990234e-01
6.135007685371092201e-01,6.163932042398239108e-01,-1.468681254535858516e-02,5.217246439281965115e-05,-2.069105393233883672e-04,-1.641631067306169268e-03,6.296452879905700684e-01
6.156463515811176901e-01,6.256831091692435232e-01,-1.310469046976459051e-02,1.725207360263329888e-03,-1.845830843227210514e-04,-2.443301592606721660e-03,6.338502764701843262e-01
6.171635695363640872e-01,6.092833112768346604e-01,-7.807706930329449957e-03,-3.631407974316972495e-04,-5.009551052439051473e-03,-8.953873779550483190e-04,6.211314797401428223e-01
6.008024297089948895e-01,7.288580216665220268e-01,1.161850023062728221e-01,-8.749142721884628493e-02,-1.109769227797833546e-01,-4.240044512337308100e-03,6.109632253646850586e-01
7.939278353290171175e-01,7.233813480381554584e-01,1.037848278832618210e-01,-5.339467003616141932e-02,-1.153939496483309957e-01,-1.915111683088979028e-02,6.943972706794738770e-01
6.208660390616457248e-01,6.272486413599589472e-01,-6.359685468000364494e-04,7.046867521256642078e-04,-4.870670529099974458e-03,-3.690608224493635656e-03,6.248086094856262207e-01
6.440174608554452007e-01,6.565744877989468931e-01,1.302824305358151191e-01,-2.963712309611853460e-02,-2.526560101775267991e-02,1.221213007313000191e-02,5.249093770980834961e-01
6.020006878443008302e-01,6.244519521156792763e-01,-8.850281713458030275e-03,-7.405948263956612298e-04,-4.689057368771046741e-04,-8.067456935506880922e-03,6.225391030311584473e-01
6.408199527800412243e-01,6.268437405606304136e-01,1.293108956066293946e-01,-4.063820975444742446e-03,-1.034770502238060823e-02,5.268591072662667102e-03,5.051157474517822266e-01
5.550835852237767654e-01,5.962167885713602900e-01,2.547606912869820883e-02,-4.211177047528298634e-02,-1.134044546743511600e-02,-9.527202728671902571e-03,5.567215085029602051e-01
6.006599407324991757e-01,6.470736718858101089e-01,-8.246867616971409465e-03,-4.452704006774823794e-03,1.715394059526699619e-03,-5.747300118688335527e-03,6.335225105285644531e-01
6.202098425575612861e-01,6.276419048727009953e-01,-1.225275683654386549e-02,6.614877316049382972e-04,-2.158317401191929812e-03,-2.528446204786723335e-03,6.362382769584655762e-01
7.034509320153592427e-01,6.877987271634909971e-01,1.325737849200472884e-01,4.449924714968792570e-03,1.823703618828044016e-03,-1.694167102290745214e-02,5.640395879745483398e-01
6.013807440759876277e-01,6.355608114860786806e-01,-1.018672960782029957e-02,1.474372167554928860e-04,4.083164515375538599e-04,4.976503830393977715e-03,6.294134855270385742e-01
6.079123840376474686e-01,6.164258713235150067e-01,-9.986077405285231912e-03,-1.619925538383231584e-03,-4.939224010105351540e-04,7.625233720513857269e-03,6.223459839820861816e-01
5.800554555869069651e-01,5.707259949413056033e-01,3.050641604680043306e-02,-1.768353899888966147e-03,2.848927721991460337e-03,9.239195060734367798e-04,5.449774861335754395e-01
6.255883716800274552e-01,6.038554971830872864e-01,-7.910529064622584539e-03,-6.567629969083406578e-03,-7.005404406977088980e-03,-7.909045638498127598e-03,6.232894062995910645e-01
5.737236232242907130e-01,6.465775727509066595e-01,1.795632799845570116e-03,-2.922673709547216319e-03,-6.807685465062723092e-04,-1.396060901553718842e-02,6.121178269386291504e-01
4.254405340203888941e-01,6.790003330817073746e-01,3.479719418969245970e-02,5.475194722903338473e-02,-7.829731094840936250e-04,5.869337861618930362e-03,5.701269507408142090e-01
6.156490477096958625e-01,6.278554786215511108e-01,-1.239273702480098160e-02,-3.244216402992233946e-04,-1.692610443122623059e-04,-1.638526456365509143e-03,6.342397928237915039e-01
7.488885602418733356e-01,2.862679355491518640e-01,3.506733038490444931e-02,-8.826733296041046339e-02,-3.499123216630872085e-02,-1.117971734333848277e-01,6.766628026962280273e-01
5.740103588425140568e-01,6.382591684686861333e-01,-7.481073164985474477e-04,-3.077409521763619857e-03,-6.557919264900451345e-04,-9.235629944156460019e-03,6.096624732017517090e-01
6.159074604056482549e-01,6.273363525839251720e-01,-8.534790633260846970e-03,-6.020420327629656329e-04,1.004738254345800743e-03,-2.674032835058606263e-03,6.302546858787536621e-01
4.009143550249766874e-01,6.634850023827196797e-01,1.294458460478042916e-02,1.754560689192992684e-01,-5.753020789616355296e-02,2.268395212314760698e-02,6.520435214042663574e-01
3.796549704737474107e-01,7.903869175163051874e-01,-1.831987427256503986e-02,3.400010746095763481e-01,-1.005789264077875389e-01,-5.742342619928844476e-03,9.315552711486816406e-01
6.181010798078340196e-01,6.313329036148485063e-01,-8.046147708174189450e-03,-1.680276079529775422e-03,1.668873154321657854e-03,-5.286719741450982262e-04,6.328808665275573730e-01
3.181396212074385499e-01,7.051843275246382214e-01,2.913402979547569105e-02,9.439114466825741789e-02,-4.993448386472680404e-03,7.773548020495030068e-03,6.100582480430603027e-01
4.153068586851876298e-01,8.673192069842592389e-01,-2.135766793613541603e-02,-1.805004231952418992e-01,-5.533253760594746690e-02,-2.413986827951436834e-02,8.372833132743835449e-01
4.274915356470095906e-01,7.424777443086916229e-01,2.002027248110205271e-02,1.423847342271440386e-01,-5.350408621816408333e-02,9.227449227614269861e-03,6.806325912475585938e-01
6.191605527703034628e-01,6.325894290801021835e-01,-4.454105933034413489e-03,1.564281863944110080e-05,1.163352973403024076e-03,-4.847902352926962140e-04,6.304401755332946777e-01
3.911316951991476998e-01,7.518838295283700734e-01,-5.275425218691254248e-02,3.386935043984958815e-01,-7.439021747392624007e-02,4.647669967635750798e-02,9.244087338447570801e-01
3.036190391149488077e-01,7.844427625297205608e-01,1.769865403305748153e-02,6.533768264313047358e-02,-4.958186041705262004e-02,-2.025179447825033174e-02,6.869000792503356934e-01
6.166799665399399499e-01,6.240781206470503717e-01,-1.333660816597759258e-02,-8.438952998820643814e-04,-1.294314204822667258e-03,2.792659460661022202e-03,6.337721347808837891e-01
4.118185856404718570e-01,6.915618390722390041e-01,3.293175406385406845e-02,-2.502604168256080362e-03,7.813243334489241958e-04,4.815967695072654806e-03,5.726191997528076172e-01
6.037790744373584539e-01,6.368800281089017634e-01,-9.756767600377691529e-03,-7.976059771002809527e-04,1.653267770095081493e-04,4.912449825191628726e-03,6.307970285415649414e-01
6.084495907343099308e-01,6.314823605244750393e-01,-9.253546328572836988e-03,6.816542007705717878e-04,-4.403154773781285843e-03,-1.201010958043245615e-03,6.295863389968872070e-01
6.391303768365617088e-01,5.692010704051579939e-01,-7.530812922329099823e-03,-1.847201616732062042e-03,-6.666126235971070457e-03,-1.154968755316684512e-02,6.151292324066162109e-01
6.264691156621502444e-01,6.251666146232381926e-01,-3.121580771869858495e-06,-2.407504817961241689e-03,2.397545366236407145e-03,-9.629961065127990924e-03,6.260718703269958496e-01
6.270093833801618777e-01,6.173045470284425074e-01,-1.070115389387388261e-02,8.565811746009965606e-04,-1.933583648580522191e-03,-3.530346589246227186e-04,6.329247951507568359e-01
6.193816016573494565e-01,6.312025967487622236e-01,-1.014252809788085408e-02,-5.135079377244069826e-04,-1.759220777739644529e-03,9.885331079683417222e-04,6.355273127555847168e-01
6.015742703548697667e-01,6.087464217925460108e-01,-6.671534122500488717e-03,1.246989875924263587e-02,-1.230743965595359340e-02,1.196555157359881737e-02,6.129659414291381836e-01
6.270997639340070151e-01,6.160599300614554297e-01,-1.401750383124905630e-02,1.586622948630317083e-03,-2.729928823279367377e-03,3.121592850031801314e-04,6.356930136680603027e-01
6.279096973715851959e-01,6.420445811835884253e-01,6.526761251647095197e-02,-9.946812572022463439e-03,1.114607182542531535e-02,-6.652229075955360879e-03,5.705445408821105957e-01
6.148083951056896312e-01,6.236627657746409703e-01,-1.376225871459252348e-02,-2.060895651192984823e-04,1.525095600646777128e-04,2.784229919297426855e-03,6.330627799034118652e-01
6.362584557903602223e-01,6.342544139359227451e-01,1.224937095604851645e-01,-3.674227371833981102e-03,-1.729820872292181858e-02,-1.027114265912076538e-02,5.139876604080200195e-01
6.324252415755132750e-01,6.194507166834052336e-01,-6.187058123864386250e-03,2.098729464631929418e-03,-1.139673929391602289e-04,1.249055120357287288e-03,6.322391033172607422e-01
6.168607840970381506e-01,6.198901462521098082e-01,-1.425687457461927155e-02,-1.516364687479026315e-04,-8.254531998963210394e-04,1.026090148754645872e-03,6.326419711112976074e-01
6.078678968468538280e-01,6.231708006446982084e-01,-1.073926986022055718e-02,9.097911326073814193e-04,-9.856565070784427222e-04,8.439270925731575182e-03,6.265736818313598633e-01
6.150873978480265736e-01,6.163240073942959363e-01,-1.473935915781932060e-02,-1.786250159993314031e-03,-4.113435910961256003e-04,1.491072014634253632e-03,6.304592490196228027e-01
5.334475550871725646e-01,5.589640382631977378e-01,-1.178630613522038129e-01,4.237541115308325890e-01,-4.336588478585959999e-02,4.798431062219205706e-02,9.963572025299072266e-01
6.281181594275572211e-01,6.196274588319592436e-01,-1.220495330759696628e-02,1.118101580408688810e-03,-2.668181305893746903e-03,-2.152659449940909960e-03,6.361508965492248535e-01
6.322709055992699057e-01,6.212038435667293079e-01,-1.037891186922673681e-02,1.770527845306345575e-03,-2.491102243706330537e-04,-2.493561983433040773e-03,6.372105479240417480e-01
6.170796700915551769e-01,6.048101949555523271e-01,-9.430285544018035537e-03,-1.031589721329291076e-03,-8.229210697838480401e-03,6.739986776305541879e-04,6.206336021423339844e-01
5.484779270817615737e-01,6.017779026408789367e-01,3.845612884846799640e-02,4.045199515094783510e-02,-1.020501502885012846e-02,1.015234017543606773e-02,5.437628030776977539e-01
6.079547441407258113e-01,6.013121096150855216e-01,-2.538240622680987268e-03,4.914826461625302831e-04,-6.113611612027597571e-03,2.905609165493543752e-03,6.073126792907714844e-01
6.190259143892599125e-01,6.204463333393852587e-01,-1.294930558563012202e-02,5.725388849775411588e-04,-5.807871424469696411e-03,-5.828769553607603474e-03,6.328479051589965820e-01
5.992903149821808828e-01,6.056965758416694712e-01,-4.136797418809512461e-03,-2.716078790644652421e-03,-4.367176328490933630e-03,-5.046005856038214381e-03,6.067839264869689941e-01
6.032177437807304532e-01,6.169978026669051818e-01,-8.071555019327270042e-03,1.898376709472438277e-03,-1.249409808914274476e-03,-8.168530648339757116e-03,6.184688806533813477e-01
6.103545596804590412e-01,5.983476975220541894e-01,-3.424633215693140276e-03,-1.361990751801781191e-03,-6.930783342776992810e-03,-3.750626478466038451e-03,6.080225110054016113e-01
6.262633823790892951e-01,6.078423750621707589e-01,-1.302819390147269552e-02,8.895660460118736193e-04,-4.814734139225629490e-03,3.733537607642853882e-03,6.303732395172119141e-01
6.149573641038319494e-01,6.068500626017576671e-01,-7.963805460011685877e-03,-5.109853332937998489e-03,-7.004073787347436797e-03,-8.353546868524158731e-03,6.192585229873657227e-01
6.328043891109217389e-01,6.263476077446188395e-01,2.822562716334264810e-02,5.580233990660422166e-03,1.121155587467872073e-03,-9.511287293015924238e-03,6.016827225685119629e-01
5.857188101066638231e-01,5.963716315457487926e-01,-2.257982120410284566e-03,-2.842986121717229475e-02,-1.334631758402115773e-02,-1.508499322911962745e-02,5.964357852935791016e-01
6.337808080499741648e-01,6.223704218209208383e-01,4.033932567775461164e-02,2.810904219485228523e-03,-7.625917069733564695e-03,5.632950432409373131e-04,5.879886746406555176e-01
5.460130689992792608e-01,6.200488192641315788e-01,1.771131545503068505e-02,-9.447903249774970355e-03,-9.664601496609388472e-04,-1.168730298216579151e-02,5.695415735244750977e-01
6.211551774685001304e-01,6.183824367639845221e-01,-1.485583206563539926e-02,3.363781173057361126e-03,-2.843625444219536821e-03,-1.974805740487130864e-03,6.346842646598815918e-01
5.618160642267543414e-01,6.808917370431945004e-01,7.812594119011251337e-03,-2.605583238905853291e-02,-1.443503581632411999e-02,-1.339266770697681262e-02,6.247135996818542480e-01
6.194557521090047203e-01,6.247303541865019127e-01,-3.311591617240650098e-03,2.608182774205442065e-03,-1.016283262663555389e-03,-4.584500428579542548e-03,6.254905462265014648e-01
5.761171035591503564e-01,6.229666925486134765e-01,1.886337909332069795e-03,-3.950765630811015582e-03,-8.434939374744425400e-04,-1.302614491840159601e-02,5.994967222213745117e-01
6.176920626711832618e-01,6.309712343319857641e-01,-6.465245047192869077e-03,6.053878420998556496e-04,1.734574458845465324e-04,-1.329160677027595898e-03,6.309068799018859863e-01
5.962448559994913966e-01,6.370883599721814949e-01,-8.100958968462468324e-03,-1.028481292584902413e-03,4.459959060909086037e-04,-8.901705946508469899e-03,6.259610056877136230e-01
7.498449456741642649e-01,4.082406310909069136e-01,-8.590652068510823414e-02,-3.408976426653059777e-01,2.650994221245287982e-02,1.091185675221909533e-02,9.384971261024475098e-01
6.284114631851420718e-01,6.165851102841025666e-01,-1.141817353323831830e-02,-1.930859192492627571e-03,3.065180419139908793e-03,-2.204960876592849256e-03,6.340417265892028809e-01
5.988126636399788705e-01,6.293922946398783358e-01,-8.662390392718433141e-03,-1.788405926686685143e-03,-1.666323393571499654e-04,-7.563075318278322801e-03,6.234731078147888184e-01
6.194992241536647626e-01,6.206092053762811700e-01,-9.810493770695538629e-03,3.822430653568468801e-04,-2.057901267885889687e-03,-1.936836629817581925e-03,6.298847794532775879e-01
5.852648290620162674e-01,5.750391974379974735e-01,1.920095537580757128e-02,-6.490803932361136064e-03,-6.740074810982214955e-03,-2.170266648238297798e-03,5.612676143646240234e-01
5.773203468689364071e-01,6.563900010902473658e-01,1.107462571719208810e-02,-1.015692132068639897e-01,-9.054462802174707836e-02,-5.772966057968936804e-02,6.612118482589721680e-01
6.286206514455674466e-01,6.166364252516560729e-01,-1.145798673551817748e-02,-2.065841932978426405e-03,-1.541035654501362294e-04,7.037438285593134455e-04,6.341827511787414551e-01
5.295064354586871413e-01,5.961847787537692955e-01,3.138744176764141081e-02,-1.989258959415070305e-02,-6.504516456601993745e-04,-4.008904777310268869e-03,5.357414484024047852e-01
6.611417300408530817e-01,5.175611422673924711e-01,2.371418548399062409e-03,1.757820048297868004e-02,2.383770318099105983e-03,-3.604116824424347110e-02,6.040264964103698730e-01
6.026837688279564897e-01,6.147483871810628386e-01,-8.380298520798690198e-03,4.532462405503160795e-04,-8.391739349013825709e-04,-7.719895136847096211e-03,6.173318624496459961e-01
5.951226345203967094e-01,6.472746417255649254e-01,-8.376820030253140370e-03,3.665515122956351747e-04,-1.740727032184053455e-03,7.086271304729024022e-03,6.313202381134033203e-01
6.269161688644124819e-01,6.325961268795867731e-01,-1.309835495834632546e-03,1.082365503055246394e-03,4.475504392989251325e-03,2.280136473032926458e-04,6.311356425285339355e-01
5.549187800200333642e-01,5.715342904246651923e-01,2.308052105826347011e-02,-3.680376832253114822e-02,-1.084188135338993476e-02,-1.235073421197938580e-02,5.448289513587951660e-01
5.885780131419129368e-01,5.388160394495864480e-01,2.391375950616286827e-02,-2.282501182529687520e-02,-7.685949902159155619e-03,-5.587934339637449371e-03,5.431914925575256348e-01
5.600307720116278754e-01,6.098380875891642461e-01,2.415050243975452871e-02,-3.263403634386190938e-02,-1.232919464903472866e-02,-1.285089904720609737e-02,5.661144852638244629e-01
6.020495000459186175e-01,6.239563203763387467e-01,-7.428760741367279596e-03,-7.808120413638331260e-04,-5.710413146798683139e-04,-8.504485763206443352e-03,6.208986639976501465e-01
5.945798135982328647e-01,5.524218303258835450e-01,3.253020621136598622e-02,-4.254305369272251558e-02,-3.038667316078092189e-03,-1.653494384117025007e-03,5.472182631492614746e-01
5.514533514144986937e-01,6.798208426014172856e-01,-2.450462791938223805e-03,-6.795760661779820695e-03,2.963790361147252556e-02,-1.743146430092541778e-05,6.302099823951721191e-01
5.059920356082800996e-01,7.482014516730604026e-01,8.765203042712832460e-03,2.962430692633368987e-02,9.423517696821025191e-02,3.950883448456744482e-03,6.750209927558898926e-01
6.243377990880416561e-01,6.262222840660436329e-01,7.308575145429258013e-02,3.330158211217742678e-03,-3.252512813099255832e-03,-6.036682595747898741e-03,5.523545145988464355e-01
4.647849229813809657e-01,6.297335474311251957e-01,3.220815281623440329e-02,6.561628681315906375e-02,-6.722001243292582279e-03,1.010604633364380056e-02,5.468474030494689941e-01
5.700607043914747152e-01,6.471898860316577240e-01,-9.678022375111450248e-03,3.906931141328247488e-03,-9.790948244814455872e-03,8.806940930998581260e-03,6.223558187484741211e-01
5.250916332884493221e-01,5.972437720125167715e-01,3.469847068805398393e-02,-1.976482044716672964e-02,-2.202986437907509826e-03,-2.154464696075955154e-03,5.312953591346740723e-01
5.807010728332312466e-01,5.606714151081267916e-01,3.222959284886472986e-02,-8.581036650682452582e-03,-2.690780596326230404e-03,-9.292201468892696522e-04,5.389634966850280762e-01
5.933979136074111205e-01,6.173874184360490514e-01,-8.068311382869619575e-03,-1.265967574897886245e-03,6.722729035903526017e-03,8.873639825223029673e-03,6.141193509101867676e-01
5.250356670169853412e-01,7.400895635230347880e-01,4.774356319134420712e-03,-7.108544515805603758e-02,3.505478464564714541e-02,2.381145858245319394e-02,6.703366041183471680e-01
5.968595521305621876e-01,6.170071780581773968e-01,-6.014364946696326708e-03,-1.220815212796061248e-03,-3.405905521113354161e-03,8.018157277091458868e-03,6.133852601051330566e-01
6.078584528404678000e-01,6.240769684163461894e-01,-9.129018596665650076e-03,6.780866701441325139e-04,-6.377720960344685636e-04,7.319983785219856542e-03,6.253851056098937988e-01
6.234197390810842787e-01,6.238140690626187146e-01,-1.034093555582210611e-02,-2.892101918299640109e-03,-3.337681075926315476e-03,3.576683194404867844e-03,6.340343356132507324e-01
6.232646948781076501e-01,6.280162031733770300e-01,-8.356053467874879903e-03,-2.997917151930552890e-03,-3.283393586544917139e-03,1.193830116441739605e-03,6.340600252151489258e-01
5.711393415581724753e-01,6.251217450042159118e-01,3.336126819319273906e-03,5.970000853852349548e-03,-2.007108072255774783e-03,1.180903435078719740e-02,5.970789790153503418e-01
6.283851420054566983e-01,6.239473170200309227e-01,-6.299391206561200107e-04,-2.634872321637907622e-03,1.053999353669463632e-03,-2.781767232944180965e-03,6.268457174301147461e-01
4.940553714541957020e-01,6.834704764499786034e-01,1.702621544174665047e-03,4.864650839617597439e-04,2.183279522908622775e-02,6.020796800384906056e-03,6.108091473579406738e-01
6.125863574510330700e-01,6.164659763571849194e-01,-1.342803192070696205e-02,1.849481296964042808e-03,-1.669076463930755814e-03,2.972772453006348407e-03,6.279991269111633301e-01
5.423228570832885342e-01,6.293743706653096570e-01,5.246533281997090015e-03,-1.810156800621214729e-02,1.722377076324620171e-02,1.708882248973008985e-02,5.878190994262695312e-01
6.013805108593583970e-01,6.356361358331630296e-01,-7.966215060989711993e-03,-4.286393606644949873e-03,6.630862862396436769e-03,4.593668099960107436e-03,6.273760795593261719e-01
6.112096317657240707e-01,6.169634243243650173e-01,-1.152604119898353874e-02,-2.301646345623030269e-03,5.043301770003577426e-03,7.498812521227153118e-03,6.258409023284912109e-01
5.906432169587974013e-01,5.958002578628749379e-01,3.793483568556466068e-03,-1.698384477585629295e-03,-7.307884937226001403e-04,1.401433504317607746e-03,5.894588828086853027e-01
6.042172680228309334e-01,5.952011644921260114e-01,4.441452886065511141e-03,-5.719704420954376244e-05,-6.843188222544740497e-03,1.475298555549301111e-03,5.954424738883972168e-01
6.075626224531707198e-01,6.116214587026240768e-01,-1.056449107233475848e-02,1.198917822345181398e-03,-1.232291526817954220e-03,8.372803467178146705e-03,6.203431487083435059e-01
5.705651253507214582e-01,6.494598334695704800e-01,-9.443232619821884111e-03,-3.233079615017167216e-03,9.726621127380912640e-03,9.476605594201372926e-03,6.236811876296997070e-01
6.308074457435666194e-01,6.176362206413346101e-01,-1.175171150128562214e-02,-2.176551619183985861e-03,2.198789254577312828e-03,3.749159032041970594e-04,6.360987424850463867e-01
5.661299380028428363e-01,6.508831503945892161e-01,1.569512022774832705e-03,3.019788292737894501e-03,2.240613089975775074e-02,-4.357374733010738709e-03,6.126583814620971680e-01
6.423833655391998354e-01,5.881855830236365490e-01,-9.166445502585440774e-02,-3.865907826087465748e-01,-4.109251323169432063e-02,-5.154381935320685726e-02,9.815157651901245117e-01
5.759737861028256800e-01,6.253178477785936717e-01,-2.164111163537318916e-04,-4.003595556744265690e-03,-8.896991931064910644e-04,-1.306570715229728695e-02,6.028466820716857910e-01
6.279899425724677631e-01,6.276914987628318121e-01,2.075455872870768381e-02,-3.863477930827241818e-03,-4.199244761993371593e-03,5.964328109934688600e-03,6.072545647621154785e-01
6.145823570099409050e-01,6.286633555248131167e-01,-1.289698804743011351e-02,-3.956539726208051179e-04,-6.166996290235215962e-04,1.591541718986576575e-03,6.346442699432373047e-01
8.418461919329771614e-01,3.229128139939464459e-01,-8.707076233145705224e-02,-2.162858676859263918e-01,-2.508634598811597741e-02,-4.755643301796437517e-02,8.939486145973205566e-01
5.931795998865572184e-01,4.535912064135647626e-01,3.158428981259103763e-02,1.207977891689901440e-01,2.482576339330101571e-03,-3.418887451053114358e-03,5.480071902275085449e-01
5.543421059809992002e-01,5.970979972522658663e-01,3.092031661145172583e-02,-8.942592348259137749e-03,5.566397710625166188e-04,3.744472387030324881e-03,5.463155508041381836e-01
5.612440052582529093e-01,5.759474620791374955e-01,2.957161695374355137e-02,-1.086941466888203048e-02,8.590425994959538210e-04,3.100374717374208139e-03,5.395318865776062012e-01
5.532351609820046479e-01,6.575626032120969189e-01,1.133146563929282591e-02,-6.381212870662951453e-02,-2.388213023463238091e-02,-2.799527738389966450e-02,6.142942905426025391e-01
7.247013186532387241e-01,3.430869559497546351e-01,1.586133212225976363e-02,2.196078292208623363e-03,1.094510536888051999e-02,-7.715627147896940430e-02,6.291369199752807617e-01
4.038585673710987645e-01,6.931856790721430128e-01,3.573252135741111779e-02,-5.175520261109612524e-03,2.788744518890588601e-03,3.430363819887549855e-03,5.708544254302978516e-01
6.249549284947824024e-01,6.263705132148058574e-01,-4.043838537726829330e-03,3.282814056127594544e-03,3.262049576947241222e-03,2.485599072409349578e-03,6.297734975814819336e-01
5.718298253023070821e-01,5.962331645291201188e-01,2.025330948578585311e-02,-7.006784700347077482e-03,1.640899280797424942e-03,1.000650937927159700e-02,5.645779371261596680e-01
7.167315032851360179e-01,4.640862950464358927e-01,1.979871679240141624e-02,9.558128974607556227e-02,2.813800507679809979e-02,-3.834898366821148930e-02,6.384847164154052734e-01
5.853593122608594657e-01,6.243161055628834166e-01,-7.539903011864634852e-03,5.373171017716032137e-03,-9.120722436438386677e-03,1.259458572916100777e-02,6.139678955078125000e-01
7.844744473697159437e-01,6.454351545848018290e-01,7.054870962788128974e-02,-2.053014585362174793e-01,5.229671899214752284e-02,1.120422143936951054e-01,7.759313583374023438e-01
5.556514746771878954e-01,6.446947011237715852e-01,-7.980637631118114861e-02,-3.905898212746659603e-01,3.273151648371017131e-02,2.029676697823955614e-02,9.645982384681701660e-01
7.005072347417243828e-01,4.651013277278500668e-01,9.457145083169860023e-03,1.217281990081880705e-01,2.179588247026853845e-02,-3.918820553695376990e-02,6.486713290214538574e-01
7.159308276929026160e-01,6.693682529674442883e-01,1.027687335767479282e-01,3.682931803997718193e-03,-3.389372418412186366e-02,-4.505712963768315760e-02,5.993019938468933105e-01
6.702733538403090607e-01,6.516298757103251571e-01,1.184922085789336665e-01,1.905141781973913873e-02,4.657476499577943053e-03,2.023116997937551842e-02,5.448896288871765137e-01
4.011324506566748549e-01,7.554845475235234531e-01,-8.992485594674332061e-02,-3.641188336524832092e-01,1.721049266148990536e-02,1.342610777492952469e-02,9.694775938987731934e-01
6.233978174285670359e-01,6.163288705674934143e-01,1.254062141244832174e-01,1.357592542251792427e-03,-3.563115952643701716e-03,-3.963672096331196174e-03,4.945867657661437988e-01
5.663725825529442037e-01,6.388637232410403488e-01,1.896677553740067079e-03,2.718631094002926969e-03,-1.114482595511069032e-03,1.196002318760622588e-02,6.043695211410522461e-01
6.342094713616680535e-01,6.354702897605537526e-01,7.680412345543413677e-02,-1.830182612171025102e-03,5.493201260219507040e-03,-1.035466763661285414e-02,5.584149956703186035e-01
6.591207023760081718e-01,6.608341016077887708e-01,1.071825865696973135e-01,-3.251307769507654627e-02,-7.540375960267886590e-02,-5.035102753657198088e-02,5.774239897727966309e-01
6.011273402229490026e-01,6.029262148672229760e-01,-1.406679991655668260e-03,-6.058516137200249110e-04,4.483500669739909003e-03,4.615669610505203010e-03,6.035392880439758301e-01
6.281745958563613730e-01,6.199973750163358943e-01,-1.102146090085875940e-02,-1.004501422771686593e-04,2.221862425110244111e-03,-1.740592415459329490e-03,6.351657509803771973e-01
6.750165109959128662e-01,6.574757909836145275e-01,1.015758133556762255e-01,-9.716096276232720486e-02,-5.575075528062840846e-02,-4.114960932138939792e-02,6.015051007270812988e-01
4.893400484846241461e-01,6.646043022635448327e-01,3.699199339072739567e-02,-3.755797450629715095e-02,-2.066404258505794012e-03,-3.399620267297409799e-03,5.647088289260864258e-01
5.543130026039022606e-01,6.680893865805035414e-01,-1.307880228886837415e-03,-4.512908916087818821e-03,-6.795944604589066254e-04,1.398326978461314441e-03,6.204389929771423340e-01
4.128718448694664866e-01,6.797898933198315286e-01,3.610946774900253287e-02,-2.847474729117168910e-02,-1.063772857859269713e-02,-8.804512211556635506e-03,5.628181695938110352e-01
4.569168152842414399e-01,6.667218687072546945e-01,2.136045554358134702e-02,-1.748401349645860303e-02,-2.403833586377866413e-02,-7.585890295399587251e-03,5.726540684700012207e-01
4.351239893178320828e-01,6.785519912074122750e-01,3.811346910084240092e-02,-2.410246609170967058e-02,5.227409324290017935e-04,-4.482127582483771966e-03,5.615352988243103027e-01
3.948775391164495718e-01,7.095676479139623183e-01,5.537018117463210487e-03,-1.579144459312463999e-01,-6.274085666367995584e-02,-3.512352946143382226e-02,6.807779669761657715e-01
6.277774930103179329e-01,6.182939750632437947e-01,-1.126705751293033408e-02,-1.248922128375852016e-03,2.333916547038439836e-03,-1.340016994693968549e-03,6.343767642974853516e-01
4.896403450077764230e-01,6.327219764763780674e-01,2.571639653309965023e-02,-5.792759065508697180e-02,-1.515108272877661345e-02,-1.390786825237791575e-02,5.598326325416564941e-01
4.722943278879386253e-01,6.195531375039083910e-01,3.016664024155840673e-02,-4.206627615459791747e-02,4.403924069661661889e-03,-2.586849577408450920e-03,5.363359451293945312e-01
6.278878421431344226e-01,6.196957030518182030e-01,5.764971316499722942e-03,1.460724913142923088e-03,2.313332579061092020e-03,6.062673772203700808e-05,6.180856823921203613e-01
7.036252837594956233e-01,6.588821473106930560e-01,5.116147761307648922e-02,-1.904530654831796885e-02,1.842423664623988591e-03,1.450898732385830052e-02,6.326512098312377930e-01
5.161949280942659257e-01,6.554376663225252031e-01,1.754988468748919228e-02,6.148832398084941656e-03,-2.689496740023973077e-03,9.423746565177949785e-03,5.812655687332153320e-01
4.772457035897957334e-01,6.880749530540863912e-01,1.695785427666246514e-02,2.166477215245139407e-03,-8.094375655053605116e-04,1.802444051450934276e-03,5.944592356681823730e-01
7.405260625607876790e-01,4.526507436407248841e-01,7.461631371248655942e-02,1.521173206004322251e-02,-3.376982224997220061e-02,1.214810810244520978e-01,6.188678145408630371e-01
5.915176784484719175e-01,6.025151688521233062e-01,3.169072063566980013e-03,5.052099262709696011e-03,-1.897525640472286267e-03,1.256727426985634541e-02,5.943959951400756836e-01
6.625964966852352367e-01,5.179320713013647604e-01,8.825925448055493838e-04,5.109202938599806572e-03,-8.018471009734431248e-03,1.882648111987973716e-02,6.036564707756042480e-01
6.018964243185503937e-01,5.785097821052214151e-01,1.465896638718283684e-02,4.887698140845654800e-03,-1.086405951767962542e-02,5.908469258852844068e-03,5.763607621192932129e-01
6.101053107256042551e-01,5.986782626816528063e-01,-1.017561493184160337e-03,3.191463908266042523e-03,-9.515914846094937485e-03,5.277168138867280138e-03,6.058086752891540527e-01
5.791045950478984627e-01,5.819942658093264498e-01,1.874730033856747413e-02,-7.242901684621878226e-04,-5.489690862614170176e-04,1.727568595552504737e-03,5.618178844451904297e-01
6.484175507957889995e-01,6.002750718452184442e-01,-4.322726735305648660e-03,1.132021446470252027e-03,2.911646512996400506e-03,9.088843465676487918e-03,6.302698850631713867e-01
5.772319389948408208e-01,5.690175743652179374e-01,2.917966076730876823e-02,1.154587461926611519e-02,-5.264973341678585647e-03,4.648737970724720232e-03,5.444949865341186523e-01
6.279069204593359377e-01,6.168038736089260787e-01,-7.734170729785827536e-03,-2.206383202140570036e-03,1.926901397757322049e-03,1.953416221833022791e-03,6.301924586296081543e-01
5.458383004741396149e-01,6.245553541586796875e-01,1.778331102708224920e-02,-1.026423813122419315e-02,-1.021419432578591843e-03,-1.367391284709448471e-02,5.722634792327880859e-01
5.258874761130516440e-01,5.937813180303321836e-01,3.134409195861526110e-02,-2.148478946507300508e-02,2.311174832810686773e-03,2.523317707234259619e-03,5.330845117568969727e-01
6.058426044185372117e-01,5.667608756248079249e-01,2.213937245530811504e-02,-3.241478276623101229e-02,1.109370926988917025e-02,9.102188094758031922e-03,5.685020685195922852e-01
6.307357665707704619e-01,6.088418836976510207e-01,-1.039262751494485215e-02,2.480359532371342662e-04,2.836751216076959913e-03,-4.677414512949524400e-03,6.305379867553710938e-01
5.953115603250002108e-01,5.788073125441469680e-01,4.319675682407431161e-03,-3.445972650025768552e-02,1.507401714464438360e-02,1.657806486242504110e-02,5.872465372085571289e-01
5.904535659833104466e-01,6.213172451166120158e-01,1.217436443013031333e-03,-2.544020306931079212e-03,1.632788410987695300e-03,1.371363680359437981e-02,6.057469844818115234e-01
6.002992271429424820e-01,5.596393349493156144e-01,2.122272319974477517e-02,-2.348993747602470122e-02,1.059316988275276969e-02,8.591461613176455681e-03,5.618283152580261230e-01
6.869876787951511021e-01,6.133988871637719997e-01,3.829076985666968191e-02,-4.025293509569737027e-02,2.557890216637226377e-02,1.829743165760931017e-02,6.215418577194213867e-01
5.603396044434992840e-01,5.280209810843469187e-01,3.025768714469284637e-02,-1.209538709108281401e-01,2.813810419950422970e-02,2.514743337125913483e-02,5.595192313194274902e-01
6.105860836969048133e-01,6.128412625443276918e-01,-1.217244477589224383e-02,1.166606923546154636e-03,-4.950507410781036614e-03,2.937123193666162351e-03,6.239721179008483887e-01
6.160781660289903483e-01,6.168670526691002465e-01,-1.560222241357245299e-02,-3.475367333811762776e-04,-9.990918281925433193e-04,8.758705250987743052e-04,6.320796608924865723e-01
7.135922613327381203e-01,2.412887193263446306e-01,-1.251778137584997896e-01,-2.495386702550482227e-01,-1.522865775135553643e-02,8.798133779711546365e-02,8.609171509742736816e-01
5.807323594081966744e-01,5.630324192432751840e-01,2.882388879108943591e-02,-7.849207442836058160e-03,-2.395100406118244336e-03,-1.098475981037562183e-03,5.434640645980834961e-01
6.147037746905625877e-01,6.158652850003851764e-01,-1.463315128591063941e-02,3.974791877865403397e-04,-5.725197594780257826e-04,-6.411762788877558027e-08,6.299196481704711914e-01
6.154125218719773693e-01,6.169007289289777374e-01,-1.548678938149999906e-02,-2.873184910970421040e-04,-1.229637648811330187e-03,9.307507428102520467e-04,6.316505670547485352e-01
6.958051581958035747e-01,4.264065292902814441e-01,-9.531294866351602835e-02,-3.643133668184287965e-01,6.352889101344286193e-02,4.571036922126264085e-02,9.496663212776184082e-01
3.647192002583924397e-01,7.526320451004330225e-01,6.093303682173589753e-03,3.899341928218780229e-02,-8.278255145019806915e-02,1.488764904302403505e-02,6.663255691528320312e-01
4.662626174033572268e-01,6.629920636594591743e-01,3.981159010489215833e-02,-1.427451021914009563e-02,-2.003021311623419138e-03,2.812835594577307603e-03,5.523635149002075195e-01
5.156441485259289914e-01,6.198144620531126359e-01,3.246384909574340227e-02,-1.593436912232581645e-02,5.082295980899072599e-04,6.427989817498793758e-03,5.436305403709411621e-01
5.052296211297893080e-01,6.602345819194604948e-01,1.681855856811403926e-02,-1.083882626619949059e-02,-5.177468131934651746e-04,-1.341729859720991458e-02,5.823842287063598633e-01
6.764141502303624431e-01,5.600359221286287381e-01,4.995928251365044925e-02,-7.366188561338780916e-02,7.611099058084727642e-02,1.184759304023383225e-01,6.394140720367431641e-01
6.203991989782807748e-01,6.304866195858717104e-01,-9.673815766289839413e-03,5.850052120460465070e-04,1.959641079580189908e-03,9.500771136193706572e-04,6.351888179779052734e-01
6.114882477843233133e-01,6.127797868784655710e-01,-1.232457876966513988e-02,2.533060168159283871e-04,-7.031965735827131261e-04,1.524247982831366914e-03,6.244665384292602539e-01
6.167722224284837296e-01,6.162312107733545208e-01,-1.544813455840476912e-02,-7.827559798237726778e-04,-8.050841627789271293e-04,5.804361359136318409e-04,6.319538354873657227e-01
6.782207569489822063e-01,4.843886677018533482e-01,1.619198998188314809e-02,-2.084628364018756980e-02,-2.886523941339903809e-03,-1.904765923965541161e-02,5.915637612342834473e-01
6.662719810787700592e-01,5.235923164079915315e-01,1.589533300678908079e-02,-4.019037506695617365e-03,-9.384362019974657604e-03,-9.428422324887921575e-04,5.923403501510620117e-01
5.510246944306768091e-01,9.220717169967460602e-01,6.986383860184297578e-02,-4.066149924278844585e-02,-1.177988541626152907e-01,-6.037817805187874719e-03,7.709890604019165039e-01
6.925503490459605782e-01,4.270393218008353697e-01,1.953911095816129873e-02,-1.835863910264577551e-03,4.248070500819504415e-04,-3.123892756950107791e-02,5.896495580673217773e-01
7.680634761739491001e-01,3.805761915377517401e-01,2.201179701325572946e-02,-1.492551137153733977e-02,-1.049145872820681120e-02,-2.776087421221902149e-02,6.488177776336669922e-01
7.568443912213742575e-01,4.607288096560552826e-01,-2.880140497327543514e-03,4.957527312492725213e-02,1.047477081996351332e-03,-6.404536810838694361e-02,6.779243350028991699e-01
6.946631664413718266e-01,3.840221618616559973e-01,5.676813977204708817e-03,-2.878065021883584318e-02,-1.383970089617245561e-02,-2.553443466012721152e-02,6.018207669258117676e-01
5.521592730858102538e-01,5.921193262003034974e-01,3.339745898368973176e-02,8.832387115522139301e-03,-1.349838666670871747e-05,3.895529503774254523e-03,5.401110649108886719e-01
5.892897651930123493e-01,5.931760488108571705e-01,1.108512836500774590e-02,-2.194796233588397483e-03,3.846606706139274034e-03,6.763736749758038000e-03,5.803264975547790527e-01
6.186831272781131430e-01,6.296342054522062748e-01,-5.963619109005446894e-03,-4.488006662949743934e-04,-6.273161306941056527e-04,-4.146920432032666273e-04,6.301954984664916992e-01
5.533023485338426362e-01,6.063355076476566463e-01,1.690821611248227718e-02,-1.016031665265491012e-02,1.789606288061342042e-04,1.270130457491658489e-02,5.654835104942321777e-01
6.297779077013982985e-01,6.225845428705063522e-01,6.954698034590467426e-02,2.406907853384977064e-03,-7.465857319458366233e-03,-3.323191626161529823e-03,5.568646192550659180e-01
5.929726114091353750e-01,5.526117962397925076e-01,3.318795710224908824e-02,9.070336392849827345e-03,3.509076789116165936e-03,-1.878452402186118629e-04,5.409975647926330566e-01
5.672022762088657633e-01,5.687765328098015605e-01,2.651489801314999006e-02,-2.629764932293437996e-02,7.659272803718361784e-03,4.561437982589723779e-03,5.436079502105712891e-01
6.130862929709226528e-01,5.985396698230893708e-01,8.016483523674067246e-03,-1.409472210649682748e-02,1.552727415918745378e-02,1.311640619984318253e-02,5.994620323181152344e-01
5.320643352310984175e-01,5.898047277385822795e-01,2.510349605197798040e-02,-2.383558536874001016e-02,5.149472482193517310e-03,7.560794899973666792e-03,5.399729609489440918e-01
5.798056801471807020e-01,5.695145569130105612e-01,3.158887321764047851e-02,3.192175474575064797e-03,-2.990233122391390552e-03,6.161771786842686408e-04,5.431982278823852539e-01
5.944816103262967610e-01,5.637070839981721537e-01,1.881099401362823498e-02,6.481077351064844748e-03,-7.248255840485608517e-03,1.803882638800781511e-03,5.611783266067504883e-01
3.724599204952730447e-01,7.638527616391849184e-01,3.652939518606934666e-02,8.550085235072742151e-02,-6.313209207888193820e-03,2.768949522168396779e-03,6.477593779563903809e-01
4.160782464863371222e-01,7.073231068888070627e-01,3.805657873767287480e-02,-1.928342890264903714e-02,5.444255597076195184e-04,5.940604182476933240e-03,5.822740793228149414e-01
6.717890430042297023e-01,4.895755066825446811e-01,1.418957105288065623e-02,1.111093081975822244e-03,5.997995059606800287e-03,7.233052484143143342e-04,5.881568789482116699e-01
4.498889734741035040e-01,6.837079584211378513e-01,2.382543260909425475e-02,1.730874163257065937e-03,9.202115519936611421e-03,-2.769754279073099405e-03,5.797492861747741699e-01
4.461491911641470298e-01,6.628963048066339736e-01,3.064183158820127373e-02,3.199736050395590031e-02,1.350633257285358164e-02,-5.319284572852449149e-03,5.598118901252746582e-01
3.964320114122232286e-01,6.861089186451796440e-01,3.566706181800122222e-02,5.763857941139830660e-02,-1.408801739198694593e-02,1.348383271582366712e-03,5.737044811248779297e-01
5.726777298440905994e-01,5.945327580144872393e-01,2.033397472022352437e-02,7.304991598345883519e-03,-2.152367932273933481e-03,1.118601906337897064e-02,5.640763640403747559e-01
5.619649917345832524e-01,5.742854092578576486e-01,3.160551973118624902e-02,1.158983539787470339e-02,1.458649928576528346e-04,-6.338215742137300740e-04,5.370022654533386230e-01
6.200716846485436751e-01,6.262224976257251274e-01,8.430730401005459562e-02,-4.829092753937361433e-04,-2.003570300934683513e-03,6.515180453203716499e-03,5.389961004257202148e-01
6.082866613156702185e-01,6.131343863056623045e-01,-4.678145480643158827e-03,2.115613473392408128e-02,1.855947921590717781e-02,-1.880484165647728148e-02,6.181891560554504395e-01
3.268867350168181973e-01,7.083291631172312641e-01,2.946568857873926861e-02,2.893769387584926855e-02,-4.038397759382315703e-03,8.505523541473694951e-03,5.917640924453735352e-01
5.259598111933123654e-01,6.336301367036725196e-01,2.053432101664248721e-02,4.939579415970744153e-02,1.163035263964024880e-02,-1.940764631078898891e-02,5.747371315956115723e-01
6.369962820111809698e-01,6.329069248276787407e-01,4.107175918862954189e-02,-4.448026114622543117e-03,1.213023966731114310e-02,4.302055778118894780e-03,5.943585634231567383e-01
5.204168634482064792e-01,6.199845044992166043e-01,3.267184825318036889e-02,-1.319146740795968872e-02,-9.130972604027257251e-04,-3.292992536704457147e-03,5.449124574661254883e-01
6.278380138366320695e-01,5.559680198973314669e-01,2.492743394596730333e-02,5.534108365231290433e-02,1.190076382476408338e-02,-1.071803296108515824e-02,5.790446400642395020e-01
6.323133717359230577e-01,5.449465138917884977e-01,1.585391863931195910e-03,1.623739240153081187e-02,1.695067136075090880e-02,-2.141220727007854888e-02,5.944530367851257324e-01
5.554015359536418339e-01,6.495289537268491564e-01,-5.083170867896669165e-04,7.697674654068435533e-03,4.016614256972257224e-04,8.400998798258587502e-03,6.087791919708251953e-01
6.377335947427491547e-01,5.128168931233458849e-01,1.519521790572969655e-02,3.609271075506843840e-02,1.624216089087922657e-02,-2.114465572397507959e-02,5.757026672363281250e-01
5.204676746135037391e-01,6.213198223704772261e-01,3.646587570331555339e-02,-1.322527367351542839e-02,-7.897774990351948653e-04,-5.658183054276519700e-03,5.420923829078674316e-01
5.070493857361382251e-01,7.480644417207733543e-01,4.359664670279539411e-03,4.621847275241501574e-02,-4.215432135542040298e-02,1.573853041240452430e-02,6.666509509086608887e-01
6.270329935791865150e-01,6.296018779741295868e-01,-2.000762827830682156e-03,2.720459515813912141e-03,3.737451475440618006e-03,1.258849532222946306e-03,6.303767561912536621e-01
1.993965107094130551e-01,7.460586893425233956e-01,-4.951761379081431880e-03,-1.819313825695247355e-01,1.858919703111074420e-02,1.403475574104722998e-02,7.437956333160400391e-01
7.080834065784569198e-01,3.940382392661833655e-01,-3.685019584575999207e-02,-1.585944083331328192e-01,2.824200019409589188e-02,6.964979727563695711e-02,7.155489325523376465e-01
5.772601532507982691e-01,6.395047002385285673e-01,-9.551832872685850351e-03,-4.436621509710680748e-03,1.130148007724914028e-02,1.066159601691474279e-02,6.209120154380798340e-01
5.110459131751131645e-01,6.571084689114323751e-01,3.034541160127246506e-03,1.467671931421304400e-02,-1.745451591439949740e-02,1.613751469614898432e-02,5.966177582740783691e-01
5.550815621774457531e-01,6.616862198875397283e-01,-8.501463366567985069e-03,2.230877242171175334e-02,-1.415886440699657030e-02,1.021581023451844858e-02,6.256824135780334473e-01
4.912545412554995550e-01,7.005662489257113990e-01,-3.427528573975990867e-04,1.284928149118000178e-02,-4.628823192976862233e-02,1.469000381535977111e-02,6.292430758476257324e-01
4.450833131795264297e-01,6.641826029792859964e-01,3.244363076847561755e-02,-1.269062977241938207e-02,-1.003692724384365031e-03,-4.582273102862095132e-03,5.560883283615112305e-01
4.537714045941041996e-01,6.646217108811356411e-01,1.655291423204713341e-02,1.494203438350104850e-02,-2.369805259983149420e-02,1.026867984526985515e-02,5.748708248138427734e-01
6.274059592158712784e-01,6.254403969594125590e-01,8.108566324022126182e-05,-5.917435165993038294e-03,5.337127225073220148e-03,-5.177343929642398701e-03,6.265606284141540527e-01
6.189976551499367652e-01,6.160576994775279758e-01,-1.092848533008389245e-02,4.228582425415467112e-04,-6.042186478847797956e-03,3.255919852789970498e-03,6.285741925239562988e-01
6.185412744606861857e-01,6.278263828092425225e-01,-1.095545263185104812e-02,-1.138053788493135782e-03,1.483124712526920439e-03,-2.191867989458951092e-03,6.342098712921142578e-01
5.182695703016790834e-01,6.220790169901151412e-01,3.277268283638373747e-02,1.176927854234445341e-02,-1.226689940076527898e-03,5.733251666443992846e-03,5.453452467918395996e-01
6.265562285172321388e-01,6.167367548569929747e-01,-1.101521145915784761e-02,5.269891752751383216e-04,-1.242865076681537537e-03,4.161659509687522826e-04,6.327235698699951172e-01
4.118469979613164633e-01,6.966633876287602334e-01,3.612812583609459338e-02,-4.514728130546740055e-04,-1.975407648983851185e-04,9.191074566945421631e-04,5.738459825515747070e-01
5.167510914058790483e-01,6.567921028377246007e-01,1.824151103906757054e-02,1.035046488835531485e-02,1.213353937312510074e-03,-1.341338799088416175e-02,5.820658206939697266e-01
6.000032697936212855e-01,6.135690068758604676e-01,-3.949653407490372192e-03,3.217510290454195926e-02,2.541434795814704120e-02,-2.655587708517867518e-02,6.166808605194091797e-01
6.238025460560520097e-01,6.162705642640841086e-01,-1.218114508838380461e-02,-8.080592880140508374e-04,-2.681475225648039321e-03,-2.753334002957283692e-04,6.322701573371887207e-01
6.205913591833930321e-01,6.172975487168108621e-01,-1.461137064499429261e-02,-9.109696727950078281e-04,-1.532722873634220122e-03,8.259424876568328576e-04,6.335713863372802734e-01
6.265218842363500240e-01,6.242976949317433633e-01,-7.645352889601442214e-05,-1.056007740477862486e-03,-8.570807308662799912e-03,1.248044651490228495e-02,6.260413527488708496e-01
5.953037663801550305e-01,5.483514770978310526e-01,3.458923510518030486e-02,7.794177471683886617e-03,-4.792127354507592744e-03,1.733859741705548246e-03,5.390163660049438477e-01
6.420654626041870650e-01,5.623342897488040615e-01,-4.608702688745802689e-03,9.974589566256023693e-03,-8.180370779109415180e-03,3.097214848017476943e-02,6.134830713272094727e-01
5.676342404613328174e-01,5.380172659623728704e-01,1.848035245488438560e-02,1.245123584417488632e-01,-2.297978739893662831e-02,2.199112159008947270e-02,5.794203281402587891e-01
5.949481464965168387e-01,5.868983926528434925e-01,2.081797561355508419e-02,7.575694481294660554e-02,-1.700489886656663535e-02,2.083115350679445518e-02,5.869031548500061035e-01
4.676246160236268157e-01,6.602907958193198201e-01,3.622728767484784118e-02,1.300275210175162559e-02,-8.063784846331846674e-04,4.125282581000106613e-03,5.539853572845458984e-01
4.922234148060560255e-01,6.590539899836710402e-01,3.553571887889095393e-02,1.270352755437612752e-02,6.983161530236240864e-04,-4.939184714948509358e-03,5.595930218696594238e-01
5.789072759175480920e-01,5.697286367697860232e-01,2.997223749027821960e-02,4.651211527328559005e-03,6.380255787771161495e-04,-3.697089472233065235e-04,5.444648265838623047e-01
6.281749424749035748e-01,6.379124922916679097e-01,5.539149497203493810e-02,-5.043326457710292296e-03,3.654463832115454388e-03,-3.437167702502367563e-03,5.778451561927795410e-01
5.549436300010496259e-01,6.617288254680255832e-01,9.994751304262805558e-03,1.149856187007245074e-02,-4.399900208601194990e-02,1.052306514074679254e-02,6.108202934265136719e-01
5.256872683306149652e-01,6.331843100794709578e-01,1.883396516774638041e-02,1.529040605257760317e-02,-1.597514652919103080e-03,1.336190642421288162e-02,5.693731307983398438e-01
6.417092858199555661e-01,6.380713574639297336e-01,6.547506581948153714e-02,-9.394197074319278126e-03,1.518193421319847213e-02,-3.802898553584505362e-03,5.752933621406555176e-01
5.894539902444596580e-01,6.329721796178914284e-01,-1.063229172746554818e-02,-1.040716088922503382e-03,-1.740456593260574869e-04,6.220565400479233058e-03,6.230822205543518066e-01
5.952623387364861518e-01,5.524872488375129898e-01,3.113356434508424142e-02,8.573602650140236398e-03,3.456558151468200595e-03,-6.225340212910252576e-04,5.442405939102172852e-01
8.971622526080896831e-01,2.765845911663694645e-01,-8.407158301897088570e-03,-8.152195273800037778e-02,-7.148307938948307572e-03,9.906427869909653627e-03,8.146051764488220215e-01
6.263624739317463774e-01,6.317060930894383697e-01,5.424062163104820256e-02,-1.293336812848085680e-03,4.307899136651040760e-03,-4.696928990878325959e-03,5.749226212501525879e-01
4.972893666079157837e-01,6.336464451778989204e-01,8.242090731971685180e-03,-1.792721863862213605e-01,1.340129836525859493e-02,1.384334832694581125e-03,6.491576433181762695e-01
5.932026333523570116e-01,5.530474215668009785e-01,3.295649769243774729e-02,-6.461544697972560446e-03,5.971240839258725938e-03,1.828093381962595052e-03,5.415105223655700684e-01
9.031420427980567656e-01,5.169792165527407057e-01,3.508848662997948731e-02,-7.479742641502458433e-02,2.650567903260624136e-02,9.327169029657735033e-02,7.825721502304077148e-01
6.818821175137935731e-01,6.187424620742432158e-01,8.686684628850327439e-02,9.692748923716533113e-03,-4.142850771727263348e-02,2.174048407799716864e-02,5.721096992492675781e-01
6.335687477323447281e-01,6.376976204541430215e-01,7.179155080166921277e-02,-6.467172629264029970e-03,4.992313540052651863e-03,-7.530231686406517640e-03,5.641812682151794434e-01
6.667946532978339391e-01,6.132852098318186673e-01,4.157522617792008823e-04,-1.159498009042132100e-02,1.042148881607999136e-02,2.062346498160255032e-02,6.428620815277099609e-01
6.236671930039745515e-01,6.256508734181120968e-01,9.825835746859318265e-02,6.018689450737757692e-03,-1.039103453367676635e-02,5.753096607891917437e-03,5.269084572792053223e-01
5.545726174142755482e-01,5.923821550333334685e-01,3.383566172534197003e-02,-1.008935306687319504e-02,-1.638458778140714325e-04,4.463527009137715877e-03,5.409718751907348633e-01
5.903920855616859864e-01,6.238157293132025050e-01,3.162061371327851145e-03,-1.819732248293073722e-03,1.200322433658833213e-03,1.174532471330738334e-02,6.049890518188476562e-01
5.715514693983709815e-01,6.035408857073172317e-01,2.064054212620608508e-02,-5.089541521657291526e-03,1.714782540091965273e-03,6.645519533415837447e-03,5.677750706672668457e-01
6.303043654570099630e-01,6.233539697777381594e-01,8.919038857474398396e-02,-5.008001250286983619e-03,8.528828173920475694e-03,2.382289618410347344e-03,5.379611253738403320e-01
6.316657341288309802e-01,6.308996992762366807e-01,1.253746374138990927e-01,-3.283427369624087634e-03,6.931583820953509008e-03,-1.003770298954387644e-02,5.063814520835876465e-01
6.149498887821368553e-01,5.924371824785346075e-01,6.114863632886546885e-03,1.097375598724415272e-02,1.286665303882614242e-02,-8.938576180114314249e-03,5.988138318061828613e-01
6.760125001449155402e-01,5.833345877530873302e-01,8.657792370064160137e-02,3.260129091844001653e-02,1.411339026481608049e-02,9.924533247463770969e-03,5.526991486549377441e-01
5.782987176029050769e-01,6.031090306909960841e-01,9.340778497188895191e-03,-3.118301747848402968e-03,5.552563594396784340e-03,1.024212981518459083e-02,5.821349620819091797e-01
5.499086928141944108e-01,6.181622489324621883e-01,2.035806946863710776e-02,-1.058329074291359910e-02,6.349449387387245828e-04,1.291620353221152422e-02,5.675066709518432617e-01
4.510066751426531351e-01,6.907823697879875713e-01,1.680749554794203071e-02,-4.187980753656702151e-03,9.219319886871928452e-04,1.131968350330201116e-04,5.917659401893615723e-01
6.786824696305772120e-01,7.057141632678967103e-01,9.897108993630898688e-02,1.819872471450257115e-02,-3.261503586788667974e-02,5.369013685477007358e-02,6.043999195098876953e-01
6.218096111434439077e-01,6.286430726486391674e-01,-4.664170176529036649e-03,-4.649274758800070635e-03,3.336086666540893052e-03,-2.698740544870575561e-03,6.300136446952819824e-01
5.493128918612800726e-01,6.323763779396105456e-01,5.240167649582849752e-03,8.205133397350374697e-03,-1.232461809451840772e-02,1.596117947577409268e-02,5.912099480628967285e-01
6.262115837241435390e-01,6.266401132470025281e-01,1.527591762133462261e-03,5.605451277040610948e-03,6.351767416204806213e-03,5.902759932218121751e-03,6.251541972160339355e-01
7.789198891569129035e-01,2.514053262667084732e-01,-1.024671080252381739e-02,-1.902392547818913815e-02,3.156975701108119536e-02,4.646081417971296827e-04,6.991673707962036133e-01
6.270436841160823560e-01,6.298825503450768970e-01,-9.093309020443141044e-04,8.514359414726542811e-04,4.270162273674182364e-03,-7.362232628451404436e-04,6.294237375259399414e-01
7.423327027949195855e-01,3.415680122571370658e-01,3.377502386759961839e-02,-7.786839821570817888e-02,1.082322660534363462e-02,1.444723721249855384e-03,6.302773952484130859e-01
3.721028070202722637e-01,6.910438126833173822e-01,2.993980611798280345e-02,1.031760185352872672e-01,-4.820984567168028635e-04,-1.292743799376770870e-02,6.003054380416870117e-01
4.949916782949683736e-01,7.564339317378840910e-01,7.933671394754626682e-02,-6.832786746264304933e-02,1.576016241232562343e-01,-2.462875873535740751e-02,6.634240746498107910e-01
6.951336840845845355e-01,3.875826682883040109e-01,3.558797663354068552e-02,-6.141119971750874651e-02,8.826991836578614720e-03,4.095592243061469719e-03,5.816719532012939453e-01
4.212917246016986694e-01,6.851534328179967881e-01,3.524418946580898382e-02,5.608660084001884996e-03,1.345211258873339668e-03,1.010500939988848591e-03,5.662347078323364258e-01
6.959076389210601121e-01,4.273069886183344934e-01,3.968160740265003206e-02,-2.135348116938507596e-02,4.948811321635740619e-03,4.043884427557677824e-03,5.727186203002929688e-01
4.513211836279959477e-01,6.760142056938034383e-01,1.396010072007863867e-02,-8.958086133952491167e-05,5.270317513409973013e-04,8.155290591174074039e-03,5.833044052124023438e-01
5.557618494584188884e-01,6.390268267514888079e-01,-1.064304209192212802e-02,2.164774871449410415e-02,3.315069834768298584e-02,-1.850931419771148501e-02,6.169601678848266602e-01
5.942886607892996498e-01,5.724563191159774966e-01,1.934431041746875746e-02,8.115981549679114268e-03,1.180962391919141222e-02,-1.703524523885279656e-03,5.648981928825378418e-01
7.145443303279109815e-01,3.911982139387022439e-01,3.632128179170218685e-02,-1.304293897501531893e-02,4.222749359727854743e-03,8.085468682743771410e-03,5.882163047790527344e-01
5.529024114215952412e-01,5.920563293771436975e-01,3.033473866153435505e-02,8.910352708202215477e-03,8.877164095248300454e-04,-2.858288961200499030e-03,5.434479117393493652e-01
4.924735129331185846e-01,6.579491372586725451e-01,4.200674641568330481e-02,1.313546448067195657e-02,3.128938064832395474e-03,-7.498622282554183102e-03,5.527743101119995117e-01
6.167398831615211741e-01,6.243214775634580160e-01,-1.402596871335970441e-02,-1.060592032578152591e-03,1.313946924274123247e-03,-2.431919165015204894e-03,6.346113085746765137e-01
5.607480952614360969e-01,5.623031371421084446e-01,2.610394900242340999e-02,3.337794720527306747e-02,6.567293574653091694e-03,-7.749035158443864403e-03,5.388227701187133789e-01
6.091808192797126820e-01,6.560359881230084511e-01,2.325133096317322234e-03,3.038195121457980957e-02,1.466039423024704212e-02,-2.019786551292021125e-03,6.342946887016296387e-01
3.605524862500842920e-01,7.180530908719595651e-01,2.320920452367969400e-02,6.158786826738597148e-03,1.272688541048986460e-02,5.863696484456941416e-03,6.024205088615417480e-01
2.717595319561845191e-01,7.662796704173142626e-01,1.539679400416421595e-02,1.619495079009179717e-01,4.456068977813729820e-02,1.383880024840423995e-02,7.226776480674743652e-01
7.078965532450542941e-01,3.978880759496331021e-01,2.244216096380541314e-02,-1.537109373023887171e-01,4.243245733553654975e-02,7.746797349124850962e-02,6.691359281539916992e-01
7.069046145302202433e-01,5.032192236215338177e-01,-6.555632740768091438e-03,1.001117506567138493e-01,3.135760753227043694e-03,-7.166661573404599361e-02,6.713395118713378906e-01
7.575971510154388966e-01,4.082771818953444543e-01,2.184186690831346755e-02,5.317350220277492628e-03,1.084478223267107584e-02,-2.297681179196979159e-02,6.390365362167358398e-01
5.753609430704141880e-01,5.806992026979032051e-01,2.597476651313085361e-02,2.359363520248706700e-03,2.395802650836538570e-03,-4.535316787657609448e-03,5.521612763404846191e-01
8.273140699422267819e-01,1.084971313271327897e-01,5.924362008460193341e-03,1.874215887057159927e-02,1.403075065784466571e-03,-1.552273117367790464e-03,7.758975028991699219e-01
6.869711264858983091e-01,3.955744777297768855e-01,1.683890690754286101e-02,1.573221411745394371e-01,6.887599257262275176e-02,-7.365535307798525000e-02,6.659374833106994629e-01
5.866396880082463960e-01,5.929352378792556166e-01,1.167345793952845323e-02,1.291125322685683901e-03,3.060717151838771282e-03,-6.472760797743422681e-03,5.782770514488220215e-01
9.123802014334486676e-01,3.417088833123956282e-01,2.916607120736003367e-02,1.450867163222439027e-01,4.155133168354893658e-02,-7.909311394700570264e-02,8.299428820610046387e-01
6.235097083869675094e-01,5.107734882125175568e-01,3.721398633181860482e-02,-1.362731247295760964e-02,6.731289340333126807e-03,2.178130340418115915e-03,5.395022034645080566e-01
7.690464518102362312e-01,5.133606246754539582e-01,-5.965730624226006640e-03,9.728796180064369289e-03,9.562290446200568880e-03,-4.658819491033690252e-02,6.891510486602783203e-01
6.930330210576856054e-01,4.490967185570879927e-01,5.782803511243161942e-03,-2.270931871805224878e-02,-8.961503841518198010e-03,-5.158726786709975226e-02,6.115098595619201660e-01
7.649894877619285438e-01,2.534866119629490266e-01,2.296083100470314164e-02,6.444794633680217023e-03,1.286675897938855534e-02,-6.366218956298107245e-02,6.674367785453796387e-01
6.879592355036425744e-01,5.461827953090289123e-01,2.087632596469157775e-04,-9.869662121586665615e-03,-4.206653652607558573e-03,-2.651856599216357788e-02,6.309116482734680176e-01
8.525214363176321086e-01,6.332954408452828865e-01,8.025566384719978741e-02,-1.329742781098026960e-01,6.678908767934405022e-02,1.087803835638646160e-01,7.596591711044311523e-01
5.940871901137187994e-01,6.039411598363233491e-01,4.832650194869614335e-03,4.694549905539887116e-03,2.071357539058496424e-03,-3.254450402351351007e-04,5.943095088005065918e-01
5.825012629501017392e-01,5.846746148458039638e-01,1.317797949924742751e-02,1.129762707302793025e-02,7.210385890849085183e-03,-6.701077051696626742e-03,5.710031986236572266e-01
6.940034808109933895e-01,5.188803651409543694e-01,1.558709745864417240e-03,-3.341100808564714808e-03,-1.883417808062659953e-05,-1.747062903047940166e-02,6.243668198585510254e-01
5.382270645132024578e-01,6.066523535497772013e-01,6.528726207418356076e-02,1.804673173004323616e-01,9.709491454911024777e-02,-1.118669796043157277e-01,6.513412594795227051e-01
5.215521820375058626e-01,6.454507950165434549e-01,1.216748211437984617e-02,2.305505579570668040e-01,7.699265046618698760e-02,-7.719521856934578874e-02,7.301077246665954590e-01
4.405106374837282623e-01,6.349225561629427972e-01,8.175682838601261437e-03,1.894643073135585110e-01,9.782645515454428675e-02,-7.607929551901557175e-02,6.800918579101562500e-01
6.385251940972148654e-01,5.660049319303582793e-01,-2.970752572508394973e-03,-2.701937693440373614e-02,2.045829232159777217e-02,2.166166160918485406e-02,6.124607920646667480e-01
6.243943172196864122e-01,6.351958185707047289e-01,1.012822108350870942e-01,-2.023013241486644204e-03,6.371793138742931802e-03,1.539454213023170454e-02,5.293943881988525391e-01
6.278717437984775440e-01,6.575046559407655700e-01,1.183133013047428239e-01,-1.450800019371758197e-02,-1.791430866288592670e-04,1.332793516020280844e-02,5.261102914810180664e-01
6.029254923973345059e-01,6.309016711947822431e-01,-7.422795791464487092e-03,-1.150958680525731139e-03,-7.277804905805164784e-05,7.966388923891004961e-03,6.249618530273437500e-01
7.021437450503400513e-01,8.433136650092580844e-01,8.427787264736907868e-02,-1.854914029146100818e-01,1.090603853610206814e-01,8.141404660040402197e-02,8.047978878021240234e-01
4.284702472272796103e-01,6.965699316275073549e-01,3.622051911004481317e-02,9.826196062290744326e-03,-1.172107647802343592e-03,3.062142671945980096e-03,5.755182504653930664e-01
5.821572431486574661e-01,5.871140235177224609e-01,1.301834925848460722e-02,-7.221593519185180200e-03,3.648076099728931373e-03,7.259659332445100866e-03,5.719434022903442383e-01
7.128424307866538800e-01,3.945655099021227463e-01,2.461830823196481388e-02,2.251433604000915509e-02,-3.687484508074779718e-03,1.376973988910124534e-02,5.983620285987854004e-01
3.480183765207656710e-01,8.063745209782762213e-01,5.274645427635266115e-02,-1.607742533772410151e-02,1.263235899555858188e-01,4.876075030006735145e-02,6.988539099693298340e-01
5.747682046206167294e-01,7.436802594637139663e-01,1.110987531682929852e-01,-2.140342513364744403e-02,9.833489995493342739e-02,-3.939187978724523892e-02,5.973932743072509766e-01
5.358640496713849011e-01,8.886256294686945001e-01,8.561049636647505290e-02,1.491670339899221209e-01,8.429441860031842981e-02,-7.824195000592799876e-02,7.696983814239501953e-01
6.318600347017007124e-01,6.303646907527844512e-01,4.363126379107323816e-02,-3.711667880385083936e-04,1.458496661109916562e-02,1.730379496053762291e-03,5.880333781242370605e-01
6.187824491021268747e-01,6.304163048784180434e-01,-6.271043205746229532e-03,2.305575175393569597e-04,-1.725234514479581736e-03,-1.048796280057397038e-03,6.309607028961181641e-01
6.747557529193540793e-01,7.114759543043998047e-01,7.967898877915052802e-02,-6.154150513816507295e-02,-2.094163480034378581e-03,-1.680882818646447369e-02,6.241305470466613770e-01
6.329570818436791590e-01,6.297923874902477959e-01,2.885684001051114222e-02,8.438849806073567272e-03,8.497342016756729427e-03,1.397695221491857855e-03,6.028859019279479980e-01
6.276471944175100459e-01,6.262640350509218745e-01,9.912146265041743565e-02,1.023127867365334969e-04,3.871014192125559264e-03,9.459850988946675102e-03,5.281323790550231934e-01
7.690128015374314563e-01,4.892087845840941140e-01,3.838720334626921638e-02,2.102453470830834351e-02,2.825773680621488509e-02,1.216177155449694597e-01,6.751046180725097656e-01
5.930835545711115042e-01,5.499411191521441644e-01,3.388492802610765242e-02,6.601794175119148587e-03,1.020966043375824738e-03,-1.186270299153340891e-03,5.390521883964538574e-01
6.276209343018021025e-01,6.297766399548201388e-01,4.229130837076167104e-02,1.644436109134184967e-03,-1.326341475360974737e-03,2.451014134883796030e-03,5.864372253417968750e-01
5.783910381858224925e-01,6.239627558953924069e-01,-8.941831622428342286e-03,4.408576275249091736e-03,1.268280489739101805e-02,-1.232837335534020529e-02,6.122085452079772949e-01
5.168708069553377138e-01,6.508925406418335502e-01,1.527709061166021565e-02,1.045136719637100066e-02,1.186806788427543840e-03,-9.442632516615721838e-03,5.808458924293518066e-01
6.265495091573821673e-01,6.260378245556594834e-01,6.896692711115270935e-02,2.931469099278524552e-03,6.843658420258098146e-03,-5.961137689539769934e-03,5.575717091560363770e-01
6.398967725590706257e-01,6.209022407840734115e-01,2.389282562198463689e-02,-3.358981153860978244e-03,9.839613108299396019e-03,-7.059115250619084000e-03,6.071200370788574219e-01
7.662844487744737698e-01,3.633287738076801943e-01,9.718024074237885390e-03,-1.349561733269097896e-01,9.994274389612195844e-03,3.039348105066251929e-02,6.982934474945068359e-01
7.078895239152531715e-01,3.246262596066156747e-01,-6.236224513125199209e-02,-1.967225827893905876e-01,1.090327486397504354e-02,5.767240230380681412e-03,7.493497729301452637e-01
7.396216023830287645e-01,3.369188265721279052e-01,-7.805442596925343812e-02,-2.802056718675043356e-01,-2.214472008232917441e-02,-5.142557146170621471e-03,8.594064116477966309e-01
5.572749767181911507e-01,6.223007941634830509e-01,1.684893075863347356e-02,5.521040417996053197e-03,2.468828726154983100e-03,-1.104966074104395471e-02,5.761131048202514648e-01
5.572570753537744448e-01,6.242426849833929703e-01,1.946614196842832989e-02,5.522421647927567949e-03,2.458177972184790762e-03,-1.309696609302456877e-02,5.747648477554321289e-01
5.627942950988724657e-01,6.248388691179271870e-01,1.511111881243143440e-03,4.465142859416682854e-03,1.616331252620248219e-03,-1.234904961309099027e-02,5.951790213584899902e-01
7.850140767130155961e-01,3.631795138880100082e-01,-5.608649717550817648e-03,-1.102313857672643366e-01,3.522804190821933815e-04,2.036553732570121206e-02,7.121897339820861816e-01
6.158063534059396993e-01,6.193654842355550416e-01,-1.486962529827806634e-02,6.202026440071039745e-05,4.771937580621396415e-04,1.393540601762015838e-03,6.324682235717773438e-01
7.455226559763463712e-01,3.601093996168859834e-01,2.706624419197006803e-02,-9.592550568529724375e-02,9.132655847905820148e-03,1.278370280650201543e-02,6.451092362403869629e-01
5.926473115816931481e-01,5.855330433707529592e-01,4.710523964537749464e-03,-1.431089786572574407e-02,8.263699530092125795e-03,1.633424202258605988e-03,5.851194858551025391e-01
9.927959155270360547e-01,1.749434754646596590e-01,-1.355023710349484434e-02,-1.504955132364534376e-01,-4.268724491331023219e-02,4.239267027671238947e-02,9.681824445724487305e-01
4.906719215065397655e-01,7.431711505856464228e-01,-7.944025960282541377e-05,-2.597313840254567019e-02,4.455083231276202316e-02,1.051415491808256782e-02,6.609212160110473633e-01
3.476767198331034980e-01,9.252370792086169748e-01,1.998145996157846271e-02,-9.591808808582850954e-02,5.135567202237171364e-02,-4.305997525826943395e-03,8.159611821174621582e-01
7.066080367823235342e-01,4.542263650791245055e-01,-1.577481301826938465e-02,2.831064514571162219e-02,1.404495162791373312e-02,4.098883737232658642e-02,6.412907242774963379e-01
5.798429180188334753e-01,7.364022577271679415e-01,2.358564382198508058e-02,-6.293602813058753187e-02,9.582227719470809424e-02,1.191111779102010243e-03,6.785669326782226562e-01
5.256243188291507273e-01,6.355300681357884951e-01,8.143139970110735426e-03,-3.541618069181184242e-02,4.046760865087293407e-02,2.982087567519696447e-02,5.899863243103027344e-01
6.078197461981816874e-01,6.111132886881083248e-01,-7.421846952378241546e-03,-1.141830114023812022e-03,2.186689375180075499e-04,7.595155374032530778e-03,6.170384883880615234e-01
6.223006199712499686e-01,6.280730123596380832e-01,2.767768557171834676e-02,-3.300307882442206266e-03,3.405364213253023989e-04,6.112852691943337045e-03,5.976514816284179688e-01
5.807273155077837812e-01,6.420387863222445368e-01,-2.081238607095720061e-02,-5.953592397074500275e-02,3.586357942465235454e-02,-3.520156352254370942e-04,6.457421779632568359e-01
3.749596746904966249e-01,7.296815590245133709e-01,-2.971361751626266923e-03,-3.393387693235693642e-02,3.306095839347645421e-02,7.574261310260380423e-03,6.400200128555297852e-01
5.656208678695586745e-01,6.468457254748121166e-01,-1.640876670453983444e-04,-1.799501852189182511e-03,1.909446648744457433e-03,1.026089073968610918e-02,6.107392311096191406e-01
6.374637935385966125e-01,6.352129693871672034e-01,6.750085898224961189e-02,-6.976968193141743976e-03,-7.935733774050051856e-03,4.492537434119982589e-03,5.691884160041809082e-01
6.172677379587613311e-01,6.275476308239585910e-01,-7.762087728637401263e-03,1.586539513813607204e-03,-7.483272254812515286e-04,2.016445633771443268e-03,6.302496790885925293e-01
6.212782543036812211e-01,6.165943803663310741e-01,-1.241392864568979792e-02,-1.474187760108216019e-03,-5.635894561474444862e-03,3.362107420623369931e-03,6.314707398414611816e-01
5.127513468221130966e-01,7.395994652344235476e-01,1.195209918208817168e-02,-1.130917243001267405e-02,6.710357165154939851e-02,-2.331190960376029742e-02,6.568013429641723633e-01
6.269089594505865559e-01,6.088299731413714388e-01,-1.314153632764819557e-02,-3.655849457122853537e-04,-6.270501500644255592e-03,6.479260553162278710e-03,6.313986778259277344e-01
6.240669924886308451e-01,6.099292822309888562e-01,-1.320316057532355813e-02,1.133104633948702356e-03,-5.930986409841743946e-03,4.595809096987240466e-03,6.304572224617004395e-01
6.265414859324632824e-01,6.186100486953799438e-01,-1.264147521838898669e-02,-9.826572618407947678e-04,-1.116898361387987093e-03,1.371101669598197422e-03,6.352640390396118164e-01
6.030954247037240146e-01,6.302116550067671241e-01,-1.023662949275894185e-02,1.706217404911161022e-04,-7.402200512113867861e-04,-5.174707613251281965e-03,6.273952722549438477e-01
6.188739768306058542e-01,6.254927957964284690e-01,-8.475298774848427641e-03,-6.805188464654273383e-04,-1.595506300799064700e-03,-1.494713327086664555e-03,6.306971907615661621e-01
6.344756724835312056e-01,6.247695579522224429e-01,1.176945775999154731e-01,-2.069190476309049325e-03,5.777740902530274433e-03,-9.390500598017175252e-03,5.123655796051025391e-01
5.669462325494171173e-01,6.543842603084224496e-01,-1.576511714947270715e-03,5.471494607957387568e-02,-2.325838660163957738e-02,6.229552559412202505e-03,6.255353689193725586e-01
6.642983369056557619e-01,6.692850394829928939e-01,6.359788033839591792e-02,9.773759086126805259e-03,1.652610445450739332e-02,1.483722635957683035e-02,6.046715974807739258e-01
5.559483554218894730e-01,6.480908129775712068e-01,-2.605919000154111043e-03,7.551379665763772227e-04,1.979551508217308211e-04,-1.208034970284030396e-03,6.098736524581909180e-01
6.186556934783926653e-01,6.328782637473913120e-01,-6.485763898002594452e-03,6.439390399877612328e-05,-1.349955238494718454e-03,-2.339782981740748695e-04,6.323771476745605469e-01
6.889483273623164816e-01,6.436501683582187550e-01,1.210824566642405564e-01,2.984231149591517335e-02,-1.416985129427911390e-02,4.896257786578092804e-03,5.496783256530761719e-01
6.180705323320284661e-01,6.290498600564338183e-01,8.011616448511504895e-03,-3.315510273635604438e-03,-7.732592741269407556e-04,-3.904697328600072008e-03,6.156874299049377441e-01
6.168754572031216465e-01,6.207871008014224090e-01,-1.456140110703146862e-02,6.680955572579640091e-04,7.193523977677889012e-04,6.409784391220717682e-04,6.334049701690673828e-01
6.288244996560987676e-01,6.296053800355815300e-01,8.615720160578960174e-02,3.655359406529173558e-03,8.583265711105462353e-03,-2.195493667589602706e-03,5.433118343353271484e-01
6.154216421799834080e-01,6.150359678024394094e-01,-1.550333593826885847e-02,-3.855677578559669636e-04,9.406900034068279822e-04,1.056915809545994111e-03,6.307373642921447754e-01
5.989785402342271414e-01,6.137666544653177514e-01,-1.719236133793988763e-03,2.019023049713652897e-03,3.966539041656392574e-03,-8.777754147467986198e-03,6.084654927253723145e-01
6.156548916561762619e-01,6.148392222243681537e-01,-1.536822733651638240e-02,2.164905305342044138e-04,1.515293984947823844e-03,-1.806240487324090152e-05,6.306212544441223145e-01
6.135718481139050828e-01,6.111766890633492100e-01,-1.216609681345637295e-02,-1.096686654996043876e-03,2.824643757833837296e-03,1.447115842985831216e-03,6.245709061622619629e-01
6.122323128632733980e-01,5.945441248535698886e-01,-7.151722840782692714e-03,2.355717581452275011e-03,1.014332801676588736e-02,-5.962062887219819925e-03,6.110855937004089355e-01
5.657461783060291349e-01,6.491651103829376712e-01,5.362236131903452829e-03,2.780696019139262259e-02,2.354655223912156120e-02,-1.292614393057412055e-02,6.100981831550598145e-01
6.191026293183963247e-01,6.266257532240232520e-01,-1.564132834368625602e-03,-1.395530859395278760e-03,1.312608018249101279e-03,-1.717362743357912606e-03,6.244782209396362305e-01
6.163657676104731253e-01,6.158650118095496673e-01,-1.503381433036821146e-02,1.337196951036914318e-07,7.201650838757117559e-04,5.419036491628960103e-04,6.311512589454650879e-01
6.125437865335268128e-01,6.128032620221792737e-01,-1.145806047811104289e-02,-6.487580386236210502e-04,3.334412502765186827e-03,4.444270510364175565e-03,6.242068409919738770e-01
6.133361236636794001e-01,6.151475261586492049e-01,-1.502965371761272317e-02,9.394709836264492553e-04,2.619588978721231289e-04,-1.000677877796295640e-04,6.292757391929626465e-01
7.247461809914079733e-01,3.795417632201003588e-01,2.426867496436840854e-02,4.328750413728503499e-02,9.697963927868400585e-03,-2.650246205790990697e-02,6.132190823554992676e-01
7.339406049754478856e-01,3.496806260541818756e-01,3.347426360276978263e-02,8.443558579983011236e-02,-1.663839675776499633e-02,-1.945234817536492869e-02,6.264993548393249512e-01
7.207633142759395373e-01,3.856827471631461557e-01,2.324103935562293888e-02,5.854621791873432235e-02,-1.787789046254973507e-02,3.224993372639383543e-02,6.159968972206115723e-01
7.443479664620562541e-01,3.510774671106723921e-01,2.919312871090751216e-02,6.129301034181307978e-02,-7.423907668570771216e-03,-6.060235637419211091e-02,6.382104754447937012e-01
5.075961447544559135e-01,6.307120715830316637e-01,3.457567974293301871e-02,9.644049201115086067e-02,2.357440476452362082e-03,2.889585410765616036e-03,5.701633691787719727e-01
6.152255478092517604e-01,6.172002605542104003e-01,-1.480229157344403745e-02,4.214401338412042636e-05,3.309305828287803053e-04,3.052660474376929674e-03,6.310399174690246582e-01
6.065342505580413324e-01,6.025503811504527851e-01,-9.755815825181812784e-03,-8.480964329562841117e-04,1.272029655698101109e-03,5.037492341553377780e-03,6.143754720687866211e-01
6.089105601682354152e-01,6.203996538168963237e-01,-1.001606065447468996e-02,-2.396263842367803588e-03,5.338902361560305537e-03,6.873985506694908244e-03,6.249460577964782715e-01
5.901211319863325366e-01,6.250857707206813885e-01,-7.869216795914901752e-03,-2.365906895936330419e-03,1.876223827113734487e-03,8.038787915494866043e-03,6.163965463638305664e-01
6.075118986914281871e-01,6.176774198998508103e-01,-7.962865735332780304e-03,-1.140328070245705434e-03,2.183796470146835743e-04,5.030660071582212546e-03,6.206843852996826172e-01
5.962268053235417753e-01,6.022394952141788549e-01,3.095428190048710171e-03,-4.923456849674800670e-03,9.734890797110980903e-03,7.094437151329150912e-03,5.965864062309265137e-01
6.264459854433883645e-01,6.147904332195106569e-01,-1.302899109401117750e-02,2.189909509552700681e-03,2.328570074501204110e-03,6.046984816391757838e-05,6.337518095970153809e-01
6.100230356286823197e-01,6.114867544921750442e-01,-4.473692351786184851e-03,-1.451674287986245548e-03,5.384618016404626659e-03,6.369712666788604830e-03,6.154046058654785156e-01
6.126951115743819454e-01,6.155847936506190221e-01,-1.182568352739093998e-02,1.800576186075367267e-03,2.224764226007079973e-03,3.572713472525019043e-03,6.260208487510681152e-01
6.201231232085751000e-01,6.164200038789294789e-01,-1.254170430937151526e-02,-1.702020701615311745e-04,5.138555738269631572e-03,3.471299000618779506e-03,6.309128999710083008e-01
6.061290482901290355e-01,6.242624068323532338e-01,-1.136497135093245126e-02,-3.002717221223299027e-03,4.437238897655330742e-03,7.565540070617428510e-03,6.269631385803222656e-01
6.183827015481982992e-01,6.240257423736197406e-01,-1.399867876627591823e-02,1.231263574302043006e-03,4.560671028454409267e-04,2.081270068733201938e-03,6.352360248565673828e-01
5.996002352951290693e-01,6.479300879844794858e-01,-7.519503634522972657e-03,-8.371022967729752767e-03,2.879939323807427683e-03,8.962730957278624774e-03,6.330468058586120605e-01
6.227765271724012841e-01,6.240683549411581987e-01,-1.142416599588697013e-02,3.679981430583604499e-03,3.367303765541777415e-03,3.645226408026056627e-03,6.349377632141113281e-01
6.176120147488251000e-01,6.271336115042510650e-01,-1.037284149896838814e-02,2.579143582087347394e-03,2.764268500895280829e-03,5.251353668059033711e-03,6.328986287117004395e-01
6.184952568947206242e-01,6.309697811954179114e-01,-9.189255520459571613e-03,9.616022557012451032e-04,3.562637797428675184e-03,3.440083797314826605e-03,6.340740323066711426e-01
6.025568204802244088e-01,6.382426735333974754e-01,-9.620246473030169554e-03,7.808916429609357151e-04,6.148371000513717238e-04,5.825472537618684755e-03,6.308605670928955078e-01
6.079101719060189257e-01,6.271054434294084379e-01,-1.225755812730705552e-02,-2.980790956275144012e-04,4.161446551004365467e-03,6.373333136288134547e-03,6.301229000091552734e-01
6.159130664507128650e-01,6.301940756658469533e-01,-1.205418691481180415e-02,5.120199089286549482e-04,-8.845976276381363294e-04,1.107432831155587705e-03,6.352335214614868164e-01
6.230300062338145484e-01,6.313252448903493574e-01,2.607865203857462344e-02,1.551615226949880876e-03,-3.807092935751311708e-03,-4.511391698610241717e-03,6.012348532676696777e-01
6.088876777979405075e-01,6.305444590575159935e-01,-1.166708309050379366e-02,-2.403500844026602336e-03,4.511926650180007360e-03,5.662939357704916549e-03,6.317998766899108887e-01
6.241785275965142654e-01,6.086967666215464812e-01,-8.367857051261196055e-03,2.270769313863520416e-03,8.858914693354855152e-03,-4.677216448770529951e-03,6.252025365829467773e-01
6.155746421064354212e-01,6.351949599608008867e-01,-1.135089737496935980e-02,-5.344567580524831784e-05,-7.958963056014832851e-04,-3.468196942331265532e-04,6.369641423225402832e-01
6.454201126786378584e-01,6.017635247986715674e-01,-8.630410640414809542e-03,2.642754670376899588e-03,7.879041946908379654e-03,-9.770814419294860179e-03,6.337412595748901367e-01
6.002639704010983568e-01,6.476966522606585341e-01,-9.145287225368559092e-03,2.514756121514395704e-03,-8.446058274522089734e-04,-4.507834383446181550e-04,6.344739198684692383e-01
6.408921487723893140e-01,5.746176401629786712e-01,-9.793996487818257268e-03,1.211386918169487983e-03,5.633433386261661735e-03,-1.466532381140621399e-02,6.208105087280273438e-01
6.155682748944406590e-01,6.348445854140997158e-01,-1.129822338670671833e-02,-3.165761763027874183e-04,-6.679924269718870563e-04,-2.118673731758720195e-03,6.367353796958923340e-01
5.989295582404241536e-01,6.458832299612453642e-01,-8.951598915227398923e-03,2.684750564551993766e-03,-5.849393144805402735e-04,-5.692378197152736519e-03,6.327608227729797363e-01
5.993459941481866782e-01,6.356374186090598677e-01,-1.062018128431713171e-02,1.392621094038294195e-05,-4.568441935301989520e-04,-5.747015920161551187e-04,6.288989782333374023e-01
6.461264555610937155e-01,6.365123371707116506e-01,1.179407360654494141e-02,5.826102540856493810e-03,1.730333466104116589e-03,-1.489730535815884591e-02,6.301968693733215332e-01
6.030374396043843843e-01,6.374404529846725564e-01,-1.193895645615172807e-03,2.856720288591361404e-03,6.049725293172000286e-03,-3.690597845933005824e-03,6.222873926162719727e-01
6.160755261770642921e-01,6.295519478159412596e-01,-1.234779457744089592e-02,-6.295862578049319291e-04,-4.826956041095865186e-04,-2.606165578766386076e-03,6.352862715721130371e-01
6.386395459756096793e-01,5.796102662973070530e-01,-8.126381859059561563e-03,4.000520766082412381e-03,1.061338568911976768e-02,-1.280516176975855791e-02,6.200728416442871094e-01
6.250526091064847467e-01,5.843423255001136685e-01,-8.351360584265166143e-03,1.033954529518994400e-02,1.078145434936922734e-02,-1.499578523288944837e-02,6.151552200317382812e-01
6.096644426204295142e-01,6.272424978792519035e-01,-1.236950775352907428e-02,1.220106969822315382e-04,-4.742708298406276245e-03,6.050643638145460600e-03,6.311471462249755859e-01
6.028416867121072498e-01,6.362098026793664429e-01,-9.344836744415052632e-03,1.733484913448313063e-03,-7.961532516426344293e-04,-8.123771447983960808e-03,6.297000646591186523e-01
6.176796812678653215e-01,6.268544089101379946e-01,-1.226200653108333594e-02,-5.011220200529952927e-04,-1.281337173044624217e-03,1.415223516797413849e-03,6.345880031585693359e-01
6.155931836522643419e-01,6.227465264256483168e-01,-1.390227234843555149e-02,-6.692998652895480651e-04,4.853609076298327296e-04,-2.003086563974597334e-03,6.331135630607604980e-01
5.972485941814328347e-01,5.977344823729404677e-01,7.981437069674246487e-03,1.283483270405388725e-02,1.360522477172886567e-02,-7.550819086789937497e-03,5.905445814132690430e-01
6.077691317410890415e-01,6.231913636938575252e-01,-1.024773773982740055e-02,1.877724506874763294e-04,4.625556397416459619e-04,-7.924886821858346045e-03,6.260216236114501953e-01
6.163482833327613708e-01,6.202878130117680522e-01,-1.443972034038754071e-02,4.135923703766879308e-04,-1.099881266382926387e-03,1.396837693212268569e-03,6.327748894691467285e-01
6.106084772247875048e-01,6.162338158976632396e-01,-1.345522366158813377e-02,6.733606058128092237e-04,-2.234016897497249389e-03,3.452322456042258500e-03,6.269368529319763184e-01
6.147832666397884394e-01,6.241292870844341589e-01,-1.394973662135085002e-02,-1.373688409131108357e-04,1.831704731441277960e-04,2.670819527674900794e-03,6.334747672080993652e-01
6.151235879736582923e-01,6.199644046739476444e-01,-1.438831660332712259e-02,-1.653053282725606629e-03,-2.798347946910196730e-05,2.390002589768929018e-03,6.319662928581237793e-01
6.954189404093145122e-01,4.559696142037760191e-01,1.825238288137048803e-02,2.762150083032459402e-02,8.286300374017684794e-03,-1.708788228198206485e-02,5.975903868675231934e-01
5.979912797421192971e-01,6.103867841294567942e-01,-5.406818190943907254e-04,1.870243138229727570e-02,1.432670398279191869e-02,-1.360251069388732428e-02,6.066576242446899414e-01
6.343254046498000287e-01,5.327171391415823631e-01,1.622807517170027358e-02,1.360464318237403387e-02,1.173734402117134097e-02,-6.168052405252232202e-04,5.749212503433227539e-01
6.158406126707807182e-01,6.197917198953449835e-01,-1.452639535198918530e-02,-5.680760595606424834e-04,1.276414372912621376e-03,-1.875814823029344717e-03,6.323648095130920410e-01
6.035537353368796154e-01,6.110481018515961926e-01,-8.255970200688578231e-03,1.024211414171456161e-03,2.384610522382830142e-04,-5.921597164401063741e-03,6.156792640686035156e-01
5.915952390463504740e-01,5.890868871258941875e-01,9.560217549038185769e-03,-9.100882668521187435e-03,-7.681730581640750649e-03,-7.291112720798154437e-03,5.812882781028747559e-01
6.132195665218425074e-01,5.836925084293530519e-01,3.749785441604758240e-03,5.356288035275877553e-03,1.357701242077307899e-02,7.517749370848505336e-03,5.959345698356628418e-01
5.675868524985452357e-01,7.293659802956531379e-01,9.660049519660296458e-02,8.839209399780761922e-02,-1.321881226805232679e-01,3.919640424913795052e-02,6.361336708068847656e-01
4.566489289950654840e-01,6.651852891270171320e-01,3.761366023381762513e-02,1.494457679418719973e-02,1.373314702886871581e-03,-2.625482969187203312e-03,5.542187690734863281e-01
5.778011792843203986e-01,6.329995661140140895e-01,-2.284623102289051744e-03,1.564167030848568826e-02,-1.485278719519025036e-02,1.737999035670010489e-02,6.114476323127746582e-01
6.672861737857245235e-01,3.130733827505854383e-01,-1.007523814205306123e-01,2.237776669357857684e-01,-6.376823449506204174e-03,-5.561816893980159326e-02,7.764871716499328613e-01
6.202807547965882851e-01,5.130112768551160496e-01,3.974763452830215593e-02,9.799200609582897278e-03,3.754113040283307400e-03,-8.944740478128107054e-04,5.353360772132873535e-01
4.238470290676162877e-01,6.901442387366991671e-01,3.789377988913489315e-02,-9.110604474749582973e-03,6.120296670637174596e-04,-4.770622010226377441e-03,5.683051943778991699e-01
6.181958367276410016e-01,6.004868263577051168e-01,-7.168582370072285048e-03,1.626488272609566584e-03,-4.895792781751521529e-03,2.411610725876526216e-03,6.167795062065124512e-01
6.023504654479019393e-01,4.698773756490033371e-01,1.944225821009526456e-02,1.117393996563618846e-01,2.613240128331632134e-02,-3.475167169689098723e-02,5.685422420501708984e-01
9.319990352346044782e-01,1.909065007983608286e-01,1.134483346837211748e-02,3.671881314136048180e-02,-4.517628230572613007e-02,2.717241138947063504e-03,8.513060808181762695e-01
8.205009966541292332e-01,1.922007402171129753e-01,-1.072190771929897313e-01,7.995422308505691121e-04,-5.295359786886066900e-02,5.715198461769353117e-02,8.311150074005126953e-01
6.359121689936489963e-01,6.305035374388157088e-01,1.187238392653450214e-01,2.953779991278239307e-03,6.922337848523858576e-03,1.643969346262996734e-02,5.154575109481811523e-01
6.741170468091536305e-01,6.730649047527033080e-01,7.786791468437337382e-02,6.740174773451785943e-03,-3.668297665578804795e-02,9.245906980446119694e-02,6.202467679977416992e-01
6.226377990603528811e-01,5.288840057248377358e-01,1.969982838482670084e-02,-1.379591191840703022e-02,1.398279246367249359e-02,-1.416315924070168930e-03,5.629918575286865234e-01
6.204441158219180519e-01,6.101910663358188769e-01,-1.186797062036715200e-02,-2.927955673779436638e-04,5.517170328570286490e-03,4.135888987837775012e-03,6.273623108863830566e-01
6.225661295768565306e-01,6.284788232419342702e-01,7.313978614638821929e-02,3.585515576195833290e-03,-3.795572305808376547e-03,-5.334267268705815586e-03,5.525577068328857422e-01
5.661105234510839246e-01,6.453656842661434911e-01,1.595033554247449192e-03,1.160639410361229357e-03,-1.315654579326294054e-03,9.270798328410054592e-03,6.082490682601928711e-01
4.408239685581183953e-01,7.685160709329539319e-01,-8.943784828296469369e-02,-3.340921479509224024e-01,-2.731201797039200380e-02,-1.490812279648105754e-02,9.487252235412597656e-01
2.295171723658943064e-01,7.872844218698467067e-01,1.950472235117628461e-02,-1.251556743661267901e-01,1.077688605009483221e-02,3.196277621665102875e-02,7.230163812637329102e-01
7.000596484327634705e-01,4.463322932900693485e-01,-1.322925341599658355e-01,3.745154186991117573e-01,8.809842540715403028e-03,-2.839801397852674547e-02,9.845988154411315918e-01
6.590900954479401719e-01,5.304306420702801228e-01,6.571712784310124178e-03,-2.034776225704244823e-02,2.227724277106772274e-02,2.372102342771080161e-02,6.023286581039428711e-01
5.507527800747241686e-01,5.767939611819374868e-01,3.738977082401623298e-02,1.065923866191709063e-01,-8.867204502012393736e-04,-6.290766516146849806e-03,5.583862662315368652e-01
6.950608704636596080e-01,3.443267592741330319e-01,-1.885835215431863610e-02,1.396925570342428813e-01,-6.188209733727007694e-02,8.577259545681727160e-02,6.887671947479248047e-01
4.238813904233943997e-01,7.759383161754040970e-01,9.907734890824915208e-03,7.601381646230966072e-02,4.573496594567722645e-02,-8.199855923343936717e-03,6.818149685859680176e-01
8.223744770955792038e-01,2.232341408407476357e-01,-1.071151868234274662e-01,5.370321067297677969e-02,2.564106070631377854e-02,-1.770018982360459930e-02,8.231584429740905762e-01
4.036619686385348738e-01,6.996803264287818624e-01,3.450293200579868103e-02,-6.903806080762685780e-03,2.385744012714097976e-03,1.050536491018165932e-03,5.773616433143615723e-01
6.471054192419939399e-01,6.703730613918583714e-01,1.009606583453165340e-02,-2.713265528264382498e-01,6.114849794313009790e-02,6.411243662987038683e-02,8.158106207847595215e-01
6.269197759355047417e-01,5.467849272888942735e-01,1.752133117483839486e-02,-1.344294335137401382e-02,1.428372040513292696e-02,-5.632098478621566304e-04,5.745512843132019043e-01
6.241796820756879693e-01,5.107729977875923311e-01,3.774264884326905545e-02,-1.195412089935850297e-02,-4.484507011653554413e-03,2.300800035592626727e-05,5.392148494720458984e-01
6.088709237104159566e-01,6.039524054098273087e-01,-9.299522265839244017e-03,-2.855989063700095729e-03,4.710875061211109750e-03,9.540521990850773550e-04,6.158020496368408203e-01
6.634263432891736034e-01,3.522319247392860508e-01,-1.385747498943046274e-02,2.160211089540652329e-01,4.628254710538607514e-02,-7.657130050945276656e-02,7.133017778396606445e-01
6.906901489524210902e-01,3.506531894630394164e-01,-1.143137512371436570e-01,2.482771740056197163e-01,-1.078809245274426004e-03,3.618189615746477544e-02,8.238815665245056152e-01
6.197791520475609550e-01,6.291458648017344002e-01,7.447823228438876786e-02,-3.918936756513516362e-03,3.910382044421800013e-03,-5.939602158945868175e-03,5.502238273620605469e-01
6.326027818185686602e-01,6.189378848777820075e-01,1.541361764943277590e-02,8.347172683181630550e-05,-5.549555289790492237e-03,-4.671897069361445674e-04,6.105476617813110352e-01
6.303931684629950905e-01,6.211138586714375354e-01,-9.004878933421445186e-03,-1.495945418678681496e-06,-2.132326509086999045e-03,-3.884078375977904202e-03,6.348556280136108398e-01
4.936653090037588232e-01,8.007165708428580775e-01,-4.990199894771990552e-02,-3.170506959969783267e-01,6.842611289907624128e-02,5.831716264360908841e-02,9.393941760063171387e-01
6.845726814714245823e-01,4.270340588120788983e-01,3.916997540974520575e-02,-2.249030348495710541e-02,-1.753593193926576092e-03,3.126760238076972003e-04,5.640758872032165527e-01
6.224689874562057135e-01,6.194760991046883714e-01,6.365564996850425761e-03,2.461917932355399147e-03,-2.858688535548161661e-03,-3.011075933707510824e-03,6.146693229675292969e-01
6.319974956799088162e-01,6.180338038829685798e-01,-1.155762716753000463e-02,4.433504361863017338e-05,5.926912101971339034e-04,1.883070029388092417e-04,6.366890668869018555e-01
4.119710469125278385e-01,6.901314075399909154e-01,3.564781530136806875e-02,-9.095113990767135156e-04,-2.899205525462616637e-04,2.048516889618233363e-04,5.689230561256408691e-01
6.301873336925183366e-01,6.218768330506848629e-01,-1.027368182690391318e-02,1.056715834949838553e-05,4.427877497187917015e-04,-1.555507992910817395e-03,6.363526582717895508e-01
5.788638342434709871e-01,5.803095387653820492e-01,1.948405281314147253e-02,-3.141698054607389851e-03,6.302575777404086782e-03,1.449158607954874030e-03,5.602424740791320801e-01
6.789985350143680209e-01,4.536190478220653577e-01,3.336786583393602790e-02,7.265830423479550937e-02,-3.605777661565715518e-03,5.982618347752067904e-03,5.814697146415710449e-01
6.662021269250533173e-01,6.617446286508885667e-01,1.269876953640043382e-01,-3.478368837377180962e-03,5.761530967931097202e-03,2.518794642592061747e-02,5.388948917388916016e-01
2.598469130171898733e-01,7.552005996068446025e-01,-1.168778015059979136e-02,-1.903588543566675506e-01,-1.212408983594766808e-02,-6.178523310175195425e-03,7.502513527870178223e-01
6.300652014463139494e-01,6.199208265482071267e-01,-1.051826586471732439e-02,-1.125501576316901859e-03,4.460591956225158053e-04,-1.528037443246295021e-03,6.355809569358825684e-01
6.320725556374491294e-01,6.175915575639988608e-01,-6.988805233422656915e-03,9.029793029324701672e-04,1.349677654830944542e-03,2.024478858617808057e-03,6.319612860679626465e-01
6.400191476280874259e-01,6.018079587759126436e-01,-8.979671723788218429e-03,-4.086261972686270933e-04,-1.510439484540657303e-04,1.098201240813784967e-03,6.307651996612548828e-01
6.302305578349887139e-01,6.222959871869558901e-01,-1.140019198684089075e-02,5.707062190120970125e-04,-1.473456461695401036e-03,-2.573090049729082930e-03,6.377219557762145996e-01
5.805937462469451527e-01,4.638323625845826026e-01,-4.521004554241542239e-02,3.077215065242118186e-01,-4.593600336785425009e-02,-5.578340801415158923e-02,7.949447631835937500e-01
6.600914755756601693e-01,4.843414103365487611e-01,-2.565396712905787524e-04,-2.079919236520457182e-01,7.927253897953778772e-02,6.107989161597779382e-02,7.146453261375427246e-01
5.747537769077543102e-01,6.064948037869437591e-01,2.114846661292146823e-02,2.864779655875017428e-02,-1.865648870138897700e-02,1.935129266255562405e-02,5.741846561431884766e-01
3.404871237231039127e-01,6.490419789384960225e-01,-3.081464870924199850e-03,-2.067022426194144169e-01,-2.784383485009300427e-02,-1.296494778336949351e-02,6.710162162780761719e-01
6.195056963224490065e-01,5.619416009421335234e-01,7.015717056145398534e-03,1.727576728939603790e-01,3.476587412894972806e-02,-3.086502444426627439e-02,6.627365946769714355e-01
3.942320495234097333e-01,6.363319296649649903e-01,2.677606947511529389e-02,1.440259820348029907e-01,-6.633868406115980484e-03,-1.412649817404612075e-03,5.873378515243530273e-01
6.277846037980538973e-01,6.216609586603444315e-01,-5.406818314390382518e-03,2.959024498062097410e-03,-2.186113873187739941e-03,-2.438511459703160932e-03,6.301982998847961426e-01
4.477818517579235658e-01,6.687515214076930059e-01,1.601469176561476360e-02,-2.105502604648835374e-01,-1.150038096192512183e-01,-6.285599395679468404e-02,7.177621126174926758e-01
6.257421157170717230e-01,6.031291249876234994e-01,-9.464906270464146232e-03,-8.753270089050733645e-04,-7.949177470292190587e-03,-4.310008239927998414e-04,6.243619322776794434e-01
6.412329668960868867e-01,5.986004916543514742e-01,2.613004348785308295e-03,-1.584414844853570484e-03,3.084748015718808203e-03,-4.972295619956198197e-03,6.184960007667541504e-01
7.226840877464290047e-01,6.040515829419174088e-01,-6.866349374168689845e-03,-3.262583763975337309e-02,-2.043747016452635359e-02,-4.178505284702087319e-02,6.851667761802673340e-01
7.514254214532662957e-01,3.414544588324145424e-01,4.163187653088740170e-02,1.035173617346292901e-01,5.061444108906299616e-02,-1.170658125343583128e-01,6.795840859413146973e-01
7.411841303156784244e-01,7.414943976107792878e-01,9.903480096587818915e-02,1.787799805910409712e-01,-8.868676202854422486e-02,3.351925944297976662e-02,7.317162156105041504e-01
5.013479590065349489e-01,6.424137334290529466e-01,2.477852582323658570e-02,1.754068180690038503e-01,-1.281719042067470428e-02,3.627194708134358261e-03,6.380286812782287598e-01
5.826124631297716627e-01,5.606373513626357052e-01,6.174848628624052260e-02,1.879337814056002143e-01,-9.150246687076812879e-02,1.145431203560733219e-01,6.563321948051452637e-01
6.196927184189180426e-01,6.313247849101538689e-01,1.982634628142410094e-03,-4.517329114779605574e-03,-1.174046166228066325e-02,-1.698566126899059715e-03,6.239949464797973633e-01
6.230847039606373095e-01,5.129575062675711949e-01,3.339611315401208591e-02,1.408679348762667712e-02,-6.185315963988293093e-03,1.777627947457091943e-04,5.437187552452087402e-01
6.207403734649161731e-01,6.109300846365348647e-01,-1.342851385554139076e-02,7.816163124845474123e-04,-6.240429153462847926e-03,4.802034124443011615e-03,6.294702887535095215e-01
6.159957142695671184e-01,6.219227600917048848e-01,-1.283120709751273125e-02,-3.492560139943457127e-04,-2.188472278182071462e-03,5.531299667172607896e-03,6.318956017494201660e-01
7.678435169642714442e-01,3.565271884998483798e-01,3.401114061024607116e-02,1.130346170596304850e-01,1.697642637831100337e-02,-1.507689459217018309e-02,6.676307916641235352e-01
3.736928005057756352e-01,7.264985274317643515e-01,2.496261996587617604e-02,-2.683512494416432845e-02,6.483708049198572132e-02,1.137545798424458195e-02,6.199021935462951660e-01
5.887537935608522233e-01,3.742810975539960228e-01,-4.370835659339711299e-05,2.955966106046477027e-01,-1.007674470503186828e-02,1.812712924469896125e-02,7.278890609741210938e-01
7.034446711368926852e-01,5.031156392522666554e-01,-9.034230060977921362e-03,9.187098625423838205e-02,-3.169594423008949280e-02,5.975639098233268692e-02,6.663894653320312500e-01
9.805154131476522261e-01,1.892499453895847283e-01,-7.648795175967676441e-02,-3.229750960600148019e-02,1.124896499233624461e-02,5.747904167137674741e-02,9.593786597251892090e-01
6.284244703592529735e-01,6.075399695253889121e-01,-6.119388229938960144e-03,-6.925116649029820597e-03,1.110943508006421131e-02,9.550384279329925813e-03,6.249941587448120117e-01
5.449533928203937894e-01,5.609876078256170739e-01,3.127811432945382109e-02,4.175590822395744417e-02,-1.892201952140560011e-03,3.375386740834600448e-03,5.269073247909545898e-01
7.629480311638843215e-01,3.082956155942292997e-01,1.664269434880033538e-02,-1.562906468802226917e-02,1.399793287732341990e-02,5.477012070669936422e-02,6.593109369277954102e-01
9.339595976836672087e-01,2.284239647211306901e-01,-8.055677599341715123e-02,-8.368732445489397709e-02,-1.560136101718314662e-02,5.916060519679446766e-02,9.184157252311706543e-01
6.281647974453705707e-01,6.177020902787853096e-01,-1.034364286365824226e-02,1.408778790650283162e-03,2.059655257676068062e-03,6.935704868865856434e-04,6.333577632904052734e-01
9.913120794824559212e-01,2.260652687630944069e-01,-9.775840552994641275e-02,1.454302795274995119e-01,-1.397551143398075707e-02,1.935861907225559743e-03,1.001157641410827637e+00
4.236842786830340435e-01,6.997478875728283532e-01,3.886938391449651364e-02,-6.103581333678160907e-03,6.747560545741381659e-04,7.815003771782150341e-05,5.750131607055664062e-01
6.271641857106369233e-01,6.284813884446724952e-01,1.608672042697495419e-02,-4.112356100030839685e-03,-4.998118299331047107e-03,3.881126771993440895e-03,6.118767857551574707e-01
9.492504035714757205e-01,1.957976802639270764e-01,-1.823048783048414334e-02,1.243689688187710890e-01,9.082322156542893543e-03,2.690590468034875782e-02,9.075137972831726074e-01
6.561769251837115124e-01,5.982041918203944153e-01,7.324763721455418430e-02,-2.203471641723570018e-02,6.674028771681116828e-03,-1.189266456666509923e-02,5.580214262008666992e-01
6.213697331597226592e-01,5.484977898758116588e-01,2.032630678168928506e-02,9.483618900494154152e-03,-1.169812671379150647e-02,1.409753939012417870e-03,5.687271952629089355e-01
9.593483856354942940e-01,2.276833904760625360e-01,-9.339359638431515842e-02,1.453736402059206401e-01,7.804586461471350357e-03,5.972211485977041434e-03,9.680057168006896973e-01
6.465594132570890995e-01,6.055725604988719812e-01,-6.955562181971741698e-03,-8.911323325509080268e-03,8.469154687145772145e-03,9.986749388703749369e-03,6.346092224121093750e-01
6.464984626262988421e-01,5.662015408701926988e-01,-7.550233256094607270e-03,-2.197183650755287626e-02,1.918568501106304725e-02,2.810343459433959495e-02,6.217967271804809570e-01
8.135221812198840663e-01,2.015133893707576340e-01,1.088589131369277485e-03,6.109875987748039639e-02,-1.413846884105495047e-03,1.252543842840538046e-02,7.409874796867370605e-01
6.335375649751406879e-01,6.352736068860558305e-01,1.126805897715038585e-02,7.120983317677384399e-03,-1.710836223000140530e-02,1.361256031976148650e-03,6.239698529243469238e-01
6.289408847782784751e-01,7.325322485817347129e-01,6.649285641982738415e-02,2.792491732405010807e-01,-1.003283636730020190e-01,7.500668751354079566e-02,8.163083791732788086e-01
5.683995124887168959e-01,6.014523572009620178e-01,2.233393067410882615e-03,-1.826800840560799388e-02,-1.236053945523079949e-02,-1.838413972938747476e-02,5.855112075805664062e-01
6.830960939257137987e-01,4.406423937383243672e-01,3.529004312075983973e-02,2.519924855525351032e-02,-5.318001002599307206e-03,5.472144968843845178e-04,5.686512589454650879e-01
6.274530405893438134e-01,6.278978393237002464e-01,3.399892073391946878e-02,2.665812043935393127e-03,-5.762000736140215386e-03,-2.632880760176761585e-03,5.937960147857666016e-01
6.199708011054336776e-01,6.305251109133587217e-01,-1.162036690293671848e-02,3.945494612798042906e-04,-1.161088625666208303e-03,-1.352425315901077630e-03,6.369417309761047363e-01
3.532396999211833144e-01,7.603332503736388581e-01,1.693566297888826622e-02,1.761770537105688539e-01,-1.090269216662731883e-01,2.984467607887433468e-02,7.397165298461914062e-01
6.157212461754634214e-01,6.315488924574195195e-01,-6.010165460343608324e-03,-6.480524271599179872e-04,2.798698446619160129e-04,1.753104814373136741e-05,6.297956109046936035e-01
8.970610223485053769e-01,7.995852936002271205e-01,1.047305384600462630e-01,2.442276182835177722e-02,-3.808192564202757258e-02,1.016381787065494952e-01,7.727788686752319336e-01
5.712216405384538120e-01,6.127991396986502970e-01,4.822960815148269464e-03,6.497089014824436980e-03,-5.041592087912384092e-03,1.323912022881506591e-02,5.889094471931457520e-01
7.637797326596795777e-01,3.743197793114801941e-01,3.232144880090770389e-02,1.049031728821554904e-01,-1.674969140628043934e-04,1.661643911544994842e-02,6.600598692893981934e-01
7.086720796074268414e-01,2.253371813844751159e-01,1.246083478300452629e-02,2.239659161068582593e-01,6.116727706958520992e-03,-3.249924598187329703e-04,7.296672463417053223e-01
8.099601971205191431e-01,3.400593373716097600e-01,1.552702218912688226e-02,2.406468641572351991e-02,-8.369194308540600993e-03,2.157456172480863577e-02,6.942405104637145996e-01
6.202335815781332418e-01,5.427624641444024345e-01,3.034399338506227339e-02,1.873033380104867363e-01,1.005670014775296960e-02,-2.135055741349426231e-02,6.443529129028320312e-01
8.884216523658218234e-01,8.588543835896688128e-01,1.138013419061997267e-01,3.659576212420313779e-02,-3.907422568471283914e-02,1.032704465075008071e-01,7.865112423896789551e-01
5.819129198797308167e-01,5.882629259791452014e-01,1.180766621796125460e-02,9.018476375151974686e-03,-3.993679098536771603e-03,8.549431754004882533e-03,5.737522244453430176e-01
6.264467368254691415e-01,6.261917487519490511e-01,1.411102498053462551e-02,4.443061458738125497e-03,-4.128016216514574475e-03,-3.057307589177184030e-03,6.123212575912475586e-01
7.226354793957574518e-01,3.369607123364489198e-01,9.343251533120600083e-03,5.045111515083307296e-02,3.429124231054430771e-03,2.109947191274551270e-02,6.256507039070129395e-01
4.683172606304480401e-01,7.060785886447443760e-01,1.163412620070303216e-02,-9.788672414850205228e-02,-5.880420406041825254e-02,-2.593359038831943852e-02,6.440562009811401367e-01
6.254064477879384132e-01,6.287587714519862203e-01,5.935012475585199621e-03,-3.297134685073626909e-03,-1.068853923351974558e-02,1.112295011019246924e-02,6.217550039291381836e-01
6.541558490319117070e-01,6.183568687616723958e-01,-3.194776982412883548e-03,1.356751265295226766e-03,1.395666862905893188e-02,-2.219195185986596458e-02,6.418148279190063477e-01
4.412693243905430607e-01,6.736693403699182126e-01,1.578562339136113657e-03,-5.965570189771275678e-02,-5.676971205789588942e-02,-1.417813330881432902e-02,6.086622476577758789e-01
8.040315346624793413e-01,3.278699013542890062e-01,1.974857318832901054e-02,-2.420614402865986226e-01,-6.927552810138706829e-02,-2.453056252820132524e-02,8.126302957534790039e-01
5.729263946008894548e-01,5.621054726474480345e-01,2.970595690210497963e-02,1.325274005072872574e-02,-3.717411058845807460e-03,7.912750480008917025e-04,5.384214520454406738e-01
5.735346887753101086e-01,5.723327464394317721e-01,2.604191859937665665e-02,-1.304350217411498133e-02,-6.428453808817943815e-03,-3.334713833599639403e-03,5.475029349327087402e-01
4.653868924334106372e-01,6.575254787109178212e-01,3.809296156281483103e-02,-1.567040569817269163e-02,3.787000478914401519e-04,-6.848522136165423671e-03,5.499771237373352051e-01
4.653539786282445134e-01,6.613439163310690372e-01,3.989234283168668904e-02,-1.470999846934078863e-02,6.987316228370173826e-04,-4.267195785559703761e-03,5.509275197982788086e-01
6.660503548203210444e-01,4.622848921246442422e-01,2.204662900286907812e-02,-1.830352575777784152e-02,1.484647967222295188e-02,1.411580208478936845e-02,5.721009969711303711e-01
5.406122761984473168e-01,6.228908334358680410e-01,4.095279722282796353e-03,-1.979420702580181324e-02,-1.574678116838863426e-02,-1.641435418201035723e-02,5.843729376792907715e-01
4.261468067445621233e-01,8.543238555882241014e-01,-1.336915261208809769e-02,-2.388127774351575250e-01,-3.279580150210047174e-02,-2.560741531924224865e-02,8.608071804046630859e-01
5.115499197420924071e-01,6.552101951483488840e-01,9.810344789771274776e-03,-7.720033631931404183e-02,-4.061528065605277127e-02,-1.279107917728967286e-02,6.064488887786865234e-01
6.249017821672890882e-01,6.081959095771422019e-01,-1.078168404148716064e-02,9.245725236625080201e-04,6.527740972017284996e-03,-5.068567360315533871e-03,6.276626586914062500e-01
6.537800747347483066e-01,6.614854627897118755e-01,-6.358640063749809723e-03,-5.819778823729369888e-02,-9.548884805786909957e-03,-2.969564515703033633e-02,6.738019585609436035e-01
6.939085874960084777e-01,6.510090059915893956e-01,1.021971483869643649e-01,1.347373043720090195e-02,1.521567244948210948e-03,-4.315999894900515721e-03,5.720018148422241211e-01
4.234962964152970133e-01,6.405685307076345314e-01,3.231098282107397468e-02,-1.105083008329329208e-01,-1.386598479430642405e-02,-1.094751460037989531e-02,5.680091381072998047e-01
6.907422785613044347e-01,4.765245444805908948e-01,2.020118583610408525e-02,-8.566927041172166593e-03,-1.228993319972624884e-02,-3.589443750375764992e-04,5.937562584877014160e-01
9.592117466090419597e-01,4.668830785004549622e-01,7.576985671462443950e-02,3.631472027098381350e-02,-8.020671104367608356e-03,-1.467322829912414972e-01,8.103417158126831055e-01
6.273623432707933212e-01,6.273949736871382576e-01,2.944751716843058142e-02,2.435281961991385934e-03,-5.707696084207625198e-03,5.125589873820093380e-03,5.980936288833618164e-01
6.041818461451751165e-01,5.959055348613994108e-01,6.539962341394423007e-03,-3.911316534059263716e-01,-7.875596688157573966e-02,-2.867523583794152897e-02,9.123180508613586426e-01
6.289281112308177102e-01,6.236770728614274839e-01,8.416344690353305680e-02,3.447297154534775809e-03,8.635035527262026681e-03,1.675615923068128751e-03,5.424051284790039062e-01
4.469112381630520048e-01,8.998072039487117202e-01,2.672811092818339063e-02,1.790118597224748254e-01,-8.339405845609412782e-02,4.019001512764963646e-02,8.329544067382812500e-01
5.361374628021051691e-01,6.360764099372067104e-01,1.310761354767975284e-02,-4.403861355272072065e-02,-2.681979323804770804e-02,-1.222453578423725491e-02,5.867226719856262207e-01
3.288671754805664316e-01,8.460563844370623254e-01,-1.007228916533429164e-01,-3.193910986270394048e-01,2.252777973476288026e-02,1.009327361563253783e-02,9.909953474998474121e-01
5.636658754970679253e-01,5.017894904063392447e-01,2.578081393142545030e-02,-8.755429581162088581e-02,-7.562585255844952135e-03,-6.762688882446145876e-03,5.321397185325622559e-01
6.255525793272591617e-01,6.264217829296654383e-01,2.216854273954921295e-02,-3.423881387603160218e-03,3.756267965073489205e-03,-6.053391509279202123e-03,6.039742827415466309e-01
7.017459684660649621e-01,4.350572791721322718e-01,1.796791461367419629e-02,1.512526379535726606e-01,2.527007911530372922e-02,-3.423106312426028169e-02,6.560354828834533691e-01
6.009037443362822417e-01,5.790157591099376333e-01,1.031377829338497865e-02,-6.259487202706838505e-03,-1.068711058538537872e-02,-6.540473025012970634e-03,5.804629921913146973e-01
5.497266986296686087e-01,6.234088450305339535e-01,2.064096967683370920e-02,-9.331542700470440294e-03,6.810290668408605251e-04,1.048058156964274540e-02,5.700325369834899902e-01
4.077929891650209360e-01,7.077776365823311711e-01,3.555488691354669051e-02,1.440472157115309628e-03,2.114572894973218257e-03,1.743414130811964493e-04,5.832987427711486816e-01
4.790828746919281178e-01,6.822105736271748544e-01,1.402893526312692929e-02,6.720888305356895534e-03,8.420818048091066772e-04,-7.440253796265281112e-03,5.935529470443725586e-01
6.236812007657653867e-01,6.339386364184584899e-01,1.028416052723764018e-01,-2.496052506689888737e-03,-1.342532609013349053e-02,3.589943715758490191e-03,5.266115069389343262e-01
4.808401019064771909e-01,7.844299583653162600e-01,-4.998348388099593809e-02,-3.360778066689862342e-01,4.943460809402338424e-02,2.385132726095192529e-02,9.396680593490600586e-01
3.847977098364928628e-01,7.700437608749872709e-01,1.994594379720954214e-02,-7.719235496939455543e-02,1.363962595764785625e-03,6.062332050288800171e-03,6.633858680725097656e-01
5.533603874868191497e-01,6.309001998424099700e-01,1.227208717256289550e-02,-3.078611730372016880e-02,1.591314841443256314e-02,1.538249174087835333e-02,5.874161720275878906e-01
6.286156061399956752e-01,6.376405898631748448e-01,1.143795023967790203e-01,4.863788866238827162e-03,1.247104181687051262e-02,9.550476761788223232e-03,5.195886492729187012e-01
8.260383974222448300e-01,4.332411307036405645e-01,4.060568772641770519e-03,-1.963733086787405324e-01,-2.523581697306546273e-02,-5.935482547322077501e-02,7.970154285430908203e-01
6.223428141715878770e-01,6.321334116922635582e-01,9.720610574930732550e-02,7.093806401138536477e-04,8.965006840089344634e-03,4.426131834182692355e-03,5.303840041160583496e-01
6.378853821809877811e-01,6.391537538610706504e-01,1.191108047669339198e-01,-4.572007206224565530e-03,-8.765537863796260543e-03,-8.600610164061387591e-03,5.199055671691894531e-01
6.891958872637068412e-01,6.394035019085184679e-01,1.213383293958431586e-01,-1.236081172558532986e-03,-4.296001811424670323e-03,1.181984611439677348e-02,5.451106429100036621e-01
6.731974003347569457e-01,6.860698169141319358e-01,1.601676056883737931e-01,-1.361477554482721543e-02,1.494178493554894696e-02,1.311864607045230488e-02,5.212593674659729004e-01
5.910897325929550528e-01,5.382289992740947326e-01,3.333707657367041000e-02,-2.224892408254216733e-02,-3.033469681218689974e-03,-3.991154145669638907e-03,5.347518324851989746e-01
2.372984923730177553e-01,9.514097602703781575e-01,-9.920013619178069675e-02,-1.042985163438895219e-01,-2.570666966185226540e-02,-3.583090777227278994e-04,9.476819634437561035e-01
4.776417542598071497e-01,6.721773054421584792e-01,1.488054666696664308e-02,9.336943319741867423e-04,-7.656062412747921932e-04,9.899678682358909257e-03,5.850759744644165039e-01
6.333742024869004617e-01,6.515915370632769932e-01,1.450722711252555586e-01,1.126717375177209261e-02,-1.214448333544059649e-02,-1.427788451372515206e-02,4.991002976894378662e-01
8.125638288946006593e-01,3.144582879970855838e-01,3.317020840050799446e-02,-4.282934267875740213e-03,-9.193928474379288104e-03,-5.694560421678786059e-03,6.839218735694885254e-01
4.676392031197809107e-01,6.578739774934514450e-01,3.483692723689935100e-02,1.370684960383982548e-02,-1.105800371204880301e-03,5.877145286707546011e-03,5.536352992057800293e-01
6.988047055390840256e-01,4.553063945471271801e-01,3.117869115810667502e-02,1.630103838875611444e-02,3.637547670728015319e-03,-1.605824162897509164e-02,5.865668058395385742e-01
4.211410618340635237e-01,6.961172147808196708e-01,3.763309310876578051e-02,6.983867392594167618e-03,1.166581155911956390e-03,-5.138529034539041952e-03,5.730404853820800781e-01
5.044760020933698463e-01,6.322967685311038366e-01,2.107178048225866185e-02,-2.220797634485923572e-02,1.168169708347421669e-02,1.797584242681495026e-02,5.609503388404846191e-01
5.112330796741746397e-01,6.143259063293249334e-01,2.242749761786383411e-02,-7.329052260361454407e-02,7.914419948871405722e-03,2.075591841680015162e-02,5.635123848915100098e-01
6.263331892272857582e-01,6.245918217080193013e-01,2.000150993241905928e-02,-6.063637613477847708e-03,-6.182048790586443417e-03,3.718481517396303362e-03,6.056828498840332031e-01
4.613973927394967034e-01,6.632590513320377745e-01,3.787246801109594996e-02,-1.476636415492994098e-02,9.414478692532732979e-03,-6.865626232134523950e-03,5.537837147712707520e-01
4.244662423373395943e-01,7.116846799377491983e-01,2.926201062089728300e-02,6.149289239562975851e-03,2.004572032716831279e-02,4.116513236705855033e-03,5.946095585823059082e-01
7.190111749467498203e-01,6.720948827546133764e-01,1.142175142762594242e-01,6.494055851550092039e-03,-4.071717711087154828e-02,-5.314099430697208359e-02,5.942843556404113770e-01
5.693773686628247344e-01,6.473404296358620247e-01,-9.955339166978827148e-03,-2.036407270652924883e-04,1.237879643717827369e-02,-3.099065837560904986e-03,6.223823428153991699e-01
5.555460019992898291e-01,6.610631031683904535e-01,1.549323607702324246e-03,3.993339000720875012e-03,-4.306886965881072719e-04,-8.733434521802051209e-03,6.138237118721008301e-01
5.786834632655906141e-01,5.715506154904422820e-01,2.704203031006718883e-02,-5.319272925590009908e-03,-3.374445820452327827e-03,-2.785831597829625545e-03,5.482396483421325684e-01
6.930208724298119183e-01,4.161979654691048691e-01,3.384475461089730963e-02,-1.383204377445400421e-04,-7.788100924347769391e-03,-5.358604408547879873e-03,5.735304355621337891e-01
4.644114999946336586e-01,8.592308613402215300e-01,2.173288369430093070e-02,-2.102671573162647467e-01,7.284037589925611289e-02,4.032500412474746693e-02,8.246557116508483887e-01
6.255688318966424744e-01,6.240449426268346311e-01,3.900481934639743464e-02,-3.362208827662115269e-03,7.826562576341672753e-03,-7.631589562489172899e-04,5.859907865524291992e-01
7.077757201442561596e-01,4.410218034260303677e-01,3.813663450012255707e-02,-2.103297094602361167e-02,-2.567087157723670944e-03,-1.154564734909058546e-02,5.853991508483886719e-01
5.112651827857309650e-01,6.525149930507827545e-01,-1.922804752491069635e-05,-6.874493083051060570e-03,2.324530475415445552e-02,1.093392347614511803e-02,5.964088439941406250e-01
7.641416061672494653e-01,4.438812493932357550e-01,-9.083832373086575540e-03,-6.649082728213529360e-04,-3.710294766981033637e-03,-5.223479932548685117e-02,6.789984107017517090e-01
7.138755433292106600e-01,3.351106916752784048e-01,3.003719694207218627e-02,-3.261614580465614643e-02,-6.494229672666690378e-03,-2.997738033010050387e-02,5.984126329421997070e-01
5.727107210025609296e-01,5.801282250218228187e-01,3.030686157575052109e-02,-1.886931157416581835e-03,-9.250578995109316315e-04,-2.821271990864942809e-03,5.461843609809875488e-01
8.515001140012227188e-01,8.578690225299736571e-01,1.215444241843373074e-01,-1.217556276397773196e-01,1.343200283831890163e-01,8.882067495526688172e-02,8.122752904891967773e-01
2.652146647009623326e-01,9.258209858100306944e-01,1.917046537439187626e-02,-1.277297814122939183e-02,9.811551597633760835e-02,-1.105906830119037128e-02,8.301886320114135742e-01
6.361151522486772070e-01,6.240444122557213813e-01,1.013010024856006996e-01,3.333280828088402634e-03,-7.049277949669228299e-03,5.051145207135952428e-03,5.291268825531005859e-01
6.321928437843941095e-01,6.982125252888946587e-01,1.341055889675541457e-01,3.255870486751942690e-03,-6.684976979657054723e-03,-1.949479893737365854e-02,5.353868603706359863e-01
6.036198565931043536e-01,5.655295361909440377e-01,1.904272118226241206e-02,4.955416986162351246e-03,1.217675916589723052e-02,-1.572986464717585769e-03,5.669572353363037109e-01
7.888025426469988943e-01,2.262392578994442682e-01,-2.652930653085810997e-02,-1.498603210685812981e-01,1.354993449496327482e-02,6.032122038155775939e-02,7.755055427551269531e-01
6.277472617518178311e-01,6.190803257403457716e-01,-1.301030722901125314e-02,1.421056853377074703e-03,2.906919481549582757e-03,-6.614911169063221333e-04,6.364940404891967773e-01
6.197724448733724634e-01,6.059384888346888154e-01,-1.189021592397093707e-02,-3.655076412628571660e-03,7.995908407484585492e-03,8.145889236677536852e-03,6.252052783966064453e-01
6.293661567822043112e-01,6.225950135128847096e-01,1.833358672675688972e-02,-1.201546898926240470e-03,-2.086977189724956942e-03,-5.904941037168075398e-03,6.077756881713867188e-01
5.729115150997746708e-01,5.746858347710225301e-01,2.905504449820783819e-02,-2.008925653348700609e-03,-9.119065402480697842e-04,1.178234790110382050e-04,5.447592139244079590e-01
9.170858233390584147e-01,3.790311627201962130e-01,-1.316460304690403316e-03,1.347581120388000875e-01,-3.912250029112770283e-02,1.404637855301860139e-01,8.701012134552001953e-01
6.278407109471461078e-01,5.663211470637262712e-01,-9.654721212074224290e-03,2.024217977819786282e-02,-2.079440500885104334e-02,3.062909824479343249e-02,6.134390830993652344e-01
6.946707192079715210e-01,4.596426106729790684e-01,2.068955648797038416e-02,-1.220649665113255787e-03,-3.193077971140580607e-03,2.579850761789081754e-03,5.925701260566711426e-01
6.205660536103840830e-01,6.240870598754100218e-01,1.248189054151202515e-01,-3.494111650428095763e-03,1.152020472235136365e-02,2.512684201290530956e-03,4.979727566242218018e-01
7.202761135049632335e-01,3.621376899753434575e-01,7.500344653767643255e-03,1.159895444031709549e-01,-2.235775272560358573e-02,5.506151173522054465e-02,6.572637557983398438e-01
6.280977266681972981e-01,6.227103677923104819e-01,6.476541002448166218e-02,-5.352247616955189274e-03,-4.703015319035800008e-03,2.146050186925111715e-03,5.608061552047729492e-01
7.333707912414659802e-01,5.199782006466858730e-01,-4.017801678414634203e-02,2.989521669789791947e-01,-3.933671382106317810e-02,4.417727838169317051e-02,8.703210949897766113e-01
4.185967252781434000e-01,6.761104049327748555e-01,2.905510039066155903e-02,-3.648406243393579468e-02,3.263990110792251709e-03,6.172164614568674545e-03,5.678976774215698242e-01
6.536341024244431974e-01,5.609866655095123722e-01,-1.623508638079473876e-03,-2.502704793978063110e-03,7.216838613601606750e-03,-1.585912996784611534e-03,6.143457889556884766e-01
6.502624111792019157e-01,4.969204954377210992e-01,2.225835712950563483e-02,1.222130425936155361e-02,-1.038521046457637279e-02,3.339703024324205700e-03,5.678103566169738770e-01
7.017028239044906801e-01,4.036092118229466785e-01,3.235666556425836893e-02,-1.019449073531693110e-02,4.674502047472333006e-03,1.076141655895724095e-03,5.811514854431152344e-01
6.857015847194870561e-01,4.134943756171551854e-01,1.733274754365365933e-02,3.569346192896367953e-02,-1.148140001603663307e-02,2.254251484257747268e-02,5.870441794395446777e-01
6.415728738429687938e-01,4.919243944509532618e-01,-1.627382302786728463e-02,8.814902241304159447e-02,-3.633257774311147992e-02,7.170342594042389273e-02,6.319859623908996582e-01
6.322807210955698753e-01,8.148949561212395221e-01,7.363409883041815984e-02,1.797902907996090649e-01,-6.955397358792735074e-02,8.989307532041898585e-03,7.477834820747375488e-01
5.485084698197383313e-01,6.570728755570381940e-01,-3.131110769887701650e-03,4.459489515543855510e-03,4.160623452263611556e-03,-3.927406962473255214e-03,6.133015155792236328e-01
6.146906707066324138e-01,6.075459239701482828e-01,-7.002483776860302100e-03,-4.598737621751133528e-03,-1.208301218869009021e-02,-7.969504794004182366e-03,6.187112331390380859e-01
6.261454537838810896e-01,6.262095266800438154e-01,4.937498412287255611e-02,-3.840062001591272242e-03,6.307732413028698838e-03,-6.301699474696703836e-03,5.770475268363952637e-01
4.565307458125230644e-01,6.769618658710007120e-01,2.470424429823991908e-02,-2.100017571722114992e-02,-2.100020867482434855e-02,-1.337859797426096606e-02,5.774382948875427246e-01
6.854402171657409948e-01,4.491014196949374426e-01,2.457031419407146311e-02,-1.672528516298760204e-02,1.179582436341537408e-02,2.253069841451603439e-02,5.824048519134521484e-01
6.253300787210103184e-01,5.853188763378640580e-01,-6.327129562867850332e-03,2.387325094059305954e-03,8.855865044561024232e-03,-2.274758073441495929e-03,6.128509044647216797e-01
6.627223629793237425e-01,4.414222367112273782e-01,3.606734458834182089e-02,1.651793761482087119e-02,6.099014548583118860e-03,-9.655354116372607404e-04,5.512933135032653809e-01
7.352185252491760803e-01,4.432454727046299947e-01,-9.267720918228450344e-02,3.353651318433653605e-01,3.294617300906409196e-02,-2.318610601447743114e-02,9.333888888359069824e-01
6.994307017154426376e-01,4.286440949448199200e-01,2.166008760834631230e-02,-2.711416736512447037e-02,2.771478717361677835e-03,2.323007763034042744e-02,5.941503643989562988e-01
6.837555829903190219e-01,4.832359969218361639e-01,1.974534093246044231e-02,-1.473485284764760282e-02,1.052939441686279176e-02,1.966833576593855749e-04,5.907238721847534180e-01
8.959779699205201453e-01,3.445844173726011483e-01,-1.789516069007196508e-02,1.854059760260482748e-01,-1.194206662763661921e-02,6.584535153849778444e-02,8.670963048934936523e-01
5.933514961834425172e-01,5.204469143633767558e-01,3.223615631971976647e-02,-2.591750925727517169e-02,-1.112934329531852819e-02,-4.852555665950123755e-03,5.307683348655700684e-01
6.966309098271288303e-01,5.907879109706604126e-01,1.875533019164121740e-02,-6.238242987775615561e-02,-6.302669011547418730e-03,1.571065137913410167e-02,6.414857506752014160e-01
4.425216230743291845e-01,7.052507280415907243e-01,1.776123086716907551e-02,3.569133283482493063e-02,4.648427473958931938e-02,-3.260216596612827006e-02,6.119947433471679688e-01
6.693436891875190753e-01,5.138124418310069386e-01,9.464583303742668541e-04,4.412786119443026789e-03,-1.043362370637266126e-02,2.098989693908185836e-02,6.072025299072265625e-01
4.931485687131569318e-01,6.254294392539132552e-01,3.266945891468647778e-02,1.652977398008699528e-02,1.051873289298568435e-03,-6.657875915730498105e-03,5.398220419883728027e-01
6.126372297797205713e-01,5.892172570088627381e-01,3.733740553271691631e-03,1.597962771761830738e-03,1.199380108591140658e-02,-1.156354778465736380e-03,5.979085564613342285e-01
4.763925141418556830e-01,6.384635644633777085e-01,3.401137516049662635e-02,3.461154003652742311e-02,4.197701383082016492e-03,-1.904906640550834210e-03,5.452732443809509277e-01
5.164934561672031021e-01,6.479332109863958911e-01,1.926678919416352498e-02,7.945287702281903300e-03,-2.187750725981898320e-03,1.194421690055944528e-02,5.748894214630126953e-01
5.403860473468287129e-01,6.244371458109381212e-01,1.991752742139279997e-02,8.541116387547032299e-03,-1.791422529365944072e-03,1.184940576860315023e-02,5.677567720413208008e-01
6.247360130917647414e-01,5.437793736445261095e-01,2.014297074671644872e-02,9.858421214261359547e-03,-1.397815955892220754e-02,6.349091971640135387e-04,5.692273974418640137e-01
6.302975035194331443e-01,3.999803167669623849e-01,3.110258392286213702e-02,1.289834991804845454e-01,-4.979477461591013190e-03,8.217316320991160201e-04,5.692647099494934082e-01
6.172746731991631819e-01,6.352610002682124168e-01,1.482230475783440360e-01,-3.679819951784353560e-03,2.503160585073706430e-03,-9.556564184612774751e-03,4.786469042301177979e-01
6.366752460449910389e-01,6.394276063208581551e-01,1.324657247104889524e-01,-9.779682511104817802e-03,-3.310054021613418294e-03,1.149655935368418605e-02,5.062991976737976074e-01
6.465741164683191933e-01,6.514232657563735485e-01,8.540365667423133189e-02,1.745083251039201630e-02,5.536937887353196586e-03,-1.076933501164544513e-03,5.645051598548889160e-01
6.923781116692835358e-01,7.277885085948254673e-01,9.261916552905241629e-02,1.772946229988477335e-03,5.042039269868444328e-03,1.375188024743624528e-04,6.182945370674133301e-01
6.920219851726998606e-01,6.439346097832151505e-01,1.020065925708825705e-01,5.271791731259996977e-02,3.166636376621292243e-02,-1.083980692542642621e-01,6.071692705154418945e-01
4.844816535739619456e-01,6.664068493364920798e-01,1.763571809183922534e-02,4.014178010207265779e-03,1.807495467461402595e-03,-8.955253050882485549e-03,5.798893570899963379e-01
4.050128057452458408e-01,6.919271850445570804e-01,3.445000883398030567e-02,-2.632873634100247121e-03,1.366723418930049965e-03,1.855558530406534222e-04,5.709491372108459473e-01
6.966522318237966527e-01,4.239488302486378313e-01,2.256779143865811355e-02,-5.042191470535831339e-03,1.960115519220357368e-03,2.508483249083614045e-02,5.889884829521179199e-01
6.504923401935649441e-01,6.640824568913102910e-01,1.182511094931670281e-01,8.316111617855123997e-03,-8.990202706444299849e-03,5.017549556495998209e-03,5.396518707275390625e-01
6.309374748671489064e-01,6.404553736083379301e-01,1.213526856686839017e-01,-5.674298642255611903e-03,4.710208514567291137e-03,1.419964777930072912e-02,5.151557922363281250e-01
6.413339321411896110e-01,7.131543764003915875e-01,1.132773520788402655e-01,3.763255488166551005e-02,1.129871770065704467e-01,-3.805809992087300607e-03,6.037529110908508301e-01
6.041640476284741990e-01,6.097579493266616080e-01,-8.500008157040384038e-03,2.165476184305031686e-03,-4.110284833908823578e-04,-8.565293741906522844e-04,6.154937148094177246e-01
6.942769680550675560e-01,4.094983996770455992e-01,3.506679341271801142e-02,-3.171644937846000017e-03,-1.047756282023169089e-03,-1.779851384995499936e-03,5.726874470710754395e-01
5.828010598427108002e-01,5.882626741359240352e-01,1.147003460782564099e-02,-7.794163331055895157e-03,-3.874626335393788635e-03,-6.352570273609494528e-03,5.743846297264099121e-01
6.671971761785426835e-01,5.544419414223640263e-01,-2.472067810256051157e-03,2.713160589274948332e-03,-8.221287548087543098e-03,-1.257887579159372004e-03,6.212016940116882324e-01
6.378923309196283808e-01,5.803320095752474428e-01,-1.002722831668423353e-02,3.109859976194344084e-03,-1.036698962458820761e-02,1.305368529075398749e-02,6.218369007110595703e-01
7.079592104501216676e-01,4.190541051437859377e-01,3.449455675290935552e-02,6.945928555366258708e-03,4.914460378882476443e-03,1.978235156824409424e-03,5.853907465934753418e-01
6.262152058492514994e-01,6.271374590377457592e-01,3.138598087353211552e-02,2.744916706369299880e-03,-5.678998993151355631e-03,5.808955515841621349e-03,5.954761505126953125e-01
6.825199717767973517e-01,4.733552140438999078e-01,-7.152443133414454479e-03,-2.246104812309045878e-02,1.445438611884059150e-02,5.466424918673856714e-02,6.214882135391235352e-01
6.741811603726548530e-01,4.177379012183619622e-01,3.276683063601887325e-02,-3.459908535023911019e-02,9.540814311311487548e-04,-3.011823353357961225e-04,5.623908042907714844e-01
9.343398882405402617e-01,2.280424515704608801e-01,-9.342485983919723846e-02,1.110443378931260244e-01,-8.057033584240060747e-03,4.221339126989335361e-02,9.336926937103271484e-01
6.375041637527935068e-01,5.200599135978025700e-01,1.162988040230072961e-02,-7.485876479176066522e-02,-2.958959056229847756e-02,-3.582748974503293521e-02,5.960665941238403320e-01
8.399853521982947324e-01,1.990227315568154354e-01,-5.392022116911365792e-03,-1.220818777570162328e-02,1.068160302579283794e-02,6.780031830640743939e-02,7.734473347663879395e-01
8.569541981959425403e-01,4.528475030609460661e-01,3.912890373008715006e-02,-2.088755301719480983e-01,4.375369937703121881e-02,9.351559118239990975e-02,8.151793479919433594e-01
6.780854121513339994e-01,3.522326913494213119e-01,8.546232727401514850e-03,1.863157300641934966e-01,1.906541141432415917e-02,-1.582988741755140399e-02,6.650371551513671875e-01
5.681666653060558625e-01,5.922434920500679878e-01,1.866037983915930232e-02,-7.193690600868355052e-03,6.409954555386788251e-04,8.860720936134656653e-03,5.622804164886474609e-01
4.274920514347331224e-01,7.255909520817593883e-01,2.224369838996154147e-02,-1.568301654420582725e-02,2.497062417206673962e-02,4.916376207847280265e-03,6.136564612388610840e-01
6.330286187783441543e-01,4.865057113361448415e-01,3.815440768857114584e-02,-7.836937281955659584e-02,6.057826218991764489e-03,-6.290345737140397471e-03,5.539274811744689941e-01
5.430483459535779822e-01,6.234554071315702162e-01,1.789473326358453908e-02,-8.423486805939531252e-03,-2.989448252967826718e-04,1.378100622852907950e-02,5.703161954879760742e-01
7.075650361460987803e-01,4.277330904324164185e-01,2.420645418992845022e-02,7.540966702684888216e-03,4.495636231759209817e-03,2.622022202889762177e-02,5.969531536102294922e-01
6.846435993586645896e-01,4.369126681324943529e-01,3.456004908407606102e-02,5.705135737426384780e-03,2.172677508884740365e-03,4.177359306632668322e-03,5.684167146682739258e-01
6.396464625755420297e-01,5.600072841218494135e-01,-2.101996704305886254e-03,-1.930219938816477411e-03,-6.536055380727696582e-03,2.035910830972329291e-03,6.059924960136413574e-01
6.529160381627701071e-01,5.446869358470651790e-01,-2.332608344200348682e-03,3.437927787122228851e-03,-1.260270601101279482e-02,-7.193103336463164792e-03,6.089454293251037598e-01
6.329349276185125550e-01,4.898477808151071033e-01,2.559612231380758995e-02,-7.908282506146586954e-02,6.385668890275974195e-03,-2.244013396485702340e-03,5.668612718582153320e-01
6.605997898888023023e-01,5.448792266915147842e-01,5.545003746181276227e-04,-2.809234504390548462e-02,-8.925500948071268467e-03,-2.178469732292549407e-02,6.137592792510986328e-01
6.457334120724604887e-01,5.262644549075394806e-01,9.230414568735967329e-03,-1.341899467972329230e-01,-3.989054806450061802e-02,-4.061621141096628113e-02,6.380518674850463867e-01
5.459708650537342667e-01,6.498133235973730937e-01,-6.045821387516969736e-04,5.173182529123416867e-04,1.798683055229907159e-04,-8.936847440086609449e-04,6.052181720733642578e-01
5.285749163368229642e-01,7.276842394055427210e-01,1.586447697760984266e-02,-3.531258073561178296e-02,3.011005839593473149e-02,5.106326461411573453e-03,6.412027478218078613e-01
6.065932773337194828e-01,6.880438676390101538e-01,-1.196663996364022431e-02,9.549964359004632641e-02,1.813631992592276698e-02,-2.173194189486767416e-02,6.851254105567932129e-01
4.043990705326939716e-01,6.374391843185447382e-01,-6.293612097151629614e-02,-2.705580658989018561e-01,4.040625285592633342e-02,-3.544768425696640055e-03,7.785617709159851074e-01
6.516920550140916646e-01,4.723196037046513140e-01,2.107184106965132031e-02,-7.936427858827138637e-02,-1.315345657285077810e-02,-1.807899622744396986e-02,5.806342363357543945e-01
8.870836542473131692e-01,6.095553492649438132e-01,1.021264516627462537e-01,-1.236909603290382714e-01,2.334049221995150580e-02,1.424907337108130834e-01,7.640519738197326660e-01
6.890306774942007717e-01,4.286845192732219312e-01,5.442988644869306558e-03,-5.055659942130883572e-02,-1.030513171699430630e-02,-4.200407354225685341e-02,6.085904836654663086e-01
6.376036255704121691e-01,5.900060176936533507e-01,1.930757164298080308e-03,-4.949331919063842782e-03,-1.758288459752566438e-02,-2.160576615001511339e-02,6.152157187461853027e-01
7.303329690037300148e-01,3.807303426844095284e-01,2.323539731339996361e-02,5.173765421785532503e-02,-1.252072046129460922e-02,5.042258648407812321e-02,6.254068613052368164e-01
5.746215761115630594e-01,5.718137021908247242e-01,3.256253346190157716e-02,-1.753189173922528599e-02,1.016064386606302210e-03,-1.647330817368207207e-03,5.415230393409729004e-01
5.469006691265546616e-01,6.723348177742287657e-01,5.761103281320956171e-02,-1.657629339574440974e-01,1.177366888858302069e-01,3.705138478003001251e-02,6.668192744255065918e-01
6.285293667096727432e-01,6.239697168551417983e-01,2.816093804581676352e-02,1.126402606174083457e-03,4.345831356246663765e-03,3.129950086861108417e-03,5.981767773628234863e-01
8.350812541283643142e-01,2.324621911978425604e-01,-1.812973081291546773e-02,1.627954514541488096e-01,-9.473713283983384303e-02,2.729203164248531367e-03,8.266875743865966797e-01
6.981456262004614999e-01,3.981614647456451217e-01,3.499164717159852778e-02,6.667409366082033620e-03,3.495971668749883656e-03,-1.015902123147793996e-02,5.755932927131652832e-01
5.914335534072845402e-01,5.559445580661690478e-01,3.484206319101795790e-02,-4.904496689510504104e-02,7.001686077721018878e-04,2.653858444992532230e-03,5.463876724243164062e-01
6.284718310673527153e-01,6.304040514791744432e-01,2.569485762434997600e-02,7.132009415407717691e-03,4.150344272922811342e-03,9.630656363393644628e-03,6.041448712348937988e-01
6.799673396342167386e-01,5.578677841269145121e-01,-1.275308277034292725e-02,1.307103044239313512e-02,2.660141952793904432e-02,7.586644339760655054e-02,6.558137536048889160e-01
6.308651213358482668e-01,5.428984613183802654e-01,-9.457976081024277448e-04,-3.630960833886901634e-02,2.877166065263880856e-02,3.046377313687494495e-02,6.004728078842163086e-01
6.289598819833395194e-01,6.266739980882524153e-01,1.584202769623971330e-02,4.765158150975801546e-03,4.488600205476780264e-03,4.619104530217911855e-03,6.121354103088378906e-01
6.122027636228236647e-01,5.967271604776011040e-01,4.301986297390536507e-03,-2.171812318714091104e-03,7.464707346155106428e-03,1.227520944778898952e-03,6.004673838615417480e-01
5.890999439717294894e-01,5.891416813463044022e-01,1.418598908020385352e-02,-9.342181336979932206e-04,4.621581556975603265e-03,2.962070204241019737e-03,5.750157237052917480e-01
6.802670996845523455e-01,3.770683837582304854e-01,2.949446423214935331e-02,6.587465605334695551e-02,4.962272547675457279e-04,-5.753737519265946301e-03,5.755341053009033203e-01
7.819068992952016295e-01,2.121118402373831646e-01,2.128643560302312387e-02,1.191207642455838767e-01,1.481769247940965990e-02,3.921043747436998156e-02,7.194806933403015137e-01
8.460321909150307906e-01,3.808444879487039580e-01,2.228132969125085072e-02,-6.909003198912692933e-02,-1.731279141320203607e-02,1.321507396866206940e-01,7.611683607101440430e-01
8.138208889688144376e-01,3.069263090213306677e-01,1.259284086196554853e-02,-3.183379555597632641e-03,-7.270018396841176726e-03,-1.582589753034737562e-02,7.026454806327819824e-01
1.027773837988687378e+00,1.656747543528941935e-01,-7.331326731471787816e-02,-1.749336868864788397e-01,-1.882473933319713313e-02,-7.936197454977228505e-03,1.048531770706176758e+00
9.250370268630667692e-01,6.044248208825243607e-01,1.113471464293114277e-01,-8.234455774261660588e-02,4.147053411655063360e-02,1.444400267210600441e-01,7.694768309593200684e-01
8.436501628505912453e-01,1.196507253790563829e-01,-1.331755420929958134e-01,-1.851169561240390352e-02,1.614975143256086620e-04,-4.414634076807381208e-02,8.820528388023376465e-01
7.704609583970534192e-01,1.978047846509866092e-01,-1.721999973994720046e-02,1.632393241963601138e-01,-2.177321968752662582e-03,5.430455963079922066e-02,7.655771970748901367e-01
6.080790742376090963e-01,5.938816507760599217e-01,-1.441787761533058765e-02,-3.715352227251512290e-02,-3.931259120354387709e-02,-3.974706176100695904e-02,6.264050006866455078e-01
9.661482749190148933e-01,2.011080339954647023e-01,1.086608876922806610e-02,8.340011119836443498e-02,-1.710199898135876181e-02,-2.350804184338781133e-02,8.890575766563415527e-01
4.877295590917520851e-01,7.890071695475803226e-01,-2.270794920007651596e-02,2.890686963749281579e-01,-6.230386097428176895e-02,4.926865137169521291e-02,8.801748156547546387e-01
4.181415041372751329e-01,6.759095644567778560e-01,3.234092858795833969e-02,7.706234423134310230e-02,2.838860528415618548e-02,-5.502906571646206182e-03,5.788418650627136230e-01
6.230058447715958181e-01,5.768965379707915453e-01,2.478394781530279811e-03,4.704468038302312555e-03,-1.286248628575585758e-02,5.564537375021862131e-04,5.992761850357055664e-01
6.279601305798552247e-01,6.242840484304850168e-01,5.688422434529383231e-03,-3.277380922826613613e-03,-3.878582866089161536e-03,-1.688038617879559361e-03,6.205110549926757812e-01
5.965013160640423306e-01,6.122026367963099291e-01,-6.582959011834199625e-03,1.598617117414572733e-03,-4.148234716637718561e-03,8.768977380740453770e-03,6.113234758377075195e-01
5.723279933509685113e-01,6.035783688649312140e-01,2.055962441983105737e-02,4.930783874294881498e-03,-2.301949913652936042e-03,7.141315609450530483e-03,5.682514309883117676e-01
6.242614139372995030e-01,6.275199750625474193e-01,-1.450872906343103619e-03,-4.442515600471618788e-03,-5.498683255995204938e-03,5.255081626203768515e-03,6.275333762168884277e-01
6.242072180687435745e-01,6.040947320833163214e-01,-1.011368845335081090e-02,2.796837746124241427e-04,-7.836609834870618407e-03,5.751438033439184791e-04,6.246560811996459961e-01
7.005011024835399169e-01,3.708608240596193428e-01,3.094823871869301080e-02,6.211475527102061633e-02,-8.704046710283592364e-03,-4.226853231713621414e-03,5.900065898895263672e-01
7.127543865712604454e-01,3.968563765922886732e-01,3.654085512888444187e-02,2.649839283720060654e-03,6.503135297048979330e-03,-1.058150509499051692e-02,5.864517092704772949e-01
4.344853725079280693e-01,6.252707598024450641e-01,6.564264551331505659e-02,1.943865735903940184e-01,-6.873447966097727402e-02,7.216122966407262362e-02,6.212626099586486816e-01
6.248634652726707817e-01,6.280916656163005873e-01,-5.142133049156782931e-03,-2.401545530726546633e-03,-3.902721087042000832e-03,2.229173134000163054e-03,6.316875815391540527e-01
6.771825186608165792e-01,6.449851171686085127e-01,1.903288271506992091e-02,2.656272020050443605e-01,-6.282911874567316535e-02,6.762687182765678151e-02,8.063764572143554688e-01
5.793846078326548854e-01,5.796910651744157095e-01,1.904137921290310898e-02,-2.471227705991275309e-03,1.236578638282510509e-03,6.062571754410252256e-03,5.606153011322021484e-01
9.558264790746201500e-01,4.132428373223794305e-01,4.877628722886795387e-02,-7.006137425192174306e-02,-2.294610915384334704e-02,-9.381791852581497504e-02,8.171274065971374512e-01
6.579663822392687322e-01,5.141341265648853298e-01,1.228805984772207704e-02,5.068958455786094081e-02,-3.233681365179959244e-02,3.846719892456874207e-02,6.000027656555175781e-01
5.513561212622475338e-01,5.488613671992911280e-01,2.134603415243763180e-02,1.165023945405325029e-01,-2.286161099797511670e-02,2.835104247403031144e-02,5.694667696952819824e-01
4.684635042494201262e-01,6.734042302347007514e-01,3.526662276505393434e-02,7.280257642478914215e-02,-1.139994200916859615e-03,-4.467164798836435399e-03,5.782770514488220215e-01
6.073491926366417770e-01,6.172650527145927546e-01,-8.034249705572871214e-03,-2.708455237138307926e-04,-7.876518249372519700e-04,4.806810294478020863e-03,6.204583644866943359e-01
6.465742160978933395e-01,5.685544138888779520e-01,-1.022183434298945537e-02,7.086356072069855544e-03,-8.908552495107939159e-03,1.281066738371530907e-02,6.221785545349121094e-01
7.873600305543969613e-01,3.597667598771164266e-01,3.522515701480055661e-02,7.134724566317926508e-02,-3.520622775794129185e-03,-8.115557095705463542e-04,6.650153994560241699e-01
7.084493085548964064e-01,4.344694567945113217e-01,1.937799611819679413e-02,3.517849560334282855e-03,1.210826616481343754e-03,-2.438092494549102401e-02,6.024262309074401855e-01
4.618890380913480143e-01,5.049763406545786371e-01,-1.642431692243245811e-02,3.047233606222771174e-01,1.291657200942104844e-03,2.074826049369382294e-02,7.287762761116027832e-01
7.617739528446294539e-01,2.933919015136662312e-01,2.296375243436010738e-03,-1.084051544426986452e-01,-4.936753621937673558e-02,-6.763152877760404691e-02,7.048055529594421387e-01
3.983804605574532420e-01,5.871482782884256402e-01,1.806405629760976517e-02,3.132893354711283052e-01,-2.075067454633053310e-02,-1.024256150117967487e-02,7.403529286384582520e-01
5.119550842003904867e-01,6.629199345954828182e-01,-4.634129044333468173e-03,-7.877751592548174267e-03,-2.838352071003296534e-02,1.128167647091209407e-03,6.084804534912109375e-01
9.522329374614513231e-01,4.345987868068783566e-01,5.037922217817719650e-02,4.755635765603409559e-02,-1.314488633859377774e-02,1.316662949045793729e-01,8.208326101303100586e-01
6.260136582168494002e-01,6.284295710806837576e-01,1.264137851828900372e-02,-4.637710428984226363e-03,-5.610952361772156283e-03,-3.751142733940924807e-03,6.147474646568298340e-01
3.082539424491480551e-01,7.467168829390244955e-01,-9.449498168743009074e-02,2.167384039029611187e-01,-5.029001214401457309e-02,6.417952070859438314e-03,8.244296908378601074e-01
6.751524878026267107e-01,5.103734512916510146e-01,1.680685422316280375e-02,1.461155980460301235e-02,4.962127894449826909e-03,-2.180586758317584002e-04,5.939731001853942871e-01
4.278079956920468052e-01,5.654354067490326985e-01,-6.753994525364259705e-02,4.024550356084711789e-01,-5.166070287267077871e-02,6.195377881567351586e-02,9.153774380683898926e-01
3.980727667230664624e-01,7.853663971823741097e-01,-7.114401377220280764e-02,3.339509820311041821e-01,-8.246611173383894267e-02,6.678839500915997873e-02,9.592909812927246094e-01
4.749399098470329927e-01,5.419855826506725371e-01,8.094934952299459585e-03,2.319145482069283892e-01,-7.197455406607151940e-02,7.199796497016414110e-02,6.679704189300537109e-01
8.485372269410136337e-01,7.168475342261616534e-01,1.038333810667984025e-01,1.507023280154407840e-01,9.813754192769440221e-02,-1.158981223155949314e-01,7.817798852920532227e-01
9.695649360582240250e-01,3.829374748184327104e-01,2.949056722845172507e-02,4.102508147166256114e-02,-5.439225390824929500e-03,-9.582814472711645437e-02,8.420719504356384277e-01
6.009405223383366135e-01,6.461099470596626260e-01,-9.218272635189816988e-03,-2.608463157518826642e-03,3.658931817691817934e-04,3.586142129492818440e-05,6.339679360389709473e-01
6.007247961940014314e-01,5.882967397636716944e-01,1.550483625518900288e-02,2.485716395950218066e-02,-1.113045745302700291e-02,8.635256139950231100e-03,5.812165737152099609e-01
9.275052034899247122e-01,1.882028545958886467e-01,2.375904652855898025e-02,1.527004554956917504e-01,5.086854490933345047e-02,2.900117574103766929e-03,8.791608214378356934e-01
5.588447501255231487e-01,5.951792410986030957e-01,2.583970055636991559e-02,4.942284308114531198e-03,-5.628566793327479875e-03,9.063796967011488945e-03,5.524452924728393555e-01
5.015071639148861449e-01,6.214000931376546522e-01,3.600384007925161445e-02,1.529389715606030604e-02,-4.887130283545337329e-03,-3.942459374017357604e-03,5.363750457763671875e-01
2.458041513724112392e-01,9.574251819705064115e-01,-1.035723678171176498e-01,1.203209781581862509e-01,-2.874267451313252883e-02,1.050816186781629129e-02,9.609022736549377441e-01
5.637582128067133436e-01,4.770465005436442252e-01,1.682701708755002246e-02,2.496935127490590989e-01,5.175534250686978201e-04,-4.138508683329897991e-02,6.718681454658508301e-01
4.274066689250695661e-01,5.904735980856283817e-01,-9.160682394175972965e-02,3.300924320613597973e-01,-6.777207685137896787e-02,-2.521406413119149995e-02,8.503935933113098145e-01
4.363053892648890986e-01,7.358742762764265422e-01,1.576289308935935329e-02,-3.605402529173069859e-02,-2.137244517687845666e-02,5.903989991350625834e-03,6.308355927467346191e-01
6.974019517931915324e-01,3.862075323785998382e-01,1.345659516880115536e-02,5.893799672863767047e-02,3.807609572612603160e-02,-5.220660080496609956e-02,6.121521592140197754e-01
9.240558121105182376e-01,8.379698871326465293e-01,1.309781512999402819e-01,-5.802722287737844577e-03,3.542662354703603189e-02,6.074214673303805767e-02,7.635738849639892578e-01
8.463150588025061261e-01,8.068732084509566693e-01,1.420687478633365641e-01,-7.142114876653467281e-02,8.132532766532087065e-02,9.289012241610861143e-02,7.285408973693847656e-01
8.304875251163876815e-01,8.527115353558032407e-01,1.134605646757753661e-01,5.626972047135148786e-02,-8.881190074591262251e-02,1.463947775871902446e-01,7.924724221229553223e-01
6.274246292409754178e-01,6.295426930487573181e-01,2.817530049636729483e-02,2.422872735140663147e-03,2.639065951677731312e-03,5.461469982565333829e-03,6.004177331924438477e-01
7.330507583334191501e-01,6.918709248744240314e-01,9.985544402770613059e-02,4.527157944267955203e-02,-2.377543117557085264e-02,-6.138695575355885420e-02,6.290521621704101562e-01
4.154102349931731997e-01,7.317032881085843155e-01,-1.243654740476990428e-01,3.834468435368763028e-01,-2.850111108591059372e-02,8.567110349748666837e-03,1.002934694290161133e+00
7.221451769552499345e-01,7.012463644020476838e-01,8.020460562003250971e-02,2.502343714456966434e-02,-4.569479141503395708e-02,-2.812881637922704653e-02,6.400194764137268066e-01
6.183877238379835717e-01,8.850739591625165215e-01,1.105309809662671228e-01,3.135741794477142630e-02,1.507485298537987739e-01,-2.161398917507015988e-02,7.328063249588012695e-01
5.570250375417444832e-01,6.435002499419161248e-01,-5.687998847842767880e-03,1.729323057996534282e-02,3.156412848638000257e-02,-1.285191881412354846e-02,6.141386032104492188e-01
6.370352786355383268e-01,6.418619653614665577e-01,8.063849151125113135e-02,-2.660746190140793159e-03,-1.553489734842889358e-03,2.749623290536920995e-03,5.588715076446533203e-01
6.271901826501146138e-01,6.186402244543550699e-01,8.029055865381329316e-02,-3.502172637442544940e-03,5.930211752687882844e-03,-2.878352000816783093e-03,5.428291559219360352e-01
6.671461178598085962e-01,6.495122541917744963e-01,7.808370388491497893e-02,-9.677351423627520918e-03,1.957043525838204553e-02,-3.069750638024554279e-02,5.841018557548522949e-01
6.232424098291446946e-01,6.375327063794359317e-01,3.934792724787450346e-02,-6.671611317453294589e-03,1.885341603380602526e-02,1.196339459413903530e-02,5.925455689430236816e-01
7.122304728095676385e-01,7.590511735857329301e-01,8.311947659938023758e-02,-2.315086665989886938e-01,1.015266955117985759e-01,1.015109424273929611e-01,8.062589168548583984e-01
6.376628917377094030e-01,8.897350656368723243e-01,9.333450616466587579e-02,-1.568546840682041033e-01,1.467211241470027516e-01,4.754168410162069175e-02,8.013837337493896484e-01
5.501315331714355938e-01,5.925212536381477824e-01,2.925522672341968056e-02,-9.618368164448861182e-03,-1.223243226400112793e-03,-3.011966477369233154e-03,5.435973405838012695e-01
6.341992184648054254e-01,6.378845676661711872e-01,1.230130558014962405e-01,4.230832639922839020e-03,-9.512654793162345426e-03,1.146144067887697356e-02,5.137392878532409668e-01
6.331722882226713534e-01,6.271618705615077394e-01,1.182128401453408917e-01,7.725824257205137456e-03,-6.187685968177811420e-03,7.330116726092056291e-04,5.122692584991455078e-01
4.279883146317087217e-01,6.749166697551498562e-01,1.918646501571741325e-02,-5.693393956095524344e-02,-2.038176092063317263e-02,-1.657508636985351516e-02,5.838083624839782715e-01
8.049434758281575064e-01,7.108685589173080466e-01,1.156766263409739204e-01,-1.421157053673532678e-01,7.698246500370324596e-02,1.226460837547510008e-01,7.366083264350891113e-01
2.106729124277200438e-01,9.455253021734900676e-01,-9.548281342838871311e-02,-1.272348757224487092e-01,2.897631645690394372e-02,-3.040333831951877279e-03,9.538508057594299316e-01
6.259893359769189702e-01,6.269629465807593505e-01,4.463187812921881603e-02,-4.667588433373900426e-03,5.814661168198891929e-03,-4.879043146559241748e-03,5.820495486259460449e-01
6.172207338991195780e-01,6.208648085891221857e-01,1.435414311093198836e-01,-8.445609383764812869e-04,5.464455230714967103e-04,-9.685507207614363085e-04,4.755179584026336670e-01
9.131148546911471708e-01,6.617608111247186287e-01,1.329070956715232565e-01,-5.927151694562103439e-03,-6.493587835953973375e-02,4.125354632595722854e-02,7.026062607765197754e-01
6.340556404056938433e-01,6.265852308727355435e-01,1.027649208168349149e-01,-1.704809047980524990e-03,-4.885758037916046632e-03,1.087365748536377533e-02,5.280073285102844238e-01
6.454426429390980324e-01,7.058094294950701952e-01,8.200621072498581743e-02,-3.777956739492580041e-02,1.964300184698164128e-02,1.769667639195535505e-02,6.012458205223083496e-01
6.277224252784975311e-01,6.243692238874863909e-01,7.708562510314237448e-02,1.673814425600652842e-03,6.844684541536276076e-03,3.331571850799098459e-03,5.491338372230529785e-01
6.616830105352092817e-01,6.735562623993637255e-01,1.214029267091625841e-01,2.099251549327009470e-02,-5.493871821437467523e-03,1.025678940805675905e-02,5.478929281234741211e-01
3.088712821778722417e-01,6.821908177614741664e-01,-4.401489463938090818e-03,2.491490172913764789e-01,-1.618727095353471312e-02,5.191292738017512683e-03,7.359013557434082031e-01
6.247447624390685128e-01,6.255647208416748040e-01,4.874702818284165629e-02,4.300646260242890588e-03,-4.018325848715790030e-03,-4.877005505200070375e-03,5.765601992607116699e-01
7.689880737811209954e-01,3.653589226764481501e-01,1.863219076462052648e-02,-8.350178004314180724e-03,-1.057485777148330260e-02,-5.906566185978513739e-02,6.588594913482666016e-01
7.811701310030523260e-01,8.933522907553710368e-01,1.192918152475068161e-01,-3.223226605070427658e-02,1.496809825210239364e-01,1.861854626082131217e-02,7.721972465515136719e-01
6.871366577852879853e-01,3.841667854321083042e-01,3.301305984499253166e-02,-6.720609782857212000e-02,3.725638830728365304e-03,1.251978962603151431e-03,5.788652896881103516e-01
7.329622458289886122e-01,3.414427517490286057e-01,2.900409003213938464e-02,-8.149837971067927511e-03,3.140372120800722072e-03,-6.664798901774430726e-03,6.112228631973266602e-01
7.101720468140750864e-01,4.121435721196699542e-01,3.572184907642883545e-02,5.859534796764755311e-03,8.685639082500847723e-04,1.736919121987659737e-03,5.855023264884948730e-01
6.220583677188584737e-01,6.381390654731197154e-01,1.006657530519288746e-01,9.690991025710040578e-04,-9.797833497736494965e-03,7.816057772030982065e-03,5.300634503364562988e-01
6.349496034684518619e-01,6.415004333203071507e-01,1.402316370168079085e-01,1.557696316291873242e-03,-1.653863986311827558e-03,8.396681130422736436e-03,4.982535541057586670e-01
6.351724833941980730e-01,6.377189447442499493e-01,1.022601015863994767e-01,2.748479557725484138e-03,-3.874393512776409722e-03,7.578780144681163122e-03,5.344147682189941406e-01
6.465781692970133943e-01,6.731077626691598370e-01,1.245740517665237523e-01,-2.723496098957180200e-02,5.463692172089916130e-03,-1.389137148483436841e-02,5.384555459022521973e-01
3.121208220256957988e-01,7.413139862795723456e-01,1.600182222600654569e-02,1.966580004711013796e-01,-2.298607849363743308e-02,-1.806950616032684115e-02,7.194256186485290527e-01
4.942716726134278593e-01,6.408343138850620679e-01,3.942934555352894943e-02,-6.228664557364586851e-02,-6.374067084404508310e-03,-1.208325678536248393e-02,5.542777776718139648e-01
6.803044382919583022e-01,6.953401360116809871e-01,1.071374725488923318e-01,2.070970515996218512e-03,1.401842655488854707e-02,-7.084901105922526178e-03,5.814786553382873535e-01
6.339951898784170758e-01,6.352233179208889302e-01,6.845090092171418616e-02,-4.985191088806829873e-03,-2.068434681458404534e-03,-1.385925820491286983e-03,5.662416219711303711e-01
6.381853914857313903e-01,6.316964865143657182e-01,1.468861726498028597e-01,-6.505623548163168811e-04,1.682739368429545489e-03,-3.776174673015421802e-03,4.881409406661987305e-01
6.357573164385654785e-01,6.428521388930983349e-01,1.435966557907860097e-01,4.125468819318333855e-03,-3.940873146672394835e-03,-6.890732722021571978e-03,4.959882497787475586e-01
6.147379776555247366e-01,6.192149967478277617e-01,-1.259060337467537982e-02,-1.947047325783469139e-03,3.322408417657079496e-04,-1.109269303874472644e-03,6.295912265777587891e-01
6.705912313955733062e-01,6.253539207494291929e-01,9.605959836048255651e-02,-3.261598846760271377e-03,1.292734089089331469e-02,-8.785574288560152323e-03,5.539923906326293945e-01
7.916170890073647159e-01,9.043239425736595560e-01,1.225487695964573853e-01,-1.008295590201965103e-01,1.466967344880005797e-01,2.852195175140028599e-02,7.957788109779357910e-01
6.309403082620104186e-01,6.294466728278111933e-01,5.465228050055254139e-02,-3.036340405722372585e-03,1.138331784803656155e-02,-4.637728816965069195e-03,5.759603381156921387e-01
6.170226298387871955e-01,6.298821957714366704e-01,1.419115583640827571e-01,-1.355012909923425509e-03,4.188564441103760812e-04,-4.158411631572000305e-03,4.817297160625457764e-01
6.060962401116226639e-01,5.253246560562779832e-01,1.402968654539826776e-02,2.313067349321005495e-01,9.799691673379508361e-02,-6.081983173028056994e-02,7.139050960540771484e-01
6.361702182136576011e-01,6.769803866187001917e-01,1.192276192856590589e-01,-2.453181481134682207e-02,1.627135046300716426e-02,5.152736201474172190e-03,5.409907698631286621e-01
6.358444908435800791e-01,6.333014116651147773e-01,1.018417758784476157e-01,7.527147957403151424e-04,-3.757111067142675578e-03,7.623954987309260883e-03,5.329406857490539551e-01
6.210965760793906165e-01,6.340506961315474088e-01,1.196245897294974658e-01,-1.537276683894750256e-03,1.545666406560937921e-03,6.609807706365170010e-03,5.082159042358398438e-01
6.346004511501335266e-01,6.320215236417877636e-01,2.123738515079209854e-02,-7.810309499637155088e-03,-1.859187658065060552e-03,9.397356100770363346e-03,6.124519705772399902e-01
6.359242946077853231e-01,6.301175508707976824e-01,1.181054547878144234e-01,2.883770325022118504e-03,7.049314697528836875e-03,7.262298536352052546e-03,5.152625441551208496e-01
6.247390773480170356e-01,6.377077651011472392e-01,1.280146381329527738e-01,3.548705910377680881e-03,-2.629382239047786760e-03,-8.088939855082197608e-03,5.035871863365173340e-01
6.598916880872326418e-01,6.388644607196450886e-01,1.408182074607181589e-01,1.155534878600343249e-02,6.614228754934649290e-03,6.410677822671074534e-03,5.095290541648864746e-01
4.854821457016803565e-01,7.390760209912314860e-01,8.234631206890885569e-03,3.095687249962025475e-02,-4.530810634833576378e-02,5.033590697165199815e-03,6.497780680656433105e-01
6.139384604294892966e-01,6.088119601435936223e-01,-8.679235290805664693e-03,-1.226442345154153419e-03,4.889450094227190333e-03,-9.998591868559832379e-04,6.201342344284057617e-01
4.986300429437764969e-01,6.773813453292190090e-01,2.412811032676415168e-02,1.929475637768273896e-02,-3.058566966558150246e-02,6.529284266539030213e-03,5.881948471069335938e-01
6.254267300097364757e-01,6.306443540549975246e-01,-3.689810784123226384e-04,6.191511397376051626e-05,-1.185564493306809006e-02,2.109375456859329586e-03,6.287667751312255859e-01
6.266737045093908609e-01,6.286011849900015047e-01,6.937060830330349370e-02,-4.521916967394769282e-03,8.005011601711780472e-03,7.514242245623023626e-03,5.586480498313903809e-01
6.251950417202092325e-01,6.331994540207250832e-01,2.752180212199306641e-02,5.208519430524047832e-03,3.344606342781085168e-03,8.998633795397729257e-03,6.020126938819885254e-01
6.373307744629683746e-01,4.873558969733990942e-01,1.590963947220935815e-02,-2.088629407005608563e-01,3.338104050025189617e-02,7.191772643629885942e-02,6.820481419563293457e-01
6.483916056175407228e-01,5.272849251488103128e-01,-1.785081886674810825e-03,-2.858386673064888112e-02,-9.217536919304632551e-03,-4.333272650328751020e-04,6.011342406272888184e-01
6.165848957450555945e-01,6.426987209270224044e-01,3.569786609267600053e-03,-3.165869328899118419e-03,-2.451318964988638202e-02,3.403760297095564762e-03,6.279690861701965332e-01
6.084848350385116955e-01,6.350027896244918590e-01,5.125610765814087033e-02,2.496356823726668395e-03,-4.822590182323275264e-03,2.547216170313197723e-03,5.710442662239074707e-01
6.223539246853331264e-01,6.317918808638521844e-01,2.211847162637192721e-02,-2.664789499745999230e-03,4.282235191742762848e-03,-1.181484058966744905e-03,6.050761938095092773e-01
8.287229408062639635e-01,7.009585629910947135e-01,1.078894079718524246e-01,-1.527507134476847606e-01,-7.771990959103512731e-02,-1.432030412713267142e-01,7.703691720962524414e-01
6.583690389263761045e-01,5.760755913304367315e-01,-1.298355233884068705e-02,3.936493191137668129e-02,2.768355926865733591e-02,-3.969804826819234300e-02,6.433617472648620605e-01
7.710488971756112031e-01,2.300398593810563663e-01,1.693272502048681627e-02,2.285131234977594988e-02,1.663792268499527521e-02,-2.395266236426259882e-02,6.763996481895446777e-01
9.366392440314805778e-01,6.970329051553866284e-01,9.334648807561080064e-02,1.619863148522940333e-02,4.625692012784952262e-02,-3.984612512406595503e-02,7.605688571929931641e-01
6.421434391836183808e-01,6.301088662117414474e-01,5.997226720739828876e-02,-3.529868015124682564e-03,1.450798481515909108e-02,-7.379473589480212148e-03,5.769697427749633789e-01
6.175528968987551437e-01,5.124070916398337783e-01,6.836527510986789569e-03,-9.660291309084834133e-02,-3.385064275382039523e-02,-4.112331621744057947e-02,5.969281196594238281e-01
7.139910449473515497e-01,8.910267916789770259e-01,8.416636251831838278e-02,2.511969784288022728e-02,-4.221291296732349041e-02,-1.167615850161896063e-02,7.397094368934631348e-01
8.901029643235920386e-01,4.127315499029117762e-01,5.490980529688738176e-02,-1.976727526760834464e-01,-3.319839594741112038e-02,-1.178535595452147450e-01,8.300192952156066895e-01
9.335622674168013724e-01,8.838399944482677739e-01,1.300203118904214028e-01,1.095221853790421217e-02,4.532130364127991140e-02,-6.801900357934795305e-02,7.928428053855895996e-01
5.822262889692966237e-01,4.953316270339731542e-01,3.166274853837836023e-02,-1.835654448150752516e-01,-7.043951928314294564e-02,-9.760315595595507598e-02,6.382656097412109375e-01
7.349547780067861025e-01,7.060287794923864046e-01,8.499063062090678189e-02,-2.161251194238908713e-01,-8.392843386233296565e-02,-9.738299002581080055e-02,7.708448171615600586e-01
7.793187169289162997e-01,2.469387838642158606e-01,-9.374515649956333130e-02,1.473812682392228735e-01,2.672455722181616908e-02,-4.792241610197028878e-02,8.093597888946533203e-01
7.244475978490572121e-01,3.609260419450293078e-01,5.167856048356961329e-02,-9.853271123046913882e-02,-1.901149797463522542e-02,-1.425619239750245126e-01,6.567968726158142090e-01
6.255356085075614025e-01,6.263435219028599121e-01,1.612739558514975080e-02,4.732633517680280566e-03,-5.187574023838846179e-03,-6.436766426051420721e-03,6.100357174873352051e-01
7.409512298981304479e-01,4.191084078347654396e-01,9.112523724124022007e-03,-5.963244757423193099e-02,-4.049327819485621857e-03,-4.127308297302172135e-02,6.476583480834960938e-01
6.775516141690590688e-01,5.403028201861362900e-01,4.846008162905313110e-03,1.703708654832922220e-02,-1.029593961316483015e-02,-3.722721569395776725e-02,6.199906468391418457e-01
7.871945155090793733e-01,9.039329416123915717e-01,1.183407029234068153e-01,-7.393733517247709497e-02,-1.168693743520942685e-01,-1.209421107371095455e-01,8.002066612243652344e-01
7.544160051448840498e-01,3.006539772528144527e-01,1.125791735328096621e-02,2.312654286452506605e-02,2.402659263813794119e-02,-1.038007947897776340e-01,6.757419109344482422e-01
5.712425733485966273e-01,5.929399845461829077e-01,1.721801661138938622e-02,-3.389182187482779433e-03,-2.769758488633195740e-03,-7.727435849760834995e-03,5.653949975967407227e-01
4.420475563668658792e-01,7.231342324208354100e-01,1.472540985502973632e-02,2.295578722025189700e-01,-7.846995401941647685e-02,2.498165694258596553e-02,7.484409213066101074e-01
3.440180352919940399e-01,7.593954925866658323e-01,2.806495766305083794e-02,-1.107872560614761581e-01,-1.319611655757054747e-01,-1.429380455130921032e-02,7.023391127586364746e-01
4.971156875732872793e-01,5.905587274447410273e-01,4.497511684764005091e-02,-2.077543461708165062e-01,-6.922002544889142850e-02,-8.381609733195607981e-02,6.483420133590698242e-01
6.687147029514888263e-01,5.104010188240691859e-01,3.739079665279421150e-03,-3.203105115884295750e-02,-3.272488435398589884e-02,-6.103432865884175079e-02,6.159929633140563965e-01
8.893461838526210972e-01,3.023795467938704684e-01,-8.442496661106946299e-02,2.055494276698981715e-01,2.100822423024293478e-02,-5.112545737640963178e-02,9.258002638816833496e-01
5.859418426753431053e-01,8.697469171687910450e-01,1.004919800788272033e-01,1.651465382054540521e-01,1.697038160373136872e-01,-1.004565680255401772e-01,8.077579140663146973e-01
6.059640083397431765e-01,5.671078509077622787e-01,2.207404252690980950e-02,-7.605239559686526041e-03,1.392668762737660215e-02,2.288963194241644232e-03,5.661454200744628906e-01
6.509312233326171038e-01,5.262999521761977384e-01,2.000380799770690166e-02,-1.397466598065964793e-01,-2.861830335238210732e-02,-6.075484629428135053e-02,6.380336284637451172e-01
8.790280494828764946e-01,4.436937407817844736e-01,8.243602482394085662e-03,1.663680647905017573e-01,1.259516194687083056e-02,-5.790064826637997264e-02,8.137981891632080078e-01
6.290151547630075113e-01,6.323114050328695335e-01,5.265229377246494202e-04,1.557358348533286222e-03,-6.907263766972324484e-03,-2.293242319891871804e-04,6.302626729011535645e-01
5.647161240620457434e-01,6.033953367745519270e-01,6.790985087697543054e-03,-7.694812529354158603e-02,-5.485458365511049900e-02,-5.627361226895195856e-02,6.088078022003173828e-01
5.708424327972734247e-01,5.748690977739769892e-01,3.271117017656327564e-02,-2.338734058668720354e-03,-9.935352815616387305e-05,4.707458128259764006e-04,5.401716828346252441e-01
5.956721721166329253e-01,5.584577592433855875e-01,2.975567740844126119e-02,4.073243536837135859e-02,-6.299169215429605874e-03,7.119742273388698917e-03,5.530231595039367676e-01
6.222368755520000239e-01,6.283492310240388345e-01,9.701265409627296554e-02,4.963450807381552567e-03,-3.225964847679813931e-03,9.031150449209513278e-03,5.286378860473632812e-01
7.449599944688989339e-01,6.489373031889579257e-01,8.551120251173854880e-02,1.251551082024563236e-02,2.450327743209894642e-03,-4.006521515666823519e-02,6.213490366935729980e-01
6.717644666011848287e-01,6.706447758936049386e-01,1.639200322101844187e-01,-5.297658691023192021e-03,1.790022035904292180e-02,-1.568389902641588105e-02,5.090402960777282715e-01
5.751318861057208576e-01,5.694198125735465688e-01,3.006481989221315709e-02,-2.231282048348997779e-03,5.289775938092048247e-05,-1.039601598700559421e-03,5.422503352165222168e-01
6.333184355356933359e-01,6.221886195260271091e-01,2.781041828837971241e-02,-1.858315709760323571e-03,4.187064375922928960e-03,1.528043213713179728e-03,6.000788211822509766e-01
5.900356211166912779e-01,5.129041408066880026e-01,2.646917954149630159e-02,-7.764460400766730330e-02,1.081715851414623633e-02,4.935555480123992970e-03,5.464410781860351562e-01
8.359938947282785637e-01,4.792228209405570705e-01,3.945626013829933720e-02,2.456059952270800151e-01,-6.422339565498265401e-02,8.729018522466000518e-02,8.329320549964904785e-01
9.681877518698855933e-01,3.820692429321060901e-01,2.020475420521400389e-02,1.133369631287607648e-01,-4.588751134675776028e-03,7.934039429151663880e-02,8.625891208648681641e-01
6.488750441005168845e-01,5.600344029004604707e-01,-3.073752271108010081e-03,-3.960580803008650896e-03,7.245493730347726292e-03,-9.172012858176538082e-04,6.125499010086059570e-01
5.932718862346690880e-01,5.988716873008537167e-01,1.421002480053834560e-03,1.458303162639433201e-02,-1.239726655734170804e-02,1.216708256398339912e-02,5.959666371345520020e-01
6.243177075662875719e-01,6.285053125533778262e-01,-5.327382021335036466e-03,-2.114197900263387227e-03,-2.700132460499185278e-03,2.441276907606087978e-03,6.317913532257080078e-01
6.471779321464987689e-01,6.448338826655291012e-01,5.107885830910430247e-03,2.782703061879100367e-02,-2.806727573774878831e-02,1.935841516574718715e-02,6.454184651374816895e-01
6.272789772958987653e-01,6.094854612553797235e-01,-7.773660281604144462e-03,5.122012447829370815e-04,-7.224322830475604987e-03,6.822887659952339874e-03,6.265825033187866211e-01
6.767105659239787130e-01,3.493591798536095361e-01,-7.460152297019506662e-02,2.320975967360553449e-01,-2.340933540394291718e-02,4.863508965103951337e-02,7.720322012901306152e-01
6.238321218630499265e-01,6.208816097090216202e-01,1.004965259809594280e-01,4.299074962901462509e-03,-6.453162884935194701e-03,-1.498449420109275931e-03,5.220458507537841797e-01
4.686104827519513849e-01,5.526952589242470903e-01,1.442079994218853356e-02,1.683586961694731876e-01,2.979263588388417899e-02,-2.333516956708075671e-02,5.838487148284912109e-01
8.076427060652426881e-01,5.822215284582555883e-01,9.712668360424653313e-02,1.268993731323085350e-01,1.267581776703339547e-01,-1.054423781319150655e-01,7.248102426528930664e-01
6.022369476414802802e-01,5.678397026918577950e-01,5.460193767060361747e-03,1.313083914424090400e-02,1.729847821036416614e-02,-1.267116321020078651e-02,5.819749236106872559e-01
5.841615124804935277e-01,5.756639162249568287e-01,1.847972064825120775e-02,-9.717527330818020656e-03,-7.338567390441742139e-03,-1.838394369931031259e-03,5.618862509727478027e-01
5.615667163888738989e-01,5.758238665940048628e-01,3.188530995491745124e-02,-1.259715821476394167e-02,2.024683060099479858e-04,1.128479003467865258e-03,5.373987555503845215e-01
6.456793412060761739e-01,4.694694756619088860e-01,5.015739104170247042e-02,-1.689460185395488256e-01,-9.988175329031473426e-02,-1.002387192743317557e-01,6.530392169952392578e-01
5.809918014632050598e-01,5.692155726171845842e-01,3.201720601266916377e-02,-2.928792375225334251e-03,-3.393612613530219962e-03,-8.863711370612529193e-04,5.432398915290832520e-01
6.256119552415229101e-01,5.733004235670503546e-01,-7.225955488406321514e-04,8.931862747504314137e-03,1.106605752758382973e-02,-7.586934632458113481e-04,6.023913621902465820e-01
5.226782209905271870e-01,7.630970646070087682e-01,6.461888324562092834e-02,5.426742328976853075e-02,5.418634358926863182e-02,1.347549868867089573e-03,6.288039684295654297e-01
9.607175576309050502e-01,3.107545632662269686e-01,-2.801138108724943176e-02,-1.280546479430224038e-01,-2.318439957266793180e-02,-4.255622206537621605e-02,9.020195007324218750e-01
5.923649404485217262e-01,5.242925122572511532e-01,3.237809043512401841e-02,-2.269319675822968965e-02,-3.941797085292633555e-03,-8.391037645120208617e-04,5.307477116584777832e-01
5.931014795803906114e-01,5.634860096687122066e-01,3.016630616764459649e-02,-5.370201959869828380e-03,-6.752404398497930012e-03,-4.887602525975571696e-03,5.489958524703979492e-01
4.378723098343198505e-01,7.010019794740931509e-01,3.608059385313266976e-02,-1.677377928968878593e-02,-2.497795203880885727e-04,-3.512712355401455960e-03,5.807567834854125977e-01
6.524597153900996149e-01,7.389799227497744205e-01,1.372526522647834479e-01,-1.450553303441720100e-02,1.291144785592199806e-01,-3.569064989357761952e-02,6.098887324333190918e-01
6.710759002600557022e-01,5.028120565830156430e-01,5.890328656452670231e-04,8.972801517668406055e-04,6.642614444751920866e-03,-2.586508969644265091e-02,6.059607863426208496e-01
6.248925578939411585e-01,6.214853882430884102e-01,-1.018397612956561948e-02,-3.068460364718166543e-03,-3.309100110061170396e-03,3.749317727788688097e-03,6.334613561630249023e-01
6.295050244883846347e-01,6.264312111278774742e-01,-2.012564895989610303e-03,-8.529332256256337910e-04,1.324855511409868283e-04,-2.768209879860846281e-03,6.300063133239746094e-01
9.670695998524435621e-01,2.208682207239272832e-01,-1.006481427553592711e-01,-1.752333253581057348e-01,1.247486503034844936e-02,-2.707204017648787500e-02,9.974421858787536621e-01
7.293087541564811094e-01,5.283646564692131564e-01,6.004089019983716025e-02,-7.373044767860005566e-02,-1.208249274765507142e-01,-1.019896460337657018e-01,6.671752333641052246e-01
3.322213090583936435e-01,7.130368412944221301e-01,2.620053771422276023e-02,-3.135012048797097134e-02,3.334908753540976288e-03,-3.534407922757150031e-03,5.985198020935058594e-01
4.458169637947554942e-01,7.324707405851476061e-01,2.900630807317472470e-02,-1.478513147743856226e-01,4.788854961640254260e-02,1.161054565428119335e-02,6.695119738578796387e-01
4.384593252223932258e-01,6.912851568779059264e-01,2.912083307111767994e-02,-5.232712145232730830e-03,1.855205279259434029e-02,3.315672509620947849e-03,5.797567367553710938e-01
3.288447925777639447e-01,7.222461679413502145e-01,3.261152255232296904e-02,2.104131520289662799e-02,6.610807890223262089e-03,-4.590135576239248553e-03,6.004830598831176758e-01
6.266250025124009415e-01,6.243366463530725108e-01,5.176903774300734007e-02,4.969371128672558273e-04,3.586942366894461508e-04,-3.612722404150935009e-03,5.737503170967102051e-01
5.149771025882033948e-01,7.961476048114324300e-01,3.286069582357847851e-02,2.676356506597051266e-01,7.926649018317626083e-02,-3.761478262429244351e-02,8.276658058166503906e-01
5.283985251576781561e-01,6.262796043902911780e-01,1.655750795379318241e-02,2.176100345811411360e-02,1.616206813897175373e-03,-1.224841876103974388e-02,5.688057541847229004e-01
4.201503381203625653e-01,6.728305915322969621e-01,3.574543085658465902e-02,-3.654099352347044138e-02,5.597171250795031187e-04,5.723272036777573776e-03,5.593307614326477051e-01
3.658114830026937825e-01,7.833274660217960372e-01,2.799268832015600061e-02,-2.655353978345762270e-02,1.128993199992112118e-02,4.470182674984586949e-03,6.573001742362976074e-01
4.138910471663800328e-01,7.033670515283425573e-01,3.866478561278896553e-02,1.935056122639828430e-02,-1.184819514762864429e-02,8.965715398530802946e-03,5.787881612777709961e-01
6.144772121175336999e-01,6.162858416930951932e-01,-1.452971576803513409e-02,-4.163271278620359956e-05,6.792114934744417423e-04,3.231593591310392630e-03,6.299391388893127441e-01
6.133774612442940422e-01,5.916759816206107470e-01,3.043581041474563431e-03,4.399566111962851904e-03,-1.313657839788109037e-02,7.588824278858873583e-03,6.004013419151306152e-01
4.111599195077490498e-01,7.146103306482816109e-01,-5.811383500201050545e-04,-5.868353605899721825e-02,8.581565888028640232e-02,8.372226553694132184e-03,6.474491357803344727e-01
6.535432916177568163e-01,6.500970602967923728e-01,1.731208979691156724e-02,-5.757544009627148240e-02,2.631991549098930058e-02,2.777198862856016665e-02,6.457137465476989746e-01
4.623581268709380243e-01,9.751886571157184491e-01,7.609900978113492975e-02,5.182316185513356072e-02,1.853585438725403878e-01,-3.239665210542058693e-02,8.512083292007446289e-01
3.709852430204930718e-01,7.756373938079663688e-01,3.783297606281488257e-03,-1.092371137645485185e-01,9.159939951672693703e-02,2.998938334788130156e-02,7.147288918495178223e-01
3.635654151592658256e-01,6.933306657305711163e-01,2.318477901193916058e-02,-9.867193117728426111e-02,4.325186208371482877e-02,5.639966641229852799e-03,6.097260713577270508e-01
3.724336758231304723e-01,7.027112565130297916e-01,2.309437024594840349e-02,-4.334496174482278114e-02,1.305436918582525765e-02,4.902880491837408559e-03,5.939022302627563477e-01
6.096527285486952330e-01,6.307797167522235515e-01,-1.050918698625130654e-02,1.835601807190038461e-04,5.360722804651333467e-03,-4.923355622475126918e-03,6.311167478561401367e-01
6.591742670560485351e-01,3.483350056369671210e-01,7.195265820519769484e-03,2.592599068474735202e-01,1.512432159906994603e-02,9.321669460752742692e-03,7.222402691841125488e-01
7.860451368417494811e-01,8.936940333244844936e-01,1.032510754824937371e-01,-4.577595307210495512e-02,1.762709878002151065e-01,8.657894158134536722e-02,8.205403685569763184e-01
8.206341542935615685e-01,9.354006314823271051e-01,6.696132850652103397e-02,6.694804440392007096e-03,1.003715028049865787e-01,-7.383924506628584961e-02,8.452247977256774902e-01
6.119268305895011473e-01,6.009805290032593783e-01,4.901590620241813578e-03,6.642601309036440032e-04,-8.342832778292718146e-03,5.400979635359004971e-04,6.018021106719970703e-01
5.800236953247408511e-01,9.082154034178294699e-01,8.553158036330787972e-02,-1.779324879411621485e-02,1.568796902652210834e-01,2.608217440292695533e-02,7.689895033836364746e-01
7.701661694542041303e-01,3.403966055605274765e-01,2.986398398709949609e-02,7.389126550550631500e-02,2.261750375000597287e-03,-1.259424865687662209e-01,6.917871832847595215e-01
8.337034001010368289e-01,6.319612780422965148e-01,8.869136512768033276e-02,1.683156192073805291e-01,8.775102079366337016e-02,-1.311843288772902294e-01,7.779213786125183105e-01
4.696853950795297772e-01,5.351077896572525860e-01,-7.192635127892993419e-02,3.034198908875331835e-01,5.419483403951180084e-02,-8.355618149174913467e-02,7.993772029876708984e-01
6.239007421225029049e-01,6.273018657274429533e-01,3.333824026158277443e-02,-3.733369197709468859e-03,2.567587697210460453e-03,-6.156338333881224666e-03,5.924183726310729980e-01
6.533398389826747810e-01,3.618522694390261529e-01,-7.707491156488277539e-03,2.148956893477106667e-01,1.453231943808997405e-04,9.593157912040892188e-03,6.841623187065124512e-01
5.774484220370446064e-01,4.708243900517029012e-01,-4.373775886488018294e-03,1.158434331361588854e-01,5.063211977963970323e-02,-3.603477366040509083e-02,5.828335881233215332e-01
6.393443568053825965e-01,5.323883551260317759e-01,3.742229466242386060e-02,1.863023872942454751e-01,-2.425452780437154648e-02,-4.354136194403350718e-04,6.444080471992492676e-01
6.441178545607368910e-01,6.525330774613085083e-01,1.203775473557543996e-01,5.664923532532681674e-03,-2.722150902821943858e-02,-2.467887620099992827e-03,5.302072167396545410e-01
5.622344212263072905e-01,5.791224310483739091e-01,3.802542530233343765e-02,4.903394893851359404e-02,-2.875896759748275758e-03,1.873823536245303742e-03,5.396122932434082031e-01
2.973950133290961251e-01,8.220619527725863129e-01,3.865594889214285512e-03,8.358307314551893796e-02,-8.983053573832068539e-02,3.488143744945643859e-02,7.511705756187438965e-01
5.671748277098720425e-01,5.604379692730641072e-01,2.150086378001841991e-02,3.506833753327780884e-02,1.045013730145485757e-02,-1.040357595305770565e-02,5.463250279426574707e-01
5.747077147160036814e-01,5.698336151611556044e-01,3.243565695818950712e-02,2.533381402229135330e-03,9.503181993290143309e-05,-1.377921513431553996e-04,5.398694276809692383e-01
5.696014236907096517e-01,5.749880928847054262e-01,2.957976125657457711e-02,2.588144967740621267e-03,8.107336112923251405e-04,-2.000469109024066196e-04,5.427554845809936523e-01
5.693797464100956995e-01,5.810130831093488490e-01,3.090939610224174849e-02,3.306249129038118986e-03,7.267414288907720048e-04,-3.431516145705517870e-03,5.444442629814147949e-01
9.582629762235465032e-01,7.699027962084397103e-01,1.415987695359978149e-01,2.975599247728752741e-02,-6.916355681420126170e-04,-1.733881487874450456e-01,8.009001016616821289e-01
5.315938766962686746e-01,6.043631108245428596e-01,1.640886431791976907e-02,-1.869059682226472882e-02,1.370374592886510791e-02,1.874585184144908490e-02,5.575537681579589844e-01
6.212676386043547438e-01,5.786272106584927633e-01,3.105453553826187374e-03,-4.005463137618278657e-03,-1.165349387036081208e-02,-1.148191477373562350e-03,5.983673334121704102e-01
5.050157019710712625e-01,6.485400078189680340e-01,1.554049634695858773e-02,-1.529368573910726559e-01,-5.478059863077299613e-02,-4.160163340210814437e-02,6.440501809120178223e-01
6.267155998543874063e-01,6.156351988040726919e-01,-1.151044843386433980e-02,-2.828510018988478116e-04,-1.432844564235172214e-03,5.765291035166777555e-04,6.327644586563110352e-01
6.282323569162796550e-01,6.198837989505567858e-01,-1.124891829306085000e-02,-3.177418899649987749e-03,-5.313465959225334651e-04,-5.353086483335220327e-04,6.353732943534851074e-01
6.310317596487952096e-01,6.095341619112182308e-01,-1.265194252862028579e-02,1.728124981349900800e-03,-5.679721632104516721e-03,6.648781239216704914e-03,6.333968639373779297e-01
6.310544693610045108e-01,6.209399534364424822e-01,-6.834831577200273234e-03,-1.768038068382879750e-04,-6.171701575162085200e-04,-1.440874520746724579e-03,6.328985691070556641e-01
6.618193788389379328e-01,6.108967937000528980e-01,2.916277561300356647e-02,-2.539728356125828691e-03,2.380733375569000978e-04,-4.305552682501486567e-03,6.088563799858093262e-01
6.074311662700946357e-01,6.302991796996733065e-01,-8.461451389353447095e-03,1.538310462375135990e-04,4.785217382437978451e-03,-3.299813472105883865e-03,6.277199387550354004e-01
5.950789219023704391e-01,7.115355364776936309e-01,2.072969897771226311e-02,-2.804241520590534109e-01,-4.940908920848721686e-02,-5.738680442710210328e-02,8.145198225975036621e-01
5.570458886644579222e-01,7.248813059418964810e-01,2.706272643831003633e-02,3.295592856479167415e-02,-1.025937362405732363e-02,-8.946063011205877130e-03,6.338887810707092285e-01
5.097840248968543708e-01,9.440100096781778305e-01,7.974634542789094116e-02,-9.408782291261623409e-02,-1.245389725595482944e-01,-1.175393783580205333e-02,7.960653305053710938e-01
3.620121164416686965e-01,8.419503406596754447e-01,-1.084105585452494469e-01,-2.890557646265198288e-01,-3.887850364400705777e-02,-7.515279495601903843e-03,9.658031463623046875e-01
4.352099356817500375e-01,7.028175907809106615e-01,2.074342699200881768e-02,1.138485450035663094e-01,-3.300695746520826424e-02,2.219192111881843413e-02,6.308256983757019043e-01
6.002238784553849404e-01,6.008895899207518099e-01,-6.835417714913527565e-03,-1.154656843235385422e-02,-5.373153511709005334e-03,-7.009032804189908351e-03,6.079140901565551758e-01
6.290691256502308759e-01,6.314935088501689719e-01,1.476677695468664453e-03,2.078024466553254727e-03,-7.078701611058143932e-03,-1.388033725210394229e-03,6.289425492286682129e-01
5.625540616726197873e-01,6.060148281235986367e-01,1.407709548303903713e-02,1.617028372067681186e-01,-2.516428859871468887e-02,2.502428098657009242e-02,6.393550038337707520e-01
6.777121668617815953e-01,6.853612608795045524e-01,7.738061466229273488e-02,-1.519957845417834255e-02,-8.310312493783467494e-03,-5.351994991192091100e-02,6.119982600212097168e-01
5.681675357122233372e-01,6.435297149859121602e-01,2.120827597600410952e-02,-4.093996041503379646e-02,-1.839918185929416070e-02,-2.221071349856225050e-02,5.946323871612548828e-01
4.411587955715649545e-01,5.793740321394593717e-01,-1.145371041431685888e-01,2.914218286544833503e-01,-1.437262204661590714e-02,4.941465486685733127e-02,8.169652223587036133e-01
6.315361176364440166e-01,5.308537847100992524e-01,-4.816546317373660013e-03,1.084950768497085077e-01,-3.990934897875589998e-02,3.474532205039033983e-02,6.282719969749450684e-01
3.796446082187714954e-01,7.772498320064149535e-01,3.111106820753117841e-02,-8.301466662143870689e-02,5.451790025108473742e-02,1.532966136636994617e-02,6.696567535400390625e-01
5.537043528539919990e-01,4.799136681639528668e-01,7.829216691471074796e-03,2.780497488552086671e-01,-8.641850155415342627e-02,6.534478542138617840e-02,7.282125353813171387e-01
4.296743582705958020e-01,6.761703624077566310e-01,3.354771994207744745e-02,-3.397023934779050403e-02,1.559627526229724137e-03,6.151187650415958739e-03,5.647149682044982910e-01
6.242966063240376062e-01,6.304955845286706051e-01,-2.073674331409258720e-03,-9.179442899326775490e-04,-3.779848361150234433e-03,1.327525464749876359e-04,6.295287609100341797e-01
4.874767536469523099e-01,4.565569933769372812e-01,2.403926719683602276e-02,2.857335156712775825e-01,-1.574414251752808205e-02,1.762873791858928299e-02,6.693338751792907715e-01
6.210132967518176006e-01,6.312568937791607215e-01,9.964104057095801714e-04,-3.350465920237334638e-03,-5.474155732499137381e-03,-1.793603246681939366e-03,6.253081560134887695e-01
5.120955889229044100e-01,6.899619787005263349e-01,-7.998641939948925028e-03,7.282973810798696289e-03,-3.305707863579831346e-02,1.060271076573818900e-03,6.309378147125244141e-01
4.943551579943771812e-01,6.413376735678579799e-01,3.845943929098927239e-02,6.258079465591817603e-02,-1.866192795135995699e-03,2.147887748935099067e-03,5.551818013191223145e-01
5.129595172502458000e-01,6.545626012329396337e-01,5.022436897224535901e-03,5.454447363484345342e-03,1.172931727691504597e-02,-1.965343613056244262e-02,5.929905176162719727e-01
6.244338329361955875e-01,6.146562294468571608e-01,-1.463475117329843256e-02,-3.900832511976198326e-04,-2.673357537332439297e-03,-1.353951087405717098e-04,6.342536211013793945e-01
5.621693963998329879e-01,6.085221377100393791e-01,5.729840560554255724e-03,4.777158445623658212e-02,-2.643610365779778745e-02,2.433759948451682739e-02,5.901575684547424316e-01
7.136583137403875732e-01,3.232717708941705292e-01,2.308036420672759936e-02,-5.800825083692972423e-02,1.204782870853933832e-02,4.210197146809783325e-02,6.128256320953369141e-01
6.856446379059204510e-01,4.595092063943901906e-01,1.152029208667271210e-02,-9.452301239021780599e-02,1.615318137300921289e-02,3.154515336367971767e-02,6.194427609443664551e-01
5.762549239895659037e-01,6.355654268241403004e-01,8.653728285325013037e-03,-2.215483590316265003e-02,1.234833816124683223e-02,1.862644971024834950e-02,6.019338369369506836e-01
4.267725911631385927e-01,6.499812139890210894e-01,4.467079638889204229e-02,-1.663915201557198686e-01,-8.581509018859256877e-02,-3.042431846899973022e-02,6.237309575080871582e-01
1.826859963299498069e-01,9.428408026917274309e-01,-1.368099433014172139e-01,-1.458670091468413088e-01,-8.462360079823594283e-03,1.003607769643014014e-02,9.935430884361267090e-01
6.908583037308906327e-01,4.097042021218560426e-01,2.683944911193553162e-02,-5.435276651939889569e-02,3.980748761118643037e-03,1.564700318788419392e-02,5.855951905250549316e-01
6.291895265738767229e-01,4.861580278803799837e-01,1.946309578811111773e-02,-9.989359217584652118e-02,3.791686242584732525e-02,6.460359911687610368e-02,5.931141376495361328e-01
5.098919176068942294e-01,6.650621844430165686e-01,4.084197649189158508e-03,5.503983321950015745e-03,1.801333502145795532e-02,-6.506888236731688674e-03,5.996640324592590332e-01
5.142034434717333014e-01,6.638024263650099677e-01,-2.521282073096264842e-03,-1.895992046806577527e-02,-3.113072798823328380e-02,-7.725384383918064077e-03,6.089750528335571289e-01
6.957590319880364582e-01,4.479569861702475952e-01,3.587771985582388634e-02,-1.795273061907921158e-02,1.648698899895515921e-02,2.094039169088205907e-02,5.800234079360961914e-01
2.316366336180233354e-01,7.293413418965187800e-01,1.850809016037346932e-03,-1.125384540731490662e-01,-1.129244994280436537e-02,7.845383735091656860e-03,6.733787059783935547e-01
6.779223436970260863e-01,4.456108685991208573e-01,2.956435920935424067e-02,-2.716037219189616075e-02,7.754975621310561916e-03,1.680759579777089605e-02,5.718012452125549316e-01
5.789300678733356742e-01,5.909037813318150922e-01,1.986873071976413829e-02,-5.034056157787014651e-03,1.179894625848813654e-03,8.180931176846201755e-04,5.652160644531250000e-01
6.066468003759921679e-01,6.122890577942126100e-01,-8.662513468300769848e-03,2.279808688703521217e-03,9.231890191891275414e-04,4.333953253239018928e-03,6.182100176811218262e-01
5.932431378918665565e-01,5.576512397553039513e-01,2.574707543793941511e-02,6.682781987425194178e-03,8.226608425757554049e-03,-6.896491774723583282e-03,5.509991049766540527e-01
3.277384766036698371e-01,9.258260806918175989e-01,1.127568636336129249e-02,-1.015443788358633831e-01,1.006693658803519548e-01,-1.434044630092908825e-03,8.417083024978637695e-01
5.707289190502491394e-01,6.426454532542269504e-01,-2.432248308441964380e-03,6.482941203835021655e-03,-1.660425042463138309e-02,3.313064013992899617e-04,6.130734086036682129e-01
2.301516283922147577e-01,7.592899832986190756e-01,-3.609323243807971426e-03,-8.171088994467372302e-02,1.861849164056154915e-02,1.703802764119089277e-02,6.930110454559326172e-01
5.967888084752237532e-01,6.282640479666901090e-01,-8.426451916626442884e-03,6.162491643631234223e-03,1.880987341704866802e-04,7.456083940797445658e-03,6.217767596244812012e-01
5.684632590828271326e-01,9.081143791214464356e-01,9.928772774180993910e-02,1.247391046783329072e-01,1.429368075318449560e-01,-8.840395276739271280e-02,7.913675904273986816e-01
4.773713624830320246e-01,7.403980378407457597e-01,4.245346111663678146e-02,-5.120272424853022225e-02,1.071219019372897929e-01,1.875019441613977669e-02,6.450401544570922852e-01
5.930198215098830827e-01,6.411416931685340881e-01,-1.486891639498777451e-03,1.410450215300819085e-02,1.009788672659702249e-02,-1.525188326476110794e-02,6.212594509124755859e-01
6.202332829237686695e-01,6.146925214185265940e-01,-1.088807733537316969e-02,-2.514851756541357578e-03,6.256920861101898136e-03,4.853708553684681418e-03,6.285340785980224609e-01
6.050554272170286518e-01,6.169168729238908577e-01,-4.120088632230956005e-03,-2.263308981625065594e-02,1.916844251231803950e-02,1.210853014402516956e-02,6.176893115043640137e-01
6.242303935150180783e-01,6.845118458337539069e-01,8.347148076180116449e-02,6.703929479110239294e-03,-4.966076538280093933e-03,1.637709687636342004e-02,5.741648077964782715e-01
6.571609543277918686e-01,7.073725771743386570e-01,4.318360364443041277e-02,-2.940565345359089089e-01,5.870908464361372647e-02,5.811908119132522255e-02,8.307825922966003418e-01
6.747292717520934069e-01,6.943861254553796991e-01,1.656310482805640194e-01,5.291604162636052294e-03,1.625074737435569863e-02,-1.580002374409756813e-02,5.207685232162475586e-01
6.077074604053767093e-01,6.112028159910054548e-01,-8.754470338099951121e-03,-1.372025591933769819e-03,-6.889924342903268242e-04,5.445081432972041086e-03,6.182946562767028809e-01
6.598445837677979764e-01,3.087991552886006352e-01,2.252218740910089112e-02,2.308016008474950975e-01,-1.718640857679373801e-02,7.860449681460715543e-02,6.963575482368469238e-01
4.057508314394401849e-01,6.989312184367862946e-01,3.639909525066253870e-02,-1.130453869719332538e-01,6.917040364458645896e-02,4.681337199251175973e-02,6.244421601295471191e-01
8.387177382783723711e-01,6.599009453457832519e-01,1.209790076104883538e-01,5.623845604374627660e-02,-5.379138109206126755e-02,-5.915842014306461893e-02,6.689159870147705078e-01
6.034777551065975132e-01,6.038500878578864084e-01,-1.790270042705321973e-03,6.524201465434009131e-04,-2.180583943798756422e-03,4.079540446833583578e-03,6.055083274841308594e-01
3.844169414707250820e-01,9.131288262880671303e-01,1.356624720723775823e-02,1.739909976093272359e-01,8.200604691380901368e-02,-5.317905632458735238e-02,8.559306263923645020e-01
3.973974919743231138e-01,5.986682530731490814e-01,5.888628336869317081e-03,2.899429902332055220e-01,-2.679315045857790477e-03,-1.604225726803947894e-03,7.244435548782348633e-01
6.573771566143864487e-01,6.329525803084962154e-01,7.848034485290233953e-02,-3.783141698399267736e-04,2.297487177496550584e-02,-6.278976712395635887e-03,5.685780644416809082e-01
6.196120296762358537e-01,6.358231084120028465e-01,1.334211567464138604e-01,-3.655940467087015217e-03,-6.177310255090648350e-03,1.875832240368423916e-04,4.946521222591400146e-01
6.027950360047287237e-01,6.815675330255003272e-01,9.126947136789304027e-02,-6.775156992715163085e-02,-4.659145889185987294e-02,-4.816815300005432288e-02,5.791383981704711914e-01
6.335699479933443179e-01,5.796181381260218091e-01,9.738351472556749933e-03,1.986314547334915373e-02,1.673957054762682806e-02,-9.649541053116713479e-03,6.006025671958923340e-01
1.686385774156091422e-01,9.268342851383790659e-01,-1.316315135152100746e-01,-2.000792309257909685e-01,-2.636188146214253625e-02,1.804873415088394106e-02,1.007890701293945312e+00
6.510026960566623888e-01,5.852539463072784498e-01,1.674175199626354305e-02,-2.127803110066983031e-03,8.856343206393601022e-03,-2.229703226206694588e-02,6.055149435997009277e-01
8.768123066441921853e-01,5.635473899713863144e-01,8.942946204285606715e-02,5.790088720707281533e-02,2.024283757595196197e-03,-6.803844980945268628e-02,7.038499712944030762e-01
6.083028552629576868e-01,6.451728271190455555e-01,3.176588653125844708e-02,-4.669766776572529914e-03,-2.890495749962371155e-03,-4.802370692606784675e-03,5.959621071815490723e-01
6.564359094770720882e-01,4.815140771672261621e-01,2.544497805342560426e-02,-9.849709546027122717e-03,-1.665960744674054722e-02,-1.936602817272447749e-02,5.662348866462707520e-01
6.255823661005130987e-01,6.154611238450029553e-01,-7.001909903721625916e-03,1.042706157010448386e-05,8.800262860567367035e-03,-9.316509752974858408e-03,6.279773116111755371e-01
5.625284766276137383e-01,6.152120877896385398e-01,5.937313442527736296e-03,7.884468138569260612e-03,1.183029487195815140e-02,-1.702951233039636317e-02,5.859768986701965332e-01
5.518692757460612608e-01,6.479779858752132693e-01,-3.252057929095275579e-03,1.403713930037504658e-02,-1.684257718258603750e-02,8.987304119611572162e-03,6.102729439735412598e-01
5.821560012199933354e-01,5.834804480544136807e-01,1.341715583877339801e-02,1.001623538567155379e-02,7.425673079095053246e-03,-4.977848180982140727e-03,5.698768496513366699e-01
5.759239770467866615e-01,5.845363556628653257e-01,1.962114007006904304e-02,4.650228668586348785e-03,1.286976481481369753e-03,-6.191516215474563746e-03,5.608234405517578125e-01
6.814419860257747708e-01,4.376136401213813754e-01,3.600362029477166548e-02,7.271394241685352755e-02,1.719910353616802999e-03,-8.768013933372091270e-03,5.785915851593017578e-01
9.019401295045240685e-01,3.109784978855508752e-01,-9.603190597799521333e-02,2.525893350560902695e-01,1.373513953278193180e-02,-4.119861865362972608e-02,9.759522080421447754e-01
6.247805048660788341e-01,6.267800251426567382e-01,3.534585099666526231e-02,-4.566975097673854275e-03,-7.618163824098686705e-03,-4.844741566160746388e-03,5.906969308853149414e-01
6.269201178955009501e-01,6.271693832474853902e-01,3.561017935150689873e-02,-2.432416965943224891e-03,8.973314426198778990e-03,-5.225792436240847202e-03,5.917230248451232910e-01
6.936076139006783770e-01,7.090813480078366204e-01,6.980954325089272494e-02,2.617249559635392298e-01,9.850271166647660281e-02,-1.088316645234031349e-01,8.180202841758728027e-01
6.215785378565026331e-01,6.154600741337630243e-01,-1.417951871976314004e-02,4.100326766702393254e-04,1.574978527857640075e-03,1.613299920282712291e-04,6.327273249626159668e-01
8.398966979773730968e-01,8.577500722531608002e-01,1.399659513459172722e-01,1.249506051768574932e-01,1.046121350510068604e-01,-1.533716385117849246e-01,8.080566525459289551e-01
6.540894394433570680e-01,6.213072080662108698e-01,-4.428495897187356700e-03,4.404187753390580769e-04,-7.519727485792577744e-04,-4.748260836471461348e-03,6.428084969520568848e-01
6.291836736501479344e-01,5.537417456171098706e-01,6.590618792039593110e-03,7.063264994071955481e-03,1.631820853600382190e-02,-1.136085444350528294e-02,5.896437168121337891e-01
6.235294157430736339e-01,5.832250710426786222e-01,-1.273844913394506229e-02,7.451343236364087186e-02,-3.771368811960453676e-02,4.125773797545350535e-02,6.378457546234130859e-01
6.214469161024509525e-01,6.302418581280009313e-01,3.843625365774794300e-02,1.107445144163442556e-03,1.118557326557057929e-03,7.443495753730568036e-03,5.876052975654602051e-01
9.826218468380109039e-01,1.688799240272031987e-01,-1.166189231330104770e-01,-1.633853794659511638e-01,1.565426251771250346e-02,2.545280213783454072e-03,1.028030514717102051e+00
6.291396994816180754e-01,5.490203671512005057e-01,7.772219329230667384e-03,2.766900805983382033e-02,-1.828066617639102082e-02,1.499897989598743264e-02,5.888185501098632812e-01
6.395774235648012951e-01,6.082168516712488371e-01,-1.021974709538853165e-02,5.643036161996497308e-04,1.416351164715134699e-03,6.462260394755173047e-03,6.348024010658264160e-01
9.340401839174514720e-01,8.826199255093873930e-01,7.936064051189850588e-02,1.785067596710815732e-02,2.533951554011902585e-02,-1.136880213497442433e-03,8.319010734558105469e-01
6.333066213801304967e-01,6.323542271953145333e-01,9.991961566598922539e-02,1.183521696222519185e-03,-1.198205464060377035e-02,-8.575490575386165645e-03,5.335261225700378418e-01
6.270482638899335104e-01,6.309917881512918658e-01,3.502756584946259411e-02,-5.713467139751875722e-03,-4.976483621403665798e-03,-8.606296286739955823e-03,5.943341851234436035e-01
9.100185359756134407e-01,6.518589876013685114e-01,1.225940429292887157e-01,5.589830185712392485e-02,3.523275024930610372e-02,9.143912805625213636e-02,7.222075462341308594e-01
6.330711390124551530e-01,6.415048533691477539e-01,7.544893957619314140e-02,-3.004860994204459033e-03,1.537645607330096181e-03,-6.746646455037289773e-04,5.619181394577026367e-01
6.936045476032205448e-01,6.432278234123396388e-01,8.704390996006772241e-02,2.263556204838064467e-02,-5.051756108287175362e-03,-2.511641044427812691e-02,5.860061645507812500e-01
6.013991930611671810e-01,9.495731141836835087e-01,1.301209788766328201e-01,-5.559846830028876419e-02,-1.048081844159957643e-01,-8.966787483200476527e-02,7.574719786643981934e-01
9.002442697979241570e-01,5.721331039101174021e-01,8.365795638046491511e-02,8.504876438188782584e-02,-1.984683760461198807e-02,8.299842665932299912e-02,7.416784167289733887e-01
6.282275742304237465e-01,6.277686822263266464e-01,2.405971838589626710e-02,-3.512549123203624938e-04,-2.463910160192271919e-03,8.858287544870283720e-03,6.041488051414489746e-01
6.298973363117048585e-01,6.281829520944661738e-01,6.756156838358640115e-02,2.964691215518858169e-03,-4.900620911533430830e-03,-8.667059701476036507e-03,5.617687702178955078e-01
6.714553321314948864e-01,9.058124912090586012e-01,1.071956923237395443e-01,5.012559091101528169e-02,-1.015438433175991917e-01,3.878791515992609934e-02,7.406316399574279785e-01
6.663198237869073504e-01,6.727166245474198725e-01,7.424638835355273914e-02,8.110976207517983649e-02,-3.256586623644097678e-02,6.507816530566924718e-02,6.245020031929016113e-01
5.811838803388595931e-01,6.314000967682306120e-01,-8.164591696422418554e-03,4.581354013640223655e-03,-1.112758426951455416e-02,1.114110477486903415e-02,6.166481375694274902e-01
7.157832670495670735e-01,6.020705758752138426e-01,6.813678870314987535e-02,2.888088430765774553e-02,-4.638269741534394031e-02,6.365519608299333165e-02,6.163142323493957520e-01
6.257833652507427402e-01,7.267831861705130736e-01,8.223094657083784842e-02,-1.715468414396975338e-01,-1.164840449051447319e-01,-4.770577623414418156e-02,7.045331597328186035e-01
6.263011122163471001e-01,6.265919852978323323e-01,4.904063547631770659e-02,5.674505025960060317e-03,-3.678320460799403523e-03,-4.645092453590795104e-03,5.775808095932006836e-01
6.103486560963963248e-01,5.826066356590952067e-01,3.002139814856141786e-03,-2.705580711378252710e-03,-1.120892927380194581e-02,-1.091570731901860989e-03,5.943002700805664062e-01
5.978865516083269327e-01,5.808691545547819413e-01,-2.255275060080719207e-03,-2.631467002737252273e-02,-1.618292885566280717e-02,-1.316567233038585041e-02,5.946679711341857910e-01
6.361975203542932222e-01,6.330578564525068952e-01,4.099094697951943811e-02,7.386902253702024544e-03,1.234205707458863911e-02,9.552587706742585866e-03,5.943958163261413574e-01
6.266465239481454619e-01,5.538458609195443527e-01,4.145442010974720315e-03,-7.866252083644558954e-03,-1.616815480174625674e-02,-1.123478411131916335e-02,5.906247496604919434e-01
6.277704613644763398e-01,6.198922956444509191e-01,1.097711483213770767e-01,-5.283420881458615777e-03,1.179753738227890154e-02,1.695924258243875415e-03,5.146011710166931152e-01
6.045589789694189031e-01,5.964033943982900432e-01,4.277681862811077984e-03,4.043119039253269438e-03,-7.285955009578094007e-06,1.733099046430318022e-03,5.962940454483032227e-01
6.210060876434291277e-01,6.211610178821730388e-01,-6.944256820455407819e-03,-1.267682359722135076e-02,-1.728704335131229716e-02,-2.047806772989772470e-02,6.301234960556030273e-01
6.284868698270202891e-01,6.232975659967592286e-01,5.882663669527521400e-02,-1.056431722178736553e-03,7.477457802225972137e-03,1.252345922783515810e-03,5.672383904457092285e-01
6.672269951640823482e-01,6.224950540953471112e-01,-6.749741590218572007e-03,1.005126895734795647e-02,5.983916328302185499e-03,-2.508044865908163820e-02,6.545188426971435547e-01
7.518151826197261300e-01,5.618924849379884900e-01,1.933702307370871454e-02,-2.721295009643892038e-01,-4.636660899920220374e-02,-7.638081808065291800e-02,8.243759870529174805e-01
6.284511784615404162e-01,7.394483567049121575e-01,4.314130836587259932e-02,-5.915442981585134277e-03,-2.716438340598315362e-02,-2.937678947360651397e-04,6.497651338577270508e-01
6.301587940942985355e-01,6.183704253497867009e-01,-5.813895196538965138e-03,-6.294185452872429545e-04,8.721302442045892082e-04,3.804038817714393211e-07,6.301639676094055176e-01
4.984653768428381482e-01,6.380471007779862092e-01,6.259396948509077241e-03,1.352007582953350384e-01,-5.534408807033100453e-02,4.819574164646084347e-02,6.335991621017456055e-01
6.281486858307120391e-01,6.339474481419798968e-01,5.543668980095528553e-02,-4.761940981229623691e-03,1.035839375093313385e-02,-1.973653752875771401e-03,5.759820342063903809e-01
6.300706507247679777e-01,6.377624380867752407e-01,8.917538472345493128e-02,8.611723969622598306e-04,5.694008642239664630e-03,7.832168416219611323e-04,5.448749065399169922e-01
6.298608683894630911e-01,6.250515308117097213e-01,7.500447015996208888e-02,3.180291274035370371e-03,-1.023167279695837151e-02,6.832059349939047059e-03,5.529056787490844727e-01
6.645236002696530697e-01,4.850440252657179374e-01,1.530725479038325121e-02,3.101377839354103882e-02,7.293852324790294460e-03,-2.598465598038838826e-03,5.833002328872680664e-01
6.454582319271043866e-01,5.740822999552583905e-01,-7.836308304312311623e-03,-1.026918274161509048e-02,-4.571202534591755316e-03,-1.495368241614701207e-02,6.215373277664184570e-01
4.634970990285415815e-01,7.376777207317557483e-01,-1.302974724384581284e-02,6.274240281969874038e-03,-3.868424687162373699e-02,1.418331918852856061e-02,6.619050502777099609e-01
6.654126792171248805e-01,6.429282742807065354e-01,1.281165695086914358e-01,2.943583557190479830e-02,2.289625440760869636e-03,6.530345039571116249e-03,5.290131568908691406e-01
5.314131710226794869e-01,7.932567919112816224e-01,-3.204647265814819512e-03,-3.000646265810242297e-01,-6.161543162709592208e-02,-6.402151189742250059e-02,8.877874612808227539e-01
8.346657294128791982e-01,8.616840673840290288e-01,1.270297181622285221e-01,-8.393849084629341484e-02,-1.004652333685901039e-01,-1.245590375313414683e-01,7.864855527877807617e-01
3.846941900666552838e-01,6.531920799265602540e-01,5.322528803488491000e-03,-1.750433674498740322e-01,-8.731192907906767942e-02,-7.972980827562081707e-02,6.721128225326538086e-01
6.192834062837599962e-01,6.367758090535904358e-01,1.237010975436128590e-01,6.915410290970535299e-03,-4.044467655614401684e-03,6.379014035541160851e-04,5.047479271888732910e-01
5.406462205318744996e-01,6.593816116790400805e-01,4.435034697368167578e-03,-2.417728922732154530e-04,-1.414352143751112199e-02,-3.631679153966092984e-03,6.049195528030395508e-01
6.104223382229521100e-01,6.380146705818936503e-01,-8.372248871787557611e-03,-5.993746355677918858e-03,-2.121874412684301645e-02,-1.882759798821716929e-02,6.350306868553161621e-01
6.303702731170710560e-01,6.334408268718847435e-01,8.847950184611769187e-02,2.776862609709026056e-03,7.172006594907216238e-03,-9.577493202742601644e-04,5.435983538627624512e-01
3.293285755360013112e-01,8.569077825478754740e-01,-7.285242441387596024e-02,-2.309339917045716561e-01,-4.278242437663973968e-02,-1.040672616545756414e-02,9.044772982597351074e-01
6.405246730129618982e-01,6.336975244413600716e-01,8.329388317623670490e-02,-3.324020575635105567e-03,1.153972496661656577e-02,-7.644780622192080518e-04,5.542408227920532227e-01
6.696165832031599763e-01,4.260654633190623652e-01,2.591408576517473250e-02,1.716407574165914884e-01,-1.709113494064876462e-02,1.167810956905297216e-02,6.376227140426635742e-01
6.214265731111779933e-01,4.671914704357246206e-01,1.405264484505047706e-02,2.540228384720690236e-01,6.801355545044450446e-02,-3.020451154639294811e-02,7.135898470878601074e-01
6.190358323156999187e-01,5.429835471679042014e-01,2.756453779450424024e-02,1.874049872530080540e-01,1.195099999985047186e-02,-2.088835134890537626e-02,6.463271975517272949e-01
8.027167501361889279e-01,9.127061963840781278e-01,1.261797219329057196e-01,-7.804881548484964536e-03,-1.061869599909614076e-01,1.925366673656764890e-03,7.604162096977233887e-01
7.187315953597399609e-01,4.811698666877786135e-01,-1.513801556815036475e-02,1.157816156336277658e-01,1.855569781646493333e-02,-4.330493336976527080e-02,6.837659478187561035e-01
5.685357186662071127e-01,8.658222160274160473e-01,1.061214704184596513e-01,1.043390730667279609e-01,8.739881464283104362e-02,-1.594700356231163463e-01,7.560048699378967285e-01
6.118238565431408649e-01,6.188101736917995810e-01,2.724635507028339010e-03,2.908675747629702393e-02,2.312576461292503716e-02,-2.377658007152327543e-02,6.173690557479858398e-01
6.514820736121464950e-01,5.535924981598204786e-01,8.236847195887020412e-03,8.228651448775765875e-02,2.141822150025426974e-02,-2.869193127581161004e-02,6.201120018959045410e-01
6.277096330279744452e-01,6.295072419401999131e-01,8.120238457995898607e-02,4.146763897416578040e-03,1.002521288240093914e-02,3.972508983739009118e-04,5.477311015129089355e-01
6.256624506971397714e-01,6.277938830315052954e-01,1.173484615484791660e-01,-2.259762895048351907e-04,8.990483806862252861e-03,6.489876973832690160e-03,5.097451210021972656e-01
6.649540465333143580e-01,3.693328191495134361e-01,-1.022448060374073764e-01,2.938804652931252814e-01,1.107570040734551751e-02,1.924184355750099482e-02,8.424735665321350098e-01
6.089287716171343234e-01,4.552485752604267244e-01,-3.975241071259860703e-02,3.760136917953155744e-01,9.680860501064045623e-03,-1.263358516613028067e-02,8.772880434989929199e-01
8.571283742489603785e-01,9.469371774755885873e-01,1.455762032362690750e-01,2.771991250826874933e-02,9.097318767896550584e-02,-1.807238076310417954e-02,7.787099480628967285e-01
5.219506061186122148e-01,4.681852411683745663e-01,5.656754652679896189e-03,-2.785269954116063595e-01,5.120927982238742543e-02,5.635455770126539948e-02,7.012972831726074219e-01
5.131214095371935402e-01,4.838455926530360607e-01,4.348633047217442815e-03,2.958658578706911402e-01,2.605245712109839976e-02,2.403766809229407764e-03,7.137754559516906738e-01
3.602855934413113914e-01,6.949897837823717506e-01,3.101110863368417014e-02,-8.901976904677300073e-02,-1.982628440027255773e-02,-1.937808028907721334e-03,5.963406562805175781e-01
3.447730460388503393e-01,7.735872919329922492e-01,8.532778763675197276e-04,-1.464817585590005022e-01,-2.111370668545398815e-02,-2.559987545554070782e-03,7.178912758827209473e-01
6.393614987684519413e-01,6.120497597890870445e-01,-1.133550416924661297e-02,-3.421496060770039390e-04,1.026328324617307606e-03,-8.814619266335739153e-03,6.376656293869018555e-01
5.931711917815930546e-01,5.356505317557619383e-01,2.989312104577029894e-02,-1.798211694709164754e-02,4.949765611354940698e-03,1.375119551773052113e-03,5.378103256225585938e-01
5.939794091724827085e-01,5.654945182930615211e-01,-1.177125188120671795e-01,-3.976777811087359726e-01,1.120032796316703348e-02,2.122620191278737009e-02,9.814352393150329590e-01
6.232937062678054474e-01,6.187483724169542398e-01,-7.452943244366072584e-03,7.827337813082172087e-04,-1.935182015704647570e-03,-8.687665740764379538e-04,6.284984946250915527e-01
6.003568969926826870e-01,6.248753389212067244e-01,-9.081214327086195581e-03,-8.585255518144450926e-03,8.555808292893887779e-03,8.691083810031519780e-03,6.225959658622741699e-01
6.141505152687580793e-01,6.242414709535266670e-01,-1.318111636454677438e-02,4.432887639494857181e-04,1.401290165173042909e-03,2.674610466312838178e-03,6.324595808982849121e-01
5.700903516294189011e-01,6.251205445858054599e-01,-1.717516430183363418e-02,-1.195544961952093588e-01,4.421827668793808924e-02,2.894670705315747355e-02,6.568757891654968262e-01
6.725687447668593499e-01,5.229515456681020913e-01,-7.024960149352621475e-02,-3.228847633166080366e-01,-2.897010099963588659e-02,-3.893715377642015165e-03,8.822431564331054688e-01
6.234044993959523273e-01,6.093113722401284349e-01,-1.311425087581796767e-02,-1.695758077073843736e-03,5.242939162342029856e-03,3.630997263523364112e-03,6.296942234039306641e-01
4.991293060007747640e-01,6.144089085910686698e-01,-1.603178192396787494e-01,-4.339239423080800684e-01,-3.103768049995625847e-02,-2.244306584342068062e-04,1.044959783554077148e+00
6.897623708905813444e-01,5.042676532822381041e-01,3.343039844662609728e-03,-6.494837923097227829e-03,-2.808815189292579971e-03,-2.405815617581215024e-02,6.165543198585510254e-01
6.153365347925942030e-01,6.160287934381142305e-01,-1.522301231484740613e-02,-2.628699453147546904e-04,8.660324517952458327e-04,6.506398998095021388e-04,6.309089064598083496e-01
6.266440195258143886e-01,6.216457460701629856e-01,4.679778673395917910e-03,1.790040308733201451e-03,1.949549006296097398e-03,-2.481144115784899695e-03,6.195120811462402344e-01
6.270311463277847830e-01,6.209712523541347506e-01,1.539524222577476342e-02,-2.506976194215961191e-03,5.045730606014168541e-03,6.623452789228421490e-03,6.088148951530456543e-01
6.595795710084175756e-01,4.633499046445709868e-01,3.449590184285966643e-02,-1.521477468821581282e-02,6.283126514111610043e-03,5.938544223307126073e-04,5.544273257255554199e-01
6.082619204618547881e-01,6.134345785542021368e-01,-1.308211425955035923e-02,-1.134956820165529791e-03,6.479275781965566569e-03,3.376642991134096248e-03,6.240778565406799316e-01
7.661176388256236702e-01,3.402341503268918044e-01,1.943629823532605494e-02,-1.008804076034197118e-02,1.888876672527952869e-02,-7.707335509566670684e-02,6.634056568145751953e-01
5.138454321914452949e-01,9.006770144626179420e-01,8.644680341310811977e-02,1.494207494949782722e-01,-1.763451788560550793e-01,8.827741057349450249e-02,8.254033923149108887e-01
4.730559448737706729e-01,7.055497174369353974e-01,2.126135687825270182e-03,-2.659906349330624573e-02,-5.364235395665955392e-02,-2.008968926360329282e-02,6.303033232688903809e-01
6.262960742903638245e-01,6.233001633272564623e-01,-9.798696343590929114e-03,2.774491942163212054e-03,1.061586225617535285e-03,3.327643387860518796e-03,6.346491575241088867e-01
7.050368718830550829e-01,4.122884970839288954e-01,1.781334298660347537e-02,-4.049448976406142334e-03,3.030252372478907299e-03,-2.259722974500149098e-02,5.986675620079040527e-01
6.266814215742724237e-01,6.252070485981278125e-01,-1.976086381665909109e-04,2.757385126531005509e-03,-6.163065333541456296e-03,-3.280860164360879100e-03,6.262781023979187012e-01
6.302743148997840272e-01,4.786677329281421867e-01,3.271487270639372724e-02,-3.225806117863565248e-02,-5.604500357251434271e-03,6.651620087856062338e-05,5.410026907920837402e-01
6.814897982111912667e-01,6.498747950659459205e-01,8.488124936463703474e-02,-2.356650411415387933e-03,-1.239737824472905356e-02,2.312312685044604077e-02,5.832334756851196289e-01
6.719863882653969167e-01,6.418726683153860302e-01,5.184279501693883629e-02,1.492045391469808482e-02,8.344002190879856729e-03,-4.122586802284004814e-02,6.105616688728332520e-01
6.645693399998758855e-01,5.868277033566768885e-01,8.334288914748411159e-03,3.488762157826647437e-03,-6.697352979342416357e-03,-1.546049079501894338e-02,6.217391490936279297e-01
6.493163334001528231e-01,6.500413779298485073e-01,1.030645627881717208e-01,-1.389403167363347782e-03,5.442478084079409827e-03,1.511131938306669101e-02,5.473273992538452148e-01
6.011538564722445077e-01,6.347928036072654212e-01,-1.047686794056201798e-02,-1.258056999861772388e-03,1.513704373242617416e-03,4.884970159934843778e-04,6.291348338127136230e-01
6.462386448705089714e-01,5.640325352004146309e-01,9.209498761510115372e-03,1.434533174257275091e-02,1.176832114364407406e-02,-1.067086610417692510e-02,6.013075113296508789e-01
6.392514374346420780e-01,6.284246429396211919e-01,2.170681006595526208e-02,7.566721825994661768e-03,-5.449145642510332989e-03,-8.461354676570345679e-03,6.125913858413696289e-01
6.202671119471474537e-01,8.501646444771147060e-01,8.325999311987153373e-02,-2.056215601108929147e-01,-9.356296312561658557e-02,-6.678118455201022263e-02,7.944608926773071289e-01
6.077108483887230239e-01,6.241249893118349101e-01,-1.192636777340361220e-02,-1.700049127317150230e-03,-5.289891371267081872e-03,-6.233354267651454797e-03,6.281716823577880859e-01
6.889901334070998029e-01,7.005168978046802941e-01,6.448597686274126772e-02,-2.849151478331342011e-02,2.582593052032158137e-02,2.502552771494024469e-02,6.353360414505004883e-01
7.952417691003799138e-01,7.950049020768459318e-01,9.624069558801362501e-02,1.249168772807749683e-01,1.332774363251640337e-01,-1.149365830263575639e-01,7.925714850425720215e-01
9.491821995947490320e-01,8.388404284126435018e-01,9.231177728254924553e-02,4.038146103284850214e-02,5.753891596135784353e-02,-8.230139136633637942e-02,8.288536667823791504e-01
7.984441260969528109e-01,7.215821811472239444e-01,1.430837900939348484e-01,-6.268092555571423696e-02,1.073530165042492907e-01,-1.350573501695931100e-01,6.972193717956542969e-01
6.527143645557321738e-01,6.094018212323304429e-01,1.495513418395127969e-02,2.769110689441495079e-04,1.408025508675810576e-02,1.097563283452612955e-02,6.180179715156555176e-01
5.537316315933068500e-01,7.154241033067098021e-01,-7.984135658774149658e-03,8.945863199989391445e-03,4.542011017151528079e-02,-2.180857716037387650e-02,6.635888218879699707e-01
7.097020135462382973e-01,6.473496995036478463e-01,5.466544580753052163e-02,5.589476558640394527e-02,3.780634341486077687e-02,-3.925440551393720445e-02,6.406254768371582031e-01
5.390220046062965675e-01,6.327106130090569547e-01,-3.780432098439812094e-03,-1.058923333176145162e-02,1.587878888790137527e-02,1.254160784355565043e-02,5.965158343315124512e-01
5.819674995134102025e-01,7.783498539139885875e-01,7.102572644996757445e-02,9.957390665899210069e-02,1.325518483732317232e-01,2.568928513505336353e-02,6.959900259971618652e-01
1.519241955621687679e-01,1.002013673516860770e+00,-1.317969003488078661e-02,8.501604364189123408e-02,-1.562647482484602265e-02,2.669002092263127873e-02,9.564608335494995117e-01
6.807634232553678721e-01,4.133728649509030295e-01,1.687472247433530192e-02,2.327390066516236977e-02,7.014136226990195545e-03,-2.737918668254430907e-02,5.820221900939941406e-01
4.566324133111868688e-01,7.969537577813168294e-01,-1.064753960230174767e-02,-2.455867231285958352e-01,5.219773324342555365e-02,4.192081602595442574e-02,8.292037844657897949e-01
4.482146312767797403e-01,6.995029484490474792e-01,-9.726160786583232243e-02,-3.510998975651578591e-01,-7.441249728933493034e-03,4.077937131510981153e-03,9.315531849861145020e-01
6.748345306914864672e-01,5.191883369302742190e-01,1.531287535639747066e-03,1.300215252297974404e-02,6.246037190628743116e-03,-2.288645210027310042e-02,6.123409867286682129e-01
1.879400993624097960e-01,9.996220475802510830e-01,-8.229288389104005841e-02,2.479316279618409488e-02,6.668573571644040299e-02,-4.935326972363280468e-03,9.830843210220336914e-01
5.970308403804788222e-01,7.510015817473758570e-01,4.213182701191431345e-02,3.628478644985119739e-02,5.206482421163991653e-02,-3.824512136580254795e-02,6.584285497665405273e-01
6.464903748357239133e-01,5.313008109392967082e-01,-2.493813168807923475e-04,8.020370482536696988e-03,1.951701219113238447e-02,-2.876324729380945119e-02,6.007170677185058594e-01
5.931753511737134499e-01,6.063189858768872620e-01,5.844540194241187869e-03,-1.735069947962669321e-02,1.481432500672514099e-02,1.231207746048099128e-02,5.957064628601074219e-01
2.662066555323261974e-01,8.151812074067990022e-01,-1.018934079329973930e-01,-2.004788301904227299e-01,4.039537195762531174e-02,1.242472842186876985e-03,8.743131756782531738e-01
6.298854679999981165e-01,4.786742588033548462e-01,3.351616218450237383e-02,-2.841083413186530626e-02,4.715955238945985367e-03,1.208765073762054941e-03,5.392922163009643555e-01
6.490437196923793950e-01,5.623567562407628673e-01,-9.434193698149018203e-05,5.497644311017246994e-03,9.982014380745812474e-03,-2.033248059723209266e-04,6.107476949691772461e-01
5.970040462432164574e-01,5.589673698119136391e-01,3.940933853232386763e-02,-3.974486490569872216e-02,6.391409330755784546e-03,1.667430274748194982e-02,5.448350310325622559e-01
5.935188586434436697e-01,5.900358549996541635e-01,3.474368486746981510e-03,-2.283375405899556402e-03,1.946589134787325703e-03,7.193306935654853081e-03,5.884655714035034180e-01
4.389244344064330283e-01,6.793391984687278118e-01,-1.562258557600246789e-01,-3.781469756522310988e-01,-1.692600095122758289e-02,6.630100883689308243e-03,9.925032854080200195e-01
6.151009045723625501e-01,6.197299847989834465e-01,-1.510548042650144973e-02,2.783073792957244303e-04,1.416086190971057972e-03,1.872781291871289085e-03,6.325469017028808594e-01
1.251117666887785751e-01,9.825653647795655754e-01,-1.361258580799352691e-01,-9.948217084859972692e-02,-2.886508165819166860e-02,-3.381091943262000323e-03,1.029414772987365723e+00
6.344571456731729064e-01,6.008992550150753509e-01,-5.672896675260441501e-03,7.676688683847958383e-03,-1.057177447681860276e-02,1.016380414791582393e-02,6.246864795684814453e-01
5.929709912894085555e-01,6.034089630013191874e-01,6.157172992571624537e-03,-4.218110022757902942e-03,2.110097711762555592e-03,2.051633828201023196e-04,5.921582579612731934e-01
4.407028238656491848e-01,6.674080435036782166e-01,6.952370621768788617e-03,1.586713697591475014e-01,-1.020446497342787986e-02,5.298838626299139445e-03,6.432687044143676758e-01
6.113641408187334703e-01,6.123926603012301850e-01,-1.233668106890123406e-02,-5.971648290302090283e-04,1.694493960029815451e-03,2.512416918413347064e-03,6.242386698722839355e-01
5.016722539057790753e-01,6.279870494398519520e-01,1.771023671706928315e-02,3.139769195307565153e-02,2.503531240043866540e-03,-1.535513609734453708e-02,5.612395405769348145e-01
2.895779547558107736e-01,6.721727965430878138e-01,-2.697229181998772596e-03,2.820096294056779751e-01,1.826018758527294533e-02,-9.608488586153228483e-03,7.638665437698364258e-01
4.130310952018164117e-01,5.485598670380846809e-01,9.138899603517491865e-03,3.035775022695327285e-01,2.173291044048889301e-02,-2.894528549035591675e-02,7.187797427177429199e-01
3.972696175634470861e-01,6.970475971550893490e-01,3.689181298342031345e-02,6.338048069600230039e-02,1.412030772108342422e-02,-5.357842464004939536e-04,5.834574699401855469e-01
7.215294670895451290e-01,4.585211924927554139e-01,-6.403843050711927054e-02,3.421169039383093469e-01,-4.090223785737451268e-02,3.258977209917668372e-02,9.159784913063049316e-01
6.249567448735724451e-01,6.283141433846545221e-01,2.620541128780867757e-02,-2.305368900437834018e-03,1.601172025647752337e-02,8.358955805250841212e-03,6.012647747993469238e-01
1.436873974089118711e-01,1.037359961551535870e+00,-1.158841139320502811e-01,9.961075748273255648e-02,-3.192647093316144241e-02,2.561182113672199126e-02,1.064327359199523926e+00
1.457647849681200924e-01,1.039482978301365490e+00,-1.218928488535306331e-01,6.578290178627715923e-02,-4.702958915409342217e-03,2.868901434651334459e-02,1.060707807540893555e+00
6.717732659209716406e-01,5.061478758005119039e-01,1.523541768945591013e-03,4.697853031584309051e-03,6.487808360744602015e-03,-3.346437969766304782e-02,6.076250076293945312e-01
6.088538621218739788e-01,6.117984840411077041e-01,-1.293349062454068887e-02,-3.513954558940510751e-03,6.253144733612899138e-03,5.473072885715406233e-03,6.234607696533203125e-01
1.789141681249612759e-01,9.301543096241139397e-01,-1.192402125907926491e-01,1.685505636125179674e-01,2.665026866042822379e-02,-1.007506443301364914e-02,9.822965264320373535e-01
4.402558586537681506e-01,6.902953259136527242e-01,1.974820008746636102e-02,8.154634508997062395e-03,2.278828169589111607e-02,-7.841421848052506152e-03,5.885846018791198730e-01
6.087044354086081910e-01,6.142128755319351541e-01,-1.272871967066790955e-02,-3.574437428320358535e-03,6.174765920041264990e-03,4.864572239754925281e-03,6.243847608566284180e-01
5.989049277720255304e-01,6.099803579893107175e-01,-6.626406830515019220e-03,-2.616491465507770221e-03,5.592012695975755697e-03,7.742917784226793949e-03,6.113849878311157227e-01
3.370559924151294018e-01,7.524663642006406139e-01,-1.263318428397107729e-01,3.903179078050275641e-01,-3.793843235641074230e-02,3.632509398765271930e-02,1.022306680679321289e+00
6.060890996499022076e-01,6.127100125691009591e-01,-7.970860470944918230e-03,-3.495070500039444607e-03,1.431655264716022100e-03,-1.201331477036445320e-04,6.174317598342895508e-01
5.792986506773778466e-01,6.340246488231519040e-01,5.056952116015422938e-04,1.157960976917670193e-01,-4.553730354438919464e-02,4.722062371412232701e-02,6.502366662025451660e-01
6.849345855374163738e-01,4.787694329163543205e-01,-9.930919800250953555e-02,3.649891820163289058e-01,-2.652615167221406348e-02,2.170934046589993380e-02,9.481744170188903809e-01
4.039422753525211962e-01,7.989209521580802331e-01,-5.337080219509526824e-02,3.085600440325278471e-01,-4.242378094557513329e-02,-4.684912573671744067e-03,9.148035049438476562e-01
6.265076664181196131e-01,6.326742865507645197e-01,2.090775325605420676e-03,2.659893432237876547e-03,-3.991321873384917271e-03,-3.254054557459748649e-03,6.276032328605651855e-01
6.722570552374151909e-01,4.604730719105040171e-01,1.901181647046057410e-03,6.915355149076812813e-02,1.432055788849498877e-02,-5.369886865290483119e-02,6.130835413932800293e-01
3.786222807209834729e-01,7.251032524385727651e-01,2.282888034147328993e-02,1.203328426835397758e-01,-1.275149071295057224e-01,3.394572431710174421e-02,6.823421120643615723e-01
4.450736645581162554e-01,6.751490424520638634e-01,2.065692711850897201e-02,4.935938866490201249e-02,-1.312937821754176296e-02,1.428707349600578415e-02,5.823664069175720215e-01
6.353377155390461661e-01,6.168633524604484331e-01,1.089356649677580280e-01,-3.467108656547239313e-03,-1.767373897200280684e-03,8.016424233679934203e-03,5.176424384117126465e-01
6.231145565126491315e-01,5.484059927329743012e-01,1.915254342220096273e-02,9.070006823616362859e-03,-1.147591141803104217e-02,1.688341872214704428e-03,5.708596706390380859e-01
5.466246652932713612e-01,6.185796766678888225e-01,2.157599334823084858e-02,1.051488514543910679e-02,6.578543054707937680e-04,-1.324504644806051047e-02,5.652369260787963867e-01
7.402276093027939652e-01,6.278812151704957767e-01,7.183022908697211939e-03,3.652723218296800162e-02,7.532120658233299251e-03,2.454645731605436046e-02,6.881872415542602539e-01
4.992291600060724255e-01,6.215455477403445395e-01,3.359759713861404373e-02,1.506556567674717517e-02,3.091926328638890239e-04,-3.354458412597219677e-03,5.379994511604309082e-01
6.204378233772795959e-01,6.286066919776959194e-01,8.429163077298573725e-03,-2.690064086736055227e-03,3.029819210716048778e-03,3.253834362115043399e-03,6.161994338035583496e-01
9.617004735005059146e-01,2.568891441014014010e-01,-7.782364508618999643e-02,8.795051796827799140e-02,5.073701991088959938e-03,-3.926590251650011187e-02,9.341357350349426270e-01
4.664734096890392201e-01,7.430778920866112358e-01,-1.594896839625697949e-02,-1.819288589567538347e-02,-3.402356410990094171e-02,3.476138045190914523e-03,6.687178611755371094e-01
6.850559506465807580e-01,4.462720307606622416e-01,1.878318663959188672e-02,-4.036803463075743816e-03,4.861684093796034105e-03,2.647132308962583946e-02,5.865696072578430176e-01
9.774844530809977394e-01,1.864222926829007254e-01,-1.208822593168689674e-01,8.783374935186129273e-02,2.373687319661252088e-03,-3.962656271147781128e-02,9.955824613571166992e-01
7.091483333727548466e-01,3.965820531271588290e-01,3.843880256007442542e-02,-1.512413228981772904e-02,-8.710513089954981258e-05,9.727424264674858559e-04,5.818907618522644043e-01
6.997850632036538565e-01,3.963152734234619556e-01,4.060586211147509950e-02,3.907049986190793203e-03,-1.393004610008713234e-03,-1.278592834103283241e-02,5.719372630119323730e-01
7.705557363568074081e-01,5.052230513655208144e-01,-1.624918021433924276e-02,2.857235654982657191e-01,3.517623386580640693e-02,-4.640579413773855688e-02,8.577790260314941406e-01
6.240628588289529599e-01,6.184775498343135780e-01,5.298894822212174560e-02,-7.527187813908167713e-03,-4.883783580627379557e-03,-6.507218129450108128e-03,5.686259865760803223e-01
5.196258656658848674e-01,6.779945663134487877e-01,8.592021467194732587e-03,-1.081218815203086915e-02,1.928148970003239551e-02,9.285423358628372772e-03,6.073653697967529297e-01
6.373678557172350878e-01,4.750977921366933421e-01,3.743440216102683626e-02,3.840814029702565441e-02,1.120522395787849727e-02,-2.732771477571704129e-03,5.419641137123107910e-01
6.395257105954437193e-01,6.753493956549241339e-01,1.164559353669442077e-01,-2.863141092552355660e-02,-4.293593354666712402e-04,1.923511372126189816e-03,5.441457033157348633e-01
6.740972122448882775e-01,4.649791771050575950e-01,1.373636410691231324e-02,7.293455430793616828e-03,2.203136031833711518e-03,-1.904549160734263962e-03,5.847208499908447266e-01
6.811982072546555189e-01,7.022769467555922684e-01,1.004616685590821179e-01,-1.612702584494449254e-02,-1.137552585446143308e-02,1.152914018222023738e-02,5.928807854652404785e-01
6.404028022096630579e-01,4.057360238730146063e-01,2.371881669904118972e-02,-2.133588710014142076e-01,-5.521289730157417225e-02,-1.068695675500857256e-01,6.860226988792419434e-01
9.404825152781995934e-01,2.445422919869885969e-01,-1.129163623530182736e-01,-1.443704272750929440e-01,-1.877406928044648982e-02,-2.487412528374780690e-02,9.624559283256530762e-01
6.108267920230945336e-01,6.342160888770400629e-01,1.099174426640103786e-02,-9.473177312333731087e-03,-6.700897707160050933e-03,-9.564754585546316260e-03,6.124191880226135254e-01
6.888999092202326979e-01,4.473149037350737101e-01,2.990830369592994975e-02,3.578938657383608744e-03,4.774894153290902554e-03,-1.657943297110004918e-02,5.782406330108642578e-01
4.209228374055143385e-01,7.070800133118322339e-01,2.054160067539190226e-02,-1.560226970171631027e-02,-2.847061555485701570e-02,-5.893580265640206706e-03,6.000244021415710449e-01
2.699578899992470804e-01,9.027143222475464412e-01,-1.840215247352122718e-02,1.782946080037189907e-02,-4.714773426229104669e-02,-3.453543642933760288e-02,8.229181766510009766e-01
4.940895075288497251e-01,6.360637235642877529e-01,3.430312245828520679e-02,6.399488352917563627e-02,-2.824323646529295490e-03,6.413016542919774791e-03,5.561217069625854492e-01
2.328361872990580839e-01,8.633074692296742736e-01,2.752068130173157545e-02,-1.289310729440105996e-02,-4.086356623630439666e-02,-3.261430183662001464e-02,7.601271271705627441e-01
9.878519104463709954e-01,2.754332173483499124e-01,-3.339809544558164367e-02,1.194292242129251815e-02,3.171899303956599307e-04,-3.827176113026053983e-02,9.098113775253295898e-01
6.660714422285518577e-01,5.207307275676247293e-01,-7.100832211909269276e-04,1.356156523910745718e-02,-5.912178235564386278e-03,-6.511982688895662881e-04,6.078395247459411621e-01
6.598220146840919620e-01,5.443282231425320417e-01,-2.356148623131437692e-03,1.989361904608414819e-02,1.984364770451354804e-03,-2.697059108185083376e-02,6.154044270515441895e-01
4.018153673917007063e-01,7.531827250045995958e-01,-1.102334919269439828e-01,3.613830572362083382e-01,2.158441625096595845e-02,1.005630070575696047e-02,9.793183803558349609e-01
5.714095124350709876e-01,5.756761463524434630e-01,3.174765569153881195e-02,1.595366875102754295e-02,-8.883978591258226464e-04,-2.187602924817269937e-03,5.425273776054382324e-01
3.788577512828977811e-01,7.234274701927416729e-01,3.803313967703059184e-02,1.556337770231953910e-02,-1.092373167952625547e-02,7.317171110972157597e-03,5.946198701858520508e-01
5.759521955431441409e-01,5.770675721536295821e-01,1.199761918508995828e-02,1.927895596662799679e-02,4.647513081554284844e-03,-3.062433972831828805e-03,5.655819773674011230e-01
6.233139044933215800e-01,5.129884011322163317e-01,3.481291291672689026e-02,1.402645700048074651e-02,-5.418611903935053806e-03,-1.195597143854065824e-04,5.424544215202331543e-01
5.752914159381080639e-01,6.028925212617042284e-01,5.514840135063148185e-03,5.936571891472894498e-03,-7.084722705296870281e-03,1.329726482495904687e-02,5.847395658493041992e-01
6.028363805627001692e-01,5.483506326925009500e-01,-1.120422787727483049e-01,3.725193193284717652e-01,1.859171287209494469e-02,-1.620106314763835112e-02,9.450956583023071289e-01
6.849952135789527663e-01,5.099157670546536902e-01,5.144828486158603553e-03,1.516723328262021935e-02,-9.996228352188286578e-03,2.415623464725482825e-02,6.136465072631835938e-01
7.641028932005813346e-01,4.459031665250741683e-01,-2.129362532852668854e-02,3.151516728774505505e-01,2.654885923089795804e-02,-2.428695814452469515e-02,8.775144815444946289e-01
6.323028168077091671e-01,6.007488376047851464e-01,-9.630483795729505303e-04,8.082096772939540916e-03,1.599827441601302681e-03,-9.288334906051345582e-03,6.184672117233276367e-01
5.645281036240994421e-01,5.854340484306872483e-01,2.478627299287189389e-02,8.667325470999121678e-03,-7.833677911357837115e-03,9.754869242894264811e-03,5.511234402656555176e-01
8.533441550193323621e-01,3.455189375225621307e-01,-1.223722468713523415e-01,3.082627738868815581e-01,8.055292394661529506e-03,-2.349007747763533129e-03,9.998522996902465820e-01
4.104260101801844862e-01,7.680792096077593278e-01,1.533352684686184464e-02,-7.417742328975256150e-02,-5.386079404374257557e-02,-1.163870045244310737e-02,6.715177893638610840e-01
4.196633420735630393e-01,8.479062067390649160e-01,-3.032430919364098587e-02,2.639164652776399000e-01,-5.446483266197457013e-02,2.670601956913217986e-02,8.936327099800109863e-01
1.997775709362493990e-01,8.759168211957415462e-01,9.639483867604492495e-04,4.115190929355336952e-02,4.742574434993728633e-02,-1.650112171935780997e-02,8.023476600646972656e-01
4.177450127602941876e-01,7.403336047725102009e-01,6.795606074156967935e-04,2.188487551449609658e-01,7.323189113790133653e-02,-9.484383300738812473e-05,7.565187811851501465e-01
3.920756314480593474e-01,6.589143560208678974e-01,1.406506823818765017e-02,1.292394514673600447e-01,4.694199874839526804e-02,-3.551204817852986889e-02,6.127521991729736328e-01
2.099178680939603470e-01,8.938784956046844643e-01,-4.632797501307694965e-02,-4.980557488930499599e-02,-4.179056106957140110e-02,4.605946064807420193e-02,8.530953526496887207e-01
4.643933717112676551e-01,6.887169006070890109e-01,-2.378050496211092657e-03,2.047375109047894215e-02,4.118948285840635243e-02,5.485793462201123604e-04,6.158348321914672852e-01
2.013537014239019929e-01,9.429306757887805368e-01,-1.043739138544325096e-02,-1.237331311466095402e-01,1.129017021485566319e-02,3.987936044329103841e-02,8.960660696029663086e-01
4.236640799102668331e-01,7.234208905442862658e-01,4.821964493542441055e-03,2.551005290460141572e-01,-4.790893617410189181e-02,6.802374739206049070e-02,7.789928913116455078e-01
5.664768808251208210e-01,7.447694311200763195e-01,1.752052040146923062e-02,1.601145953186272619e-02,-3.725614103324269982e-02,1.449477600195105478e-02,6.607416868209838867e-01
4.290796042709141278e-01,6.869376766160049108e-01,1.247527424119043715e-02,4.378701860259665707e-02,3.075510789713693446e-02,-9.162619571873245258e-03,5.969222187995910645e-01
6.159548842519839695e-01,6.138304565372434407e-01,-1.559391720053010522e-02,-8.626412437407786826e-04,-1.023960979757912578e-03,-1.021725853934871186e-03,6.304960250854492188e-01
6.261710851136682576e-01,6.299528645827545681e-01,8.516333191967151439e-03,5.580450948631729413e-03,-4.578361020564134139e-03,2.356219693688698606e-03,6.196938753128051758e-01
1.935573800865548200e-01,7.977067693614280364e-01,-3.921886736732604906e-03,6.547531211977720977e-02,4.989545734873297028e-02,-2.278238337541482750e-02,7.383686900138854980e-01
5.012661230424233505e-01,6.734507392595501241e-01,1.567666693563979363e-02,1.480685687961908435e-02,2.780715255468324131e-04,-8.020358299233009899e-03,5.915290713310241699e-01
4.914787165483309739e-01,6.299105621564540236e-01,3.367148486978188693e-02,-6.938969718324465574e-02,-1.072178258673109211e-03,-4.631031228068857933e-03,5.537495017051696777e-01
7.496427076147280655e-01,7.521866103262841996e-01,8.966193950583967176e-02,-1.508002659647239285e-01,-1.096863383728731434e-01,-1.104541340285352530e-01,7.603787183761596680e-01
4.611599066654304413e-01,6.690642553337762255e-01,1.026059894006653428e-02,7.552384773301869247e-02,8.783332073470984103e-03,-1.276375595662534827e-02,5.984230041503906250e-01
6.368659037605702844e-01,5.919508154720951598e-01,-8.634003885220842278e-03,1.147504507112742569e-03,-8.193131126687822093e-06,1.785817803293283761e-03,6.242662072181701660e-01
5.908937080909258954e-01,5.724120092264624038e-01,2.219129366737265796e-02,9.002216208573049494e-02,-2.691535108705321241e-02,2.280989120644984214e-02,5.842084884643554688e-01
6.266114913962317345e-01,6.258133005363959445e-01,7.126440094139985248e-03,3.681715485997089261e-03,-2.002047968840908829e-03,-1.764963175351615642e-03,6.191364526748657227e-01
6.346076958292218295e-01,6.493794778645712862e-01,5.899150357347393570e-03,1.814949623859484634e-02,2.081246141817249401e-02,-1.718538323629800052e-02,6.387123465538024902e-01
6.193415505679085165e-01,6.178131494661949219e-01,-1.378091753321097901e-02,1.032651422951992755e-03,1.965317187365521381e-03,8.783204901879544972e-04,6.323731541633605957e-01
8.355679996871490101e-01,8.103783533223865021e-01,1.479518725040337435e-01,-6.433654899331972543e-02,-6.554790927208761775e-02,-1.373009158945175112e-01,7.334790229797363281e-01
6.061921678447743655e-01,8.630382298870203917e-01,1.004284389175847392e-01,-7.047471789083085969e-02,-9.282353443305614571e-02,6.291130101719838441e-02,7.101355195045471191e-01
5.065752812381026926e-01,6.342096684258575756e-01,2.725629151318742505e-02,2.481988403715611885e-02,1.470947304515127056e-02,-1.466053249841559221e-02,5.570967793464660645e-01
5.731104845240880818e-01,6.573810152216748026e-01,-8.321368550068930503e-03,6.502850434911794202e-03,1.617635569929214839e-02,-4.395530318767727415e-03,6.285952329635620117e-01
6.163762361560920500e-01,6.306297887160817739e-01,-4.661923872125717239e-03,8.250867758274429194e-04,-1.526655998683017820e-03,1.119518124364467845e-03,6.282963752746582031e-01
6.035046497456725278e-01,7.245926573421295203e-01,2.250930724887878487e-02,3.093809370568706973e-01,-5.145836134167141446e-02,5.972294467290333725e-02,8.534421920776367188e-01
5.843823890978296909e-01,8.416857770265964156e-01,7.625488876082953116e-02,2.197742392450419135e-01,-1.347366320577488008e-01,1.061150218180958171e-01,8.296304941177368164e-01
6.223659970033248445e-01,6.287662526874865376e-01,-1.066417045910506012e-02,-9.897914288753691483e-05,2.121876141841125187e-03,-1.147168143959724626e-03,6.362681984901428223e-01
5.509353375859257218e-01,5.885335323317386624e-01,3.441646159869782284e-02,5.065983496777701905e-03,1.096182327640953663e-03,-8.997345870065877761e-04,5.363847017288208008e-01
6.078516972335298307e-01,7.190773965929879719e-01,6.054475284955751491e-02,2.988129149026357845e-01,-1.110069190367744402e-01,8.609164048678537295e-02,8.365769982337951660e-01
5.916631560167278092e-01,6.020986962555660016e-01,3.578978760414575078e-03,4.746126612124830025e-04,-9.368558109634136108e-04,8.238452184763574507e-03,5.935451388359069824e-01
6.219834948079308035e-01,6.258642845052724279e-01,7.142165352733875761e-03,-2.924484940678463273e-03,5.409663818893275990e-04,-3.197343444515007328e-03,6.168372631072998047e-01
6.869049946126536410e-01,9.477871964479895883e-01,1.360777739081570070e-01,5.847496245192346231e-02,-1.745581174438267102e-01,1.898967497719954503e-02,7.860804796218872070e-01
5.939845400648054996e-01,6.502404083471700069e-01,-9.433734359147738502e-03,-4.162492829816513413e-04,9.576466563916155583e-03,6.173363867862064836e-04,6.336410045623779297e-01
6.172206913275821716e-01,6.304123532456491485e-01,-1.246881873490063297e-02,-9.384465004462543220e-04,-6.681464451613132981e-04,-2.140036603195023552e-03,6.364018321037292480e-01
6.030925119917400767e-01,9.535786165489230637e-01,9.733755829628470968e-02,4.609409235940518240e-02,-1.327195449452708009e-01,3.259829438391736306e-02,7.863167524337768555e-01
4.144536438544740298e-01,7.540397817406108150e-01,4.580314938328372554e-02,4.883733996452209458e-02,-1.447953687346437146e-01,-4.981660083011494981e-03,6.682344675064086914e-01
6.216986325290297932e-01,6.325664180473162812e-01,-7.673116527436407708e-03,9.754910544877685606e-04,6.184879141426636792e-03,-4.187609571674056740e-04,6.349684596061706543e-01
8.256269934118694032e-01,8.868003306216543091e-01,1.300663763706292886e-01,6.166660248682767631e-02,-8.822306001695948141e-02,3.704406779439116393e-02,7.543020248413085938e-01
5.995232114594772899e-01,6.683324650913350373e-01,9.996813619671307549e-03,2.368358693782332200e-02,-2.927320682808403143e-02,1.412221826167062676e-02,6.306288838386535645e-01
5.733655832397044350e-01,8.682696300236546483e-01,7.915802543563360549e-02,1.297336845003042582e-01,-1.211961324717730909e-01,4.703336009086761527e-02,7.603602409362792969e-01
6.267033356897968588e-01,6.298985300583791469e-01,8.565771091659957204e-03,7.757280937221741265e-03,-7.939778940984387398e-03,2.838008672714293495e-03,6.200589537620544434e-01
7.526652110416829355e-01,8.784334604934327384e-01,1.376745717190331342e-01,-4.567104069194789784e-02,-1.614851740798364521e-01,-5.239745082061422060e-02,7.510684728622436523e-01
6.244999485388811333e-01,6.310728932824928306e-01,1.780379924181135776e-02,3.838294617497329327e-04,8.141366702022234322e-03,3.372911988164947685e-04,6.101728081703186035e-01
5.939312686513350537e-01,5.996831250538849911e-01,3.565908858157162964e-03,1.901701499179293386e-03,-1.514524191968279546e-03,7.171134525133707367e-03,5.934071540832519531e-01
6.079725999945031489e-01,6.133619737528411830e-01,-5.443862565988610847e-04,2.370838393441265096e-02,-2.241586960145391938e-02,2.699286439193059051e-02,6.156143546104431152e-01
2.536563947159785060e-01,7.654111385857418348e-01,4.013749149514966863e-03,1.440555680595716204e-01,-1.391273677466387405e-03,3.761811835717947423e-03,7.171292901039123535e-01
5.895755713101407114e-01,5.970364458857383427e-01,2.066284731010281650e-03,2.354461161087454107e-03,-7.464310546036545015e-03,1.671896757450209298e-03,5.914375185966491699e-01
6.972720019395307611e-01,6.193160309797434149e-01,3.660760138380986239e-02,-9.255961587037461746e-02,-5.849112328604990502e-03,-4.434166061990502117e-02,6.501960158348083496e-01
6.142431530606924373e-01,6.284138729550767799e-01,-3.221490126112891428e-03,1.627497158136417821e-02,-1.956098950299338043e-02,1.149569253798657376e-02,6.265399456024169922e-01
4.800904173196892666e-01,6.336448688163904830e-01,3.084396635127373276e-02,3.509223359237973600e-02,-9.747351994144461216e-04,5.778570000826636736e-03,5.460609197616577148e-01
2.486839158713347320e-01,9.950603081212476830e-01,-4.391632191015482078e-02,4.356859536662941595e-02,-6.688847117131371811e-02,-7.046729659039188513e-04,9.381902217864990234e-01
3.568928443034766196e-01,8.653784314451420379e-01,-5.555091146684676406e-03,2.004338791638069217e-01,-8.487930025541462475e-02,5.189149643414260604e-02,8.511395454406738281e-01
4.541209425200597449e-01,7.283876918091967134e-01,-5.595793979061958190e-03,7.724104809793057129e-03,-6.820681373489785593e-02,2.513708770705686685e-03,6.533002257347106934e-01
6.242725389912155975e-01,6.245782040208376351e-01,3.491291572619231731e-02,-1.414097786079419666e-03,-1.181601087871883386e-02,-4.962306550356857839e-03,5.899353623390197754e-01
4.572736999343702258e-01,6.886486915867990888e-01,1.942392732190112437e-02,7.785552149681488829e-03,-6.371568841121744153e-02,6.364699640556430518e-03,5.991967320442199707e-01
6.286177862153875529e-01,6.309200754608238482e-01,2.358482182915344616e-03,6.007259627633747094e-03,7.591908575202007629e-04,-1.825251208451070164e-03,6.275092363357543945e-01
6.609900711988957456e-01,7.228924976006616543e-01,6.924988231544071393e-02,8.354163783917106095e-03,1.641484856012218703e-03,-7.486351356327036917e-03,6.253032088279724121e-01
6.981373128906172010e-01,3.974075198136787779e-01,3.668420901759711361e-02,6.738142038699629355e-03,-9.289400230587952769e-04,1.558882785319124636e-02,5.743759870529174805e-01
9.239906614480427605e-01,2.585349446660599737e-01,-9.865968423443721713e-02,1.614329199385993452e-01,2.128041504144005669e-02,-1.592238242630246089e-02,9.425590038299560547e-01
7.014347594074759051e-01,4.090735736489382601e-01,2.914736127802097787e-02,-4.493290804388859819e-03,-1.422871947464032175e-03,-2.845208027359451622e-03,5.839397311210632324e-01
6.404062541006696474e-01,5.432887208976358018e-01,-2.687580424726165873e-04,-3.004179917702627916e-04,7.923484677413996161e-03,1.050999868507714692e-03,5.982202291488647461e-01
6.490635021481713229e-01,6.437953461950307599e-01,1.226891588697028856e-01,5.138641531741220715e-03,-9.059573202182551535e-03,2.007854123514676153e-02,5.252233743667602539e-01
6.202711099240276749e-01,6.103152537160851931e-01,-1.291535410312599774e-02,-7.204311278752630054e-04,-5.472371779094066351e-03,-3.211413561961171375e-03,6.283650398254394531e-01
6.050236872482617212e-01,6.088398717877328004e-01,-8.013656889666265215e-03,-1.638687672641550802e-05,1.485769777143604743e-03,4.680973610184288244e-03,6.150131225585937500e-01
6.189522686733314183e-01,6.166869823111509330e-01,-1.395501370237617333e-02,2.026635715203210667e-04,1.855703064143481539e-03,5.922644331383109233e-04,6.317867636680603027e-01
6.232083311529411640e-01,6.064766568736930097e-01,-9.363413141737442213e-03,-2.196741342924883958e-04,8.536650031595363272e-03,-2.471538268073407017e-04,6.245493888854980469e-01
3.956025174225868413e-01,7.345973646801005064e-01,2.886377575305604237e-02,-4.981551335121767177e-02,-5.373062752546153842e-02,-1.119067311042524528e-02,6.246749162673950195e-01
6.391404121911222758e-01,6.276135238995513843e-01,2.380623916383578509e-02,-1.915500232071732159e-02,1.845569703542810573e-04,6.556858944263371097e-03,6.106602549552917480e-01
6.268884973704726971e-01,6.221810980791611101e-01,5.106703265934875446e-03,-2.341982771570724244e-03,2.768742975893664741e-03,-1.434846282428873078e-03,6.194783449172973633e-01
6.171052847003519748e-01,6.150851592671603418e-01,-1.543938118845195051e-02,6.905440173549413441e-04,7.128877420702286636e-04,-8.008584096286591129e-04,6.315408945083618164e-01
4.618475174350860080e-01,6.810753235070141631e-01,3.292694360843367862e-02,-6.287153413951818148e-02,6.498164935609772666e-03,1.291160964533577538e-03,5.814251303672790527e-01
6.389640141813067720e-01,6.084491872312705052e-01,-9.290040824305068057e-03,-1.111995560169027220e-03,5.867391909749873104e-04,-8.432901114389251135e-03,6.337200999259948730e-01
6.115951382412948556e-01,6.071517369716292745e-01,-9.128907687243892344e-03,-2.262665896922361978e-03,5.330341219690666425e-03,-4.878942407407613657e-04,6.185961961746215820e-01
4.637938841905549503e-01,6.632028583015584511e-01,3.282895978394673175e-02,-1.681409623208654155e-02,2.010016985453781831e-03,5.325820515515413550e-03,5.589081645011901855e-01
4.772475854985192001e-01,6.304683846668319713e-01,3.098323478224140892e-02,-4.037515654561144030e-02,2.216460488383929610e-03,4.726152876346359152e-03,5.440382957458496094e-01
5.996591592730667886e-01,6.147544959563393530e-01,4.637437391663001840e-04,-4.211682443628392281e-02,2.191235273454238824e-02,2.650043617960071846e-02,6.141472458839416504e-01
3.689037841640142590e-01,7.238342352390699785e-01,2.399116453787680792e-02,-1.422788006614075229e-01,1.184898254142692092e-01,4.126518090064151822e-02,6.894331574440002441e-01
3.518662844157177116e-01,7.101598070300760845e-01,1.906577922422042493e-02,-2.111218721147208321e-01,5.008704183257810250e-02,8.483943423205780182e-03,7.069866061210632324e-01
6.049980051769707767e-01,6.305439979965413722e-01,-9.663598933632000509e-03,7.347438927450139663e-03,-8.177453757891247482e-03,9.371468941173839370e-03,6.283228993415832520e-01
7.066512517280828520e-01,6.491467731653456363e-01,9.918683932690897098e-02,-2.848428507567098839e-02,2.334227022210437832e-02,2.609029694274271963e-02,5.860875248908996582e-01
6.911394654839680962e-01,6.994575073485251870e-01,9.274457030881905206e-02,9.103295786786785859e-03,9.776557176799444832e-03,-2.863285165550067887e-02,6.050768494606018066e-01
6.358277300688198741e-01,6.372125531626874340e-01,1.489469586604931228e-01,5.250473837039455402e-03,5.394771472847754469e-03,2.882115877134047016e-03,4.877745211124420166e-01
5.815687897984166410e-01,6.447748994992237304e-01,9.425140245347507495e-02,-2.609208899031587731e-02,1.470398402316382309e-02,1.468594183236840607e-02,5.249882936477661133e-01
6.251335140470017926e-01,6.377778705268755122e-01,6.165352915631100439e-02,1.322116184417039498e-03,-9.280039570387628098e-03,-1.382452653244176620e-02,5.706412196159362793e-01
6.249978101471531655e-01,6.230534360663844140e-01,7.276484208324907055e-02,-4.234831203557855132e-03,-1.062168630446744255e-02,4.634702890329036283e-04,5.516195893287658691e-01
6.370440841298655732e-01,6.258951135496236828e-01,9.684860554091129226e-02,-2.441110239835025345e-03,-6.499637684455748972e-03,-8.531878948308015131e-03,5.350474715232849121e-01
6.034253840485555020e-01,5.364484748676409120e-01,2.093180055746796109e-02,-2.060807446454275896e-02,-1.709241136967352623e-02,-1.126034645465571853e-02,5.543482303619384766e-01
6.206139684661459155e-01,6.257137680169650995e-01,-1.044851494393844726e-02,-3.389534140260058379e-03,-3.983936077396546191e-03,3.998577230785199665e-03,6.337304115295410156e-01
3.275233936033758453e-01,7.377844758092040323e-01,7.479067010727258324e-03,7.446350608716664765e-02,3.575386975011432544e-03,-5.943459771129599306e-03,6.471653580665588379e-01
3.483558638206582514e-01,7.424402208352538501e-01,1.945400925501133971e-02,5.899107736555496417e-02,7.461195452611983636e-02,-5.750690266168274195e-03,6.483315825462341309e-01
1.992980669218146761e-01,7.736858155668151493e-01,-1.081990769660085561e-01,2.074258780855993134e-01,1.057680775357386707e-02,-6.316097965584502316e-02,8.616718649864196777e-01
6.135272130648752320e-01,6.153266965119166265e-01,-1.479816240836562269e-02,-8.767693642828013056e-04,-2.736318853828775038e-05,-2.671227512027275265e-04,6.292290687561035156e-01
6.139522806630205443e-01,6.168097557985683377e-01,-1.112608357521432945e-02,-3.353616779392564178e-03,5.566209247488363050e-03,7.357660394258040519e-03,6.267426609992980957e-01
6.240576539402759026e-01,6.041268536511610332e-01,-8.726857791237219164e-03,2.796017137632837561e-04,-8.404387377195999403e-03,5.749744932360047883e-04,6.232292652130126953e-01
9.393680821079694598e-02,8.607799473225142828e-01,-2.599704240885419848e-02,-7.756374179600672783e-03,-1.799140142076601293e-02,-4.291923279244690310e-03,8.340322375297546387e-01
4.232196801698291377e-01,7.279347982137844841e-01,-1.580081301670177574e-02,-1.601578444677351776e-01,-6.467059602438096633e-02,-5.832963979162889001e-02,7.204664945602416992e-01
6.446506148119970359e-01,6.508187935991169848e-01,3.759259647507723345e-02,5.524875751725505900e-03,3.065351918874101387e-03,-4.774314874393783062e-03,6.103196740150451660e-01
6.217498799075036331e-01,6.338601434776677257e-01,1.890334847592900491e-02,1.142200837850979901e-03,-5.246333536493927134e-03,-3.163198715045785914e-03,6.090876460075378418e-01
5.993833879147010268e-01,6.456841361471358232e-01,-7.221409463971151244e-03,7.398193354596649743e-03,-5.938710358526976159e-03,8.444529542992899873e-03,6.314137578010559082e-01
6.255311983390725583e-01,6.318008298854786986e-01,-3.957063505327207409e-03,-3.272638123645439396e-03,-6.488156379936602276e-03,6.505651820744315708e-03,6.328718662261962891e-01
6.978865357595570584e-01,7.423040632621322743e-01,1.151477941557161322e-01,2.748809262724526484e-02,1.000736933275949148e-01,8.784151482308880099e-02,6.503080725669860840e-01
4.516798029470684983e-01,6.689522764930715404e-01,1.636441492080287219e-02,-4.232118113672320853e-02,-1.572812859766387766e-02,-2.497193717477337507e-03,5.808811783790588379e-01
6.022113493831644515e-01,6.352731509920067632e-01,-1.012218308380019582e-02,9.378891207833315972e-04,3.075858654220443335e-04,4.773644602176785497e-03,6.295725107192993164e-01
6.141380715300364113e-01,6.135911578401027633e-01,-1.473077361321195600e-02,6.240174359295195183e-04,-1.798885007797936734e-04,-9.322480319941871892e-05,6.285966038703918457e-01
6.187780689297011083e-01,6.533271942669053312e-01,3.385409223992014160e-02,6.417303129961915431e-03,-2.391543252447979936e-03,-3.832329881471561311e-03,6.030945777893066406e-01
5.325831626629123905e-01,6.006194878089082811e-01,3.698131317698200027e-02,2.834084413723687509e-02,3.003106059635263052e-03,3.681557651584528319e-03,5.352068543434143066e-01
5.333901118527427654e-01,5.864313936533132043e-01,3.002230496855656794e-02,2.168108419074848275e-02,1.860189494454783047e-03,-6.043401284901179366e-03,5.333122611045837402e-01
6.129919520516982079e-01,6.155628818928128299e-01,-1.508468566953402590e-02,1.041458457800073338e-03,-2.078128272734683249e-04,-3.723465374740389782e-04,6.293690800666809082e-01
5.098911965986558936e-01,5.445122071049414147e-01,3.208484531150074259e-02,1.475636649040002468e-01,-2.409486221374944163e-03,-5.694719147603668867e-03,5.581034421920776367e-01
4.084563091071444219e-01,6.839792887764863938e-01,1.002765888904444402e-02,-5.162674898178941374e-02,-4.802317691264941513e-02,-2.785868477404020854e-02,6.013963222503662109e-01
5.895748685321697824e-01,5.873316590144564975e-01,-1.651006679105837538e-03,-6.374659141517033389e-02,4.386529711294064743e-02,4.629539947732013577e-02,6.104260683059692383e-01
6.057495468945104378e-01,6.015473194435461135e-01,-1.041586457597998283e-03,-2.380699880286929297e-03,5.846887832953451269e-03,3.254003069679737778e-03,6.048260927200317383e-01
6.045401253309823364e-01,5.694340065910284965e-01,4.604738168180855240e-03,1.358974562717556525e-02,1.762581315698522055e-02,-1.121846025157580834e-02,5.847709774971008301e-01
5.416201928799666554e-01,5.996266297202722528e-01,3.546372501037403646e-02,3.969855740537224509e-02,-1.045466412035204887e-03,-2.876469456483809507e-03,5.419183373451232910e-01
6.235537133891102535e-01,6.223959541860173417e-01,-9.969531981089962969e-03,-1.982096709478964758e-03,-3.208964897698323143e-03,2.576438399196673886e-03,6.329945921897888184e-01
6.143103487767203053e-01,6.135666352191692097e-01,-1.414765553489111261e-02,-5.132504431291753152e-04,2.366562396825340660e-04,-2.152164771906975272e-04,6.280873417854309082e-01
6.126336499430434790e-01,5.832579089109302117e-01,3.077941478980550372e-03,8.106695784118359352e-03,1.136517224733488152e-02,-8.455218364552441641e-04,5.959041714668273926e-01
6.207322962037331582e-01,6.164412554030963554e-01,-1.294342161491196519e-02,-1.160091499323880450e-03,-1.198513351726470440e-03,-2.759467846248266488e-04,6.315479278564453125e-01
6.144252702623667073e-01,5.932605003011713896e-01,5.306971726673270773e-03,-1.215043934614872326e-02,1.523722579544059888e-02,9.790245031676234055e-03,6.000068187713623047e-01
4.676204510467979469e-01,6.239668764911965315e-01,3.274373614030007262e-02,6.941227479009584589e-02,1.320684164741150850e-02,-1.666257661128780695e-02,5.453106760978698730e-01
3.756372560341614819e-01,7.343045246469221965e-01,1.864136353531692381e-02,1.047506952067244201e-01,3.683641653445493547e-02,-1.385487337084439705e-03,6.489419341087341309e-01
5.484559271257710700e-01,6.607597393696051924e-01,-2.754269339171611097e-03,3.025220627008806760e-03,3.954472521090430896e-03,2.943428706470796463e-03,6.151814460754394531e-01
4.649760107391991970e-01,5.122002790514197379e-01,4.007778853005167230e-02,-3.018905426364769662e-01,9.997324914352606617e-02,4.360086855725531230e-02,7.154962420463562012e-01
2.074725493360356776e-01,8.616536194337508503e-01,-4.114997744189330398e-03,-6.972456724609212009e-02,6.620550570369924948e-02,3.245502312966195430e-02,8.012694716453552246e-01
4.813843678040879981e-01,7.054434161262881364e-01,4.521384977918263548e-03,3.718495938895632208e-02,5.195250273766853499e-02,-2.230337532354581195e-02,6.310181617736816406e-01
5.964475724677429369e-01,6.314625644335597476e-01,-1.049955851779577065e-02,-2.099319695965569561e-03,7.493857428770328739e-04,-5.416298432556049952e-03,6.252727508544921875e-01
5.592698207374640074e-01,5.721397397700024312e-01,3.062630821800549352e-02,-1.288816492617656830e-02,-1.602905503275164553e-03,-8.931405674943270877e-04,5.356693267822265625e-01
5.448406326166379543e-01,7.139958161147639260e-01,-4.540068728641932783e-03,5.668600732732159697e-02,5.550145851685966275e-02,-2.109479557686763304e-02,6.660175323486328125e-01
3.772483087978631966e-01,7.332040145484224336e-01,4.870986649745623343e-02,4.211112366746809499e-02,1.191996319004059446e-01,4.367207699748713520e-03,6.321313381195068359e-01
5.423700527839356855e-01,7.097046905046419107e-01,5.496082653102052351e-02,1.001651850487235429e-01,7.441622786295433445e-02,-3.962122095590667192e-02,6.313090324401855469e-01
2.564612143990265825e-01,8.203081465949904061e-01,1.619448361755704280e-02,7.974022604208236276e-03,4.370814184357185717e-02,-7.220031151436421581e-03,7.191686034202575684e-01
3.293346749757398717e-01,7.539592622392434773e-01,4.980717237544884934e-02,-1.384642588774327200e-02,-1.021932504500547290e-01,2.058129490946531207e-02,6.405562162399291992e-01
5.340690896789888065e-01,7.641000104908635127e-01,6.451180495255504077e-04,-1.323212510640877845e-02,-4.201474322542837064e-02,8.016272308208479205e-03,6.827687025070190430e-01
6.164959743189408758e-01,6.149814098687896857e-01,-1.493761201479149037e-02,-4.415103561054751244e-04,-1.761645917372929191e-03,1.832795235046047694e-04,6.306855678558349609e-01
6.122101329853918417e-01,6.123168273525705363e-01,-1.229615303592646036e-02,1.008160009402471339e-03,-3.006278511263334868e-03,1.616690846416691347e-03,6.245900392532348633e-01
4.255240653645778748e-01,6.953765554301294394e-01,2.259329375338198220e-02,-3.369099030020499506e-03,-3.531027511537176977e-02,-5.114624376792637796e-03,5.897104740142822266e-01
5.138877425666085186e-01,6.682503489294069343e-01,-3.811516921594260143e-03,4.008117517505346145e-03,-3.105043074360365127e-02,-6.114299241823368744e-03,6.122143864631652832e-01
6.217947274408524017e-01,6.256075941341920910e-01,1.149595409461412476e-02,3.265447971757955451e-04,2.053728400584167724e-03,-1.021147871281652235e-02,6.124801635742187500e-01
6.246490443415823046e-01,6.259517734722330751e-01,3.326937023652681846e-02,-2.916237857499863560e-03,2.689180467171156576e-03,-6.517675822684392516e-03,5.921795964241027832e-01
5.327613947463429867e-01,6.508611375473283278e-01,1.926349873279165070e-03,-8.506011247558661892e-03,-1.400255967719900817e-02,-1.356638011181995375e-02,5.998185276985168457e-01
4.619123270905581835e-01,6.930657649664639930e-01,-8.720556684044145079e-03,6.013922148228378894e-03,-7.084393562856142190e-02,-4.187809196907294959e-03,6.316117048263549805e-01
6.167344634436853212e-01,6.155383651547663426e-01,-1.318452067593256505e-02,-7.153565615385088340e-04,-2.580051835309446484e-03,-3.401081039643723443e-03,6.293664574623107910e-01
6.236492417392902610e-01,6.167389699104544043e-01,-1.433683090290560624e-02,1.063648569216015189e-03,-3.010291140745677708e-03,1.555774656989000477e-04,6.345832943916320801e-01
9.508280548205585436e-01,2.498205926230059326e-01,-9.544680592952803355e-02,-1.514538605687217043e-01,-1.542709063879987852e-03,-3.250426963279936382e-02,9.615859985351562500e-01
6.280920137506451617e-01,6.250858232779085144e-01,1.202263558360283646e-04,-5.736689570509466603e-03,5.190430475708844929e-03,-5.105850790958413668e-03,6.266797780990600586e-01
6.359870362530868348e-01,5.542888717169960344e-01,1.282994229308620504e-02,5.428201767114304577e-02,1.188829828988775122e-02,-1.441954112442292608e-02,5.949587821960449219e-01
6.640426785989903546e-01,4.881890100097592833e-01,2.619896738720839391e-02,-6.463280496084485016e-02,-1.789718974159286088e-02,-2.164081923005424860e-02,5.835238099098205566e-01
7.325928669272530058e-01,2.951389174908172763e-01,1.306862752167847752e-02,-1.293305504530720407e-01,-1.378883612144070868e-02,-8.889953792542035216e-02,6.846760511398315430e-01
6.951271437281911769e-01,3.942572178553366835e-01,2.777379264417778604e-02,-5.548808780690744902e-02,-9.633478013768737025e-03,-2.557014034610084405e-02,5.887048244476318359e-01
7.074762733565225226e-01,4.418461309875141851e-01,2.153987465843210103e-02,-1.797005840955553935e-02,4.525030004096748312e-05,-3.085882468828380840e-02,6.022360920906066895e-01
7.934579160740922177e-01,1.545629651192897414e-01,-1.149414988188174336e-02,-1.291026203355072691e-02,-7.553258709240276945e-03,-1.711135243738579753e-02,7.371596693992614746e-01
4.478049199564985150e-01,6.583308688288871391e-01,2.007900089787773013e-02,3.647824370927481297e-02,2.689531951069570881e-02,-1.376721798661544212e-02,5.692527890205383301e-01
6.360826846235168031e-01,6.079397136008668490e-01,-8.778425549261392735e-03,9.780742103806319698e-04,1.923974124928154255e-04,-7.396549587373089929e-03,6.313926577568054199e-01
5.186210711995071776e-01,5.882721880564673045e-01,2.853413143577132605e-02,-6.084009889236525331e-02,3.719960074776013786e-02,2.678792157837000046e-02,5.445919036865234375e-01
7.130921344022984609e-01,4.176601667039238075e-01,4.260917170608830018e-02,2.534954513288710520e-02,-6.393072599534274734e-04,-8.764928941889117003e-03,5.838705897331237793e-01
6.418562582146886131e-01,3.412659637300817228e-01,7.362843287616438470e-03,-3.386300631320866561e-01,4.550318898151426740e-03,4.321644548086945453e-02,8.073970079421997070e-01
7.850314593577798483e-01,3.169681702575606885e-01,-5.225354337560106366e-03,-1.388957586194452254e-01,-3.455158770781868727e-03,1.571408500194343069e-02,7.296242713928222656e-01
6.329718746258365947e-01,5.246185012930679736e-01,-1.038377000534434491e-01,-4.082023429004606463e-01,3.575811129720208453e-02,2.353184557337902397e-02,9.900392293930053711e-01
6.031887248141558633e-01,6.182396606199320743e-01,-1.002847706627890689e-02,1.208629020669691346e-03,2.956160473453782250e-04,-8.173118963191425973e-03,6.210446357727050781e-01
5.875747894970105856e-01,5.778778803108429729e-01,1.866703046750339823e-02,5.346351389568753179e-03,7.182144292786581986e-03,-1.909337571179402704e-03,5.643446445465087891e-01
5.347431292986654094e-01,6.664238841820251391e-01,-5.654161564674575757e-03,5.051728458892725156e-03,-1.857264174417350838e-02,-8.468000628354985931e-03,6.179445385932922363e-01
8.070154228731796220e-01,2.051077382776265723e-01,-6.813997711144326175e-03,-1.506940474493514634e-02,3.976200798032571496e-03,3.376204230740896539e-02,7.341044545173645020e-01
7.287208638461153409e-01,3.226037509715022900e-01,3.042997010342907149e-02,1.417100143228065823e-02,2.056593443010564220e-03,1.159751161238354450e-02,6.082533001899719238e-01
4.475698930859670077e-01,6.993502675494061016e-01,-1.071864363862939928e-02,-9.374747245591484590e-02,-4.719307149211307562e-02,-3.865003511361612965e-02,6.529461145401000977e-01
7.411661800310398451e-01,3.743644223461449760e-01,1.377713895387738807e-02,-7.674129760691179337e-03,1.435019660083978327e-02,6.275493483741727274e-02,6.398748159408569336e-01
7.404103101924899288e-01,4.590844254725667817e-01,-9.614670532105573653e-03,8.212798100103459176e-02,-2.569316769744875439e-02,6.074455782245576779e-02,6.811500787734985352e-01
5.134254740276452678e-01,6.579955940626003308e-01,1.906562570383241173e-02,-6.605106287377577809e-03,1.802754475758251967e-03,9.249263330681585168e-03,5.806540250778198242e-01
6.587795572720611670e-01,4.517862028765755045e-01,1.841187927709869721e-02,6.302129355224164384e-03,-2.730541995959379162e-03,2.699125040186380053e-02,5.680601000785827637e-01
7.746268782108753914e-01,4.992159147232736460e-01,7.024782536816837064e-02,-2.233672833660175529e-03,-5.156305131700189559e-02,-1.881880934332652300e-01,7.016001939773559570e-01
7.189765129737936133e-01,7.818257147592122536e-01,7.756386424859135209e-02,-1.726936586480682378e-01,-9.223251942838181505e-02,-1.052004428945845088e-01,7.770866751670837402e-01
6.893883349288355555e-01,7.773521730635719607e-01,1.138245249124281711e-01,6.054416694526780496e-02,-1.709331220783057992e-01,-6.160573094044598935e-02,7.068784236907958984e-01
5.927250071581705582e-01,5.691838159470070657e-01,1.868423298878363337e-02,-5.479127449621703019e-03,-6.905770646641636382e-03,-2.052462452744828730e-03,5.628580451011657715e-01
6.671261318567948129e-01,8.212239491141377634e-01,1.101312894376098583e-01,-1.340117331074782148e-01,-1.182133861669801000e-01,-7.607468478473695950e-02,7.300574183464050293e-01
6.091701493237235976e-01,6.012224048837729873e-01,-2.314234787466340482e-03,-1.267518892485264542e-03,-6.142432103408892313e-03,-3.084101258769580967e-03,6.076700687408447266e-01
6.165103779030051134e-01,6.309376809586398904e-01,-1.177822805165423814e-02,1.165905590224001033e-03,2.660054193077371169e-04,-2.223657408080445715e-03,6.356400847434997559e-01
6.191505452109065111e-01,6.277076040495621623e-01,-1.085573766368858051e-02,7.653704788896537612e-04,-1.280506941121290322e-03,-2.450629153933214441e-03,6.343475580215454102e-01
6.238528869822873579e-01,5.141774985403735343e-01,3.685156141658080253e-02,1.508442971893865329e-02,5.898003533170327085e-03,-8.308335632683445156e-04,5.413028001785278320e-01
6.251986180562181250e-01,4.732844063703213200e-01,3.297816843924278318e-02,1.532755504660229112e-02,3.632943568375419235e-03,-2.373609970138277833e-02,5.350428819656372070e-01
6.423883699926749014e-01,5.139170544896792814e-01,3.473430156562645754e-02,5.979329419402472368e-02,-1.201897271077445942e-02,4.696576981687569825e-03,5.647189617156982422e-01
5.785590327572123215e-01,5.752451387879087275e-01,2.566249050530389209e-02,2.434411990039344383e-03,4.101174796814101645e-03,-2.276417354226288690e-03,5.513230562210083008e-01
6.901907396552596774e-01,4.413547507669912107e-01,1.420269341758167991e-02,-2.366428287799343319e-02,-1.412721363635593974e-02,-3.771824283658129634e-02,5.976753234863281250e-01
4.847296627864646212e-01,6.614348867146278010e-01,1.720199010234485515e-02,1.190029214481796820e-02,3.047532223949079699e-03,-1.155648033717079741e-02,5.772995948791503906e-01
5.345675232417417266e-01,6.025787408922493871e-01,3.554546488590942799e-02,2.363842921130452149e-02,-4.204663583356373600e-03,3.968328878152032127e-03,5.379258990287780762e-01
6.172609016662580217e-01,6.330810499822169257e-01,4.211984638527566105e-03,1.256036295262156002e-02,3.828508275277693867e-03,3.260870209156317621e-06,6.215263605117797852e-01
6.070674800264346249e-01,5.312854488955239818e-01,2.489379818602538430e-02,1.828589997693816707e-02,1.815091790809744005e-02,-1.332191893820441550e-02,5.505222082138061523e-01
4.251322272697345972e-01,6.749765889974163047e-01,1.990616183286664231e-03,2.524835773570964226e-01,-1.214862515207151654e-02,3.844281194704057131e-02,7.370961904525756836e-01
5.103535010610441569e-01,6.227071578895356785e-01,1.836470042543064674e-02,1.155380139163602292e-02,1.929794538151220881e-04,1.328540201087440378e-02,5.575689673423767090e-01
5.467125510925794352e-01,6.037596011388741690e-01,2.020413951045557654e-02,3.335771633235459777e-02,-5.038985883378392953e-04,1.216960081673396955e-02,5.606108307838439941e-01
4.151164706478762123e-01,6.815109024207410826e-01,3.797254602185518024e-02,2.606248720612386674e-02,1.151033497883438214e-02,-7.633238702267825578e-04,5.622361898422241211e-01
5.838696200771105183e-01,5.618117025941704590e-01,2.509874552662216818e-02,8.773136524965799085e-03,9.449480892982881769e-03,-7.494540984367569283e-03,5.486833453178405762e-01
5.464491794309676020e-01,6.226559275381122749e-01,2.035502709624137374e-02,9.488311823616099941e-03,1.012888996592396914e-03,-1.201726949212466970e-02,5.686658620834350586e-01
5.544156246635271179e-01,6.002787539265120875e-01,1.898759126453397617e-02,1.427668395303770960e-02,1.117100739631481706e-03,-1.179540054749417428e-02,5.606920719146728516e-01
1.811358142918930714e-01,8.529992734961518996e-01,-1.230788055535674275e-01,1.282805080521645658e-01,-3.659935851845109306e-02,4.393881831027894591e-03,8.954226970672607422e-01
2.582760019164699328e-01,8.830432220416818412e-01,-1.292667552768962946e-01,2.218018563717233937e-01,-1.138131079037151168e-02,-3.358133666807542900e-03,9.647062420845031738e-01
6.036072829300509479e-01,5.612462742959697382e-01,1.854644195741322887e-02,1.787721654375769992e-02,-1.182069718665855994e-02,1.533321278760851674e-03,5.662966370582580566e-01
4.441700263051168718e-01,6.897980266974295116e-01,2.189475974342952602e-02,7.559593749244427653e-03,-2.455840950035716522e-02,8.542578223997059073e-03,5.870024561882019043e-01
4.737584703059634084e-01,6.382097468575932409e-01,3.236400797993704836e-02,3.575860188604373935e-02,1.501768828908028267e-03,-5.717145777848143401e-03,5.462618470191955566e-01
1.151641373464920015e-01,8.922919865867252609e-01,-1.395969072014687229e-01,-8.581233915500960374e-03,-2.952371787203094886e-02,-2.759056068284084992e-02,9.337731599807739258e-01
8.934550117139312686e-01,4.001286289464444645e-01,-7.841680814182572234e-03,-2.027306494965150363e-01,-2.077091766571064965e-02,-8.833259315262155520e-02,8.712488412857055664e-01
5.883743705319843809e-01,5.907969201584926111e-01,1.231630438196085198e-02,-7.157549155655869733e-04,-3.587284222058924246e-03,-5.734159835916601521e-03,5.773933529853820801e-01
6.229628725313220983e-01,5.453948784528115379e-01,1.567591113077793086e-02,-9.521380224552707452e-03,-1.142386833470440503e-02,-1.760124566037417739e-03,5.730453729629516602e-01
7.149488699172817929e-01,5.283109529392443493e-01,-2.118982266548463667e-02,-2.863365885286594525e-01,-2.487073113825944912e-02,-3.026616421600653029e-02,8.306095600128173828e-01
6.148186180780416121e-01,6.154014219432634158e-01,-1.215522270972085872e-02,1.734889875978438099e-03,-5.165971736417833068e-03,-3.694080361112612228e-03,6.273691058158874512e-01
6.159427269777453251e-01,6.197015365338325310e-01,-1.446016433394547995e-02,4.068735498259897290e-04,-1.381991556198205063e-03,-2.794790778930130587e-03,6.323141455650329590e-01
6.098850410926861532e-01,6.042903894757107874e-01,-8.912833575791812013e-03,-5.999221189277898370e-04,-5.264336648877671748e-03,-1.242350621349349715e-03,6.160917282104492188e-01
4.744745755222800065e-01,6.590148225104829338e-01,3.689114022642031587e-02,-1.475009420538120689e-02,8.863795720783291176e-04,5.310137755808609639e-03,5.540990829467773438e-01
6.062901122945737464e-01,6.259785775183676071e-01,-1.017209094526683177e-02,4.003547333544487915e-04,-3.473321889089485436e-04,-7.577897294266273780e-03,6.266766190528869629e-01
8.822070236591189607e-02,8.723236699309701025e-01,-4.713868455453718020e-02,-4.345049022185498711e-02,-5.491698433256510248e-02,-7.622092179289383269e-03,8.684244751930236816e-01
3.499044858943062830e-01,9.652558446674606163e-01,1.043162554127896602e-03,-9.151274400553606470e-02,-8.264403106753120953e-02,-1.334314189597923458e-02,8.724573254585266113e-01
3.902501450596864707e-01,7.625567862058378887e-01,2.373010945837922270e-02,-6.479858196868200360e-02,-5.136796646439420466e-02,-1.443952286589232289e-02,6.561593413352966309e-01
4.871556230888891559e-01,6.564565858080608773e-01,2.618380650637958107e-02,-1.199750307142290716e-02,-1.994931056317085505e-02,-1.430422867164771010e-02,5.669571161270141602e-01
6.208971898619285446e-01,6.166792550644288884e-01,-1.478210718009170810e-02,-8.536585598657233124e-04,-1.088653109426762980e-03,1.343503748456752970e-03,6.335896849632263184e-01
6.205909069002080169e-01,6.197000262474444687e-01,-1.468295408416891989e-02,-1.589274383505055732e-03,-2.322488310061528258e-03,2.509938414077997337e-03,6.348624825477600098e-01
5.637050410495493269e-01,6.118728695662856154e-01,5.879001413026108125e-03,-5.507713662715793719e-03,-1.226281153792937312e-02,-1.582344147022499842e-02,5.845105648040771484e-01
3.568717413232436741e-01,5.528059725306865291e-01,-2.442600675031714186e-02,-3.215301211845405516e-01,1.163449839152480396e-02,-4.236696599401798893e-03,7.543820142745971680e-01
5.903868706931006960e-01,5.622731633080428892e-01,1.192685451852237843e-02,-4.273519649520371444e-02,-2.458425478677980433e-02,-3.241075156959101478e-02,5.740967988967895508e-01
4.590115945640230177e-01,5.646761531493478259e-01,2.334301681165246167e-02,-1.928997044717466469e-01,-9.054167123731754127e-03,-5.382570945611549716e-03,5.991415381431579590e-01
6.171555744087624529e-01,6.052091509237431666e-01,-1.288929204728950229e-03,-2.755687322564671915e-02,-2.501742011543709940e-02,-2.000034681924113197e-02,6.169148683547973633e-01
5.963755308909284292e-01,5.586536086145087454e-01,1.164342265006546029e-02,-1.866622352662131168e-02,-1.204093226976723531e-02,-6.557460649487116197e-03,5.682311058044433594e-01
6.250689398230901972e-01,5.960972941259270463e-01,-8.477261986820527895e-03,1.338926577546877342e-02,1.105724480469377075e-02,-1.539977599797395964e-02,6.208714246749877930e-01
6.207644747910930905e-01,6.303437639655552482e-01,1.274417541659578212e-03,-3.902061879912269420e-03,3.553834365652979322e-03,-2.092922416974115924e-03,6.244122385978698730e-01
6.293016410963417906e-01,6.294052506641453215e-01,3.451643687796951410e-02,-2.868033361969337183e-03,-2.135811546753793328e-03,-4.161558512581857265e-03,5.949129462242126465e-01
9.572694495179424612e-01,5.840357605698700549e-01,1.034140292101827230e-01,8.720400963440860798e-02,-8.320492700002365613e-03,-1.585299814906249716e-01,8.050474524497985840e-01
7.383658719220007605e-01,5.397699092317056468e-01,-6.034207167202210176e-03,1.885684036385586529e-02,1.284656957067790116e-02,-5.002357281507015946e-02,6.743929982185363770e-01
6.586167653703423053e-01,5.214722159893475650e-01,1.647213184805940145e-02,7.489473963679047115e-03,6.335581523055145055e-03,-8.763448639905045039e-04,5.859886407852172852e-01
6.649347324894185896e-01,4.513516249537946612e-01,1.501712434105217930e-02,-4.890561170580944722e-02,-1.161627543025463456e-02,-4.923863896563162581e-04,5.803275108337402344e-01
5.851194751843153963e-01,5.848753201054868178e-01,1.547765812208773406e-02,3.179231767209872439e-02,1.290500648582603750e-02,-1.709600185107405801e-02,5.733772516250610352e-01
6.308212609063186260e-01,5.989052075919887308e-01,-7.130648681622941965e-03,1.340613958953345381e-03,8.332361439527719710e-03,6.080276640209201968e-04,6.227802038192749023e-01
6.268309857681806374e-01,5.777347141216886417e-01,1.018976822350098344e-02,-3.101033016817776253e-02,1.643960696902907470e-02,2.012723462644504593e-02,5.977399945259094238e-01
6.211786363862464855e-01,6.218343009676956523e-01,-1.426685543335082240e-02,3.587964135243623068e-03,1.735559198469059563e-03,1.714689960896963487e-03,6.358180046081542969e-01
5.952425303002115697e-01,5.634996185229910193e-01,3.873174349778851777e-03,-2.471636125401105791e-02,2.052581793667980492e-02,1.567706679037149387e-02,5.794717073440551758e-01
6.244308030659657671e-01,5.985976528120380280e-01,-7.602056258267042566e-03,-7.892121047729674585e-03,1.880337861808737202e-02,1.216193387867942934e-02,6.208838820457458496e-01
6.240603425118821379e-01,6.233484778735899345e-01,-1.272865149492213854e-02,3.330053939627293860e-03,3.331275733634488524e-03,2.830681725644069828e-03,6.365045309066772461e-01
6.043373362058491738e-01,6.878270718755921109e-01,3.051421051979363863e-03,-6.296054745346950365e-02,5.653324111255373513e-02,4.023205180686877103e-02,6.671225428581237793e-01
6.401758837149960080e-01,6.615697291659468071e-01,6.940993023318825506e-02,1.174087095181193877e-02,-5.451311935420719013e-02,1.204974312870824536e-02,5.900902748107910156e-01
6.078227826506232834e-01,6.337729913200922383e-01,-1.162028267465453624e-02,-2.608309728181801187e-05,7.045000452770904149e-03,-1.217187397980494913e-03,6.329385042190551758e-01
7.450895560445995880e-01,3.667633200708644847e-01,2.844346182544060797e-02,-9.184715127539255786e-02,9.066970828108606578e-03,1.769109231496259274e-02,6.419342756271362305e-01
5.742935765154146832e-01,5.696405864997264867e-01,2.620798872435609050e-02,-1.038568835025169279e-02,3.571190469002754730e-03,3.643509756910392073e-03,5.461418032646179199e-01
5.861817404535563103e-01,5.962521773519846580e-01,3.235366947755335953e-03,-2.850820734339472654e-02,-1.469449149045745119e-02,-1.479614731100759549e-02,5.912200212478637695e-01
3.273997116076359237e-01,7.782953075793065389e-01,-6.490048325286046360e-03,-1.973737402900768156e-01,-3.446081352489008959e-02,4.498359559382918843e-03,7.653960585594177246e-01
6.583684379863085079e-01,5.547853431347264941e-01,2.337950911157860023e-02,-1.042859327558920586e-02,1.182037191306939405e-02,3.582922535627963007e-02,5.939384698867797852e-01
5.501487565445519756e-01,5.940353848286992200e-01,3.325376182233746869e-02,-9.227018422161899214e-03,-2.102713733751969752e-03,-5.523738189936139124e-03,5.405103564262390137e-01
5.942700222400768562e-01,5.402438517322056821e-01,3.046168652042496872e-02,-2.209469118407668409e-02,2.131710718522404971e-03,5.916418724888262808e-03,5.402975678443908691e-01
6.859915000702654364e-01,5.886804889802448315e-01,1.445412491141601086e-02,7.764921843543544366e-02,3.094615434213276312e-02,-8.373326241733500264e-02,6.611194014549255371e-01
6.304092077217533507e-01,6.231799308967169715e-01,-5.997946178130542094e-03,1.254212625532283082e-03,-5.850021542729653273e-04,1.695757026261259437e-03,6.328348517417907715e-01
6.596586768061094563e-01,4.672733127221905813e-01,3.683175842710906256e-02,-1.228267862495734282e-02,3.776350068823709468e-04,-1.554068680841607731e-03,5.527775287628173828e-01
6.254724620035079230e-01,6.191575578676968838e-01,-4.133215770400100464e-03,1.832293245076219981e-03,-4.651508334196623878e-03,-2.004367351845582571e-03,6.265415549278259277e-01
6.209448662463358248e-01,6.251471978654893347e-01,-5.254888976752414287e-03,2.334740596174284932e-03,-1.527686516018409747e-03,-4.600272306027169619e-03,6.283805370330810547e-01
4.545150137792565159e-01,6.740906151267795909e-01,2.141086326324204148e-02,-8.028954180049804878e-02,-2.069337689920026924e-02,-1.420866855202704455e-02,5.933980941772460938e-01
6.263155864350460345e-01,6.260637462236544604e-01,7.789499315665193713e-03,2.977252299659374248e-03,2.416340250707327622e-03,-2.463384518774724887e-03,6.184505820274353027e-01
6.291206269525386752e-01,6.273835790252443312e-01,9.836222151401252667e-02,7.438259286701840887e-04,2.992525610709217791e-03,1.141551577926831068e-02,5.302876830101013184e-01
8.821220137212146817e-01,5.767763551923290599e-01,6.310733363611142899e-02,-1.619930897619459853e-01,-2.885382818805990249e-02,-1.486979763964250134e-01,8.133231997489929199e-01
5.910484692285478125e-01,6.156522033268452265e-01,2.354779497117376330e-03,1.332281376899440740e-03,1.986473863524909015e-03,1.077425384690409819e-02,6.016768813133239746e-01
3.950132713714772370e-01,6.469389672424160631e-01,3.055645005111584656e-02,-8.544866732897848927e-02,-1.539673075725116018e-02,-1.081092374857073324e-02,5.577433109283447266e-01
6.580772521289312005e-01,4.158108383192757329e-01,1.995539915960331534e-02,-9.413374216171439823e-02,3.741755294698719675e-02,4.825180216698582436e-02,5.908175706863403320e-01
7.179534698812315430e-01,4.314021366244634725e-01,-2.320716681328438558e-03,-3.156381045241422600e-01,-2.987574961768374796e-03,1.985749534440841430e-02,8.334284424781799316e-01
6.279421258091303359e-01,6.232530391736287312e-01,-8.277581080172680128e-03,2.772745044304094752e-03,2.675027332842641430e-03,3.326035489975840038e-03,6.339494585990905762e-01
6.266432827529783145e-01,6.251516708512455667e-01,-8.206849963340867582e-03,3.100058966773264462e-03,2.962536707393148387e-03,2.889303571878553377e-03,6.341688632965087891e-01
5.462727070661039797e-01,5.977882451312930279e-01,3.356023110066597148e-02,-4.270478134752899585e-02,2.098964877516645323e-03,3.166405666468743649e-03,5.453943610191345215e-01
6.308216832492713477e-01,6.273846782173342351e-01,2.597234954385890804e-02,7.052182807016929567e-03,6.438425549696238405e-03,3.502393151877233792e-03,6.033954024314880371e-01
5.809694521329666905e-01,5.993022658158697613e-01,9.229147999633313670e-03,-4.778955899257741717e-03,6.172384479139403010e-03,9.003196400852231385e-03,5.814900398254394531e-01
5.895588523888104504e-01,5.802469666004210769e-01,1.944211585535349229e-02,-3.819153682842784856e-04,5.141379954720227095e-03,1.515415916222441874e-03,5.655949115753173828e-01
6.263710833084780161e-01,6.226937452505740822e-01,-8.567994644605170240e-03,2.399366195167264727e-03,9.591652079575879730e-03,6.103343279679761778e-03,6.334282159805297852e-01
6.326503031311344616e-01,6.184210065235278275e-01,-5.188470781203990967e-03,-6.378701499820801576e-04,4.999771638857651481e-05,-1.448866721514062298e-03,6.308504343032836914e-01
4.694130919363954657e-01,7.097131731694480417e-01,-3.331550431107388466e-03,-2.510977155482822520e-01,4.490738715769352490e-02,5.769245115450707950e-02,7.746080756187438965e-01
6.310536261942643055e-01,6.035841014656528891e-01,-2.779548207171911312e-03,-4.350034028193007518e-04,5.522472247137022276e-03,6.776325454167721370e-03,6.207396984100341797e-01
6.243672773529120867e-01,6.283159571934731069e-01,1.341604527722822793e-02,4.064078964221533828e-03,4.644877245310321916e-03,5.500672362038112016e-03,6.131023764610290527e-01
5.982451357573626005e-01,6.359646059638957016e-01,-8.532590014502350328e-03,-3.412921286953768223e-03,5.151364886847711877e-03,3.699849703791779042e-03,6.266138553619384766e-01
2.542336150293231789e-01,6.952878198487901784e-01,1.556031040880784255e-02,2.388247774961490821e-01,3.009074759679443434e-02,-1.329712068258803205e-02,7.287799715995788574e-01
3.294241849489481511e-01,9.890145542598366424e-01,3.057567034731190070e-02,5.572152701862860547e-02,8.073715690628091579e-02,-2.391295183023957674e-02,8.672214746475219727e-01
5.556523559745745189e-01,6.703529271893780006e-01,-2.989519787403027706e-04,4.591749220341905316e-03,1.434409847072726606e-05,-1.277068344797264489e-04,6.213447451591491699e-01
4.811578347509364861e-01,6.894490550396863426e-01,1.870678724784663460e-02,-7.255836875973303325e-03,7.556272952011398869e-02,1.317597292340060879e-02,6.094084382057189941e-01
2.472105847590680416e-01,9.394978719353608287e-01,-9.090331996804623671e-02,1.686475507053241396e-01,1.775855137003375453e-02,9.491852105521290765e-04,9.559965729713439941e-01
2.372457655097438278e-01,9.341740041855175480e-01,-9.908840553549169705e-02,-1.528252149304052676e-01,7.206344553699822048e-03,-6.526937648237405611e-03,9.505686163902282715e-01
4.066491739844277364e-01,6.993888872817975999e-01,3.998832301537624812e-02,-4.831114839555670712e-03,-1.760455216938753382e-03,-3.777792533601471471e-03,5.723592042922973633e-01
6.653445587397887051e-01,6.925486649015086815e-01,3.896631773458564263e-02,-5.512268128820547314e-02,1.927691651926831786e-03,1.083102960855275923e-02,6.477718949317932129e-01
6.271953346098898541e-01,6.333370593518776737e-01,2.539056114604382186e-02,-5.123561951010652607e-03,-7.578203353399948564e-03,7.806559229416338706e-05,6.051065325736999512e-01
6.239737955142474757e-01,5.740649090276022104e-01,5.392868523859173369e-03,5.259566536498914979e-03,1.424270759373025969e-02,9.703884596641248312e-05,5.957785844802856445e-01
6.310507967791200157e-01,6.215281556850714706e-01,1.403234439036871173e-02,-1.103662817247305031e-03,-1.156615412285358791e-03,5.546816201623602782e-03,6.123942732810974121e-01
6.245677725772709188e-01,6.167262485798815641e-01,-1.304141847877399174e-02,-1.040461670536167510e-03,2.669826446845493910e-03,-1.304958098556970036e-03,6.337482929229736328e-01
6.969346950601664759e-01,6.773156534032789278e-01,8.991089780300293155e-02,6.876587239207268554e-02,3.682775839482081703e-02,-1.104322756575689124e-01,6.417121887207031250e-01
6.132471527607934458e-01,6.138235140322573224e-01,-1.191062045755586496e-02,7.852502466830214812e-04,3.974000411977342967e-03,-3.827816241838026112e-03,6.255206465721130371e-01
6.178419639471297575e-01,6.068581849966465658e-01,-9.224189865300103097e-03,3.761621184261250070e-04,7.938874270876699821e-03,-7.695315992792002135e-04,6.218008995056152344e-01
6.215509040396982599e-01,6.162870814719603185e-01,-1.187883529178790365e-02,-1.401339512420852204e-03,5.781380680200154040e-03,-3.601934951949732362e-03,6.309292912483215332e-01
6.242856134557450698e-01,6.148194462370142332e-01,-1.352892644941455780e-02,-4.986929265384436403e-04,2.893106918486005891e-03,1.083766357479661057e-04,6.331549882888793945e-01
6.094765620721501742e-01,6.177169022641398888e-01,-7.943203571359080950e-03,2.778224421703163636e-04,9.614260158771291810e-04,-4.746394450116262105e-03,6.216377019882202148e-01
6.360547601702485343e-01,6.302880671964813386e-01,9.472903800195436874e-02,-1.236101986607666525e-03,-2.620696433147370018e-03,-1.343929293598568331e-02,5.389918088912963867e-01
6.301633693890267285e-01,6.287601437264277449e-01,7.208860407752720745e-02,-2.779858610632277884e-03,-1.037542502813993718e-02,-5.809424776790837047e-03,5.577756762504577637e-01
9.488479673487584254e-01,4.496050945259847387e-01,4.637851750335841849e-02,3.658336512517224026e-02,-3.389857521257642198e-02,1.100771136701708119e-01,8.105284571647644043e-01
6.293996001631806392e-01,6.298006622662334353e-01,3.240953474990204697e-02,-1.081710406534763368e-03,-2.021856666898140271e-03,6.867125282484223478e-03,5.973223447799682617e-01
6.289587449906097749e-01,6.299763882044542296e-01,7.093254408886567886e-02,-4.007709460750479469e-04,-5.067501716989333653e-03,8.814519255760154201e-03,5.588136911392211914e-01
6.894256363318560510e-01,4.953497179274406470e-01,1.747918336888665269e-02,6.873950792128792446e-03,-8.969338026159378793e-03,2.250537611549075293e-02,6.005592942237854004e-01
6.467116530545290454e-01,5.659745044973663042e-01,1.779745680710598243e-04,3.525951227183931648e-03,-1.386670091513615352e-02,6.171958476633676279e-04,6.106883883476257324e-01
6.312182388315992210e-01,5.998691769429195242e-01,-1.106450409146175762e-02,2.080391285357987684e-03,-5.058386540038794718e-03,-8.970447796181256440e-04,6.272695660591125488e-01
6.274075826578533466e-01,6.082105007957157028e-01,-1.100328284409940460e-02,-1.479039108052342762e-04,-6.175843958132489452e-03,4.848070609525626483e-03,6.291791200637817383e-01
6.305954438362504355e-01,6.242610075279464432e-01,1.777235117489212035e-02,-2.863045034975592127e-03,3.986521959370997389e-03,-2.340664035691154138e-03,6.097533106803894043e-01
6.108495008540344440e-01,5.893976407796983619e-01,-5.381645354559871919e-03,-5.480649750607307844e-03,-8.674401493406209973e-03,-5.254642089365052157e-03,6.061190962791442871e-01
6.096930055239011548e-01,5.784046061697362129e-01,5.747214728068938960e-03,-8.712307086673979489e-03,-1.723405212382080054e-02,-2.089996965846927825e-03,5.898854732513427734e-01
6.036007369654314836e-01,5.680277326791562942e-01,9.014622445467579404e-03,-1.698887213896174003e-02,-1.007264001450612449e-02,-1.486631439524661695e-02,5.792064666748046875e-01
6.408765746565796562e-01,5.750191615605283468e-01,1.841696611763937730e-02,-1.447263580533274530e-01,-6.348955987555859881e-02,-3.822770383210115364e-02,6.558304429054260254e-01
9.999839206796430346e-01,2.056478124886093883e-01,-1.012200931253519065e-01,-7.975664051775366303e-02,1.631301393847265149e-02,9.279879767274078900e-03,9.945019483566284180e-01
9.252030887196605047e-01,2.653273084827052486e-01,-9.170449971811245327e-02,1.655216952902586192e-01,1.566407198872434015e-02,-2.211393412415381052e-02,9.396275281906127930e-01
6.832976810763284892e-01,4.462656967990213941e-01,3.664276526711607307e-02,-6.638612066359705910e-02,-2.564850224823304100e-03,3.421310043254830163e-03,5.782257914543151855e-01
6.233035695826369960e-01,4.919527189884962959e-01,2.749221260856016258e-02,-3.432802923895935526e-02,-1.329993630962348662e-02,-9.570058316512225494e-03,5.461909770965576172e-01
6.777588831597322061e-01,4.165105003978408216e-01,3.584936484829598369e-02,-3.495762855586358187e-02,5.264938972433603516e-03,9.582491892697781203e-04,5.624524354934692383e-01
6.045960177531357616e-01,5.619125070873225436e-01,2.551808841150104978e-02,3.444369591370461531e-02,-1.311922635667660264e-02,1.084063392929720746e-02,5.629068017005920410e-01
6.928382862561016653e-01,4.211089167242043074e-01,3.814469245771834327e-02,3.436536577652125196e-02,-3.327097223663704958e-03,1.736772496387278125e-02,5.736219286918640137e-01
6.476540137599668956e-01,5.574716344724247596e-01,-4.176339783623139734e-03,5.490396100127584861e-03,-6.863035041500997920e-03,-9.401608604653718037e-04,6.119366288185119629e-01
6.591857652697910019e-01,5.554844548141278926e-01,-4.440078311330641903e-03,-8.895518735511893189e-04,2.490313143959447736e-03,-3.152627783432224336e-03,6.183729767799377441e-01
6.306626365343614982e-01,5.646920844736678102e-01,-1.190141187023435743e-02,2.104212952967543168e-02,-2.320611679209220318e-02,2.734467820523417414e-02,6.164717674255371094e-01
6.354091502628690380e-01,6.014234467906046655e-01,-2.574757864171717259e-03,5.271352412111244418e-03,-7.525376695287701832e-03,7.850504158470073338e-03,6.220404505729675293e-01
5.853781498742782752e-01,5.870039027578297652e-01,6.719531995771521604e-03,1.801922544133340715e-02,-8.200159167356559434e-03,9.940153713691946002e-03,5.807421207427978516e-01
6.301965678678025373e-01,6.198699352682733865e-01,-1.053111643023968425e-02,-7.998710245469736789e-04,-1.097150056100120070e-03,1.977966824517206953e-03,6.356408596038818359e-01
6.340687955230610573e-01,6.089264380257072284e-01,-9.816780585271134285e-03,1.398180535399178015e-04,-2.343734304228409487e-03,4.912136826335153188e-03,6.317601799964904785e-01
6.310274031140312712e-01,6.162365008189469862e-01,-1.127340975998997186e-02,5.316733778124576194e-04,-3.528924202035113047e-04,-1.812259728580757016e-04,6.350355744361877441e-01
5.005475190662537210e-01,5.874857281337092507e-01,3.593966568525813754e-02,-7.159104891586862141e-02,6.276012770841974536e-03,8.546298816746249541e-03,5.287002921104431152e-01
6.382941891176001636e-01,5.315090435052460816e-01,1.678483370726940871e-02,-1.625461253372343859e-02,-1.464884880699274076e-02,-2.079429795589576250e-03,5.768520832061767578e-01
5.532095299832776591e-01,4.359412598478772383e-01,-9.533701640590014348e-02,-3.091311488785684070e-01,2.850246154948525221e-02,4.401192520867382163e-02,8.082357645034790039e-01
6.851082668696810707e-01,4.284682198691280863e-01,3.696405520958284674e-02,-2.349479233752852989e-02,-2.282197170261068397e-03,7.935103437279416010e-04,5.668234229087829590e-01
6.621327996301941132e-01,5.113802445935458074e-01,1.706004997190085914e-02,-1.797525889081205003e-02,1.555109048016087292e-02,9.002511797604742169e-05,5.859127044677734375e-01
8.306199434691274863e-01,9.982072345576403771e-02,-1.356023565933178743e-02,-3.005741686245850738e-02,-1.334617453743921871e-02,-5.270106737898811594e-02,8.008485436439514160e-01
5.979139066959362481e-01,5.798513562539909794e-01,6.889470556034560378e-03,-3.246964557512713873e-02,1.852403015163348043e-02,1.967548927593825922e-02,5.867830514907836914e-01
6.149967972725741694e-01,5.687960436883654491e-01,2.914752735603542977e-03,-8.363997802879562932e-03,1.574756327705898254e-02,6.915999961768095651e-03,5.912678241729736328e-01
6.239182441056743134e-01,5.425424834650282024e-01,2.199737494580761288e-02,-3.472957986283050930e-03,1.519341602725402321e-02,7.528692609544658694e-03,5.664342045783996582e-01
5.039067199459699165e-01,6.811823056278396571e-01,2.007392673282026863e-02,-3.579468623320489901e-02,-1.213933549416446739e-03,1.011619060010764820e-02,5.961943864822387695e-01
6.110639787195319972e-01,5.864831787278735886e-01,1.006670288050126594e-03,-1.284483284007654526e-02,1.258529206789067711e-02,9.142084076934141974e-04,5.989583134651184082e-01
6.192235899692020151e-01,6.032933838863066001e-01,-8.698629304732530265e-03,3.412685955066513226e-03,7.944758936458809484e-03,1.216255824167953355e-03,6.202949881553649902e-01
5.055676266438575706e-01,6.500520474555481210e-01,1.625744912898341443e-02,-8.568659055752412407e-03,-4.531365458104206568e-04,-8.680957441415048173e-03,5.757125020027160645e-01
5.572912566328270811e-01,4.740291865276723415e-01,-2.721691150873134513e-02,-2.704471166870050514e-01,-1.523653416906017508e-02,-2.985644422880450247e-03,7.211540341377258301e-01
5.209242888453894382e-01,6.557074266761149239e-01,3.705484792071223055e-03,-8.657511223761791760e-03,-2.179221962011781630e-02,-1.651450312977923579e-02,5.982155799865722656e-01
5.045787364058554880e-01,6.961549574988363798e-01,6.868871310005353337e-03,-1.626373871817456962e-01,-3.365145596666968553e-02,-2.648985359484918103e-02,6.816312074661254883e-01
6.156768887711394633e-01,6.265614092842635152e-01,-9.214487557274331220e-03,1.069345671333476631e-03,-5.665101962934107095e-03,-6.276089344546697049e-03,6.305769085884094238e-01
9.177744106220520059e-01,6.473481436329168170e-01,1.127169453107675356e-01,-1.044356446403291588e-01,-8.841269098217573175e-02,-1.569754451637706827e-01,7.960112690925598145e-01
6.201363893356990342e-01,6.071683943101332526e-01,-5.071098110762617406e-03,-1.380999243565568177e-02,-1.152256912651278449e-02,-6.518570372765934012e-03,6.197118759155273438e-01
6.625821186344202918e-01,5.832570732005990521e-01,2.591333987692234775e-03,-2.003117590308616663e-02,-7.993104344575222746e-04,-4.207488733468468800e-02,6.293194890022277832e-01
6.285661053130970899e-01,6.152599749120590822e-01,1.778184482557754187e-02,-1.363360770032912526e-03,2.586896491683340731e-03,1.541805367726289131e-03,6.042681932449340820e-01
5.020585845014872151e-01,5.983089973437316633e-01,-3.712411804048243447e-04,-1.371864340471808663e-01,-3.475119297973913723e-02,-3.078695783151665435e-02,6.107255816459655762e-01
6.474710355801596151e-01,6.192427785157649245e-01,-6.058509128179734304e-03,5.111274139751917356e-03,-4.380763245243085580e-03,-1.379395286469718663e-03,6.399932503700256348e-01
6.228384500784435174e-01,5.770359560180561287e-01,-7.937557938455186424e-03,-1.037905926151598893e-02,-1.097733889587140625e-02,-7.047995332480156729e-03,6.098514795303344727e-01
6.288095339038461962e-01,6.284647285483424550e-01,7.869693333169003324e-02,-1.335694438967841489e-05,1.328271238488921112e-03,-8.658173221922518467e-03,5.501495003700256348e-01
6.210237394157501756e-01,6.223917643827985291e-01,-4.111107076892828172e-03,-6.455448450019107397e-04,-7.265210784637227831e-03,-2.026749179880802092e-03,6.259573101997375488e-01
6.258604382918799836e-01,6.300198484015594458e-01,2.315284086836177924e-03,3.842068351360799962e-03,1.347356821299642085e-03,-1.878451879378279996e-03,6.256834268569946289e-01
6.277609913042569989e-01,6.243112876357390650e-01,1.760954949344284426e-02,8.995078353502056938e-04,-1.026863184909066829e-03,-2.865892967659738888e-03,6.084587574005126953e-01
6.097896317414073231e-01,6.108425132010806280e-01,-1.069260740548444444e-02,2.963173360952193417e-03,5.081791400226375911e-03,-6.005102627808502243e-03,6.211799979209899902e-01
8.991208421206235979e-01,8.262356597315461126e-01,9.413484119092907498e-02,-3.375741832434597106e-02,2.226557565993208046e-02,-1.061544787489496905e-01,7.958363294601440430e-01
6.210097981673163847e-01,6.207821153297854444e-01,-1.311260562213634184e-02,-1.592082581687500773e-03,1.089179998147547486e-03,-2.422976155115499734e-03,6.340312957763671875e-01
6.231045374878727561e-01,6.103958489861689429e-01,-1.295048495784650866e-02,9.584633110337292897e-07,5.775237368294268252e-03,-3.055323305826306533e-03,6.298984885215759277e-01
6.334853201602477224e-01,6.190120688868838705e-01,-1.056325076324182710e-02,2.212527556245473016e-03,4.620334958021616277e-03,-1.436835770838366033e-03,6.370019316673278809e-01
6.156304752704504502e-01,6.198620778073909987e-01,-1.460466938796084468e-02,2.313141404694667429e-03,-4.920660455387529863e-04,-2.746878953385813778e-03,6.323927044868469238e-01
6.187017769536282685e-01,6.231342563761953501e-01,-1.462995882900514077e-02,8.693533970155810104e-04,-9.388412418574251924e-04,-3.089519534326348130e-03,6.355859637260437012e-01
6.185062943423244031e-01,6.285239140712316486e-01,-1.014176394905447198e-02,2.570130974935356302e-03,-1.051136661742364722e-03,-3.782318671284320023e-03,6.337683796882629395e-01
6.228232322218707484e-01,6.276846853856985486e-01,-7.040233558239461509e-03,2.544575865482516693e-03,-3.696977341758412965e-03,3.820308966199718989e-04,6.323563456535339355e-01
6.096133109358473634e-01,6.275948570866228815e-01,-1.303220267006838240e-02,7.146147647242044511e-04,-4.267106399796208836e-03,-5.830996984251724143e-03,6.319533586502075195e-01
5.988290095255472956e-01,6.117624441926000634e-01,-5.790304952175806541e-03,-1.509855791568519550e-03,-4.182064869292397707e-03,-8.674257600357884387e-03,6.114218235015869141e-01
5.878143268951606659e-01,6.232108895299959261e-01,-8.453738285644774031e-03,-4.122686152047637040e-03,-9.474101231858282970e-03,-1.193552593133719551e-02,6.153389215469360352e-01
6.555554952847337802e-01,6.275225135383913910e-01,8.008314652729714433e-02,-5.323199001545330517e-03,-5.305039112038645831e-03,-7.831823756131631176e-03,5.622948408126831055e-01
6.375425196134683059e-01,6.137748367386901549e-01,2.828865257760215801e-03,-2.251892640894330097e-02,-1.273019681023677963e-02,-1.768602948709613321e-02,6.255289912223815918e-01
8.425204289476733166e-01,8.903591378228630226e-01,1.251461699231171676e-01,-3.884385303036838832e-05,-1.091298175171457607e-01,1.058311962558156419e-02,7.663527727127075195e-01
9.446733925860357761e-01,8.083892991780453618e-01,1.463000959338600082e-01,-3.194525221980824836e-02,-4.270254501757619892e-02,-1.370235513111375536e-01,7.823209762573242188e-01
6.962129938978895982e-01,6.374465169329661673e-01,1.028699963194184552e-01,1.425446544768934481e-02,-3.407636257429607490e-02,-2.880960856421728444e-02,5.720348358154296875e-01
6.317403265753311903e-01,6.245508105016106537e-01,6.823567786854345396e-02,-2.647497987170926558e-03,-1.504794857238717998e-03,1.206131160626042025e-02,5.603588819503784180e-01
8.812467948557548558e-01,6.269715270547013830e-01,1.111691798163502720e-01,2.900993034861516079e-02,2.913645057098020880e-02,-1.757642210923586468e-01,7.480738162994384766e-01
6.285205434499676613e-01,6.317126874363570010e-01,6.622429651854333521e-02,2.985506287283933805e-03,6.563064756975650962e-03,-9.193742184921218502e-03,5.642620921134948730e-01
6.221707949955241901e-01,6.263628509898659935e-01,1.362649488097679717e-01,2.227595478598705988e-03,1.775851135412784883e-03,2.171616616610446207e-03,4.880548119544982910e-01
7.288940728571617900e-01,6.692036456298439129e-01,4.690839567934601551e-02,-2.861411421345373338e-02,-4.754522829653729139e-03,-2.603185571440888232e-02,6.576598286628723145e-01
6.203993434650935113e-01,6.209715613115474042e-01,-8.098695836693037275e-03,5.632982621581843208e-04,-3.503370710686140371e-04,-1.675344532656564741e-03,6.287921071052551270e-01
6.353085961751372412e-01,5.307388412931280941e-01,1.530006855719656667e-02,-1.415352798793099130e-02,-1.232531832679197199e-02,-2.447125687463569225e-03,5.758349895477294922e-01
5.989741740529792580e-01,5.965188356689811178e-01,-1.947741105464417810e-03,-7.661268564061453519e-03,-8.626351810209615528e-03,-6.397769812072333188e-03,6.001331806182861328e-01
6.284765875550736292e-01,5.418845569446486543e-01,2.113848646904281647e-03,-3.691241253747324508e-02,-1.540962926139625988e-02,-1.438410808769897400e-03,5.919430851936340332e-01
7.272562530287105531e-01,3.069369803516374673e-01,3.592792093348207150e-02,-1.010612756933430556e-01,-1.893004973368756991e-02,-6.760095348667549686e-02,6.398823261260986328e-01
5.883528622079510217e-01,5.940752083116516147e-01,5.176743612273826400e-03,-1.350984960454303108e-02,-1.708289367409799187e-03,-7.912604610617990364e-03,5.866927504539489746e-01
6.159129390197619625e-01,6.157986502566201725e-01,-1.529074124710783078e-02,-7.224557052842228363e-04,-1.726655162648014314e-03,-1.126966492269658058e-03,6.311578750610351562e-01
5.746252961342188659e-01,6.328640929777136215e-01,4.346530266854942148e-04,-1.652349049553174937e-03,-9.307193376038826660e-04,-1.310152914344702747e-02,6.058486104011535645e-01
5.502596929102959722e-01,6.339783034200239253e-01,2.972876868225782232e-03,-6.987424297011884597e-03,-1.293795527550218281e-02,-1.894782850551718356e-02,5.950424075126647949e-01
6.156104401122824976e-01,6.252422873388567837e-01,-1.189238601876457802e-02,1.848847103580276117e-03,-8.596045854140643705e-04,-2.737827725878122336e-03,6.324014067649841309e-01
6.153922610640820690e-01,6.290964624834395336e-01,-2.807355159474611561e-03,-6.042207728795543839e-03,-1.466607343140977938e-02,-9.170652135767598176e-03,6.259693503379821777e-01
5.633454606169719936e-01,6.840035868368798955e-01,2.097653412602207279e-03,-6.011644782234694569e-03,-4.123240726764826336e-02,-2.201202639328521306e-03,6.344287991523742676e-01
6.516669385505944323e-01,5.302347430260299088e-01,1.366374678452825231e-02,1.640742208580715233e-01,-1.755657162334667981e-02,5.611145399053539540e-02,6.598870754241943359e-01
5.638074037321140208e-01,6.431244370655511133e-01,5.531987618415945551e-03,4.675920900654401829e-02,-2.842483845138657136e-02,3.097907902615788800e-02,6.116417646408081055e-01
6.286712033340000616e-01,6.278232133757180033e-01,2.306505853275259144e-02,-3.303764960090252575e-04,-1.119201347310816788e-02,7.722417768911147944e-03,6.056409478187561035e-01
8.659324991031511765e-01,6.512300506119708121e-01,1.111744634951806199e-01,1.469839841653432788e-01,-9.601038624671529020e-02,1.262758565692239654e-01,7.707217931747436523e-01
6.268536047338501005e-01,6.286200707449005609e-01,4.198649715473090627e-02,-4.967761974340336936e-03,-5.864001420187679552e-03,5.162429287370177630e-03,5.859717726707458496e-01
6.266621148427939936e-01,6.217581441259618646e-01,-7.951412971487881176e-03,-2.299982290669971494e-03,-4.013917991582271680e-03,8.961783874381897691e-03,6.324170827865600586e-01
6.549207642673116059e-01,5.864725991730012078e-01,-5.865516693482897281e-03,1.067553893440753186e-03,-3.774752880395716541e-03,8.961561664693740853e-03,6.295880675315856934e-01
6.218756561743827849e-01,6.246405280476584609e-01,-4.108271469076441029e-03,-3.091568433565427751e-03,-2.185311452392901842e-04,3.727159192974489974e-03,6.274271011352539062e-01
6.029844647172206695e-01,4.641586327091898334e-01,-5.167161193008806830e-03,2.542884053030023406e-01,-6.539193005203766673e-02,3.089501067001603971e-02,7.171983122825622559e-01
6.185032273867212549e-01,6.270931683745417651e-01,-7.290610012098019954e-03,1.749321941946453858e-03,1.772554462015822922e-03,-1.924742137497282343e-03,6.301562786102294922e-01
6.167732917371736567e-01,6.252153840866024881e-01,-1.272800521516270766e-02,-1.060872846225866645e-04,-3.126411621428717459e-03,-4.776098050980026946e-03,6.338416337966918945e-01
6.092183918717561930e-01,6.254948086102516402e-01,-1.334733636345325491e-02,-1.210982570791632046e-03,-2.166703096317804285e-03,-4.496009161702585813e-03,6.309241652488708496e-01
6.184083236866261268e-01,6.312883618892752846e-01,-5.866940017866195678e-03,1.182068313548331273e-03,1.531342160415455214e-03,-6.231127427115454157e-05,6.308228373527526855e-01
6.068578728296184499e-01,6.258544022014594921e-01,-8.318510357061659199e-03,-3.686472544961717779e-03,-1.037681522586695118e-02,-9.696271465578941082e-03,6.254078149795532227e-01
6.183146443919368407e-01,6.281664318171917838e-01,-1.231680353616071422e-02,2.319715068923644541e-03,1.157766476637596322e-03,-3.800177801771602521e-05,6.356304883956909180e-01
6.093329986117995700e-01,6.337588101052582523e-01,-1.197589587912500919e-02,-1.517646738362839285e-03,-4.604753228682173516e-03,-4.257045321640813909e-03,6.339733600616455078e-01
6.422525759231203502e-01,5.959057073945108751e-01,4.862777534933204748e-02,8.936369527321397221e-02,-9.205838684862834020e-02,1.377138702613058818e-01,6.582575440406799316e-01
9.321127265791679939e-01,2.348022177123354204e-01,6.333796617270792684e-03,1.064655095372589733e-01,2.184572484270673812e-02,1.853064239715236997e-02,8.568662405014038086e-01
6.023558001773040571e-01,6.908087113527892065e-01,1.025309299239233751e-01,3.324122848505448730e-02,-1.038275585968417153e-01,2.978017512657713320e-02,5.832458734512329102e-01
6.312704244249209840e-01,6.081165724328739808e-01,-2.206108047568655639e-03,3.667260184358811948e-03,-7.365206328920633795e-03,7.277188040451073453e-03,6.225135922431945801e-01
8.402304095730221967e-01,1.851390080828007600e-01,9.809510441076141340e-04,3.881178056459098219e-02,-1.464933611544128218e-02,1.028436294381467053e-01,7.877770066261291504e-01
6.400226474747436889e-01,6.021101946160003493e-01,2.470819132118218242e-04,2.677141011383021331e-03,-5.336245444942733576e-04,6.040047317068303681e-03,6.217929720878601074e-01
8.397499789876929910e-01,1.819741557920354358e-01,-3.994336424293692955e-02,-1.958340079747188274e-03,2.526051783096939715e-02,3.387750408678123770e-02,7.957746386528015137e-01
5.968118835007625300e-01,6.364520113686157332e-01,-8.958669021286946865e-03,9.533023009632148005e-04,2.459358876605124457e-03,6.250527961845971656e-04,6.265494227409362793e-01
6.283281514584083682e-01,6.191489048701080966e-01,8.614579012225620502e-02,-4.683756651505899433e-03,-6.371019501434414291e-03,2.051812108881901405e-03,5.378376841545104980e-01
6.248878618619500003e-01,6.293000844608792610e-01,1.082645191428810438e-03,-5.926932482256076426e-04,-4.786715998939899963e-03,2.998076541586573349e-04,6.260789632797241211e-01
5.364403613202903820e-01,6.839548709410012695e-01,-3.601546678385469935e-03,4.837265600868259109e-03,-2.826509256000637321e-02,-5.143426835544795232e-03,6.289802193641662598e-01
6.256785371204403035e-01,6.258609270367071487e-01,1.210210349198703739e-02,-3.737866455048999195e-03,-4.507760840648559857e-03,-2.693761618099905705e-03,6.137691736221313477e-01
6.126656821376329498e-01,6.060643976889685813e-01,-7.138252768933817105e-03,6.936564489930296083e-03,-1.046421426288813086e-02,8.256301196024879233e-03,6.170789003372192383e-01
5.679001293518668447e-01,6.543288319184763502e-01,2.768931437464150491e-03,4.540613962653516911e-02,-2.497962985459759727e-02,2.606349408101598167e-02,6.211133003234863281e-01
6.056120052155122835e-01,6.282269026427123038e-01,-6.689000276044243520e-03,6.676465399635428399e-03,-1.111686949352264434e-02,6.230621653472239417e-03,6.244133710861206055e-01
6.406623384371677998e-01,5.014600512083566830e-01,4.045491229008835177e-02,-5.993762870660300501e-02,2.550332204513870021e-03,-3.783342437591580894e-03,5.540000200271606445e-01
5.281495870549703930e-01,6.488586599514019060e-01,4.387024863502952954e-03,-4.947318498518540712e-03,-2.387679553070037874e-02,-1.648761815062340860e-02,5.955837965011596680e-01
4.386618764913486346e-01,6.767044567111454301e-01,1.607505661052088808e-02,3.796152473318912396e-02,-2.128018371072193035e-02,1.186370631955524328e-02,5.847576856613159180e-01
4.147839157042033098e-01,6.734078867749728747e-01,3.603003573140861615e-02,2.504562618878710539e-02,-1.126626794960400996e-02,5.443309926460567459e-03,5.573573708534240723e-01
6.366188268249246551e-01,6.327331263130125949e-01,5.018635313755487326e-02,4.084240421195439036e-03,7.546268872893937760e-03,6.636213848813581236e-03,5.848011970520019531e-01
3.538780737212869343e-01,7.306967013504849229e-01,1.910202878969696760e-02,4.055737639768759728e-02,2.488068029123069805e-02,2.011874464863856390e-02,6.230756640434265137e-01
2.105051830425806736e-01,9.893173705103938120e-01,-7.669889246750777323e-02,5.003592076668864075e-02,-1.202886485214360590e-02,9.587223368229261938e-03,9.596526622772216797e-01
4.109456904497494900e-01,7.020121285690832380e-01,2.198700928995972470e-02,7.828036310099425327e-03,-2.631389779571906978e-02,-7.242713107760092477e-05,5.928595662117004395e-01
4.815524946940827333e-01,6.706722624409521272e-01,1.587132608699876046e-02,-1.543661467639795802e-03,-9.211484649233829926e-04,-3.858989657761762869e-04,5.836993455886840820e-01
3.142365710018639180e-01,8.995810664443421034e-01,-1.720362420066179343e-02,3.610343710836186326e-02,-7.536984718051518983e-02,-3.022900749861014841e-02,8.186458945274353027e-01
6.556790570004771279e-01,6.211510870619298963e-01,1.890285594839724581e-03,-1.771002018491281763e-02,-1.636180484036522942e-02,-8.300489784903724785e-03,6.387555599212646484e-01
5.801016073918736637e-01,6.370802101763211045e-01,6.617883324873535811e-02,-1.119045775380678592e-01,-8.788788663167969306e-02,-1.039825813195573295e-01,6.243585944175720215e-01
6.026271138318015641e-01,5.703664712280069882e-01,1.419991467970177501e-02,-2.775928284595096177e-02,-1.763250508459304755e-02,-1.095389899285884039e-02,5.761151909828186035e-01
7.998568387226647758e-01,3.830915165092501073e-01,2.057571165787713818e-02,-2.600043663634200586e-01,-1.857134242435032334e-02,-9.097683634579270540e-02,8.275668621063232422e-01
6.085428437793509726e-01,6.229651807878668901e-01,-1.144140516295921728e-02,-4.561734271652419757e-03,9.834159386106235395e-04,-1.550898343518591059e-04,6.273719072341918945e-01
6.453455382673181084e-01,5.850551769404322977e-01,-2.288924308940232244e-03,8.010777501858711014e-03,6.811504004766792122e-04,-9.490504222140573598e-03,6.200671792030334473e-01
6.251044324953404230e-01,6.314129001757744497e-01,6.922172560598760516e-02,4.594625299897726195e-03,-3.729641991806958295e-03,7.379250134899958784e-03,5.593036413192749023e-01
6.205930123863513392e-01,4.723026163818986323e-01,2.455482016967569514e-02,-2.767539250855610700e-01,-5.052185935157233604e-02,-9.693739189936854961e-02,7.446415424346923828e-01
6.392976141941669743e-01,5.121309056100208368e-01,2.138134704380079132e-02,-1.824655740979354637e-02,-1.696763924370479557e-02,-1.008729812677790910e-02,5.670813918113708496e-01
6.469681858395602836e-01,5.188985627710487325e-01,-2.190033231297905392e-03,1.990316707773597676e-02,1.872030173162932479e-02,-2.462113737819625683e-02,5.989400148391723633e-01
6.027326254303280173e-01,5.974408661275915078e-01,-2.133498985760762245e-04,3.692946658411718278e-03,1.173650805668166076e-02,-2.662310461321150748e-03,6.007134318351745605e-01
6.298598013874950885e-01,5.945852665618638344e-01,-7.734586749264138472e-03,-4.332506986213737268e-03,7.961030712994440414e-03,4.488935755728562082e-04,6.209082603454589844e-01
6.296962076574803557e-01,5.199100803393377213e-01,2.234841731518455443e-02,6.841262015978386013e-02,2.741871150047299130e-02,-3.219357557350771559e-02,5.776256918907165527e-01
6.272087190162414228e-01,6.112775476532221752e-01,-1.017010949587959789e-02,4.129602116219002099e-04,7.888278547977908145e-03,-5.980263412434171436e-03,6.297982931137084961e-01
7.925782473956061169e-01,5.710398678056192168e-01,4.332898902567533517e-02,2.282334930091619030e-01,4.628160000541881730e-02,-7.548862756834412435e-02,7.901008725166320801e-01
7.373632855626950366e-01,5.961892985533829847e-01,1.105024207270388636e-02,-5.152163565114939447e-02,4.577575766124783452e-02,6.385693953881445284e-02,6.865909099578857422e-01
6.266913210842777193e-01,6.147686407561884225e-01,-1.095317976892767886e-02,-1.787533127963408753e-03,4.638464458521908071e-03,2.723422651211346215e-03,6.318438053131103516e-01
6.429120255248615967e-01,6.287245373498531187e-01,7.959052672699101771e-02,9.395981109609910856e-03,-1.548619667050843158e-03,-3.284928819093806563e-03,5.566369295120239258e-01
6.523354843816142612e-01,5.243572613683941119e-01,1.327297262366222697e-02,-5.896560682881247378e-02,1.752250725769446266e-02,5.070933057895171681e-02,6.017137765884399414e-01
6.809458160370422952e-01,5.280169403332590772e-01,1.332704813498342133e-03,-1.003978469156310664e-02,2.442738716520534165e-03,2.171926853082923811e-02,6.189218163490295410e-01
6.260705971462799946e-01,6.243665706360332912e-01,-4.721887583519213116e-03,1.385290289712377311e-03,7.834713980055651311e-03,9.575968671310627553e-03,6.303111910820007324e-01
5.662239637594002062e-01,6.314792290021882248e-01,-3.979063573484986627e-03,-1.501485687304258444e-02,5.714237926931942275e-03,1.306994703818028895e-02,6.065354347229003906e-01
5.474277373488554144e-01,5.634727713766910506e-01,7.652612737458541758e-03,-7.126893408218387682e-02,2.073210456788808498e-02,1.694730541590867834e-02,5.636171102523803711e-01
4.603329359705292667e-01,7.342682800414284117e-01,7.979650755064349177e-03,-2.520005026500602985e-01,6.647325459940479908e-02,2.162388509114646085e-02,7.802250981330871582e-01
3.235267264620151906e-01,8.775705998276324138e-01,3.210328354522062888e-04,-3.798691609715383610e-02,4.653985379337567674e-02,8.760218961526641465e-03,7.755990028381347656e-01
6.292412602723711501e-01,6.323629430132932105e-01,3.420303140797981145e-02,4.960117425620825041e-03,4.117724925875039521e-03,-1.868869284592708339e-03,5.967184305191040039e-01
5.782125677135308006e-01,5.813058956992932513e-01,1.935112377440817433e-02,-1.073669071282774140e-03,4.263327099530535638e-04,-1.745313331075066957e-03,5.604262351989746094e-01
4.104066820810211569e-01,5.564875504781858773e-01,1.213749085562521035e-02,2.967689026277649522e-01,3.680875419585886987e-03,-2.963745691073976091e-02,7.106536626815795898e-01
6.212123602719084037e-01,6.205283415059361651e-01,-1.215492444504417957e-02,-1.216610512692584047e-03,2.532545005189773286e-03,-1.004440799504855439e-03,6.330466270446777344e-01
5.552366903756238425e-01,6.522864390607221452e-01,-9.326625234675200993e-04,3.789075221162457527e-03,-1.401518893059262427e-03,-8.526119282966926338e-03,6.107259392738342285e-01
5.826750102473188253e-01,6.104798980081171944e-01,-6.226661630643726131e-03,-2.110244762177648781e-02,-1.322919266613670555e-02,-1.366754140690644090e-02,6.052883863449096680e-01
6.096472268796196969e-01,6.110154247857362275e-01,-1.957914435823826516e-03,-7.939826477076375672e-04,-6.706101849321939937e-03,-6.926523706738132828e-03,6.125196218490600586e-01
5.968792515428723577e-01,5.588181740548880949e-01,3.475360371207480981e-02,-3.823205486845756423e-02,-5.441626366390049999e-03,-3.606706077981979269e-03,5.482259392738342285e-01
5.330913077197269034e-01,6.206751694256973373e-01,5.021933604329786860e-03,-9.232568479897006186e-02,-6.557960500562766415e-02,-4.056580862003204835e-02,6.133428812026977539e-01
6.075417437492285355e-01,6.139104377605003604e-01,2.021589716431237971e-03,-6.340424750302348783e-03,-1.223556810630430439e-02,-1.367552677005635757e-02,6.096575856208801270e-01
5.516676825643650472e-01,5.924910333779747074e-01,3.383163467294431070e-02,-7.286685373311783606e-03,1.226666631652576335e-03,1.661773795437207924e-03,5.395670533180236816e-01
6.776512030973064205e-01,4.404855625032243482e-01,3.688975833473578936e-02,-2.817109830536228612e-02,9.778865773641069042e-03,-7.602446215746827204e-03,5.636464357376098633e-01
6.031938374231060607e-01,5.723939019760635460e-01,2.073357139456571963e-02,-6.833184604007004961e-03,-7.232547854143900334e-03,-1.981641087905443039e-03,5.679591894149780273e-01
6.097316415344901097e-01,6.104254653927356777e-01,-3.100872630944384589e-03,-4.376159614701115655e-03,-8.532777085973910353e-03,-7.666329939199018409e-03,6.135483384132385254e-01
5.811329673377512162e-01,5.744962228312885388e-01,1.990863718676322280e-02,-2.286606391508323646e-03,-3.055688624025908184e-03,-2.047738572450429843e-03,5.579860210418701172e-01
5.791027006658500120e-01,5.712297868241240639e-01,2.568905815822625227e-02,-9.359548531485155018e-03,-4.487867609436648267e-03,-4.756216947014928892e-03,5.498751997947692871e-01
5.955431667046154898e-01,5.848238806429574277e-01,1.161194436352147585e-02,5.020237653025352853e-03,-6.813147910596654803e-03,4.360613646344214424e-03,5.788809657096862793e-01
6.197580463198278933e-01,6.181394757845328769e-01,-7.406697486973867761e-03,3.395566579731613337e-04,-1.379560202715294148e-03,9.549741327532856134e-05,6.263619065284729004e-01
6.170478540059731731e-01,6.051579176265052817e-01,-1.043419902497288998e-02,6.210108530270264972e-03,-9.306039667298544871e-03,7.683947452583603406e-03,6.220667362213134766e-01
6.453633946256729370e-01,6.000885994788741629e-01,-7.944864203040247208e-03,1.063459046933565473e-02,-8.947151824743962770e-03,1.001162326955738410e-02,6.325845718383789062e-01
8.281099714936197564e-01,7.144126748105741331e-01,1.239984060400626809e-01,1.239850091943758281e-01,1.980087927324643943e-04,5.075024854029251686e-02,6.946138143539428711e-01
6.586167362902348721e-01,6.320070369688629563e-01,1.172347956736727870e-01,-1.233269596304816234e-03,1.972763927273818441e-02,9.437812196597077444e-03,5.299394130706787109e-01
8.027942371149019429e-01,3.074800570224377472e-01,5.490639207554326440e-04,8.967222825700041366e-02,-1.757220508853180388e-02,3.280295448668620745e-02,7.210047245025634766e-01
6.606993551122972708e-01,6.210759867375817977e-01,6.365664165652562545e-02,6.736582978735026692e-03,-3.574139229634812516e-03,-1.322435054615370489e-02,5.788542628288269043e-01
4.300796573344220497e-01,6.774095475489747553e-01,5.985891554862765584e-02,-1.419077508450951597e-01,-1.200143742233146099e-01,-4.559969047206145765e-02,6.321897506713867188e-01
3.491821849901490804e-01,7.424281473392017050e-01,3.765339119893384989e-02,2.469225944640057041e-02,-7.232508281181725118e-02,-3.459995630834811035e-03,6.259055733680725098e-01
6.205767467375145063e-01,6.345901512887138773e-01,-1.961213423113838950e-03,3.399522203034712614e-03,-9.576282521921357024e-03,4.876016503599958120e-03,6.299641728401184082e-01
6.312948250444750942e-01,5.985859190061563195e-01,3.166539552363401011e-03,8.530216742279071729e-02,-1.509620336097414542e-02,4.799793380164493056e-02,6.359984874725341797e-01
5.551206913926151065e-01,6.485041819717755063e-01,6.737258303223803146e-04,2.697705279459750374e-04,1.671140633182915003e-04,8.983242363882657303e-03,6.067540645599365234e-01
5.532886864910465663e-01,6.504137853262383917e-01,-1.832415617259275376e-03,-1.024609071894007871e-02,2.546582497909799471e-04,-8.192681484089277613e-03,6.099388599395751953e-01
5.698060228574489683e-01,6.509951120399861679e-01,-8.831815620227723151e-03,-3.935007030821842389e-03,-1.040585964916684175e-02,-8.868305211957758574e-03,6.236984133720397949e-01
5.599133479965776594e-01,6.574401007596875068e-01,-2.124682062127347670e-04,-4.937169403206396155e-03,-4.622472985833285530e-02,-2.316588845761951079e-02,6.212671995162963867e-01
5.835656473168095992e-01,6.231954384375940625e-01,4.679848891733229266e-03,-2.518600129728109510e-02,-1.328432056584582382e-02,-1.504856743452367279e-02,6.022725701332092285e-01
6.382024982056270224e-01,6.281034586716515156e-01,1.350858065709109601e-02,5.818120860877766184e-03,-1.165451878820619215e-02,-9.583359573700579725e-03,6.203387975692749023e-01
5.193084768816358388e-01,6.761215911389877320e-01,3.783908177044825738e-03,-1.087495242118086992e-02,-2.472661839646525875e-02,-8.609611276070166380e-03,6.112350821495056152e-01
5.375586102144763734e-01,7.948826731007045954e-01,5.478041632941832439e-02,-2.983945247396924683e-01,-7.862626242966726242e-02,-4.941484043608362908e-02,8.464694619178771973e-01
5.557992018990850491e-01,5.686466677137251846e-01,-1.213714732824816567e-02,-2.762157868776784486e-01,-1.317358783037218860e-03,-8.264406354166589641e-02,7.611794471740722656e-01
5.150487782824415550e-01,6.548972812247179087e-01,3.891187241912563710e-03,-2.223860495788105088e-02,-1.822665564778806063e-02,-1.774870548247674262e-02,5.964475274085998535e-01
5.456943215879759279e-01,7.165520734906853928e-01,1.223893830981257480e-01,-3.844894124921203332e-02,-1.099309764653058769e-01,-2.463395687797842112e-02,5.685194134712219238e-01
6.187875866765329969e-01,6.097915227278681849e-01,-1.440379782900635952e-02,-6.459802270593903786e-04,-4.506484690087547706e-03,-3.272937595619447929e-03,6.288166046142578125e-01
6.192689092178355059e-01,6.145979419601084182e-01,-1.526361941661996680e-02,7.847856263851800277e-04,-2.869435160970117485e-03,2.543747132747487547e-04,6.322311162948608398e-01
6.231366136090844554e-01,6.178764535198125740e-01,-1.444030996285561308e-02,5.542495707698293344e-04,-2.628733902065710608e-03,-3.953567259373049603e-08,6.349802613258361816e-01
6.238736854759677763e-01,6.201680479509703581e-01,-1.168745639354967780e-02,2.544357696238649762e-03,-1.535771190935808841e-03,-3.076867351352291936e-03,6.337597370147705078e-01
6.232321669648350770e-01,6.178841871042126677e-01,-6.865625956887388970e-03,-4.497901304158744853e-04,-9.270697501168566335e-03,-8.181314457719766897e-03,6.278067827224731445e-01
6.008534554108944103e-01,6.115637712356402078e-01,-8.208609844966630043e-03,-1.433873649173260725e-02,-1.054128698951583773e-02,-1.172116734362559955e-02,6.155947446823120117e-01
6.287431920751048731e-01,6.246500006861938070e-01,1.178960610857336389e-01,2.760242401547799776e-03,-1.716693524402741321e-03,9.255927652244195017e-03,5.090965032577514648e-01
6.170361309280719686e-01,6.147059572098428903e-01,-1.517155520569879457e-02,3.008816205545460846e-04,-1.964164562909071366e-03,1.906508388595306116e-04,6.310552954673767090e-01
5.885211353483921215e-01,5.750674073828776489e-01,1.992008601793421319e-02,-6.471918530737196494e-03,7.170099480426980407e-03,1.840372086055658317e-03,5.622529983520507812e-01
6.000408869593163441e-01,5.818278592591604736e-01,1.445402534767015190e-02,-4.009686233632910914e-03,-1.054716021921295842e-02,-5.112307604998474891e-03,5.770950913429260254e-01
6.595345038933899673e-01,4.705051615874929483e-01,3.442545717200778954e-02,-1.614899695590132217e-02,-4.993451888355612475e-03,-5.652054172235679302e-05,5.560455322265625000e-01
5.128542750802868033e-01,4.543102781660554035e-01,-1.572888888472029345e-02,-3.510665766845689206e-01,-7.255640875495714820e-03,-5.541081765003295738e-03,7.885907888412475586e-01
6.438405471392825152e-01,4.881121194627385251e-01,3.265857437839125854e-02,-4.078386724998896845e-02,-4.466406485312162983e-04,4.933863831575891618e-03,5.546890497207641602e-01
6.806958856548586123e-01,5.073123824668700488e-01,3.911404933571560605e-03,-8.873001626342406911e-03,-2.736093986362696587e-03,-2.134065171651847864e-02,6.102300882339477539e-01
5.946827909109149157e-01,5.553512588206860334e-01,3.102868106410139326e-02,-7.472592106745988907e-03,3.172388546727652678e-03,1.300268696873645635e-03,5.452396869659423828e-01
6.543877613470758803e-01,4.476876945118901108e-01,1.586928891368266648e-02,-8.413746998670777744e-02,-1.012829685527334364e-02,-4.383737694869151158e-02,5.880129337310791016e-01
7.398635570341546286e-01,7.242880541428710073e-01,7.386863481418320942e-02,-1.799277732580165101e-01,6.606021090551580932e-02,1.180740469891825711e-01,7.651515603065490723e-01
6.208827103022658278e-01,6.263136339071233571e-01,1.046089630425950379e-01,2.534625634299565548e-03,5.062124969115046336e-03,5.200987270873532603e-03,5.191813111305236816e-01
6.247246045075804943e-01,6.299969853152700416e-01,1.251492108035168194e-02,2.681881370360918691e-03,-1.796913244615530765e-03,1.283901928704914890e-03,6.148922443389892578e-01
6.409256291293726759e-01,6.262485019026733379e-01,5.606205749430143159e-02,-1.487273681082533668e-02,2.075761665130322620e-02,4.240977368455535468e-02,5.839937329292297363e-01
6.388888547376283533e-01,6.314249796377654489e-01,3.678661914364056429e-02,3.445009782727774268e-03,1.987714643335701786e-03,6.899299067093472935e-04,5.984460711479187012e-01
3.666496580192236121e-01,8.388904744674182679e-01,-2.258635331789382583e-03,-2.784538884353060517e-01,-4.441718887649453995e-02,-2.560628407935163983e-02,8.796668052673339844e-01
6.236419631922962559e-01,6.285483669499404291e-01,5.971988800324923297e-02,2.017342667742441729e-03,1.170054164771820900e-02,1.139840784826186715e-03,5.667678713798522949e-01
6.238074508883688640e-01,6.251703363158057636e-01,6.183614219731742301e-02,2.736387309865198885e-03,1.152301698378993024e-02,-2.686989288348440915e-03,5.630470514297485352e-01
5.384238026175491854e-01,6.626747675240813873e-01,-2.354632267931533463e-03,5.260474231411037260e-03,-2.647833577610209793e-02,-1.455520219196735059e-03,6.142186522483825684e-01
4.355897703328987514e-01,6.751746159863796226e-01,3.376690199851856145e-02,-6.111387290741905620e-02,-3.287908430802668688e-03,1.653489743402579686e-03,5.712954998016357422e-01
6.246641447095203636e-01,6.313386852259506021e-01,1.045691834039075285e-03,2.292843125055728497e-03,-4.870774541294246862e-03,-9.400251483550728414e-04,6.270537972450256348e-01
6.271315920969192659e-01,6.066557354509233280e-01,-5.727957470573641352e-03,-3.737728799850658420e-03,-1.263696696249239255e-02,-8.121921420978664083e-03,6.234508752822875977e-01
4.848722413027989342e-01,7.537026045560097920e-01,-3.609736922164152872e-03,-3.986753048914104536e-02,-7.181718833100451949e-02,-6.724199983630239040e-03,6.801325082778930664e-01
6.598194613018572019e-01,6.581293059849070426e-01,7.851433887810482792e-02,8.347019859861038935e-03,-2.720938211844240590e-02,-3.247688343439437270e-02,5.852609276771545410e-01
5.219758161181828893e-01,6.485061389085433614e-01,1.755458663138276254e-02,-7.725017453986474103e-03,2.126942154919603560e-04,8.588446137165363717e-03,5.785116553306579590e-01
4.954120181299775938e-01,7.096616882892764488e-01,2.442915298615616626e-02,-2.318777443116998294e-01,8.622923710585619905e-02,5.673718769216021252e-02,7.496007680892944336e-01
2.179606046699406607e-01,7.824303069745618400e-01,-8.951217856467852396e-03,-2.070583558506689514e-01,-1.884105445483710145e-02,-3.796805241217185000e-03,7.924187779426574707e-01
5.145411403931540173e-01,6.637541976536868171e-01,4.507029260143236016e-03,-1.298194764726950511e-03,2.378363701000545810e-02,6.123294829201659855e-04,6.001718640327453613e-01
5.199422867935616921e-01,6.239840586134184353e-01,1.674927179843893610e-02,-1.260403218794189754e-02,1.141704509831808177e-02,1.789139318965765613e-02,5.641000866889953613e-01
2.084964228173389889e-01,1.019828935879280696e+00,-1.069190772715828408e-01,8.331773514103395228e-02,2.363457817260369853e-02,1.325274093304601116e-05,1.017917275428771973e+00
5.020348970197086036e-01,6.988964667229884409e-01,2.868847322458401017e-03,1.074441456334453010e-01,-5.513579898941464719e-02,3.664999370265766693e-02,6.587640643119812012e-01
4.999922765070753949e-01,5.248059367466274550e-01,2.817463931986530223e-02,-1.564531597423080567e-01,3.185208454596996468e-03,2.618505016299209082e-03,5.553547739982604980e-01
6.720103588175039278e-01,5.005791342030260216e-01,3.089589716841256717e-03,2.632374248945347668e-03,-8.143394729450784478e-03,2.662035016194581882e-02,6.037511229515075684e-01
5.853299328884045138e-01,5.980500125786981647e-01,1.830984775951977062e-02,-2.877257111684405899e-02,-1.505759239210623449e-02,-1.967136082745680678e-02,5.772441029548645020e-01
6.124497307639000798e-01,5.674308613376065624e-01,4.458978539611024861e-03,-1.812695937637552601e-02,-1.617443544867079239e-02,-1.256730496227977979e-02,5.886873602867126465e-01
7.651433952639501435e-01,4.478018974339353919e-01,2.710590473620111407e-02,-1.090823745112431409e-01,8.415060489701763763e-03,-6.475908707205972614e-02,6.780011653900146484e-01
6.381711988263583102e-01,5.039233827349524075e-01,2.207230090873185668e-02,-1.734330036533962838e-01,-1.200666555769097470e-02,-1.928396847502933040e-02,6.377111673355102539e-01
6.235774907192110916e-01,5.560234385636602106e-01,4.368546162112629805e-03,-7.614231465965938528e-03,-1.678251777232420139e-02,-1.208521399167474843e-02,5.895848274230957031e-01
8.822597939933803923e-01,2.482424074115689994e-01,-2.830751670669151565e-02,-5.343311943309628220e-02,-3.782755645141765589e-03,-5.160977358782805474e-02,8.187760710716247559e-01
6.870862198054289438e-01,6.417621191919928858e-01,-1.099325798460715209e-02,-8.228202014257800234e-02,-3.122011674673208156e-02,-4.815015636116114911e-02,6.985125541687011719e-01
6.337788681163605276e-01,5.399761399718349120e-01,2.406870328837351636e-03,-3.652474963267074437e-02,-1.754623594409403242e-02,-1.769964867329662517e-02,5.950384736061096191e-01
7.817116193801538770e-01,2.607213666168596844e-01,-1.119468124173600421e-02,-1.051044263556814434e-01,-4.665897315974393012e-05,5.870213823447056195e-03,7.213037014007568359e-01
5.727407859444635374e-01,5.921300882940598864e-01,2.801640578976233309e-02,-1.335154186123124233e-02,-6.471171354212687347e-03,-7.680581719326790534e-03,5.554276108741760254e-01
4.932144967939022795e-01,6.218129125185856143e-01,3.050344322330372782e-02,1.538648477790801467e-02,1.589939547923860212e-03,-4.021735310041407718e-03,5.393601059913635254e-01
5.989893184763415146e-01,5.359757574510455314e-01,3.289062935255554487e-02,4.417123468828007549e-02,1.149148400873101867e-03,-1.254112069805335492e-03,5.427969098091125488e-01
4.500141624075055247e-01,7.407356258760608991e-01,-8.696211823835747756e-02,3.550981807065639040e-01,3.711019377131807157e-02,-3.184140022803774034e-02,9.562584757804870605e-01
5.909377585416260015e-01,5.336762160325053683e-01,2.700023902985859703e-02,2.174013510099167754e-02,-6.807704334447899422e-03,4.450092815751709348e-03,5.390999913215637207e-01
6.247779350207859350e-01,6.307881234365209089e-01,-3.073328719636059247e-03,2.045180762456659182e-03,3.817266318067163901e-03,1.005082852124292159e-03,6.309248208999633789e-01
5.737197616128170141e-01,6.376425799757143853e-01,-9.614497543221856013e-03,2.475275957732646099e-03,1.169485947317759969e-02,-8.893997157549455093e-03,6.183198094367980957e-01
6.271316126584494111e-01,6.294455367650205746e-01,4.530333989443746656e-03,-6.594903095711284868e-04,1.386604865694462084e-02,-5.574224770258283390e-03,6.242993474006652832e-01
7.202376821438429833e-01,3.530377762869784108e-01,2.268928985413942723e-02,4.749808903675378779e-02,1.589552199067141612e-03,-1.360549218690864856e-03,6.099599599838256836e-01
3.207433127217142466e-01,7.464107706977952672e-01,7.948008025954750311e-02,1.413087424108037948e-01,1.238186128950956172e-01,-5.498671963978835064e-02,6.760672330856323242e-01
6.849053592243654620e-01,5.358957786159005421e-01,2.508494447669318284e-03,-3.566757220126833688e-03,-4.868172906509275234e-03,1.919733941031413760e-02,6.224150657653808594e-01
6.715109481935855884e-01,6.876361362339679095e-01,1.812305186588381023e-02,4.746254221540009005e-02,4.923155509149351045e-02,-1.430077082770889879e-02,6.725731492042541504e-01
6.335184589967757240e-01,5.143931295475531185e-01,3.084656777108479853e-02,-6.993663345905000439e-02,1.118004243388519628e-02,8.307426154805118076e-03,5.664505362510681152e-01
5.888251039493372918e-01,5.544399423233933311e-01,3.238328338572554754e-02,-4.667981938305842612e-03,-2.864742061232012499e-03,-6.492981864757795636e-04,5.401552915573120117e-01
6.196148184829084471e-01,5.304528371349636062e-01,2.151403901724840972e-02,-1.293450409551219482e-02,-1.664836630943521828e-02,-9.353768862508634110e-03,5.603056550025939941e-01
5.245067403143632845e-01,5.956558203428780063e-01,3.274700009011688451e-02,-2.152536484988239185e-02,3.427548324731557929e-03,4.558976324877245072e-03,5.323210358619689941e-01
4.626119032374833573e-01,6.364131568274044026e-01,2.320912254287366139e-02,-5.922869048599796460e-02,2.026156282682891122e-02,1.510608006895975026e-02,5.586507916450500488e-01
5.368864916866664672e-01,6.062252396147848055e-01,2.162075270873270449e-02,-1.907405266526664492e-02,-1.102475327366113367e-02,-1.300200413993204268e-02,5.549754500389099121e-01
5.809579660364492248e-01,4.985858459537735321e-01,1.245028299223166490e-02,-1.058153387572847021e-01,-3.020315196580098532e-02,-4.545567650903707679e-02,5.706863999366760254e-01
6.811288007269459266e-01,4.371331815978077295e-01,1.802750957179277691e-02,3.295333437558475853e-02,-1.167057090590464634e-02,2.986099527721079380e-02,5.863316059112548828e-01
5.487060973839105182e-01,6.014792084838798125e-01,3.728267965298243114e-02,-3.944467111285899358e-02,-2.270000084040209570e-03,-2.512741863480187719e-03,5.440867543220520020e-01
6.385398436709066594e-01,5.770312682189386866e-01,-9.343971918508719998e-03,-4.349957611601430740e-03,1.017107356924883306e-02,1.072186386568817901e-02,6.199986338615417480e-01
7.596304615157947193e-01,3.813535290033556735e-01,2.950740694421077892e-02,-5.897072927097381928e-02,2.078698866049780505e-02,6.094945945895516998e-02,6.502752304077148438e-01
6.463510647273480458e-01,6.091211316177382873e-01,-1.702309705835347575e-02,-4.516707312528916302e-02,-8.458764171311068322e-03,-4.223766100404913876e-02,6.545539498329162598e-01
6.624616707455662779e-01,4.697886362856816267e-01,1.904567719133942738e-02,-1.388857128580593681e-02,1.369538439904117999e-02,1.589049766087294660e-02,5.736174583435058594e-01
6.563106430195886354e-01,5.129633107579375517e-01,3.019877745257193435e-03,2.071743524287181920e-02,-1.269630413918594429e-02,2.605757865729193407e-02,5.979113578796386719e-01
6.300935858592530137e-01,5.693108055959069658e-01,1.175198020672729715e-03,-9.012352492645901020e-03,1.040247521466367356e-02,1.150466812250002012e-03,6.013133525848388672e-01
6.272207203246492613e-01,6.228255121835724051e-01,4.975245028857266938e-03,4.092261013441357217e-03,-1.578228254914929712e-02,-9.755841143202164875e-03,6.209322810173034668e-01
6.273776105311789086e-01,6.283176164348347470e-01,2.484229097529733199e-02,-1.005780445737823993e-03,-7.638870826634078758e-03,-2.622269278881868108e-04,6.031537055969238281e-01
5.718484387020598136e-01,6.584236261278415547e-01,-3.881924338241526939e-03,8.371944441280743587e-04,-1.714221694482682620e-02,1.262688618650584845e-03,6.242540478706359863e-01
6.266147225795040132e-01,6.262417998779368222e-01,3.448726090906378827e-02,2.081215150234253398e-03,6.008171729988051428e-03,-5.151661690168620258e-03,5.921107530593872070e-01
6.246323719208543013e-01,6.318207096341379447e-01,6.606709833349400096e-02,1.890493119081061669e-04,9.844035459655085807e-03,1.710887492479214438e-03,5.624603033065795898e-01
6.173267509317076351e-01,6.157698810615951368e-01,-1.425497480767273784e-02,-1.219240511248171743e-03,1.595636858515250963e-03,-4.451251107336199101e-04,6.308147907257080078e-01
9.454195805607977787e-01,2.216137686092918280e-01,-2.015246403914350282e-02,-1.572679677901578088e-01,2.022197433542496231e-02,-1.259336711759023557e-02,9.128196835517883301e-01
3.883303545337927765e-01,7.120662208737640331e-01,3.589429518103542938e-02,-1.685400764414719810e-02,-5.466899497343499607e-03,-4.175190781422059502e-03,5.866058468818664551e-01
5.834957385164053489e-01,5.708066126407659313e-01,2.644356495722566258e-02,-7.296645351069093108e-03,-5.721151933190168209e-03,-3.488337666706487535e-03,5.510844588279724121e-01
5.379670704413086479e-01,5.938398907740146671e-01,2.720172984910690372e-02,-2.066487751998228456e-02,-1.288178455674075101e-02,-1.320533177801316675e-02,5.429944396018981934e-01
5.793542003293887799e-01,5.208235216483387831e-01,3.408459772092831130e-02,-1.191900446536239694e-01,2.111518318168233187e-04,-2.907226012207957469e-03,5.580986142158508301e-01
5.910983909605462827e-01,5.798099047987349541e-01,2.009182870035219892e-02,-4.605392313425500650e-03,7.165755541150304470e-04,1.382457578042029303e-03,5.655095577239990234e-01
4.986331878830795317e-01,6.839744535911715939e-01,5.536440319490243400e-03,-1.077273605711911303e-02,2.399928374834080572e-02,9.275566691382082507e-03,6.092791557312011719e-01
3.389381789249176213e-01,7.421401925835772184e-01,2.737886807117162480e-02,-4.413775744647454452e-02,-1.146059121833152214e-02,1.422629015406281540e-02,6.261852979660034180e-01
5.594470747843922620e-01,5.960566515759062600e-01,3.594186756289874385e-02,-4.310353609938434583e-02,-2.468586563579728502e-03,7.132483886588288470e-04,5.478656888008117676e-01
6.193737602219708815e-01,6.169920638401446000e-01,-1.417648650883673866e-02,1.272726810881171303e-03,1.863067942373422504e-03,1.358566418209158563e-03,6.323792338371276855e-01
5.131991361881244051e-01,7.171867392794302187e-01,-1.685715096945816782e-03,-1.026742091605221119e-01,5.219518462606590609e-02,3.025779938765645050e-02,6.740126609802246094e-01
6.606732851673302598e-01,5.524051217819561099e-01,-2.224498320038570398e-03,2.053214972196138518e-03,6.843598127790812328e-05,3.243342884486388235e-05,6.159524321556091309e-01
6.244779226815692086e-01,6.307375939147779054e-01,2.194363145895378286e-02,-1.989720023500218750e-04,5.320699837765070772e-03,-1.295725616764098898e-04,6.057586073875427246e-01
6.604298283773851752e-01,5.965710783116395799e-01,-7.422993201631755689e-04,5.881482078400034237e-03,-4.455209735974898985e-03,-1.715780208832027795e-02,6.324961781501770020e-01
6.731473969521291068e-01,4.517500881460614348e-01,2.085698930548796071e-02,-2.423755915371458153e-02,-1.780296089037487067e-02,-1.960632321387481558e-02,5.778846144676208496e-01
6.787336287116969569e-01,4.430831807133585043e-01,2.023587554728428772e-02,-6.142381785972489405e-02,-1.866506825705696246e-02,-1.427901646433049967e-02,5.890251398086547852e-01
6.434430300985807261e-01,6.032153032022258277e-01,-5.680179956670805552e-04,2.524661616805378458e-04,-1.245889497244764485e-03,-4.803860845547381318e-03,6.249283552169799805e-01
5.962634073926565970e-01,6.117775326561298854e-01,-6.870147377828539348e-03,2.262894450685381479e-03,-4.717280718036436643e-03,8.783729937545560820e-03,6.112948656082153320e-01
6.089425123815088714e-01,6.006553606204724227e-01,-2.303446683098120396e-03,5.888368240805238974e-04,-6.431811188794324743e-03,4.125152944079425732e-03,6.072899103164672852e-01
6.174040516346623875e-01,6.144136632108156970e-01,-1.546817307704112521e-02,-4.224768195885702138e-04,-3.044668582530509881e-03,1.990570101699031024e-04,6.314048767089843750e-01
6.219635591487053805e-01,6.144000538803514599e-01,-1.494809247282791187e-02,-1.606189426569787143e-03,-2.502352797320989836e-03,-8.986341167740141396e-06,6.331847310066223145e-01
6.246699931211507906e-01,6.154667273342351308e-01,-1.252956733267679423e-02,-1.022253139447659893e-03,-2.604563707454931720e-03,1.729204667425002717e-04,6.326667666435241699e-01
6.204076581790075595e-01,6.216432053130857005e-01,-1.297641417572581446e-02,-9.865994879355664132e-04,-2.502053924376599855e-04,2.074696886421333042e-03,6.340153813362121582e-01
6.427745489909006960e-01,5.092019073378745153e-01,2.291055229744565214e-02,6.010028753509297911e-02,-8.884812131081025119e-03,2.198666817960361411e-02,5.760202407836914062e-01
6.334848365775553880e-01,5.472988378694221279e-01,8.004312901697840932e-03,1.498348537255336267e-02,-1.339222876928397414e-02,2.086525821808811812e-02,5.892910361289978027e-01
6.069074231599592695e-01,6.262572605760350353e-01,-7.612199194453495021e-03,2.236265623502612689e-03,-6.625907597852151790e-03,7.590345224782192070e-03,6.246752738952636719e-01
6.329796447262788783e-01,5.112647544735475780e-01,3.460623408783192190e-02,-2.078410517540910454e-02,-1.000318254522503591e-03,1.237104012289850499e-03,5.489424467086791992e-01
6.186499571558763400e-01,6.253001146541425914e-01,7.995623835524989786e-04,-7.879559629110637238e-04,1.067821995605480268e-03,2.119907921730783580e-03,6.212172508239746094e-01
6.252908098943769089e-01,6.168127303601883549e-01,-9.678033634598626200e-04,-2.164931717092462293e-02,1.120091138809348012e-02,2.756870948444759342e-02,6.253197789192199707e-01
5.515678104127189618e-01,6.553055817436750363e-01,5.312698465538834292e-04,-3.472215059396525916e-02,2.993208673191275274e-02,1.450236240010528352e-02,6.152249574661254883e-01
6.827868267240047029e-01,3.872352153943399156e-01,3.349426143633343900e-02,-8.335464858541723199e-02,4.150485267035592947e-04,1.106248205448897952e-02,5.815873146057128906e-01
7.096053291508190863e-01,4.590796668631703104e-01,1.755658750381872135e-02,-2.568579243190308725e-01,6.847102830301729157e-03,8.050712098325098209e-02,7.653962373733520508e-01
6.703763966724209933e-01,5.087025316570564781e-01,6.273936532564639013e-03,-3.630528520672154924e-02,1.742798820675363694e-02,1.906694689637720638e-02,6.047797799110412598e-01
6.154739054565432355e-01,6.167710941453335982e-01,-1.471335867463069436e-02,-9.671169743645670726e-05,-3.432911268303972217e-04,2.707232162658165971e-03,6.308546066284179688e-01
6.153683451581546393e-01,6.191255805690627501e-01,-1.438662862834932943e-02,-9.665235755436447549e-05,-3.430870928795065524e-04,1.557684032842597066e-03,6.316480636596679688e-01
6.166719184190389003e-01,6.184680328628993085e-01,-1.505617876650161557e-02,-6.959609694798697807e-04,-7.260930829058849859e-04,1.706864871408094765e-03,6.326373815536499023e-01
6.078531241793921902e-01,6.104044126985772589e-01,-8.745151194899491998e-03,-1.853817752418890656e-03,-8.557243814478271903e-04,4.681512141811709597e-03,6.179412007331848145e-01
6.290212260288658985e-01,6.103154180625518510e-01,-7.413053528543489534e-03,6.254215332514725207e-04,-1.264625086839661454e-02,1.165423524059815835e-02,6.279983520507812500e-01
6.085906462191035260e-01,6.029285888273224758e-01,-9.495032546144477337e-03,1.833618879654061798e-03,-1.344722638199391572e-03,5.175628556580988589e-03,6.153520941734313965e-01
6.101006225523659676e-01,5.893442276318218154e-01,8.820246625916627892e-03,1.891044823218442777e-02,-1.657237092183394198e-02,1.610190472064598408e-02,5.934332609176635742e-01
6.160333677768028426e-01,6.218787945306328835e-01,-1.223715195814262247e-02,-4.963413842570988744e-04,-2.593660506715938542e-03,5.200141417593253518e-03,6.312943696975708008e-01
6.514323774743910889e-01,5.913300612201470852e-01,-8.310570787895321665e-03,3.704827759739255395e-03,8.358356434141461441e-03,-9.762069963871721975e-03,6.322638988494873047e-01
5.925020007204424566e-01,6.934109435843910374e-01,8.162125345227305706e-02,1.116998890388248566e-01,9.782092685387097641e-02,-1.226709450865133139e-01,6.587989330291748047e-01
5.433424989098232238e-01,6.765882809766059491e-01,3.601018948801321118e-02,1.428281812758858960e-01,6.240673428303610687e-02,-1.740731226705782841e-02,6.453936100006103516e-01
5.987068045476846567e-01,8.799945866796984317e-01,7.238725316981248215e-02,-1.837869512906893654e-01,1.071029856922152412e-01,1.006995086919798901e-02,8.001453876495361328e-01
6.351118981992104340e-01,6.284256782289899812e-01,2.588313195735159056e-03,-3.257255721250169205e-04,1.042556353409027428e-02,-6.854605692654017202e-03,6.295784115791320801e-01
8.743463639810297172e-01,4.720011228004276638e-01,4.805105668872788893e-02,1.808090783729205120e-01,4.939991724691713409e-02,-8.130969731888207375e-02,7.983860373497009277e-01
6.208080882748422402e-01,6.409342702168507877e-01,2.945809747676775281e-02,7.770177551972693754e-04,3.321513633048977284e-03,1.123409536307389163e-02,6.020091772079467773e-01
5.794796827139990780e-01,5.758329696761195216e-01,2.676323357657606206e-02,2.248458009200029681e-03,-4.090482269908033743e-03,2.517257329607295192e-03,5.509787201881408691e-01
5.786122327971728874e-01,6.031488405755468518e-01,7.714073556485678829e-03,2.973246141943053367e-03,-5.380626488935679602e-03,1.071773220823903777e-02,5.839457511901855469e-01
5.801430551766962873e-01,5.912134567240098226e-01,1.978339986829136254e-02,4.901101079148557221e-03,-1.671184562477880933e-03,6.159107367206163733e-04,5.660481452941894531e-01
5.910810427592469996e-01,5.885843550622239517e-01,1.156217653010699342e-02,1.985377266927291443e-03,-5.653994180382387706e-03,3.800545776308378917e-03,5.784051418304443359e-01
5.935912334528534728e-01,6.251133188452284717e-01,-7.062647397460486420e-03,1.307217494157163207e-02,1.163392505728526663e-02,-1.299270026825920590e-02,6.181728839874267578e-01
5.767496656937709520e-01,5.888512911835093178e-01,1.952702386624410869e-02,5.157466153337151443e-03,-2.201964807969027018e-03,7.371294575077151287e-03,5.635992884635925293e-01
6.002161671662200604e-01,5.498153585687135525e-01,1.852752811321173310e-02,1.307016609296666673e-02,-1.060986407388701293e-02,1.102596705059732127e-03,5.589616894721984863e-01
6.233847599002408923e-01,6.282475416601607243e-01,3.967665131017367175e-02,6.175851025483178498e-04,-2.258559930781682676e-04,-6.679967962778057995e-03,5.862699151039123535e-01
6.615463359228603846e-01,4.519361249085207533e-01,1.908560651867063918e-03,-1.629332293550125321e-01,-5.689782885597512857e-02,-7.209623262285694278e-02,6.676368713378906250e-01
6.605388153123764594e-01,4.865176551660426174e-01,4.622513689104057466e-02,-1.693067847259125402e-01,-4.621645776493830265e-02,-1.122877221829945982e-01,6.564974784851074219e-01
6.272113239623495762e-01,6.259890161195225122e-01,1.116252338860832527e-01,-4.264242595188031575e-04,1.352159841563729207e-03,2.517140816202273913e-03,5.150003433227539062e-01
6.257858430327349897e-01,6.212660050820737467e-01,5.754824434976058001e-02,2.006419916374560064e-04,-4.875707696513677421e-03,-7.875270963715496481e-03,5.662186741828918457e-01
5.803170072414655101e-01,5.557707498115618261e-01,2.161424675592277245e-02,-1.799170465390961815e-01,-1.100227663839803069e-02,-2.987703441515675989e-02,6.318138241767883301e-01
6.046868291462589307e-01,6.252198193845160956e-01,8.197021817203781202e-02,-9.624916830880909935e-02,6.069242423943248949e-02,5.148884432159705343e-02,5.754849314689636230e-01
7.079708067364668400e-01,8.106342598305966707e-01,9.954763944160555100e-02,-1.141251249395947714e-01,3.417597116771740190e-02,7.788703878813942050e-02,7.099000811576843262e-01
6.373535140592085924e-01,6.295729080528614796e-01,8.344288844806080352e-02,5.358825085414714584e-03,-1.144618620892842026e-02,-1.135086524234469457e-02,5.508479475975036621e-01
7.044623985206804884e-01,7.027652517952969191e-01,9.348908115701143329e-02,-8.740940285717329131e-03,4.239852440958075119e-02,-5.441048893471909370e-02,6.218987107276916504e-01
7.720031168729697413e-01,1.921013746130050548e-01,-2.113888533843921724e-03,1.646277431022876436e-01,-1.041268121423104265e-02,3.644235901463748623e-02,7.564705014228820801e-01
5.940617899093549870e-01,6.554524142358696404e-01,-5.071391042914208391e-03,-5.358878155225178276e-03,-1.096575933372704106e-02,-1.522841121711928118e-03,6.324273943901062012e-01
6.252998792468696942e-01,6.377332669761637263e-01,5.909572963270626200e-02,-6.168111293534343960e-03,-5.572901300263737381e-03,-7.879550186688795421e-03,5.728657245635986328e-01
6.204771862751750078e-01,6.299315642000968829e-01,6.472085704426727704e-02,-4.031606431283028466e-03,-4.135266572202003083e-03,1.759256086316831778e-03,5.606408715248107910e-01
6.055661609794938949e-01,6.722748890028692470e-01,9.578710722361299945e-02,-1.159347162329221470e-01,-1.098003466950424195e-01,-1.128260468187585186e-01,6.426597237586975098e-01
6.296003133825457398e-01,9.196271709471628419e-01,1.109212886059100511e-01,-1.187696215692813917e-01,-1.093813990426085320e-01,-2.958777546509298167e-02,7.644685506820678711e-01
3.905459750828266241e-01,7.142910368159005596e-01,5.930011677401719750e-02,-9.113190328474138346e-02,-1.155462972383503595e-01,-4.882779995717658611e-02,6.276099681854248047e-01
6.452178584503145409e-01,6.278630312624893239e-01,6.856412731325811638e-03,-1.653797291070735129e-02,-7.174836911921608079e-03,-1.826796131050201569e-02,6.314300894737243652e-01
6.333934091246610221e-01,6.307934288269007039e-01,3.714291175221823282e-02,-1.847805847235938414e-03,-8.951688168162224776e-03,-4.201367888934353333e-03,5.952098369598388672e-01
6.234723845548758581e-01,6.266095003806444463e-01,1.017529318968515839e-01,1.496144395985421786e-03,-5.450374956738361296e-03,8.726278959735453075e-03,5.236048102378845215e-01
7.168500387343350599e-01,7.296017660766445090e-01,1.260862563647965895e-01,-4.656184789758461423e-02,-2.118732045910787926e-02,3.865652396907562349e-02,6.074795722961425781e-01
8.023924292857669283e-01,6.455828544060439045e-01,9.385800517791303976e-02,-1.632623937271131531e-01,5.975393299679512826e-02,4.953234236698106363e-02,7.166178226470947266e-01
7.326811151548655587e-01,5.737481172763819748e-01,1.105631336732265657e-01,6.531457338695102754e-02,-1.042823815906707315e-02,1.402731257591351144e-01,6.209422349929809570e-01
6.413702417010359591e-01,6.203728968206562167e-01,9.747084780423354022e-02,-1.296648766911037698e-02,-2.585051391738816835e-03,4.716821836566060730e-03,5.342641472816467285e-01
7.518763541617659030e-01,3.670539306215934161e-01,1.851741426773040322e-02,1.023914537011282391e-02,-1.315667561377300079e-02,3.129366942482980640e-02,6.383277773857116699e-01
6.250960719146458899e-01,6.274865761972915346e-01,1.413936799971791114e-01,-2.327248670044224175e-03,2.695150875015246781e-03,-3.764118085006211162e-03,4.849851131439208984e-01
7.315198862421976589e-01,5.606804036917735212e-01,8.111294355936937706e-02,-3.515688926033393169e-02,1.034755886921743390e-01,1.005270168838993811e-01,6.381589174270629883e-01
6.822888783681355651e-01,3.293245386183549228e-01,-1.271301414045468703e-01,-3.103449100052055321e-01,6.824907021182813338e-02,2.173183100907269405e-02,8.935208320617675781e-01
5.471406659164423925e-01,7.199625349240292849e-01,1.001352094180613661e-01,1.047572816789586886e-01,-7.222806586399525830e-02,3.782603763255882462e-02,5.998324751853942871e-01
6.383845266071299651e-01,6.053505999171587826e-01,-5.580642772151922504e-03,1.093516724848715704e-02,-7.095628227989321524e-03,-1.013157182453726596e-03,6.285082101821899414e-01
6.619882121156268617e-01,5.567882640950997386e-01,-5.403432804558738756e-03,2.582435201906693387e-02,-9.879299953085972363e-03,2.274912397780356338e-02,6.245919466018676758e-01
5.567357315750771640e-01,6.411780693337613135e-01,4.838775503432368730e-04,3.586164788594173227e-03,-2.700726872657273781e-03,-1.563755797047181387e-02,6.035825610160827637e-01
5.728883627084423447e-01,6.382366785928783592e-01,-7.012854902567533522e-03,3.140295432286742405e-03,1.512892324372614415e-02,-1.130811783612780536e-02,6.160773038864135742e-01
4.278309764869100973e-01,6.795823442309680829e-01,3.574114551886337088e-02,2.467085433442705797e-02,2.249310855267144024e-03,-3.618943016673239511e-03,5.636512637138366699e-01
6.136940660884671050e-01,6.176584467524572908e-01,-1.149575896732041302e-02,3.279415105356575828e-04,5.101034774251083335e-03,-5.451337603995517339e-03,6.273149847984313965e-01
5.840112487236436278e-01,6.415080001390275344e-01,-2.487325533453876858e-03,1.335984170963989276e-02,9.633908019090533029e-03,-1.533212100452134401e-02,6.184879541397094727e-01
6.307249201907536573e-01,6.289620399454218802e-01,5.346675831362640574e-02,-4.754271137451525873e-03,-1.159862112535633982e-02,8.445941355687134472e-03,5.769730210304260254e-01
2.510703997854657477e-01,7.800112692745722054e-01,-2.037478627382982577e-02,-1.230824071486590066e-01,-8.151343537727792979e-03,-2.292230531912355877e-03,7.366833090782165527e-01
6.161466724828489339e-01,6.343385591088039899e-01,-6.887310321505801802e-03,1.709820127786292748e-03,-2.354738551132454661e-03,5.696248936045367412e-04,6.323471069335937500e-01
6.300284736492784976e-01,6.339231922988829426e-01,5.481145808417908771e-02,-5.770880725999443656e-03,-1.232348283233060220e-02,3.803732882988782125e-03,5.776928067207336426e-01
4.940096007310978976e-01,6.643365125936467885e-01,-2.561129827082231358e-04,-5.778846851618440333e-02,3.289181389748478679e-02,1.714270897529045559e-02,6.096247434616088867e-01
6.120576686041563352e-01,5.903248004479899613e-01,-7.093200425707602008e-03,8.601841038393533839e-03,9.424419131216808104e-03,-7.510379540282610504e-03,6.091156005859375000e-01
6.818597610814536303e-01,5.303802094301569570e-01,2.307842496570622348e-02,2.593512141246954728e-01,-6.649492747958196670e-02,7.160231034575337272e-02,7.665386795997619629e-01
6.202866266063915557e-01,5.128363578171499793e-01,3.332398356724836086e-02,1.296239213302141299e-02,-4.737609295243325712e-03,1.269006362650884352e-04,5.418236255645751953e-01
5.557495218013690508e-01,6.852245135979598833e-01,5.146517322232341263e-02,6.544442957931011218e-02,-5.973705120790226419e-02,1.974569416006485140e-02,6.009016633033752441e-01
5.904121020650414664e-01,5.538806980036261596e-01,2.570598647531080472e-02,8.405442191681362918e-02,-2.587203620512500135e-02,2.153186856050218548e-02,5.693789720535278320e-01
6.128613066730699277e-01,4.719371976720420081e-01,3.831946578385098112e-02,1.729763201170335107e-01,-4.273521634593439172e-02,6.920174776080541268e-02,6.153040528297424316e-01
6.317888815597862973e-01,5.394125584178245392e-01,1.017483161659105129e-02,7.037041543341857053e-02,-1.665401237389926847e-02,2.424618702265163295e-02,5.957908034324645996e-01
6.404486891748816246e-01,4.325076978014058549e-01,1.660712993398871795e-02,1.101118597013496375e-01,-4.695587108146497685e-02,7.298925457059314559e-02,6.013869047164916992e-01
5.519516331719807045e-01,5.871842233963489033e-01,7.173012398780653776e-03,2.011647200462706730e-01,-4.050762509672618111e-02,6.391866232564663575e-02,6.751297116279602051e-01
5.958690082004066690e-01,5.955976731308840755e-01,4.674924292748572352e-03,9.506984400831846455e-03,1.103196849923804290e-02,-1.012830639929855614e-02,5.918564796447753906e-01
6.277766031884077780e-01,6.253900278157107362e-01,1.120278394177787185e-02,3.988989255298003300e-03,1.219371027049340759e-03,-5.918397357145012937e-03,6.155117750167846680e-01
6.238739519297613612e-01,6.209546977218035613e-01,-3.108846200686965489e-03,-6.512721480917351043e-03,-2.254513475402917036e-02,-2.838838989035058491e-02,6.287729740142822266e-01
6.755224563891986111e-01,4.698783681184693362e-01,-5.759330458917633067e-03,5.448446717328347261e-02,8.455812884644229449e-03,4.200300430485833631e-04,6.127426028251647949e-01
7.386473495134073808e-01,5.402501098579390870e-01,6.018980509504306964e-02,-2.445007653165906791e-01,-8.543874120144634432e-02,-6.277936421074561957e-02,7.603465914726257324e-01
6.398481384035197284e-01,6.129716429115641407e-01,-1.433289799029563438e-02,-2.808294475617439771e-03,6.073641743331137377e-03,1.153695767013080721e-02,6.415814161300659180e-01
6.333182569383067895e-01,6.248716342073512564e-01,1.456367537286828995e-02,3.573808678106376972e-03,-4.598431492732134545e-04,4.296157440012367788e-03,6.146515607833862305e-01
6.701021791939545391e-01,6.409601596782257271e-01,7.056418708551887020e-02,-3.860862814626846856e-02,-2.480208972096420092e-03,-1.764108980237615379e-02,5.901247859001159668e-01
6.110629610141884438e-01,6.773786123779101942e-01,1.901906756993954062e-02,-7.298263198782342642e-02,-2.275798077738079225e-02,-7.489346349942467389e-03,6.417763829231262207e-01
6.549319545456746550e-01,7.108143967047136913e-01,7.075105817676496933e-02,-1.849485554870698434e-01,-2.843644844951749920e-02,-1.491380565882688969e-01,7.408143281936645508e-01
6.218693223199102116e-01,6.541308809483494802e-01,2.267222792968132117e-02,-2.880537794561478099e-03,-1.399871153886128074e-02,-4.663796877206367007e-03,6.165120005607604980e-01
5.283944970711743627e-01,6.604969971960530373e-01,5.747422370621685372e-02,1.648654054759713938e-01,4.548524910288122974e-02,-8.475034564225905620e-02,6.408768296241760254e-01
6.289222574316826186e-01,6.322013475423328144e-01,2.390933204695999681e-02,4.707470071699464999e-03,4.500418407192752560e-03,-2.315914498960743896e-03,6.067772507667541504e-01
5.956093599362597413e-01,6.349119333938015863e-01,-1.094318957450518548e-02,-2.732175821731180378e-03,-2.020519927280113506e-03,6.529680757830482124e-04,6.271568536758422852e-01
7.081062329982245052e-01,8.315770521049570263e-01,9.865529226536140506e-02,-1.082709815853984264e-01,9.155630765289012041e-02,-2.268416924466077830e-02,7.237293124198913574e-01
6.016477084192156655e-01,7.246537704445208394e-01,9.730263899368701841e-02,4.837333558897017292e-03,9.491224754083871229e-02,-3.506126668967310400e-02,6.019260883331298828e-01
7.123248170994356254e-01,4.116398603679961576e-01,3.372338304130062525e-02,3.030499156728320292e-02,-4.946536783463992108e-03,1.530067879863432692e-02,5.919434428215026855e-01
6.138541955213265844e-01,7.368789937233175547e-01,6.875620596451215150e-02,2.474517101873768832e-01,4.096153575056863533e-02,-8.730461787883068980e-02,7.687160372734069824e-01
3.597882465145760267e-01,8.331175144636899788e-01,6.311022879450606249e-02,4.781502977897056361e-02,1.507158412115042756e-01,-1.027099006020600475e-01,7.477549314498901367e-01
6.273308854615191610e-01,6.025716647399854686e-01,-1.108301888202856134e-02,3.840872731454590748e-04,-7.731464448994581490e-03,4.022052151720068285e-04,6.265452504158020020e-01
6.325608325567942947e-01,6.191614314224738180e-01,-1.011170374620906642e-02,2.106899658006337536e-03,-4.621305667261320881e-03,-3.538416531425110038e-03,6.361690163612365723e-01
6.293930679071786383e-01,6.289451075113630107e-01,6.945410369011528751e-02,-1.690439676551120046e-04,-2.995721047800747102e-03,1.324705464849436527e-02,5.602093338966369629e-01
6.511841967578546608e-01,5.890481729316585646e-01,9.621908957821445618e-04,-4.984851645454705521e-02,-3.363991368906356361e-02,-2.953045699177822211e-02,6.322286128997802734e-01
6.353098999703198357e-01,6.083345378475761844e-01,-1.001770168449245269e-02,1.149287802282770955e-03,-2.021912513126368927e-03,6.351039196390555024e-03,6.323801875114440918e-01
6.314493973488809475e-01,6.195871504676245811e-01,-5.054140102185300520e-03,-2.581420002552099659e-04,-2.222162251305714539e-04,-8.893635014966624506e-04,6.306582689285278320e-01
6.297892801063467161e-01,6.203984593164263428e-01,-9.172830949134513912e-03,6.449556842323231516e-04,7.396195362636923685e-04,1.698084183671796617e-03,6.343279480934143066e-01
6.330270504407979892e-01,6.086859624079055120e-01,-9.954428175023066760e-03,-1.690003028634630766e-05,1.209699640389618781e-03,6.473049533161206841e-03,6.312661170959472656e-01
6.311352946939922104e-01,6.156230616033238068e-01,-1.147682169676428332e-02,1.983644449342240185e-03,1.317866763491535188e-03,-4.180703945693752606e-04,6.350119113922119141e-01
6.337215379671914395e-01,6.343872346353041092e-01,5.855608860453798137e-02,2.501668235556355491e-05,3.962804501138027236e-03,1.199601905843513186e-02,5.759144425392150879e-01
6.270952253064125959e-01,6.253513460141681968e-01,-7.827290075604897979e-04,-1.892810486586611477e-03,4.640704652463957373e-04,4.497366312891205170e-03,6.270653009414672852e-01
6.301994181248725679e-01,6.196959583817384098e-01,-9.207569526687942041e-03,4.850275565335125964e-04,7.812268145926378003e-04,1.623211247950380985e-03,6.342287063598632812e-01
6.583519919667478737e-01,4.787760767557594499e-01,2.646243910536527633e-02,9.589901750808793243e-03,-9.779940459598431349e-03,1.668250156570119658e-02,5.652057528495788574e-01
6.475707936874874893e-01,5.692872808473845581e-01,-5.308512571434331750e-03,3.880742113199154761e-04,3.015278773278970946e-03,1.052719414576836279e-02,6.177622675895690918e-01
6.486687107397683949e-01,6.534177410699270050e-01,-7.314840315249315772e-03,6.390247538521562354e-02,-2.726655930423137891e-02,2.546938634468047177e-02,6.707304120063781738e-01
6.195567374797444904e-01,5.916533039318702114e-01,-9.191687437576534503e-03,1.033010033944653933e-01,-7.413299826464876674e-02,6.114674603267885450e-02,6.620242595672607422e-01
6.913525017517694327e-01,5.365312038283989171e-01,3.514858565856371353e-03,3.319893621871424123e-03,1.529622698311098195e-03,2.056597147299108613e-02,6.260250210762023926e-01
6.359903347755134773e-01,5.699923977889713722e-01,-5.031835078372903780e-04,7.655328789822146360e-03,-1.290823533131604806e-02,9.271875806086952347e-04,6.067542433738708496e-01
5.930479202834677555e-01,5.552029021370028516e-01,2.917429988467079571e-02,-3.887027330111283985e-02,-5.296500648092017545e-03,-7.752412373977239125e-03,5.503118038177490234e-01
5.067476464337720143e-01,6.201803626368685984e-01,3.325233685772460701e-02,-1.356802903049862327e-02,-1.474349727454083749e-03,-1.903616770834343306e-03,5.397632122039794922e-01
4.101712547639899120e-01,5.944446540244563426e-01,5.892904745198990213e-03,-2.581917528163268916e-01,5.325109223153273730e-02,5.634071931156107993e-02,6.999387145042419434e-01
6.041671685161580374e-01,6.258911558620475768e-01,-7.994431187152928331e-03,-4.281377698569661591e-03,-6.093543922781234981e-03,-8.489930111320872358e-03,6.236144304275512695e-01
6.030774569022803178e-01,7.323064594130187510e-01,5.217166069675627238e-02,-2.622875233980088705e-01,-6.390737223760616093e-02,-9.300656277553723261e-02,7.974820733070373535e-01
6.428117564044486532e-01,5.917886680479504946e-01,1.197199928684111736e-03,-3.564356844829214693e-02,-1.187933782120101020e-02,-3.525665515277660172e-02,6.240987777709960938e-01
5.930569965382058717e-01,6.088908856398254077e-01,-9.515213953965762084e-03,-6.951854411612776348e-03,-9.377412845032122302e-03,-1.314014316863323407e-02,6.114014983177185059e-01
6.562407336320188467e-01,6.375739908795264865e-01,8.266686188220739862e-03,4.660928525073622548e-03,-1.208498101696238794e-02,-1.023852163615270212e-02,6.394850015640258789e-01
6.281047655695167764e-01,6.250836821750079819e-01,-9.734416473219265065e-03,4.774287433577893529e-03,-3.705530754237826123e-03,-2.545296034745853173e-03,6.364353895187377930e-01
7.053267944888392815e-01,4.761284374357557247e-01,2.770905286318459115e-03,-3.746492723211809067e-02,-2.188810255980331784e-02,-5.127007328810360975e-02,6.313683390617370605e-01
4.331808593849957312e-01,6.033897679968367456e-01,-4.403369998482348224e-02,2.550366157364083453e-01,-1.667861738376219191e-02,4.818334621652674982e-02,7.354328036308288574e-01
6.373550696766390189e-01,6.506098170777631085e-01,4.654166597224040913e-02,8.525005449481930231e-02,4.024228197443507210e-02,-1.145140291364515027e-02,6.197755336761474609e-01
3.763072839207303177e-01,8.075992720217846088e-01,4.895076308222001682e-03,6.741848652365572958e-02,8.809377208019061878e-02,-2.946581820274311522e-02,7.236497402191162109e-01
6.409506132188105276e-01,6.082785567056883114e-01,6.020137358371779879e-02,8.661745276889121214e-03,1.359632231612034614e-02,-2.045846928437065112e-03,5.658224821090698242e-01
7.033905057330802624e-01,4.221183451396294251e-01,2.875271004948187770e-02,1.573563135443668479e-02,-2.841181009355237853e-03,2.182076392314707611e-02,5.888028740882873535e-01
5.507202162798665590e-01,6.835270404957478618e-01,3.033655396038614782e-04,-3.786058583770103569e-03,2.432633148191868863e-02,5.524119774984703442e-04,6.288995742797851562e-01
6.257718662042248692e-01,6.164189429555106958e-01,-1.180343234048419898e-02,-6.337331789056408296e-05,4.883830326888291204e-03,-3.684649559315536504e-03,6.330393552780151367e-01
6.129487847849248716e-01,6.173836511029311414e-01,8.723756504602220296e-03,1.254329102900585136e-01,2.648880579100782590e-02,-6.092414869667482635e-02,6.543910503387451172e-01
5.845806280946427291e-01,6.198123715515651000e-01,-2.066626971364282639e-03,1.020379023879857197e-02,1.062049789739131535e-02,-1.160146959378115759e-02,6.059038043022155762e-01
5.040334267923944900e-01,6.310090417133585872e-01,2.384252045073076420e-02,1.752582490056154019e-01,1.831628561182139722e-02,-3.213129730626222702e-02,6.355538964271545410e-01
3.229035157681712787e-01,7.998227702372233683e-01,2.252391792338548360e-03,8.767423673354514391e-02,1.557988980894212637e-02,1.212082591106938487e-02,7.123363614082336426e-01
5.527585570585527019e-01,6.268475799327282161e-01,5.942605120330679558e-03,7.048109857559273043e-03,9.995022282849527762e-03,-1.818179224728408427e-02,5.886003375053405762e-01
5.941679903057920376e-01,6.133456822826238719e-01,-1.021606355862808568e-02,1.290021635709726749e-02,1.486876455570815443e-02,-1.781533727284215912e-02,6.159165501594543457e-01
6.893382462172816805e-01,4.269089710537995463e-01,3.439555120526766041e-02,7.641424623308891440e-03,-7.826824403529561783e-03,-3.537246237881756035e-04,5.712287425994873047e-01
6.182708669431334902e-01,6.285192596293251999e-01,-1.103476865877905944e-02,5.336194296716010753e-04,1.871828543374553545e-03,2.499574749023127443e-03,6.345156431198120117e-01
5.942664953651810578e-01,6.408606253618214232e-01,-7.509365594157046964e-03,-3.278424514661913182e-03,7.885484406786019695e-03,-7.531131923588178095e-04,6.265500187873840332e-01
6.151917945913099040e-01,6.234485164858911688e-01,-1.393792814008459890e-02,9.261035713923863747e-04,-1.143441901101790927e-04,3.043700218930584910e-03,6.333224773406982422e-01
6.204121754933908939e-01,6.282224049654895337e-01,-1.081864241642349622e-02,1.542014303582275826e-03,1.952768599385710027e-03,2.490687904457785252e-03,6.352012157440185547e-01
6.286221118778202444e-01,6.076768258381763932e-01,3.337832919830807654e-04,-7.378572049951660772e-02,3.325464541581738681e-02,5.790993395781331154e-02,6.416670083999633789e-01
6.304430974978229019e-01,6.214578882669667959e-01,1.399171322130049466e-02,-7.439920110145930611e-04,2.096360106719384001e-03,2.417452592173744991e-03,6.120346784591674805e-01
6.261689719411299704e-01,6.197232481960435191e-01,-4.361013451651518658e-03,-2.627788879783197942e-03,4.694292467078894741e-03,-9.043998482717001278e-04,6.274031400680541992e-01
6.289307513709225805e-01,6.272570001254699212e-01,3.956181903603250838e-03,-4.373543599687343755e-03,-1.950716035919301729e-03,-3.542491001274924219e-03,6.242246627807617188e-01
6.257197332917615595e-01,6.215942276581568615e-01,1.365651785620564107e-02,-1.506504951701687382e-03,2.935974638995735280e-03,2.691485492482215136e-03,6.100555062294006348e-01
6.402021466949189277e-01,5.721443565753727700e-01,-6.437233852380763732e-03,2.015298422764371516e-02,6.708969260510357600e-03,-8.950247491185281401e-03,6.167327761650085449e-01
6.262210273232441393e-01,6.067184957280375990e-01,-1.207362918172244504e-02,-2.128700715371744778e-03,8.403371902228581533e-03,5.552973743513481579e-04,6.289502382278442383e-01
4.083855740858282068e-01,7.607281075324707764e-01,1.185473856505320223e-02,4.377751346973257629e-02,-8.715285439397842115e-02,3.642188671428008007e-02,6.735076904296875000e-01
6.505078613896445594e-01,6.277739418887967604e-01,-7.672132934525288661e-03,6.463092043593730851e-02,-2.617603604870877981e-02,2.590595681590494165e-02,6.598144173622131348e-01
6.234458434482098577e-01,6.280752536123574981e-01,-6.064274884068798777e-03,-2.508059194710596587e-03,-5.174312301589370153e-03,9.410146601772409122e-03,6.321262121200561523e-01
6.163605771481405204e-01,7.180072584277102932e-01,2.904865595880778972e-02,-7.254309031024538208e-04,-1.922029965753450920e-02,-4.170340999671439189e-03,6.450795531272888184e-01
6.396272548357471166e-01,6.418408146404536163e-01,1.783854401197809691e-02,7.324535994308987649e-03,-1.013350963391720753e-02,5.914567200357245466e-03,6.233589649200439453e-01
6.283802686141690685e-01,6.305311544580116667e-01,2.181938765484353615e-02,-3.976473081835950676e-03,8.794208565337765723e-03,-9.733632170902511635e-03,6.081028580665588379e-01
6.266074411880069306e-01,6.276467113502411932e-01,9.810342612301792276e-03,-3.259168452485648564e-03,4.480642463080713490e-03,5.811985314207904034e-03,6.174740195274353027e-01
6.261233492945418311e-01,6.329072873333815297e-01,1.648066970159239863e-02,2.404152806897325977e-03,5.596764036833427533e-03,1.795557436101459232e-04,6.131536364555358887e-01
5.891342793288204538e-01,6.478983078540080376e-01,-8.638407455603291929e-03,-1.165700182177540657e-02,-6.747136267353921919e-03,-6.917991818970004730e-03,6.297624111175537109e-01
5.694260142082945286e-01,6.450581545589718635e-01,-5.982449072280349167e-03,-6.201471681416767523e-02,-3.354949230089381007e-02,-1.313022788555749144e-02,6.290992498397827148e-01
4.899901440264003982e-01,6.696900022475774650e-01,1.599106624944224286e-02,-2.246082609573274436e-02,1.222349327979849187e-03,1.004278100499092323e-02,5.864855051040649414e-01
6.120272072065872093e-01,6.327858099133256697e-01,-7.591232569091832527e-03,3.460253509444292681e-03,-1.979348209740880177e-03,-4.911681368358185307e-03,6.303493976593017578e-01
6.269863204946546364e-01,6.234996243903898616e-01,9.443912720974279029e-03,2.305019916384304542e-03,-7.047750722072487935e-03,-5.863986046884194728e-04,6.159412264823913574e-01
6.304255174649665561e-01,6.261879648905366302e-01,3.892256437841645766e-02,4.688355789626811806e-03,5.914012948254531062e-03,-4.218756048650194705e-03,5.895858407020568848e-01
4.622588437622047186e-01,6.900537543753590963e-01,1.797378343916733456e-02,1.096199596216705652e-02,1.286835193504131942e-04,-2.004474049763428634e-03,5.923328399658203125e-01
4.951636123144934620e-01,6.610378800726147697e-01,3.135396720308991636e-03,1.601841530252581542e-03,2.391453530751468798e-02,-3.515823777026238876e-03,5.941223502159118652e-01
5.587652755036497387e-01,6.554322783391404172e-01,1.331279785435957042e-03,2.995380857179927477e-03,3.729603962962417334e-04,-7.865475917992496499e-03,6.116989254951477051e-01
4.666929553464986835e-01,6.908880857044620294e-01,2.018174365269725934e-02,-9.487885652235608994e-03,2.218409548420651953e-02,1.483203161106069236e-02,5.934203863143920898e-01
3.164458129881488890e-01,8.181798328484556349e-01,2.882957130535301893e-02,2.715593109254635807e-03,5.451956750387060291e-02,3.888819707129088921e-02,7.016004323959350586e-01
5.296600867219667386e-01,6.236759801927714841e-01,2.006745220822153675e-02,1.297572474329888002e-02,1.429964669013001830e-02,-1.872545451069645289e-02,5.644500851631164551e-01
5.593206217669264291e-01,6.575980139968438110e-01,-2.296417635367864474e-03,2.834544468661449965e-03,2.661779928998049549e-02,-3.072144836063495522e-03,6.184208393096923828e-01
1.361011009777454983e-01,8.094183568283840335e-01,-5.177062887386063572e-03,-2.485267338263301082e-02,3.654808572885929335e-02,2.536924186331781031e-03,7.578392028808593750e-01
6.078219074131825383e-01,6.225254830632006575e-01,-9.020425944005483476e-03,9.458140814081562658e-06,1.633934012864706180e-04,-8.200788557087675124e-03,6.244856119155883789e-01
6.821607238620769342e-01,8.670001405232019565e-01,6.002208218498344960e-02,1.270525237811435393e-01,9.968775356086161110e-02,-4.824113502993892383e-02,7.883142828941345215e-01
4.954775891975229385e-01,6.703394880747688411e-01,1.820192015285343468e-02,2.173968745126605984e-02,3.709210254627262615e-02,-1.710008081984643741e-02,5.901259183883666992e-01
7.036015638258846794e-01,4.527590008717559122e-01,6.443271397856387139e-02,-1.008604994180073294e-01,-7.781933083756754910e-02,-1.264018823682263315e-01,6.385502815246582031e-01
6.899418084706512300e-01,6.236518827815014099e-01,-1.191013476065755361e-02,-7.841225543809300647e-02,-4.235398684828767940e-02,-3.068462129682186443e-02,6.907361745834350586e-01
6.329342023205448697e-01,6.165974280227015658e-01,2.707849229934772284e-02,-3.487503509927974282e-04,-1.675155779939859662e-03,-9.248828714294086289e-03,5.980767011642456055e-01
8.294890451426366607e-01,6.305501774129820269e-01,9.896839114315858499e-02,-1.412492201260616420e-01,-9.161858824953691971e-02,-8.948263492044100653e-02,7.327793240547180176e-01
3.672272876544878106e-01,7.040259902971779393e-01,2.426585590752999844e-02,-4.698201278177405876e-02,5.922149133988247743e-02,8.697427555648310979e-03,6.032704710960388184e-01
5.777269327437699609e-01,6.084581192071949474e-01,2.306688607276730085e-03,9.352438729804036024e-03,-1.748413447799095641e-03,1.244790421741842450e-02,5.920072793960571289e-01
5.825713063875821440e-01,6.055389310482290899e-01,-4.274188574634352200e-03,5.898138238417510726e-02,-1.936147374439723193e-02,2.282570555965403661e-02,6.095224618911743164e-01
5.645958968784392518e-01,6.424572882589081324e-01,-5.855527501499147025e-03,8.428346848680450757e-04,-1.270268795509834660e-02,-1.348267521186860974e-04,6.134978532791137695e-01
5.858925258812839321e-01,6.122257479660977442e-01,1.752249726444171651e-02,5.611928820358198094e-02,-3.524390202483459328e-02,2.866708576570901890e-02,5.952687263488769531e-01
6.076887933371903916e-01,6.417864318532016110e-01,-1.804861993284001542e-03,7.437280575068662934e-03,1.235636290886832182e-02,-1.227885401380332357e-02,6.280953288078308105e-01
6.910292537246401912e-01,7.008143483691439135e-01,9.323751498066706889e-02,1.046769402482187030e-03,2.481920269950746785e-02,-3.699597216080934697e-02,6.076656579971313477e-01
5.520332352382149033e-01,6.524360998746395746e-01,1.805777822131460209e-02,5.172794324653418735e-02,6.722330941372860191e-02,-4.271547263082076801e-02,6.130915880203247070e-01
6.168016772479821830e-01,6.150117589616425073e-01,-1.319600870934206638e-02,2.556583548249325897e-04,-2.513674157372049883e-03,-3.142573719330838886e-03,6.291434168815612793e-01
5.113201945976999507e-01,6.562442213118151457e-01,-4.896858640816847963e-03,6.626635826830602760e-02,-4.473344638956205932e-02,2.192549429676530354e-02,6.188007593154907227e-01
4.822235883901413445e-01,6.571818879021601445e-01,2.343932544008819896e-02,1.031990030978812388e-02,-1.717316292369716266e-02,1.396693251445159031e-02,5.684637427330017090e-01
5.995220098878276671e-01,5.390545384361492554e-01,3.438051374840378482e-02,4.161067916442751091e-02,-3.645205057100208996e-03,2.265586536504110658e-03,5.423266291618347168e-01
6.214423951433944993e-01,5.738555279983581503e-01,1.843332183073320696e-02,3.447316451432891338e-01,4.966171586112787251e-02,-1.100654090388344421e-02,8.375387191772460938e-01
4.226718280047988552e-01,6.875060800275163420e-01,1.463987143925638001e-02,-6.424222222611787603e-02,3.110582706006389045e-02,1.798510451849252498e-02,6.007848381996154785e-01
4.431596895407147740e-01,6.721954548796148510e-01,3.463610866513877617e-02,2.135829133987605932e-02,1.433593825805104245e-04,3.085757051806903122e-03,5.606358647346496582e-01
6.341945709401015652e-01,5.418420015323365257e-01,-7.608187152918305385e-02,3.657344500167304946e-01,4.738697279670302936e-02,-7.090982585944473338e-02,9.330230355262756348e-01
3.510694384819079139e-01,7.786562710329465453e-01,2.262338491900994786e-02,9.741678195114227001e-02,1.361913680033806917e-01,-4.216457697510306302e-03,7.178539037704467773e-01
4.659005701497244689e-01,7.438856674438809602e-01,-9.605551210627893965e-03,1.128962452256226934e-02,2.828748227388630174e-02,-1.974039091091102024e-02,6.629610657691955566e-01
6.633415019930444245e-01,4.047703145792448942e-01,3.317148156465615783e-02,-1.371616343340958111e-01,6.439977294644057271e-02,8.585439638823404163e-02,6.261184811592102051e-01
6.182538442681729807e-01,6.128729343058082479e-01,-6.867249114549001110e-03,-7.353318154190382865e-03,5.338172394667237662e-03,7.968463930286426300e-03,6.227999925613403320e-01
6.207986305425131635e-01,6.754905784448922423e-01,2.055949597312756172e-02,-2.712897453260086911e-01,7.108058379072742378e-03,8.704106432276086103e-02,7.998630404472351074e-01
8.162497446213943242e-01,5.304194640511936676e-01,6.293565033417897192e-02,-4.272233024452470884e-02,6.326048684039163594e-02,1.127385984130395841e-01,6.996229887008666992e-01
6.482533991574619403e-01,5.623035489172032442e-01,8.267187028433431450e-04,-2.084127352859996632e-02,1.389399822094412526e-02,1.675649424330261789e-02,6.112503409385681152e-01
6.143756082759906922e-01,5.051112804708132176e-01,1.682082009349605833e-02,-3.547838378257153757e-02,1.718244353770907382e-02,1.197341517041355767e-02,5.557075738906860352e-01
5.374723984884111072e-01,7.293885972708897825e-01,-6.397707057817558773e-03,-3.019674879949137136e-02,5.624849811967080199e-02,1.637208515849952750e-02,6.708467602729797363e-01
5.983663404992930479e-01,5.767807711007201243e-01,1.185863966104877543e-02,-3.434686984441864127e-02,2.198980159926663958e-02,2.103655838538731615e-02,5.814761519432067871e-01
5.539055323418911048e-01,7.514806956326854914e-01,-2.085197070448158163e-02,-4.799341214887202500e-02,4.934789226574733817e-02,2.448203225445227255e-02,7.063665986061096191e-01
3.786173162886583565e-01,7.605258817568426588e-01,3.659997282425342391e-02,-1.055235224227596830e-01,1.183755267991773025e-01,4.149268047112075752e-03,6.847955584526062012e-01
6.296369019888143903e-01,6.232300294139503372e-01,1.287253388692708445e-01,2.137081865223178570e-03,-1.564665175698317897e-03,4.714015779342385984e-03,4.978271424770355225e-01
6.159492194008311383e-01,6.314792125215883400e-01,-7.840446642831289115e-03,-2.211419612639558933e-03,3.995494250428209895e-03,-5.862141701315195554e-03,6.318289637565612793e-01
6.224480103095105799e-01,6.263301699318152282e-01,1.132633009957140224e-02,2.845139081635402649e-04,-1.812229757609583195e-03,-8.630426166465985163e-03,6.132624149322509766e-01
5.623312791870346272e-01,6.583661276519118255e-01,-2.431194730543928539e-03,-1.662545179135337808e-02,3.089990300954966948e-02,6.101970319790318321e-03,6.214672327041625977e-01
6.823382509498219228e-01,5.484615864817219411e-01,1.186471045871162477e-03,9.986694392046722296e-03,-4.661160851903547835e-03,-4.494105974808264986e-02,6.301776170730590820e-01
5.485161793169308631e-01,6.808271100767540052e-01,-3.942986202429832332e-03,-1.271231198182836038e-02,2.569850288459159596e-02,6.510185618652361908e-03,6.311948299407958984e-01
6.212483441929024242e-01,6.243570530435802457e-01,1.193424114166067862e-01,-7.489448852067645719e-03,1.383691349267964421e-03,1.995136109088446047e-02,5.048243999481201172e-01
7.585741785526131098e-01,2.732420402395592252e-01,4.096415718893003932e-02,1.167125568573785938e-01,3.399555195056837981e-02,-7.960657292822800879e-02,6.823315620422363281e-01
6.281730102589004883e-01,6.281423969240592653e-01,8.806197708893148679e-02,-1.861556470046607428e-03,3.586679496541286122e-03,-9.189543072231668233e-03,5.403755307197570801e-01
6.290045516698700157e-01,6.311349807857317140e-01,2.174016772715692269e-02,-2.478688284129679578e-03,-5.184188542342752469e-03,-1.041348586170317246e-03,6.084164977073669434e-01
5.867804972910604100e-01,5.309391154241881461e-01,2.982292842473494021e-02,-7.229840666674143546e-02,1.419354301789986159e-02,2.900612220032978972e-02,5.486604571342468262e-01
5.058277828065972370e-01,6.369388307494701085e-01,1.913769963337441649e-02,-6.603419565784261758e-02,2.375425266951177242e-02,2.965331875094022462e-02,5.790337324142456055e-01
6.329140786049690659e-01,4.873268957956278236e-01,3.517499314894989570e-02,-3.006258826063151063e-02,1.358696458345988803e-02,5.131842821168902148e-03,5.429627895355224609e-01
4.934983267296409459e-01,6.335770884265814473e-01,2.627216867101833664e-02,-2.305127324460894828e-02,-1.105511036971490446e-02,-1.460970719442474842e-02,5.531472563743591309e-01
5.941729840679951247e-01,5.164034751748467489e-01,3.340956951881457471e-02,-2.352218204986935429e-02,1.026700919924124905e-02,8.232570132550633482e-03,5.282734632492065430e-01
5.717797616173849740e-01,5.349329602095101999e-01,2.395276156368864040e-02,-6.824488307644732688e-02,-1.706209592817066120e-02,-1.936351971582434689e-02,5.452125668525695801e-01
3.810931040527474889e-01,6.912783774537708537e-01,1.925947920095627541e-02,9.096288670848381996e-02,-6.101225220200826027e-02,1.265579564940955961e-03,6.126736402511596680e-01
5.346748032964285802e-01,6.885361479340509350e-01,8.663862474223016363e-04,8.865595512035581022e-03,-1.591845588431642020e-02,3.912360123527176478e-03,6.259385943412780762e-01
6.047903394717648595e-01,6.367081418292938055e-01,-1.442568905080099384e-04,-4.525542058995604862e-03,-1.097132690898539910e-02,-2.083379433260979831e-03,6.218587756156921387e-01
5.573791970264465601e-01,6.799595563137257326e-01,-2.411503789953139965e-03,-2.156134915056564377e-02,-2.014696840690738053e-02,-3.063781874909921217e-03,6.321799159049987793e-01
6.087542410418900207e-01,6.605695006596868923e-01,2.460946622616361212e-02,-1.388259626704750616e-02,-6.081506173062731224e-03,7.834389314067531456e-05,6.122636198997497559e-01
6.004242419855529977e-01,6.421422446750528756e-01,-5.188370750331572356e-03,1.354110113072777869e-03,-1.035446727641004677e-02,9.361060011233083081e-03,6.279824972152709961e-01
6.031695014673845723e-01,6.341161410496282125e-01,-9.309164219030052756e-03,-1.428799040285845100e-03,2.542663060029929181e-04,-3.960367834373933887e-03,6.285660862922668457e-01
6.886373885406542605e-01,4.981785427288437096e-01,5.080034422934143201e-03,-5.541765240445022112e-03,-1.530049447985729061e-02,-9.179238374679686563e-02,6.319870948791503906e-01
6.202583631285605303e-01,6.301029043854684542e-01,-1.179230296283084733e-02,5.709114911940672008e-04,1.092646629125291861e-03,-2.112002227510525315e-04,6.370337009429931641e-01
5.780879165987816704e-01,6.385616367051589748e-01,-8.404889332881859687e-03,3.797670586963093533e-03,-9.602345137842320869e-03,1.021587415240344209e-02,6.194604635238647461e-01
6.193791723399569848e-01,6.286714701898542534e-01,-8.732886537481887590e-03,-1.304719417588862986e-03,1.075659875407106040e-03,2.076633082842695849e-03,6.328263878822326660e-01
3.835531434941037987e-01,7.534467084121175828e-01,2.275282449608834190e-02,7.397788002078753422e-02,-6.171355941711695325e-02,1.179516101127403398e-02,6.547648906707763672e-01
6.283654583031719199e-01,6.230117694076411361e-01,1.799635571429075709e-02,9.887927842361383252e-04,1.878829781521418590e-03,-4.770380909813762803e-03,6.077772378921508789e-01
6.329563652901709636e-01,6.274724134926847885e-01,3.247290645451689217e-02,8.459262745280592827e-03,-7.090282164345100731e-03,7.855573335476619817e-03,5.982207655906677246e-01
6.252961862521112524e-01,6.315288486485357566e-01,5.847454008239005852e-02,-3.138225213687914064e-04,-1.512329139382603480e-02,-2.779707438569041077e-03,5.705857276916503906e-01
6.589237187539167540e-01,4.933197277232443945e-01,1.661173383187142250e-02,1.719075297566127411e-02,-6.997432709815433471e-03,-1.613408005474061674e-04,5.784924030303955078e-01
6.450505714003798019e-01,5.190393626566612850e-01,3.114126824118046422e-03,-6.564967730158312829e-03,1.494788149260806338e-02,2.988055331564794248e-02,5.920711159706115723e-01
7.547601225137378078e-01,4.614363700157314008e-01,1.162892022476325060e-03,4.918352935754077143e-02,1.341995347409904830e-02,-5.650709157073064565e-02,6.710261702537536621e-01
6.318772202511971914e-01,6.257287476874564547e-01,-5.222730260421304394e-04,1.247757088542864826e-03,1.147744537884273167e-03,7.197839521264689545e-03,6.294780969619750977e-01
7.329624269767621714e-01,7.623122009175464786e-01,1.217204783387360600e-01,2.709191086257813769e-02,-1.594741030179036914e-02,1.337462504161874288e-01,6.701096892356872559e-01
7.164984500053355188e-01,6.723134240244363902e-01,1.096920861142841042e-01,1.102498063969078665e-02,-3.974005481179618271e-02,4.499434295149255802e-02,5.954245924949645996e-01
6.776290374316669141e-01,7.033791997089068326e-01,5.835206511115437200e-02,-6.183634782018772682e-05,2.847584320318920226e-02,6.317038578449114643e-03,6.345595717430114746e-01
6.323747054690733727e-01,6.236921334086005242e-01,9.184638339797551732e-02,5.450823921937636950e-03,-2.484693745648659108e-02,6.807120408166683449e-03,5.381759405136108398e-01
7.201936858128837882e-01,7.079229161780414836e-01,1.147598998520559244e-01,3.449897738295978206e-02,3.824997166523160658e-02,4.338456588558556315e-02,6.106372475624084473e-01
6.676108829278939449e-01,7.675605642109324389e-01,7.168222809481727964e-02,-1.565953698872905309e-01,-1.210825016841297341e-01,9.692842712660798554e-03,7.365561127662658691e-01
6.319556366401005709e-01,6.265481321299973816e-01,1.072026391557203140e-01,1.424765188903027698e-03,9.846567953165994563e-03,2.291546728258469362e-03,5.223696231842041016e-01
6.029672897448211666e-01,6.313403351504391914e-01,3.068186195386846116e-03,-2.492519729197613648e-03,-8.536943430762593960e-03,-4.956904183782507266e-03,6.148300170898437500e-01
6.032789106847107341e-01,6.454118709910757756e-01,1.003446202866004056e-02,-6.346739793399521976e-03,-1.220194283208076054e-02,5.682180906297722850e-03,6.159331798553466797e-01
6.279324230052218958e-01,6.314934996180078253e-01,6.422144174556626561e-02,8.622187709405154101e-04,-7.242021932893398344e-03,7.011040191097383210e-03,5.657713413238525391e-01
6.380772658544825449e-01,6.342822996983802364e-01,1.238736944713628718e-01,7.125727552984020222e-04,2.088324637949874260e-03,-1.364378491966554245e-02,5.128756165504455566e-01
6.225484031725612155e-01,6.204669145549110976e-01,1.105432158463705017e-01,-1.191902076365293321e-02,2.025225213663766656e-03,1.735655100332927220e-02,5.122793912887573242e-01
7.482212818531686072e-01,5.205492311755918200e-01,8.134527209869057973e-02,-7.452736611379072451e-02,-1.188329677625293672e-03,9.416886724164300060e-02,6.228961944580078125e-01
6.068109404185441091e-01,4.802908273511713455e-01,4.296103616388075030e-02,2.279581683575658546e-01,-7.909362201455985564e-02,8.647995394887322829e-02,6.780075430870056152e-01
7.993884284087438008e-01,7.088117489056866560e-01,1.001280456083648573e-01,1.877227121263426723e-01,-1.504867370941530003e-01,1.152318588918835318e-01,8.045656681060791016e-01
6.304734535784712879e-01,6.190193230877911734e-01,5.032257044386201361e-03,1.229423006988650214e-03,-1.969709970585503071e-03,1.255461979660732778e-03,6.198104023933410645e-01
6.300354843322176768e-01,6.250868606882146183e-01,-3.754530858571025753e-03,2.501379788786406606e-03,-4.784637781536594451e-04,3.422159612867595787e-03,6.313734650611877441e-01
6.305321140765526300e-01,6.229230789595098239e-01,1.640116258357682266e-02,1.432848509975916335e-03,4.911844936093442407e-04,-4.693277975268945502e-03,6.104217767715454102e-01
5.745348536052634625e-01,6.925401555308228208e-01,7.555446853680980457e-02,-7.566862509675689741e-02,8.957622029720647971e-02,8.543808502809220606e-02,6.204328536987304688e-01
6.095231274279830913e-01,6.000650260616506859e-01,-7.544065358537355159e-04,-2.857381018051108768e-03,6.525296917321539783e-03,3.520604798387293437e-03,6.057602167129516602e-01
6.309743102211814447e-01,6.197549348469766350e-01,-9.567802371308165021e-03,5.566757724376450618e-04,4.621300339496827413e-03,2.556350304816887645e-03,6.350733637809753418e-01
7.434453909265353877e-01,2.487010288034994243e-01,2.326430247082617031e-02,1.569940710317183630e-01,1.827126864751009785e-02,-4.393358502844482705e-02,6.984702348709106445e-01
6.203485906275252315e-01,6.102698039083064296e-01,-1.320171852317114647e-02,-8.270718769861948967e-04,5.114808449506870296e-03,3.291463248097106341e-03,6.286614537239074707e-01
6.275933539059677102e-01,6.101784933614048390e-01,-1.272085700744141068e-02,6.388934100209359016e-04,5.788838171808688947e-03,3.751890105783672533e-03,6.319007873535156250e-01
6.302661450814706079e-01,6.175650110830499528e-01,-1.063517706246636108e-02,1.994876094851468721e-03,3.276130969452780567e-03,4.358858443809496275e-03,6.347257494926452637e-01
6.248034522495982124e-01,6.339164873895660746e-01,3.895438054057898114e-04,2.618972866106339652e-03,4.759817956208919724e-03,1.643825041789959314e-03,6.290967464447021484e-01
5.909086021205355310e-01,6.365733094871716125e-01,-5.105137877197241103e-03,-6.909228572286207903e-03,1.631963357642841547e-02,9.758081490419968571e-03,6.210976839065551758e-01
6.309718528373245983e-01,6.315070064281121942e-01,1.099636024262312661e-02,3.042178175739889204e-03,-6.903802467783342126e-03,-4.253674115387372223e-03,6.204246282577514648e-01
5.356686010104303453e-01,5.981170723972630832e-01,2.391482596719679554e-02,1.677383720575075302e-02,-6.090946407152812193e-03,1.034939614912363560e-02,5.468333363533020020e-01
6.167076658956796020e-01,6.262115586283847346e-01,-1.142063793946418437e-02,-3.737091998891661337e-03,6.665353378235427083e-03,6.151514045459829765e-03,6.331617832183837891e-01
6.171597351518053332e-01,6.308071598680438097e-01,-3.087713996425711649e-03,7.601071422731305515e-04,3.081966726470684447e-05,-8.335145586664829097e-04,6.271855831146240234e-01
6.194363889826305369e-01,6.311031997667775340e-01,-1.012823140291574386e-02,2.779568808737073026e-04,1.756666985939504344e-03,9.510980743625763656e-04,6.354879736900329590e-01
6.013955914022041105e-01,6.357948302746677660e-01,-1.003198017340456438e-02,-1.192206036885852354e-03,-6.874589329162887662e-04,4.521371233112630485e-03,6.293859481811523438e-01
6.229223784416310084e-01,6.310298415753892165e-01,1.012695875681146607e-03,4.951355028643755936e-03,-1.786778483304482090e-03,-7.061214124737238886e-04,6.260703802108764648e-01
6.173046298147389921e-01,6.312163791231272247e-01,-7.284747561713267316e-03,6.634904169569268628e-04,-4.246139986590539528e-04,9.601877227516186861e-04,6.316637992858886719e-01
6.159956247168520971e-01,6.277121956981109863e-01,-1.368236224767332976e-02,9.044107789692504545e-04,-1.074683239491374970e-03,2.898361266282949156e-03,6.356417536735534668e-01
6.183358045450758622e-01,6.255916621581117942e-01,-1.258993312650230623e-02,3.576527472568055569e-04,1.108157862548544547e-03,7.872263828902167394e-04,6.345894336700439453e-01
6.243468884552922926e-01,6.260660966959837870e-01,9.224465192172226491e-02,-1.747868217419446023e-03,6.450989386829649765e-03,-9.900171581477473087e-03,5.333653688430786133e-01
5.154980224266991762e-01,6.842216892338661705e-01,1.258791848702905947e-02,-8.040900895653926156e-03,2.859175935904606503e-02,1.223679045929259614e-02,6.077291369438171387e-01
5.175942628630599840e-01,7.489219068480473807e-01,7.199235573828205448e-02,-5.430753455519948814e-02,1.333557871550735685e-01,6.368071117248939872e-02,6.553766131401062012e-01
6.238522859907039697e-01,6.285730274975681597e-01,3.554021001917512246e-02,-3.619052826459307013e-03,7.352466305164936933e-03,4.894825689978398418e-03,5.909179449081420898e-01
6.231694944026743288e-01,6.277857979531222821e-01,8.482862433137416946e-02,-2.803028151507405957e-03,-1.276825640580197922e-03,5.306544548755811469e-03,5.407682657241821289e-01
6.256355566271458724e-01,6.286971937128127408e-01,4.448124302654465900e-02,3.260404405927447855e-04,3.445935793155377111e-03,-1.508957762798601471e-04,5.827220678329467773e-01
6.262378350049465636e-01,6.254416332610580609e-01,1.334096345104279768e-02,-2.988931307384556403e-03,3.593661940150788981e-03,4.714170917608171037e-03,6.126070618629455566e-01
6.305117111175162492e-01,6.235003508228221802e-01,1.005049487649097295e-01,-1.257032008609853656e-03,1.155533410926130704e-02,-5.817622173068567881e-03,5.270171761512756348e-01
6.330231938702914896e-01,6.293495529607290306e-01,2.897885098917490909e-02,1.461941806092326591e-03,2.624616837774392040e-04,6.204881421718273782e-03,6.023173332214355469e-01
6.329830728085810154e-01,6.311926029222014733e-01,2.610908191189498240e-02,-4.587847619300677512e-03,-3.693498988619893768e-03,-1.408814777243725747e-03,6.060715317726135254e-01
6.280025782478810825e-01,6.213570556177799853e-01,8.847862792928429254e-03,-2.470520881960184927e-03,-3.129809700620928350e-03,-2.554690195929213911e-03,6.159134507179260254e-01
6.467029149294770685e-01,5.984323270005784678e-01,1.324349714203409967e-02,7.109728012664046082e-03,-7.470351948101476743e-03,1.032796061005939944e-02,6.112793684005737305e-01
9.556496230585102003e-01,2.777448091570285937e-01,1.147423371598310649e-02,-8.729173098115319829e-02,-4.639749157345594843e-02,-5.925157018657652153e-02,8.664935231208801270e-01
5.831136798757674544e-01,5.734692690900660139e-01,2.665430935473650509e-02,-1.436366890761970119e-02,-5.768451835796288910e-03,-6.248318999798743896e-03,5.524574518203735352e-01
6.102767077697703879e-01,5.988221196770115995e-01,-4.676216384906228818e-04,-2.969108706683267276e-03,-9.615981145397153526e-03,-4.487265398454522679e-03,6.053992509841918945e-01
4.632823335106999729e-01,7.784517859768081971e-01,9.550204826666780500e-02,5.657874486417918680e-02,1.922460953363314962e-01,-8.749634238029620203e-02,7.028180360794067383e-01
5.975040206675564791e-01,6.469641436622591835e-01,-7.329399206336184580e-03,-2.201558899334389672e-03,5.837224492655936244e-03,6.121299039425781401e-03,6.312004923820495605e-01
4.957391407164487562e-01,6.231233918996477161e-01,1.126494627396179560e-02,9.510213135460517109e-02,4.213791731177812805e-02,-2.086901007514649700e-02,5.885770916938781738e-01
5.134149044728775202e-01,7.338699731013145211e-01,6.915289157637871664e-02,1.291515121464260549e-02,5.883468376705802000e-02,-1.665309086871086947e-02,5.963438153266906738e-01
6.078543647116072535e-01,6.319952053007928949e-01,-1.076027462989892491e-02,2.065235682649871915e-04,5.915783973243632365e-03,3.626585591092559326e-03,6.311460137367248535e-01
6.273185969883795510e-01,6.276082817598751529e-01,7.674442259383240650e-02,1.895441934965387109e-03,7.462547070659714989e-03,-8.695490556605669705e-03,5.510863661766052246e-01
6.053974555060204210e-01,6.263284570226370640e-01,-1.066424411270744388e-02,5.387430193588819581e-04,1.163500226857040867e-04,7.333356644641520795e-03,6.269187927246093750e-01
5.515593743017062067e-01,6.032846992734958169e-01,1.901760049435163857e-02,1.406490204351121438e-02,-2.128138470647568999e-03,1.120378397916450657e-02,5.610755681991577148e-01
5.789681350010923433e-01,6.305173590475385836e-01,-8.877580181133215564e-03,-7.146120706495745316e-03,-7.916794583218630943e-03,-1.228580021373312098e-02,6.158871054649353027e-01
6.253412889590019841e-01,6.283657326173647251e-01,-8.249956309661965470e-03,2.966597579500739133e-03,-5.759954468318353137e-03,-1.000184452492678712e-02,6.354441642761230469e-01
5.714069742286754794e-01,6.310088145262173764e-01,1.723354743257354826e-03,-7.691474172209832559e-03,-1.572513268444932942e-03,-1.274004145984291257e-02,6.022605895996093750e-01
6.028595621881149835e-01,6.423473581096004192e-01,-3.799547834572647442e-03,2.738966613535011654e-03,-1.233368859794154587e-02,7.709157223031400975e-03,6.278593540191650391e-01
5.033673193283206837e-01,6.700374552803444184e-01,-2.639050105481433040e-03,-4.372711576386878810e-03,-3.163578047334062587e-02,-1.039987640143484778e-02,6.095423102378845215e-01
5.492200768771607899e-01,6.597649170288532039e-01,-1.633957418212428347e-03,-5.165989010715738364e-03,3.951667650426261315e-03,3.169964355096923595e-03,6.137682199478149414e-01
5.984001379151637767e-01,6.413322505689322828e-01,-8.224898746922393311e-03,-2.194641705160520467e-03,1.874491382056120078e-03,1.746655652339719738e-03,6.292177438735961914e-01
6.188236276199958752e-01,6.303435809871624773e-01,-1.025906374121182685e-02,6.537883178025264645e-04,-2.632954779124216382e-03,-3.123520836677232126e-03,6.349614858627319336e-01
6.538652719397526347e-01,6.337661984903999457e-01,7.472963682457173240e-02,-7.122334272834326963e-02,-1.413762033722367473e-01,-3.651407461249976671e-02,6.350919604301452637e-01
6.288165715830129621e-01,6.305240982461822741e-01,5.678786426839382839e-02,-3.540847047049276112e-03,6.465474011737067615e-03,2.229114875417015709e-03,5.730396509170532227e-01
4.938132970008943246e-01,6.965993122724072339e-01,1.396071718292274388e-02,-2.805229642868712139e-02,-5.262278867046859404e-02,-2.945703778942287618e-02,6.180287003517150879e-01
6.378539870016350921e-01,6.565063516493748752e-01,2.186345918879151196e-02,9.731225778011347305e-02,-5.813519557556379863e-02,1.772994949568247255e-02,6.563330888748168945e-01
2.181156665931259786e-01,7.882269985918034516e-01,1.093378734736377700e-02,-6.687472957169533772e-02,-7.009146402386225161e-02,-2.976472578369948954e-02,7.189443111419677734e-01
5.681306177264698887e-01,6.345727861827324956e-01,1.641333857923976680e-03,3.681900030779090317e-03,-9.478517277253308308e-04,1.235801022830182450e-02,6.028805375099182129e-01
6.233687520785082814e-01,5.844706375744204152e-01,-3.863945384190381471e-03,5.027085681351727356e-03,1.463550838597895906e-02,-9.952246851914061526e-03,6.095500588417053223e-01
6.330205930752857979e-01,6.149288788853398691e-01,-4.249669260241561997e-03,1.291061874316663249e-01,3.948702015987909375e-02,-5.212668447738507543e-02,6.765691637992858887e-01
5.581512073674507191e-01,5.801450031325497969e-01,3.298717864367861630e-02,9.699714711758816721e-02,6.867264355789401073e-03,-5.807189436290952946e-03,5.624049305915832520e-01
6.176623683691191413e-01,5.921963397376620586e-01,-4.455519211244818312e-03,1.979088312893055243e-02,1.469971043486868398e-02,-1.845004019331170086e-02,6.121117472648620605e-01
6.708659120213501525e-01,6.055327481293735215e-01,1.200218859719687226e-02,8.774253962871721158e-02,5.975530242810105086e-02,-7.767107524217048420e-02,6.687532663345336914e-01
4.845915230758499614e-01,6.388394125815031188e-01,-3.317812537358094671e-02,-3.621162452659196784e-01,4.785870576403251225e-02,1.628323534260914598e-02,8.790870308876037598e-01
5.573426944210255751e-01,6.022707221347251005e-01,1.935389335343190576e-02,-1.161687268394533991e-02,1.146868957927430193e-03,9.535164491345249696e-03,5.624080300331115723e-01
5.232142431429452900e-01,6.194377915224045239e-01,2.139454675199758960e-02,-1.320442670043826990e-02,1.273618266365397766e-02,1.565548128686616511e-02,5.577757954597473145e-01
4.830090965798363167e-01,5.974248738575869133e-01,1.651352685040091695e-02,-1.089660159968748598e-01,-1.890590265808310064e-02,-2.033766404742907638e-02,5.674658417701721191e-01
4.225298591192425679e-01,6.781972105401821160e-01,3.560659650975261936e-02,-3.286784245051935921e-02,-3.491108884944343644e-03,-2.500644678012425501e-03,5.632897019386291504e-01
4.394878567268543645e-01,6.899967919265828087e-01,-4.645731343350778531e-03,3.338595706243580735e-02,4.961048204151850133e-02,-4.613591887788166118e-03,6.181101202964782715e-01
6.409977357336472670e-01,5.417566888370859424e-01,-2.563167605817151529e-03,-1.813532908099923027e-02,-1.856280969154786714e-02,-1.553632675588632883e-02,6.024087667465209961e-01
6.323737302498716462e-01,4.984142762961104589e-01,2.293384419579286293e-02,-2.722148039017067284e-02,1.219432515061251790e-02,1.483661784895860813e-02,5.577198266983032227e-01
5.978706036373246935e-01,5.878284042960442157e-01,-2.911539726386969118e-03,1.195582798705639022e-02,-1.528564387257201965e-02,1.701858326607380567e-02,5.974993705749511719e-01
6.266127645374199862e-01,4.763077045760570338e-01,3.152642001878097622e-02,-6.908765379482122160e-02,2.203366562585264404e-03,1.087052779330494479e-03,5.491924285888671875e-01
6.741532274921626655e-01,7.079491940460083121e-01,1.016328245383822937e-01,-2.996302155849275492e-03,9.607423939104188862e-03,1.615426007030894631e-02,5.910646319389343262e-01
8.708238519604279970e-01,4.704001258425138943e-01,6.932298762670008330e-02,-1.865721400915794637e-01,1.090267195430260315e-02,1.146397009556765212e-01,7.912102937698364258e-01
6.289671533468579323e-01,6.176957137480327820e-01,2.429298934170098789e-03,2.417482008204799998e-04,-1.303171466382217671e-03,-2.484269001326443616e-03,6.209980249404907227e-01
6.674567796572955514e-01,5.140328692733725502e-01,2.317344072291332990e-02,-3.042662697809477845e-01,6.418623993523905891e-02,5.599049127063333159e-02,7.995559573173522949e-01
6.057096439379464625e-01,6.263896157060198089e-01,-5.741447903369445438e-03,4.496688004681176874e-03,-4.400455281002194768e-03,8.369515951515015331e-03,6.223132610321044922e-01
6.260503438026009393e-01,6.237588995427487681e-01,-6.546702819349770053e-03,2.294793206991057374e-03,1.203961673361856862e-03,4.428491691400866792e-03,6.315169930458068848e-01
6.212255325926281380e-01,6.334423983578891804e-01,6.964992490955729254e-02,-1.473410591214943839e-03,-9.970310975127240696e-03,-9.904993691513203427e-04,5.580601096153259277e-01
6.376210556491365145e-01,8.869830299845371524e-01,9.234960323870616827e-02,-4.084850730964333099e-02,-5.100213269812071959e-02,7.912740323453373859e-02,7.259925603866577148e-01
6.304174352439116946e-01,6.251694827068274840e-01,-5.852527955261144221e-03,1.713363091405247386e-03,-4.146476899611618340e-03,6.553085718495750903e-03,6.338115930557250977e-01
6.095107801061586672e-01,6.136867999135811047e-01,-2.560157853141009632e-03,1.535086789482399856e-02,-1.405513381547671310e-02,1.269941340871648915e-02,6.156197786331176758e-01
5.935147591339613449e-01,5.888769524662662569e-01,1.340102435561379979e-02,1.277271716999808619e-02,-7.828364268501680073e-03,7.484711346008069213e-03,5.785363912582397461e-01
6.257579570570824812e-01,6.030894987485688752e-01,-8.999118899525093696e-03,-1.701936125455685164e-05,-8.064969517024782319e-03,4.547726192807551916e-04,6.238887906074523926e-01
5.454141694022156539e-01,6.403795369941931437e-01,2.264420831082886165e-02,7.625348192159660254e-03,-1.399907353999515353e-02,1.903192262296881168e-02,5.777550339698791504e-01
5.551437446699554190e-01,6.246104022617848806e-01,2.178215914064185466e-02,7.643718280189983061e-03,-1.341565154525319048e-02,1.671148825367771776e-02,5.726290941238403320e-01
7.696152056874858705e-01,2.639144869491060197e-01,-5.593919235496735975e-03,1.276500600998851931e-01,-5.208495148502125145e-03,8.301478636851268578e-02,7.309568524360656738e-01
5.924419033074195262e-01,5.836711848810706149e-01,1.236784408958713222e-02,4.981186853096518201e-03,-8.525216764616903170e-03,4.048561961218300267e-03,5.760354399681091309e-01
6.069905759810831913e-01,5.499103250613504024e-01,1.774160692447540599e-02,1.332681258655576441e-02,1.277754788682785962e-02,-2.042609390337579017e-03,5.638024210929870605e-01
6.229500036202889612e-01,5.532308688355576098e-01,5.120403581003851734e-03,7.049538413851709137e-03,1.490620293018983175e-02,-1.155613268832277225e-02,5.871251225471496582e-01
5.065307956420136426e-01,6.201888056895197288e-01,3.716855506902538853e-02,-1.369147363516960356e-02,3.894116381200349915e-03,2.594988492184160077e-03,5.359047651290893555e-01
5.249014378974886652e-01,6.259142520498182094e-01,2.671908505589748462e-02,-8.123927880694911674e-02,3.460384663827804907e-02,2.352518773250936168e-02,5.777232050895690918e-01
5.625423927664821022e-01,5.925875621834894025e-01,2.843437014011773734e-02,-5.704642033346124692e-03,3.786219357340984883e-03,6.162387174900084939e-03,5.499781966209411621e-01
3.498536532600512450e-01,7.894739207668981518e-01,1.610107576803998519e-02,-7.176021830427259385e-02,-3.583985804673625510e-03,-1.194885783779521234e-03,6.832807660102844238e-01
5.183502765702614479e-01,5.838677692948193165e-01,2.382343319343555033e-02,-7.059169780454299659e-02,-1.842808453844021338e-02,-1.827439447564395761e-02,5.460949540138244629e-01
4.973447202852994131e-01,5.259565328815560825e-01,9.234380719368495694e-03,-2.707933203676954337e-01,9.118354417377827481e-02,5.687633892706808747e-02,7.125104665756225586e-01
6.105347408581645041e-01,6.222475427059538378e-01,-1.203912070612039864e-02,6.970279687015439127e-04,1.715929555437249298e-03,5.065732880949027142e-03,6.285815238952636719e-01
6.098021071557918615e-01,6.134543695846197409e-01,-1.130868613639601783e-02,-2.118633519335265305e-03,4.762501098213560262e-03,3.805142378273308583e-03,6.230452060699462891e-01
6.160098791263908247e-01,6.255445998589637124e-01,-1.393087093186834435e-02,1.962594904834507898e-03,-4.837873099560921594e-04,2.233269512301240892e-03,6.347832679748535156e-01
6.155527114489560692e-01,6.216644838112459492e-01,-1.425393720869538861e-02,2.571088110279532921e-03,1.413880385024376431e-04,2.850742423440740230e-03,6.329196691513061523e-01
5.744252937454462637e-01,6.380317133518044193e-01,-4.826038401783916409e-03,-1.259438807219097345e-02,2.190128544392232895e-02,1.610894677811853387e-02,6.157234311103820801e-01
6.299367421166024439e-01,6.051738848723383635e-01,-7.591199879360355229e-03,-4.204140267630958501e-03,7.618257643858591249e-03,7.674869366091922364e-03,6.258369684219360352e-01
6.323006567710861558e-01,5.797690038557686831e-01,-2.565255822046641487e-03,-1.674773851936617319e-02,2.411137550371625013e-02,2.295369781691077374e-02,6.137018203735351562e-01
6.620392652797502109e-01,5.949435682304184958e-01,-2.374001558926308597e-03,-3.071424750011891511e-02,4.347148369618478170e-02,5.790641093264435602e-02,6.480172872543334961e-01
6.300290987972958501e-01,6.252755838048167369e-01,-4.389320680207142722e-03,2.152002169594346460e-03,6.521438097967344368e-03,7.051009069650172358e-03,6.322849392890930176e-01
6.160893931470470264e-01,6.219231678521022211e-01,-1.451694503000727776e-02,-6.102555442025213482e-04,-1.699689266852678785e-04,7.993008620327526556e-04,6.335458159446716309e-01
6.303145780269958642e-01,6.178860538505374089e-01,-6.605365300162535647e-03,2.099176080332729524e-03,-6.643899726876515994e-04,-1.428751208696747189e-04,6.308090686798095703e-01
5.409821629175428637e-01,6.342587945003469452e-01,4.155579708459755661e-03,1.204165774601188149e-02,-1.652033582141303539e-02,1.392922186552627943e-02,5.905866026878356934e-01
5.978171534366113482e-01,5.577922264551672393e-01,2.398122551711823203e-02,3.759050010276319270e-02,1.013052084567122799e-02,-9.827592141014732455e-03,5.592483282089233398e-01
5.826110588078547980e-01,5.733715581428548980e-01,1.859942010838300241e-02,1.306955224938142514e-02,-7.110432167426569000e-03,1.874629740749322176e-03,5.600517392158508301e-01
5.828078767383665371e-01,5.887440455455492661e-01,1.084043979174886818e-02,6.652530549733314674e-03,-4.567174873051617345e-03,7.526678548396915740e-03,5.752760767936706543e-01
6.081491209875904413e-01,6.130086012569830878e-01,-7.787127411099326046e-03,1.828811856702808152e-03,-1.341199007812880935e-03,9.244371467859658546e-05,6.183928251266479492e-01
5.839273314779758195e-01,5.876167999700765421e-01,1.373855116576405688e-02,1.283964214152661168e-02,-9.555254107739339156e-03,9.368155066710860332e-03,5.729435682296752930e-01
5.934944322476318757e-01,6.038380681293233909e-01,4.950604242858092086e-03,4.189055363871196751e-03,-1.724266058691927310e-03,3.832308158470107461e-04,5.938354134559631348e-01
6.038018664789679413e-01,6.015638202816024904e-01,-3.619544620224068865e-03,1.935796633074485023e-03,-4.521705255896357051e-03,2.233476338228560475e-03,6.063776612281799316e-01
5.844077276964962930e-01,5.858237340076919430e-01,1.362006642174179438e-02,7.289561285570117857e-03,-9.459700211002538064e-03,6.635806566578919367e-03,5.719866752624511719e-01
5.963202362264856671e-01,6.027236518737409954e-01,-2.075647200622254829e-03,3.235163280631260085e-03,-9.246285889310194850e-03,5.435103657153797681e-03,6.019359827041625977e-01
6.100084444173915488e-01,6.170528622766735527e-01,-1.343060291981307275e-02,5.535723264108296853e-04,-2.085411433090582616e-03,3.303485663715160624e-03,6.270281672477722168e-01
5.952291885212150913e-01,5.881123806767243334e-01,1.199801354866958381e-02,8.914105767201934219e-03,-6.834975952777539235e-03,7.581848680794162770e-03,5.801805853843688965e-01
5.659194816384587323e-01,6.022486681429967126e-01,8.953348410894790277e-03,1.325773442226569308e-02,-1.485712085440964343e-02,1.440138700847315260e-02,5.775611996650695801e-01
4.749012489337701703e-01,6.339994766327912146e-01,3.250524516405561837e-02,3.493286372651940169e-02,-2.367916636641127261e-03,6.240535429108033140e-03,5.433281064033508301e-01
1.430477633481320177e-01,8.788882651061145079e-01,-2.883191498886927828e-02,-1.273160602481293938e-02,1.660066548496934996e-02,-3.273693924463698390e-02,8.378592133522033691e-01
4.894514553443078952e-01,6.334636520003011917e-01,2.121980505168180597e-02,2.456303389322953001e-01,8.439974645986060564e-02,-9.190651905873722938e-02,7.315221428871154785e-01
1.679001429127942036e-01,8.869142966707024289e-01,-4.250874394678089141e-02,2.125228141418531447e-01,4.946948936295700316e-02,1.911533332494865303e-02,9.254598617553710938e-01
5.052834057721936611e-01,6.777848488948233774e-01,1.720430788584276227e-02,1.666272979109813604e-02,-1.258270966910999319e-03,9.536127886808768925e-03,5.943759679794311523e-01
5.433085307384660778e-01,4.513648868199970909e-01,-9.719787633281851136e-03,2.958512597961909796e-01,-1.073593551311870925e-02,6.531025904400910263e-03,7.256060838699340820e-01
4.586334319967898532e-01,6.589967487984134120e-01,3.663849707814997858e-02,8.109454966940066178e-02,1.456377664211144654e-03,-5.017407303320441450e-03,5.679686069488525391e-01
6.071445813164610961e-01,5.698554647395770445e-01,2.888004231879359729e-02,2.866564262720662504e-02,1.689229886694103636e-02,-1.595645829701129378e-02,5.641829371452331543e-01
5.258445118576706712e-01,5.805053262319541663e-01,3.169523680999447590e-02,7.508361042103753324e-02,-1.837815130293661559e-02,8.539812082005040703e-03,5.406723618507385254e-01
5.777088977144315685e-01,6.005562819542848985e-01,2.328000505114441454e-02,2.228153746503737723e-02,1.684404080559414110e-02,-1.543567438582667262e-02,5.688901543617248535e-01
5.921314112171480737e-01,5.552453627448759033e-01,5.781501334147731708e-03,1.828859072265599239e-01,-2.283639684254758911e-02,5.248736019740977976e-02,6.585664153099060059e-01
6.206928986617415989e-01,6.161331272282974947e-01,-1.519655045328233145e-02,-1.538493776321695015e-03,-5.786360105209492101e-03,5.609948882236880791e-03,6.337811946868896484e-01
5.592975347892740201e-01,6.234451741956221760e-01,1.304687343425808832e-02,1.688118500956422019e-01,-2.151896224012190065e-02,2.570385868156950526e-02,6.529999971389770508e-01
5.386136845266530360e-01,6.559899975468848066e-01,6.471649920232563913e-02,1.559517725581130720e-01,1.672320598649360279e-01,-6.432311822240631416e-02,6.806283593177795410e-01
6.298332138423874405e-01,6.287380441715980650e-01,6.171968202721139773e-02,-1.174741590760890490e-03,-1.113967764799273820e-02,6.341224340800405597e-03,5.680044293403625488e-01
6.333154189648936283e-01,6.661636860808255456e-01,7.491177986981512049e-02,2.109984200457850345e-01,1.532311426449065039e-01,-6.404129739561875700e-02,7.399597764015197754e-01
5.343116824912520491e-01,7.423761500874168640e-01,8.159743255681251028e-02,-8.337070353808222201e-02,1.567292251255169300e-01,-2.861499843355081590e-02,6.628992557525634766e-01
6.151740359880594200e-01,6.151885444765121669e-01,-1.336295683450561267e-02,-6.372210215851832832e-04,-2.406327221491053568e-03,-3.143570913485619223e-03,6.285825967788696289e-01
5.711178985735853031e-01,6.500929979751364218e-01,-6.363405268673738568e-03,5.542761534018196545e-02,2.447570791251139216e-02,-1.888332493350827063e-02,6.304062008857727051e-01
6.100957346516603375e-01,6.237790920839435538e-01,2.078789657295465609e-03,8.823607737770045381e-03,1.150048677885285794e-02,-1.392539415394153206e-02,6.159574985504150391e-01
6.347914536065877300e-01,6.259029377647753467e-01,1.471825333301535199e-02,-8.539603400252303300e-03,3.717554671935666914e-03,-1.035058646114151749e-02,6.161492466926574707e-01
8.695448976032277288e-01,4.932372280402503861e-01,7.320127804635029323e-02,2.032430254201217923e-01,-2.624261243116131521e-03,-1.058275939591641207e-01,7.960167527198791504e-01
6.313931478338778991e-01,6.280050286146474647e-01,3.229197593999821869e-02,2.834123972872079904e-04,-3.266650219699742189e-03,-1.157827446698138189e-02,5.977777838706970215e-01
6.499261412948631467e-01,5.239958163073490383e-01,2.502758021899031959e-03,5.604380555652218633e-03,1.390388033311019782e-02,-2.999131401127764617e-03,5.951356291770935059e-01
6.259867916018519995e-01,6.349319601592267048e-01,5.485343410836185374e-02,4.061937880677216756e-03,8.444099186861427422e-03,1.209360361931156695e-02,5.762676596641540527e-01
6.266084665243127905e-01,6.276028212432769315e-01,5.939980062985994458e-02,-3.302707248309291743e-03,3.956331387229585633e-03,1.284239307114344412e-02,5.682122111320495605e-01
6.433298223354003698e-01,5.756057840849376772e-01,-5.422593611411841152e-03,1.646414081706738114e-02,1.529082911339434830e-02,-1.886792655331718388e-02,6.197683215141296387e-01
5.709180429882427799e-01,6.254388393064954643e-01,-7.413622968539257396e-03,2.446459039230583499e-02,-2.671823466720189486e-02,2.372108005525872323e-02,6.120427846908569336e-01
6.799639527665576333e-01,6.711391408299277606e-01,4.152203807751098097e-02,-5.893051564940282594e-02,-2.370077074142396976e-04,-1.518377458419554321e-02,6.427768468856811523e-01
6.280108146614530318e-01,6.237273976402765152e-01,2.692774307439316228e-02,3.820442958916594849e-03,-1.383321053575079125e-02,6.014038559787349483e-03,5.995588898658752441e-01
5.684412956284867757e-01,5.755764582725428902e-01,1.116556642958527190e-02,-2.789610768314220932e-02,9.368520752324313930e-03,1.110235229156459301e-02,5.635166764259338379e-01
6.310593523448913000e-01,6.296191540892654981e-01,2.938621512583577955e-02,-4.376944830706130420e-03,1.396939482407184114e-03,7.107848133825336173e-03,6.011331081390380859e-01
6.373386727059474621e-01,5.992668290879895610e-01,-9.205465541355928316e-03,3.765270358680340560e-04,6.536435832957831343e-03,-1.426354465233843540e-03,6.284809708595275879e-01
6.108312570154701415e-01,6.023733530531996117e-01,-5.999358027917178759e-03,-1.352509312756499348e-02,8.687320130218507963e-03,6.999030771446326793e-03,6.133975982666015625e-01
7.075075841213698258e-01,5.508100782004567986e-01,8.475514499183195438e-02,-6.050839030834843230e-02,4.373824343901699246e-02,8.571988114359455069e-02,5.946070551872253418e-01
6.222941714960738002e-01,6.296171843032986049e-01,6.986091525146159720e-02,1.872164770869185488e-03,6.445268342664864890e-04,-1.406735012479521513e-02,5.566749572753906250e-01
6.303626149598753337e-01,6.587891055427330667e-01,1.714804273849879213e-02,1.028890768131576934e-02,1.975577050587701625e-02,-3.981908443692493138e-02,6.328639984130859375e-01
6.772988152460389655e-01,6.054867899945559628e-01,8.709361237832369262e-02,8.143144188218925938e-02,2.134947595169853565e-02,-9.142099628457861504e-02,5.978707075119018555e-01
6.268473355563753957e-01,6.258050446068849082e-01,3.399249839098844594e-02,-3.294853333602003158e-03,-6.430844378860937210e-03,-6.024983956246805078e-03,5.925585031509399414e-01
6.007563025624298447e-01,6.359340613407864495e-01,-1.009130453151629858e-02,-5.590477105736823757e-04,-9.238483165768390792e-04,4.996863533954396148e-03,6.292367577552795410e-01
6.021348320816397592e-01,6.452611554632948776e-01,-7.487440185371785351e-03,7.964397481201515713e-04,6.711121416910443248e-03,-7.727215364280442568e-03,6.325393915176391602e-01
6.199366248008610913e-01,6.302955418440921997e-01,-1.010816419904925212e-02,-2.318501398990996268e-04,1.925097864401042677e-03,-8.539614119244034194e-04,6.352981925010681152e-01
6.202803230640406840e-01,6.332191493998173826e-01,-9.420462266750195823e-03,9.124150981116633499e-05,2.183683085738059079e-03,3.433175742803679900e-04,6.362804174423217773e-01
6.157319206067777273e-01,6.310347588972539112e-01,-1.181494223931445209e-02,6.633519175768333746e-04,-6.901107432393913284e-04,-2.719780698511484423e-04,6.353388428688049316e-01
6.230801634922203958e-01,6.252737839867483771e-01,2.588696661331035820e-02,-1.603600225847781613e-03,-6.331598294364654093e-03,-1.133509798571805463e-03,5.984032154083251953e-01
6.188011792823029378e-01,6.301613138238345568e-01,-6.092129553207092929e-03,-1.137983797446748572e-04,-1.567143997999328369e-03,-1.176622749610335391e-03,6.306592822074890137e-01
6.188717161445876913e-01,6.272426982802609130e-01,-5.322704906675079783e-04,7.037197126297122960e-04,2.205840833877686230e-03,3.012345279334175188e-03,6.236663460731506348e-01
6.265716327688091170e-01,6.308734034099129362e-01,4.922088706456578810e-02,-2.604624380619501457e-03,-7.251148010013569629e-03,4.089940740070955282e-03,5.797105431556701660e-01
6.075490721597376353e-01,6.113741014738978130e-01,-1.890989267631981718e-03,1.407491682205755943e-03,7.167261328642859745e-03,-6.979885978606283591e-03,6.116119027137756348e-01
6.230341783242687725e-01,6.175948810608562489e-01,-1.000700968760315224e-02,2.103777220329533949e-03,-6.758157528051349054e-03,6.205486936583299272e-03,6.305499672889709473e-01
6.070753111766739041e-01,6.214654760131425038e-01,-8.848117328390248115e-03,2.712322339272415367e-03,-6.969629006343643247e-03,9.975569745696138621e-03,6.236171126365661621e-01
6.348233360673709580e-01,5.085076547767062305e-01,4.767725456679861029e-03,3.944215894579337911e-02,-1.997570016503523102e-02,2.487252703877595658e-02,5.840033292770385742e-01
6.121754739348816976e-01,6.130847351709831639e-01,-1.098965376264071647e-02,1.602970045213936547e-03,-2.762829151726937937e-03,3.674745108617758545e-03,6.236772537231445312e-01
6.265218580407518889e-01,6.168809791156955047e-01,-1.229541259840838396e-02,-8.404698808183525471e-04,-6.283485121574190063e-03,5.668357654668361792e-03,6.342228651046752930e-01
6.336278962302850370e-01,5.064601318835113553e-01,2.410435573985975077e-02,5.049602690274938854e-02,-1.251780728125624458e-02,1.407892791375503320e-02,5.647062063217163086e-01
6.175950220909968147e-01,6.120037217133853513e-01,-1.088963187819730338e-02,3.715944430207638390e-04,-5.809982840042049804e-03,4.095256411145980352e-03,6.258291602134704590e-01
6.335685773767150142e-01,6.189282898812082934e-01,-9.574206412158559054e-03,-1.424387880734966452e-04,8.786008273254382979e-04,1.529410278258126971e-03,6.359564065933227539e-01
6.377158519959860161e-01,5.988882668313328939e-01,-8.488398695190413346e-03,7.615545277189898245e-03,-1.397361338673093131e-02,1.162740922517864831e-02,6.286193728446960449e-01
6.056318801598258306e-01,7.240026259001167697e-01,8.110338997239779912e-02,-1.628415458968657248e-01,3.928900726419051748e-02,1.293958046214249147e-01,6.968811750411987305e-01
7.124131971583000933e-01,6.417707788746478403e-01,4.820867750910057259e-02,-2.877691608708555018e-02,1.867969072199084308e-03,8.172402463548101431e-03,6.339811682701110840e-01
5.967514996933929172e-01,4.668800374860631042e-01,2.051878552720615145e-02,-2.446939287017544651e-01,1.924805815238980755e-02,4.932659512552556996e-02,6.797872781753540039e-01
6.217209236160662345e-01,6.245716770765379344e-01,-7.912041875942465996e-03,-2.734788397544214711e-03,4.603024478193735308e-03,7.138010240825770972e-03,6.312524080276489258e-01
5.924726482798640115e-01,6.257368895745234472e-01,7.413466724419726095e-02,-9.737887489156786536e-02,5.216594424797412616e-02,5.161400802947275351e-02,5.758703947067260742e-01
7.424764797094784985e-01,6.715705947549970301e-01,8.602422534440212765e-02,-1.920166299486917860e-01,8.455473637609763060e-02,3.971583822574533545e-02,7.253982424736022949e-01
6.782086389681123428e-01,4.344675442452622383e-01,2.408508574552420400e-02,-6.441592780178424793e-02,1.656892042310677618e-02,4.463544597449867202e-02,5.891513824462890625e-01
6.077894231086458099e-01,5.750098945685659935e-01,8.137390220436524491e-03,-2.839725758904366321e-02,1.347155646081434760e-02,1.299796464976720779e-02,5.869167447090148926e-01
6.134282512410818011e-01,5.591020930776755549e-01,4.675155525863450290e-03,-6.034687846644765964e-03,1.581043198685095838e-02,1.390781861042294544e-02,5.847220420837402344e-01
5.944129007094007822e-01,5.600117905659727224e-01,2.406841871209725037e-02,-4.354706815397639021e-03,8.912910115996999783e-03,4.144405530399472050e-03,5.542585253715515137e-01
5.878211010946807757e-01,5.927063270671173445e-01,9.252667281617554806e-03,-9.408334105755890991e-03,8.547512838830423690e-03,9.610348114288612756e-03,5.816816687583923340e-01
5.462363248840720331e-01,6.564192514872351225e-01,-6.886206640835446091e-03,-2.962308293081283850e-02,9.874754837690973355e-03,6.986123682445715723e-03,6.181432008743286133e-01
5.808390729006048803e-01,5.840159859795917008e-01,2.552996682608693613e-02,-4.209938170695427112e-02,7.764297162111897556e-03,9.107937784344629153e-03,5.620402693748474121e-01
4.971011978858242975e-01,5.824292672764747048e-01,3.060597195102943147e-02,-7.701485320896142572e-02,1.190176189554164937e-03,-1.455373925705170110e-03,5.315150618553161621e-01
5.639095282146587840e-01,5.028157276313115487e-01,2.882564908184886976e-02,-8.845783620129847591e-02,-8.772017467151161513e-03,-5.023036806227827375e-03,5.302243232727050781e-01
5.593859476560738564e-01,6.500932065724080999e-01,-5.328205242448036394e-04,-3.929530358104606387e-03,4.095555500355240358e-05,8.182121026333574743e-03,6.105511188507080078e-01
5.307722974131572347e-01,5.953370827316120106e-01,3.172288229065201026e-02,-2.258677902853984190e-02,9.223926453344701753e-04,5.679609827964358058e-03,5.357888936996459961e-01
4.858596034369289107e-01,6.377098972744270622e-01,3.416702220655626343e-02,-3.320678503439913887e-02,1.082435074594051279e-05,4.870370586229592381e-03,5.468578934669494629e-01
6.545854437816722715e-01,4.817193123418311851e-01,-9.504700311375624544e-03,-8.764733510509532810e-02,3.627447908064475313e-02,7.658065403647146274e-02,6.329985857009887695e-01
6.375061053047947901e-01,4.346350660122886289e-01,2.989310790230736981e-02,-1.103415669391459714e-01,1.505337698045229079e-03,5.358104671265650522e-03,5.689480304718017578e-01
6.946362960574675727e-01,4.543761029508047722e-01,2.021038909791339488e-02,-2.060494588730103771e-02,5.816029282345943838e-03,2.262744703859724538e-02,5.945155620574951172e-01
9.173339611427359097e-01,2.325398809101213160e-01,-2.839097418119768124e-02,-2.206156171093064545e-03,-1.846696077095252506e-02,1.988667898230480485e-02,8.473109602928161621e-01
6.566269374367634803e-01,3.421086695759818497e-01,-1.068909053171447909e-01,-2.342882656112057760e-01,2.639178023024378594e-02,-3.913437037803618040e-02,7.830057144165039062e-01
6.394228945240164608e-01,5.301046463183587409e-01,1.643219388359473676e-02,9.431798633450430916e-03,1.499669322879989414e-02,-3.326298638733920891e-03,5.770081281661987305e-01
7.072107667393584540e-01,3.140979374335648444e-01,2.006892100610685459e-02,2.350499351202272325e-01,-6.494410278752674529e-03,-4.528243429216435162e-02,7.270493507385253906e-01
6.839465805600828396e-01,4.510463487386036641e-01,1.921030283520080983e-02,2.056922986260830907e-02,-1.494335601804567745e-02,1.332155547436796560e-02,5.863200426101684570e-01
6.234905129644316979e-01,5.216722673693638956e-01,2.509404520547409145e-02,1.124233088142868181e-02,1.709104245237955469e-02,-1.070007145910941912e-02,5.559825301170349121e-01
5.831412664103142740e-01,5.831324672843504198e-01,2.708398800657041416e-02,1.084331075451745903e-02,9.345861282163124908e-03,-9.034097321943108938e-03,5.568252801895141602e-01
6.794861439640531575e-01,5.019619540526798485e-01,-6.934853713738142744e-04,-3.099566275313422187e-02,-1.770569400796241242e-04,-2.247077540731220319e-02,6.146607995033264160e-01
7.023662188418354768e-01,3.716829020034521092e-01,1.679769564103622548e-02,1.199679214112082427e-02,-4.652641784617893121e-03,-3.073163009800735854e-02,5.966402292251586914e-01
8.095401524508336610e-01,3.309610938406933878e-01,1.495465075902580043e-02,1.975406397875626580e-02,-5.135620331791045622e-03,4.422332430106126755e-02,6.980322003364562988e-01
6.929492193623453256e-01,3.631773995722604731e-01,2.590241946786797644e-02,1.266651723700434606e-01,4.181322896252522014e-02,-1.293827366876457857e-02,6.225810050964355469e-01
5.300613722882849821e-01,6.451509313803874823e-01,1.806664385157930042e-02,-1.970797336768640232e-02,-7.314695113151308600e-04,-1.311937858148430440e-02,5.796487331390380859e-01
6.725112421947705421e-01,4.724901722927815073e-01,2.363451504343544451e-02,-3.862736572061765267e-02,1.396603533971126250e-02,1.510556192786032675e-02,5.805224776268005371e-01
8.035327794190381123e-01,2.277423733176847098e-01,-8.111441171230243663e-02,-1.928941172632821499e-01,8.268559082564247084e-03,-4.287342171987001114e-04,8.465187549591064453e-01
7.364430958343956002e-01,2.557652926133495708e-01,5.094224835866301149e-03,-2.095193762521622705e-01,6.154516627419885644e-03,6.037511798929172391e-02,7.464069724082946777e-01
7.013382149475051452e-01,4.332898904281191066e-01,3.362089998035006078e-02,-3.452201355198727256e-02,1.455992699822391233e-02,1.672728276653133450e-02,5.863160490989685059e-01
6.976696307276457620e-01,4.845495729538584762e-01,-2.344333698976686087e-03,-3.798306438627574444e-02,6.813300139108487315e-03,5.929858126410322144e-02,6.334580183029174805e-01
7.941053129220102536e-01,2.843687452756166190e-01,3.931818662369102046e-02,-2.452471279012621158e-02,2.610417866277604804e-02,-3.025226979645107873e-03,6.698272228240966797e-01
6.966445182684327664e-01,4.543834879486256528e-01,2.025949553098099765e-02,-1.252295548432050959e-02,-3.506451712558935306e-03,2.510757367192404266e-03,5.940131545066833496e-01
8.766806687367377782e-01,3.166998462474509557e-01,-1.036171369816651366e-01,-2.817492692019848421e-01,-1.401873569230576225e-02,1.446170588072249845e-02,9.823336005210876465e-01
7.479513322497008954e-01,4.411422859291034282e-01,3.098889313039254745e-03,-2.999326393382368769e-02,6.546286314632459094e-03,3.942814502494614709e-02,6.541410684585571289e-01
7.012687854321231207e-01,4.491622674101380941e-01,3.337319227277552036e-02,-3.198153658881913719e-02,-3.879352712798065771e-03,-9.853804108067528746e-04,5.868372321128845215e-01
3.679678486210701260e-01,8.165559532444859325e-01,-5.879264283998936191e-02,-2.652664861012482556e-01,2.409438879754464621e-02,1.693212083109146837e-02,8.879730105400085449e-01
6.188180533570351027e-01,6.240603494844454424e-01,-1.256242280916958221e-02,-3.069711854374702962e-04,-1.458901325835426643e-03,2.697659162142318056e-03,6.340403556823730469e-01
6.171045991581662893e-01,6.242422475619165967e-01,-1.274060455005515680e-02,-1.145507204864732636e-03,-1.459475205467278616e-03,2.698722602755595622e-03,6.334695816040039062e-01
5.874450825602786086e-01,6.245667877181255712e-01,-6.953590999501269021e-03,3.738245460803809456e-03,-9.736068023562659268e-03,1.198373303926098671e-02,6.144184470176696777e-01
6.165824951271239307e-01,6.198852629075225495e-01,-1.500380332301148867e-02,-6.064680451747882619e-04,-1.148366862040987261e-03,2.299111618946304315e-03,6.332606673240661621e-01
6.172726456719392907e-01,6.198411340210584486e-01,-1.492933246991695606e-02,-2.525201455764368658e-04,-1.247609383909521795e-03,2.300528553313470163e-03,6.335064768791198730e-01
6.054351807069180413e-01,6.285089976691393687e-01,-4.836048971435080723e-03,6.830313737904125139e-03,-9.229072116751741578e-03,1.112719499366188712e-02,6.227452158927917480e-01
6.166281679122924686e-01,5.555672583799543540e-01,1.172751245740527581e-02,5.634001503565098240e-02,-2.287246306592156248e-02,4.420759494603136719e-02,5.913141369819641113e-01
5.395132438112554274e-01,7.008176393342999688e-01,2.349174297248740606e-02,-2.393223336399256853e-03,-3.252336769579664000e-02,-1.765895504591779783e-02,6.161654591560363770e-01
5.277144780446735295e-01,6.901292412028996459e-01,-3.842773293889711894e-03,-1.982659934971403928e-02,5.111040403695897572e-02,-2.008634096589879958e-02,6.367816925048828125e-01
2.244078048454426766e-01,7.811801329237237912e-01,-1.075303180941010739e-01,-1.398212279839765038e-01,3.148704511284110275e-02,2.266631083062315560e-02,8.174092173576354980e-01
6.157095028663686076e-01,6.168614170828911059e-01,-1.222092480977177154e-02,1.256425405592009013e-03,3.962436091165069153e-03,3.896477971007595263e-03,6.285846233367919922e-01
5.298295914191681888e-01,6.480962508277205991e-01,2.813411840260959806e-03,-6.113234347527546179e-03,1.472781474244233210e-02,1.458742811046175730e-02,5.962069630622863770e-01
5.873336565415704369e-01,6.326813526050394376e-01,-8.529213804125412857e-04,4.048750386910065883e-03,1.487088654659084663e-04,1.136894903417051683e-02,6.124783754348754883e-01
6.057075052618239308e-01,6.321560168285380588e-01,-1.159425213140125033e-02,-1.234753799806092992e-03,7.795516420582578911e-03,5.968601948408789465e-03,6.311746835708618164e-01
6.173105989088103485e-01,6.248855836836284539e-01,-8.155606741823806516e-03,4.859503364282843002e-05,3.023236447721649144e-03,5.297173960845458392e-03,6.293765902519226074e-01
5.492354186594196053e-01,7.152046136061466219e-01,-1.274072103017509505e-02,-4.727817363461648409e-02,3.866238980934325661e-03,-1.313501414688435232e-02,6.662595272064208984e-01
3.924884189658990885e-01,7.455076796248794047e-01,5.273625502222267780e-03,4.239670415002239762e-02,6.712673290247124502e-02,-3.651311676416331767e-03,6.558983325958251953e-01
6.230586702673632793e-01,6.307365711942115594e-01,4.054153337241794830e-03,1.504109189473194948e-03,5.764537005457622335e-03,-1.645291021512642097e-04,6.229645013809204102e-01
6.270917413355239223e-01,6.272503256321904086e-01,1.039629328517821527e-02,5.410831881978248742e-03,5.119034284771951417e-03,2.595547392177405157e-04,6.169098615646362305e-01
6.180551739378039589e-01,6.239829953537978646e-01,-2.111105697027160222e-03,7.546766796017050126e-04,-2.705247156767958891e-04,4.193852501960476306e-03,6.231952309608459473e-01
5.813266112592214707e-01,6.353940876878625410e-01,-2.500320250738097272e-03,-3.537179939637082743e-02,2.288714713611453982e-02,2.458037982088217763e-02,6.184502840042114258e-01
8.957000433020115837e-01,9.142095663980435161e-01,1.221723208697808039e-01,1.402714833631193286e-02,-2.489582287457485152e-02,-1.696026133235458214e-02,7.850592136383056641e-01
6.202287321992039359e-01,6.206200078606827208e-01,1.269273087825094071e-01,-4.624286267706390063e-03,-4.981547166463932280e-03,1.443242478842363943e-03,4.936439096927642822e-01
6.290458551930118158e-01,6.269048118814444237e-01,5.910604293894666794e-02,-7.340254481620746372e-04,3.369654252025285762e-03,8.699918994319438478e-03,5.691031813621520996e-01
6.235239088706749921e-01,6.359962321640107996e-01,1.022951959783051645e-01,-3.729183387083593107e-03,-6.289185026704150264e-03,-5.499876024942985074e-03,5.278134346008300781e-01
5.578029281318964694e-01,6.806250137881505458e-01,-1.170184672120677671e-02,-8.660947891265957654e-02,5.491816251610289606e-02,3.834234331050328376e-02,6.673310399055480957e-01
5.113728324675856918e-01,6.204129115468048905e-01,3.536354654924050989e-02,-1.390222608320713059e-02,-4.446897311686645246e-03,-4.069895766138006792e-03,5.395067334175109863e-01
5.708824944555896952e-01,9.048369484431109111e-01,7.069690960858360240e-02,1.462692392990124456e-02,1.481693926196081812e-01,8.903386433070067940e-02,7.867882847785949707e-01
6.254884024735862802e-01,6.305431296727629364e-01,4.660182567351150995e-02,-3.260957509985996667e-03,7.482241303038205359e-03,1.893166597504786913e-02,5.825259089469909668e-01
6.203722989294417900e-01,6.120402187265805427e-01,-1.008544365753294425e-02,-2.399410914202465724e-03,6.370924442029765253e-03,4.035720980509771051e-03,6.264832615852355957e-01
5.313527208826842596e-01,5.737316418305927757e-01,3.229319732687108147e-02,-1.711759266340766028e-01,5.920088375301790773e-02,2.368549476368711493e-02,6.100056171417236328e-01
4.025196531355353935e-01,7.083160627453937153e-01,9.268415036428390152e-03,-1.914423024714771715e-01,1.158505772818436697e-01,1.076566557449377265e-02,7.203992009162902832e-01
7.346658607077728442e-01,4.359996588811752005e-01,1.816982422469104463e-02,-3.775851636564280227e-03,-1.758754144118130855e-04,1.522943450450995120e-02,6.239500045776367188e-01
6.312170504277415661e-01,5.692718407558579052e-01,9.176118387690113121e-03,-2.094121729892973321e-02,1.694289715838710395e-02,1.514450031130379348e-02,5.959064960479736328e-01
6.477088930416523560e-01,6.251244059395404395e-01,8.254311245820544762e-04,-4.641235529211151854e-04,4.874529912821061310e-04,7.012005255156544305e-03,6.360090970993041992e-01
6.587548524978037445e-01,4.805338788168549979e-01,2.334190763025678628e-02,-1.094620273013252945e-02,1.387371747842388800e-02,1.346088922240726814e-02,5.689893364906311035e-01
6.516558971030114167e-01,5.629470192392378447e-01,-3.255841365941702925e-03,-1.049284350379248122e-03,1.163773123615615898e-02,7.431979836401672763e-03,6.158388257026672363e-01
6.391034300826645698e-01,6.006173550692486263e-01,-8.526888492956907761e-03,-4.244514981344326560e-03,-2.233950413896016590e-03,6.661786797150534220e-03,6.294311881065368652e-01
6.805545009883696705e-01,5.197881916910844780e-01,-1.045542212712857744e-03,-1.432539364276874672e-02,3.446943887084886939e-03,2.714549182724308729e-02,6.194416880607604980e-01
5.621590021069511334e-01,6.061441860029264106e-01,2.666161739272809861e-03,-9.720410993973237559e-03,1.426856603420049302e-02,1.242683026483797776e-02,5.838953852653503418e-01
6.193524325468280356e-01,6.201571742926949016e-01,-1.070269710662519191e-02,5.859053842377578850e-04,2.326301126180539778e-03,2.258345157679618204e-03,6.304836869239807129e-01
6.803696438521140699e-01,6.653579108310172519e-01,2.589511607944194882e-02,4.403722240846168201e-02,3.019232255231817791e-02,-3.533952133149471930e-02,6.565338373184204102e-01
6.486267306916269071e-01,5.738306361463592076e-01,-7.871410441798010194e-03,3.360599031949111463e-03,1.048718486203808684e-02,-1.190049793802596539e-02,6.231127381324768066e-01
6.328434659568640264e-01,5.993597324985918684e-01,6.727594766386513214e-03,-2.540516071192227415e-02,-1.042159251569203457e-02,-2.233565967357897808e-02,6.131364107131958008e-01
5.211433275940550169e-01,6.364997422491671664e-01,6.324685701669663374e-03,7.209364877749614708e-02,6.823137179125003671e-02,-3.634307101773650434e-02,6.093065738677978516e-01
6.266876044265078383e-01,6.249154659696847247e-01,-4.737570050379724673e-03,-1.156661478641487573e-03,3.216867150495080364e-03,-4.477753678927888850e-03,6.306164860725402832e-01
6.171912271132767858e-01,6.167593209562874934e-01,-1.487166096386838277e-02,-7.773153309916523744e-04,7.438267852171390887e-04,-6.905143943615391208e-04,6.318508982658386230e-01
4.778159271422666166e-01,6.304309606868196969e-01,3.268500209636754361e-02,-3.875826738032438212e-02,5.644498472293738587e-04,-4.751940211609764070e-03,5.421640872955322266e-01
6.232220297925550323e-01,5.697621911950377926e-01,4.772151897665666276e-04,-9.700793361822748068e-03,-1.149101990141854733e-02,-3.520161470982623077e-04,5.983778238296508789e-01
6.465132711013490407e-01,5.411785790060755774e-01,1.862752655355182085e-03,-5.558776496901331361e-03,-1.192765328212256996e-02,-2.167664376117962172e-02,6.005786657333374023e-01
6.353103771149841705e-01,6.090070344639549882e-01,-1.133808020693943819e-02,-1.571530223998237133e-04,-3.959621679086469323e-03,-6.400906576943374629e-03,6.340402960777282715e-01
6.932335363227628555e-01,3.769096905590123558e-01,2.160571834434182881e-02,5.423428034729946279e-02,1.153266646972932533e-02,-2.719522203062528509e-02,5.917217731475830078e-01
5.968274252000093094e-01,5.275939733035470702e-01,3.237198877058922175e-02,-2.056388421471061489e-02,-6.832250509928504585e-03,6.390756364830179996e-04,5.345408320426940918e-01
7.251633132909758306e-01,4.534231937769067078e-01,-3.693763599063482062e-03,-1.662797487224040513e-02,-2.005104704468295418e-02,-7.275136193191748812e-02,6.518661975860595703e-01
5.986893599930369625e-01,5.805742238704563185e-01,4.370527677757585217e-03,-2.642056213710239701e-02,-1.412231270413212385e-02,-1.357381443072462092e-02,5.882363915443420410e-01
6.370173978972912820e-01,5.469141128054749723e-01,2.359874598915234767e-03,-1.349574942818751282e-02,-1.213581531815388116e-02,-1.896327910512093928e-02,5.964822769165039062e-01
5.759411367993976238e-01,6.340623480215561436e-01,5.617143495112331131e-03,-1.562357649022223446e-02,-1.367580677502901708e-02,-1.802658745121697020e-02,6.033769249916076660e-01
6.466173555658349947e-01,5.922180665258840460e-01,4.639768477985317663e-02,-2.392648532714558227e-02,8.637426616696783832e-04,-9.273554074945700512e-03,5.766707062721252441e-01
6.254517283109564119e-01,6.254679725247660471e-01,7.396842859959329441e-02,5.313579633917885764e-03,6.272278509544906323e-03,-9.920209793509956672e-03,5.519427061080932617e-01
6.308432427717305391e-01,6.238960305772788262e-01,7.862566588097685827e-02,4.156737891117590934e-03,-2.366215722051053134e-03,1.711461317474224485e-03,5.488474965095520020e-01
6.273383600691523343e-01,6.314640673845902663e-01,6.390549981180304595e-02,-2.669871369158435034e-03,-7.402510796032760708e-03,-8.843047873401429018e-03,5.658785700798034668e-01
6.897063767631690379e-01,6.854126546429579747e-01,6.536430480726407310e-02,-1.003195828581613866e-02,-9.142056743146963205e-03,1.359468523528814532e-02,6.230953335762023926e-01
7.965446883904362396e-01,2.848305811132511023e-01,1.899757081536390668e-02,-1.723096908831247415e-02,-2.483777886493490974e-02,-7.960180412951068166e-03,6.866444349288940430e-01
7.014286498625135202e-01,4.055109395781378856e-01,4.008411714831011663e-02,-7.536605693453668660e-03,-6.246808485624122907e-03,-2.886091419361251804e-03,5.740668773651123047e-01
4.436096198983237038e-01,6.897517033448868906e-01,2.518677554757264847e-02,7.004782027770028660e-03,-1.930797785827441382e-02,-3.452528933320357044e-03,5.830578207969665527e-01
6.206435207704741330e-01,6.288437618992379630e-01,-4.906150506258644128e-04,5.631845162678488859e-04,-6.928986710086141622e-03,-8.568430773034015416e-03,6.255666017532348633e-01
5.133104221167583692e-01,6.771464355278186131e-01,3.562787573642645089e-03,-2.385466112169879263e-02,-2.105423681122845642e-02,-9.302569134352678404e-03,6.111435890197753906e-01
4.569508595056781530e-01,6.999715244832800387e-01,2.607116265868308913e-02,-1.437003305579492504e-02,-1.691215783672771200e-02,-2.483476197012085551e-03,5.923892855644226074e-01
4.959054986964779865e-01,6.773917635441308871e-01,1.772905505382338376e-02,-1.063565575744905567e-02,-4.226790501499953453e-04,-8.599277339810536269e-03,5.907064676284790039e-01
5.499615787299193537e-01,7.828981993870376410e-01,8.302607922873372903e-02,-1.266947586129389333e-02,-1.059628372830573179e-01,-4.243019659079870498e-02,6.485533714294433594e-01
5.706703062348134070e-01,6.144286807981451659e-01,2.545342042487075407e-03,-7.345099490870129165e-03,-5.657480233968144659e-03,-1.441595022305117851e-02,5.919647812843322754e-01
5.679078315333474514e-01,5.980958009116039698e-01,-6.255630945034562629e-04,-1.079290423433859475e-01,4.611312885927289218e-02,3.443834946077827669e-02,6.214399933815002441e-01
6.401556602554808739e-01,5.199852177278726506e-01,2.572256182185317375e-02,-6.284617463672236004e-02,2.097903757593286983e-02,1.429764421462394360e-02,5.761204957962036133e-01
5.935726183730417604e-01,5.942359761429786280e-01,2.182121481526799744e-03,-1.315802129271785581e-02,1.059287202325596283e-02,9.793626419367944605e-03,5.926881432533264160e-01
7.161225491518852238e-01,8.815396165514545190e-01,1.096612806236517135e-01,1.415431845684139156e-01,2.971427829159586573e-02,-9.906872647217912498e-02,7.665984630584716797e-01
8.488989915049588442e-01,7.239732151163241758e-01,1.263253083195462478e-01,8.758042971322944903e-02,1.056430256999319195e-01,-1.819354522988879744e-02,7.105888128280639648e-01
5.564283234103265530e-01,7.548463129015867690e-01,-2.057615478534041698e-02,5.869378152044205793e-02,9.640436181558631468e-03,-1.130352784597765149e-02,7.055416107177734375e-01
6.294964741850590517e-01,6.360438469534696049e-01,1.220403321619444315e-01,1.144249515349531890e-03,-3.774899025332816103e-03,-8.160550107726916719e-03,5.110025405883789062e-01
6.217216880483199537e-01,6.328288205469818628e-01,1.712255954843822092e-02,-3.429596451584981682e-03,-4.880441440303186391e-03,-1.893453267827502383e-03,6.103248000144958496e-01
7.152201325095109974e-01,7.119698948260850813e-01,8.708396101921572763e-02,1.868835128733907502e-01,6.922547085067365380e-02,-1.155339318808087518e-01,7.427793145179748535e-01
4.701428960586648831e-01,6.526255151819295719e-01,2.639913344234573467e-02,6.395638725122154700e-02,-3.853887849710110891e-02,1.669151663308993463e-02,5.733644366264343262e-01
5.840480083224699470e-01,6.993818816722437992e-01,5.240698265665494349e-02,4.716276282946545682e-03,4.678262370265443698e-02,-3.717082446667121370e-02,6.066612601280212402e-01
5.593658405118316912e-01,6.219623448233142504e-01,6.086448022521173673e-03,5.708795261881452303e-03,1.074036273321630520e-02,-1.918666326800990904e-02,5.884029269218444824e-01
5.292710127185069613e-01,6.598495925704215281e-01,-1.685383398922390974e-02,1.169181739940676479e-01,4.285562635840840795e-02,-5.056010422531275611e-02,6.639304757118225098e-01
5.528879411168852176e-01,5.942286662916274054e-01,3.394951814767194209e-02,8.341681637098261395e-03,1.679663193490749974e-03,-5.477602102767916391e-03,5.410791635513305664e-01
3.650097365757034029e-01,6.955624676638840764e-01,8.271694142476304634e-03,1.959665036524083637e-01,-5.276117715607336195e-02,1.711243972639941643e-02,6.920160651206970215e-01
4.627943952799121741e-01,6.605138848323941492e-01,4.020526339891516976e-02,1.432751544490394949e-02,-1.344100065167549291e-03,5.461166603009237966e-03,5.494901537895202637e-01
4.869997493852967763e-01,6.320000822249647321e-01,3.452952243299128865e-02,3.269865233701105961e-02,-1.173407977641484704e-03,5.704113690812955689e-03,5.428370833396911621e-01
5.396173584096912723e-01,5.852038513354246296e-01,1.520184937292923255e-02,5.981309268866297213e-02,-1.975710136799705210e-02,2.034557621253231530e-02,5.604834556579589844e-01
6.270685807068686612e-01,6.217221310432201609e-01,5.970045049615901878e-03,2.757799089059514552e-03,3.264730034346372510e-03,-2.030400174707104165e-03,6.184969544410705566e-01
6.231181690784732830e-01,6.321558637365671807e-01,2.889758870274511393e-02,8.934947931447606920e-04,-6.631198282201884731e-03,2.117451547660626713e-03,5.989139676094055176e-01
6.251096941374671978e-01,6.281435568712939732e-01,4.508206333896680462e-02,5.898670753362734130e-03,3.121911121469214678e-03,-1.066050412632487537e-02,5.819583535194396973e-01
6.272541176738252178e-01,6.040673120057887813e-01,-7.678805411656719482e-03,-1.886813021430753211e-03,8.228587857412129891e-03,6.702602030187009355e-03,6.239422559738159180e-01
6.147871951964620774e-01,6.071030987366401455e-01,-7.328588756521370318e-03,-3.012186063969844209e-03,1.353925472793459685e-02,8.965393699512920131e-03,6.189709305763244629e-01
6.291622405752622660e-01,6.283493068215509902e-01,2.366809806531522398e-02,3.376212152149172131e-03,-2.206763800082348938e-03,6.046643900707924027e-03,6.052190661430358887e-01
6.498732351387849215e-01,5.168691410622177074e-01,-4.745409409837808568e-03,-1.203399278792318013e-02,1.338434658074898718e-02,2.402456400032809691e-02,6.015414595603942871e-01
7.441800114568855040e-01,5.806384847758713219e-01,8.152280205966899729e-02,-1.520886649865882678e-01,8.498019052366109771e-02,8.044276006032539950e-02,6.840755343437194824e-01
6.641186491021796590e-01,6.158370877825096734e-01,2.929718932797281683e-02,-7.391267877339116610e-02,2.212804825585415209e-03,1.336093651389320958e-02,6.257944703102111816e-01
7.060885175940796454e-01,7.765074670389817690e-01,1.022242894081090703e-01,-5.006884901624322759e-02,1.259254777159411753e-02,1.189595256623058039e-01,6.801359057426452637e-01
6.305686637076806100e-01,6.132791520706273314e-01,1.566783738966776029e-02,-2.194593400918370876e-03,8.203281708210139606e-03,2.328679945073808873e-03,6.066327095031738281e-01
6.300252138868304153e-01,6.271731216749287796e-01,1.948456257289543636e-02,4.611195756668009724e-03,9.492423286572657798e-03,8.592427219608454389e-03,6.095755100250244141e-01
8.337421988414593921e-01,1.186039124027372660e-01,-7.681462244096104452e-03,2.327793227160991629e-02,-8.054874621751710942e-03,1.563900664951558758e-02,7.875508069992065430e-01
6.395276065672181875e-01,6.454555382212353587e-01,7.064853982595548088e-02,8.907142270043310467e-03,-1.542938700326774819e-02,1.287038369066715888e-03,5.727023482322692871e-01
6.261089613676613652e-01,6.292821264504367962e-01,9.608121538224656533e-03,-6.042206771627562679e-03,4.998644702540144119e-03,1.672232713581822162e-03,6.182495355606079102e-01
5.295131395975208877e-01,6.521523176099244257e-01,6.458633450200645942e-03,6.356051514459278018e-02,4.402397621031806790e-02,-2.344350143090939004e-02,6.102100610733032227e-01
6.238150822040862131e-01,6.323166146516356889e-01,1.002336798511485605e-01,-7.159215277729681290e-04,-1.001333682074202931e-02,8.279748350800374829e-03,5.283644795417785645e-01
6.581518643600691165e-01,5.888658294472641774e-01,-2.141893851838327922e-03,6.381466772016992570e-03,9.149872690021335075e-03,-7.021544708811008374e-03,6.289359927177429199e-01
5.596940927813388589e-01,6.121124521051772849e-01,1.288051076247875848e-02,-1.418622544596864488e-01,5.408379253387930741e-02,1.507973866784002165e-02,6.326515078544616699e-01
4.849216528433630824e-01,6.594271735379098054e-01,2.906671000926547288e-02,-1.087220336133106792e-02,1.899575345792428940e-02,1.557527384092796674e-02,5.656589269638061523e-01
4.221946672081378082e-01,7.323896353398032799e-01,2.782768165559562634e-02,-1.550925122983710935e-01,9.961899166925101967e-03,5.724678284608112575e-05,6.682332754135131836e-01
4.637408499505625281e-01,6.341919000976865561e-01,2.945909380087269325e-02,-6.050290297064030154e-02,5.692967162437041415e-03,5.266224877621051258e-03,5.503091812133789062e-01
5.219885032909316047e-01,6.295038400541125290e-01,1.847178094056672881e-02,-2.274814897933801969e-02,1.335849782830277445e-03,1.381266695746370850e-02,5.668814182281494141e-01
5.330482645085068416e-01,6.485385284304518994e-01,6.231871347541051431e-03,-6.753748380916590327e-03,1.544306167086995432e-02,1.558232960829007176e-02,5.943874120712280273e-01
5.018732648076421610e-01,6.531228890061726577e-01,-4.958880679764576804e-04,-4.598512259915901734e-02,5.606709838242815436e-02,2.444852822946487134e-02,6.072906851768493652e-01
5.208680431731338434e-01,7.015185329503110800e-01,-1.617547199151186943e-02,-8.494732173874192105e-02,4.478434888706054467e-02,3.485074556417001868e-02,6.703553199768066406e-01
5.516190426942331193e-01,6.314092326644638042e-01,6.628255119177250965e-03,-3.099532194224543374e-02,1.869685929738290620e-02,1.573259286168259344e-02,5.929078459739685059e-01
6.378361573284193620e-01,5.173309244175889887e-01,1.854023873238797027e-02,2.432140404319125399e-02,-1.448825653809016588e-02,9.450234805049491111e-04,5.708130598068237305e-01
6.755032425991208678e-01,4.591862415110471440e-01,2.041133133402456279e-02,2.228320467929371593e-02,-9.664170468224826671e-03,2.642510730967123026e-03,5.796737670898437500e-01
6.705574677666106265e-01,4.719456332502279805e-01,2.914265495560319774e-02,1.708845485448552970e-01,-2.558248566607062777e-02,3.608871006821125910e-02,6.457106471061706543e-01
6.091347522714566365e-01,5.589029792730715318e-01,6.092088711217247265e-03,9.975159884981179420e-03,-1.688405534121925275e-02,1.636169992900585526e-02,5.812474489212036133e-01
6.250364261906218299e-01,6.303786627216961813e-01,-3.093570048671334671e-03,-4.231895504990753482e-03,-9.779730907886806032e-03,1.111992181016866442e-03,6.310909986495971680e-01
5.693499158690216166e-01,6.075350330005400146e-01,7.178126198869816399e-03,5.641828504246184511e-03,-6.175468296241909405e-03,1.152539739988870868e-02,5.827265381813049316e-01
6.467078259635713477e-01,4.907952231153070444e-01,3.341774216180304347e-02,6.937079938580786864e-02,-1.168718011943863100e-02,7.369877600862787849e-03,5.655293464660644531e-01
6.241138551501769216e-01,5.550210028519506622e-01,7.183175225246918316e-03,8.252510215005042643e-03,-1.840645731579010000e-02,1.573896137210523474e-02,5.871248841285705566e-01
5.848692454077943914e-01,6.623241508583574966e-01,-8.750948589902551866e-03,9.922241453103179676e-02,-6.674146188922354395e-02,4.213876265276831484e-02,6.727470159530639648e-01
4.874144678405927245e-01,6.467963129296749880e-01,1.217695720474570864e-02,-2.726159717910973598e-02,-2.377474570692315534e-02,-1.998989726498241401e-02,5.762999057769775391e-01
6.284925486955837970e-01,6.375930810195816756e-01,3.688026883024347891e-02,4.988427887452601128e-03,5.515506375459065629e-03,6.327039054900061941e-04,5.963547825813293457e-01
7.080787109286827974e-01,5.283308091932584771e-01,8.168775149096868526e-02,-5.489832417984816942e-02,4.451513934747471091e-02,7.821439280055972332e-02,5.877254605293273926e-01
6.701714140864258873e-01,5.055306088677500309e-01,-3.791520122554070671e-03,-9.401214800560185169e-04,2.387830125605356485e-03,2.851287149045965766e-02,6.105976700782775879e-01
6.595887107651255965e-01,5.699793443625622569e-01,-8.892919171773594478e-03,-5.287721552737999035e-03,-2.355268839174542560e-03,1.219044133986039655e-02,6.289210319519042969e-01
6.831934250329958491e-01,4.491749795854036442e-01,3.240793068589675752e-02,1.592714403295640568e-02,-4.898630571696632914e-03,3.066871048215587866e-03,5.717095732688903809e-01
6.209626502465448450e-01,5.266074641227918018e-01,2.388545528149227382e-02,1.193499021002430993e-02,-1.456575177106933516e-02,9.272203463914420463e-03,5.571252107620239258e-01
5.934313703309358479e-01,5.165752624640094215e-01,2.497917720309900114e-02,6.663416526353273250e-02,-2.850040897107403853e-02,2.880959849658925112e-02,5.510016679763793945e-01
7.014180313791487098e-01,4.310281929951938484e-01,2.955247196546711974e-02,1.311935020084948611e-01,2.267630607705836340e-02,-9.627743273211912534e-03,6.295270323753356934e-01
7.103468481480812446e-01,4.119491277594882206e-01,4.390478453464519148e-03,4.106674583956197722e-02,-6.901588593119240521e-03,2.776708195880341068e-02,6.198993325233459473e-01
7.282825990712566977e-01,3.230355005763513865e-01,2.383951486343233173e-02,5.450307316944571871e-03,2.995333974129524637e-03,6.225111067246091694e-03,6.125553250312805176e-01
6.425094934911430578e-01,4.927026280361468946e-01,6.971180933575515937e-03,1.838786564569138693e-01,-5.084026752597973348e-02,5.721755316522554591e-02,6.709343194961547852e-01
6.752545539531121799e-01,5.297718983705002049e-01,7.446447947180723226e-02,-9.621333847139618145e-02,-4.413559867554218280e-02,-1.022163696756739765e-01,5.997239351272583008e-01
6.274405577561240621e-01,6.204550589107804548e-01,3.555266781486299266e-02,1.763640672027447058e-03,-4.051954092628669464e-03,6.125028397374874568e-03,5.885716676712036133e-01
6.246100178090087107e-01,6.092548005277624856e-01,-3.942806923773023442e-03,-9.928953784915546532e-03,-9.480581317284554610e-03,-1.750197312240672071e-02,6.222115755081176758e-01
6.212447976896511292e-01,6.298513380715815568e-01,4.255027751009332615e-03,3.914101441052707936e-03,4.581951761339958024e-05,3.294149632393251169e-03,6.214009523391723633e-01
6.324581247083150837e-01,6.279345470460671041e-01,5.430609781873613207e-02,-1.952268997590418101e-03,-6.997015083095008831e-03,9.971760331915697703e-03,5.762998461723327637e-01
7.109724933994925333e-01,7.976289649747658750e-01,5.969767823083921288e-02,1.498740918407935607e-01,8.002202698869141650e-02,-9.333576417986197415e-02,7.751370072364807129e-01
9.492992059579132835e-01,6.184760889440785725e-01,1.380590312344234794e-01,-2.109780458862386965e-02,8.114442250161707504e-02,-1.017125370291529912e-01,7.424974441528320312e-01
5.958439242559095961e-01,5.631775937518010977e-01,2.708819299257947399e-02,-4.899749385829413675e-03,-7.410745277278613097e-03,-5.058680063530759941e-03,5.534298419952392578e-01
6.342485285176515664e-01,6.287162644341230955e-01,7.004815741471487334e-02,-2.115516523813906324e-03,2.201071633112742544e-03,1.335317837054870310e-02,5.619557499885559082e-01
6.281775573613473940e-01,6.334617927687222760e-01,4.811801783697650103e-02,4.230228936196383377e-03,-8.777205921886391607e-03,-9.957158657351812547e-03,5.832189917564392090e-01
7.081638486973473867e-01,6.892495707070960265e-01,9.104219015750258936e-02,1.341847516451462885e-01,1.545776901389544523e-02,-9.905176791743899867e-02,6.735664010047912598e-01
7.112581513336044825e-01,4.426808684861680554e-01,7.051471119864322068e-02,9.429557699936905180e-02,2.006347546508793767e-02,-1.071745828058281585e-01,6.106869578361511230e-01
8.993098411689399718e-01,3.053395649584293992e-01,2.017192449179228131e-02,1.798696956489821142e-01,-3.099155339162684361e-02,-3.429849231862000525e-02,8.408164381980895996e-01
7.734727007751437400e-01,4.786226427319389409e-01,-2.458422849187791304e-03,7.598236269432578904e-02,-1.670308087124403387e-02,5.082085936798229342e-02,6.972284913063049316e-01
7.753954463501351313e-01,2.635560850268461874e-01,4.156126240007845807e-02,1.139508497094317285e-02,2.604025837089567891e-02,1.202609595575596796e-01,6.860749721527099609e-01
9.510871659117530186e-01,3.496124929476788212e-01,3.863891776267064371e-02,2.072230353166470695e-01,3.159217538384490737e-02,1.019855687598543309e-01,8.991888761520385742e-01
6.846023637176492649e-01,4.767502381359676744e-01,4.045082476975714325e-03,3.586578422868328397e-01,-3.896804633521673555e-02,-8.990186690924845819e-03,8.692581653594970703e-01
6.356355030076681345e-01,4.891822530426124249e-01,2.286313779561360837e-02,3.082932430850745739e-02,1.622390395306316097e-02,-1.253265477823673618e-02,5.579500198364257812e-01
5.762023705487224756e-01,5.782437040761743141e-01,2.286833467322324509e-02,1.829574450267604235e-02,7.292015880143988722e-03,-7.948895802617263542e-03,5.555767416954040527e-01
5.404120568524362067e-01,5.518890263609285141e-01,4.646327872346367460e-03,1.288712505069105618e-01,3.238513662753420702e-02,-2.648963264954299832e-02,5.902546048164367676e-01
6.760532646965056180e-01,4.531486124509026547e-01,2.326873037279192369e-02,2.484551186690265104e-02,1.955138472264462621e-02,-2.318450974763424516e-02,5.787198543548583984e-01
6.609295718579279999e-01,5.455977946955792302e-01,-1.944844995775962815e-03,-7.146990994884285832e-03,-9.708910230722908076e-04,-4.155404576197555683e-02,6.177294850349426270e-01
7.847741146211655305e-01,5.899474441348100395e-01,9.050397446702485027e-02,5.643457262465535751e-02,9.710628816913098593e-02,-1.203038208257767028e-01,6.826189160346984863e-01
6.258341635753743581e-01,6.289544592303653037e-01,3.801499578486067232e-02,-1.865224247951037268e-03,5.026263837559546456e-03,2.748402793230817452e-03,5.894778966903686523e-01
6.282952542385643602e-01,6.219415393178314710e-01,2.229062985667867869e-02,-1.351503241975084276e-03,1.283532533343691845e-04,6.689081933482176473e-03,6.029688119888305664e-01
7.053677658774017978e-01,6.647304800032665106e-01,1.218517797641024414e-01,1.341474010417426609e-02,-2.157170941336781014e-02,-5.131350150780737696e-02,5.729440450668334961e-01
6.159717559044883828e-01,6.348404106632712374e-01,-1.095817821525191249e-02,-3.418582056187601968e-04,9.291289591227225265e-04,-4.067660380072311800e-04,6.365767121315002441e-01
6.168466747456522459e-01,6.282600316348938563e-01,-1.158856202539998437e-02,-1.732202255154552612e-03,5.332490919859328308e-04,6.197092939134603816e-04,6.342276334762573242e-01
5.074851140902523206e-01,6.626399097438646635e-01,1.727542742274890131e-02,7.645500453103681697e-03,-4.601948725734081465e-04,6.972416955206659807e-03,5.837454795837402344e-01
6.086859677757398002e-01,6.333158993927899827e-01,-8.817374642571818022e-03,6.602320946472033407e-04,-4.819205859227063647e-03,-1.677401079874259789e-03,6.302424073219299316e-01
6.157822252888526249e-01,6.324712680529014364e-01,-1.125566487758905554e-02,8.302384678894037234e-04,4.336706777020502262e-04,2.263789536614206187e-04,6.355489492416381836e-01
6.154937393284914959e-01,6.309477818616449074e-01,-1.146599802825581937e-02,-1.318333650598137413e-04,8.183360916966504284e-05,-1.433355237652846113e-04,6.348279714584350586e-01
5.587132461983741472e-01,6.476447842455524961e-01,-1.540745616770422544e-03,1.208593066234751531e-02,-2.559212166143186654e-02,1.353845661070703608e-02,6.120216846466064453e-01
6.161471174261833328e-01,6.305221900584908612e-01,-1.201054717784033610e-02,-8.636842078141718834e-04,9.911217912021306944e-04,1.899985764177749377e-03,6.354797482490539551e-01
6.183144081749504251e-01,6.315299342088493972e-01,-1.016431791302635501e-02,-2.013451774133206192e-03,-2.853793854626560794e-03,1.616879415021656250e-03,6.352245807647705078e-01
4.176730584260342494e-01,7.616342293234150684e-01,2.144703593849500711e-02,8.089220216108161665e-02,-4.014718951778838835e-02,6.023418307667565905e-03,6.604283452033996582e-01
6.157229006455680054e-01,6.269623612518062661e-01,-1.149847902401618382e-02,-3.157933108616265100e-04,-7.296408397222129208e-04,1.502236586388738240e-03,6.329228281974792480e-01
6.106459038515903437e-01,7.059635650295598142e-01,1.346887368910698601e-02,-4.924355314674958017e-02,-6.047797722261296499e-02,-1.763439941564253974e-02,6.646862626075744629e-01
4.246364632839473852e-01,6.737127476973248097e-01,1.179447760564322767e-02,5.725215976008837110e-02,-3.670941253590917497e-02,2.366488962801411786e-02,5.923368334770202637e-01
6.039977115568458954e-01,6.214265605893117828e-01,-1.155603292286938588e-02,1.147649300344840417e-01,-6.656166885863637472e-02,5.935059885614726166e-02,6.732832789421081543e-01
5.546418625663389612e-01,6.236872145112039023e-01,9.982634267133250194e-03,6.762527109394062333e-03,-1.532747702241250669e-02,1.547227267269809560e-02,5.835985541343688965e-01
5.335274716652671501e-01,6.470417181542906793e-01,4.604820904555273486e-03,6.386004358769546002e-03,-1.606994053919312201e-02,1.483690984511648429e-02,5.951826572418212891e-01
5.538484212894752012e-01,6.589860840618191329e-01,-3.944263222765420629e-04,6.206760825990110912e-03,-1.420693441246322899e-03,-8.407789465600922982e-03,6.138766407966613770e-01
5.058754517104168125e-01,6.861338651443699144e-01,3.977398878704685448e-03,6.257421313590911041e-03,2.090285202187580280e-02,-1.555937772234495826e-03,6.134342551231384277e-01
5.327822561581371241e-01,6.473133281171525866e-01,-1.962898372256494106e-03,-8.158745400159381558e-03,1.421245991966006011e-02,1.786570008222979067e-02,6.017290949821472168e-01
5.535722387381580845e-01,6.606207519895465063e-01,-1.887208257180805759e-04,-4.672419667521540351e-03,7.931525114740332503e-04,8.048186655820065497e-03,6.145336031913757324e-01
5.936504691142809875e-01,6.391685549706371816e-01,-9.459377089893805657e-03,4.551777388060575767e-03,-1.066644331873177649e-03,5.175464373838017246e-03,6.272253990173339844e-01
5.942995201991780885e-01,6.449935501759601619e-01,-4.835720662426268301e-03,7.481762491692657601e-04,9.701249265895238449e-03,-8.584511864641557535e-03,6.264268755912780762e-01
6.008284067382454463e-01,6.424397241726845786e-01,-9.372152644236853014e-03,4.614221351562100559e-03,-2.265734179586405359e-03,-5.200362505658058000e-03,6.321612596511840820e-01
5.355125759618668546e-01,5.981037436007429209e-01,2.097860068756496332e-02,-5.271697117398082416e-02,-1.430338692265595117e-02,-1.329092135413944067e-02,5.570898652076721191e-01
5.084637260921327506e-01,6.205556272303428544e-01,3.335428655481281757e-02,-1.531466009185240319e-02,4.271395834183445289e-03,4.191430290279825679e-03,5.407037734985351562e-01
6.709419599914137056e-01,5.106763824478786074e-01,1.786906376928903972e-02,4.229318180916166736e-02,-2.064624993525663102e-02,7.185633626417672892e-02,6.079959869384765625e-01
6.072185702949862707e-01,6.308832545273378445e-01,7.212920297702929417e-03,1.546016677853369499e-02,2.760806810127422115e-02,-2.740088290554093878e-02,6.164591312408447266e-01
6.262701040732951974e-01,6.248023450736842621e-01,-7.385221633979477396e-03,-3.881703359476220729e-03,2.646355176824033255e-03,-5.333101382720137514e-03,6.330423951148986816e-01
6.243562554688522059e-01,6.122731961075583706e-01,-7.282198613773938067e-03,4.463932429049289469e-03,7.777124247541693583e-03,-9.243115400474342588e-03,6.260818839073181152e-01
6.335996171435405167e-01,5.812058749966440008e-01,-3.881654433274928095e-03,1.911494566661277664e-02,2.113457209534869846e-02,-2.057590747891565805e-02,6.159818768501281738e-01
6.265738669416998086e-01,6.287667833195520473e-01,3.113794203857095377e-02,-2.595273341491489971e-03,-6.948987133435178057e-03,-2.617239973700070596e-03,5.966909527778625488e-01
6.274730948265045960e-01,6.272527794530872169e-01,7.130101133920208056e-03,-4.810278844566209799e-03,5.790929311348145397e-03,1.947899752303308956e-03,6.203790903091430664e-01
5.472597309849629443e-01,6.774675587279060940e-01,2.668735737389460461e-04,1.107218173872087791e-01,4.606971251910505633e-02,-4.955020571408675495e-02,6.617317199707031250e-01
6.037208718091124915e-01,5.770484340712034310e-01,3.337652351140529827e-03,4.296592590376635719e-03,1.219474028063293435e-02,-5.815425732814799228e-03,5.880142450332641602e-01
6.163139733891862537e-01,6.170071978252114064e-01,-1.483521578988561407e-02,1.343760555825795461e-07,5.965312019775903312e-04,6.572451895146394279e-04,6.314979791641235352e-01
6.167107551395458742e-01,6.167791431232652055e-01,-1.481587978006454476e-02,9.258449132560167029e-05,5.956664677712830919e-04,6.576723871134994466e-04,6.315627098083496094e-01
6.164044583878820482e-01,6.153936578171843585e-01,-1.400033543321488327e-02,-7.731754878370944743e-04,-1.192450717732723119e-07,5.472599003909276415e-04,6.299021244049072266e-01
6.122501316279584938e-01,6.141204860728954884e-01,-1.127255826109813119e-02,-7.414582208945982552e-04,6.098726070190483260e-04,1.783284681242706558e-03,6.244698166847229004e-01
6.166309762718207299e-01,6.165448796500549999e-01,-1.487775872527985488e-02,-4.765645959712527623e-05,6.676807228444762553e-04,8.577503790571444024e-04,6.314684748649597168e-01
6.156813868596415773e-01,6.160024547714868515e-01,-1.504655358006762311e-02,7.558964471583913027e-04,6.712787293952616162e-04,8.500659599642383093e-04,6.308926939964294434e-01
6.368972037696464250e-01,6.953399901075119072e-01,3.415871190589031547e-02,-1.997842863455210477e-02,-3.242308308205094081e-02,1.968388684013984945e-03,6.374149322509765625e-01
4.603389619019531143e-01,7.668728667802899857e-01,5.465178415885979524e-02,-9.890859983666002928e-03,-9.778321146557497623e-02,-3.726436738224055828e-02,6.450163125991821289e-01
4.858038890753850203e-01,7.539058955150723662e-01,7.884683008725990039e-02,-1.909352519316372468e-02,-1.173463940380497228e-01,-8.647006046586896977e-02,6.414313316345214844e-01
4.743097455338115553e-01,7.140481480824744098e-01,4.262189552340461818e-02,-4.742158326331791934e-02,-9.618120744159813773e-02,-9.206563222990351084e-03,6.181215643882751465e-01
6.290766162714556131e-01,6.308778203262007667e-01,3.367162142251051149e-02,6.814310207198618361e-04,-6.300535436489501998e-03,-8.335986687881202176e-04,5.964103937149047852e-01
8.230446498246525300e-01,8.970441328468414799e-01,1.443268839411553928e-01,-3.008675534446878311e-02,-9.118411066634105056e-02,-1.904371655707541924e-02,7.383127808570861816e-01
6.342381035425941338e-01,6.297725255500825625e-01,7.167122102105261128e-02,-2.492762127710618052e-03,5.510723217848183426e-03,8.993533452597096689e-03,5.606617927551269531e-01
8.776038606843683532e-01,6.559524883788847571e-01,1.108046873288718315e-01,-8.496738091383758407e-02,-9.426205287602585844e-03,-3.994575372555409648e-02,7.027518153190612793e-01
6.714033558483134545e-01,5.813763410538543841e-01,5.122340801933850107e-02,2.749710801688863126e-03,-1.697590884785114135e-02,-6.677451705884333670e-03,5.813055038452148438e-01
7.556197232899675154e-01,6.055374976977696555e-01,3.275575134991748349e-02,2.759594835860820425e-02,1.165130584611185488e-02,-4.832730190979709489e-02,6.680317521095275879e-01
6.331534906693634390e-01,6.276870289322354912e-01,7.298163198062651569e-02,-2.611867722393793143e-03,5.418752179441784118e-03,-5.970232305060196518e-03,5.576519966125488281e-01
6.864020421977509168e-01,5.082431306278071270e-01,-1.520363925817724837e-03,-1.946019625274295886e-03,-4.962953227570537050e-03,2.790353516718616783e-02,6.203542351722717285e-01
7.585636612336050799e-01,4.816027554989633086e-01,6.168293229067867145e-02,-2.424342136923592420e-02,1.549300809053771703e-02,-1.499079564834669143e-01,6.627532839775085449e-01
7.764467675027486582e-01,6.687324987618072925e-01,1.049815674250137998e-01,4.640952378776295323e-02,4.903377641870156761e-02,-1.015118193715505435e-01,6.593405008316040039e-01
7.084517000481271864e-01,4.625795456569061770e-01,1.020115902585144174e-01,8.121631160122202986e-02,5.179518142973283529e-02,-1.475736842963763229e-01,6.101528406143188477e-01
6.906340718208083818e-01,7.584448428131029818e-01,1.056040721592613196e-01,-1.638974605443844212e-01,-3.355591242709255601e-02,-1.225615737423958185e-01,7.180243134498596191e-01
7.355025383504019132e-01,6.036927433281829014e-01,7.261522036797896096e-02,3.778686970795457761e-02,-2.208381159759913864e-02,-2.677438917709005009e-02,6.142601966857910156e-01
6.961289102865224621e-01,4.512996450021561912e-01,1.417718678489443551e-03,7.047181866376513518e-03,6.225141327025124002e-03,6.741311263738444803e-02,6.215932965278625488e-01
6.194819019139541361e-01,6.285742454606104701e-01,-1.115752327463637172e-02,-9.880417571819202945e-05,-2.018584685159541866e-03,2.323608573259623375e-03,6.352567672729492188e-01
6.151751330464809708e-01,6.308394498120657445e-01,-1.208772163745691630e-02,-3.715016651784300706e-04,5.613929958772242946e-04,1.529761599410821033e-03,6.352464556694030762e-01
6.176286175728873395e-01,6.283166862669975483e-01,-1.140453929511459075e-02,-1.253265053110166373e-03,-1.815270556142902685e-03,2.362384771669945316e-03,6.344693899154663086e-01
6.170325532307162630e-01,6.345557938873318538e-01,-1.047099965060904747e-02,5.604024069180113228e-04,-3.088852497455999574e-03,4.829640177697315691e-03,6.365243196487426758e-01
6.247727876883002462e-01,6.311238820736969624e-01,-2.929230821272443830e-03,-2.375464300558928314e-03,-3.908975849347655004e-03,-1.999934836924378628e-04,6.309514045715332031e-01
6.233033199394729662e-01,6.267509552725996080e-01,8.291949725468983345e-03,-2.802782316250777925e-03,1.891803733069308442e-03,2.984434554694533146e-03,6.167919039726257324e-01
5.913037523813243768e-01,6.079046447639043782e-01,-8.661790131911595303e-03,7.436623821807147351e-03,-9.328054550998622282e-03,1.299460610395464233e-02,6.092025637626647949e-01
6.156314303563283907e-01,5.112239539523488752e-01,1.252896285725130232e-02,-4.957353045255166735e-02,1.558252723814446301e-02,7.248585403786620557e-05,5.654786825180053711e-01
8.771068910064688806e-01,2.887899497827253192e-01,-1.221536209598206302e-02,6.876640451985113756e-02,-2.879546893383396269e-02,9.000029118329851141e-02,8.091858029365539551e-01
7.165494377887542399e-01,2.368366902866296253e-01,2.077135169999044795e-02,-1.915832126682603109e-01,1.282491748457841377e-02,-3.073384405820495883e-03,7.007795572280883789e-01
6.214282541319968711e-01,5.330356170110073233e-01,2.413159098331552066e-02,-1.630329966460938584e-01,3.157825068389587958e-02,3.690250037777900727e-02,6.313447356224060059e-01
6.479366912886352914e-01,5.400503125944646765e-01,-1.027918890551821063e-02,-1.273454023339774255e-01,2.831004767449976298e-02,6.585268100837667060e-02,6.617701649665832520e-01
7.783015970668281103e-01,4.465477642773855727e-01,1.671083980373661015e-02,-2.748412087372550938e-01,6.143241559366868776e-02,6.542018447134936854e-02,8.295750021934509277e-01
6.624220140565706405e-01,6.334257832171147351e-01,-2.137137913704567627e-03,-9.863811214446351061e-02,5.559240611885064159e-02,4.650259065893452143e-02,6.842202544212341309e-01
5.776384033850466837e-01,5.929189964044097039e-01,1.985694960214784421e-02,-1.388618496813555456e-04,-1.460936740122320337e-03,7.240052789502745591e-03,5.657213330268859863e-01
6.836216908921930457e-01,4.122812162647070955e-01,3.384799012893191517e-02,3.143582464104741070e-02,-9.709640396744803961e-03,1.522590794950755624e-02,5.687394738197326660e-01
5.906152790058876167e-01,5.791611002901524419e-01,2.013146902825363460e-02,6.339508188709400312e-03,-3.172644741757369683e-04,1.903609528450409417e-03,5.649604201316833496e-01
5.725046075367908882e-01,5.688502974273991208e-01,2.711135899743027933e-02,1.290548736876133418e-02,-3.148658122075312024e-03,2.959953335428765035e-03,5.440862178802490234e-01
6.131295119496014134e-01,6.113921083009150603e-01,-1.160798092327863795e-02,-5.847216973574820775e-05,-2.960337951001969399e-03,2.196971079576403446e-03,6.239032745361328125e-01
5.807917129322018868e-01,5.759725668704964718e-01,2.864391084685774524e-02,2.747901563006107089e-03,-3.334489434810917249e-03,3.086400965007260726e-03,5.498309731483459473e-01
5.558403318686984118e-01,5.918512696856985666e-01,2.473716986505436477e-02,5.813869719937687745e-03,-8.268622295663344279e-03,1.079141341251592390e-02,5.505894422531127930e-01
6.806277035460499558e-01,6.125075053894076804e-01,8.719061019540863544e-02,-1.106037139775181699e-01,-5.352627746866793490e-02,-2.185053451233070695e-02,6.025860905647277832e-01
7.593976022494153266e-01,7.272736891786932834e-01,1.255597906983297873e-01,1.833794236485892376e-02,-7.817224632844732568e-02,-1.365027737988048218e-01,6.765068769454956055e-01
6.141352109905859891e-01,9.154625390962081166e-01,9.234106993262558571e-02,-8.280586951494079209e-03,-4.025254343853701400e-02,-2.625636504802835586e-02,7.262457013130187988e-01
7.383751230288866374e-01,6.539867194105468684e-01,9.184645741773783678e-02,-2.477042823417196712e-02,-2.021848836138543520e-02,-3.421995010576096147e-02,6.141182780265808105e-01
6.353386484516212462e-01,6.294628274193657669e-01,2.970556846091121361e-02,3.231923914472954002e-04,-8.983531869268816111e-03,-7.125942994555848828e-03,6.030440330505371094e-01
6.722058241904957931e-01,5.576036933315149380e-01,-6.071955013160545978e-03,-9.218498543065684753e-03,-1.633376238052697271e-02,-2.449669461489801733e-02,6.311243176460266113e-01
6.457401361368058090e-01,6.049444701122457246e-01,1.762727096588090347e-04,3.133531902985388883e-03,6.886740892933636456e-03,1.900006726260764986e-02,6.271646618843078613e-01
6.283036835754114424e-01,6.322374923455634788e-01,3.179006549970908591e-02,-1.085639414856322260e-03,6.190648121403380388e-03,-1.793664881265865556e-03,5.985972881317138672e-01
5.723541351782056585e-01,7.402098455789321019e-01,9.492734163422555937e-03,-1.606998647132551472e-02,2.138964783372225564e-02,9.539339514151179075e-03,6.647467613220214844e-01
5.871564036884021620e-01,6.605504004699178644e-01,7.778460811686599419e-02,-1.844608876101705430e-02,-1.509961454826672274e-02,1.808681797279909978e-03,5.513127446174621582e-01
6.276941336750133660e-01,6.307536729066296477e-01,8.169438419350177893e-02,-2.645465258626969289e-03,1.061293953107142994e-02,-1.375043597597700546e-03,5.478687286376953125e-01
6.127513253748759769e-01,6.619471515913847304e-01,3.304978839174899097e-02,-5.217749300898087694e-02,2.216583355877492501e-02,1.876120685415028425e-02,6.145651936531066895e-01
6.283553060240262278e-01,6.578604772250672417e-01,4.043716865304985975e-02,-6.551013960893004029e-02,3.471377771302523729e-02,-7.692965006234952835e-04,6.167305707931518555e-01
5.609275772698969487e-01,6.595606026087840190e-01,-8.276860364227811573e-03,-8.863879727098011863e-03,4.089559568313731047e-02,9.909738429102376428e-03,6.288180947303771973e-01
6.377887259443171253e-01,6.489233919860249999e-01,5.689380962913914708e-02,1.304789742267567151e-02,6.783209299797371070e-03,-4.490688593087216116e-03,5.871458649635314941e-01
9.317026373240970827e-01,4.233669780636830637e-01,6.072209322096222550e-02,2.102701780640113538e-02,-3.649295367787710326e-02,8.428389966550091372e-02,7.751740217208862305e-01
7.110330348028494063e-01,6.319629569402631653e-01,9.589933181621318470e-02,9.219248306180638508e-02,-2.483944711007260095e-02,1.564459135886963059e-01,6.608919501304626465e-01
6.301855141727525922e-01,6.329139725887402701e-01,9.856946979583541824e-02,1.786641029312081462e-03,1.226887998598050894e-02,-4.284578746632954072e-03,5.334695577621459961e-01
6.445131413860228919e-01,6.050554193778701073e-01,-6.309814508082989271e-03,-6.357386932088810892e-04,2.154131463567511735e-03,1.149734281347493912e-02,6.323441863059997559e-01
8.882171487269860943e-01,7.099060895394568860e-01,9.566480577176933453e-02,6.462380406024985369e-02,-3.179789080686506314e-02,2.723594869767765117e-02,7.323937416076660156e-01
6.939363444217366839e-01,6.830222042338147670e-01,1.275740879897640512e-01,1.436697386623687900e-02,-1.030070909980925625e-02,-3.337457955804081118e-03,5.618495345115661621e-01
7.129597646471144134e-01,3.842592041100349465e-01,4.308862175112299076e-02,1.528155314619540628e-01,-1.042703582119568033e-02,9.298476762037576060e-02,6.579565405845642090e-01
6.319577103631199844e-01,6.167508257732779997e-01,1.644589444843502779e-02,1.847527493330304192e-03,-2.388151469863201114e-03,-1.968611512954507748e-03,6.080830693244934082e-01
5.108931806333446568e-01,5.396524811274862055e-01,-7.402366916359226501e-02,-3.655858665911120298e-01,1.714632942671779139e-02,2.368210859897657353e-02,8.736705183982849121e-01
6.618655515351763441e-01,3.816432117802780466e-01,-1.631684107146702534e-03,-2.082416433021814783e-01,-2.520533994211968457e-02,-6.790636987919726475e-02,6.918525099754333496e-01
5.834295738166006551e-01,5.054568964246863860e-01,-3.247244111950098322e-03,-2.211124069324938157e-01,-6.526169212678294140e-02,-2.460422112023650382e-02,6.824882030487060547e-01
3.838890443414539333e-01,5.753802030789118005e-01,-1.117343285566069211e-02,-2.900634733084264671e-01,-3.711142266251229310e-02,-4.743031448213760881e-02,7.291675806045532227e-01
5.617453675513174316e-01,6.225851890009761469e-01,6.690850398678949151e-03,-6.062098123508897693e-03,-1.255931641137691089e-02,-1.556878087517460721e-02,5.889542102813720703e-01
4.187092592280161063e-01,6.704026364563422380e-01,2.351366431281698421e-03,-1.355608873812039483e-01,-7.435072371896247340e-03,-3.228994889243490957e-02,6.323938369750976562e-01
5.845473392453959249e-01,6.290786630623554920e-01,-1.379473042812051631e-03,-2.991801419979455822e-03,9.765225162904907219e-03,1.418981137856254772e-02,6.101658344268798828e-01
5.815202105024038781e-01,6.058387171123091886e-01,3.735965886100145461e-03,-2.508297324070514478e-02,1.198406554672645091e-02,1.080617154332011269e-02,5.925753116607666016e-01
6.015755455040219246e-01,6.392581290442821418e-01,1.472168822661767962e-03,-2.044144619942207808e-02,-6.194926527395879911e-04,1.365629264325848857e-02,6.212661862373352051e-01
5.530882298417325593e-01,6.228868336841799636e-01,4.690776661215867449e-03,-7.398803246568600410e-03,1.455653864801620574e-02,1.680837043247693577e-02,5.878235101699829102e-01
5.841420736107177936e-01,6.012248824593739993e-01,1.543854715285641888e-02,-4.057217870013859681e-03,6.133668457950587280e-03,1.321854914661521260e-02,5.780285596847534180e-01
5.921412658548732555e-01,6.275417672724707963e-01,-7.337911733840296602e-03,-1.762369897889869185e-03,1.301176114832753141e-03,8.394941447885127805e-03,6.181231141090393066e-01
6.089984579128375763e-01,6.260307822219353113e-01,-1.170822651019853833e-02,-1.019182485023327342e-04,4.790853482405278349e-03,6.225081388097803391e-03,6.295427680015563965e-01
5.882305724938002855e-01,5.828698753833823076e-01,1.000231093398301629e-02,-8.116897838107338392e-03,7.672471346418113097e-03,5.218033729940932744e-03,5.759626030921936035e-01
5.557543529596296050e-01,6.577831204867334858e-01,-1.614315784423170363e-03,-1.646312499594782463e-03,-1.743959519158112988e-04,-3.378941001448391318e-04,6.147730350494384766e-01
6.264757373794692663e-01,6.296294788150615940e-01,4.394244357598942052e-03,-3.766311300557381443e-04,9.084972094020756644e-03,-6.399946602650851855e-04,6.238641738891601562e-01
4.741857028752243797e-01,7.664786154550096153e-01,-1.104690559625315371e-02,6.126114831717610620e-02,3.925163056844829107e-02,-2.230013144898289681e-02,6.928842663764953613e-01
6.005256194481215504e-01,6.103310916854406409e-01,1.205096321597542985e-03,3.225400629587436147e-02,2.794524532077121912e-02,-1.741635620793354974e-02,6.095339059829711914e-01
5.881438443862736509e-01,5.394028276718100257e-01,2.007551906881560599e-02,-5.412502065733960227e-02,1.407905391866517628e-02,9.953333268740895828e-03,5.541385412216186523e-01
6.033109406636316674e-01,5.377652343023388015e-01,2.135014960923242722e-02,-1.568621751803052702e-02,1.500113153895100103e-02,7.039968389984422974e-03,5.535264611244201660e-01
6.218279887388401539e-01,5.311867447125017128e-01,2.232830437943428281e-02,-9.954839625795066857e-03,1.437413069146014320e-02,5.906707915515501707e-03,5.606229901313781738e-01
6.315304450482170928e-01,5.210098230963174926e-01,1.894923648175639297e-02,-1.675330958506049406e-02,1.220273931409591658e-02,4.037105372482365081e-04,5.666188597679138184e-01
6.239325952137942943e-01,6.291438769642341278e-01,6.186833667853952612e-02,-1.818333297761238945e-03,-1.667191727632951230e-03,9.196394216396718349e-03,5.649287104606628418e-01
6.345679302350055728e-01,6.308822761828499770e-01,7.095636769767693641e-02,1.831266036290700276e-03,-4.390620489649010166e-03,7.404755423358584145e-03,5.619845986366271973e-01
6.280502244160137693e-01,6.247976656544839136e-01,6.894943407336051600e-02,-2.810880638932264711e-03,4.133451407285238313e-03,1.123095172447835695e-02,5.578880906105041504e-01
6.259270464693259539e-01,6.295456614906523862e-01,3.834763818241199163e-02,6.294156847688802368e-03,-3.910238893504754468e-03,6.288774073752933895e-03,5.896373987197875977e-01
6.409868924560403469e-01,6.228888289394938216e-01,4.379720023955846475e-02,-9.641383919045487180e-03,-1.757766905126550983e-02,-3.089791143030426457e-02,5.917980670928955078e-01
9.010763575922056123e-01,5.969711644609034806e-01,1.109625920824296452e-01,-1.427381126501992281e-01,-3.408655445458225186e-02,-1.066913505593806016e-01,7.584453225135803223e-01
6.823073141500973771e-01,6.516150329111876083e-01,1.353338062264125563e-01,-8.662710291507986701e-03,2.167404953988886010e-02,9.137185274634022913e-03,5.340590476989746094e-01
6.504994909092394195e-01,5.271224504184186532e-01,6.078268694704680453e-03,6.191010922626217876e-03,-1.413870424418672833e-02,1.171913772961739007e-02,5.933974385261535645e-01
6.609638557933079639e-01,4.716328024895930504e-01,3.987864960166143113e-02,1.633158911363474103e-02,4.062306965972548381e-03,9.132630378137008773e-03,5.523605942726135254e-01
6.424373924086685950e-01,4.400318390379202027e-01,3.380487781539098791e-02,7.043661330815439992e-02,1.260652017688937768e-02,-5.741226093654010210e-03,5.510631203651428223e-01
7.375424946087754119e-01,3.201843988523455087e-01,2.888571572846054814e-02,3.513534123333806290e-03,-3.323694223040748064e-03,-5.038128453115193160e-03,6.170614957809448242e-01
9.606832773497924194e-01,2.945477402341543094e-01,-2.089778949421089438e-02,1.672097800759350661e-01,-2.974988566877824828e-02,5.350689979124439999e-02,9.211369752883911133e-01
4.935958055765499730e-01,6.273458813972849768e-01,2.390195819426621515e-02,-1.432729158958766930e-02,-1.908492423107371536e-02,-1.071633757748773237e-02,5.507957935333251953e-01
2.146911457667695367e-01,8.491686020526845180e-01,-1.188588759170522979e-01,-2.063327179470639816e-01,8.940817180634774708e-03,-2.780518343162425091e-02,9.250546097755432129e-01
2.621277591262710649e-01,7.086350572307064111e-01,-1.100062821641862865e-01,-3.199753872932225018e-01,-3.818214286342516001e-02,-2.885510896974752271e-02,9.044541716575622559e-01
2.928295247246344712e-01,8.781671654896334722e-01,-9.490067668015172986e-02,-2.572198345793708096e-01,2.870127436444303362e-02,1.284734745932639491e-02,9.598752856254577637e-01
4.192521606768082609e-01,6.832946455744612901e-01,1.465392666197828930e-03,-1.846560972429422132e-01,-3.596573439944220768e-02,-6.648825930135605911e-02,6.884866952896118164e-01
6.801829081398702570e-01,7.044263905691957595e-01,1.126771983596745463e-01,2.441240308960767463e-02,1.937350273285784810e-02,-2.618564720657338800e-03,5.825317502021789551e-01
6.140422874928588293e-01,6.210493417239040248e-01,-1.352166928906467502e-02,-5.260615562625125911e-04,1.185038602055427017e-03,1.669803915510282471e-03,6.311072707176208496e-01
6.130886468844116699e-01,6.201930127116898062e-01,-1.051793209527379647e-02,-3.128919126245158829e-03,5.771656721740524992e-03,6.471222626444293573e-03,6.273921728134155273e-01
5.998472604677353992e-01,6.319884123422667699e-01,-1.079290801517807097e-04,-1.827444946434112621e-03,7.430541240062808750e-03,6.023949739950299614e-03,6.168849468231201172e-01
6.045948097753482964e-01,6.324165343542177409e-01,3.354107879011203330e-02,-5.181402261662320600e-04,4.723739709878765382e-03,1.386301752067370776e-03,5.855233669281005859e-01
3.368907000252320261e-01,7.053558787825591203e-01,3.176512943495340968e-02,-5.250469996103226955e-02,1.165096858248297791e-02,4.033273856227670776e-03,5.916271209716796875e-01
6.254370981028630760e-01,6.277879384526638962e-01,3.353246598056786043e-02,-6.760593882208248582e-04,-5.837575640134682687e-05,6.902210393712483391e-03,5.932052135467529297e-01
3.186785008924892804e-01,7.877289223745560509e-01,-2.323424237554716498e-05,5.401294614811522760e-02,-6.204394324670469557e-02,-8.606864310045699712e-04,7.009772062301635742e-01
4.937951875503875376e-01,8.506868503090682099e-01,5.179332074066511638e-02,-2.230558790966693239e-01,1.120525493065560457e-01,-4.633831666661136599e-03,8.169929981231689453e-01
5.090286395389735929e-01,6.583599111591851294e-01,4.503313279017207016e-03,-1.593959415002469890e-02,1.585416973785554878e-02,1.561448236328511797e-02,5.953442454338073730e-01
5.100562174259768433e-01,6.727631144251404738e-01,4.453027477836490888e-04,-3.611621721811708249e-03,2.155598746472145444e-02,8.336829479988584063e-03,6.088806390762329102e-01
4.157972871916721380e-01,6.751494549770045150e-01,3.213480622455039404e-02,-3.762796565266548349e-02,-8.723016041463761781e-04,-4.622505126538650061e-03,5.641614198684692383e-01
6.249222641412324197e-01,6.315827157343942844e-01,7.849158487829355213e-03,2.913223760933185760e-03,7.818945915197775959e-03,1.706322762638739403e-03,6.206054687500000000e-01
6.291620560957111863e-01,6.257036709989619583e-01,3.502091702969728493e-02,-1.671850527512357045e-03,-3.057701087070071764e-04,-1.637706353503367088e-02,5.931055545806884766e-01
6.298944427468369245e-01,6.194760960153460339e-01,-5.814889120309918447e-03,1.324603604007838038e-03,-6.066533463609968162e-04,1.368240618518682837e-03,6.305742263793945312e-01
6.782299477665719722e-01,4.699999868211845455e-01,-1.141364419890295023e-02,1.559846609453704666e-02,1.448578154847586855e-02,-6.936666727757989648e-02,6.254264116287231445e-01
7.481443387781503418e-01,5.239454341971081508e-01,7.499300741668601944e-03,1.315085271961374466e-02,3.223832112944248485e-02,-6.951761406598334914e-02,6.714932918548583984e-01
6.334909175698921757e-01,6.268068375322359831e-01,3.921659644391695121e-02,-1.039743563029004369e-03,3.148568543601986368e-03,-9.185265762727927441e-03,5.912026166915893555e-01
6.037500778967714865e-01,6.011000171703523298e-01,-1.102103568891049656e-02,1.320725250106074937e-02,1.258674632604032603e-02,-1.143243087796286944e-02,6.145828366279602051e-01
6.283606642857237912e-01,6.224469330077446738e-01,1.727546515626898760e-02,-1.511264134672099437e-03,6.907847693712821291e-04,4.626812730734767946e-03,6.082094907760620117e-01
6.498491857927000126e-01,6.150407885516936402e-01,7.566435367145629698e-08,3.240719975072832567e-04,5.346051445838046270e-03,2.186918256355362220e-03,6.332421898841857910e-01
6.085463460561556515e-01,6.051938905813316616e-01,-8.605409599833302448e-03,1.723352758051021087e-03,-1.131941957014073264e-03,-1.830789005625873503e-04,6.154928207397460938e-01
6.191846928716365772e-01,6.163007320144062717e-01,-1.555536348440933470e-02,2.695378268276337895e-04,-2.447189320020842079e-03,-1.067487671487256200e-03,6.333200335502624512e-01
6.262093873045692094e-01,6.153981975709001961e-01,-1.261495083058256084e-02,1.554342543819546693e-03,-5.098421993531958643e-03,-2.845517490913445843e-03,6.335743665695190430e-01
6.210810165623817936e-01,6.199198379818169347e-01,-1.492064238307377888e-02,3.290580377684980927e-03,-2.874558670871138737e-03,-1.839667111056665074e-03,6.354749202728271484e-01
6.114886706355602275e-01,5.981478943744643617e-01,-3.920265061453376276e-03,-1.178238022791052537e-03,-7.797606523152918884e-03,-3.439890131580282395e-03,6.090305447578430176e-01
6.178015464239451360e-01,6.075410501998538271e-01,-9.059060021347320468e-03,6.890840596583682701e-04,-8.119656051978726280e-03,-7.638976297323005205e-04,6.219554543495178223e-01
6.118289053398449084e-01,6.160170328144707330e-01,-1.184100494912493362e-02,2.962469259031086692e-05,-1.929297539722903913e-03,-2.655613034623682204e-03,6.258003115653991699e-01
6.021976820859850088e-01,6.087965815820957083e-01,-9.534402774602324104e-03,-1.247048023546397854e-03,-5.297073887245650446e-03,-1.146937452391350726e-03,6.151335239410400391e-01
6.085347951728486970e-01,6.169618791555482318e-01,-1.134458010144229201e-02,-3.638871042580817030e-03,-4.324012310660339808e-03,-5.501024689578158655e-03,6.242850422859191895e-01
6.369963446992894518e-01,4.812394999178321031e-01,3.458006763860838051e-02,3.337323024992790155e-02,5.203697145307868352e-03,-2.928435266955913712e-04,5.447549223899841309e-01
4.867993928748371446e-01,6.920387168087958063e-01,1.609698968065204072e-02,-2.915610393032972824e-03,-1.059951901617576554e-03,-3.541980147363645286e-03,6.002975106239318848e-01
6.758755613108380356e-01,4.175288592582953040e-01,3.395532787747645997e-02,3.663506225486151680e-02,1.255867859136950739e-03,-7.833425331922702628e-03,5.631889700889587402e-01
6.610303495856200140e-01,4.716301539990411795e-01,3.354985883426575555e-02,1.647123268933517112e-02,-6.767300389230208359e-03,-1.900734952320629100e-03,5.583201646804809570e-01
6.360847012130743661e-01,4.741899929211503828e-01,3.041059996358658202e-02,3.388664357785470954e-02,-1.300512723152766337e-02,4.459900222053439153e-03,5.468158721923828125e-01
6.043652437980082670e-01,4.260471156607380516e-01,2.425340130069975064e-02,1.593305566918507832e-01,-5.562150123086064858e-03,1.254345255927177306e-02,5.844708085060119629e-01
6.342755706294229689e-01,4.805503015416959789e-01,3.244040581457147132e-02,2.795594998594594371e-02,-5.946323644756798185e-03,3.184089862910667807e-04,5.438480973243713379e-01
6.101042083074512679e-01,5.358546335818163975e-01,3.532568982135925184e-02,3.571845564254676891e-02,-3.398891447330401258e-03,5.420401481707039313e-04,5.450406074523925781e-01
4.684456781766624944e-01,6.517388433661545077e-01,-1.378875493667386376e-03,2.294028739839043818e-01,-6.470072109120263149e-02,6.978898434743334434e-02,7.249097824096679688e-01
4.298348465807534380e-01,7.163997598388303079e-01,5.835044351325074929e-02,5.100016994262141640e-02,-1.176675706400218957e-01,1.869942879836146302e-03,6.131272315979003906e-01
4.011020163883158851e-01,6.939168782661953028e-01,1.614583939501806897e-02,1.545058464391817488e-01,-1.221424358243351216e-01,1.900015292728059885e-02,6.812548637390136719e-01
4.314048261312002364e-01,7.237406266202940364e-01,2.034623761080445181e-02,3.308879998944840028e-02,-2.754155944411032855e-02,-7.014012818259754249e-03,6.166881918907165527e-01
4.693445417930027785e-01,6.959260182456863397e-01,-3.436044628910339682e-03,1.269390988325691701e-03,-5.571581643383131249e-02,-1.354048705953487045e-02,6.259804964065551758e-01
5.422147806844501705e-01,6.588116138851336512e-01,4.492603054751909131e-03,-2.613868266931095811e-03,-2.575711723441248546e-02,-4.743982026180129999e-03,6.062301397323608398e-01
5.101144061667332030e-01,6.697770112418456323e-01,-2.093369528593513884e-03,1.038025506396980050e-03,-2.606194385577072226e-02,6.719764599079332615e-03,6.097587943077087402e-01
6.328450708152877358e-01,6.726614228784348892e-01,6.605497746381183699e-02,2.250617827244085628e-02,-4.512894428020117893e-02,4.026864437949148612e-02,5.982457995414733887e-01
3.967526983380604833e-01,7.088228023304524728e-01,3.667171655984735601e-02,-1.603611518666012495e-02,8.043273113032149485e-04,2.104739358586593689e-04,5.832582116127014160e-01
4.007900411616763803e-01,7.551539928666158863e-01,2.158394316123762868e-02,-7.089709617721541568e-02,-3.553008836469252057e-02,-6.491633358365274213e-03,6.501852273941040039e-01
3.599297349335003893e-01,8.010087123640594609e-01,2.738501935256620889e-02,2.815193043835238079e-03,-2.706482213893731878e-02,1.656972677143228601e-02,6.744331717491149902e-01
4.252315228455822993e-01,6.733711538473886593e-01,1.809173045301221139e-02,-4.706490965919767067e-02,-2.865340688624054208e-02,-1.539969815144801892e-02,5.815353989601135254e-01
3.592368664384722465e-01,8.195127801512900323e-01,-8.543409079836972175e-04,-1.931166544313470818e-02,4.181519002796312001e-02,-3.690249276261621265e-03,7.167050242424011230e-01
4.737705224552503092e-01,6.438495798309762375e-01,3.189544726837401090e-02,9.155011690674619285e-02,-1.986318793742155447e-02,1.083110791759510534e-02,5.709763765335083008e-01
3.993761332426289390e-01,7.276894681689207722e-01,3.789991345103360665e-02,5.236387778769443797e-04,3.459781685111894614e-03,4.652251118235958827e-03,5.976904034614562988e-01
6.114390464154992877e-01,6.024122317208588928e-01,2.741704319693688552e-02,5.511012908046108300e-02,3.299832823082308325e-02,-3.961780292487542682e-02,5.941196084022521973e-01
4.529320234059880934e-01,6.812624482873947951e-01,5.708308425806701836e-02,-1.327395115889158372e-01,6.306840682862578651e-02,7.014114682137656542e-02,6.154405474662780762e-01
6.717382829485131213e-01,6.856631988467754013e-01,8.253800660031213043e-02,5.019380865646670166e-03,2.793281288025578971e-02,-1.290164519395879152e-02,5.987245440483093262e-01
6.274488589602720268e-01,6.286476812239929490e-01,5.463998374703504801e-02,1.649268838500625878e-03,6.955529256632639844e-03,1.273670485800232517e-02,5.739669799804687500e-01
6.300853896773996876e-01,6.284612119890944371e-01,5.571698006689196347e-02,-1.391519858039379698e-03,8.941070290697402528e-03,-1.136271294987089989e-03,5.737755298614501953e-01
4.696367382744152663e-01,6.553114035474869592e-01,5.851190800114869361e-03,-7.417724670435027479e-02,-4.800030382495636821e-02,-1.916744011758010624e-02,6.001719832420349121e-01
6.248424645021884993e-01,6.275287825689590537e-01,4.324929837676794175e-02,1.205473976901136465e-03,4.697086670822465775e-03,2.240008792891073474e-03,5.830143690109252930e-01
6.313592031415669048e-01,6.281789162428047524e-01,7.690007874260817999e-02,-4.021203501742579012e-03,-1.283019868613916904e-02,-5.891097580522906309e-03,5.534601807594299316e-01
6.324758789512390234e-01,4.477961949490801841e-01,3.242853008529839043e-02,-6.496702535472018147e-02,1.653681597790450982e-03,3.214804669038189358e-03,5.441031455993652344e-01
6.819319362670317464e-01,3.927995486635461608e-01,2.635256227995047551e-02,-7.855846715879014064e-02,9.022916009913525479e-03,1.384848045742089265e-02,5.858041644096374512e-01
6.609991416364120465e-01,4.310153421261114781e-01,3.609942942784533093e-02,-1.054085358235756636e-01,-8.777429731847878960e-04,5.038276380591510950e-03,5.771366357803344727e-01
5.648477711822800229e-01,5.511127084973499457e-01,1.149593190814063304e-02,-2.248398413879834079e-01,-2.757872175412620641e-02,-3.842287280539771060e-02,6.761332154273986816e-01
5.625358901982402404e-01,5.651288270241808798e-01,4.457232160645085983e-03,-9.969193450530457190e-02,5.485801829990114703e-02,3.718949197755198194e-02,5.965722203254699707e-01
6.839838596614815636e-01,4.959487474785743144e-01,1.480263505571266514e-02,-2.220455775641778651e-01,1.339742652652002597e-02,2.252401612260424013e-02,7.122529745101928711e-01
6.309489496197182579e-01,5.059798764792585724e-01,2.844044179954768881e-02,-6.667857501192032965e-02,-1.715863868774733861e-02,-1.097275974403031859e-02,5.638452172279357910e-01
6.768286656682636071e-01,4.075921959743829537e-01,-4.234260366698938682e-02,-2.970965456102078184e-01,-3.015028434655420836e-02,-5.571150991403153729e-02,8.203084468841552734e-01
6.974136628127002302e-01,3.040622699371082205e-01,1.030929089610610472e-03,-2.124074119110085368e-01,1.437287360808893466e-02,-1.017834132366824546e-02,7.085424065589904785e-01
7.039683142537325189e-01,2.947682642005817755e-01,-1.010088516009444159e-02,-2.767049494360420692e-01,1.176005187585395760e-02,-2.697586377447290951e-03,7.843952775001525879e-01
6.555883319780428931e-01,5.924745723668142228e-01,-7.852692086004253724e-03,-2.973163185620737552e-03,6.066002664018114174e-05,-8.597642849693862971e-03,6.344394087791442871e-01
6.477430187470623046e-01,5.729739164749587665e-01,-9.853503860433709960e-03,3.037039009023271771e-03,3.832637679408773881e-03,-1.376163237827864386e-02,6.240957975387573242e-01
6.315773581832859751e-01,6.049762515543858354e-01,-7.461970189207800530e-03,3.710800998050894743e-03,5.721091065473498348e-03,-1.216358706934375124e-02,6.266283392906188965e-01
6.474384121073240017e-01,4.695851033928782892e-01,2.394344956861410578e-02,1.875087433447348295e-01,1.807663664493110861e-02,-1.389898004276872955e-02,6.453878879547119141e-01
4.175408701847594384e-01,7.062095903670381203e-01,-6.830319491198000303e-03,-1.921289201214029241e-01,-5.120419585078185565e-02,-2.186171246305440574e-02,7.113109230995178223e-01
6.309543341908031566e-01,5.993691960785659800e-01,1.994231459067297152e-03,-4.888393045180005128e-03,-2.954168555014641522e-03,-5.205999084276348270e-03,6.139233112335205078e-01
6.397826262078115667e-01,5.956118092899842509e-01,-7.802865424941407557e-03,1.314692337288626400e-03,4.523551716728101135e-03,1.447757759318118835e-03,6.267268061637878418e-01
6.383905126841911137e-01,6.173401606315904733e-01,-8.808454251625463804e-03,2.167221168486044552e-03,2.665981446170671257e-04,-5.810054693676946873e-03,6.370254755020141602e-01
6.533228173254975735e-01,5.715772236737678424e-01,-9.891114840670733876e-03,-5.274821044431042029e-03,-1.137444038248587933e-03,-1.551617176255885681e-02,6.270006895065307617e-01
6.409609338930585265e-01,5.974439005943109615e-01,-8.789201807842761394e-03,-2.403548736261574420e-04,-3.922598123789303691e-03,9.220271762803503024e-04,6.291602849960327148e-01
6.328616434266676194e-01,6.228216213173073390e-01,1.722695321081102460e-02,-3.381020307655356692e-03,9.046663722961139015e-04,4.827180255777216607e-03,6.107639074325561523e-01
5.963265964026578381e-01,6.042732765008792528e-01,4.316363141674384174e-03,-1.774100145691035000e-03,-1.133754035280083597e-03,6.575181502105005397e-03,5.961432456970214844e-01
5.893598485823403621e-01,5.994679972382440658e-01,6.867821348098046563e-03,1.334020772479061444e-02,-9.776915259293902927e-03,1.077700165482145880e-02,5.886052250862121582e-01
5.968651974980858643e-01,5.918266768613141826e-01,2.965135218364334246e-03,-2.614577394043336896e-03,-1.142137625442355559e-03,6.268304962491255466e-04,5.914185643196105957e-01
6.131436300676738060e-01,6.130551558915104948e-01,-1.105552601779147270e-02,6.804660274947775186e-04,-2.489354515366793991e-03,3.002374911979339631e-03,6.241925954818725586e-01
5.900654314190424410e-01,5.892187494145780802e-01,1.212190205689483991e-02,7.514024713220090633e-04,-5.568359924580142638e-03,2.809478779258090583e-03,5.776231288909912109e-01
5.964020794776305756e-01,6.135114662443749145e-01,-4.059136207204716573e-03,1.434655337625888316e-02,-1.699637569483429186e-02,1.799175215289692750e-02,6.112079024314880371e-01
5.667987692901541585e-01,6.055568902236494466e-01,4.378051284690043232e-03,1.863792045589778013e-02,-1.302640988317565335e-02,1.558190844982043459e-02,5.847197771072387695e-01
6.134575123218655168e-01,5.810440423548099975e-01,3.125719941030502547e-03,-3.685525594849057857e-03,-1.276687291771005060e-02,1.092053093677200059e-03,5.952360033988952637e-01
4.203473790979137537e-01,7.154101752304793393e-01,2.447566240397774928e-02,1.304545616882663191e-02,-3.036539258295034224e-02,-8.345099565789355174e-04,6.032099723815917969e-01
3.949362699209205130e-01,7.166854173579984000e-01,3.706151341368590924e-02,1.585393210594153446e-02,8.166297926778117670e-04,-6.858880551716886728e-04,5.894914865493774414e-01
5.061171902901977493e-01,6.432365548720986315e-01,2.034703618859678986e-02,7.571136909205288326e-03,-8.763899480105883126e-04,1.687980978342549718e-02,5.678132772445678711e-01
4.375951634757836439e-01,6.792727776304408049e-01,3.576763795459497741e-02,2.205135097872572975e-02,-3.352289423356679624e-04,5.904657630694051459e-03,5.644022226333618164e-01
3.205047584066114119e-01,6.945194260194856861e-01,2.733852883879517304e-02,9.930719396663433007e-02,6.559043387517032864e-03,-4.114554091801650784e-03,6.043570637702941895e-01
5.174524752188048859e-01,6.512044382099765327e-01,-3.720419982384981505e-03,1.159812434919680994e-02,-2.579523974632813924e-02,1.244802948923056339e-02,6.017335653305053711e-01
3.953383335809562693e-01,6.984191704094053765e-01,3.822603047159023326e-02,1.056822619034917740e-02,-1.501771027213450425e-02,3.825563666650751669e-03,5.733032822608947754e-01
4.586769211439917782e-01,6.650702685702574168e-01,3.731602672003608845e-02,1.268824181874391929e-02,-1.251461992441421731e-03,3.339295610242165330e-03,5.546444058418273926e-01
4.751627180821749175e-01,6.405444876292883949e-01,3.678311012952556469e-02,3.313213480584663306e-02,-1.181900449284555357e-03,1.488179880575358788e-03,5.434444546699523926e-01
1.414632395562116229e-01,8.257445665761723452e-01,-2.310652130155538275e-02,4.270175471256400235e-02,-2.575792437264499621e-02,-1.343725019168638506e-02,7.848175168037414551e-01
6.298640534558694881e-01,6.200222722247767937e-01,-5.933272895104924061e-03,4.520251638488132027e-04,8.187306288708660158e-04,-1.520791217850152050e-03,6.309415698051452637e-01
6.600900438731651665e-01,5.573283279926323219e-01,-3.820268608188737147e-03,9.403971302640436267e-04,-1.287141076637656400e-03,-3.133737096494557291e-03,6.189906001091003418e-01
6.668218226665405535e-01,5.157959038798032303e-01,-4.091065350688594116e-03,-6.542900043460401008e-03,1.322432627580574956e-02,2.263952933850791813e-02,6.113905906677246094e-01
6.376318699295252523e-01,6.041381789328594820e-01,-3.837560060411804308e-03,-3.219294867269100868e-03,4.163487945262092128e-03,7.932934843384732704e-03,6.256129741668701172e-01
6.903234138158937938e-01,4.679660931918012134e-01,1.484097968646957977e-02,-1.379365580144717093e-02,8.239503643623287714e-04,4.841731782434230739e-04,5.967364311218261719e-01
6.877082095819336827e-01,5.449514394083263547e-01,-1.709269915238953441e-03,4.261535623810149367e-04,-5.624051417868295225e-03,3.156338236650335638e-02,6.327251791954040527e-01
5.714287466989840247e-01,6.484251094114520386e-01,-8.120550291587258496e-03,2.829369720156012062e-03,1.906714258435504572e-02,2.861315935385962822e-03,6.225498318672180176e-01
6.172541349496701857e-01,6.284128566755912138e-01,-8.371877978084418803e-03,1.415009588659559524e-03,-5.037461644417400757e-04,2.539851742037031734e-03,6.313000321388244629e-01
6.174145387848715139e-01,6.238210879017541677e-01,-1.236488359848803009e-02,1.214053948645682068e-03,4.382286460160975832e-04,2.420122269356747655e-03,6.330248117446899414e-01
6.201520525824398833e-01,6.222885304884779867e-01,-7.617589927150114626e-03,2.138231165976822116e-03,4.203607009919220656e-03,5.465925743871182484e-03,6.289649009704589844e-01
6.308592369290353385e-01,6.167454218796065701e-01,-1.218651684083521536e-02,6.601770550265325570e-04,-1.857037802355015295e-03,2.521511636855407537e-04,6.361156105995178223e-01
6.389511685135770280e-01,5.771724416955944514e-01,-7.115093519415582879e-03,-5.314373466064799441e-03,-1.122132993085555967e-02,-9.742411346295554164e-03,6.181038022041320801e-01
6.356764081406919287e-01,6.019501356262259018e-01,-9.677456569995468438e-03,3.627583822117569530e-04,-3.923059261514246464e-03,7.407495896037461077e-04,6.292073726654052734e-01
6.599573222031044351e-01,5.670343892329353652e-01,2.232824907417901850e-02,-7.145970939166172698e-05,-9.101721882232799085e-03,-2.699740630767592103e-02,5.986570715904235840e-01
6.272522620009219896e-01,6.156122871354270387e-01,-1.141770193754931828e-02,8.163650651614899948e-05,-2.144809245393902372e-03,-1.014049170856729963e-03,6.329436302185058594e-01
6.282824488487127601e-01,6.190537529813067152e-01,-1.149908458395909605e-02,8.240152664371447984e-04,-2.476662266588273726e-03,-1.046771960384477833e-03,6.352361440658569336e-01
6.243333488028863787e-01,5.879774198512682792e-01,-6.506389433039938552e-03,-3.210700774301646163e-03,-1.128901748414291514e-02,-7.657680298700185288e-03,6.139502525329589844e-01
6.240652041214156398e-01,6.096434910103412097e-01,-1.267469189916259342e-02,-1.668874180034280114e-03,-4.982165460379172489e-03,-2.984364592702492755e-03,6.297398805618286133e-01
6.273561040163941893e-01,6.207500251735478258e-01,-5.423730606791909992e-03,1.842647173896241365e-03,-4.273229593666264502e-03,-7.369336558248879183e-03,6.296837925910949707e-01
3.546775475774167630e-01,9.631567786754391403e-01,5.111509551514853422e-02,-9.024522837247617169e-02,-8.856609344076039891e-02,-2.149367951833001250e-02,8.345412015914916992e-01
6.368096885096861115e-01,6.024145761339070315e-01,-9.562134192749094375e-03,7.076619336620199735e-03,-4.359808628445741366e-03,1.426276358797074970e-02,6.305276155471801758e-01
7.205052267113005726e-01,5.584728207443483416e-01,-4.045901133135465511e-03,3.859623026242529897e-02,-3.873443494833969658e-03,5.572618656578974539e-02,6.690727472305297852e-01
6.499550636322521946e-01,5.660862819006032831e-01,-9.829846753553972416e-03,1.816011729854072332e-03,-4.360636095458329808e-03,1.419613536711805679e-02,6.226446032524108887e-01
6.386945653389217714e-01,5.693465528785096597e-01,-1.058975038596154938e-02,4.973839811605396469e-03,-5.270627176602985658e-03,1.516966050179801261e-02,6.182237267494201660e-01
7.650727996198054548e-01,5.502783701924767179e-01,-1.800714423384675023e-02,-1.772297125614807900e-02,2.495212006429482505e-03,7.325444618445946243e-02,7.128880023956298828e-01
7.172716315793730146e-01,4.181981785900888426e-01,1.364107392492980297e-02,2.014038163374098564e-02,4.476929805714883852e-03,1.128368008806377928e-02,6.129948496818542480e-01
6.128371204294784658e-01,6.095181058482368464e-01,-7.196197630324474570e-03,-1.988872424080316472e-03,7.104787779065595721e-05,1.216630120150656363e-03,6.183936595916748047e-01
6.020151153546691170e-01,6.058828612050327633e-01,-3.481465015387985584e-03,-1.517680599675833497e-03,2.104203866737294152e-03,3.576184628746687574e-03,6.074879169464111328e-01
6.126230559056863312e-01,6.125823659088422968e-01,-1.157682678637417251e-02,-1.708552522844505764e-04,1.722919684887611741e-03,5.327502734958646478e-04,6.241874098777770996e-01
6.167346013549910300e-01,6.161593919426578969e-01,-1.515636333996484009e-02,1.587645869145074050e-04,5.373411187392471578e-04,1.071096039381373927e-03,6.316070556640625000e-01
6.235189173499057214e-01,5.563472715315780359e-01,5.268006108109957175e-03,-6.009914955386231813e-03,1.618678345337880992e-02,1.332954001048741732e-02,5.887653827667236328e-01
6.006652055955991054e-01,6.091711126084903283e-01,-5.938842028990753974e-05,-1.943663322635471929e-03,3.806459302865960927e-03,8.214839219128697648e-03,6.052349805831909180e-01
6.121428159981132655e-01,6.163407952678248147e-01,-1.111880222558875309e-02,-1.339769528855960529e-03,2.959275470205161192e-03,5.152188930671815909e-03,6.254601478576660156e-01
6.298877494926262699e-01,6.164178517249794265e-01,-8.976681836998789965e-03,1.598536705432518400e-03,2.627593464580716461e-03,7.638650907921462271e-04,6.322609186172485352e-01
4.583188901773034285e-01,6.566545569033357399e-01,9.137076354565842884e-03,-1.319140421406885533e-01,3.367080696279912966e-02,1.820893161190844517e-02,6.219243407249450684e-01
5.180220749509002465e-01,6.591439794381719341e-01,3.375783650335695274e-03,1.441209611225148859e-02,2.446057259500079503e-02,-1.326498325889461163e-02,6.002916097640991211e-01
5.403437231590419998e-01,6.842709263393822461e-01,4.812380502916546732e-05,7.158581022166181883e-03,2.324217634695417700e-02,-1.466352685552294380e-03,6.262415051460266113e-01
5.144916887009606254e-01,6.738521671842681027e-01,6.247633245382078204e-03,1.260627442867492953e-02,1.647547640118853657e-02,-9.334318408141813184e-03,6.051894426345825195e-01
3.389888597785983837e-01,7.811566638522104977e-01,3.663360972749080124e-02,-8.214141731161471449e-02,8.979187532250354487e-03,8.310705415380838929e-03,6.643143296241760254e-01
6.262534071323447860e-01,6.211033082272265915e-01,-5.789948580904702435e-03,-7.020141693755672192e-04,-5.180482687423150880e-04,-6.351119080096523720e-03,6.295820474624633789e-01
6.283479999140998418e-01,6.065364839486020454e-01,-8.396097223622334127e-03,2.633881247514334792e-03,6.885931230889759218e-03,-5.346582684450953277e-03,6.263220310211181641e-01
5.851392545246381083e-01,5.693468624868835981e-01,2.732337165173226445e-02,-9.096748021495461647e-03,6.918779227154664771e-03,3.935303200334389073e-03,5.504879951477050781e-01
5.928252932274589160e-01,5.603682255453981131e-01,2.680833142277400105e-02,-5.061166697674975706e-03,7.260241555214058500e-03,2.184557084388178035e-03,5.507329106330871582e-01
5.996388548125519691e-01,5.459171579788624218e-01,1.918902946848388691e-02,-3.194365681241942423e-02,9.725023342908714619e-03,1.715531922471755786e-04,5.585429668426513672e-01
6.312580226604513900e-01,4.744761405376621277e-01,3.415285148212593436e-02,-3.458377131394422405e-02,5.077224098050176458e-03,8.345111382065820496e-04,5.395992994308471680e-01
5.784560031724650386e-01,5.745893379203214080e-01,1.065390199126325932e-02,-2.375436706681910426e-02,1.938295723209683408e-02,2.419087240958238752e-02,5.699071884155273438e-01
6.366502199045339649e-01,4.766368724071031737e-01,3.779315119473408702e-02,-3.026598703615124633e-02,-1.315413569950777632e-03,-1.862244594864561351e-03,5.396041274070739746e-01
5.050925654964392164e-01,6.452314205645934830e-01,1.087639042391319588e-02,-1.518352877115258515e-01,-5.526683990862187729e-02,-2.795318196349508288e-02,6.432858705520629883e-01
6.277365417576410422e-01,4.966296057153508081e-01,2.530107003616299810e-02,-3.788999170606806299e-02,9.573342335489515601e-04,2.514001993814676816e-02,5.543823838233947754e-01
6.266929569880542727e-01,5.503132850762584294e-01,5.669336870352481572e-03,-1.272139366856550775e-02,1.992909107114826731e-02,1.578882060145736510e-02,5.886386632919311523e-01
6.237273155548215264e-01,6.171571342426825924e-01,-1.417645946449708205e-02,-9.324947751179859298e-04,-2.604599467376705890e-03,8.387148325009348947e-04,6.346639394760131836e-01
6.236804583577182370e-01,6.181589915451951578e-01,-1.406548228655774002e-02,-4.094886944903626319e-04,-2.604087931664818799e-03,9.677801473463020507e-04,6.350218653678894043e-01
6.263860427548876286e-01,6.153647231106811333e-01,-1.318339182606220739e-02,-1.954207588901761897e-03,-2.393801001535543049e-03,-2.040243249071307106e-04,6.341533064842224121e-01
4.149969315547364923e-01,6.708778119426219710e-01,3.609093980378674793e-02,3.664264664803966454e-02,-8.555976021797253965e-04,4.379277281189760708e-03,5.568549036979675293e-01
6.347043222159756137e-01,5.830537736894935152e-01,-9.975109720041397399e-03,5.563634164261238753e-03,-1.052653045754042317e-02,1.380011177293448237e-02,6.212711930274963379e-01
6.246128756113982217e-01,6.185096048147952219e-01,-4.315887989050137818e-03,-1.344651392944622029e-03,-4.631943752639702643e-03,1.185204118111647447e-03,6.259585618972778320e-01
6.316311953541706714e-01,6.265076781419380847e-01,5.519688919347065514e-04,-6.925978487920847774e-04,-6.371852318297006922e-04,4.467124897567459861e-03,6.285828351974487305e-01
5.791292884392598150e-01,6.337711132492680477e-01,-7.138383517520274779e-03,5.156297828743768713e-03,-8.686334771491938458e-03,1.359281021432011925e-02,6.161093115806579590e-01
6.038701162156628888e-01,6.340705147094646277e-01,-8.909100763509369969e-03,-2.517938247467445788e-03,-1.014477553357912704e-02,-4.320815377406498833e-03,6.287291646003723145e-01
6.246997879273029630e-01,6.273567468714630335e-01,1.792316844218816430e-02,1.549347453084666320e-03,5.224740090149980649e-03,4.947291373545412846e-03,6.082430481910705566e-01
6.078871643367674826e-01,6.226292577278813578e-01,-7.916212099421837678e-03,-4.552170205124252134e-03,-8.786767410451791493e-03,-1.004720746547469422e-02,6.237835884094238281e-01
6.336512984198954257e-01,5.976215552670487430e-01,1.406529580411053360e-02,-9.594721564556599191e-02,-1.896226496799471167e-02,-5.859098726175709926e-02,6.339215040206909180e-01
6.327532221868201745e-01,6.258925656571455720e-01,3.856258901645592818e-03,7.753666852714616135e-03,1.225446191593956673e-04,-3.398302570475271803e-03,6.256667375564575195e-01
6.266882640614718225e-01,6.310941237727294428e-01,5.916464806232368812e-02,-9.651094932369684316e-04,3.915911632773344357e-03,8.334682358355556542e-03,5.699650049209594727e-01
3.868513710317524890e-01,7.109431700609719629e-01,5.426939145405829112e-02,-1.166448687458929295e-01,-9.150304767940126149e-02,-5.397466602867032059e-02,6.309593319892883301e-01
5.596796034344535542e-01,6.815105477249250310e-01,9.078603020324371720e-04,-1.923691896890869849e-02,-2.591408150152019543e-02,-6.404646999602338353e-03,6.311831474304199219e-01
6.194921522919346613e-01,6.447354642108218403e-01,6.267230988459493446e-03,2.335309022553736479e-03,-8.492459183680325235e-03,2.664946770575239536e-03,6.264310479164123535e-01
6.116980550576441855e-01,6.310387222520528194e-01,2.036148984150681907e-02,-1.044644674673825442e-03,-4.480464748747662804e-03,-5.839986658298225095e-03,6.013781428337097168e-01
5.642153970957873854e-01,6.498960396613532309e-01,-3.409508127209359696e-03,-1.411377151345512108e-02,-2.653156533101633935e-02,-1.434755670993851338e-02,6.176573634147644043e-01
6.285708295255796330e-01,6.446012813121121399e-01,1.529075164928778152e-02,-4.428789390559842421e-04,-1.087598646555089539e-02,-4.123968450209170716e-03,6.217773556709289551e-01
5.975415473571265013e-01,6.365069969673264882e-01,7.813400118418617479e-02,-1.006372077342111288e-01,-2.938173590886879530e-02,-3.645133660126829295e-02,5.731500387191772461e-01
6.135143184733771182e-01,6.019733492330572311e-01,-5.117450619876728890e-03,-1.542593628180699008e-05,8.216221738744082514e-03,2.545877485500268236e-03,6.131238341331481934e-01
6.171696170946328053e-01,6.247539584045991301e-01,-1.067472973891875343e-02,-6.142927710285926496e-05,-1.212214523803488734e-03,-1.226469226882817001e-04,6.316742300987243652e-01
6.193754421073861538e-01,6.201894447755833539e-01,-9.742966028501776066e-03,6.131743097383195954e-04,7.990626873980073014e-03,9.388231336181128428e-03,6.298887729644775391e-01
6.091410268681407558e-01,6.234992470484540528e-01,-1.200436793360210030e-02,-1.194048316712424587e-03,5.080108340531336482e-03,6.609429914030452019e-03,6.286167502403259277e-01
6.089135043227192901e-01,6.266161256228017784e-01,-1.180180230844313227e-02,-3.834051823893880849e-03,8.250390625542645268e-03,6.002632105621045697e-03,6.300361752510070801e-01
6.219353359237208556e-01,6.238149830561359188e-01,-4.236697235500130887e-03,3.352758216684480208e-04,3.892037360303496341e-03,-3.022944624904553733e-04,6.271507143974304199e-01
6.248044398713196168e-01,6.272129333467458823e-01,2.349850539572928554e-03,3.604053790062568610e-03,-1.853485386042936969e-03,-6.205069523036647969e-04,6.237027645111083984e-01
6.254177136377717661e-01,6.191118520838552186e-01,-1.153675475622228941e-03,2.458823062731969097e-03,5.254476117602444388e-03,1.999448832064795994e-04,6.235234141349792480e-01
6.050115744654476213e-01,5.958795418935876054e-01,4.739925472795114558e-03,3.293512404477007835e-04,-6.817187124771103765e-03,-1.496531634180597089e-03,5.958810448646545410e-01
5.295257276735582108e-01,6.867211253236714663e-01,-2.210188139405139252e-02,9.363358948969681406e-02,-4.021309890161198913e-02,3.520469182421773202e-02,6.712584495544433594e-01
6.304951270212357795e-01,6.097795925161820785e-01,-3.654604037631792313e-03,-4.912091096299352547e-03,-8.259255141264288530e-03,-1.790640787870027145e-02,6.250417828559875488e-01
5.823543145124590037e-01,6.131143668405106828e-01,6.959027791873628743e-03,-1.223976905972903352e-02,-1.273579153370243966e-02,-1.590726378192816245e-02,5.928071141242980957e-01
6.172684490816732206e-01,6.107144709159976204e-01,-1.285646996642275663e-02,-1.829094723453550181e-03,-5.256897693707608676e-03,-2.311174370472259248e-03,6.269605159759521484e-01
5.995923098930209250e-01,6.020375407598250739e-01,-3.271964220156131642e-03,-2.835257628672264302e-03,-3.131158950708246708e-03,-5.915730460153851775e-03,6.042217612266540527e-01
5.915276597392256086e-01,5.964684586143954581e-01,3.771722665788124207e-03,1.959931719139727194e-03,-5.997249953629970416e-04,-1.457828709228297173e-03,5.902579426765441895e-01
6.029288659893918823e-01,6.341712421340225392e-01,3.812780301178875231e-03,-1.957772488274140722e-03,-8.691829952579204627e-03,-6.057183355464099833e-03,6.156153082847595215e-01
6.544413861302250668e-01,6.109062281580462939e-01,-2.079358564903360795e-02,-3.935997224873626771e-02,-2.429430001253317720e-02,-4.912664893532539372e-03,6.594935655593872070e-01
6.112717132395442121e-01,6.300572234368344571e-01,-1.271229631409731553e-02,-1.508862430097309250e-03,-4.500407237062287874e-03,-5.571483182872400720e-03,6.337124705314636230e-01
6.030542569527501673e-01,6.373612149595120346e-01,-7.718261505451129434e-03,1.947005939897112096e-03,6.166086671016379056e-03,-9.419803498532648353e-03,6.289399266242980957e-01
4.608514519126416520e-01,6.823097469674812565e-01,-9.456721093320519245e-04,-2.402919292823109745e-02,5.458714100596659402e-02,1.428720643656025257e-03,6.125738620758056641e-01
6.377811467255780631e-01,7.136067812404147670e-01,2.814774971951505833e-02,-1.120973342180708356e-02,3.449094044085688343e-02,9.619432263058417740e-03,6.541037559509277344e-01
4.879233769162127921e-01,8.471838309457637717e-01,6.403446397645934374e-02,7.021272534555847433e-02,1.419169428514383269e-01,5.666016933390988913e-02,7.388357520103454590e-01
6.166569190761397312e-01,6.166372159115436347e-01,-1.425926602672034083e-02,-4.115923445502327042e-04,-2.358426019082061290e-03,-3.733817864665870540e-03,6.309531331062316895e-01
6.106416474826105167e-01,6.198353286408008200e-01,-1.372556081837544850e-02,-5.219744781730355915e-04,-2.684819922131767827e-03,-5.563956119639142453e-03,6.291061043739318848e-01
6.191934643675157668e-01,6.260602478758291456e-01,-1.265121986434752932e-02,6.808585994205147490e-04,-1.207628409605873178e-03,-9.413782668967221557e-04,6.353125572204589844e-01
6.105761353280173553e-01,6.234185193109914591e-01,-1.317907472711848937e-02,-1.799945368443303054e-03,-2.820835544080438524e-03,-4.729910315305993485e-03,6.303544044494628906e-01
6.162696384966317442e-01,6.230825433256976797e-01,-1.295366514334433949e-02,7.896551045531264657e-04,-1.261884133370179276e-03,-3.358109593051013426e-03,6.326892375946044922e-01
6.190533984113453236e-01,6.066712950620434253e-01,-1.008751822782671947e-02,-3.324827508032689085e-03,-9.066264386945542542e-03,-7.672944970037647548e-03,6.234083175659179688e-01
6.271558949708566644e-01,6.322200514010278827e-01,8.016427706341200388e-02,-2.345600309280051153e-04,2.336310997093983197e-03,-4.330377154004388940e-03,5.496074557304382324e-01
6.306455052269138717e-01,6.342483818567649090e-01,6.572693692322550962e-02,-1.281243991656079515e-04,-2.268473594232637940e-03,1.469646185251159178e-02,5.673136115074157715e-01
6.324968121992783354e-01,6.220803332595317148e-01,1.365957565364913084e-01,-5.385805524808165044e-04,-2.947088248598156868e-03,9.534931262277957995e-03,4.910809397697448730e-01
6.311433991238140084e-01,6.357033815809089994e-01,6.703105761611488633e-02,-4.586432281350332233e-04,-6.953486936425929028e-03,4.984068130108957814e-03,5.666004419326782227e-01
4.384436177469402951e-01,6.856370576224064539e-01,1.611497077081786022e-02,3.722111162432328174e-02,-2.140390701690089020e-02,1.556413005591164925e-02,5.917096138000488281e-01
6.550820122581131333e-01,5.028201870424737763e-01,1.294096797087407325e-02,-2.904622799737247366e-02,-1.841845964642013431e-02,-2.954899792115065968e-02,5.864498615264892578e-01
6.313344626357000333e-01,4.876754629422922482e-01,2.905499755125717787e-02,-4.222903079870372195e-02,6.525223027172412892e-03,8.924194866331025891e-03,5.500655770301818848e-01
6.627926104299213250e-01,4.582388851441796529e-01,3.819867397075210613e-02,-1.314538353503285489e-02,-4.152055991144025450e-04,-1.508207985225694554e-03,5.520167946815490723e-01
6.566648920955497903e-01,4.437774400795113650e-01,1.226312053926009726e-02,-1.738039158636562470e-02,-1.562506293206421260e-02,-3.663786279198694151e-02,5.736334323883056641e-01
7.308458491992557704e-01,2.855478612688223672e-01,2.993730739524391726e-02,-1.356209797340515166e-01,-1.073922217068249601e-03,-3.339473355677023692e-02,6.602864265441894531e-01
6.550457793724303590e-01,5.237027811016226053e-01,1.482001583151387747e-02,-1.843385092288410106e-03,-7.130893695319810537e-03,-1.105859731885391536e-03,5.858474373817443848e-01
6.309775141667548493e-01,4.918360246521714663e-01,3.272368805885023102e-02,-3.693100357643468168e-02,-6.484153535463658968e-03,-6.705462731653817100e-03,5.462405681610107422e-01
5.726272437346581201e-01,5.898152147873667595e-01,2.577797199422904306e-02,2.303718797062807855e-02,-7.843560586527485723e-03,1.148517254915720417e-02,5.575941205024719238e-01
6.314038782452680021e-01,4.943900829931729413e-01,1.934747476688908341e-02,2.722857037651790421e-02,-1.570216863339203572e-02,1.771152866002771373e-02,5.598487257957458496e-01
5.790488869271518402e-01,5.620465511286727445e-01,1.809761099114659544e-02,1.823396981783003898e-02,-1.490221163854341634e-02,1.065211302029218064e-02,5.544564723968505859e-01
4.383790761444061879e-01,7.075831376012984286e-01,-1.008359411508111814e-01,3.995081591177896407e-01,-3.140056686030968935e-02,4.474670055371146073e-03,9.950984120368957520e-01
6.194447980901258699e-01,5.101077511144159748e-01,3.327521468797906001e-02,6.857554710654174823e-02,4.739517580416533361e-04,-7.467294024644312604e-04,5.527833700180053711e-01
5.287534481658175967e-01,5.784554464173625732e-01,3.091063405036426071e-02,7.101324934328673288e-02,4.895426212537453380e-03,-4.467246505622420906e-03,5.388153195381164551e-01
5.772068318729848269e-01,5.730747627712211578e-01,2.544227204142851528e-02,1.933538516824003656e-02,9.050056750023495467e-03,-8.638993805983378321e-03,5.511555671691894531e-01
5.903002797636357490e-01,5.275676253561842888e-01,3.023595516884630685e-02,2.660410641838904799e-02,5.199529698776002816e-03,-2.714473855021853682e-04,5.335520505905151367e-01
6.530351450119036283e-01,6.207223979789003865e-01,2.511616027124224937e-02,1.072522537450688873e-02,-3.630170573294130149e-02,3.943204588866207339e-02,6.196771264076232910e-01
6.442881943691978197e-01,6.454948858470827000e-01,4.338317378182005024e-02,-1.119973280832131310e-02,5.430457750632488971e-03,6.918792460328920813e-03,6.020147800445556641e-01
4.529056608005510021e-01,6.989909960125182398e-01,2.667081315720476464e-02,1.062495649121759228e-02,-2.122624677585945377e-02,7.136384676942100205e-04,5.906065702438354492e-01
4.484022975635570396e-01,6.314032127643792736e-01,4.090122564235038061e-02,1.837117118303172592e-01,-8.822065944436578711e-02,8.016847393501091990e-02,6.465284824371337891e-01
6.487635022361970538e-01,6.856848830418851293e-01,6.033826467988556708e-03,4.214573862032685442e-02,-3.981079437940164556e-02,1.890448494925723449e-02,6.703362464904785156e-01
6.165519111941942798e-01,6.309113844174052410e-01,-5.434031892696533639e-04,1.947707361596285117e-02,-2.163781050890112995e-02,8.606839459471342726e-03,6.266090273857116699e-01
8.044412637955644652e-01,4.372045055810305780e-01,5.139679161101573523e-02,2.616855690748469063e-02,-9.445417762830665698e-02,8.465714656376582825e-02,6.897193789482116699e-01
7.389652392205757758e-01,6.241096010728721666e-01,8.622538913247673742e-02,2.548817948912754025e-02,-3.359801963409326381e-02,1.722821272370890500e-02,6.087003350257873535e-01
6.468724898337533391e-01,8.231200668915412688e-01,7.786529115980750371e-02,1.416071604420987839e-01,-8.055052817103935947e-02,1.509664868840475960e-01,7.766042351722717285e-01
5.356671667266166281e-01,6.722142250097079552e-01,-3.843724486077282343e-04,2.264693524856312493e-02,5.251842328256800529e-02,-9.170645780012285503e-03,6.239055395126342773e-01
6.156710347208803613e-01,4.958346954699746068e-01,4.707025958450766767e-02,1.479754139297388971e-01,-4.798955491349935626e-02,1.113393752900718320e-01,6.158872246742248535e-01
6.469127366548547142e-01,5.599426059904424324e-01,1.984870378785752454e-03,1.650564396606473902e-02,-1.331321733427298995e-02,2.437633979533182504e-02,6.087182760238647461e-01
8.753589639002022915e-01,5.952451251690979994e-01,7.499751914862157198e-02,1.383676321005344323e-01,-8.207067660649695895e-02,1.290147598152908137e-01,7.889410257339477539e-01
6.256160855765797724e-01,6.232449383089249118e-01,2.226863560272906994e-05,6.994770830284419215e-05,-5.015755478452123620e-03,7.476334892347702953e-03,6.246063113212585449e-01
7.242993329324182161e-01,5.468656647294374284e-01,4.777851497780150059e-03,3.532139957097390343e-02,1.727731496529993915e-03,4.505349504273665345e-02,6.567859053611755371e-01
5.197121906144551717e-01,7.629966834301592504e-01,6.987698868934871799e-02,6.375051560760033875e-02,5.469603237740888052e-02,-1.545229954281945699e-02,6.267859935760498047e-01
3.544144458596624192e-01,7.221182051797052637e-01,1.144760739442396424e-02,-1.846487021893960245e-01,8.833411590485190645e-02,1.190230441873250077e-02,7.106769084930419922e-01
5.765001054127382174e-01,6.303630428965580901e-01,1.176092005343298830e-04,-2.015214698701858764e-02,1.465708366742353615e-02,1.261939205835731735e-02,6.070454716682434082e-01
6.022047904765515103e-01,6.389567127941735425e-01,-4.523654932183096555e-03,-1.312342615904307785e-02,2.095451706550374715e-02,1.383713420588249428e-02,6.278350949287414551e-01
6.358537111587813095e-01,6.470212151474254991e-01,1.057981300839511141e-02,-6.675732645578859314e-02,2.146842295960298130e-02,2.253091742631119915e-02,6.437003612518310547e-01
6.158714694648221855e-01,6.321352660611418983e-01,-5.856443369181618674e-03,1.108302586752029804e-03,2.038438086088355250e-03,9.130490979097907137e-04,6.300320625305175781e-01
3.824911928950787687e-01,8.278297866148991435e-01,2.246636109259331215e-02,-2.397543793444760762e-01,4.839275999099765940e-02,7.458109263237890085e-02,8.273066878318786621e-01
5.319990430183179075e-01,7.165514147958305102e-01,6.319798176046986793e-02,-5.089424358189786890e-02,1.313517768902771610e-01,7.849701357335948926e-02,6.468139290809631348e-01
4.798428998582250915e-01,9.267054538191790147e-01,8.043154621428155737e-02,-4.078497730756346085e-02,1.351552606282752089e-01,4.747586854447538585e-02,7.773355245590209961e-01
5.500482639654142858e-01,6.608311234546442314e-01,-4.084836192558283230e-03,-1.342799115598440444e-02,2.267832128289739430e-02,-6.368335968338303781e-03,6.188136339187622070e-01
6.328844774677179208e-01,6.203578312815000162e-01,-9.278617345756190460e-03,-1.448653313879752101e-04,3.749361747655311785e-04,2.064467256124552074e-03,6.360027194023132324e-01
6.318182560855661878e-01,6.196057989490519891e-01,-4.622191834942224187e-03,-1.415219641881947283e-04,-1.415171100957551245e-04,-9.371708802979670898e-04,6.304251551628112793e-01
6.268123886642312792e-01,6.235949174307928722e-01,2.348450244869482173e-02,1.054726285089748004e-03,4.202596641335022373e-04,-5.428867725639832491e-03,6.018022894859313965e-01
6.200547915274763344e-01,6.053020406655248431e-01,-1.124483476550591776e-02,-3.418096495017203251e-03,7.369323192847597806e-03,8.487661870024745467e-03,6.243857145309448242e-01
6.318435826153009360e-01,6.245331654450240189e-01,-1.213435884311553359e-03,1.673770772955843417e-03,1.069685906865773138e-03,3.980815179944840673e-03,6.294808387756347656e-01
6.399809873946566974e-01,6.002974861504949411e-01,-9.110558548978242577e-03,2.163767338588121550e-04,7.917007118717370130e-04,-5.722319779072708706e-04,6.301899552345275879e-01
6.310857261281925812e-01,6.207043952814311760e-01,-9.230581252911762569e-03,-1.020399136056001277e-03,-2.609646824102593646e-03,2.544039188075028317e-03,6.352230906486511230e-01
6.635729038882487441e-01,5.412445284985764049e-01,1.950893833754230311e-02,9.357384478187567509e-03,-8.388839342876189611e-03,4.756302431947060511e-02,5.985447764396667480e-01
6.304429393960654382e-01,6.174732096579130802e-01,-1.202103957819755653e-02,2.452924734442332895e-04,8.399413199675149133e-04,-7.399083192907339934e-04,6.360813975334167480e-01
6.309902297503373614e-01,6.159896731416591997e-01,-1.213187721837433175e-02,7.901493832392828378e-04,1.317375872216384807e-03,-1.201378063142397468e-03,6.357635259628295898e-01
3.695073080559177492e-01,7.057244238303099770e-01,5.392646519218813328e-02,1.205578971069058147e-01,8.806402707687646658e-02,-4.501364129616924198e-02,6.258466243743896484e-01
5.183105223729368438e-01,6.541815196198655924e-01,3.400268536391026775e-03,6.551896043901697143e-03,2.680558934845223007e-02,-1.318324089978510812e-02,5.969595313072204590e-01
5.943136436342162376e-01,6.135963996597393333e-01,9.203798126874995766e-03,1.290965148337810779e-02,1.208246993198451580e-02,-1.689490757088524253e-02,5.964915156364440918e-01
4.501295760828055714e-01,6.772618101868799201e-01,2.123476740891500070e-02,2.102831635517989073e-02,2.774330061869156525e-02,-7.262568727169668725e-03,5.803012251853942871e-01
4.652406480771669739e-01,6.877845108807595365e-01,1.422362365632762193e-02,9.930709179385044383e-03,5.454763232091862368e-02,-4.625547801147857074e-03,6.021624207496643066e-01
5.029543153198163807e-01,6.722734372297907157e-01,6.734673653324640963e-03,1.524551248548607334e-03,1.599488928024557499e-02,1.035014933210356980e-02,6.000151634216308594e-01
4.189508036803863966e-01,6.779449193402449225e-01,3.383001237570343323e-02,-3.444342105396806103e-02,9.116914238322419359e-03,9.345070295502745997e-03,5.649870634078979492e-01
4.845871041639027155e-01,6.361449060296193725e-01,3.296909802749309337e-02,-3.650025936596452275e-02,5.734741749146366266e-04,5.886429541835370288e-03,5.472445487976074219e-01
4.806014320622503111e-01,6.341156830609020467e-01,3.762945471683065701e-02,-2.692556383602157793e-02,3.274264940952037895e-04,-6.729122648209177882e-03,5.386134386062622070e-01
3.959768593837065809e-01,6.890130747570457626e-01,3.174684430292390447e-02,-7.770266114651697142e-02,7.297125571519529411e-03,8.759002731862293098e-03,5.863184332847595215e-01
3.037481860607523232e-01,6.502077017487493116e-01,-3.863550826566197749e-03,-2.701808544317739758e-01,4.170153265928418923e-02,1.885751441855148397e-02,7.392638921737670898e-01
6.309483380844056466e-01,6.166544284635915307e-01,-6.094660167042798005e-03,-8.335599440629119306e-04,1.342749593300404318e-03,-2.870866807882561543e-04,6.300238370895385742e-01
6.302672347319485668e-01,6.184604840656116043e-01,-5.069033583994686509e-03,6.225893442969670198e-04,4.145106366906737487e-04,-1.513775135116406101e-03,6.295227408409118652e-01
6.415229297493649785e-01,5.697606507154076017e-01,-5.571487557136767244e-03,-6.237718756478621233e-04,1.574832609228742292e-03,1.080244651743294051e-02,6.146565675735473633e-01
6.319723986209955235e-01,6.063698303881077667e-01,-1.104459840908239565e-02,8.129331364044498597e-04,2.902353181109718246e-03,5.642328362847895233e-03,6.307029724121093750e-01
6.335873411529272525e-01,6.181929661144491828e-01,-9.270588924878253589e-03,-1.379907308079602072e-04,-2.524542466946335176e-03,2.386470992975111335e-03,6.353291869163513184e-01
6.391363062530538430e-01,6.178776199996700580e-01,-9.113683457286414491e-03,5.475338712883872543e-04,1.412785356923642504e-03,3.529630144023521588e-03,6.379210948944091797e-01
6.331685204248034271e-01,6.183560376850080198e-01,-4.697653435190962679e-03,2.466044798703236388e-04,-3.320931740224655391e-04,-1.355536655985523781e-03,6.305952072143554688e-01
6.354725702054464520e-01,6.113442894248508619e-01,2.752075251835273129e-02,-6.186317164791997093e-03,-8.236686028228547979e-03,-5.672198618857789490e-03,5.966017246246337891e-01
6.297087781825376762e-01,6.237921210095502822e-01,-1.006270541940262886e-02,1.250771643368763994e-03,-5.381800018585495074e-03,-3.166334001465837249e-03,6.369292736053466797e-01
6.697917469656957667e-01,6.089765128215116619e-01,-8.749888461410226803e-03,-1.819967476035175627e-02,-1.349480591632042092e-02,-2.168024886429908635e-02,6.525348424911499023e-01
6.355747226493031476e-01,6.175660705985606125e-01,-1.221364964655308194e-02,2.339328715493852258e-06,-1.700329922336195690e-03,1.487098200422848088e-03,6.389864087104797363e-01
6.303536769381459237e-01,6.178100601895729627e-01,-1.197451091137685664e-02,-1.204311908618565786e-04,4.002788663189525611e-04,1.471825519043167994e-03,6.361546516418457031e-01
6.296607053623664019e-01,6.264388352472660682e-01,-1.351796037638686165e-03,1.073201783255127396e-03,-4.929491733788796256e-04,-3.640873702019413721e-03,6.294426918029785156e-01
6.273278427225597031e-01,6.223858047360065759e-01,2.013853007549665231e-02,1.119501491459633149e-03,-1.785189765824076640e-03,4.313590779483006746e-03,6.047906279563903809e-01
6.520223287915779542e-01,5.909500717176665585e-01,-2.903695531702132904e-02,1.137220327323488211e-01,4.676015455548666877e-02,-6.178815847401670364e-02,6.948300004005432129e-01
7.640081623828915980e-01,4.148061975039790683e-01,2.096439926938342690e-02,9.573375737984253508e-02,-4.049970840302761360e-03,-8.534817969700111973e-02,6.811612844467163086e-01
6.071021367123345946e-01,6.177994481150089756e-01,-8.575204726746665784e-03,-4.455182466284690786e-03,-6.706757986936503699e-03,-7.372999863141460088e-03,6.213828921318054199e-01
6.217638115914607688e-01,6.211687001268246799e-01,-8.911106210469033062e-03,-2.746549501166884507e-03,-1.086779632508773352e-02,-1.146789589358705036e-02,6.309891939163208008e-01
6.306102312536564503e-01,6.236321119562642235e-01,-5.663322900384959446e-03,6.030612567265395546e-03,-6.705890551059422861e-03,-9.218366736339446421e-03,6.332074403762817383e-01
6.091955501692803976e-01,5.821076766836850158e-01,2.210510005619670260e-03,-3.626508683982784115e-03,-1.222611980964548838e-02,-8.614931306999113565e-04,5.943170785903930664e-01
6.073889618708112614e-01,6.139401284021529515e-01,-1.206880554003630923e-02,-2.106316179098221067e-03,-2.808624447485927236e-03,-2.984167899377266481e-03,6.228103041648864746e-01
6.151576516656331872e-01,6.156388964888870330e-01,-1.555379815006019406e-02,-4.643214635506865123e-04,-1.435880118617610364e-03,-1.385458122748001869e-03,6.309621930122375488e-01
5.962009390954902122e-01,5.924692350413477415e-01,3.428449698486268904e-03,-6.156240588479669831e-03,-7.581876089527379847e-03,-1.837226657213171868e-03,5.911661386489868164e-01
6.207349595541618026e-01,6.215385792462733150e-01,-1.234865563141190892e-02,1.521371707180751770e-03,-3.564593704398974060e-03,-2.540314387232775039e-03,6.335366368293762207e-01
6.590805383770028669e-01,5.475970819248747734e-01,8.513497017291482560e-03,4.121967684535838422e-03,-1.491970899051231134e-02,3.478157801504827562e-02,6.062067151069641113e-01
6.520807505546393212e-01,5.105348228812288669e-01,4.473650862321820743e-03,1.451034179004339827e-02,-1.389827494557139068e-02,2.794406330732720697e-02,5.927206873893737793e-01
6.823495389106702946e-01,6.473739513650171862e-01,-8.412142129292310422e-03,9.709311681453498821e-02,-3.059948948833424512e-02,4.799871875120943071e-02,7.015818357467651367e-01
6.962041873218568488e-01,4.094803028782071364e-01,3.674046737599528933e-02,-5.177993265403906843e-03,2.589112484935142573e-03,8.734086203158649905e-03,5.730169415473937988e-01
6.230072326424833662e-01,5.889754521006075327e-01,-7.499870568509647839e-03,3.736129161451984520e-03,-1.143622390375951918e-02,7.213091015322624713e-03,6.146790981292724609e-01
5.436234248973197403e-01,6.036628589504442477e-01,3.645762996987672588e-02,4.197282937681200143e-02,-2.440747081952106181e-03,4.169402944512741460e-03,5.446347594261169434e-01
4.786382653322431846e-01,6.864834810598381409e-01,1.697025644144467549e-02,-3.252038791848335881e-04,-4.904631712899206256e-04,5.338172395345948656e-04,5.935438871383666992e-01
6.955593251270961730e-01,4.341894346192912146e-01,3.608726970100523124e-02,-2.159305454432851670e-02,5.479904796509756440e-03,9.358553525372005806e-04,5.764919519424438477e-01
6.887281074122667546e-01,4.393380651210937460e-01,2.735646530113394759e-02,7.236765096355718581e-03,-8.809166884237549719e-03,1.491643995081392074e-02,5.794184803962707520e-01
6.984169210670109207e-01,4.334185888872150727e-01,3.479984946393605005e-02,2.969336542601740125e-02,4.465972274333779128e-03,-7.590419492689582650e-04,5.809139013290405273e-01
6.771266964919524511e-01,4.353770084054281453e-01,3.252429101509846099e-02,4.830866152365663468e-02,-4.298755284503679754e-03,1.251507379375332331e-02,5.706568360328674316e-01
6.752684908518387097e-01,4.136655795847181682e-01,2.935687569643247175e-02,3.891136164098134981e-02,-3.650226359665790978e-03,8.199330431674936581e-03,5.669651627540588379e-01
8.792109671980468111e-01,2.756592266989211781e-01,-5.438659771150322619e-03,2.148076266885338426e-01,-2.614586530577561740e-02,4.559020008683057484e-02,8.715853691101074219e-01
7.745028760502262744e-01,1.987898421251325654e-01,-1.049651338959178837e-03,1.172756320479874520e-01,5.584822367775581393e-03,-2.617610542431536916e-02,7.279020547866821289e-01
7.246377401505276206e-01,4.605056193786793983e-01,1.928626817114281744e-02,2.367805851154715646e-01,9.828516354831414933e-03,-7.109601922347057179e-02,7.514182329177856445e-01
6.313309021720348024e-01,6.221125810890162366e-01,-1.632918303817232353e-03,5.662899548727369850e-03,2.271877560028074967e-03,-8.243574290409332039e-03,6.286563873291015625e-01
6.626145877175080301e-01,2.815606756323825732e-01,1.624914662439652657e-02,2.694561348287972113e-01,7.781331735298624777e-03,1.552814045570464173e-02,7.317206859588623047e-01
6.369253730053480167e-01,5.843129664298910564e-01,9.227489584848647119e-03,2.582402113669145932e-02,1.919409992606725332e-02,-6.658682483462604121e-03,6.057944297790527344e-01
6.223201169935220767e-01,4.700316359431597202e-01,5.679552709254276355e-02,1.803379906834231550e-01,6.133956497754632781e-02,-8.519182649744214131e-02,6.225053668022155762e-01
6.486433434924018249e-01,6.268906574184290870e-01,6.361383710505391642e-02,-1.417263331023076774e-03,7.144203169962943037e-03,1.503500426341855892e-02,5.751904249191284180e-01
6.694803696761100209e-01,6.200761373393526288e-01,5.153394492016188932e-02,7.349677514914916554e-02,1.342295362467019366e-02,-2.152205790722924034e-02,6.098400354385375977e-01
6.598359134918776459e-01,4.715073859667793243e-01,2.368560446943496212e-02,1.277011327061216249e-02,1.783165442446067381e-02,-2.489240075961016846e-02,5.689038634300231934e-01
6.339129605213826846e-01,6.341446983702181406e-01,5.602659584124447534e-02,-1.182941758592730369e-03,-5.460550376577160726e-03,1.119651959288037006e-02,5.784084796905517578e-01
6.355259143621769802e-01,6.252272776045254554e-01,2.687880599546771387e-02,5.682635457812349779e-03,-2.824465969297043199e-03,-4.090274186994992921e-03,6.037053465843200684e-01
6.314254924766780075e-01,6.725808338414949183e-01,1.162566516106502967e-01,-1.277358961107073233e-02,5.214458501604537360e-03,3.978436532660485289e-03,5.375064611434936523e-01
4.490528433674602082e-01,6.674287602293335064e-01,2.077651671274927114e-02,2.470711117696020379e-02,-1.730819459691815623e-02,1.403553084638180758e-02,5.726734995841979980e-01
5.737126450700460456e-01,7.834245683793503723e-01,6.600682792311102220e-02,1.270599808590064661e-01,-1.245491880388136102e-01,4.739033173040964504e-03,7.094038724899291992e-01
6.321806384058897832e-01,6.300901434369886589e-01,1.369028387268019231e-01,-1.317547155139972938e-04,-2.422232937869941722e-03,1.135603797800079084e-02,4.946449398994445801e-01
6.756235197388377189e-01,5.851928549800468060e-01,-1.145399965310744950e-02,-6.766929764810529491e-02,-4.012476213885242914e-03,-1.372180474470210097e-02,6.576251983642578125e-01
7.098436539256176570e-01,5.323147972272515016e-01,1.004509823716934203e-01,-5.924539724257580492e-03,2.827170531111493704e-02,1.094805903175932044e-01,5.771934986114501953e-01
7.002682106476261215e-01,7.685338099091438835e-01,1.081926418548633251e-01,9.258688893913137249e-03,8.162955533097100702e-02,1.169715758477724576e-01,6.759633421897888184e-01
8.152798652706003679e-01,5.933045446431806091e-01,9.044614663004268973e-02,-1.828594213639042065e-01,2.169308314786460787e-02,8.924059359257911772e-02,7.344235181808471680e-01
6.597026414555893226e-01,5.905008761477561485e-01,1.848028499850468132e-02,1.961339564381865685e-02,4.710283473505874272e-03,1.906705813337201266e-02,6.114675402641296387e-01
6.583304805597789411e-01,5.684064288263255271e-01,1.893823552778295394e-02,6.541440712830622062e-02,-2.096351266201697955e-02,1.938316354509914824e-02,6.121231317520141602e-01
2.851397613610133774e-01,7.429710633026969102e-01,-9.180463770228330933e-02,2.727214118780550978e-01,6.726770714338672387e-03,9.326310698277079370e-02,8.795647621154785156e-01
6.219003678253274270e-01,6.212698073521883968e-01,-1.345359127192624626e-02,-4.070766847692889375e-04,-1.094391491538464906e-02,7.841170760949216570e-03,6.354672908782958984e-01
5.081219635682604485e-01,5.752891171908220969e-01,-3.239779318643942752e-04,1.243082528990126778e-01,-5.925328557249476269e-02,4.741022389424899564e-02,6.006773114204406738e-01
5.962024788681345999e-01,5.518003474225546823e-01,1.820350926581820739e-02,-1.515305935341110070e-02,-1.103994149885693249e-02,-2.115314987110853643e-03,5.580841302871704102e-01
5.333647389468365585e-01,4.783233338057302775e-01,-1.109911273132622167e-01,3.155551499288170025e-01,-4.535649007533552879e-02,1.663221778751183474e-02,8.297496438026428223e-01
5.611730110321551113e-01,6.136255625532546221e-01,8.904040929817946814e-03,3.543562152654280289e-02,-3.057073405171937056e-02,2.852901809461979091e-02,5.879903435707092285e-01
5.960701462110670201e-01,5.862229956087596783e-01,1.263561594743811689e-02,-4.191665407674044497e-03,-7.164179719454814854e-03,-4.220366205496029616e-03,5.787985324859619141e-01
4.700143682047054350e-01,6.344637406786317602e-01,3.379488155025472951e-02,-3.172309292557818489e-02,-6.276176332413960571e-03,-1.148435520302999203e-02,5.409250855445861816e-01
4.469231732309977834e-01,5.680992639250073140e-01,1.013676691966508558e-02,2.822528593414402320e-01,9.717028617311785840e-03,2.679753279205913941e-02,7.069877386093139648e-01
6.786106012348219751e-01,6.874145412199313965e-01,6.528781169573727450e-02,3.116403639360258021e-02,-2.786546245053276097e-02,-6.099171261293819500e-03,6.220905780792236328e-01
6.298856688668587056e-01,6.366256798509122294e-01,2.340819724747000841e-02,-4.602764891908696712e-03,-4.994991463486956988e-03,9.489601151955627187e-03,6.102102994918823242e-01
7.251154064300134872e-01,6.252463768745267769e-01,9.384297165542443420e-02,7.922316584200259082e-02,-1.182993818197010660e-01,1.290047909408983395e-01,6.754065752029418945e-01
6.752262303614988692e-01,3.020368562380918442e-01,2.805399667723140755e-02,2.317960655134988501e-01,-2.618676673245614109e-02,7.713895937032304306e-02,7.054651975631713867e-01
7.217271406836134329e-01,4.826020876756469402e-01,4.050252571716522754e-02,3.480979944826644301e-01,-1.826215948061183508e-02,9.635392098688067009e-02,8.664405941963195801e-01
6.186930583710803511e-01,6.318851127886511154e-01,-1.176899548152865460e-02,4.535199959039368386e-04,6.319697854400255395e-04,2.499130863472070444e-04,6.371620893478393555e-01
6.187353238372446107e-01,6.333041496180084051e-01,-1.072913340310827079e-02,-2.449882969580624895e-04,-1.848091906775596290e-03,-4.234746022754284737e-03,6.369242668151855469e-01
5.699228411314832821e-01,6.357438758678175539e-01,-8.514422083838624200e-03,-2.067565796842590117e-03,-1.371920660446012893e-02,-4.229036721858227092e-03,6.145132780075073242e-01
5.684526705596306684e-01,6.486811427411989239e-01,-7.628257355794088035e-03,-2.886852200093691263e-03,-1.315107374175880466e-02,-4.159168810133724407e-03,6.205801367759704590e-01
6.095199536231563631e-01,6.301331168549626494e-01,-1.006526460096657249e-02,-1.945835247898337200e-03,-4.267244991057641233e-03,-3.472199974634568396e-03,6.302257776260375977e-01
5.648172224242328232e-01,6.608056290016182110e-01,-7.848756570136727895e-03,5.826518574744058267e-04,-9.722297293251514622e-03,-1.218321876695134531e-03,6.264330744743347168e-01
5.917002176188014273e-01,5.356423009463546769e-01,2.723074275961273605e-02,-2.129620746541047160e-02,-5.611218233355205233e-03,-3.743119013204969717e-03,5.400207042694091797e-01
4.318695403840172586e-01,6.795810466413987339e-01,3.564810798155715332e-02,2.121899236148087897e-02,-2.923844963997417577e-03,5.100522691393464744e-03,5.638753771781921387e-01
3.969990701779492204e-01,6.392534352214493953e-01,2.703978925872474459e-02,1.407013399314428481e-01,-9.583186576462366171e-03,2.774465388640905313e-03,5.872567892074584961e-01
3.888706242745317843e-01,7.457359591889053396e-01,2.418588048869513285e-02,7.489401480985292958e-02,-4.440881909385976933e-02,-7.717854645978980931e-03,6.429725289344787598e-01
5.488333117617540946e-01,6.685103786896275935e-01,-1.030718517302575687e-03,7.027218278644887552e-03,-1.950120652152689815e-02,4.373518510790891205e-03,6.195365786552429199e-01
4.153585451451560218e-01,6.777757191198501285e-01,3.866011089341603313e-02,3.672428030524452214e-02,-1.391595035445948418e-02,3.768636637712921220e-03,5.606123805046081543e-01
4.446278831231152973e-01,6.797663326377928472e-01,1.987612758314394323e-02,1.841092724376760040e-02,-1.094323112653637110e-02,1.641097440180415423e-02,5.811744332313537598e-01
5.599999760255841563e-01,6.100007027220422096e-01,1.028109199149768171e-02,9.211912719816296724e-02,-4.915366643296487786e-02,4.928627304040537893e-02,6.100579500198364258e-01
5.707951060728846393e-01,6.320367721066336708e-01,7.556120668912424954e-03,1.771856460651538914e-02,-1.058389023402955820e-02,1.595132420624312264e-02,5.979328155517578125e-01
5.919821289967233113e-01,5.892340205386823460e-01,1.252911913696047597e-02,-1.869372653303588965e-03,-5.716485453190356218e-03,-3.564944742282836771e-03,5.782106518745422363e-01
4.318549215865281066e-01,6.921085372018578319e-01,2.327157191771511702e-02,-2.408478700580171487e-03,2.747975263520349015e-02,8.773125504099363705e-04,5.859118700027465820e-01
4.032793202056860205e-01,6.979495291381863087e-01,3.819399288735902953e-02,9.719735329729568482e-03,1.420195767402674010e-02,-2.537074286659623396e-03,5.732411742210388184e-01
3.902449835642552434e-01,7.129924897608598267e-01,3.739431993375180729e-02,1.383460230936641062e-02,1.167614260426235763e-02,-2.549397287782020557e-03,5.861347317695617676e-01
3.208535508466623387e-01,7.225181424175207701e-01,3.057959102405011231e-02,8.301822435335672393e-03,7.296360380885470731e-03,-2.750573166504787469e-03,6.021423339843750000e-01
4.173864167474088394e-01,7.078576910640316244e-01,3.881606224894862400e-02,-2.462188978158937405e-02,8.257387678611718615e-03,4.151865131276504667e-03,5.828617811203002930e-01
2.298455517734714071e-01,7.865572379390973756e-01,-4.471637965073005372e-02,1.648705162344080988e-01,-2.663058555074842779e-02,4.387189470974540290e-03,7.886039018630981445e-01
4.307389186029264017e-01,7.128708008434987420e-01,2.048144469053486683e-02,4.038398511903008165e-03,2.135738697913704132e-02,-6.660012075345274167e-03,6.043233275413513184e-01
3.286641092886261606e-01,7.458070988734881723e-01,2.751462579669133879e-02,-3.390004168613747204e-02,-7.080436536827318557e-03,-1.088802029352118998e-02,6.279134750366210938e-01
6.159340164478301904e-01,6.119144262341273954e-01,-8.794547931397556084e-03,4.278254566446934061e-03,-1.038185469317764661e-02,1.188181893775681376e-02,6.233719587326049805e-01
6.164525372017133353e-01,6.132243003836466144e-01,-1.452976768197161705e-02,3.680822387893193629e-04,-2.313212678873807250e-03,1.194683483362537482e-03,6.293908953666687012e-01
6.061154351855386757e-01,6.052474777131288119e-01,-6.286178423163313322e-03,5.173779878593646499e-03,-6.098166362093294067e-03,7.334957755297754484e-03,6.122566461563110352e-01
6.130647545376396446e-01,6.092830972468118444e-01,-8.093581951444994704e-03,-2.589446478787270269e-03,-4.800678254626103252e-03,1.044278212410184540e-03,6.193508505821228027e-01
6.163192557519917569e-01,6.184845094245771113e-01,-1.510462096152592748e-02,-6.552247479304809902e-05,-8.975476765895532135e-04,2.278882471121676696e-03,6.325235366821289062e-01
6.156845062030771309e-01,6.241415005927972715e-01,-1.236327905218503886e-02,-1.002364680637916851e-03,-4.438186085329133080e-04,2.726307241685287965e-03,6.323391795158386230e-01
6.318619226044226433e-01,5.672257213150135868e-01,7.041305620993532077e-03,-2.159830636421730329e-02,1.885283923918943533e-02,1.569166085392781004e-02,5.978269577026367188e-01
6.694746575713375059e-01,5.101673252884503240e-01,2.210453714341920062e-03,-2.861574847404056363e-02,1.318761333393618333e-02,4.721926838291459066e-02,6.115452051162719727e-01
5.971831170143484524e-01,6.236949162258398349e-01,-1.941318681544235147e-03,-8.385751220106379619e-03,1.098793676978784481e-02,1.046830446114099984e-02,6.135460734367370605e-01
7.510960796534260631e-01,6.464387572619350042e-01,5.505147028239187890e-02,8.606117622938485451e-03,9.469971505109772356e-03,6.783078841581514223e-03,6.505492925643920898e-01
7.976998026693959964e-01,2.723009776364080370e-01,2.196637735369710853e-02,2.865386057616605558e-02,3.906372653199798040e-02,1.219321201042198460e-01,7.224127650260925293e-01
6.606617633136824264e-01,5.533447825850995594e-01,-1.390210092372112793e-03,-3.750151566480438691e-03,2.011910623002586152e-03,2.720252737752182348e-02,6.172962188720703125e-01
6.535088436923282007e-01,6.160251966142479274e-01,-5.262798094991028020e-03,-7.185926465762210516e-03,3.204698262193605117e-03,2.370265123347833555e-02,6.423107385635375977e-01
6.526155430396606283e-01,6.384334151650695732e-01,6.152963742265404878e-02,-1.272674108587168278e-02,1.299755114688841634e-03,7.209065853557477914e-03,5.846774578094482422e-01
6.643887944047890404e-01,5.200196320557619600e-01,-2.130120952687386549e-03,-5.945393126568170213e-03,1.091147134548710491e-02,1.922188505836845002e-02,6.086351871490478516e-01
6.597301686819687649e-01,5.695750187508811235e-01,-6.586185410721645539e-03,3.351963564265810630e-03,-2.213318289402664302e-04,1.102972776822834337e-02,6.264442801475524902e-01
8.979204221893959392e-01,3.595672407404381654e-01,2.558307577938134791e-02,-1.396335823145948563e-01,3.553679479131167246e-02,8.938626575112845751e-02,8.169589638710021973e-01
6.632098387918182736e-01,5.433602699650551537e-01,1.573133826267170132e-03,-3.377131853970284040e-03,1.062874317054232631e-02,1.047538537432313697e-02,6.111730337142944336e-01
6.325382952501813483e-01,6.339172042246328242e-01,7.017255573730213358e-02,2.821402824065003933e-03,2.403428893078077191e-03,4.968868009245997613e-03,5.631588101387023926e-01
6.311444288232034294e-01,6.279942972439962467e-01,7.706275051208549831e-02,3.439934350425324135e-03,-1.216223253163824410e-02,-3.292403299412174043e-03,5.529763102531433105e-01
6.226888514875682512e-01,6.286582499747893626e-01,1.114203231192609778e-01,-8.386813357121553156e-04,-8.916373864914575731e-04,2.315892377600637408e-05,5.142835974693298340e-01
7.605460426121450901e-01,8.027278222343878777e-01,1.134355465215453607e-01,-9.757812314202668480e-02,-6.350546266994337545e-03,-1.201486447522700923e-01,7.209855318069458008e-01
6.305110888499022570e-01,6.355059532793279065e-01,3.616377784609753343e-02,4.538295173303764050e-03,4.016120509639085033e-03,3.137978811230860299e-03,5.969774723052978516e-01
6.338798726698842145e-01,6.289184422987654788e-01,2.595723644097230887e-02,6.473863309337680311e-03,8.120873296931008234e-03,5.635838169065495763e-03,6.058029532432556152e-01
7.310766388017005957e-01,6.764501690592292782e-01,1.274916740374835711e-01,-2.681071048075938171e-02,-6.846553072120164834e-05,-1.103404425540365358e-01,6.107443571090698242e-01
6.256877859211364967e-01,6.901904137469869749e-01,2.529862310411512549e-02,-4.795160477475938349e-02,-2.857765860041231940e-02,-1.947759633017360353e-02,6.433044672012329102e-01
6.711105971507720369e-01,6.643352434985665411e-01,1.084352568221965130e-01,6.203179741542409753e-02,-1.695685777123336416e-02,4.835069482841472532e-02,5.764173269271850586e-01
5.178283215010234253e-01,5.693892790229122536e-01,3.327053260524720502e-02,-9.881148320255567219e-02,-6.382821905286779895e-03,2.293186231627356020e-02,5.416917800903320312e-01
4.954006572634285788e-01,6.829507566255530460e-01,1.719339905012551295e-03,-1.917298013065791076e-02,4.287533162224906047e-02,7.945489872984242211e-03,6.150555610656738281e-01
4.922990402520147635e-01,6.580788518598115200e-01,3.860707487247977410e-02,-2.010443635198871370e-01,8.630501858005780458e-02,2.116175019691419676e-02,6.734077334403991699e-01
5.929452788253044559e-01,6.581353421332770681e-01,3.631719410949418858e-03,1.125546991428661011e-03,1.224653233822116730e-02,-1.249356272583793288e-03,6.248328089714050293e-01
4.975657300223621515e-01,6.365599935615822158e-01,1.839548659071554848e-02,-3.186855909997200753e-02,2.111229365824649970e-02,1.725861422612464530e-02,5.663947463035583496e-01
5.043506705667101242e-01,6.721676302348540410e-01,3.833321186669125247e-03,-7.005993889331002360e-05,2.116960535401150867e-02,-8.829839413887998660e-04,6.033425927162170410e-01
5.806497472431166873e-01,5.757441191889156595e-01,2.666129160705799084e-02,-2.390404631206877184e-03,-4.019529695229362778e-03,-2.718653862932134298e-03,5.516315698623657227e-01
6.570331920847822804e-01,5.778061065850377265e-01,8.115194787962631828e-04,-5.713447850702437283e-03,1.699546894286095913e-02,2.719893292828949941e-02,6.229743957519531250e-01
5.171893376543997833e-01,7.100109327284467309e-01,-7.879073017931226275e-03,-1.288155235632480744e-01,3.602411885438387001e-02,2.435561200911921451e-02,6.852551698684692383e-01
5.760764736935343189e-01,6.386709066914046939e-01,-3.374923135101570715e-03,-2.714065823708679162e-04,1.821130058193364681e-02,1.205159194291399553e-02,6.143153309822082520e-01
5.758390834784560264e-01,6.593930184544091189e-01,-7.932046115763868865e-03,-5.132142618033089243e-03,1.706012665650465457e-02,7.134294060132499032e-03,6.305959224700927734e-01
5.401228632141497066e-01,6.382469091328029087e-01,4.946629961271209464e-03,-1.390494618091004352e-02,1.214141755405617057e-02,1.887610703110135721e-02,5.921543836593627930e-01
6.232813315602283577e-01,6.592602686608722840e-01,2.866312737346227157e-02,1.109328639707187966e-03,-8.232042251875244798e-03,2.012819325131791348e-02,6.145579218864440918e-01
6.202460018139703823e-01,6.153092599031098064e-01,-1.136569644284801672e-02,2.364208866020474375e-04,5.508012744155845949e-03,3.774690276183784426e-03,6.292642951011657715e-01
6.163578529576339005e-01,6.114514867796586595e-01,-1.181577280704826372e-02,6.448341132076894789e-05,3.001501349591032940e-03,1.533862398656583859e-03,6.257621049880981445e-01
6.188034352989095765e-01,6.158682337196001999e-01,-1.493932917792861748e-02,-2.071211990927810504e-04,1.987017764773988272e-03,6.861242776780231319e-04,6.322908401489257812e-01
6.198366454331795117e-01,6.219082400975477487e-01,-1.372864398473638836e-02,2.091527189700646827e-03,2.061375728832920071e-03,3.072815613361579851e-03,6.346462965011596680e-01
6.202140284859593011e-01,6.148768088600505832e-01,-1.122908918768955600e-02,4.500714293664281212e-04,4.936171361685008814e-03,4.497423372225229331e-03,6.288983225822448730e-01
6.151381236561156429e-01,6.139142440404284917e-01,-1.307035391038580130e-02,-2.749665615217574029e-03,2.374964033674792797e-03,2.676378317563669895e-03,6.276460886001586914e-01
6.151337602038418062e-01,6.194106978604515534e-01,-1.408126076544929939e-02,3.562352157151652877e-04,2.705956056159108752e-04,1.785463320760868758e-03,6.313723921775817871e-01
6.132905998433565431e-01,6.129374311006907661e-01,-1.079452357864302270e-02,-4.323173572789780375e-04,3.615387063026244668e-03,3.354161678602802458e-03,6.239675283432006836e-01
6.234113946712850352e-01,5.275435781822555015e-01,2.173919546628921839e-02,1.057495823311453177e-02,1.368413224759919798e-02,-8.928680268575883358e-03,5.609416365623474121e-01
6.406370280640891757e-01,6.174545312884693882e-01,2.284031231516903127e-02,3.520521684989034224e-03,-2.456783568531449493e-03,-4.138113283803273972e-03,6.066257357597351074e-01
5.784374756880287238e-01,5.085431701762367362e-01,3.364441230728265619e-02,1.397160787493725576e-01,-1.422610986473798415e-03,7.238164997072810657e-03,5.677427053451538086e-01
6.362668960391693052e-01,5.128983959255524194e-01,1.388957026994319666e-03,3.476370215494437033e-02,2.191486425900325205e-02,-1.983604255817239190e-02,5.883983373641967773e-01
6.890755100126337851e-01,3.852825852828111741e-01,-5.352081935562913451e-04,3.935890765458681106e-01,-2.225038799290795025e-02,9.193303565280318973e-03,9.082015752792358398e-01
3.265697010213480800e-01,5.976039392218300828e-01,1.517805065823041311e-02,2.704274506325008431e-01,4.274085812660653044e-02,-4.185247655893648000e-02,6.963837742805480957e-01
6.280140216087274352e-01,6.185650569518142960e-01,-1.140048730198978122e-02,-1.122096533695602413e-03,-2.289144123586070965e-03,1.469826573316611231e-03,6.347632408142089844e-01
6.282208005646854332e-01,6.202406794144444957e-01,-1.118010865419755140e-02,-9.265854269331761826e-05,-2.257024373372550595e-03,1.653722437825755299e-03,6.354669332504272461e-01
6.311846842133834734e-01,6.163283870053718472e-01,-1.191501601726052684e-02,-3.866634655159454878e-04,-1.271934225974068623e-03,-6.764060923135822899e-04,6.358069777488708496e-01
6.267831396462875126e-01,5.880936735437737317e-01,-7.538370401060423553e-03,2.712948341300426471e-03,-1.112561621149975657e-02,6.560527924934491870e-03,6.163129210472106934e-01
6.380710274400307469e-01,5.793688679467119407e-01,-6.323941628156026784e-03,4.014398674545510345e-03,-1.089434129692974304e-02,9.881356889278247388e-03,6.177060604095458984e-01
5.802973840175691400e-01,5.813909434599546788e-01,1.869316772694878948e-02,1.536838543952056527e-04,-6.035256039723495020e-04,-1.417762614949963492e-03,5.621581673622131348e-01
6.362157118364230035e-01,6.084847192293936224e-01,-1.162717101893562255e-02,6.703866558805840036e-05,-4.098876857151982633e-03,6.128135577210304559e-03,6.345605850219726562e-01
6.390224734146107144e-01,6.001258336868884324e-01,-9.091415180116857453e-03,3.705698787908696999e-05,-4.869628876552158417e-04,-6.993850766524030253e-04,6.295691132545471191e-01
6.090122555108482549e-01,5.796674543008902836e-01,1.311858577451363583e-03,5.071161264108254609e-03,-1.159917977451574260e-02,1.040286219945799279e-03,5.939798355102539062e-01
6.087666196711551958e-01,5.595179518504630467e-01,1.394567151953501893e-02,6.323989363687963772e-02,-9.014536119436521514e-03,2.398746979237515245e-02,5.838758945465087891e-01
5.957882997706798189e-01,5.910782966148498963e-01,3.096124741923833579e-03,7.150331701819693728e-03,-7.545271213639731869e-03,1.786956498669177917e-03,5.906338691711425781e-01
5.967571404912443978e-01,6.109631949704495968e-01,-6.688880059146973256e-03,1.486864073378055219e-03,-4.659284917335909139e-03,7.748627113935528665e-03,6.108791828155517578e-01
6.085450601403015192e-01,6.018571808770720732e-01,-1.546027413622363955e-03,2.378802522462986676e-03,-5.386168919035570074e-03,5.771921178712273448e-03,6.069428324699401855e-01
6.340711680285578966e-01,6.575295003655219350e-01,3.393963356641993556e-02,3.297252388663791250e-02,-3.626584567015862619e-03,1.014684914580777676e-02,6.151391267776489258e-01
6.122236356062570328e-01,6.164326090760551269e-01,-1.161858902243617653e-02,-1.674760870634556817e-03,-5.249552208694400514e-03,3.206173081240710002e-03,6.260547041893005371e-01
6.283712441313484831e-01,6.165951687831388028e-01,-8.012603686465613606e-03,-7.955154339611772169e-04,-2.585498149927828275e-03,6.893114525732814640e-05,6.305956840515136719e-01
6.097575169572938547e-01,6.166003717860203404e-01,-1.343815391867664299e-02,1.768931218559605589e-04,-2.087596616644455706e-03,3.277909710375974048e-03,6.266813278198242188e-01
6.081069647549333101e-01,6.099970477357128384e-01,-5.536144883172333664e-03,1.485643704744896371e-03,-6.185011128089164950e-03,7.419837950280313947e-03,6.148234009742736816e-01
6.992578671586671124e-01,5.425161742928803488e-01,-6.774839205513416562e-03,3.381180593061991133e-03,-1.853469405244768942e-02,-4.838828143827021699e-02,6.484401226043701172e-01
6.582613547714588620e-01,5.154302124184612088e-01,-1.350281237675388102e-03,-1.557229637319452673e-02,-9.005373096771464650e-03,-2.522845576440214260e-02,6.034528613090515137e-01
6.776879849412963397e-01,5.618211637306689266e-01,3.167491062561200721e-05,2.156071275310273913e-02,2.418515830231580954e-03,-4.692066508034482136e-02,6.341467499732971191e-01
6.597550759784844843e-01,5.690519455396274573e-01,-9.118167001762489399e-03,2.504738164104721408e-03,-2.575666383036654913e-04,-1.581276955601178605e-02,6.290617585182189941e-01
6.559602858827242589e-01,5.595314434669694803e-01,-4.528431625567819196e-04,-6.000688239984232689e-03,-8.502866887057836456e-03,2.064404355752720403e-03,6.141801476478576660e-01
6.866592053872593304e-01,4.405965695651709035e-01,2.088937952881908533e-02,6.576044108661858664e-03,4.204822634251074824e-03,-2.090049257028154736e-02,5.843530297279357910e-01
6.318548173477064323e-01,6.349041629912199891e-01,5.614865642383659594e-02,-4.812152230038677439e-03,-4.358771940730256714e-03,-6.179697050659958488e-03,5.774456262588500977e-01
5.938805282446989464e-01,6.198547899294410968e-01,-1.139941263838983865e-03,1.237904808636568037e-02,1.089113530930141752e-02,-1.150513231937575452e-02,6.094193458557128906e-01
5.952035008417830841e-01,6.556882803239988400e-01,-6.408936802613729444e-03,-5.370945779984098375e-03,6.992063641689516378e-03,4.495389314484981268e-03,6.342540383338928223e-01
6.257076456997949787e-01,6.316845361712625229e-01,5.540335364993842493e-02,-2.977731199114987907e-03,7.450823078366424976e-03,-1.122686055278169191e-02,5.738140940666198730e-01
6.249440853474667046e-01,6.302632580528746420e-01,8.889896345720960102e-03,-2.855165908815746837e-03,-9.948499339677353490e-03,1.840875360226920839e-03,6.189987659454345703e-01
5.150998418977043025e-01,6.701700404739772132e-01,3.671052913603145562e-03,1.115901384681925075e-02,1.840741406155728399e-02,-6.246815454358603005e-03,6.053268909454345703e-01
6.543299552630073013e-01,7.157913443031770351e-01,7.486993896496824119e-02,-1.872207210260021931e-02,7.702327054781163244e-03,1.886187739032364405e-02,6.143798828125000000e-01
5.707834997722496251e-01,6.302613076634655531e-01,-4.229223257329328689e-04,7.486401442199338077e-03,-5.760251871935454697e-05,1.165329755941466559e-02,6.036257147789001465e-01
5.192819154474267451e-01,6.651346948747026699e-01,-6.359567297892998461e-03,-5.619991188277871988e-03,-2.719582590455357773e-02,1.281481697632464714e-03,6.136422157287597656e-01
5.486843572205298836e-01,6.607655201226494412e-01,-1.588156665228324105e-03,6.900288115926891865e-04,4.257477356326420589e-03,-3.838938337309935264e-03,6.141149997711181641e-01
6.020305237172715040e-01,6.319983779504121379e-01,-9.692036092164235672e-03,-1.530039471293720161e-03,8.031898368122961031e-05,7.793854408792265029e-03,6.273944973945617676e-01
5.018218405888931199e-01,6.261889106312169551e-01,2.712900707345977658e-02,1.773346250337209384e-01,-1.562284031983980810e-02,2.115697766806916985e-02,6.294873952865600586e-01
6.255736827545193002e-01,6.326354290773678057e-01,1.653381404318088332e-02,-4.637632483267893624e-03,-4.256073886742033942e-03,8.881456956631621821e-04,6.127002239227294922e-01
5.104903830933840148e-01,5.584352962467151738e-01,-6.322982151517170246e-02,-4.397150072521995856e-01,-5.979560586394200294e-02,1.895673477694100398e-02,9.750964045524597168e-01
5.843287133414204471e-01,5.637236887941617924e-01,1.405849545056542249e-02,-2.427496674213593386e-01,-3.425850041696888032e-02,-2.938711105227382464e-02,7.048235535621643066e-01
7.441246817413995629e-01,5.146101121329571537e-01,-1.341381888134518530e-02,-3.267802709254015725e-01,6.449812549013404783e-02,6.328891106648887321e-02,8.930441737174987793e-01
6.331485229018782857e-01,3.701546362465740758e-01,-8.085580307517215015e-02,-3.636121410140972787e-01,3.561884024897378487e-02,6.716455759982087326e-02,8.973125815391540527e-01
5.291408270926871715e-01,4.321664600138369616e-01,-1.971421134355366700e-02,-3.717492040491511829e-01,-1.081155392948509458e-02,9.011606082417741165e-03,8.201266527175903320e-01
2.757606413292709169e-01,6.299848229993234572e-01,-2.418643129386516266e-02,-3.224123050178025474e-01,-9.399080300182093353e-03,-2.680883189099982750e-04,7.961192727088928223e-01
5.924244504212231588e-01,4.662969223656101558e-01,1.335935428405515824e-02,-1.820574624879234271e-01,8.170108740641258971e-03,2.324554779252973116e-02,6.159906983375549316e-01
5.424227607294345166e-01,6.592475703510654039e-01,2.064385885480857219e-03,8.221564547447277396e-03,2.064672098283792251e-02,-1.270164913425803066e-02,6.088744401931762695e-01
4.733019484419211942e-01,6.522906215010975117e-01,3.088153228696266517e-03,6.245497068008697833e-02,5.363169853130479031e-02,-2.928658876753040957e-02,6.001707911491394043e-01
6.289528867797802292e-01,6.253354942191462484e-01,1.058599998640452622e-02,3.057567517053666126e-03,3.357141365861769384e-03,-3.123529790568064027e-03,6.166400313377380371e-01
6.276627703484198850e-01,6.328544799402181509e-01,1.047363231341469358e-03,3.639457724630664089e-03,-5.796658529835992460e-03,-1.197194763578779148e-03,6.293424367904663086e-01
6.206807140587549121e-01,6.307590306630431742e-01,-2.580301231647319504e-03,4.097073246733544741e-03,-7.978377609911331547e-03,-4.338109244772881366e-03,6.285976767539978027e-01
6.663938888464977506e-01,4.141110365347481226e-01,2.057370775837075172e-02,-1.856137687045955054e-01,1.053144179704841935e-02,1.863935221799437048e-02,6.500257253646850586e-01
7.312844349495765117e-01,3.130563213778901344e-01,3.043064975702769459e-02,-3.025382569424315410e-02,8.986474480417240215e-03,1.018432958569277617e-02,6.134275197982788086e-01
7.434539401436175421e-01,3.400299305563453944e-01,1.105077639211626828e-02,-7.558752275359510546e-03,4.667780403936586282e-03,-8.779484312414672850e-03,6.357392072677612305e-01
7.012055781553514500e-01,2.944656844466582157e-01,1.084604007333989095e-02,-2.377220481672918662e-01,-1.285717894249008633e-02,-6.628464750202541726e-04,7.288823127746582031e-01
6.931845801923559591e-01,4.593065554062385480e-01,2.054065596665266558e-02,-3.378459958072493191e-02,5.413296456468178093e-03,2.241426532014214462e-02,5.956940650939941406e-01
7.134428156436493085e-01,4.617934192118923198e-01,-1.336785754553332373e-02,-3.606561388578024413e-02,4.057690191465795557e-03,1.601120103747427983e-02,6.429621577262878418e-01
6.171764211180784665e-01,6.314135792330255459e-01,3.210294367320354336e-02,4.367589586917952453e-03,-1.877666462611601644e-03,3.418486964466279504e-03,5.924072265625000000e-01
9.440980403581771263e-01,1.787752167812686199e-01,3.703196158089672174e-03,-1.345499528228216723e-01,-4.746966251898714767e-02,-1.935556093564016339e-02,9.014160633087158203e-01
7.033259868312076168e-01,3.065843158746298647e-01,8.635652214995404030e-03,-1.345921954163590284e-01,6.355091648641822411e-02,8.853552913558600246e-02,6.740645170211791992e-01
5.165420521352828143e-01,5.904320346126696872e-01,8.061120995866821737e-02,2.067522616238186006e-01,6.713644599546771119e-02,-1.028513303677361101e-01,6.334058046340942383e-01
2.957898914230495668e-01,8.132942009132031469e-01,1.102474009567727675e-02,1.399020635221521203e-01,8.211821202838771872e-02,-1.869385133254640452e-02,7.591214776039123535e-01
5.774080702036682444e-01,6.263602413499027577e-01,5.632777107687725326e-03,5.380652537199298591e-02,1.993088911263268814e-02,-2.114551328269537872e-02,6.070679426193237305e-01
5.390704985409433547e-01,5.879912292715230304e-01,1.709396230154025531e-02,5.311934394598081394e-02,1.107600099204623760e-02,-1.506006689005987519e-02,5.566881299018859863e-01
5.425191698693918596e-01,6.465717720697228277e-01,1.388305943096740380e-02,1.415932720340102313e-01,3.945143655619440248e-02,-3.642325938373398853e-02,6.434937715530395508e-01
5.933526511043684115e-01,6.249889142275750764e-01,5.393598588950887507e-03,1.350806435986528012e-02,1.176498178888662170e-02,-1.424844461832805269e-02,6.056973338127136230e-01
4.282650839379962826e-01,7.685484604798744623e-01,5.800887872674798107e-03,8.079251980180703063e-02,4.678604481262445963e-02,-1.387660078731625668e-02,6.817280054092407227e-01
6.172644895141805588e-01,6.169701567187498847e-01,-1.190449092017442645e-02,4.794298516949735737e-04,4.633608086089540008e-03,3.752061428447471189e-03,6.291071772575378418e-01
6.248564125898720123e-01,6.201578139648429300e-01,-1.359893611021517623e-02,2.305829525101238658e-03,2.644564590257240510e-03,7.662613438833308427e-04,6.361494660377502441e-01
6.241259336115395628e-01,6.151619144307167719e-01,-1.355413042793279788e-02,4.153223317080532019e-04,2.704579963875533132e-03,3.964268658456299643e-04,6.332637667655944824e-01
6.215614244966511936e-01,6.153637378529644986e-01,-1.382581357106055231e-02,1.709149003974295587e-03,2.973985805650722954e-03,1.291587349420527037e-04,6.323391199111938477e-01
6.250266379194531208e-01,6.170632961807008821e-01,-1.222305911527765687e-02,1.840560985723119431e-03,3.059129237973259429e-03,1.397854462721694101e-03,6.333404183387756348e-01
6.192719118515580545e-01,6.212368978348560278e-01,-1.235604642378818063e-02,1.564904301975452447e-03,1.437693135375633750e-03,2.547744512901176182e-03,6.326388120651245117e-01
6.303441863944136969e-01,6.200582039246043120e-01,-1.013000549987347343e-02,-5.394592183324110153e-04,1.292035171660309365e-04,1.200070768855633152e-03,6.353977918624877930e-01
6.293460897844167512e-01,6.165073676474345232e-01,-1.041596975530206803e-02,-3.208459622841841889e-04,4.054523157215277236e-03,4.132672803968426983e-03,6.335198879241943359e-01
6.297948560121152672e-01,5.787025377062997578e-01,-8.264458502559468567e-03,-7.291363500411233642e-03,1.122588439533669762e-02,9.487768950181076771e-03,6.147664785385131836e-01
6.242589036919277135e-01,5.858721217465071573e-01,-8.472649096279871728e-03,-4.299540756734025401e-03,1.263553916395479884e-02,9.052603045164061071e-03,6.150727868080139160e-01
6.209321100644324964e-01,6.144598136483484518e-01,-1.437586939786317242e-02,1.371899757545974943e-03,2.681596884362942752e-03,2.680964843967403323e-04,6.321184039115905762e-01
6.262882201335129295e-01,6.174645358824744079e-01,-1.114625420436232694e-02,5.232101602504990413e-04,1.090958115354789251e-03,2.284900441220642949e-04,6.330723166465759277e-01
6.278937817049106140e-01,6.195358480587489503e-01,-8.338768768002602361e-03,4.381179937787653758e-03,1.572142825775781202e-03,1.754457182468594769e-03,6.321537494659423828e-01
5.318478169964039326e-01,6.504353977159803568e-01,2.220937920304444368e-02,-6.125072916590096339e-02,4.417772042469041149e-02,3.376564132595829409e-02,5.956185460090637207e-01
6.156163942769962150e-01,5.891185685016466778e-01,-7.739083388896339510e-03,-4.801183474172897661e-03,1.330836221106600561e-02,1.096304604485057177e-02,6.113245487213134766e-01
6.236247355095725364e-01,6.167782621558629552e-01,-1.450469420731759218e-02,2.945557940053481185e-05,2.372413606190028161e-03,1.164697333119766275e-03,6.347503662109375000e-01
6.352682863314942363e-01,6.298148405165929775e-01,1.226354375357486814e-01,3.312285355545169143e-03,-1.841282541439601779e-03,-6.565957620036283471e-03,5.100970268249511719e-01
6.390231259671704800e-01,6.299952810937455849e-01,5.867758896241404010e-02,5.810243371980100026e-03,-1.835390395512297157e-02,-1.260709744683440048e-02,5.772624015808105469e-01
6.313000805901991530e-01,6.288985220109613028e-01,8.828805638116854482e-02,3.831844209276203512e-04,6.878454363194771125e-03,-5.299588313402114198e-03,5.420243144035339355e-01
6.362264950911595829e-01,6.198730301771788742e-01,1.244774303945626048e-01,1.198109821672086427e-03,-3.283401524253816602e-03,6.066537830102955659e-04,5.038089156150817871e-01
6.321674598908550990e-01,6.308015706061098626e-01,1.260739152831744092e-01,2.577799144020041528e-03,-2.114929446911699429e-02,1.335146236852119243e-03,5.067626833915710449e-01
6.390314243692698515e-01,6.285590582459816833e-01,1.001466866457944027e-01,-6.163845252447946923e-04,6.807954238976183202e-03,-3.956628312185854653e-03,5.339009165763854980e-01
4.416007966197250112e-01,6.848363810778208549e-01,2.187632227074409741e-02,5.234086715351111974e-02,1.654595579266898014e-02,-1.089876259431340685e-02,5.889146327972412109e-01
6.131640508089799546e-01,6.360341886092291119e-01,-9.535334830460262534e-03,2.208101551849033558e-03,-2.201178358185662369e-03,-1.418243801439399892e-03,6.344714164733886719e-01
6.191933551558990168e-01,6.167289333113779026e-01,-1.497059684560048121e-02,-6.777793459595203530e-04,-2.296986625417514211e-03,1.123855279905592187e-03,6.329519152641296387e-01
6.191682675631267063e-01,6.148553755635065565e-01,-1.485649541461225853e-02,-1.028148595540543959e-03,-2.931880820094605496e-03,1.426872960753099780e-04,6.319023370742797852e-01
6.208789029620186417e-01,6.155524990848466604e-01,-1.458068556930980364e-02,-2.312859642538640358e-03,-2.875538764700981756e-03,9.194958455849194042e-05,6.328455209732055664e-01
6.099617772097007951e-01,6.125819080114152104e-01,-1.251968003996700718e-02,1.197881027974496450e-03,-1.164719964996614558e-03,1.986205459726347270e-03,6.238118410110473633e-01
6.240984783583387596e-01,6.349136507743495805e-01,-7.568742715972076596e-03,6.524948024440717712e-03,-9.451758829569088111e-03,1.438078717652721940e-04,6.374541521072387695e-01
6.164124008206829375e-01,6.125462366507864465e-01,-1.336297591204999025e-02,-4.643833993525894248e-04,-3.005260122854065512e-03,1.450031094601491417e-03,6.278783082962036133e-01
7.445637724481442010e-01,6.178618187993417665e-01,8.137580688007900465e-02,1.761934884673364149e-02,-3.302718084525986530e-02,2.454443387580715341e-02,6.146994829177856445e-01
6.660076726351676912e-01,6.458968753842333488e-01,9.147809702480924621e-02,-4.747200317772701933e-02,-6.797992923936505526e-03,2.153997342161308171e-02,5.720365047454833984e-01
6.382469659944078888e-01,6.285118405690021115e-01,6.836315696157130306e-02,-2.291871898990674884e-03,5.707748129294927530e-03,-1.265854942249703373e-02,5.656046867370605469e-01
6.482038451152120073e-01,6.382057769137366998e-01,2.080361661746937818e-02,-1.440511427138454169e-02,-2.179242404786802673e-03,-4.544494478927414705e-03,6.230224370956420898e-01
6.423153887630177472e-01,6.256155715867510736e-01,4.917565575831522873e-02,1.410884044409046589e-03,-2.817969839499082150e-04,8.581508056146677429e-03,5.851627588272094727e-01
8.288180390183105262e-01,4.506211667491091810e-01,6.639658094599032445e-02,7.464823377520077297e-02,8.319378627620201139e-02,1.165040327591291558e-01,7.170594334602355957e-01
7.070760136930357431e-01,6.197745383359527516e-01,1.013996273216768440e-01,-2.599522579929912022e-02,5.570064031442540503e-02,1.055139745892281627e-01,6.052466630935668945e-01
5.985310669883830981e-01,6.379547409520930357e-01,-5.815842100462043085e-03,4.798458015343132384e-03,1.377815901171271402e-02,-1.057436807629857402e-02,6.257707476615905762e-01
6.249574953944593281e-01,6.287910268349065079e-01,-2.868815005083069636e-03,-1.288339036173945410e-05,3.571625118801661797e-03,-2.021256119117691326e-03,6.297919154167175293e-01
5.985097405945735138e-01,6.360744957359146801e-01,7.244550045165665253e-05,-2.019867462347504743e-03,6.804917960090382800e-03,6.877701830220497338e-03,6.183134317398071289e-01
5.198457210079213686e-01,6.729636592293126718e-01,4.739746526571053664e-03,1.110737565942649697e-02,1.799043475598876424e-02,-9.275390886750696853e-03,6.076598167419433594e-01
5.355370658187930122e-01,5.846639462702953871e-01,3.359905609621854916e-02,1.810872444178497631e-02,-6.512707945089603757e-04,-2.027602992263321299e-03,5.291609168052673340e-01
5.136701645202642608e-01,6.180427037793835288e-01,3.577975916962700120e-02,2.720166523473099840e-02,1.249990307073082021e-02,-4.152555907477338548e-03,5.402700901031494141e-01
5.799235479091772172e-01,5.845333021137656404e-01,2.389044360029241032e-02,1.300170897088510219e-02,6.454171321354071691e-03,-6.918647113612739000e-03,5.590464472770690918e-01
5.705475731473557133e-01,5.749714615755867619e-01,3.034852032508189579e-02,3.410925153248603459e-03,5.932663302035504104e-05,-2.051672313984539801e-03,5.424683690071105957e-01
6.002856730108536709e-01,5.542987459279636875e-01,3.626250264617925101e-02,4.170753105837087665e-02,3.441830607492381267e-04,1.736918470276582272e-03,5.472908020019531250e-01
5.953368494771080766e-01,5.261549083788016334e-01,3.218244063257669207e-02,2.175384762558697435e-02,-5.066801882100125699e-03,6.892947969538657654e-04,5.333545207977294922e-01
6.480010099077067043e-01,5.694109637783100197e-01,-9.402976705287779957e-03,-7.072245133322987640e-04,-9.623899576563575524e-04,-1.680581787462970614e-02,6.225291490554809570e-01
6.563358236920191491e-01,5.538893477451083402e-01,-1.086172284401221155e-03,-5.036837771592340106e-03,-1.079871120643668969e-02,-2.164429121317402657e-02,6.141496300697326660e-01
6.641253775329847286e-01,5.038186537352504768e-01,-8.251502197471061173e-04,8.841731551325189521e-04,3.861427119861421745e-03,-2.641979981441747866e-02,6.028287410736083984e-01
6.580524340389071192e-01,5.130071085492460270e-01,8.192784253132079364e-04,-1.042684815747468505e-02,-1.253067971014337409e-02,-2.582496156491862621e-02,6.003856658935546875e-01
3.400588879173385148e-01,6.952201381048627171e-01,3.186049493502729479e-02,-1.088280284117964930e-01,1.123872078586312870e-02,5.822412321565871053e-03,6.054726839065551758e-01
4.709157050014961543e-01,6.371049757750488762e-01,3.603886968511077482e-02,-3.980425582769411830e-02,6.988306909321314979e-03,1.009661650018410170e-02,5.424150228500366211e-01
5.682356665859129574e-01,6.024027059675074458e-01,-1.307894497834471981e-03,-1.169260932805935155e-01,5.222590451207917428e-02,3.907244407170535477e-02,6.314939260482788086e-01
4.022572024389753365e-01,5.316816077235632099e-01,-1.947884184712439515e-02,-3.768587781616536403e-01,-4.890116439677760470e-04,-3.429901005456867553e-03,8.217654824256896973e-01
6.464772858551148804e-01,4.858782031379343946e-01,-2.537415423308719831e-02,-3.849785050186993463e-01,1.429529523415103056e-03,1.771637753198236284e-02,9.026908874511718750e-01
8.371912714560112434e-01,3.033735763483510484e-01,-4.221137033732613730e-03,-3.163471658115249996e-01,1.307323206868241106e-02,-4.360020869677515808e-03,9.190058112144470215e-01
5.869650400885151331e-01,5.876084970945318897e-01,1.017681412354365378e-02,-6.897473925039021569e-02,1.931601202211373144e-02,2.293590215221028364e-02,5.916301608085632324e-01
4.764448804238919921e-01,4.885869242455941341e-01,-1.339056976189040293e-02,-3.282239406372864932e-01,1.791230758055239319e-02,-6.157521114193183556e-03,7.551840543746948242e-01
5.676411609053617635e-01,5.842447465773785709e-01,2.917933823398066728e-02,9.471113087892790716e-02,3.567901068981143425e-02,-2.446951952665965546e-02,5.759193301200866699e-01
3.841529184129348073e-01,6.417736644231133436e-01,1.940827554999025040e-03,2.831359616394567014e-01,3.282776925838853943e-02,-6.456817075923554361e-02,7.530991435050964355e-01
3.633150659678444638e-01,7.672729208660481470e-01,2.441316873148158262e-02,1.490999922924798708e-02,3.639417110733896704e-02,-6.395204215433335270e-04,6.477501988410949707e-01
4.098916129256579555e-01,7.131084546354755638e-01,3.655997186695691958e-02,8.652319244603728227e-03,1.376099034755659057e-03,2.310010524142063501e-04,5.871523022651672363e-01
4.399975616710052329e-01,6.937097288424292074e-01,1.207009578321699417e-02,-3.223291320565918085e-03,4.554940550816625328e-02,-3.223356512827681934e-03,6.019541025161743164e-01
4.310574254483781065e-01,6.461770564819400153e-01,2.019994809133973668e-02,8.388321463344662610e-02,-3.152527635209059070e-02,1.331355123504257380e-02,5.727881789207458496e-01
4.435353873700753624e-01,6.749222789296169811e-01,3.197858836994599274e-02,3.037285598458107708e-02,1.637101849028882103e-02,-8.702880756915897659e-03,5.674033164978027344e-01
4.799202088202356165e-01,6.615456382667626034e-01,3.473086761264682076e-02,1.137803176081920130e-02,1.321826233706690189e-02,-9.611856097468989696e-03,5.596684217453002930e-01
5.197668978448525268e-01,6.757738262895252035e-01,2.341590093022460906e-02,-3.738735020832846534e-02,1.895193258221523902e-02,1.303138091275416258e-02,5.949093103408813477e-01
4.986746750987927634e-01,6.636852379861657436e-01,-7.411390062585843097e-03,-5.698554754052963245e-02,5.896360302416483318e-02,2.773472843253648942e-02,6.239719390869140625e-01
5.324591903377705604e-01,6.391607384447335338e-01,1.827445151330980844e-02,-1.457077067931114578e-02,-3.352455067349837466e-04,1.370460082533853097e-02,5.760522484779357910e-01
4.467111710204044739e-01,7.072689655014979815e-01,2.682568354409731182e-02,-1.793209170676849512e-02,2.637559761211530698e-02,4.406040761888339700e-03,5.972508192062377930e-01
4.543936448424948926e-01,6.762920208780665021e-01,2.232140117349612485e-02,-2.757848306570681585e-02,3.229232990930207964e-02,1.452680114648857018e-02,5.812440514564514160e-01
4.797340323624603164e-01,7.232221869278931958e-01,3.926815596608124181e-03,2.723694710220432406e-03,4.317486873465214980e-02,3.386110107928205770e-03,6.381075978279113770e-01
4.663322622904772508e-01,6.559566122254271159e-01,1.696982886016051850e-02,-1.072998607823765077e-01,3.864564577890479413e-02,2.520511558634089613e-02,6.033408641815185547e-01
6.928806089792761691e-01,5.568781742021609027e-01,1.576910595819658312e-04,-1.079953481481680522e-01,-3.491995789692611124e-02,-5.640689351939185553e-02,6.725638508796691895e-01
7.955609590624980187e-01,3.379119778876253366e-01,2.612219797022913292e-02,7.034677104937152314e-02,4.552334936578776581e-02,-9.196849956405421522e-02,7.041189074516296387e-01
7.770922806896060075e-01,2.651490758051330277e-01,-7.209411854361524874e-03,7.977747793782177452e-03,2.244030829146186328e-03,-8.820041061463382293e-02,7.065699100494384766e-01
6.771829775922466599e-01,4.967552815700713720e-01,-7.873193340368067616e-04,-1.587504366172095768e-02,3.069364760990556367e-04,-3.239425045154178257e-02,6.113736629486083984e-01
6.969235680053811333e-01,4.472608693048012451e-01,8.543329217024553390e-03,1.761138647373333005e-02,-2.168795580599153228e-03,-6.928035379092252477e-02,6.161816716194152832e-01
9.159143785889879430e-01,2.832777555063983876e-01,-7.513418547582528806e-03,6.398052412078125695e-02,1.092663470929032370e-02,-7.850258577986811426e-02,8.365885615348815918e-01
6.977276337221782754e-01,5.254105587424962032e-01,3.957759666177007585e-03,-8.225443094585211876e-03,-2.594289017725000127e-04,-2.232201608953541735e-02,6.270242333412170410e-01
5.829141553856799218e-01,8.621686270830983823e-01,7.317226496773182598e-02,6.984856009022567813e-02,1.173616858312788863e-01,3.654571711847499210e-02,7.349367737770080566e-01
5.938450482969681588e-01,6.497099778047604746e-01,8.790161360039405736e-04,2.928723848744039506e-04,6.518649707503620418e-03,1.915178933558832038e-03,6.228919029235839844e-01
5.878436659268510001e-01,6.592301467063017562e-01,3.819906094757952175e-02,-5.139987824703722008e-02,4.487155419489560065e-02,-4.855597290414875866e-03,6.003993153572082520e-01
6.107983237416554356e-01,7.047531864359761755e-01,7.977443400819611563e-02,-1.055499446489736592e-01,6.042576474175147955e-02,4.670382474214959667e-02,6.258003711700439453e-01
6.893930280384007458e-01,7.219698617225258630e-01,9.362406588523447537e-02,-3.766149668858728705e-02,1.108878058928444016e-01,5.489833313649689073e-02,6.523765325546264648e-01
5.750840278061033484e-01,5.708665302054389823e-01,3.067268498477682126e-02,-3.879897899442640800e-03,2.126064689114030588e-03,5.269724013133717574e-04,5.423697829246520996e-01
5.764065869900889538e-01,5.796223695148657873e-01,2.605550743872481201e-02,-1.467028359405298660e-02,5.872004347115870881e-03,4.568582246844672158e-03,5.527008175849914551e-01
6.034761943517776839e-01,5.685210264234408228e-01,2.469611896334367174e-02,-2.695257534369474572e-02,1.398108206433200731e-02,9.507766630795029886e-03,5.648130774497985840e-01
5.699317213377478319e-01,6.062464034897073750e-01,2.086285896461154143e-02,-3.259475977823254877e-02,1.731540017687950225e-02,1.720349178680054963e-02,5.724589228630065918e-01
5.263877508323793197e-01,5.912354847474434738e-01,3.169899469163106609e-02,-2.128853825708156358e-02,1.169622692358739937e-03,4.811347968067609254e-03,5.314459204673767090e-01
5.239892127835387159e-01,5.952424407243973592e-01,3.303337133300809914e-02,-2.495335622795370051e-02,6.124684104120753283e-05,-3.466380602614018824e-03,5.319783091545104980e-01
5.794086229040060765e-01,5.706869559227294442e-01,3.022986824650869542e-02,-4.397622525065896480e-03,4.473398044677267486e-04,4.350802101295709852e-04,5.449245572090148926e-01
6.000877401279773871e-01,5.975656450772592887e-01,3.085283166939234434e-03,6.407319944016026886e-04,7.202614139419348874e-03,1.372535205757363218e-03,5.958818197250366211e-01
5.615952113365865195e-01,5.769556281256027486e-01,3.029647481676006615e-02,-1.398519733581346687e-02,6.350215447631411088e-04,2.860438754480361737e-03,5.397108197212219238e-01
6.604089957372349939e-01,4.778842009047834516e-01,2.037638728122853626e-02,1.183111695252377429e-02,-1.378545464805074235e-02,1.672260802151579601e-02,5.726816058158874512e-01
6.129372001623734079e-01,5.917079869204300291e-01,-8.179768400273235152e-03,4.131219653098774057e-03,-1.082804778489641212e-02,7.760846740447671990e-03,6.112567186355590820e-01
6.352267757661937964e-01,5.077615919671591982e-01,1.192236454660156042e-02,4.013892809098431463e-02,-2.335096388190694566e-02,1.002042373127489533e-02,5.762608647346496582e-01
6.225169131936180156e-01,5.245738092964324917e-01,2.530659928542194903e-02,1.071996128415624895e-02,-1.305620789162611171e-02,1.072798627513720481e-02,5.558432936668395996e-01
7.366217198297491109e-01,4.358934702519935422e-01,-4.970119836320008311e-04,6.058130468141055547e-03,-1.516215423106049599e-02,6.539220702678583130e-02,6.524854898452758789e-01
6.580193088641199672e-01,5.288930541446605904e-01,1.129298180607241076e-02,1.660033958994719949e-01,-3.426466704279932524e-02,5.910078489402744578e-02,6.693963408470153809e-01
6.224767568318787525e-01,5.600011106529154681e-01,5.895267971093853809e-03,6.339931417984301723e-03,-1.753912999411032930e-02,1.289440134375731233e-02,5.891492366790771484e-01
8.029919414495798602e-01,2.179774340442451885e-01,-8.825459450192063571e-02,2.169442230713454212e-01,1.439048210612271957e-02,7.873386195525654274e-03,8.701562285423278809e-01
7.802455788253006563e-01,4.655591210160758830e-01,-6.694483071683188236e-03,5.575096272242757722e-02,-3.553370536566186153e-03,3.792416661822871349e-02,6.959453821182250977e-01
6.158276208965920429e-01,6.146599386700792866e-01,-1.441693056714177246e-02,-8.769624918617738686e-04,6.578847252888046179e-08,-2.662418876907676410e-04,6.296635270118713379e-01
6.157224603188680145e-01,6.167454802679352976e-01,-1.477309652796171546e-02,2.756461354174845589e-07,-8.025792909608119637e-04,-1.002309621931742490e-03,6.310116052627563477e-01
6.120400303637735240e-01,6.148292256769871678e-01,-1.511340498617042005e-02,1.072280612072674553e-04,-1.926951902940766742e-03,-2.011325385510085286e-04,6.285616755485534668e-01
6.162775621055078812e-01,6.157766672282476428e-01,-1.497031341854987430e-02,-7.639465857575797499e-04,-1.300173445188091423e-03,-1.234971455585685786e-03,6.310065984725952148e-01
6.138300714979924022e-01,6.156380055820295238e-01,-1.473518311028143568e-02,7.616640697545651111e-05,-2.201624707057403194e-04,-1.621853966952501282e-03,6.294775605201721191e-01
6.113552029353672701e-01,6.161383459581584177e-01,-1.191874874784304428e-02,-6.531806558570209861e-05,-2.850678454115459799e-03,-2.375310253585144905e-03,6.257122755050659180e-01
6.169743846187285552e-01,6.234030644935442123e-01,-1.284118676091539069e-02,-1.931788008753480617e-03,2.677478957204645470e-03,-2.288395076165758522e-03,6.330926418304443359e-01
4.667825437694013702e-01,6.872101223542237403e-01,1.356148362572073829e-02,1.941965923175881584e-02,5.003074753905462774e-02,-1.122878478653775713e-02,6.024275422096252441e-01
6.157146079434047126e-01,6.261907620192730395e-01,-9.950256745491103949e-03,-2.724466999623867446e-04,-3.214650449689979801e-04,4.646647567395456959e-04,6.309691071510314941e-01
6.211352567323190632e-01,6.296890429111473564e-01,4.897614400762251297e-03,-3.635513678374603392e-03,3.706895591653424477e-04,2.852742479342402267e-03,6.206107139587402344e-01
6.209642805393138509e-01,6.246277894969196609e-01,-3.658493657806904942e-03,-2.358572711006861645e-03,1.614429398551209087e-03,-4.524522407014017547e-03,6.265311241149902344e-01
6.213983728418371877e-01,6.189679608490260554e-01,-5.725223415141478256e-03,-3.128401851779415773e-05,2.674509974358123526e-03,4.173271380360279179e-04,6.259294748306274414e-01
6.322716492622950657e-01,6.026669869412896174e-01,1.127456965025974700e-02,1.543032772938216987e-02,1.977146638759192873e-02,-2.308263480998186401e-02,6.096022129058837891e-01
6.137577840256424055e-01,6.259784571935482766e-01,-1.038420023220537614e-02,1.608031062990504956e-03,4.772639225603236141e-03,-5.189819332799458160e-03,6.304656267166137695e-01
5.000722090506678486e-01,6.214953572865284936e-01,3.529236415466052712e-02,1.761241620625828702e-02,-9.137324306393565521e-03,9.764169967705564612e-03,5.372764468193054199e-01
4.121354030102281074e-01,6.931347506532246072e-01,9.987362674101885052e-03,1.591465490217353063e-01,-4.270587939842890313e-02,2.081970041183520831e-02,6.606373190879821777e-01
4.697706354480845059e-01,6.390080672891671476e-01,3.190899081777603952e-02,6.609789470879039175e-02,7.109601638334219365e-04,2.117469319576628910e-03,5.546066164970397949e-01
6.357847027769188974e-01,5.035247156719804273e-01,3.583425342479379383e-02,7.057077258463234637e-02,5.896168739853725402e-03,-2.838443403792462530e-03,5.596007108688354492e-01
4.984600516415960136e-01,6.543459012459682533e-01,2.103344823605335367e-02,5.095767663592625646e-02,-6.447818143992389839e-02,2.836819551572880918e-02,5.910475850105285645e-01
5.475370420231595592e-01,6.292096295885210022e-01,4.304464278306829872e-03,2.927820359521782906e-02,-1.587481566005713440e-02,1.397983657962610649e-02,5.916529893875122070e-01
6.036384974767798894e-01,6.344330494339784909e-01,-2.638563794774839710e-03,8.613209480001262838e-03,-9.408592636992230140e-03,4.047579939340664214e-03,6.226776838302612305e-01
8.355148185845384656e-01,4.758676394420429112e-01,5.846405870218951417e-02,2.421378219337323445e-01,-7.337923555688972976e-02,7.897257409874154643e-02,8.151353001594543457e-01
7.761890470670538278e-01,3.062923190855089128e-01,2.662183239825727243e-02,-9.448105982939060052e-03,3.190979618436375065e-02,1.296413441266145161e-01,6.958289146423339844e-01
5.422551005980018601e-01,7.182973977188440440e-01,1.500929843730069990e-03,-1.853273754870756254e-02,-6.265694379399029679e-02,-2.133065603731810599e-03,6.568282246589660645e-01
4.102442704642611515e-01,7.492774480609454280e-01,5.671268126010303723e-02,3.439304045118963399e-02,-1.430653001930917434e-01,1.959742931839033447e-02,6.526031494140625000e-01
6.678621483592537267e-01,6.736881041689288807e-01,1.102561111266353033e-01,1.504968157348036094e-02,2.178838424307515467e-02,-1.625052007399415202e-02,5.631189346313476562e-01
4.329362879968708944e-01,7.167885499218162870e-01,4.381292592134511388e-02,1.325257862932572028e-01,-9.895088707850813181e-02,5.890035176230319636e-02,6.594797372817993164e-01
4.751344155955696258e-01,7.542216145370388425e-01,7.722535554508191957e-03,-5.102092948523553884e-02,-5.137349976687586445e-02,-5.345130509040326404e-03,6.653007268905639648e-01
4.473208962314865755e-01,7.018148807660413713e-01,3.739693301305374584e-02,1.562769537105445916e-01,3.514514728136616806e-03,-8.828959695995050594e-03,6.408326029777526855e-01
4.439501602716587891e-01,6.947070575419522775e-01,2.204118879896971306e-02,1.120554028186244305e-03,1.346420784744293934e-02,-6.480066236433410648e-03,5.893694758415222168e-01
4.139446136704468260e-01,6.898409909797698081e-01,9.512395747851065675e-03,4.586005188412851236e-02,5.025094356891914027e-02,-1.287132936485927900e-02,6.046879887580871582e-01
4.869120636919532785e-01,6.268340740769897668e-01,2.069123528727945249e-02,9.225573977559810290e-02,2.690037284776699081e-02,-1.360167691793084943e-02,5.748337507247924805e-01
3.107571576511727329e-01,6.444279796739960098e-01,1.321447154965527115e-02,2.653458560289339574e-01,3.028281257601266388e-02,-2.551326164143386671e-02,7.176896333694458008e-01
1.697009974901961538e-01,8.395337147243860931e-01,-6.259416698923414568e-02,6.798320354210318772e-02,3.190668915749650392e-03,8.542310671743239383e-04,8.198376297950744629e-01
3.047939391768212936e-01,8.753666523473560002e-01,2.765336287262359916e-02,2.473236634728844807e-01,2.881221037269817917e-02,-3.617139414610970327e-02,8.662629723548889160e-01
6.424844078899633049e-01,6.350873277785797910e-01,1.054859979977645912e-01,-5.831576650343678857e-03,-9.610782843609727219e-03,2.464653877178888362e-03,5.337107181549072266e-01
7.144488099416176352e-01,6.870170579198435767e-01,7.929373203651007840e-02,1.649602802312678113e-02,-6.776218419059515906e-03,-1.794343940382800429e-02,6.234349012374877930e-01
6.346478558326045238e-01,6.274251270860654595e-01,7.745436850360309933e-02,-1.860072469432619453e-03,3.342050509834622492e-03,-8.719958890243096131e-03,5.538630485534667969e-01
6.244374949239320793e-01,6.280735624625338742e-01,5.627902996028388838e-02,-3.662851469184381838e-03,2.575204888374000439e-03,1.345581986671832465e-02,5.705142021179199219e-01
6.251980386602912221e-01,6.288457714102287932e-01,5.920696756942206429e-02,1.585552817083850504e-03,-3.860710982117065027e-03,1.283060108600913088e-02,5.683044195175170898e-01
6.202948084254141792e-01,6.255342159286131354e-01,-1.297306513250290338e-02,6.611906310984187263e-04,-2.159374644135921180e-03,-1.584873800863411059e-03,6.359217166900634766e-01
6.164635172814344477e-01,6.236532714874317707e-01,-1.429862472097309656e-02,-1.309920058179693926e-04,-3.952454610597015000e-04,-2.012845628219264021e-03,6.343975663185119629e-01
6.155972808175587119e-01,6.237123778834832155e-01,-1.383260326782415062e-02,8.940635921215882602e-04,-4.988202054520246131e-04,-2.676014566375903205e-03,6.335458755493164062e-01
5.730049298369439548e-01,6.390073376882190459e-01,-8.140678012681978881e-03,-2.428646569190672910e-03,-1.411842895571076284e-02,-4.007459543165302340e-03,6.173389554023742676e-01
6.149457597724072855e-01,6.223990027595333041e-01,-1.347433497769690014e-02,2.173693281933051591e-04,1.084075271069051826e-04,-1.013757392607654616e-03,6.321822404861450195e-01
6.074895763349472677e-01,6.271158064576549673e-01,-9.965063574607080366e-03,6.146518563926000852e-04,-5.978246884449908705e-03,-6.142376520304633318e-03,6.276745200157165527e-01
5.885675004965182922e-01,6.246445623319722973e-01,-4.880366421497694951e-03,-3.470798133145620596e-03,-1.385305762010509770e-02,-1.404147325290489544e-02,6.132659316062927246e-01
5.655341926459622748e-01,5.759660566338105081e-01,2.461645416196595049e-02,9.897847144492256249e-03,2.687594499992221418e-03,-4.803877954693812520e-03,5.465605258941650391e-01
5.604099622726725904e-01,5.934430958774721265e-01,2.281653904318647896e-02,4.819207167961636618e-03,4.859278650389865957e-03,-8.207574912398755973e-03,5.551566481590270996e-01
6.676601712424479196e-01,3.736583978485344404e-01,-8.617077398419381584e-03,2.366910694838255669e-01,-2.025658491037971368e-02,2.220959320151448535e-02,7.181504368782043457e-01
5.834453175569737082e-01,5.954997980096029542e-01,1.032779003501027582e-02,5.200292185729378514e-03,6.723787878792888452e-03,-1.000132553052995518e-02,5.796847939491271973e-01
6.104362491405204150e-01,6.145712880500344699e-01,-4.716044524631257673e-03,6.284329309875267763e-03,9.657700350891595259e-03,-7.291717130653085216e-03,6.176819205284118652e-01
5.741621409294686007e-01,5.785057182769391959e-01,2.555349837270159963e-02,1.458216331666428505e-03,2.627077470082171337e-03,-3.900783031708241616e-03,5.508592724800109863e-01
5.893706033453396387e-01,5.770118207019656609e-01,2.735996723724426483e-02,2.902346536963573698e-02,7.017653961143953054e-03,-1.009593503979313786e-02,5.586085915565490723e-01
4.985391389364396408e-01,6.354683181131722813e-01,3.427121343102806916e-02,3.445821430757534110e-02,1.314464186039089773e-02,-9.249284266721670769e-03,5.497301220893859863e-01
5.969572093505108867e-01,5.439632620067474944e-01,1.407723352262618688e-02,4.671919091307568522e-02,2.836670753869260236e-02,-3.844978808147578309e-02,5.701451897621154785e-01
5.967030170043672310e-01,5.316113839884247794e-01,3.143290876628174191e-02,1.930418523102847908e-02,4.415571930223522422e-03,-1.011780326276190628e-03,5.367982387542724609e-01
5.945531789262648026e-01,5.374648913428214936e-01,2.192921150895038584e-02,1.915441330810473131e-02,1.004011190121481892e-02,-7.519250015305137258e-03,5.477589368820190430e-01
5.144427576825337800e-01,6.001329848380456689e-01,3.491737733496141916e-02,2.344053488802887858e-02,-7.889668994050571746e-03,1.101098065217213408e-02,5.296950936317443848e-01
5.998717672233486731e-01,5.342780592857898636e-01,2.266307543772311250e-02,1.737179756952278442e-02,-1.273384888206193985e-02,9.924838256943921064e-03,5.489065647125244141e-01
5.029319311602041820e-01,6.306525461109204755e-01,3.228852488881933658e-02,5.400626616594007834e-02,-4.409427070789911224e-02,2.007294695728868358e-02,5.601074695587158203e-01
6.385298177710053702e-01,5.016078227459271899e-01,2.270099862217034303e-02,2.149952206076394950e-02,-1.488209620999536055e-02,1.124647520080154957e-02,5.622302293777465820e-01
7.767375258375917024e-01,3.599411760740904298e-01,3.128521722769189717e-02,7.424894623551446526e-02,-1.281295772162183676e-02,2.035969059513969594e-03,6.601213812828063965e-01
6.161289147476941563e-01,6.266226376886392391e-01,-1.173899169469377890e-02,2.204240800560356014e-04,-1.439276780184295390e-03,-1.682225179382615832e-03,6.331917047500610352e-01
8.226916414260930788e-01,2.319793621734961842e-01,-1.019881314701795993e-01,7.030377065291422423e-02,-4.193463722272163657e-02,-3.584772725725707959e-02,8.256588578224182129e-01
6.245161498615413587e-01,6.273244785583770300e-01,-8.102298080111425271e-03,4.035304957796127974e-03,-8.786129078275103574e-03,-5.470757960289309579e-03,6.343191862106323242e-01
6.163713348720172291e-01,6.270517212475439361e-01,-1.233754844910939230e-02,6.027275207869899802e-04,-4.086972583179751366e-03,-5.907911420978947080e-03,6.342394351959228516e-01
4.651737451864804695e-01,3.954925213416278229e-01,-9.958793659594566972e-03,3.635635960438479142e-01,-1.382169635382912883e-02,9.772951956110284902e-03,7.712935209274291992e-01
6.230214504903638373e-01,5.577271249495453498e-01,6.496525865011093526e-03,7.568862244345445772e-03,1.739080151866233270e-02,-1.247866471328860916e-02,5.879260897636413574e-01
6.310258894412237307e-01,6.189185994552974801e-01,-1.176614947280557599e-02,1.235362787204080182e-03,-4.353934997561326599e-05,1.244395358182161584e-03,6.368319392204284668e-01
6.627830871224815734e-01,4.489141170165213968e-01,4.051379568458995939e-02,1.344955236352417607e-02,-5.436685809212453251e-03,1.050816578190536497e-02,5.484865903854370117e-01
6.927863068608710595e-01,4.282877324491297100e-01,3.980327666910554729e-02,1.937703315837004461e-02,2.730856268770565955e-03,-3.797218602087117892e-04,5.698968768119812012e-01
6.819560727583533488e-01,5.780726417134108841e-01,2.707617443217791298e-04,1.035637271006103616e-01,2.364366924350667920e-02,-5.765600413301864152e-02,6.696990728378295898e-01
6.258518540663186025e-01,5.184259959100661064e-01,3.711002114933714680e-02,1.581818408509346949e-02,2.660293385648115645e-03,-2.545258706010316511e-03,5.437853336334228516e-01
4.679979917068333162e-01,6.390853802843792231e-01,3.215907238766846366e-02,6.481918702592831538e-02,1.680180060945076761e-03,3.695777708793900659e-03,5.535765886306762695e-01
4.547706110651945077e-01,6.833725263990508836e-01,1.422436811544186552e-02,1.606543797495053882e-01,5.698515243663408378e-03,2.926646783745027406e-03,6.516150236129760742e-01
4.743000800287482943e-01,7.049043680936832867e-01,-3.627378212567533566e-03,1.453551408842660986e-01,3.858899250692004318e-02,-2.500121566314335297e-02,6.793614625930786133e-01
4.281224673208456899e-01,6.862672674284904240e-01,-2.452717674778170931e-03,9.844207264698573434e-02,4.622521690838712199e-02,-5.229453815710185388e-03,6.314660310745239258e-01
3.193510854269869248e-01,8.534640812677448674e-01,-9.497964156453131412e-02,3.257264313541934353e-01,-1.390142946218477470e-02,2.214213859981806892e-02,9.992946386337280273e-01
2.969426537938697486e-01,6.941099685451139756e-01,-9.482336473543323541e-02,2.399710058737571372e-01,6.885655359858439128e-02,7.736057264040066030e-03,8.086906671524047852e-01
6.320746580835303607e-01,4.253984947999829846e-01,2.569831657313892403e-02,1.441726943953415552e-01,-7.170529038926882689e-03,-2.588089906516107333e-02,5.912738442420959473e-01
3.535411130948323821e-01,7.247482938642528794e-01,-3.812453575301505415e-02,3.351529174065766004e-01,2.751318980933940145e-02,-2.114535424891518522e-03,8.808249831199645996e-01
6.164843251154968895e-01,6.167941734630404405e-01,-1.455655022100688090e-02,1.905232128773571047e-04,5.364235743638366130e-04,5.817254172611754318e-04,6.311974525451660156e-01
6.096581703442495170e-01,6.087168687610469142e-01,-8.157494442604884544e-03,1.020090908524344704e-03,4.730343024508314349e-03,9.297530373722478342e-04,6.174045205116271973e-01
6.453329527551092681e-01,6.077294961334868129e-01,1.077671432618393377e-02,-8.633357847388242398e-03,1.127527973791753006e-02,8.810569357952295275e-03,6.172941327095031738e-01
6.023944720376700479e-01,5.995687133472673569e-01,-9.164970929188553939e-04,-8.257698512146166570e-04,3.995021801682493469e-03,7.868649069883758632e-03,6.020988225936889648e-01
6.614165002828376050e-01,5.105148883158765472e-01,5.139406527710665973e-03,-1.486757942098027377e-02,1.448523036640355331e-02,2.123301432157868179e-02,5.975640416145324707e-01
6.179155106587171931e-01,6.103859143019637612e-01,-1.265295403561361720e-02,2.511647011532674545e-04,4.729366132308883940e-03,2.950273946290467644e-03,6.269120573997497559e-01
6.114207696779530021e-01,6.130966961438785168e-01,-1.147579160554884625e-02,-1.755696023200909676e-03,1.925847889795394329e-03,3.096264212008520596e-03,6.237756013870239258e-01
6.471785695399695504e-01,5.451505268752784295e-01,9.095472979895380394e-03,1.498839263669954000e-02,-1.455041965363297260e-02,2.127861836981006713e-02,5.959234833717346191e-01
6.483443555360529631e-01,5.706126752648279510e-01,-8.626755926692597498e-03,2.362972505751463788e-03,-6.355858348402434327e-03,1.273307473453361670e-02,6.222621202468872070e-01
6.226228470609993515e-01,5.297330110592359809e-01,3.277529228241476966e-02,-1.398938984359745542e-02,6.421276804134173379e-03,6.495242114047871870e-03,5.500865578651428223e-01
6.294734630980816092e-01,6.152684302205003730e-01,-6.008005508449043575e-03,-9.859104052278447675e-03,1.951919679371516905e-02,2.006758385861013433e-02,6.305982470512390137e-01
6.958727215677292799e-01,4.332074179703179206e-01,1.885989661624071223e-02,-7.232948553805745515e-03,7.297487791636319936e-03,2.515246374231930315e-02,5.930651426315307617e-01
6.594842705562344864e-01,5.581229535006353437e-01,-3.790782340105491866e-03,-1.407569549263136717e-03,4.811186529209826417e-03,-4.148517655991339377e-03,6.189543604850769043e-01
6.485266189085021615e-01,5.643205199812624251e-01,8.316440724184803734e-04,7.977227006509565385e-03,-8.805358946568609194e-03,6.323450840704999965e-03,6.104121804237365723e-01
6.386736123467586790e-01,5.689426182708647861e-01,1.128107707683234651e-03,3.021200762297955155e-03,-1.307459280326171355e-02,1.687049714766487624e-04,6.061437726020812988e-01
6.583103809220965941e-01,5.978418929363200629e-01,1.416146887640840069e-02,9.181859261772174581e-04,-4.503335589420006529e-03,6.976918191842143221e-03,6.163139939308166504e-01
6.633817779620623245e-01,5.106231115074667537e-01,-2.057117500395055920e-03,-2.095197797842073256e-03,-8.730568853958429977e-04,2.632776216771668884e-02,6.054646968841552734e-01
6.335706476652387398e-01,6.272243993535249196e-01,-7.638252369065401393e-03,1.481253714275446443e-01,-4.147530840116386147e-02,3.290601617787623778e-02,6.937955617904663086e-01
7.041644886545798121e-01,5.068404694983335013e-01,-2.580024929117519239e-03,9.505182912801113382e-02,-3.402907616951236780e-02,4.868889443662055561e-02,6.608004570007324219e-01
6.714287593037593371e-01,5.071508706792133836e-01,8.379958328263992229e-03,4.022488103691207462e-02,-2.326951081989942632e-02,2.457881509074894000e-02,6.049690842628479004e-01
6.186048383159670205e-01,5.967529721867976811e-01,-6.209512137363759621e-03,8.695432175373184192e-03,-1.590601945709673934e-02,1.233545520718307836e-02,6.153531074523925781e-01
6.708431978893840686e-01,5.066299822116362428e-01,2.298463901936576015e-02,4.949276658333463808e-02,-5.049733632195648955e-03,1.685101991642820249e-02,5.904038548469543457e-01
6.226326780157478424e-01,6.269877466259886623e-01,-3.876155962705130076e-03,-4.160676366681051279e-03,-6.382168725131090285e-03,2.839567398942752403e-03,6.288554072380065918e-01
5.241845427463458496e-01,5.940992738786881056e-01,2.298904232144094451e-02,-6.054641093400423696e-02,-2.183997559796653845e-02,-1.667768217108619999e-02,5.517145395278930664e-01
5.535130046294666206e-01,4.443756275050474991e-01,2.037803083688144445e-02,2.691547102131965352e-01,-8.990511733591578791e-02,6.305628948277949841e-02,7.010483145713806152e-01
7.488034351339627470e-01,3.874586230404991061e-01,6.029638013684501807e-02,1.396453990684217994e-01,-3.564155067520044518e-02,9.754864189063330859e-02,6.683444380760192871e-01
4.596129815465124224e-01,6.829708238686975630e-01,1.810093951436297921e-02,-1.727516607630381548e-02,1.938949276890791773e-02,1.077352168984824568e-02,5.880545377731323242e-01
4.732326765624060849e-01,6.384846384088141980e-01,3.121197519050777913e-02,-3.737270043748734671e-02,7.081738422711605918e-03,9.031389344715111400e-03,5.480151772499084473e-01
4.887983536055097167e-01,6.307987906198178063e-01,3.403015864408326374e-02,-3.034740184430567006e-02,-1.353562453438671371e-03,-6.428497345666117288e-03,5.426305532455444336e-01
4.770829040820763201e-01,6.653835235631223588e-01,4.102293776765814082e-02,-3.826743879259864728e-02,-6.153190482073971242e-03,-4.813853797579709624e-03,5.588309764862060547e-01
3.878446138956972988e-01,6.872578439046908017e-01,3.284076223281212625e-02,-6.812436183885434149e-02,-2.310338540489615625e-03,3.089638867637462330e-03,5.796000957489013672e-01
4.993082289364874082e-01,6.391278569280514077e-01,2.785003360824245267e-02,-2.759037333726408261e-02,1.650423439244846566e-02,1.156745924634134705e-02,5.578922033309936523e-01
5.054613019041573896e-01,6.483952824900363066e-01,1.703814380565232822e-02,-7.917452596192428582e-02,3.038033511106108878e-02,2.828452035011808779e-02,5.939480662345886230e-01
4.407403814372406470e-01,6.649410681678650237e-01,2.308080055064359870e-02,-4.302307536659259052e-02,2.090163944323713760e-02,1.290978376036186828e-02,5.707088708877563477e-01
2.130027951319429791e-01,7.374090147125095251e-01,2.514876339111959958e-04,-2.279797799234029310e-01,3.711997310795813604e-02,7.594824203901750538e-03,7.694570422172546387e-01
3.666109885462262574e-01,7.862560602141961397e-01,1.203940833757577433e-03,-3.113401432505480404e-01,7.363784222595264051e-02,2.500681142150932776e-02,8.785825371742248535e-01
4.086142632777126638e-01,7.507790449877222994e-01,-8.927880418160893949e-03,-4.528785172192390657e-02,9.060043237115279757e-02,1.003659757817138530e-03,6.819587349891662598e-01
3.251987300632788180e-01,8.633008532703021487e-01,5.809044523355677558e-03,-2.169395933163442980e-01,-3.952439683658304920e-02,2.418954386646050836e-02,8.432427048683166504e-01
4.808363787807655720e-01,6.539920229324918122e-01,2.257894283202083185e-02,7.751394904966568689e-02,-1.696828669130936995e-02,8.619211330893444475e-03,5.817598104476928711e-01
3.970857196003442224e-01,6.787414777348939054e-01,3.592496997306199313e-02,6.994771582287706568e-02,-3.088847196825006414e-03,-1.748256524359582563e-03,5.711444020271301270e-01
4.729349715297385126e-01,6.386083507504218826e-01,4.008171566394364005e-02,3.587991952283582642e-02,-6.151007644847024738e-03,5.784857610192035808e-03,5.390713214874267578e-01
4.998602678681349221e-01,6.336405777435096809e-01,2.318162340967994117e-02,2.695935249080733814e-02,-1.804805440886008555e-02,1.328593009301896714e-02,5.590859055519104004e-01
5.471492422265020750e-01,6.289775635397600873e-01,9.682513598692377155e-03,3.093436514631481282e-02,-1.446458644132074707e-02,1.603054128704807860e-02,5.863580703735351562e-01
5.234407637502258570e-01,6.218188793648578017e-01,2.258784346155645606e-02,9.484994437573640580e-03,-1.051801823470303356e-02,1.429673671093927359e-02,5.576915144920349121e-01
5.189187943377046031e-01,6.287944519133382704e-01,2.451132320866056258e-02,5.441786294085850656e-02,-1.931387387287696045e-02,1.292864048635887324e-02,5.668678879737854004e-01
5.630335225693333667e-01,6.586699860823883590e-01,-6.862558405600738265e-03,-1.702375432588024541e-03,-1.104261559504888905e-02,1.455414780495617227e-04,6.235425472259521484e-01
5.586789895093310365e-01,6.478404760536908835e-01,1.009354733695511097e-03,4.382173686512042150e-03,-2.259888165376959296e-04,8.065676163142503768e-03,6.073884963989257812e-01
6.154170638276484917e-01,6.310354530602073631e-01,-7.059085122415986735e-03,-1.053283186211429866e-03,9.957458281806021421e-04,-6.683028793024060193e-04,6.304365396499633789e-01
5.878769561478520700e-01,5.407017861106275802e-01,2.413786696307340662e-02,-2.116460551704144044e-02,8.384757209748605264e-03,5.659828358616163235e-03,5.432159900665283203e-01
6.217582826582858102e-01,6.291935715504795024e-01,1.795767910186413241e-02,-1.354849900909164311e-03,2.825821694900163081e-03,2.021704966773041432e-03,6.075866818428039551e-01
5.579003644865005995e-01,6.654108068118619324e-01,8.385629204479272403e-04,9.045720945327224635e-03,-2.223959778892542830e-02,3.998837088793377043e-03,6.193089485168457031e-01
6.090227768684197684e-01,6.351613391390875663e-01,-1.167352478749067446e-02,1.292569359443235298e-03,-6.297113621722073146e-03,2.875020924202410181e-03,6.342869997024536133e-01
6.082809535021981295e-01,6.349557064932973560e-01,-1.159862019598489891e-02,8.803613872847989262e-04,-4.960605032114122868e-03,4.851138116505972903e-03,6.337539553642272949e-01
6.206232207767288234e-01,6.318688700919522505e-01,1.719829097219066627e-02,-1.350506460027444322e-03,3.775791494430586880e-03,1.559552009836285289e-03,6.091712117195129395e-01
6.373158337787526717e-01,4.874911962941462229e-01,3.323661337334793409e-02,3.299000187982868704e-02,-3.108133051572727328e-03,6.849547386262579314e-03,5.479853153228759766e-01
6.211706937112615456e-01,5.228698534462011827e-01,3.554201731154327248e-02,1.567295496194650445e-02,-3.388343699970370552e-03,4.828796094049907402e-03,5.439646244049072266e-01
5.714691805773008948e-01,5.188346065787696748e-01,1.865600913419313001e-02,2.236818182769204910e-01,1.401993168521805701e-02,-1.704295392433993750e-02,6.563820838928222656e-01
6.484598155716305712e-01,5.238536262973256807e-01,2.161586680730431809e-02,1.523670929143637054e-01,-1.799130100881890515e-02,3.570748433284032936e-02,6.362348198890686035e-01
4.515766903131108179e-01,5.468402264512283173e-01,2.078132125634013505e-02,1.800952229910605107e-01,5.473161228293587852e-03,-3.298572278359608416e-03,5.771691799163818359e-01
5.976939229245359364e-01,5.254930116162100928e-01,3.252961612586996454e-02,1.897365717655594836e-02,-3.721062421972025705e-03,6.519468326304314349e-04,5.337987542152404785e-01
5.970192751210362525e-01,5.270673186848595648e-01,3.551624342062587036e-02,1.697278753152105593e-02,2.019780373134022911e-03,-1.428638964540773076e-03,5.308326482772827148e-01
5.205735571419172203e-01,5.956746864780331219e-01,3.202911465636321120e-02,2.048692889702224962e-02,7.555992655669940307e-03,-3.039686946852121225e-03,5.314736366271972656e-01
6.521378754762114927e-01,5.760884992824563122e-01,4.773566497721537516e-03,3.086653673836742273e-02,1.618640434736669936e-02,-3.227187008164977139e-02,6.183858513832092285e-01
6.407408959571349039e-01,5.077583328232735393e-01,3.335339119783475859e-02,6.459064100545083842e-02,1.094232661206555497e-02,-1.205820429487539612e-02,5.649276375770568848e-01
7.284971046640009718e-01,4.378071615987551568e-01,1.437578868980216029e-03,-9.337422917968543623e-02,-2.217931921687607902e-02,-6.270875097822252442e-02,6.642262339591979980e-01
6.185523150771183865e-01,4.987630826665668815e-01,3.095598611840116865e-02,-6.942388629255787091e-02,-1.289939693253653631e-02,-8.521477061699440220e-03,5.517311692237854004e-01
5.942716295889787226e-01,5.793942609463801352e-01,1.680458499287162955e-02,-1.607236135158370549e-01,-3.516809640453223001e-02,-1.838795781208809113e-02,6.382157206535339355e-01
6.314573853988424412e-01,5.007824703277082845e-01,1.897138275955057019e-02,-5.433910723202226012e-02,-1.270935687376598816e-02,-8.473677786085142064e-03,5.672183632850646973e-01
6.432401694673639536e-01,4.234764487171831515e-01,2.716890676506450442e-02,-1.868760831940611267e-01,-1.367064315479117956e-03,7.940962855308654825e-03,6.304066777229309082e-01
6.385509028392066799e-01,5.001307003285314634e-01,2.572324568040396109e-02,-2.790153564983324092e-02,-1.571535647300690772e-02,-1.950382919357905587e-02,5.604531764984130859e-01
4.414112321413757312e-01,5.622214045109316105e-01,-9.567706162854133778e-02,-2.899099472060573945e-01,-2.096959079214091165e-02,-7.797586323352882764e-02,7.997798919677734375e-01
6.523738515813475303e-01,5.282499774674025428e-01,8.886131865615820580e-04,-1.090799835011336226e-02,-1.267052850060368212e-02,-2.282436374284720765e-02,6.011458635330200195e-01
6.338593781009866923e-01,6.333164039300309689e-01,3.020471212307085374e-02,-3.425277570552791111e-04,-6.563205620519847218e-03,-1.027637264452415343e-02,6.037531495094299316e-01
6.354861007425320896e-01,6.622451073657411591e-01,3.615176396709413043e-02,-3.994933044944348581e-03,-2.445969188607732131e-02,-6.194594737294233794e-03,6.147463917732238770e-01
6.368162129607820576e-01,6.581119858986859139e-01,2.777847919528447784e-02,1.028073774124632286e-02,-9.476626366657506587e-03,1.380554521338443232e-02,6.208934783935546875e-01
6.309162782337960351e-01,7.400539189761192738e-01,7.136971241228129426e-02,-6.969659155848432694e-03,-3.636640700186171554e-02,-5.755372818739366153e-03,6.247268319129943848e-01
6.730017266304753054e-01,6.535628343718663524e-01,5.599177306624075756e-02,-3.515605522405834682e-02,8.835495452125482520e-04,-2.928914546413895897e-02,6.126735806465148926e-01
6.245023696333387164e-01,6.335571372971769977e-01,1.346403931488143746e-01,-5.542574729468303235e-03,-8.561100072249682238e-03,2.166306505715448038e-03,4.947812259197235107e-01
6.314919688600025838e-01,4.789531839490827614e-01,3.510951013489005401e-02,-3.007299768358686134e-02,-5.188533313803553836e-03,-5.038820539185009419e-04,5.392247438430786133e-01
6.357042960109442475e-01,6.263326915680109686e-01,1.162198232003693876e-01,-2.772209661836031163e-03,4.328364179070048195e-03,8.725141951404320403e-03,5.151613354682922363e-01
7.745806439826057321e-01,4.015198944521561897e-01,-6.763116206835950717e-03,-1.271849105551987880e-01,1.129021024072363738e-02,7.715879838689794490e-02,7.245374917984008789e-01
6.959954354060011728e-01,4.495453058254501588e-01,2.299376842185452130e-02,-2.015657939113969788e-02,5.553295394184939657e-03,2.552658672525701111e-02,5.925147533416748047e-01
6.021491338717983588e-01,3.475303268105478516e-01,1.060845404197502395e-02,-3.165494054398821921e-01,8.805357885694383921e-03,3.363554920820317068e-02,7.539038062095642090e-01
7.225302109631670522e-01,3.979101427232600852e-01,3.799643189814289057e-02,-2.040735468091059955e-03,2.333083434696308148e-03,9.549305936189212210e-03,5.933411121368408203e-01
7.254529825163394952e-01,3.205079499266039744e-01,2.690652039421503883e-02,9.068809695407950566e-03,3.832810627110920347e-03,3.142475101298171716e-03,6.077788472175598145e-01
6.945782016737422904e-01,3.260879491806562558e-01,2.141092429815855125e-02,-2.025939078095780610e-01,9.724182876783175195e-03,-1.691534271506549975e-02,6.820253729820251465e-01
6.966633406242691562e-01,4.193026166271319188e-01,4.067935586660959002e-02,-3.031471189826544666e-03,1.324206503364917797e-02,1.130259718958710226e-02,5.711712837219238281e-01
7.182653552941815622e-01,4.186376887588518780e-01,3.526564489505074063e-02,7.097879825535816437e-03,6.104236577039414378e-03,2.164546698057293658e-03,5.932088494300842285e-01
6.374895070684298837e-01,5.001548496842258551e-01,4.058900847338486884e-02,6.999947471462204807e-02,2.945254082706471894e-03,-3.868990438675351355e-03,5.549293756484985352e-01
8.025453855374506951e-01,2.939525435803234110e-01,2.428422683911762858e-02,6.907875153372599296e-03,1.282556166425720444e-03,1.221690346479353990e-03,6.846105456352233887e-01
6.385393717134842939e-01,5.128362740346961157e-01,3.855972012319364151e-02,-6.826897479190949247e-02,4.509778368566902569e-03,8.513198779393871957e-03,5.609081387519836426e-01
6.850521326348796292e-01,6.315469052850956055e-01,1.470750795423604873e-01,-5.555625392065157049e-03,1.663944957742061886e-02,-4.574192297983238273e-03,5.142796039581298828e-01
5.909122440563834289e-01,5.675657129707875059e-01,2.704875323822969468e-02,-3.318616193481582072e-02,7.687702050628658634e-03,7.979872661128192823e-03,5.558733344078063965e-01
6.257818784004508528e-01,6.272165690781482672e-01,6.501414210388511972e-02,-2.661264174624810696e-03,-5.971224587674231130e-03,2.660435624807189550e-03,5.616195201873779297e-01
6.320176700038346862e-01,6.166923166218434282e-01,1.401242265366269835e-01,4.063245022689623669e-03,7.655464250096700139e-03,-2.015461393269275727e-03,4.846577346324920654e-01
7.095303439245413957e-01,4.110389117250012325e-01,3.639099312693794275e-02,2.660848380873962523e-03,2.008316709883783708e-03,-1.069210333179365950e-03,5.842295289039611816e-01
6.962680055914054478e-01,4.136564657874955975e-01,3.657136668458987883e-02,2.507086942253944004e-02,1.123574671069715218e-03,-1.165777227321538462e-02,5.752636194229125977e-01
6.709093008258257829e-01,4.205157793900524132e-01,3.807202455264407925e-02,5.014039814573187370e-02,-7.979740450093392168e-03,8.653667324079685266e-03,5.591774582862854004e-01
6.196419022036119273e-01,5.305507158995074191e-01,3.575529026744261873e-02,-1.326007998070557331e-02,-6.731875899445590936e-03,-5.571833368486515600e-03,5.455256700515747070e-01
7.213327347973261805e-01,4.014757104360669460e-01,4.024046348782645000e-02,-4.088341064408728895e-03,-6.210988643402525237e-04,-5.051898664864868001e-03,5.903142690658569336e-01
7.270674085819333055e-01,3.355339215812073173e-01,3.369468473928327601e-02,1.259428490707409712e-02,-2.581516802300666395e-04,-4.864127284569546954e-03,6.026048660278320312e-01
6.379461483451613901e-01,4.338255574632210454e-01,2.019543238922971717e-02,1.092434553180228612e-01,-1.671244259270690188e-02,2.714408622909795371e-02,5.796863436698913574e-01
6.355425426378555898e-01,4.717647818196288867e-01,4.100700987027056099e-02,2.786439560293768603e-02,-3.139651791326295537e-03,5.156587759699436842e-03,5.341933965682983398e-01
7.893571826072875997e-01,3.595239140889487373e-01,3.313358135922439551e-02,6.872457328765450846e-02,-7.745573164036273668e-03,-1.479362469206829114e-03,6.677847504615783691e-01
8.735997448626554585e-01,1.267725964240201120e-01,-1.253093769469093566e-02,-4.128631362020152018e-02,2.728891368755698502e-03,-3.285809585475580469e-02,8.304016590118408203e-01
6.188668534772446828e-01,6.194907930103994431e-01,-1.508942118428929779e-02,1.239906881437745096e-03,-1.172978303139704829e-03,-1.852685324821355542e-03,6.342834830284118652e-01
6.154809882125633624e-01,6.274448199697107986e-01,-1.289827198122750485e-02,1.766271359444768251e-03,-2.476231418420332848e-03,-5.010451163137845214e-03,6.345270276069641113e-01
6.153466340798636747e-01,6.157658058152175595e-01,-1.504997631206922426e-02,1.389333667444137476e-03,-5.128800464337610878e-04,-1.654037383958923812e-03,6.306180357933044434e-01
6.174191745971837619e-01,6.188750879665527727e-01,-1.541370638914668634e-02,4.817403250712026818e-04,-9.206446546292009750e-04,-1.925123335869536765e-03,6.335734128952026367e-01
7.505142398568820372e-01,5.326743735244106048e-01,1.580726234330143143e-03,5.161461438878547220e-02,1.215441707870578390e-02,-4.214770517126172761e-02,6.774752736091613770e-01
7.322297950899101515e-01,3.486570881733306315e-01,6.718583670769784355e-02,3.230838991417550599e-02,1.883525942674867462e-02,-1.206627505807691264e-01,6.182176470756530762e-01
7.274489156597421236e-01,5.568018744297524858e-01,2.879335308760999634e-03,-4.632745774526883346e-03,-2.635129047896199103e-03,-5.783849041704939437e-02,6.637747287750244141e-01
7.200958491044364695e-01,5.543135806664887255e-01,1.134769641401177642e-01,-2.672546251523333360e-02,1.251834640181848438e-02,-1.095704732443034679e-01,5.775235891342163086e-01
6.452849356252052804e-01,6.459064627842407980e-01,7.231144625642454971e-02,-2.378184852262373375e-02,7.594220361072279331e-03,2.907389997298762824e-02,5.771141648292541504e-01
2.205380395884854461e-01,9.433181544451073597e-01,4.259800361812726699e-03,1.490878936606024607e-01,-8.542820962023318226e-03,-5.444625357078643202e-02,8.951551318168640137e-01
6.726003934549633634e-01,7.283457820826316764e-01,6.203810622063971048e-02,3.845753736665147218e-03,2.204876842248141081e-02,2.369290953654681897e-02,6.427416205406188965e-01
3.532870067383528379e-01,7.845399013793945553e-01,1.711348203967222315e-02,6.105319500502913964e-03,1.930981485727126246e-02,8.297197577163243493e-03,6.673862934112548828e-01
4.745928786740567507e-01,6.932111602957722329e-01,4.074988914250676775e-03,-2.413891537860884604e-02,-6.369629479746435896e-02,-2.437991072718248553e-03,6.212748289108276367e-01
7.553797987011580117e-01,7.081922127649749044e-01,6.769375644100650291e-02,-2.382086985978639285e-02,4.095063263299532352e-02,3.224229164143332504e-03,6.704124808311462402e-01
4.131996531250559657e-01,7.495072885996427736e-01,1.055873895744136037e-02,5.313585916720819230e-02,5.109296421776177155e-02,1.197254478215028714e-02,6.537320017814636230e-01
3.241731914758287370e-01,8.804599768196761378e-01,4.417456662103746989e-02,2.562369373832811686e-02,-1.156025514600780985e-01,-4.923352282443363426e-02,7.700306177139282227e-01
4.223663656590323501e-01,7.096249417599016507e-01,3.604577643965595213e-02,-1.443244841419875218e-02,-9.157389920656783602e-03,-5.084879504012916954e-03,5.862499475479125977e-01
7.825921617111900597e-01,2.655445748658445404e-01,-1.079179873970267933e-01,-1.491544773121376843e-01,-5.578489100128253969e-02,-1.949638521455093407e-02,8.228777647018432617e-01
7.873860222282970112e-01,2.302108036792649970e-01,-6.209537066883541456e-04,-1.495495901638942970e-01,-2.326431792085848979e-02,-9.528996375671328761e-03,7.492213249206542969e-01
6.233499836619742496e-01,5.079660815844941890e-01,2.476746258104345344e-02,-5.988935667000911539e-02,-1.717453051162640479e-02,-2.063879569187722710e-02,5.616677403450012207e-01
6.320571792887609286e-01,3.490099216725846554e-01,4.969018887035103749e-03,-2.512092686814726417e-01,-9.019703383149797055e-03,-9.508161660613741878e-03,6.969169974327087402e-01
6.252596508873629055e-01,6.322970844665234402e-01,5.351019415339386409e-02,2.535549935828329982e-03,-1.081667902951626882e-02,-5.216996421161392873e-03,5.756931304931640625e-01
6.350428216181929209e-01,4.949723809110767592e-01,2.247133662494726902e-02,-2.335765968106985960e-02,-1.455535935795313797e-02,-1.638571456725644582e-02,5.586932897567749023e-01
6.908556368241556278e-01,4.856552327312634310e-01,1.799223943977779072e-02,1.040463164559799966e-02,1.741597762853849644e-03,1.595187463061294847e-04,5.975905656814575195e-01
6.570239487021340974e-01,4.880407241541786512e-01,2.370207136154139915e-02,-1.054040746328123966e-02,-1.476871322769593084e-02,-1.579869881227632597e-02,5.695328116416931152e-01
6.824374354248331498e-01,4.481101666641315040e-01,3.176118926507837115e-02,-1.705136182655150184e-02,-4.436837760038842525e-03,-9.656421846090860019e-04,5.716220140457153320e-01
5.529403325941339986e-01,5.808114588387935928e-01,-9.377364578408153850e-03,9.885082321882766865e-02,4.930888756012932056e-02,-4.088005112227449667e-02,6.117781400680541992e-01
5.940999444058763235e-01,6.037282105739804061e-01,3.201992434465172899e-03,1.111520948020199885e-02,1.231207564824388784e-02,-1.173993408649659162e-02,5.968092679977416992e-01
6.140695455848073081e-01,5.770392036792832968e-01,2.003179962687579030e-02,6.406679422347635877e-02,3.026595629950935493e-02,-2.936369584472151711e-02,5.915260910987854004e-01
6.168214693263790460e-01,5.804288590223495303e-01,2.680577612550272271e-02,2.459031056499675350e-01,4.774685876457349099e-02,-7.505579413689203450e-02,7.301473617553710938e-01
4.382547022665632119e-01,5.631855062624540054e-01,1.169630569195173608e-02,2.660621718265394064e-01,4.626964584485150633e-02,-2.444101638147895203e-02,6.866090893745422363e-01
4.358528623534742574e-01,7.847674697663455934e-01,2.703207143140340385e-02,2.289152894472065713e-01,9.978385818350615777e-02,-3.472271943437778979e-02,7.888050675392150879e-01
5.753240935842930392e-01,7.269713067447829413e-01,7.572793966127777665e-02,5.420683116551497371e-02,7.345314081735744571e-02,4.908226098031243621e-03,6.110884547233581543e-01
6.215101581942961140e-01,6.464259061065104062e-01,5.471027234372782821e-02,2.535735760235213656e-03,1.265522983104966012e-02,-1.403527448981456947e-03,5.800955295562744141e-01
5.986176942187220185e-01,5.978395830986323878e-01,8.125210911801195035e-02,-1.346527908290275077e-01,7.422614980916956984e-02,9.923569048549579774e-02,6.064082980155944824e-01
6.425755509993557046e-01,6.322599672309818786e-01,6.283784295333472159e-02,1.923546813662078189e-03,1.394168619338714138e-02,-4.223610685700784385e-04,5.751666426658630371e-01
6.192386722746853200e-01,6.602054733622682026e-01,4.005178031447537146e-02,-1.368840463537443659e-02,3.936923696369819606e-03,7.596826669562514039e-03,6.013692021369934082e-01
4.967893880853765376e-01,6.344084091645855183e-01,3.638647465215955057e-02,2.952132917594321726e-02,1.059442841748660900e-02,-7.938684712944923255e-03,5.453534126281738281e-01
4.500585385899159019e-01,6.741807121339181696e-01,3.219946171596238527e-02,7.625872722612683785e-02,1.622963824875134700e-02,-1.212546339234222940e-02,5.806598663330078125e-01
4.044274686933010954e-01,6.931782972618494298e-01,3.720264332121375750e-02,6.210864928527039946e-02,-1.043414037933122936e-02,-2.049717234408951396e-03,5.798096656799316406e-01
6.813139704211261805e-01,6.450380341801917883e-01,9.117111090412938212e-02,2.986974964625654580e-02,-1.434008936951142177e-02,8.521960438296663151e-03,5.759235620498657227e-01
6.886495398218650532e-01,6.973448641175706841e-01,1.209842002712856468e-01,4.368868943889376091e-03,5.947197102765211475e-04,-2.230634926370571314e-02,5.734166502952575684e-01
6.259838554929001431e-01,6.283951258967966913e-01,2.208106772909262938e-02,7.629457597464148763e-04,5.226414012341766904e-03,1.118311561965029503e-03,6.051842570304870605e-01
5.977448514153083092e-01,7.277620819630421511e-01,1.044942076437904710e-02,3.419070742265421098e-02,-3.534127628409351740e-02,3.478803730820822365e-02,6.701220870018005371e-01
6.272177075222503673e-01,6.287058503656590691e-01,2.067981685623793142e-02,-2.378852032546111515e-03,1.752174307265768390e-03,-2.468873236210518494e-03,6.073199510574340820e-01
5.507420595913868899e-01,8.049828089166378708e-01,8.278835588242755561e-02,-6.798233262214081751e-02,-1.264800585398768162e-01,1.274809516927787566e-02,6.818620562553405762e-01
6.023836971812264185e-01,8.740468473483476997e-01,1.048086992104769188e-01,1.101903888793270975e-01,-8.504952356508836686e-02,7.758988698375373673e-03,7.175382971763610840e-01
4.344612240793979674e-01,7.665688645282884295e-01,4.771428269881472506e-02,7.279545900141698445e-02,-1.134116454078281100e-01,-6.910578189026092208e-03,6.655356287956237793e-01
6.384407936345519730e-01,6.846746427878345198e-01,8.484135188656038995e-02,8.113345037104868762e-02,-1.007338006679944081e-01,1.154217406812931522e-02,6.203179955482482910e-01
6.223965386100744901e-01,6.124218571582934478e-01,-6.244568029296682088e-03,-5.377593916407903511e-03,-1.052337758828301821e-02,-6.462864483191430032e-03,6.241497397422790527e-01
6.089504288272367116e-01,5.903039437990071914e-01,1.194134236027211138e-04,-1.082925433735598339e-02,-1.288523596478315277e-02,-1.260867112265260520e-02,6.008304357528686523e-01
6.104855845359895561e-01,6.090561220440957602e-01,-8.582788786997308517e-03,1.936398181473347182e-03,-4.941801417663992807e-03,-9.353892029321257597e-04,6.184253096580505371e-01
5.893334498684138500e-01,6.140551359357495631e-01,4.496699821261773700e-03,-1.095686199270353225e-02,-8.547854173833894023e-03,-1.408378078823934593e-02,5.985630750656127930e-01
6.118234877136615735e-01,6.137449510307042555e-01,-1.205546206329599634e-02,-7.058094391729405857e-04,-1.845834477390792235e-03,-2.594834309272535389e-03,6.248674392700195312e-01
6.115819922437515377e-01,6.122782879618450247e-01,-1.228136563489318211e-02,-4.848422268260171473e-04,-2.906598502971468115e-03,-2.267688459270701239e-03,6.242450475692749023e-01
5.990211376619515304e-01,6.114842936366526871e-01,-3.026400661862105324e-03,-1.444359422244682238e-03,-4.820207149620265794e-03,-6.722183028262868239e-03,6.085487008094787598e-01
5.516182132873680422e-01,6.241976777476639926e-01,2.690635988270684287e-03,-9.058411462259538527e-03,-1.376966156193655186e-02,-1.889904158642342902e-02,5.901835560798645020e-01
4.845860101277851273e-01,6.729291541739570448e-01,2.160486829004520937e-02,-2.636975470489835022e-02,-2.261402055988224330e-02,-6.439478092450813713e-03,5.837539434432983398e-01
6.030204273021416705e-01,5.713449404446933055e-01,2.520035895346361965e-02,-2.851067455265693384e-02,-1.578584049265725764e-02,-1.608607880560646367e-02,5.661616921424865723e-01
4.741084265716611901e-01,4.174457687419188545e-01,-6.605408487456054800e-03,-3.575367834855027183e-01,1.691032665478337318e-02,1.291105644464444861e-02,7.693591713905334473e-01
4.091420123915531226e-01,6.542471623407126735e-01,-2.343967848178474256e-02,-3.730439511948333564e-01,3.780487212330954812e-03,1.083550657253004590e-02,8.781297802925109863e-01
6.258044551489301277e-01,6.029971929776367645e-01,-6.327104214485346212e-03,8.423787381134846194e-03,-1.086273268518827759e-02,1.057637570708829140e-02,6.217682361602783203e-01
6.250209418739610667e-01,6.174165810871633520e-01,-1.206754962767969674e-02,8.259384050794038503e-04,-5.520812442754987129e-03,3.634302821352321938e-03,6.334256529808044434e-01
6.254922284481867489e-01,6.083694629188696190e-01,-1.307182908156800938e-02,1.423183597189256987e-03,-5.501283728841019696e-03,4.586332974507812375e-03,6.303040981292724609e-01
6.210560877491299037e-01,6.158172861348178984e-01,-1.437381573829710213e-02,-7.814679626126194885e-04,-3.968864124894337176e-04,-1.017233091842557685e-04,6.328285932540893555e-01
6.249754905769293600e-01,6.222888058114242060e-01,-3.721805331080130230e-03,-2.455720648952643137e-03,-3.778191773767019396e-03,5.273811055595325619e-05,6.274068355560302734e-01
6.212137931989272222e-01,6.213910544312126749e-01,-4.507306445424630326e-03,1.070685929722676544e-04,-2.427083678191198097e-03,-1.199365378728283523e-03,6.258273720741271973e-01
6.272761702822251539e-01,6.199417553194156438e-01,-1.114751674747088694e-02,-2.693594895455115549e-03,-5.088738279187488868e-03,3.970797394230301917e-03,6.349038481712341309e-01
6.268741902348591299e-01,6.191360922966641089e-01,1.700903806394715723e-02,3.528453747120449679e-03,1.857478711413599552e-03,8.515182056461831350e-05,6.060725450515747070e-01
6.151305447254657999e-01,5.905008543379020036e-01,3.636845230216567693e-04,4.685554333027741429e-03,1.174140986835260983e-02,-2.663489952095120846e-03,6.032446622848510742e-01
6.155571674882047706e-01,6.238288793649275910e-01,-1.306853588665385368e-02,-7.695389064608265965e-04,5.442577429830139021e-04,-2.839439023752258866e-03,6.328233480453491211e-01
6.036348241387896607e-01,5.362843076422942890e-01,2.092448705967342448e-02,1.683578773265802589e-02,1.296692991196127590e-02,-1.003439782455588757e-02,5.536229610443115234e-01
6.750009734557917973e-01,5.165258654516634573e-01,-2.735843219570377460e-03,1.510196799280710822e-02,5.853435638969693711e-03,-1.189922031159492549e-02,6.150194406509399414e-01
4.650342915100083019e-01,6.520821448671672016e-01,2.712969647786450667e-02,8.458693676596529265e-02,-3.308178522158716078e-02,1.760394629240363135e-02,5.782163739204406738e-01
5.982695364070719224e-01,5.861170535162513184e-01,4.009975332621873445e-03,9.862367012321271095e-03,9.800951579848614023e-03,-7.748816917784992486e-03,5.889231562614440918e-01
5.800806605917410153e-01,6.006583868536061743e-01,1.238977897315990395e-02,1.216197141873768227e-02,9.762103450436104488e-03,-1.133557212247359759e-02,5.792178511619567871e-01
5.694603952280746784e-01,5.835087894404271669e-01,2.568649734570721543e-02,8.292875219131948597e-03,3.172424868973273190e-03,-6.346375930143115761e-03,5.512566566467285156e-01
6.025405324232950832e-01,5.570587336199045447e-01,1.856184258886284244e-02,1.602352840489345426e-02,1.151549691972667162e-02,-1.468304404331193230e-03,5.636610984802246094e-01
6.387933618825440973e-01,6.244489035575522262e-01,9.167666957252462723e-02,3.905156420042571810e-03,-5.429407889228332271e-03,-5.413282740869977509e-03,5.402929186820983887e-01
6.366151867538036857e-01,6.624028738832731245e-01,1.265418049766438569e-01,1.172770800343909915e-03,-6.463230185428661071e-04,2.453121294135887989e-02,5.251706242561340332e-01
6.361181456201630002e-01,6.299554178483270928e-01,1.218062798698983928e-01,3.856806978336260044e-03,-2.794116077036053994e-04,1.883061957685865095e-02,5.123414397239685059e-01
6.347694900933853468e-01,6.283025349950077665e-01,7.892382253688090543e-02,2.394104174127211545e-03,-2.003919084616655969e-03,-8.520496068515980015e-03,5.528640151023864746e-01
6.359555727311823059e-01,6.272288092199863607e-01,1.013096807354680329e-01,2.045934605241142915e-03,-3.751567355710649226e-03,1.075709515141393298e-02,5.307151675224304199e-01
6.316630636254521036e-01,6.326978971500043514e-01,9.702594985189788579e-02,-5.926918485051764149e-03,-9.745043759591536263e-04,3.320903651988819320e-03,5.352873206138610840e-01
6.287396723528646536e-01,6.292459910108680887e-01,1.879055374484694951e-02,2.739540573039255314e-03,-1.212924427407511413e-02,5.099627855801884026e-03,6.106463074684143066e-01
6.930121910939108787e-01,6.923855688821716203e-01,1.151135748294782601e-01,-1.445534368687348067e-02,-1.651147639334199502e-02,7.914219362224361731e-03,5.789971947669982910e-01
6.256535357222771099e-01,6.248893114467892751e-01,6.121071897599822398e-02,1.679903510221338872e-03,-1.068423453017995108e-02,2.650187941751321052e-03,5.643907189369201660e-01
