sxx,syy,szz,sxy,sxz,syz,smises
6.997109043225840930e-03,6.997109043225840930e-03,-7.400221808644993904e-02,-8.681110541176896583e-52,-4.297184529600213285e-52,-4.297184529600213285e-52,8.099932968616485596e-02
