sxx,syy,szz,sxy,sxz,syz,smises
5.346899317723680101e-02,5.346899317723680101e-02,-3.469379863544690967e-01,8.144898181399835416e-52,4.098702477208910582e-52,4.098702477208910582e-52,4.004069864749908447e-01
