sxx,syy,szz,sxy,sxz,syz,smises
6.298321636043788252e-02,6.298321636043788252e-02,1.094181826637401211e-01,-4.033989031272786610e-37,-2.097674296261879991e-37,-2.097674296261818601e-37,4.643496498465538025e-02
