sxx,syy,szz,sxy,sxz,syz,smises
-4.589376691686045118e-02,-4.589376691686045118e-02,-4.482124661662791332e-01,-7.165362031470355925e-52,-3.260239724318890032e-52,-3.260239724318890032e-52,4.023186862468719482e-01
